# x y z rho theta phi s1 s2 stress_xx np intf bulk
-0.852982 -10.664611 -14.389054 17.930599 1.490984 2.502246 -0.012202 0.003925 -328232.000000 1 0 0
2.084818 -13.391911 -13.090854 18.843041 -1.416359 2.338843 -0.008555 0.006207 -862813.000000 1 0 0
1.999918 -11.073811 -14.718754 18.527566 -1.392123 2.488856 -0.010332 0.002724 -822602.000000 1 0 0
-5.684482 -6.252611 -16.483954 18.523747 0.832956 2.667883 -0.003515 0.001935 -1619890.000000 1 0 0
4.482018 -13.987711 -11.517054 18.665130 -1.260708 2.235767 -0.011610 -0.000480 -6902.220000 1 0 0
14.034018 -10.596411 -8.115154 19.367326 -0.646726 2.003154 0.017707 0.002756 582133.000000 1 0 0
7.036418 10.848389 -10.743754 16.811513 0.995396 2.264086 0.006540 -0.012238 -424560.000000 1 0 0
5.674218 -4.185111 -12.681354 14.509605 -0.635496 2.634165 -0.004492 -0.000332 2599260.000000 1 0 0
13.421918 0.612589 -10.259854 16.905258 0.045609 2.222955 -0.002411 0.004113 1259540.000000 1 0 0
14.002218 5.173589 -10.634354 18.328056 0.353926 2.189798 0.009042 0.006061 809489.000000 1 0 0
3.982418 4.387589 -13.443654 14.691576 0.833768 2.726450 0.001612 -0.002051 1442350.000000 1 0 0
10.116018 -4.998611 -13.815154 17.837556 -0.458939 2.456718 0.011109 0.001763 -475737.000000 1 0 0
2.416918 -7.540611 -12.020654 14.394389 -1.260622 2.559098 -0.007861 0.000165 1621880.000000 1 0 0
-5.700982 -2.021111 -15.136054 16.299884 0.340696 2.761415 0.005062 -0.000712 1368330.000000 1 0 0
10.491118 0.156189 -9.801054 14.357876 0.014887 2.322146 0.002695 0.001436 1481740.000000 1 0 0
-1.767282 -9.528011 -16.971454 19.543197 1.387398 2.622777 -0.005225 0.002789 790781.000000 1 0 0
8.370318 1.928189 -18.184654 20.111235 0.226411 2.700308 -0.000597 0.001361 -784073.000000 1 0 0
16.350618 -5.832411 -9.023754 19.564966 -0.342639 2.050166 0.005102 0.001450 -751907.000000 1 0 0
10.032718 7.669689 -10.029554 16.126733 0.652696 2.241990 0.013558 -0.002664 286422.000000 1 0 0
13.684218 -2.155611 -10.919254 17.639008 -0.156241 2.238316 0.002236 0.006988 -1092970.000000 1 0 0
7.069718 -1.799111 -13.801554 15.610913 -0.249192 2.655353 -0.001540 0.001005 837855.000000 1 0 0
-2.913582 6.646689 -13.692354 15.496709 -1.157672 2.654218 0.001720 -0.004074 2593660.000000 1 0 0
11.041818 1.798489 -14.110754 18.007490 0.161462 2.471243 0.005173 0.003302 1810690.000000 1 0 0
-2.441682 10.748689 -12.787554 16.882466 -1.347426 2.430189 0.003353 -0.005887 -1434970.000000 1 0 0
2.697718 -1.054311 -15.318154 15.589583 -0.372564 2.954715 -0.002728 -0.000974 125224.000000 1 0 0
-9.273282 0.419689 -15.219254 17.826822 -0.045227 2.593899 -0.001536 0.005546 -1335090.000000 1 0 0
2.249418 -1.831911 -18.116654 18.347450 -0.683456 2.982812 0.001895 -0.004925 738045.000000 1 0 0
0.926718 7.894289 -13.133854 15.351766 1.453940 2.597365 0.010102 -0.007557 -291664.000000 1 0 0
9.311918 -9.065711 -9.980754 16.386409 -0.772002 2.225706 0.006794 -0.000545 1016620.000000 1 0 0
3.884418 7.370489 -13.468654 15.837217 1.085765 2.587624 -0.003709 -0.003412 1846000.000000 1 0 0
-2.862982 9.113889 -15.342654 18.073645 -1.266424 2.584690 0.000008 -0.005775 66635.500000 1 0 0
5.323718 -7.618611 -15.212754 17.827313 -0.960891 2.593154 -0.000284 -0.004945 1193650.000000 1 0 0
4.100518 7.237389 -16.377354 18.368771 1.055317 2.671633 0.000570 -0.008599 -351870.000000 1 0 0
-0.303182 5.149789 -13.449754 14.405142 -1.511992 2.775344 0.007241 -0.006674 1043200.000000 1 0 0
8.492318 4.364489 -16.725554 19.259086 0.474732 2.622864 0.000810 0.001097 -900354.000000 1 0 0
5.207618 0.328889 -14.558054 15.464941 0.063072 2.797431 -0.001893 0.000795 770533.000000 1 0 0
6.268118 7.999189 -11.657754 15.465431 0.906139 2.424614 0.004709 -0.005890 -1658110.000000 1 0 0
2.573418 -8.306511 -15.080654 17.408238 -1.270366 2.618532 -0.005220 -0.003214 -635648.000000 1 0 0
3.991318 11.394589 -13.768254 18.312075 1.233870 2.421686 -0.008662 -0.009415 -2581750.000000 1 0 0
0.501518 -4.511911 -13.715854 14.447613 -1.460096 2.821960 -0.000941 -0.000990 1522090.000000 1 0 0
8.302718 -0.026111 -11.750554 14.387888 -0.003145 2.526461 -0.001090 0.001832 -563758.000000 1 0 0
-1.074682 -5.026211 -16.228954 17.023416 1.360153 2.834880 -0.003422 -0.004575 387955.000000 1 0 0
4.341018 0.914289 -11.875654 12.677205 0.207582 2.784086 -0.003684 -0.000812 153060.000000 1 0 0
-3.046482 -7.132411 -15.665654 17.480419 1.167121 2.681887 -0.009146 0.004454 1522660.000000 1 0 0
11.256318 -3.728311 -11.569354 16.566682 -0.319847 2.343887 0.009373 -0.001117 564049.000000 1 0 0
6.370318 -6.959111 -12.542354 15.694611 -0.829542 2.496677 -0.001174 -0.001303 -36689.300000 1 0 0
3.314818 -3.947911 -14.661354 15.541214 -0.872348 2.803489 -0.002053 -0.000112 4052170.000000 1 0 0
-0.700282 -1.497511 -18.410454 18.484527 1.133378 3.052038 0.001469 -0.001262 1558460.000000 1 0 0
14.733418 3.027889 -8.744054 17.398282 0.202690 2.097378 0.000830 0.003937 -242688.000000 1 0 0
6.819518 4.297889 -14.358154 16.466155 0.562354 2.630028 0.001366 -0.000573 2938360.000000 1 0 0
9.855018 -9.561711 -14.258954 19.795592 -0.770293 2.375045 0.007744 0.001184 63251.200000 1 0 0
8.901318 -3.210111 -15.637854 18.277876 -0.346116 2.597432 0.005315 -0.005270 -250011.000000 1 0 0
-5.445782 -2.148311 -18.083154 19.007163 0.375748 2.828502 -0.009302 0.011120 -878736.000000 1 0 0
4.849218 -9.041311 -11.151354 15.152984 -1.078501 2.397818 -0.011593 0.000365 1481110.000000 1 0 0
-2.732282 4.146989 -17.219654 17.921478 -0.988218 2.860810 -0.000074 0.007716 1106960.000000 1 0 0
9.090318 9.437889 -14.586754 19.608188 0.804155 2.409701 0.015556 -0.010097 -1184580.000000 1 0 0
9.734318 10.085789 -11.689554 18.251733 0.803129 2.265897 0.019045 -0.009242 885892.000000 1 0 0
11.941318 -5.875911 -9.791254 16.522411 -0.457280 2.205085 0.010198 0.000728 457066.000000 1 0 0
8.054718 6.899689 -13.753654 17.367993 0.708314 2.484705 0.011001 -0.006142 79740.300000 1 0 0
3.844618 -4.278411 -17.564954 18.482789 -0.838750 2.825126 0.005168 -0.008270 1211740.000000 1 0 0
9.217018 -7.416311 -12.437854 17.165527 -0.677559 2.381226 0.007823 -0.004431 -97491.500000 1 0 0
12.034518 -8.649111 -8.964254 17.320352 -0.623161 2.114789 0.011873 0.003060 -267989.000000 1 0 0
-3.023082 -2.409011 -13.856954 14.386019 0.672831 2.869549 0.001668 -0.002832 -583539.000000 1 0 0
-0.575182 6.214989 -17.502754 18.582339 -1.478512 2.799047 0.007573 -0.000907 1121840.000000 1 0 0
0.921218 -8.411411 -17.539954 19.474354 -1.461711 2.692104 -0.008122 -0.003740 552949.000000 1 0 0
-0.078982 8.644889 -15.912854 18.109645 -1.561660 2.643918 0.002332 -0.001468 819860.000000 1 0 0
1.634618 3.457689 -14.927754 15.409913 1.129186 2.890780 0.006010 -0.003717 2486940.000000 1 0 0
-2.037682 -0.382711 -15.867454 16.002334 0.185654 3.011664 0.005421 -0.002275 2179230.000000 1 0 0
14.062018 -4.155311 -8.718954 17.059517 -0.287322 2.107249 0.003060 0.003051 662736.000000 1 0 0
0.444418 0.750289 -14.633754 14.659713 1.036036 3.082073 0.001291 -0.003561 537008.000000 1 0 0
8.682218 2.837489 -12.610454 15.570992 0.315874 2.514724 0.002546 0.001599 669444.000000 1 0 0
5.659818 1.101489 -17.420554 18.350000 0.192213 2.821954 0.001757 0.006007 -1007110.000000 1 0 0
15.135018 1.614889 -12.565454 19.737459 0.106297 2.260916 0.001250 0.003043 -1379060.000000 1 0 0
8.647318 -11.214211 -12.016454 18.572286 -0.913925 2.274453 0.007124 -0.000854 282360.000000 1 0 0
-4.739782 0.807589 -15.090654 15.838105 -0.168765 2.833148 0.004466 -0.001292 906013.000000 1 0 0
2.184318 5.188489 -17.257354 18.152353 1.172324 2.826266 0.001736 -0.003912 2054090.000000 1 0 0
5.836718 -11.572211 -12.424154 17.953912 -1.103656 2.335056 -0.007973 -0.001527 140043.000000 1 0 0
12.696518 7.255089 -8.834854 17.084863 0.519142 2.114274 0.009248 0.002490 216363.000000 1 0 0
-5.231082 3.699089 -15.686554 16.944481 -0.615500 2.753842 0.000326 0.005204 1758840.000000 1 0 0
-0.819782 -4.324411 -19.130054 19.629863 1.383449 2.915449 -0.000594 -0.001477 -1047530.000000 1 0 0
9.682818 4.513289 -10.307854 14.845154 0.436173 2.338324 0.000559 0.000972 124338.000000 1 0 0
13.187418 3.642789 -13.056954 18.911953 0.269511 2.332849 0.007094 0.000102 1118950.000000 1 0 0
-6.496282 5.820389 -17.239054 19.320030 -0.730577 2.673187 -0.004142 0.013254 -726681.000000 1 0 0
-10.316982 3.082489 -15.350554 18.750503 -0.290335 2.529895 -0.003734 0.004421 206885.000000 1 0 0
10.565518 13.563689 -8.551854 19.202553 0.909019 2.032361 0.021634 0.001589 153131.000000 1 0 0
7.288818 13.359289 -12.420954 19.643766 1.071338 2.255328 0.005549 -0.008981 -995633.000000 1 0 0
5.171818 15.204589 -11.359654 19.671527 1.242925 2.186419 -0.008640 -0.005503 1037360.000000 1 0 0
14.149918 9.534689 -10.011154 19.782661 0.592948 2.101403 0.029031 -0.000285 -852814.000000 1 0 0
8.235718 -17.400511 -2.306654 19.388798 -1.128733 1.690047 0.002177 0.009748 -796165.000000 1 0 0
0.623418 -16.067311 -0.055754 16.079498 -1.532015 1.574264 0.007227 -0.006973 2090660.000000 1 0 0
-9.038082 -11.739111 7.636146 16.667465 0.914673 1.094887 -0.001171 -0.000789 542976.000000 1 0 0
2.021918 -16.013111 -2.637954 16.354409 -1.445195 1.732803 0.006449 -0.002441 1333560.000000 1 0 0
-1.315082 -11.018011 -9.511254 14.614717 1.452001 2.279434 -0.005443 0.004585 903272.000000 1 0 0
-4.923582 -12.593711 -12.891554 18.682489 1.198111 2.332332 -0.001541 -0.000202 2327760.000000 1 0 0
-8.405982 -17.650211 -1.687554 19.622394 1.126325 1.656904 -0.006946 -0.005669 -813701.000000 1 0 0
-11.445882 -7.072811 -8.830454 16.093781 0.553503 2.151590 0.015527 -0.004549 2526960.000000 1 0 0
-13.589282 -11.487511 -4.637254 18.388464 0.701780 1.825732 0.006429 -0.000392 -928118.000000 1 0 0
-5.546982 -13.463511 9.719046 17.506999 1.179987 0.982251 -0.004381 -0.000737 901809.000000 1 0 0
0.156418 -14.113911 -3.773154 14.610395 -1.559714 1.832008 0.004460 -0.003901 -89175.800000 1 0 0
-14.685582 -11.606611 1.916346 18.816273 0.668823 1.468774 -0.005890 -0.000696 1765780.000000 1 0 0
-3.959982 -16.419211 -7.504954 18.482324 1.334136 1.988936 -0.006673 -0.002980 -401758.000000 1 0 0
0.521318 -15.321711 -9.283154 17.922153 -1.536785 2.115273 -0.002029 0.005083 552275.000000 1 0 0
4.530118 -14.334511 -2.670854 15.268715 -1.264700 1.746624 -0.001619 0.003690 -566130.000000 1 0 0
-3.573782 -18.087811 -2.489754 18.604830 1.375729 1.705022 -0.005838 -0.004268 931539.000000 1 0 0
-0.941182 -13.542211 0.594746 13.587900 1.501408 1.527012 0.007256 -0.006567 2183530.000000 1 0 0
-8.429982 -11.280811 -10.512554 17.573704 0.929035 2.212047 0.006025 -0.010087 2168630.000000 1 0 0
-3.732282 -14.108511 -0.432054 14.600229 1.312179 1.600393 0.006513 -0.005655 3728310.000000 1 0 0
-1.577582 -14.945211 -7.297954 16.706533 1.465628 2.022871 0.000717 0.000867 -909561.000000 1 0 0
-14.294382 -7.851711 -1.813454 16.409367 0.502295 1.681536 0.001829 0.003063 2188200.000000 1 0 0
-10.685182 -7.274811 -11.699254 17.434693 0.597745 2.306397 0.006851 -0.006457 -571078.000000 1 0 0
-9.380882 -14.706911 6.927746 18.769333 1.003006 1.192757 -0.011058 0.001871 696779.000000 1 0 0
-2.588382 -14.383111 -12.316854 19.112261 1.392742 2.271097 0.001817 0.004295 551918.000000 1 0 0
2.362018 -17.836711 -4.842354 18.632654 -1.439138 1.833700 0.004070 -0.004322 -3540.550000 1 0 0
-6.539082 -9.595811 -9.208654 14.820205 0.972628 2.241271 0.002282 -0.005385 1645370.000000 1 0 0
-10.946082 -15.158311 0.556046 18.705622 0.945380 1.541066 -0.012357 -0.007362 919624.000000 1 0 0
-12.621182 -11.068511 4.183746 17.300575 0.719950 1.326548 0.001484 0.003207 2542920.000000 1 0 0
-17.125182 -8.871711 -1.452154 19.341351 0.477984 1.645947 0.000014 0.004730 10823.900000 1 0 0
-1.366482 -19.225811 -4.057354 19.696731 1.499840 1.778273 -0.000102 -0.004205 -230203.000000 1 0 0
3.210118 -14.142311 -8.784154 16.954975 -1.347592 2.115409 -0.009198 0.002255 1285270.000000 1 0 0
-4.404082 -8.029811 -13.131154 16.009404 1.069131 2.532583 -0.000570 0.001560 393722.000000 1 0 0
5.517718 -16.613911 1.145246 17.543627 -1.250143 1.505470 0.010710 -0.000286 3597210.000000 1 0 0
-2.778682 -13.812211 -3.287254 14.467353 1.372271 1.800017 0.005406 -0.005148 -505127.000000 1 0 0
-0.415882 -14.065711 3.606946 14.526777 1.541238 1.319875 0.004710 0.001720 -4247860.000000 1 0 0
1.130018 -16.238611 6.935946 17.693976 -1.501320 1.167997 0.005297 0.001489 2479050.000000 1 0 0
-5.575682 -10.407211 -14.665254 18.827319 1.078958 2.463762 -0.001239 0.002475 687589.000000 1 0 0
-0.278082 -17.382011 -5.983254 18.385075 1.554799 1.902274 0.000730 -0.000254 479549.000000 1 0 0
-6.474782 -13.329111 -1.304154 14.875780 1.118604 1.658579 0.004401 -0.007221 921030.000000 1 0 0
-1.798782 -17.729211 -0.236354 17.821796 1.469684 1.584059 -0.001100 -0.005862 1294140.000000 1 0 0
-9.490382 -9.718811 -4.871354 14.430964 0.797289 1.915123 0.014465 -0.008955 1973740.000000 1 0 0
-0.854382 -16.782311 4.817246 17.480898 1.519931 1.291612 0.000979 -0.003347 2193900.000000 1 0 0
-6.797282 -9.845211 -6.287354 13.515252 0.966532 2.054662 0.009214 -0.007530 1736420.000000 1 0 0
-5.986682 -14.445011 -8.594354 17.842691 1.177899 2.073360 -0.002510 -0.004422 -1105110.000000 1 0 0
-5.695582 -12.094011 -10.262354 16.852913 1.130664 2.225515 -0.002092 -0.006141 -255466.000000 1 0 0
-10.582282 -12.064611 -8.616254 18.214812 0.850759 2.063529 0.005757 -0.020993 -719904.000000 1 0 0
3.911818 -17.236711 6.683246 18.896357 -1.347630 1.209295 0.009764 0.002352 -1444530.000000 1 0 0
-6.635582 -14.408811 -4.104454 16.385705 1.139226 1.823983 -0.001587 -0.006511 -2606740.000000 1 0 0
-2.807182 -12.169911 -7.115554 14.374217 1.344096 2.088656 -0.000949 -0.000185 2140330.000000 1 0 0
-7.069382 -12.923011 4.406746 15.375298 1.070230 1.280108 0.000893 0.000044 1656330.000000 1 0 0
2.558418 -16.470311 2.239446 16.817603 -1.416693 1.437239 0.006388 -0.005451 2922370.000000 1 0 0
-6.163982 -12.082811 7.192946 15.353419 1.099066 1.083214 0.000241 0.000009 1371890.000000 1 0 0
-11.181982 -12.849311 -1.080154 17.067755 0.854669 1.634125 -0.001452 -0.001559 2199820.000000 1 0 0
-14.247382 -8.771011 4.673046 17.371122 0.551828 1.298429 -0.001679 0.002875 408596.000000 1 0 0
-8.046582 -15.618411 4.458346 18.126199 1.095064 1.322285 -0.009069 0.004323 969228.000000 1 0 0
-16.354382 -9.175011 1.287846 18.796414 0.511259 1.502227 -0.011278 -0.000197 -1260030.000000 1 0 0
-6.622382 -17.124911 2.321646 18.506987 1.201799 1.445018 -0.006578 -0.000449 1799180.000000 1 0 0
-11.631382 -14.739911 -4.818254 19.384777 0.902732 1.821988 0.005425 -0.011690 -238209.000000 1 0 0
-10.102282 -10.043311 -12.483654 18.941114 0.782471 2.290387 0.003939 -0.005552 -3724.840000 1 0 0
-4.377782 -16.057011 -4.555354 17.255255 1.304626 1.837961 -0.003540 -0.001085 -409100.000000 1 0 0
-11.835482 -8.237611 0.040946 14.420074 0.608043 1.567957 0.006931 -0.000561 2323470.000000 1 0 0
-9.604182 -11.232911 3.523646 15.193245 0.863404 1.336743 0.002288 0.000776 2099630.000000 1 0 0
-14.099482 -12.973111 -0.662654 19.171231 0.743817 1.605368 -0.010691 0.002353 78391.800000 1 0 0
5.557418 -14.985511 -7.208454 17.533176 -1.215667 1.994492 -0.008390 0.000482 317358.000000 1 0 0
-7.457782 -10.517611 -1.279754 12.956714 0.954005 1.669729 0.007492 -0.005728 1847760.000000 1 0 0
-11.733682 -8.237911 -6.116354 15.586926 0.612116 1.974039 0.014241 -0.004252 12741.200000 1 0 0
-14.454382 -6.492311 -9.286754 18.366357 0.422154 2.100919 -0.003005 -0.003938 2229860.000000 1 0 0
-3.926382 -16.430511 1.349146 16.946928 1.336226 1.491102 0.001209 -0.008673 -157757.000000 1 0 0
-7.990982 -15.329911 0.231446 17.289174 1.090280 1.557409 -0.003678 -0.004745 188822.000000 1 0 0
1.018718 -18.623311 3.619946 18.999198 -1.516150 1.379093 0.003990 -0.006300 959987.000000 1 0 0
-14.131982 -8.689711 -4.524954 17.195906 0.551301 1.837073 0.003472 -0.002382 -492888.000000 1 0 0
-3.148782 -14.466411 11.192146 18.559526 1.356478 0.923489 -0.007921 -0.000906 30756.300000 1 0 0
-10.838682 -12.038611 -3.878654 16.656805 0.837801 1.805811 0.009611 -0.010116 1545670.000000 1 0 0
-9.964582 -10.661211 0.548546 14.603261 0.819160 1.533224 0.003523 -0.000436 3063090.000000 1 0 0
-0.073182 -13.213911 -11.202054 17.323361 1.565258 2.273973 0.000136 0.003209 2360600.000000 1 0 0
-5.799082 -12.620611 -6.305654 15.253539 1.140076 1.996970 -0.000041 -0.007905 622198.000000 1 0 0
1.767718 -15.991711 9.836746 18.857922 -1.460704 1.022043 0.002288 0.002820 842951.000000 1 0 0
-8.969282 -15.611811 -5.441954 18.809347 1.049324 1.864315 0.001135 -0.009506 236812.000000 1 0 0
-3.304582 -15.489611 5.811146 16.870618 1.360606 1.219140 -0.004820 0.000344 -1811270.000000 1 0 0
-17.515482 -5.300811 -6.410654 19.390389 0.293873 1.907746 -0.001254 -0.000263 -848093.000000 1 0 0
18.864118 5.602389 -3.075254 19.917302 0.288690 1.725818 0.008939 0.007517 -695491.000000 1 0 0
12.763118 -12.395511 -6.139854 18.821363 -0.770788 1.903096 0.017553 0.003240 -21218.400000 1 0 0
10.985418 -13.505011 -1.809554 17.502549 -0.887918 1.674369 0.011408 0.004840 1677500.000000 1 0 0
18.611918 -2.819111 4.309546 19.311216 -0.150325 1.345738 -0.003048 -0.002245 -1577020.000000 1 0 0
8.663118 -16.951711 4.782246 19.628551 -1.098350 1.324682 0.007024 -0.002331 1245710.000000 1 0 0
18.159918 -0.917111 6.526446 19.318857 -0.050459 1.226188 0.018861 -0.001093 -362715.000000 1 0 0
17.832218 -4.109011 -5.210854 19.026954 -0.226473 1.848208 0.005761 -0.003227 -732013.000000 1 0 0
5.434218 -11.799311 14.642746 19.574588 -1.139201 0.725679 -0.000009 0.001413 -20978.800000 1 0 0
15.929418 -8.945811 -1.086254 18.301745 -0.511698 1.630184 0.007993 0.000837 748194.000000 1 0 0
13.817718 -12.674511 -1.623754 18.820445 -0.742272 1.657180 0.014467 0.009247 -211002.000000 1 0 0
11.234518 -2.105311 13.805446 17.923088 -0.185248 0.691547 0.012042 -0.004647 956556.000000 1 0 0
16.859218 -6.101911 -1.640254 18.004361 -0.347266 1.662026 0.000994 -0.000194 -2041820.000000 1 0 0
17.716218 3.730489 -1.143554 18.140801 0.207537 1.633876 0.011872 0.000690 618827.000000 1 0 0
9.783218 -11.108011 9.333846 17.499142 -0.848727 1.008195 0.001865 -0.005227 -687457.000000 1 0 0
9.017118 -11.198711 4.087846 14.947577 -0.892897 1.293788 -0.002125 -0.001162 -1407700.000000 1 0 0
14.039718 -10.097911 6.667346 18.534697 -0.623522 1.202826 0.014546 -0.006632 173850.000000 1 0 0
16.119618 -0.400411 -4.781254 16.818526 -0.024835 1.859057 0.004809 -0.000301 -1326940.000000 1 0 0
15.746418 -0.436011 -1.803954 15.855411 -0.027682 1.684819 0.008319 0.001623 32096.200000 1 0 0
12.860918 -5.217011 -0.475354 13.886914 -0.385366 1.605033 0.003598 -0.001295 1251470.000000 1 0 0
14.224418 -7.619211 0.833246 16.157994 -0.491754 1.519205 0.006223 0.002056 3663790.000000 1 0 0
15.634618 2.537089 3.633246 16.250495 0.160871 1.345313 0.015762 -0.004792 2052970.000000 1 0 0
15.951218 -7.115611 4.830546 18.122016 -0.419594 1.300978 0.012627 -0.004453 -793667.000000 1 0 0
13.594018 -12.100711 3.194946 18.477885 -0.727346 1.397016 0.006651 -0.003192 957972.000000 1 0 0
14.048618 -1.012511 9.166646 16.805245 -0.071948 0.993854 0.020823 -0.002241 1496070.000000 1 0 0
14.147718 -2.785611 -1.733054 14.523121 -0.194408 1.690412 -0.000164 -0.000019 101639.000000 1 0 0
15.120018 1.789989 9.137546 17.757076 0.117837 1.030271 0.020641 -0.003910 -580630.000000 1 0 0
14.255318 -10.204211 -3.122954 17.807102 -0.621263 1.747085 0.008322 0.001663 -743747.000000 1 0 0
7.363518 -12.706911 6.020546 15.872428 -1.045595 1.181748 -0.006879 -0.000238 805182.000000 1 0 0
12.474918 -4.662511 6.927846 15.011917 -0.357675 1.091123 0.012429 -0.002423 3925650.000000 1 0 0
14.945118 -8.985111 -5.776254 18.369918 -0.541307 1.890664 0.017150 0.001720 4168.260000 1 0 0
14.304318 -4.603211 4.496946 15.685203 -0.311340 1.280016 0.011772 0.000010 1512520.000000 1 0 0
17.049118 -4.238511 0.802346 17.586392 -0.243666 1.525157 0.001506 -0.003040 -1282840.000000 1 0 0
10.264718 -14.472711 0.943946 17.768367 -0.953892 1.517646 0.008051 -0.001253 -67290.500000 1 0 0
16.519818 -2.574511 8.380146 18.701854 -0.154600 1.106167 0.017883 -0.002476 1219980.000000 1 0 0
15.941318 -2.565011 2.995346 16.421846 -0.159536 1.387369 0.006640 0.000891 2381170.000000 1 0 0
7.843918 -15.233611 2.520746 17.318895 -1.095293 1.424729 0.002646 -0.001740 3953580.000000 1 0 0
16.744918 -7.112611 7.712446 19.760146 -0.401669 1.169836 0.024857 -0.000303 -2080440.000000 1 0 0
10.198318 -8.586511 4.966646 14.226786 -0.699804 1.214180 0.006479 -0.004327 836931.000000 1 0 0
10.904718 -11.854711 1.912646 16.220520 -0.827115 1.452606 0.002151 0.000574 -244441.000000 1 0 0
12.507718 -7.322111 11.716446 18.636830 -0.529621 0.890952 0.012650 -0.011285 -22667.100000 1 0 0
15.160018 -9.835711 4.087446 18.527671 -0.575526 1.348353 0.011697 -0.000985 -348242.000000 1 0 0
7.395518 -10.347011 7.728446 14.882312 -0.950240 1.024760 -0.006840 0.002227 273581.000000 1 0 0
15.063018 -3.197711 -4.548654 16.056467 -0.209183 1.858020 0.000668 0.001351 -33195.400000 1 0 0
11.856618 -9.055511 9.575746 17.727848 -0.652244 1.000178 0.004373 -0.007692 -852964.000000 1 0 0
16.945318 -6.728311 2.195446 18.363931 -0.377969 1.450958 0.013175 -0.000122 2298090.000000 1 0 0
17.625118 4.002789 1.920446 18.175677 0.223319 1.464939 0.016560 0.000068 978642.000000 1 0 0
14.923518 -5.020011 8.591846 17.936882 -0.324492 1.071276 0.020017 -0.002606 1385110.000000 1 0 0
12.703218 -12.574411 6.017246 18.859874 -0.780303 1.246069 -0.002123 -0.002886 -631269.000000 1 0 0
18.114718 0.743389 -0.831354 18.149016 0.041015 1.616619 0.013590 -0.002853 -827001.000000 1 0 0
11.756118 -2.141911 10.953846 16.210517 -0.180219 0.828849 0.013718 -0.000963 1234860.000000 1 0 0
5.899418 -12.508011 10.495646 17.361223 -1.130084 0.921601 -0.005826 0.001351 -1514580.000000 1 0 0
10.814818 -4.993411 10.865446 16.123039 -0.432557 0.831311 0.011863 -0.007156 -172805.000000 1 0 0
17.964818 1.452489 4.984246 18.699923 0.080676 1.300997 0.018193 -0.006642 -1848960.000000 1 0 0
12.286018 -7.744811 6.975646 16.111735 -0.562456 1.123029 0.010501 -0.007132 -793417.000000 1 0 0
10.916018 -7.824711 14.069046 19.450543 -0.621919 0.762192 0.023484 -0.017215 -789410.000000 1 0 0
14.139418 -0.214311 3.705346 14.618436 -0.015156 1.314530 0.011400 -0.002652 1476840.000000 1 0 0
11.600718 -7.712911 2.372046 14.131252 -0.586754 1.402140 0.005812 0.001373 906075.000000 1 0 0
9.247718 6.083089 3.462946 11.598114 0.581834 1.267594 0.002577 -0.000267 2055580.000000 1 0 0
-4.043382 14.825389 -9.914654 18.287740 -1.304538 2.143787 -0.000848 -0.000598 947111.000000 1 0 0
8.894418 -6.507411 9.177946 14.341959 -0.631639 0.876380 0.006948 -0.000944 -1693880.000000 1 0 0
5.768018 -10.529511 -8.549454 14.738854 -1.069647 2.189602 -0.007264 -0.002776 -130737.000000 1 0 0
5.378518 1.135289 0.474646 5.517484 0.208025 1.484664 -0.004143 0.001811 2646160.000000 1 0 0
-0.427382 9.881389 11.041046 14.823265 -1.527572 0.730493 -0.003766 0.000801 1130010.000000 1 0 0
-6.262582 -5.156711 1.051246 8.180264 0.688857 1.441930 0.003862 -0.001640 3716510.000000 1 0 0
-1.132582 3.973789 -10.838354 11.599295 -1.293145 2.777361 0.011169 -0.005466 891582.000000 1 0 0
10.911918 5.788889 1.173846 12.408026 0.487757 1.476051 0.003808 0.001074 2811170.000000 1 0 0
-10.225882 -1.875211 -13.493254 17.033877 0.181364 2.485107 0.001141 -0.007535 158817.000000 1 0 0
7.352318 11.034289 -6.091054 14.591540 0.983037 2.001420 0.013345 0.000606 796315.000000 1 0 0
-12.516282 -2.812511 -9.556854 15.996905 0.221037 2.211075 0.003047 -0.003762 1577410.000000 1 0 0
-3.919082 -8.755311 2.431046 9.895689 1.149921 1.322588 0.004396 -0.000312 -1361220.000000 1 0 0
8.021018 -6.599411 -6.043354 12.017117 -0.688469 2.097742 -0.002025 -0.002233 2608800.000000 1 0 0
14.263118 3.254189 -4.357354 15.264757 0.224315 1.860274 0.008289 0.001832 683058.000000 1 0 0
-2.474582 -4.977911 9.803046 11.269555 1.109461 0.515858 -0.001207 0.001748 2424250.000000 1 0 0
3.469318 -1.857511 -4.583754 6.041301 -0.491574 2.432167 -0.004711 -0.000382 -2372490.000000 1 0 0
-4.052282 8.452489 -3.424054 9.979464 -1.123749 1.921022 -0.008111 0.002454 -776703.000000 1 0 0
5.960718 0.083889 11.716246 13.145631 0.014073 0.470668 0.002334 -0.001799 1300150.000000 1 0 0
7.258418 4.604489 12.429146 15.111903 0.565306 0.605050 0.005090 -0.001439 912527.000000 1 0 0
1.203418 -14.591211 12.450646 19.219008 -1.488507 0.866064 -0.004687 0.005902 580890.000000 1 0 0
2.903018 8.656489 -9.122654 12.906786 1.247225 2.355776 0.003610 -0.003704 1048380.000000 1 0 0
-4.420682 -8.829211 -4.531854 10.864396 1.106598 2.001080 0.006614 -0.003940 2198650.000000 1 0 0
5.747418 -6.612811 -4.077754 9.663859 -0.855298 2.006402 -0.003873 -0.002372 2033630.000000 1 0 0
-3.015682 3.337789 8.711546 9.804397 -0.836053 0.476655 -0.005691 0.002462 1714270.000000 1 0 0
-3.894382 3.237689 -11.094954 12.196181 -0.693581 2.713375 0.005309 -0.005336 534074.000000 1 0 0
3.030418 -6.170111 8.413346 10.864534 -1.114258 0.685052 -0.006537 0.005001 535952.000000 1 0 0
-5.057382 -8.764811 10.414046 14.520723 1.047453 0.771042 0.003740 -0.001031 2794080.000000 1 0 0
-13.227082 -2.567011 6.661846 15.030816 0.191689 1.111617 -0.001636 -0.002280 -226877.000000 1 0 0
3.944018 -5.882111 -8.362354 10.958261 -0.980137 2.438907 -0.005543 -0.001094 1303150.000000 1 0 0
3.107718 -0.580511 12.421946 12.817943 -0.184668 0.249216 -0.002693 -0.000141 1436490.000000 1 0 0
1.428718 -1.345011 -7.557254 7.807841 -0.755229 2.887556 -0.001865 -0.003573 69991.900000 1 0 0
3.627018 -3.635711 3.402246 6.160271 -0.786595 0.985690 -0.004164 0.003084 2789160.000000 1 0 0
1.453018 0.405689 -11.899454 11.994701 0.272270 3.015487 0.000310 -0.003384 124051.000000 1 0 0
3.953918 3.564289 -10.567554 11.832617 0.733620 2.674957 -0.002363 -0.000239 -387742.000000 1 0 0
2.847218 3.270189 3.442546 5.536417 0.854430 0.899757 -0.010964 0.005026 -1883330.000000 1 0 0
-5.225482 0.841989 2.687646 5.936164 -0.159758 1.100940 -0.001805 -0.000681 1052820.000000 1 0 0
-9.377282 -9.389411 5.682346 14.435495 0.786045 1.166212 0.005344 0.001845 96001.900000 1 0 0
-3.086382 3.856689 -0.537154 4.968736 -0.895892 1.679115 -0.003891 -0.002002 -641311.000000 1 0 0
-15.831282 -6.551511 5.042246 17.859900 0.392374 1.284582 -0.002963 -0.001404 429078.000000 1 0 0
0.934918 6.631389 -8.055854 10.475981 1.430736 2.448046 0.004306 0.000037 204179.000000 1 0 0
-1.705882 6.519289 -9.406254 11.571031 -1.314868 2.519935 0.005531 -0.002770 1899110.000000 1 0 0
2.120018 -0.345011 5.217546 5.642366 -0.161326 0.390526 -0.006932 0.002272 1616830.000000 1 0 0
-3.423682 -0.551911 -6.333054 7.220372 0.159829 2.640606 0.006024 -0.008958 -122318.000000 1 0 0
1.958518 -1.153211 -2.401154 3.306241 -0.532157 2.383646 -0.002338 -0.001327 171358.000000 1 0 0
2.443118 -8.515411 -7.750954 11.771081 -1.291396 2.289586 -0.007195 0.000781 2324960.000000 1 0 0
-2.578682 14.076089 -5.499254 15.330612 -1.389610 1.937683 -0.002597 0.001615 1135770.000000 1 0 0
6.789118 -5.029411 -8.269354 11.822408 -0.637590 2.345444 -0.002240 -0.002383 2438880.000000 1 0 0
-14.184182 -4.924411 -2.079154 15.157959 0.334157 1.708396 0.001901 -0.000412 -64380.800000 1 0 0
-2.812082 6.872789 -6.740854 10.029065 -1.182417 2.307881 -0.000684 -0.000848 -3629170.000000 1 0 0
-5.708382 -1.090411 -8.096554 9.966384 0.188746 2.519029 0.011287 -0.010172 -716978.000000 1 0 0
-5.690882 -10.791311 3.338646 12.648521 1.085503 1.303676 0.004278 -0.001095 -1674640.000000 1 0 0
8.052718 -7.630611 6.583446 12.900165 -0.758490 1.035218 -0.000121 -0.001918 356142.000000 1 0 0
8.836618 -5.932311 13.022946 16.818896 -0.591226 0.685181 0.011498 -0.005900 1441530.000000 1 0 0
-4.790582 9.549089 -0.731154 10.708378 -1.105806 1.639128 -0.009800 0.005138 1809540.000000 1 0 0
2.889118 6.562889 12.230646 14.177701 1.156105 0.530275 -0.003827 -0.000249 681071.000000 1 0 0
6.106718 -2.840511 10.896946 12.810306 -0.435377 0.553597 0.005950 -0.001920 2062380.000000 1 0 0
-9.690682 -6.436211 -1.135554 11.688610 0.586269 1.668100 0.008474 -0.003448 300295.000000 1 0 0
0.932518 -13.441111 6.138346 14.805822 -1.501529 1.143304 -0.000808 0.005608 857377.000000 1 0 0
-0.472782 -3.169311 8.676046 9.248883 1.422713 0.353796 -0.004289 0.001941 143588.000000 1 0 0
4.275418 0.764889 3.384046 5.505999 0.177031 0.908904 -0.007604 0.003701 1519490.000000 1 0 0
-10.094582 5.527189 8.423146 14.261830 -0.500953 0.938985 -0.006679 -0.008567 180031.000000 1 0 0
9.359118 8.022889 -0.074054 12.327422 0.708675 1.576804 0.001767 0.001442 896741.000000 1 0 0
4.286418 2.823789 8.216146 9.687736 0.582520 0.558412 -0.006642 0.001553 3173530.000000 1 0 0
1.280618 2.605289 -9.709054 10.133767 1.113935 2.851053 0.005394 -0.004368 3017590.000000 1 0 0
-1.312682 -10.179911 3.040346 10.705019 1.442556 1.282821 0.004264 -0.001380 -2551250.000000 1 0 0
-9.805782 9.574989 9.167246 16.488546 -0.773490 0.981259 -0.000801 -0.007530 -236087.000000 1 0 0
9.756318 -1.919711 -7.841054 12.663063 -0.194284 2.238528 0.001292 0.001157 1206330.000000 1 0 0
-5.101582 -1.910411 6.725546 8.654986 0.358310 0.680796 -0.002690 -0.000239 1000200.000000 1 0 0
3.137918 -7.855311 -4.935954 9.793676 -1.190752 2.099013 -0.008570 -0.001569 3981580.000000 1 0 0
-5.285382 4.869189 -13.022254 14.873579 -0.744435 2.637326 -0.003314 -0.006314 2039490.000000 1 0 0
-5.600182 9.626689 5.658446 12.492125 -1.043915 1.100712 -0.004540 -0.001184 2712690.000000 1 0 0
-0.464182 -1.734611 -9.410454 9.580239 1.309323 2.953045 0.000996 -0.006988 -293911.000000 1 0 0
-16.623582 0.120389 6.500346 17.849719 -0.007242 1.198054 -0.006557 -0.002161 -1513000.000000 1 0 0
-5.812282 -2.925111 4.109346 7.695818 0.466255 1.007506 -0.001090 0.001440 4062730.000000 1 0 0
1.043118 -5.640311 -5.183054 7.730799 -1.387923 2.305601 -0.001537 -0.002347 1121890.000000 1 0 0
-7.022682 1.445789 -8.516554 11.132837 -0.203037 2.441828 0.005203 -0.005015 -103389.000000 1 0 0
8.047418 1.940489 4.684846 9.511794 0.236615 1.055802 -0.002603 0.000813 741090.000000 1 0 0
0.486018 -8.084811 -0.640754 8.124713 -1.510754 1.649743 0.000336 0.000093 1578880.000000 1 0 0
5.288818 5.512989 -3.381354 8.354532 0.806148 1.987483 0.000156 0.001355 840764.000000 1 0 0
-0.710482 -0.355011 -1.170354 1.414406 0.463389 2.545352 -0.002112 -0.002352 1127190.000000 1 0 0
8.970718 6.475089 -6.372154 12.767337 0.625209 2.093354 0.004408 -0.000746 766286.000000 1 0 0
-14.906482 -7.096211 2.552946 16.705596 0.444304 1.417375 -0.009897 -0.001155 -235324.000000 1 0 0
-6.320282 6.771389 8.928246 12.865117 -0.819842 0.803782 -0.001986 -0.005110 333002.000000 1 0 0
-9.500382 -3.164311 -9.582654 13.859920 0.321515 2.334212 0.012566 -0.004669 1771910.000000 1 0 0
14.864718 3.511889 -1.404454 15.338374 0.232003 1.662489 0.006797 -0.001034 517537.000000 1 0 0
11.951718 1.756589 -5.877154 13.433917 0.145929 2.023598 0.002915 0.002492 -183931.000000 1 0 0
1.769318 -9.472211 12.709446 15.949398 -1.386134 0.648715 -0.005109 0.002163 -396628.000000 1 0 0
-3.540182 6.310789 7.946446 10.747323 -1.059568 0.738635 -0.004585 0.000800 934571.000000 1 0 0
-4.151182 13.097389 -12.412254 18.515884 -1.263865 2.305486 0.000004 -0.004071 -338103.000000 1 0 0
-10.206582 7.751589 6.640846 14.434759 -0.649534 1.092734 -0.004246 -0.008278 312939.000000 1 0 0
8.027118 -9.242711 -7.251454 14.228349 -0.855671 2.105572 0.001056 -0.001692 1502950.000000 1 0 0
5.826718 -3.781011 -0.427954 6.959155 -0.575608 1.632330 -0.001563 0.000432 -909239.000000 1 0 0
-1.543182 -4.526711 4.157946 6.337274 1.242246 0.855144 -0.002954 0.003169 935325.000000 1 0 0
9.879618 -2.044811 -2.676154 10.437907 -0.204091 1.830080 -0.001793 -0.000102 -1028700.000000 1 0 0
13.588318 7.006489 1.362446 15.348926 0.476070 1.481914 0.005673 -0.000218 2302780.000000 1 0 0
5.395118 -3.704711 -3.253154 7.308570 -0.601729 2.032099 -0.003239 -0.001426 -3063910.000000 1 0 0
-12.147482 -5.931911 1.957846 13.659504 0.454264 1.426969 -0.002072 0.000709 1879200.000000 1 0 0
3.760618 -5.799511 -0.341754 6.920504 -0.995521 1.620199 -0.003857 0.001625 -591097.000000 1 0 0
-5.289082 3.785789 -8.677054 10.844254 -0.621234 2.498345 0.003163 -0.004448 787394.000000 1 0 0
-1.583582 -9.283311 7.189646 11.848148 1.401839 0.918748 0.001269 0.003194 3119370.000000 1 0 0
-7.375782 -7.441511 2.573146 10.788852 0.789834 1.329975 0.009014 -0.001180 -5033480.000000 1 0 0
-5.762982 13.074389 -8.504154 16.627454 -1.155633 2.107671 0.001297 -0.003562 2283390.000000 1 0 0
9.154518 -13.926311 -4.337354 17.220917 -0.989269 1.825404 0.004815 0.005624 1178080.000000 1 0 0
-6.523982 -5.143611 -6.722454 10.686929 0.667637 2.251108 0.013079 -0.006748 813058.000000 1 0 0
3.347618 0.452789 -6.217054 7.075544 0.134441 2.643861 -0.005673 -0.002711 427487.000000 1 0 0
-3.441682 5.742189 5.044046 8.382142 -1.030842 0.925092 -0.004770 0.003915 1311090.000000 1 0 0
-2.650782 -10.778611 -2.871754 11.465255 1.329652 1.823967 0.006129 -0.001399 1697620.000000 1 0 0
-12.460482 -0.433011 1.841746 12.603298 0.034737 1.424139 -0.006180 -0.003223 789089.000000 1 0 0
8.299718 -11.927111 -6.128854 15.770357 -0.962848 1.969942 0.003034 -0.002247 90317.400000 1 0 0
6.130018 3.874889 1.016546 7.322927 0.563701 1.431530 -0.004319 0.000909 9095.010000 1 0 0
3.395418 -4.782611 -10.983754 12.451710 -0.953423 2.651115 -0.007445 -0.002039 -58147.200000 1 0 0
-7.536482 4.177889 8.683246 12.233236 -0.506181 0.781571 -0.003251 -0.002960 1707110.000000 1 0 0
8.218718 8.729489 4.097646 12.670517 0.815526 1.241476 0.003170 0.001111 961467.000000 1 0 0
0.168418 10.572789 -6.266754 12.291641 1.554868 2.105794 0.001518 0.000089 876827.000000 1 0 0
5.432218 8.067489 3.299846 10.270460 0.978183 1.243700 -0.000893 0.002610 2382490.000000 1 0 0
7.943218 6.734289 -3.824454 11.093773 0.703218 1.922757 0.000646 0.002696 699397.000000 1 0 0
10.392418 2.574989 -8.301554 13.548015 0.242884 2.230333 -0.002052 0.001887 -44393.600000 1 0 0
3.387418 -12.577911 -0.353354 13.030860 -1.307723 1.597916 -0.002007 -0.001002 -2037080.000000 1 0 0
0.634518 2.119289 5.233846 5.682178 1.279889 0.399903 -0.007900 0.003686 -16271.100000 1 0 0
-4.851082 13.517089 1.606446 14.450791 -1.226228 1.459399 -0.007282 0.002134 1037100.000000 1 0 0
8.147918 4.200289 -8.046854 12.197658 0.475974 2.291222 -0.002200 0.003060 1105980.000000 1 0 0
-13.829382 -0.522111 -3.525554 14.281244 0.037736 1.820241 -0.000048 -0.005283 -535131.000000 1 0 0
-8.488982 -0.019611 -0.414854 8.499135 0.002310 1.619627 -0.002388 -0.002572 424369.000000 1 0 0
1.815718 -3.836711 -1.150754 4.397888 -1.128778 1.835539 -0.000400 -0.000274 -1127160.000000 1 0 0
8.032418 -5.614011 -0.432754 9.809391 -0.610000 1.614927 -0.001936 0.001283 128874.000000 1 0 0
-2.206382 -1.159111 7.454146 7.859768 0.483717 0.322668 -0.004461 0.002041 1952840.000000 1 0 0
-5.958682 8.834389 -11.622954 15.768493 -0.977399 2.399565 -0.004381 -0.002918 -1294780.000000 1 0 0
-6.277982 9.194789 -8.777754 14.177664 -0.971724 2.238425 -0.008315 -0.000835 -1389880.000000 1 0 0
-1.591782 14.002389 -8.350754 16.380957 -1.457603 2.105730 0.004146 0.000436 568456.000000 1 0 0
-1.401282 7.252789 9.830646 12.296672 -1.379942 0.644407 -0.005815 -0.001885 434960.000000 1 0 0
9.963918 2.417289 -4.077654 11.034048 0.238006 1.949323 -0.000581 0.002841 -1286200.000000 1 0 0
-2.985382 -7.441311 -6.934754 10.600775 1.189264 2.283887 0.004817 -0.003602 1758710.000000 1 0 0
-5.594582 -4.981911 -1.693454 7.680272 0.727535 1.793117 0.005382 -0.001456 695029.000000 1 0 0
5.651618 7.438189 -8.911754 12.910724 0.921046 2.332644 0.003011 -0.002053 1521990.000000 1 0 0
-9.699582 5.253289 -7.360854 13.261263 -0.496371 2.159237 -0.006340 0.000939 794066.000000 1 0 0
-0.540682 6.170189 -5.252754 8.121268 -1.483392 2.274164 0.003027 -0.000672 -122531.000000 1 0 0
-8.272582 2.792289 -6.257254 10.741774 -0.325528 2.192617 0.000729 -0.000508 2356630.000000 1 0 0
3.599918 1.469689 -2.043554 4.392665 0.387603 2.054679 -0.004816 -0.000349 2442990.000000 1 0 0
-6.779182 12.471589 -3.367454 14.588954 -1.072903 1.803719 -0.012489 0.003478 1623060.000000 1 0 0
-6.524982 3.210189 -2.236054 7.607932 -0.457215 1.869112 -0.003161 0.000155 -1141120.000000 1 0 0
12.038918 4.017989 -0.897854 12.723440 0.322125 1.641422 0.002288 0.001715 -178967.000000 1 0 0
2.161518 12.354089 -5.492354 13.691662 1.397586 1.983564 -0.000343 -0.001250 -510279.000000 1 0 0
-9.129782 -1.370711 -4.251354 10.163945 0.149023 2.002345 0.004548 -0.001863 -178989.000000 1 0 0
-1.081282 5.796889 3.475346 6.844788 -1.386388 1.038241 -0.007088 0.003177 -384565.000000 1 0 0
11.737718 2.618489 12.018446 17.002163 0.219489 0.785722 0.010363 0.000755 -1469220.000000 1 0 0
-6.949082 -2.302311 -5.728954 9.295767 0.319930 2.234828 0.013394 -0.006872 688367.000000 1 0 0
7.561218 -7.424911 10.817246 15.143122 -0.776303 0.775124 0.003228 -0.001209 -1397080.000000 1 0 0
-5.580782 -1.982511 -10.921554 12.424002 0.341334 2.644702 0.011024 -0.005600 -262211.000000 1 0 0
0.856118 -6.210111 4.422046 7.671565 -1.433801 0.956455 -0.004958 0.003058 771201.000000 1 0 0
-4.728682 -9.365911 7.314646 12.790026 1.103251 0.961973 0.001548 0.000224 2509560.000000 1 0 0
-8.740482 9.403989 1.888246 12.976768 -0.821950 1.424768 -0.007073 -0.000523 1192020.000000 1 0 0
-8.245582 7.227689 -8.989254 14.178709 -0.719709 2.257507 -0.007249 0.001358 1180390.000000 1 0 0
-1.212082 -10.663011 -0.078754 10.731969 1.457611 1.578135 0.004000 -0.001347 204198.000000 1 0 0
-3.904182 10.275889 7.924546 13.551197 -1.207705 0.946181 0.000890 -0.002167 1211870.000000 1 0 0
-7.397382 12.132989 2.166146 14.374382 -1.023281 1.419525 -0.010766 -0.000615 1299930.000000 1 0 0
-8.219282 -8.145911 -2.829854 11.913041 0.780915 1.810632 0.014173 -0.006674 208239.000000 1 0 0
5.342518 4.659689 -8.041554 10.720158 0.717236 2.419061 -0.001337 0.002597 722788.000000 1 0 0
-9.006482 -0.100311 -10.230854 13.630743 0.011137 2.419724 0.003813 -0.004391 -1856660.000000 1 0 0
-15.242282 -2.128711 -1.409954 15.454661 0.138761 1.662155 0.002332 -0.004518 130568.000000 1 0 0
-7.126382 -5.837411 8.793646 12.735341 0.686295 0.808628 -0.001029 0.000279 -1587570.000000 1 0 0
8.050218 3.467989 -1.029054 8.825639 0.406768 1.687660 -0.000423 0.001936 536833.000000 1 0 0
11.801218 7.370689 -5.980654 15.144769 0.558290 1.976754 0.002226 0.003594 1155520.000000 1 0 0
3.682818 13.335489 -9.542854 16.806679 1.301346 2.174629 -0.008221 -0.004028 641598.000000 1 0 0
-9.764882 5.420089 -0.383754 11.174862 -0.506719 1.605144 -0.007175 0.002731 1328970.000000 1 0 0
11.236718 -1.191011 -5.267654 12.467178 -0.105599 2.007022 0.004202 -0.000158 -131519.000000 1 0 0
10.550018 1.732989 -1.307854 10.771101 0.162810 1.692519 0.000191 0.003091 -859235.000000 1 0 0
14.564018 5.057889 4.785746 16.142993 0.334256 1.269813 0.008786 -0.007581 3812600.000000 1 0 0
0.887218 -0.895711 10.389946 10.466157 -0.790162 0.120752 -0.001701 -0.000413 2132470.000000 1 0 0
-8.011782 1.396289 -12.593254 14.990941 -0.172546 2.568186 -0.003060 -0.000053 -905612.000000 1 0 0
3.045518 -11.479111 -7.911054 14.269897 -1.311461 2.158423 -0.008543 0.002671 422649.000000 1 0 0
2.830018 5.015689 -6.689854 8.827247 1.057091 2.430829 0.000643 0.001730 -2216260.000000 1 0 0
6.480518 8.046289 0.562146 10.346781 0.892769 1.516439 0.005007 -0.000976 600853.000000 1 0 0
-9.021382 -5.432111 6.804746 12.537852 0.541990 0.997105 -0.000377 0.000865 -1308910.000000 1 0 0
-0.397282 -6.821011 -11.837054 13.667475 1.512618 2.618092 -0.008961 0.003024 3141960.000000 1 0 0
6.351318 -13.346611 -4.752254 15.525952 -1.126634 1.881874 -0.006474 0.001721 1970850.000000 1 0 0
-3.162882 -0.399211 10.143446 10.632624 0.125554 0.304514 -0.002685 0.001108 126725.000000 1 0 0
8.665418 8.424689 6.986546 13.959824 0.771313 1.046649 -0.002937 0.001226 -1420220.000000 1 0 0
-7.965482 5.774589 -2.619454 10.181174 -0.627276 1.831007 -0.005778 0.002873 1187240.000000 1 0 0
-5.479382 5.803989 -6.397354 10.229176 -0.814159 2.246444 -0.001444 -0.000066 -1102620.000000 1 0 0
3.308818 -13.758111 2.467246 14.363886 -1.334779 1.398173 0.002903 -0.002930 -1938840.000000 1 0 0
-11.151782 -7.113311 6.527346 14.750176 0.567796 1.112382 0.000046 0.000343 -1044960.000000 1 0 0
-12.960282 -3.710811 -6.766254 15.083806 0.278861 2.035969 0.009157 -0.003553 -1662090.000000 1 0 0
5.965418 0.501389 -7.376054 9.499672 0.083852 2.459815 -0.003459 0.001146 1837740.000000 1 0 0
-1.472782 2.214089 -2.382454 3.570345 -0.983819 2.301360 -0.001516 -0.003267 3204570.000000 1 0 0
7.600418 1.035289 -5.078854 9.199616 0.135381 2.155644 -0.001736 0.001974 -382385.000000 1 0 0
3.693318 -4.561611 10.830546 12.318670 -0.890198 0.496621 -0.004035 0.001818 794590.000000 1 0 0
5.941918 -2.619111 2.011446 6.797945 -0.415165 1.270409 -0.003989 0.000872 99106.900000 1 0 0
-6.277882 7.758189 1.309146 10.065543 -0.890474 1.440365 -0.008767 0.003045 1580550.000000 1 0 0
6.058718 -3.498711 7.879946 10.537675 -0.523687 0.726072 0.001388 -0.001105 151929.000000 1 0 0
6.656518 -2.145411 -7.920554 10.566324 -0.311790 2.418259 -0.005115 -0.001105 2585160.000000 1 0 0
12.102318 -8.016211 -5.952654 15.689482 -0.585022 1.959948 0.006227 -0.002276 142417.000000 1 0 0
5.689418 -9.675811 9.959846 15.006310 -1.039244 0.845028 -0.008157 0.004688 2332240.000000 1 0 0
-6.652582 7.564389 -4.389154 10.988243 -0.849446 1.981703 -0.006483 0.002869 472335.000000 1 0 0
-1.250882 -7.575911 9.745846 12.407282 1.407160 0.667302 0.000000 0.001435 441332.000000 1 0 0
10.016718 -9.279111 0.551846 13.665324 -0.747191 1.530402 0.000474 -0.000795 1318960.000000 1 0 0
11.089518 6.022089 9.690846 15.910860 0.497486 0.915907 -0.000495 -0.001481 1982520.000000 1 0 0
-15.306782 -4.131111 -4.862054 16.583221 0.263607 1.868359 -0.000063 -0.001254 2761990.000000 1 0 0
-4.637982 -4.718611 7.795846 10.225037 0.794015 0.703740 0.001144 0.000175 3808.960000 1 0 0
2.852718 10.938089 -11.061154 15.815464 1.315674 2.345338 -0.003993 -0.005604 -1290710.000000 1 0 0
9.859818 -1.302111 1.479246 10.054834 -0.131303 1.423142 -0.000596 0.001428 318441.000000 1 0 0
-1.581782 -2.723911 0.629346 3.212134 1.044687 1.373593 -0.002740 -0.000142 138560.000000 1 0 0
1.613218 2.985789 0.968146 3.529124 1.075432 1.292903 -0.011397 0.001485 -612634.000000 1 0 0
-8.871882 -2.489711 4.333846 10.182886 0.273592 1.131170 -0.001350 -0.001806 2702830.000000 1 0 0
9.819318 4.912789 -2.748354 11.318478 0.463903 1.816068 0.000142 0.002091 948877.000000 1 0 0
2.596918 8.507989 2.601746 9.268168 1.274546 1.286254 -0.003467 0.000638 1666590.000000 1 0 0
-8.027982 -0.170111 2.564946 8.429494 0.021187 1.261611 -0.005051 -0.001710 1510770.000000 1 0 0
6.990418 1.902189 13.662046 15.464015 0.265681 0.487571 0.001806 -0.002578 -681276.000000 1 0 0
6.802018 4.383489 3.818046 8.947620 0.572456 1.129944 -0.005425 0.001640 107068.000000 1 0 0
-0.226382 3.298089 7.737046 8.413710 -1.502264 0.403796 -0.007516 0.002022 791338.000000 1 0 0
2.855218 -10.376711 9.183446 14.147936 -1.302285 0.864394 -0.005347 0.002167 1391810.000000 1 0 0
1.355918 -4.572911 6.875046 8.367574 -1.282544 0.606532 -0.006848 0.003156 102519.000000 1 0 0
-0.249382 10.820989 -1.914154 10.991814 -1.547754 1.745832 -0.001455 0.000708 1938580.000000 1 0 0
8.712418 5.435689 7.977446 13.003561 0.557809 0.910334 -0.003531 0.001094 450126.000000 1 0 0
2.556818 11.520989 -2.789654 12.126527 1.352409 1.802921 0.003183 -0.003382 2824640.000000 1 0 0
1.418018 2.437489 -6.608554 7.185062 1.043901 2.738273 0.000551 -0.002610 759791.000000 1 0 0
-13.509482 -2.276311 3.677946 14.185026 0.166929 1.308516 -0.003355 -0.004444 1206210.000000 1 0 0
-0.918682 -10.607611 -5.312054 11.898879 1.484406 2.033572 0.000428 0.000991 -1028210.000000 1 0 0
-5.679382 2.856889 0.507146 6.377647 -0.466067 1.491193 -0.001770 -0.000766 97855.700000 1 0 0
3.566518 7.285289 -4.992754 9.524866 1.115543 2.122549 0.004934 -0.000344 -2693760.000000 1 0 0
2.901418 9.766089 -6.499354 12.084549 1.282010 2.138650 0.004675 0.000207 1802100.000000 1 0 0
-12.173282 1.703289 -2.438054 12.531324 -0.139018 1.766602 0.003123 -0.001059 323848.000000 1 0 0
-2.553882 9.600389 -5.717754 11.462220 -1.310799 2.093050 -0.004618 0.001006 -761909.000000 1 0 0
-1.302182 3.311989 1.775846 3.977257 -1.196190 1.107946 -0.006222 0.000290 -425994.000000 1 0 0
12.920418 3.689789 9.542946 16.480885 0.278174 0.953256 0.009752 -0.002648 1275760.000000 1 0 0
-2.448382 -9.662011 11.533146 15.243441 1.322618 0.712703 -0.001195 -0.003099 1225760.000000 1 0 0
-0.467982 -8.839711 -7.572854 11.649361 1.517905 2.278468 -0.003113 -0.000123 2781280.000000 1 0 0
2.286918 7.648589 -0.436854 7.995108 1.280258 1.625464 -0.000347 0.000763 1675170.000000 1 0 0
-11.860782 -1.356511 -5.522654 13.153630 0.113875 2.004085 0.008484 -0.002691 -19466.900000 1 0 0
-6.177582 -7.059811 -10.933854 14.406686 0.851947 2.432485 0.007276 -0.004900 940959.000000 1 0 0
-4.685582 -2.241911 -1.426854 5.386720 0.446276 1.838880 0.001846 -0.002428 -543895.000000 1 0 0
-10.356482 3.663489 4.616746 11.916048 -0.340002 1.172944 -0.003051 -0.004157 3177720.000000 1 0 0
6.658218 9.396889 -3.641254 12.078581 0.954351 1.877024 0.008212 0.000485 -418970.000000 1 0 0
1.259318 -2.701811 -11.485554 11.866070 -1.134633 2.887662 -0.003230 -0.002342 -1290970.000000 1 0 0
1.288618 8.758389 7.687046 11.724359 1.424715 0.855757 -0.009681 0.004695 957931.000000 1 0 0
10.441818 0.382389 10.387946 14.733880 0.036605 0.788320 0.007038 -0.000098 798731.000000 1 0 0
-5.184082 -0.832411 -3.910454 6.546698 0.159212 2.210948 0.007666 -0.006518 -403088.000000 1 0 0
11.650018 5.662489 5.398946 14.033365 0.452425 1.175890 0.004952 -0.001783 2407540.000000 1 0 0
10.011518 -3.445911 3.576546 11.175710 -0.331494 1.245037 0.008724 -0.000646 -85199.500000 1 0 0
7.277918 -1.602611 -3.603054 8.277588 -0.216743 2.021144 -0.001882 0.001636 -1426300.000000 1 0 0
2.497218 9.233389 10.531746 14.227060 1.306660 0.737337 -0.007208 0.006672 2422510.000000 1 0 0
2.491718 -10.940911 6.241146 12.839942 -1.346872 1.063206 -0.007203 0.004606 2280130.000000 1 0 0
5.952518 -7.602511 -1.248854 9.736030 -0.906528 1.699422 -0.005665 -0.003068 1035130.000000 1 0 0
-0.275782 -5.575511 -2.460354 6.100469 1.521374 1.985923 0.002623 0.000988 3533560.000000 1 0 0
7.782318 -5.038611 2.512646 9.605492 -0.574576 1.306133 0.000907 0.000258 1285440.000000 1 0 0
-2.570082 -12.483111 4.668046 13.572916 1.367749 1.219704 0.002060 -0.001002 -794445.000000 1 0 0
4.878118 -10.341311 -1.281654 11.505711 -1.130034 1.682421 -0.004177 -0.004191 30653.800000 1 0 0
0.968518 0.203789 1.154046 1.520322 0.207387 0.708898 -0.008068 0.001598 -2169580.000000 1 0 0
-1.571982 8.646889 2.545146 9.149731 -1.390963 1.288912 -0.006662 0.004012 -1907690.000000 1 0 0
-7.494882 0.669589 -2.992954 8.098109 -0.089103 1.949361 -0.000631 -0.000669 -938717.000000 1 0 0
4.428218 -6.401811 12.824046 15.001615 -0.965654 0.545546 0.006107 -0.000628 -160421.000000 1 0 0
-5.032382 12.983589 8.471346 16.299145 -1.201029 1.024248 0.003150 -0.010333 987847.000000 1 0 0
0.671918 6.069589 8.377546 10.366999 1.460543 0.629881 -0.008621 0.004781 199428.000000 1 0 0
7.902718 -0.541911 -0.826654 7.964294 -0.068466 1.674779 -0.002033 0.002081 4957150.000000 1 0 0
2.393618 -9.338111 -2.449554 9.946358 -1.319871 1.819633 -0.004605 -0.000484 1165940.000000 1 0 0
-6.980482 12.187789 5.070946 14.932642 -1.050659 1.224317 -0.008704 -0.005553 -407533.000000 1 0 0
-14.906082 0.369989 0.294146 14.913574 -0.024816 1.551072 -0.006246 -0.002584 709956.000000 1 0 0
6.881718 -0.580511 3.882646 7.922751 -0.084156 1.058634 -0.001465 0.001826 -461755.000000 1 0 0
-4.075382 -5.133211 5.095246 8.301815 0.899771 0.909993 0.001600 0.002490 876128.000000 1 0 0
2.919918 5.126189 6.885046 9.066840 1.053024 0.708459 -0.010380 0.003382 -792459.000000 1 0 0
2.063618 -7.205611 1.728646 7.692046 -1.291872 1.344129 -0.004561 0.000801 3035900.000000 1 0 0
-2.512882 6.470589 -1.694454 7.145227 -1.200369 1.810222 -0.004989 0.002323 1753760.000000 1 0 0
2.697418 -3.758211 -6.575854 8.040029 -0.948263 2.528529 -0.005123 -0.004190 -1417820.000000 1 0 0
-5.224582 0.922089 -12.143354 13.251700 -0.174691 2.729693 0.007458 -0.001305 -428644.000000 1 0 0
-7.620582 6.391889 -11.765954 15.406725 -0.697936 2.439805 -0.003300 -0.004129 1944870.000000 1 0 0
-1.135682 11.229889 -8.951654 14.405981 -1.470009 2.241305 0.002478 -0.000596 1714340.000000 1 0 0
4.632018 5.931189 -0.601254 7.549576 0.907774 1.650522 -0.002183 0.001451 296032.000000 1 0 0
-2.612782 13.465089 3.722846 14.212488 -1.379137 1.305763 -0.005818 0.000394 544925.000000 1 0 0
1.610818 -8.017611 10.170846 13.050783 -1.372526 0.677203 -0.006732 0.002316 -114484.000000 1 0 0
12.948618 -0.166511 -1.196054 13.004806 -0.012859 1.662897 0.003782 -0.000396 369382.000000 1 0 0
-1.058582 3.130889 -5.272854 6.223026 -1.244754 2.581703 0.001256 -0.005773 1245920.000000 1 0 0
6.584818 1.016089 7.227146 9.829746 0.153100 0.744787 -0.000742 0.001165 2041980.000000 1 0 0
5.514818 -6.135411 6.720046 10.640278 -0.838617 0.887224 -0.003625 0.001435 1849810.000000 1 0 0
12.207818 -4.896411 2.456346 13.380557 -0.381444 1.386174 0.005023 -0.000139 -345717.000000 1 0 0
4.449518 -9.198811 13.820146 17.187576 -1.120269 0.636674 -0.000644 0.000780 502353.000000 1 0 0
-2.745482 -4.365611 -1.574654 5.392195 1.009406 1.867139 0.004016 -0.002310 606770.000000 1 0 0
-9.323382 -5.145011 -7.496354 13.022746 0.504254 2.184177 0.016438 -0.007872 170356.000000 1 0 0
-10.524082 -3.192511 7.896746 13.539092 0.294530 0.948066 -0.004359 -0.000883 222826.000000 1 0 0
12.032818 -0.480511 1.566046 12.143809 -0.039912 1.441478 0.005934 -0.000558 1008500.000000 1 0 0
-7.514882 4.654789 4.505446 9.921671 -0.554569 1.099433 -0.003540 -0.002723 1284350.000000 1 0 0
-1.057982 10.538489 7.027646 12.710896 -1.470739 0.984975 -0.005533 0.004137 2552850.000000 1 0 0
7.347118 -10.038111 1.782746 12.566702 -0.938966 1.428453 -0.002210 -0.002320 3153100.000000 1 0 0
-4.248382 -1.673411 1.617146 4.843987 0.375231 1.230416 -0.002938 0.001447 1228280.000000 1 0 0
6.720918 -15.120811 -1.114854 16.584709 -1.152541 1.638069 0.001590 0.000319 -578770.000000 1 0 0
-10.317882 1.612789 2.496746 10.737482 -0.155055 1.336122 -0.005336 -0.000780 -204985.000000 1 0 0
-3.166982 8.324489 -11.331954 14.413191 -1.207264 2.475466 0.001834 -0.002939 -278116.000000 1 0 0
-1.278482 -5.056211 -6.852154 8.611144 1.323134 2.491010 -0.001053 -0.004595 -186050.000000 1 0 0
12.850818 -0.573711 6.440346 14.385782 -0.044614 1.106618 0.014996 -0.004667 2420250.000000 1 0 0
5.932518 -13.399911 3.609746 15.092470 -1.154006 1.329280 -0.000967 0.000771 1130200.000000 1 0 0
-5.599682 3.500889 -4.870054 8.205491 -0.558739 2.206211 -0.001136 -0.001094 1795600.000000 1 0 0
-4.270882 8.085589 3.487246 9.786627 -1.084837 1.206462 -0.006565 0.002952 -70370.000000 1 0 0
13.853518 6.238489 -4.060054 15.726498 0.423118 1.831920 0.006254 0.004977 812091.000000 1 0 0
-6.615782 -8.606711 5.194346 12.034338 0.915449 1.124501 0.010635 0.000046 137881.000000 1 0 0
1.663518 11.377489 2.719646 11.815711 1.425614 1.338542 -0.002408 -0.001034 614584.000000 1 0 0
-7.403182 7.231789 6.050846 11.988269 -0.773688 1.041726 -0.002054 -0.004957 -523982.000000 1 0 0
-17.395482 -4.058711 5.327246 18.640157 0.229219 1.280961 0.004801 -0.005390 -1329760.000000 1 0 0
7.372918 -13.040711 -8.642254 17.294757 -1.056224 2.094053 -0.001638 0.002350 -1171490.000000 1 0 0
-2.363582 12.847989 -2.731754 13.346153 -1.388865 1.776938 -0.004790 0.003280 1606720.000000 1 0 0
-5.577582 13.830089 -5.750654 15.982828 -1.187454 1.938852 -0.007447 0.003211 2706530.000000 1 0 0
-5.574782 2.402789 7.443246 9.604868 -0.406950 0.684168 -0.002131 0.000036 1417780.000000 1 0 0
-7.429882 5.112289 1.557546 9.152300 -0.602675 1.399783 -0.004364 0.000376 1257640.000000 1 0 0
10.749118 -5.566811 -5.202354 13.175637 -0.477853 1.976697 0.002163 -0.002031 1563980.000000 1 0 0
-9.417382 -0.807211 6.853046 11.674884 0.085506 0.943460 -0.003659 -0.001823 103460.000000 1 0 0
-11.272282 -4.548211 -2.533254 12.416438 0.383508 1.776263 0.003728 -0.003796 1266960.000000 1 0 0
6.597518 -4.378511 13.470646 15.625521 -0.585918 0.531412 0.010276 -0.007880 287700.000000 1 0 0
0.098018 10.221489 -11.592554 15.455606 1.561207 2.418942 0.005703 -0.006227 -547367.000000 1 0 0
-11.709982 -3.200711 1.532946 12.235937 0.266815 1.445184 0.000908 -0.003451 3449940.000000 1 0 0
5.200818 5.967989 5.412046 9.589350 0.853979 0.971113 -0.005620 0.003361 -5637880.000000 1 0 0
-7.050682 -0.085711 8.166546 10.789436 0.012156 0.712237 -0.001122 -0.000499 1253370.000000 1 0 0
1.780218 1.991189 9.712646 10.073207 0.841279 0.268364 -0.005160 0.000481 3414020.000000 1 0 0
10.390618 -4.943411 -2.183254 11.711911 -0.444066 1.758306 -0.000126 0.000987 2536920.000000 1 0 0
-9.652482 -2.329611 -1.652554 10.066202 0.236820 1.735711 0.003449 -0.003535 -970199.000000 1 0 0
-1.954882 -5.123911 -9.866954 11.288614 1.206321 2.634299 0.005763 -0.004757 1041430.000000 1 0 0
7.685218 -1.652111 6.506846 10.204465 -0.211750 0.879356 0.003259 -0.001296 737399.000000 1 0 0
1.532518 -11.977011 -2.626954 12.357115 -1.443533 1.785017 -0.000200 -0.001019 -3829460.000000 1 0 0
-0.697382 -1.559411 4.847546 5.139728 1.150266 0.338806 -0.006112 0.003044 4149590.000000 1 0 0
7.687718 1.375589 9.846546 12.567726 0.177059 0.670552 0.003925 0.000737 -253884.000000 1 0 0
-3.934182 10.724489 -7.976854 13.932790 -1.219198 2.180377 0.000478 0.001230 1136370.000000 1 0 0
-9.372682 12.658789 6.515346 17.045288 -0.933462 1.178580 -0.002587 -0.006013 1303830.000000 1 0 0
-2.583582 -2.311711 -11.015954 11.548599 0.729918 2.836696 0.007120 -0.006499 503295.000000 1 0 0
1.281718 -12.041811 11.046346 16.391150 -1.464757 0.831293 -0.006603 0.007439 429364.000000 1 0 0
1.336818 3.478689 -1.829854 4.151713 1.203908 2.027227 -0.003229 -0.000226 1444960.000000 1 0 0
-1.973482 -9.354911 -12.110554 15.429663 1.362888 2.473311 -0.005523 0.001599 -138986.000000 1 0 0
1.320118 -2.725011 1.568546 3.410093 -1.119670 1.092833 -0.002161 0.001563 2384720.000000 1 0 0
-1.058682 -2.160611 -6.641254 7.063661 1.115187 2.794013 0.000470 -0.008899 186830.000000 1 0 0
1.870018 5.886489 4.145446 7.438578 1.263200 0.979678 -0.009764 0.004136 -458126.000000 1 0 0
-11.001782 8.664289 3.823046 14.516362 -0.667094 1.304292 -0.007511 -0.003617 2421440.000000 1 0 0
-16.314882 -1.509411 4.076746 16.884121 0.092255 1.326932 0.001487 -0.003155 1692760.000000 1 0 0
-12.163382 0.244989 6.772146 13.923715 -0.020139 1.062860 -0.004563 -0.003563 1677410.000000 1 0 0
-4.966482 3.026989 4.688346 7.470555 -0.547363 0.892360 -0.003629 0.000347 2305120.000000 1 0 0
5.304018 -6.107711 3.815646 8.944043 -0.855709 1.130052 -0.008460 0.000984 2241090.000000 1 0 0
9.894018 3.424989 6.247146 12.192169 0.333257 1.032831 0.000558 0.000480 140669.000000 1 0 0
-12.019782 5.859189 3.320146 13.777830 -0.453567 1.327423 -0.006455 -0.001979 1821140.000000 1 0 0
-4.915982 12.382789 -1.152554 13.372685 -1.192878 1.657091 -0.012373 0.005356 2164460.000000 1 0 0
-1.558082 -12.211111 10.270846 16.032128 1.443887 0.875463 0.003369 0.002188 858474.000000 1 0 0
5.342418 6.202689 13.979446 16.199991 0.859775 0.529758 0.000627 -0.000869 1946330.000000 1 0 0
12.879918 -3.541711 -6.199954 14.726692 -0.268347 2.005345 -0.001097 -0.001151 1190780.000000 1 0 0
3.516518 -2.594811 6.358346 7.715407 -0.635707 0.602167 -0.006580 0.002633 824675.000000 1 0 0
7.215718 -11.977211 -0.759754 14.003478 -1.028574 1.625078 -0.000099 0.001015 -913639.000000 1 0 0
-6.066482 -6.543211 -4.072854 9.808361 0.823187 1.999006 0.013652 -0.007359 69409.200000 1 0 0
0.379318 -8.925011 5.005846 10.240030 -1.528321 1.060024 -0.001044 0.001473 2649780.000000 1 0 0
-10.213282 2.429189 -0.315254 10.502926 -0.233507 1.600817 -0.006580 0.001512 -2319780.000000 1 0 0
-1.908882 9.021789 -0.280254 9.225781 -1.362286 1.601178 -0.005983 0.003951 -476995.000000 1 0 0
-3.573582 2.360789 -6.553454 7.828893 -0.583807 2.562730 0.006162 -0.008201 656620.000000 1 0 0
-12.617482 3.044889 6.486646 14.510299 -0.236796 1.107346 -0.009555 -0.005529 -541135.000000 1 0 0
11.442918 1.563789 7.875346 13.978802 0.135819 0.972328 0.010740 -0.002779 -1847440.000000 1 0 0
5.999618 2.635289 -3.251454 7.315198 0.413872 2.031389 -0.004228 0.002152 -639658.000000 1 0 0
10.540118 -2.413511 6.391946 12.560896 -0.225103 1.036917 0.012473 -0.004183 3676060.000000 1 0 0
-0.938882 11.063589 4.160546 11.857261 -1.486137 1.212279 -0.005321 0.001757 872718.000000 1 0 0
-1.508482 -12.262111 7.371146 14.386406 1.448392 1.032855 -0.001707 0.005219 -218905.000000 1 0 0
7.977518 8.761689 -7.872654 14.226267 0.832210 2.157223 0.011326 -0.003112 1379750.000000 1 0 0
-4.711582 -5.895211 -8.661054 11.487662 0.896530 2.424842 0.009149 -0.005014 235650.000000 1 0 0
-8.565882 -5.324411 -11.643154 15.404114 0.556139 2.427743 0.009842 -0.004765 1550700.000000 1 0 0
5.832218 -0.562111 -10.057454 11.639722 -0.096084 2.614083 -0.002895 0.002098 491225.000000 1 0 0
-11.215882 -5.432211 -5.379154 13.573512 0.451035 1.978277 0.006370 -0.005981 -1193050.000000 1 0 0
3.792818 8.931789 -2.711954 10.075565 1.169228 1.843319 0.006945 -0.002640 1673290.000000 1 0 0
11.574418 -10.353511 -4.205554 16.088786 -0.729777 1.835265 0.010327 0.000767 312871.000000 1 0 0
3.980518 -11.415811 3.796646 12.672008 -1.235294 1.266514 -0.005171 0.002588 985777.000000 1 0 0
-0.942682 0.848889 3.272046 3.509351 -0.733094 0.369857 -0.007004 0.001905 -2578970.000000 1 0 0
-10.508682 -5.191711 4.550446 12.573497 0.458868 1.200483 0.001130 -0.001721 3148400.000000 1 0 0
4.522418 -8.734011 2.670746 10.191570 -1.093015 1.305646 -0.007318 0.000969 2733890.000000 1 0 0
-3.652382 -5.823011 2.609346 7.352281 1.010593 1.207986 0.001041 0.000349 2101750.000000 1 0 0
10.181218 5.078089 12.290046 16.747819 0.462663 0.746854 0.004553 0.003892 1069480.000000 1 0 0
1.588618 -12.356411 -5.346454 13.556887 -1.442931 1.976180 -0.003067 -0.000652 497872.000000 1 0 0
9.768718 -10.774511 -1.898054 14.666989 -0.834319 1.700570 0.002233 -0.001254 1092850.000000 1 0 0
9.521618 -4.421811 -9.378754 14.077452 -0.434762 2.299932 -0.000692 0.000889 2274270.000000 1 0 0
-7.543982 -3.121911 -13.083854 15.422231 0.392370 2.583707 0.006109 -0.002688 2433800.000000 1 0 0
0.357118 6.190689 -2.455154 6.669328 1.513174 1.947789 -0.000074 0.000370 1010120.000000 1 0 0
-5.982082 -9.578311 0.920846 11.330371 1.012525 1.489434 0.006312 -0.001682 446570.000000 1 0 0
-8.941182 -4.071111 0.568746 9.840841 0.427270 1.512970 0.001138 -0.001243 1636690.000000 1 0 0
1.937818 3.787589 12.053246 12.782085 1.097893 0.339325 -0.004325 -0.000973 1257280.000000 1 0 0
6.672518 4.170689 9.655046 12.455403 0.558639 0.683813 -0.003370 0.001287 1057780.000000 1 0 0
-8.219182 9.897489 -3.546454 13.345133 -0.877773 1.839777 -0.008585 0.003461 619893.000000 1 0 0
16.275418 2.245389 -6.183754 17.554766 0.137097 1.930776 0.006150 -0.000303 -523283.000000 1 0 0
-10.958382 2.595489 -4.927454 12.292375 -0.232564 1.983246 0.000053 -0.000238 913221.000000 1 0 0
-13.642482 4.047189 1.601346 14.319963 -0.288390 1.458736 -0.008838 0.001182 -24384.300000 1 0 0
-17.267082 10.540089 3.444346 20.520943 -0.548043 1.402153 0.012151 0.004457 -459040.000000 1 0 0
-14.230382 2.949789 -1.051654 14.570895 -0.204393 1.643034 -0.003787 0.001674 -112702.000000 1 0 0
-14.270482 5.100889 5.250446 16.038482 -0.343290 1.237282 -0.006519 -0.003718 1036300.000000 1 0 0
-17.365582 7.634189 3.339446 19.261261 -0.414185 1.396539 0.011237 0.007760 -944831.000000 1 0 0
-14.999682 12.665089 -3.143354 19.881539 -0.701209 1.729567 0.027456 0.001782 -2039130.000000 1 0 0
-8.537582 12.572289 -9.544354 17.945680 -0.974249 2.131576 -0.009625 -0.000835 379458.000000 1 0 0
-12.524682 8.789089 -9.740554 18.138195 -0.611894 2.137696 -0.004044 0.003887 -594307.000000 1 0 0
-13.984582 -3.483911 -12.105954 18.821803 0.244155 2.269451 -0.002348 -0.002462 123442.000000 1 0 0
-14.849382 5.708989 -7.549754 17.609528 -0.367038 2.013884 0.009322 0.006398 -393545.000000 1 0 0
-10.910082 13.605689 -8.244154 19.290172 -0.894912 2.012385 -0.005949 0.002209 1287780.000000 1 0 0
-10.880282 13.524989 4.074746 17.830014 -0.893343 1.340226 0.000701 -0.003241 -284168.000000 1 0 0
-14.957082 3.200489 3.234146 15.633845 -0.210799 1.362423 -0.012726 -0.001108 73238.000000 1 0 0
-11.154782 9.363689 -12.358454 19.100764 -0.698327 2.274457 -0.012389 0.001771 1238020.000000 1 0 0
-13.008482 11.598389 -8.834554 19.539513 -0.728156 2.039957 -0.008180 -0.005627 -1334300.000000 1 0 0
-8.860282 14.624489 -3.384354 17.430838 -1.026085 1.766196 -0.007693 -0.000839 1233740.000000 1 0 0
-16.669182 8.355089 -4.015154 19.073295 -0.464631 1.782895 0.017429 0.008435 -1060810.000000 1 0 0
-16.845682 6.684589 0.595746 18.133274 -0.377756 1.537937 0.013081 0.010682 -83699.300000 1 0 0
-10.565482 2.879589 -12.499954 16.618372 -0.266084 2.422156 -0.003862 -0.000776 618182.000000 1 0 0
-16.773682 0.925589 2.544146 16.990756 -0.055125 1.420494 -0.003859 -0.006084 2011870.000000 1 0 0
-12.680782 1.223189 -6.860554 14.469472 -0.096163 2.064783 0.005010 -0.004298 562294.000000 1 0 0
-12.242982 9.094189 -5.332454 16.156421 -0.638883 1.907155 0.002469 0.006248 -538509.000000 1 0 0
-9.542982 13.991489 1.436346 16.996863 -0.972215 1.486189 0.001079 -0.002520 -85172.100000 1 0 0
-12.235082 11.121489 2.886946 16.784493 -0.737756 1.397936 0.000525 -0.003288 -471550.000000 1 0 0
-12.573182 6.887089 -3.540454 14.766574 -0.501122 1.812916 -0.001199 0.005086 1435560.000000 1 0 0
-15.944782 3.671889 -9.216354 18.779244 -0.226342 2.083774 0.012508 -0.003493 -1629770.000000 1 0 0
-15.146182 5.884789 -4.598154 16.887290 -0.370582 1.846563 0.014391 0.004043 3095630.000000 1 0 0
-17.608782 5.209089 7.731746 19.924450 -0.287621 1.172278 -0.002263 -0.003611 -221841.000000 1 0 0
-15.715882 10.089989 -1.897554 18.772254 -0.570748 1.672052 0.023639 0.002996 -1797000.000000 1 0 0
-8.835882 10.026589 -8.255054 15.708316 -0.848440 2.124124 -0.008156 0.000510 -648.830000 1 0 0
-16.875482 4.271189 -1.089454 17.441670 -0.247894 1.633300 0.000257 0.003012 -197496.000000 1 0 0
-10.208482 5.368089 -4.458154 12.365460 -0.484110 1.939635 -0.005069 0.001727 805148.000000 1 0 0
-18.084282 2.716789 6.281046 19.335815 -0.149114 1.239954 0.003422 -0.005323 -1311050.000000 1 0 0
-10.335382 10.223889 -5.602454 15.579971 -0.779975 1.938628 -0.009499 0.002370 2305180.000000 1 0 0
-15.393582 0.525389 -5.740454 16.437494 -0.034117 1.927545 0.004898 -0.003291 1546130.000000 1 0 0
-16.449282 -4.035911 -8.715654 19.048099 0.240602 2.046046 -0.006636 -0.007217 78450.800000 1 0 0
-9.869182 9.674589 -0.945954 13.852554 -0.775442 1.639137 -0.006809 0.001755 2502520.000000 1 0 0
-17.359182 -2.836511 -3.134054 17.866429 0.161970 1.747124 0.000145 0.000256 -53987.000000 1 0 0
-12.059282 5.083789 -11.487154 17.413382 -0.398959 2.291181 -0.006684 0.001235 -962873.000000 1 0 0
-16.157782 7.129489 6.034246 18.663216 -0.415547 1.241557 0.000791 0.003324 -1130230.000000 1 0 0
-12.206382 5.995489 -8.749354 16.170740 -0.456564 2.142494 0.000196 0.003073 1210220.000000 1 0 0
-14.498682 8.377989 0.202346 16.746445 -0.523970 1.558713 0.013001 0.002767 1090780.000000 1 0 0
-14.795282 11.898189 4.099046 19.423425 -0.677289 1.358161 0.003105 -0.000332 -48308.800000 1 0 0
-17.392482 4.191189 -3.852354 18.300413 -0.236469 1.782889 0.017997 0.000397 -300484.000000 1 0 0
-13.622482 13.477989 -0.680154 19.175265 -0.780066 1.606274 0.011135 -0.002009 -378261.000000 1 0 0
-10.122582 6.873989 -12.929254 17.801235 -0.596544 2.383738 -0.018728 -0.002566 733968.000000 1 0 0
-15.835082 -1.081611 -8.187754 17.859424 0.068199 2.047053 -0.000371 -0.008620 -1275640.000000 1 0 0
-11.389682 11.910489 0.103646 16.480150 -0.807747 1.564507 -0.000265 -0.001021 616400.000000 1 0 0
-11.924382 7.428389 -0.795254 14.071399 -0.557130 1.627342 -0.007020 0.006382 1800760.000000 1 0 0
-11.514982 0.283489 -11.612154 16.355956 -0.024614 2.360245 -0.000196 -0.005125 -1105980.000000 1 0 0
-19.186382 -1.219211 -4.715254 19.794882 0.063460 1.811314 0.005762 0.000029 -960560.000000 1 0 0
-17.977982 1.564989 -5.029954 18.733858 -0.086831 1.842627 0.002666 -0.001224 -1306150.000000 1 0 0
-13.371982 0.038989 -9.454554 16.376813 -0.002916 2.186231 0.006036 -0.005016 -163552.000000 1 0 0
-6.176482 11.219889 -13.172654 18.372633 -1.067574 2.370244 -0.007582 -0.003378 -844616.000000 1 0 0
16.373118 5.712189 6.937046 18.677010 0.335673 1.190257 0.011304 -0.012083 -366320.000000 1 0 0
14.889018 10.139789 -5.492054 18.832441 0.597877 1.866724 0.018788 0.004198 285270.000000 1 0 0
2.354618 16.801189 4.433746 17.535172 1.431557 1.315173 0.001916 -0.007159 1229070.000000 1 0 0
-3.875782 18.204289 -5.881754 19.519550 -1.361024 1.876880 0.008949 0.001305 -491555.000000 1 0 0
5.548018 14.492589 5.717446 16.537981 1.205190 1.217795 0.000265 0.002993 118984.000000 1 0 0
10.069518 5.913889 15.061346 19.058159 0.531033 0.659525 0.010495 -0.001151 -1195500.000000 1 0 0
4.641918 12.777889 -1.058354 13.636054 1.222342 1.648489 0.007974 -0.007696 1761000.000000 1 0 0
3.721118 13.524689 13.170446 19.241221 1.302304 0.816891 -0.006340 0.006100 -1305720.000000 1 0 0
-0.711282 12.307389 9.290346 15.436589 -1.513067 0.924994 -0.001651 -0.000583 132262.000000 1 0 0
-7.656982 13.957589 8.473946 18.034728 -1.069037 1.081655 0.003424 -0.012462 1432320.000000 1 0 0
11.393518 12.873989 -4.136254 17.682207 0.846329 1.806906 0.022012 0.003706 1638670.000000 1 0 0
-5.821282 16.252489 0.996346 17.292293 -1.226855 1.513146 -0.002038 0.008472 935388.000000 1 0 0
3.280718 10.589489 6.816046 13.013795 1.270365 1.019543 -0.007467 0.008886 1393300.000000 1 0 0
-1.180282 15.602889 2.536046 15.851647 -1.495295 1.410120 0.000216 -0.003321 -895040.000000 1 0 0
9.893518 8.762889 9.503246 16.278256 0.724869 0.947395 0.001437 0.002192 422531.000000 1 0 0
7.385918 12.286789 6.201746 15.619815 1.029549 1.162503 -0.003031 0.003355 1317260.000000 1 0 0
11.860818 14.031889 -1.537954 18.437413 0.869051 1.654308 0.008847 0.006015 481356.000000 1 0 0
9.615818 15.947689 -1.210554 18.661677 1.028203 1.635710 0.004700 0.003238 2601140.000000 1 0 0
10.132318 13.712589 2.953446 17.303809 0.934433 1.399275 0.011687 -0.001783 2353870.000000 1 0 0
-5.907782 14.587189 6.389846 16.985820 -1.185989 1.185119 -0.005745 -0.007111 -979910.000000 1 0 0
-0.954582 18.248089 -6.170554 19.286775 -1.518533 1.896459 0.012598 0.006744 1547710.000000 1 0 0
-3.383382 15.737889 5.654946 17.061853 -1.359036 1.232969 -0.011305 -0.003010 1335730.000000 1 0 0
7.130418 12.200989 10.737946 17.748534 1.041917 0.921025 -0.010625 0.008097 3657850.000000 1 0 0
1.593618 14.577989 6.319446 15.968493 1.461912 1.163918 -0.004479 0.000255 -81469.200000 1 0 0
17.375818 7.674089 -1.591554 19.061578 0.415891 1.654389 -0.001723 0.008525 -1481480.000000 1 0 0
1.998518 16.096089 -3.329554 16.557901 1.447267 1.773262 0.000214 -0.003322 1322160.000000 1 0 0
6.731418 11.193689 0.589546 13.075099 1.029379 1.525692 0.011848 -0.003306 548407.000000 1 0 0
12.655518 9.269489 3.191946 16.008563 0.632172 1.370061 0.003254 0.000406 -1795060.000000 1 0 0
5.979318 14.306289 -3.393954 15.872651 1.174912 1.786284 0.001470 0.000427 828791.000000 1 0 0
3.060318 16.505889 1.613646 16.864571 1.387470 1.474967 0.003335 -0.011402 -2449720.000000 1 0 0
2.846318 18.746389 -2.466454 19.120983 1.420114 1.700149 0.011855 -0.016701 -126473.000000 1 0 0
4.002018 11.891489 10.780846 16.542379 1.246158 0.860959 -0.010701 0.006973 1993980.000000 1 0 0
8.123218 11.513589 3.348346 14.483122 0.956366 1.337496 0.003984 0.001252 64761.500000 1 0 0
0.673318 12.517289 0.297246 12.538909 1.517057 1.547088 0.003177 -0.003751 -2234000.000000 1 0 0
12.020218 9.962989 -4.667954 16.295293 0.692088 1.861327 0.016036 0.003706 2073200.000000 1 0 0
-1.099482 16.352089 10.107346 19.255080 -1.503659 1.018177 -0.001534 -0.006434 187000.000000 1 0 0
7.992618 14.865289 -8.075054 18.710031 1.077469 2.017050 0.015984 0.005382 1910620.000000 1 0 0
14.435118 7.682089 -1.398654 16.411684 0.489059 1.656123 0.005818 0.002217 602476.000000 1 0 0
12.491318 8.304189 6.008146 16.158292 0.586707 1.189816 0.002449 -0.001336 -971479.000000 1 0 0
-2.963982 14.146689 10.268746 17.730232 -1.364266 0.953091 0.006241 -0.011819 2048490.000000 1 0 0
-4.651582 17.190289 -3.077954 18.072549 -1.306531 1.741942 0.009509 -0.000887 -1295810.000000 1 0 0
-7.117282 16.456289 -1.710654 18.010871 -1.162594 1.665919 -0.001279 0.004430 -16418.400000 1 0 0
8.321718 11.265789 -1.883254 14.132078 0.934585 1.704455 0.011476 -0.000737 -296356.000000 1 0 0
8.510718 12.923589 -4.180354 16.028937 0.988440 1.834648 0.017744 -0.000653 2742690.000000 1 0 0
2.502218 14.783489 -7.351654 16.699085 1.403128 2.026666 -0.011757 0.003387 -2954060.000000 1 0 0
11.402718 11.221389 9.777746 18.749556 0.777383 1.022198 0.010550 0.002613 588352.000000 1 0 0
8.628918 15.768689 1.506946 18.038311 1.070091 1.487157 0.010944 -0.001240 -301558.000000 1 0 0
6.165018 9.914289 7.668446 13.968022 1.014479 0.989629 -0.005516 0.008339 3347440.000000 1 0 0
14.459918 11.389189 2.646446 18.595874 0.667158 1.427998 0.009449 0.005302 1916170.000000 1 0 0
12.211418 12.678689 1.109246 17.637979 0.804169 1.507865 0.010816 0.003477 2442370.000000 1 0 0
5.403418 15.773789 8.314646 18.631765 1.240768 1.108213 -0.001876 0.006888 -656204.000000 1 0 0
11.493218 14.934389 5.187946 19.545967 0.914881 1.302154 0.019153 -0.002065 423076.000000 1 0 0
5.922118 16.787589 1.789146 17.891217 1.231658 1.470628 0.000125 -0.011166 1242650.000000 1 0 0
-0.745682 16.162789 -4.108754 16.693521 -1.524693 1.819480 0.001059 -0.001403 1135360.000000 1 0 0
16.095318 6.412389 2.555146 17.513046 0.379127 1.424374 0.006257 0.001193 539476.000000 1 0 0
7.498318 16.787289 -3.105554 18.646241 1.150718 1.738127 0.000390 0.004311 660583.000000 1 0 0
14.835718 8.085989 7.399646 18.445501 0.499023 1.158011 0.010744 -0.006127 -90164.400000 1 0 0
2.205918 12.878789 8.703246 15.699547 1.401159 0.983199 -0.007803 0.006172 1250630.000000 1 0 0
15.841018 7.413289 -6.013054 18.494635 0.437706 1.901939 0.001784 0.007888 -731770.000000 1 0 0
-2.996282 17.099489 0.836046 17.380138 -1.397331 1.522674 -0.004825 0.000756 1644020.000000 1 0 0
-2.795182 18.561089 4.796046 19.373412 -1.421326 1.320637 -0.006639 0.000036 -206868.000000 1 0 0
-0.859782 19.049589 0.829246 19.087003 -1.525693 1.527337 0.004931 -0.005623 -30501.000000 1 0 0
6.774218 16.793289 -6.065354 19.096939 1.187372 1.894003 -0.008120 0.004488 396817.000000 1 0 0
11.014418 10.070389 0.750046 14.942982 0.740655 1.520581 0.006912 0.001186 -508644.000000 1 0 0
9.197118 8.535389 14.224346 18.967653 0.748098 0.722845 0.006749 -0.003360 186917.000000 1 0 0
6.274018 12.489589 -8.379154 16.296115 1.105279 2.110849 0.005571 -0.003288 769924.000000 1 0 0
6.385618 8.867489 13.278946 17.197060 0.946697 0.688557 -0.001055 -0.002278 1458590.000000 1 0 0
16.648318 9.395589 2.876646 19.331805 0.513799 1.421438 0.009723 0.001262 -2025560.000000 1 0 0
2.548718 14.700289 -0.685954 14.935360 1.399124 1.616741 0.003036 -0.007941 -216531.000000 1 0 0
9.158918 12.780689 8.442446 17.846756 0.949002 1.078044 0.005367 0.003663 726538.000000 1 0 0
7.230418 9.249089 10.481346 15.737954 0.907287 0.841974 -0.003530 0.000989 1182980.000000 1 0 0
4.201118 15.662389 -5.281354 17.054399 1.308735 1.885650 -0.006956 -0.001615 1696470.000000 1 0 0
0.213518 16.366589 -8.111654 18.267724 1.557751 2.030902 -0.005644 0.005493 790746.000000 1 0 0
-2.518582 15.760189 -1.865754 16.068847 -1.412330 1.687169 -0.000908 0.002675 -576130.000000 1 0 0
13.360718 10.422789 7.670546 18.600554 0.662493 1.145728 0.009478 0.000109 2034410.000000 1 0 0
-0.867282 15.857689 7.197446 17.436218 -1.516159 1.145284 -0.000136 -0.004459 2700080.000000 1 0 0
13.303418 13.327889 6.782646 20.015440 0.786317 1.225080 0.014661 0.002329 289216.000000 1 0 0
5.352018 17.261389 4.572346 18.641512 1.270138 1.322990 -0.001483 -0.005842 -465315.000000 1 0 0
10.756918 9.554789 -1.949654 14.519175 0.726283 1.705485 0.010417 0.004115 -347111.000000 1 0 0
3.233318 12.711389 4.794246 13.964904 1.321715 1.220361 -0.002135 0.001724 3456470.000000 1 0 0
-0.124982 18.109189 3.606346 18.465212 -1.563895 1.374228 0.001369 -0.003336 1973100.000000 1 0 0
-7.687682 15.973689 -5.767454 18.641961 -1.122243 1.885338 0.002835 -0.000920 230303.000000 1 0 0
-12.378482 -9.203311 8.264846 17.499584 0.639323 1.078911 0.000771 -0.001350 1295260.000000 1 0 0
-13.279882 -11.817611 6.911646 19.073071 0.727200 1.199979 0.002163 0.006578 1084320.000000 1 0 0
-6.451582 -12.218511 12.250646 18.466003 1.084987 0.845421 0.002913 -0.005805 -1661860.000000 1 0 0
-1.742482 -10.709211 14.326146 17.971141 1.409501 0.648195 0.004927 -0.002991 1136990.000000 1 0 0
-8.729782 2.788689 11.087746 14.384853 -0.309200 0.690711 -0.000521 -0.001001 1141060.000000 1 0 0
0.630818 9.897489 15.239346 18.182296 1.507147 0.576928 -0.006698 -0.009063 -883548.000000 1 0 0
0.963818 -6.795811 16.564146 17.929945 -1.429911 0.392839 -0.001871 -0.007286 2708360.000000 1 0 0
6.144618 2.230789 17.809546 18.971365 0.348251 0.351784 0.003383 -0.004398 2271470.000000 1 0 0
-5.012382 -3.052311 17.753946 18.698748 0.546978 0.319246 0.012593 -0.006398 -547105.000000 1 0 0
-4.167782 8.179789 13.098746 15.995515 -1.099560 0.611302 -0.003930 -0.006959 -822730.000000 1 0 0
0.125318 -4.927711 18.472246 19.118628 -1.545370 0.260773 0.004643 -0.016194 -246404.000000 1 0 0
-11.526082 2.025389 11.225846 16.216423 -0.173946 0.806192 -0.002436 -0.000649 1579760.000000 1 0 0
-3.378982 -6.080011 14.382946 15.976645 1.063547 0.450457 0.006970 -0.009693 1779700.000000 1 0 0
-7.359382 -2.305511 14.670346 16.573923 0.303591 0.483988 0.005036 -0.001925 1575600.000000 1 0 0
-6.021782 -1.183911 10.705146 12.339516 0.194129 0.520542 -0.000596 -0.000811 1974120.000000 1 0 0
-3.919582 2.356489 11.198246 12.096151 -0.541308 0.387731 -0.003761 0.002499 36864.500000 1 0 0
-6.302682 6.235589 13.524046 16.171153 -0.780047 0.580284 -0.006790 -0.006543 918834.000000 1 0 0
-8.904682 5.425589 12.609746 16.362642 -0.547227 0.690948 -0.007487 -0.006311 -641507.000000 1 0 0
-12.039182 -2.169011 15.935646 20.089582 0.178251 0.654702 -0.007757 0.007889 1949280.000000 1 0 0
-3.376882 -7.652211 16.978646 18.927073 1.155205 0.457734 0.011400 -0.009325 -186113.000000 1 0 0
-0.530882 -5.291511 14.397446 15.348237 1.470804 0.353831 0.002958 -0.001909 3181960.000000 1 0 0
-14.107082 -2.291011 13.767746 19.844629 0.160996 0.804076 -0.007645 0.002590 -260584.000000 1 0 0
-6.419582 1.389389 12.239746 13.890746 -0.213142 0.492520 -0.002606 0.002957 1655500.000000 1 0 0
2.333018 -2.260711 14.595546 14.952717 -0.769659 0.219009 -0.004083 0.000286 1214590.000000 1 0 0
-12.543982 3.984589 9.236846 16.079420 -0.307569 0.958862 -0.006723 -0.003794 -69571.200000 1 0 0
-8.978882 -3.091711 12.581946 15.763387 0.331616 0.646536 -0.003162 0.002467 573961.000000 1 0 0
-7.099382 -7.377911 15.457146 18.540716 0.804635 0.585046 0.008126 -0.004477 -761321.000000 1 0 0
-2.856082 6.101289 19.440146 20.574309 -1.132984 0.333584 -0.002069 -0.000687 555754.000000 1 0 0
0.706618 5.313989 16.178546 17.043566 1.438599 0.319965 -0.002146 -0.005626 220580.000000 1 0 0
3.440818 1.435689 16.775946 17.185250 0.395290 0.218688 -0.002894 -0.004781 2688210.000000 1 0 0
-11.595882 11.438489 7.928546 18.115334 -0.778565 1.117790 -0.001947 -0.008631 -487162.000000 1 0 0
0.656818 -9.494611 15.466946 18.160547 -1.501728 0.551617 -0.004731 0.002117 1109380.000000 1 0 0
-2.348682 -3.621611 18.841446 19.329575 0.995463 0.225211 0.011496 -0.017089 875070.000000 1 0 0
-12.728582 2.286389 13.854446 18.952310 -0.177731 0.750986 -0.009478 0.000467 1135700.000000 1 0 0
-5.239482 -0.708911 15.872046 16.729512 0.134485 0.321554 0.009703 -0.000536 672277.000000 1 0 0
-4.428682 -6.071111 11.685546 13.893293 0.940566 0.571496 0.004106 -0.001923 2043580.000000 1 0 0
2.524618 1.793589 13.966746 14.305966 0.617698 0.218202 -0.004630 -0.002652 -667320.000000 1 0 0
0.102718 3.273189 14.282146 14.652782 1.539425 0.225397 0.002004 -0.002592 2357.560000 1 0 0
-12.850082 6.998989 12.272846 19.097989 -0.498738 0.872877 -0.005154 -0.011031 -335958.000000 1 0 0
0.965718 1.416689 18.366646 18.446499 0.972477 0.093081 -0.001179 0.001797 108055.000000 1 0 0
-1.938682 6.372189 12.518546 14.180172 -1.275453 0.488963 -0.002649 -0.003436 1168310.000000 1 0 0
-13.409682 -2.743711 10.952046 17.529827 0.201821 0.895964 -0.004755 0.001616 -785996.000000 1 0 0
-2.475082 3.555889 13.483546 14.162499 -0.962725 0.310896 -0.001780 0.000708 -328125.000000 1 0 0
3.595618 6.001789 16.374746 17.806803 1.031045 0.403791 -0.000452 -0.003575 36866.900000 1 0 0
-3.591582 12.324389 12.418746 17.860999 -1.287229 0.801960 0.002368 -0.009001 -129447.000000 1 0 0
3.789018 -1.546911 17.144546 17.626260 -0.387608 0.234328 0.003758 -0.004499 1014570.000000 1 0 0
-15.753082 0.351889 9.267546 18.280340 -0.022334 1.039133 -0.003879 -0.006772 -625453.000000 1 0 0
-4.594382 4.487389 15.264846 16.560813 -0.773618 0.398240 0.003232 -0.000618 45237.600000 1 0 0
-7.984582 -8.216711 10.534246 15.564004 0.799725 0.827343 0.001251 -0.000065 2626350.000000 1 0 0
-2.467682 -0.507811 14.892646 15.104246 0.202952 0.167583 0.003662 -0.002161 979982.000000 1 0 0
-1.774782 0.978189 17.341046 17.459054 -0.503733 0.116334 0.001537 -0.003705 -69825.700000 1 0 0
-0.601582 -2.464011 14.502046 14.722180 1.331334 0.173147 0.002330 0.001021 473117.000000 1 0 0
5.125818 -8.357811 16.471346 19.168523 -1.020657 0.536914 0.004510 -0.000945 911261.000000 1 0 0
-4.368782 10.002889 10.746846 15.317922 -1.159014 0.793175 -0.001571 -0.007882 -881582.000000 1 0 0
-6.140582 2.016289 15.275146 16.586207 -0.317263 0.400273 0.003041 -0.000133 442560.000000 1 0 0
-4.747082 6.711289 17.243046 19.102325 -0.955169 0.444868 0.001184 -0.001131 190350.000000 1 0 0
-4.008282 9.149289 15.796446 18.689663 -1.157884 0.563863 -0.000953 -0.000435 -1274040.000000 1 0 0
-4.618982 -9.945711 18.278046 21.315232 1.136016 0.540384 0.013827 -0.007942 -583060.000000 1 0 0
-6.784982 -4.184411 11.177946 13.729230 0.552621 0.619496 -0.000581 0.001762 1020330.000000 1 0 0
-2.103082 -0.838411 19.617546 19.747759 0.379349 0.114901 0.006335 -0.004331 512520.000000 1 0 0
-5.724982 -4.646211 15.357146 17.035394 0.681755 0.447609 0.010491 -0.005890 971192.000000 1 0 0
-12.829782 -0.025711 9.737446 16.106577 0.002004 0.921579 -0.008695 -0.001677 1968710.000000 1 0 0
-14.281682 8.823189 10.607446 19.857820 -0.553403 1.007271 -0.006100 -0.002289 -1022820.000000 1 0 0
-8.280382 10.327689 12.907746 18.488802 -0.894980 0.798002 -0.006762 -0.012634 -213059.000000 1 0 0
-10.370482 7.130889 10.836346 16.607916 -0.602365 0.859943 -0.004425 -0.005167 -783005.000000 1 0 0
-9.791982 -6.572011 14.911246 19.011036 0.591109 0.669154 0.002978 -0.003477 430527.000000 1 0 0
-0.717582 -13.462611 14.494846 19.795388 1.517545 0.749201 -0.002345 -0.000285 1145460.000000 1 0 0
3.849018 -5.728211 16.941846 18.293537 -0.979151 0.386826 0.008326 -0.007379 710278.000000 1 0 0
-7.209182 9.362589 10.434646 15.764270 -0.914618 0.847422 -0.004687 -0.008577 840201.000000 1 0 0
-10.147982 -6.740511 11.879146 17.015585 0.586308 0.798009 -0.003662 -0.003179 394792.000000 1 0 0
-10.817782 -4.016311 10.720846 15.750927 0.355496 0.822149 -0.004862 0.002191 -226436.000000 1 0 0
-10.025382 -10.263111 9.838346 17.396344 0.797115 0.969707 -0.003261 -0.001566 1266190.000000 1 0 0
-9.740582 -3.694011 15.290946 18.502370 0.362482 0.598056 -0.001241 -0.001573 1007830.000000 1 0 0
5.652818 -3.481211 16.054546 17.373015 -0.551983 0.392101 0.011243 -0.006621 -1044440.000000 1 0 0
-11.114882 0.515089 15.410846 19.007895 -0.046309 0.625347 -0.004025 0.002436 404320.000000 1 0 0
-2.895682 3.222189 18.834446 19.326247 -0.838717 0.226080 0.002648 -0.000521 -1461950.000000 1 0 0
0.595918 7.194789 13.993346 15.745915 1.488159 0.476301 -0.004726 -0.002221 1334660.000000 1 0 0
-12.930182 -7.493411 12.207446 19.296698 0.525231 0.885867 -0.019781 -0.000932 -102956.000000 1 0 0
-1.419682 -1.182611 12.291946 12.430044 0.694548 0.149202 0.000498 -0.000421 -525624.000000 1 0 0
2.056718 -4.845611 13.062246 14.083051 -1.169392 0.383086 -0.001720 0.000421 1318000.000000 1 0 0
-14.476082 -4.202211 8.769146 17.438849 0.282522 1.043902 -0.011718 -0.005189 -1920340.000000 1 0 0
8.108418 0.788189 16.164646 18.101477 0.096902 0.466825 0.003351 -0.004111 799306.000000 1 0 0
-1.090082 11.296189 13.467746 17.611710 -1.474594 0.700214 -0.003230 -0.004009 38545.400000 1 0 0
2.684918 -12.187811 -13.835154 18.632311 -1.353964 2.407644 -0.009028 0.004207 -953759.000000 1 0 0
0.697118 -10.606811 -13.965054 17.550303 -1.505167 2.490985 -0.009086 0.003440 -1647720.000000 1 0 0
3.219318 -14.268211 -12.425754 19.192322 -1.348884 2.275008 -0.011893 0.003289 -1465220.000000 1 0 0
-5.145282 -10.308911 -16.230754 19.904395 1.107861 2.524278 -0.013197 0.005562 -340618.000000 1 0 0
-1.132682 -12.128811 -14.966454 19.297300 1.477679 2.458418 -0.013427 0.004901 -272387.000000 1 0 0
5.710518 -14.843311 -12.054354 19.955986 -1.203531 2.219366 -0.013069 0.003843 -167026.000000 1 0 0
1.731718 -11.753011 -16.156154 20.053764 -1.424506 2.507555 -0.012141 0.002629 -911466.000000 1 0 0
1.243918 -14.312611 -14.080054 20.115817 -1.484104 2.346123 -0.008132 0.012374 -886283.000000 1 0 0
-1.184282 -10.568711 -15.912954 19.139548 1.459206 2.552450 -0.009147 -0.000428 -458404.000000 1 0 0
-5.985682 -5.449711 -15.142154 17.170107 0.738563 2.650654 0.002801 -0.000007 11167.200000 1 0 0
-6.355582 -7.670811 -16.377254 19.168965 0.878893 2.595120 -0.006685 0.000858 -318729.000000 1 0 0
4.831618 -12.409111 -11.530654 17.614953 -1.199495 2.284443 -0.012347 0.000141 -510655.000000 1 0 0
-2.047882 -15.554511 -13.276054 20.552135 1.439891 2.273089 0.003693 0.006840 124999.000000 1 0 0
15.569918 -7.231311 -8.778154 19.281343 -0.434798 2.043468 -0.007684 0.004031 638508.000000 1 0 0
19.005518 -3.614011 -4.228154 19.802729 -0.187912 1.785967 -0.008555 -0.006929 443662.000000 1 0 0
14.907218 -11.561611 -9.024954 20.912814 -0.659667 2.017008 0.018040 -0.002590 299729.000000 1 0 0
17.775918 -3.342711 -6.601654 19.254579 -0.185876 1.920758 0.021942 0.001376 594699.000000 1 0 0
9.078018 -9.104411 -15.589854 20.207530 -0.786850 2.451972 0.000152 -0.006172 102445.000000 1 0 0
1.175718 1.976889 -15.312654 15.484436 1.034260 2.992499 0.004384 -0.003095 4659.950000 1 0 0
4.762218 -4.294311 -14.001254 15.399836 -0.733779 2.712112 -0.001437 0.000101 677310.000000 1 0 0
13.077018 -5.394511 -8.828354 16.674801 -0.391251 2.128740 0.006647 0.004037 -1290780.000000 1 0 0
2.852818 0.952389 -12.371154 12.731499 0.322208 2.903106 0.001309 -0.003134 -3824420.000000 1 0 0
0.653518 6.344789 -12.969354 14.452943 1.468157 2.684525 0.016849 -0.005233 125939.000000 1 0 0
3.009318 -1.151811 -16.865954 17.170995 -0.365546 2.952819 0.002230 -0.002671 199859.000000 1 0 0
13.007618 4.434589 -11.675054 18.032487 0.328565 2.275024 0.009262 0.001122 1051180.000000 1 0 0
-4.144982 9.342489 -16.333954 19.268135 -1.153219 2.582466 -0.002811 -0.004995 839570.000000 1 0 0
-0.445182 -5.029111 -17.696454 18.402571 1.482506 2.863677 -0.004601 -0.002004 431304.000000 1 0 0
-0.632882 -8.656211 -17.645854 19.664859 1.497813 2.684477 -0.007847 0.003753 -2142220.000000 1 0 0
5.527118 -10.049311 -12.232154 16.767924 -1.067953 2.388383 -0.002357 -0.000749 466877.000000 1 0 0
1.659818 -9.712811 -18.103454 20.611374 -1.401542 2.643140 -0.006837 -0.004717 -711163.000000 1 0 0
10.636418 9.160189 -14.777454 20.381747 0.710966 2.381880 0.010895 -0.006469 -1254960.000000 1 0 0
10.788918 -3.738811 -13.107554 17.383539 -0.333591 2.424959 0.010634 -0.002468 120168.000000 1 0 0
4.955418 7.480189 -12.291154 15.217814 0.985703 2.511006 0.001582 -0.004835 -1606420.000000 1 0 0
9.530218 -5.913211 -12.683054 16.930770 -0.555335 2.417518 0.010560 -0.001637 -1792310.000000 1 0 0
-3.429682 0.393789 -15.913854 16.283996 -0.114317 2.927971 0.007768 -0.000067 -1558740.000000 1 0 0
-0.852082 10.746989 -12.717454 16.672056 -1.491676 2.438429 0.002685 -0.006074 -1547080.000000 1 0 0
6.688018 -5.379611 -12.412554 15.091100 -0.677397 2.536603 -0.003116 -0.001547 -153261.000000 1 0 0
17.859718 -5.879411 -8.491354 20.631047 -0.318026 1.994985 0.005330 -0.000493 371355.000000 1 0 0
13.005418 4.697789 -14.229854 19.841846 0.346633 2.370520 0.007554 -0.001679 394779.000000 1 0 0
14.009318 0.856389 -11.741454 18.299075 0.061054 2.267433 0.006220 0.002668 -201613.000000 1 0 0
14.938318 6.216889 -11.434654 19.812985 0.394368 2.186005 0.006526 0.006693 481200.000000 1 0 0
8.055418 1.553389 -11.817454 14.385931 0.190499 2.534761 -0.002929 0.004714 922218.000000 1 0 0
9.739018 1.366189 -9.110954 13.406134 0.139370 2.318028 -0.002595 0.002006 98075.500000 1 0 0
-0.263182 -5.697611 -12.981354 14.179125 1.524638 2.727609 -0.006208 -0.000059 -34174.300000 1 0 0
10.459918 -5.664111 -9.220454 15.050210 -0.496299 2.230201 0.001207 -0.000136 -830406.000000 1 0 0
10.131418 8.543289 -11.335254 17.439077 0.700561 2.278370 0.016098 -0.008726 691266.000000 1 0 0
8.191018 8.099789 -14.784154 18.742213 0.779798 2.479676 0.015071 -0.003709 1078090.000000 1 0 0
8.625818 10.739589 -10.708054 17.447233 0.894120 2.231585 0.016719 -0.006958 -68592.000000 1 0 0
6.801818 1.889189 -18.133054 19.458710 0.270919 2.770339 0.002700 0.004631 -2570690.000000 1 0 0
12.079218 2.498689 -13.120854 18.008547 0.203981 2.387058 0.005532 0.003585 -1089330.000000 1 0 0
2.550518 -0.973511 -19.446054 19.636748 -0.364624 3.002116 0.003248 -0.004832 -579011.000000 1 0 0
10.229418 -2.286711 -15.630654 18.819867 -0.219927 2.550873 0.009451 0.000666 51029.400000 1 0 0
8.091918 -0.701811 -13.166954 15.470629 -0.086513 2.588861 0.000484 0.000697 448315.000000 1 0 0
0.322518 4.362389 -14.633954 15.273738 1.496999 2.851132 0.009605 -0.003108 204756.000000 1 0 0
3.807718 -7.562411 -15.760254 17.890623 -1.104348 2.648604 -0.000286 -0.005707 -699785.000000 1 0 0
11.220218 -5.766511 -14.691854 19.364827 -0.474737 2.432092 0.006999 0.001674 -727363.000000 1 0 0
-6.139482 4.291589 -16.889054 18.475690 -0.610064 2.724136 0.005091 0.007906 167966.000000 1 0 0
11.345918 7.989489 -9.203654 16.651397 0.613521 2.156428 0.014092 -0.001544 -1921740.000000 1 0 0
9.513918 6.192189 -13.569554 17.691541 0.576977 2.444961 0.021179 -0.002765 687665.000000 1 0 0
11.846318 0.732789 -10.389554 15.773873 0.061779 2.289827 0.003549 0.002883 -1975940.000000 1 0 0
5.311318 -7.204111 -13.690154 16.356333 -0.935497 2.562563 0.000079 -0.002786 -753396.000000 1 0 0
8.489318 -10.205811 -10.753954 17.084339 -0.876956 2.251658 0.004823 -0.000197 115181.000000 1 0 0
9.874618 4.548989 -15.910254 19.270121 0.431696 2.542138 0.010785 -0.004521 -233897.000000 1 0 0
9.692618 -0.290211 -11.124954 14.757902 -0.029933 2.424668 0.000502 0.001608 -2082480.000000 1 0 0
-1.767482 5.550789 -13.913954 15.084209 -1.262527 2.745093 0.003337 -0.003828 -351646.000000 1 0 0
1.209618 -0.623211 -14.965654 15.027387 -0.475744 3.050919 0.000023 -0.003849 -878675.000000 1 0 0
11.196118 -10.379911 -14.670354 21.173448 -0.747587 2.336252 0.005830 0.004094 478890.000000 1 0 0
9.441518 -7.823511 -10.932854 16.427930 -0.691955 2.298965 0.005218 0.001312 -132133.000000 1 0 0
13.775118 -0.881411 -9.915354 16.995441 -0.063899 2.193720 -0.006004 0.004182 593470.000000 1 0 0
3.923718 11.146589 -12.204854 16.988245 1.232331 2.372338 -0.002766 -0.008360 -987616.000000 1 0 0
-1.577482 3.087989 -16.962854 17.313652 -1.098511 2.939949 0.001951 0.001186 -304985.000000 1 0 0
5.762318 -0.389411 -18.014254 18.917434 -0.067476 2.831341 -0.005126 0.010001 274405.000000 1 0 0
6.254218 -6.544411 -15.947054 18.337205 -0.808068 2.625301 0.005526 -0.003353 -164388.000000 1 0 0
-1.914482 -5.193511 -19.932654 20.686916 1.217622 2.870725 0.004947 -0.002267 -650894.000000 1 0 0
-0.107182 -4.256811 -15.184554 15.770308 1.545623 2.868188 -0.003963 -0.001344 -67553.200000 1 0 0
0.471918 0.869489 -13.068454 13.105846 1.073533 3.066035 -0.000420 -0.004009 236752.000000 1 0 0
15.507418 0.788989 -13.901854 20.841403 0.050834 2.301012 0.002849 0.001429 534460.000000 1 0 0
-0.288982 7.094289 -16.231054 17.716082 -1.530084 2.729229 0.006732 -0.005244 -281100.000000 1 0 0
-4.906482 -0.648411 -18.252554 18.911629 0.131393 2.876811 -0.008281 0.004703 -486144.000000 1 0 0
10.172818 -8.373411 -13.245554 18.682745 -0.688678 2.358837 0.006208 -0.006593 -87644.300000 1 0 0
4.043318 8.535789 -17.327254 19.734281 1.128417 2.642523 -0.001007 -0.005709 -283482.000000 1 0 0
9.134418 0.922389 -17.159354 19.461033 0.100638 2.650311 0.010280 0.002045 280302.000000 1 0 0
3.091918 4.901889 -18.533154 19.418194 1.008065 2.838514 0.000484 -0.003250 -587415.000000 1 0 0
1.334118 -8.029511 -16.008654 17.959118 -1.406149 2.671208 -0.008802 -0.003377 -605476.000000 1 0 0
4.375918 7.819589 -14.916554 17.401098 1.060605 2.600641 -0.002709 -0.005472 378124.000000 1 0 0
-5.759082 -0.412211 -15.208754 16.267856 0.071454 2.778762 0.000522 -0.001929 -530071.000000 1 0 0
2.695918 3.507389 -13.727954 14.423123 0.915472 2.829854 0.003578 -0.004000 -520027.000000 1 0 0
-2.510182 -10.380511 -18.103954 21.019257 1.333534 2.608625 0.000907 0.006544 -168623.000000 1 0 0
5.896118 -9.090811 -15.498054 18.910228 -0.995420 2.531438 -0.007255 -0.005374 -200533.000000 1 0 0
-2.012882 5.548889 -17.380754 18.355720 -1.222805 2.814203 0.002538 0.001879 -272240.000000 1 0 0
9.907318 -12.198111 -11.806654 19.655685 -0.888660 2.215140 0.014597 0.002324 167033.000000 1 0 0
10.772518 3.657989 -9.451254 14.790343 0.327350 2.264014 0.000178 0.000290 -1027580.000000 1 0 0
4.716418 -0.488711 -11.196454 12.159113 -0.103251 2.740995 -0.004844 -0.002820 -141540.000000 1 0 0
6.267618 9.595689 -11.382754 16.153246 0.992196 2.352758 0.003440 -0.010630 203085.000000 1 0 0
10.799918 -9.491511 -9.537054 17.253476 -0.721007 2.156470 0.012252 0.000431 14689.300000 1 0 0
3.018918 -2.402911 -14.543554 15.046688 -0.672267 2.882262 -0.001035 0.000444 -195985.000000 1 0 0
8.921918 -4.542811 -14.743854 17.821868 -0.470960 2.545063 0.003305 -0.001540 -351739.000000 1 0 0
-4.127082 -6.448511 -16.605054 18.285074 1.001479 2.709570 -0.008484 0.005846 -1885500.000000 1 0 0
5.703018 -7.700111 -11.277854 14.798855 -0.933312 2.437310 -0.006662 -0.003055 384139.000000 1 0 0
5.305018 6.338189 -16.908954 18.820961 0.873902 2.686933 0.006657 -0.013710 -1593160.000000 1 0 0
8.878618 1.559589 -19.660154 21.628311 0.173883 2.711677 0.004555 0.001004 342442.000000 1 0 0
12.994518 5.892989 -9.608554 17.202009 0.425759 2.163459 0.004798 0.003640 682882.000000 1 0 0
-1.683682 -0.717611 -17.389354 17.485405 0.402900 3.036729 -0.001390 0.001911 617481.000000 1 0 0
-0.555982 -0.611211 -19.705554 19.722869 0.832681 3.099687 -0.001664 0.000691 -425709.000000 1 0 0
2.715718 6.469289 -16.536754 17.963603 1.173350 2.740334 0.000679 -0.004268 -1037230.000000 1 0 0
7.404318 3.775189 -15.772454 17.828244 0.471507 2.656623 0.001432 0.000040 -947885.000000 1 0 0
2.908518 -9.812911 -14.887054 18.065909 -1.282648 2.539304 -0.003802 -0.003169 -628486.000000 1 0 0
8.869018 -10.572111 -13.448954 19.269234 -0.872778 2.343327 0.008526 -0.003234 531754.000000 1 0 0
3.674918 0.094989 -14.909254 15.355777 0.025842 2.899847 -0.003443 -0.000761 -2392800.000000 1 0 0
-1.381282 -2.846411 -18.927554 19.190161 1.119001 2.975968 0.001889 0.000119 356807.000000 1 0 0
9.012918 10.088789 -13.127954 18.850982 0.841662 2.341175 0.014637 -0.015651 329598.000000 1 0 0
4.530018 2.115089 -10.805454 11.905986 0.436823 2.708244 -0.005421 0.002200 -326027.000000 1 0 0
-0.458382 7.172289 -18.844654 20.168610 -1.506973 2.777243 0.007135 0.000459 56003.200000 1 0 0
0.721318 -1.788011 -17.737254 17.841734 -1.187346 3.033319 0.006626 -0.003874 -2217780.000000 1 0 0
-4.591182 -2.277111 -14.049554 14.955071 0.460422 2.791821 0.004656 -0.004778 -2923740.000000 1 0 0
9.994918 6.110989 -10.433254 15.687427 0.548767 2.298385 0.009829 0.000479 -195949.000000 1 0 0
8.169518 5.852389 -17.240254 19.955396 0.621628 2.613837 0.011368 -0.008772 -777213.000000 1 0 0
11.183018 0.233489 -13.783554 17.751078 0.020876 2.459874 0.002715 0.006549 274810.000000 1 0 0
6.652218 11.999989 -11.786354 18.087838 1.064618 2.280511 0.003836 -0.011192 -205499.000000 1 0 0
-1.031082 0.653389 -15.135054 15.184199 -0.564826 3.061115 0.001580 -0.002446 -1320350.000000 1 0 0
-4.548282 -3.104611 -19.002254 19.784113 0.598946 2.859520 -0.009610 0.014128 -276392.000000 1 0 0
5.606418 -11.959511 -13.950854 19.211667 -1.132433 2.383525 -0.004862 0.000024 -139695.000000 1 0 0
2.090718 -4.738411 -13.940554 14.871540 -1.155261 2.785879 -0.002277 -0.001485 735028.000000 1 0 0
11.630518 1.965289 -15.594754 19.553201 0.167396 2.494028 0.009066 0.002762 342984.000000 1 0 0
9.521518 2.305689 -13.830054 16.948330 0.237582 2.525275 0.003380 -0.001785 534747.000000 1 0 0
-2.318482 -4.045211 -16.336654 16.988977 1.050359 2.863581 -0.006546 -0.001542 -1550690.000000 1 0 0
-2.964982 10.202989 -14.175254 17.715245 -1.287986 2.498379 0.000131 -0.005666 84021.100000 1 0 0
3.516218 5.823489 -13.727254 15.320389 1.027588 2.681502 -0.002294 -0.002305 -175308.000000 1 0 0
-5.308282 -2.659011 -16.548954 17.581697 0.464381 2.797140 0.001579 0.003010 397295.000000 1 0 0
-4.451482 6.115089 -13.540054 15.509451 -0.941557 2.632156 -0.002710 -0.001711 1444600.000000 1 0 0
5.758818 -1.084611 -14.279154 15.434850 -0.186159 2.752159 -0.002654 0.006442 -2432280.000000 1 0 0
6.657418 -2.897711 -12.762654 14.683436 -0.410529 2.624352 -0.002301 -0.000043 1066570.000000 1 0 0
2.767118 -3.346511 -18.325254 18.832711 -0.879887 2.908924 0.002467 -0.008127 483570.000000 1 0 0
7.306718 -12.017311 -12.010154 18.494532 -1.024504 2.277578 -0.003703 0.000353 -2356580.000000 1 0 0
-6.353782 -5.404911 -17.652254 19.523977 0.704877 2.700140 0.012477 0.005247 277737.000000 1 0 0
0.375618 8.687589 -11.867754 14.712541 1.527587 2.509245 0.007804 -0.006207 251707.000000 1 0 0
0.202218 8.616789 -14.378054 16.763603 1.547333 2.601566 0.004609 -0.003966 -116476.000000 1 0 0
7.690118 -2.319711 -15.184854 17.178439 -0.292968 2.655037 0.004296 -0.003723 -593033.000000 1 0 0
14.220618 1.615389 -9.269854 17.051852 0.113110 2.145549 -0.002047 0.005051 689377.000000 1 0 0
2.707918 10.776389 -14.457754 18.234309 1.324611 2.486329 -0.001248 -0.004270 -1014060.000000 1 0 0
5.904118 1.062689 -15.824854 16.923768 0.178084 2.779244 -0.001212 0.001786 467621.000000 1 0 0
16.457918 -5.518411 -10.587854 20.332698 -0.323523 2.118503 0.012156 -0.001703 462688.000000 1 0 0
4.843318 -4.181211 -11.315454 12.999221 -0.712162 2.626956 -0.008129 0.002049 -1099470.000000 1 0 0
8.590618 -3.730411 -17.119854 19.514202 -0.409673 2.641008 0.000354 -0.008072 137326.000000 1 0 0
13.308218 -9.513511 -8.986754 18.664869 -0.620630 2.073138 0.016484 0.003725 -1734330.000000 1 0 0
2.227118 -7.695311 -13.599454 15.783631 -1.289081 2.609244 -0.007287 -0.001458 -4214.270000 1 0 0
-6.963982 -2.236611 -18.569754 19.958337 0.310763 2.766370 -0.013719 0.007107 -1165560.000000 1 0 0
-1.614182 -6.433011 -15.726354 17.067730 1.324950 2.742486 -0.009849 -0.000566 -71159.700000 1 0 0
1.259018 -7.222011 -18.557554 19.953079 -1.398200 2.765371 -0.001928 -0.003882 -203019.000000 1 0 0
5.237218 10.608989 -14.365954 18.610742 1.112235 2.452648 -0.006575 -0.019742 -588987.000000 1 0 0
5.272018 -3.561711 -17.363154 18.492136 -0.594153 2.790356 0.005539 -0.009814 -252289.000000 1 0 0
4.098918 12.922489 -14.185254 19.621755 1.263642 2.378837 -0.014363 -0.002880 -132729.000000 1 0 0
8.574518 10.569189 -15.648854 20.739256 0.889218 2.425768 0.002904 -0.008566 418440.000000 1 0 0
2.398818 4.011589 -16.207754 16.868268 1.031869 2.860824 0.001728 -0.006986 131737.000000 1 0 0
16.493218 1.693689 -11.758854 20.326472 0.102331 2.187684 0.002304 0.007786 -538974.000000 1 0 0
9.947918 -3.562611 -10.670754 15.017266 -0.343896 2.361098 0.004815 -0.000325 -219654.000000 1 0 0
14.516718 -2.018811 -12.292354 19.128844 -0.138182 2.268694 0.003370 0.006758 173594.000000 1 0 0
-2.857282 -8.614911 -16.236054 18.600812 1.250546 2.631846 -0.006674 0.010251 -35666.300000 1 0 0
13.919518 8.257989 -9.094154 18.564779 0.535454 2.082726 0.020964 0.001479 512389.000000 1 0 0
-8.494782 0.033789 -16.546654 18.599844 -0.003978 2.667292 -0.009892 0.004857 -369680.000000 1 0 0
-3.738582 4.225189 -15.971854 16.938988 -0.846425 2.802043 0.002155 0.004431 -646964.000000 1 0 0
14.977118 4.110589 -9.895454 18.415510 0.267862 2.138080 0.010781 0.009580 724428.000000 1 0 0
5.307918 1.097489 -13.141154 14.215077 0.203891 2.750392 -0.006459 0.003786 -16956.500000 1 0 0
7.729818 -7.688011 -12.938554 16.919273 -0.782687 2.441407 0.002711 -0.001475 -2193220.000000 1 0 0
3.157718 -6.152811 -11.814454 13.689762 -1.096632 2.612002 -0.007107 -0.000646 -1177510.000000 1 0 0
-3.472082 3.753889 -18.621954 19.311245 -0.824378 2.873607 0.006316 0.009276 19220.200000 1 0 0
0.609518 5.162589 -17.605554 18.356998 1.453276 2.854478 0.006731 -0.009685 -280526.000000 1 0 0
6.372018 7.149789 -10.328154 14.085200 0.842855 2.393905 0.002243 -0.003715 789472.000000 1 0 0
9.588718 3.867089 -11.771654 15.667474 0.383344 2.420892 0.004280 0.003827 541869.000000 1 0 0
4.224918 1.717789 -17.661354 18.240728 0.386170 2.888878 0.001314 -0.001156 -1054950.000000 1 0 0
2.489918 8.115089 -13.210354 15.702478 1.273089 2.570463 0.003770 -0.006033 -964589.000000 1 0 0
14.300818 -3.414111 -10.125054 17.851786 -0.234349 2.173866 0.004412 0.005806 264499.000000 1 0 0
-1.536482 9.297889 -16.151154 18.699499 -1.407026 2.613404 0.002037 -0.001868 -1293860.000000 1 0 0
-5.326982 2.126889 -15.777454 16.787747 -0.379874 2.792898 0.001315 0.001304 348836.000000 1 0 0
4.317318 4.406389 -11.900754 13.404605 0.795608 2.663363 -0.001489 -0.001850 623391.000000 1 0 0
8.786418 3.446489 -17.991054 20.316433 0.373809 2.658456 -0.000579 0.007561 716547.000000 1 0 0
-4.325482 14.287089 -13.494554 20.122964 -1.276814 2.305820 -0.003455 -0.005147 -348039.000000 1 0 0
15.513918 -4.683411 -8.277054 18.196858 -0.293185 2.043013 0.007316 -0.001813 549065.000000 1 0 0
0.977918 9.404589 -16.860454 19.330740 1.467186 2.630498 0.000709 0.004069 -195124.000000 1 0 0
0.416118 -3.212011 -12.755154 13.159944 -1.441963 2.892923 -0.002607 0.000281 85132.400000 1 0 0
7.380318 3.547889 -13.085354 15.436421 0.448107 2.582418 -0.002801 0.002275 -1238510.000000 1 0 0
-3.047982 7.610789 -14.946854 17.047661 -1.189875 2.639898 -0.000360 -0.002853 488255.000000 1 0 0
12.031518 -5.118611 -11.184554 17.206158 -0.402238 2.278423 0.009255 0.001023 -596740.000000 1 0 0
0.472818 -4.304211 -20.081854 20.543385 -1.461385 2.929221 0.005228 -0.005897 -699345.000000 1 0 0
3.154918 -4.551211 -16.148854 17.071980 -0.964646 2.811238 0.000765 -0.005706 564082.000000 1 0 0
-5.901382 4.199989 -14.322954 16.050334 -0.618532 2.673382 -0.003111 0.002391 505765.000000 1 0 0
12.273918 -7.472611 -9.979554 17.495156 -0.546880 2.177811 0.011027 0.003197 230736.000000 1 0 0
-2.172382 -1.745411 -15.073354 15.328787 0.676844 2.958781 0.002671 -0.000822 792245.000000 1 0 0
6.974918 5.917689 -14.287654 16.964834 0.703578 2.572133 0.006577 -0.002399 -1015640.000000 1 0 0
4.140518 -5.627511 -18.344154 19.629589 -0.936469 2.777692 0.010016 -0.015165 172096.000000 1 0 0
7.600618 7.560989 -12.390254 16.384637 0.782784 2.428300 0.007603 -0.007076 -997579.000000 1 0 0
12.184518 -2.482211 -11.299254 16.801696 -0.200968 2.308387 0.006274 0.004288 -1745270.000000 1 0 0
7.241918 -0.746111 -10.780954 13.008883 -0.102665 2.547645 -0.003072 0.000961 -743258.000000 1 0 0
5.232718 4.013189 -14.368054 15.809111 0.654256 2.711306 0.002053 -0.003015 -143738.000000 1 0 0
14.684618 3.046589 -13.054054 19.882858 0.204566 2.287030 0.004845 -0.000417 393252.000000 1 0 0
-6.806682 6.625689 -15.912854 18.532393 -0.771925 2.603428 -0.002211 0.009243 374107.000000 1 0 0
-11.489582 3.677089 -16.293854 20.273656 -0.309736 2.504277 0.003144 0.000274 -97851.500000 1 0 0
-5.267282 6.450989 -18.023454 19.854581 -0.886070 2.708740 -0.003891 0.016996 -643083.000000 1 0 0
-10.349182 1.495289 -15.500054 18.697409 -0.143491 2.548104 -0.000342 0.001537 -1108700.000000 1 0 0
-7.815982 5.809689 -18.198054 20.640039 -0.639205 2.650222 -0.010363 0.015339 470149.000000 1 0 0
-8.951082 3.762089 -15.889954 18.621649 -0.397878 2.593088 -0.005681 0.018009 -537724.000000 1 0 0
8.825218 13.397489 -12.103954 20.096838 0.988314 2.217152 0.015041 -0.011021 -2532490.000000 1 0 0
13.595218 9.321389 -11.488554 20.092414 0.601021 2.179477 0.013083 -0.004096 72442.300000 1 0 0
8.214618 16.056589 -9.157354 20.227484 1.097909 2.040608 0.012930 0.004868 -171933.000000 1 0 0
7.153718 13.404289 -14.031854 20.681962 1.080562 2.316459 -0.004240 -0.010425 -284795.000000 1 0 0
4.509018 16.045989 -12.590654 20.888503 1.296855 2.217746 -0.004720 -0.005493 369735.000000 1 0 0
11.107818 10.929389 -11.676654 19.472530 0.777302 2.213857 0.021671 -0.008009 166820.000000 1 0 0
15.748518 9.800589 -10.183554 21.160627 0.556668 2.072877 0.030571 0.008199 1155790.000000 1 0 0
13.562318 10.892589 -9.426254 19.784823 0.676659 2.067396 0.056387 0.000363 290909.000000 1 0 0
10.351418 11.981689 -8.605654 18.021376 0.858267 2.068632 0.018919 0.006911 300399.000000 1 0 0
5.198718 16.181589 -10.067354 19.754040 1.259938 2.105557 -0.008363 -0.003071 -160934.000000 1 0 0
6.636418 14.669489 -11.716354 19.912531 1.145952 2.199864 -0.001684 0.004316 -257678.000000 1 0 0
10.620618 14.116889 -10.059154 20.329059 0.925803 2.088420 0.024803 0.006117 -253959.000000 1 0 0
8.063118 -18.836511 -1.538354 20.547374 -1.166338 1.645735 0.004087 0.013012 -225756.000000 1 0 0
7.356618 -17.428511 -3.640854 19.264700 -1.171382 1.760931 0.010429 0.004309 -267387.000000 1 0 0
4.511718 -18.361611 5.685646 19.744137 -1.329855 1.278694 0.010412 0.007988 128869.000000 1 0 0
9.767318 -17.260311 -2.718954 20.017781 -1.055841 1.707044 0.010288 0.009994 -1281140.000000 1 0 0
-9.553482 -12.140711 -9.795854 18.292748 0.904097 2.135902 0.007265 -0.015547 -891560.000000 1 0 0
-5.246682 -7.028011 -12.223654 15.044545 0.929514 2.519220 0.004224 -0.000144 5360.420000 1 0 0
-10.813582 -9.432511 -5.705654 15.442160 0.717290 1.949252 0.012499 -0.005996 -919602.000000 1 0 0
-4.635582 -11.482011 -13.981754 18.676580 1.187082 2.416782 -0.000651 0.002039 -46293.700000 1 0 0
-3.181082 -15.574611 7.401846 17.534969 1.369320 1.135015 0.001186 0.002819 317192.000000 1 0 0
-4.769982 -11.855811 -11.510354 17.198873 1.188281 2.303996 -0.005365 0.000238 283629.000000 1 0 0
-14.368782 -12.810111 -4.110154 19.683856 0.728112 1.781153 -0.001006 -0.003120 -330582.000000 1 0 0
-3.174182 -12.253811 -3.341454 13.091854 1.317331 1.828883 0.006986 -0.004660 785564.000000 1 0 0
-2.454582 -17.337911 -1.623054 17.585859 1.430158 1.663221 -0.001949 -0.005467 -612493.000000 1 0 0
-5.836782 -12.336111 3.633646 14.122714 1.128862 1.310579 0.000119 0.000244 24425.000000 1 0 0
-8.813482 -10.847711 -12.035854 18.444839 0.888496 2.281718 0.006103 -0.002029 -127458.000000 1 0 0
-9.715582 -11.762611 -7.292354 16.909464 0.880419 2.016684 0.003435 -0.018575 84839.000000 1 0 0
-10.863582 -15.129811 6.412746 19.699033 0.948075 1.239218 -0.002285 0.000218 -244159.000000 1 0 0
-9.388682 -15.163111 0.941046 17.859251 1.016394 1.518080 -0.005438 -0.006893 -1622250.000000 1 0 0
-14.952382 -7.701811 -8.343454 18.775112 0.475646 2.031288 -0.001307 -0.001443 338837.000000 1 0 0
-2.429182 -16.623411 5.089746 17.554038 1.425693 1.276625 -0.004014 0.001504 -260294.000000 1 0 0
4.400218 -15.784111 6.244946 17.535662 -1.298924 1.206675 0.007642 0.003964 -754440.000000 1 0 0
4.171718 -14.448711 -10.030554 18.077071 -1.289714 2.159012 -0.007107 -0.001842 19507.900000 1 0 0
-7.411582 -13.902411 -0.163654 15.755487 1.081009 1.581184 0.005650 -0.008395 221146.000000 1 0 0
3.124118 -15.082211 9.732546 18.219651 -1.366546 1.007261 0.002248 0.005671 572390.000000 1 0 0
2.175918 -17.474711 10.259946 20.380546 -1.446916 1.043246 0.005972 0.004527 -470441.000000 1 0 0
-8.317382 -17.040011 -5.647854 19.784819 1.116707 1.860287 -0.001200 -0.006093 -198875.000000 1 0 0
-6.510482 -9.047111 -7.691554 13.542400 0.947024 2.174823 0.005868 -0.006217 199113.000000 1 0 0
-5.971782 -13.143511 -4.793054 15.211424 1.144329 1.891354 0.003169 -0.009915 100902.000000 1 0 0
2.270118 -19.456711 -4.948154 20.203992 -1.454646 1.818223 0.001450 -0.006267 82856.900000 1 0 0
-5.331182 -12.866711 8.284046 16.204912 1.177990 1.034209 -0.001250 0.000442 730670.000000 1 0 0
2.113018 -17.471011 3.408246 17.925324 -1.450437 1.379496 0.004727 -0.009216 -3722.040000 1 0 0
-17.877582 -10.055011 -2.242454 20.633463 0.512342 1.679692 0.012951 0.003332 519536.000000 1 0 0
-3.482382 -15.441211 2.521546 16.028605 1.348982 1.412825 -0.000245 -0.002611 13417.800000 1 0 0
-10.311282 -10.362411 -14.013054 20.250130 0.787871 2.335050 0.005137 -0.009324 -218081.000000 1 0 0
6.119718 -14.510411 -5.798754 16.781792 -1.171684 1.923609 -0.008359 0.000329 305239.000000 1 0 0
-7.212882 -12.317311 -10.615654 17.788590 1.041041 2.210263 -0.000699 -0.009967 -2618640.000000 1 0 0
-7.312382 -14.378011 3.875046 16.589579 1.100308 1.335035 0.000405 0.001585 523726.000000 1 0 0
3.247518 -15.138911 -3.150554 15.800601 -1.359484 1.771536 0.002501 0.000473 -903739.000000 1 0 0
-7.474282 -11.505111 7.873746 15.818608 0.994668 1.049791 -0.000079 0.000354 -1800590.000000 1 0 0
-12.734182 -12.385211 -1.177454 17.802787 0.771507 1.636983 -0.004242 0.003160 -725389.000000 1 0 0
-1.890682 -13.723611 3.954846 14.406700 1.433890 1.292712 -0.001501 0.002522 -3431960.000000 1 0 0
-2.981082 -13.989311 5.310746 15.257513 1.360840 1.215280 -0.005250 0.002379 -512809.000000 1 0 0
-14.468682 -10.232311 -4.326654 18.241789 0.615545 1.810262 0.000635 -0.000562 135286.000000 1 0 0
-6.075582 -8.593311 -10.367454 14.773009 0.955379 2.348694 0.000138 -0.005431 269563.000000 1 0 0
0.817618 -19.567311 2.357846 19.725811 -1.529036 1.450979 0.004773 -0.005038 144429.000000 1 0 0
6.466718 -14.298911 -8.301854 17.753819 -1.146071 2.057381 -0.006103 0.005537 -1909940.000000 1 0 0
-3.969582 -16.798011 -5.916154 18.246414 1.338741 1.901001 -0.006519 0.000174 -131114.000000 1 0 0
-3.830482 -13.763411 -13.100154 19.383449 1.299356 2.312903 -0.000916 0.003280 -309877.000000 1 0 0
-8.112682 -14.652311 -4.479454 17.336993 1.065133 1.832137 -0.000984 -0.007761 -2370370.000000 1 0 0
-4.274282 -14.387211 10.069846 18.073825 1.282012 0.979846 -0.006141 0.002876 -299943.000000 1 0 0
-0.267482 -12.099111 -10.081454 15.751056 1.548692 2.265359 0.000197 0.005274 582351.000000 1 0 0
2.374718 -17.278611 6.683746 18.677852 -1.434215 1.204839 0.006917 -0.001793 -2392000.000000 1 0 0
-2.833882 -19.136411 -3.449754 19.650291 1.423776 1.747268 -0.006973 -0.000790 -461489.000000 1 0 0
0.637418 -15.499211 -3.163854 15.831672 -1.529694 1.771994 0.005794 -0.003056 -1042390.000000 1 0 0
6.022318 -17.960111 0.475146 18.948870 -1.247262 1.545719 0.010755 -0.003530 -440932.000000 1 0 0
-7.114582 -16.773111 3.852146 18.622394 1.169632 1.362436 -0.010017 0.001940 299833.000000 1 0 0
-5.211982 -13.492311 -9.617654 17.369700 1.202162 2.157601 -0.003918 -0.002336 -92484.300000 1 0 0
5.696218 -15.289911 -2.318554 16.480412 -1.214178 1.711950 -0.001438 0.003580 -1712580.000000 1 0 0
-8.810382 -10.162211 -0.447754 13.457111 0.856530 1.604075 0.006048 -0.003010 86460.600000 1 0 0
-7.448782 -18.189511 -2.820854 19.856986 1.182119 1.713337 -0.007476 -0.002712 -768035.000000 1 0 0
7.934318 -16.166511 -1.321254 18.056999 -1.114546 1.644033 0.003049 0.003439 203104.000000 1 0 0
-8.062782 -10.044111 -9.583954 16.054432 0.894389 2.210511 0.006370 -0.008654 394636.000000 1 0 0
-9.128482 -14.953911 -6.909254 18.833121 1.022735 1.946435 0.001214 -0.012183 -276346.000000 1 0 0
-11.478682 -10.584611 -11.803654 19.573461 0.744897 2.218108 0.011292 -0.004337 601693.000000 1 0 0
6.571018 -16.270411 2.314446 17.699187 -1.186964 1.439655 0.009431 -0.001071 1251800.000000 1 0 0
-2.153882 -11.150811 -6.108854 12.895654 1.379987 2.064300 0.003387 -0.000940 -1106910.000000 1 0 0
-12.362682 -15.106911 -3.423254 19.818510 0.884968 1.744397 -0.000522 -0.017259 -438885.000000 1 0 0
-0.320582 -19.584611 -2.884254 19.798452 1.554429 1.716997 0.001483 -0.008927 -56104.700000 1 0 0
-5.870582 -15.618911 -4.707754 17.337159 1.211269 1.845790 -0.007189 -0.002529 -3243970.000000 1 0 0
1.883718 -16.020811 -1.051754 16.165425 -1.453754 1.635904 0.007582 -0.007431 734736.000000 1 0 0
-13.217382 -12.085011 5.311046 18.680308 0.740675 1.282507 0.008668 0.004950 718583.000000 1 0 0
2.023718 -15.210311 -8.833854 17.705535 -1.438524 2.093162 -0.002602 0.002424 -1640450.000000 1 0 0
-11.482482 -16.678811 0.403646 20.253224 0.967866 1.550865 -0.010806 -0.002048 411192.000000 1 0 0
-8.024182 -16.234511 -1.077654 18.141339 1.111746 1.630235 -0.005633 -0.009609 -49043.600000 1 0 0
-3.040082 -14.391311 -1.830354 14.822353 1.362613 1.694598 0.006801 -0.006039 199498.000000 1 0 0
-1.937082 -10.438811 -13.307754 17.024024 1.387318 2.468190 -0.006148 0.003598 -910571.000000 1 0 0
1.499418 -19.620611 4.827946 20.261434 -1.494524 1.330199 0.007593 -0.003104 -50900.800000 1 0 0
-17.283582 -9.359011 2.600546 19.826148 0.496292 1.439250 -0.009947 -0.000841 12773.100000 1 0 0
-2.728782 -15.625211 -8.070354 17.796744 1.397900 2.041455 -0.001286 -0.000532 -2324310.000000 1 0 0
-10.476682 -12.122711 0.135746 16.023090 0.858105 1.562324 0.000849 -0.001485 259804.000000 1 0 0
-6.805182 -11.434911 -6.521554 14.818852 1.033970 2.026490 0.006556 -0.008871 -282799.000000 1 0 0
-2.221282 -13.606711 -6.712154 15.333939 1.408975 2.023871 -0.003047 0.001477 827118.000000 1 0 0
-14.253282 -14.508811 -1.029154 20.364695 0.794282 1.621354 0.000620 -0.000195 -33044.200000 1 0 0
-9.594882 -11.223011 -4.467354 15.426438 0.863447 1.864596 0.011243 -0.010791 939584.000000 1 0 0
9.417118 -15.218211 -5.280754 18.659111 -1.016664 1.857729 0.004972 0.007078 412308.000000 1 0 0
-5.523482 -10.817011 -9.278654 15.284306 1.098682 2.223165 -0.000556 -0.003838 -347903.000000 1 0 0
-10.451982 -15.787211 -4.859454 19.547231 0.985994 1.822032 0.002289 -0.013438 -930399.000000 1 0 0
2.169118 -17.415211 -3.312254 17.859610 -1.446881 1.757337 0.007698 -0.003584 356749.000000 1 0 0
-0.424582 -14.547911 -8.251654 16.730564 1.541620 2.086570 -0.000693 0.001682 -1002020.000000 1 0 0
-0.614182 -18.406111 -7.181054 19.766884 1.537440 1.942590 -0.007074 0.002833 241128.000000 1 0 0
-1.829982 -10.043711 -10.644654 14.749021 1.390572 2.377079 -0.003414 0.002559 122153.000000 1 0 0
-5.054882 -17.316811 2.064946 18.157307 1.286782 1.456824 -0.007085 -0.004044 -857288.000000 1 0 0
0.295918 -12.913511 -2.712654 13.198668 -1.547885 1.777796 0.001840 -0.002399 -2237160.000000 1 0 0
2.615218 -15.086311 2.969946 15.596690 -1.399152 1.379205 0.008058 0.000342 -1113860.000000 1 0 0
-9.339382 -13.122611 6.893246 17.519812 0.952260 1.166410 -0.005661 0.000508 -592701.000000 1 0 0
-1.047182 -17.810811 -4.675454 18.444009 1.512069 1.827087 0.000818 -0.005819 -28943.000000 1 0 0
-9.832982 -17.541611 -2.445154 20.257701 1.059888 1.691794 -0.002352 -0.004927 -79454.700000 1 0 0
1.261418 -16.376311 1.328046 16.478424 -1.493921 1.490116 0.004529 -0.007983 -58313.900000 1 0 0
-0.439182 -18.102211 4.054746 18.555967 1.546540 1.350504 0.007331 -0.007910 160148.000000 1 0 0
-17.335682 -9.188211 0.066946 19.620234 0.487372 1.567384 -0.010361 0.000787 387951.000000 1 0 0
-14.791482 -7.034711 -10.783754 19.610315 0.443931 2.153043 0.000923 -0.009787 106086.000000 1 0 0
2.657418 -12.641811 -8.937254 15.708335 -1.363604 2.176025 -0.010688 0.003613 553012.000000 1 0 0
-11.752682 -14.486811 1.764546 18.737845 0.889223 1.476486 -0.006532 -0.003164 -132006.000000 1 0 0
-2.197682 -15.686711 10.856246 19.203146 1.431604 0.969955 -0.006452 0.007575 -616680.000000 1 0 0
-7.003082 -15.931011 1.291546 17.450168 1.156635 1.496715 -0.003287 -0.002023 -2067600.000000 1 0 0
-12.690782 -14.877911 -6.035054 20.465338 0.864566 1.870138 0.006794 -0.010273 500951.000000 1 0 0
0.988918 -13.824711 -5.164554 14.790984 -1.499385 1.927481 0.001411 -0.000722 892318.000000 1 0 0
5.835518 -16.559211 -7.300454 19.014662 -1.231982 1.964854 -0.002744 -0.002138 -84833.600000 1 0 0
-6.473882 -12.950711 5.914246 15.640025 1.107240 1.183001 0.000096 -0.000188 171630.000000 1 0 0
-2.553282 -13.579811 0.526946 13.827805 1.384946 1.532679 0.006716 -0.005882 781748.000000 1 0 0
-4.365082 -15.478211 0.145646 16.082605 1.295920 1.561740 0.002668 -0.006043 -97710.500000 1 0 0
-17.777182 -7.475011 -1.877554 19.375995 0.398039 1.667850 -0.004416 0.006129 304487.000000 1 0 0
1.243118 -12.734811 -11.969554 17.521158 -1.473489 2.322862 -0.004268 0.006200 -866775.000000 1 0 0
1.302518 -17.213611 -5.868454 18.233039 -1.495272 1.898488 0.003123 0.001981 -689207.000000 1 0 0
-12.846482 -6.388311 -9.220454 17.054600 0.461470 2.141998 0.004921 0.000344 263057.000000 1 0 0
-11.413282 -13.410711 -8.532254 19.568074 0.865689 2.021978 0.002629 -0.019240 13487.800000 1 0 0
-4.232382 -10.065511 3.338246 11.418032 1.172757 1.274096 0.005667 0.000384 -3549840.000000 1 0 0
-6.847482 -14.406811 9.746446 18.693246 1.127108 1.022319 -0.007423 0.003129 -737190.000000 1 0 0
-5.329182 -15.798711 -8.031454 18.506856 1.245464 2.019693 -0.008272 -0.009164 -695809.000000 1 0 0
-0.200582 -13.631911 2.063146 13.788612 1.556083 1.420605 0.004444 -0.004422 943024.000000 1 0 0
-10.969582 -13.302311 -4.770654 17.889727 0.881212 1.840733 0.004752 -0.012212 -870943.000000 1 0 0
-9.653282 -10.569611 6.723746 15.814907 0.830679 1.131666 -0.000735 -0.000076 -243517.000000 1 0 0
-15.504782 -7.955511 -4.889154 18.099509 0.474073 1.844321 0.002235 0.001654 -321714.000000 1 0 0
-14.560582 -7.444511 5.530646 17.263236 0.472630 1.244675 0.004305 0.001821 169950.000000 1 0 0
-1.711482 -19.323711 -0.034054 19.399385 1.482458 1.572552 -0.002396 -0.003746 -679885.000000 1 0 0
-15.336182 -12.169011 -1.374154 19.625789 0.670755 1.640871 -0.004897 0.003431 640224.000000 1 0 0
-4.377682 -12.154211 -6.811454 14.604275 1.225083 2.056015 0.000532 -0.001782 -1594980.000000 1 0 0
-7.307282 -18.534511 1.963546 20.019490 1.195254 1.472557 -0.012542 0.004417 -115589.000000 1 0 0
-2.452982 -11.796711 -8.663054 14.840082 1.365780 2.194149 -0.004839 0.002631 456413.000000 1 0 0
-1.190882 -20.436711 -5.146754 21.108445 1.512590 1.817104 -0.006636 0.003763 -242906.000000 1 0 0
-5.385482 -8.977511 -13.929854 17.425268 1.030461 2.497101 -0.004214 0.002289 136044.000000 1 0 0
-8.519582 -18.845111 -0.662454 20.692036 1.146210 1.602817 -0.010843 -0.000796 1534.610000 1 0 0
-17.144782 -7.293411 5.559446 19.443375 0.402210 1.280819 0.002801 -0.003416 -859362.000000 1 0 0
-3.490182 -14.733011 -4.358254 15.755550 1.338189 1.851068 0.000368 -0.002430 -2063770.000000 1 0 0
-2.967882 -14.927011 -10.878754 18.707519 1.374530 2.191389 -0.005139 0.001940 -323464.000000 1 0 0
-0.182382 -16.794911 6.240946 17.917916 1.559937 1.215031 0.001985 -0.001190 -1161380.000000 1 0 0
-11.136082 -11.592411 3.784046 16.514095 0.805473 1.339602 -0.003463 0.002049 -17563.900000 1 0 0
-0.294282 -14.756911 -0.212354 14.761373 1.550857 1.585183 0.004181 -0.005078 744724.000000 1 0 0
-7.420982 -9.503311 -2.506054 12.315202 0.907821 1.775720 0.009739 -0.008325 -295262.000000 1 0 0
-11.135882 -14.419411 -0.792354 18.236094 0.913185 1.614260 -0.005472 -0.006304 -292135.000000 1 0 0
0.270118 -14.679411 -10.686254 18.159133 -1.552397 2.199972 -0.004113 0.005545 -20742.100000 1 0 0
-1.374682 -14.120111 -3.955954 14.728098 1.473746 1.842735 0.002954 -0.002536 -3812520.000000 1 0 0
-11.513782 -8.107811 -7.629154 16.015860 0.613528 2.067295 0.015329 -0.005447 693711.000000 1 0 0
-0.281082 -17.288511 -0.381754 17.295010 1.554539 1.592871 0.003549 -0.007564 -1289260.000000 1 0 0
-12.830982 -9.538011 4.663046 16.653881 0.639237 1.287005 -0.001409 0.002864 -219979.000000 1 0 0
3.965718 -16.837511 1.519946 17.364877 -1.339483 1.483154 0.009431 -0.006574 1208170.000000 1 0 0
-3.848782 -17.821511 -8.252154 20.012932 1.358100 1.995819 -0.008469 -0.002894 94517.800000 1 0 0
-13.345782 -11.269011 2.745546 17.681587 0.701227 1.414888 -0.001954 0.000331 432859.000000 1 0 0
-8.523582 -12.209011 4.218846 15.476113 0.961321 1.294698 -0.000371 -0.002318 1028740.000000 1 0 0
-8.235282 -9.409111 -5.828354 13.795686 0.851827 2.006972 0.014674 -0.008960 -1084450.000000 1 0 0
3.871618 -17.519511 -5.239154 18.691480 -1.353303 1.854899 -0.004400 0.003811 -668231.000000 1 0 0
-2.356282 -13.097411 11.303946 17.460626 1.392796 0.866633 -0.005782 -0.000075 -256224.000000 1 0 0
0.102318 -16.858911 -9.460054 19.331994 -1.564727 2.082137 0.003081 0.002444 -199368.000000 1 0 0
-7.129982 -10.897611 -14.514954 19.500730 0.991425 2.410325 -0.002621 0.005720 107377.000000 1 0 0
-4.611882 -18.747911 -1.479454 19.363430 1.329591 1.647275 -0.001259 -0.005662 -1150420.000000 1 0 0
-2.550382 -17.111511 1.003146 17.329587 1.422841 1.512878 0.003294 -0.009773 -819411.000000 1 0 0
4.070618 -14.479111 -7.514854 16.813317 -1.296733 2.034159 -0.009636 -0.000784 -421373.000000 1 0 0
-0.936882 -15.948511 -6.256354 17.157352 1.512120 1.944049 0.001298 0.001257 52479.300000 1 0 0
-9.172482 -15.233011 8.374146 19.654653 1.028801 1.130658 -0.018540 0.001395 -740124.000000 1 0 0
-7.204882 -11.990311 -1.845854 14.109751 1.029721 1.701994 0.005743 -0.005198 937723.000000 1 0 0
-7.287482 -14.972411 -9.341354 19.092967 1.117823 2.082033 -0.002451 -0.007351 -636568.000000 1 0 0
-5.030282 -13.159611 -0.646354 14.103080 1.205683 1.616643 0.005225 -0.005560 635789.000000 1 0 0
-6.415782 -13.725111 -7.285654 16.811356 1.133527 2.019033 -0.001567 -0.007015 460566.000000 1 0 0
5.743418 -15.473411 0.128546 16.505449 -1.215379 1.563008 0.002300 0.001455 432626.000000 1 0 0
-14.260182 -12.753711 0.901446 19.152612 0.729689 1.523712 -0.016226 -0.003117 770983.000000 1 0 0
0.902218 -15.375311 11.058946 18.960867 -1.512184 0.948071 0.002984 -0.001147 227046.000000 1 0 0
-9.310182 -11.020211 1.969146 14.560291 0.869313 1.435140 0.005308 -0.000441 218665.000000 1 0 0
-9.495382 -8.812311 -3.524054 13.425277 0.748105 1.836402 0.011304 -0.007411 -524174.000000 1 0 0
-12.191582 -7.279811 -12.254054 18.756123 0.538298 2.282779 0.001789 -0.005589 -663843.000000 1 0 0
-13.307982 -8.319611 -0.607854 15.706298 0.558714 1.609507 0.003673 -0.000148 611761.000000 1 0 0
-11.269182 -9.656311 0.545846 14.850480 0.708473 1.534032 0.005279 -0.000355 1758730.000000 1 0 0
-15.837882 -12.255811 2.859146 20.229140 0.658578 1.428983 0.001537 0.005010 417393.000000 1 0 0
-10.366182 -12.518711 -2.418654 16.432460 0.879181 1.718521 0.004325 -0.007434 775309.000000 1 0 0
-3.429682 -8.805611 -12.161354 15.401300 1.199385 2.481005 -0.003039 0.002053 -2320680.000000 1 0 0
-0.292082 -15.621811 3.897246 16.103255 1.552101 1.326353 0.003860 -0.001437 -895801.000000 1 0 0
-15.661382 -7.735711 1.293146 17.515488 0.458784 1.496900 -0.011309 -0.000490 11715.000000 1 0 0
-6.372582 -13.368611 -13.135654 19.795832 1.125976 2.296359 0.008801 -0.001834 1269090.000000 1 0 0
-15.286882 -10.357011 1.119546 18.498914 0.595472 1.510240 -0.003165 -0.000749 81007.700000 1 0 0
-9.879182 -8.441811 -12.479454 18.016636 0.707104 2.335971 0.005212 -0.006403 587030.000000 1 0 0
-13.365282 -11.686911 -6.203254 18.806781 0.718503 1.906932 0.010123 -0.003026 -315184.000000 1 0 0
-12.253582 -11.311511 -3.813654 17.106856 0.745442 1.795617 0.003297 -0.003715 -2015890.000000 1 0 0
-11.537282 -10.797211 -8.946354 18.158356 0.752275 2.085969 -0.001321 -0.021596 268645.000000 1 0 0
-13.240782 -8.570011 -5.807254 16.807367 0.574435 1.923587 0.008641 -0.000807 -2250880.000000 1 0 0
-13.517282 -8.080411 -3.188354 16.067842 0.538788 1.770553 0.007250 -0.002476 215923.000000 1 0 0
-4.404282 -17.019311 -3.253154 17.878413 1.317570 1.753776 -0.003483 -0.002740 -68962.300000 1 0 0
-15.580682 -8.821311 -1.822554 17.997080 0.515173 1.672240 -0.002011 0.005649 -1367870.000000 1 0 0
-9.510982 -15.845911 3.780646 18.863853 1.030217 1.369012 -0.001541 0.004479 100051.000000 1 0 0
4.407318 -17.587311 8.149546 19.878458 -1.325256 1.148377 0.009144 0.005799 -76068.600000 1 0 0
-8.263982 -15.494311 6.051346 18.573795 1.080821 1.238938 -0.007705 0.005967 244786.000000 1 0 0
0.883618 -15.977711 8.504646 18.121729 -1.515549 1.082291 0.002480 -0.002025 370338.000000 1 0 0
-10.849482 -7.695911 -10.155754 16.735520 0.616963 2.222873 0.012410 -0.005303 920427.000000 1 0 0
-4.818582 -15.807711 5.466946 17.406607 1.274919 1.251316 -0.005178 -0.008765 -1613240.000000 1 0 0
-1.403482 -13.331611 -12.123054 18.074016 1.465908 2.306009 -0.004457 0.005473 575995.000000 1 0 0
-6.384482 -14.364311 -2.490354 15.915304 1.152552 1.727917 0.000242 -0.003351 82707.400000 1 0 0
-17.703482 -6.713311 -7.076854 20.212958 0.362455 1.928490 -0.008074 -0.002765 151777.000000 1 0 0
-17.425682 -4.080711 -9.999154 20.500967 0.230033 2.080296 -0.003004 -0.009983 541188.000000 1 0 0
-15.259382 -5.189711 -8.813854 18.370244 0.327828 2.071211 -0.013234 -0.009830 918670.000000 1 0 0
-16.196682 -5.268011 -5.535854 17.908940 0.314460 1.885055 -0.000434 0.000114 -716654.000000 1 0 0
-15.512482 -4.034611 -12.202554 20.144912 0.254451 2.221490 0.013330 -0.008233 -21469.800000 1 0 0
-18.639482 -5.080811 -5.311554 20.036405 0.266118 1.839099 -0.008732 0.002373 -867570.000000 1 0 0
-17.440182 -4.152511 -7.493554 19.430817 0.233748 1.966712 -0.011048 -0.003873 369713.000000 1 0 0
12.253618 -7.856511 8.569246 16.891060 -0.570135 1.038719 0.012599 -0.004145 138244.000000 1 0 0
15.984218 -3.333411 1.592846 16.405610 -0.205597 1.473552 0.006472 -0.001420 360307.000000 1 0 0
12.021218 -2.480011 12.473646 17.500057 -0.203449 0.777346 0.011620 -0.003870 109681.000000 1 0 0
9.629918 -10.072011 5.017146 14.810554 -0.807833 1.225203 0.000877 -0.002998 233724.000000 1 0 0
16.941618 -1.765611 7.072546 18.443338 -0.103843 1.177241 0.013019 -0.006024 75386.700000 1 0 0
5.326518 -12.950211 9.021746 16.657481 -1.180580 0.998453 -0.006374 0.004920 -82148.800000 1 0 0
15.041318 -9.076711 -2.331954 17.721906 -0.542954 1.702765 0.001526 0.001210 -407014.000000 1 0 0
11.114818 -8.546311 6.279246 15.362537 -0.655495 1.149726 0.012102 -0.006959 -2168900.000000 1 0 0
19.832718 -3.221511 3.352146 20.370364 -0.161028 1.405484 -0.007641 -0.000551 36107.500000 1 0 0
13.606118 -8.556911 6.632746 17.387942 -0.561400 1.179425 0.013843 -0.005746 -1545330.000000 1 0 0
8.318718 -11.101811 8.759946 16.406948 -0.927736 1.007570 -0.004800 0.001172 -2764810.000000 1 0 0
16.720918 0.040789 -0.659954 16.733987 0.002439 1.610244 0.011665 -0.001356 -1657820.000000 1 0 0
12.380918 -12.332011 2.202146 17.612924 -0.783419 1.445438 0.004689 -0.001114 -1747240.000000 1 0 0
10.262418 -11.646311 3.306346 15.870908 -0.848481 1.360932 -0.001151 -0.000854 -1679440.000000 1 0 0
16.421318 3.031989 2.342046 16.862320 0.182581 1.431454 0.016438 -0.003370 -343090.000000 1 0 0
18.308518 -3.340311 0.303146 18.613206 -0.180461 1.554509 0.001080 -0.001334 539090.000000 1 0 0
13.601718 -11.725611 -0.359854 17.961798 -0.711459 1.590832 0.015302 0.006421 -215887.000000 1 0 0
16.861318 -7.625811 -1.121054 18.539520 -0.424737 1.631302 0.006531 -0.001549 544223.000000 1 0 0
10.186518 -5.730511 9.576746 15.110195 -0.512434 0.884348 0.012024 -0.005231 -1143530.000000 1 0 0
11.218118 -13.134011 5.957746 18.271376 -0.863911 1.238653 -0.006657 -0.003895 -1530550.000000 1 0 0
13.156018 -1.807711 10.251046 16.775953 -0.136551 0.913402 0.019110 0.000252 422544.000000 1 0 0
15.519918 -2.015911 -1.659954 15.738082 -0.129169 1.676467 0.002767 0.000069 -1001560.000000 1 0 0
10.458918 -12.509411 8.930046 18.590860 -0.874437 1.069747 -0.005757 -0.004646 16887.900000 1 0 0
14.680418 1.284289 3.332746 15.108649 0.087261 1.348382 0.015868 -0.002647 1146770.000000 1 0 0
15.030518 -5.862811 5.132346 16.930151 -0.371909 1.262802 0.011297 -0.002357 -628979.000000 1 0 0
14.204718 -3.290011 -3.200954 14.927971 -0.227601 1.786901 -0.003061 -0.001505 1027910.000000 1 0 0
14.177018 0.536289 9.556446 17.105587 0.037810 0.978010 0.017122 -0.002427 738652.000000 1 0 0
15.384718 -3.433811 4.206946 16.314994 -0.219597 1.309992 0.006084 -0.000446 -438551.000000 1 0 0
18.606418 4.925389 -4.466154 19.758664 0.258779 1.798802 0.008555 0.002041 334275.000000 1 0 0
18.191518 -5.635911 -5.434954 19.804887 -0.300432 1.848788 0.024881 -0.001339 769093.000000 1 0 0
17.414518 0.207989 5.702146 18.325479 0.011943 1.254384 0.020212 -0.003344 702635.000000 1 0 0
17.072418 -6.766111 3.784746 18.750254 -0.377328 1.367549 0.011407 -0.001613 -199190.000000 1 0 0
9.922818 -6.547511 14.063146 18.414785 -0.583264 0.701790 0.020177 -0.010258 693590.000000 1 0 0
8.615818 -12.394011 5.052846 15.917760 -0.963326 1.247774 -0.002753 0.000704 -1305150.000000 1 0 0
16.897018 -10.205311 -1.006354 19.765383 -0.543334 1.621733 0.014783 0.005156 -165232.000000 1 0 0
14.864418 -8.932811 0.164646 17.342813 -0.541120 1.561303 0.014636 -0.000070 1193190.000000 1 0 0
10.015618 -12.946911 1.240046 16.415628 -0.912367 1.495184 0.002666 -0.000670 -137620.000000 1 0 0
16.933418 -8.335811 8.703746 20.784167 -0.457444 1.138708 0.017877 0.002958 492124.000000 1 0 0
19.138818 -0.056711 -1.748054 19.218566 -0.002963 1.661879 0.019720 -0.003015 -186072.000000 1 0 0
13.458318 -1.292311 7.709646 15.563902 -0.095730 1.052554 0.015847 -0.005700 -287335.000000 1 0 0
12.712918 -9.874611 -3.189554 16.410347 -0.660395 1.766404 0.004474 0.002338 -1754810.000000 1 0 0
8.902118 -15.208111 1.290646 17.669186 -1.041216 1.497686 0.005325 0.002902 -173972.000000 1 0 0
11.587118 -8.358911 10.954246 18.003561 -0.624942 0.916692 0.010899 -0.005765 -35596.200000 1 0 0
13.947518 -4.029411 -0.760054 14.537782 -0.281241 1.623101 0.001562 -0.003147 -202915.000000 1 0 0
7.263318 -13.309311 10.747846 18.585203 -1.071236 0.954151 -0.000112 0.007071 -306702.000000 1 0 0
15.384718 -6.818711 1.646146 16.908406 -0.417196 1.473285 0.005701 -0.001084 1603940.000000 1 0 0
15.721718 -6.005311 -2.753954 17.053459 -0.364872 1.732996 0.002096 -0.000854 -92000.500000 1 0 0
11.104418 -8.531911 3.637346 14.468307 -0.655133 1.316669 0.010246 -0.002483 380977.000000 1 0 0
10.706618 -14.466711 -0.580754 18.007073 -0.933670 1.603053 0.015178 0.005282 604193.000000 1 0 0
13.361318 -12.926311 4.612446 19.154347 -0.768852 1.327602 0.003230 0.000771 357709.000000 1 0 0
12.750318 -10.996511 6.353946 17.996292 -0.711678 1.209946 0.004140 -0.009603 -8293.310000 1 0 0
10.875718 -10.494311 1.086546 15.152307 -0.767552 1.499026 0.000771 0.002720 149220.000000 1 0 0
14.077818 -7.631011 11.581946 19.762560 -0.496726 0.944615 0.016321 -0.009120 -238002.000000 1 0 0
15.250218 -1.695211 -5.095554 16.168103 -0.110705 1.891423 0.002412 0.000165 -740625.000000 1 0 0
12.863918 -11.384811 -7.368054 18.691777 -0.724476 1.975979 0.016059 0.002862 642395.000000 1 0 0
17.581018 -5.323411 1.832546 18.460475 -0.294017 1.471364 0.002370 -0.002278 142493.000000 1 0 0
10.585118 -9.806311 8.953146 16.981381 -0.747224 1.015455 -0.003105 -0.005656 -1294070.000000 1 0 0
16.568018 1.871189 9.855446 19.368283 0.112463 1.036954 0.017950 0.001582 976010.000000 1 0 0
18.060818 3.910389 0.409146 18.483823 0.213221 1.548659 0.004754 -0.000853 390881.000000 1 0 0
13.262118 -4.070311 5.592046 14.957346 -0.297787 1.187622 0.013803 -0.005135 -591581.000000 1 0 0
12.196018 -6.202011 6.543946 15.166774 -0.470446 1.124679 0.014464 -0.005670 -114511.000000 1 0 0
16.521018 -10.228011 3.392646 19.724764 -0.554339 1.397937 0.004872 0.001521 -1153390.000000 1 0 0
16.221118 -8.028411 -5.559354 18.933739 -0.459588 1.868810 0.009406 -0.003946 417308.000000 1 0 0
14.016318 -0.523911 5.306646 14.996405 -0.037361 1.209100 0.013334 -0.000145 934908.000000 1 0 0
18.113018 -4.111511 5.102746 19.261983 -0.223210 1.302683 0.000086 -0.000367 5865.720000 1 0 0
13.528118 -13.424611 7.141546 20.352687 -0.781558 1.212275 0.002622 -0.000097 323522.000000 1 0 0
14.866618 -13.782411 -1.171354 20.306237 -0.747572 1.628513 0.009822 0.015106 152489.000000 1 0 0
17.962918 -6.097211 7.646046 20.452492 -0.327230 1.187646 0.032112 0.000255 -773473.000000 1 0 0
14.380818 3.201389 9.093246 17.313115 0.219043 1.017819 0.010125 -0.008003 -261783.000000 1 0 0
18.908818 3.766789 2.900646 19.497329 0.196634 1.421471 0.022853 -0.003858 322636.000000 1 0 0
14.809318 -10.601011 7.952746 19.873186 -0.621274 1.159089 0.016300 -0.006019 -499960.000000 1 0 0
15.127318 -5.002311 10.186246 18.910804 -0.319361 1.001966 0.018526 -0.004386 368055.000000 1 0 0
17.682218 -7.963511 1.558046 19.455227 -0.423160 1.490627 0.008380 -0.001143 -912635.000000 1 0 0
18.333018 -5.801011 -2.152754 19.349048 -0.306456 1.682286 0.000849 -0.001938 -388689.000000 1 0 0
14.269918 -12.861611 -5.808554 20.069652 -0.733538 1.864417 0.020100 0.002252 -227459.000000 1 0 0
15.543018 -1.597111 9.198246 18.131297 -0.102395 1.038732 0.014745 -0.004102 91910.100000 1 0 0
12.936518 -10.230611 9.936446 19.254918 -0.669126 1.028567 -0.002891 -0.008732 -1169080.000000 1 0 0
16.690418 2.323289 4.821846 17.527633 0.138310 1.292103 0.017181 -0.007204 -1236000.000000 1 0 0
14.945118 2.434289 -0.202854 15.143430 0.161464 1.584192 0.010943 0.001024 -1192590.000000 1 0 0
15.075518 -9.802111 -7.129454 19.343778 -0.576516 1.948262 0.018335 0.001343 1808530.000000 1 0 0
16.105418 0.013489 -3.284254 16.436879 0.000838 1.771960 0.007603 0.003156 155496.000000 1 0 0
12.160718 2.453589 13.532446 18.358384 0.199091 0.741989 0.013501 -0.000840 -448481.000000 1 0 0
17.820318 -2.986311 9.237746 20.293293 -0.166036 1.098186 0.020551 -0.007525 373246.000000 1 0 0
7.742818 -18.198011 4.249646 20.228157 -1.168523 1.359134 0.011140 -0.002410 141926.000000 1 0 0
6.864418 -11.287311 6.517846 14.731122 -1.024403 1.112463 -0.004225 0.000656 29685.600000 1 0 0
17.949218 2.168689 -1.538554 18.145104 0.120241 1.655690 0.014316 -0.001960 276614.000000 1 0 0
17.440118 -2.201111 3.474246 17.918510 -0.125546 1.375669 -0.001674 0.002349 -780310.000000 1 0 0
12.528818 -13.424411 -2.212354 18.495422 -0.819892 1.690700 0.014186 0.010080 -767007.000000 1 0 0
15.002118 -8.283211 4.186246 17.640856 -0.504482 1.331207 0.010725 -0.001088 166816.000000 1 0 0
11.899618 -2.918011 15.002546 19.369876 -0.240474 0.684825 0.010449 -0.004154 73289.600000 1 0 0
11.906818 -13.699511 -6.538054 19.292358 -0.855294 1.916537 0.010911 -0.001883 23831.100000 1 0 0
10.580818 -12.039611 -1.371954 16.086896 -0.849799 1.656184 0.007878 -0.000514 -961773.000000 1 0 0
13.070818 -8.071211 1.903646 15.479490 -0.553187 1.447506 0.009939 0.001965 -663460.000000 1 0 0
8.797318 -7.910111 9.975046 15.474631 -0.732345 0.870288 0.004841 -0.001084 -1948990.000000 1 0 0
15.772918 -3.897411 7.856346 18.047076 -0.242243 1.120397 0.021237 -0.006437 -145618.000000 1 0 0
10.168618 -17.474211 5.125446 20.857111 -1.043776 1.322512 0.006146 -0.001867 718351.000000 1 0 0
15.398018 -6.441811 8.174646 18.585498 -0.396227 1.115376 0.023918 0.001823 -707762.000000 1 0 0
16.488018 -5.060811 -0.485754 17.254058 -0.297810 1.598953 0.002899 -0.001207 -852660.000000 1 0 0
13.902418 -10.570411 3.364646 17.785716 -0.650079 1.380473 0.010328 -0.000518 905910.000000 1 0 0
14.821018 -10.021011 -4.594154 18.471316 -0.594529 1.822153 0.014209 -0.001142 143957.000000 1 0 0
13.607318 -6.600611 -0.286854 15.126449 -0.451639 1.589761 0.001854 0.000493 111186.000000 1 0 0
17.665418 -0.771311 -4.918754 18.353639 -0.043635 1.842112 0.004197 -0.002802 -443845.000000 1 0 0
14.377218 0.307489 -1.664554 14.476522 0.021384 1.686034 0.005571 0.001958 -2827460.000000 1 0 0
4.891118 -12.815311 11.681346 18.016911 -1.206198 0.865375 -0.008274 0.002514 -772610.000000 1 0 0
12.203218 -7.445411 13.284746 19.515050 -0.547826 0.822019 0.017676 -0.012501 -829773.000000 1 0 0
12.090018 -5.813011 11.287846 17.532117 -0.448179 0.871292 0.013382 -0.009156 -220225.000000 1 0 0
13.383718 -4.700911 8.249546 16.409677 -0.337780 1.044049 0.021993 -0.004218 -440463.000000 1 0 0
15.070418 -1.226811 2.882646 15.392603 -0.081226 1.382409 0.011179 -0.001133 163368.000000 1 0 0
15.164118 -10.397111 5.568646 19.210940 -0.601023 1.276707 0.013203 -0.003679 439800.000000 1 0 0
13.680918 -8.008811 -5.910454 16.918689 -0.529615 1.927668 0.010485 0.000062 -1714210.000000 1 0 0
9.609518 -2.323711 13.668146 16.868927 -0.237259 0.626208 0.008364 -0.003260 1500260.000000 1 0 0
10.152818 -9.143111 13.553446 19.245054 -0.733118 0.789422 0.016616 -0.004557 -78982.400000 1 0 0
20.363818 6.164089 -3.119754 21.503812 0.293930 1.716389 0.006320 0.002378 -742.231000 1 0 0
11.281118 -3.570411 10.416346 15.764255 -0.306520 0.848969 0.018027 -0.003482 710588.000000 1 0 0
10.167618 -14.109211 -3.075254 17.660903 -0.946354 1.745816 0.007747 0.005008 1119610.000000 1 0 0
14.902918 -12.766911 2.528846 19.786007 -0.708355 1.442636 0.009142 0.005508 -69612.100000 1 0 0
11.455118 -0.557211 14.253146 18.294327 -0.048605 0.677564 0.020310 -0.003722 424370.000000 1 0 0
18.976818 -1.871911 5.541946 19.857917 -0.098324 1.287960 0.005088 -0.004982 -72623.200000 1 0 0
19.083318 -0.364811 7.758546 20.603426 -0.019114 1.184710 0.020377 -0.000930 505536.000000 1 0 0
18.913918 0.865089 0.539846 18.941386 0.045706 1.542292 0.007658 -0.004577 315672.000000 1 0 0
18.587218 1.016489 3.574946 18.955162 0.054633 1.381060 0.011909 -0.007163 -37788.500000 1 0 0
16.469418 -3.941211 -4.419054 17.501512 -0.234888 1.826055 -0.002563 -0.002187 -1097010.000000 1 0 0
11.303818 -8.153711 15.565646 20.893747 -0.624894 0.730275 0.019659 -0.010474 236783.000000 1 0 0
16.535118 -7.657411 6.230146 19.257747 -0.433694 1.241356 0.009537 -0.000439 404760.000000 1 0 0
19.045318 2.243789 5.837246 20.045752 0.117273 1.275319 0.025400 -0.008414 -138779.000000 1 0 0
15.528118 1.504089 7.589246 17.348815 0.096561 1.118035 0.025075 -0.007051 411618.000000 1 0 0
8.740918 -15.780011 3.724846 18.419742 -1.064946 1.367172 0.004138 -0.002793 737270.000000 1 0 0
11.433818 -15.128311 1.870946 19.055142 -0.923600 1.472452 0.005939 0.004554 552521.000000 1 0 0
7.861318 -16.265611 6.004046 19.037306 -1.120590 1.249936 -0.001852 0.002885 329300.000000 1 0 0
14.519818 -11.715811 -2.704754 18.852084 -0.678925 1.714766 0.007698 0.007281 658473.000000 1 0 0
13.657918 -4.993811 3.088446 14.866586 -0.350535 1.361528 0.008956 0.000727 -1587490.000000 1 0 0
-1.157582 10.226489 -5.524954 11.681018 -1.458082 2.063473 -0.001912 0.002097 -3389400.000000 1 0 0
8.210818 -1.640311 -8.159054 11.690950 -0.197179 2.343250 -0.003508 -0.000368 96088.400000 1 0 0
3.055018 -10.303911 7.587346 13.155666 -1.282562 0.956069 -0.008355 0.003921 540585.000000 1 0 0
-6.169382 1.238589 8.355346 10.459789 -0.198130 0.645488 -0.002963 0.000256 -178679.000000 1 0 0
7.278018 -6.196211 -7.350554 12.057911 -0.705283 2.226358 -0.005166 -0.001645 -244601.000000 1 0 0
-11.490382 -4.569911 -4.070754 13.018602 0.378536 1.888817 0.004648 -0.004029 7531.340000 1 0 0
2.085318 -3.326111 2.912346 4.888080 -1.010793 0.932528 -0.003344 0.003025 2201390.000000 1 0 0
-3.499882 -4.304011 8.828246 10.426486 0.888078 0.561019 -0.001793 0.001985 -2276750.000000 1 0 0
-4.757882 -1.006711 -2.389554 5.418567 0.208513 2.027502 0.001622 -0.002664 -324261.000000 1 0 0
5.068418 -5.248211 -3.583654 8.128663 -0.802824 2.027360 -0.003160 -0.002201 259641.000000 1 0 0
2.591018 14.296189 -8.846354 17.010360 1.391504 2.117714 -0.007755 -0.000024 -82070.900000 1 0 0
5.555318 -5.599811 13.602046 15.723712 -0.789387 0.525515 0.010009 -0.005691 -715428.000000 1 0 0
-4.629082 -0.950511 9.945246 11.010894 0.202520 0.443585 0.000177 0.000777 -2438590.000000 1 0 0
-0.999582 12.028789 -2.593554 12.345746 -1.487888 1.782450 -0.005261 0.001336 -280309.000000 1 0 0
2.980918 9.431789 -10.485854 14.415188 1.264680 2.385347 0.003698 -0.004485 -202778.000000 1 0 0
-10.509182 2.580089 1.256246 10.893939 -0.240746 1.455223 -0.006692 0.000081 140154.000000 1 0 0
5.656018 -9.066511 -0.810854 10.716793 -1.013034 1.646531 -0.004497 -0.002855 411956.000000 1 0 0
-6.864282 5.376789 9.426946 12.841166 -0.664474 0.746428 -0.002453 -0.003664 -193205.000000 1 0 0
-5.231682 -1.883311 5.149246 7.578396 0.345540 0.823765 0.000542 -0.001074 855393.000000 1 0 0
6.589618 -3.679411 -7.439154 10.597271 -0.509243 2.348981 -0.003743 -0.002145 392663.000000 1 0 0
6.352518 4.754589 11.104946 13.648459 0.642513 0.620409 0.001456 -0.000935 508133.000000 1 0 0
3.752318 -9.962811 3.270546 11.137054 -1.210595 1.272739 -0.007652 0.002125 918413.000000 1 0 0
-6.667682 6.614489 -5.717954 10.995655 -0.781393 2.117670 -0.005213 0.000763 -479637.000000 1 0 0
-11.007482 8.400189 5.416746 14.868388 -0.651854 1.197901 -0.007022 -0.005694 -97553.500000 1 0 0
-9.064482 -5.577011 5.169946 11.832000 0.551564 1.118596 0.000270 0.000288 -1002850.000000 1 0 0
3.212618 9.780389 -8.031154 13.056659 1.253424 2.233309 0.002946 -0.002432 816729.000000 1 0 0
-8.013082 -8.605011 5.934546 13.170973 0.821003 1.103384 0.007700 -0.000003 -1873570.000000 1 0 0
-7.814082 -5.618411 -7.548254 12.231212 0.623371 2.235887 0.015232 -0.008753 -833540.000000 1 0 0
9.209118 -1.627411 6.979646 11.669267 -0.174912 0.929641 0.006500 -0.005690 1378380.000000 1 0 0
-4.075982 -0.286511 -4.868054 6.355601 0.070177 2.443309 0.005526 -0.008625 -1243800.000000 1 0 0
9.066918 1.194189 -4.577754 10.226970 0.130955 2.034894 -0.003563 0.002233 -3697660.000000 1 0 0
-1.662682 -10.639611 10.597346 15.108593 1.415777 0.793420 -0.006091 -0.000360 -305088.000000 1 0 0
-12.864382 0.277489 -2.528454 13.113443 -0.021567 1.764825 -0.001552 -0.002370 -516928.000000 1 0 0
-9.804182 -5.145211 -5.984254 12.585963 0.483288 2.066295 0.012595 -0.006344 -1545030.000000 1 0 0
-5.707282 8.400789 -0.072254 10.156354 -0.974048 1.577911 -0.009185 0.004765 994487.000000 1 0 0
6.269218 9.638189 0.444646 11.506324 0.994101 1.532143 0.010120 -0.002131 297712.000000 1 0 0
-0.504982 -12.131711 -0.065954 12.142396 1.529195 1.576228 0.005340 -0.002611 -215068.000000 1 0 0
6.172118 4.661889 2.395946 8.097457 0.646894 1.270411 -0.004049 0.002595 186650.000000 1 0 0
3.501918 -7.442411 -8.341954 11.714995 -1.130997 2.363245 -0.007180 -0.002252 291905.000000 1 0 0
-6.450582 -9.991211 4.475446 12.706846 0.997502 1.210868 0.006987 -0.001606 -2251390.000000 1 0 0
-0.112782 6.446389 -9.193354 11.228820 -1.553303 2.529989 0.007044 -0.002797 -1041530.000000 1 0 0
-17.202782 -2.753811 4.449746 17.981085 0.158733 1.320730 0.001579 -0.004642 -67705.600000 1 0 0
-8.365282 0.958689 -9.186854 12.461754 -0.114105 2.399719 0.004258 -0.003109 158393.000000 1 0 0
-10.032382 -5.859811 -11.971054 16.682092 0.528639 2.371145 0.010913 -0.000955 -727271.000000 1 0 0
2.204418 9.424889 6.567946 11.697260 1.341033 0.974606 -0.007619 0.005336 -125030.000000 1 0 0
-11.277182 1.627789 -1.111254 11.448118 -0.143353 1.668018 0.000504 -0.001987 -2147060.000000 1 0 0
-6.105882 -5.260611 -3.145954 8.651754 0.711170 1.942948 0.012872 -0.005509 478076.000000 1 0 0
-6.873682 -8.267811 1.291246 10.829198 0.877213 1.451274 0.008124 -0.001619 14533.800000 1 0 0
-0.066982 10.900689 -7.783054 13.394231 -1.564652 2.190845 0.004062 0.000527 926965.000000 1 0 0
-2.966182 9.317889 -4.186954 10.637287 -1.262607 1.975353 -0.005562 0.001809 -92958.500000 1 0 0
3.403518 -4.888011 9.280346 11.027303 -0.962558 0.570596 -0.002374 0.002111 -968346.000000 1 0 0
-8.903582 1.535289 -0.324454 9.040805 -0.170756 1.606692 -0.005625 -0.000940 -1846900.000000 1 0 0
2.410818 3.513289 -10.355254 11.197612 0.969392 2.751236 0.000603 -0.002614 -2299230.000000 1 0 0
-13.568082 0.494689 1.138246 13.624726 -0.036444 1.487156 -0.005358 -0.002922 -328804.000000 1 0 0
9.392918 -12.593211 -5.151154 16.533308 -0.929943 1.887633 0.009239 0.001626 -1380360.000000 1 0 0
-4.842882 9.456089 -8.242654 13.446652 -1.097481 2.230635 -0.004328 0.000652 -2218080.000000 1 0 0
-2.256382 7.154789 8.435546 11.288963 -1.265302 0.726900 -0.004198 0.001030 -517879.000000 1 0 0
-10.659882 -1.183211 -4.515354 11.637074 0.110544 1.969273 0.005268 -0.002964 -2973310.000000 1 0 0
2.853518 -7.294011 9.497546 12.310506 -1.197887 0.689602 -0.004559 0.005345 -627324.000000 1 0 0
-15.998782 -6.488211 3.478346 17.611269 0.385277 1.371982 -0.006405 -0.001725 -1064170.000000 1 0 0
-10.695282 -0.112611 6.197446 12.361637 0.010529 1.045644 -0.006845 -0.002740 -147029.000000 1 0 0
-8.349882 10.009889 9.510146 16.135714 -0.875568 0.940499 -0.001102 -0.007549 -1427250.000000 1 0 0
0.257118 -6.030111 -3.905054 7.188727 -1.528183 2.145063 -0.000548 -0.000055 -27576.600000 1 0 0
4.870518 1.622689 -2.981554 5.936727 0.321599 2.096963 -0.005565 0.000553 -954361.000000 1 0 0
0.402218 5.409889 3.685646 6.558404 1.496584 0.974027 -0.007933 0.004629 -2693300.000000 1 0 0
6.018018 -11.338811 -1.656354 12.943288 -1.082856 1.699118 -0.002920 -0.002883 -1948780.000000 1 0 0
6.309418 -13.565211 5.160446 15.825736 -1.135442 1.238643 -0.000314 -0.000086 -110068.000000 1 0 0
8.198718 -8.203511 -6.055654 13.083865 -0.785690 2.051986 -0.000382 -0.002244 805286.000000 1 0 0
-13.096382 -1.375811 -4.562854 13.936560 0.104669 1.904349 0.004507 -0.004042 -2827540.000000 1 0 0
-6.765482 -1.410311 -6.986654 9.827210 0.205514 2.361644 0.010725 -0.006959 -673296.000000 1 0 0
-5.697782 12.856889 -4.501454 14.765751 -1.153637 1.880585 -0.012392 0.004007 431757.000000 1 0 0
-4.343682 6.853489 -6.750454 10.554928 -1.005900 2.264715 -0.002166 0.000562 -3711320.000000 1 0 0
-9.427082 -3.682811 -8.110254 12.969548 0.372431 2.246351 0.011116 -0.003828 747893.000000 1 0 0
-2.212382 -6.442311 9.211846 11.456706 1.240001 0.636708 -0.001671 0.001909 -697029.000000 1 0 0
7.599418 -6.041711 9.998446 13.936368 -0.671699 0.770682 0.006408 -0.000328 -443156.000000 1 0 0
9.760418 -5.017411 12.038046 16.289713 -0.474830 0.739216 0.013901 -0.005443 101998.000000 1 0 0
-6.535782 2.836089 -9.099754 11.557048 -0.409412 2.477339 0.001920 -0.004677 98411.600000 1 0 0
7.313318 5.365889 8.828746 12.657968 0.632997 0.798914 -0.004080 0.000764 904973.000000 1 0 0
12.801618 3.291089 11.089646 17.253781 0.251635 0.872730 0.009763 0.000801 -967891.000000 1 0 0
-7.467182 -7.251211 -3.883754 11.109564 0.770726 1.927926 0.015237 -0.010096 -1070490.000000 1 0 0
2.216918 1.398789 -5.717954 6.290178 0.562874 2.711744 -0.000062 -0.002501 -829997.000000 1 0 0
12.712118 6.982689 -7.249654 16.214604 0.502301 2.034324 0.005964 0.005901 385629.000000 1 0 0
0.773418 -7.720611 0.884646 7.809521 -1.470954 1.457275 -0.000768 0.000251 1456950.000000 1 0 0
-10.320682 -5.992911 -8.434554 14.614142 0.526085 2.186031 0.014629 -0.005378 466326.000000 1 0 0
-6.583282 0.125289 3.227146 7.332787 -0.019029 1.115088 -0.002238 -0.002318 666118.000000 1 0 0
10.769618 -7.960011 1.018146 13.430677 -0.636500 1.494916 -0.000721 0.000044 -175064.000000 1 0 0
6.338518 0.964189 10.494846 12.298304 0.150959 0.548405 0.002157 -0.000515 -1763960.000000 1 0 0
-12.764382 5.328689 1.983346 13.973476 -0.395472 1.428379 -0.005877 0.000412 177922.000000 1 0 0
2.121018 7.432489 3.693346 8.566295 1.292814 1.125031 -0.007641 0.003298 -146039.000000 1 0 0
9.898218 -9.461711 -1.031054 13.731780 -0.762855 1.645952 -0.001466 -0.001607 770642.000000 1 0 0
6.677018 -11.703011 -9.124954 16.272917 -1.052321 2.166081 -0.007537 -0.001551 -1282840.000000 1 0 0
10.498518 3.555089 11.940346 16.292004 0.326508 0.748227 0.004109 0.001081 -1694440.000000 1 0 0
-11.045282 -3.061511 -1.958654 11.627873 0.270390 1.740048 0.000954 -0.003509 -66094.800000 1 0 0
12.504518 0.921889 6.872546 14.298418 0.073591 1.069400 0.013720 -0.002625 -267198.000000 1 0 0
-9.616082 9.309889 3.239346 13.770854 -0.769221 1.333339 -0.007896 -0.001505 450074.000000 1 0 0
-6.703982 7.685989 -8.738254 13.430371 -0.853535 2.279215 -0.005651 -0.001172 226423.000000 1 0 0
8.610518 5.348589 12.098646 15.783715 0.555840 0.697380 0.004704 0.002068 -1721980.000000 1 0 0
1.273618 4.879789 -2.665754 5.704444 1.315493 2.057044 -0.001324 -0.000607 742809.000000 1 0 0
1.209118 0.492389 9.645746 9.733696 0.386723 0.134530 -0.002911 0.000567 664663.000000 1 0 0
2.455618 12.636189 -3.956354 13.466850 1.378856 1.868980 0.001733 -0.003824 371580.000000 1 0 0
2.222418 0.559889 13.017046 13.217266 0.246792 0.174280 -0.005248 -0.003134 -240364.000000 1 0 0
-12.136682 -1.731311 0.941746 12.295665 0.141695 1.494130 -0.005533 -0.002670 100902.000000 1 0 0
3.214618 8.737989 -1.229554 9.391380 1.218274 1.702097 0.003651 0.000180 525965.000000 1 0 0
3.700418 -2.829311 -5.864654 7.489477 -0.652775 2.470355 -0.003750 -0.001851 -1407810.000000 1 0 0
-7.818582 -7.142011 9.365046 14.136571 0.740205 0.846686 0.000930 0.001283 -326440.000000 1 0 0
-7.009182 10.922089 -3.447354 13.427766 -1.000247 1.830437 -0.009106 0.004122 -5942.010000 1 0 0
0.381018 0.522189 2.550346 2.630992 0.940443 0.248235 -0.008158 0.002606 -3674830.000000 1 0 0
-7.090382 4.657189 -1.898754 8.692996 -0.581163 1.790995 -0.004782 0.001576 -421843.000000 1 0 0
-6.941582 -3.875811 -5.913454 9.908401 0.509229 2.210319 0.009464 -0.006764 -272203.000000 1 0 0
2.966118 -6.147911 13.402746 15.040887 -1.121279 0.471061 0.000529 -0.001731 -601856.000000 1 0 0
-5.599382 -0.588911 -11.659954 12.948143 0.104789 2.691741 0.009990 -0.006355 -955929.000000 1 0 0
11.784518 2.458089 -0.715254 12.059381 0.205638 1.630142 0.000710 0.003129 -2078630.000000 1 0 0
6.246918 -10.956311 10.705946 16.543338 -1.052602 0.866962 -0.002044 0.000817 82628.700000 1 0 0
-8.336782 6.451989 -10.347254 14.771450 -0.658634 2.346880 -0.006781 -0.000855 290095.000000 1 0 0
3.079318 7.953789 11.317446 14.171434 1.201415 0.645815 -0.006839 0.003642 972558.000000 1 0 0
-6.128682 -10.106711 -0.534754 11.831835 1.025686 1.616008 0.010662 -0.001907 -140546.000000 1 0 0
11.251618 4.287089 6.085846 13.491315 0.364038 1.102806 0.006275 -0.002612 489107.000000 1 0 0
-7.868882 10.707389 1.616146 13.385791 -0.937028 1.449765 -0.011104 0.000719 485935.000000 1 0 0
4.182218 -2.885411 -3.644254 6.252770 -0.603931 2.192994 -0.004930 -0.000704 -4647930.000000 1 0 0
6.405118 6.465689 6.290546 11.063528 0.790104 0.966013 -0.003658 0.003259 -4665230.000000 1 0 0
-0.561182 10.393589 -10.130554 14.524797 -1.516856 2.342652 0.006095 -0.001905 -193637.000000 1 0 0
13.889418 6.628989 -2.506954 15.593083 0.445298 1.732271 0.004492 0.002021 930272.000000 1 0 0
1.324218 9.483589 -6.230354 11.424067 1.432061 2.147628 0.002843 -0.000114 48334.900000 1 0 0
0.653818 7.324389 7.351746 10.398188 1.481766 0.785518 -0.012155 0.006157 -87563.500000 1 0 0
12.288618 6.209089 1.891946 13.897568 0.467856 1.434237 0.005516 -0.000694 461298.000000 1 0 0
-6.813882 6.846989 -2.982254 10.109603 -0.787822 1.870244 -0.006923 0.002139 902765.000000 1 0 0
1.188718 9.839189 11.196046 14.952396 1.450564 0.724578 -0.005904 0.001271 116509.000000 1 0 0
-3.714882 13.692589 -10.998754 17.951599 -1.305868 2.230255 -0.002084 0.001150 96106.000000 1 0 0
-10.001282 -5.451811 -2.296854 11.619958 0.499082 1.769771 0.006846 -0.002610 -630195.000000 1 0 0
-4.146982 3.930289 -12.497354 13.741488 -0.758577 2.712783 0.002422 -0.005066 -768609.000000 1 0 0
-3.108182 8.598789 2.561546 9.495340 -1.223942 1.297643 -0.006667 0.005808 -4824370.000000 1 0 0
7.132218 8.846589 7.047946 13.371769 0.892280 1.015640 -0.003828 0.003827 -1497990.000000 1 0 0
-1.402682 -2.196211 -8.182154 8.587113 1.002418 2.833261 0.002412 -0.007566 -1040120.000000 1 0 0
0.941618 -1.321511 4.808346 5.074764 -0.951709 0.325467 -0.006397 0.001849 633939.000000 1 0 0
2.652218 -8.741711 -6.177554 11.027872 -1.276225 2.165395 -0.009319 0.000415 248183.000000 1 0 0
5.292418 3.823989 8.987546 11.108941 0.625694 0.628284 -0.002176 0.002852 -626672.000000 1 0 0
6.257818 -7.517911 -2.838654 10.185148 -0.876616 1.853242 -0.003975 -0.002943 910038.000000 1 0 0
1.639918 2.234189 -8.182354 8.638973 0.937607 2.815010 0.001490 -0.002586 75359.400000 1 0 0
-5.483282 11.004389 -0.555554 12.307379 -1.108525 1.615952 -0.011081 0.004026 1123550.000000 1 0 0
-5.374882 3.346689 -3.303854 7.141787 -0.556910 2.051732 -0.002479 0.000374 -125177.000000 1 0 0
1.885118 13.689589 -6.345354 15.205986 1.433952 2.001261 -0.007872 0.001172 554858.000000 1 0 0
-5.200982 -2.537611 2.591946 6.340967 0.453929 1.149699 -0.005635 -0.000031 906722.000000 1 0 0
10.302918 -3.381411 -1.902354 11.009224 -0.317123 1.744464 -0.004236 0.001926 402995.000000 1 0 0
2.374318 -3.385111 7.075946 8.195449 -0.959131 0.528827 -0.005207 0.001287 -2312650.000000 1 0 0
-3.028782 9.906789 -11.558454 15.521464 -1.274093 2.410845 0.002678 -0.003546 -2820340.000000 1 0 0
0.565118 -2.090111 9.327146 9.575154 -1.306733 0.228096 -0.002983 0.000279 293910.000000 1 0 0
9.481618 2.611189 4.937246 11.004353 0.268733 1.105528 0.000448 -0.000712 -216439.000000 1 0 0
13.338718 2.229589 -5.200954 14.489389 0.165621 1.937938 0.004399 0.000617 -1509370.000000 1 0 0
-6.441982 3.688589 7.608946 10.630187 -0.520018 0.773046 -0.002589 -0.000916 -145499.000000 1 0 0
10.548718 0.137089 1.752446 10.694172 0.012995 1.406185 0.002013 0.001992 1422860.000000 1 0 0
15.271018 6.789189 -4.629554 17.341564 0.418337 1.841036 0.004470 0.005291 1173380.000000 1 0 0
7.969318 -4.872011 -9.356654 13.220949 -0.548720 2.357054 -0.004090 0.001663 985408.000000 1 0 0
4.326118 5.652189 -2.125154 7.428244 0.917519 1.860941 -0.000197 0.000095 279328.000000 1 0 0
-1.674982 -10.599311 1.470146 10.831080 1.414065 1.434642 0.004682 -0.002883 -537540.000000 1 0 0
-2.941182 12.230489 -12.811754 17.954844 -1.334798 2.365355 0.001939 -0.005420 -1384600.000000 1 0 0
8.265318 4.303989 -9.638754 13.406915 0.480093 2.373071 -0.002845 0.003116 -1712600.000000 1 0 0
4.061618 7.600589 -9.026754 12.479903 1.080023 2.379370 0.003536 -0.003318 -1036290.000000 1 0 0
-1.792082 -4.954111 -2.652954 5.898554 1.223705 2.037297 0.005406 -0.002353 792986.000000 1 0 0
-3.186682 -9.127611 6.983146 11.926129 1.234901 0.945259 0.002103 0.003425 148293.000000 1 0 0
1.017618 7.241589 -1.343454 7.435121 1.431186 1.752485 -0.002437 0.000433 594116.000000 1 0 0
0.493318 -0.646511 -2.213754 2.358399 -0.918998 2.789543 -0.003499 -0.002200 -1470260.000000 1 0 0
4.099218 -6.650811 7.317546 10.704362 -1.018442 0.818107 -0.002867 0.003799 61164.300000 1 0 0
-13.801482 3.987389 6.203546 15.648136 -0.281252 1.163161 -0.010159 -0.003408 -1718990.000000 1 0 0
4.339918 6.205789 12.737446 14.818544 0.960518 0.536386 -0.001099 0.003196 -1833290.000000 1 0 0
8.118318 10.213589 -7.254954 14.928457 0.899201 2.078282 0.014909 -0.003484 27624.000000 1 0 0
12.407518 5.218789 9.279046 16.348791 0.398151 0.967248 0.002401 -0.001288 -2567.140000 1 0 0
7.573518 3.959289 0.386446 8.554735 0.481706 1.525608 -0.001456 0.004113 -1402020.000000 1 0 0
-10.920482 -7.471911 -1.024454 13.271620 0.600050 1.648065 0.004509 -0.001429 -672534.000000 1 0 0
10.414318 6.898289 0.172646 12.492967 0.585033 1.556976 0.005348 0.000553 -914419.000000 1 0 0
14.601118 3.657389 4.075646 15.594231 0.245437 1.306370 0.013754 -0.007017 559896.000000 1 0 0
2.226818 5.629989 8.258646 10.240153 1.194151 0.632594 -0.009863 0.004295 480799.000000 1 0 0
4.368318 0.157889 11.786646 12.571084 0.036128 0.355134 0.001713 -0.001032 -1194700.000000 1 0 0
-1.348982 -1.616611 -0.562554 2.179369 0.875399 1.831879 -0.001473 -0.002706 -735299.000000 1 0 0
3.084818 -5.136911 -9.448454 11.188264 -1.029995 2.576421 -0.008000 -0.001227 138057.000000 1 0 0
-4.019082 -5.300811 -1.436054 6.805429 0.922067 1.783410 0.005163 -0.004310 -175817.000000 1 0 0
-1.229982 -8.702111 8.615446 12.307132 1.430384 0.795347 0.000647 0.003751 199381.000000 1 0 0
3.814718 8.537589 -5.951454 11.084327 1.150595 2.137584 0.007631 -0.000262 576938.000000 1 0 0
-14.349582 -1.692711 -2.644754 14.689128 0.117420 1.751832 -0.000418 -0.003441 -1054400.000000 1 0 0
8.793618 -10.517911 -6.665354 15.244052 -0.874450 2.023327 -0.003076 -0.002161 267564.000000 1 0 0
14.945418 6.108389 1.488146 16.213961 0.387995 1.478885 0.005850 -0.000084 404925.000000 1 0 0
-5.808982 0.415889 -8.562954 10.355743 -0.071472 2.544333 0.007815 -0.008828 -153567.000000 1 0 0
-7.979482 -4.637211 -12.957354 15.908139 0.526438 2.522682 0.005739 -0.003669 458357.000000 1 0 0
1.019618 -10.734911 12.022246 16.149686 -1.476099 0.731122 -0.003514 0.002349 -373489.000000 1 0 0
0.238218 11.703289 3.303646 12.162968 1.550444 1.295725 -0.003399 0.000939 -1943110.000000 1 0 0
5.080718 -13.361211 -3.835954 14.800345 -1.207423 1.832969 -0.005780 0.002566 -291867.000000 1 0 0
-7.492982 1.633889 -7.022954 10.398858 -0.214695 2.312247 0.002824 -0.002554 768870.000000 1 0 0
1.485718 2.820589 4.084746 5.181528 1.085986 0.662709 -0.009807 0.003280 -2227310.000000 1 0 0
17.372118 5.507489 2.323146 18.371716 0.307007 1.444005 0.015217 -0.001488 -10075.500000 1 0 0
2.483918 -8.219111 -3.542554 9.288344 -1.277311 1.962104 -0.006487 -0.000669 506348.000000 1 0 0
-0.347882 -9.453711 -0.672654 9.483994 1.534015 1.641781 0.006103 0.000576 -1086020.000000 1 0 0
0.670718 11.871589 -5.585454 13.137038 1.514359 2.009944 -0.000631 0.001068 -1515140.000000 1 0 0
6.054318 -5.072011 7.813446 11.109906 -0.697340 0.790786 -0.000736 0.001054 -946622.000000 1 0 0
-6.086482 -1.958411 -9.408954 11.375810 0.311302 2.544728 0.011371 -0.006589 -465794.000000 1 0 0
2.186218 -1.239911 11.290546 11.566908 -0.515914 0.219035 -0.005074 -0.001293 314989.000000 1 0 0
17.850918 2.447589 -5.889354 18.956014 0.136263 1.886710 0.000639 -0.000055 68696.700000 1 0 0
-8.834782 4.696489 7.898946 12.747695 -0.488600 0.902516 -0.001466 -0.006651 -859936.000000 1 0 0
11.672018 -6.799011 -5.027454 14.413114 -0.527456 1.927099 0.001726 -0.003109 -197799.000000 1 0 0
10.872218 0.437089 8.834546 14.015898 0.040181 0.888827 0.009653 -0.001543 -135564.000000 1 0 0
-8.420482 -7.318211 -1.475654 11.253368 0.715477 1.702305 0.012312 -0.005979 -919909.000000 1 0 0
10.170018 -10.490611 -3.444854 15.011636 -0.800914 1.802339 0.006524 -0.000148 487017.000000 1 0 0
7.623718 -13.888611 -3.895754 16.315376 -1.068784 1.811904 0.000009 0.001676 -1002670.000000 1 0 0
1.633018 -1.171911 -11.769354 11.939758 -0.622464 2.972442 -0.001555 -0.003703 -144655.000000 1 0 0
-11.865882 -2.678311 -6.361454 13.727367 0.221995 2.052640 0.007618 -0.004744 -695239.000000 1 0 0
2.649718 -12.063411 -6.494454 13.954384 -1.354581 2.054890 -0.006418 0.001390 561011.000000 1 0 0
-5.527682 1.488989 1.261246 5.862004 -0.263124 1.353945 -0.000917 -0.001625 265625.000000 1 0 0
0.129318 6.857989 -3.915454 7.898070 1.551942 2.089492 0.001366 -0.000143 1108650.000000 1 0 0
5.495218 -11.865711 3.509946 13.539286 -1.137088 1.308559 -0.007308 -0.000020 -2316500.000000 1 0 0
-4.414082 -9.275511 1.031646 10.323930 1.126626 1.470702 0.006904 -0.000914 -548273.000000 1 0 0
7.079218 -6.198311 -4.848054 10.584801 -0.719150 2.046563 -0.000908 -0.002693 -265515.000000 1 0 0
-6.971282 -6.033611 2.158446 9.469009 0.713421 1.340826 0.003516 -0.000074 155872.000000 1 0 0
-6.223282 -0.822611 7.065946 9.451641 0.131421 0.726371 -0.002909 0.000401 -1325730.000000 1 0 0
4.253218 -5.128011 3.154046 7.371185 -0.878379 1.128641 -0.006325 0.001725 -1101880.000000 1 0 0
-2.592882 10.575689 -8.764254 13.977853 -1.330365 2.248505 0.000002 -0.001157 -1110650.000000 1 0 0
-2.279482 -4.939911 2.753746 6.097695 1.138468 1.102234 -0.000781 0.002396 253165.000000 1 0 0
15.103618 5.005589 6.310446 17.117153 0.320024 1.193227 0.010038 -0.009639 -298862.000000 1 0 0
6.713218 0.239789 0.062146 6.717787 0.035704 1.561545 -0.004689 0.000757 4176520.000000 1 0 0
-9.550482 9.201789 0.551046 13.273593 -0.766806 1.529270 -0.007311 -0.000001 -1396300.000000 1 0 0
7.137318 10.508789 -2.663354 12.979576 0.974183 1.777460 0.008701 0.000852 61513.900000 1 0 0
1.667918 -4.201411 -5.447554 7.078817 -1.192887 2.448944 -0.003642 -0.003709 -972933.000000 1 0 0
0.904418 -8.027411 -7.980554 11.355463 -1.458603 2.350114 -0.007330 -0.000865 2292360.000000 1 0 0
-10.462082 0.372989 -10.445854 14.788852 -0.035636 2.355101 -0.000425 -0.004748 -4730650.000000 1 0 0
5.854718 -2.514511 0.440146 6.387036 -0.405663 1.501829 -0.003224 0.002011 -192686.000000 1 0 0
-3.400882 5.369289 -0.989554 6.432299 -1.006183 1.725251 -0.004492 0.000528 810257.000000 1 0 0
-0.391782 4.545289 -5.050954 6.806267 -1.484814 2.406999 0.000732 -0.001946 -1070220.000000 1 0 0
4.078818 -9.802411 10.036346 14.610006 -1.176485 0.813512 -0.006527 0.003481 -1503240.000000 1 0 0
7.320618 -13.609811 -0.867854 15.478100 -1.077296 1.626896 0.001040 -0.001350 367659.000000 1 0 0
13.002818 0.028289 0.413446 13.009421 0.002176 1.539010 0.003121 -0.000355 495270.000000 1 0 0
9.253418 2.494889 -0.729354 9.611565 0.263356 1.646752 0.000249 0.002409 -839528.000000 1 0 0
-0.712582 -5.883311 4.487846 7.433834 1.450264 0.922655 -0.004280 0.003954 -488955.000000 1 0 0
11.524418 -3.696811 3.153846 12.507013 -0.310411 1.315878 0.008466 -0.000091 -1441890.000000 1 0 0
1.797118 -8.198511 11.742046 14.433325 -1.355009 0.620587 -0.006335 0.002286 -205382.000000 1 0 0
9.479318 -5.887711 -6.077254 12.706519 -0.555798 2.069490 -0.001187 -0.002999 -230506.000000 1 0 0
3.175018 6.344989 -0.144054 7.096504 1.106831 1.591097 -0.003122 0.001604 -589629.000000 1 0 0
6.504618 -1.359311 11.392146 13.188585 -0.206012 0.528056 0.005226 -0.002366 288540.000000 1 0 0
-4.816182 -7.476111 -3.760254 9.655431 0.998503 1.970825 0.010941 -0.005904 187528.000000 1 0 0
-3.437382 -8.440211 -5.773754 10.788373 1.184045 2.135521 0.006169 -0.001716 205948.000000 1 0 0
9.718718 5.341289 2.148046 11.295882 0.502527 1.379469 0.003348 -0.001309 206633.000000 1 0 0
8.819118 -1.458211 0.233146 8.941901 -0.163864 1.544720 -0.002045 0.002853 1492120.000000 1 0 0
-3.728682 9.671089 9.326046 13.943033 -1.202809 0.838112 -0.000750 -0.004283 127752.000000 1 0 0
-14.329782 -3.479311 -6.018554 15.927060 0.238193 1.958304 -0.000530 -0.002202 -721829.000000 1 0 0
10.519818 6.373289 -5.986354 13.679248 0.544700 2.023750 0.001684 0.000775 -287478.000000 1 0 0
-1.733182 4.535889 2.668346 5.540602 -1.205812 1.068319 -0.007327 0.002967 272209.000000 1 0 0
6.978218 -3.690111 2.579546 8.304608 -0.486425 1.254955 -0.001966 0.000134 -1408090.000000 1 0 0
8.257118 -11.269111 -1.755754 14.080325 -0.938446 1.695817 0.002566 -0.002017 -1584260.000000 1 0 0
4.502218 0.592389 1.750546 4.866755 0.130826 1.202856 -0.005558 0.001771 338643.000000 1 0 0
-10.682682 2.263889 3.918846 11.601820 -0.208832 1.226241 -0.006322 -0.001512 -1541.220000 1 0 0
-0.811582 -3.080511 4.302346 5.353354 1.313193 0.637354 -0.003527 0.001643 170469.000000 1 0 0
8.537518 -8.601311 -8.644254 14.886064 -0.789120 2.190378 0.001262 -0.001622 -159187.000000 1 0 0
12.035218 -4.815511 0.838846 12.989969 -0.380608 1.506175 0.002979 0.000812 424190.000000 1 0 0
2.974318 4.850789 3.524946 6.693427 1.020755 1.016167 -0.010813 0.003151 -402219.000000 1 0 0
6.139518 7.462089 1.987846 9.865495 0.882330 1.367913 -0.000152 0.000627 -78173.300000 1 0 0
-1.664182 -1.228011 -10.296154 10.501824 0.635717 2.943358 0.006539 -0.005767 663828.000000 1 0 0
-0.802482 -8.586811 6.031546 10.524108 1.477612 0.960492 -0.001675 0.002095 -549997.000000 1 0 0
-4.155482 -0.210211 2.246946 4.728740 0.050543 1.075641 -0.003407 0.000141 -104543.000000 1 0 0
-8.551882 6.232189 -7.815254 13.154963 -0.629762 2.206932 -0.007572 0.001530 -755749.000000 1 0 0
6.422618 11.231789 -9.362654 15.970673 1.051351 2.197207 0.002990 -0.009051 -306071.000000 1 0 0
-11.047282 -5.822011 3.185846 12.887508 0.485020 1.321002 0.003708 -0.000257 996818.000000 1 0 0
1.562518 -6.334411 2.973246 7.169827 -1.328953 1.143196 -0.006916 0.002828 436517.000000 1 0 0
10.164618 2.182989 7.206546 12.649870 0.211550 0.964664 0.004467 -0.001151 -1152690.000000 1 0 0
-4.124182 -2.464311 -10.569754 11.610401 0.538599 2.714972 0.010566 -0.008289 -1347740.000000 1 0 0
-8.100082 11.807989 6.083046 15.557743 -0.969540 1.169081 -0.002185 -0.006177 -1171720.000000 1 0 0
6.735918 6.080989 -3.003254 9.558795 0.734344 1.890397 0.002565 0.001597 -1953340.000000 1 0 0
3.881018 -9.920411 -2.437954 10.927968 -1.197886 1.795783 -0.007397 -0.002478 -1424350.000000 1 0 0
8.382918 -12.759311 -7.461854 16.992722 -0.989513 2.025416 0.001357 -0.001846 162974.000000 1 0 0
-1.125782 9.514989 3.790846 10.304024 -1.453027 1.194047 -0.006609 0.002598 -242700.000000 1 0 0
0.525318 -13.249311 4.598346 14.034422 -1.531168 1.236984 0.001696 0.003252 -1772160.000000 1 0 0
-11.280882 -6.996311 -5.153354 14.239513 0.555134 1.941107 0.007405 -0.003850 350631.000000 1 0 0
3.519118 10.372989 -3.326554 11.447666 1.243723 1.865638 0.005586 -0.001930 -131443.000000 1 0 0
11.619718 -7.945311 -7.505254 15.952262 -0.599756 2.060633 0.006655 -0.000141 697484.000000 1 0 0
11.623318 -4.551111 -6.083954 13.886275 -0.373201 2.024310 0.001297 -0.002699 450088.000000 1 0 0
1.253418 -10.402211 -2.724154 10.825806 -1.450879 1.825166 -0.003084 0.001464 -1313450.000000 1 0 0
2.384218 -12.061611 -3.978054 12.922534 -1.375642 1.883717 -0.003149 -0.000059 -1061570.000000 1 0 0
-7.597882 -5.729511 7.312146 12.000941 0.646116 0.915622 -0.000068 0.002803 -3275660.000000 1 0 0
-7.134782 -0.875011 9.552546 11.954994 0.122031 0.645096 -0.000863 0.000374 559659.000000 1 0 0
15.966918 2.695189 -7.693754 17.927643 0.167222 2.014354 -0.000717 0.000481 1073090.000000 1 0 0
-2.137182 6.255589 -5.432454 8.556371 -1.241585 2.258677 -0.001005 0.002219 10918.100000 1 0 0
7.727218 1.132589 8.309946 11.403853 0.145535 0.754380 0.003298 -0.000340 -392824.000000 1 0 0
7.775518 8.325289 -3.784154 12.003705 0.819530 1.891515 0.008173 0.002744 -807318.000000 1 0 0
8.029918 0.509289 3.945046 8.961158 0.063339 1.114932 -0.002660 0.001239 13637.200000 1 0 0
-6.907682 5.769289 5.484346 10.539393 -0.695838 1.023516 -0.002039 -0.004271 394156.000000 1 0 0
-5.912882 -2.022711 -4.568054 7.740843 0.329607 2.202008 0.010945 -0.007295 -1099510.000000 1 0 0
-15.032582 -2.159811 3.226746 15.525952 0.142699 1.361441 -0.000934 -0.005052 571923.000000 1 0 0
1.105718 1.208489 -10.537154 10.663708 0.829777 2.987377 0.003427 -0.006140 455700.000000 1 0 0
1.627018 -9.403711 9.391046 13.389127 -1.399474 0.793446 -0.004706 0.000884 -674596.000000 1 0 0
-0.249882 -6.864911 -1.417654 7.014214 1.534413 1.774310 0.002235 0.001072 725888.000000 1 0 0
-0.445682 -10.132011 -8.488354 13.225295 1.526837 2.267675 -0.005156 0.002809 -36034.800000 1 0 0
-4.211182 6.535289 3.860546 8.680315 -0.998385 1.109904 -0.004651 0.003741 -160883.000000 1 0 0
10.676218 -1.074911 -8.788354 13.869832 -0.100345 2.257034 0.004848 0.001505 -275213.000000 1 0 0
3.089618 -1.066211 6.213046 7.020291 -0.332298 0.484275 -0.005214 0.001814 110083.000000 1 0 0
1.979318 -12.381811 6.703946 14.218644 -1.412281 1.079817 -0.003591 0.004956 -160903.000000 1 0 0
2.902518 -4.986011 -1.397654 5.936191 -1.043618 1.808474 -0.000034 0.000668 -1018450.000000 1 0 0
-1.096082 9.564389 -1.574654 9.754920 -1.456694 1.732927 -0.004509 0.001179 -265557.000000 1 0 0
4.458918 -2.581611 2.557446 5.752147 -0.524818 1.110061 -0.003623 0.001876 -1489270.000000 1 0 0
17.738318 6.696089 -2.784454 19.163474 0.360954 1.716613 0.007702 0.005588 343919.000000 1 0 0
-7.156582 3.463689 -5.321254 9.567107 -0.450755 2.160606 -0.002657 0.000434 254822.000000 1 0 0
-13.716082 -6.092311 2.312846 15.185401 0.417998 1.417894 -0.004714 -0.002709 320483.000000 1 0 0
6.728918 -6.129411 2.962546 9.572079 -0.738808 1.256131 -0.003831 -0.001279 1554760.000000 1 0 0
-4.531282 1.890489 3.660846 6.124398 -0.395253 0.930107 -0.001749 -0.001257 387599.000000 1 0 0
6.844918 -11.974011 -5.412254 14.816287 -1.051485 1.944742 -0.002424 -0.000559 311915.000000 1 0 0
2.895818 -12.405311 3.111846 13.113394 -1.341469 1.331208 0.001467 -0.001035 -67476.900000 1 0 0
3.208118 11.293189 -6.082554 13.222163 1.294012 2.048822 0.000347 0.000488 -614205.000000 1 0 0
-5.507982 -8.323511 6.329646 11.818762 0.986214 1.005627 0.005455 0.003249 151716.000000 1 0 0
-3.929782 6.460689 6.387046 9.898386 -1.024325 0.869431 -0.002415 0.000909 451817.000000 1 0 0
4.248518 4.447289 -6.939954 9.273146 0.808252 2.416432 -0.002141 0.001643 -2911110.000000 1 0 0
-0.268582 -2.910811 1.506046 3.288333 1.478786 1.095056 -0.003050 0.003197 -1208480.000000 1 0 0
-13.193882 -0.975911 6.620046 14.793780 0.073833 1.106841 -0.004580 -0.002650 -153804.000000 1 0 0
-0.443782 -9.230311 -6.026754 11.032559 1.522755 2.148701 -0.001589 0.000748 192564.000000 1 0 0
2.057118 -1.655011 -3.910654 4.718476 -0.677496 2.547749 -0.002803 -0.000339 -1289070.000000 1 0 0
11.332718 -1.861211 1.065246 11.533836 -0.162780 1.478306 0.002307 0.001308 1325470.000000 1 0 0
0.468518 -4.237811 -1.902554 4.668861 -1.460687 1.990509 0.000165 -0.000819 -1184430.000000 1 0 0
1.033718 -7.307211 -11.209254 13.420555 -1.430263 2.559348 -0.009333 0.001249 788856.000000 1 0 0
-4.540182 4.193089 -9.992254 11.749059 -0.745675 2.587680 0.001798 -0.004915 -434258.000000 1 0 0
-1.093782 5.805589 -2.033154 6.247794 -1.384578 1.902252 -0.002353 0.000266 -2287970.000000 1 0 0
-11.315282 1.704489 -3.737654 12.037896 -0.149512 1.886505 0.002336 -0.001606 -700611.000000 1 0 0
-1.621682 -11.317711 4.132746 12.157304 1.428478 1.223944 0.005819 -0.001745 -860780.000000 1 0 0
-3.510782 -5.302111 -9.506654 11.437414 0.985929 2.552039 0.002992 -0.000528 -970820.000000 1 0 0
-12.945982 -3.646911 -8.343554 15.827612 0.274586 2.126042 0.004027 -0.002457 -501955.000000 1 0 0
11.346718 4.466289 0.456746 12.202638 0.374994 1.533357 0.004873 0.003165 391534.000000 1 0 0
-8.866282 -2.264711 -2.999954 9.630140 0.250082 1.887586 0.006597 -0.004541 -252995.000000 1 0 0
-2.468782 -6.011911 -6.387654 9.112633 1.181144 2.347549 0.002694 -0.004213 -265441.000000 1 0 0
-0.124482 2.889489 -1.778954 3.395485 -1.527742 2.122240 -0.002594 -0.002118 -1202870.000000 1 0 0
7.964818 6.086389 -5.259254 11.319992 0.652502 2.053978 0.004507 0.001419 -708877.000000 1 0 0
-9.734282 -0.921011 -0.859254 9.815438 0.094334 1.658450 -0.000746 -0.002862 -275123.000000 1 0 0
5.961418 0.663589 -8.982654 10.801247 0.110858 2.552835 -0.005194 0.002782 223684.000000 1 0 0
-4.079382 2.420689 7.983846 9.286705 -0.535549 0.536100 -0.005616 0.002697 -1092810.000000 1 0 0
-10.066182 -3.372911 1.491546 10.720506 0.323316 1.431213 -0.000905 -0.001728 1932850.000000 1 0 0
-1.842382 -8.091611 -7.840654 11.416847 1.346923 2.327821 -0.000143 -0.002565 -726455.000000 1 0 0
-9.297782 -9.855711 4.168046 14.175909 0.814519 1.272363 0.005277 0.000118 -688901.000000 1 0 0
-0.999282 -10.774811 7.246246 13.023180 1.478318 0.980736 0.001337 0.001792 -215301.000000 1 0 0
9.340318 3.894789 -3.867354 10.833621 0.395064 1.935826 -0.000418 0.001963 -595377.000000 1 0 0
12.702618 -0.413811 3.066146 13.073982 -0.032565 1.334069 0.008459 -0.003619 -691391.000000 1 0 0
6.452818 12.154989 -6.862954 15.377996 1.082752 2.033405 0.008219 0.002852 524861.000000 1 0 0
-11.909282 -0.096311 -6.487254 13.561885 0.008087 2.069565 0.006479 -0.002999 302163.000000 1 0 0
-7.655582 -6.611111 -11.308154 15.171983 0.712318 2.411828 0.011336 -0.008121 -1871840.000000 1 0 0
4.133918 6.059589 6.537046 9.825521 0.972109 0.842883 -0.008139 0.003194 -3341980.000000 1 0 0
-4.260082 -1.276311 -7.502254 8.721300 0.291088 2.606501 0.007266 -0.011470 -1562270.000000 1 0 0
9.601118 9.294289 0.840646 13.389248 0.769161 1.507970 0.007275 0.000039 -817080.000000 1 0 0
-8.785982 3.805589 4.954246 10.780563 -0.408748 1.093304 -0.004566 -0.003505 122207.000000 1 0 0
-7.132082 7.867289 -12.118754 16.112884 -0.834375 2.422063 -0.004838 -0.002786 -915736.000000 1 0 0
11.163018 -3.689811 7.207746 13.790551 -0.319233 1.020830 0.012069 -0.002634 1355910.000000 1 0 0
11.875818 6.859689 6.439046 15.150964 0.523800 1.131843 0.003529 -0.001224 -50804.800000 1 0 0
-9.988982 -0.875811 -14.677254 17.775505 0.087454 2.542240 -0.009831 0.001220 58822.200000 1 0 0
1.848718 -13.173911 12.052646 17.950933 -1.431375 0.834671 -0.005991 0.006090 328754.000000 1 0 0
2.977918 2.993689 12.988246 13.657405 0.788039 0.314329 -0.001852 -0.002322 -795415.000000 1 0 0
-2.504582 -1.382711 11.185246 11.545326 0.504433 0.250407 0.000280 0.000745 -904093.000000 1 0 0
2.541718 -10.027811 -8.264354 13.240728 -1.322557 2.244854 -0.010189 0.003230 -1356060.000000 1 0 0
13.714618 3.702989 -7.757054 16.185635 0.263715 2.070603 0.002665 0.003492 -2292820.000000 1 0 0
7.387818 -1.637611 4.966346 9.051311 -0.218137 0.990002 0.000921 -0.000069 398024.000000 1 0 0
-1.106282 8.719789 10.170646 13.442493 -1.444600 0.712692 -0.003222 -0.001094 -215350.000000 1 0 0
-12.135882 -4.680911 0.970746 13.043500 0.368126 1.496304 0.000095 -0.003567 -165752.000000 1 0 0
-4.937682 4.902489 -5.228154 8.703372 -0.781822 2.215178 -0.002920 -0.000270 -162995.000000 1 0 0
-11.092982 0.307789 2.086246 11.291652 -0.027739 1.384969 -0.008813 -0.000037 -2748120.000000 1 0 0
-1.434782 2.274489 -3.985854 4.808215 -1.008026 2.548055 -0.000785 -0.005107 821592.000000 1 0 0
3.228118 -9.908611 13.117446 16.753170 -1.255851 0.671350 -0.001712 0.003114 -3073300.000000 1 0 0
8.785218 4.709789 -1.590654 10.094174 0.492112 1.729037 -0.000845 0.000709 -1135720.000000 1 0 0
3.986618 2.281089 3.887946 6.017692 0.519717 0.868351 -0.010181 0.005815 -503014.000000 1 0 0
-5.368782 -3.321611 7.441246 9.758538 0.554049 0.703571 -0.000664 -0.000019 52919.100000 1 0 0
1.627718 -5.853311 7.760646 9.855879 -1.299564 0.664196 -0.007432 0.002547 -807912.000000 1 0 0
-5.745982 -6.056911 -9.817654 12.887545 0.811736 2.436874 0.017350 -0.006072 -1242300.000000 1 0 0
-11.634082 -5.870111 5.555446 14.165911 0.467290 1.167807 0.002951 -0.000740 -884672.000000 1 0 0
10.517518 6.241589 4.402446 12.998352 0.535587 1.225269 0.002759 -0.000522 -713488.000000 1 0 0
1.533218 -3.766111 0.400846 4.085955 -1.184176 1.472535 0.000595 0.001642 -786610.000000 1 0 0
8.706818 4.244489 6.862246 11.870754 0.453590 0.954423 -0.001633 0.000898 -692092.000000 1 0 0
-7.782982 12.042789 3.689046 14.805831 -0.997043 1.318982 -0.007950 -0.001699 287028.000000 1 0 0
-6.248482 13.086089 -6.988454 16.097445 -1.125318 2.019873 -0.004141 -0.002805 298651.000000 1 0 0
4.506518 -7.042111 -0.938154 8.413095 -1.001527 1.682540 -0.003972 -0.000420 -878695.000000 1 0 0
-1.822082 -8.266911 11.108446 13.966366 1.353858 0.651176 -0.002000 -0.001494 -183739.000000 1 0 0
11.534918 8.907189 -5.765654 15.672751 0.657554 1.947522 0.009867 0.001797 379072.000000 1 0 0
-3.336782 -2.961611 -2.034054 4.903328 0.725902 1.998554 0.004115 -0.003512 -640607.000000 1 0 0
-1.854982 5.989289 4.868446 7.938155 -1.270449 0.910568 -0.010586 0.003607 426678.000000 1 0 0
0.309418 -11.518811 -5.582454 12.804005 -1.543941 2.021937 -0.002677 -0.000464 -2398980.000000 1 0 0
-8.992182 6.241689 -1.506854 11.049372 -0.606771 1.707597 -0.006241 0.002722 -1056100.000000 1 0 0
2.971718 -0.059111 3.865046 4.875775 -0.019889 0.655565 -0.007862 0.002387 329701.000000 1 0 0
-10.040382 3.933989 -0.896354 10.820766 -0.373432 1.653728 -0.002227 0.001668 -23587.100000 1 0 0
6.638018 5.290389 13.686446 16.104978 0.672899 0.555139 0.006467 0.001776 127851.000000 1 0 0
-8.708282 -1.664011 5.675246 10.526705 0.188808 1.001394 -0.002576 -0.001237 144363.000000 1 0 0
12.904218 -1.732711 -1.548254 13.111759 -0.133476 1.689154 0.003995 -0.000867 -636126.000000 1 0 0
5.427618 -5.565311 5.286846 9.401195 -0.797923 0.973561 -0.008117 0.000020 -107080.000000 1 0 0
-8.979982 -1.266111 3.286246 9.645855 0.140069 1.223146 -0.004570 -0.000749 608519.000000 1 0 0
1.951518 5.434889 5.680546 8.100311 1.226062 0.793612 -0.009052 0.003819 -1479420.000000 1 0 0
9.221618 3.174889 -7.461454 12.279717 0.331577 2.223862 -0.002221 0.001266 -1674210.000000 1 0 0
2.304718 -2.394511 -1.483254 3.639430 -0.804504 1.990567 -0.001469 -0.000570 -144021.000000 1 0 0
-6.225682 0.380489 -3.881954 7.346662 -0.061040 2.127508 0.000257 -0.001541 -1900830.000000 1 0 0
-3.840582 4.175989 5.002946 7.564286 -0.827213 0.848125 -0.005424 0.000707 955948.000000 1 0 0
-6.512182 1.787889 -12.384854 14.106370 -0.267943 2.642384 0.000664 -0.001347 -3498930.000000 1 0 0
-0.059982 3.157089 6.194846 6.953195 -1.551800 0.471396 -0.008361 0.002842 884879.000000 1 0 0
-8.641582 9.438289 -2.031354 12.957030 -0.829436 1.728222 -0.010223 0.005184 1624930.000000 1 0 0
-1.259282 -3.637711 -6.126654 7.235649 1.237534 2.580608 -0.001716 -0.004746 297121.000000 1 0 0
-3.345682 7.120089 -2.925954 8.393477 -1.131523 1.926872 -0.004945 0.003012 974847.000000 1 0 0
6.968118 -0.301411 -4.450154 8.273415 -0.043229 2.138724 -0.002911 0.002507 -79460.800000 1 0 0
-5.140782 -10.865011 6.874646 13.846908 1.128858 1.051263 0.004365 0.000792 971617.000000 1 0 0
9.724518 8.398489 -1.569254 12.944629 0.712360 1.692323 0.005447 0.002614 178162.000000 1 0 0
13.545318 4.686089 -4.290954 14.961529 0.333068 1.861680 0.001984 0.001072 720660.000000 1 0 0
4.632318 1.170989 -6.760454 8.278486 0.247600 2.526343 -0.006025 0.000510 -619741.000000 1 0 0
8.986718 -4.703711 3.509246 10.733164 -0.482197 1.237718 0.001985 -0.001372 330348.000000 1 0 0
-8.810782 -3.305011 -0.812854 9.445301 0.358867 1.656962 0.002641 -0.002831 -562395.000000 1 0 0
-8.620882 -4.271111 -10.401054 14.168413 0.459991 2.395139 0.009598 -0.006135 275047.000000 1 0 0
10.508218 -1.172511 10.705846 15.047012 -0.111121 0.779176 0.010428 -0.001527 965606.000000 1 0 0
2.329318 -11.759411 9.897546 15.545768 -1.375246 0.880622 -0.007409 0.003203 -37271.200000 1 0 0
-6.406082 -10.697511 1.928646 12.617223 1.031231 1.417336 0.007421 -0.000985 -856321.000000 1 0 0
-3.671582 -1.283111 6.866246 7.891275 0.336203 0.515379 -0.001692 0.004077 -2004860.000000 1 0 0
4.782518 -7.622111 3.824246 9.777214 -1.010435 1.168928 -0.008027 0.002005 464220.000000 1 0 0
11.439618 -9.393611 -5.441154 15.770573 -0.687503 1.923056 0.010625 -0.001021 634325.000000 1 0 0
11.407618 1.130389 11.451646 16.203448 0.098768 0.785915 0.008216 0.000151 396744.000000 1 0 0
-10.127182 -3.579911 4.451146 11.627049 0.339785 1.177942 -0.000379 -0.001241 1402490.000000 1 0 0
2.079918 8.716689 9.072746 12.752311 1.336563 0.779224 -0.008095 0.003919 -422195.000000 1 0 0
6.619818 8.763189 4.114746 11.728026 0.923840 1.212321 -0.000621 0.002645 -342991.000000 1 0 0
-4.283182 3.555189 0.506046 5.589373 -0.692788 1.480135 -0.002074 -0.000814 -1521260.000000 1 0 0
4.905718 6.896989 4.209046 9.452544 0.952537 1.109307 -0.005020 0.002856 -1970710.000000 1 0 0
-8.175982 13.233889 1.323746 15.612008 -1.017387 1.485904 -0.011898 0.001846 -1225540.000000 1 0 0
8.843118 8.344989 -9.175654 15.232603 0.756425 2.217262 0.008561 -0.008091 -324868.000000 1 0 0
7.129218 1.871589 6.030646 9.523513 0.256730 0.885067 -0.002326 0.000998 -264226.000000 1 0 0
11.469718 -6.238611 2.868146 13.367908 -0.498163 1.354561 0.005875 0.000296 -3350.750000 1 0 0
11.291018 4.695489 -2.160554 12.417838 0.394104 1.745674 0.002760 0.001657 -78136.300000 1 0 0
-4.056882 14.348889 -5.978354 16.065168 -1.295257 1.952101 -0.003349 0.003086 -963718.000000 1 0 0
7.136518 -3.083211 6.876746 10.379100 -0.407813 0.846569 0.001937 -0.000738 -1660230.000000 1 0 0
-7.870082 -0.508411 0.983546 7.947580 0.064511 1.446724 -0.000198 -0.002060 388446.000000 1 0 0
-3.134282 1.020589 10.830646 11.321140 -0.314794 0.295439 -0.002210 0.001384 30457.900000 1 0 0
7.033618 -1.169911 -2.063654 7.422880 -0.164822 1.852521 -0.002001 0.001276 -818849.000000 1 0 0
-7.766982 5.272789 3.072146 9.877570 -0.596405 1.254528 -0.005183 -0.000280 553075.000000 1 0 0
9.496518 -2.129411 2.810946 10.130137 -0.220582 1.289623 0.000065 0.000528 -1405510.000000 1 0 0
0.247918 3.494589 1.611446 3.856212 1.499971 1.139682 -0.007542 0.002120 -3414770.000000 1 0 0
-7.442482 -3.124511 4.110746 9.058219 0.397476 1.099756 -0.002694 0.000741 932117.000000 1 0 0
-2.358982 8.380689 -6.717554 10.996648 -1.296417 2.227959 -0.004129 -0.000710 -500102.000000 1 0 0
4.565518 9.808689 7.376146 13.094345 1.135163 0.972413 -0.006313 0.010545 1188770.000000 1 0 0
-11.795482 -3.193011 6.882846 14.025059 0.264362 1.057842 -0.000259 -0.001905 -890913.000000 1 0 0
-4.820482 2.329089 -5.574354 7.728850 -0.450089 2.376387 0.002177 -0.004530 -663849.000000 1 0 0
-2.804382 2.927589 -1.797854 4.434818 -0.806890 1.988207 -0.003560 -0.000531 974400.000000 1 0 0
2.462218 5.193789 11.505446 12.861308 1.128107 0.463310 -0.003501 -0.001643 118820.000000 1 0 0
-0.681082 1.615989 4.615446 4.937371 -1.171924 0.363106 -0.006647 0.002314 -1351530.000000 1 0 0
5.113318 1.569189 7.606946 9.299140 0.297759 0.612824 -0.004222 0.001501 916743.000000 1 0 0
3.328918 -8.239611 1.809046 9.068933 -1.186834 1.369972 -0.005388 0.000625 1145060.000000 1 0 0
4.871718 6.465689 -4.617554 9.319902 0.925077 2.089150 0.006708 0.000378 -2399790.000000 1 0 0
-4.188482 2.927089 -7.917154 9.422980 -0.609949 2.568442 0.005635 -0.008899 -63498.800000 1 0 0
-8.863682 -2.285811 -12.778654 15.718899 0.252386 2.519994 0.007031 -0.006806 -1004560.000000 1 0 0
-7.753682 8.177989 1.674046 11.393046 -0.812025 1.423327 -0.006136 0.002982 -1615950.000000 1 0 0
7.354818 0.992389 -6.671354 9.979236 0.134120 2.303018 -0.003740 0.002791 1396690.000000 1 0 0
9.004618 8.802589 5.530446 13.753347 0.774053 1.156969 -0.000037 0.002046 525980.000000 1 0 0
9.372218 -0.993911 -1.475054 9.539503 -0.105654 1.726045 -0.001199 0.000392 1397920.000000 1 0 0
5.478318 0.072489 4.193846 6.899679 0.013231 0.917469 -0.004870 0.002861 -1758710.000000 1 0 0
-4.225082 -7.241111 -7.956054 11.557846 1.042609 2.330033 0.010444 -0.006308 32411.300000 1 0 0
-2.209782 7.492189 -0.519854 7.828555 -1.283984 1.637250 -0.005448 0.003368 264735.000000 1 0 0
13.335118 -3.210811 -7.681554 15.720718 -0.236281 2.081311 -0.001885 0.002166 812648.000000 1 0 0
-4.734182 -5.076311 1.646446 7.133877 0.820258 1.337904 0.004710 -0.001528 1853070.000000 1 0 0
-8.800682 1.225089 2.712246 9.290270 -0.138315 1.274537 -0.006018 -0.000812 -1307800.000000 1 0 0
-0.964582 11.170689 10.320046 15.238703 -1.484661 0.826810 -0.000815 -0.001323 -143385.000000 1 0 0
-8.451582 0.262989 7.452546 11.271151 -0.031107 0.848372 -0.003610 -0.002062 -676210.000000 1 0 0
-6.195982 13.003489 -1.952654 14.535947 -1.126136 1.705536 -0.012969 0.004537 1621160.000000 1 0 0
-12.880282 -0.857011 3.335046 13.332616 0.066439 1.317970 -0.004520 -0.002434 304634.000000 1 0 0
-6.581582 12.744989 8.760946 16.807919 -1.094111 1.022494 0.003295 -0.010576 122631.000000 1 0 0
-8.185382 0.874389 -14.100354 16.327431 -0.106420 2.613161 -0.005493 0.002904 336811.000000 1 0 0
7.231118 2.890689 3.771346 8.652641 0.380297 1.119802 -0.004055 0.003003 -761101.000000 1 0 0
-1.648782 0.706289 -1.910354 2.620453 -0.404722 2.387680 -0.000738 -0.003849 443112.000000 1 0 0
-6.387082 9.645789 -10.311254 15.497032 -0.985918 2.298785 -0.005996 -0.000420 -303046.000000 1 0 0
-9.999682 13.649089 5.423646 17.768151 -0.938507 1.260600 -0.004587 -0.004724 969853.000000 1 0 0
-5.492482 8.398589 2.529646 10.349046 -0.991631 1.323862 -0.006703 0.002001 -1413050.000000 1 0 0
-2.389682 -10.742111 -1.223454 11.072505 1.351902 1.681517 0.007141 -0.000866 583926.000000 1 0 0
-2.152082 -12.435611 8.816746 15.395158 1.399436 0.961005 0.000627 0.003842 131591.000000 1 0 0
-14.787382 -6.369111 -1.681754 16.188284 0.406699 1.674871 0.009782 0.002205 397146.000000 1 0 0
-2.701282 -9.452211 3.177046 10.331256 1.292433 1.258213 0.002080 -0.001075 -959792.000000 1 0 0
4.689418 -2.731211 7.453246 9.219601 -0.527393 0.629345 -0.002966 0.001922 -490328.000000 1 0 0
-14.907582 -1.130511 -0.203554 14.951772 0.075690 1.584411 -0.005917 -0.004206 24655.600000 1 0 0
5.401218 8.802989 -2.872754 10.720004 1.020461 1.842093 0.005335 0.001390 -520889.000000 1 0 0
-5.591782 -5.799111 8.523746 11.728255 0.803598 0.757188 0.001252 0.000416 -2799280.000000 1 0 0
3.453818 3.602389 7.098146 8.676966 0.806450 0.612793 -0.009302 0.002996 49315.800000 1 0 0
3.358918 2.165389 9.349346 10.167670 0.572618 0.403946 -0.003998 -0.000779 711377.000000 1 0 0
9.998618 -3.232111 5.148346 11.701469 -0.312654 1.115226 0.011111 -0.002702 -493524.000000 1 0 0
6.482218 10.155189 -5.079454 13.074703 1.002679 1.969794 0.007581 0.001101 -127905.000000 1 0 0
-4.503982 12.071589 -8.523654 15.448682 -1.213687 2.155245 -0.002503 -0.000682 -438256.000000 1 0 0
-3.359882 -7.272811 2.067146 8.273795 1.138026 1.318279 0.002614 0.000290 1019620.000000 1 0 0
-7.425082 -4.028511 1.124546 8.522051 0.497109 1.438453 0.002726 -0.001165 2006490.000000 1 0 0
-1.997382 -3.848911 -10.855754 11.689784 1.092106 2.761562 0.005127 -0.004953 -1246320.000000 1 0 0
-5.264282 8.337489 -4.388354 10.792777 -1.007609 1.989527 -0.008088 0.002508 -2125220.000000 1 0 0
-11.020382 -3.196811 -10.115454 15.296759 0.282333 2.293321 0.007440 -0.004580 1283440.000000 1 0 0
4.636618 -11.405911 -7.875554 14.615656 -1.184690 2.139860 -0.009650 0.000084 -2098900.000000 1 0 0
-9.338782 -3.968511 7.289246 12.493800 0.401828 0.947852 -0.000953 -0.000031 -1603160.000000 1 0 0
-5.730982 -9.603911 -5.094054 12.289371 1.032782 1.998199 0.010966 -0.008747 528000.000000 1 0 0
4.859618 4.318189 -9.535054 11.540359 0.726473 2.543188 -0.000541 0.003440 84593.300000 1 0 0
-3.566582 -7.111311 -14.143154 16.227139 1.105920 2.629200 -0.004998 0.003390 55781.200000 1 0 0
0.622318 -0.768211 -8.808654 8.863961 -0.889935 3.029824 0.000466 -0.008201 -508157.000000 1 0 0
-7.689782 2.241789 -2.808454 8.487978 -0.283667 1.908026 -0.003216 0.000317 103607.000000 1 0 0
-2.454482 7.549789 -12.469554 14.782204 -1.256469 2.574659 0.002571 -0.005175 -151586.000000 1 0 0
-9.691282 8.800689 7.737046 15.206411 -0.737274 1.037004 -0.002792 -0.009058 -474684.000000 1 0 0
-10.965682 -3.140711 -14.099454 18.135734 0.278945 2.461382 0.000871 -0.006673 -232463.000000 1 0 0
-3.172782 4.745689 8.014646 9.839850 -0.981484 0.618914 -0.004755 0.000886 -6556.340000 1 0 0
8.706218 -2.262711 -3.679654 9.718948 -0.254271 1.959086 -0.000345 0.001142 -4332760.000000 1 0 0
1.944418 -8.489311 -1.200054 8.791433 -1.345637 1.707726 -0.001866 0.000867 -66045.300000 1 0 0
-13.521182 -2.862811 5.173946 14.757634 0.208647 1.212590 -0.002704 -0.003563 224826.000000 1 0 0
6.967118 2.718789 -1.975654 7.735358 0.372057 1.829064 -0.002063 0.001669 285181.000000 1 0 0
-11.049682 4.460989 9.021946 14.946284 -0.383710 0.922757 -0.006107 -0.006043 -2396130.000000 1 0 0
-1.733182 -2.479111 8.091946 8.638837 0.960665 0.357730 -0.002734 -0.000072 -2123190.000000 1 0 0
2.988818 11.932789 -9.829354 15.746132 1.325374 2.244954 -0.002685 -0.007451 424248.000000 1 0 0
3.583918 -4.982411 -7.111854 9.394007 -0.947225 2.429602 -0.006098 -0.003663 -194245.000000 1 0 0
8.179718 -13.715411 -9.848854 18.762202 -1.033036 2.123430 0.003004 0.006900 -424904.000000 1 0 0
-6.248682 -5.727911 -0.446454 8.488481 0.741943 1.623416 0.008082 -0.003109 -547419.000000 1 0 0
-1.081182 -4.155311 9.799146 10.698543 1.316248 0.412970 -0.003617 0.001130 1197090.000000 1 0 0
2.822218 3.304989 1.884046 4.736823 0.864027 1.161739 -0.010968 0.003606 -1044540.000000 1 0 0
-9.012182 13.400889 7.858146 17.959780 -0.978762 1.117934 0.000125 -0.012555 -371183.000000 1 0 0
4.131818 -11.153911 -0.100154 11.895028 -1.216032 1.579216 -0.003685 -0.002052 -304459.000000 1 0 0
-12.635982 -1.312011 -9.064054 15.605976 0.103461 2.190516 0.005318 -0.003800 -239111.000000 1 0 0
-4.387982 0.927089 -13.533954 14.257692 -0.208217 2.821603 0.006573 -0.002365 580329.000000 1 0 0
3.942318 -3.198011 4.944646 7.086514 -0.681533 0.798538 -0.005118 0.003958 -20350.700000 1 0 0
1.738418 -1.211611 1.173046 2.422011 -0.608684 1.065202 -0.002046 0.001526 450190.000000 1 0 0
8.196718 -9.075411 7.241346 14.212191 -0.836228 1.036174 -0.000821 -0.000799 -1352520.000000 1 0 0
-0.116582 2.272989 -6.231754 6.634367 -1.519551 2.791422 -0.000391 -0.004970 -970387.000000 1 0 0
-3.794682 -9.789411 -3.378554 11.029361 1.200998 1.882125 0.007738 -0.003470 158378.000000 1 0 0
-9.515682 2.196589 -5.440054 11.178881 -0.226865 2.079032 0.000382 -0.000208 -798092.000000 1 0 0
8.951118 -7.652111 5.251246 12.893910 -0.707319 1.151338 0.000762 -0.001481 269024.000000 1 0 0
-5.430282 -4.370911 4.658546 8.384204 0.677730 0.981671 -0.000454 0.000968 203623.000000 1 0 0
-0.014682 -12.551911 10.317946 16.248406 1.569627 0.882771 -0.000130 0.005843 -2712960.000000 1 0 0
-14.140782 -8.313211 3.200346 16.712672 0.531467 1.378114 -0.007557 -0.000330 -1287580.000000 1 0 0
11.021318 -1.502211 -3.684954 11.717721 -0.135466 1.890702 0.005737 0.002429 113103.000000 1 0 0
-13.424582 3.055889 2.849946 14.059873 -0.223820 1.366681 -0.007583 -0.000018 -2233890.000000 1 0 0
-6.327682 6.216889 1.268246 8.960899 -0.776566 1.428788 -0.007590 0.002139 170306.000000 1 0 0
7.075918 -6.864111 -0.377854 9.865466 -0.770205 1.609106 -0.002144 -0.002920 -675445.000000 1 0 0
-6.820282 7.841489 9.996446 14.419921 -0.854937 0.804823 -0.004466 -0.006426 618750.000000 1 0 0
-12.628482 -5.107311 -1.863854 13.749077 0.384318 1.706777 0.003757 -0.003271 -1409040.000000 1 0 0
-9.376282 -5.556611 0.157346 10.900245 0.534978 1.556361 0.006518 -0.002118 -968885.000000 1 0 0
-1.732882 1.814889 2.258346 3.375919 -0.808509 0.837991 -0.004198 0.001450 -293685.000000 1 0 0
-7.099482 7.256289 7.607346 12.685743 -0.796321 0.927699 -0.003106 -0.006229 -227489.000000 1 0 0
5.645118 7.133489 -0.456654 9.108378 0.901349 1.620953 0.001907 0.000232 -1378730.000000 1 0 0
-0.034282 -4.023711 7.437146 8.455919 1.562277 0.495945 -0.005043 0.002354 -746743.000000 1 0 0
6.603018 0.512489 13.055546 14.639323 0.077459 0.469458 0.003283 -0.002081 -137385.000000 1 0 0
5.771418 6.190589 -7.949354 11.611412 0.820426 2.324873 0.000191 0.000450 -453817.000000 1 0 0
9.819818 5.218489 9.075546 14.353640 0.488470 0.886301 -0.002192 -0.000714 -1348950.000000 1 0 0
-1.214482 -4.968311 -8.467554 9.892348 1.331052 2.598221 0.004025 -0.005008 247488.000000 1 0 0
9.884718 -3.479311 -8.118254 13.255916 -0.338446 2.229921 -0.000229 -0.001841 397066.000000 1 0 0
8.426718 -5.302711 1.068646 10.013508 -0.561667 1.463872 0.001744 0.001010 857195.000000 1 0 0
15.580018 3.392889 -5.267754 16.792793 0.214424 1.889874 0.006382 0.002160 -100549.000000 1 0 0
-6.903082 3.651689 1.183146 7.898557 -0.486573 1.420438 -0.004168 -0.001219 648177.000000 1 0 0
-1.823482 3.807289 0.369946 4.237616 -1.124134 1.483385 -0.003434 -0.001848 -1625750.000000 1 0 0
-2.574782 9.945289 7.089346 12.481871 -1.317464 0.966757 -0.004433 0.001057 811960.000000 1 0 0
5.446018 -5.660811 -8.798754 11.794998 -0.804735 2.412792 -0.005281 -0.002916 -2654390.000000 1 0 0
-1.106182 -0.936811 6.310146 6.474504 0.702684 0.225803 -0.005737 0.001715 305811.000000 1 0 0
-5.799482 4.948589 -7.716654 10.847546 -0.706396 2.362246 -0.000562 -0.002561 -96136.000000 1 0 0
6.706218 -1.303211 2.467346 7.263575 -0.191937 1.224212 -0.003557 0.002465 -719721.000000 1 0 0
8.800518 7.570389 3.190246 12.039002 0.710398 1.302600 0.002483 0.001130 -306795.000000 1 0 0
-5.225782 -4.816811 -7.588754 10.397098 0.744697 2.388960 0.012181 -0.007142 464220.000000 1 0 0
-2.367082 7.855289 -10.020054 12.950294 -1.278114 2.455507 0.003012 -0.002958 756315.000000 1 0 0
-2.747182 -2.223611 1.607846 3.882863 0.680456 1.143856 -0.003383 0.001608 -109131.000000 1 0 0
5.794018 -1.942111 -9.236654 11.075117 -0.323423 2.557115 -0.004058 0.000830 840041.000000 1 0 0
1.316218 -7.605911 5.062046 9.230744 -1.399441 0.990359 -0.006420 0.003224 914945.000000 1 0 0
1.745418 11.827389 1.203446 12.015902 1.424280 1.470474 0.002768 -0.003401 -140033.000000 1 0 0
-1.109582 7.124989 2.543746 7.646390 -1.416306 1.231660 -0.006138 0.004257 420261.000000 1 0 0
8.621118 7.945189 -6.706554 13.506575 0.744619 2.090404 0.010060 -0.001704 -22745.500000 1 0 0
3.750918 -11.308511 5.338946 13.055886 -1.250526 1.149515 -0.005174 0.004543 269417.000000 1 0 0
8.011418 -7.098811 12.304546 16.308826 -0.725075 0.715948 0.006599 -0.002684 89713.900000 1 0 0
-8.654382 0.107289 -3.904454 9.494977 -0.012396 1.994580 0.001736 -0.001507 -1079560.000000 1 0 0
-3.293982 -5.026911 11.193446 12.704857 0.990726 0.492747 0.000170 0.000035 907680.000000 1 0 0
-8.271982 0.148689 -11.639354 14.280138 -0.017973 2.523651 0.002828 -0.003520 -2162100.000000 1 0 0
1.474118 -5.051911 5.337946 7.495899 -1.286885 0.778289 -0.006522 0.004365 -710836.000000 1 0 0
6.624118 3.802789 -7.697154 10.843723 0.521144 2.360047 -0.004016 0.002120 -143008.000000 1 0 0
16.219018 4.271489 -1.443654 16.834082 0.257515 1.656660 0.010055 0.000165 -1335070.000000 1 0 0
7.881918 7.428189 0.139446 10.831531 0.755771 1.557922 0.003289 -0.000780 -1346410.000000 1 0 0
5.560018 -10.383411 13.848546 18.179969 -1.079176 0.704790 0.001616 -0.000362 397748.000000 1 0 0
-5.091282 -9.064011 8.857046 13.657405 1.059013 0.865163 0.001406 -0.003319 522979.000000 1 0 0
-12.513082 -3.235411 2.893646 13.244557 0.253021 1.350542 -0.000750 -0.003449 -280322.000000 1 0 0
-2.179482 -1.377911 -5.882754 6.423050 0.563774 2.728495 0.003709 -0.009786 -1745600.000000 1 0 0
-2.668382 13.043389 -4.304354 13.992059 -1.369003 1.883496 -0.003570 0.006398 228514.000000 1 0 0
3.959318 -0.384711 -4.977654 6.371910 -0.096862 2.467361 -0.004855 0.000683 -205013.000000 1 0 0
-8.949782 3.817689 -7.310454 12.170295 -0.403198 2.215148 -0.003581 -0.001006 1134050.000000 1 0 0
-4.726682 7.941689 -11.239054 14.550886 -1.033933 2.453402 -0.002265 -0.004010 -1772190.000000 1 0 0
-10.035682 -6.548411 7.495746 14.134455 0.578140 1.011822 0.002832 0.001652 -1139650.000000 1 0 0
8.055618 5.304089 4.161446 10.504474 0.582281 1.163466 -0.003888 0.001026 -1582000.000000 1 0 0
-6.654482 -7.635411 3.944846 10.869381 0.853936 1.199384 0.008680 0.000597 -870497.000000 1 0 0
-4.013382 11.805789 8.159446 14.901692 -1.243102 0.991361 0.000319 -0.005437 -138512.000000 1 0 0
-7.291782 10.023989 -7.872554 14.684261 -0.941895 2.136633 -0.008167 0.000496 -1702390.000000 1 0 0
12.995718 5.475589 4.591746 14.830877 0.398765 1.256016 0.004247 -0.003217 465999.000000 1 0 0
5.368118 4.025189 -3.710754 7.667368 0.643394 2.075979 -0.001639 0.002361 712271.000000 1 0 0
-2.733982 -4.271111 5.162246 7.236424 1.001405 0.776501 -0.001431 0.003674 -1414300.000000 1 0 0
12.461318 -2.104511 -5.703354 13.865124 -0.167305 1.994726 0.001090 -0.006192 -1797470.000000 1 0 0
-5.168082 9.633289 7.178646 13.078313 -1.078391 0.989752 -0.002471 -0.002599 -169313.000000 1 0 0
1.811418 3.755589 -0.371854 4.186163 1.121388 1.659743 -0.009693 0.000090 391403.000000 1 0 0
-0.041782 9.651389 7.842746 12.436226 -1.566467 0.888422 -0.006753 0.003332 -366675.000000 1 0 0
-5.372282 2.099589 5.902446 8.252791 -0.372567 0.773877 -0.002984 -0.000566 689866.000000 1 0 0
8.942418 0.827089 10.633846 13.918678 0.092228 0.701309 0.007337 0.000658 -1892270.000000 1 0 0
0.419818 -2.880811 -10.129354 10.539409 -1.426086 2.861729 -0.001677 -0.004256 -1880650.000000 1 0 0
1.164018 10.665089 -2.676254 11.057187 1.462084 1.815262 0.002028 0.000416 630963.000000 1 0 0
2.309518 -4.354211 11.611246 12.614042 -1.083118 0.401434 -0.005628 0.001994 -220582.000000 1 0 0
6.525818 -3.163611 9.421846 11.889740 -0.451401 0.656006 0.004063 -0.001772 195699.000000 1 0 0
-10.543282 -8.255911 5.608046 14.517956 0.664319 1.174197 0.001193 0.001536 -521780.000000 1 0 0
-2.954582 0.901489 -6.864354 7.527389 -0.296143 2.718728 0.006277 -0.009189 947571.000000 1 0 0
11.068218 2.801489 -5.106554 12.507225 0.247905 1.991374 -0.000990 0.001031 -2551920.000000 1 0 0
-2.073282 -4.107911 -0.116154 4.602926 1.103392 1.596034 -0.000684 -0.000792 832020.000000 1 0 0
-1.418782 -6.352711 -10.672654 12.501017 1.351067 2.593928 -0.002760 -0.001307 678556.000000 1 0 0
0.226218 6.829289 -6.593754 9.495680 1.537684 2.338375 0.004541 0.000847 -2300030.000000 1 0 0
2.016118 3.801289 -6.130254 7.489629 1.083143 2.529590 -0.000865 -0.000434 -1451870.000000 1 0 0
1.564318 -14.836911 6.371846 16.222868 -1.465750 1.167155 0.004407 0.004030 -576200.000000 1 0 0
-1.813182 5.358689 -10.466554 11.897559 -1.244526 2.646075 0.006405 -0.004561 -505720.000000 1 0 0
13.587618 4.316489 -0.881554 14.283997 0.307595 1.632552 0.007645 -0.000777 -1091040.000000 1 0 0
-2.417182 3.351489 -6.105154 7.372120 -0.945966 2.546579 0.005254 -0.006260 -163630.000000 1 0 0
5.963018 7.644089 14.220046 17.210444 0.908319 0.598387 0.003083 -0.002631 420247.000000 1 0 0
15.807618 0.736189 -5.831154 16.864908 0.046538 1.923841 0.002327 0.000495 145808.000000 1 0 0
6.262018 -8.327211 10.564246 14.837743 -0.926020 0.778476 -0.003500 0.006578 -4253.430000 1 0 0
0.060618 -5.806611 -6.392254 8.636048 -1.560357 2.404138 -0.003700 -0.002272 -918888.000000 1 0 0
8.636518 5.631589 -7.648854 12.837804 0.577827 2.209066 0.001812 0.001516 -407605.000000 1 0 0
-15.854182 -0.803511 5.442646 16.781630 0.050638 1.240502 -0.007951 -0.003205 -734488.000000 1 0 0
-0.421382 4.102189 -12.220554 12.897575 -1.468434 2.816145 0.008688 -0.004453 236398.000000 1 0 0
-11.237082 3.683789 5.986846 13.254608 -0.316784 1.102148 -0.005881 -0.003991 -90206.000000 1 0 0
5.144318 -9.569511 -9.641654 14.525875 -1.077543 2.296627 -0.010506 0.000176 -161622.000000 1 0 0
1.433818 11.111589 -11.678854 16.183908 1.442467 2.376956 0.003053 -0.006615 -2239750.000000 1 0 0
5.962418 2.369189 1.259346 6.538306 0.378223 1.376975 -0.003352 0.003174 -531335.000000 1 0 0
5.645318 4.529989 4.915646 8.749514 0.676223 0.974213 -0.007795 0.003003 -241343.000000 1 0 0
0.358518 -1.413111 -6.352054 6.517209 -1.322330 2.915986 -0.000828 -0.004359 509875.000000 1 0 0
12.577718 6.909089 -4.672054 15.091805 0.502315 1.885543 0.004285 0.003376 -706904.000000 1 0 0
7.512918 3.058689 12.725946 15.091363 0.386633 0.567476 0.003851 0.000272 -73996.700000 1 0 0
-2.244182 -0.262811 8.789646 9.075423 0.116577 0.251618 -0.008481 0.002058 1003720.000000 1 0 0
2.281118 -15.364411 13.356546 20.485750 -1.423405 0.860588 -0.013092 0.008272 170058.000000 1 0 0
18.798918 4.521289 -1.936554 19.431717 0.236025 1.670621 0.008087 0.004377 -46416.500000 1 0 0
-0.307782 -13.292511 7.161646 15.102144 1.547646 1.076725 -0.007103 0.006273 -1115670.000000 1 0 0
4.317318 1.663689 -0.597154 4.665157 0.367816 1.699151 -0.004941 0.000468 525347.000000 1 0 0
2.714418 -0.408711 -7.418154 7.909748 -0.149448 2.787177 -0.006481 -0.001538 54863.200000 1 0 0
7.164118 -11.344311 0.789146 13.440266 -1.007525 1.512047 -0.003607 -0.001708 324304.000000 1 0 0
-11.801982 -7.314811 1.290546 13.944847 0.554848 1.478117 0.003273 0.000951 240514.000000 1 0 0
0.280818 -7.184411 9.962146 12.285723 -1.531729 0.625156 -0.003655 0.002146 -1507910.000000 1 0 0
-4.573582 -7.302011 10.618546 13.674448 1.011230 0.681665 0.004388 0.000967 -1382960.000000 1 0 0
11.836618 0.877389 -1.790454 12.003377 0.073990 1.720518 0.000411 0.002185 742515.000000 1 0 0
6.463218 -9.633111 -7.426254 13.773862 -0.979843 2.140230 -0.009708 -0.001795 115178.000000 1 0 0
-10.792282 4.884389 3.695946 12.409295 -0.424999 1.268370 -0.007010 -0.003253 323733.000000 1 0 0
5.928618 -9.194411 1.992346 11.120034 -0.998081 1.390656 -0.008118 -0.001357 3119880.000000 1 0 0
11.584918 -1.373911 5.848346 13.049947 -0.118043 1.106100 0.014397 -0.004464 -910928.000000 1 0 0
-6.358082 3.637589 4.183646 8.435647 -0.519668 1.051870 -0.003185 -0.001498 -952165.000000 1 0 0
9.367518 6.305789 -3.281354 11.759279 0.592481 1.853595 0.003023 0.002293 -404966.000000 1 0 0
-2.235882 6.632489 11.005646 13.042750 -1.245650 0.566446 -0.004026 -0.003618 -217838.000000 1 0 0
1.947118 9.862489 3.129046 10.528575 1.375876 1.269042 -0.003051 -0.000540 -95522.900000 1 0 0
2.697218 6.149589 -5.543254 8.707473 1.157462 2.260889 0.000805 0.000632 -3010010.000000 1 0 0
11.946618 0.190389 -5.537554 13.168995 0.015935 2.004792 0.003805 0.000642 664555.000000 1 0 0
-2.576182 -12.482811 6.223146 14.183964 1.367275 1.116595 0.001118 0.003132 -321423.000000 1 0 0
10.803418 1.853289 -2.855954 11.327180 0.169893 1.825680 -0.000126 0.002700 628287.000000 1 0 0
-8.857582 5.473089 0.942246 10.454630 -0.553476 1.480547 -0.005204 0.000144 10602.200000 1 0 0
1.201918 -10.216611 5.536646 11.682389 -1.453691 1.077047 -0.003652 0.001852 753715.000000 1 0 0
9.294518 -5.780611 -1.352054 11.028671 -0.556394 1.693700 -0.001436 -0.000111 -324701.000000 1 0 0
-7.799082 8.648789 -4.442854 12.464597 -0.837013 1.935249 -0.009476 0.002202 -782368.000000 1 0 0
-7.355482 -0.063511 -1.556154 7.518561 0.008634 1.779278 -0.001226 -0.001089 -1032340.000000 1 0 0
4.180018 8.878589 2.745846 10.190268 1.130782 1.297966 0.000431 -0.000505 367961.000000 1 0 0
-1.330082 -10.432411 -3.764254 11.170225 1.443985 1.914514 0.003715 0.001218 -130747.000000 1 0 0
3.035518 7.904289 -3.641154 9.216841 1.204129 1.976923 0.005922 -0.000681 -516708.000000 1 0 0
-4.383482 1.695389 -11.060954 12.018068 -0.369047 2.739797 0.006373 -0.005370 -388598.000000 1 0 0
1.265918 2.882889 10.909046 11.354333 1.157032 0.280985 -0.002584 -0.001024 601170.000000 1 0 0
2.045118 5.487489 -8.015454 9.926860 1.214055 2.510615 0.003874 0.000829 111523.000000 1 0 0
15.467218 6.108589 3.979546 17.099312 0.376135 1.335911 0.005541 -0.005011 10608.400000 1 0 0
-4.363282 9.014389 4.801146 11.106234 -1.120002 1.123762 -0.005432 0.001507 565855.000000 1 0 0
-0.995482 -8.146511 -12.475554 14.933053 1.449202 2.559715 -0.010681 0.003214 -347649.000000 1 0 0
14.186018 -4.112311 -5.476854 15.752782 -0.282151 1.925887 -0.001400 0.000124 9454.740000 1 0 0
-6.047182 -6.206111 -5.674354 10.357727 0.798368 2.150574 0.012662 -0.006871 537006.000000 1 0 0
-9.011182 2.602589 -12.247154 15.426200 -0.281166 2.488024 -0.006323 -0.000635 -337650.000000 1 0 0
10.743018 5.354789 13.725246 18.233721 0.462402 0.718582 0.019637 0.001643 647606.000000 1 0 0
-0.381582 10.888689 5.631146 12.264540 -1.535767 1.093769 -0.002686 0.003503 643297.000000 1 0 0
0.190718 11.320089 -0.539454 11.334540 1.553950 1.618408 0.000111 -0.000541 -266449.000000 1 0 0
-1.415882 -0.614011 3.746446 4.051862 0.409183 0.390751 -0.005925 0.003265 355049.000000 1 0 0
-4.734082 6.709189 8.861146 12.080755 -0.956314 0.747350 -0.002459 -0.002279 -1999090.000000 1 0 0
3.288018 -8.766111 -11.369854 14.728522 -1.211953 2.452718 -0.012342 -0.000065 433300.000000 1 0 0
6.830818 -3.826411 11.967846 14.301428 -0.510617 0.579332 0.012896 -0.002885 -350438.000000 1 0 0
-2.562782 -1.788511 -12.493754 12.878684 0.609301 2.896484 0.003685 -0.006324 850475.000000 1 0 0
-16.071282 -4.986811 5.467046 17.693021 0.300873 1.256661 0.001656 -0.003411 842275.000000 1 0 0
-8.941582 7.254989 5.828246 12.905627 -0.681639 1.102233 -0.006941 -0.005433 -4068060.000000 1 0 0
-12.733582 1.516489 5.995346 14.155847 -0.118535 1.133464 -0.008910 -0.005973 97372.100000 1 0 0
-3.424382 3.522089 10.241246 11.358460 -0.799463 0.447249 -0.004110 0.001340 540650.000000 1 0 0
2.085318 -12.364511 -1.192854 12.595737 -1.403715 1.665641 0.002734 -0.001953 -2964310.000000 1 0 0
10.197118 -5.111511 -3.792354 12.020429 -0.464663 1.891772 0.003588 0.000637 647912.000000 1 0 0
3.159518 -13.504711 0.907746 13.899057 -1.340973 1.505440 0.002461 -0.000588 397438.000000 1 0 0
9.985118 -1.549711 -6.241354 11.876813 -0.153974 2.124108 0.000908 0.001461 632178.000000 1 0 0
11.882918 -5.371111 -1.716754 13.152940 -0.424518 1.701692 0.003439 -0.000592 167568.000000 1 0 0
1.485618 0.944489 5.928446 6.184302 0.566296 0.288653 -0.007607 0.002036 330831.000000 1 0 0
-10.550382 11.619389 6.769546 17.092323 -0.833580 1.163577 -0.003351 -0.007360 -457275.000000 1 0 0
4.741318 -14.219711 2.965046 15.279784 -1.248956 1.375507 0.001122 0.000888 -3558980.000000 1 0 0
5.220718 -3.263211 -1.743854 6.398865 -0.558635 1.846813 0.000036 -0.001004 -1353500.000000 1 0 0
1.967818 -2.875711 -7.718254 8.468380 -0.970693 2.717519 -0.005449 -0.003206 -340995.000000 1 0 0
-2.850182 14.858089 -8.864854 17.534879 -1.381272 2.100822 0.001066 -0.000277 -1077840.000000 1 0 0
-2.377682 6.050989 -8.017154 10.321947 -1.196390 2.460221 0.004274 -0.003270 -173479.000000 1 0 0
2.580418 -3.527111 -11.441254 12.247504 -0.939179 2.776723 -0.008437 0.000354 -2799500.000000 1 0 0
14.664518 2.833589 -2.840654 15.203507 0.190875 1.758743 0.010427 0.002259 701869.000000 1 0 0
-3.467982 13.317189 2.352246 13.960927 -1.316041 1.401501 -0.008162 -0.000274 -947845.000000 1 0 0
7.944018 -5.053811 13.939846 16.821645 -0.566597 0.594042 0.012759 -0.006902 -1881410.000000 1 0 0
-11.309182 7.306289 3.060046 13.807365 -0.573593 1.347317 -0.006275 -0.001858 1001030.000000 1 0 0
-2.243382 11.980689 4.200946 12.892541 -1.385690 1.238893 -0.004434 -0.000138 -93943.500000 1 0 0
1.858318 1.415289 0.775046 2.461115 0.650882 1.250427 -0.009573 0.001283 -1768730.000000 1 0 0
-6.820682 8.593189 5.358746 12.209863 -0.899890 1.116437 -0.004618 -0.001632 -171571.000000 1 0 0
-1.157382 9.234589 1.126146 9.374719 -1.446115 1.450380 -0.004866 0.004183 445773.000000 1 0 0
4.778318 13.000689 -8.488354 16.245073 1.218579 2.120599 -0.004279 -0.005983 -2989190.000000 1 0 0
8.953318 6.845489 7.197346 13.372525 0.652764 1.002474 -0.006690 0.000611 -1494690.000000 1 0 0
7.245518 -13.774511 2.769246 15.808334 -1.086559 1.394711 0.002571 -0.000588 147148.000000 1 0 0
4.243518 -13.492911 -1.318654 14.205807 -1.266091 1.663755 -0.001750 0.003133 -3268890.000000 1 0 0
12.099518 -11.743611 -4.808554 17.533766 -0.770472 1.848601 0.012467 0.003232 -550204.000000 1 0 0
3.049618 -0.059311 -1.992354 3.643235 -0.019446 2.149410 -0.003412 0.000097 929534.000000 1 0 0
-13.663282 -3.084711 -10.623454 17.580059 0.222044 2.219671 -0.004507 -0.005296 -82153.600000 1 0 0
-6.409382 13.701989 5.156546 15.981697 -1.133263 1.242265 -0.003980 -0.004919 136325.000000 1 0 0
7.266418 -4.323711 -0.870554 8.500187 -0.536754 1.673392 -0.003628 0.001980 -1643430.000000 1 0 0
11.589018 1.931889 -7.409854 13.890409 0.165181 2.133472 0.002361 -0.000236 -191286.000000 1 0 0
-7.390382 -4.524411 9.705046 13.010609 0.549344 0.728861 0.000860 0.000822 230617.000000 1 0 0
1.027918 2.637689 8.448646 8.910311 1.199197 0.323314 -0.004140 0.000118 -1262350.000000 1 0 0
1.491218 7.978289 -8.757554 11.940334 1.386019 2.394170 0.005268 -0.003232 54703.400000 1 0 0
-8.505482 -1.915511 -5.567554 10.344567 0.221513 2.139109 0.010809 -0.004351 213662.000000 1 0 0
6.722218 -0.539711 7.137846 9.819794 -0.080116 0.757023 0.002321 -0.000322 136694.000000 1 0 0
-10.797782 6.444089 7.311346 14.545589 -0.538061 1.044134 -0.005657 -0.007358 -31260.000000 1 0 0
-5.816182 11.123589 5.118446 13.555836 -1.089021 1.183612 -0.005402 -0.003090 -450082.000000 1 0 0
6.025218 -1.075511 -6.965954 9.272782 -0.176641 2.420714 -0.005280 -0.000080 -583336.000000 1 0 0
4.493818 -5.847411 11.311346 13.503080 -0.915551 0.577763 0.004682 -0.000428 -1195690.000000 1 0 0
-8.918882 -7.460211 2.743846 11.946962 0.696576 1.339059 0.007952 -0.000257 -3425140.000000 1 0 0
-1.350582 12.763989 -9.289754 15.844337 -1.465377 2.197297 0.007050 0.000519 567018.000000 1 0 0
-4.630182 9.331289 -2.268854 10.661108 -1.110194 1.785252 -0.010251 0.002226 341118.000000 1 0 0
-3.299182 9.712089 -0.153554 10.258306 -1.243328 1.585766 -0.007859 0.003168 -1891650.000000 1 0 0
-3.448782 10.685589 -6.452254 12.950192 -1.258600 2.092360 -0.005000 0.003032 310731.000000 1 0 0
4.923918 -4.907611 0.201946 6.954883 -0.783740 1.541756 -0.003807 0.001107 -2218780.000000 1 0 0
-2.323882 2.952689 -10.988554 11.613230 -0.904008 2.812110 0.009259 -0.005112 -958283.000000 1 0 0
-3.599182 12.115689 -2.018554 12.799163 -1.282032 1.729167 -0.009870 0.005212 -115838.000000 1 0 0
-0.162582 0.331689 0.097046 0.381927 -1.115049 1.313883 -0.008688 0.000505 -2048310.000000 1 0 0
-4.812582 -1.784211 0.125046 5.134198 0.355030 1.546438 -0.003114 0.000530 265957.000000 1 0 0
2.369518 2.402789 -2.453354 4.172164 0.792370 2.199416 -0.003662 -0.000898 1158850.000000 1 0 0
6.121818 -9.757011 8.422646 14.269439 -1.010453 0.939418 -0.005209 0.003132 -1106160.000000 1 0 0
-4.143482 -5.614711 6.616046 9.615898 0.935040 0.812023 0.001741 0.000094 -5524.500000 1 0 0
-6.388282 5.338189 -11.931654 14.548909 -0.696087 2.532393 -0.003900 -0.002765 914540.000000 1 0 0
-12.833682 3.020289 8.041046 15.442926 -0.231135 1.023132 -0.009251 -0.005239 511923.000000 1 0 0
4.746618 -7.471011 -4.969654 10.151052 -1.004797 2.082393 -0.008417 -0.001919 1852950.000000 1 0 0
-5.987582 2.454389 -0.995154 6.547174 -0.389023 1.723385 -0.001351 -0.000864 -925448.000000 1 0 0
-7.056182 -2.701311 -14.565654 16.408688 0.365617 2.663077 0.003162 -0.000313 378836.000000 1 0 0
2.822718 -6.132511 0.881946 6.808323 -1.139420 1.440892 -0.004525 0.001307 -222766.000000 1 0 0
4.793218 -7.943111 12.902346 15.891460 -1.027849 0.623389 -0.001001 -0.001369 -388480.000000 1 0 0
-9.967582 -1.693411 8.024946 12.908140 0.168285 0.899889 -0.001935 -0.000664 -206582.000000 1 0 0
-4.461182 13.334589 0.059846 14.061187 -1.247945 1.566540 -0.011227 0.005071 998368.000000 1 0 0
6.794018 2.260889 -4.517054 8.466054 0.321249 2.133587 -0.003459 0.003354 -1743040.000000 1 0 0
5.053118 4.536389 0.028446 6.790702 0.731565 1.566607 -0.005449 0.000828 -415740.000000 1 0 0
-5.823082 12.340289 2.061946 13.800095 -1.129900 1.420819 -0.010457 0.001665 -895211.000000 1 0 0
6.505418 -7.323611 6.465846 11.737245 -0.844494 0.987375 -0.004090 0.000205 -1962310.000000 1 0 0
-0.198582 4.873989 7.871146 9.260137 -1.530076 0.554805 -0.008292 0.001426 -1271490.000000 1 0 0
-5.776582 -3.386511 -1.634954 6.892781 0.530247 1.810277 0.003324 -0.002957 -762401.000000 1 0 0
2.372618 -6.537211 -5.278254 8.730659 -1.222640 2.220016 -0.005157 -0.001073 25173.100000 1 0 0
-14.433982 -4.687711 -3.625854 15.603246 0.314023 1.805318 0.002084 0.000863 -108964.000000 1 0 0
-12.382182 -5.150911 -6.402854 14.860917 0.394218 2.016233 0.005661 -0.003601 -1246020.000000 1 0 0
-14.813182 -3.708511 -1.182054 15.316026 0.245310 1.648051 0.003208 -0.004385 644079.000000 1 0 0
11.893818 2.822589 8.699246 15.003560 0.233005 0.952298 0.008680 -0.002745 -1149280.000000 1 0 0
8.672018 -6.608411 7.614546 13.298734 -0.651161 0.961151 0.007035 -0.003968 -241788.000000 1 0 0
-8.910282 -1.656411 -9.797354 13.346346 0.183801 2.395115 0.009388 -0.005052 -39212.300000 1 0 0
-8.747582 5.196089 -3.844354 10.876515 -0.535998 1.932058 -0.004284 0.002847 -1287130.000000 1 0 0
-3.979582 -6.373411 4.131146 8.574603 1.012626 1.068102 0.004354 0.001670 -1037620.000000 1 0 0
-0.229282 -9.104911 3.478546 9.749475 1.545619 1.205963 -0.000398 0.000614 171646.000000 1 0 0
7.825418 -10.516811 3.263446 13.508907 -0.931091 1.326805 -0.004155 0.000848 -584158.000000 1 0 0
0.021018 6.469989 9.764446 11.713480 1.567548 0.585189 -0.008459 -0.001931 460762.000000 1 0 0
-0.154682 3.404089 -9.708554 10.289206 -1.525388 2.804037 0.008248 -0.003855 1355180.000000 1 0 0
4.515118 -3.191111 11.004846 12.315686 -0.615249 0.465575 -0.000206 -0.002049 8487.810000 1 0 0
8.548918 -9.190011 1.211646 12.609853 -0.821523 1.474561 -0.001364 -0.001117 -306298.000000 1 0 0
-0.232282 -0.553311 11.485146 11.500813 1.173336 0.052202 0.001529 0.000420 -2464080.000000 1 0 0
10.934718 5.980989 11.274146 16.806150 0.500516 0.835463 0.001650 0.003139 -102737.000000 1 0 0
-6.387282 -2.949311 -11.923854 13.844641 0.432580 2.608543 0.009645 -0.005391 550266.000000 1 0 0
-1.586882 2.718189 8.401946 8.972148 -1.042373 0.358433 -0.005618 0.002481 -265124.000000 1 0 0
-1.831982 13.562189 -6.807154 15.284844 -1.436529 2.032365 -0.003106 0.002254 366548.000000 1 0 0
7.728218 2.956489 9.819946 12.841243 0.365380 0.700191 0.002347 0.000757 852127.000000 1 0 0
6.399018 8.598289 -8.087754 13.427202 0.931005 2.217227 0.007254 -0.004352 121420.000000 1 0 0
6.564818 -2.971311 -4.044254 8.263263 -0.425023 2.082227 -0.002951 0.001599 -1421120.000000 1 0 0
2.048418 8.275389 1.072246 8.592310 1.328142 1.445679 -0.003299 0.003634 736000.000000 1 0 0
-17.398982 6.286389 6.537446 19.620944 -0.346713 1.231114 0.004126 -0.000855 -429554.000000 1 0 0
-14.706182 3.008989 -9.941354 18.004341 -0.201821 2.155754 0.006080 -0.008097 -820008.000000 1 0 0
-18.424782 0.166689 -4.435654 18.951923 -0.009047 1.807035 0.009052 -0.003912 802768.000000 1 0 0
-12.983382 7.910989 0.313046 15.206904 -0.547242 1.550209 -0.002169 0.003328 -633298.000000 1 0 0
-13.037782 -4.651911 -12.642854 18.747421 0.342722 2.310919 0.010785 0.000009 -162351.000000 1 0 0
-17.323682 -0.553511 -8.419254 19.269150 0.031940 2.022978 -0.010968 -0.012000 -591206.000000 1 0 0
-16.750882 -2.033111 -1.903354 16.980823 0.120783 1.683121 0.003012 -0.003160 -600920.000000 1 0 0
-15.212182 4.017389 1.899046 15.847910 -0.258195 1.450678 -0.006157 0.001725 -1327420.000000 1 0 0
-13.028982 5.855089 4.538246 14.987732 -0.422346 1.263170 -0.006505 -0.001454 -91313.900000 1 0 0
-10.037782 14.279289 2.944246 17.700953 -0.958086 1.403687 0.003618 -0.001761 490275.000000 1 0 0
-11.930482 2.426489 -6.195754 13.660586 -0.200649 2.041541 0.003876 -0.000481 -214171.000000 1 0 0
-15.772182 10.639489 4.045946 19.450710 -0.593456 1.361256 0.004333 0.002137 244247.000000 1 0 0
-12.774482 1.219389 -8.502654 15.393811 -0.095167 2.155968 0.003824 -0.003930 485650.000000 1 0 0
-12.285382 14.284289 4.155246 19.293459 -0.860489 1.353725 0.004707 -0.007953 -232072.000000 1 0 0
-10.229682 11.209189 -0.757654 15.194286 -0.831055 1.620681 -0.004564 0.001249 290348.000000 1 0 0
-16.671782 5.615389 9.005046 19.762888 -0.324885 1.097689 -0.006006 -0.007332 239688.000000 1 0 0
-11.631682 12.350689 -8.935654 19.175021 -0.815370 2.055566 -0.008954 -0.007241 -2335530.000000 1 0 0
-17.133282 -0.527311 3.133246 17.425402 0.030767 1.390004 0.002613 -0.004447 528381.000000 1 0 0
-12.924682 14.961889 -0.682954 19.783122 -0.858322 1.605325 -0.000990 -0.001523 483096.000000 1 0 0
-16.607582 4.729789 -10.209554 20.060350 -0.277451 2.104752 0.008554 -0.000986 677324.000000 1 0 0
-12.027382 7.561489 -8.941854 16.786625 -0.561248 2.132557 0.001002 0.005032 -40286.800000 1 0 0
-14.769582 13.370389 -1.753254 19.999543 -0.735716 1.658574 0.020727 -0.007741 1605.550000 1 0 0
-11.903482 10.657789 -5.310454 16.836931 -0.730240 1.891680 -0.001528 0.001500 2236020.000000 1 0 0
-17.428282 2.838489 -0.663554 17.670380 -0.161449 1.608357 -0.008437 0.003412 -1119900.000000 1 0 0
-9.415182 15.410289 0.761946 18.074933 -1.022352 1.528629 0.002134 -0.001522 -64279.800000 1 0 0
-8.164982 13.202889 -3.685654 15.955163 -1.016940 1.803902 -0.011583 0.000359 -518806.000000 1 0 0
-17.510882 11.602789 2.264846 21.127830 -0.585185 1.463393 0.011819 0.015603 -163961.000000 1 0 0
-8.086882 15.770389 -7.298954 19.167095 -1.096970 1.961465 0.004697 -0.002629 70509.800000 1 0 0
-6.313282 15.200889 -5.412854 17.326960 -1.177150 1.888509 -0.003926 0.001822 -459269.000000 1 0 0
-17.248782 5.190289 0.139146 18.013299 -0.292289 1.563072 0.007334 0.007451 108381.000000 1 0 0
-5.491082 12.261189 -12.126854 18.098323 -1.149738 2.305078 -0.007420 -0.006445 -122515.000000 1 0 0
-11.167082 3.792089 -11.363954 16.377518 -0.327360 2.337653 -0.009101 -0.000947 -290806.000000 1 0 0
-11.858282 11.002389 1.333246 16.231110 -0.747976 1.488562 -0.001333 -0.000653 225355.000000 1 0 0
-12.975882 0.345889 -10.980254 17.001739 -0.026650 2.272908 0.001231 -0.004731 143115.000000 1 0 0
-13.873582 -2.180711 -12.967154 19.114886 0.155909 2.316352 -0.016657 -0.003083 -200133.000000 1 0 0
-18.785482 -2.241311 -3.561454 19.251019 0.118749 1.756869 0.000376 0.001283 1263360.000000 1 0 0
-18.434682 4.930089 -4.820854 19.682070 -0.261320 1.818250 0.024229 0.002978 400046.000000 1 0 0
-8.213582 15.352189 -2.087254 17.535942 -1.079534 1.690106 -0.002342 -0.001437 271288.000000 1 0 0
-16.180182 9.256689 -5.254354 19.367313 -0.519652 1.845540 0.022134 0.009650 98221.100000 1 0 0
-18.112382 1.829989 2.446346 18.368229 -0.100694 1.437216 0.001031 -0.004888 253778.000000 1 0 0
-15.728982 -2.609311 -8.644454 18.136592 0.164395 2.067614 -0.003017 -0.005046 -565156.000000 1 0 0
-9.682482 10.659489 -6.993754 16.008989 -0.833390 2.022906 -0.009899 -0.000396 603669.000000 1 0 0
-13.918382 12.079289 -7.580854 19.927366 -0.714775 1.961051 0.002341 -0.002107 283339.000000 1 0 0
-10.999482 6.559589 -3.687954 13.327333 -0.537735 1.851177 -0.003502 0.003771 112070.000000 1 0 0
-13.183682 4.823789 -12.565354 18.840555 -0.350761 2.300879 -0.008691 0.002607 -726128.000000 1 0 0
-17.564682 9.117589 2.787046 19.985397 -0.478800 1.430886 0.017099 0.003596 881642.000000 1 0 0
-13.332582 8.679289 -6.424654 17.157038 -0.577066 1.954613 0.001261 0.002443 -242910.000000 1 0 0
-15.787382 7.048589 -3.759954 17.693538 -0.419914 1.784933 0.016012 0.007211 -948613.000000 1 0 0
-14.927682 -0.196211 -9.160254 17.515263 0.013143 2.121148 0.005674 -0.010135 -398092.000000 1 0 0
-10.143882 5.783889 -5.950954 13.105936 -0.518208 2.042119 -0.008119 0.001214 324051.000000 1 0 0
-12.577982 12.262389 -0.867654 17.587627 -0.772694 1.620150 0.007100 -0.000496 -701171.000000 1 0 0
-10.631082 3.620989 -13.881454 17.855705 -0.328280 2.461356 -0.015482 0.000647 197085.000000 1 0 0
-11.160382 6.318589 -11.868454 17.473949 -0.515167 2.317480 -0.007282 0.002242 -942282.000000 1 0 0
-5.866082 11.566189 -14.702054 19.604541 -1.101425 2.418754 -0.009737 -0.010213 -583718.000000 1 0 0
-15.560282 13.253389 3.772846 20.784827 -0.705506 1.388265 0.004848 -0.002793 -211056.000000 1 0 0
-15.019482 11.053189 -2.941754 18.878870 -0.634431 1.727256 0.027521 0.003644 436027.000000 1 0 0
-18.173382 7.940289 -4.376754 20.309504 -0.411922 1.788003 0.021222 0.009874 25873.000000 1 0 0
-4.158882 16.221389 -10.696854 19.870894 -1.319820 2.139236 0.005146 -0.001379 -64977.200000 1 0 0
-15.851482 4.450689 -4.215354 16.995508 -0.273727 1.821440 0.013281 0.001287 555564.000000 1 0 0
-18.659282 -1.825311 -6.055554 19.702038 0.097513 1.883210 -0.001204 -0.002763 246214.000000 1 0 0
-10.736782 8.648989 -5.720054 14.926570 -0.678114 1.964069 -0.005073 0.003968 473520.000000 1 0 0
-11.441582 13.768989 -6.736854 19.127991 -0.877456 1.930716 -0.004660 0.008336 67315.300000 1 0 0
-9.445982 10.544789 -4.281254 14.790141 -0.840309 1.864466 -0.013933 0.003713 -1042730.000000 1 0 0
-11.064582 6.296889 -0.105454 12.731335 -0.517391 1.579079 -0.008300 0.003027 -1394130.000000 1 0 0
-14.664282 9.263189 -1.107654 17.380297 -0.563391 1.634570 0.018369 0.003849 -705934.000000 1 0 0
-18.482282 3.549789 4.989646 19.470293 -0.189754 1.311635 -0.000164 -0.000485 257698.000000 1 0 0
-14.364682 13.436389 0.756746 19.683833 -0.752020 1.532342 -0.000027 0.006006 219755.000000 1 0 0
-17.177682 2.738089 -8.810754 19.498699 -0.158068 2.039650 0.016526 -0.007264 283906.000000 1 0 0
-9.229482 8.526089 -8.778554 15.327770 -0.745804 2.180619 -0.006711 0.004436 -1588780.000000 1 0 0
-17.657982 4.742089 -2.370754 18.436708 -0.262362 1.699742 0.011084 0.007477 794594.000000 1 0 0
-13.541382 5.882289 -4.320954 15.383139 -0.409800 1.855517 0.011785 0.006295 685696.000000 1 0 0
-12.245382 9.666589 3.549246 15.999670 -0.668248 1.347103 -0.003137 -0.000210 938463.000000 1 0 0
-17.610382 2.614589 -3.924554 18.230846 -0.147392 1.787765 0.016092 -0.000169 1059830.000000 1 0 0
-11.336382 1.487889 -12.625954 17.033557 -0.130503 2.405712 -0.002576 -0.000105 -312153.000000 1 0 0
-11.082182 11.984889 3.619146 16.719764 -0.824512 1.352610 -0.000384 -0.004806 622153.000000 1 0 0
-16.363282 13.170289 -3.762354 21.339372 -0.677702 1.748033 0.022475 0.003831 -401845.000000 1 0 0
-11.054282 4.043389 -4.264954 12.519424 -0.350659 1.918423 -0.001732 0.001551 -53415.700000 1 0 0
-11.150782 14.934089 -9.133254 20.755319 -0.929432 2.026444 -0.000575 -0.000899 -78658.100000 1 0 0
-15.443482 7.121189 -0.032154 17.006278 -0.432057 1.572687 0.011659 0.007403 -726969.000000 1 0 0
-12.716982 8.440289 -3.920554 15.758516 -0.585947 1.822227 0.006093 0.005781 929870.000000 1 0 0
-19.273482 2.022489 -5.830554 20.237414 -0.104554 1.863046 0.003418 -0.002066 254074.000000 1 0 0
-12.728282 10.011289 -8.750854 18.406860 -0.666479 2.066229 -0.002569 -0.001106 735025.000000 1 0 0
-16.570582 10.939089 -0.789154 19.871351 -0.583478 1.610520 0.018802 0.001465 729819.000000 1 0 0
-10.702882 6.615889 -14.411854 19.131733 -0.553652 2.423855 -0.019911 -0.000155 -96647.900000 1 0 0
-13.809782 13.105589 -4.101354 19.475308 -0.759241 1.782977 0.016052 0.002769 -465083.000000 1 0 0
-17.964682 7.744589 0.090546 19.563145 -0.407027 1.566168 0.018223 0.009547 500288.000000 1 0 0
-12.772082 6.790089 -1.962854 14.597403 -0.488634 1.705671 -0.004982 0.007330 257754.000000 1 0 0
-13.908082 8.469089 -10.514554 19.383396 -0.546962 2.144149 -0.002759 0.001412 -246700.000000 1 0 0
-14.885282 1.495489 -0.857354 14.984764 -0.100132 1.628043 -0.005462 -0.000335 -1405570.000000 1 0 0
-13.330682 2.816289 -2.326454 13.822118 -0.208202 1.739915 -0.000093 -0.001131 -253891.000000 1 0 0
-11.375782 9.122189 -10.801054 18.146225 -0.675896 2.208340 -0.006973 0.000342 -163676.000000 1 0 0
-15.407982 4.275289 -7.878754 17.825789 -0.270663 2.028608 0.007510 0.000781 626346.000000 1 0 0
-18.356782 10.624289 4.613746 21.705612 -0.524660 1.356602 0.012960 0.008883 383592.000000 1 0 0
-15.432682 6.137989 -6.136654 17.705962 -0.378545 1.924726 0.015393 0.006380 785897.000000 1 0 0
-7.779682 11.250089 -13.057554 18.909988 -0.965783 2.332992 -0.016630 0.002932 -389760.000000 1 0 0
-16.744782 9.152089 -2.652754 19.266176 -0.500201 1.708925 0.018136 0.006884 766014.000000 1 0 0
-20.775582 -1.022611 -4.831754 21.354540 0.049182 1.799036 0.004750 0.001608 499613.000000 1 0 0
-15.329982 4.287289 4.380546 16.509947 -0.272700 1.302253 -0.005060 0.000636 60862.800000 1 0 0
-6.965782 12.614489 -9.466054 17.241044 -1.066262 2.152014 -0.004190 -0.000393 -1216630.000000 1 0 0
-17.173982 1.477789 5.849946 18.203059 -0.085837 1.243619 0.002578 -0.005880 142231.000000 1 0 0
-10.397682 14.287189 -3.046554 17.930896 -0.941680 1.741530 0.000477 -0.004110 142810.000000 1 0 0
-9.919982 8.398989 -12.722654 18.188320 -0.702560 2.345488 -0.027118 -0.002894 -227287.000000 1 0 0
-13.673082 11.739189 3.009046 18.270634 -0.709444 1.405350 0.006102 -0.002452 -1749290.000000 1 0 0
-16.788382 6.739089 2.175046 18.220755 -0.381725 1.451139 0.006952 0.007897 769965.000000 1 0 0
-9.331982 13.316189 -8.298954 18.255941 -0.959534 2.042707 -0.003821 -0.003640 287243.000000 1 0 0
-5.629682 9.731689 -12.846854 17.071635 -1.046343 2.422686 -0.002586 -0.003744 -894745.000000 1 0 0
-15.591382 1.724689 3.369146 16.044216 -0.110170 1.359230 -0.014706 -0.001652 734791.000000 1 0 0
-18.627282 -4.847011 4.774646 19.830945 0.254565 1.327640 0.010890 -0.001495 -997863.000000 1 0 0
-5.338182 14.511289 -9.016554 17.898936 -1.218296 2.098728 0.002224 -0.004009 -149993.000000 1 0 0
-15.466882 -0.792011 -6.674254 16.864085 0.051162 1.977700 0.007946 -0.004319 637034.000000 1 0 0
-9.004482 11.045389 -9.486254 17.119296 -0.886840 2.158109 -0.011745 -0.003022 169797.000000 1 0 0
-16.733082 1.420989 -5.957254 17.818645 -0.084718 1.911687 0.004553 -0.005522 -192578.000000 1 0 0
-11.110982 8.750689 -1.298354 14.202612 -0.667116 1.662341 -0.006346 0.004072 -749000.000000 1 0 0
-10.803982 10.873189 -12.743654 19.933714 -0.788591 2.264386 -0.010142 0.003977 -311698.000000 1 0 0
-13.793482 11.850089 -10.165454 20.833175 -0.709758 2.080531 -0.008499 0.006939 -554606.000000 1 0 0
-13.259482 5.768689 -7.566054 16.319828 -0.410362 2.052863 0.003971 0.005087 -675916.000000 1 0 0
-8.818382 15.374089 -4.813254 18.365562 -1.050024 1.835974 -0.003944 -0.004000 61106.300000 1 0 0
-8.728982 6.067489 -12.858854 16.684114 -0.607428 2.450774 -0.009901 -0.002559 -220041.000000 1 0 0
-16.282182 7.607989 4.533246 18.534866 -0.437113 1.323710 0.006421 0.008592 565356.000000 1 0 0
-12.805682 5.371189 -10.107054 17.175206 -0.397150 2.199959 0.000509 0.001004 487038.000000 1 0 0
-12.464982 9.064189 -13.287354 20.349178 -0.628731 2.282292 -0.007440 0.003980 -279861.000000 1 0 0
-10.849382 5.219089 -8.462354 14.715957 -0.448373 2.183457 -0.005366 0.003598 -1234430.000000 1 0 0
-17.782182 -4.241511 -2.478054 18.448229 0.234151 1.705528 0.000683 -0.001636 733746.000000 1 0 0
-8.899482 13.239589 -10.915454 19.329630 -0.978982 2.170867 -0.006590 -0.001408 -64775.300000 1 0 0
-14.909282 6.206389 6.176846 17.290442 -0.394459 1.205485 -0.002120 -0.002532 -1708960.000000 1 0 0
-16.322082 -2.995511 -4.354754 17.156553 0.181505 1.827429 -0.001725 -0.000049 -410424.000000 1 0 0
-11.158982 -1.084811 -12.455954 16.758594 0.096910 2.408723 0.000189 -0.004334 -301496.000000 1 0 0
-15.429782 6.827889 -8.532054 18.907516 -0.416611 2.038964 0.006079 0.005733 -434563.000000 1 0 0
-14.847882 9.234089 1.498946 17.549211 -0.556376 1.485278 0.009760 0.001159 -658287.000000 1 0 0
-19.112682 5.237489 8.301446 21.485807 -0.267466 1.174105 0.009574 -0.011514 -210772.000000 1 0 0
-16.258982 0.684989 1.055046 16.307569 -0.042105 1.506054 -0.002663 -0.003229 21081.300000 1 0 0
-17.293482 3.729289 7.226646 19.110116 -0.212395 1.182990 -0.002264 -0.003743 410632.000000 1 0 0
-15.286682 4.121189 -1.303854 15.886059 -0.263333 1.652964 0.004035 0.002545 -509626.000000 1 0 0
-10.735982 13.267689 0.658146 17.079989 -0.890481 1.532254 0.000532 -0.005610 -494159.000000 1 0 0
-13.311782 3.386289 0.193546 13.737101 -0.249099 1.556707 -0.004959 0.001588 -454552.000000 1 0 0
-15.010382 0.266489 -4.206654 15.590975 -0.017752 1.843996 0.000428 -0.003442 -144077.000000 1 0 0
-18.797882 6.997189 3.749546 20.405394 -0.356342 1.385994 0.022793 0.009734 922487.000000 1 0 0
-14.161882 1.362189 -6.291454 15.556248 -0.095892 1.987155 0.009601 -0.003897 -888011.000000 1 0 0
-14.151082 11.896089 5.593646 19.314733 -0.699040 1.276982 -0.001077 -0.002705 307116.000000 1 0 0
17.680918 5.383389 6.032246 19.441804 0.295557 1.255317 0.009967 -0.009388 358449.000000 1 0 0
18.329718 7.449389 -0.347154 19.788696 0.386020 1.588340 -0.006013 0.006315 18310.600000 1 0 0
16.581418 5.108789 8.401546 19.277685 0.298874 1.119850 0.009249 -0.008885 318844.000000 1 0 0
11.654518 12.104389 11.115446 20.146890 0.804331 0.986371 0.008730 0.001681 478469.000000 1 0 0
-2.432182 16.253789 -0.384954 16.439262 -1.422261 1.594215 -0.001366 -0.001193 -142414.000000 1 0 0
15.203218 12.477389 3.588146 19.992445 0.687240 1.390343 0.012789 0.001774 243842.000000 1 0 0
13.664318 11.764389 6.853646 19.289554 0.710821 1.207558 0.013920 0.004423 736450.000000 1 0 0
-0.484982 15.846889 8.714446 18.091453 -1.540202 1.068216 -0.004159 -0.000764 44831.300000 1 0 0
0.780118 12.852989 9.415746 15.951933 1.510175 0.939419 -0.003648 -0.000296 -1040000.000000 1 0 0
0.621718 15.427989 -3.844054 15.911823 1.530520 1.814795 -0.002986 0.000095 -443715.000000 1 0 0
5.392518 10.060189 13.688246 17.822871 1.078745 0.695059 -0.002064 -0.001362 424460.000000 1 0 0
-1.452482 16.562489 -2.694054 16.842911 -1.483323 1.731438 0.001182 0.003479 -483581.000000 1 0 0
8.674618 10.024289 3.308946 13.663253 0.857452 1.326186 0.003612 0.000157 628660.000000 1 0 0
12.579918 13.736089 -4.845354 19.246089 0.829304 1.825293 0.027398 -0.000708 645652.000000 1 0 0
2.532918 11.572589 7.827946 14.199198 1.355322 0.986881 -0.003186 0.005493 245460.000000 1 0 0
-0.334682 14.960589 -8.535654 17.227554 -1.548429 2.089167 0.002597 0.000424 -2096430.000000 1 0 0
2.343618 15.881589 0.346146 16.057311 1.424285 1.549238 0.003112 -0.009335 -855736.000000 1 0 0
1.887718 13.402689 5.361246 14.558108 1.430871 1.193654 -0.001502 0.002458 984340.000000 1 0 0
17.621118 9.192889 -2.043254 19.979687 0.480854 1.673242 -0.006762 0.008910 503535.000000 1 0 0
-7.056282 14.983789 7.414946 18.146252 -1.130676 1.149853 0.000314 -0.009523 -1322100.000000 1 0 0
8.523618 16.015589 -0.056054 18.142610 1.081716 1.573886 0.007123 -0.002731 -92508.400000 1 0 0
15.594118 10.370189 2.137046 18.848987 0.586852 1.457175 0.003378 0.003293 -116085.000000 1 0 0
14.105918 7.358089 8.646746 18.107585 0.480803 1.072966 0.005373 -0.005669 -1070000.000000 1 0 0
4.112118 18.173489 -1.661154 18.706807 1.348273 1.659713 0.010695 -0.019658 -921066.000000 1 0 0
-0.410382 17.531289 -4.877654 18.201813 -1.547392 1.842088 0.004158 0.000759 142415.000000 1 0 0
1.278818 13.719189 -0.591954 13.791371 1.477851 1.613732 0.000822 -0.006619 187216.000000 1 0 0
10.238918 14.583789 4.259546 18.321192 0.958679 1.336156 0.011458 -0.006853 113221.000000 1 0 0
-1.849982 15.363989 -4.991254 16.259988 -1.450963 1.882799 0.001064 -0.001957 250611.000000 1 0 0
15.197518 8.800689 -6.294454 18.655745 0.524901 1.914950 0.017946 0.004162 182033.000000 1 0 0
-2.366882 18.551589 0.868646 18.722129 -1.443898 1.524383 -0.004852 -0.002078 -716697.000000 1 0 0
-3.718182 19.298589 3.744946 20.007124 -1.380463 1.382505 0.000255 -0.004271 -456129.000000 1 0 0
1.813818 17.504589 -2.660054 17.798215 1.467545 1.720815 0.002486 -0.008292 -206804.000000 1 0 0
2.778418 12.334089 3.326646 13.073482 1.349231 1.313510 0.001426 0.000511 392812.000000 1 0 0
-2.570382 16.288889 2.110546 16.624956 -1.414287 1.443502 -0.003421 -0.003044 -552739.000000 1 0 0
11.826118 12.844189 -2.603354 17.652414 0.826642 1.718815 0.011389 0.008291 370078.000000 1 0 0
7.361318 11.613989 4.727046 14.540244 1.005871 1.239678 -0.003638 0.001765 -158882.000000 1 0 0
7.142018 15.781589 1.974546 17.434615 1.145821 1.457298 0.006068 -0.006206 -2064140.000000 1 0 0
5.529018 12.227389 10.414146 16.986274 1.146128 0.910828 -0.012096 0.013637 832412.000000 1 0 0
-1.333682 14.241289 3.288446 14.676746 -1.477420 1.344820 -0.003511 -0.000395 -1558220.000000 1 0 0
4.532718 16.020689 1.678846 16.733993 1.295074 1.470302 0.001074 -0.012795 -3038270.000000 1 0 0
7.520018 13.088589 12.028246 19.301309 1.049302 0.897990 -0.001231 0.009367 401059.000000 1 0 0
0.604418 17.155289 -9.468354 19.604055 1.535579 2.074850 -0.005910 0.000598 342980.000000 1 0 0
9.792718 9.553989 15.320046 20.539714 0.773059 0.728950 0.011305 -0.007642 50894.300000 1 0 0
13.493318 7.578289 -0.118954 15.476248 0.511730 1.578483 0.004383 0.000328 100428.000000 1 0 0
12.491018 13.641689 -0.167354 18.497276 0.829402 1.579844 0.012558 0.004611 250358.000000 1 0 0
9.491118 12.280289 3.324046 15.872495 0.912816 1.359813 0.008170 0.001864 -372279.000000 1 0 0
-0.711282 12.901389 0.913446 12.953229 -1.515720 1.500219 -0.002967 -0.001504 -1389610.000000 1 0 0
15.956418 7.412789 -1.024954 17.624053 0.434900 1.628986 0.004219 0.005869 -2803700.000000 1 0 0
-4.340782 18.495789 -2.249154 19.131003 -1.340278 1.688635 0.017131 0.003146 -123360.000000 1 0 0
11.553918 9.375889 -3.289154 15.238729 0.681708 1.788350 0.012806 0.004910 43517.300000 1 0 0
14.773918 9.636189 7.792246 19.283254 0.577951 1.154808 0.014720 -0.001770 408577.000000 1 0 0
4.559918 13.679889 4.759446 15.185010 1.249049 1.251993 -0.000176 0.001820 1231740.000000 1 0 0
2.265318 15.922389 5.770146 17.086507 1.429472 1.226322 -0.002480 0.002900 68586.400000 1 0 0
6.039918 18.326189 5.597146 20.091238 1.252429 1.288474 -0.000812 -0.007023 49657.700000 1 0 0
10.697918 17.192689 -1.015854 20.274762 1.014187 1.620922 -0.003166 0.005132 437753.000000 1 0 0
9.962518 13.599089 -4.358354 17.412129 0.938533 1.823792 0.022764 -0.002254 654138.000000 1 0 0
16.604018 7.902289 2.264846 18.527523 0.444204 1.448248 0.006708 0.001437 277214.000000 1 0 0
3.887918 13.986289 -0.317954 14.520099 1.299661 1.592696 0.003901 -0.008770 -672969.000000 1 0 0
5.516918 13.162089 -2.391654 14.470555 1.173889 1.736835 0.006212 -0.005253 20852.500000 1 0 0
-6.154882 16.783489 -2.919254 18.113258 -1.219302 1.732669 0.003525 -0.000875 -2374320.000000 1 0 0
18.071918 9.940089 2.443646 20.769473 0.502866 1.452868 -0.001054 0.005713 -656488.000000 1 0 0
7.929918 12.740889 9.452846 17.736126 1.014069 1.008688 0.000289 0.006394 17672.300000 1 0 0
-2.453682 15.668189 6.914046 17.300772 -1.415455 1.159674 -0.002207 -0.003688 149254.000000 1 0 0
11.049218 15.974189 6.388446 20.446813 0.965668 1.253034 0.014330 -0.002349 100297.000000 1 0 0
13.624818 12.056189 1.440246 18.249977 0.724393 1.491796 0.011510 0.006090 -422884.000000 1 0 0
17.435518 7.643489 -5.832754 19.910832 0.413154 1.868101 -0.002754 0.009052 539314.000000 1 0 0
9.540318 9.234189 8.065746 15.535256 0.769094 1.024894 -0.002217 0.001617 -571065.000000 1 0 0
-2.031482 14.227589 -1.970554 14.506353 -1.428970 1.707058 -0.003797 -0.000849 825886.000000 1 0 0
11.012618 11.625289 0.688446 16.028071 0.812455 1.527831 0.006772 0.004283 1408910.000000 1 0 0
11.684318 9.799389 -0.708254 15.266071 0.697885 1.617207 0.007047 0.004906 -2018420.000000 1 0 0
-0.046882 16.080489 11.290346 19.648314 -1.567881 0.958655 -0.000067 -0.002259 81590.900000 1 0 0
2.191418 20.003989 -1.719154 20.196964 1.461682 1.656019 0.013973 -0.012832 -465346.000000 1 0 0
9.249618 14.345289 1.784146 17.161758 0.998096 1.466648 0.010721 -0.002807 -421992.000000 1 0 0
8.499918 11.637189 -5.171654 15.310741 0.939951 1.915353 0.017850 0.000503 -988715.000000 1 0 0
10.582218 9.986389 10.251946 17.799261 0.756438 0.956999 -0.002295 0.002568 -395749.000000 1 0 0
-4.966782 15.809689 5.989146 17.620586 -1.266399 1.223991 -0.011109 -0.006897 824519.000000 1 0 0
14.470318 9.207789 -1.935554 17.260355 0.566700 1.683171 0.016796 0.008991 -361546.000000 1 0 0
12.203418 9.544489 6.963146 16.985467 0.663741 1.148400 0.002201 -0.000105 -1126470.000000 1 0 0
3.230118 12.964789 9.883446 16.619324 1.326622 0.933909 -0.011068 0.005841 -1112850.000000 1 0 0
8.407718 12.642389 -2.621554 15.407539 0.983919 1.741776 0.014122 -0.000682 -952317.000000 1 0 0
9.418418 16.963789 2.178246 19.524894 1.063964 1.459001 0.005546 -0.001518 -361760.000000 1 0 0
9.406818 14.213789 -7.677754 18.694061 0.986164 1.994024 0.025028 -0.007974 -624107.000000 1 0 0
6.433818 11.446989 7.179346 14.965647 1.058746 1.070459 -0.005125 0.007348 -937079.000000 1 0 0
5.259318 16.812789 -5.572054 18.476419 1.267623 1.877142 -0.007014 0.004866 -1491900.000000 1 0 0
-4.154582 17.315389 -4.609654 18.393807 -1.335312 1.824106 0.007151 0.004223 323839.000000 1 0 0
-0.065682 18.473689 -0.405354 18.478252 -1.567241 1.592735 0.007375 -0.008328 -595571.000000 1 0 0
6.318118 15.729389 -2.698954 17.164400 1.188846 1.728693 0.002139 0.002731 881576.000000 1 0 0
-0.813182 20.631589 0.658046 20.658091 -1.531402 1.538937 0.006195 0.000686 166573.000000 1 0 0
-1.283282 18.891489 4.395946 19.438608 -1.502971 1.342678 -0.001378 -0.001158 -597869.000000 1 0 0
7.221618 13.852989 -4.337054 16.213177 1.090251 1.841596 0.007531 0.002678 89418.400000 1 0 0
-0.952982 11.911689 7.751646 14.243754 -1.490962 0.995345 -0.002824 0.002058 612740.000000 1 0 0
7.614618 10.700789 10.988146 17.123920 0.952331 0.874104 -0.005271 0.003447 151029.000000 1 0 0
1.547318 16.055089 -7.248454 17.683330 1.474717 1.993144 -0.008359 0.003624 5505.070000 1 0 0
9.006918 7.058389 14.765246 18.680415 0.664700 0.659313 0.007110 -0.003851 -89645.000000 1 0 0
11.394018 11.455989 -4.898154 16.883579 0.788110 1.865142 0.017339 0.004363 48171.200000 1 0 0
-3.163682 17.015589 4.732046 17.942447 -1.386967 1.303904 -0.008957 -0.002907 -537082.000000 1 0 0
3.853918 15.236489 -6.791954 17.121154 1.323052 1.978715 -0.010776 -0.000495 -2553880.000000 1 0 0
-4.364782 14.001389 9.518846 17.484240 -1.268605 0.995094 0.004007 -0.012741 -103974.000000 1 0 0
6.016318 17.748789 0.560346 18.749122 1.243981 1.540905 0.002747 -0.016598 -231041.000000 1 0 0
9.798318 10.768689 -2.101054 14.710069 0.832544 1.714117 0.013804 0.003650 -1894760.000000 1 0 0
7.177918 18.207389 -2.450354 19.723989 1.195273 1.695350 0.000659 0.002284 113947.000000 1 0 0
3.651618 10.386489 10.448446 15.178389 1.232720 0.811548 -0.008687 0.005882 1014480.000000 1 0 0
0.019118 18.682389 2.141646 18.804751 1.569773 1.456660 0.005869 -0.004749 403660.000000 1 0 0
-0.921782 17.169889 -7.367454 18.706526 -1.517162 1.975606 0.007641 0.006633 -561038.000000 1 0 0
10.288718 8.591289 13.043246 18.702787 0.695733 0.799039 0.009284 -0.000616 -50931.300000 1 0 0
3.667018 11.405189 5.553346 13.204734 1.259713 1.136737 -0.002668 0.003504 627111.000000 1 0 0
13.136818 14.007689 8.245146 20.899133 0.817470 1.165250 0.017088 0.003947 -16491.100000 1 0 0
-0.413782 17.376389 6.868246 18.689112 -1.546988 1.194477 -0.003914 -0.000027 -363047.000000 1 0 0
11.978118 13.593789 5.899146 19.054300 0.848496 1.256028 0.009596 0.001209 167345.000000 1 0 0
4.806718 14.499889 -4.440154 15.908057 1.250696 1.853667 0.000758 0.000580 -1235220.000000 1 0 0
3.802718 17.470489 4.622546 18.467446 1.356474 1.317798 0.000583 -0.007481 -2137400.000000 1 0 0
7.102018 11.639189 2.084646 13.793300 1.022924 1.419080 0.008838 -0.001457 841952.000000 1 0 0
6.332918 8.585089 11.654446 15.799864 0.935237 0.741244 -0.003424 0.000038 839963.000000 1 0 0
-5.471582 14.998389 1.899546 16.077877 -1.220988 1.452373 -0.004133 0.007034 441659.000000 1 0 0
6.965418 13.791489 5.979246 16.567245 1.103115 1.201555 -0.005296 0.006462 147645.000000 1 0 0
5.935818 15.856089 4.948246 17.639009 1.212591 1.286452 0.000171 -0.006935 648747.000000 1 0 0
1.285218 17.993989 4.370246 18.561640 1.499493 1.333120 0.004227 -0.004131 -80028.700000 1 0 0
7.115718 18.042189 -7.052654 20.637198 1.195133 1.919569 -0.012487 0.009754 274563.000000 1 0 0
-2.418282 18.797989 -5.812254 19.824095 -1.442853 1.868360 0.013422 0.003163 -1653200.000000 1 0 0
13.631218 10.030189 -4.557954 17.526829 0.634367 1.833876 0.017767 0.004970 -1027450.000000 1 0 0
-1.378582 17.943289 10.077946 20.625884 -1.494117 1.060304 0.007923 -0.003717 -541366.000000 1 0 0
3.443518 11.850089 -1.480754 12.428799 1.287995 1.690219 0.005956 -0.006636 -111782.000000 1 0 0
4.194918 13.980889 -10.924054 18.231773 1.279297 2.213269 -0.014014 -0.010752 307170.000000 1 0 0
11.570318 13.506489 2.277646 17.930008 0.862455 1.443422 0.014491 0.002185 -307940.000000 1 0 0
15.689418 6.298089 -7.166054 18.362355 0.381732 1.971708 -0.007843 0.002081 122405.000000 1 0 0
2.436818 15.995489 3.026846 16.460727 1.419615 1.385861 0.003460 -0.006597 46232.600000 1 0 0
13.462818 10.558389 3.577746 17.479340 0.665071 1.364655 0.004049 0.002862 -774072.000000 1 0 0
-4.919282 19.402889 -5.983654 20.891997 -1.322495 1.861273 0.011313 0.002949 -164571.000000 1 0 0
5.481218 12.049289 0.117846 13.237938 1.143875 1.561894 0.008988 -0.004611 -188851.000000 1 0 0
5.169818 15.233389 9.792346 18.832769 1.243619 1.023989 -0.002743 0.008053 -99060.300000 1 0 0
7.897618 9.246789 13.687946 18.309433 0.863931 0.726371 0.004949 -0.007491 -1121570.000000 1 0 0
-4.872582 13.629689 7.083346 16.114722 -1.227458 1.115690 -0.000874 -0.007053 -1744920.000000 1 0 0
-4.585382 17.189289 0.740046 17.805759 -1.310109 1.529222 0.002083 0.003245 -1686340.000000 1 0 0
-0.585882 16.617289 3.565946 17.005691 -1.535554 1.359537 -0.000203 -0.004966 -2604770.000000 1 0 0
7.610318 16.914589 -4.710954 19.136701 1.148004 1.819527 -0.007478 0.006119 110640.000000 1 0 0
2.908318 16.309189 -4.576854 17.187075 1.394327 1.840345 -0.006496 0.000313 -510267.000000 1 0 0
9.376818 14.373389 8.210446 19.024470 0.992754 1.124561 0.004177 0.004408 224412.000000 1 0 0
12.828018 10.782889 9.160046 19.098041 0.698996 1.070560 0.009374 -0.002220 875040.000000 1 0 0
3.793618 12.165789 12.328746 17.731214 1.268525 0.801941 -0.007746 0.005953 526586.000000 1 0 0
-3.119582 19.178089 6.233146 20.405465 -1.409545 1.260370 -0.003154 -0.004316 -72393.400000 1 0 0
-2.508882 15.639489 10.389946 18.943048 -1.411732 0.990247 0.010332 -0.010254 157236.000000 1 0 0
2.205218 14.132789 7.724946 16.256491 1.416009 1.075615 -0.006659 0.002974 -116074.000000 1 0 0
4.589018 17.161589 8.114546 19.530107 1.309509 1.142316 -0.001278 0.007240 103400.000000 1 0 0
-1.767682 13.414489 9.480946 16.521548 -1.439777 0.959593 0.005459 -0.007142 -1040440.000000 1 0 0
5.872918 17.679889 3.125246 18.890124 1.250083 1.404589 -0.003469 -0.010486 648945.000000 1 0 0
7.176118 15.391789 -6.787454 18.288613 1.134528 1.951022 0.003836 0.001289 2839.930000 1 0 0
10.969918 7.631589 9.357446 16.313861 0.607823 0.959916 0.001192 0.000164 -546533.000000 1 0 0
8.878718 16.158989 -2.624554 18.623449 1.068368 1.712194 0.001246 -0.006258 -299527.000000 1 0 0
14.742718 11.410989 -6.474754 19.735269 0.658690 1.905067 0.034973 0.008408 545186.000000 1 0 0
11.271018 6.419589 15.990246 20.589681 0.517741 0.681522 0.017053 -0.004187 -225306.000000 1 0 0
8.550918 8.360689 10.275146 15.766989 0.774150 0.860989 0.000335 0.001220 -470547.000000 1 0 0
16.505518 9.322189 4.485646 19.479640 0.514129 1.338438 0.021169 0.002543 166044.000000 1 0 0
-3.297982 14.385089 4.806546 15.521287 -1.345427 1.255946 -0.009160 -0.000153 -1601660.000000 1 0 0
4.739718 14.633589 12.735346 19.969874 1.257566 0.879251 -0.010481 0.011773 -651844.000000 1 0 0
16.136618 10.521189 -4.522954 19.787445 0.577785 1.801412 0.008534 0.001733 667631.000000 1 0 0
14.555818 14.110189 6.136346 21.180746 0.769854 1.276869 0.007984 0.006287 -513690.000000 1 0 0
6.275318 9.537989 9.202746 14.664358 0.988867 0.892383 -0.004685 0.004302 941815.000000 1 0 0
10.585218 12.263489 8.903346 18.485388 0.858718 1.068269 0.009528 0.008108 -416417.000000 1 0 0
7.938918 11.517789 -0.374054 13.993777 0.967305 1.597530 0.010622 -0.000342 -761017.000000 1 0 0
7.249018 13.650389 -8.826654 17.798629 1.082620 2.089688 0.014592 0.001015 -1018070.000000 1 0 0
2.744318 15.188889 -2.218154 15.593391 1.392045 1.713530 0.001935 -0.005488 422445.000000 1 0 0
12.028218 13.942789 -8.014654 20.082681 0.858985 1.981313 0.018992 -0.001408 93370.200000 1 0 0
-7.965282 14.731989 9.871246 19.440131 -1.075137 1.038194 0.006994 -0.010317 273487.000000 1 0 0
11.549218 9.531089 2.135046 15.125625 0.689954 1.429169 0.008586 0.002065 -2436210.000000 1 0 0
12.002118 8.702789 4.515546 15.497727 0.627377 1.275139 0.001982 -0.000320 250959.000000 1 0 0
14.042318 7.971389 6.057846 17.246079 0.516307 1.211881 0.005216 -0.003424 -2812850.000000 1 0 0
16.219818 7.295989 7.106746 19.152540 0.422704 1.190646 0.014275 -0.009246 541371.000000 1 0 0
13.567218 8.273589 2.362946 16.065653 0.547610 1.423180 0.000407 0.001075 -1874410.000000 1 0 0
-4.073182 17.229189 -7.189754 19.108331 -1.338647 1.956556 0.007504 -0.003566 -150020.000000 1 0 0
3.196618 19.300189 -3.946054 19.957129 1.406660 1.769834 -0.001888 -0.005363 190158.000000 1 0 0
0.025318 14.842989 6.345746 16.142597 1.569091 1.166790 -0.000914 -0.002757 -698923.000000 1 0 0
6.950518 16.158289 8.221246 19.416202 1.164570 1.133577 0.003623 0.007878 -1222960.000000 1 0 0
12.782818 15.235089 -2.044754 19.992233 0.872701 1.673253 0.005364 0.002806 -320658.000000 1 0 0
12.649318 15.643989 4.304046 20.573392 0.890849 1.360035 0.013027 0.000858 -126954.000000 1 0 0
2.891218 18.108789 1.582646 18.406307 1.412474 1.484706 0.009266 -0.011527 -648708.000000 1 0 0
10.370918 14.536489 -1.177554 17.895588 0.951107 1.636645 0.011368 0.007279 -170298.000000 1 0 0
-6.323982 15.802789 -0.478854 17.027923 -1.190134 1.598922 -0.005375 0.005450 177589.000000 1 0 0
-3.963882 15.931989 -2.480554 16.604029 -1.326947 1.720752 0.004756 0.002956 -2055660.000000 1 0 0
-6.979182 17.131589 1.699646 18.576574 -1.183938 1.479174 0.005579 0.002614 -200578.000000 1 0 0
0.041318 19.466489 -6.523554 20.530530 1.568674 1.894151 0.003087 0.005108 359869.000000 1 0 0
4.948718 14.784289 7.132946 17.144793 1.247791 1.141708 -0.002993 0.005716 -625820.000000 1 0 0
8.805918 12.148289 6.971346 16.544630 0.943574 1.135845 0.004937 0.003037 447517.000000 1 0 0
-7.480882 17.546689 -5.445954 19.837043 -1.167790 1.848902 0.006670 -0.000523 118978.000000 1 0 0
-7.972582 17.683789 -1.303354 19.441635 -1.147243 1.637886 0.011919 0.001225 -58767.900000 1 0 0
-13.765282 -9.146511 9.123246 18.877904 0.586475 1.066403 -0.002200 -0.007385 994014.000000 1 0 0
-12.589582 -12.998411 7.790846 19.701613 0.801374 1.164247 0.003055 0.005837 523269.000000 1 0 0
-3.844182 -14.826411 12.576546 19.818419 1.317103 0.883320 -0.005712 -0.002491 -88530.000000 1 0 0
-2.058282 -14.073311 15.133946 20.768508 1.425572 0.754379 0.003139 0.006413 -282147.000000 1 0 0
-7.082582 -13.584511 12.778646 19.949830 1.090198 0.875596 0.003468 -0.008891 -152963.000000 1 0 0
-9.785482 -11.598311 9.029146 17.657915 0.869972 1.034056 -0.005593 -0.000373 329106.000000 1 0 0
-10.526182 -10.579711 11.313846 18.727891 0.787934 0.922138 -0.003914 -0.006674 -127631.000000 1 0 0
-5.846282 -12.264511 10.794546 17.352794 1.125976 0.899420 0.001751 -0.000683 464638.000000 1 0 0
-12.425782 -10.500611 7.340746 17.847953 0.701623 1.146924 -0.002708 0.002945 179760.000000 1 0 0
-7.525982 -11.070111 12.488946 18.307418 0.973724 0.820057 -0.001628 -0.011186 -353371.000000 1 0 0
-14.865782 -11.652811 7.289246 20.246298 0.664827 1.202498 0.003331 0.004950 1431500.000000 1 0 0
-11.079082 -9.248211 9.200446 17.115013 0.695571 1.003249 -0.002101 -0.001691 -206626.000000 1 0 0
-5.281382 -11.901811 13.256846 18.581983 1.153155 0.776423 0.003950 -0.005768 -1259840.000000 1 0 0
4.007218 -12.518511 14.539046 19.599867 -1.261000 0.735056 -0.005250 0.000680 -711613.000000 1 0 0
6.508618 -12.920611 14.159346 20.243305 -1.104162 0.796157 -0.002846 0.005127 -302570.000000 1 0 0
6.683118 -8.471711 16.042046 19.333422 -0.902876 0.592124 0.009801 -0.002029 -21530.900000 1 0 0
0.815418 -1.706411 14.524846 14.647454 -1.125021 0.129478 -0.001957 -0.000682 -770493.000000 1 0 0
-0.099682 -6.394911 15.474846 16.744423 1.555210 0.391915 0.002455 -0.006214 -651231.000000 1 0 0
-1.406882 -4.659911 18.165746 18.806606 1.277587 0.261808 0.006862 -0.022528 -2156400.000000 1 0 0
-5.077082 12.473489 12.974046 18.700015 -1.184245 0.804046 0.000088 -0.010167 -579049.000000 1 0 0
-3.927382 8.956689 11.755646 15.291887 -1.157559 0.693911 -0.002761 -0.002302 -285627.000000 1 0 0
-0.539882 -3.885611 15.175446 15.674298 1.432736 0.252968 0.000921 0.000226 35210.200000 1 0 0
-4.271482 9.285989 14.226546 17.517698 -1.139664 0.623013 -0.001956 -0.006497 199127.000000 1 0 0
-13.211282 -2.359111 17.026146 21.679322 0.176705 0.667513 -0.013177 0.012527 -243718.000000 1 0 0
-0.208982 0.845889 17.443646 17.465394 -1.328591 0.049909 0.001593 -0.000576 -1751900.000000 1 0 0
-3.129182 -7.221811 15.455146 17.343814 1.161920 0.471024 0.011724 -0.010626 177732.000000 1 0 0
-7.335682 5.569889 12.579146 15.590728 -0.649418 0.632021 -0.004943 -0.004724 -2257840.000000 1 0 0
-9.743982 9.866789 13.441546 19.312531 -0.791660 0.800983 -0.005129 -0.011097 609638.000000 1 0 0
-5.486282 2.195889 11.220446 12.681468 -0.380723 0.484751 -0.000886 0.001225 -2239840.000000 1 0 0
-7.132282 -7.674211 17.031446 19.995828 0.821983 0.551480 0.000018 -0.006184 -187182.000000 1 0 0
-4.485382 3.106589 18.698446 19.478230 -0.605744 0.283914 0.002805 0.000864 -569855.000000 1 0 0
1.028418 -8.387611 16.510946 18.547803 -1.448794 0.473049 0.000724 -0.002181 346293.000000 1 0 0
-14.743482 -3.768111 13.912046 20.618291 0.250222 0.830180 -0.008925 0.003081 -205833.000000 1 0 0
-14.153082 2.083989 13.113746 19.406779 -0.146196 0.828842 -0.010203 -0.002723 -212668.000000 1 0 0
-5.377582 0.850489 16.077646 16.974464 -0.156855 0.326513 0.007303 -0.003237 590192.000000 1 0 0
4.736618 5.651989 15.349946 17.029427 0.873284 0.447856 0.003881 0.000865 -365306.000000 1 0 0
-0.971382 -12.017111 13.887046 18.390340 1.490138 0.714948 0.001684 -0.002177 -307317.000000 1 0 0
-5.776282 -4.186311 16.879746 18.325296 0.627139 0.399855 0.011663 -0.006008 323601.000000 1 0 0
-12.871582 -1.597311 9.938946 16.340492 0.123465 0.916955 -0.006610 0.002324 -549355.000000 1 0 0
-14.399982 10.390789 10.400746 20.579200 -0.625065 1.040950 -0.012725 0.008311 649647.000000 1 0 0
-3.477582 -3.285711 17.782346 18.414704 0.757036 0.262824 0.010610 -0.011348 -3268230.000000 1 0 0
-7.833882 9.205389 11.888046 16.953894 -0.865716 0.793719 -0.005139 -0.013562 -3872.530000 1 0 0
-4.222182 10.611189 16.447846 20.023880 -1.192102 0.606915 0.003870 0.000223 187940.000000 1 0 0
-12.419382 12.744889 8.335946 19.650985 -0.798333 1.132718 -0.001183 -0.002288 192877.000000 1 0 0
-12.548182 3.106789 10.574746 16.701325 -0.242708 0.885157 -0.004598 -0.002545 901205.000000 1 0 0
-10.045882 -3.519111 13.725646 17.369434 0.336946 0.659631 -0.001653 0.001518 -907121.000000 1 0 0
-4.066082 -6.473911 17.831546 19.401252 1.009991 0.405025 0.013029 -0.007966 -356826.000000 1 0 0
0.976318 -3.735811 17.791246 18.205437 -1.315173 0.213718 -0.004164 -0.014277 -1108830.000000 1 0 0
-5.884082 1.697189 13.732946 15.036511 -0.280815 0.419466 -0.001177 0.002718 -911229.000000 1 0 0
-10.462982 8.585689 10.281146 16.996764 -0.687163 0.921171 -0.003451 -0.012816 145440.000000 1 0 0
4.648318 2.423789 17.237646 18.017160 0.480647 0.295231 -0.000505 -0.005265 354364.000000 1 0 0
0.554518 -5.305311 13.179246 14.217818 -1.466653 0.384589 -0.000538 0.000200 -748702.000000 1 0 0
-3.673182 5.779189 20.826146 21.923039 -1.004620 0.317669 0.001103 -0.000016 13243.400000 1 0 0
-10.719882 10.879589 9.147746 17.803443 -0.792792 1.031166 0.001608 -0.009225 317130.000000 1 0 0
0.698918 4.107289 13.035646 13.685261 1.402245 0.309350 -0.002122 -0.001910 -1765310.000000 1 0 0
-3.010082 7.136889 13.437846 15.510367 -1.171670 0.522892 -0.002187 -0.003476 -701881.000000 1 0 0
0.759818 8.775389 14.176046 16.689669 1.484427 0.555967 -0.006439 -0.002304 147383.000000 1 0 0
-4.125482 -6.717311 13.095446 15.285044 1.020032 0.541864 0.008227 -0.005417 58120.500000 1 0 0
-4.979382 8.075289 16.499246 19.032332 -1.018246 0.521835 0.005944 -0.002105 181489.000000 1 0 0
1.482918 -10.791511 15.808346 19.197905 -1.434236 0.603347 -0.002475 0.002780 -647374.000000 1 0 0
-15.040082 -1.172011 14.433246 20.878129 0.077769 0.807497 -0.003818 0.002770 189666.000000 1 0 0
-13.335982 -5.261611 8.585246 16.710458 0.375793 1.031229 -0.009990 -0.002239 -1949810.000000 1 0 0
-14.052982 -1.993911 12.224746 18.732496 0.140945 0.859791 -0.005211 0.001573 483280.000000 1 0 0
9.517018 1.195789 16.866846 19.403455 0.124992 0.517072 0.010092 -0.005721 340938.000000 1 0 0
4.902318 -6.858911 16.908146 18.893459 -0.950248 0.462543 0.009697 -0.003340 -806581.000000 1 0 0
-6.045982 -2.734311 11.164446 12.987502 0.424726 0.536251 -0.000373 0.001085 -132117.000000 1 0 0
0.506118 -6.349411 17.942246 19.039311 -1.491253 0.341125 0.005277 -0.012351 -610770.000000 1 0 0
-8.389282 11.784789 12.202146 18.924948 -0.952146 0.870080 -0.001723 -0.008091 148965.000000 1 0 0
-6.620682 -5.922611 15.010046 17.441681 0.729803 0.534379 0.009258 -0.006482 -1084220.000000 1 0 0
-4.329182 -8.899711 17.126446 19.780340 1.118055 0.523986 0.015077 -0.009544 -470303.000000 1 0 0
2.473218 -6.195711 16.296946 17.609489 -1.190995 0.388538 -0.001082 -0.005582 542608.000000 1 0 0
2.274318 5.201689 16.013946 16.990484 1.158615 0.340690 -0.002719 -0.005574 -2031640.000000 1 0 0
0.996118 -8.957111 13.982646 16.635399 -1.460042 0.572525 -0.004345 0.000870 -700053.000000 1 0 0
-9.819782 -2.847811 11.232146 15.188787 0.282264 0.738465 -0.007811 0.001112 168442.000000 1 0 0
-1.130082 10.038489 12.486546 16.061201 -1.458693 0.680218 -0.001746 -0.004037 -286265.000000 1 0 0
-12.259582 -3.771311 11.367846 17.139080 0.298434 0.845616 -0.005339 -0.001777 -1050640.000000 1 0 0
-1.549282 6.928089 19.906346 21.134363 -1.350793 0.342569 -0.001739 -0.000018 -16520.500000 1 0 0
0.442218 -13.426611 15.605146 20.591018 -1.537872 0.710767 -0.004063 -0.004708 -500566.000000 1 0 0
4.126218 -8.714111 15.266546 18.056269 -1.128564 0.563299 0.001224 -0.000146 -213825.000000 1 0 0
4.481118 -4.558611 16.101146 17.323633 -0.793970 0.377925 0.010027 -0.005880 -1087730.000000 1 0 0
8.049018 1.698589 14.864146 16.988665 0.207979 0.505474 0.001875 0.001495 541099.000000 1 0 0
-6.165682 -0.198111 11.941346 13.440633 0.032120 0.476837 0.000960 0.001761 8791.520000 1 0 0
-3.418482 -11.026011 18.334946 21.666315 1.270156 0.561904 0.014490 -0.005805 321001.000000 1 0 0
3.380318 -1.570911 13.616046 14.117047 -0.435030 0.267212 -0.001484 -0.001612 261194.000000 1 0 0
-2.501282 8.700789 15.997346 18.381382 -1.290867 0.514982 -0.003287 0.000420 -1833750.000000 1 0 0
-3.182882 3.926889 14.869546 15.705241 -0.889664 0.327689 0.000212 -0.000700 -884938.000000 1 0 0
-4.608082 -9.194811 19.655346 22.183589 1.106220 0.482083 0.017421 -0.008001 30676.900000 1 0 0
-5.644382 -3.086811 19.214946 20.263307 0.500446 0.323077 0.007149 -0.007309 -1032740.000000 1 0 0
-6.539882 -8.637911 11.067046 15.487514 0.922758 0.774775 0.002618 -0.003085 -195506.000000 1 0 0
-11.525982 2.325189 12.765746 17.355663 -0.199063 0.744336 -0.005400 -0.001616 249532.000000 1 0 0
-11.457182 -7.567811 11.596746 17.972849 0.583742 0.869463 -0.008991 -0.003491 -1387170.000000 1 0 0
-10.989782 -7.390511 15.635946 20.490919 0.592023 0.702751 0.008742 -0.008833 238149.000000 1 0 0
0.407318 5.624989 17.741946 18.616741 1.498510 0.307774 -0.001704 -0.003586 -205079.000000 1 0 0
-2.160382 -0.187511 13.337546 13.512681 0.086579 0.161176 0.002504 -0.001973 256333.000000 1 0 0
-6.058982 -10.613011 18.166646 21.894618 1.052048 0.592171 0.005839 -0.003547 -821110.000000 1 0 0
0.497218 2.605489 19.306746 19.488105 1.382229 0.136533 0.005770 -0.003824 -601281.000000 1 0 0
-0.534482 10.922189 14.911546 18.491460 -1.521900 0.632754 -0.001745 -0.000369 -632749.000000 1 0 0
-12.662082 -2.329211 14.474246 19.371560 0.181918 0.726972 -0.000651 0.005018 -418904.000000 1 0 0
-13.474482 8.434889 11.937846 19.880170 -0.559311 0.926682 -0.007884 -0.006268 413694.000000 1 0 0
-17.901282 -0.683411 6.961646 19.219455 0.038158 1.200149 0.002402 -0.007041 -1254530.000000 1 0 0
-1.939182 -8.001811 17.657346 19.482589 1.333037 0.436317 0.010685 -0.007375 -761754.000000 1 0 0
5.715218 2.477589 14.386146 15.676842 0.409054 0.408623 0.001344 -0.002085 -3061260.000000 1 0 0
-13.974182 -6.831411 11.178746 19.154903 0.454696 0.947645 -0.006767 -0.004334 482016.000000 1 0 0
3.270418 7.571389 16.308046 18.274954 1.163059 0.468224 -0.003458 -0.005977 -180186.000000 1 0 0
1.089718 2.040189 14.543146 14.725928 1.080222 0.157721 -0.000980 -0.004627 -2103540.000000 1 0 0
-14.307382 0.605489 9.811546 17.358981 -0.042295 0.970103 -0.005143 -0.003801 -2035110.000000 1 0 0
-9.405782 -5.205611 15.623446 18.964683 0.505487 0.602683 -0.001971 0.000479 -573062.000000 1 0 0
-2.467082 -0.146611 18.228846 18.395620 0.059357 0.134757 0.003781 -0.004257 209485.000000 1 0 0
6.890218 3.636489 17.472846 19.131114 0.485620 0.419431 0.009639 -0.005382 -307327.000000 1 0 0
-3.986582 -0.968311 14.973646 15.525480 0.238278 0.267419 0.007127 0.001940 -1739140.000000 1 0 0
4.718418 -9.280911 17.710146 20.543808 -1.100451 0.531461 0.007860 0.002736 -202401.000000 1 0 0
2.082818 6.841889 13.553446 15.324669 1.275288 0.485546 -0.002441 0.000089 -1345300.000000 1 0 0
-3.502782 -0.990611 20.417946 20.739897 0.275610 0.176429 0.009280 -0.002839 -196568.000000 1 0 0
-10.505382 1.632189 16.419946 19.561230 -0.154135 0.574594 -0.004377 0.003794 -151859.000000 1 0 0
-3.762482 6.995789 18.481946 20.116651 -1.077352 0.405922 0.002305 0.002306 -305156.000000 1 0 0
-12.526782 1.008389 14.828446 19.437590 -0.080325 0.703049 -0.001236 0.005510 80075.800000 1 0 0
-15.878782 -4.934411 8.533746 18.689809 0.301294 1.096628 -0.007662 -0.007447 -872059.000000 1 0 0
-2.223282 0.772989 15.855846 16.029609 -0.334606 0.147375 0.005333 0.001219 57217.400000 1 0 0
-13.418482 -8.983611 12.605446 20.485561 0.589958 0.907988 -0.027052 -0.002311 477516.000000 1 0 0
6.052318 -3.337011 14.529146 16.089198 -0.503887 0.444008 0.006876 -0.006813 585866.000000 1 0 0
-15.695982 0.548489 7.679946 17.482742 -0.034930 1.115991 -0.004887 -0.005076 -46815.700000 1 0 0
-13.993882 5.894989 12.389546 19.597971 -0.398694 0.886426 -0.002698 -0.012896 -351167.000000 1 0 0
0.544718 9.256189 16.716946 19.116224 1.512015 0.506413 -0.006533 -0.013062 -188859.000000 1 0 0
-10.257082 -5.506511 10.808246 15.885452 0.492691 0.822506 -0.002159 -0.002444 -86911.700000 1 0 0
-3.167182 -11.006411 15.052546 18.914314 1.290608 0.650422 0.006981 -0.003810 -6594.230000 1 0 0
-3.573982 2.665189 12.707546 13.466934 -0.640756 0.337423 0.002614 0.000757 -1349780.000000 1 0 0
-12.288482 -7.854711 7.390146 16.349848 0.568740 1.101789 -0.003009 -0.002123 16481.400000 1 0 0
-8.107382 -1.966911 13.289046 15.690670 0.238009 0.560594 0.000326 0.002107 -673964.000000 1 0 0
-9.669482 6.357789 9.692946 15.095481 -0.581637 0.873550 -0.006061 -0.005903 -1111580.000000 1 0 0
-17.792682 -3.509011 6.804546 19.369939 0.194718 1.211843 -0.006837 -0.008587 542169.000000 1 0 0
-1.048582 -0.126111 20.638046 20.665052 0.119694 0.051130 0.005251 0.001532 -279756.000000 1 0 0
-2.545182 2.617989 20.289746 20.615664 -0.799498 0.178051 0.006898 -0.001146 -509469.000000 1 0 0
-3.620282 11.310589 11.192046 16.318632 -1.261022 0.815033 0.000900 -0.009842 -880508.000000 1 0 0
-4.187782 -4.836011 14.934646 16.247097 0.857111 0.404703 0.007268 -0.008761 -308042.000000 1 0 0
-0.166382 -14.394511 13.285046 19.588826 1.559238 0.825492 -0.001919 -0.000325 447840.000000 1 0 0
-12.055082 0.336889 8.374746 14.682468 -0.027939 0.963815 -0.006315 -0.002794 -352907.000000 1 0 0
-7.744082 1.973289 15.408846 17.357915 -0.249503 0.478443 0.000689 -0.001687 -450274.000000 1 0 0
3.517718 -2.281311 18.546046 19.014062 -0.575334 0.222332 0.002094 -0.002384 -116764.000000 1 0 0
-2.042182 4.789089 12.604746 13.637650 -1.167720 0.391701 -0.005114 -0.000081 -943396.000000 1 0 0
-10.169682 -6.266311 13.396746 17.948869 0.552229 0.728185 -0.008190 -0.003575 -827798.000000 1 0 0
2.509418 -3.767511 14.168846 14.874392 -0.983208 0.309236 -0.002917 -0.001875 -104003.000000 1 0 0
6.865218 1.007289 17.122446 18.474956 0.145684 0.385017 0.001438 -0.000098 -957551.000000 1 0 0
-1.998282 -5.494111 13.841146 15.025169 1.221957 0.399650 0.000917 -0.003270 -1839030.000000 1 0 0
-12.689482 3.705389 14.613846 19.705769 -0.284106 0.735340 -0.016473 0.006121 173256.000000 1 0 0
-13.038882 -6.568811 13.503346 19.887234 0.466672 0.824403 -0.021442 0.000849 -724319.000000 1 0 0
-9.472382 6.871789 12.128546 16.853757 -0.627607 0.767520 -0.004320 -0.005094 -598394.000000 1 0 0
-1.042982 -2.557711 12.969046 13.259934 1.183602 0.209848 0.001654 0.000265 38757.000000 1 0 0
0.120518 6.529489 15.361746 16.692273 1.552341 0.401973 -0.002485 -0.006277 545898.000000 1 0 0
-16.192882 -1.145311 9.600546 18.859789 0.070612 1.036717 -0.005632 -0.004118 -545059.000000 1 0 0
-1.253582 2.665489 13.836246 14.146307 -1.131189 0.209756 0.000802 -0.000197 -3404650.000000 1 0 0
-10.979282 -3.372311 16.236846 19.888496 0.298006 0.615658 -0.006399 0.000069 -30373.500000 1 0 0
-5.216182 -1.559211 17.193946 18.035284 0.290464 0.306649 0.024247 -0.000143 344897.000000 1 0 0
-11.836282 6.602089 11.147846 17.548778 -0.508800 0.882465 -0.003956 -0.005623 -2056850.000000 1 0 0
-2.403182 4.719989 18.830546 19.561264 -1.099856 0.274191 0.000403 0.002820 160436.000000 1 0 0
5.230418 -2.016511 16.571046 17.493518 -0.367975 0.326197 0.008904 -0.002216 321025.000000 1 0 0
-7.976782 -4.240111 12.266246 15.233791 0.488573 0.634784 0.003075 0.000309 -2263400.000000 1 0 0
-11.302382 -0.802211 16.238046 19.800543 0.070858 0.609244 -0.004349 0.004374 294454.000000 1 0 0
2.119818 2.017489 17.475946 17.719272 0.760670 0.165914 -0.003396 -0.004654 -1136300.000000 1 0 0
-8.816982 -7.564011 11.701346 16.488630 0.709058 0.781779 -0.002625 -0.001815 -1026030.000000 1 0 0
-7.085782 6.906689 14.742946 17.755706 -0.772600 0.591112 -0.008873 -0.004222 -509034.000000 1 0 0
-5.582382 3.405589 15.865246 17.160042 -0.547784 0.390954 -0.000966 0.000943 124419.000000 1 0 0
-9.184582 4.171889 11.688046 15.439288 -0.426364 0.712037 -0.006548 -0.005257 -132598.000000 1 0 0
-10.177282 0.140289 14.133646 17.417138 -0.013784 0.624117 -0.001425 0.000246 -525996.000000 1 0 0
8.031018 -0.749711 15.804446 17.743727 -0.093082 0.471900 0.000769 -0.003838 84059.400000 1 0 0
-8.564382 -7.591511 14.897346 18.785915 0.725253 0.655069 0.005662 -0.001875 -2011050.000000 1 0 0
-0.028382 4.053989 15.656046 16.172427 -1.563796 0.253382 0.000475 -0.005264 -263328.000000 1 0 0
-7.858182 3.069389 9.784846 12.919573 -0.372375 0.711526 -0.005714 -0.001341 -745596.000000 1 0 0
-2.097882 -9.797611 13.094546 16.488221 1.359860 0.653146 0.002206 -0.004555 475143.000000 1 0 0
-5.930782 10.248989 10.538746 15.851849 -1.046208 0.843533 -0.001425 -0.011310 -2196070.000000 1 0 0
-8.477782 -2.796611 15.731046 18.087555 0.318635 0.516169 0.002635 -0.001875 46265.500000 1 0 0
4.167718 5.741889 17.834846 19.194293 0.942935 0.378623 0.001576 0.001731 114350.000000 1 0 0
-6.636182 -1.040711 15.200046 16.618164 0.155557 0.416119 0.004508 0.000748 -561740.000000 1 0 0
-0.914782 -9.898111 15.415146 18.342196 1.478638 0.572739 -0.003764 -0.005118 -19875.100000 1 0 0
-4.150782 5.614489 16.255346 17.691460 -0.934180 0.405705 0.001317 -0.001429 427455.000000 1 0 0
3.701618 0.007089 17.386546 17.776220 0.001915 0.209770 -0.000289 -0.006511 -642389.000000 1 0 0
1.552318 0.260089 19.357746 19.421629 0.166007 0.081130 -0.007049 0.002096 -296504.000000 1 0 0
-6.153882 6.274589 17.903146 19.944006 -0.795110 0.456342 -0.004776 0.003235 -280486.000000 1 0 0
-12.049382 0.562789 10.967146 16.302841 -0.046673 0.832926 -0.005871 0.000023 -470760.000000 1 0 0
-5.245082 5.111289 13.982046 15.783972 -0.772480 0.482499 -0.002956 -0.001075 -467432.000000 1 0 0
-8.627082 -9.527711 9.985446 16.276147 0.834966 0.910309 0.004448 -0.000564 -1183720.000000 1 0 0
6.929018 -3.928411 16.853346 18.640788 -0.515764 0.441501 0.013254 -0.007400 -1472520.000000 1 0 0
-16.653882 1.469289 9.958746 19.459887 -0.087997 1.033567 0.002209 -0.007040 -789995.000000 1 0 0
-4.032282 -9.724211 11.233146 15.394907 1.177713 0.752962 0.003398 -0.002912 599834.000000 1 0 0
-11.016782 -3.914111 9.182146 14.866121 0.341376 0.905038 -0.003280 0.000162 -937270.000000 1 0 0
3.683818 -5.390311 18.493146 19.611793 -0.971288 0.339382 0.000370 -0.008211 -73036.300000 1 0 0
2.621318 -1.997511 16.150946 16.483762 -0.651153 0.201290 -0.003160 -0.004114 -476540.000000 1 0 0
-2.898482 -4.220811 20.220046 20.858253 0.969044 0.248011 0.012388 -0.010934 -899925.000000 1 0 0
-6.255282 -3.467311 14.444146 16.117821 0.506140 0.459758 0.009274 -0.000472 95671.600000 1 0 0
-9.420682 4.997289 14.078046 17.661074 -0.487717 0.648281 -0.006142 -0.002786 320669.000000 1 0 0
-5.905782 -5.358911 11.804546 14.245824 0.736889 0.594137 0.004385 0.001143 906241.000000 1 0 0
6.129018 1.961989 19.379146 20.419735 0.309807 0.320620 0.001559 -0.006335 36171.000000 1 0 0
-2.592082 11.790789 13.565546 18.159450 -1.354399 0.727222 0.003463 -0.011881 -976846.000000 1 0 0
3.415218 1.246689 15.185446 15.614600 0.350009 0.234993 -0.002775 -0.002871 -1052350.000000 1 0 0
-5.489082 7.398889 12.828946 15.794158 -0.932513 0.622782 -0.010389 -0.012626 -1681160.000000 1 0 0
-1.559482 -1.642011 15.434346 15.599591 0.811171 0.145682 0.005620 -0.000149 -1418610.000000 1 0 0
-7.262582 10.335789 14.160246 18.975937 -0.958285 0.728429 0.001879 -0.010502 204770.000000 1 0 0
-10.042682 2.012889 10.616246 14.751673 -0.197812 0.767478 -0.003231 -0.000786 -553981.000000 1 0 0
-13.587682 5.195889 9.195446 17.209840 -0.365240 1.007101 -0.007261 -0.007073 -357654.000000 1 0 0
0.390818 -5.113911 20.051846 20.697376 -1.494522 0.250409 0.006053 -0.013731 -334344.000000 1 0 0
-14.394882 -3.106511 7.607146 16.575033 0.212547 1.093981 -0.002549 -0.005100 688377.000000 1 0 0
-2.113582 2.494489 17.715746 18.014921 -0.867872 0.182500 -0.000731 -0.000485 -676347.000000 1 0 0
-6.173782 -8.422711 14.660246 17.999457 0.938269 0.618959 0.005547 -0.006819 -33140.100000 1 0 0
-7.946982 1.890189 12.146746 14.637991 -0.233511 0.592030 -0.003494 0.000721 152945.000000 1 0 0
-14.486982 -3.562411 10.217846 18.082251 0.241120 0.970271 -0.003652 -0.002070 -896300.000000 1 0 0
-0.453182 6.879689 12.828646 14.563985 -1.505019 0.493147 -0.002299 -0.003095 -441675.000000 1 0 0
-1.550882 -2.318111 19.250946 19.451936 0.981161 0.143878 0.006034 -0.013455 104426.000000 1 0 0
-12.582982 10.237289 7.546946 17.891056 -0.682968 1.135336 -0.008333 -0.006846 -474235.000000 1 0 0
-19.401882 2.207589 7.018646 20.750129 -0.113295 1.225744 0.010633 -0.012336 67751.000000 1 0 0
-15.890382 8.342489 7.070046 19.289554 -0.483449 1.195528 -0.001026 0.006929 478449.000000 1 0 0
-12.098082 7.142989 13.688646 19.615425 -0.533348 0.798403 -0.002315 -0.007236 -78714.800000 1 0 0
-15.783282 8.249889 10.695346 20.774096 -0.481641 1.029975 -0.001822 -0.003217 -353848.000000 1 0 0
1.926118 10.834889 15.109546 18.692328 1.394864 0.629489 -0.005972 -0.011051 -769398.000000 1 0 0
2.245118 14.161189 13.291746 19.551223 1.413565 0.823249 -0.005133 0.008725 -695536.000000 1 0 0
-3.090182 13.631589 11.766646 18.270834 -1.347871 0.871065 0.001384 -0.009320 -17805.200000 1 0 0
9.349518 4.723889 15.801246 18.958059 0.467843 0.585412 0.009398 0.002331 -113637.000000 1 0 0
-0.256782 12.519989 12.859946 17.949771 -1.550289 0.772109 -0.003342 -0.007621 -853943.000000 1 0 0
4.181818 13.259689 14.679946 20.218995 1.265291 0.758240 -0.003875 0.002480 277857.000000 1 0 0
-2.872582 -3.970811 -13.629254 14.483633 0.944522 2.796401 -0.002857 -0.002681 -402211.000000 1 0 0
5.737518 -11.517911 16.179346 20.672509 -1.108639 0.671884 -0.000824 0.001019 -17554.500000 1 0 0
7.891718 -13.655811 7.208846 17.341507 -1.046784 1.142085 -0.007745 0.000615 -400699.000000 1 0 0
-0.125082 15.594489 1.342546 15.652672 -1.562776 1.484920 0.000373 -0.006950 -2624910.000000 1 0 0
-13.594082 8.192689 9.288546 18.390114 -0.542377 1.041317 -0.004944 0.001254 434433.000000 1 0 0
-15.429582 -9.848011 4.948346 18.961578 0.568074 1.306773 0.001086 0.004329 -1034640.000000 1 0 0
9.566718 -11.118311 10.935346 18.295375 -0.860268 0.930153 -0.002936 -0.006361 100289.000000 1 0 0
-5.659082 -10.808011 -16.854654 20.806674 1.088447 2.515051 -0.002326 0.008269 110872.000000 1 0 0
-2.005182 -12.456711 -14.783054 19.435254 1.411193 2.435081 -0.007685 0.004825 -20269.400000 1 0 0
5.446618 -15.654711 -12.472054 20.743379 -1.235974 2.215867 -0.009408 0.002385 309857.000000 1 0 0
2.479318 -11.660211 -16.734954 20.546684 -1.361286 2.522636 -0.002905 0.001019 270034.000000 1 0 0
0.477118 -13.845911 -14.391254 19.976113 -1.536351 2.375209 -0.001859 0.010328 162025.000000 1 0 0
-6.312082 -6.024811 -14.460054 16.888869 0.762117 2.598643 -0.006501 -0.003177 -21940.500000 1 0 0
-6.199782 -8.306811 -17.065554 19.966811 0.929636 2.595761 -0.013745 0.003801 -100827.000000 1 0 0
-2.659482 -16.235311 -13.530854 21.301225 1.408430 2.259083 0.006306 0.005867 251264.000000 1 0 0
15.920218 -7.913811 -9.338554 20.082090 -0.461318 2.054452 -0.011821 0.004645 116882.000000 1 0 0
19.433718 -2.831011 -4.553854 20.159901 -0.144658 1.798650 0.020334 -0.004175 -18759.500000 1 0 0
15.841318 -11.616111 -8.860354 21.549647 -0.632714 1.994523 0.017605 0.004159 251634.000000 1 0 0
18.029618 -2.431911 -6.508554 19.322076 -0.134075 1.914361 0.082639 0.002494 -481272.000000 1 0 0
8.414418 -9.697411 -15.922254 20.453860 -0.856117 2.462985 0.006910 0.002561 291645.000000 1 0 0
-4.940082 9.564289 -15.863754 19.171299 -1.094026 2.545391 -0.000868 -0.007818 544211.000000 1 0 0
2.561518 -9.477911 -18.288754 20.757425 -1.306840 2.648917 -0.001037 -0.004838 51374.700000 1 0 0
10.899518 8.298289 -14.476754 19.930818 0.650722 2.383793 0.008856 -0.039074 439948.000000 1 0 0
17.877618 -6.224711 -7.606454 20.401334 -0.335057 1.952865 -0.026124 -0.004153 302722.000000 1 0 0
12.970218 5.602389 -13.941954 19.849217 0.407736 2.349550 0.027921 -0.000126 57535.100000 1 0 0
15.868018 6.031689 -11.372254 20.432901 0.363248 2.161043 0.001689 0.007943 298973.000000 1 0 0
3.338418 -0.444111 -19.409654 19.699668 -0.132254 2.969790 0.008716 -0.001060 204805.000000 1 0 0
10.155518 -1.352811 -15.473154 18.557563 -0.132430 2.556738 0.008914 0.013963 227124.000000 1 0 0
12.076418 -5.793311 -14.281154 19.579420 -0.447293 2.388235 0.011236 0.005204 -99797.900000 1 0 0
10.158318 6.626689 -13.023254 17.796336 0.578019 2.391747 0.017299 -0.005999 511382.000000 1 0 0
10.417018 5.287989 -16.159454 19.940036 0.469733 2.515635 0.006928 -0.012727 450747.000000 1 0 0
11.725018 -9.990511 -15.356754 21.751236 -0.705693 2.354655 0.016616 -0.005857 435669.000000 1 0 0
-1.664082 2.361189 -17.568554 17.804451 -0.956880 2.978628 -0.001650 0.001235 324847.000000 1 0 0
5.607618 -1.074411 -17.374454 18.288559 -0.189304 2.824089 -0.003436 0.009537 21535.800000 1 0 0
7.189718 -6.618111 -15.799254 18.577079 -0.744024 2.587675 0.008594 -0.001029 400067.000000 1 0 0
-2.463882 -4.550811 -20.365754 21.012961 1.074567 2.892756 0.009058 -0.009240 257675.000000 1 0 0
16.065818 0.038889 -13.734354 21.136331 0.002421 2.278115 0.009220 0.007977 144184.000000 1 0 0
-3.982582 -0.535311 -18.442654 18.875354 0.133612 2.927060 -0.010753 0.001403 50750.100000 1 0 0
3.248118 9.013489 -17.531754 19.978880 1.224920 2.641450 -0.001613 -0.012899 -218625.000000 1 0 0
9.221618 0.015389 -17.428254 19.717569 0.001669 2.654922 0.010398 -0.004095 67772.900000 1 0 0
3.845918 4.346489 -18.373254 19.268096 0.846424 2.835633 -0.001197 -0.008296 429492.000000 1 0 0
-2.486282 -11.326211 -18.017154 21.426210 1.354708 2.569728 -0.002416 0.000671 253659.000000 1 0 0
5.258118 -9.723111 -15.807354 19.288835 -1.075055 2.531348 -0.010397 -0.009033 -248543.000000 1 0 0
9.722118 -12.988411 -11.313054 19.778868 -0.928241 2.179710 -0.003717 0.032207 -63749.300000 1 0 0
5.939218 6.877489 -17.366554 19.600290 0.858475 2.659519 0.006654 -0.005467 312546.000000 1 0 0
8.174718 1.378789 -20.272054 21.901672 0.167092 2.753398 -0.011494 0.001404 191065.000000 1 0 0
-1.096882 -0.717211 -20.479254 20.521145 0.579087 3.077686 0.002997 0.006544 99892.100000 1 0 0
-1.106282 7.003789 -19.518754 20.766768 -1.414136 2.793143 0.002428 -0.002099 69953.200000 1 0 0
8.366118 5.855889 -18.169754 20.842824 0.610694 2.629561 0.000456 -0.005883 202975.000000 1 0 0
11.809218 0.085389 -13.084754 17.625995 0.007231 2.407375 -0.012591 0.001968 69385.900000 1 0 0
-4.144182 -2.581711 -19.684654 20.281151 0.557140 2.898460 -0.028106 0.007317 368077.000000 1 0 0
6.107918 -11.342811 -14.471254 19.374809 -1.076838 2.414200 -0.001893 -0.003407 129398.000000 1 0 0
11.113818 2.454489 -16.224154 19.818291 0.217361 2.529845 0.016264 0.005381 -161717.000000 1 0 0
-3.022982 -4.289711 -16.925254 17.720165 0.956920 2.840931 -0.004283 -0.005491 388686.000000 1 0 0
-6.937482 -4.711811 -17.366754 19.285589 0.596617 2.691724 0.000054 -0.003689 98472.800000 1 0 0
2.832518 10.444289 -15.339054 18.772131 1.305964 2.527191 -0.005962 -0.007865 313536.000000 1 0 0
16.661618 -6.253911 -11.153554 21.002921 -0.359076 2.130633 0.001615 0.000065 17223.100000 1 0 0
9.091918 -3.215211 -17.740854 20.192535 -0.339909 2.643687 -0.016378 -0.003778 172563.000000 1 0 0
-7.165682 -1.350111 -18.845254 20.206766 0.186230 2.772406 -0.029661 0.010352 462600.000000 1 0 0
1.315918 -7.415211 -19.486054 20.890747 -1.395163 2.772791 0.000169 -0.005397 253749.000000 1 0 0
5.789018 10.198089 -13.710854 18.041653 1.054498 2.434041 0.001314 -0.015815 231176.000000 1 0 0
5.983118 -4.175611 -17.504154 18.963882 -0.609314 2.746669 0.008592 -0.022263 481312.000000 1 0 0
4.523318 13.012789 -15.030454 20.388909 1.236256 2.399695 -0.008140 -0.001963 159338.000000 1 0 0
8.957018 11.418889 -15.463554 21.207091 0.905638 2.387903 0.012838 -0.010460 -95783.500000 1 0 0
16.781218 0.837489 -11.464954 20.340989 0.049865 2.169580 -0.000169 0.007583 131417.000000 1 0 0
14.535418 -2.839911 -12.769754 19.555309 -0.192948 2.282344 -0.010174 0.009283 200531.000000 1 0 0
-8.840182 0.180589 -17.419354 19.534977 -0.020425 2.671885 -0.008222 0.006142 275099.000000 1 0 0
-3.130182 4.314789 -19.308154 20.030483 -0.943190 2.872222 -0.000028 0.010174 142419.000000 1 0 0
3.978818 2.421189 -17.072054 17.695993 0.546660 2.875255 0.002781 -0.005071 468607.000000 1 0 0
-5.136782 14.172889 -13.975354 20.556454 -1.223085 2.318358 -0.005262 -0.006587 305689.000000 1 0 0
0.613118 9.559689 -17.723754 20.146836 1.506748 2.646088 -0.002385 0.001412 357315.000000 1 0 0
0.925518 -5.139011 -20.106254 20.773239 -1.392610 2.887501 -0.000594 0.007743 442317.000000 1 0 0
3.367418 -5.941111 -18.798454 20.000454 -1.055147 2.793138 0.003539 0.008636 67739.400000 1 0 0
-6.526982 7.531589 -15.852354 18.724942 -0.856736 2.580342 -0.017023 0.005824 59689.300000 1 0 0
-12.101382 2.967589 -16.451154 20.637114 -0.240482 2.493379 0.012888 -0.009755 258400.000000 1 0 0
-4.752482 7.084689 -17.537854 19.502698 -0.979931 2.688854 -0.003181 0.024291 397420.000000 1 0 0
-8.591782 5.537889 -17.721854 20.458520 -0.572539 2.618410 0.004200 0.007023 367484.000000 1 0 0
-8.722082 4.533789 -15.385554 18.257744 -0.479366 2.573050 -0.016851 0.004051 362599.000000 1 0 0
9.307218 13.994489 -12.664154 21.044021 0.983905 2.216541 0.007381 -0.011964 338941.000000 1 0 0
13.885618 9.942889 -12.145754 20.956879 0.621421 2.188984 0.022280 -0.008328 28558.100000 1 0 0
8.356418 15.781189 -10.055354 20.493555 1.083814 2.083643 0.001403 0.007016 138719.000000 1 0 0
7.742518 12.756989 -14.401754 20.738801 1.025301 2.338431 0.003644 -0.024469 74962.300000 1 0 0
4.663318 15.619289 -13.425254 21.117437 1.280660 2.259766 -0.021006 0.002791 282512.000000 1 0 0
11.522718 10.886889 -10.823054 19.194684 0.757033 2.169845 0.032894 -0.039155 50747.000000 1 0 0
15.893018 10.453089 -10.858854 21.903648 0.581780 2.089501 0.034245 0.009215 118429.000000 1 0 0
13.563618 11.648089 -10.002154 20.486405 0.709566 2.080861 0.047747 -0.000910 -151573.000000 1 0 0
10.884818 11.488089 -7.993754 17.730075 0.812356 2.038523 0.014900 0.000569 233426.000000 1 0 0
5.315918 17.090289 -10.318154 20.659169 1.269234 2.093756 0.000704 0.008678 151819.000000 1 0 0
10.721718 13.414689 -10.690954 20.228831 0.896512 2.127630 0.019331 -0.026346 -63933.500000 1 0 0
8.331718 -19.616711 -2.009254 21.407242 -1.169158 1.664793 0.005911 0.005303 349272.000000 1 0 0
7.339118 -16.633411 -4.160454 18.650534 -1.155262 1.795763 0.004283 -0.008828 372151.000000 1 0 0
3.865218 -19.057611 5.671146 20.255724 -1.370693 1.287026 0.014797 0.003578 365612.000000 1 0 0
10.170918 -18.079811 -2.979654 20.957230 -1.058364 1.713458 0.006030 0.015256 421218.000000 1 0 0
-2.282982 -15.516811 7.706046 17.474741 1.424715 1.114104 -0.001051 -0.009002 183501.000000 1 0 0
-15.315482 -12.732111 -4.094854 20.333186 0.693551 1.773571 -0.001106 -0.004597 -21433.500000 1 0 0
-9.162182 -12.502711 -7.071854 17.037444 0.938384 1.998824 0.000300 -0.016516 137567.000000 1 0 0
-11.489982 -15.206511 7.122746 20.346773 0.923723 1.213153 -0.000713 0.001726 281548.000000 1 0 0
-14.352982 -8.425811 -8.205254 18.556093 0.530838 2.028831 -0.003600 -0.004874 -130067.000000 1 0 0
5.272518 -15.768011 5.869046 17.631657 -1.248103 1.231451 0.010623 0.000775 231353.000000 1 0 0
3.114518 -14.615311 8.905246 17.395717 -1.360837 1.033376 0.003850 0.009190 504152.000000 1 0 0
3.105118 -17.452611 10.456546 20.580932 -1.394722 1.037854 -0.002792 0.005100 198034.000000 1 0 0
-8.542982 -17.630211 -4.938354 20.203817 1.119573 1.817725 0.005572 -0.002806 -31101.100000 1 0 0
2.224518 -19.841711 -4.080954 20.378817 -1.459149 1.772414 0.009728 -0.008065 74451.900000 1 0 0
-18.821782 -9.950311 -2.251654 21.408832 0.486311 1.676165 0.030807 -0.006111 -57714.600000 1 0 0
-4.145882 -14.783511 2.693746 15.588355 1.297380 1.397119 -0.000736 -0.001543 176473.000000 1 0 0
-11.136282 -10.037411 -14.354154 20.755918 0.733547 2.334456 0.010304 -0.009435 -122085.000000 1 0 0
0.790518 -20.484811 2.602646 20.664612 -1.532225 1.444514 0.006772 -0.001594 218846.000000 1 0 0
6.917018 -18.240411 0.628346 19.518006 -1.208336 1.538598 0.011444 -0.001532 316122.000000 1 0 0
-7.607982 -19.039011 -3.215254 20.753390 1.190635 1.726350 -0.015287 0.000662 87513.700000 1 0 0
-9.044182 -15.627011 -7.574354 19.579876 1.046146 1.968003 0.000542 -0.009775 -29935.900000 1 0 0
-11.806682 -11.391711 -12.182454 20.434799 0.767512 2.209509 0.006919 0.001949 270470.000000 1 0 0
-13.276182 -14.943911 -3.626854 20.315796 0.844427 1.750282 -0.005852 -0.012551 -52688.800000 1 0 0
-0.163282 -20.508411 -2.728054 20.689705 1.562835 1.703037 0.000698 -0.002095 439068.000000 1 0 0
-12.115382 -16.696511 -0.304554 20.631256 0.943080 1.585559 -0.003769 -0.004237 46259.700000 1 0 0
0.864618 -20.201311 5.230846 20.885457 -1.528022 1.317647 0.005132 -0.005678 55417.500000 1 0 0
-18.123982 -8.916711 2.627946 20.368911 0.457214 1.441418 0.005455 0.001192 -15008.700000 1 0 0
-15.063082 -14.962811 -0.827454 21.247749 0.782059 1.609749 0.000970 0.000573 -169610.000000 1 0 0
10.303218 -15.533111 -5.145654 19.336794 -0.985123 1.840148 0.009143 0.006702 -40896.900000 1 0 0
0.072418 -19.061411 -7.221654 20.383693 -1.566997 1.932947 -0.004309 0.001471 201013.000000 1 0 0
-10.220782 -16.675411 -2.402454 19.705469 1.020927 1.693019 0.000189 -0.008018 484788.000000 1 0 0
-15.478082 -6.656311 -11.320254 20.298415 0.406138 2.162398 0.038821 -0.008108 85654.500000 1 0 0
-11.886482 -15.083311 2.491746 19.365008 0.903381 1.441766 -0.007382 -0.006817 229694.000000 1 0 0
-2.660482 -16.398511 10.430046 19.615688 1.409959 1.010167 -0.006279 -0.001099 306068.000000 1 0 0
-12.313582 -15.139311 -6.866754 20.687565 0.887967 1.909142 -0.003175 0.009158 124412.000000 1 0 0
6.142318 -16.793711 -6.432454 19.003507 -1.220159 1.916106 0.015427 -0.016624 -35859.800000 1 0 0
-17.170182 -6.754411 -1.998954 18.558907 0.374787 1.678714 -0.042503 0.002040 -590968.000000 1 0 0
-11.668982 -13.707111 -9.397854 20.306888 0.865543 2.051938 -0.009827 -0.015745 116368.000000 1 0 0
-6.897882 -15.102211 9.101146 18.933790 1.142346 1.069363 -0.009042 0.010282 251909.000000 1 0 0
-15.592082 -7.733711 -5.808754 18.348431 0.460444 1.892919 -0.001725 -0.001202 169207.000000 1 0 0
-0.822582 -19.653211 0.026646 19.670436 1.528966 1.569442 0.000765 -0.004062 184879.000000 1 0 0
-15.096282 -11.472011 -1.973354 19.063024 0.649822 1.674499 0.003238 0.005147 215186.000000 1 0 0
-6.817282 -19.308111 2.216746 20.595933 1.231381 1.462957 -0.018465 0.004067 210575.000000 1 0 0
-2.017282 -20.834511 -5.394154 21.615809 1.474273 1.823008 -0.012112 0.005881 93503.700000 1 0 0
-9.259582 -19.434411 -0.749254 21.540603 1.126163 1.605587 -0.009197 0.005027 24404.300000 1 0 0
-17.762682 -7.315611 4.838246 19.810090 0.390682 1.324069 0.007407 -0.004649 18443.000000 1 0 0
-3.061382 -15.868411 -10.791654 19.432919 1.380215 2.159554 -0.001997 0.005268 20942.000000 1 0 0
-2.954382 -18.103211 -8.404654 20.176542 1.409026 2.000450 -0.001041 0.000148 200055.000000 1 0 0
4.033218 -17.667811 -6.163454 19.141749 -1.346362 1.898627 -0.005946 0.024111 305405.000000 1 0 0
0.700218 -17.557211 -9.699754 20.070655 -1.530935 2.075194 0.000227 0.008973 -168002.000000 1 0 0
-7.710482 -10.147911 -14.573854 19.360497 0.921047 2.423045 -0.003712 -0.008929 499457.000000 1 0 0
-5.289182 -19.105311 -2.041754 19.928801 1.300717 1.673429 -0.005153 -0.005225 100974.000000 1 0 0
-9.723582 -15.956611 8.648246 20.590135 1.023511 1.137330 -0.019086 0.002575 171286.000000 1 0 0
-7.365182 -14.720311 -10.253954 19.392706 1.106876 2.127927 0.008438 -0.015548 135066.000000 1 0 0
-12.623682 -8.123111 -12.186154 19.335062 0.571779 2.252687 0.000364 -0.009722 339201.000000 1 0 0
-15.446182 -13.045511 3.213446 20.471838 0.701338 1.413175 -0.006645 0.003179 371533.000000 1 0 0
-6.528082 -14.254811 -12.830854 20.259475 1.141346 2.256640 0.008864 0.001979 465055.000000 1 0 0
-13.859182 -12.400511 -6.589754 19.730039 0.729907 1.911336 0.000593 0.005199 234839.000000 1 0 0
-12.012382 -10.470111 -8.191554 17.917090 0.716907 2.045632 0.025897 -0.012938 303313.000000 1 0 0
-9.945782 -15.013111 3.639346 18.372722 0.985703 1.371393 -0.003791 0.005807 453512.000000 1 0 0
4.396218 -18.524111 8.306846 20.771931 -1.337783 1.159381 0.003717 0.009071 245684.000000 1 0 0
-4.873082 -16.557311 4.885946 17.937780 1.284562 1.294928 -0.006348 -0.001489 206236.000000 1 0 0
-18.174282 -7.318011 -6.515454 20.647250 0.382795 1.891843 -0.019896 -0.000812 116873.000000 1 0 0
-17.508882 -3.160211 -10.218854 20.517623 0.178569 2.092148 0.017391 -0.025668 -105335.000000 1 0 0
-15.850682 -3.849211 -13.070754 20.902276 0.238230 2.246347 0.000053 -0.004957 -29515.900000 1 0 0
-19.455182 -4.656911 -5.551354 20.760743 0.234946 1.841487 0.010264 0.004292 41752.400000 1 0 0
5.786818 -13.704211 8.672146 17.219140 -1.171244 1.042996 0.011175 0.004572 276691.000000 1 0 0
19.667318 -3.810611 2.625446 20.204384 -0.191382 1.440483 -0.007836 0.001756 -160453.000000 1 0 0
17.983318 -2.674711 -0.291654 18.183478 -0.147651 1.586837 0.003925 -0.001953 398272.000000 1 0 0
14.417118 -11.606711 0.112846 18.508965 -0.677821 1.564699 0.019159 0.010039 125700.000000 1 0 0
11.026118 -13.787211 5.295346 18.431038 -0.896217 1.279383 -0.004839 0.006569 475593.000000 1 0 0
9.912118 -13.275211 9.060846 18.883333 -0.929434 1.070332 -0.002348 0.004820 187779.000000 1 0 0
17.686918 4.687289 -4.484254 18.838957 0.259059 1.811134 -0.002871 -0.000150 -75217.900000 1 0 0
18.454718 -5.986311 -4.592054 19.937390 -0.313670 1.803207 -0.014840 -0.007260 -61384.100000 1 0 0
17.807918 -10.107211 -0.754954 20.490184 -0.516231 1.607649 0.024051 0.002681 381670.000000 1 0 0
17.457818 -9.046311 8.353346 21.363276 -0.478086 1.169063 0.032499 0.003109 -24214.000000 1 0 0
19.902718 0.507589 -1.773254 19.988003 0.025498 1.659629 0.019940 -0.006299 51034.200000 1 0 0
7.471918 -13.355511 11.673546 19.247621 -1.060717 0.919154 -0.001797 0.004163 210415.000000 1 0 0
15.653818 -6.648011 -3.450354 17.353473 -0.401608 1.770958 -0.011469 -0.001182 342039.000000 1 0 0
14.560018 -7.240811 10.862346 19.555410 -0.461492 0.981874 0.014552 -0.037584 456529.000000 1 0 0
16.809118 1.175389 10.455646 19.830495 0.069812 1.015434 0.037881 -0.009201 118389.000000 1 0 0
16.522618 -10.013511 2.467146 19.477016 -0.544855 1.443785 0.003219 -0.002310 310483.000000 1 0 0
16.026118 -7.106811 -5.681654 18.428902 -0.417395 1.884203 0.003668 -0.004905 97240.600000 1 0 0
18.838618 -4.540111 5.541246 20.154691 -0.236491 1.292273 0.112763 -0.007109 -64499.000000 1 0 0
13.283618 -13.123511 8.008846 20.318038 -0.779335 1.165627 0.006804 -0.012702 326045.000000 1 0 0
14.991118 -14.539911 -1.730954 20.955640 -0.770120 1.653491 0.007711 0.015756 63204.200000 1 0 0
18.763618 -6.581711 7.809346 21.363010 -0.337360 1.196568 0.017570 0.002277 183497.000000 1 0 0
19.723718 3.820289 2.415446 20.234971 0.191321 1.451141 0.010394 -0.003635 249098.000000 1 0 0
15.752218 -10.693211 7.883046 20.606299 -0.596382 1.178236 0.029616 -0.019808 224406.000000 1 0 0
14.321918 -4.765511 10.630746 18.461858 -0.321219 0.957187 0.017204 -0.005007 -27164.000000 1 0 0
18.583418 -7.758611 1.338246 20.182428 -0.395503 1.504440 0.005236 -0.003939 -37449.000000 1 0 0
18.601918 -4.917711 -1.929054 19.337438 -0.258453 1.670720 -0.014302 -0.000973 303641.000000 1 0 0
14.661618 -13.481611 -6.412454 20.924542 -0.743494 1.882264 0.019607 0.001768 370477.000000 1 0 0
13.797418 -9.978511 10.249146 19.874215 -0.626138 1.028971 0.007053 0.006074 528150.000000 1 0 0
14.282118 2.326089 0.468846 14.477894 0.161450 1.538407 0.004150 -0.001574 -115779.000000 1 0 0
13.097218 2.400589 13.683546 19.092915 0.181278 0.771764 0.011512 0.000635 173045.000000 1 0 0
18.459118 -3.428211 8.690746 20.688662 -0.183627 1.137271 0.014608 -0.011104 113246.000000 1 0 0
6.978218 -18.314111 4.801446 20.178109 -1.206750 1.330538 -0.006210 -0.004556 375469.000000 1 0 0
12.769218 -2.569711 15.160846 19.987686 -0.198590 0.709774 0.009678 0.008685 229282.000000 1 0 0
11.316218 -13.543011 -7.265554 19.085550 -0.874736 1.961332 0.009121 0.001605 183168.000000 1 0 0
10.595118 -17.630611 4.291146 21.012114 -1.029678 1.365127 0.004730 -0.001651 457263.000000 1 0 0
18.261118 -0.031311 -4.912454 18.910358 -0.001715 1.833586 0.016522 -0.011971 99708.200000 1 0 0
4.474318 -13.668611 11.708846 18.545823 -1.254447 0.887508 -0.008221 0.000954 331804.000000 1 0 0
9.200618 -2.471611 14.512746 17.360301 -0.262439 0.580893 0.011559 -0.003982 436171.000000 1 0 0
9.270618 -9.226811 13.895846 19.083316 -0.783030 0.755152 0.019241 -0.008460 343794.000000 1 0 0
20.964118 5.477489 -3.385754 21.930811 0.255566 1.725800 0.004108 0.004860 333437.000000 1 0 0
14.871918 -13.678311 2.262646 20.331988 -0.743615 1.459280 0.017766 0.012846 255514.000000 1 0 0
11.297418 -0.536311 15.189746 18.937996 -0.047436 0.640030 0.019743 -0.004047 -46350.300000 1 0 0
19.261018 0.568289 7.775246 20.778937 0.029496 1.187274 0.011633 -0.001917 80741.900000 1 0 0
19.847118 0.688789 0.563646 19.867064 0.034691 1.542422 0.010397 -0.010622 322255.000000 1 0 0
18.178618 0.207589 3.290046 18.475109 0.011419 1.391761 0.014498 -0.005569 66454.900000 1 0 0
10.681318 -8.718611 16.008346 21.127515 -0.684570 0.711013 0.043830 0.000970 143153.000000 1 0 0
19.172018 3.080189 5.404746 20.156020 0.159299 1.299329 0.022357 -0.008296 105902.000000 1 0 0
15.099418 2.105089 6.991346 16.772083 0.138522 1.140826 0.009478 -0.011436 40744.600000 1 0 0
11.526318 -16.035011 1.603146 19.812816 -0.947550 1.489793 -0.001283 0.006696 226209.000000 1 0 0
8.491118 -16.102411 6.696246 19.396558 -1.085533 1.218314 -0.002796 0.000323 410059.000000 1 0 0
6.144218 6.789689 7.144546 11.614466 0.835262 0.908230 -0.001249 0.001603 -1008830.000000 1 0 0
18.399018 2.774189 -6.593254 19.740593 0.149652 1.911335 0.003127 0.001015 394741.000000 1 0 0
14.080618 4.495489 -7.382254 16.521831 0.309039 2.034002 0.014535 0.001877 215583.000000 1 0 0
-10.878482 -3.910111 -13.548954 17.810235 0.345056 2.435248 0.005404 -0.013190 -120082.000000 1 0 0
7.617318 -14.250511 -10.396454 19.214236 -1.079908 2.142518 -0.007871 0.011083 -54082.700000 1 0 0
1.925018 -15.976711 13.989746 21.323086 -1.450885 0.855178 -0.015959 0.006684 291134.000000 1 0 0
-9.409782 -7.917511 2.071146 12.470791 0.699488 1.403943 0.008210 0.002346 410526.000000 1 0 0
-13.867982 3.165889 -9.522854 17.118076 -0.224441 2.160728 0.006831 -0.005635 334643.000000 1 0 0
-13.565582 -5.435011 -12.746454 19.391659 0.381064 2.288048 0.023225 -0.009696 24650.100000 1 0 0
-17.327282 0.396089 -8.392254 19.256726 -0.022855 2.021733 -0.013529 -0.012804 346104.000000 1 0 0
-12.295282 14.975689 4.806746 19.963717 -0.883371 1.327633 0.005207 -0.015580 411564.000000 1 0 0
-16.626782 6.550689 9.165046 20.083811 -0.375310 1.096919 -0.026688 -0.005179 91010.900000 1 0 0
-13.556382 15.569889 -0.317354 20.646976 -0.854419 1.586167 0.006165 -0.010150 278187.000000 1 0 0
-15.908782 5.195589 -10.653654 19.838947 -0.315666 2.137681 0.000427 0.003421 144043.000000 1 0 0
-18.194182 2.945589 -0.111854 18.431420 -0.160505 1.576865 0.023498 0.004783 -237306.000000 1 0 0
-9.728482 15.405489 -0.134854 18.220610 -1.007540 1.578198 -0.003574 -0.003364 38717.400000 1 0 0
-18.163682 12.253689 2.494046 22.052040 -0.593493 1.457456 0.019047 0.006831 -192001.000000 1 0 0
-8.602182 16.508489 -7.602754 20.107948 -1.090430 1.958536 0.013734 -0.007566 89655.000000 1 0 0
-14.709682 -1.978211 -13.370154 19.976213 0.133682 2.304068 -0.018862 -0.001556 210435.000000 1 0 0
-19.287582 5.160589 -4.471754 20.460671 -0.261436 1.791128 0.039174 0.002786 102648.000000 1 0 0
-16.394982 8.931189 -6.120554 19.647461 -0.498805 1.887587 0.006697 0.009927 -93822.000000 1 0 0
-18.856482 1.362489 2.807246 19.112925 -0.072130 1.423386 0.002022 -0.009978 51873.400000 1 0 0
-13.467082 12.131489 -6.746554 19.340406 -0.733271 1.927121 0.000561 0.007498 -19170.300000 1 0 0
-12.981282 4.962589 -13.483054 19.363205 -0.365145 2.341059 -0.009207 0.001154 -157020.000000 1 0 0
-14.045682 9.296289 -6.540254 18.068677 -0.584668 1.941173 0.006908 0.001073 182246.000000 1 0 0
-6.540082 11.471289 -15.364754 20.259289 -1.052633 2.431659 -0.007608 -0.018632 -297875.000000 1 0 0
-15.115382 13.845189 3.177746 20.742760 -0.741567 1.416993 0.017361 -0.009680 45201.000000 1 0 0
-18.686782 8.715989 -4.569754 21.119823 -0.436429 1.788894 0.018913 0.004168 217360.000000 1 0 0
-3.856982 16.920789 -10.129254 20.094556 -1.346682 2.099112 0.004518 0.001204 -63427.500000 1 0 0
-18.939582 -1.371611 -6.841754 20.184119 0.072294 1.916615 -0.021597 -0.003859 -258832.000000 1 0 0
-10.748282 13.776789 -6.087454 18.503582 -0.908262 1.906028 -0.004788 -0.007246 183430.000000 1 0 0
-19.208182 3.106789 4.566146 19.986397 -0.160354 1.340298 0.014937 -0.001290 119938.000000 1 0 0
-15.002082 12.738989 0.856546 19.699694 -0.703999 1.527302 0.008323 0.005501 144515.000000 1 0 0
-17.696282 3.049089 -8.078154 19.690401 -0.170626 1.993534 0.004070 -0.008571 258232.000000 1 0 0
-16.338282 13.723089 -4.534454 21.813388 -0.698621 1.780198 0.003834 0.038064 198620.000000 1 0 0
-10.737682 15.617589 -8.618754 20.820418 -0.968483 1.997593 0.004098 -0.000526 234926.000000 1 0 0
-19.511282 1.571089 -6.631954 20.667396 -0.080349 1.897465 0.028121 -0.013608 67843.300000 1 0 0
-17.258882 10.417089 -0.393954 20.162835 -0.543047 1.590336 0.028370 0.005039 -18947.400000 1 0 0
-11.615782 6.849589 -14.532254 19.824975 -0.532796 2.393559 -0.019201 0.001517 321846.000000 1 0 0
-13.062482 12.525189 -4.016754 18.537613 -0.764403 1.789210 0.010335 0.000545 234354.000000 1 0 0
-18.766182 7.332089 -0.209354 20.148770 -0.372470 1.581187 0.012696 0.012970 127993.000000 1 0 0
-14.615382 9.101189 -10.462554 20.147110 -0.556953 2.116837 -0.000424 0.009814 717492.000000 1 0 0
-18.778582 11.472089 4.690646 22.499914 -0.548405 1.360782 0.017266 0.005498 187942.000000 1 0 0
-8.159082 12.025889 -13.453354 19.803670 -0.974674 2.317654 -0.019077 0.003177 430845.000000 1 0 0
-21.225182 -1.687111 -5.340354 21.951630 0.079320 1.816541 -0.008511 -0.000591 371388.000000 1 0 0
-10.414882 13.349289 -2.896354 17.177373 -0.908257 1.740220 -0.002982 -0.000165 270103.000000 1 0 0
-18.853282 -4.630511 3.877646 19.797071 0.240840 1.373652 0.021008 -0.006831 25973.100000 1 0 0
-11.526482 11.402289 -13.060654 20.819526 -0.779982 2.248913 0.001007 0.005016 126818.000000 1 0 0
-14.695482 11.922989 -9.876354 21.346129 -0.681616 2.051808 -0.001440 0.021808 119164.000000 1 0 0
-12.821582 9.787889 -13.788954 21.221003 -0.652017 2.278089 0.005341 0.001081 146888.000000 1 0 0
-17.823082 -5.007911 -3.037954 18.760879 0.273916 1.733443 -0.044588 0.002014 -278803.000000 1 0 0
-9.576082 12.741589 -11.358954 19.572308 -0.926297 2.189965 0.001493 -0.002825 157260.000000 1 0 0
-15.187782 7.740289 -8.424754 19.014659 -0.471329 2.029812 -0.017854 0.010371 -43395.200000 1 0 0
-14.297282 9.025889 2.244646 17.056300 -0.563118 1.438811 0.006662 0.000998 -223037.000000 1 0 0
-19.598182 6.040989 8.155946 22.070381 -0.299001 1.192280 0.020199 -0.008586 283065.000000 1 0 0
-18.793782 6.061889 3.916246 20.131808 -0.312012 1.375018 0.013969 0.009053 199368.000000 1 0 0
-14.339582 12.698389 6.066146 20.091561 -0.724773 1.264085 0.000566 -0.001257 130853.000000 1 0 0
18.046618 6.068989 5.485646 19.814272 0.324414 1.290278 0.009127 -0.008212 106181.000000 1 0 0
18.245018 8.162989 0.274246 19.989755 0.420697 1.557077 0.007011 0.011331 -13382.600000 1 0 0
16.813518 4.191089 8.320846 19.222281 0.244291 1.123117 0.007336 -0.012214 -62662.900000 1 0 0
12.077318 12.926689 10.897146 20.777601 0.819354 1.018708 0.017218 -0.001683 151167.000000 1 0 0
15.327418 12.075089 4.439746 20.011218 0.667263 1.347072 0.011140 -0.002911 235403.000000 1 0 0
5.144018 9.954789 14.599046 18.403556 1.093848 0.654630 -0.002163 -0.005245 116542.000000 1 0 0
13.154518 13.453189 -5.547054 19.616306 0.796623 1.857485 0.022698 0.008539 462349.000000 1 0 0
18.010718 9.288289 -2.904354 20.471775 0.476136 1.713148 0.011390 0.007027 -120877.000000 1 0 0
14.512518 7.445389 9.500946 18.876307 0.474019 1.043352 0.003570 -0.003656 23846.800000 1 0 0
4.771018 18.852489 -1.576754 19.510641 1.322929 1.651700 0.006607 -0.014218 393844.000000 1 0 0
-4.607482 18.967989 3.696746 19.866540 -1.332503 1.383626 -0.002806 -0.014963 309499.000000 1 0 0
6.842718 13.072989 12.694246 19.464576 1.088585 0.860351 -0.000528 0.015731 -124143.000000 1 0 0
0.764818 16.500889 -10.138054 19.381548 1.524479 2.121254 -0.007647 -0.006021 11056.300000 1 0 0
10.734018 9.450889 15.397046 21.014459 0.721915 0.748533 0.016553 -0.008680 29547.200000 1 0 0
-1.516282 12.631089 0.487546 12.731112 -1.451324 1.532491 -0.009834 0.004027 511127.000000 1 0 0
-4.998082 19.180489 -2.208854 19.943696 -1.315884 1.681779 0.011254 0.012724 -42310.800000 1 0 0
5.359918 18.723989 6.128046 20.417380 1.291993 1.265958 0.000170 0.005517 308803.000000 1 0 0
11.230218 17.422289 -1.768454 20.803398 0.998234 1.655907 -0.004121 0.008427 426101.000000 1 0 0
18.329018 10.551989 3.123346 21.378790 0.522359 1.424176 -0.000938 0.006848 194340.000000 1 0 0
11.403618 15.804089 7.253346 20.794777 0.945746 1.214499 0.018266 0.001440 -74833.600000 1 0 0
17.965218 6.855989 -5.874454 20.106289 0.364567 1.867291 -0.010816 0.003992 369354.000000 1 0 0
0.250118 15.180389 11.353946 18.958345 1.554321 0.928683 -0.002851 0.002086 287773.000000 1 0 0
1.255818 20.120289 -1.836154 20.242889 1.508462 1.661627 0.009187 -0.006151 360947.000000 1 0 0
14.104618 9.812989 -1.301154 17.231599 0.607854 1.646378 -0.004425 0.004331 -147112.000000 1 0 0
9.935818 17.494689 1.584146 20.181530 1.054289 1.492221 0.013872 -0.004205 142895.000000 1 0 0
0.673518 17.986489 -0.060854 17.999197 1.533368 1.574177 0.001768 0.009302 -127535.000000 1 0 0
0.018118 21.036889 0.875146 21.055092 1.569935 1.529220 0.007478 0.003749 229758.000000 1 0 0
6.046318 17.320489 -0.287054 18.347744 1.234937 1.586442 0.006432 -0.023224 -85650.400000 1 0 0
7.076718 19.056489 -2.864154 20.528835 1.215225 1.710772 -0.011435 -0.000085 2795.730000 1 0 0
10.261418 9.483889 12.718946 18.894773 0.746041 0.832341 0.005384 0.001272 196077.000000 1 0 0
13.108218 14.955289 8.183046 21.504611 0.851121 1.180432 0.017455 0.002722 64982.800000 1 0 0
0.496318 17.563289 7.066646 18.938134 1.542545 1.188401 -0.006363 -0.000947 257321.000000 1 0 0
6.875518 18.080389 -7.971054 20.921542 1.207409 1.961671 -0.016473 0.008323 69661.700000 1 0 0
-0.996282 18.452189 9.372646 20.720095 -1.516856 1.101403 0.019373 -0.009662 261648.000000 1 0 0
15.748418 6.638589 -8.050854 18.891792 0.398936 2.011036 0.012710 0.003742 -277275.000000 1 0 0
-5.036382 19.823089 -6.827654 21.562394 -1.321994 1.892988 -0.001705 0.001062 288214.000000 1 0 0
4.404018 15.617489 10.202746 19.167612 1.295941 1.009492 -0.009123 0.010563 242354.000000 1 0 0
8.864718 14.704289 7.481846 18.729051 1.028272 1.159849 0.005132 0.000784 -165642.000000 1 0 0
-2.334882 19.484389 6.672446 20.727147 -1.451532 1.243041 -0.005590 -0.001741 -151075.000000 1 0 0
4.980918 17.861389 8.623746 20.450128 1.298840 1.135481 -0.000239 0.003657 247438.000000 1 0 0
15.393518 12.102589 -6.449054 20.616095 0.666278 1.888953 0.037120 0.009502 -87784.700000 1 0 0
12.081118 6.518689 15.504046 20.708022 0.494805 0.724701 0.018711 -0.009546 279252.000000 1 0 0
17.347718 9.183289 4.902746 20.231486 0.486863 1.326027 0.028428 -0.002490 214878.000000 1 0 0
4.621518 15.354189 13.343146 20.860227 1.278428 0.876760 -0.029471 0.047596 356010.000000 1 0 0
15.862718 10.724989 -3.636454 19.490383 0.594514 1.758473 0.006099 -0.001126 122734.000000 1 0 0
15.378518 13.897989 6.561246 21.741731 0.734871 1.264236 0.015594 0.016024 289684.000000 1 0 0
12.712218 14.087689 -8.657854 20.857179 0.836677 1.998851 0.040163 -0.017013 398100.000000 1 0 0
-8.235082 15.613289 9.641146 20.113256 -1.085438 1.070890 0.009395 -0.007354 188821.000000 1 0 0
-4.960882 17.161689 -7.521254 19.383064 -1.289400 1.969292 0.005595 0.021790 61953.200000 1 0 0
2.593318 19.130089 -4.659954 19.859526 1.436055 1.807650 0.000645 -0.016682 77846.800000 1 0 0
7.371618 16.495789 9.003146 20.186838 1.150541 1.108515 0.005481 0.007400 634536.000000 1 0 0
13.285418 15.692889 -1.381254 20.607692 0.868286 1.637873 0.010956 0.003095 223837.000000 1 0 0
12.691718 16.580089 4.459946 21.351116 0.917462 1.360361 0.010711 -0.001563 387160.000000 1 0 0
2.832218 18.425989 0.689146 18.655118 1.418282 1.533847 0.014450 -0.014359 76530.500000 1 0 0
-7.813282 16.707889 1.864546 18.538539 -1.133370 1.470049 0.009394 -0.008188 141506.000000 1 0 0
0.145518 20.022089 -5.760154 20.834697 1.563529 1.850915 0.004425 0.010677 255557.000000 1 0 0
-7.211482 18.207089 -6.073654 20.503483 -1.193673 1.871535 0.008466 -0.001059 -32514.000000 1 0 0
-7.479782 18.482789 -1.448954 19.991500 -1.186254 1.643338 0.007747 0.006043 166006.000000 1 0 0
-14.442282 -9.804611 9.018246 19.647867 0.596412 1.093934 -0.001441 0.012699 453692.000000 1 0 0
-13.193482 -13.199311 8.496046 20.505428 0.785619 1.143588 0.000723 -0.000289 42926.700000 1 0 0
-3.441182 -15.604311 12.944046 20.564158 1.353743 0.889955 -0.002040 0.004287 178753.000000 1 0 0
-1.896182 -14.887811 15.595246 21.643801 1.444114 0.766214 -0.000906 0.005989 571324.000000 1 0 0
-8.021682 -13.586611 12.922546 20.394499 1.037458 0.884561 -0.004474 -0.005222 281382.000000 1 0 0
-9.989682 -10.250811 12.025546 18.694562 0.798299 0.872042 0.006227 -0.012525 142660.000000 1 0 0
-7.497082 -10.764511 13.387946 18.743480 0.962448 0.775213 0.005253 0.007324 332673.000000 1 0 0
-15.318782 -12.485611 7.350146 21.085071 0.683852 1.214725 -0.000253 0.007091 293092.000000 1 0 0
-4.545682 -12.502311 13.233446 18.764197 1.222069 0.788021 0.005152 -0.006092 363386.000000 1 0 0
3.553718 -12.468911 13.705746 18.866641 -1.293151 0.757649 -0.009407 -0.004477 424382.000000 1 0 0
6.682618 -13.571011 14.829446 21.183536 -1.113232 0.795335 0.001646 0.008307 358630.000000 1 0 0
7.240918 -9.164411 16.375946 20.114396 -0.902113 0.619549 0.012325 -0.004562 717309.000000 1 0 0
-5.302382 12.917689 13.782946 19.620182 -1.181293 0.791909 0.003486 -0.005299 524787.000000 1 0 0
-13.348082 -1.644211 17.636546 22.179325 0.122562 0.651493 -0.004361 -0.001974 337705.000000 1 0 0
-10.376182 9.478789 12.847946 19.041594 -0.740232 0.830197 0.002434 -0.010336 531150.000000 1 0 0
-7.276282 -8.576511 17.291746 20.627780 0.867234 0.576685 -0.005342 0.000079 -139993.000000 1 0 0
-4.784282 2.364589 18.186046 18.952913 -0.459030 0.285438 0.006772 -0.001534 533124.000000 1 0 0
-15.622582 -3.659411 14.255546 21.463386 0.230090 0.844400 0.012065 -0.003568 55344.200000 1 0 0
-14.439782 2.869789 12.663346 19.419148 -0.196185 0.860437 -0.006619 0.000402 251167.000000 1 0 0
-14.426182 10.587689 9.471746 20.246675 -0.633131 1.083977 -0.031462 0.004528 -97360.900000 1 0 0
-4.231882 11.248789 15.743646 19.806728 -1.210967 0.652014 0.006019 -0.004779 221376.000000 1 0 0
-12.898582 12.543089 9.130946 20.176141 -0.771426 1.101160 -0.005307 -0.004863 95222.500000 1 0 0
-3.775282 -6.371011 18.730146 20.141026 1.035857 0.376520 0.009297 -0.008138 278307.000000 1 0 0
0.973418 -2.969911 18.353346 18.617552 -1.254070 0.168671 0.000017 -0.004367 245514.000000 1 0 0
-4.361282 6.430289 20.897046 22.294751 -0.974824 0.355973 0.004968 -0.004108 123152.000000 1 0 0
1.953018 -10.740811 16.632346 19.895081 -1.390930 0.580838 0.002448 0.001533 340784.000000 1 0 0
-15.112782 -0.346111 13.969446 20.583036 0.022898 0.824823 -0.010490 0.003258 152469.000000 1 0 0
-13.517482 -5.765711 7.800746 16.637830 0.403172 1.082801 -0.010188 -0.004136 210369.000000 1 0 0
10.206018 1.233189 16.213846 19.198239 0.120247 0.565075 0.013651 -0.002339 160758.000000 1 0 0
-7.545382 12.126889 11.931346 18.610514 -1.014211 0.874855 0.001845 -0.011494 167021.000000 1 0 0
-1.748082 7.727489 20.379546 21.865401 -1.348325 0.370779 -0.001641 0.001612 457414.000000 1 0 0
1.316918 -13.571111 15.263646 20.466759 -1.474061 0.729095 -0.006273 -0.010061 562182.000000 1 0 0
-3.553982 -11.738011 17.720746 21.550790 1.276795 0.605393 0.009535 -0.005526 488844.000000 1 0 0
-2.214882 8.669589 16.902646 19.125034 -1.320669 0.486880 0.002360 -0.009207 509083.000000 1 0 0
-5.492682 -9.219711 20.001046 22.698336 1.033505 0.492470 0.054625 -0.023013 245209.000000 1 0 0
-6.470582 -2.622711 19.282246 20.507366 0.385091 0.347405 0.003458 -0.006176 -14911.000000 1 0 0
-10.581282 -8.039411 16.196846 20.950739 0.649729 0.687095 0.011391 -0.008261 343135.000000 1 0 0
0.285118 6.564189 17.815946 18.988886 1.527388 0.353317 -0.002991 -0.005420 177854.000000 1 0 0
-6.036782 -11.455211 18.605746 22.668004 1.085791 0.607998 0.004906 -0.007380 384692.000000 1 0 0
0.333018 3.441389 18.886146 19.200015 1.474328 0.181064 0.002804 -0.002247 32883.500000 1 0 0
-18.348482 -0.362411 7.735846 19.915859 0.019749 1.171873 -0.001014 -0.006658 143288.000000 1 0 0
-1.610682 -8.888111 17.561346 19.748258 1.391524 0.475070 0.008270 -0.001712 396483.000000 1 0 0
5.926618 3.159089 15.013446 16.447134 0.489724 0.420633 0.001214 -0.004742 400330.000000 1 0 0
-13.739082 -6.852111 10.258546 18.464874 0.462632 0.981747 -0.002447 -0.005135 201537.000000 1 0 0
3.828518 8.208689 16.738246 19.031789 1.134390 0.496009 0.000209 -0.002596 65400.000000 1 0 0
6.267918 4.319989 17.692246 19.260443 0.603456 0.406325 0.005736 -0.012747 336181.000000 1 0 0
5.432818 -9.729611 18.147146 21.295534 -1.061542 0.550702 0.018599 0.010507 375508.000000 1 0 0
-4.304882 -0.957211 19.910046 20.392602 0.218795 0.217978 0.007299 -0.002106 729695.000000 1 0 0
-11.176982 1.988689 16.989546 20.433416 -0.176084 0.589068 0.018229 -0.001755 190675.000000 1 0 0
-16.607482 -4.388211 8.804446 19.302412 0.258327 1.097153 -0.005096 -0.013411 409678.000000 1 0 0
-13.085382 -9.222411 13.462446 20.916920 0.613932 0.871584 -0.010673 -0.007373 56688.200000 1 0 0
-14.479482 5.931689 13.205146 20.474770 -0.388808 0.869842 -0.009183 -0.012272 430163.000000 1 0 0
1.303818 9.499789 17.233546 19.721588 1.434401 0.507748 -0.006547 -0.003798 184692.000000 1 0 0
-3.844082 -10.357811 14.898846 18.548230 1.215424 0.638066 0.008651 -0.008961 678904.000000 1 0 0
-17.141382 -2.896311 7.125346 18.787925 0.167385 1.181809 -0.022466 -0.009669 -17075.800000 1 0 0
-0.679682 -0.680311 21.315746 21.337428 0.785861 0.045084 0.003862 0.001855 299412.000000 1 0 0
-1.641482 2.347089 20.401546 20.601611 -0.960494 0.139477 0.005197 -0.005776 -31891.200000 1 0 0
-7.982482 2.388189 16.229546 18.243400 -0.290703 0.474302 -0.001297 0.007121 464365.000000 1 0 0
2.964718 -1.762611 19.118546 19.427176 -0.536387 0.178487 0.003501 0.001368 5153.400000 1 0 0
-11.825282 4.097789 14.573246 19.209598 -0.333578 0.709567 -0.035367 0.005025 157435.000000 1 0 0
-13.111082 -5.647211 13.284446 19.500461 0.406706 0.821345 -0.019818 0.000979 28860.300000 1 0 0
-17.039182 -1.448611 9.293746 19.462937 0.084813 1.072978 -0.006944 -0.021211 199023.000000 1 0 0
-7.337182 7.804089 14.558546 18.074548 -0.816225 0.634325 -0.007505 -0.009965 44093.400000 1 0 0
-9.345982 0.597789 14.180446 16.993816 -0.063875 0.583667 0.001044 -0.000053 128846.000000 1 0 0
7.353218 -0.956811 15.171846 16.886984 -0.129394 0.454605 0.002955 -0.004711 146057.000000 1 0 0
4.045018 6.496489 18.398746 19.926876 1.013891 0.394177 0.004574 0.007431 85497.700000 1 0 0
1.901918 0.544989 20.193946 20.290632 0.279069 0.097661 -0.005608 0.006401 193964.000000 1 0 0
-6.876282 6.485289 17.323146 19.734072 -0.756144 0.499485 -0.004212 -0.010626 464457.000000 1 0 0
7.534618 -3.197711 16.811346 18.698053 -0.401365 0.453096 0.003239 0.003444 333666.000000 1 0 0
-16.565282 2.313689 9.532646 19.251832 -0.138773 1.052783 0.015179 -0.009127 311969.000000 1 0 0
3.504818 -6.090911 19.109246 20.360409 -1.048648 0.352394 -0.003026 -0.009818 172227.000000 1 0 0
-3.714882 -3.840011 20.521746 21.205851 0.801959 0.254696 0.009524 -0.011163 327659.000000 1 0 0
-9.602282 5.713789 14.674846 18.444574 -0.536768 0.650768 -0.007623 0.001935 -110547.000000 1 0 0
6.693318 2.607789 19.787846 21.051364 0.371518 0.348227 0.008251 -0.010722 134889.000000 1 0 0
-7.323882 11.138089 14.665246 19.818317 -0.989130 0.737749 0.002500 -0.007709 191817.000000 1 0 0
-14.126482 5.073789 9.968246 18.018511 -0.344819 0.984569 -0.009032 -0.001684 203617.000000 1 0 0
0.677418 -5.971911 20.342246 21.211544 -1.457845 0.287281 0.004917 -0.008471 226461.000000 1 0 0
-6.242482 -8.322511 13.718046 17.216781 0.927249 0.648843 0.011870 -0.004949 296597.000000 1 0 0
-12.652582 10.160089 6.602646 17.518852 -0.676571 1.184362 -0.019254 -0.010931 62526.600000 1 0 0
-19.303082 1.984589 7.936746 20.965197 -0.102452 1.182548 -0.013531 -0.009537 18775.300000 1 0 0
-15.805582 9.185189 6.639946 19.449241 -0.526433 1.222392 -0.002440 0.002430 64037.700000 1 0 0
-12.556882 7.761689 14.244646 20.514118 -0.553638 0.803235 -0.007365 -0.005823 303388.000000 1 0 0
-16.360882 8.859889 11.139046 21.685350 -0.496316 1.031343 -0.004925 -0.003138 270506.000000 1 0 0
2.672018 10.333589 14.801646 18.248602 1.317763 0.624747 -0.006693 -0.038550 335058.000000 1 0 0
2.157918 15.060489 12.998146 20.010665 1.428482 0.863790 -0.008126 -0.006024 526811.000000 1 0 0
8.825618 4.896589 16.574646 19.405850 0.506533 0.546967 0.000415 -0.003165 149331.000000 1 0 0
0.390418 12.806689 13.493546 18.607512 1.540320 0.759520 -0.000655 -0.000718 -202545.000000 1 0 0
3.913318 12.418789 15.031046 19.886496 1.265533 0.713857 -0.007635 0.004541 129965.000000 1 0 0
-3.629482 -4.502911 -13.844954 15.004403 0.892389 2.745890 -0.006657 -0.002897 76849.800000 1 0 0
5.120418 -11.991111 16.724946 21.206821 -1.167218 0.662172 -0.049328 0.021203 244559.000000 1 0 0
8.840418 -13.699211 7.184546 17.816820 -0.997716 1.155736 -0.006511 -0.003427 354087.000000 1 0 0
-0.476582 15.242289 0.533346 15.259061 -1.539539 1.535836 0.001366 -0.006061 -316307.000000 1 0 0
-14.183782 7.603289 8.833146 18.357945 -0.492074 1.068817 0.008803 0.000013 -27910.000000 1 0 0
-16.017782 -9.632211 5.662446 19.529775 0.541408 1.276633 0.003828 0.003106 224570.000000 1 0 0
8.982518 -10.412611 11.186446 17.726948 -0.859000 0.887901 -0.010682 -0.003967 126400.000000 1 0 0
-25.163822 6.289689 31.304243 40.653828 -0.244931 0.691925 0.005539 -0.003302 297205.000000 0 0 1
-23.975382 5.531289 31.052533 39.619110 -0.226740 0.670073 -0.004774 0.009582 679071.000000 0 0 1
-22.906282 5.781589 31.934323 39.723110 -0.247238 0.636934 -0.000594 -0.000881 49334.500000 0 0 1
-21.633682 4.986589 31.602273 38.621055 -0.226544 0.612409 -0.012723 -0.001682 -231010.000000 0 0 1
-21.530482 3.696689 32.149153 38.868949 -0.170038 0.596838 -0.002044 0.000591 -333417.000000 0 0 1
-20.319082 3.104389 31.781323 37.849106 -0.151610 0.574094 -0.003293 0.003616 -562987.000000 0 0 1
-20.034382 1.848689 32.650143 38.351349 -0.092015 0.552257 -0.005809 0.003805 -135683.000000 0 0 1
-20.771982 0.695689 32.323483 38.428723 -0.033479 0.571430 -0.001355 0.006797 176054.000000 0 0 1
-20.487082 -0.163511 33.398478 39.181700 0.007981 0.550238 -0.002835 0.007330 -73704.600000 0 0 1
-20.939582 -1.627011 33.334772 39.399496 0.077544 0.562225 0.001004 -0.005313 -274023.000000 0 0 1
-20.177882 -2.455411 32.448153 38.289145 0.121093 0.559632 0.003963 -0.010807 246644.000000 0 0 1
-20.286882 -3.849211 32.705103 38.678130 0.187510 0.563163 0.011432 -0.018641 -511917.000000 0 0 1
-21.651282 -4.454211 32.347063 39.178444 0.202894 0.599471 0.009018 -0.012740 760759.000000 0 0 1
-22.843482 -4.237611 33.142333 40.474637 0.183421 0.611406 0.003181 -0.008530 955187.000000 0 0 1
-22.805482 -4.700311 34.473001 41.600129 0.203258 0.594059 0.000220 -0.010566 -1159730.000000 0 0 1
-23.970882 -4.238411 -34.026274 41.837240 0.175006 2.520600 0.000147 -0.010956 -277245.000000 0 0 1
-23.922682 -4.805111 -32.696604 40.797692 0.198222 2.500483 0.006293 -0.017257 50059.900000 0 0 1
-25.093752 -4.412211 -32.027674 40.925980 0.174050 2.469589 0.006679 -0.010183 -285483.000000 0 0 1
-25.160312 -5.032411 -30.588784 39.925432 0.197409 2.443622 0.006280 -0.013852 -581991.000000 0 0 1
-25.363222 -6.426511 -30.692854 40.331679 0.248156 2.435667 0.008828 -0.010972 561744.000000 0 0 1
-25.216292 -7.016911 -29.448064 39.399072 0.271403 2.414982 0.005648 -0.010255 -249903.000000 0 0 1
-25.351182 -8.529511 -29.452484 39.785472 0.324557 2.404287 0.006151 -0.001827 -496800.000000 0 0 1
-26.685502 -8.935011 -29.481174 40.756472 0.323094 2.379437 0.018117 -0.000368 -558640.000000 0 0 1
-26.850632 -10.188411 -28.787934 40.663316 0.362664 2.357400 0.014776 -0.004411 -383856.000000 0 0 1
-28.287622 -10.652111 -28.610724 41.620074 0.360141 2.328735 0.035815 0.005272 -205631.000000 0 0 1
-28.204542 -11.755211 -27.693474 41.238449 0.394891 2.307088 0.039220 0.005652 478890.000000 0 0 1
-29.505382 -11.875111 -27.113384 41.793796 0.382636 2.276726 0.032867 0.007999 280408.000000 0 0 1
-29.534212 -12.513611 -25.680204 41.089330 0.400768 2.245908 0.029710 0.014784 -150861.000000 0 0 1
-29.015002 -11.738711 -24.634354 39.831132 0.384443 2.237590 0.016297 0.015463 67648.500000 0 0 1
-29.054782 -12.315911 -23.339754 39.250556 0.400927 2.207608 0.008422 0.012712 -20647.500000 0 0 1
-28.424482 -11.519311 -22.102454 37.804288 0.385033 2.195251 0.008781 0.010306 200116.000000 0 0 1
-28.318332 -12.197111 -20.856754 37.225013 0.406701 2.165531 0.008306 0.011041 133519.000000 0 0 1
-27.171642 -13.012211 -20.764454 36.589319 0.446617 2.174263 0.011374 0.006289 -509452.000000 0 0 1
-26.922182 -13.463011 -19.346854 35.782081 0.463705 2.142048 -0.004082 0.007585 -80255.000000 0 0 1
-26.468382 -12.338911 -18.559054 34.601480 0.436224 2.136922 -0.005897 0.002326 334641.000000 0 0 1
-26.198782 -12.745911 -17.224054 33.845272 0.452796 2.104709 -0.004956 0.006440 -24947.800000 0 0 1
-26.050962 -11.607211 -16.283454 32.840993 0.419154 2.089583 -0.004227 0.001818 549615.000000 0 0 1
-24.809282 -10.880911 -16.398854 31.667287 0.413318 2.115130 -0.003171 0.003116 848820.000000 0 0 1
-24.822282 -9.612411 -15.817954 30.963717 0.369466 2.106975 0.002342 -0.007911 -744428.000000 0 0 1
-23.517782 -8.816611 -15.782054 29.662972 0.358675 2.131811 0.015831 -0.004922 -657663.000000 0 0 1
-22.652182 -9.329311 -14.840654 28.642667 0.390680 2.115461 0.008937 0.001149 -1274570.000000 0 0 1
-21.449882 -8.660711 -14.788254 27.455378 0.383748 2.139605 0.003662 -0.019191 -322421.000000 0 0 1
-20.439982 -9.328711 -13.773954 26.354118 0.428160 2.120752 -0.006064 -0.004051 38960.500000 0 0 1
-19.645982 -10.359111 -14.289454 26.409549 0.485240 2.142507 -0.000388 0.008930 -16274.200000 0 0 1
-18.602482 -10.630611 -13.378754 25.259716 0.519171 2.128982 0.002762 0.004215 -138433.000000 0 0 1
-17.683282 -11.746311 -13.912154 25.381535 0.586335 2.150912 0.002036 0.008507 -449535.000000 0 0 1
-16.947282 -11.331711 -15.024254 25.324815 0.589371 2.205901 0.001561 0.002535 -168693.000000 0 0 1
-17.542982 -11.668411 -16.301754 26.639355 0.586940 2.229311 -0.007178 0.000134 183759.000000 0 0 1
-16.821082 -10.978811 -17.508554 26.646436 0.578258 2.287721 -0.012504 -0.002377 22377.900000 0 0 1
-17.478982 -11.258711 -18.700254 27.963778 0.572237 2.303297 -0.007758 0.002922 63479.700000 0 0 1
-16.766782 -10.803311 -19.820554 28.119226 0.572378 2.353044 -0.013485 -0.000239 -363186.000000 0 0 1
-17.411082 -11.133011 -21.190654 29.599553 0.568902 2.368725 -0.012696 0.011207 -886607.000000 0 0 1
-18.442082 -10.289011 -21.483654 30.125098 0.508895 2.364775 -0.016457 0.005786 -1071290.000000 0 0 1
-19.414782 -10.991011 -22.205654 31.477407 0.515132 2.353850 -0.016102 0.019578 64677.200000 0 0 1
-20.509082 -10.111311 -22.889654 32.354247 0.458045 2.356708 -0.008540 0.007760 214496.000000 0 0 1
-19.988482 -9.126111 -23.763754 32.365743 0.428303 2.395322 -0.009287 0.001996 -392705.000000 0 0 1
-20.945682 -8.732011 -24.690354 33.534805 0.394980 2.398324 0.008062 -0.001738 -293514.000000 0 0 1
-20.341382 -7.917911 -25.876484 33.853472 0.371206 2.440856 -0.010109 -0.001543 797756.000000 0 0 1
-19.372582 -8.657811 -26.682614 34.091297 0.420282 2.469758 -0.014682 0.000765 829249.000000 0 0 1
-18.798482 -7.784611 -27.647264 34.327165 0.392609 2.507154 -0.022859 -0.005661 -171117.000000 0 0 1
-17.661882 -8.455311 -28.455614 34.542095 0.446489 2.538870 -0.018120 -0.000676 -355834.000000 0 0 1
-18.063082 -9.445411 -29.358224 35.740677 0.481809 2.534698 -0.017425 0.006267 -48105.500000 0 0 1
-17.029282 -10.281411 -29.839624 35.862334 0.543172 2.553608 -0.014587 0.004332 -357586.000000 0 0 1
-17.454382 -11.367911 -30.781664 37.167132 0.577283 2.546677 -0.005796 0.006975 -355279.000000 0 0 1
-17.998282 -11.014411 -32.036804 38.361598 0.549175 2.559160 0.003988 0.002050 405883.000000 0 0 1
-18.294682 -12.202811 -32.767894 39.463133 0.588243 2.550517 0.006789 -0.002085 -157072.000000 0 0 1
-18.813882 -11.940611 -34.185771 40.806951 0.565523 2.563935 0.014162 -0.006170 -145485.000000 0 0 1
-17.878882 -11.477111 34.233849 40.290631 0.570686 0.555432 0.016431 -0.010777 -188287.000000 0 0 1
-18.433982 -11.281011 32.947873 39.403493 0.549173 0.580541 0.015030 -0.012033 17561.700000 0 0 1
-17.840082 -12.258311 31.901353 38.551667 0.602031 0.596163 0.012989 -0.008376 -354150.000000 0 0 1
-16.492782 -11.970911 31.574743 37.580300 0.627850 0.573155 0.013759 -0.013156 360892.000000 0 0 1
-15.904882 -12.792811 30.552613 36.743482 0.677377 0.588974 0.014802 -0.010369 46070.300000 0 0 1
-15.847982 -14.309911 30.861733 37.528371 0.734442 0.605254 0.016329 -0.001576 -660362.000000 0 0 1
-17.071682 -14.967111 30.543963 38.057725 0.719804 0.639207 0.013153 -0.000325 412853.000000 0 0 1
-17.057582 -16.339811 30.871753 38.871785 0.763910 0.653116 0.017060 -0.003834 -201600.000000 0 0 1
-17.483082 -16.669411 32.314533 40.345464 0.761578 0.641923 0.015070 0.002159 -396408.000000 0 0 1
-16.597182 -16.161411 33.276023 40.545670 0.772096 0.608153 0.010598 0.002905 143129.000000 0 0 1
-17.248782 -16.110811 34.552795 41.844645 0.751299 0.599284 0.007686 0.006683 907909.000000 0 0 1
-16.281482 -15.748111 -33.587904 40.512183 0.768747 2.548259 0.013047 0.011078 485599.000000 0 0 1
-15.793482 -14.421011 -33.685254 39.901077 0.740005 2.575903 0.007960 0.007044 231170.000000 0 0 1
-14.637782 -14.181511 -32.876184 38.681047 0.769567 2.586649 0.009100 0.008715 197051.000000 0 0 1
-14.788882 -13.940511 -31.360384 37.370076 0.755877 2.566578 0.004990 0.011575 -408321.000000 0 0 1
-14.990982 -15.089811 -30.648724 37.306517 0.788684 2.534900 0.001611 0.017474 -104289.000000 0 0 1
-15.431682 -14.851611 -29.347274 36.331386 0.766246 2.511150 0.001213 0.018256 -600357.000000 0 0 1
-15.306182 -16.147711 -28.441904 36.110520 0.812146 2.477757 0.001809 0.012354 284894.000000 0 0 1
-13.991982 -16.445711 -28.010234 35.366795 0.865839 2.484862 0.003000 0.012536 69262.600000 0 0 1
-13.143382 -16.927611 -29.026394 36.080799 0.910583 2.505601 0.012723 0.006193 -1109950.000000 0 0 1
-11.724682 -17.260111 -28.557214 35.367981 0.974103 2.510581 0.015864 0.005959 -301046.000000 0 0 1
-11.010882 -16.048111 -28.493984 34.506355 0.969449 2.542346 0.020429 0.009285 357360.000000 0 0 1
-9.602682 -16.270211 -28.320714 34.044003 1.037614 2.553293 0.018440 0.005389 1049240.000000 0 0 1
-8.696882 -15.051411 -28.250374 33.170233 1.046852 2.589976 0.021729 0.007716 -126958.000000 0 0 1
-8.974882 -14.280811 -27.102214 31.922094 1.009715 2.584907 0.020059 -0.000673 -201579.000000 0 0 1
-8.025982 -13.290611 -26.761904 30.939558 1.027526 2.615894 0.015022 -0.001222 -112120.000000 0 0 1
-7.875282 -11.964211 -27.651334 31.140949 0.988653 2.663646 0.015657 -0.005149 37413.100000 0 0 1
-7.084482 -12.065011 -28.827544 32.043434 1.039847 2.689740 0.015573 -0.006307 294467.000000 0 0 1
-6.938182 -10.806011 -29.399064 32.081353 1.000018 2.729766 0.015939 -0.001607 -328695.000000 0 0 1
-5.987382 -10.921811 -30.581844 33.020961 1.069333 2.754828 0.006133 -0.002789 -173565.000000 0 0 1
-4.605982 -10.866211 -30.253154 32.473727 1.169874 2.769640 0.012895 -0.005759 469191.000000 0 0 1
-3.699582 -10.487811 -31.254814 33.174455 1.231673 2.799739 0.008326 -0.005533 -232591.000000 0 0 1
-3.804582 -9.019911 -31.731994 33.207726 1.171641 2.842352 0.001316 -0.003330 -1377900.000000 0 0 1
-2.759082 -8.542411 -32.501924 33.718843 1.258387 2.872114 -0.010113 -0.006159 -714383.000000 0 0 1
-3.002482 -7.229511 -32.846814 33.766758 1.177163 2.907633 -0.015589 -0.009136 -68140.500000 0 0 1
-1.778382 -6.420111 -33.334614 33.993778 1.300570 2.944343 -0.010520 -0.010982 -222582.000000 0 0 1
-1.335782 -6.971611 -34.525108 35.247280 1.381488 2.938816 -0.008169 -0.009512 -854763.000000 0 0 1
-0.249982 -6.241511 34.366439 34.929516 1.530766 0.179799 -0.004723 -0.007774 -558227.000000 0 0 1
0.442218 -6.958311 33.230413 33.953998 -1.507329 0.206818 -0.004862 -0.003235 -484327.000000 0 0 1
-0.249182 -6.877011 32.013373 32.744640 1.534578 0.211736 0.001370 0.003448 -56933.400000 0 0 1
0.322118 -7.612711 30.929333 31.854054 -1.528508 0.241543 -0.000084 0.004644 -150068.000000 0 0 1
-0.100082 -7.175911 29.532633 30.392106 1.556850 0.238385 -0.001330 0.011293 -1643.350000 0 0 1
0.598318 -5.981911 29.189373 29.802026 -1.471107 0.203117 0.004771 0.006446 208920.000000 0 0 1
0.472718 -5.635911 27.848163 28.416670 -1.487116 0.200366 0.008800 0.012024 59320.300000 0 0 1
-0.689082 -4.655011 27.500013 27.899725 1.423834 0.169476 0.011073 0.019515 224732.000000 0 0 1
-1.954382 -5.240211 27.560043 28.121796 1.213817 0.200213 0.010336 0.020431 -574522.000000 0 0 1
-3.023782 -4.354511 27.265113 27.775734 0.963837 0.192043 0.007128 0.016089 85560.800000 0 0 1
-4.372482 -4.990011 27.617403 28.403165 0.851261 0.235767 0.004076 0.015806 -313940.000000 0 0 1
-4.791282 -5.952611 26.672423 27.745416 0.893072 0.279015 -0.005850 0.018384 392240.000000 0 0 1
-6.105382 -6.401411 27.044093 28.454116 0.809063 0.316130 -0.010341 0.013357 973664.000000 0 0 1
-6.366982 -7.937911 27.109573 28.956482 0.894778 0.359088 -0.009694 0.010644 85425.300000 0 0 1
-5.798682 -8.578411 28.243003 30.081241 0.976386 0.351402 -0.014946 0.004786 -61980.400000 0 0 1
-5.699382 -9.958011 28.058853 30.314092 1.050962 0.388167 -0.022732 0.003401 122959.000000 0 0 1
-4.935682 -10.619111 29.263303 31.519318 1.135709 0.380647 -0.018467 0.002256 13751.000000 0 0 1
-5.155882 -11.981211 29.213383 31.993035 1.164419 0.419931 -0.010980 -0.002757 -6873.730000 0 0 1
-4.687882 -12.667611 30.297033 33.171597 1.216356 0.419377 -0.009524 0.002308 -603462.000000 0 0 1
-4.667082 -14.181611 30.114963 33.612658 1.252866 0.460251 -0.010814 -0.006418 -402535.000000 0 0 1
-5.990482 -14.632211 30.032283 33.940028 1.182210 0.484596 -0.004242 -0.003802 -393205.000000 0 0 1
-6.079182 -16.070811 30.048053 34.613768 1.209158 0.519444 -0.005372 -0.005639 59683.700000 0 0 1
-6.038882 -16.709111 31.485823 36.152725 1.223991 0.513742 0.002429 -0.000828 -317295.000000 0 0 1
-7.209082 -16.452011 32.205543 36.875962 1.157808 0.508763 0.008632 -0.005821 -622730.000000 0 0 1
-6.988282 -16.679611 33.530641 38.096580 1.174043 0.494622 0.012605 -0.001544 -170348.000000 0 0 1
-8.232982 -17.182111 34.338251 39.269867 1.123959 0.506563 0.021087 0.004765 574530.000000 0 0 1
-8.689382 -18.518311 34.015583 39.692482 1.132065 0.541420 0.026356 -0.000508 259813.000000 0 0 1
-9.197382 -18.632111 32.673903 38.721200 1.112257 0.566425 0.019469 -0.005528 -1030730.000000 0 0 1
-9.905382 -19.966911 32.407213 39.332195 1.110282 0.602474 0.023074 -0.013228 -362857.000000 0 0 1
-11.201782 -20.118711 32.932763 40.184690 1.062759 0.610197 0.012101 -0.004128 -101305.000000 0 0 1
-11.683082 -21.390411 32.710753 40.792615 1.070888 0.640362 0.009723 -0.005375 -307751.000000 0 0 1
-11.208282 -22.592311 33.671040 42.068718 1.110265 0.642864 0.014635 -0.009923 421982.000000 0 0 1
-9.796582 -22.827011 33.523401 41.723661 1.165402 0.637708 0.009131 -0.006607 646055.000000 0 0 1
-9.320382 -23.627211 34.602370 42.923637 1.195061 0.633200 0.014780 -0.007887 74695.900000 0 0 1
-9.774782 -25.131521 34.667508 43.920107 1.199856 0.661078 0.023544 -0.005646 -75520.800000 0 0 1
-9.237682 -26.037971 33.698855 43.576640 1.229872 0.686729 0.016549 -0.002602 -61704.900000 0 0 1
-9.380282 -27.366591 34.110521 44.726364 1.240582 0.703397 0.034655 -0.001199 -839113.000000 0 0 1
-8.697482 -28.275391 33.068703 44.369844 1.272383 0.729816 0.029561 -0.006136 726587.000000 0 0 1
-7.305082 -28.038811 32.856973 43.807760 1.315928 0.722694 0.015139 -0.001252 226394.000000 0 0 1
-6.492082 -28.607951 33.850712 44.793222 1.347643 0.714058 0.012386 -0.006264 771070.000000 0 0 1
-4.964482 -28.146151 33.813579 44.274259 1.396210 0.701725 0.006322 -0.003862 1555450.000000 0 0 1
-4.819382 -26.819611 34.360369 43.853768 1.392998 0.670483 0.001133 0.001113 -55940.300000 0 0 1
-4.786682 -25.882651 33.320744 42.462877 1.387925 0.668580 0.016121 0.005912 -116861.000000 0 0 1
-4.420182 -24.481411 33.858742 42.015377 1.392168 0.633661 0.012725 0.001417 1181660.000000 0 0 1
-3.190182 -24.426911 34.641263 42.507274 1.440930 0.618155 -0.007235 0.012862 911927.000000 0 0 1
-2.804282 -23.160211 -34.320726 41.499056 1.450301 2.544590 -0.004790 0.011422 -198068.000000 0 0 1
33.295826 -15.426711 1.959546 36.748269 -0.433878 1.517448 0.007054 -0.008586 -611301.000000 0 0 1
33.804276 -16.235111 2.944146 37.616165 -0.447738 1.492448 -0.001872 -0.007657 134441.000000 0 0 1
32.844166 -16.873211 3.765146 37.116315 -0.474575 1.469180 0.011789 -0.008908 -207367.000000 0 0 1
33.428536 -17.141511 5.151946 37.918873 -0.473820 1.434507 0.012410 -0.002887 557404.000000 0 0 1
34.470032 -18.128611 5.293146 39.304542 -0.484171 1.435716 0.014941 -0.012615 722499.000000 0 0 1
-34.447504 -17.963611 6.529646 39.394900 0.480682 1.404279 0.008928 -0.003593 -211879.000000 0 0 1
-33.054442 -18.597711 6.491146 38.478643 0.512495 1.401291 0.002264 0.003015 -399037.000000 0 0 1
-33.024512 -20.019111 6.534346 39.167344 0.544958 1.403181 -0.003505 0.001185 127280.000000 0 0 1
-31.765112 -20.422711 7.036746 38.413868 0.571388 1.386574 0.000563 0.005710 93151.000000 0 0 1
-31.727152 -21.943511 7.276246 39.256510 0.605088 1.384367 0.002953 -0.000186 -273784.000000 0 0 1
-31.703722 -22.819611 6.186146 39.549071 0.623876 1.413734 0.009925 -0.004592 -71348.900000 0 0 1
-31.781922 -24.173111 6.603346 40.472633 0.650246 1.406908 0.026481 -0.004240 -291449.000000 0 0 1
-31.214162 -25.187541 5.560746 40.492691 0.678950 1.433034 0.017051 0.001752 -129726.000000 0 0 1
-31.756872 -25.267431 4.235146 40.802922 0.672084 1.466814 0.006621 0.003250 212407.000000 0 0 1
-31.169922 -26.341551 3.453846 40.955713 0.701640 1.486365 -0.004174 0.006205 -474339.000000 0 0 1
-31.365182 -26.215951 1.919246 40.923517 0.696210 1.523881 0.014789 0.007251 -851807.000000 0 0 1
-32.596032 -26.688711 1.417246 42.152072 0.686083 1.537168 0.002570 0.008606 -86645.400000 0 0 1
-32.998372 -25.916991 0.315346 41.960486 0.665776 1.563281 -0.001917 0.009106 316974.000000 0 0 1
-33.981772 -24.768011 0.731046 42.056505 0.629835 1.553413 -0.006666 0.016870 603036.000000 0 0 1
34.212994 -25.060611 0.818246 42.417363 -0.632199 1.551505 -0.003367 0.005518 794157.000000 0 0 1
33.521336 -23.831011 1.074646 41.143066 -0.618018 1.544674 0.004852 0.005874 192135.000000 0 0 1
31.991216 -23.934711 0.925446 39.964544 -0.642326 1.547638 -0.000691 0.002658 198959.000000 0 0 1
31.543986 -24.012911 -0.417554 39.646151 -0.650663 1.581329 -0.001226 0.001483 388121.000000 0 0 1
30.180126 -23.679811 -0.655154 38.366687 -0.665290 1.587873 -0.000060 0.003582 612321.000000 0 0 1
29.704656 -23.586111 -2.131254 37.989649 -0.671084 1.626927 -0.004423 0.006922 -158782.000000 0 0 1
30.073116 -22.412711 -2.843654 37.613937 -0.640470 1.646470 0.008833 0.001591 -149124.000000 0 0 1
29.555866 -22.301411 -4.105954 37.252664 -0.646407 1.681240 0.009709 -0.015700 -452267.000000 0 0 1
29.555316 -20.895811 -4.718754 36.502305 -0.615413 1.700432 0.011510 -0.014442 -165206.000000 0 0 1
28.724846 -20.033011 -4.008654 35.249221 -0.608986 1.684766 0.017586 -0.007237 -83277.400000 0 0 1
28.927546 -18.614211 -4.196554 34.654045 -0.571776 1.692193 0.022317 -0.007135 574147.000000 0 0 1
27.803876 -17.963511 -3.292254 33.265330 -0.573614 1.669928 0.012054 0.003052 522579.000000 0 0 1
28.175366 -17.661411 -1.943554 33.309970 -0.559920 1.629177 0.011489 0.007347 136260.000000 0 0 1
28.694836 -18.628011 -0.998654 34.225629 -0.575796 1.599979 0.004945 0.013026 -227725.000000 0 0 1
27.971936 -19.983011 -0.729154 34.384322 -0.620322 1.592004 0.003082 0.012969 -374513.000000 0 0 1
26.789306 -19.737511 -0.009954 33.275161 -0.634979 1.571095 -0.008362 0.024041 -208469.000000 0 0 1
26.247306 -20.978511 0.396546 33.603218 -0.674292 1.558995 -0.010194 0.013612 -21727.700000 0 0 1
25.033476 -20.689311 1.328746 32.503662 -0.690672 1.529905 -0.007757 0.015730 -963533.000000 0 0 1
24.398506 -21.807611 1.827446 32.774968 -0.729384 1.515010 -0.005328 0.011191 -541433.000000 0 0 1
23.615106 -21.509011 2.933846 32.076755 -0.738759 1.479205 -0.001901 0.005742 -103148.000000 0 0 1
22.152906 -21.074611 2.637746 30.689545 -0.760459 1.484741 -0.009951 0.002744 -598141.000000 0 0 1
22.071306 -19.813411 2.034946 29.729696 -0.731543 1.502294 -0.004191 0.005919 109123.000000 0 0 1
22.390606 -18.795311 2.986246 29.385721 -0.698325 1.468998 -0.002806 0.008249 -545805.000000 0 0 1
22.326806 -17.374211 2.395046 28.391649 -0.661292 1.486339 -0.009873 0.013812 406834.000000 0 0 1
20.997606 -17.075511 1.990446 27.137325 -0.682745 1.497383 -0.002192 0.013888 160444.000000 0 0 1
21.061506 -15.696411 1.539546 26.312251 -0.640464 1.512252 -0.000548 0.013036 -627185.000000 0 0 1
19.846306 -15.042111 0.936446 24.920231 -0.648557 1.533210 -0.010924 0.011010 -549423.000000 0 1 0
18.760706 -14.899111 1.866546 24.029806 -0.671173 1.493042 -0.001902 0.004985 601228.000000 0 1 0
17.846006 -13.887511 1.517946 22.663783 -0.661297 1.503769 0.000430 0.003171 -402970.000000 0 1 0
18.283406 -12.406711 1.873446 22.174743 -0.596203 1.486210 0.006578 0.003396 -1007290.000000 0 1 0
19.337006 -11.959711 1.097746 22.763118 -0.553903 1.522553 0.001342 0.011065 -204754.000000 0 1 0
19.809506 -10.727411 1.611646 22.585200 -0.496316 1.499377 0.002915 0.003813 -329068.000000 0 1 0
20.655306 -9.857811 0.700146 22.897779 -0.445285 1.540215 0.004046 0.006472 -402798.000000 0 1 0
19.988906 -9.426811 -0.456554 22.104967 -0.440672 1.591452 0.007485 0.006387 194283.000000 0 1 0
20.922606 -8.834111 -1.308354 22.748818 -0.399520 1.628341 0.013098 0.001897 -43811.200000 0 1 0
20.312606 -8.532011 -2.742154 22.201725 -0.397658 1.694623 0.023996 -0.000802 490250.000000 0 1 0
21.259206 -7.887911 -3.618454 22.962277 -0.355290 1.729038 0.022272 -0.000928 981090.000000 0 1 0
22.195706 -8.734511 -4.286854 24.234648 -0.374910 1.748622 0.015824 0.002570 -176792.000000 0 1 0
21.653506 -9.761611 -5.375354 24.352778 -0.423527 1.793358 -0.003013 0.004122 -140207.000000 0 1 0
21.038806 -9.198911 -6.556154 23.879583 -0.412188 1.848919 -0.006450 -0.007686 1931490.000000 0 1 0
19.602106 -8.969811 -6.452254 22.501814 -0.429151 1.861622 -0.013700 -0.000281 1480890.000000 0 1 0
18.813506 -9.285111 -7.792654 22.380499 -0.458462 1.926435 -0.016302 0.006600 -18143.100000 0 1 0
18.890406 -10.561611 -8.395854 23.213906 -0.509802 1.940859 -0.010225 0.005446 498099.000000 0 1 0
20.073806 -10.830911 -9.117554 24.564122 -0.494788 1.951069 -0.011338 0.000357 -238683.000000 0 1 0
20.073006 -12.186011 -9.791954 25.442225 -0.545612 1.965864 -0.011077 -0.001859 -525480.000000 0 0 1
19.115706 -12.271111 -10.807454 25.155346 -0.570687 2.014878 -0.004297 -0.004756 100478.000000 0 0 1
19.113006 -13.588411 -11.286554 26.025722 -0.618038 2.019357 -0.014817 -0.005202 -978033.000000 0 0 1
17.881006 -13.887811 -12.096854 25.669740 -0.660359 2.061503 0.006480 -0.009166 -807234.000000 0 0 1
17.660106 -15.257011 -12.196254 26.332572 -0.712523 2.052356 0.003789 -0.006586 -157941.000000 0 0 1
16.615506 -15.405711 -13.110354 26.178089 -0.747635 2.095335 0.007011 -0.009335 -612709.000000 0 0 1
16.482906 -16.883911 -13.620954 27.244872 -0.797416 2.094332 0.003284 -0.006594 -51106.000000 0 0 1
15.911006 -17.828211 -12.677654 27.050474 -0.842161 2.058577 0.007162 -0.008134 505473.000000 0 0 1
16.116306 -19.114711 -13.143054 28.246192 -0.870301 2.054774 0.009120 -0.008647 -318979.000000 0 0 1
15.306506 -20.107611 -12.261354 28.088182 -0.920147 2.022535 0.016051 -0.006319 878567.000000 0 0 1
13.922806 -19.925111 -12.597354 27.377873 -0.960905 2.048937 0.012672 -0.007965 350808.000000 0 0 1
13.042206 -20.750211 -11.879354 27.235812 -1.009660 2.022131 0.000962 -0.006515 364704.000000 0 0 1
11.543606 -20.494411 -12.172454 26.484795 -1.057833 2.048343 0.006868 -0.008639 414315.000000 0 0 1
10.649506 -21.309211 -11.423354 26.419453 -1.107340 2.017932 -0.003107 -0.006765 -127535.000000 0 0 1
9.317606 -20.987311 -11.789354 25.812282 -1.152973 2.045117 -0.001396 -0.006904 370871.000000 0 0 1
8.358006 -21.603511 -10.721554 25.524884 -1.201650 2.004289 -0.001965 -0.006444 -460005.000000 0 0 1
8.304406 -22.997511 -10.827854 26.741187 -1.224267 1.987680 0.017973 -0.006973 -172848.000000 0 0 1
7.471606 -23.537411 -9.816954 26.574559 -1.263422 1.949172 0.015953 -0.012966 52522.800000 0 0 1
7.504706 -25.063711 -9.719854 27.910317 -1.279867 1.926503 0.018648 -0.014335 947793.000000 0 0 1
8.817906 -25.552801 -9.412954 28.623501 -1.238506 1.905886 0.009748 -0.010214 268680.000000 0 0 1
8.945906 -26.941461 -9.565354 29.956094 -1.250201 1.895800 0.011719 -0.005589 408096.000000 0 0 1
10.387806 -27.515291 -9.436454 30.887610 -1.209811 1.881270 0.008823 -0.000355 430324.000000 0 0 1
10.654706 -27.579491 -8.049854 30.642311 -1.202132 1.836620 0.008867 -0.007984 696316.000000 0 0 1
11.997006 -28.018991 -7.750554 31.449374 -1.166240 1.819807 -0.005510 0.001482 283418.000000 0 0 1
12.247606 -28.102131 -6.251254 31.285968 -1.159793 1.771960 -0.005780 -0.006642 -17833.300000 0 0 1
11.695206 -29.221441 -5.581854 31.966038 -1.190094 1.746314 0.001526 -0.002434 923635.000000 0 0 1
10.262806 -29.373091 -5.655254 31.624130 -1.234661 1.750591 0.008399 -0.008625 614837.000000 0 0 1
9.766806 -30.550181 -4.805954 32.431486 -1.261368 1.719532 0.020462 -0.006843 -53206.700000 0 0 1
10.143506 -31.823121 -5.304754 33.819257 -1.262231 1.728303 0.017333 -0.005717 -144678.000000 0 0 1
9.259906 -32.361511 -6.271254 34.239479 -1.292104 1.754995 0.018846 -0.004211 -6679.500000 0 0 1
9.417606 -33.864731 -6.474154 35.741097 -1.299555 1.752942 0.013074 -0.005729 -529640.000000 0 0 1
8.953406 -34.680134 -5.407154 36.223094 -1.318142 1.720630 0.011948 -0.003288 82296.200000 0 0 1
9.335206 33.469737 -5.575554 35.191706 1.298794 1.729900 0.008674 0.002384 -265089.000000 0 0 1
8.800206 32.557027 -4.486154 34.022481 1.306804 1.703040 0.005471 0.013248 -1002540.000000 0 0 1
7.496506 32.196037 -4.718754 33.392350 1.342033 1.712583 0.000437 0.012483 -1796380.000000 0 0 1
7.013406 31.450887 -3.680854 32.432929 1.351391 1.684533 -0.005243 0.005318 -429649.000000 0 0 1
5.574006 30.931317 -3.794854 31.657809 1.392504 1.690956 -0.001209 -0.001075 -257254.000000 0 0 1
5.361306 30.046287 -4.863454 30.905925 1.394220 1.728816 0.001145 0.001286 -79700.000000 0 0 1
5.128906 30.724937 -6.063154 31.734670 1.405392 1.763036 -0.012051 -0.000243 -949871.000000 0 0 1
5.347806 29.862797 -7.331554 31.211174 1.393595 1.807914 -0.011661 -0.004925 169335.000000 0 0 1
4.525706 28.701467 -7.625654 30.040087 1.414402 1.827454 -0.010719 -0.007346 227085.000000 0 0 1
4.908106 27.581127 -6.836554 28.836549 1.394688 1.810155 -0.010904 -0.001468 -520183.000000 0 0 1
4.133406 26.293857 -7.076554 27.541416 1.414872 1.830653 -0.012324 0.000406 1905090.000000 0 0 1
2.702406 26.309207 -6.706954 27.284806 1.468438 1.819154 -0.007161 -0.002521 1007000.000000 0 0 1
1.790006 26.827137 -7.557854 27.928849 1.504171 1.844824 0.001606 -0.003410 -1055830.000000 0 0 1
1.409006 26.065967 -8.868954 27.569518 1.516794 1.898315 0.002428 -0.004112 -72475.100000 0 0 1
2.339206 26.046857 -9.979654 27.991144 1.481229 1.935346 -0.008224 -0.006950 252432.000000 0 0 1
1.840906 25.490287 -11.212354 27.908074 1.498702 1.984235 -0.004737 0.001074 -244121.000000 0 0 1
1.688806 23.945397 -11.270954 26.519211 1.500386 2.009770 -0.004725 0.009402 -528836.000000 0 0 1
0.712506 23.405997 -10.455954 25.645182 1.540365 1.990748 0.003682 0.008576 -712781.000000 0 0 1
0.871306 21.997997 -10.466054 24.376410 1.531209 2.014571 -0.010161 0.009467 72500.700000 0 1 0
-0.068094 21.197797 -9.487654 23.224272 -1.567584 1.991632 0.010158 0.005336 70875.200000 0 1 0
-1.377794 21.074197 -9.978454 23.357861 -1.505511 2.012189 0.019807 0.000982 -543050.000000 0 1 0
-2.171794 20.187797 -9.197654 22.290372 -1.463629 1.996135 0.023581 -0.006192 -134870.000000 0 1 0
-3.581394 20.218097 -9.807754 22.754997 -1.395477 2.016414 0.011584 -0.008340 -629867.000000 0 1 0
-4.479094 19.382797 -9.130454 21.888817 -1.343697 2.001080 0.005234 -0.014331 -370576.000000 0 1 0
-5.633894 19.316197 -9.941554 22.443056 -1.287002 2.029703 0.003464 -0.005445 -740235.000000 0 1 0
-6.648794 18.214297 -9.566954 21.621603 -1.220794 2.029150 0.012581 -0.003311 -358451.000000 0 1 0
-7.526694 18.561497 -8.528454 21.769585 -1.185557 1.973340 0.016155 -0.004508 416847.000000 0 1 0
-8.737294 19.101497 -9.083154 22.884737 -1.141794 1.978943 0.013827 -0.000696 494627.000000 0 1 0
-9.881794 19.334097 -8.037454 23.152923 -1.098303 1.925323 0.018860 0.000128 450785.000000 0 1 0
-10.268894 18.123897 -7.452754 22.123955 -1.055302 1.914380 0.018689 -0.002010 -523418.000000 0 1 0
-11.108594 18.392897 -6.354154 22.407026 -1.027469 1.858320 0.019619 -0.002697 -489434.000000 0 1 0
-11.611194 17.140597 -5.714954 21.477444 -0.975394 1.840132 0.006914 -0.008266 -502310.000000 0 1 0
-12.540994 17.407897 -4.705354 21.964785 -0.946497 1.786692 0.012982 -0.007885 -426943.000000 0 1 0
-12.961394 16.287297 -4.024354 21.200689 -0.898623 1.761777 0.011193 -0.008044 -33942.200000 0 1 0
-14.233994 16.667697 -3.211954 22.152548 -0.863992 1.716302 0.010784 -0.006998 -227599.000000 0 1 0
-15.331694 16.902297 -4.033654 23.173668 -0.834085 1.745749 0.023045 -0.013127 -213214.000000 0 1 0
-16.461294 17.334797 -3.274554 24.128658 -0.811239 1.706929 0.020133 -0.010445 342911.000000 0 1 0
-17.713394 17.519497 -4.161954 25.259038 -0.779895 1.736322 0.019748 -0.013583 -22286.900000 0 0 1
-17.502894 18.444297 -5.195754 25.952635 -0.811581 1.772360 0.016009 -0.010351 227505.000000 0 0 1
-18.796194 18.691597 -5.720354 27.118171 -0.782608 1.783335 0.012853 -0.005809 394389.000000 0 0 1
-18.803694 19.621797 -6.894754 28.038036 -0.806686 1.819252 0.016233 0.002438 -132210.000000 0 0 1
-18.495894 20.959097 -6.545654 28.709362 -0.847748 1.800817 0.008755 -0.000938 19822.200000 0 0 1
-18.272994 21.723397 -7.720354 29.417889 -0.871453 1.836344 -0.005948 0.007266 93113.900000 0 0 1
-18.248294 23.208997 -7.345454 30.423897 -0.904490 1.814643 -0.013066 0.009293 500036.000000 0 0 1
-17.154694 23.587597 -6.494854 29.880452 -0.941998 1.789907 0.002661 0.007456 447988.000000 0 0 1
-17.302594 24.895557 -6.003354 30.906453 -0.963429 1.766282 -0.012156 0.008512 -49810.000000 0 0 1
-16.028994 25.233947 -5.209054 30.344934 -1.004885 1.743312 0.002910 0.010673 -89038.500000 0 0 1
-16.074594 26.423977 -4.484254 31.252643 -1.024272 1.714777 -0.002386 0.007292 -14590.800000 0 0 1
-14.869994 26.815287 -3.829354 30.900491 -1.064479 1.695041 -0.004987 0.007577 715115.000000 0 0 1
-14.095294 27.970017 -4.580254 31.654035 -1.103999 1.716003 0.005883 0.005928 305498.000000 0 0 1
-14.804394 29.173007 -4.504354 33.023078 -1.101191 1.707623 0.001842 0.001519 -388797.000000 0 0 1
-14.064494 30.185987 -5.086254 33.687888 -1.134776 1.722358 0.008296 -0.000902 -340972.000000 0 0 1
-14.606494 31.581437 -4.689154 35.110184 -1.137594 1.704752 0.010505 -0.015350 -617619.000000 0 0 1
-15.779994 31.915117 -5.354154 36.003471 -1.111610 1.720062 0.004921 -0.002627 -682598.000000 0 0 1
-16.227194 33.087427 -4.767454 37.159498 -1.114831 1.699448 0.004358 -0.010700 -456693.000000 0 0 1
12.726718 -8.737411 18.612153 24.181066 -0.601636 0.692426 0.006657 0.010123 -319748.000000 0 1 0
12.924118 -10.034011 19.192953 25.220699 -0.660171 0.705943 0.005559 0.009008 108283.000000 0 0 1
13.424918 -10.968111 18.254553 25.174523 -0.685019 0.759588 0.006624 0.011415 -103367.000000 0 0 1
13.696918 -12.360411 18.791453 26.334465 -0.734152 0.776217 0.006152 0.007755 -304491.000000 0 0 1
14.758318 -12.367611 19.726653 27.566404 -0.697492 0.773307 0.000000 0.006066 246407.000000 0 0 1
14.779118 -13.586811 20.514553 28.703147 -0.743390 0.774581 0.003451 0.001866 -151443.000000 0 0 1
15.398518 -14.828211 19.769953 29.117714 -0.766533 0.824442 0.006625 0.008210 -576290.000000 0 0 1
14.757218 -15.136311 18.572253 28.139154 -0.798079 0.849958 0.008548 0.002713 75466.100000 0 0 1
14.858718 -16.528911 18.243153 28.754114 -0.838560 0.883495 0.013427 0.004036 -834953.000000 0 0 1
14.300018 -16.828211 16.843553 27.773810 -0.866439 0.919202 0.009399 -0.002200 -208077.000000 0 0 1
12.949318 -16.393211 16.780253 26.795506 -0.902232 0.894083 0.015703 0.000331 38176.100000 0 0 1
12.342118 -16.280011 15.508653 25.649268 -0.922122 0.921479 0.012151 -0.001966 -9692.950000 0 0 1
11.816518 -17.599611 14.848553 25.881576 -0.979519 0.959766 0.002776 -0.000392 -400017.000000 0 0 1
12.778218 -18.565711 14.530853 26.816305 -0.967986 0.998140 -0.002537 -0.001091 -324687.000000 0 0 1
12.156318 -19.775611 14.216153 27.220395 -1.019629 1.021296 0.003334 -0.006292 -127367.000000 0 0 1
13.004418 -20.777411 13.421253 27.945407 -1.011556 1.069837 0.006390 -0.003940 219155.000000 0 0 1
14.092118 -21.370811 14.125153 29.237293 -0.987835 1.066580 0.017969 -0.010114 169561.000000 0 0 1
14.518118 -22.561311 13.534253 30.049368 -0.999007 1.103582 0.011568 -0.005854 -121781.000000 0 0 1
15.278118 -23.415411 14.572553 31.528744 -0.992679 1.090323 0.017918 -0.002873 602787.000000 0 0 1
16.606918 -22.948411 14.836953 31.977406 -0.944365 1.088311 0.000627 0.005003 390898.000000 0 0 1
17.096418 -23.611211 15.995053 33.250843 -0.944091 1.068953 0.010737 0.006285 -57132.300000 0 0 1
18.568918 -23.276911 16.306553 33.948829 -0.897435 1.069768 -0.006066 0.010783 -205445.000000 0 0 1
19.450318 -23.907011 15.450053 34.475560 -0.887828 1.106107 -0.006868 0.003740 -203496.000000 0 0 1
20.787418 -23.455611 15.654953 35.033698 -0.845633 1.107551 -0.013721 0.011801 1048790.000000 0 0 1
21.954718 -24.242411 14.982653 35.974770 -0.834878 1.141230 -0.018047 0.008951 434654.000000 0 0 1
22.191318 -25.414871 15.637353 37.187325 -0.853008 1.136798 -0.017628 0.011093 703069.000000 0 0 1
23.333618 -26.125291 15.099453 38.144227 -0.841783 1.163801 -0.019936 0.005087 659460.000000 0 0 1
23.782818 -27.342381 15.978553 39.604828 -0.854910 1.155513 -0.020499 -0.000204 -590031.000000 0 0 1
24.271218 -26.761121 17.164653 39.998437 -0.834150 1.127264 -0.022743 0.012200 -40240.900000 0 0 1
24.574718 -27.770061 18.122453 41.273677 -0.846367 1.116222 -0.010626 0.014410 -38020.700000 0 0 1
24.917918 -27.125491 19.491253 41.672579 -0.827791 1.084083 -0.010737 0.007457 -421153.000000 0 0 1
23.831518 -26.700481 20.264053 41.127713 -0.842112 1.055595 -0.013352 0.014958 -226825.000000 0 0 1
24.212618 -26.602431 21.603653 41.960196 -0.832393 1.029951 -0.005174 0.018521 -289425.000000 0 0 1
23.031118 -26.486931 22.573953 41.732161 -0.855074 0.999260 -0.007746 0.007493 -172928.000000 0 0 1
22.416118 -27.731341 22.811853 42.330725 -0.890996 1.001671 -0.006686 0.007437 105843.000000 0 0 1
21.350118 -27.744311 23.754953 42.306881 -0.914912 0.974609 -0.001575 0.006713 64364.800000 0 0 1
20.571118 -29.056591 23.603353 42.715041 -0.954743 0.985343 0.001714 0.006110 -673764.000000 0 0 1
21.276718 -30.104461 24.186953 44.090657 -0.955546 0.990140 0.006849 0.003178 189272.000000 0 0 1
20.950818 -31.391671 23.782953 44.609446 -0.982286 1.008492 0.012599 -0.000376 -817231.000000 0 0 1
21.919818 -32.392311 24.377933 46.087134 -0.975881 1.013430 0.018222 0.005999 -256064.000000 0 0 1
21.733018 -32.505521 25.824173 46.859587 -0.981460 0.987118 0.012147 0.006364 -154714.000000 0 0 1
22.894718 -32.975531 26.428933 48.062899 -0.963910 0.988573 0.009395 0.001325 -829105.000000 0 0 1
22.657318 -33.319201 27.897123 49.007884 -0.973614 0.965218 0.011279 -0.001431 266070.000000 0 0 1
21.976218 -34.549163 28.109613 49.666379 -1.004265 0.969189 0.010428 0.006506 368311.000000 0 0 1
20.601818 -34.679672 27.805063 48.992205 -1.034756 0.967281 0.009055 0.007914 -360385.000000 0 0 1
20.014118 33.464962 28.275443 48.166060 1.031803 0.943398 0.004626 0.000779 -168461.000000 0 0 1
19.647018 33.490420 29.627183 48.840389 1.040254 0.919004 -0.025273 0.009030 22839.500000 0 0 1
19.272418 32.152757 30.011403 48.019894 1.030817 0.895692 -0.024310 0.010282 -111776.000000 0 0 1
19.004018 32.102907 31.547773 48.857050 1.036301 0.868836 -0.025752 0.008063 -20878.100000 0 0 1
20.166318 32.482917 32.248923 50.018130 1.015202 0.870107 -0.030671 0.005042 40251.800000 0 0 1
19.918818 32.661267 33.582472 50.904815 1.023158 0.850362 -0.033809 0.000243 144798.000000 0 0 1
21.229618 32.842237 34.437126 52.107820 0.996948 0.848803 -0.032397 0.006438 750992.000000 0 0 1
21.746818 31.491047 -34.679457 51.645667 0.966426 2.307012 -0.033868 0.013000 -21141.600000 0 0 1
22.766618 31.491107 -33.697584 51.434773 0.944831 2.285180 -0.030008 0.011565 -106829.000000 0 0 1
23.188218 30.078217 -33.270424 50.490729 0.914034 2.290207 -0.016815 0.003572 -485918.000000 0 0 1
23.903818 29.362867 -34.203635 51.024104 0.887527 2.305467 -0.009983 0.005031 45545.400000 0 0 1
23.064418 28.385647 34.577439 50.332014 0.888457 0.813462 -0.014114 -0.000198 -427407.000000 0 0 1
23.439618 28.064057 33.127003 49.339694 0.874947 0.834691 -0.000434 -0.002100 456487.000000 0 0 1
24.615818 27.294067 32.833083 49.284034 0.836947 0.841693 0.002884 -0.006126 891849.000000 0 0 1
24.313418 26.177917 32.003173 47.964870 0.822309 0.840325 0.006734 -0.002605 -672559.000000 0 0 1
25.422318 25.102097 31.903113 47.897998 0.779060 0.841877 0.013864 0.004031 -28992.900000 0 0 1
25.685318 24.304497 33.097823 48.434596 0.757783 0.818454 0.021405 -0.003205 543757.000000 0 0 1
26.274218 25.118597 34.129887 49.861084 0.762916 0.816879 0.019599 -0.006451 -1118030.000000 0 0 1
26.245618 24.460457 -33.844374 49.321274 0.750207 2.327052 0.019251 -0.008024 1069510.000000 0 0 1
24.983218 24.575387 -33.120804 48.219275 0.777169 2.327982 0.005049 0.002728 2251060.000000 0 0 1
23.771818 23.908497 -33.538754 47.555900 0.788265 2.353571 0.005233 -0.002347 772196.000000 0 0 1
23.750918 22.383297 -33.473384 46.750247 0.755762 2.368858 0.000876 -0.002367 -461528.000000 0 0 1
23.616318 21.860197 -32.171834 45.504128 0.746801 2.356056 -0.008493 -0.010930 304939.000000 0 0 1
23.631918 20.441797 -32.255314 44.908128 0.713143 2.372082 -0.006037 -0.009032 -275670.000000 0 0 1
23.420718 19.672297 -30.939214 43.505911 0.698632 2.361928 -0.008117 -0.011066 -518032.000000 0 0 1
22.148218 19.764297 -30.368324 42.466529 0.728581 2.367581 -0.005827 -0.012124 -114414.000000 0 0 1
22.158918 18.989897 -29.180134 41.268803 0.708536 2.356149 -0.007426 -0.011236 -13772.000000 0 0 1
20.852118 19.138297 -28.357894 40.065639 0.742569 2.357155 -0.001074 -0.022198 -12644.500000 0 0 1
20.848618 18.625897 -27.044874 38.897483 0.729150 2.339614 0.000103 -0.021115 -108539.000000 0 0 1
21.476018 19.436597 -26.067224 38.967946 0.735591 2.303578 -0.000162 -0.010926 -187.204000 0 0 1
21.638918 18.712997 -24.714354 37.805004 0.713015 2.283303 0.004325 -0.009495 -277159.000000 0 0 1
22.573718 17.702597 -24.854054 37.956274 0.665040 2.284724 0.008736 -0.012458 -263946.000000 0 0 1
22.444618 16.801197 -23.744254 36.740042 0.642580 2.273492 0.020554 -0.010196 -240868.000000 0 0 1
23.401818 15.574297 -23.815054 36.842376 0.587206 2.273658 0.020697 -0.013175 -356193.000000 0 0 1
24.752318 15.965197 -23.671754 37.787785 0.572851 2.247773 0.013151 -0.011598 290511.000000 0 0 1
25.683918 14.874897 -23.572754 37.902519 0.524949 2.242003 0.007209 -0.015174 242837.000000 0 0 1
25.601418 13.953497 -22.327754 36.724124 0.499018 2.224318 0.018073 -0.013046 -689838.000000 0 0 1
24.410218 13.188397 -22.306654 35.600272 0.495351 2.247962 0.026614 -0.013386 52922.400000 0 0 1
24.314618 12.458997 -21.138154 34.543434 0.473524 2.229294 0.021651 -0.009567 -353191.000000 0 0 1
22.881418 11.895597 -21.081854 33.309295 0.479425 2.256105 0.016223 -0.007394 -37540.300000 0 0 1
22.011918 12.988297 -20.861054 32.990968 0.533077 2.255349 0.026867 -0.009329 -426612.000000 0 0 1
20.670518 12.669797 -21.168854 32.185625 0.549880 2.288573 0.027070 -0.007052 31359.300000 0 0 1
19.735918 13.860797 -20.919254 31.925591 0.612277 2.285310 0.027599 -0.008857 -454496.000000 0 0 1
20.156718 14.923097 -21.759154 33.203206 0.637299 2.285420 0.020451 -0.013003 769605.000000 0 0 1
19.270418 16.072197 -21.658754 33.147642 0.695152 2.282867 0.016669 -0.019378 176618.000000 0 0 1
18.045018 16.039297 -22.587954 33.062024 0.726620 2.322931 0.013301 -0.012706 -242840.000000 0 0 1
17.024518 15.237497 -22.030154 31.738671 0.730064 2.337980 0.005845 -0.015790 162978.000000 0 0 1
15.900818 15.138797 -22.888654 31.716079 0.760853 2.377013 0.005205 -0.019384 578180.000000 0 0 1
14.679418 14.306397 -22.351054 30.327017 0.772530 2.399419 -0.013817 -0.013323 641147.000000 0 0 1
13.614018 14.503897 -23.264854 30.609769 0.817036 2.434181 -0.006317 -0.011750 -907208.000000 0 0 1
12.512218 13.708197 -22.965754 29.527887 0.830979 2.461898 -0.001662 -0.004081 -460192.000000 0 0 1
11.372018 14.022297 -23.961454 30.001648 0.889387 2.495880 -0.002746 0.001008 -597409.000000 0 0 1
10.845618 15.259697 -23.695054 30.198367 0.952901 2.472923 0.001206 0.003506 -217369.000000 0 0 1
10.223418 15.746997 -24.880254 31.169107 0.994963 2.495155 0.010722 -0.009769 -1001280.000000 0 0 1
10.192518 17.297597 -24.900454 31.986355 1.038323 2.463023 0.005094 -0.001753 -62935.700000 0 0 1
11.409418 18.025697 -24.679554 32.621787 1.006498 2.428796 0.003293 -0.003901 1102270.000000 0 0 1
12.550618 17.669497 -25.499314 33.465567 0.953192 2.437125 0.003220 -0.013983 219979.000000 0 0 1
12.341718 17.808797 -27.029134 34.641671 0.964775 2.465860 0.013415 -0.023207 -784946.000000 0 0 1
13.460218 17.506197 -27.830434 35.527137 0.915319 2.470845 0.007486 -0.026837 -120705.000000 0 0 1
13.008618 17.473797 -29.188004 36.421111 0.930847 2.500434 0.013375 -0.028173 451518.000000 0 0 1
14.058118 17.621097 -30.379754 37.829396 0.897398 2.503230 0.010245 -0.025492 674539.000000 0 0 1
14.982118 16.539597 -30.529194 37.816053 0.834768 2.510372 -0.006358 -0.024123 92467.900000 0 0 1
15.879218 16.773097 -31.572464 39.119137 0.812767 2.509994 -0.011546 -0.017169 -373525.000000 0 0 1
17.171118 15.938497 -31.615534 39.350032 0.748187 2.503853 -0.000080 -0.012686 -493180.000000 0 0 1
18.072018 16.432797 -30.637994 39.183177 0.737927 2.468531 -0.001365 -0.017857 576971.000000 0 0 1
19.337418 15.760097 -30.639074 39.510369 0.683824 2.458254 -0.010799 -0.010657 796159.000000 0 0 1
20.472318 16.514597 -31.368004 40.936529 0.678800 2.443796 -0.004345 -0.013727 -235213.000000 0 0 1
20.089518 16.744997 -32.721664 41.889032 0.694848 2.467304 -0.012813 -0.009385 609871.000000 0 0 1
21.168518 17.432397 -33.362494 43.186232 0.688910 2.453606 -0.005462 -0.009806 338101.000000 0 0 1
20.934318 17.833997 34.550320 44.159051 0.705598 0.672276 -0.004008 0.003420 -226075.000000 0 0 1
21.942718 18.700597 34.075325 44.635446 0.705797 0.702214 -0.004896 0.003252 71420.400000 0 0 1
21.851118 18.933997 32.648903 43.610991 0.713996 0.724789 0.004865 0.002872 -671115.000000 0 0 1
22.680118 20.154497 32.194863 44.239131 0.726504 0.755766 0.011352 0.000640 -556300.000000 0 0 1
24.043918 19.836497 32.270843 44.866513 0.689807 0.768055 0.010340 -0.007918 -713170.000000 0 0 1
24.748018 21.061897 32.309103 45.825169 0.705106 0.788301 0.014862 -0.012011 -918741.000000 0 0 1
26.241518 20.928497 32.175273 46.495887 0.673235 0.806537 0.010153 -0.013907 -813589.000000 0 0 1
26.893518 20.136497 33.162633 47.206992 0.642700 0.791900 0.010187 -0.018553 -261875.000000 0 0 1
28.279518 20.065297 32.959073 47.839814 0.617096 0.810762 0.009165 -0.019592 -388463.000000 0 0 1
29.087318 19.560697 34.133676 48.926484 0.592018 0.798681 0.016594 -0.022625 -268616.000000 0 0 1
28.982018 20.326197 -34.082271 49.139728 0.611624 2.337241 0.010133 -0.016791 193171.000000 0 0 1
28.094118 19.820597 -33.085924 47.715971 0.614412 2.336984 0.005406 -0.012705 -144314.000000 0 0 1
28.326518 20.368797 -31.694494 47.136191 0.623411 2.308246 0.003605 -0.003455 617263.000000 0 0 1
29.555118 19.758697 -31.249464 47.333288 0.589297 2.291882 0.003325 -0.007703 715349.000000 0 0 1
30.021318 20.353897 -30.028104 47.087660 0.595795 2.262313 0.002199 0.006621 218428.000000 0 0 1
31.477718 19.911497 -29.725024 47.653872 0.564016 2.244352 -0.004505 0.015414 282634.000000 0 0 1
32.447518 20.503897 -30.561044 49.063517 0.563553 2.243224 -0.000376 0.002927 -103965.000000 0 0 1
33.734918 20.413397 -29.994604 49.542182 0.544170 2.221109 -0.005902 0.013886 312767.000000 0 0 1
34.792218 21.306797 -30.741684 51.083551 0.549488 2.216540 0.000518 0.002150 167249.000000 0 0 1
-34.260869 20.773997 -31.893874 51.211183 -0.545074 2.243102 0.013606 -0.002409 369904.000000 0 0 1
-33.235569 21.651597 -32.426384 51.233437 -0.577400 2.256108 0.018994 -0.002027 724482.000000 0 0 1
-32.401569 20.846597 -33.487474 51.047558 -0.571709 2.286310 0.016514 -0.001050 198604.000000 0 0 1
-31.609069 19.839797 -32.855164 49.721350 -0.560511 2.292662 0.017979 0.003239 610890.000000 0 0 1
-30.793469 19.175397 -33.844344 49.612228 -0.556951 2.321533 0.013177 0.003927 537798.000000 0 0 1
-30.213469 17.796097 -33.385564 48.416430 -0.532301 2.331664 0.004181 0.011908 -129860.000000 0 0 1
-31.250669 16.876197 -33.295264 48.682491 -0.495154 2.323928 0.011731 0.008738 -171293.000000 0 0 1
-30.813769 15.563697 -33.716854 48.254982 -0.467711 2.344407 -0.003126 0.015157 67729.000000 0 0 1
-31.861369 14.425297 -33.814644 48.648393 -0.425140 2.339331 0.005227 0.014089 -93853.500000 0 0 1
-31.200069 13.194097 -33.930564 47.945925 -0.400079 2.357011 0.002883 0.012840 542332.000000 0 0 1
-32.186269 12.208497 -34.251846 48.561222 -0.362542 2.353690 0.002641 0.010695 107296.000000 0 0 1
-31.852869 10.726697 -34.180137 47.936928 -0.324829 2.364597 0.001358 0.006241 -34606.900000 0 0 1
-31.052669 10.325297 34.058607 47.232073 -0.321009 0.765421 -0.001049 0.006366 413507.000000 0 0 1
-31.316469 8.976997 33.694853 46.868442 -0.279168 0.768543 0.010123 -0.004610 -280686.000000 0 0 1
-30.420269 8.495597 32.544823 45.351223 -0.272336 0.770421 0.016447 -0.003980 380243.000000 0 0 1
-29.138069 8.106597 33.053883 44.802937 -0.271351 0.741048 0.011302 0.003018 155577.000000 0 0 1
-28.375069 7.697397 31.937713 43.409814 -0.264898 0.744059 0.016586 -0.007717 -375484.000000 0 0 1
19.566918 -4.501911 -31.874844 37.671437 -0.226142 2.579474 0.004189 -0.007925 -242786.000000 0 0 1
20.742418 -4.673111 -32.642914 38.956973 -0.221593 2.564261 0.000496 -0.011724 623061.000000 0 0 1
21.767618 -3.690111 -32.303224 39.127285 -0.167926 2.542049 -0.008613 -0.009331 401652.000000 0 0 1
21.623618 -2.157911 -32.503064 39.098422 -0.099465 2.552264 -0.003863 -0.001218 -760280.000000 0 0 1
22.657118 -1.347911 -31.968764 39.206680 -0.059422 2.524200 -0.006743 -0.000870 229265.000000 0 0 1
22.464118 0.021489 -32.326354 39.365343 0.000957 2.534286 -0.003321 0.003295 -9641.740000 0 0 1
23.575618 0.942489 -31.743104 39.551520 0.039956 2.502397 -0.013064 0.008467 677824.000000 0 0 1
24.850418 0.766189 -32.342694 40.794365 0.030822 2.486223 -0.020336 0.007868 394382.000000 0 0 1
25.888418 1.518589 -31.705794 40.960636 0.058592 2.456018 -0.021511 0.003689 237753.000000 0 0 1
27.263618 1.381689 -32.363124 42.338939 0.050636 2.440879 -0.016673 0.003498 -465573.000000 0 0 1
27.399618 2.077189 -33.599844 43.405107 0.075666 2.456087 -0.009829 0.000361 -148792.000000 0 0 1
28.045218 1.334089 -34.591512 44.552068 0.047533 2.459776 -0.013158 -0.000606 -405523.000000 0 0 1
28.552418 2.133789 33.523401 44.086416 0.074594 0.706864 0.001533 -0.002355 -122106.000000 0 0 1
27.672118 2.831489 32.643163 42.887522 0.101968 0.705736 0.001016 0.002593 107872.000000 0 0 1
27.667418 4.208889 32.919833 43.207826 0.150967 0.704562 0.000658 0.004990 -162403.000000 0 0 1
26.885118 5.109889 31.971583 42.084471 0.187824 0.707944 0.008989 0.013022 -327316.000000 0 0 1
27.212018 6.432989 32.171913 42.625219 0.232141 0.715504 0.016947 0.007448 -193282.000000 0 0 1
26.436318 7.285389 31.415783 41.700207 0.268908 0.717621 0.002957 0.011520 -527569.000000 0 0 1
26.643518 8.778889 31.772563 42.384451 0.318291 0.723297 0.005903 0.002911 497582.000000 0 0 1
27.904118 9.285089 31.347693 42.982910 0.321225 0.753489 0.006959 -0.003830 203285.000000 0 0 1
28.064818 10.667089 31.620123 43.603360 0.363224 0.759506 0.000801 -0.002967 -837037.000000 0 0 1
29.326818 11.301989 31.087213 44.206471 0.367840 0.790869 0.005663 0.002870 -584087.000000 0 0 1
30.421518 10.837089 31.887623 45.384268 0.342215 0.791732 0.003918 -0.006523 716928.000000 0 0 1
31.725318 11.085689 31.369843 45.972333 0.336164 0.819805 0.000995 -0.005479 658577.000000 0 0 1
32.376918 12.461589 31.619453 46.939811 0.367414 0.831705 0.004642 -0.006135 -243488.000000 0 0 1
32.798718 12.816389 32.978843 48.245413 0.372515 0.818161 0.005312 -0.002227 129979.000000 0 0 1
33.269218 14.102589 33.167173 49.048805 0.400933 0.828194 0.007291 -0.002801 329512.000000 0 0 1
32.201318 15.277789 33.228693 48.728655 0.442996 0.820422 0.012309 -0.016455 -671937.000000 0 0 1
31.662818 15.478789 31.976023 47.587740 0.454699 0.833974 0.014914 -0.021803 -3302.780000 0 0 1
30.645318 16.481889 32.015963 47.284353 0.493450 0.826990 0.017556 -0.031190 240990.000000 0 0 1
29.260518 15.891089 32.353683 46.426990 0.497522 0.799769 0.011015 -0.026183 -884204.000000 0 0 1
28.666118 15.247789 31.253833 45.067100 0.488848 0.804467 0.010112 -0.017883 -482553.000000 0 0 1
27.410018 14.691389 31.481613 44.251983 0.492020 0.779284 0.002904 -0.017715 -492956.000000 0 0 1
26.667918 14.272889 30.211063 42.750457 0.491416 0.785996 0.004125 -0.011595 -356154.000000 0 0 1
27.077618 13.122089 29.509643 42.145055 0.451260 0.795130 -0.004750 -0.003369 -150252.000000 0 0 1
26.243518 12.897889 28.391443 40.757230 0.456800 0.800150 -0.002101 -0.004465 -169903.000000 0 0 1
25.867018 11.417589 28.211813 39.942088 0.415676 0.786513 -0.001146 -0.002434 29240.200000 0 0 1
26.893018 10.580389 27.653563 39.998733 0.374826 0.807425 0.002288 0.003912 357927.000000 0 0 1
26.546418 9.206189 27.705773 39.459804 0.333818 0.792417 0.009507 0.007848 1020670.000000 0 0 1
27.788218 8.244089 27.357713 39.857177 0.288404 0.814278 0.008786 0.004279 1055130.000000 0 0 1
28.107918 8.160089 25.973623 39.131461 0.282546 0.844971 0.019472 0.007021 -37899.300000 0 0 1
29.012218 7.086189 25.801033 39.466647 0.239558 0.858276 0.010538 0.010782 -277873.000000 0 0 1
29.751218 7.151289 24.477873 39.184719 0.235894 0.896076 0.020529 0.010332 -36760.000000 0 0 1
30.562218 8.338189 24.352663 39.957812 0.266345 0.915418 0.011031 0.007151 533368.000000 0 0 1
29.880318 9.490289 23.826453 39.377644 0.307533 0.920935 0.015111 0.013069 -143182.000000 0 0 1
29.405118 9.432289 22.376353 38.135682 0.310402 0.943749 0.014089 0.011799 326191.000000 0 0 1
30.418118 9.715989 21.394953 38.437044 0.309172 0.980481 0.002567 0.007056 519264.000000 0 0 1
29.972918 9.638689 20.051453 37.327482 0.311135 1.003710 -0.002262 0.001114 -533118.000000 0 0 1
30.693918 10.670089 19.116653 37.701642 0.334561 1.039037 -0.000744 -0.002667 1115780.000000 0 0 1
32.007218 10.268489 18.696153 38.463619 0.310445 1.063205 0.002143 -0.000347 1675760.000000 0 0 1
33.101518 10.420789 19.646953 39.878642 0.304991 1.055643 0.002531 0.001260 279132.000000 0 0 1
34.450918 9.987789 19.061053 40.619520 0.282178 1.082345 -0.010174 0.001489 -539532.000000 0 0 1
34.492218 8.605189 18.865253 40.245002 0.244491 1.082910 -0.010032 0.005832 336076.000000 0 0 1
-34.328769 8.263489 17.728853 39.510275 -0.236222 1.105469 -0.004341 0.001227 -411333.000000 0 0 1
-34.324269 6.709889 17.396553 39.061722 -0.193051 1.109219 -0.011086 0.004170 -813473.000000 0 0 1
34.057818 6.119389 17.041353 38.571876 0.177780 1.113184 -0.023626 0.006598 -196395.000000 0 0 1
34.339318 4.789289 16.661653 38.467347 0.138576 1.122825 -0.021819 0.005939 346663.000000 0 0 1
33.068018 3.885289 16.526553 37.171444 0.116958 1.110065 -0.026204 0.012315 369542.000000 0 0 1
33.058418 2.916289 17.576053 37.553714 0.087988 1.083742 -0.022797 0.008879 -31966.700000 0 0 1
31.836118 2.223589 17.758553 36.521897 0.069732 1.063010 -0.018048 0.012936 2392.130000 0 0 1
31.805918 1.401189 19.066553 37.109476 0.044026 1.031197 -0.011745 -0.003557 189448.000000 0 0 1
32.575718 0.199789 18.904953 37.664500 0.006133 1.044967 -0.023403 -0.001529 45790.600000 0 0 1
32.607418 -0.474911 20.133053 38.325045 -0.014563 1.017701 -0.021213 -0.001447 293330.000000 0 0 1
33.058218 -1.982611 20.100553 38.740273 -0.059902 1.025286 -0.011732 0.002708 65898.400000 0 0 1
32.438118 -2.752511 21.111153 38.800627 -0.084651 0.995488 0.009616 -0.000813 -159860.000000 0 0 1
32.968518 -4.008211 21.257153 39.431656 -0.120983 1.001442 -0.000840 0.001638 -436605.000000 0 0 1
32.405218 -4.706911 22.487953 39.723560 -0.144243 0.969016 -0.004255 0.001399 -146651.000000 0 0 1
32.808318 -4.100811 23.685653 40.672012 -0.124348 0.949171 -0.009555 0.002426 234505.000000 0 0 1
31.960218 -4.509511 24.732583 40.663152 -0.140172 0.916966 -0.005908 -0.004588 -65864.500000 0 0 1
32.393218 -3.932911 26.084673 41.775574 -0.120820 0.896433 -0.009573 -0.003487 46509.000000 0 0 1
31.524118 -4.226911 27.160733 41.825139 -0.133290 0.864017 -0.000064 -0.001285 -17059.900000 0 0 1
32.166818 -3.802211 28.332333 43.033500 -0.117657 0.852134 0.003696 -0.000782 -338421.000000 0 0 1
31.346518 -3.983211 29.610193 43.303969 -0.126393 0.817872 0.005132 -0.004940 -149676.000000 0 0 1
31.234918 -5.327511 29.879213 43.551922 -0.168937 0.814737 0.000703 -0.006574 -53498.000000 0 0 1
30.388018 -5.566011 30.983293 43.753589 -0.181157 0.783948 0.002466 -0.011274 -67909.100000 0 0 1
30.261318 -7.119211 31.207533 44.049298 -0.231056 0.783471 0.001120 -0.007997 170909.000000 0 0 1
31.473518 -7.610811 31.740803 45.342975 -0.237262 0.795377 0.005946 -0.005145 67045.100000 0 0 1
31.372718 -9.017211 31.792763 45.566845 -0.279878 0.798591 -0.006315 -0.003561 -179572.000000 0 0 1
32.681518 -9.472311 32.422583 47.000321 -0.282107 0.809532 -0.017884 -0.000596 -90371.100000 0 0 1
32.631318 -9.549011 33.847267 47.975244 -0.284685 0.787646 -0.005074 -0.007463 -703877.000000 0 0 1
33.895818 -9.920811 34.246793 49.195445 -0.284733 0.800793 -0.000085 -0.009468 -917998.000000 0 0 1
33.947118 -10.339311 -33.605314 48.873565 -0.295645 2.328971 0.003371 -0.006588 -547105.000000 0 0 1
33.573618 -9.343411 -32.673984 47.771083 -0.271428 2.323987 -0.003796 -0.000830 489312.000000 0 0 1
34.526818 -8.301611 -32.604194 48.208416 -0.235961 2.313548 0.003929 0.004723 -114442.000000 0 0 1
34.098018 -7.156411 -31.672134 47.085169 -0.206875 2.308589 0.003990 0.007339 -203214.000000 0 0 1
34.088418 -7.550411 -30.305524 46.232605 -0.217976 2.285642 -0.005634 0.004558 496766.000000 0 0 1
33.365718 -6.555611 -29.562974 45.057925 -0.194006 2.286449 0.003146 0.000801 58829.900000 0 0 1
33.893318 -6.256111 -28.109204 44.474974 -0.182528 2.254957 0.000130 -0.000202 36454.900000 0 0 1
-34.391969 -5.728111 -28.086174 44.771106 0.165039 2.248914 0.002368 0.000791 -81444.600000 0 0 1
-34.104269 -5.466811 -26.728774 43.673957 0.158945 2.229392 0.003826 -0.000724 134509.000000 0 0 1
-32.683969 -4.905911 -26.509544 42.368216 0.148989 2.246817 0.013723 -0.001355 -698610.000000 0 0 1
-32.511269 -4.447711 -25.144324 41.340075 0.135961 2.224627 0.012436 -0.009250 1153540.000000 0 0 1
-31.133369 -4.293711 -24.733754 39.993514 0.137049 2.237558 0.019582 -0.009700 1230920.000000 0 0 1
-30.211869 -3.253411 -25.426934 39.621594 0.107273 2.267567 0.026759 -0.008302 -242880.000000 0 0 1
-29.880169 -3.620711 -26.775414 40.284697 0.120586 2.297828 0.021979 -0.005957 184353.000000 0 0 1
-28.755969 -2.978511 -27.358944 39.803129 0.103211 2.328640 0.026404 -0.008966 345533.000000 0 0 1
-28.225269 -3.757211 -28.607414 40.362936 0.132337 2.358527 0.021278 -0.008187 -464879.000000 0 0 1
-29.165669 -3.767411 -29.647404 41.758810 0.128461 2.360249 0.030100 -0.003517 -211087.000000 0 0 1
-28.795269 -4.649211 -30.678474 42.331447 0.160076 2.381425 0.023555 0.002360 -1447690.000000 0 0 1
-29.972269 -4.825311 -31.634884 43.845027 0.159623 2.376785 0.015270 0.006427 -707727.000000 0 0 1
-31.029369 -5.639511 -31.141554 44.321803 0.179785 2.349875 0.010848 0.009155 297118.000000 0 0 1
-31.901369 -4.972311 -30.251144 44.244242 0.154621 2.323659 0.012155 0.008506 -806782.000000 0 0 1
-32.911669 -3.953511 -30.891094 45.310792 0.119552 2.320962 0.030251 0.006991 -545993.000000 0 0 1
-32.339769 -2.778111 -31.456794 45.200757 0.085693 2.340518 0.034266 0.003232 93030.000000 0 0 1
-31.896969 -1.680811 -30.638054 44.259825 0.052646 2.335373 0.029338 0.002378 220045.000000 0 0 1
-31.472769 -0.458611 -31.513064 44.540080 0.014571 2.356781 0.037143 0.005741 -231714.000000 0 0 1
-32.568569 0.116989 -32.139814 45.756890 -0.003592 2.349565 0.036615 0.008640 -289582.000000 0 0 1
-32.238869 1.445789 -32.538144 45.827566 -0.044816 2.360312 0.035224 0.011152 665967.000000 0 0 1
-33.534069 2.273389 -32.866604 47.009741 -0.067690 2.344997 0.033736 0.005086 355004.000000 0 0 1
-34.098369 1.860989 -34.046984 48.221978 -0.054523 2.354697 0.018618 0.004208 -486320.000000 0 0 1
34.342918 2.599889 -34.334032 48.631484 0.075560 2.354636 0.010976 0.001710 -588398.000000 0 0 1
33.481218 1.994789 33.949667 47.723695 0.059509 0.779337 0.008113 0.003298 -480198.000000 0 0 1
33.773618 2.315189 32.609403 47.004155 0.068443 0.804105 -0.000258 0.002324 701194.000000 0 0 1
-34.792369 1.443789 32.084263 47.349693 -0.041473 0.826299 0.003504 0.005004 255250.000000 0 0 1
-34.641669 1.640489 30.563703 46.226360 -0.047321 0.848413 0.006207 -0.000241 -344670.000000 0 0 1
-34.115869 2.922589 30.236753 45.680360 -0.085458 0.847419 0.008329 -0.005929 239516.000000 0 0 1
-34.005569 3.150189 28.834053 44.695694 -0.092374 0.869617 0.010345 -0.008015 -41215.800000 0 0 1
-33.401269 4.532289 28.542653 44.168648 -0.134868 0.868176 0.008293 -0.011547 -201260.000000 0 0 1
-32.907569 4.701289 27.228763 42.969940 -0.141903 0.884508 -0.000672 -0.009594 540602.000000 0 0 1
-32.174169 5.930989 27.073163 42.465397 -0.182294 0.879502 -0.000755 -0.006978 -350800.000000 0 0 1
-31.437369 5.995589 25.742553 41.072306 -0.188452 0.893406 -0.003707 -0.003235 -569908.000000 0 0 1
-30.260769 5.211889 25.744473 40.070635 -0.170559 0.873070 -0.005582 -0.007632 572759.000000 0 0 1
-29.387269 5.556389 24.657923 38.762072 -0.186869 0.881317 -0.001640 -0.008732 296958.000000 0 0 1
-29.872169 5.029289 23.250353 38.186636 -0.166796 0.916172 -0.002583 -0.005393 -228317.000000 0 0 1
-29.843669 3.605889 23.077353 37.897378 -0.120243 0.916069 -0.003061 -0.006165 -53947.900000 0 0 1
-30.676569 3.164589 22.038053 37.904383 -0.102796 0.950334 -0.010539 -0.001367 -966347.000000 0 0 1
-30.654469 1.669089 21.704953 37.597704 -0.054395 0.955385 -0.008847 -0.000916 494852.000000 0 0 1
-29.501069 1.091789 21.038153 36.250641 -0.036992 0.951635 0.000556 -0.003575 927378.000000 0 0 1
-29.238569 1.649089 19.734053 35.313542 -0.056341 0.977829 -0.002755 -0.002456 135737.000000 0 0 1
-28.129969 0.955789 18.891353 33.898258 -0.033965 0.979671 -0.000960 -0.000956 343604.000000 0 0 1
-28.642469 -0.278011 18.387053 34.037509 0.009706 1.000122 0.006218 0.000890 292644.000000 0 0 1
-27.645269 -1.077511 17.817553 32.907250 0.038957 0.998638 0.019340 0.000180 -47031.700000 0 0 1
-27.159369 -0.739711 16.356453 31.712963 0.027229 1.028895 0.013774 0.003188 267580.000000 0 0 1
-26.565669 0.528089 16.145453 31.091627 -0.019876 1.024781 0.014488 0.002416 271506.000000 0 0 1
-26.866769 0.942589 14.823153 30.699147 -0.035069 1.066887 0.017828 -0.001021 33601.800000 0 0 1
-26.468369 2.396289 14.557353 30.302364 -0.090288 1.069682 0.019312 -0.005619 -1040890.000000 0 0 1
-25.101869 2.511889 14.404653 29.050085 -0.099736 1.051976 0.015744 -0.010392 -955767.000000 0 0 1
-24.878169 3.824889 13.982953 28.793681 -0.152550 1.063717 0.017111 -0.013474 252609.000000 0 0 1
-23.389569 4.009389 13.542253 27.322880 -0.169768 1.052227 0.026145 -0.013285 322275.000000 0 0 1
-22.476969 3.931389 14.623753 27.102105 -0.173156 1.000858 0.023567 -0.011283 686987.000000 0 0 1
-21.203869 4.366889 14.122153 25.847804 -0.203108 0.992787 0.022024 -0.017726 471217.000000 0 0 1
-20.274569 5.023989 15.178653 25.820343 -0.242905 0.942390 0.016937 -0.020731 -258655.000000 0 0 1
-20.586169 6.370189 15.490353 26.539041 -0.300095 0.947541 0.016373 -0.017656 239783.000000 0 0 1
-20.021969 6.736489 16.697053 26.926773 -0.324557 0.901937 0.018734 -0.009942 -399727.000000 0 0 1
-20.093669 8.250289 17.059153 27.619513 -0.389603 0.905047 0.011713 -0.010738 -297090.000000 0 0 1
-19.297769 9.060189 16.176053 26.761084 -0.438946 0.921706 0.002449 -0.009788 521563.000000 0 0 1
-19.382669 10.478789 16.407753 27.471935 -0.495618 0.930722 -0.001947 -0.001743 -331879.000000 0 0 1
-18.885369 10.989789 17.769253 28.163433 -0.527020 0.888041 0.008269 -0.001615 -124720.000000 0 0 1
-19.812369 10.704489 18.828353 29.353414 -0.495360 0.874427 0.023116 -0.005546 772188.000000 0 0 1
-19.479869 11.310489 20.072453 30.171109 -0.526051 0.842918 0.031493 0.002189 -258989.000000 0 0 1
-12.485382 -33.199820 -22.814454 42.173595 1.211090 2.142381 -0.003129 0.008604 -37535.500000 0 0 1
-12.720282 -34.066820 -21.742354 42.368429 1.213436 2.109675 -0.002704 0.003109 -55041.900000 0 0 1
-13.779582 -33.590420 -20.931154 41.908309 1.181508 2.093761 0.000536 0.000747 163223.000000 0 0 1
-14.463582 -34.682720 -19.989854 42.563841 1.175699 2.059684 -0.003316 0.004164 -756304.000000 0 0 1
-15.127882 33.858789 -20.826654 42.532574 -1.150612 2.082500 -0.017140 0.007055 -28233.000000 0 0 1
-15.804482 32.865089 -20.069254 41.625361 -1.122554 2.073892 -0.023062 0.011529 530146.000000 0 0 1
-17.112082 33.353089 -19.350154 42.186257 -1.096757 2.047310 -0.004405 0.005617 -608751.000000 0 0 1
-17.031782 34.263189 -18.266954 42.399638 -1.109482 2.016206 -0.000544 -0.000684 -168664.000000 0 0 1
-18.330382 34.579489 -17.812154 43.000195 -1.083364 1.997898 0.004258 -0.003027 63267.700000 0 0 1
-18.693082 34.191389 -16.337554 42.253971 -1.070476 1.967794 0.006851 -0.006226 -506138.000000 0 0 1
-18.903882 32.796589 -16.097254 41.135077 -1.047912 1.972869 0.007004 -0.012732 121311.000000 0 0 1
-19.062182 32.444089 -14.746654 40.415955 -1.039589 1.944292 0.002465 -0.011682 -289257.000000 0 0 1
-19.227182 31.020189 -14.320054 39.204599 -1.015925 1.944713 -0.012163 -0.009265 -2354.070000 0 0 1
-18.019882 30.293889 -14.262454 38.024379 -1.034183 1.955287 -0.025166 -0.008214 107501.000000 0 0 1
-18.334782 28.926189 -14.276954 37.104178 -1.005860 1.965766 -0.023466 -0.009198 839211.000000 0 0 1
-17.074882 28.091489 -13.744654 35.631430 -1.024639 1.966812 -0.019028 -0.005282 892151.000000 0 0 1
-16.014182 28.224889 -14.659554 35.609000 -1.054709 1.995094 -0.015542 -0.006369 -619347.000000 0 0 1
-14.986382 27.296889 -14.425254 34.319087 -1.068710 2.004602 -0.002783 -0.010316 -97675.000000 0 0 1
-13.640582 27.754189 -15.006354 34.373698 -1.113989 2.022573 0.003675 -0.006574 -373290.000000 0 0 1
-13.751282 27.922689 -16.380554 35.172387 -1.113185 2.055247 -0.011537 -0.004943 811227.000000 0 0 1
-12.597482 28.551389 -17.002054 35.537982 -1.155267 2.069650 -0.004315 -0.002663 735128.000000 0 0 1
-12.790882 28.601189 -18.527354 36.399141 -1.150261 2.104825 -0.004807 -0.009524 -71449.500000 0 0 1
-12.829982 27.309089 -19.154754 35.739325 -1.131594 2.136438 -0.017204 -0.013574 284146.000000 0 0 1
-13.008982 27.386889 -20.519054 36.610201 -1.127342 2.165754 -0.009456 -0.018916 -649511.000000 0 0 1
-12.392982 26.198189 -21.206254 35.911506 -1.128942 2.202492 -0.006246 -0.018414 460128.000000 0 0 1
-11.051282 26.489489 -21.642054 35.947216 -1.175555 2.216864 -0.000533 -0.021157 584962.000000 0 0 1
-10.350582 25.321089 -21.944854 35.069484 -1.182750 2.246894 -0.000641 -0.017814 263019.000000 0 0 1
-9.071282 25.568689 -22.775954 35.423016 -1.229869 2.269167 -0.000931 -0.019663 238554.000000 0 0 1
-9.465782 25.979089 -24.087754 36.670614 -1.221385 2.287454 -0.002420 -0.023986 109477.000000 0 0 1
-8.343682 26.345889 -24.862554 37.173505 -1.264092 2.303423 -0.000230 -0.019441 -92526.100000 0 0 1
-8.577182 27.193189 -26.104214 38.658344 -1.265257 2.312106 -0.000896 -0.010999 107814.000000 0 0 1
-9.381682 26.481089 -27.065554 39.010360 -1.230315 2.337555 -0.002165 -0.011064 216107.000000 0 0 1
-9.797982 27.181189 -28.211314 40.381873 -1.224825 2.344254 0.004170 -0.008262 -337940.000000 0 0 1
-10.895682 26.491289 -29.006494 40.766174 -1.180593 2.362474 -0.005219 -0.010375 -205220.000000 0 0 1
-11.286182 27.121289 -30.227464 42.150229 -1.176456 2.370481 -0.004782 -0.002954 1008210.000000 0 0 1
-12.539382 26.556489 -30.693734 42.480448 -1.129653 2.378263 -0.003137 -0.005527 670488.000000 0 0 1
-12.763282 27.014789 -32.153124 43.892181 -1.129426 2.392854 -0.006520 -0.000003 -334260.000000 0 0 1
-11.963682 26.489089 -33.199034 44.124566 -1.146575 2.422484 -0.003619 0.001841 20080.200000 0 0 1
-11.888382 25.061789 -33.292724 43.333963 -1.127868 2.446950 0.007103 -0.000858 -412219.000000 0 0 1
-11.196982 24.606789 -34.540339 43.862301 -1.143762 2.477493 -0.001721 -0.002915 -21906.300000 0 0 1
-11.917882 24.807089 33.592151 43.426491 -1.122933 0.686387 0.003497 -0.002084 317840.000000 0 0 1
-11.282882 24.038389 32.560153 42.015606 -1.131952 0.684154 0.001337 0.001035 157996.000000 0 0 1
-12.118882 23.994789 31.246833 41.218706 -1.103106 0.710441 0.012926 0.004114 87966.100000 0 0 1
-13.364582 23.339089 31.245533 41.226308 -1.050748 0.710704 0.008350 0.006442 -227681.000000 0 0 1
-13.887982 23.379289 29.945393 40.449892 -1.034779 0.737267 0.014940 0.008219 702665.000000 0 0 1
-15.194682 22.508389 29.836033 40.344699 -0.977000 0.738428 0.011255 0.007154 836864.000000 0 0 1
-14.862082 21.147789 30.002243 39.601074 -0.958212 0.711150 0.009099 0.005614 303445.000000 0 0 1
-16.016082 20.422889 30.393243 39.966967 -0.905750 0.706777 0.007859 0.002827 80127.300000 0 0 1
-15.733482 18.872189 30.431403 39.112303 -0.875850 0.679238 0.006386 0.002201 114031.000000 0 0 1
-15.212082 18.498889 29.166623 37.740008 -0.882591 0.687507 0.003601 -0.003460 158549.000000 0 0 1
-14.828982 17.149689 29.231733 36.993307 -0.857842 0.659678 -0.002713 -0.002830 -19240.800000 0 0 1
-14.525582 16.586389 27.805183 35.485617 -0.851540 0.670418 -0.001965 -0.004999 887041.000000 0 0 1
-13.377282 17.192389 27.157743 34.814837 -0.909557 0.676031 -0.005309 -0.007421 632829.000000 0 0 1
-12.725082 16.244889 26.325893 33.449615 -0.906304 0.664814 -0.012517 -0.004619 581461.000000 0 0 1
-11.547382 16.832989 25.466923 32.638255 -0.969530 0.675686 -0.006262 -0.002927 389775.000000 0 0 1
-11.906082 17.737489 24.430223 32.453183 -0.979635 0.718516 -0.004242 -0.004918 -305798.000000 0 0 1
-12.329482 19.061089 24.822983 33.638099 -0.996645 0.740780 -0.003129 -0.005761 -91378.100000 0 0 1
-11.269382 20.022689 25.382693 34.237233 -1.058156 0.735677 -0.003247 -0.004956 -55414.900000 0 0 1
-10.989282 19.740189 26.787193 35.042732 -1.062827 0.700663 -0.004585 0.000299 808467.000000 0 0 1
-12.037182 20.188389 27.715163 36.339992 -1.033144 0.703376 0.005849 0.005079 918585.000000 0 0 1
-11.787282 19.701589 29.174973 37.125081 -1.031634 0.666717 0.004155 0.009390 21712.700000 0 0 1
-10.616082 20.138789 29.828493 37.523473 -1.085669 0.651906 -0.008784 0.008783 -162697.000000 0 0 1
-10.568982 19.790289 31.150313 38.388812 -1.080282 0.624180 -0.012648 0.008730 -136981.000000 0 0 1
-9.681782 20.725289 31.978883 39.318233 -1.133774 0.620935 -0.007001 0.007631 230180.000000 0 0 1
-8.303982 20.431189 31.831693 38.725266 -1.184754 0.605904 -0.004659 0.006615 446972.000000 0 0 1
-7.458982 21.343689 32.564333 39.643729 -1.234594 0.606892 -0.010602 0.008415 1002940.000000 0 0 1
-6.172482 20.638789 33.139523 39.525778 -1.280191 0.576404 -0.012427 0.007850 63712.400000 0 0 1
-6.360482 19.881389 34.290266 40.144087 -1.261165 0.546825 -0.019210 0.010209 431780.000000 0 0 1
-5.175382 19.306589 -34.512984 39.883267 -1.308891 2.616645 -0.024454 0.010480 805188.000000 0 0 1
-4.434282 18.187189 34.008976 38.820705 -1.331649 0.503182 -0.029246 0.006592 156349.000000 0 0 1
-5.151182 16.976289 34.000407 38.350446 -1.276192 0.480916 -0.034726 0.008397 -128767.000000 0 0 1
-4.628982 16.130489 33.054873 37.070807 -1.291335 0.469779 -0.013951 0.003500 -269475.000000 0 0 1
-5.214882 14.690389 33.056993 36.548150 -1.229687 0.440642 -0.014567 0.003286 -360596.000000 0 0 1
-4.614982 13.721189 33.897793 36.859591 -1.246342 0.403617 -0.020972 0.004644 55625.300000 0 0 1
-5.138882 12.377589 33.703587 36.270437 -1.177276 0.378472 -0.014190 0.003822 -311527.000000 0 0 1
-4.224582 11.303189 34.234750 36.299136 -1.213121 0.338877 -0.016882 0.004650 -236343.000000 0 0 1
-4.233082 11.143389 -33.705534 35.751323 -1.207760 2.801660 -0.011807 0.002899 -920897.000000 0 0 1
-3.252682 10.255889 -33.363694 35.055659 -1.263678 2.829636 -0.007325 0.009465 -579428.000000 0 0 1
-3.303782 9.925889 -31.866984 33.540168 -1.249485 2.824398 -0.001632 0.008516 65390.800000 0 0 1
-4.428582 9.159889 -31.481364 33.084621 -1.120455 2.829004 -0.001765 0.005461 27895.100000 0 0 1
-4.381282 8.819189 -30.081614 31.652444 -1.109720 2.825228 0.004115 0.008365 -166413.000000 0 0 1
-5.641082 8.045089 -29.686854 31.270666 -0.959277 2.821962 0.004635 0.002454 -110060.000000 0 0 1
-5.403382 7.262589 -28.588444 29.987345 -0.931145 2.834943 0.006424 0.002463 352894.000000 0 0 1
-6.625882 6.618289 -28.322174 29.830347 -0.784825 2.822249 0.006297 -0.005039 -326236.000000 0 0 1
-6.428682 5.524689 -27.159904 28.451898 -0.709915 2.839078 0.001907 -0.004119 -221643.000000 0 0 1
-6.645282 5.984689 -25.805554 27.311223 -0.733142 2.807994 -0.001047 0.000891 -42379.400000 0 0 1
-5.821982 7.050189 -25.375944 26.972934 -0.880526 2.795758 0.003847 -0.001989 -358422.000000 0 0 1
-6.384682 7.979289 -24.283554 26.346237 -0.895960 2.743259 0.003083 0.002141 18785.300000 0 0 1
-6.534382 7.392889 -23.001254 25.028197 -0.846962 2.736367 -0.000395 0.006754 -503695.000000 0 0 1
-7.762882 7.732089 -22.436554 24.968910 -0.783411 2.687318 -0.001374 0.010289 -684969.000000 0 1 0
-7.744382 7.913889 -20.932254 23.680463 -0.796223 2.655032 -0.004193 0.007376 -176905.000000 0 1 0
-7.231182 9.142889 -20.481154 23.566079 -0.901624 2.624165 -0.011995 0.007256 108375.000000 0 1 0
-6.858982 9.250189 -19.097354 22.300685 -0.932760 2.598970 -0.011446 0.009257 492995.000000 0 1 0
-8.094782 9.322089 -18.101754 21.911192 -0.855748 2.543022 -0.016487 0.006986 2571.880000 0 1 0
-7.815682 9.442489 -16.697354 20.713452 -0.879383 2.508348 -0.020695 0.005659 -38070.900000 0 1 0
-8.917882 9.767789 -15.874654 20.662598 -0.830851 2.446946 -0.018320 0.000253 107668.000000 0 1 0
-9.553482 11.165389 -16.179654 21.856718 -0.863041 2.404253 -0.014903 0.001230 -836346.000000 0 1 0
-8.595182 12.155389 -15.885754 21.771261 -0.955315 2.388630 -0.022259 0.001320 -62129.700000 0 1 0
-8.946982 13.459389 -16.290354 22.947315 -0.984129 2.360156 -0.011394 0.000455 536174.000000 0 1 0
-7.757182 14.451189 -15.954954 22.881680 -1.078156 2.342393 -0.004124 0.000575 394732.000000 0 1 0
-7.455282 14.579689 -14.578354 21.924346 -1.098112 2.298209 0.000600 0.000085 -565539.000000 0 1 0
-8.370882 15.226189 -13.755854 22.161498 -1.068131 2.240444 -0.002794 -0.006779 -1150960.000000 0 1 0
-7.783482 16.077189 -12.617254 21.869012 -1.119924 2.185782 0.006202 -0.005097 237427.000000 0 1 0
-7.173282 17.317589 -12.912854 22.761736 -1.178092 2.174026 0.008152 -0.008596 215676.000000 0 1 0
-6.026582 17.333189 -13.762454 22.938270 -1.236181 2.214270 0.009385 -0.005288 129419.000000 0 1 0
-5.677882 18.769089 -14.228254 24.227262 -1.277036 2.198494 0.008031 0.003966 141260.000000 0 1 0
-5.258582 19.684389 -13.219654 24.287591 -1.309748 2.146347 0.008019 -0.001230 -164784.000000 0 1 0
-5.000882 20.949689 -13.780954 25.569767 -1.336472 2.139992 0.001551 0.012626 -208030.000000 0 0 1
-4.680182 21.969789 -12.686354 25.797661 -1.360906 2.084911 0.004475 0.015470 -582139.000000 0 0 1
-4.741882 23.374489 -12.978754 27.153273 -1.370647 2.069151 0.007286 0.018778 -1287150.000000 0 0 1
-5.931282 23.994889 -13.211854 28.026556 -1.328465 2.061679 0.011300 0.014546 -636620.000000 0 0 1
-6.894482 24.161389 -11.948254 27.822066 -1.292832 2.014683 0.005798 0.012122 403535.000000 0 0 1
-7.324482 22.948489 -11.351354 26.629577 -1.261846 2.011160 0.010598 0.012778 -271544.000000 0 0 1
-8.094982 23.026689 -10.170054 26.442147 -1.232743 1.965587 0.017884 0.005283 174136.000000 0 0 1
-7.402282 23.490689 -8.840854 26.168052 -1.265530 1.915427 0.020714 0.002093 103481.000000 0 0 1
-7.262282 24.889989 -8.894154 27.410915 -1.286902 1.901253 0.019578 -0.000340 -331716.000000 0 0 1
-6.681182 25.366589 -7.695254 27.337135 -1.313260 1.856148 0.014274 0.002675 224688.000000 0 0 1
-6.617882 26.916289 -7.541854 28.725642 -1.329709 1.836458 0.012864 0.000025 -167430.000000 0 0 1
-5.746082 27.652589 -8.344254 29.450122 -1.365917 1.858066 0.006762 -0.000847 -271311.000000 0 0 1
-6.134082 27.680289 -9.742754 29.979103 -1.352716 1.901792 0.009468 0.004030 318287.000000 0 0 1
-5.336082 28.714089 -10.536054 31.048045 -1.387057 1.917019 -0.002613 0.008591 208924.000000 0 0 1
-5.940182 29.986189 -10.402354 32.290343 -1.375231 1.898797 -0.002270 -0.002894 -77406.900000 0 0 1
-6.687682 30.287489 -11.575054 33.106479 -1.353477 1.927974 -0.003298 -0.003621 -886466.000000 0 0 1
-7.755282 31.296189 -11.332054 34.176180 -1.327887 1.908772 -0.001137 -0.010867 -762005.000000 0 0 1
-8.847382 30.822189 -10.563554 33.761993 -1.291266 1.889023 0.003616 -0.010230 -13502.100000 0 0 1
-9.820282 31.825389 -10.391354 34.889447 -1.271498 1.873222 0.006104 -0.018518 741622.000000 0 0 1
-11.056082 31.338389 -9.546554 34.575544 -1.231632 1.850538 0.017391 -0.012429 1008630.000000 0 0 1
-11.806682 30.208689 -10.035954 33.951185 -1.198214 1.870879 0.006514 -0.008762 209827.000000 0 0 1
-13.040282 30.123089 -9.352354 34.130865 -1.162253 1.848361 0.017991 -0.004408 400362.000000 0 0 1
-14.008382 28.948189 -9.655254 33.577616 -1.120102 1.862464 0.011599 0.000269 225566.000000 0 0 1
-13.592082 27.650889 -9.240554 32.166818 -1.113923 1.862172 0.003886 0.008727 334442.000000 0 0 1
-14.586182 26.714389 -9.686254 31.941177 -1.071026 1.878901 0.006134 0.008278 274163.000000 0 0 1
-14.483882 25.295889 -9.074754 30.528937 -1.050784 1.872608 0.007090 0.009945 213380.000000 0 0 1
-13.424882 24.462589 -9.555254 29.494891 -1.068881 1.900712 0.008827 0.010179 493325.000000 0 0 1
-13.808182 23.144189 -9.163654 28.465627 -1.032869 1.898553 0.012539 0.008762 574122.000000 0 0 1
-12.724182 22.041489 -9.442554 27.145789 -1.047248 1.926069 0.017171 0.011291 384536.000000 0 0 1
-12.720382 21.706289 -10.823354 27.388247 -1.040718 1.977063 0.020141 0.011872 -50094.900000 0 0 1
-11.922682 20.594789 -11.108054 26.261845 -1.046023 2.007520 0.023239 0.009354 -293688.000000 0 0 1
-12.046082 20.059589 -12.576554 26.564354 -1.029998 2.063985 0.019219 0.009949 209974.000000 0 0 1
-13.336182 19.553889 -12.882354 26.947418 -0.972238 2.069236 0.020680 0.014175 -77786.100000 0 0 1
-13.402982 19.044989 -14.206454 27.279568 -0.957556 2.118552 0.015487 0.011560 649523.000000 0 0 1
-14.859182 18.695989 -14.663954 28.024397 -0.899247 2.121464 0.009550 0.015472 742360.000000 0 0 1
-15.602482 19.879989 -14.885854 29.329849 -0.905372 2.103115 -0.001376 0.011078 -187829.000000 0 0 1
-16.922082 19.570189 -15.295354 30.054899 -0.857837 2.104719 -0.005054 0.012073 295195.000000 0 0 1
-17.633082 20.770389 -16.050954 31.622266 -0.866910 2.103175 -0.009597 0.007947 256856.000000 0 0 1
-18.052982 21.894289 -15.262454 32.221305 -0.881263 2.064256 -0.006658 -0.005214 423663.000000 0 0 1
-18.636482 22.876789 -16.086154 33.606997 -0.887189 2.069918 -0.010430 -0.003257 -169380.000000 0 0 1
-18.898582 24.242489 -15.459054 34.406932 -0.908641 2.036779 -0.017522 -0.000474 -259929.000000 0 0 1
-20.060482 24.255889 -14.672254 34.728174 -0.879786 2.006985 -0.007517 0.006205 -43864.600000 0 0 1
-20.185482 25.498189 -14.125854 35.456326 -0.901171 1.980570 -0.022955 -0.000020 -121366.000000 0 0 1
-25.144562 -0.799811 4.225446 25.509666 0.031798 1.404388 0.032512 -0.010046 -80107.600000 0 0 1
-25.427342 0.063789 5.326246 25.979274 -0.002509 1.364313 0.033847 -0.005435 73572.200000 0 0 1
-26.723412 -0.159011 5.810646 27.348302 0.005950 1.356696 0.016217 0.003333 -495567.000000 0 0 1
-27.286052 0.704489 6.923446 28.159528 -0.025813 1.322384 0.012504 0.001918 -492493.000000 0 0 1
-27.591722 2.082989 6.669246 28.462621 -0.075350 1.334281 0.027479 -0.005206 162574.000000 0 0 1
-27.906892 2.894489 7.796746 29.119786 -0.103350 1.299742 0.027162 -0.001780 180020.000000 0 0 1
-26.660262 3.324589 8.634846 28.220259 -0.124062 1.259828 0.031612 -0.005210 260994.000000 0 0 1
-26.049842 2.331589 9.399646 27.791796 -0.089267 1.225775 0.028533 -0.009215 -353786.000000 0 0 1
-24.859182 2.734489 9.984346 26.928489 -0.109559 1.190956 0.026296 -0.016285 -966648.000000 0 0 1
-24.149182 1.622089 10.756746 26.486256 -0.067069 1.152586 0.013240 -0.012899 -317225.000000 0 0 1
-23.296882 0.786589 9.961146 25.349317 -0.033751 1.166953 0.003373 -0.012838 697682.000000 0 0 1
-24.029982 -0.140011 9.167446 25.719675 0.005826 1.206345 0.010600 -0.012944 -141110.000000 0 0 1
-23.076782 -1.092811 8.422446 24.590032 0.047320 1.221204 0.011901 -0.012433 210242.000000 0 1 0
-22.236082 -1.842211 9.289446 24.168800 0.082659 1.176285 0.003382 -0.020028 -42763.700000 0 1 0
-21.300682 -2.679011 8.691346 23.161080 0.125114 1.186123 0.004513 -0.005909 -733126.000000 0 1 0
-20.065282 -2.739411 9.571746 22.399514 0.135686 1.129271 0.003966 -0.007263 -671465.000000 0 1 0
-19.388782 -1.514311 9.817246 21.785232 0.077944 1.103317 0.000332 -0.012752 601102.000000 0 1 0
-19.888182 -0.819111 10.967846 22.726732 0.041163 1.067179 -0.005004 -0.010210 -376140.000000 0 1 0
-19.430782 0.642889 11.067746 22.371043 -0.033074 1.053266 -0.009127 -0.012721 -636302.000000 0 1 0
-20.075582 1.510089 10.135746 22.539802 -0.075079 1.104387 0.000790 -0.015216 387395.000000 0 1 0
-20.521782 2.616889 10.895846 23.381854 -0.126833 1.086037 0.013991 -0.011814 -264080.000000 0 1 0
-21.250882 3.740989 10.084746 23.817999 -0.174254 1.133592 0.010875 -0.013272 -615155.000000 0 1 0
-21.555282 4.881589 10.879146 24.633633 -0.222712 1.113373 0.013559 -0.013807 768474.000000 0 1 0
-22.273782 5.864689 10.128446 25.161505 -0.257457 1.156509 0.021458 -0.016542 -47068.200000 0 0 1
-22.372782 7.135089 10.922446 25.898855 -0.308721 1.135439 0.020067 -0.015104 -324440.000000 0 0 1
-23.265982 6.963589 11.981046 27.080305 -0.290818 1.112494 0.017490 -0.015255 99765.000000 0 0 1
-23.291982 8.098289 12.800246 27.783898 -0.334612 1.092004 0.014560 -0.014980 -353700.000000 0 0 1
-24.036082 7.843589 14.098646 28.948695 -0.315430 1.062120 0.010549 -0.015962 -116992.000000 0 0 1
-25.435432 7.746489 13.975346 30.037969 -0.295630 1.086872 0.015968 -0.013092 -163884.000000 0 0 1
-26.011712 7.326489 15.201146 31.005829 -0.274548 1.058400 0.013197 -0.010212 -287343.000000 0 0 1
-27.457152 6.829089 15.066546 32.055147 -0.243772 1.081483 0.006483 -0.009878 -339320.000000 0 0 1
-27.567492 5.625889 14.395846 31.604709 -0.201313 1.097866 0.010099 -0.008153 41478.900000 0 0 1
-28.042532 5.854589 13.104346 31.502122 -0.205819 1.141773 0.013090 -0.001108 -665687.000000 0 0 1
-28.249082 4.682789 12.158246 31.108874 -0.164274 1.169264 0.014643 -0.001175 -321564.000000 0 0 1
-29.297982 3.830489 12.523546 32.091799 -0.130005 1.169903 0.006002 0.001767 105001.000000 0 0 1
-29.501292 2.702789 11.724446 31.860538 -0.091361 1.193947 0.011453 0.003411 341832.000000 0 0 1
-30.635352 1.742689 12.252046 33.040496 -0.056824 1.190906 0.009521 0.013551 148806.000000 0 0 1
-30.300382 0.831089 13.285646 33.095502 -0.027421 1.157715 0.008199 0.010657 75877.700000 0 0 1
-31.437132 0.160389 13.823946 34.342691 -0.005102 1.156518 0.003732 0.013240 -54819.900000 0 0 1
-31.291032 -0.948011 14.900146 34.670474 0.030287 1.126564 -0.004001 0.003506 -244270.000000 0 0 1
-30.762262 -2.181011 14.462346 34.062193 0.070780 1.132291 -0.003720 0.002844 354234.000000 0 0 1
-31.202932 -3.101011 15.437646 34.950824 0.099057 1.113308 -0.006491 0.000376 -135505.000000 0 0 1
-30.921642 -4.568011 15.123246 34.723583 0.146668 1.120167 -0.004687 0.001359 -562873.000000 0 0 1
-31.739982 -5.110911 14.143446 35.122428 0.159654 1.156343 -0.001674 0.003119 35488.700000 0 0 1
-31.567272 -6.504711 14.017846 35.146891 0.203214 1.160549 0.006125 -0.003502 -324256.000000 0 0 1
-32.542752 -7.105111 12.936346 35.733211 0.214958 1.200356 0.006677 -0.005960 1383670.000000 0 0 1
-33.932982 -7.271911 13.247646 37.146037 0.211109 1.206131 0.000540 0.000677 804046.000000 0 0 1
-34.700989 -6.091211 13.368146 37.682473 0.173764 1.208141 0.003789 0.006665 138749.000000 0 0 1
33.451806 -6.255711 12.772946 36.349764 -0.184871 1.211741 0.007433 0.004174 293157.000000 0 0 1
32.665266 -7.071811 13.568046 36.071068 -0.213203 1.185161 0.000702 0.008997 -546653.000000 0 0 1
31.321386 -6.675311 13.354146 34.697582 -0.209982 1.175727 -0.004744 0.009982 -385945.000000 0 0 1
30.255146 -7.648011 13.769046 34.109420 -0.247597 1.155269 -0.012488 0.003321 -597009.000000 0 0 1
29.968746 -7.628411 15.150646 34.436325 -0.249252 1.115241 -0.007194 0.003883 -5135.070000 0 0 1
28.967866 -8.540711 15.534446 33.961743 -0.286711 1.095716 -0.005807 0.008100 -214649.000000 0 0 1
28.404716 -8.371911 16.955646 34.123463 -0.286621 1.050784 -0.020669 -0.000509 -360000.000000 0 0 1
29.235376 -8.841211 17.985446 35.445035 -0.293671 1.038611 -0.014641 0.003674 -485356.000000 0 0 1
28.605556 -8.803611 19.240046 35.580342 -0.298560 0.999469 -0.010751 0.003214 -448289.000000 0 0 1
29.502216 -9.247311 20.442346 37.064579 -0.303745 0.986595 -0.005204 0.002055 570176.000000 0 0 1
30.692826 -8.494411 20.642646 37.951593 -0.269998 0.995694 0.002789 0.000518 -385216.000000 0 0 1
31.773846 -8.944511 19.911746 38.549438 -0.274404 1.028009 0.009734 0.002578 -1399190.000000 0 0 1
33.063856 -8.198811 20.265846 39.637654 -0.243066 1.034126 0.010311 0.005085 -191272.000000 0 0 1
33.435086 -8.614311 21.604146 40.728988 -0.252159 1.011681 0.008510 0.000958 -26401.700000 0 0 1
34.636076 -8.077411 22.110146 41.877928 -0.229113 1.014592 0.001896 0.004696 100025.000000 0 0 1
-34.456913 -8.781711 23.402846 42.568656 0.249548 0.988711 0.004024 0.002518 -105935.000000 0 0 1
34.364400 -8.424211 24.524046 43.050065 -0.240403 0.964700 -0.001582 0.004235 109841.000000 0 0 1
34.489864 -9.237211 25.633646 43.954073 -0.261683 0.948144 -0.003152 -0.007113 -805361.000000 0 0 1
33.742010 -8.736711 26.846646 43.995406 -0.253363 0.914465 0.002715 -0.007237 -141484.000000 0 0 1
34.457709 -7.761611 27.600846 44.826142 -0.221553 0.907483 -0.009063 -0.008867 -17658.500000 0 0 1
33.711774 -7.352611 28.725946 44.896821 -0.214739 0.876531 -0.003294 -0.007865 -166575.000000 0 0 1
34.480500 -6.639411 29.894246 46.115644 -0.190227 0.865519 -0.004020 -0.011132 369759.000000 0 0 1
-34.394905 -7.459911 30.821846 46.782966 0.213582 0.851539 -0.011198 -0.007025 131754.000000 0 0 1
-32.996592 -7.264911 30.658346 45.623329 0.216714 0.833906 -0.010929 -0.014984 242609.000000 0 0 1
-32.195932 -7.805311 31.867246 45.967622 0.237843 0.804802 -0.008658 -0.010105 -419204.000000 0 0 1
-32.284752 -9.186211 32.001946 46.376893 0.277211 0.809251 -0.008084 -0.009083 -57146.800000 0 0 1
-31.573202 -9.634811 33.107046 46.752253 0.296182 0.783939 -0.004426 -0.008532 -533929.000000 0 0 1
-31.623242 -11.160511 33.159746 47.160950 0.339275 0.791022 0.001279 -0.009989 -31897.300000 0 0 1
-32.925702 -11.686411 33.336046 48.290434 0.341063 0.808860 0.001993 -0.013713 253286.000000 0 0 1
-32.915752 -13.119611 33.401646 48.695389 0.379283 0.814915 0.008572 -0.004105 979881.000000 0 0 1
-34.392968 -13.653211 33.552246 49.950372 0.377897 0.834279 0.004624 -0.005217 949720.000000 0 0 1
-34.489059 -15.024511 33.826446 50.591102 0.410841 0.838439 0.001856 -0.009919 -268025.000000 0 0 1
33.817428 -15.374711 34.251846 50.529092 -0.426705 0.825943 -0.004153 -0.011661 -324288.000000 0 0 1
33.584947 -16.922411 34.286746 50.891037 -0.466738 0.831553 -0.008558 -0.000166 -120520.000000 0 0 1
33.930757 -17.466811 -33.797761 50.977195 -0.475400 2.295612 -0.004750 -0.010442 288910.000000 0 0 1
33.806928 -18.853311 -33.726861 51.340596 -0.508717 2.287528 -0.006054 -0.011994 -623185.000000 0 0 1
34.183969 -19.391411 -32.306161 50.874931 -0.516003 2.258820 -0.000336 -0.007149 161178.000000 0 0 1
33.228896 -19.152411 -31.278761 49.490759 -0.522869 2.254943 0.000126 -0.006761 139440.000000 0 0 1
33.585761 -19.937211 -30.168961 49.352426 -0.535716 2.228494 -0.006785 -0.003979 -710132.000000 0 0 1
32.524386 -19.871411 -29.045361 47.920159 -0.548446 2.221969 -0.010520 -0.006458 300119.000000 0 0 1
31.308836 -20.565111 -29.255861 47.529700 -0.581173 2.233852 -0.007507 -0.001338 688557.000000 0 0 1
30.412236 -19.917911 -30.192161 47.256680 -0.579834 2.263860 -0.012951 0.000239 -827828.000000 0 0 1
29.083216 -20.685511 -30.300161 46.816915 -0.618238 2.274709 -0.010374 0.000680 -869510.000000 0 0 1
28.277356 -20.031111 -31.195361 46.626224 -0.616328 2.303729 -0.008277 0.001579 -215767.000000 0 0 1
26.993906 -20.656411 -31.137161 46.096432 -0.653174 2.312410 -0.001647 -0.000490 361236.000000 0 0 1
25.990176 -20.169411 -32.202861 46.036058 -0.659959 2.345513 0.001739 0.004263 202248.000000 0 0 1
26.564176 -20.165411 -33.504261 47.274039 -0.649313 2.358485 -0.004415 0.004126 -84155.000000 0 0 1
25.564796 -19.875711 -34.449661 47.279825 -0.660848 2.387121 0.010627 0.005285 -145135.000000 0 0 1
25.853976 -20.112111 33.377746 46.765361 -0.661127 0.775990 0.006896 0.007050 -288675.000000 0 0 1
26.862656 -19.275211 32.843746 46.603087 -0.622405 0.788719 -0.002795 0.002581 147955.000000 0 0 1
26.766886 -19.131711 31.396946 45.478091 -0.620559 0.808789 -0.003315 -0.001697 144398.000000 0 0 1
25.598086 -18.312411 30.754546 44.005096 -0.620975 0.796958 -0.007096 0.000023 -49536.300000 0 0 1
25.584196 -16.951511 31.099446 43.693024 -0.585166 0.778779 -0.003750 -0.001439 -303392.000000 0 0 1
24.741736 -16.209011 30.316946 42.355670 -0.579972 0.773069 -0.011397 -0.001095 -449809.000000 0 0 1
24.530986 -14.713811 30.724546 41.979319 -0.540276 0.749694 0.001810 0.002578 -222825.000000 0 0 1
25.731806 -14.004811 30.643446 42.394355 -0.498426 0.762923 -0.000323 0.007969 -228695.000000 0 0 1
25.472026 -12.702311 30.968546 42.062140 -0.462589 0.743274 0.007232 0.004232 -136491.000000 0 0 1
26.708346 -11.793911 31.073346 42.637834 -0.415831 0.754266 -0.003417 -0.001019 -7011.770000 0 0 1
27.250916 -11.516711 29.787546 41.982674 -0.399851 0.781980 -0.003183 0.002902 436652.000000 0 0 1
28.594986 -11.048511 29.849846 42.787336 -0.368710 0.798708 -0.000999 0.002164 457444.000000 0 0 1
28.979256 -10.292111 28.549946 41.962176 -0.341259 0.822524 -0.007196 -0.002442 -125167.000000 0 0 1
29.191246 -8.891811 28.727046 41.909859 -0.295677 0.815577 0.002719 -0.003638 -31367.900000 0 0 1
29.758686 -8.347611 27.572946 41.418949 -0.273482 0.842353 0.001762 -0.000294 -90767.200000 0 0 1
29.621496 -6.832511 27.387846 40.917115 -0.226696 0.837464 0.008011 -0.011668 787139.000000 0 0 1
28.247386 -6.415411 27.285746 39.794274 -0.223327 0.815272 -0.000421 -0.004145 450224.000000 0 0 1
28.183686 -5.034111 27.080146 39.408079 -0.176754 0.813207 0.002027 0.000092 -557824.000000 0 0 1
26.765586 -4.506811 26.965446 38.260204 -0.166816 0.788668 -0.000100 0.004260 -462233.000000 0 0 1
26.222616 -4.914411 25.692146 37.038674 -0.185262 0.804242 0.005280 -0.000086 183366.000000 0 0 1
24.825016 -4.648511 25.694346 36.029009 -0.185107 0.776805 0.008886 0.004254 148268.000000 0 0 1
24.175206 -5.258711 24.437046 34.774471 -0.214188 0.791570 0.005098 -0.000746 -352971.000000 0 0 1
24.631546 -4.513511 23.347646 34.237369 -0.181231 0.820392 0.011588 0.003594 129461.000000 0 0 1
24.314006 -5.049711 22.111646 33.250494 -0.204776 0.843300 0.007202 0.004731 -724.771000 0 0 1
24.760116 -4.075911 20.948346 32.688065 -0.163153 0.875183 0.008413 0.000903 -102195.000000 0 0 1
23.908106 -2.995811 20.695746 31.762971 -0.124656 0.861146 0.004842 0.006289 -110069.000000 0 0 1
24.459006 -1.987411 19.842546 31.558191 -0.081077 0.890838 0.011761 -0.001272 -243794.000000 0 0 1
23.344606 -1.103111 19.316446 30.320168 -0.047218 0.880089 -0.010297 0.002509 -200068.000000 0 0 1
22.483206 -1.646211 18.330346 29.055226 -0.073089 0.888110 0.001006 -0.001339 359508.000000 0 0 1
21.416706 -0.696311 18.086346 28.040614 -0.032501 0.869766 0.003133 0.003638 1086110.000000 0 0 1
20.277306 -1.423211 17.271546 26.673975 -0.070072 0.866490 -0.011083 0.001689 231738.000000 0 0 1
20.689706 -1.749711 15.987246 26.205294 -0.084368 0.914639 -0.006312 -0.000446 -73126.000000 0 0 1
19.857406 -2.801311 15.597546 25.405656 -0.140147 0.909754 0.000118 -0.003601 -343365.000000 0 0 1
20.155406 -3.323711 14.193846 24.874740 -0.163433 0.963544 -0.004025 -0.003344 -619972.000000 0 1 0
19.508906 -4.486311 13.808346 24.318610 -0.226033 0.966954 0.010334 0.001831 232485.000000 0 1 0
19.815506 -4.722111 12.442146 23.869638 -0.233941 1.022477 0.009347 -0.002094 274521.000000 0 1 0
18.675906 -5.525311 11.710346 22.725552 -0.287647 1.029445 0.014513 -0.003079 387087.000000 0 1 0
18.741106 -6.856611 12.208346 23.394142 -0.350733 1.021772 0.008725 -0.000500 69668.400000 0 1 0
17.468706 -7.412611 12.180246 22.549077 -0.401309 1.000162 0.005970 0.008370 -730035.000000 0 1 0
17.496606 -8.897711 12.562146 23.304677 -0.470456 1.001500 0.007566 0.002795 -202426.000000 0 1 0
18.154406 -9.620211 11.510646 23.550497 -0.487289 1.060123 0.001465 -0.006912 531662.000000 0 1 0
17.803106 -10.962811 11.458446 23.841766 -0.551942 1.069453 0.010669 -0.013023 -39546.500000 0 1 0
18.447106 -11.752311 10.261246 24.160002 -0.567240 1.132143 0.012254 -0.009807 233143.000000 0 1 0
17.887106 -11.451511 8.985346 23.061269 -0.569462 1.170567 0.013499 -0.006192 454143.000000 0 1 0
18.525206 -12.240611 7.982646 23.595306 -0.583898 1.225671 0.000351 -0.003519 105431.000000 0 1 0
18.499706 -11.497611 6.588646 22.756196 -0.556080 1.277058 0.008593 0.000789 -430695.000000 0 1 0
19.273306 -10.361111 6.433446 22.807941 -0.493264 1.284845 0.033576 0.006356 257731.000000 0 1 0
19.287106 -9.914511 5.097946 22.277321 -0.474823 1.339910 -0.012759 0.000745 -571568.000000 0 1 0
20.075106 -8.620311 5.050846 22.423886 -0.405594 1.343603 0.029743 0.005058 -372484.000000 0 1 0
20.205806 -8.042311 3.760946 22.070298 -0.378798 1.399553 -0.005769 -0.004878 539687.000000 0 1 0
20.685306 -6.687911 3.777046 22.065269 -0.312709 1.398773 0.008817 -0.000095 -87790.400000 0 1 0
21.387406 -6.326711 2.435646 22.436149 -0.287613 1.462023 0.004572 -0.002814 -21016.800000 0 1 0
20.396206 -6.322811 1.441446 21.402358 -0.300605 1.503395 -0.010031 -0.009942 347370.000000 0 1 0
20.663406 -5.395211 0.419746 21.360263 -0.255398 1.551144 -0.022276 -0.009655 -868436.000000 0 1 0
-25.265772 -16.101911 0.392846 29.963062 0.567396 1.557685 0.010098 0.003567 -1135000.000000 0 0 1
-24.310782 -15.679311 -0.525654 28.933220 0.572819 1.588965 0.007839 0.007915 -735536.000000 0 0 1
-23.020082 -16.185911 -0.414554 28.143911 0.612818 1.585527 0.008431 -0.002074 -301361.000000 0 0 1
-22.189282 -15.639211 0.739146 27.156868 0.613946 1.543575 -0.002971 0.005248 -1411190.000000 0 0 1
-22.712882 -15.967511 2.007546 27.836427 0.612747 1.498614 0.014391 0.007296 480773.000000 0 0 1
-21.765182 -15.576011 3.038046 26.936314 0.621145 1.457770 0.019886 0.018185 435391.000000 0 0 1
-22.079382 -16.079211 4.467446 27.676673 0.629432 1.408671 0.019822 0.023662 -1104670.000000 0 0 1
-22.000282 -17.534611 4.537246 28.496694 0.672920 1.410896 0.027371 0.022236 193730.000000 0 0 1
-22.245882 -18.150111 5.817346 29.294151 0.684353 1.370884 0.019409 0.013985 -47293.800000 0 0 1
-22.661482 -19.633411 5.662146 30.513497 0.713926 1.384153 0.014644 0.011283 200739.000000 0 0 1
-22.921182 -20.349711 6.905046 31.419277 0.726041 1.349217 0.004140 0.007145 -129544.000000 0 0 1
-23.396482 -21.626211 6.677346 32.552655 0.746099 1.364205 0.018178 -0.001237 -32780.000000 0 0 1
-23.775782 -22.463611 7.890146 33.647526 0.757028 1.334098 0.024293 -0.001532 -363399.000000 0 0 1
-22.679782 -22.798311 8.669846 33.306182 0.788004 1.307456 0.021294 -0.000403 -701138.000000 0 0 1
-23.115682 -23.599811 9.744846 34.441949 0.795761 1.283943 0.024113 -0.007392 -253251.000000 0 0 1
-22.069282 -23.949311 10.785846 34.306810 0.826229 1.250978 0.024680 -0.009353 -469840.000000 0 0 1
-22.042582 -22.895011 11.741846 33.881085 0.804365 1.216894 0.020220 -0.008623 142449.000000 0 0 1
-21.337382 -23.302411 12.905746 34.129819 0.829389 1.183013 0.011608 -0.005101 -505074.000000 0 0 1
-21.666282 -22.413211 14.088346 34.209082 0.802342 1.146334 0.008875 -0.001957 -512303.000000 0 0 1
-22.884282 -22.729111 14.705646 35.447974 0.781996 1.143017 0.020920 -0.008658 -399676.000000 0 0 1
-23.201682 -21.813311 15.715146 35.512032 0.754566 1.112378 0.022118 0.004160 -346002.000000 0 0 1
-24.655482 -22.043011 16.196046 36.825250 0.729513 1.115411 0.010788 -0.002967 -532767.000000 0 0 1
-25.604552 -21.642811 15.220346 36.819333 0.701743 1.144634 0.018011 -0.003448 43460.600000 0 0 1
-26.113912 -22.731911 14.484246 37.529582 0.716270 1.174567 0.024463 -0.003598 -313581.000000 0 0 1
-27.268322 -23.529011 15.144546 39.070872 0.711918 1.172751 0.032280 -0.008309 -412745.000000 0 0 1
-26.824962 -24.285711 16.259646 39.670524 0.735758 1.148488 0.015241 -0.008821 -59434.300000 0 0 1
-27.741062 -25.306771 16.626246 41.066181 0.739542 1.153965 0.000446 -0.004015 -42319.400000 0 0 1
-27.483972 -26.729391 16.034846 41.556532 0.771480 1.174661 0.001421 -0.003876 -70555.100000 0 0 1
-27.955272 -26.901161 14.702446 41.488934 0.766185 1.208556 0.007532 -0.010400 -841320.000000 0 0 1
-29.257292 -27.384331 14.712346 42.688919 0.752343 1.218940 0.019320 -0.019111 -1034920.000000 0 0 1
-29.901732 -27.653541 13.371446 42.867557 0.746357 1.253578 0.025542 -0.021705 -216325.000000 0 0 1
-29.326662 -28.758891 12.745346 43.006636 0.775624 1.269920 0.025519 -0.021049 -448636.000000 0 0 1
-30.196232 -29.276091 11.809846 43.684945 0.769928 1.297049 0.018005 -0.016271 -491872.000000 0 0 1
-29.626332 -30.341731 10.874046 43.778820 0.797327 1.319783 0.018997 -0.002647 -122719.000000 0 0 1
-29.581952 -31.607931 11.520646 44.798197 0.818496 1.310706 0.017024 -0.002672 30473.800000 0 0 1
-28.930262 -32.570211 10.728746 44.865184 0.844515 1.329323 0.018324 -0.005136 -484532.000000 0 0 1
-29.005262 -33.990931 11.318246 46.095459 0.864376 1.322720 0.008894 0.001125 883976.000000 0 0 1
-30.299822 -34.596248 11.539046 47.414441 0.851506 1.324962 0.012591 0.004406 806886.000000 0 0 1
-30.127132 33.525901 11.873946 46.611380 -0.838743 1.313214 0.009740 0.002527 -296572.000000 0 0 1
-31.412792 32.821657 12.362346 47.083461 -0.807328 1.305120 0.027647 0.000443 399570.000000 0 0 1
-32.510092 32.541107 11.521246 47.419077 -0.785875 1.325374 0.017954 -0.001819 705967.000000 0 0 1
-33.224992 33.718709 11.036646 48.607191 -0.792773 1.341741 0.023788 -0.004396 -839451.000000 0 0 1
-34.586833 33.407047 10.437746 49.205959 -0.768049 1.357049 0.022230 -0.002713 -569249.000000 0 0 1
-34.641987 32.731777 9.186446 48.536865 -0.757053 1.380380 0.015497 -0.006009 -122229.000000 0 0 1
33.596339 32.545727 8.886546 47.612068 0.769515 1.383050 0.017301 -0.010127 -107847.000000 0 0 1
33.167606 31.995757 7.451846 46.683494 0.767417 1.410486 0.020973 -0.008867 -11464.400000 0 0 1
33.674596 30.718597 7.282446 46.158906 0.739525 1.412365 0.019210 -0.009198 73288.500000 0 0 1
33.448076 30.265207 5.978846 45.502782 0.735484 1.439020 0.024561 -0.009879 -38036.200000 0 0 1
33.712644 28.748197 5.826846 44.687284 0.706084 1.440032 0.018108 -0.002249 -344168.000000 0 0 1
32.822276 27.924407 6.538946 43.587064 0.704944 1.420207 0.025038 -0.002491 96007.100000 0 0 1
33.268026 27.452497 7.831546 43.837590 0.689914 1.391183 0.024626 -0.002560 -280878.000000 0 0 1
32.428846 26.237417 8.228946 42.517616 0.680251 1.376025 0.017727 -0.006501 40782.100000 0 0 1
32.582556 25.207177 7.331846 41.842331 0.658460 1.394661 0.019013 -0.007047 49118.400000 0 0 1
31.568456 24.232997 7.484546 40.494740 0.654691 1.384900 0.016012 -0.001960 -503668.000000 0 0 1
31.847636 22.855097 6.887546 39.800322 0.622466 1.396868 0.009941 0.002587 -288546.000000 0 0 1
32.811756 22.056797 7.493746 40.240152 0.591839 1.383477 0.009365 0.002270 -2386.280000 0 0 1
34.145585 22.324697 7.056046 41.401701 0.579048 1.399531 -0.001676 -0.000637 491227.000000 0 0 1
-34.548326 21.053897 7.057446 41.068978 -0.547306 1.398095 0.002183 0.004026 -113213.000000 0 0 1
34.644199 20.208497 5.957746 40.547486 0.528061 1.423330 0.005515 0.002189 437599.000000 0 0 1
-34.583109 18.864797 6.285746 39.892137 -0.499375 1.412568 0.010904 0.002093 -301848.000000 0 0 1
34.515301 17.893197 5.188546 39.222360 0.478270 1.438122 0.016806 -0.000537 -304887.000000 0 0 1
-34.336556 17.742797 3.979646 38.854131 -0.476943 1.468191 0.016994 0.005005 119478.000000 0 0 1
34.713849 16.744697 3.139746 38.669034 0.449439 1.489511 0.010404 -0.000843 -734378.000000 0 0 1
-33.998852 16.335497 1.948546 37.769925 -0.447904 1.519184 0.015129 0.013125 598970.000000 0 0 1
-32.838862 15.523297 2.134046 36.385681 -0.441579 1.512112 0.023390 0.005988 1054510.000000 0 0 1
-31.645992 16.261697 2.439046 35.663154 -0.474676 1.502352 0.027150 0.005337 283495.000000 0 0 1
-30.429052 15.343397 2.682446 34.183952 -0.467030 1.492245 0.016748 0.003250 -70900.100000 0 0 1
-30.457592 14.679797 3.942646 34.039768 -0.449124 1.454711 0.020327 -0.003098 525868.000000 0 0 1
-29.134482 14.339597 4.317246 32.757910 -0.457377 1.438619 0.004870 0.001388 93428.400000 0 0 1
-29.124872 13.746797 5.726646 32.711268 -0.440994 1.394823 0.005913 -0.000975 -484182.000000 0 0 1
-29.394262 12.356397 5.739546 32.398234 -0.397940 1.392700 0.005046 -0.002355 509282.000000 0 0 1
-29.099132 11.740797 7.000646 32.149881 -0.383499 1.351287 0.005163 0.000928 -329982.000000 0 0 1
-29.219442 10.232597 7.113746 31.766133 -0.336851 1.344940 0.001083 -0.000705 412813.000000 0 0 1
-30.563012 9.758397 7.106146 32.860635 -0.309057 1.352823 -0.007983 0.002394 339708.000000 0 0 1
-30.559032 8.327897 7.117446 32.463307 -0.266058 1.349755 -0.011351 0.001074 226899.000000 0 0 1
-31.969012 7.693397 7.071846 33.633571 -0.236161 1.358954 -0.011767 0.002688 -78992.600000 0 0 1
-32.739902 7.731397 8.239946 34.634843 -0.231898 1.330584 -0.014963 0.005415 -282677.000000 0 0 1
-34.030202 7.269997 7.905446 35.684781 -0.210470 1.347407 -0.016162 0.010002 -9278.560000 0 0 1
-34.765091 6.707897 9.169546 36.574417 -0.190607 1.317383 -0.021705 0.013226 145970.000000 0 0 1
34.333992 7.682997 10.132646 36.613139 0.220146 1.290387 -0.010172 0.011249 414045.000000 0 0 1
-34.211638 8.356197 10.792446 36.833939 -0.239560 1.273430 0.002369 0.010127 -180870.000000 0 0 1
-34.730037 9.278497 11.937546 37.878371 -0.261063 1.250177 0.006905 -0.002427 -241734.000000 0 0 1
34.260006 8.504297 12.957646 37.602814 0.243310 1.218992 -0.011591 0.003356 559236.000000 0 0 1
33.770869 9.339697 14.000046 37.731987 0.269817 1.190668 0.002311 -0.005073 20662.600000 0 0 1
32.944886 8.670397 15.157246 37.286504 0.257343 1.152168 -0.011885 -0.001915 -39880.800000 0 0 1
31.601146 8.296697 14.927446 35.920694 0.256750 1.142231 -0.006859 -0.003545 417254.000000 0 0 1
31.135156 7.492597 16.028246 35.811194 0.236157 1.106743 -0.011772 0.000290 -99042.200000 0 0 1
29.621416 7.215097 15.955846 34.410390 0.238924 1.088638 -0.013111 0.007542 -457095.000000 0 0 1
28.877686 8.444997 16.143546 34.144587 0.284507 1.078331 -0.017650 0.004067 826369.000000 0 0 1
27.467216 8.273497 15.988046 32.840772 0.292570 1.062333 -0.006399 0.008909 663244.000000 0 0 1
26.710416 7.536297 17.135646 32.617058 0.275000 1.017660 0.007200 0.017753 -684410.000000 0 0 1
26.526276 8.429997 18.274846 33.296819 0.307704 0.989812 0.012129 0.008010 -195259.000000 0 0 1
25.877416 7.860497 19.373546 33.268038 0.294902 0.949183 0.019329 0.008999 -393940.000000 0 0 1
26.526366 6.797997 20.317946 34.098091 0.250874 0.932451 0.014941 0.014893 -128197.000000 0 0 1
25.897556 6.786297 21.591646 34.393843 0.256282 0.892103 0.022124 0.013417 113871.000000 0 0 1
26.476426 5.842897 22.450346 35.201685 0.217202 0.879205 0.015334 0.012189 -431825.000000 0 0 1
25.822176 5.799897 23.864046 35.635884 0.220942 0.837041 0.024806 0.022444 431349.000000 0 0 1
24.484306 5.344697 23.985746 34.689523 0.214919 0.807315 0.008366 0.017384 66854.000000 0 0 1
23.542106 6.378797 23.805646 34.082673 0.264600 0.797542 0.013233 0.016357 -207730.000000 0 0 1
22.061006 5.956397 23.940046 33.095203 0.263709 0.762127 0.006190 0.010722 260669.000000 0 0 1
21.609506 5.086597 22.921046 31.909537 0.231179 0.769421 -0.005751 0.015439 -334859.000000 0 0 1
20.226206 5.187897 22.717246 30.855906 0.251081 0.743304 -0.012353 0.005816 -1817240.000000 0 0 1
19.777406 3.927897 21.900246 29.769026 0.196054 0.744138 -0.004328 0.003072 47237.700000 0 0 1
18.482206 3.974397 21.334946 28.505573 0.211814 0.725077 0.001704 -0.003745 378976.000000 0 0 1
17.421806 4.143697 22.265046 28.573096 0.233507 0.677358 0.002031 -0.002447 -446156.000000 0 0 1
16.007906 4.050997 21.603046 27.191087 0.247859 0.652629 0.003979 -0.001005 384915.000000 0 0 1
15.732806 2.757697 21.228246 26.566229 0.173520 0.645051 0.000013 -0.000644 226972.000000 0 0 1
14.492606 2.623897 20.531846 25.268106 0.179111 0.622266 0.001207 -0.008984 334857.000000 0 0 1
13.640506 1.462697 21.144446 25.204969 0.106824 0.575537 0.007116 -0.007097 -130333.000000 0 0 1
14.255406 0.214597 21.009046 25.389814 0.015053 0.596228 -0.000491 -0.009508 279296.000000 0 0 1
13.755506 -0.631003 22.031046 25.980360 -0.045841 0.558618 0.004900 -0.005835 101839.000000 0 0 1
14.248006 -2.089903 21.765946 26.098463 -0.145642 0.584490 -0.005407 0.000035 -113592.000000 0 0 1
13.638206 -2.592703 20.600646 24.841686 -0.187864 0.592983 0.004355 0.001609 197990.000000 0 1 0
14.078206 -3.908603 20.328046 25.034027 -0.270814 0.623197 -0.000965 0.002927 -442377.000000 0 0 1
13.728706 -4.425003 18.898446 23.774130 -0.311804 0.651927 0.000215 0.003762 -1282470.000000 0 1 0
12.392206 -4.592003 18.657346 22.863723 -0.354869 0.616298 0.014353 -0.001820 -1337650.000000 0 1 0
12.100306 -5.257303 17.457246 21.881775 -0.409870 0.647161 0.024888 0.000072 -872739.000000 0 1 0
10.607906 -5.406103 17.294046 20.996134 -0.471322 0.602930 0.031276 -0.004402 -961448.000000 0 1 0
10.051606 -6.343603 18.139746 21.687011 -0.562976 0.580053 0.029770 0.004483 -337713.000000 0 1 0
8.656206 -6.358303 17.875546 20.854090 -0.633531 0.541043 0.030163 -0.008369 239243.000000 0 1 0
7.790606 -7.152903 18.868646 21.630612 -0.742750 0.510885 0.027679 -0.008315 -310917.000000 0 1 0
7.892106 -8.569803 18.706446 22.037649 -0.826543 0.557008 0.027158 -0.003264 -306895.000000 0 1 0
9.068506 -9.157303 19.192346 23.117961 -0.790270 0.591344 0.023885 -0.006148 -233995.000000 0 1 0
9.292906 -10.545303 18.541046 23.266540 -0.848445 0.648654 0.021096 -0.005965 100162.000000 0 1 0
9.381306 -10.548103 17.106846 22.179169 -0.843878 0.689911 0.024045 -0.013917 128577.000000 0 1 0
9.556506 -11.881803 16.739746 22.643390 -0.893440 0.738800 -0.000706 -0.006088 146627.000000 0 1 0
9.600406 -12.040703 15.192046 21.632027 -0.897686 0.792181 0.002272 -0.011478 -46906.200000 0 1 0
9.831406 -13.402803 14.814646 22.265790 -0.937917 0.842828 -0.029797 0.004364 17634.300000 0 1 0
9.671906 -13.613803 13.380746 21.399200 -0.953092 0.895291 -0.021852 0.006430 -969610.000000 0 1 0
10.596006 -14.693103 12.799346 22.180754 -0.946013 0.955688 -0.008119 0.003715 431611.000000 0 1 0
11.961506 -14.375503 12.583646 22.540649 -0.876801 0.978504 -0.014162 0.001155 112221.000000 0 1 0
12.241306 -13.443803 11.581946 21.557525 -0.832181 1.003614 -0.023652 0.001402 -1058500.000000 0 1 0
13.670506 -13.411303 11.031146 22.100496 -0.775827 1.048195 -0.006323 0.002028 -109309.000000 0 1 0
14.059406 -14.598803 10.388846 22.775426 -0.804218 1.097140 -0.003185 0.004748 -109995.000000 0 1 0
15.393906 -14.507403 9.923846 23.364926 -0.755759 1.132130 0.002843 -0.003768 248679.000000 0 1 0
15.905206 -15.863003 9.337546 24.326944 -0.784070 1.176850 -0.001931 -0.006491 60773.200000 0 1 0
16.262206 -16.833003 10.303846 25.573004 -0.802644 1.156093 -0.000587 -0.003114 48713.900000 0 0 1
15.143206 -17.483503 10.865046 25.554623 -0.857005 1.131647 0.009333 -0.000487 132228.000000 0 0 1
15.502406 -18.040703 12.228146 26.745450 -0.860927 1.095947 0.011428 0.005020 -232677.000000 0 0 1
16.568706 -18.934803 12.215946 27.969235 -0.851944 1.118798 0.022855 0.003947 -594273.000000 0 0 1
16.881406 -19.361503 13.460446 29.000573 -0.853722 1.088128 0.010438 0.001862 33369.900000 0 0 1
18.200606 -20.175403 13.401646 30.297080 -0.836812 1.112589 -0.010769 0.001006 302530.000000 0 0 1
19.296906 -19.451003 12.878446 30.274848 -0.789375 1.131410 -0.016226 -0.000316 -813849.000000 0 0 1
20.310306 -20.323603 12.505246 31.335898 -0.785725 1.160293 -0.020024 -0.002120 -455493.000000 0 0 1
21.148406 -19.700903 11.395146 31.068151 -0.749978 1.195252 -0.009672 -0.000250 -1170800.000000 0 0 1
20.690606 -19.816603 10.075546 30.369648 -0.763825 1.232624 -0.010662 -0.006049 558890.000000 0 0 1
19.688706 -18.924803 9.500646 28.914625 -0.765617 1.236001 -0.009288 -0.005591 795916.000000 0 0 1
20.034006 -17.413703 9.586446 28.222303 -0.715540 1.224224 -0.010080 -0.007507 111562.000000 0 0 1
21.081506 -16.863003 8.802846 28.395085 -0.674677 1.255590 -0.003857 -0.005107 37746.500000 0 0 1
21.352906 -15.530603 9.216446 27.965856 -0.628834 1.234958 0.006721 -0.000733 48464.300000 0 0 1
-33.108122 25.689989 7.857746 42.636456 -0.659898 1.385440 0.015647 0.004935 -92103.700000 0 0 1
-32.480612 24.864889 8.873746 41.856854 -0.653367 1.357173 0.013572 0.006554 146146.000000 0 0 1
-31.388182 25.617689 9.357946 41.581908 -0.684516 1.343804 0.016183 0.007707 -801352.000000 0 0 1
-30.442322 24.662989 10.085646 40.456374 -0.680902 1.318842 0.013211 -0.000784 -539520.000000 0 0 1
-29.677962 23.778489 9.319746 39.154254 -0.675483 1.330463 0.012638 -0.000423 -311368.000000 0 0 1
-29.069682 22.788189 10.021746 38.272488 -0.664856 1.305855 0.009860 -0.001988 -116985.000000 0 0 1
-28.159062 21.875389 9.116946 36.804675 -0.660465 1.320479 0.010716 -0.003350 224996.000000 0 0 1
-28.882272 21.069989 8.193346 36.677799 -0.630260 1.345508 0.013798 -0.008217 281298.000000 0 0 1
-28.024852 20.305689 7.339946 35.377791 -0.627020 1.361805 0.007991 -0.009771 88097.500000 0 0 1
-28.836952 19.501689 6.323346 35.381780 -0.594625 1.391113 0.010515 -0.004149 -61571.000000 0 0 1
-29.650612 18.437889 6.792946 35.570474 -0.556323 1.378645 0.010191 -0.003311 1167850.000000 0 0 1
-30.780372 18.108589 5.955946 36.205325 -0.531784 1.405540 -0.002368 0.000465 625202.000000 0 0 1
-31.416592 16.776489 6.405446 36.186773 -0.490477 1.392848 0.014256 -0.000481 -378714.000000 0 0 1
-32.153492 16.934489 7.589846 37.124516 -0.484760 1.364902 0.008776 -0.003816 217419.000000 0 0 1
-32.915002 15.809589 8.014746 37.384176 -0.447776 1.354730 0.015833 -0.004983 28384.700000 0 0 1
-33.807292 16.169989 9.240846 38.597859 -0.446136 1.329035 0.015223 -0.013964 -229015.000000 0 0 1
34.700499 16.974189 8.872046 39.635349 0.454940 1.345042 0.014926 -0.007959 -192418.000000 0 0 1
34.169697 17.530589 10.051946 39.698002 0.474029 1.314799 0.014160 -0.005022 -156041.000000 0 0 1
33.232096 18.721589 9.760246 39.371722 0.513041 1.320284 0.011897 -0.007972 -189982.000000 0 0 1
32.007926 18.358089 9.161146 38.019118 0.520743 1.327440 0.005611 -0.007891 -232294.000000 0 0 1
31.295866 19.557689 9.062646 38.000868 0.558548 1.329991 0.005115 -0.005069 -224117.000000 0 0 1
29.958076 19.537589 8.294446 36.715140 0.577895 1.342916 0.000332 -0.007609 -67396.000000 0 0 1
29.418416 20.882489 8.342046 37.028519 0.617302 1.343559 -0.005576 -0.008378 1313060.000000 0 0 1
28.077146 21.116589 7.819946 35.991499 0.644838 1.351777 -0.001871 -0.009999 1402430.000000 0 0 1
27.974316 20.927189 6.270246 35.494021 0.642275 1.393208 -0.019087 0.002918 -727875.000000 0 0 1
28.039606 19.563989 5.951246 34.704272 0.609199 1.398460 -0.015972 -0.003236 118959.000000 0 0 1
27.667566 19.252789 4.600446 34.019526 0.607943 1.435151 -0.012831 -0.005367 -325187.000000 0 0 1
26.265726 19.557089 4.076146 32.999743 0.640027 1.446960 -0.003474 -0.001862 -1861350.000000 0 0 1
25.230646 18.822789 4.648446 31.819662 0.640955 1.424184 -0.006772 -0.008356 -119232.000000 0 0 1
23.910006 19.127089 4.279846 30.916840 0.674718 1.431919 0.004564 -0.010894 -33193.100000 0 0 1
23.425606 20.623489 4.604446 31.548189 0.721870 1.424324 0.010354 -0.014872 -1062360.000000 0 0 1
24.008706 21.586689 3.764146 32.504951 0.732328 1.454734 0.010996 -0.010814 343013.000000 0 0 1
23.517406 22.868989 4.174446 33.067885 0.771420 1.444220 0.005943 -0.004983 -285671.000000 0 0 1
24.512606 23.987989 3.857746 34.513383 0.774582 1.458787 0.007601 0.001288 374451.000000 0 0 1
25.660296 23.885989 4.719646 35.373243 0.749602 1.436973 0.004945 0.003686 468380.000000 0 0 1
26.400226 25.055889 4.831246 36.716623 0.759278 1.438832 0.003784 0.006634 -267913.000000 0 0 1
27.714776 24.941089 5.694246 37.717252 0.732771 1.419245 0.002226 0.007253 575984.000000 0 0 1
28.616056 23.877889 5.385046 37.656751 0.695381 1.427301 0.005015 0.004923 560446.000000 0 0 1
29.099736 23.803889 4.004246 37.808117 0.685627 1.464688 0.010755 0.004481 -745249.000000 0 0 1
30.098326 24.862289 3.540846 39.199237 0.690416 1.480344 0.014316 0.003022 -1051210.000000 0 0 1
29.484346 26.139089 3.495546 39.557521 0.725329 1.482315 0.011295 0.007295 -384273.000000 0 0 1
30.231706 27.133989 2.845146 40.722282 0.731451 1.500872 0.011262 0.008635 -1295830.000000 0 0 1
29.733606 28.585289 2.874346 41.345712 0.765710 1.501220 0.015822 0.014978 -178546.000000 0 0 1
28.675156 29.014289 2.059746 40.845270 0.791277 1.520347 0.013930 0.012697 -761430.000000 0 0 1
27.461046 28.475289 2.498746 39.638300 0.803528 1.507716 0.004349 0.016124 -1221660.000000 0 0 1
26.235986 29.133789 1.822746 39.248274 0.837686 1.524338 -0.006415 0.010693 77036.600000 0 0 1
26.006166 30.444389 2.337946 40.107947 0.863858 1.512472 -0.007996 0.000392 99417.100000 0 0 1
24.694646 30.830689 1.968346 39.550364 0.895460 1.521008 -0.008998 0.005590 337941.000000 0 0 1
24.369806 32.231289 2.569746 40.488850 0.923408 1.507286 -0.011254 -0.001669 -619712.000000 0 0 1
24.113606 32.268189 4.008646 40.481739 0.929034 1.471610 -0.015054 -0.007471 49770.800000 0 0 1
25.249146 32.066889 4.858846 41.102471 0.903792 1.452306 -0.012890 -0.009503 265760.000000 0 0 1
24.901746 32.006189 6.359346 41.047952 0.909597 1.415245 -0.015616 -0.009667 53029.800000 0 0 1
24.188206 30.868989 6.877846 39.815431 0.906150 1.397182 -0.016671 -0.013348 232119.000000 0 0 1
24.931346 29.658189 7.011346 39.374346 0.871772 1.391773 -0.000138 -0.012957 -404233.000000 0 0 1
24.115606 28.533689 7.566346 38.118020 0.869117 1.370971 0.003114 -0.009605 4948.600000 0 0 1
23.177606 28.045889 6.596446 36.976836 0.880154 1.391442 -0.012337 -0.014845 202135.000000 0 0 1
22.615206 26.768589 6.854246 35.706940 0.869305 1.377639 -0.002354 -0.006962 -303530.000000 0 0 1
21.522106 26.528389 5.798846 34.649431 0.889212 1.402647 -0.000848 -0.002595 -255889.000000 0 0 1
21.968706 26.210289 4.449946 34.487755 0.873210 1.441406 -0.000573 -0.006164 288289.000000 0 0 1
22.163006 27.411089 3.642446 35.437748 0.890869 1.467830 0.001749 -0.002344 -71246.000000 0 0 1
22.276206 27.156589 2.092646 35.186486 0.883807 1.511288 0.004728 0.004072 872817.000000 0 0 1
23.407506 26.320389 1.703646 35.264381 0.843908 1.522467 -0.003713 0.009953 877578.000000 0 0 1
23.338906 26.018189 0.378446 34.954168 0.839629 1.559969 0.000614 0.009716 -977307.000000 0 0 1
24.519406 25.395489 -0.302354 35.301891 0.802948 1.579361 0.007470 0.008163 -2684420.000000 0 0 1
25.647736 26.188789 -0.476054 36.659046 0.795835 1.583783 0.008436 0.015589 -301818.000000 0 0 1
26.620446 25.548189 -1.277654 36.918701 0.764847 1.605410 -0.001414 0.013965 56219.000000 0 0 1
27.429596 24.469189 -0.517254 36.761277 0.728418 1.584867 -0.002397 0.008973 -1476280.000000 0 0 1
26.683616 23.299889 -0.265454 35.425565 0.717804 1.578290 0.002196 0.005747 -63770.900000 0 0 1
27.411376 22.284389 0.369746 35.328660 0.682594 1.560330 0.004783 0.005534 153293.000000 0 0 1
26.484826 21.223289 1.084446 33.956590 0.675556 1.538855 0.006604 0.000786 158572.000000 0 0 1
25.915026 20.334989 0.217746 32.941581 0.665329 1.564186 0.008827 -0.013029 -2654.710000 0 0 1
24.656846 19.926789 0.692646 31.709883 0.679700 1.548951 0.012213 -0.012409 -540537.000000 0 0 1
24.193906 18.579389 0.125246 30.504990 0.654882 1.566691 0.014006 -0.020449 -145150.000000 0 0 1
22.833906 18.330189 0.452046 29.284593 0.676423 1.555359 0.013241 -0.019714 300613.000000 0 0 1
22.345506 17.289789 -0.370254 28.255893 0.658527 1.583900 0.013855 -0.024463 839039.000000 0 0 1
20.789706 17.106789 -0.236954 26.924157 0.688519 1.579597 -0.003188 -0.012054 -128057.000000 0 0 1
20.228906 16.172689 -1.112754 25.923015 0.674426 1.613735 -0.003638 -0.009346 1102790.000000 0 0 1
18.834506 15.822689 -0.936654 24.616527 0.698713 1.608855 -0.003557 -0.007412 1382420.000000 0 1 0
17.807506 16.935789 -1.309254 24.609802 0.760313 1.624022 -0.006938 -0.007400 -664669.000000 0 1 0
17.953106 18.116189 -0.479854 25.509617 0.789920 1.589608 -0.002990 -0.012632 -83678.800000 0 0 1
17.101406 19.180789 -0.912854 25.713693 0.842647 1.606304 -0.017435 -0.013050 45903.200000 0 0 1
17.267906 20.586589 -0.330554 26.871871 0.872844 1.583098 -0.011435 -0.011507 -256752.000000 0 0 1
16.637306 20.749689 0.961346 26.613412 0.894953 1.534666 -0.006548 -0.006237 234293.000000 0 0 1
16.598006 22.035889 1.534346 27.630208 0.925234 1.515236 -0.005196 -0.009445 327649.000000 0 0 1
15.453606 22.976289 0.985746 27.707318 0.978705 1.535212 -0.015570 -0.008313 248209.000000 0 0 1
14.255006 22.768789 1.685446 26.915862 1.011423 1.508136 -0.015203 -0.004826 -501522.000000 0 0 1
13.227606 23.596089 1.211446 27.077898 1.059863 1.526042 -0.014737 -0.006751 640310.000000 0 0 1
11.836406 23.445389 1.913546 26.333409 1.103276 1.498066 -0.007073 -0.007457 698353.000000 0 0 1
11.870206 24.104989 3.220946 27.061536 1.113217 1.451490 -0.004096 0.000340 238064.000000 0 0 1
10.716306 23.795589 4.009346 26.403487 1.147653 1.418358 0.000393 0.000416 355049.000000 0 0 1
10.749606 24.258389 5.486846 27.094814 1.153671 1.366881 -0.003128 0.002486 -505191.000000 0 0 1
11.480106 23.423289 6.328546 26.842015 1.115088 1.332785 0.004315 -0.004223 86280.100000 0 0 1
10.636606 22.492989 6.982446 25.842339 1.129075 1.297202 -0.000795 -0.011286 -453542.000000 0 0 1
11.396306 21.343189 7.633046 25.370670 1.080355 1.265201 0.012369 -0.012823 161489.000000 0 0 1
12.438606 21.700589 8.540946 26.430706 1.050322 1.241746 0.017110 -0.007151 1532410.000000 0 0 1
13.737306 21.848489 7.922846 26.997065 1.009503 1.272941 0.026833 -0.007983 1590810.000000 0 0 1
15.050006 21.997989 8.798246 28.068190 0.970785 1.251962 0.029756 -0.004319 594361.000000 0 0 1
15.307206 20.774289 9.453146 27.481695 0.935775 1.219644 0.033375 -0.006407 63575.900000 0 0 1
16.615506 20.709789 9.977346 28.364023 0.894653 1.211345 0.026303 -0.004294 76877.900000 0 0 1
16.952806 21.578889 11.189146 29.635166 0.904885 1.183633 0.013131 -0.000607 -265986.000000 0 0 1
16.224306 21.164489 12.390146 29.405431 0.916767 1.135857 0.020299 0.005582 334396.000000 0 0 1
16.323706 21.982889 13.529446 30.541065 0.932071 1.111863 0.010197 0.023478 318399.000000 0 0 1
17.482306 21.523789 14.493846 31.288593 0.888641 1.089159 0.010944 0.026313 1657000.000000 0 0 1
18.778306 21.748789 13.884946 31.912792 0.858564 1.120658 0.016048 0.026443 643871.000000 0 0 1
19.808006 21.228289 14.714546 32.550195 0.819995 1.101726 0.015293 0.023624 1243420.000000 0 0 1
21.292206 21.616889 14.347846 33.563501 0.792965 1.129089 0.013433 0.020328 939257.000000 0 0 1
21.697506 21.093189 13.094946 32.972443 0.771276 1.162389 0.017546 0.018200 301212.000000 0 0 1
22.975506 21.616889 12.722746 34.015173 0.754940 1.187444 -0.003904 0.016334 581177.000000 0 0 1
23.500706 21.104189 11.353146 33.564324 0.731722 1.225739 -0.004888 0.012699 -306560.000000 0 0 1
22.839306 21.707689 10.295146 33.148871 0.760001 1.255000 0.001509 0.007454 -10050.000000 0 0 1
23.588806 21.714389 9.117546 33.332808 0.744047 1.293735 -0.005346 0.004219 -502691.000000 0 0 1
23.150906 22.863189 8.148446 33.542317 0.779145 1.325411 -0.004451 -0.000342 -345999.000000 0 0 1
23.581806 24.183089 8.572646 34.848437 0.797986 1.322247 0.005003 -0.004685 -348336.000000 0 0 1
24.947896 24.403589 8.424246 35.901261 0.774369 1.333937 -0.001576 -0.001523 -1453660.000000 0 0 1
25.418686 25.413989 9.361746 37.143272 0.785306 1.316004 0.008181 -0.004053 -1358360.000000 0 0 1
26.664166 25.831289 8.913246 38.179565 0.769534 1.335166 0.001521 -0.005655 -536441.000000 0 0 1
27.079406 26.965989 9.649846 39.415457 0.783300 1.323458 0.002922 -0.009201 -720553.000000 0 0 1
28.352486 27.511189 9.063346 40.532372 0.770339 1.345282 0.007411 -0.011019 -690230.000000 0 0 1
28.130626 28.212889 7.832146 40.603469 0.786858 1.376686 0.004275 -0.009908 -59682.200000 0 0 1
29.355956 28.469089 7.208046 41.523693 0.770062 1.396324 0.019478 -0.008807 -251012.000000 0 0 1
29.256946 29.572189 6.134346 42.048941 0.790757 1.424388 0.035464 -0.004559 24855.900000 0 0 1
29.179466 30.896089 6.604246 43.007274 0.813965 1.416625 0.035670 -0.012980 202418.000000 0 0 1
29.249806 31.810989 5.549746 43.569368 0.827318 1.443072 0.034664 -0.012736 41606.100000 0 0 1
29.262356 33.318989 5.962046 44.743563 0.850129 1.437150 0.019065 -0.008670 425890.000000 0 0 1
27.935766 33.620089 6.370046 44.173463 0.877481 1.426087 -0.000541 -0.008839 261818.000000 0 0 1
27.815836 -34.533020 6.845046 44.867637 -0.892720 1.417637 -0.001097 -0.002482 -411137.000000 0 0 1
26.368116 -34.186920 7.177246 43.766836 -0.913807 1.406064 -0.008332 -0.005111 -626529.000000 0 0 1
25.568866 -34.147220 6.051746 43.086229 -0.928074 1.429874 -0.004201 -0.011473 -61012.100000 0 0 1
24.240206 -33.693820 6.320546 41.985836 -0.947151 1.419682 -0.007712 -0.008120 569923.000000 0 0 1
23.300106 -33.712120 5.102446 41.296936 -0.966035 1.446925 -0.003660 -0.014463 -139570.000000 0 0 1
23.792406 -32.940620 4.043646 40.835207 -0.945272 1.471610 -0.006396 -0.002541 -210753.000000 0 0 1
22.986506 -33.013520 2.889646 40.331402 -0.962574 1.499087 -0.001957 -0.006755 -133830.000000 0 0 1
23.620806 -32.323220 1.672046 40.069050 -0.939717 1.529055 0.005995 0.002625 -57928.000000 0 0 1
23.612106 -30.926820 1.791946 38.951390 -0.918722 1.524775 0.014910 0.004968 -56281.700000 0 0 1
24.344206 -30.349020 0.731346 38.913214 -0.894751 1.552001 0.005278 0.001267 -186978.000000 0 0 1
24.622446 -28.836920 0.962146 37.930970 -0.864071 1.545428 -0.000925 -0.002186 798920.000000 0 0 1
23.465306 -27.956920 1.005146 36.513289 -0.872525 1.543265 0.011275 -0.003575 827579.000000 0 0 1
22.886906 -27.714220 -0.309754 35.944185 -0.880510 1.579414 0.015337 -0.002115 176864.000000 0 0 1
21.802306 -26.621620 -0.164154 34.410437 -0.884595 1.575567 0.009484 -0.002154 91203.500000 0 0 1
22.425906 -25.387020 0.201746 33.874219 -0.847250 1.564841 -0.001585 -0.006937 123251.000000 0 0 1
22.406306 -25.043220 1.634446 33.643377 -0.840914 1.522196 0.002515 -0.004512 257531.000000 0 0 1
20.994206 -24.567320 2.064446 32.381659 -0.863662 1.506999 -0.004609 -0.004826 238142.000000 0 0 1
21.000306 -23.944420 3.288246 32.018130 -0.850810 1.467915 -0.004178 -0.009030 -1180080.000000 0 0 1
19.715306 -23.771620 3.753146 31.110598 -0.878406 1.449863 -0.000449 -0.005498 -972199.000000 0 0 1
19.548306 -23.048120 5.134146 30.654715 -0.867376 1.402520 -0.002320 -0.007154 -225605.000000 0 0 1
19.860906 -21.643920 5.200846 29.832259 -0.828331 1.395565 0.006526 -0.004643 474630.000000 0 0 1
18.821506 -20.829820 4.645646 28.455448 -0.836004 1.406802 0.004745 -0.005269 -229069.000000 0 0 1
18.978806 -19.306920 4.869946 27.507610 -0.793968 1.392818 0.003815 -0.002118 25142.100000 0 0 1
18.745006 -18.821020 6.196046 27.276309 -0.787422 1.341637 0.001209 -0.008807 458506.000000 0 0 1
17.356706 -18.613020 6.470546 26.259621 -0.820311 1.321825 0.003016 -0.007954 635272.000000 0 0 1
18.108118 -26.734571 -12.592754 34.658602 -0.975448 1.942644 0.014691 -0.001417 189175.000000 0 0 1
18.487718 -25.410481 -12.908554 33.972328 -0.941810 1.960563 0.007686 -0.001771 354864.000000 0 0 1
17.317818 -24.729011 -13.345754 33.008181 -0.959867 1.987028 0.012763 -0.003247 433063.000000 0 0 1
17.700118 -23.275211 -13.809354 32.337716 -0.920628 2.012008 0.013962 -0.008781 184636.000000 0 0 1
17.833018 -22.325411 -12.792654 31.306430 -0.896802 1.991746 0.021448 -0.008028 -363008.000000 0 0 1
19.025518 -22.230511 -12.045554 31.642714 -0.862928 1.961321 0.014422 -0.010000 -787857.000000 0 0 1
19.085218 -23.122411 -10.748154 31.849871 -0.880759 1.915017 0.007507 -0.004560 28244.300000 0 0 1
18.213418 -22.841511 -9.666754 30.771893 -0.897654 1.890349 0.002703 -0.000522 1745150.000000 0 0 1
16.775518 -22.907911 -9.892154 30.067343 -0.938718 1.906041 0.003853 0.002140 1728640.000000 0 0 1
15.774618 -22.373411 -8.819254 28.760865 -0.956682 1.882458 0.001746 -0.000746 -183624.000000 0 0 1
15.748018 -20.927611 -8.699454 27.597926 -0.925697 1.891486 0.006960 -0.005450 367751.000000 0 0 1
14.938918 -20.418911 -7.626754 26.424810 -0.939161 1.863583 0.004789 -0.005004 218460.000000 0 0 1
13.417918 -20.338611 -7.889354 25.611356 -0.987614 1.883930 0.005388 0.001350 -427289.000000 0 0 1
12.859418 -21.588811 -7.851854 26.326660 -1.033580 1.873652 -0.002247 -0.002782 -126830.000000 0 0 1
11.494318 -21.462311 -8.256654 25.708413 -1.079108 1.897756 -0.008299 -0.004693 711358.000000 0 0 1
10.650918 -22.784411 -8.058054 26.410295 -1.133514 1.880851 -0.003683 -0.005496 -18109.500000 0 0 1
10.755118 -23.102011 -6.645254 26.335051 -1.135087 1.825889 0.001193 -0.007527 364751.000000 0 0 1
10.180918 -24.407111 -6.448954 27.220345 -1.175611 1.809987 0.000579 -0.007480 -78467.300000 0 0 1
10.663218 -24.920711 -5.147954 27.590714 -1.166484 1.758479 0.006539 -0.010342 199783.000000 0 0 1
9.678518 -25.493601 -4.264254 27.600386 -1.207960 1.725917 0.012410 -0.015935 768928.000000 0 0 1
10.390818 -26.255711 -3.247454 28.423185 -1.193955 1.685300 0.010995 -0.014920 843348.000000 0 0 1
9.377118 -26.968071 -2.317754 28.645754 -1.236161 1.651796 0.016340 -0.011059 446031.000000 0 0 1
8.515218 -26.213681 -1.503754 27.603031 -1.256710 1.625301 0.010865 -0.007492 -104712.000000 0 0 1
7.696518 -27.153431 -0.791054 28.234217 -1.294595 1.598818 0.011712 -0.005775 234904.000000 0 0 1
6.868018 -26.604721 0.376546 27.479495 -1.318162 1.557093 0.012053 -0.001413 267529.000000 0 0 1
5.679118 -25.898331 0.028546 26.513709 -1.354928 1.569720 0.022205 -0.006535 166068.000000 0 0 1
5.110618 -25.360961 1.249546 25.900929 -1.371944 1.522534 0.016342 -0.005961 -200472.000000 0 0 1
3.631718 -24.958311 1.208146 25.250075 -1.426299 1.522931 0.008552 -0.003942 -375124.000000 0 0 1
2.847618 -26.071031 0.918346 26.242160 -1.462002 1.535794 0.006855 -0.006064 -1203940.000000 0 0 1
1.556018 -25.644751 0.619446 25.699381 -1.510195 1.546690 -0.000818 0.000536 -734081.000000 0 0 1
0.657618 -26.807841 0.231246 26.816903 -1.546270 1.562173 0.003519 0.004707 -402497.000000 0 0 1
0.296218 -27.691961 1.236846 27.721152 -1.560100 1.526164 0.004379 0.005229 -326831.000000 0 0 1
0.544218 -29.044501 0.911046 29.063882 -1.552061 1.539445 0.005023 0.003539 -78659.700000 0 0 1
0.106218 -30.153931 1.937046 30.216271 -1.567274 1.506646 0.005407 0.001697 250804.000000 0 0 1
0.682118 -30.069051 3.224746 30.249167 -1.548115 1.463987 0.000193 -0.001294 46843.200000 0 0 1
0.055718 -31.074941 3.982446 31.329139 -1.569003 1.443335 -0.001906 -0.000278 63688.500000 0 0 1
0.137318 -30.933921 5.536246 31.425728 -1.566357 1.393703 -0.006499 -0.001297 522766.000000 0 0 1
1.481418 -31.284681 5.904646 31.871472 -1.523479 1.384456 0.003318 0.002272 708390.000000 0 0 1
1.607818 -31.287751 7.283246 32.164486 -1.519453 1.342378 0.008964 0.001598 -375015.000000 0 0 1
2.975218 -31.723421 7.804546 32.804547 -1.477284 1.330582 0.009144 -0.000213 -184989.000000 0 0 1
3.198418 -33.031101 7.272946 33.973214 -1.474267 1.355048 -0.000686 -0.003839 -943952.000000 0 0 1
4.492418 -33.421921 7.577146 34.563272 -1.437182 1.349776 0.002754 -0.005610 -500603.000000 0 0 1
4.911318 34.579421 7.416446 35.705197 1.429710 1.361560 -0.004516 -0.002149 -125027.000000 0 0 1
5.045418 34.210168 6.123346 35.118190 1.424369 1.395537 -0.009257 0.002942 -124756.000000 0 0 1
4.895318 32.813087 5.938246 33.703496 1.422701 1.393681 -0.016037 -0.001490 -335171.000000 0 0 1
5.146418 32.224927 4.528546 32.946006 1.412431 1.432906 -0.003754 0.002260 1231100.000000 0 0 1
6.503118 32.401947 4.043546 33.294549 1.372726 1.449048 0.008765 0.005572 572916.000000 0 0 1
7.187218 31.191527 4.020046 32.260320 1.344327 1.445859 0.008345 0.007778 276856.000000 0 0 1
8.601418 31.494517 3.404246 32.824959 1.304190 1.466900 -0.005109 0.010138 2452.370000 0 0 1
9.503318 31.955497 4.323146 33.617800 1.281734 1.441842 -0.001315 0.006865 -449366.000000 0 0 1
10.768318 32.272277 3.719146 34.224094 1.248742 1.461911 -0.000790 0.006047 773331.000000 0 0 1
11.723118 32.760987 4.848546 35.131499 1.227156 1.432343 -0.008889 0.001052 -157422.000000 0 0 1
12.072718 31.746807 5.778146 34.452827 1.207404 1.402288 -0.003486 -0.000335 -879719.000000 0 0 1
13.129718 32.178607 6.542546 35.364632 1.183390 1.384722 0.008992 -0.005607 -548842.000000 0 0 1
13.699418 30.960257 7.369246 34.648483 1.154210 1.356473 0.011508 -0.002921 30458.800000 0 0 1
13.047618 30.652907 8.606346 34.407997 1.168369 1.317986 0.008294 -0.005575 300110.000000 0 0 1
13.735118 29.587477 9.256546 33.908051 1.136180 1.294297 0.007779 -0.002656 224117.000000 0 0 1
13.329418 29.412717 10.734346 34.029510 1.145296 1.249874 0.003020 0.001502 115881.000000 0 0 1
13.963918 30.406447 11.545046 35.395355 1.140283 1.238543 0.021595 -0.006632 417015.000000 0 0 1
13.544318 30.228247 12.889646 35.543473 1.149550 1.199692 0.015731 -0.003169 -94702.500000 0 0 1
14.296118 31.194227 13.818846 36.992152 1.141067 1.187951 0.022431 -0.003829 493100.000000 0 0 1
15.629618 30.821177 14.160446 37.346328 1.101480 1.181902 0.016987 -0.007525 544281.000000 0 0 1
16.126518 31.777427 15.106146 38.704846 1.101180 1.169849 0.020016 -0.005640 -678016.000000 0 0 1
17.371418 31.332657 15.831046 39.167890 1.064567 1.154709 0.016208 -0.006949 -112629.000000 0 0 1
18.645818 31.403047 15.188846 39.554001 1.034979 1.176669 0.024616 0.001402 613689.000000 0 0 1
19.068018 30.055647 15.060146 38.648923 1.005449 1.170528 0.021521 -0.000033 -1508960.000000 0 0 1
20.421518 29.791397 14.507746 38.923521 0.969879 1.188853 0.036281 -0.001398 -1197450.000000 0 0 1
21.485618 29.970517 15.421346 39.971010 0.948823 1.174707 0.025693 -0.001492 570338.000000 0 0 1
22.661118 29.257717 14.993446 39.929234 0.911777 1.185860 0.011450 -0.001802 612715.000000 0 0 1
23.804118 29.242917 16.023746 40.970047 0.887569 1.168960 0.009860 -0.005428 -208509.000000 0 0 1
23.471118 28.416017 17.183446 40.664902 0.880412 1.134526 -0.007876 -0.003599 -397004.000000 0 0 1
24.368118 28.347647 18.240346 41.594525 0.860746 1.116837 -0.014729 -0.007521 -1551480.000000 0 0 1
25.321718 27.211767 18.338346 41.448337 0.821361 1.112480 -0.029134 -0.004390 -794864.000000 0 0 1
24.877018 25.935697 18.699546 40.511720 0.806230 1.091017 -0.019854 0.001997 -276423.000000 0 0 1
24.705318 25.778347 20.114346 40.981250 0.806650 1.057768 -0.005844 0.002250 -175699.000000 0 0 1
24.067318 24.458457 20.633146 40.039714 0.793458 1.029419 0.000109 -0.000228 114082.000000 0 0 1
25.034918 23.394597 20.585746 39.972832 0.751541 1.029796 -0.014101 0.003890 10470.000000 0 0 1
24.443818 22.189997 20.556646 38.890512 0.737106 1.013872 -0.007545 -0.004845 -500014.000000 0 0 1
25.483318 21.033697 20.615246 38.946172 0.690033 1.012990 -0.011256 -0.006722 4146.900000 0 0 1
24.935318 19.725297 20.656646 37.915096 0.669265 0.994630 -0.001945 -0.004240 333681.000000 0 0 1
25.913218 18.711797 20.898246 38.188518 0.625401 0.991734 -0.000064 -0.006389 34052.000000 0 0 1
26.453718 18.622097 22.372246 39.333181 0.613372 0.965765 -0.003513 -0.003732 -478799.000000 0 0 1
25.552818 18.037597 23.308846 39.007740 0.614671 0.930362 0.007874 -0.000638 279157.000000 0 0 1
26.124718 17.688497 24.551846 39.977206 0.595177 0.909493 0.008215 0.003189 -64554.200000 0 0 1
25.145618 16.897197 25.473646 39.581865 0.591668 0.871645 -0.003459 -0.001389 286453.000000 0 0 1
24.734118 15.644297 24.888746 38.418359 0.563973 0.866058 0.009152 -0.006036 345470.000000 0 0 1
23.566418 15.153197 25.504746 37.887828 0.571438 0.832316 0.013638 -0.004704 -192594.000000 0 0 1
23.098518 13.766497 24.995846 36.713081 0.537466 0.821883 0.014324 -0.000471 593088.000000 0 0 1
21.807118 13.375497 25.496146 36.117971 0.550181 0.787085 0.007470 -0.003233 994742.000000 0 0 1
21.314118 12.246297 24.768846 34.896406 0.521506 0.781607 0.008352 0.000121 365126.000000 0 0 1
20.040118 11.601097 25.379746 34.355834 0.524756 0.739610 -0.001544 -0.000319 959628.000000 0 0 1
18.856118 12.416697 25.428046 34.004604 0.582325 0.726081 -0.006221 0.000443 937273.000000 0 0 1
17.675018 11.619397 25.402746 33.056258 0.581553 0.694349 -0.016529 0.006125 301154.000000 0 0 1
16.374318 12.384797 25.656246 32.859466 0.647556 0.674872 -0.013221 0.004505 -242744.000000 0 0 1
16.232118 12.822497 26.983646 34.000224 0.668580 0.654042 -0.007164 0.005590 578874.000000 0 0 1
15.045518 13.576297 27.294446 33.995151 0.734111 0.638665 0.003320 0.009884 420785.000000 0 0 1
14.930918 14.136297 28.767646 35.360213 0.758068 0.620548 0.002256 0.015468 -191689.000000 0 0 1
14.344918 13.099297 29.617946 35.420206 0.740042 0.580501 -0.003864 0.019698 253474.000000 0 0 1
14.632718 13.130597 31.010246 36.717358 0.731346 0.565042 -0.007431 0.015661 -1389960.000000 0 0 1
16.038818 12.833397 31.442346 37.557435 0.674830 0.578689 -0.003858 0.017141 -1193280.000000 0 0 1
16.906018 13.879897 31.113846 38.033359 0.687417 0.612754 0.006291 0.011817 24287.800000 0 0 1
18.131418 13.526897 30.502046 37.974993 0.640967 0.638125 0.001600 0.012493 -229772.000000 0 0 1
19.090218 14.673897 30.169446 38.599938 0.655337 0.673581 0.002928 0.006288 -420074.000000 0 0 1
18.911018 15.449897 28.947146 37.871668 0.685008 0.700766 0.005737 0.006135 256163.000000 0 0 1
19.034918 14.620797 27.763746 36.700428 0.654987 0.712857 0.019170 -0.001206 -426743.000000 0 0 1
18.893018 15.411097 26.452946 35.975081 0.684243 0.744668 0.002529 0.000937 253457.000000 0 0 1
20.023518 16.237397 26.181146 36.742983 0.681362 0.777673 0.006488 0.007155 779899.000000 0 0 1
19.791418 16.751197 24.855246 35.917769 0.702393 0.806535 0.004060 -0.004845 425715.000000 0 0 1
21.092818 17.489597 24.409246 36.696107 0.692278 0.843071 0.006534 0.000525 245256.000000 0 0 1
20.896218 18.003297 23.087746 35.969636 0.711166 0.873865 0.004196 -0.002436 -233284.000000 0 0 1
22.018318 18.688597 22.611446 36.678979 0.703782 0.906546 0.010807 -0.002574 -104872.000000 0 0 1
22.451018 20.063697 23.194246 38.007542 0.729304 0.914415 0.010946 -0.010178 53580.100000 0 0 1
21.506318 21.044897 22.803046 37.754316 0.774555 0.922304 0.003131 -0.008683 414076.000000 0 0 1
21.879718 22.285497 23.375746 39.010139 0.794586 0.928267 0.005290 -0.005095 466024.000000 0 0 1
20.876118 23.454697 23.001746 38.923200 0.843499 0.938558 -0.008813 -0.004174 490950.000000 0 0 1
21.260418 24.184297 21.868446 38.924473 0.849649 0.974215 -0.003271 -0.001902 617735.000000 0 0 1
20.243218 25.198847 21.691546 38.926764 0.894023 0.979738 -0.004302 -0.002536 242649.000000 0 0 1
20.628518 26.286477 20.663646 39.287414 0.905419 1.016952 -0.002157 -0.003499 -200368.000000 0 0 1
20.482918 25.897227 19.305346 38.248042 0.901610 1.041715 -0.002880 -0.002173 18055.800000 0 0 1
20.859018 26.932227 18.428146 38.730351 0.911799 1.074916 0.006792 -0.000319 -533675.000000 0 0 1
20.877718 26.529147 16.969946 37.784307 0.904049 1.105009 0.015071 0.000623 100314.000000 0 0 1
19.613318 26.187077 16.409946 36.602344 0.927955 1.105900 0.023356 0.001661 -7111.030000 0 0 1
19.789718 25.831267 15.028946 35.843501 0.917061 1.138129 0.024822 0.006828 -449470.000000 0 0 1
18.537018 25.303267 14.285346 34.466614 0.938529 1.143437 0.020158 0.011707 810053.000000 0 0 1
17.465218 26.186577 13.945546 34.427445 0.982595 1.153740 0.020523 0.015429 32362.300000 0 0 1
16.702218 26.595487 15.034546 34.818409 1.010036 1.124310 0.019914 0.016470 132810.000000 0 0 1
15.156818 26.780027 14.654246 34.082927 1.055771 1.126349 0.012527 0.012800 1375440.000000 0 0 1
14.437918 25.556947 14.400446 32.695319 1.056562 1.114704 0.013413 0.016137 289755.000000 0 0 1
14.214018 24.719127 15.578746 32.492629 1.048946 1.070763 0.006803 0.016047 -467732.000000 0 0 1
13.298018 25.242867 16.702146 33.060571 1.085937 1.041185 0.005502 0.012221 -283484.000000 0 0 1
13.850118 26.311447 17.493846 34.498590 1.086259 1.038993 0.005410 0.009350 148850.000000 0 0 1
12.973618 26.786497 18.501346 35.044700 1.119760 1.014628 0.000283 -0.001100 -230840.000000 0 0 1
13.481118 28.050997 19.112046 36.522176 1.122794 1.020078 0.007409 -0.008140 -619341.000000 0 0 1
13.504418 29.147187 18.259746 36.950591 1.136922 1.053920 0.005999 -0.009076 72383.200000 0 0 1
13.985818 30.326597 18.847846 38.347711 1.138690 1.056987 0.007908 -0.010219 -300254.000000 0 0 1
13.834318 31.533957 17.934546 38.825594 1.157369 1.090631 0.006722 -0.013669 794324.000000 0 0 1
12.478818 31.976037 17.715446 38.626738 1.198719 1.094342 -0.000784 -0.007849 929120.000000 0 0 1
12.490218 33.156737 16.935246 39.270566 1.210534 1.124924 0.002001 -0.005864 -164085.000000 0 0 1
11.205818 33.977406 17.119546 39.662493 1.252227 1.124497 -0.002465 -0.003513 -425630.000000 0 0 1
11.227218 -34.218075 16.552946 39.634923 -1.253756 1.139955 -0.005693 0.001688 207474.000000 0 0 1
12.059318 -33.182791 17.147146 39.249833 -1.222216 1.118678 0.004633 0.001466 372315.000000 0 0 1
11.890418 -32.920991 18.705046 39.686931 -1.224196 1.080015 0.007077 -0.006517 -572085.000000 0 0 1
12.409018 -33.893671 19.527246 41.037520 -1.219837 1.074879 0.018049 -0.008291 -19492.000000 0 0 1
12.044518 -33.685421 20.842446 41.402724 -1.227404 1.043258 0.010413 -0.004222 -568240.000000 0 0 1
13.124718 -34.184545 21.795346 42.613126 -1.204213 1.033901 0.021195 -0.012109 -351246.000000 0 0 1
14.293718 -33.417131 21.673646 42.317396 -1.166610 1.033088 0.022083 -0.010436 -955976.000000 0 0 1
15.326618 -33.938191 22.468546 43.491857 -1.146609 1.027904 0.015922 -0.009730 13743.200000 0 0 1
16.636418 -33.156031 22.206046 43.234261 -1.105741 1.031396 0.025282 -0.007471 6295.410000 0 0 1
16.661318 -31.836031 22.834446 42.573987 -1.088645 1.004693 0.025624 -0.006127 -305789.000000 0 0 1
17.710618 -31.098721 22.302146 42.168498 -1.053108 1.013514 0.023900 -0.001131 -853115.000000 0 0 1
-4.224782 13.355789 18.122353 22.905142 -1.264430 0.658042 -0.001574 0.006903 -524419.000000 0 1 0
-4.054282 14.744289 17.926553 23.562524 -1.302455 0.706239 0.000228 0.011007 -839682.000000 0 1 0
-5.243482 15.377089 17.679453 24.010665 -1.242168 0.743186 -0.000735 0.007621 -913761.000000 0 1 0
-4.999382 16.905889 17.548853 24.874990 -1.283272 0.787694 0.004048 0.009422 -2881.450000 0 1 0
-4.432882 17.467589 18.691353 25.964086 -1.322266 0.767149 -0.000165 0.008017 137389.000000 0 0 1
-4.235182 18.849789 18.539853 26.776435 -1.349786 0.805994 0.001195 0.004428 -389019.000000 0 0 1
-3.698782 19.543089 19.795553 28.062024 -1.383746 0.787779 -0.003406 0.006249 28976.000000 0 0 1
-4.628882 19.628889 20.857653 29.013126 -1.339208 0.768572 -0.001839 0.014102 -23400.000000 0 0 1
-4.113882 20.388989 21.910653 30.211117 -1.371700 0.759397 -0.003882 0.011093 -20863.600000 0 0 1
-5.085182 20.483389 23.104653 31.293023 -1.327457 0.740202 -0.007890 0.012486 119643.000000 0 0 1
-5.372882 19.195389 23.693353 30.962974 -1.297876 0.699420 -0.010225 0.009061 451141.000000 0 0 1
-6.259482 19.324989 24.841513 32.089516 -1.257554 0.685454 -0.016150 0.007846 876100.000000 0 0 1
-5.517582 19.936589 26.089133 33.294957 -1.300798 0.670395 -0.020243 0.010718 -70148.700000 0 0 1
-5.090382 21.272689 25.895703 33.897296 -1.335921 0.701390 -0.015021 0.007430 89303.500000 0 0 1
-4.134782 21.792689 26.817983 34.802614 -1.383293 0.691055 -0.009904 0.012553 88078.600000 0 0 1
-2.688682 21.446189 26.434313 34.145877 -1.446078 0.685412 0.002141 0.016438 -570146.000000 0 0 1
-2.265382 20.158089 26.901933 33.692647 -1.458885 0.646078 0.010804 0.011743 -673626.000000 0 0 1
-1.039782 19.793489 26.367153 32.986211 -1.518313 0.644603 0.019385 0.016974 -388990.000000 0 0 1
-0.290182 18.728289 27.163523 32.995302 -1.555303 0.603676 0.014695 0.013708 -175257.000000 0 0 1
-0.816382 17.453489 26.855113 32.038849 -1.524056 0.576814 0.012019 0.009446 -301190.000000 0 0 1
0.081618 16.469489 27.230823 31.824023 1.565841 0.543955 0.010118 0.001075 428241.000000 0 0 1
1.402218 16.296389 26.381483 31.040637 1.484963 0.554998 0.006061 0.004704 163910.000000 0 0 1
1.327718 16.083689 24.989383 29.747557 1.488432 0.573424 0.007908 -0.001150 -330794.000000 0 0 1
1.023518 14.739689 24.608343 28.703250 1.501468 0.540724 0.014874 -0.003744 -199890.000000 0 0 1
1.138518 14.374889 23.073253 27.208614 1.491759 0.558572 0.005170 -0.003219 -108876.000000 0 0 1
2.482718 14.283789 22.663053 26.903615 1.398702 0.569113 0.007848 -0.009830 -357965.000000 0 0 1
2.619518 13.775089 21.360753 25.551844 1.382877 0.580886 0.002862 -0.009058 105798.000000 0 0 1
4.102018 13.499589 21.012753 25.310101 1.275800 0.591308 0.003252 -0.011657 423759.000000 0 0 1
4.711818 14.697989 20.539453 25.692435 1.260571 0.644441 -0.000483 -0.009898 179805.000000 0 0 1
6.137218 14.622889 20.486953 25.907712 1.173424 0.658736 0.010828 -0.010282 352565.000000 0 0 1
6.677818 15.691489 19.498053 25.903477 1.168443 0.718613 0.012265 -0.013871 -288922.000000 0 0 1
6.363618 15.400589 18.147953 24.637816 1.178957 0.742783 0.006450 -0.019592 15810.800000 0 1 0
6.699818 16.454889 17.300253 24.798179 1.184130 0.798695 0.004058 -0.004241 -108940.000000 0 1 0
6.487118 16.081089 15.831453 23.480184 1.187362 0.830851 -0.002992 0.001099 664399.000000 0 1 0
7.415718 15.167889 15.167953 22.696355 1.116061 0.838876 -0.005878 0.003173 689537.000000 0 1 0
7.624818 13.856889 15.827853 22.375704 1.067758 0.785029 0.002676 -0.004552 -341588.000000 0 1 0
8.617018 12.856289 15.222253 21.708389 0.980312 0.793696 0.003140 -0.003021 576577.000000 0 1 0
9.968118 13.289089 15.426453 22.670216 0.927233 0.822389 0.010524 -0.000051 646581.000000 0 1 0
10.885018 12.579889 14.592853 22.128908 0.857503 0.850713 0.011080 0.003320 -372981.000000 0 1 0
12.284018 13.156789 14.604653 23.179605 0.819691 0.889160 0.013306 0.003132 -1221200.000000 0 1 0
12.982218 12.913889 15.817153 24.196877 0.782760 0.858352 -0.000120 0.005645 64547.000000 0 1 0
14.277918 13.456089 15.857753 25.226843 0.755774 0.891036 0.006676 0.007821 721656.000000 0 0 1
15.438018 12.853089 14.952953 25.042466 0.694282 0.930911 0.013668 0.003367 -1091050.000000 0 0 1
16.642718 13.413089 15.269853 26.268982 0.678354 0.950485 0.023684 -0.001884 -1322520.000000 0 0 1
17.486118 13.335189 14.171053 26.161237 0.651526 0.998360 0.021492 0.005918 -435381.000000 0 0 1
18.884918 13.956989 14.364853 27.527925 0.636459 1.021803 0.021244 0.006005 96615.400000 0 0 1
19.612618 13.299189 15.381453 28.250882 0.595872 0.995052 0.013041 -0.005693 -310453.000000 0 0 1
20.914718 13.788589 15.474253 29.444917 0.582869 1.017456 0.005063 0.006986 -427312.000000 0 0 1
21.762018 13.423989 16.679353 30.528507 0.552720 0.992792 0.007619 0.001055 -97483.700000 0 0 1
22.058518 12.011889 16.704953 30.164866 0.498647 0.983889 0.016650 -0.005953 -374901.000000 0 0 1
23.084418 11.709589 17.569753 31.284198 0.469431 0.974457 0.017454 -0.006181 -737374.000000 0 0 1
23.349718 10.158989 17.609053 30.959540 0.410377 0.965779 0.023473 0.000162 -503313.000000 0 0 1
22.322018 9.516589 18.280153 30.380947 0.402998 0.925171 0.000135 -0.001141 -223993.000000 0 0 1
22.068718 8.212689 17.804353 29.520697 0.356262 0.923397 0.000601 0.009012 -245480.000000 0 0 1
20.788118 7.675189 18.458853 28.840659 0.353685 0.876261 0.000616 0.002757 -237298.000000 0 0 1
20.472618 6.374989 18.010053 28.002332 0.301874 0.872175 0.003110 0.006449 689556.000000 0 0 1
19.296018 5.853189 18.637753 27.458368 0.294515 0.824718 -0.007986 0.006708 -34121.100000 0 0 1
19.025918 4.402189 18.266353 26.739942 0.227377 0.818782 0.001046 0.002940 -636930.000000 0 0 1
18.565718 4.263189 16.906653 25.469503 0.225714 0.844908 0.004514 -0.002471 271001.000000 0 0 1
18.896218 3.091389 16.228653 25.099660 0.162162 0.867719 0.007896 -0.003940 -163808.000000 0 0 1
18.117118 1.849889 16.757653 24.748151 0.101755 0.826944 0.009411 -0.002766 46198.400000 0 1 0
18.448118 1.405189 18.069353 25.861345 0.076023 0.797216 0.001146 -0.001114 565375.000000 0 0 1
17.277618 0.969589 18.780853 25.537749 0.056059 0.744517 0.006760 -0.003833 577140.000000 0 0 1
17.682418 0.022089 19.966653 26.670876 0.001249 0.724801 -0.005214 -0.007920 154017.000000 0 0 1
18.208618 -1.236011 19.531653 26.731386 -0.067777 0.751503 -0.003825 -0.006567 19499.800000 0 0 1
17.298818 -2.246911 19.912853 26.472995 -0.129165 0.719410 -0.004122 0.000700 -289469.000000 0 0 1
17.629618 -3.597511 19.305353 26.390191 -0.201297 0.750225 -0.007840 0.004992 -349404.000000 0 0 1
17.260218 -3.719711 17.973153 25.194952 -0.212261 0.776511 -0.005098 0.000841 162828.000000 0 0 1
17.307718 -5.066811 17.444753 25.090817 -0.284791 0.802009 -0.008726 0.002187 -363410.000000 0 0 1
16.958418 -5.215011 15.962953 23.866298 -0.298339 0.838137 -0.007252 0.001577 489990.000000 0 1 0
15.602918 -4.817111 15.688453 22.644716 -0.299448 0.805420 -0.004281 0.001650 732273.000000 0 1 0
15.169418 -4.885611 14.359353 21.451608 -0.311579 0.837418 -0.001956 0.000341 207841.000000 0 1 0
15.624918 -3.653811 13.545053 20.998973 -0.229717 0.869728 -0.000719 0.002225 192174.000000 0 1 0
14.824518 -2.496011 13.751053 20.373706 -0.166806 0.829911 0.001038 0.004039 600971.000000 0 1 0
15.516818 -1.367811 13.173153 20.400356 -0.087923 0.868815 0.005426 0.001196 -82027.100000 0 1 0
14.661018 -0.131311 13.247853 19.760271 -0.008956 0.836010 0.014638 0.001397 -664586.000000 0 1 0
15.179718 1.144689 12.826953 19.906403 0.075267 0.870606 0.017170 0.004681 546944.000000 0 1 0
16.137718 1.745589 13.717853 21.252118 0.107749 0.869143 0.019092 0.002313 188721.000000 0 1 0
16.292118 3.221489 13.207853 21.219295 0.195215 0.898933 0.015494 0.001048 342645.000000 0 1 0
15.140218 4.010189 13.508553 20.683057 0.258924 0.859097 0.010868 0.003833 903931.000000 0 1 0
15.350318 5.186089 12.705453 20.590200 0.325809 0.905791 0.015683 -0.003679 95213.200000 0 1 0
14.262218 6.243589 12.937553 20.242864 0.412638 0.877447 0.020875 -0.004510 -207729.000000 0 1 0
14.388318 7.289589 12.051453 20.134531 0.468939 0.929111 0.005099 -0.013567 291705.000000 0 1 0
13.442518 8.338289 12.207453 19.981248 0.555207 0.913542 0.002495 -0.008626 -323157.000000 0 1 0
13.617818 9.305389 13.441153 21.276744 0.599446 0.887014 0.013362 -0.010360 -230127.000000 0 1 0
13.401918 8.754389 14.714953 21.743518 0.578635 0.827455 0.016433 -0.011027 328761.000000 0 1 0
13.632218 9.621889 15.790853 22.973227 0.614621 0.812950 0.006454 -0.011886 -423008.000000 0 1 0
13.322918 9.148889 17.234453 23.626864 0.601746 0.753289 0.011863 -0.011130 1163610.000000 0 1 0
11.945218 9.454689 17.595553 23.274081 0.669539 0.713593 0.016122 -0.012086 1386760.000000 0 1 0
11.319918 8.636189 18.584553 23.411747 0.651719 0.653743 0.012192 -0.006292 139665.000000 0 1 0
11.776118 8.814689 20.053153 24.869754 0.642555 0.632881 0.005570 0.000824 56976.700000 0 1 0
13.106618 8.448189 20.383553 25.664072 0.572552 0.653033 0.002515 -0.000123 177696.000000 0 0 1
13.463518 8.496489 21.769053 26.969396 0.562956 0.631444 0.001261 0.004937 -424073.000000 0 0 1
14.962818 8.194189 21.943953 27.795103 0.501027 0.660819 -0.002013 0.003051 -26473.600000 0 0 1
15.709018 9.218389 21.290153 28.018254 0.530673 0.707687 0.003695 0.005667 -84679.100000 0 0 1
16.328918 8.804389 20.098253 27.351245 0.494506 0.745394 0.003334 -0.000708 -501764.000000 0 0 1
16.956718 9.949589 19.319053 27.563571 0.530630 0.794151 -0.003063 -0.002775 -91499.700000 0 0 1
18.120018 10.508389 19.879953 28.878605 0.525533 0.811519 -0.003706 -0.000577 -79440.800000 0 0 1
18.799218 11.419189 19.065453 29.108418 0.545864 0.856639 0.001023 -0.003260 -529885.000000 0 0 1
19.781118 12.142189 19.924053 30.589104 0.550525 0.861441 0.003377 -0.008990 -1061220.000000 0 0 1
19.179018 12.959789 20.890253 31.180018 0.594249 0.836603 0.001972 -0.004686 210130.000000 0 0 1
20.062018 13.700489 21.727953 32.592820 0.599162 0.841093 0.006378 -0.003772 342578.000000 0 0 1
21.102518 14.784089 21.197353 33.364852 0.611118 0.882374 0.008902 -0.003986 -252322.000000 0 0 1
22.301618 14.169889 20.923953 33.704002 0.566025 0.901014 0.005887 -0.007272 -1245290.000000 0 0 1
23.381518 15.022289 21.202553 34.955869 0.571075 0.919080 0.005410 -0.006112 237647.000000 0 0 1
24.722818 14.234089 21.382253 35.651476 0.522395 0.927598 0.003710 -0.003440 175815.000000 0 0 1
25.203118 13.769289 20.123953 35.067991 0.500023 0.959591 0.003710 -0.007238 -357911.000000 0 0 1
26.380018 13.064989 20.390753 35.810363 0.459849 0.965009 -0.003473 -0.004179 -194507.000000 0 0 1
26.886718 12.250889 19.104053 35.184439 0.427541 0.996828 -0.002378 -0.004362 196345.000000 0 0 1
27.559918 13.013889 18.089553 35.442098 0.441164 1.035150 -0.007097 -0.007056 334432.000000 0 0 1
27.869918 12.272189 16.935753 34.844780 0.414790 1.063250 -0.013456 -0.012375 278956.000000 0 0 1
26.646018 11.833089 16.057853 33.284935 0.417924 1.067363 -0.010246 -0.012675 301352.000000 0 0 1
26.172418 12.859189 15.217753 32.892769 0.456684 1.089817 -0.014566 -0.011273 799701.000000 0 0 1
24.906418 12.517389 14.625053 31.478673 0.465707 1.087611 -0.005440 -0.011073 613052.000000 0 0 1
24.577018 13.375989 13.364753 31.009088 0.498416 1.125201 -0.013539 -0.005398 -146852.000000 0 0 1
24.292818 14.763889 13.546953 31.490211 0.546096 1.126087 -0.005976 -0.000767 204859.000000 0 0 1
23.936918 15.357889 12.329253 30.997601 0.570446 1.161735 -0.006881 0.006750 77082.800000 0 0 1
23.083618 16.653889 12.606653 31.130903 0.624983 1.153865 -0.004616 0.014771 565214.000000 0 0 1
21.732518 16.460989 13.057353 30.228479 0.648243 1.124137 -0.002686 0.006873 729968.000000 0 0 1
21.140718 17.726889 13.180953 30.576299 0.697791 1.125103 0.012948 0.012264 -706623.000000 0 0 1
20.413218 18.358089 11.980853 29.954294 0.732441 1.159311 0.001497 0.020825 271923.000000 0 0 1
19.176018 17.820889 11.512653 28.597988 0.748786 1.156475 0.010263 0.013016 37688.600000 0 0 1
18.059918 17.970889 12.319253 28.299779 0.782927 1.120411 0.015972 0.018794 -752084.000000 0 0 1
16.791118 17.413489 11.640553 26.845367 0.803592 1.122296 0.026152 0.016286 -285685.000000 0 0 1
16.824118 15.995889 11.497453 25.905807 0.760168 1.110942 0.032003 0.014524 310475.000000 0 0 1
15.579618 15.516189 11.010253 24.590695 0.783358 1.106559 0.027283 0.006056 294902.000000 0 1 0
15.775018 14.180089 10.196953 23.535165 0.732204 1.122684 0.030918 0.000974 -423246.000000 0 1 0
15.893118 13.040589 11.075853 23.352145 0.687127 1.076631 0.043001 0.001106 338264.000000 0 1 0
16.117918 11.912689 10.246753 22.509895 0.636486 1.098187 0.029513 0.003502 -195431.000000 0 1 0
16.406518 10.647789 11.052753 22.465810 0.575670 1.056433 0.015251 0.000658 -656616.000000 0 1 0
16.932718 9.624789 10.233153 22.001612 0.516870 1.087038 0.005386 -0.002599 482488.000000 0 1 0
17.428618 8.465389 10.896153 22.229388 0.452157 1.058513 -0.000098 -0.002288 504766.000000 0 1 0
18.694218 8.596989 11.797053 23.718189 0.431035 1.050215 0.007302 -0.004913 -63277.100000 0 1 0
18.386718 9.288089 12.967753 24.341377 0.467761 1.008955 0.014236 -0.006660 -278721.000000 0 1 0
19.495018 9.313989 13.813153 25.643894 0.445700 1.001959 0.016013 -0.007983 -1217860.000000 0 0 1
19.214618 9.801989 15.289753 26.439688 0.471720 0.954168 0.017866 0.000979 55785.200000 0 0 1
18.612418 8.856389 16.169753 26.197684 0.444127 0.905591 0.009830 -0.002056 340421.000000 0 0 1
17.296918 8.491389 15.830153 24.937538 0.456357 0.883057 0.007358 -0.009939 -799838.000000 0 1 0
16.854618 7.070889 16.199353 24.423240 0.397222 0.845608 0.006135 0.000838 -254079.000000 0 1 0
15.806118 6.987589 17.139653 24.339833 0.416249 0.789527 0.002398 -0.003779 2575.810000 0 1 0
15.424318 5.614089 17.253653 23.814200 0.349071 0.760471 0.009566 0.005199 -16177.500000 0 1 0
14.020618 5.369189 17.889453 23.354624 0.365722 0.698213 0.005177 -0.000847 312709.000000 0 1 0
13.605018 4.006289 17.870353 22.814390 0.286377 0.670851 0.014055 -0.005028 175186.000000 0 1 0
13.203218 3.426889 16.630753 21.509312 0.253946 0.686943 0.014164 -0.003296 -357924.000000 0 1 0
12.900518 1.911689 16.739153 21.219735 0.147116 0.661863 0.006389 -0.006049 644263.000000 0 1 0
14.110518 1.188089 17.097153 22.199796 0.084001 0.691721 0.004053 -0.000510 1138190.000000 0 1 0
14.017518 -0.223611 17.042453 22.067760 -0.015951 0.688377 0.004240 0.007566 -238704.000000 0 1 0
13.096118 -0.927511 18.095953 22.356925 -0.070705 0.627647 0.001260 0.002584 1116650.000000 0 1 0
11.754918 -0.934111 17.546053 21.140356 -0.079299 0.591726 0.008338 0.000546 447479.000000 0 1 0
10.910618 -1.672511 18.366153 21.427890 -0.152108 0.541155 0.011470 -0.005321 -287889.000000 0 1 0
-24.818082 14.227489 28.982313 40.722636 -0.520534 0.778881 0.003196 -0.002255 -326428.000000 0 0 1
-24.004782 14.117689 30.136513 41.033500 -0.531638 0.745960 -0.005111 0.000637 325489.000000 0 0 1
-23.376582 12.851889 30.203683 40.297619 -0.502671 0.723467 -0.002731 -0.002581 137513.000000 0 0 1
-22.213282 12.894189 31.242893 40.445128 -0.525937 0.688065 -0.002023 -0.003706 -59976.200000 0 0 1
-22.709882 12.864089 32.558653 41.728760 -0.515388 0.675739 -0.002065 -0.003231 448525.000000 0 0 1
-21.663982 13.032589 33.529270 41.992719 -0.541579 0.646073 -0.002942 0.001103 107046.000000 0 0 1
-22.136382 13.155889 -34.358083 42.936868 -0.536226 2.498425 -0.003455 0.002697 -191093.000000 0 0 1
-22.675382 11.955889 -33.900374 42.501195 -0.485219 2.494158 -0.002356 0.000181 172696.000000 0 0 1
-23.330082 12.219889 -32.645504 41.944574 -0.482492 2.462752 0.001370 0.007587 213106.000000 0 0 1
-24.158582 11.032189 -32.033614 41.611281 -0.428376 2.449371 0.006938 -0.001033 106615.000000 0 0 1
-23.441982 10.010189 -31.339704 40.396874 -0.403580 2.458771 0.000205 -0.005800 174347.000000 0 0 1
-22.845182 9.015689 -32.168954 40.472541 -0.375880 2.489530 -0.001068 -0.007006 -120613.000000 0 0 1
-22.027382 8.080089 -31.281434 39.102704 -0.351580 2.498060 0.004537 -0.005851 -238127.000000 0 0 1
-22.842982 7.411589 -30.346674 38.699536 -0.313742 2.472140 -0.002275 -0.004461 770782.000000 0 0 1
-22.013282 6.632189 -29.458824 37.368340 -0.292632 2.478897 -0.003718 -0.001913 95615.700000 0 0 1
-22.841882 5.801389 -28.511514 36.990730 -0.248721 2.450852 -0.006245 0.001142 -379130.000000 0 0 1
-23.392682 4.689089 -29.176344 37.689045 -0.197829 2.456141 -0.001256 -0.005742 203741.000000 0 0 1
-23.867682 3.694289 -28.272754 37.184171 -0.153563 2.434639 -0.000640 0.006242 -968392.000000 0 0 1
-24.526082 2.503089 -28.871184 37.964976 -0.101706 2.434831 0.006470 0.008679 731644.000000 0 0 1
-25.946092 2.539089 -29.103274 39.072333 -0.097550 2.411116 0.003685 -0.003532 800515.000000 0 0 1
-26.297892 3.388289 -30.167154 40.163625 -0.128137 2.420533 0.006949 -0.003648 -666712.000000 0 0 1
-27.719062 3.068389 -30.679494 41.460737 -0.110247 2.403815 0.011827 -0.011863 -195402.000000 0 0 1
-28.760852 3.340789 -29.752724 41.515925 -0.115639 2.369795 0.014860 -0.015780 1131830.000000 0 0 1
-30.044022 3.547389 -30.396154 42.885352 -0.117529 2.358559 0.021387 -0.006705 1140700.000000 0 0 1
-30.237272 5.039189 -30.935884 43.551291 -0.165137 2.360766 0.019849 -0.009174 -469865.000000 0 0 1
-29.298712 5.354789 -31.963064 43.688966 -0.180770 2.391470 0.016089 -0.007459 215340.000000 0 0 1
-29.392622 6.555589 -32.637064 44.408106 -0.219444 2.396367 0.016607 -0.010796 -1015880.000000 0 0 1
-28.951552 7.868389 -31.954644 43.831531 -0.265368 2.387705 0.003929 -0.012587 -733537.000000 0 0 1
-27.568302 8.116689 -31.858164 42.904947 -0.286331 2.407634 -0.001701 -0.014800 170485.000000 0 0 1
-26.961292 7.546789 -30.694034 41.545024 -0.272927 2.402105 -0.016240 -0.015464 -348615.000000 0 0 1
-27.119682 8.449789 -29.436724 40.907173 -0.302041 2.374020 -0.021452 -0.007952 -623848.000000 0 0 1
-28.396172 8.655889 -28.903824 41.433055 -0.295878 2.342843 -0.011452 -0.011930 -106544.000000 0 0 1
-28.885212 7.662489 -28.013434 40.961221 -0.259302 2.323893 -0.006749 -0.006693 124797.000000 0 0 1
-30.121202 8.122589 -27.190934 41.383694 -0.263398 2.287688 -0.007159 -0.006876 124336.000000 0 0 1
-29.841372 9.096389 -26.177864 40.725082 -0.295877 2.268937 -0.013058 -0.007867 15286.500000 0 0 1
-29.360692 8.516589 -24.969254 39.472093 -0.282320 2.255676 -0.014604 0.005115 20799.300000 0 0 1
-28.763052 9.504489 -23.903654 38.587992 -0.319145 2.238849 -0.020865 -0.008637 -46573.700000 0 0 1
-29.713972 10.313789 -23.174254 39.068407 -0.334091 2.205788 -0.010625 0.002077 923194.000000 0 0 1
-29.004332 11.275589 -22.415454 38.351567 -0.370775 2.195027 -0.011503 0.002743 -154463.000000 0 0 1
-29.938342 12.049389 -21.472354 38.762792 -0.382637 2.157888 -0.006536 -0.001328 -218685.000000 0 0 1
-30.391672 11.261489 -20.386154 38.289295 -0.354859 2.132258 -0.021627 0.001385 455571.000000 0 0 1
-31.334172 11.930489 -19.544754 38.809332 -0.363802 2.098568 -0.014309 0.003758 26132.300000 0 0 1
-30.924542 13.185489 -18.727654 38.482586 -0.403036 2.079050 -0.011288 -0.000429 -524528.000000 0 0 1
-30.139672 12.967289 -17.565154 37.216730 -0.406300 2.062320 -0.004847 0.000770 375174.000000 0 0 1
-30.809702 12.504589 -16.373654 37.063446 -0.385552 2.028371 -0.014756 -0.001793 -162801.000000 0 0 1
-31.482762 13.579789 -15.441054 37.603206 -0.407229 1.993943 -0.028056 0.000011 -40519.400000 0 0 1
-32.296682 14.356689 -16.292754 38.918427 -0.418292 2.002742 -0.020552 0.000040 -31336.100000 0 0 1
-32.947612 15.391189 -15.604254 39.571790 -0.437017 1.976133 -0.026257 0.006558 -55507.900000 0 0 1
-33.752152 16.334489 -16.507154 40.969615 -0.450729 1.985493 -0.021625 -0.007347 274481.000000 0 0 1
34.591869 15.884589 -17.015854 41.694806 0.430478 1.991174 -0.025628 -0.004056 647985.000000 0 0 1
33.934746 16.893689 -17.718154 41.843717 0.461909 2.008032 -0.020999 -0.003734 -1187000.000000 0 0 1
33.739181 16.494989 -19.233054 42.193925 0.454726 2.044095 -0.032647 0.002083 71268.800000 0 0 1
32.717376 15.559589 -19.598954 41.190369 0.443918 2.066686 -0.022789 0.000381 660365.000000 0 0 1
31.420246 16.092589 -19.359754 40.261685 0.473338 2.072418 -0.006928 -0.008850 -945217.000000 0 0 1
30.337646 15.053289 -19.559154 39.109267 0.460596 2.094529 0.004644 -0.009663 -666900.000000 0 0 1
30.214646 14.574789 -20.911554 39.530271 0.449448 2.128219 -0.004596 -0.002553 641504.000000 0 0 1
29.276186 13.493889 -21.067554 38.510023 0.431895 2.149652 -0.011227 -0.001382 288054.000000 0 0 1
29.841216 12.095289 -20.683654 38.270193 0.385086 2.141785 -0.007932 0.003590 201.371000 0 0 1
30.216686 12.030489 -19.321254 37.829771 0.378902 2.106844 -0.000050 0.003680 151429.000000 0 0 1
30.822436 10.762989 -19.067154 37.807682 0.335956 2.099390 -0.010700 0.007771 -276561.000000 0 0 1
31.144446 10.574989 -17.583254 37.295813 0.327332 2.061735 -0.010357 0.011941 115808.000000 0 0 1
30.089976 10.036089 -16.791954 35.890102 0.321933 2.057677 -0.004328 0.003095 472012.000000 0 0 1
30.537456 10.068089 -15.453954 35.675304 0.318474 2.018818 -0.031834 0.000634 -99798.900000 0 0 1
30.055896 11.202189 -14.584454 35.235666 0.356763 1.997543 -0.022416 -0.000251 -956002.000000 0 0 1
28.675016 11.303689 -14.416754 34.027528 0.375496 2.008300 -0.004097 0.005820 -302279.000000 0 0 1
28.310616 12.325189 -13.492254 33.696322 0.410609 1.982758 -0.017495 0.001473 -373929.000000 0 0 1
26.808156 12.619589 -13.583354 32.595072 0.439964 2.000642 0.000396 0.005382 -91300.200000 0 0 1
26.039646 11.569789 -12.932054 31.291551 0.418116 1.996845 -0.014219 0.005286 1010140.000000 0 0 1
24.689146 11.399489 -13.374954 30.304977 0.432558 2.027893 -0.004650 0.005650 312650.000000 0 0 1
24.575176 10.456189 -14.584754 30.430021 0.402275 2.070640 0.004448 0.008128 -560930.000000 0 0 1
24.911316 9.097189 -14.383154 30.169647 0.350136 2.067742 -0.003137 0.007334 891317.000000 0 0 1
26.236626 8.922189 -14.897054 31.462489 0.327798 2.064041 -0.003302 0.006436 477519.000000 0 0 1
27.116056 7.784989 -14.252054 31.607081 0.279579 2.038585 0.004247 0.002311 -390851.000000 0 0 1
26.660266 6.452689 -14.269254 30.919550 0.237467 2.050477 -0.010344 -0.002869 -258243.000000 0 0 1
25.855646 6.171389 -13.192254 29.675512 0.234302 2.031468 0.002007 -0.007645 -637192.000000 0 0 1
25.312236 4.730589 -13.385454 29.021684 0.184758 2.050169 0.004473 -0.002780 -100071.000000 0 0 1
24.595126 4.324389 -12.237754 27.809767 0.174044 2.026453 -0.000742 -0.008381 465606.000000 0 0 1
23.859806 3.071789 -12.374654 27.052879 0.128039 2.045893 0.005218 -0.001814 319780.000000 0 0 1
23.162306 2.671889 -11.037754 25.796577 0.114847 2.012939 0.007479 0.002881 -201914.000000 0 0 1
24.006606 2.425689 -9.943354 26.097344 0.100701 1.961685 0.007420 0.002824 187370.000000 0 0 1
23.181906 2.164589 -8.824654 24.899010 0.093104 1.933088 0.003915 0.000678 -539637.000000 0 1 0
23.902906 1.670889 -7.569654 25.128478 0.069790 1.876787 0.005048 0.007271 -404016.000000 0 0 1
24.139206 0.262689 -7.339654 25.231741 0.010882 1.865953 -0.003691 0.000859 900223.000000 0 0 1
24.800396 -0.556711 -8.346154 26.173036 -0.022444 1.895348 0.003688 0.005325 -90408.700000 0 0 1
24.845106 -2.096511 -7.897154 26.154152 -0.084184 1.877530 0.017149 -0.001031 86581.500000 0 0 1
25.859106 -2.328511 -6.901154 26.865242 -0.089804 1.830589 0.007626 0.003584 888185.000000 0 0 1
25.921596 -3.656211 -6.393954 26.947721 -0.140124 1.810354 0.003205 -0.000759 -1292660.000000 0 0 1
27.119346 -3.926311 -5.526454 27.953828 -0.143780 1.769807 -0.009354 0.004092 -1070370.000000 0 0 1
28.247136 -4.095711 -6.335454 29.237194 -0.143992 1.789221 0.003665 0.004887 735612.000000 0 0 1
29.439016 -4.449811 -5.599954 30.295477 -0.150018 1.756710 -0.001135 0.003237 1502900.000000 0 0 1
30.740236 -4.777011 -6.428554 31.766464 -0.154166 1.774573 -0.009835 0.007406 704590.000000 0 0 1
30.568006 -5.911911 -7.220454 31.960736 -0.191043 1.798680 -0.012779 0.007980 578941.000000 0 0 1
31.345496 -5.713411 -8.438654 32.960492 -0.180293 1.829702 -0.012122 -0.000534 -908161.000000 0 0 1
30.927386 -6.727811 -9.521054 33.051734 -0.214199 1.863002 -0.004636 -0.006232 903896.000000 0 0 1
29.628436 -6.480911 -10.110754 31.969888 -0.215348 1.892579 0.017087 -0.003605 768700.000000 0 0 1
28.596516 -6.892111 -9.250254 30.835517 -0.236502 1.875475 0.014003 0.001238 -1173830.000000 0 0 1
27.309836 -6.054911 -9.292354 29.476040 -0.218182 1.891518 0.010808 0.000577 -590784.000000 0 0 1
26.475226 -6.245311 -10.453554 29.141350 -0.231658 1.937691 0.019219 -0.001425 760680.000000 0 0 1
25.363106 -5.351711 -10.320354 27.900495 -0.207953 1.949696 0.026799 0.002077 -240882.000000 0 0 1
24.116306 -6.027211 -9.794154 26.717951 -0.244906 1.946122 0.025056 0.000173 -2324010.000000 0 0 1
24.205606 -6.557111 -8.496154 26.478136 -0.264543 1.897449 0.016033 -0.003126 -90091.000000 0 0 1
23.029106 -7.059611 -7.930754 25.358917 -0.297457 1.888873 0.010285 -0.005883 -1244890.000000 0 0 1
22.054506 -6.018211 -7.412154 24.032480 -0.266393 1.884330 0.016620 0.000258 -846675.000000 0 1 0
21.526706 -5.384611 -8.580854 23.791262 -0.245107 1.939785 0.007985 0.000547 -130682.000000 0 1 0
20.885606 -4.183011 -8.130854 22.799493 -0.197667 1.935448 -0.018458 0.003572 -315361.000000 0 1 0
20.788306 -3.286711 -9.345454 23.028105 -0.156806 1.988681 -0.021748 0.008499 -236493.000000 0 1 0
21.994406 -2.806911 -9.918054 24.289924 -0.126933 1.991409 -0.002848 0.007003 593185.000000 0 1 0
21.809706 -2.501011 -11.269654 24.676374 -0.114176 2.045076 -0.009310 0.014817 -44742.900000 0 1 0
23.153506 -2.419311 -12.043854 26.210538 -0.104112 2.048233 0.010509 0.001432 477364.000000 0 0 1
24.066406 -1.427111 -11.526754 26.722548 -0.059230 2.016784 0.012881 0.000534 138853.000000 0 0 1
25.264516 -1.532711 -12.209354 28.101838 -0.060592 2.020244 0.012719 0.003018 -408812.000000 0 0 1
26.385276 -0.501811 -11.818954 28.915779 -0.019016 1.991866 0.016626 0.004289 360701.000000 0 0 1
27.581216 -0.810811 -12.507854 30.295664 -0.029389 1.996388 0.016322 0.001759 1049200.000000 0 0 1
28.713376 0.087489 -12.371854 31.265450 0.003047 1.977630 0.007200 -0.002142 716097.000000 0 0 1
28.688376 1.431889 -13.080654 31.562267 0.049870 1.998123 0.007204 -0.005580 -615151.000000 0 0 1
28.923986 1.356589 -14.454554 32.363118 0.046868 2.033799 0.007779 -0.004090 249659.000000 0 0 1
28.746506 2.591389 -15.059154 32.555414 0.089903 2.051688 0.003866 -0.004989 -179317.000000 0 0 1
28.984586 2.522589 -16.577254 33.485445 0.086813 2.088698 -0.003457 -0.003353 149760.000000 0 0 1
28.049396 1.659289 -17.215254 32.952797 0.059087 2.120485 0.010755 0.000769 326654.000000 0 0 1
28.408256 1.629689 -18.578354 33.982938 0.057304 2.149210 0.004056 0.002118 252922.000000 0 0 1
27.294636 0.990389 -19.481554 33.548606 0.036269 2.190380 0.012850 0.009099 255179.000000 0 0 1
27.090276 -0.411511 -19.250354 33.235952 -0.015189 2.188547 0.015760 0.006174 9246.050000 0 0 1
26.780706 -1.075111 -20.412654 33.690332 -0.040123 2.221681 0.018534 0.008487 -128653.000000 0 0 1
26.605286 -2.598411 -20.310254 33.572301 -0.097356 2.220525 0.014516 0.004201 540352.000000 0 0 1
25.325046 -3.010211 -19.815054 32.296372 -0.118308 2.231330 0.021663 0.005471 716006.000000 0 0 1
25.044456 -4.432111 -19.856354 32.266750 -0.175156 2.233666 0.016092 -0.000728 43057.600000 0 0 1
25.827886 -5.224611 -18.753354 32.342921 -0.199592 2.189315 0.015955 -0.006164 -378474.000000 0 0 1
27.203076 -5.228511 -18.942754 33.558495 -0.189887 2.170587 0.019198 -0.007123 -854804.000000 0 0 1
27.954756 -5.673911 -17.846054 33.647337 -0.200247 2.129851 0.012922 -0.006583 398750.000000 0 0 1
29.495596 -5.514111 -18.006554 34.994736 -0.184814 2.111279 0.013372 -0.002028 414690.000000 0 0 1
29.952656 -6.372211 -19.035254 36.057004 -0.209618 2.126947 0.012415 -0.009320 -148984.000000 0 0 1
31.308916 -6.119411 -19.332554 37.302051 -0.193019 2.115624 0.006271 -0.001790 -209759.000000 0 0 1
31.918356 -7.347111 -20.013254 38.383483 -0.226244 2.119290 -0.000886 -0.000600 -325646.000000 0 0 1
32.248476 -8.287011 -19.032154 38.351814 -0.251531 2.090072 0.000019 -0.001508 142521.000000 0 0 1
32.939606 -9.370811 -19.649054 39.483098 -0.277162 2.091692 0.004063 0.002790 -84577.600000 0 0 1
33.678887 -10.257211 -18.610654 39.822534 -0.295634 2.057076 0.004604 0.005493 -408238.000000 0 0 1
32.829146 -10.809411 -17.631554 38.800359 -0.318082 2.042514 0.001306 0.003233 367545.000000 0 0 1
33.478326 -11.575911 -16.578054 39.110509 -0.332904 2.008518 0.011995 0.005954 174566.000000 0 0 1
34.448836 -10.902111 -15.518454 39.324302 -0.306500 1.976459 0.012610 -0.000629 319238.000000 0 0 1
-34.593940 -11.739211 -14.490454 39.300420 0.327149 1.948417 0.004566 0.004242 556598.000000 0 0 1
-34.004172 -13.004411 -14.810654 39.303357 0.365274 1.957167 0.007714 0.004060 -1045690.000000 0 0 1
-32.595242 -12.878511 -15.354654 38.263184 0.376279 1.983722 0.006537 0.001517 -1374500.000000 0 0 1
-32.515752 -12.352211 -16.670054 38.571258 0.363046 2.017715 0.007337 0.000083 126939.000000 0 0 1
-31.228902 -12.573611 -17.224854 37.815811 0.382769 2.043723 0.002119 0.008421 -10988.000000 0 0 1
-30.934372 -11.661411 -18.422954 37.846124 0.360499 2.079203 0.010877 0.013210 135937.000000 0 0 1
-30.694272 -10.306211 -18.157654 37.122186 0.323942 2.081891 0.014262 0.004363 543790.000000 0 0 1
-31.604142 -9.539811 -18.964254 38.071941 0.293156 2.092221 0.017351 0.000808 605243.000000 0 0 1
-32.374612 -8.354511 -18.270954 38.101720 0.252548 2.070916 0.003812 -0.005423 -133631.000000 0 0 1
-33.288662 -7.727611 -19.095754 39.147143 0.228099 2.080358 0.000357 -0.001343 -524784.000000 0 0 1
-33.953132 -6.693611 -18.447154 39.216286 0.194647 2.060535 0.001900 -0.005073 -303859.000000 0 0 1
23.156118 28.161089 -27.650974 45.758377 0.882621 2.219661 0.000637 0.020281 -11271.800000 0 0 1
23.663718 27.101289 -26.832544 44.882478 0.853010 2.211600 -0.000305 0.019086 966602.000000 0 0 1
24.987518 26.674389 -27.223694 45.574429 0.818039 2.210984 -0.008381 0.011092 767293.000000 0 0 1
25.574918 25.568989 -26.326424 44.731759 0.785282 2.200048 -0.000047 0.013258 -377507.000000 0 0 1
25.988018 26.111689 -25.090344 44.572668 0.787772 2.168697 -0.002612 0.016226 136364.000000 0 0 1
26.321518 25.065989 -24.204654 43.669112 0.760970 2.158287 -0.000556 0.016385 -457097.000000 0 0 1
27.017618 25.603389 -22.956554 43.732009 0.758529 2.123438 -0.000918 0.013475 -462818.000000 0 0 1
26.328218 26.600889 -22.229354 43.530754 0.790550 2.106747 0.014572 0.012943 -23472.100000 0 0 1
27.038218 27.028889 -21.091354 43.663157 0.785226 2.074928 0.007215 0.004807 -260476.000000 0 0 1
26.206618 28.041289 -20.309954 43.423438 0.819205 2.057504 0.022334 0.002124 -189477.000000 0 0 1
25.240918 27.402489 -19.496054 42.048739 0.826436 2.052911 0.022629 -0.005796 -118268.000000 0 0 1
24.636318 28.466389 -18.787754 42.074495 0.857399 2.033686 0.024307 -0.001557 -99685.800000 0 0 1
23.650018 28.034989 -17.671354 40.713151 0.870036 2.019775 0.024136 -0.001743 225400.000000 0 0 1
22.514318 27.375489 -18.219954 39.853214 0.882530 2.045614 0.026251 0.000250 207308.000000 0 0 1
21.435718 27.545589 -17.318654 38.963897 0.909496 2.031389 0.017722 0.002502 85743.400000 0 0 1
20.199918 26.640189 -17.539454 37.754057 0.922036 2.053947 0.002939 0.014632 18684.000000 0 0 1
19.480718 27.050189 -18.660754 38.202550 0.946662 2.081130 0.010161 0.018459 -705069.000000 0 0 1
18.688318 26.062589 -19.196054 37.376467 0.948715 2.110156 0.003790 0.014683 -498043.000000 0 0 1
18.168118 26.408589 -20.581054 38.092963 0.968195 2.141572 -0.002822 0.019954 370465.000000 0 0 1
17.129118 27.396989 -20.515654 38.273930 1.012040 2.136514 -0.013132 0.021694 -593.540000 0 0 1
16.338718 27.332489 -21.685154 38.526154 1.032013 2.168648 -0.015688 0.020343 -647700.000000 0 0 1
15.145718 28.274789 -21.572454 38.655235 1.079028 2.162858 -0.013798 0.022180 -712749.000000 0 0 1
14.274918 27.813189 -20.572454 37.424225 1.096611 2.152813 -0.011068 0.023658 -679765.000000 0 0 1
13.463818 28.873189 -20.146454 37.693700 1.134463 2.134686 -0.026101 0.018586 -164589.000000 0 0 1
13.236618 28.790789 -18.663454 36.775564 1.139862 2.103073 -0.023025 0.014042 -143395.000000 0 0 1
12.291518 27.820489 -18.284154 35.487622 1.154770 2.112068 -0.021176 0.018934 -282864.000000 0 0 1
12.189218 27.864089 -16.874954 34.781440 1.158426 2.077355 -0.003418 0.014780 286417.000000 0 0 1
11.262018 26.734589 -16.354154 33.302097 1.172104 2.084131 0.004417 0.009209 478424.000000 0 0 1
12.013318 25.530989 -16.255754 32.563795 1.130994 2.093468 -0.017934 0.009856 -227240.000000 0 0 1
11.137618 24.467189 -16.086954 31.328580 1.143621 2.110045 0.018265 0.002997 -134241.000000 0 0 1
11.809818 23.128189 -16.322054 30.672371 1.098685 2.131925 0.001623 0.007059 -50503.400000 0 0 1
12.419118 23.014089 -17.597854 31.520902 1.075949 2.163121 0.005917 0.009060 -22544.300000 0 0 1
13.155918 21.787289 -17.806854 31.062005 1.027562 2.181285 0.004151 0.008004 130303.000000 0 0 1
12.310718 20.495089 -18.013854 29.934952 1.029887 2.216507 0.014087 0.002508 95198.500000 0 0 1
11.608818 20.063789 -16.854654 28.660070 1.046264 2.199490 0.010629 0.002383 81996.700000 0 0 1
10.995218 18.772189 -17.078654 27.658097 1.040944 2.236347 0.017623 0.000499 286955.000000 0 0 1
11.957318 17.547889 -17.265154 27.367707 0.972656 2.253456 -0.000318 -0.000018 -233694.000000 0 0 1
12.726718 17.300389 -16.148754 26.871082 0.936554 2.215512 0.002939 0.001144 -82505.000000 0 0 1
13.764718 16.387589 -16.534954 27.044874 0.872167 2.228612 -0.000642 -0.000343 -609284.000000 0 0 1
14.275718 15.635489 -15.350154 26.151326 0.830827 2.198113 0.006156 0.012142 -931600.000000 0 0 1
14.928918 16.377189 -14.324654 26.387130 0.831627 2.144641 0.000010 0.014744 1435000.000000 0 0 1
16.267518 16.874089 -14.583154 27.604989 0.803699 2.127369 -0.000477 0.004652 1648320.000000 0 0 1
17.396018 15.777889 -14.896954 27.811553 0.736660 2.136061 -0.001293 -0.003164 -39309.600000 0 0 1
17.729618 14.771589 -13.938454 26.959594 0.694635 2.114154 -0.007246 0.000781 350272.000000 0 0 1
18.426018 15.260889 -12.821554 27.144154 0.691716 2.062752 -0.011542 0.003504 -482724.000000 0 0 1
19.188318 14.249489 -11.960054 26.726062 0.638756 2.034770 -0.009324 0.006131 -375323.000000 0 0 1
18.340318 13.419089 -11.209854 25.339693 0.631667 2.029051 -0.001022 0.005558 -259608.000000 0 0 1
19.006018 12.577889 -10.314554 25.016435 0.584615 1.995786 -0.002657 0.009011 -193131.000000 0 0 1
19.606718 11.241689 -10.860454 25.074856 0.520600 2.018749 0.006413 0.008537 -489659.000000 0 0 1
20.792918 11.441289 -11.577354 26.406129 0.503035 2.024652 0.004242 0.005994 156267.000000 0 0 1
21.188818 10.327289 -12.427454 26.646961 0.453512 2.055984 0.001717 0.005953 42291.900000 0 0 1
22.024718 9.220189 -11.748554 26.610686 0.396462 2.028063 0.005215 0.004936 91307.500000 0 0 1
21.166218 8.461389 -10.865654 25.252056 0.380299 2.015608 0.004601 0.003362 1084940.000000 0 0 1
21.873218 7.430789 -10.188354 25.247908 0.327488 1.986171 0.001063 0.000024 -514338.000000 0 0 1
22.332818 6.186489 -11.019354 25.660350 0.270237 2.014659 0.017568 -0.003868 -10883.200000 0 0 1
21.285718 5.361789 -11.532554 24.795773 0.246762 2.054546 0.036922 -0.005883 385034.000000 0 1 0
20.638018 5.871889 -12.682254 24.924816 0.277193 2.104610 0.015151 0.000260 341600.000000 0 1 0
19.391018 5.068189 -13.195554 23.996266 0.255649 2.153041 0.008820 0.001737 340564.000000 0 1 0
19.719318 3.808589 -13.804054 24.370243 0.190791 2.172965 -0.006220 0.007619 58724.300000 0 1 0
18.605918 2.981789 -14.022054 23.488066 0.158909 2.210536 -0.009371 0.012138 -836609.000000 0 1 0
18.956318 1.659289 -14.686254 24.037082 0.087310 2.228098 -0.010029 0.008433 -210846.000000 0 1 0
19.849118 0.863389 -13.923354 24.260930 0.043470 2.182057 -0.019285 0.006197 773872.000000 0 1 0
21.153518 0.797389 -14.515854 25.667434 0.037677 2.171879 -0.002494 0.005353 435347.000000 0 0 1
21.547618 -0.646211 -14.968854 26.244695 -0.029981 2.177737 0.011551 0.004085 -381465.000000 0 0 1
20.703718 -1.077211 -15.993754 26.184051 -0.051983 2.227893 0.000451 0.002602 -213174.000000 0 0 1
21.333918 -2.169411 -16.622354 27.131993 -0.101340 2.230203 0.013210 -0.003672 -195199.000000 0 0 1
20.448718 -2.861611 -17.684654 27.186134 -0.139038 2.279042 0.000861 -0.002539 -386889.000000 0 0 1
19.578018 -3.816911 -17.152654 26.307435 -0.192544 2.281026 0.002999 -0.008813 -151636.000000 0 0 1
18.745918 -4.363611 -18.157554 26.460297 -0.228704 2.327074 -0.002738 -0.008560 -575688.000000 0 0 1
17.892518 -5.493511 -17.605254 25.695639 -0.297892 2.325600 -0.004985 -0.007650 -771733.000000 0 0 1
18.523318 -6.547811 -16.947854 25.946424 -0.339781 2.282581 -0.004763 -0.009301 811938.000000 0 0 1
17.565818 -7.608411 -16.641854 25.365275 -0.408743 2.286420 0.002085 -0.001915 895470.000000 0 0 1
18.307618 -8.815011 -15.972354 25.845491 -0.448734 2.236985 -0.008883 0.003052 390741.000000 0 0 1
19.034018 -9.669411 -16.843854 27.193874 -0.470033 2.238773 0.001798 -0.000829 682236.000000 0 0 1
19.897418 -10.522511 -16.077954 27.661003 -0.486451 2.191060 -0.003789 -0.004118 -129411.000000 0 0 1
20.765818 -11.534011 -16.778154 29.081937 -0.507005 2.185758 -0.006004 -0.000750 -169110.000000 0 0 1
21.835918 -11.026011 -17.564754 30.114794 -0.467598 2.193533 -0.003972 -0.000617 274573.000000 0 0 1
22.161218 -11.934711 -18.624554 31.311834 -0.494003 2.207824 -0.001705 0.003058 -226053.000000 0 0 1
21.278918 -11.914811 -19.914354 31.485498 -0.510439 2.255564 0.007381 0.008581 392286.000000 0 0 1
19.948618 -12.388811 -19.899154 30.779967 -0.555744 2.273780 -0.000398 0.004269 142170.000000 0 0 1
19.822518 -13.787911 -19.974554 31.337223 -0.607745 2.261924 -0.003932 0.007829 -878067.000000 0 0 1
18.383118 -14.253611 -20.023054 30.692461 -0.659538 2.281513 0.001256 0.012744 -660399.000000 0 0 1
17.811018 -14.076811 -21.277454 31.114611 -0.668825 2.323811 0.004595 0.016104 391941.000000 0 0 1
16.383618 -14.239811 -21.219654 30.355706 -0.715507 2.344841 0.004166 0.017040 788232.000000 0 0 1
15.707818 -13.675911 -22.506854 30.664712 -0.716357 2.394939 0.001579 0.012156 -409298.000000 0 0 1
15.901318 -14.405111 -23.719054 31.983631 -0.736069 2.406248 0.000034 0.011855 319885.000000 0 0 1
15.336118 -13.741311 -24.824054 32.252966 -0.730606 2.449116 0.003091 0.007330 -120481.000000 0 0 1
15.461518 -14.629811 -26.092214 33.673336 -0.757766 2.457294 0.001207 0.004211 -1011870.000000 0 0 1
14.443918 -15.535211 -26.066084 33.606700 -0.821784 2.458496 -0.000902 0.002265 -682718.000000 0 0 1
14.501418 -16.328811 -27.222504 34.899655 -0.844602 2.465498 0.000274 0.003214 -36565.100000 0 0 1
15.548118 -17.458211 -27.313234 35.951994 -0.843204 2.433670 -0.006247 0.001730 81288.900000 0 0 1
16.919618 -17.107011 -27.327104 36.410080 -0.790905 2.419670 -0.001088 0.004414 212000.000000 0 0 1
17.746718 -18.238811 -27.474954 37.449611 -0.799072 2.394476 0.002190 0.003029 -643645.000000 0 0 1
19.213618 -17.887911 -27.336314 37.900060 -0.749681 2.376436 -0.000814 0.003903 -1047550.000000 0 0 1
19.563418 -17.609311 -26.010834 37.005117 -0.732878 2.350260 0.000238 0.006061 -22576.200000 0 0 1
20.960918 -17.386111 -25.976194 37.635085 -0.692444 2.332579 0.005509 0.010862 68630.600000 0 0 1
21.460818 -16.725511 -24.631354 36.701676 -0.662023 2.306519 0.002226 0.013506 21220.000000 0 0 1
21.213318 -15.329311 -24.419354 35.795216 -0.625751 2.321558 0.007181 0.014009 1018300.000000 0 0 1
19.788718 -15.028111 -24.380554 34.811620 -0.649508 2.346694 0.009896 0.014598 1274040.000000 0 0 1
19.502018 -13.644011 -23.903954 33.732577 -0.610471 2.358353 0.010126 0.020127 -159994.000000 0 0 1
19.829518 -12.644711 -24.810654 34.185773 -0.567659 2.382934 0.017319 0.008864 -80027.400000 0 0 1
19.543218 -11.463411 -24.229954 33.172848 -0.530484 2.389726 0.013338 0.006819 -6315.190000 0 0 1
19.718518 -10.148611 -25.041954 33.450168 -0.475318 2.416797 0.022187 -0.003033 -100826.000000 0 0 1
19.499018 -9.050011 -24.189254 32.361002 -0.434539 2.415059 0.024427 -0.008167 50035.200000 0 0 1
19.115518 -7.990011 -25.063954 32.518381 -0.395914 2.450834 0.019074 -0.009452 -133191.000000 0 0 1
18.576718 -6.779811 -24.257754 31.296948 -0.349942 2.457644 0.010598 -0.013685 717069.000000 0 0 1
17.224318 -6.981811 -23.801554 30.198291 -0.385107 2.478635 0.012052 -0.008854 763123.000000 0 0 1
16.807918 -5.939311 -22.903054 29.022946 -0.339668 2.480198 -0.002462 -0.007582 -339159.000000 0 0 1
17.459618 -5.871411 -21.499254 28.311299 -0.324405 2.433168 -0.003737 -0.011139 -577345.000000 0 0 1
17.244118 -7.028411 -20.686754 27.833433 -0.387026 2.408688 -0.002874 -0.009280 286327.000000 0 0 1
17.907818 -8.209411 -21.110054 28.874189 -0.429839 2.390736 0.000670 -0.005354 -439215.000000 0 0 1
17.659318 -9.413411 -20.132754 28.386469 -0.489742 2.359213 0.004047 0.002141 -79034.700000 0 0 1
16.289618 -9.554711 -19.835654 27.387905 -0.530473 2.380740 0.001177 0.004021 -314880.000000 0 0 1
16.055818 -10.692811 -18.997954 27.074855 -0.587525 2.348553 0.006089 0.009327 -519.012000 0 0 1
14.558318 -10.996511 -18.673654 26.106958 -0.646911 2.367814 0.002263 0.006867 708172.000000 0 0 1
13.868018 -10.162511 -17.712854 24.684889 -0.632403 2.371087 0.010142 0.003185 420625.000000 0 1 0
13.859818 -8.782911 -18.102554 24.432285 -0.564828 2.405247 0.013321 -0.002311 -1474920.000000 0 1 0
12.869018 -7.858611 -17.414854 23.035767 -0.548222 2.427965 0.022829 0.003450 -834697.000000 0 1 0
11.736118 -7.734411 -18.215554 23.007912 -0.582694 2.484397 0.012441 -0.005939 -521029.000000 0 1 0
10.958218 -6.615411 -17.808354 21.931340 -0.543131 2.518375 0.019865 -0.003488 38262.700000 0 1 0
9.438418 -6.736811 -18.024654 21.432604 -0.619905 2.569911 0.022947 -0.010832 35554.500000 0 1 0
9.059318 -6.550811 -19.390154 22.382190 -0.626063 2.618585 0.015104 -0.013085 -7283.790000 0 1 0
7.645218 -6.486511 -19.445254 21.877890 -0.703588 2.665535 0.009632 -0.024092 66570.200000 0 1 0
7.115318 -6.154911 -20.834854 22.860486 -0.713151 2.717449 0.007117 -0.025415 -165138.000000 0 1 0
7.183718 -7.152511 -21.828754 24.067794 -0.783221 2.706829 0.011015 -0.016237 -390985.000000 0 1 0
6.454718 -6.882611 -22.955554 24.819170 -0.817470 2.751601 0.013079 -0.013291 -471499.000000 0 1 0
6.538418 -7.962711 -24.034254 26.149590 -0.883304 2.736603 0.012765 -0.009013 -556973.000000 0 0 1
5.774518 -9.048211 -23.665454 25.985937 -1.002765 2.715778 0.012131 -0.008755 -219641.000000 0 0 1
5.588818 -9.872911 -24.816754 27.287003 -1.055695 2.712808 0.006525 -0.000057 -31941.000000 0 0 1
4.704718 -11.120711 -24.608254 27.411143 -1.170571 2.685423 0.004599 0.005155 267856.000000 0 0 1
5.330618 -12.122911 -23.776254 27.215634 -1.156529 2.633399 0.011028 0.002419 30976.900000 0 0 1
4.595018 -13.324411 -23.727254 27.597766 -1.238710 2.605582 0.018023 -0.000104 -504787.000000 0 0 1
5.184418 -14.320311 -22.697554 27.333651 -1.223443 2.550601 0.015519 -0.003249 749382.000000 0 0 1
6.284318 -15.163011 -23.116654 28.351177 -1.177895 2.524162 0.017477 0.003224 259987.000000 0 0 1
7.518818 -14.604011 -23.474654 28.650814 -1.095342 2.531049 0.019678 0.002110 -395386.000000 0 0 1
8.415218 -14.094811 -22.349854 27.730769 -1.032553 2.508089 0.013798 0.009754 -158781.000000 0 0 1
9.053318 -15.146911 -21.530954 27.838345 -1.032069 2.455028 0.008482 0.015749 520915.000000 0 0 1
8.169918 -15.629011 -20.520254 27.057243 -1.089122 2.431653 -0.003079 0.012101 50450.800000 0 0 1
8.805518 -15.777911 -19.139554 26.321135 -1.061762 2.384965 0.004110 0.005067 248939.000000 0 0 1
9.675418 -16.923811 -19.118554 27.304729 -1.051442 2.346463 0.011681 0.007535 -47393.800000 0 0 1
10.196618 -17.263411 -17.857754 26.849502 -1.037281 2.298432 0.001870 0.002579 -231810.000000 0 0 1
9.127318 -18.001311 -17.004254 26.391283 -1.101536 2.270921 0.004730 -0.004333 -580296.000000 0 0 1
8.836218 -19.348611 -17.401054 27.481707 -1.142397 2.256460 -0.001636 -0.004846 -89412.300000 0 0 1
8.067718 -19.531611 -18.579654 28.138505 -1.179083 2.292005 0.002762 0.001268 -502522.000000 0 0 1
6.580518 -19.268211 -18.304954 27.379528 -1.241694 2.303072 -0.008185 0.003235 -848985.000000 0 0 1
6.191818 -17.916711 -18.028354 26.160442 -1.238057 2.331106 -0.009433 0.005623 -11318.300000 0 0 1
4.791618 -17.845911 -17.793354 25.652283 -1.308484 2.337321 -0.013285 0.006267 401581.000000 0 0 1
4.349418 -16.428111 -17.461654 24.366158 -1.311980 2.369763 -0.010191 0.011496 -349.150000 0 1 0
4.852018 -15.992811 -16.214954 23.285979 -1.276235 2.341081 -0.007909 0.002778 -15040.900000 0 1 0
4.352918 -14.749211 -15.869054 22.097828 -1.283814 2.371904 -0.016583 0.010449 -43257.000000 0 1 0
10.004918 30.591289 -18.225954 36.987981 1.254710 2.086047 0.002716 -0.003507 -343418.000000 0 0 1
9.072118 30.095089 -19.150854 36.807240 1.278011 2.118000 0.014186 0.003921 462552.000000 0 0 1
8.012518 29.375989 -18.464454 35.610184 1.304516 2.115911 0.017875 0.003169 356589.000000 0 0 1
7.050518 28.766289 -19.449954 35.433175 1.330438 2.151867 0.021920 0.006204 -561782.000000 0 0 1
6.414218 29.760689 -20.164354 36.516324 1.358517 2.155798 0.023041 0.004458 -46216.200000 0 0 1
5.324318 29.260689 -20.944654 36.376019 1.390804 2.184356 0.016164 0.005449 581535.000000 0 0 1
4.281618 30.302589 -21.382454 37.333476 1.430430 2.180643 0.008436 0.005289 287714.000000 0 0 1
3.433218 30.838689 -20.367054 37.116419 1.459925 2.151646 0.012752 -0.007651 -111406.000000 0 0 1
2.483018 31.742489 -20.836354 38.051342 1.492731 2.150272 -0.003560 -0.008096 1133880.000000 0 0 1
0.978618 31.426189 -20.360254 37.458016 1.539666 2.145455 -0.011711 -0.006808 1713260.000000 0 0 1
0.432718 30.163889 -20.720954 36.597887 1.556452 2.172659 -0.007718 0.002781 55228.200000 0 0 1
0.235318 30.010489 -22.144154 37.296761 1.562955 2.206481 -0.007012 0.002497 -871547.000000 0 0 1
-0.126682 28.572589 -22.651254 36.462147 -1.566363 2.241103 -0.008299 0.001424 -109569.000000 0 0 1
-1.385582 28.180889 -22.184554 35.892015 -1.521668 2.237109 -0.004564 0.003174 -380269.000000 0 0 1
-1.816882 26.909889 -22.580054 35.175304 -1.503381 2.267808 0.001298 -0.003598 30145.100000 0 0 1
-2.862982 26.249189 -21.634254 34.135868 -1.462156 2.257212 -0.001554 -0.000741 -356961.000000 0 0 1
-4.075682 26.934189 -21.726554 34.844007 -1.420616 2.244056 0.007866 -0.007475 -448052.000000 0 0 1
-5.149682 26.176089 -21.222954 34.089890 -1.376545 2.242804 0.004824 -0.001504 -36042.300000 0 0 1
-6.006982 27.027389 -20.247154 34.300303 -1.352096 2.202215 0.014192 -0.008692 -136010.000000 0 0 1
-7.282482 26.488389 -19.999954 33.980398 -1.302494 2.200089 0.014806 -0.005750 -228557.000000 0 0 1
-7.975782 27.356489 -19.112554 34.311518 -1.287110 2.161602 0.009355 -0.008675 1042800.000000 0 0 1
-9.285182 26.788689 -18.455154 33.829590 -1.237146 2.147821 0.010276 0.000260 767351.000000 0 0 1
-8.989582 26.009489 -17.297254 32.503862 -1.238023 2.131946 0.010318 0.003718 793287.000000 0 0 1
-10.204882 25.371589 -16.821954 32.106623 -1.188380 2.122267 -0.002343 -0.000271 933098.000000 0 0 1
-10.147382 24.691789 -15.439654 30.838883 -1.180876 2.095152 0.002813 0.010536 -226369.000000 0 0 1
-9.475682 23.466089 -15.499654 29.676340 -1.187016 2.120330 0.013585 0.012573 -260120.000000 0 0 1
-9.441882 22.794989 -14.234554 28.484788 -1.178101 2.094077 0.023412 0.016931 -458156.000000 0 0 1
-8.762982 21.461489 -14.254854 27.213713 -1.183145 2.122116 0.025698 0.014137 -335723.000000 0 0 1
-9.456282 20.392689 -14.910754 26.974314 -1.136600 2.156488 0.017111 0.013823 -292043.000000 0 0 1
-9.633882 20.478989 -16.298254 27.889671 -1.131085 2.194916 0.010930 0.011623 79200.400000 0 0 1
-8.526882 20.026289 -17.280254 27.791494 -1.168261 2.241812 0.008163 0.009458 187003.000000 0 0 1
-7.988682 18.707889 -17.081254 26.562631 -1.167214 2.269278 0.009274 0.012513 -155243.000000 0 0 1
-6.934382 18.519489 -17.993354 26.736078 -1.212519 2.309052 0.002695 0.010194 88818.500000 0 0 1
-6.473582 17.053089 -18.164354 25.742161 -1.207987 2.354103 -0.008313 0.011903 551394.000000 0 0 1
-7.482982 16.258689 -18.816354 25.969119 -1.139455 2.381202 -0.006281 0.002054 178788.000000 0 0 1
-7.050982 15.643589 -19.983054 26.339337 -1.147338 2.432077 -0.012513 0.000471 272038.000000 0 0 1
-5.897982 14.604689 -19.932054 25.404131 -1.186983 2.472845 -0.015156 0.004453 46077.300000 0 0 1
-6.231882 13.382989 -19.207854 24.225655 -1.134999 2.486305 -0.010207 0.003426 -413753.000000 0 1 0
-5.154882 12.705889 -18.632754 23.134216 -1.185379 2.507180 -0.009869 0.005110 -133044.000000 0 1 0
-4.542782 13.374089 -17.346354 22.369602 -1.243353 2.458213 -0.001509 0.004254 2897.730000 0 1 0
-3.962682 14.648289 -17.538654 23.192231 -1.306598 2.428328 -0.009605 -0.000360 -405426.000000 0 1 0
-3.381382 15.135689 -16.344354 22.531327 -1.351001 2.382420 -0.004823 0.002856 -191527.000000 0 1 0
-2.685382 16.494289 -16.307054 23.349365 -1.409406 2.343947 0.002501 0.005344 222448.000000 0 1 0
-3.453382 17.665189 -16.584054 24.474795 -1.377740 2.315287 -0.008559 0.007264 39586.600000 0 1 0
-2.583782 18.776989 -16.427754 25.082311 -1.434051 2.284918 -0.008712 0.006970 277333.000000 0 0 1
-3.114282 20.019389 -17.182654 26.565358 -1.416470 2.274186 -0.002336 0.007486 155650.000000 0 0 1
-3.273382 19.772189 -18.563754 27.317896 -1.406730 2.317939 -0.000273 0.004982 -160731.000000 0 0 1
-3.883982 20.808789 -19.331254 28.666851 -1.386269 2.310869 0.004922 0.003803 480147.000000 0 0 1
-3.004182 22.099389 -19.705254 29.760798 -1.435685 2.294442 -0.007617 0.008076 -120115.000000 0 0 1
-1.902182 21.831489 -20.584054 30.065520 -1.483886 2.324906 0.000109 0.006936 -166864.000000 0 0 1
-0.844182 22.692989 -20.333754 30.481895 -1.533613 2.301074 -0.000828 0.010079 -221336.000000 0 0 1
0.036718 22.318689 -19.112954 29.384183 1.569151 2.278974 0.001755 0.011873 -1196360.000000 0 0 1
-0.540982 22.436589 -17.825754 28.660961 -1.546689 2.242030 -0.000252 0.012191 -714488.000000 0 0 1
0.356218 22.178289 -16.765554 27.804445 1.554736 2.218029 0.010775 0.005505 -328177.000000 0 0 1
-0.227882 22.209589 -15.386954 27.019921 -1.560536 2.176654 0.008404 0.005583 -329699.000000 0 0 1
-0.896182 21.057789 -14.971854 25.853240 -1.528264 2.188432 0.007724 0.005816 -258458.000000 0 0 1
-0.692782 20.895789 -13.584854 24.933154 -1.537654 2.147008 0.021007 0.004268 -150045.000000 0 1 0
-1.569382 19.762289 -13.085254 23.753629 -1.491550 2.154207 0.012674 0.004475 -353583.000000 0 1 0
-1.103582 18.505089 -13.459354 22.908741 -1.511230 2.198788 0.013082 -0.000418 -157156.000000 0 1 0
-1.727882 17.598889 -12.594654 21.710176 -1.472929 2.189681 0.005128 -0.007451 146747.000000 0 1 0
-1.221882 16.119289 -12.757754 20.593318 -1.495139 2.238914 -0.001310 -0.009229 345072.000000 0 1 0
0.009218 15.836089 -12.070754 19.911928 1.570214 2.222079 0.007692 -0.004334 554950.000000 0 1 0
0.358818 14.453689 -12.030354 18.808702 1.545976 2.264795 0.017963 -0.006078 34415.500000 0 1 0
0.826718 13.797789 -13.350454 19.217103 1.510951 2.338823 0.001830 -0.007903 -190953.000000 0 1 0
-0.034282 13.809289 -14.496454 20.021109 -1.568314 2.380465 -0.001302 -0.007326 328340.000000 0 1 0
0.626118 13.006289 -15.464254 20.216298 1.522694 2.441744 -0.000503 -0.005460 -260154.000000 0 1 0
-0.225582 12.770589 -16.709754 21.032230 -1.553134 2.488952 0.000330 -0.000642 -242552.000000 0 1 0
-0.459382 14.004389 -17.332154 22.287608 -1.538005 2.461729 -0.004614 -0.004795 -77041.800000 0 1 0
-0.630882 13.841089 -18.726454 23.294931 -1.525248 2.504595 -0.004454 0.001209 -261908.000000 0 1 0
-1.239282 15.062089 -19.439354 24.622973 -1.488703 2.480758 -0.006604 0.005157 -211671.000000 0 1 0
-0.419482 16.194389 -19.514654 25.362490 -1.544899 2.448744 -0.012412 0.001186 76280.600000 0 0 1
-1.213482 17.348689 -19.831054 26.376509 -1.500963 2.421653 -0.011068 0.004732 366870.000000 0 0 1
-0.323982 18.506789 -20.315354 27.483082 -1.553292 2.402670 -0.007825 0.003662 345930.000000 0 0 1
0.307318 18.229389 -21.562054 28.236983 1.553940 2.439683 0.005669 -0.000225 -91515.200000 0 0 1
1.143518 19.276089 -21.927154 29.217722 1.511543 2.419576 0.007572 0.002250 -165574.000000 0 0 1
1.739018 19.216289 -23.332154 30.276713 1.480545 2.450626 0.014135 -0.002592 193352.000000 0 0 1
2.769418 18.273989 -23.599054 29.975385 1.420391 2.477183 0.009463 -0.004753 111391.000000 0 0 1
3.223718 18.336589 -24.897654 31.088841 1.396767 2.499518 0.016384 -0.016114 113758.000000 0 0 1
4.007118 17.102289 -25.445464 30.919523 1.340645 2.537394 0.008280 0.001024 -151726.000000 0 0 1
5.266618 17.061289 -24.802554 30.561275 1.271388 2.517627 0.001503 -0.001943 395889.000000 0 0 1
6.153418 16.067889 -25.373544 30.657109 1.205062 2.545715 0.004399 -0.002075 698218.000000 0 0 1
6.759018 16.241489 -26.824354 32.078283 1.176439 2.561142 0.000425 -0.010092 -809923.000000 0 0 1
7.733418 17.287689 -26.984104 32.966829 1.150159 2.529631 0.000219 -0.008192 789609.000000 0 0 1
8.329918 17.485189 -28.276514 34.273614 1.126208 2.541039 -0.000666 -0.010389 138866.000000 0 0 1
8.920618 16.248289 -28.983104 34.403555 1.068707 2.572602 -0.002760 -0.017792 -876502.000000 0 0 1
10.097718 15.879489 -28.300324 33.985738 1.004399 2.554784 0.005393 -0.016286 -90874.600000 0 0 1
10.662318 14.638889 -28.746894 33.975962 0.941292 2.579413 0.003078 -0.015623 -19678.900000 0 0 1
10.159018 13.445689 -27.909934 32.603015 0.923747 2.598382 -0.002588 -0.009629 -1076750.000000 0 0 1
8.816618 13.204089 -28.111004 32.284815 0.982066 2.627459 -0.001761 -0.005038 -1082150.000000 0 0 1
8.495218 12.212789 -27.158204 30.965933 0.963029 2.640452 -0.003298 -0.004921 -431732.000000 0 0 1
7.041418 11.740389 -27.261294 30.505679 1.030553 2.676202 0.010158 0.001199 76807.000000 0 0 1
6.146618 12.773589 -26.838524 30.352131 1.122304 2.655657 0.016715 0.003753 432864.000000 0 0 1
4.858418 12.285889 -26.439184 29.556348 1.194221 2.678186 0.015469 0.008361 701208.000000 0 0 1
3.744718 13.333689 -26.561014 29.954927 1.297003 2.660953 0.031026 0.007072 -876680.000000 0 0 1
3.362718 13.532089 -27.874014 31.167065 1.327230 2.677754 0.031750 0.006708 -40239.800000 0 0 1
3.970018 14.648089 -28.453664 32.248078 1.306128 2.651601 0.034080 0.012592 -315043.000000 0 0 1
3.829018 14.742989 -29.987184 33.634035 1.316693 2.671602 0.033848 0.006814 89436.200000 0 0 1
4.470418 13.611289 -30.611824 33.798455 1.253461 2.703864 0.033844 0.003732 351030.000000 0 0 1
4.403318 13.558589 -32.028134 35.057466 1.256779 2.722822 0.030932 0.007068 -382268.000000 0 0 1
5.387318 12.523489 -32.659324 35.390569 1.164549 2.746149 0.034728 0.003245 -135924.000000 0 0 1
6.785418 12.672489 -32.633904 35.659579 1.079197 2.726679 0.027238 0.005732 236914.000000 0 0 1
7.383018 12.528889 -31.329194 34.539838 1.038297 2.707008 0.026312 -0.001406 -451778.000000 0 0 1
7.247418 11.137189 -30.733904 33.483352 0.993901 2.733517 0.025693 0.002031 -419390.000000 0 0 1
8.321018 10.246089 -31.030924 33.721505 0.888711 2.739417 0.017335 0.001051 62019.800000 0 0 1
8.175218 8.979089 -30.400874 32.736392 0.832225 2.761572 0.017550 -0.001351 -1151030.000000 0 0 1
9.240218 7.947789 -30.490084 32.835867 0.710346 2.761312 0.004197 0.000028 -1211620.000000 0 0 1
10.432318 8.312489 -29.853324 32.697885 0.672788 2.721386 0.004143 0.003866 -385939.000000 0 0 1
11.215618 7.134989 -29.827964 32.655866 0.566588 2.722363 -0.011333 0.006529 -604949.000000 0 0 1
12.501718 7.202889 -28.980494 32.373501 0.522700 2.679658 -0.008262 0.013555 55383.500000 0 0 1
13.184818 5.990289 -28.828434 32.261457 0.426451 2.676071 0.003802 0.002502 125510.000000 0 0 1
14.015118 5.528989 -29.912524 33.492571 0.375758 2.675007 -0.000447 0.008280 -353955.000000 0 0 1
14.842318 4.344889 -29.404344 33.223304 0.284780 2.657402 0.009535 0.001730 87977.700000 0 0 1
15.606818 4.654689 -28.218174 32.580734 0.289848 2.618143 -0.007194 -0.005672 444894.000000 0 0 1
16.591718 3.653289 -28.032794 32.779097 0.216729 2.596739 0.002160 -0.005732 -137436.000000 0 0 1
17.384918 3.826289 -26.738204 32.121759 0.216638 2.554224 0.005308 -0.008668 -379216.000000 0 0 1
18.163918 4.989189 -26.677584 32.657517 0.268065 2.526794 0.013519 -0.009490 146106.000000 0 0 1
18.857818 5.172989 -25.453474 32.097608 0.267730 2.486518 0.021078 -0.012574 -813769.000000 0 0 1
19.783418 6.344389 -25.436214 32.842593 0.310331 2.456703 0.008428 -0.008111 -821851.000000 0 0 1
19.199218 7.642989 -25.556064 32.865448 0.378857 2.461631 0.008374 -0.005237 294660.000000 0 0 1
20.058118 8.476489 -26.327814 34.166252 0.399833 2.450546 0.007022 -0.009209 -311706.000000 0 0 1
20.143218 8.339789 -27.893604 35.402746 0.392538 2.478178 0.016979 0.000839 158985.000000 0 0 1
18.965418 8.645389 -28.634994 35.417407 0.427708 2.512396 0.008671 0.007026 646181.000000 0 0 1
17.940118 7.630689 -28.557904 34.577871 0.402160 2.542595 0.005147 0.003228 330231.000000 0 0 1
16.631518 8.237589 -29.145894 34.553558 0.459880 2.574561 -0.003103 0.013185 -78854.100000 0 0 1
16.614018 8.236089 -30.550474 35.737798 0.460227 2.596059 -0.011699 0.019099 438366.000000 0 0 1
15.472618 8.933889 -31.032354 35.808145 0.523636 2.619201 -0.017935 0.015926 -4533.550000 0 0 1
15.168618 8.734889 -32.544064 36.952691 0.522475 2.648125 -0.022799 0.017959 -138196.000000 0 0 1
14.654118 7.499889 -32.903464 36.791704 0.473038 2.677700 -0.018443 0.023422 -748758.000000 0 0 1
13.312318 7.561489 -33.263714 36.617873 0.516563 2.710240 -0.019265 0.015641 -712423.000000 0 0 1
12.677918 6.283489 -33.768474 36.613135 0.460141 2.744799 -0.009605 0.005433 -196963.000000 0 0 1
12.326518 5.418489 -32.726814 35.388521 0.414155 2.751269 -0.010963 0.010777 13754.900000 0 0 1
11.538018 4.335589 -33.186114 35.401149 0.359442 2.785972 -0.007140 0.000834 67945.300000 0 0 1
11.268218 3.320789 -32.047294 34.132527 0.286591 2.790239 -0.003706 0.007004 -370740.000000 0 0 1
12.331618 2.476689 -31.752664 34.153103 0.198204 2.764435 -0.004790 0.006850 -283685.000000 0 0 1
11.873818 1.353789 -30.970734 33.196486 0.113524 2.773324 -0.000894 0.007835 669184.000000 0 0 1
11.160018 0.141489 -31.738524 33.643720 0.012677 2.803447 0.000543 0.011849 503853.000000 0 0 1
12.082418 -0.678611 -32.426634 34.611153 -0.056106 2.784405 0.002425 0.011101 809022.000000 0 0 1
12.810418 -1.657811 -31.615424 34.152455 -0.128696 2.753717 0.003723 0.008800 531980.000000 0 0 1
13.497118 -2.829611 -32.254254 35.078709 -0.206653 2.737558 0.004830 0.003925 833754.000000 0 0 1
12.554518 -3.938111 -32.485954 35.049420 -0.303960 2.756760 0.005564 0.004250 1161150.000000 0 0 1
13.139218 -4.926711 -33.335074 36.168200 -0.358738 2.743154 0.013766 -0.005526 11640.800000 0 0 1
12.437018 -6.316211 -33.437154 36.230059 -0.469912 2.746373 0.013978 -0.000771 -91214.600000 0 0 1
12.516418 -6.947611 -32.162714 35.204690 -0.506735 2.722827 0.011840 -0.005698 -59094.600000 0 0 1
12.281318 -8.324411 -32.208134 35.461112 -0.595678 2.709918 0.009900 -0.005960 -67948.100000 0 0 1
12.175218 -9.049511 -30.866484 34.392869 -0.639182 2.684790 0.005415 -0.007569 374283.000000 0 0 1
13.368418 -9.092411 -30.062784 34.134404 -0.597273 2.648172 0.006000 -0.004567 463608.000000 0 0 1
13.260718 -9.611011 -28.746184 33.084154 -0.627159 2.623733 0.001903 -0.004738 -253133.000000 0 0 1
13.456718 -11.141411 -28.674594 33.577472 -0.691549 2.594390 0.005897 -0.008349 222624.000000 0 0 1
12.335918 -11.809911 -29.239814 33.861713 -0.763617 2.612978 0.003159 -0.004060 374351.000000 0 0 1
12.574818 -13.203711 -29.116464 34.354512 -0.809789 2.582109 0.003383 -0.011600 73148.200000 0 0 1
-9.982382 -3.018711 -17.411254 20.295623 0.293661 2.601930 -0.013965 -0.002443 -227796.000000 0 1 0
-10.542882 -2.576611 -18.602954 21.537437 0.239695 2.613460 -0.021425 -0.002727 -50074.700000 0 1 0
-11.388382 -3.658511 -18.990754 22.443901 0.310836 2.579503 -0.022780 -0.005470 105043.000000 0 1 0
-12.132482 -3.397511 -20.366054 23.948201 0.273041 2.587581 -0.021377 -0.002416 32610.400000 0 1 0
-13.002582 -2.257911 -20.285654 24.200683 0.171936 2.564819 -0.015419 -0.000335 -55844.900000 0 1 0
-13.711382 -2.150511 -21.485054 25.578003 0.155574 2.568046 -0.016649 0.003915 -162136.000000 0 0 1
-14.713182 -0.999011 -21.412654 25.999567 0.067795 2.538486 -0.007450 -0.000185 -2739.360000 0 0 1
-14.081082 0.285889 -21.503454 25.705196 -0.020300 2.561736 -0.006760 -0.001453 -187474.000000 0 0 1
-14.944282 1.335989 -21.180054 25.955945 -0.089161 2.525254 -0.006546 0.000423 -304737.000000 0 0 1
-14.546382 2.640989 -21.893554 26.417792 -0.179600 2.547654 0.005070 -0.003920 343836.000000 0 0 1
-13.298082 3.171589 -21.470754 25.453707 -0.234126 2.574603 -0.000483 0.000087 287775.000000 0 0 1
-13.059282 4.347989 -22.162254 26.088606 -0.321399 2.585832 0.000137 0.001211 69346.600000 0 0 1
-11.919282 5.245689 -21.608254 25.229014 -0.414592 2.599216 -0.009091 0.006178 225897.000000 0 0 1
-12.343682 5.972189 -20.469654 24.638187 -0.450625 2.551358 -0.005018 0.010566 1034020.000000 0 1 0
-11.213682 6.079689 -19.569554 23.359724 -0.496810 2.563942 -0.014106 0.010491 865616.000000 0 1 0
-11.639482 6.501889 -18.128954 22.503579 -0.509427 2.507489 0.000415 0.004312 -43334.500000 0 1 0
-12.028282 7.832089 -18.115254 23.112412 -0.577176 2.471540 -0.003668 0.008208 283271.000000 0 1 0
-12.805382 8.044489 -16.942254 22.709724 -0.560905 2.412884 -0.006189 0.006877 -336919.000000 0 1 0
-13.443082 9.400189 -16.909554 23.558714 -0.610228 2.371379 -0.005610 0.010021 -204805.000000 0 1 0
-12.752882 10.417889 -16.146254 23.062305 -0.684964 2.346354 -0.011623 0.005881 538404.000000 0 1 0
-13.305782 11.693289 -16.506654 24.212527 -0.720985 2.320935 -0.004046 0.010754 224072.000000 0 1 0
-12.578782 12.871589 -15.738954 23.908538 -0.796903 2.289352 0.000312 0.012706 -365978.000000 0 1 0
-12.923182 13.028589 -14.403554 23.328419 -0.789460 2.236262 0.006337 0.016121 6924.570000 0 1 0
-12.231582 14.091789 -13.799454 23.208081 -0.855948 2.207561 0.005784 0.007966 -472094.000000 0 1 0
-12.829882 14.354989 -12.386554 22.893193 -0.841441 2.142491 0.003255 0.005118 1113600.000000 0 1 0
-14.200782 14.740589 -12.241154 23.849382 -0.804048 2.109786 -0.000573 0.009822 470244.000000 0 1 0
-15.161682 13.731389 -12.436854 23.939569 -0.735936 2.117074 -0.001355 0.006802 -860883.000000 0 1 0
-16.550882 14.318789 -12.149154 25.031207 -0.713217 2.077572 0.000350 0.010860 161793.000000 0 0 1
-17.622282 13.415289 -12.471654 25.417650 -0.650674 2.083654 0.005769 0.004388 1074310.000000 0 0 1
-18.886782 14.020689 -12.176954 26.487137 -0.638590 2.048488 0.021627 0.009414 538994.000000 0 0 1
-20.097282 13.454589 -12.945954 27.432178 -0.589943 2.062270 0.023440 0.010514 -69332.300000 0 0 1
-20.564082 12.197489 -12.539354 26.998066 -0.535364 2.053814 0.026129 0.007164 343315.000000 0 0 1
-21.630082 11.666189 -13.308654 27.947820 -0.494630 2.067121 0.026493 0.011740 -220463.000000 0 0 1
-22.144582 10.344189 -12.767154 27.575078 -0.437000 2.052169 0.023688 0.007852 -437478.000000 0 0 1
-21.267682 9.252989 -12.890254 26.534708 -0.410371 2.078061 0.024676 -0.002081 132010.000000 0 0 1
-21.319982 8.459789 -11.744854 25.769192 -0.377746 2.044035 0.003851 -0.006025 -439442.000000 0 0 1
-20.259282 7.364989 -11.723354 24.538105 -0.348683 2.068901 -0.003439 0.003050 -435219.000000 0 1 0
-20.290282 6.455989 -12.852054 24.870678 -0.308052 2.113853 0.009855 0.001161 600165.000000 0 1 0
-19.164382 5.580089 -12.779154 23.700584 -0.283336 2.140273 0.006912 -0.000724 149476.000000 0 1 0
-19.278382 4.404689 -13.695854 24.054806 -0.224623 2.176524 0.014695 -0.008497 325596.000000 0 1 0
-20.197482 3.373989 -13.290054 24.412038 -0.165522 2.146477 0.012641 -0.009185 682607.000000 0 1 0
-19.962182 2.229989 -14.113554 24.549011 -0.111249 2.183295 0.002665 -0.012085 -410461.000000 0 1 0
-20.626882 0.894689 -13.820054 24.844770 -0.043348 2.160670 0.002164 -0.013963 -1105070.000000 0 1 0
-21.919882 0.933489 -14.308054 26.192996 -0.042561 2.148683 0.000094 -0.003971 -605451.000000 0 0 1
-22.488282 -0.345811 -14.393654 26.702428 0.015376 2.140092 0.002672 -0.015795 -759452.000000 0 0 1
-23.768482 -0.598511 -15.186554 28.212238 0.025176 2.139211 0.002654 -0.009380 -1263290.000000 0 0 1
-24.723982 0.102689 -14.536354 28.680854 -0.004153 2.102301 0.002241 -0.012940 -120603.000000 0 0 1
-26.038192 0.041389 -15.132354 30.116063 -0.001590 2.097247 0.004528 -0.007938 1601220.000000 0 0 1
-27.208752 0.587489 -14.219054 30.705745 -0.021589 2.052257 0.008851 0.001972 386528.000000 0 0 1
-27.606532 -0.319211 -13.193454 30.598851 0.011562 2.016591 0.007204 -0.002982 -143279.000000 0 0 1
-28.903222 0.007289 -12.767654 31.597615 -0.000252 1.986758 0.012285 -0.003173 -237819.000000 0 0 1
-29.239762 -0.859311 -11.522054 31.439781 0.029380 1.946019 0.003710 -0.005086 -226955.000000 0 0 1
-29.520202 -2.261311 -11.665254 31.821910 0.076453 1.946126 0.004926 -0.002735 685971.000000 0 0 1
-28.421322 -2.991711 -12.224254 31.083022 0.104877 1.974990 -0.000449 -0.005701 206004.000000 0 0 1
-28.258452 -4.483511 -11.733754 30.924472 0.157349 1.959979 0.002848 -0.001934 -327225.000000 0 0 1
-29.373302 -5.229011 -12.151554 32.214805 0.176174 1.957572 0.003494 0.001766 -40906.800000 0 0 1
-29.680432 -6.448811 -11.453354 32.460661 0.213949 1.931399 0.008877 0.003302 58188.600000 0 0 1
-28.894582 -7.758711 -11.861154 32.183558 0.262330 1.948242 0.013207 -0.005233 -357262.000000 0 0 1
-27.606422 -7.850611 -11.330054 30.856389 0.277062 1.946779 0.006170 -0.005696 -393981.000000 0 0 1
-26.973592 -9.077811 -11.846454 30.827257 0.324638 1.965230 0.014066 -0.003089 -78987.000000 0 0 1
-25.502222 -9.031611 -11.411754 29.362586 0.340367 1.969962 0.012423 -0.013579 -966340.000000 0 0 1
-24.904482 -7.893111 -11.933854 28.721965 0.306921 1.999284 0.012913 -0.014181 630770.000000 0 0 1
-23.509982 -7.725711 -11.632454 27.344466 0.317497 2.010205 0.004955 -0.011978 694554.000000 0 0 1
-23.286682 -7.188511 -10.157154 26.402879 0.299416 1.965678 -0.002396 -0.008202 -430662.000000 0 0 1
-23.785182 -5.912211 -9.728854 26.369295 0.243630 1.948671 -0.001166 -0.000297 790444.000000 0 0 1
-25.196282 -5.802011 -9.548554 27.562489 0.226327 1.924562 0.013088 -0.004323 283659.000000 0 0 1
-25.676892 -4.511811 -8.766254 27.504662 0.173939 1.895174 0.013393 -0.008159 -150952.000000 0 0 1
-25.429832 -4.551511 -7.361854 26.862418 0.177108 1.848406 0.006192 -0.000361 432883.000000 0 0 1
-25.614242 -3.242111 -6.827954 26.706209 0.125905 1.829336 0.002495 0.001971 -164348.000000 0 0 1
-25.303042 -3.041411 -5.305454 26.031557 0.119626 1.776043 0.005782 0.006711 -872672.000000 0 0 1
-23.967582 -3.129411 -4.950654 24.672802 0.129834 1.772820 -0.012644 0.004975 -530749.000000 0 1 0
-23.853882 -2.770211 -3.602254 24.282874 0.115615 1.719691 -0.017251 0.002866 797819.000000 0 1 0
-22.532582 -3.387911 -2.989854 22.981175 0.149238 1.701266 -0.024369 0.003343 662436.000000 0 1 0
-22.518282 -4.783911 -2.866454 23.198607 0.209333 1.694674 -0.010497 0.009693 -9762.700000 0 1 0
-21.255882 -5.339111 -2.624454 22.072752 0.246092 1.689978 -0.005898 0.003133 -389120.000000 0 1 0
-21.294782 -6.860911 -2.711254 22.536431 0.311686 1.691394 0.012997 0.002141 -72044.800000 0 1 0
-21.887482 -7.396411 -1.548254 23.155255 0.325881 1.637710 0.015500 0.007354 541713.000000 0 1 0
-22.332282 -8.719711 -1.717554 24.035685 0.372249 1.642316 0.012039 0.004339 287389.000000 0 1 0
-22.921782 -9.403511 -0.434854 24.779491 0.389306 1.588346 0.013708 -0.000662 414692.000000 0 1 0
-21.808882 -9.628111 0.424146 23.843401 0.415743 1.553007 0.008793 -0.004968 739512.000000 0 1 0
-22.048382 -10.559711 1.468346 24.490706 0.446653 1.510805 -0.003591 -0.004197 -265673.000000 0 1 0
-20.720982 -11.144411 1.958646 23.609178 0.493453 1.487740 -0.014573 -0.000256 -169653.000000 0 1 0
-20.158282 -12.185611 1.187446 23.585069 0.543719 1.520428 0.000561 0.004593 287023.000000 0 1 0
-19.041282 -12.688411 1.906446 22.960852 0.587793 1.487670 -0.016039 0.008921 413176.000000 0 1 0
-18.250282 -13.822211 1.101746 22.920300 0.648201 1.522709 -0.016354 0.009755 156060.000000 0 1 0
-19.102382 -14.962011 0.967346 24.283709 0.664446 1.530951 -0.003917 0.009167 660433.000000 0 1 0
-18.466282 -16.137611 0.406946 24.527366 0.718204 1.554204 -0.009524 0.007840 495587.000000 0 1 0
-17.180382 -16.744511 1.066846 24.014211 0.772551 1.526356 -0.010431 0.003631 293839.000000 0 1 0
-16.008182 -15.974711 0.991746 22.637068 0.784352 1.526972 -0.008303 -0.001144 421909.000000 0 1 0
-14.853782 -16.479111 1.680446 22.249041 0.837225 1.495195 -0.005691 -0.010494 554005.000000 0 1 0
-14.758382 -16.585211 3.225746 22.434003 0.843616 1.426508 -0.006326 -0.000153 -476553.000000 0 1 0
-14.569682 -15.336411 3.875946 21.505908 0.811030 1.389579 -0.012648 -0.000168 252910.000000 0 1 0
-13.705382 -15.363511 5.013346 21.189823 0.842378 1.331939 -0.020107 0.006135 -311552.000000 0 1 0
-14.226482 -15.990411 6.369046 22.330490 0.843708 1.281563 0.000789 0.007423 -1235020.000000 0 1 0
-15.058982 -15.035211 6.975546 22.393945 0.784608 1.254033 -0.009545 0.013687 -86872.500000 0 1 0
-15.292182 -15.352311 8.354246 23.223646 0.787360 1.202818 -0.007224 0.014059 -189188.000000 0 1 0
-16.201882 -16.559511 8.687846 24.742616 0.796314 1.212020 -0.002068 0.012438 -567402.000000 0 1 0
-15.729982 -17.830111 8.253346 25.168689 0.847895 1.236694 0.004928 0.014339 103640.000000 0 0 1
-16.504682 -18.889311 8.874646 26.607705 0.852670 1.230744 0.003227 0.012779 305571.000000 0 0 1
-16.176982 -19.336911 10.331646 27.246170 0.874142 1.181869 -0.003906 0.007572 812613.000000 0 0 1
-14.793982 -19.678311 10.536646 26.779073 0.926150 1.166398 -0.000656 0.006577 738921.000000 0 0 1
-14.530482 -20.109611 11.874846 27.505333 0.945087 1.124388 -0.004490 -0.001272 1222880.000000 0 0 1
-13.129882 -20.852311 12.026346 27.419805 1.008852 1.116755 -0.000150 0.000955 1741910.000000 0 0 1
-11.979982 -20.025411 11.850646 26.172025 1.031673 1.100895 -0.005234 0.000404 -120042.000000 0 0 1
-10.785782 -20.702711 12.165146 26.323490 1.090503 1.090389 -0.006356 -0.000710 202063.000000 0 0 1
-9.697582 -19.703811 12.646246 25.341879 1.113434 1.048322 -0.011929 0.001431 105839.000000 0 0 1
-9.050582 -18.974311 11.625446 24.022667 1.125725 1.065649 -0.015243 0.003021 -304422.000000 0 1 0
-8.132782 -18.074011 12.219046 23.283409 1.147966 1.018321 -0.010826 0.003852 -212887.000000 0 1 0
-7.258982 -17.413011 11.185146 21.932015 1.175831 1.035621 -0.010667 0.005607 -428572.000000 0 1 0
-6.287782 -18.224311 10.601646 22.001287 1.238563 1.068015 -0.012039 0.000906 -393081.000000 0 1 0
-5.698782 -17.626511 9.478646 20.809006 1.258096 1.097855 -0.007696 0.003663 -521442.000000 0 1 0
-4.617982 -18.365411 8.720646 20.848591 1.324453 1.139240 -0.006707 -0.000808 -237942.000000 0 1 0
-3.351982 -18.408711 9.338246 20.912180 1.390683 1.107895 -0.000281 -0.000121 -438683.000000 0 1 0
-2.495782 -19.251611 8.623746 21.241998 1.441875 1.152750 -0.001725 0.004680 514818.000000 0 1 0
-1.050182 -19.355911 9.221946 21.466217 1.516593 1.126743 -0.005242 -0.000251 953266.000000 0 1 0
-0.155382 -20.066611 8.343646 21.732682 1.563053 1.176757 0.003990 0.016706 8521.510000 0 1 0
1.105218 -20.161311 8.977046 22.097225 -1.516032 1.152448 0.007195 0.008938 -170912.000000 0 1 0
2.187018 -20.705011 8.038446 22.318090 -1.465559 1.202340 0.012046 -0.001363 -859784.000000 0 1 0
2.024018 -22.068011 7.685446 23.455487 -1.479335 1.236970 0.005956 0.001240 -186992.000000 0 1 0
2.267618 -23.017011 8.699046 24.710288 -1.472594 1.211045 0.007719 0.002272 -188499.000000 0 1 0
1.817518 -24.446811 8.249946 25.865258 -1.496587 1.246166 0.006660 0.000374 309143.000000 0 0 1
2.020218 -25.462971 9.239046 27.162551 -1.491623 1.223731 -0.001880 0.003260 -113172.000000 0 0 1
1.234018 -26.569161 8.795246 28.014273 -1.524384 1.251440 0.001413 0.005903 -119541.000000 0 0 1
1.247318 -27.762131 9.732346 29.445039 -1.525898 1.233936 0.011433 0.006848 443081.000000 0 0 1
0.569618 -27.586811 10.998446 29.703913 -1.550151 1.191497 0.003629 0.002581 1469390.000000 0 0 1
-0.875582 -27.783241 10.957346 29.878731 1.539292 1.195308 -0.000545 0.007947 1505280.000000 0 0 1
-1.470782 -27.778001 12.385346 30.449587 1.517898 1.151904 0.004913 0.002809 -154025.000000 0 0 1
-1.138482 -28.938381 13.108546 31.789307 1.531475 1.145756 0.000071 0.000748 -106315.000000 0 0 1
-1.226582 -28.728561 14.480046 32.194821 1.528127 1.104296 -0.002858 0.001651 -244605.000000 0 0 1
-0.963782 -29.977431 15.223746 33.635364 1.538657 1.101105 -0.006222 -0.004343 -6668.910000 0 0 1
-1.062082 -29.828521 16.627446 34.166368 1.535205 1.062533 -0.001852 -0.002746 52347.400000 0 0 1
-0.673182 -31.037741 17.284246 35.532235 1.549111 1.062788 -0.004461 -0.003253 84151.600000 0 0 1
-1.037982 -31.037571 18.774446 36.288952 1.537366 1.027033 0.000146 -0.001152 693586.000000 0 0 1
-2.446282 -31.041071 19.046446 36.500678 1.492151 1.021824 0.000448 0.003911 663729.000000 0 0 1
-2.744682 -30.714221 20.401246 36.974417 1.481671 0.986315 -0.004778 0.004583 -90314.300000 0 0 1
-4.230482 -30.500231 20.742746 37.127114 1.432972 0.977984 -0.001174 -0.000388 -369091.000000 0 0 1
-4.823982 -29.447961 20.003446 35.924798 1.408425 0.980251 0.006835 0.001166 -73263.000000 0 0 1
-6.061582 -29.094611 20.584746 36.152053 1.365394 0.965028 0.007423 0.000427 -63817.100000 0 0 1
-6.000182 -28.028731 21.717146 35.961735 1.359907 0.922416 0.011429 -0.000997 -529483.000000 0 0 1
-5.402082 -28.550061 22.869246 36.976897 1.383793 0.903997 0.006619 -0.002322 8222.250000 0 0 1
-5.357282 -27.624171 23.927346 36.936611 1.379240 0.866110 0.010976 -0.003732 -338811.000000 0 0 1
-4.326682 -28.012971 25.026046 37.812031 1.417554 0.847507 0.006850 -0.005766 74696.800000 0 0 1
-4.517682 -29.151751 25.752546 39.159005 1.417048 0.853114 0.001735 0.002591 -342081.000000 0 0 1
-3.476482 -30.007371 25.414646 39.476987 1.455456 0.871363 0.002416 0.002888 -310580.000000 0 0 1
-3.677882 -31.395981 26.006446 40.933723 1.454183 0.882360 -0.002488 0.007235 17220.200000 0 0 1
-3.364282 -31.403851 27.397346 41.810703 1.464074 0.856255 -0.004876 0.007599 215474.000000 0 0 1
-3.689282 -32.673391 27.952246 43.156568 1.458359 0.866243 -0.000587 0.013685 -42497.100000 0 0 1
-3.384682 -32.631691 29.468546 44.098510 1.467442 0.838951 -0.001162 0.006780 555681.000000 0 0 1
-1.992782 -32.771551 29.771246 44.320118 1.510063 0.834252 -0.008515 0.009922 788066.000000 0 0 1
-1.780982 -32.847221 31.187346 45.329487 1.516629 0.812047 -0.006158 0.000701 -133228.000000 0 0 1
-27.201742 3.079489 -10.256254 29.233692 -0.112729 1.929261 0.005013 -0.003245 -403047.000000 0 0 1
-28.164312 2.697989 -11.202554 30.430327 -0.095503 1.947802 -0.000571 -0.011123 -132464.000000 0 0 1
-29.062772 3.768489 -11.362954 31.431878 -0.128948 1.940684 -0.007865 -0.012044 -43057.500000 0 0 1
-29.847042 3.705389 -12.728454 32.658679 -0.123514 1.971148 0.004203 -0.016625 -40885.400000 0 0 1
-30.794902 2.674489 -12.795354 33.454446 -0.086631 1.963265 0.003940 -0.011858 -47627.300000 0 0 1
-31.306342 2.593489 -14.128554 34.444582 -0.082654 1.993450 0.005620 -0.008087 -195175.000000 0 0 1
-32.569402 1.719889 -14.120354 35.540235 -0.052758 1.979376 -0.002296 -0.004819 -335176.000000 0 0 1
-32.236432 0.401889 -13.810754 35.072581 -0.012466 1.975533 0.004867 -0.004553 -558889.000000 0 0 1
-33.296892 -0.362111 -13.352854 35.876355 0.010875 1.952165 -0.009375 -0.002244 -746687.000000 0 0 1
-32.993712 -1.759811 -12.805854 35.435460 0.053287 1.940549 -0.003704 -0.001553 -113763.000000 0 0 1
-32.750612 -2.714511 -13.811854 35.647418 0.082695 1.968668 -0.010560 -0.004555 -149752.000000 0 0 1
-32.251782 -3.847511 -13.289054 35.093870 0.118735 1.959157 -0.002373 -0.000314 -462904.000000 0 0 1
-32.316482 -5.004411 -14.322254 35.700505 0.153636 1.983599 0.003444 -0.004245 -67456.200000 0 0 1
-32.258852 -6.215211 -13.587754 35.551222 0.190335 1.962975 -0.003632 0.000071 -33172.900000 0 0 1
-32.850962 -7.274611 -14.276954 36.550473 0.217926 1.972090 0.004863 -0.003724 -459027.000000 0 0 1
-32.536552 -8.555211 -13.453554 36.232816 0.257121 1.951214 -0.001422 -0.009240 811659.000000 0 0 1
-31.199102 -9.110111 -13.430354 35.167492 0.284101 1.962644 0.002943 -0.009989 1002960.000000 0 0 1
-30.784092 -9.617911 -14.720154 35.452044 0.302822 1.998973 0.000045 -0.003100 -283372.000000 0 0 1
-29.574992 -10.574011 -14.568454 34.622676 0.343369 2.005099 -0.000558 -0.003318 -141974.000000 0 0 1
-29.886082 -11.794711 -13.973554 35.036457 0.375891 1.981036 0.003332 -0.006688 -382458.000000 0 0 1
-28.750652 -12.585411 -13.850854 34.305083 0.412615 1.986414 0.002552 -0.007481 -858804.000000 0 0 1
-28.982802 -14.042411 -14.160954 35.181312 0.451178 1.985057 0.000851 -0.008404 -380352.000000 0 0 1
-29.131202 -14.124711 -15.582754 35.929884 0.451467 2.019390 -0.002715 0.000552 -29824.400000 0 0 1
-29.303312 -15.472111 -16.049154 36.819093 0.485795 2.021826 -0.000923 0.001048 -156751.000000 0 0 1
-28.198822 -16.557811 -15.819654 36.326245 0.530940 2.021377 -0.004671 0.000952 1205190.000000 0 0 1
-26.918412 -16.117611 -16.334254 35.372110 0.539506 2.050801 -0.007778 0.003895 735741.000000 0 0 1
-26.041632 -17.221311 -16.566954 35.344082 0.584277 2.058653 -0.007582 0.004886 907717.000000 0 0 1
-24.668982 -16.715311 -17.132254 34.372582 0.595523 2.092581 -0.003894 0.000235 787801.000000 0 0 1
-24.820382 -16.305811 -18.481754 34.978651 0.581247 2.127479 -0.011819 0.002722 405040.000000 0 0 1
-23.495082 -15.992611 -18.880854 34.121388 0.597641 2.157169 -0.008893 0.009286 87356.400000 0 0 1
-23.445682 -15.714611 -20.399954 34.825380 0.590483 2.196636 -0.010194 0.014465 -86987.900000 0 0 1
-23.917682 -16.716411 -21.255454 36.101083 0.609997 2.200340 -0.011093 0.007150 438438.000000 0 0 1
-25.307272 -16.663011 -21.549854 37.182121 0.582277 2.189004 -0.002525 0.005771 137323.000000 0 0 1
-25.799372 -17.887111 -22.362954 38.544235 0.606226 2.189757 0.001797 0.001825 -109661.000000 0 0 1
-25.227592 -18.007811 -23.656254 38.991422 0.619937 2.222704 0.004082 0.009669 79749.800000 0 0 1
-25.716472 -19.150911 -24.320554 40.244051 0.640097 2.219717 0.008502 0.003161 -292922.000000 0 0 1
-24.887882 -19.528811 -25.566414 40.674595 0.665324 2.250496 0.018717 -0.002289 1040680.000000 0 0 1
-23.529982 -19.976511 -25.421134 39.986937 0.703902 2.259758 0.011777 -0.006120 855124.000000 0 0 1
-23.494182 -21.408911 -25.251664 40.595130 0.738992 2.242138 0.020007 -0.010603 -841217.000000 0 0 1
-22.065782 -21.898111 -25.050954 39.924633 0.781584 2.249078 0.011822 -0.006747 -511871.000000 0 0 1
-21.444682 -21.881911 -26.307504 40.382882 0.795489 2.280293 0.008715 -0.004560 -1230190.000000 0 0 1
-20.089382 -22.092611 -26.112384 39.667661 0.832853 2.289326 0.003458 -0.013873 -796386.000000 0 0 1
-19.262182 -21.841911 -27.391624 39.980017 0.848077 2.325582 0.003200 -0.009738 -445946.000000 0 0 1
-19.359482 -22.852011 -28.396734 41.272006 0.867949 2.329579 0.001329 -0.009510 -238744.000000 0 0 1
-19.988782 -22.318311 -29.557954 42.087184 0.840405 2.349424 0.011403 -0.006982 -96552.300000 0 0 1
-19.162982 -22.507411 -30.815394 42.701194 0.865486 2.376982 0.006163 -0.005196 -36738.500000 0 0 1
-18.841882 -23.852111 -31.148294 43.521902 0.902216 2.368411 0.004895 -0.015179 -109504.000000 0 0 1
-18.330082 -23.901611 -32.452524 44.276915 0.916568 2.393437 0.001646 -0.012353 76706.700000 0 0 1
-18.007282 -25.313131 -33.046394 45.355054 0.952473 2.387095 -0.000304 -0.008231 -94713.300000 0 0 1
-17.430782 -25.402551 -34.319912 46.119173 0.969404 2.410069 -0.001982 -0.011910 228600.000000 0 0 1
-18.273282 -25.035611 33.915473 45.945119 0.940289 0.740437 0.001544 -0.008277 -242740.000000 0 0 1
-17.524982 -25.012511 32.563693 44.644650 0.959635 0.753356 -0.000776 -0.004389 -37023.400000 0 0 1
-16.721682 -23.814011 32.417713 43.561794 0.958610 0.731493 0.000652 -0.003245 -19974.800000 0 0 1
-15.971882 -23.787711 31.232213 42.384046 0.979500 0.742344 0.005418 -0.002067 -239864.000000 0 0 1
-15.153182 -22.485811 31.112103 41.269766 0.977803 0.716861 -0.003927 0.004303 39039.100000 0 0 1
-16.031282 -21.430611 30.797443 40.801417 0.928541 0.715427 0.007156 -0.001391 489893.000000 0 0 1
-15.321982 -20.233811 30.431103 39.626030 0.922674 0.695150 0.007379 -0.003421 197110.000000 0 0 1
-14.867482 -19.338511 31.617493 39.933518 0.915370 0.657122 0.009145 0.000873 202496.000000 0 0 1
-14.233782 -18.118511 31.225493 38.806087 0.904902 0.635703 0.011891 -0.000941 336387.000000 0 0 1
-13.333482 -17.703611 32.254513 39.135064 0.925282 0.602036 0.010462 -0.000312 196770.000000 0 0 1
-12.767482 -16.290211 32.178103 38.259769 0.906042 0.571588 0.001356 0.000095 -202517.000000 0 0 1
-11.688182 -16.114411 31.300533 37.094625 0.943275 0.566467 0.003486 -0.002956 -289965.000000 0 0 1
-11.595582 -14.771711 31.027693 36.268150 0.905278 0.544265 0.003552 -0.002275 139712.000000 0 0 1
-10.283882 -14.294911 30.354663 35.092852 0.947163 0.525683 0.005444 0.000478 240652.000000 0 0 1
-10.004582 -12.936611 30.605843 34.701083 0.912515 0.490738 0.007373 -0.004192 155187.000000 0 0 1
-8.616282 -12.687711 30.772013 34.382192 0.974232 0.462368 -0.001689 -0.003883 219776.000000 0 0 1
-8.363682 -11.155111 30.833943 33.839618 0.927447 0.424660 -0.005358 -0.004618 -322665.000000 0 0 1
-8.973882 -10.446311 31.904033 34.749436 0.861073 0.407495 0.001211 0.001373 25782.600000 0 0 1
-8.828682 -9.062111 31.701743 34.133092 0.798445 0.379720 0.000478 -0.001894 -139799.000000 0 0 1
-9.639682 -8.149911 32.672873 35.026578 0.701849 0.368684 0.000407 -0.002909 -448234.000000 0 0 1
-10.997882 -8.086011 32.337503 35.100585 0.633983 0.399435 -0.000873 -0.005835 104181.000000 0 0 1
-11.877282 -7.436311 33.297354 36.125923 0.559387 0.398349 -0.006477 -0.005494 558822.000000 0 0 1
-11.612282 -5.957711 33.643628 36.086467 0.474035 0.370059 -0.009361 -0.003305 -642100.000000 0 0 1
-11.696382 -5.074411 32.506473 34.917414 0.409338 0.373782 -0.004545 -0.003475 576194.000000 0 0 1
-12.193382 -3.716811 32.800613 35.190531 0.295875 0.370666 -0.004540 0.000937 -175891.000000 0 0 1
-11.540382 -2.653411 31.877613 34.005929 0.225996 0.355670 -0.006868 -0.003782 -77569.800000 0 0 1
-10.189082 -2.417911 32.192753 33.853169 0.232994 0.314496 -0.003180 -0.003150 -67206.300000 0 0 1
-9.569282 -1.626411 31.185403 32.661074 0.168353 0.301747 -0.004561 0.001228 68514.500000 0 0 1
-8.120982 -1.277611 31.597453 32.649375 0.156043 0.254532 0.010807 -0.002082 -78909.500000 0 0 1
-7.954682 -0.680411 32.817883 33.775041 0.085328 0.238638 0.009828 -0.010847 328168.000000 0 0 1
-6.564382 -0.449711 33.056943 33.705412 0.068401 0.196476 0.019877 -0.018452 504122.000000 0 0 1
-6.180282 0.366789 34.307159 34.861319 -0.059279 0.178541 0.020100 -0.023169 -652956.000000 0 0 1
-6.828582 1.628889 34.412997 35.121748 -0.234164 0.201237 0.010947 -0.018648 67978.600000 0 0 1
-6.279682 2.679489 33.592181 34.278983 -0.403303 0.200514 0.016691 -0.013126 -77213.400000 0 0 1
-7.029782 4.043789 33.662742 34.625861 -0.522012 0.236410 0.021628 -0.011007 1363890.000000 0 0 1
-8.334982 4.104789 33.025823 34.307815 -0.457611 0.274235 0.013242 -0.006397 1307280.000000 0 0 1
-9.059082 5.310189 33.266583 34.884533 -0.530191 0.305755 0.010525 -0.002595 133656.000000 0 0 1
-10.343282 5.339189 32.408233 34.435214 -0.476522 0.344820 0.003729 0.001000 -472915.000000 0 0 1
-11.177482 6.329289 32.850423 35.272458 -0.515236 0.372739 0.002123 -0.000938 -472501.000000 0 0 1
-12.285882 6.479589 31.990193 34.875499 -0.485328 0.409630 -0.002674 0.000316 214319.000000 0 0 1
-13.238582 7.680789 32.212763 35.663941 -0.525720 0.443558 -0.003191 -0.001060 -38322.000000 0 0 1
-13.813882 7.768189 33.472686 37.034967 -0.512273 0.442199 -0.000158 -0.002334 -192343.000000 0 0 1
-14.403582 9.050789 33.617907 37.676831 -0.561020 0.468448 0.009178 0.002029 60598.800000 0 0 1
-15.212782 9.153089 -34.418461 38.727745 -0.541647 2.665361 0.022741 -0.000167 559426.000000 0 0 1
-14.306682 9.334689 -33.290884 37.417917 -0.578110 2.667494 0.014282 -0.004097 484821.000000 0 0 1
-14.816582 10.038889 -32.201554 36.840880 -0.595495 2.634317 0.012860 -0.004253 -1391300.000000 0 0 1
-13.930782 10.067789 -30.924264 35.379897 -0.625800 2.634300 0.007379 -0.007147 447835.000000 0 0 1
-12.902782 11.036089 -30.754734 35.130196 -0.707578 2.637163 0.018756 -0.004078 662990.000000 0 0 1
-11.810882 10.881689 -31.673364 35.512111 -0.744474 2.672333 0.007777 -0.004779 -494712.000000 0 0 1
-11.059482 12.187889 -31.794944 35.801888 -0.833899 2.663948 0.007546 -0.004736 -778600.000000 0 0 1
-11.754482 13.207389 -32.390214 36.901611 -0.843538 2.641932 0.010092 0.003675 -321615.000000 0 0 1
-10.913882 14.291489 -32.682644 37.303012 -0.918608 2.638591 0.000008 0.009372 -152900.000000 0 0 1
-11.151882 15.417389 -31.693934 36.967091 -0.944583 2.600906 0.003343 0.007542 949981.000000 0 0 1
-12.427282 16.069889 -31.914404 37.831307 -0.912532 2.574745 0.016549 0.006959 945221.000000 0 0 1
-12.561582 17.128089 -30.960074 37.545851 -0.938010 2.540280 0.014224 0.007426 -754014.000000 0 0 1
-13.966182 17.691289 -30.978114 38.310305 -0.902529 2.512583 0.009094 0.003459 -1208950.000000 0 0 1
-14.279082 18.384189 -32.133894 39.679437 -0.910422 2.514671 0.017471 0.002863 -246721.000000 0 0 1
-15.572382 18.915989 -32.218464 40.476451 -0.882045 2.491422 0.014764 0.001192 -117147.000000 0 0 1
-16.002382 20.079589 -31.281434 40.469670 -0.897919 2.454290 0.007404 -0.009457 -712548.000000 0 0 1
-15.255782 21.233289 -31.486754 40.926850 -0.947772 2.448607 0.008515 -0.005572 16285.800000 0 0 1
-15.846082 22.416589 -30.974374 41.388568 -0.955461 2.416412 0.007323 -0.019432 479156.000000 0 0 1
-17.079782 23.031189 -31.721714 42.760048 -0.932697 2.406627 0.002593 -0.017837 156997.000000 0 0 1
-18.291482 22.367289 -31.545054 42.778082 -0.885309 2.400026 0.001625 -0.017345 -630732.000000 0 0 1
-19.279082 22.851189 -32.408914 44.093055 -0.869983 2.396480 0.004212 -0.015360 160210.000000 0 0 1
-20.618782 22.057589 -32.227874 44.162283 -0.819100 2.388767 -0.003762 -0.018024 -943552.000000 0 0 1
-21.525482 22.355489 -31.218154 44.019170 -0.804311 2.359151 0.000455 -0.015979 1525.830000 0 0 1
-22.580482 23.231989 -31.522314 45.202430 -0.799618 2.342502 0.004117 -0.012166 -240039.000000 0 0 1
-23.739082 22.538189 -32.241514 45.945937 -0.759454 2.348615 -0.009033 -0.013264 -1251140.000000 0 0 1
-23.268482 22.046489 -33.455914 46.333229 -0.758438 2.377589 -0.003498 -0.006848 -228686.000000 0 0 1
-24.305582 21.675789 -34.352000 47.335621 -0.728268 2.382864 -0.001336 -0.003893 -87892.600000 0 0 1
-23.900282 20.727289 33.897669 46.366970 -0.714418 0.750902 -0.001372 0.002521 -269479.000000 0 0 1
-23.571282 19.461289 34.333213 45.968648 -0.690178 0.727434 0.000970 0.005663 214264.000000 0 0 1
-23.233382 18.574489 33.263433 44.623510 -0.674420 0.729626 -0.004882 0.002140 -215087.000000 0 0 1
-23.032182 17.115389 33.583689 44.173319 -0.639075 0.707066 0.001894 0.006436 -153772.000000 0 0 1
-24.224582 16.407389 33.899203 44.779334 -0.595330 0.712044 0.003866 0.008824 396675.000000 0 0 1
-24.628682 15.627889 32.787393 43.884120 -0.565430 0.727054 0.004688 0.005959 -609338.000000 0 0 1
-25.421012 14.422389 33.295579 44.303823 -0.516059 0.720421 0.003002 0.006199 -829172.000000 0 0 1
-26.665552 14.793889 33.827764 45.543698 -0.506516 0.733622 0.002295 0.009103 43262.100000 0 0 1
-27.659512 13.763189 33.786167 45.781864 -0.461720 0.740722 0.006152 0.012354 395257.000000 0 0 1
-27.533062 12.557489 -34.571692 45.945205 -0.427905 2.422578 0.003748 0.008127 -512034.000000 0 0 1
-26.543062 11.602389 34.499485 45.048463 -0.412088 0.698465 0.003649 -0.001510 -279159.000000 0 0 1
-27.018062 10.233989 34.626550 45.096653 -0.362083 0.695350 0.005209 0.003367 -892077.000000 0 0 1
-25.960532 9.137089 34.631553 44.235507 -0.338421 0.671498 0.005039 -0.002277 -27120.800000 0 0 1
-25.156612 8.878389 33.470432 42.801293 -0.339278 0.672935 0.007782 -0.001487 234028.000000 0 0 1
-24.223182 9.892889 33.226533 42.292248 -0.387732 0.667064 0.002340 -0.006374 -520286.000000 0 0 1
-22.860482 9.431689 32.611533 40.927625 -0.391301 0.648799 -0.001874 -0.002884 359192.000000 0 0 1
-22.915382 9.128989 31.230653 39.797071 -0.379107 0.668508 -0.003730 -0.003639 -191271.000000 0 0 1
-21.638182 8.964289 30.677053 38.595997 -0.392757 0.652078 -0.007921 -0.002711 -158874.000000 0 0 1
-21.604482 9.143189 29.170153 37.433265 -0.400352 0.677316 -0.003755 -0.008421 -33414.300000 0 0 1
-22.067682 10.430989 28.758343 37.720424 -0.441555 0.703770 0.007490 -0.009287 217914.000000 0 0 1
-22.093282 10.465789 27.349303 36.682833 -0.442395 0.729420 0.005023 -0.010450 -691555.000000 0 0 1
-22.301082 11.756289 26.553083 36.614407 -0.485141 0.759459 0.008781 -0.009959 534387.000000 0 0 1
-23.568182 12.406489 26.728313 37.733047 -0.484550 0.783634 0.010018 -0.008572 968875.000000 0 0 1
-24.579382 11.856389 25.865913 37.600072 -0.449445 0.812174 0.007484 -0.003365 -248410.000000 0 0 1
-26.001782 12.322589 26.154043 38.884095 -0.442561 0.833059 -0.002255 0.004093 -451549.000000 0 0 1
-26.109362 13.697289 25.818093 39.190412 -0.483143 0.851592 0.004346 0.004791 -128203.000000 0 0 1
-27.341902 14.296489 26.157463 40.449747 -0.481782 0.867591 -0.005964 0.005268 -102243.000000 0 0 1
-27.493402 15.669289 25.475163 40.625087 -0.518015 0.892998 -0.008476 0.004645 297615.000000 0 0 1
-26.481532 16.540989 25.997073 40.629098 -0.558329 0.876476 0.002369 -0.004252 399456.000000 0 0 1
-26.594492 17.690389 25.212133 40.692364 -0.586980 0.902590 -0.011913 -0.001589 -114251.000000 0 0 1
-22.009882 -9.015111 32.364733 40.164450 0.388749 0.633762 0.009394 -0.006176 -374028.000000 0 0 1
-21.134482 -8.895411 31.286123 38.789382 0.398389 0.632480 0.012088 -0.016989 -438980.000000 0 0 1
-21.753482 -8.948111 30.027283 38.143419 0.390245 0.664508 0.011249 -0.016359 -456305.000000 0 0 1
-20.758782 -8.748611 28.813723 36.574525 0.398853 0.663553 0.008602 -0.017260 105651.000000 0 0 1
-20.339582 -7.351011 28.757953 35.982715 0.346807 0.644807 0.007811 -0.016410 172635.000000 0 0 1
-19.256582 -7.071211 29.636693 36.043745 0.351924 0.605457 0.011988 -0.013376 -665870.000000 0 0 1
-17.851382 -7.242411 29.031813 34.842080 0.385416 0.585854 0.022652 -0.012846 -796173.000000 0 0 1
-17.358082 -8.581911 28.840873 34.738281 0.459161 0.591270 0.016845 -0.018492 260137.000000 0 0 1
-16.852582 -9.184211 30.012553 35.624606 0.498976 0.568950 0.023095 -0.017255 -279440.000000 0 0 1
-15.426782 -8.877311 30.537003 35.345450 0.522171 0.527718 0.023574 -0.014789 205321.000000 0 0 1
-14.397182 -9.547311 29.828873 34.470156 0.585555 0.524941 0.022057 -0.011862 1519640.000000 0 0 1
-13.047882 -9.250111 30.351363 34.307682 0.616698 0.484986 0.017975 -0.007771 1608090.000000 0 0 1
-12.004382 -10.091611 29.638933 33.532255 0.699047 0.486674 0.007885 -0.004265 -558818.000000 0 0 1
-11.752982 -9.765911 28.297233 32.159586 0.693319 0.495144 0.022943 -0.011504 -45608.700000 0 0 1
-10.549982 -10.372511 27.877653 31.560333 0.776916 0.487913 0.011407 -0.003584 68582.000000 0 0 1
-10.111282 -10.146311 26.404313 30.039531 0.787127 0.497066 0.010817 -0.004507 243503.000000 0 0 1
-11.031582 -10.724811 25.482213 29.766769 0.771299 0.543193 0.013533 -0.008785 55312.200000 0 0 1
-10.602382 -10.519611 24.195153 28.433750 0.781480 0.553042 -0.000102 -0.007297 -417207.000000 0 0 1
-11.499582 -11.035011 23.048953 28.022600 0.764785 0.604981 0.000377 -0.010788 -1331760.000000 0 0 1
-11.549482 -12.421911 23.017153 28.591673 0.821777 0.635070 0.005421 -0.008400 139358.000000 0 0 1
-12.723782 -12.954511 22.435153 28.862607 0.794383 0.680420 0.011767 -0.006094 519875.000000 0 0 1
-13.977582 -12.680511 23.341453 30.016522 0.736781 0.679925 0.008545 -0.005526 -623556.000000 0 0 1
-15.190582 -13.271911 22.880853 30.502964 0.718090 0.722554 0.006449 0.001819 960785.000000 0 0 1
-16.217382 -12.936311 23.846153 31.606813 0.673326 0.715962 0.007756 0.003854 607769.000000 0 0 1
-17.568782 -13.665511 23.746553 32.546998 0.661075 0.753048 0.014185 0.004038 45515.300000 0 0 1
-17.272982 -15.028111 23.834853 33.049966 0.716011 0.765297 0.011726 0.005665 928439.000000 0 0 1
-18.461382 -15.825511 23.685053 33.944825 0.708672 0.798543 0.010556 0.011625 705936.000000 0 0 1
-19.290182 -16.126411 24.963943 35.431211 0.696304 0.788972 0.007649 0.006682 -126225.000000 0 0 1
-18.646582 -17.004711 25.838673 36.117755 0.739377 0.773599 0.008323 0.003718 -251965.000000 0 0 1
-19.376582 -17.056711 27.048123 37.389628 0.721810 0.762064 0.009419 0.000823 -325265.000000 0 0 1
-18.968682 -17.976111 28.240473 38.476951 0.758538 0.746665 0.011827 -0.005316 -361129.000000 0 0 1
-19.071482 -19.324611 27.848383 38.893373 0.791991 0.772714 0.009187 -0.005209 144399.000000 0 0 1
-18.800882 -20.109211 28.933573 39.937516 0.819010 0.760530 0.012435 -0.007163 -310238.000000 0 0 1
-18.740682 -21.606111 28.628083 40.467324 0.856299 0.784931 0.011528 -0.002322 -844481.000000 0 0 1
-19.986582 -22.153311 28.387933 41.183824 0.836770 0.810277 0.010405 -0.000959 -698940.000000 0 0 1
-19.834582 -23.512811 28.057863 41.635401 0.870050 0.831329 0.011883 0.007453 -300451.000000 0 0 1
-21.099882 -24.244311 27.646093 42.394553 0.854633 0.860426 0.018059 0.005242 -832005.000000 0 0 1
-21.956082 -24.594511 28.671383 43.692193 0.842016 0.855007 0.012147 0.002016 -718266.000000 0 0 1
-23.126982 -25.157821 28.173883 44.289287 0.827433 0.881320 -0.000264 -0.000675 -367271.000000 0 0 1
-23.932582 -26.016281 29.167813 45.829867 0.827091 0.880926 -0.004790 -0.004004 -173159.000000 0 0 1
-24.492182 -25.303941 30.242893 46.419705 0.801698 0.861223 -0.004985 0.001922 -247160.000000 0 0 1
-25.130042 -26.158531 31.108183 47.786052 0.805448 0.861910 -0.005020 0.007534 -236481.000000 0 0 1
-26.286832 -25.504421 31.891273 48.564661 0.770292 0.854393 0.008168 0.005690 777559.000000 0 0 1
-27.378222 -25.065081 31.035063 48.383886 0.741319 0.874431 0.009634 0.002128 566710.000000 0 0 1
-28.431732 -24.584411 31.821713 49.248128 0.712956 0.868266 0.001791 -0.000073 -436798.000000 0 0 1
-29.695142 -24.174311 31.058743 49.303593 0.683269 0.889309 -0.002960 0.001049 -499562.000000 0 0 1
-30.038532 -25.243291 30.172423 49.496588 0.698873 0.915258 -0.005254 0.000792 586187.000000 0 0 1
-31.346162 -25.089351 29.607893 49.886719 0.674983 0.935393 -0.011052 -0.001209 1722690.000000 0 0 1
-32.553962 -25.680131 30.488973 51.466562 0.667904 0.936757 -0.009447 -0.000628 742650.000000 0 0 1
-32.513482 -27.055051 30.636583 52.227412 0.694021 0.943942 -0.002901 -0.006774 887281.000000 0 0 1
-33.721392 -27.475731 31.312173 53.595711 0.683692 0.946866 0.006672 -0.006991 623022.000000 0 0 1
-33.629592 -28.989731 31.587523 54.489683 0.711437 0.952439 0.013418 -0.012326 -123877.000000 0 0 1
-32.611642 -29.318311 32.503913 54.585593 0.732270 0.932950 0.008494 -0.003750 -178879.000000 0 0 1
-32.263282 -30.666431 32.478333 55.101647 0.760028 0.940448 0.017573 -0.005039 178550.000000 0 0 1
-31.107102 -30.989801 33.468918 55.210398 0.783509 0.919514 0.016829 -0.000616 240526.000000 0 0 1
-31.514852 -30.786441 -34.537403 55.980560 0.773707 2.235662 0.007699 0.004982 -1119900.000000 0 0 1
-30.444482 -30.905621 -33.704954 54.936762 0.792915 2.231310 0.002772 -0.002528 -869138.000000 0 0 1
-30.761152 -30.650071 -32.242234 54.085460 0.783589 2.209475 -0.001622 -0.005130 -34165.400000 0 0 1
-31.104112 -29.297771 -31.831484 53.282910 0.755502 2.211058 -0.002804 0.003477 -453313.000000 0 0 1
-29.949692 -28.527691 -31.715314 52.121726 0.761086 2.224947 0.003128 0.000527 -467013.000000 0 0 1
-30.108682 -27.035541 -31.443654 51.246040 0.731671 2.231385 0.001875 0.008005 -588727.000000 0 0 1
-30.750732 -26.832271 -30.214234 50.778718 0.717454 2.208084 -0.001822 -0.001933 -277032.000000 0 0 1
-30.796912 -25.479161 -29.805034 49.859578 0.691184 2.211525 0.006303 0.003282 751314.000000 0 0 1
-29.489642 -24.842011 -29.171884 48.350422 0.700064 2.218483 0.015600 -0.007290 722880.000000 0 0 1
-29.584802 -23.454611 -28.998724 47.605727 0.670331 2.225777 0.012728 -0.002492 933673.000000 0 0 1
-28.264882 -23.106911 -28.538564 46.338780 0.685329 2.234283 0.024815 -0.007853 786335.000000 0 0 1
-27.775042 -21.609911 -28.599534 45.347266 0.661202 2.253223 0.019893 -0.006216 -127922.000000 0 0 1
-27.356682 -21.110411 -29.835724 45.653126 0.657228 2.283036 0.021353 -0.003744 301073.000000 0 0 1
-27.131272 -19.740711 -29.781414 44.863506 0.629010 2.296715 0.009725 -0.001418 -332809.000000 0 0 1
-26.528372 -19.138711 -31.084224 45.125090 0.624973 2.330692 0.008221 0.008770 -91775.900000 0 0 1
-27.348112 -18.830211 -32.202674 46.254819 0.602992 2.340889 0.011218 0.007256 -12262.100000 0 0 1
-28.241452 -17.748811 -32.028444 46.243066 0.561088 2.335899 0.021714 0.005018 -702029.000000 0 0 1
-28.688742 -17.098411 -33.348594 47.196698 0.537471 2.355460 0.017731 0.010549 36460.500000 0 0 1
-29.697412 -17.720211 -34.131232 48.588920 0.537984 2.349629 0.012794 0.007698 1855240.000000 0 0 1
-31.043392 -17.762111 -33.561224 49.046310 0.519705 2.324407 0.005378 0.004537 1730990.000000 0 0 1
-32.127802 -18.149111 -34.670995 50.632635 0.514213 2.325065 -0.002978 0.004080 386356.000000 0 0 1
-32.326812 -19.502211 34.422438 51.090735 0.542830 0.831523 -0.006116 0.009662 -240101.000000 0 0 1
-33.178292 -19.741911 33.361094 51.024550 0.536753 0.858168 -0.009828 0.007397 -951276.000000 0 0 1
-33.836882 -21.087911 33.558836 52.113626 0.557320 0.871140 -0.008279 0.003259 -170943.000000 0 0 1
-32.976142 -22.218811 33.392228 51.924391 0.592914 0.872266 -0.007457 0.005227 305296.000000 0 0 1
-33.445572 -23.337011 34.165022 53.202172 0.609222 0.873466 -0.010879 0.005177 -288001.000000 0 0 1
-32.375822 -24.486211 34.211957 53.086970 0.647528 0.870491 -0.008029 0.004696 1434140.000000 0 0 1
-31.235812 -24.389911 -34.271975 52.393816 0.662943 2.283818 -0.005793 0.004197 814633.000000 0 0 1
-30.386082 -23.283111 -34.436915 51.490954 0.653816 2.303384 0.001497 0.001260 -1149290.000000 0 0 1
-29.188052 -23.328811 -33.494364 50.180158 0.674289 2.301619 0.003049 0.003794 92269.800000 0 0 1
-28.236412 -24.385911 -33.723774 50.291754 0.712356 2.305763 0.004280 0.007358 778000.000000 0 0 1
-26.955052 -24.267411 -33.134894 49.126401 0.732976 2.311060 0.003389 0.004931 319642.000000 0 0 1
-26.813332 -24.692811 -31.704014 48.309773 0.744251 2.286654 0.011582 0.016666 -499727.000000 0 0 1
-26.750932 -26.081691 -31.703144 48.999554 0.772732 2.274451 0.015304 0.005163 84056.400000 0 0 1
-25.970922 -26.548201 -30.599684 48.121060 0.796390 2.259957 0.014605 -0.008771 80833.500000 0 0 1
-26.044552 -28.062351 -30.181874 48.752023 0.822674 2.238379 0.009181 -0.010719 -76846.000000 0 0 1
-27.260962 -28.538971 -29.649884 49.363433 0.808298 2.215104 0.012976 0.000463 -7181.460000 0 0 1
-26.995302 -29.773851 -29.016664 49.570105 0.834304 2.196128 0.018354 0.007866 71063.700000 0 0 1
-27.533502 -31.021791 -29.805364 51.076462 0.844900 2.193882 0.006642 0.010407 -223373.000000 0 0 1
-27.028682 -31.293811 -31.079174 51.727820 0.858398 2.215324 -0.002917 0.005299 127978.000000 0 0 1
-27.434972 -32.587761 -31.329714 52.879021 0.871036 2.204929 0.008091 0.010907 -419311.000000 0 0 1
-27.154362 -32.999391 -32.769694 53.853245 0.882262 2.224965 0.006372 -0.003206 145645.000000 0 0 1
-25.797842 -32.831251 -33.164284 53.322504 0.904792 2.242035 0.000640 0.000635 266937.000000 0 0 1
-25.489482 -33.560751 -34.350880 54.369299 0.921241 2.254678 0.001842 -0.003053 -102715.000000 0 0 1
-23.972682 -33.509841 -34.658421 53.840552 0.949815 2.270150 -0.003203 -0.003058 91039.000000 0 0 1
-23.650882 -34.028601 33.420720 53.237716 0.963414 0.892119 -0.006068 -0.000610 248485.000000 0 0 1
-22.878082 34.246719 33.525014 53.105282 -0.981846 0.887577 -0.009721 0.003441 -43106.400000 0 0 1
-22.634082 33.453813 32.201013 51.656215 -0.975964 0.897749 -0.007163 -0.000782 106180.000000 0 0 1
-23.810082 32.750377 31.817393 51.496152 -0.942167 0.904779 -0.008340 -0.005572 175402.000000 0 0 1
-23.590682 31.922357 30.722683 50.194028 -0.934371 0.912110 -0.006905 -0.002816 -170579.000000 0 0 1
-24.839882 31.180917 30.207603 50.017683 -0.898109 0.922363 -0.002654 -0.001061 -176091.000000 0 0 1
-25.441352 30.350737 31.170023 50.398412 -0.873166 0.903999 -0.003078 -0.005344 -174999.000000 0 0 1
-26.574942 29.747167 30.613133 50.282059 -0.841662 0.916214 -0.001886 -0.006734 -214941.000000 0 0 1
-27.155032 28.530847 31.299453 50.309649 -0.810100 0.899328 -0.006345 -0.013433 365588.000000 0 0 1
-26.200162 27.442367 31.393023 49.244836 -0.808551 0.879562 -0.012426 -0.010236 573423.000000 0 0 1
-26.749192 26.218517 31.841163 49.160854 -0.775380 0.866243 -0.009663 -0.012799 87387.600000 0 0 1
-27.758312 25.518617 30.894673 48.746328 -0.743384 0.884360 -0.000395 -0.014405 86538.600000 0 0 1
-27.279262 25.198297 29.621303 47.502988 -0.745765 0.897499 -0.018618 -0.021027 -377087.000000 0 0 1
-28.339852 24.599797 28.931443 47.384867 -0.714868 0.914025 -0.011288 -0.016087 171126.000000 0 0 1
-27.736892 24.288797 27.538263 46.017788 -0.719218 0.929261 -0.010418 -0.009090 220528.000000 0 0 1
-26.677122 23.353597 27.627263 44.948026 -0.719066 0.908855 -0.015902 -0.009058 103134.000000 0 0 1
-26.211452 22.883797 26.334733 43.637444 -0.717722 0.922926 -0.015050 0.008291 -908354.000000 0 0 1
-24.862382 22.238697 26.442473 42.566443 -0.729752 0.900517 -0.002792 -0.004192 -1161510.000000 0 0 1
-24.985382 21.023697 27.101103 42.435067 -0.699503 0.878055 0.002073 -0.014926 598314.000000 0 0 1
-23.754982 20.426097 27.505183 41.690043 -0.710194 0.850305 0.008428 -0.014054 419488.000000 0 0 1
-24.017882 19.119597 28.306093 41.757066 -0.672332 0.825927 0.005209 -0.013038 -57940.000000 0 0 1
-22.783582 18.516897 28.597673 40.985290 -0.682455 0.798538 0.000146 -0.005647 186138.000000 0 0 1
-23.001482 17.440097 29.425133 41.219699 -0.648739 0.775800 -0.003722 -0.003408 704601.000000 0 0 1
-21.756282 16.470697 29.559973 40.229488 -0.648001 0.745449 -0.006024 -0.001968 580495.000000 0 0 1
-20.679382 16.922997 30.365963 40.448935 -0.685831 0.721640 -0.000262 0.000304 214844.000000 0 0 1
-19.720482 15.882097 30.461353 39.611014 -0.678001 0.693502 -0.002834 0.004577 -152676.000000 0 0 1
-18.493582 16.311497 31.283433 39.833788 -0.722786 0.667536 -0.000921 0.002077 -447716.000000 0 0 1
-18.739382 16.546397 32.664853 41.133202 -0.723329 0.653232 -0.000611 0.001648 327941.000000 0 0 1
-17.610382 17.095897 33.316560 41.381015 -0.770575 0.634924 0.003250 0.000232 -467436.000000 0 0 1
-17.679882 16.963597 -34.463719 42.285811 -0.764725 2.523557 0.001813 -0.000045 192416.000000 0 0 1
-18.712182 17.701397 -33.808674 42.503078 -0.757647 2.490531 0.000872 -0.003934 312909.000000 0 0 1
-19.964082 17.054197 -33.835644 42.828273 -0.706953 2.481655 0.002757 -0.004069 -567262.000000 0 0 1
-21.044882 17.775097 -33.009854 42.994088 -0.701367 2.446160 0.013963 -0.003765 -271430.000000 0 0 1
-20.940982 17.440597 -31.615714 41.740298 -0.694450 2.430177 0.013461 0.001322 535709.000000 0 0 1
-21.772182 18.256297 -30.780394 41.889771 -0.697788 2.396161 0.001790 0.002185 -337068.000000 0 0 1
-21.736082 17.730097 -29.338994 40.590518 -0.684240 2.378648 0.006915 -0.003163 83173.800000 0 0 1
-22.299482 16.412997 -29.094954 40.164284 -0.634498 2.380958 0.004234 0.001079 765197.000000 0 0 1
-23.713382 16.306497 -29.309334 41.076312 -0.602389 2.365325 0.015392 -0.000741 405127.000000 0 0 1
-24.462282 15.161097 -28.635974 40.599028 -0.554833 2.353694 0.014983 -0.006349 -412791.000000 0 0 1
-24.114382 13.869397 -29.022064 40.201291 -0.521947 2.377367 0.005331 -0.004308 -76100.400000 0 0 1
-24.893082 12.856897 -28.410614 39.901483 -0.476748 2.363166 -0.009148 -0.004301 -99467.100000 0 0 1
-24.348182 11.449197 -28.641534 39.297017 -0.439548 2.387434 -0.004725 -0.003125 -123418.000000 0 0 1
-23.438082 11.090497 -27.643374 37.901173 -0.441965 2.388174 -0.009875 -0.002006 -276384.000000 0 0 1
-22.559182 10.061597 -28.000374 37.338631 -0.419530 2.418713 -0.007997 0.002244 -154865.000000 0 0 1
-21.654982 9.599597 -26.855024 35.808977 -0.417266 2.418786 0.001781 0.003433 -603240.000000 0 0 1
-22.290082 8.796997 -25.920044 35.299909 -0.375894 2.395403 -0.017121 0.008115 -900005.000000 0 0 1
-21.398982 8.148597 -25.037154 33.928972 -0.363840 2.400792 0.001842 0.019933 -505990.000000 0 0 1
-21.958882 7.020197 -24.089054 33.343038 -0.309428 2.378152 -0.007663 0.022862 -41792.300000 0 0 1
-22.388282 5.843097 -24.776854 33.900877 -0.255294 2.390380 -0.008368 0.008101 220259.000000 0 0 1
-22.895682 4.828397 -23.860754 33.419474 -0.207841 2.365959 -0.009912 0.012453 -264921.000000 0 0 1
33.041386 25.191489 -10.719454 42.909800 0.651404 1.823284 0.006492 0.007513 67106.500000 0 0 1
33.766046 24.309189 -9.845654 42.755343 0.623977 1.803161 0.006932 0.005008 187803.000000 0 0 1
34.772089 23.633989 -10.587254 43.356124 0.596960 1.817484 0.004422 0.002349 139907.000000 0 0 1
-33.821932 22.968889 -9.589354 41.993435 -0.596569 1.801183 0.012042 0.002394 -70684.400000 0 0 1
-34.274523 21.839189 -8.826354 41.588431 -0.567313 1.784654 0.008110 0.000420 351688.000000 0 0 1
-33.196492 21.413189 -7.982954 40.302100 -0.572883 1.770193 0.006428 0.010213 170051.000000 0 0 1
-33.649022 20.530589 -6.748554 39.991308 -0.547841 1.740358 0.004635 0.014880 -118039.000000 0 0 1
-34.203570 19.320389 -7.182054 39.934240 -0.514184 1.751627 0.007981 -0.001609 266814.000000 0 0 1
-34.603472 18.515889 -6.086954 39.715103 -0.491322 1.724668 0.016669 -0.017080 -394744.000000 0 0 1
34.168656 17.299189 -6.466854 38.840432 0.468666 1.738073 0.011195 -0.005227 636746.000000 0 0 1
32.881136 17.696289 -6.993154 37.989892 0.493731 1.755931 0.014609 -0.009905 676216.000000 0 0 1
32.176566 16.553789 -7.446954 36.943422 0.475154 1.773764 0.029540 -0.011254 -401049.000000 0 0 1
31.044386 16.861489 -8.396954 36.312154 0.497562 1.804152 0.025713 -0.009528 -460409.000000 0 0 1
30.596346 15.755089 -9.194654 35.621635 0.475523 1.831872 0.022505 -0.011075 -195896.000000 0 0 1
29.963006 16.213389 -10.325254 35.598687 0.495995 1.865071 0.013660 -0.010260 -854089.000000 0 0 1
29.543566 15.057489 -11.251054 35.016231 0.471354 1.897909 -0.001722 -0.003994 373226.000000 0 0 1
28.401806 14.265889 -10.892654 33.598036 0.465476 1.900968 -0.008544 -0.000295 611796.000000 0 0 1
28.322576 13.725789 -9.620154 32.910681 0.451271 1.867439 0.008850 -0.000417 -760985.000000 0 0 1
27.248816 12.648589 -9.478554 31.501234 0.434590 1.876427 -0.012170 0.007469 -243312.000000 0 0 1
27.774696 11.403789 -9.937654 31.626525 0.389595 1.890430 -0.012245 0.011650 677583.000000 0 0 1
26.833166 10.343089 -9.951354 30.430703 0.367909 1.903941 -0.015901 0.006431 -182990.000000 0 0 1
27.481416 9.063489 -10.533954 30.795117 0.318571 1.919911 -0.016510 0.003202 87910.000000 0 0 1
28.552766 8.568489 -9.747454 31.363869 0.291542 1.886816 -0.007663 0.002902 405384.000000 0 0 1
28.674316 7.203189 -9.819754 31.153328 0.246114 1.891471 -0.011884 0.003571 -828320.000000 0 0 1
29.775386 6.602889 -8.946054 31.783700 0.218225 1.856119 -0.004093 0.006512 4443.440000 0 0 1
31.065886 6.731189 -9.540954 33.187768 0.213376 1.862395 -0.000504 0.001636 541656.000000 0 0 1
32.054676 6.202889 -8.643754 33.774140 0.191147 1.829604 0.008347 0.001021 -915530.000000 0 0 1
33.435626 6.449289 -9.168454 35.264641 0.190547 1.833808 0.008547 -0.000714 -1079540.000000 0 0 1
33.782094 5.804389 -10.411454 35.823444 0.170157 1.865684 -0.001689 -0.000821 -626173.000000 0 0 1
-34.448176 5.948889 -10.608654 36.532309 -0.171004 1.865432 -0.002767 -0.004276 -1669140.000000 0 0 1
-34.011522 5.517289 -12.037554 36.498312 -0.160817 1.906900 -0.010634 -0.003952 1016140.000000 0 0 1
-32.585932 5.678489 -12.265554 35.277925 -0.172529 1.925896 -0.003409 -0.008646 1623040.000000 0 0 1
-32.107522 6.956089 -12.551154 35.168332 -0.213353 1.935731 -0.012687 -0.007722 -742386.000000 0 0 1
-31.600102 7.869689 -11.438054 34.515612 -0.244075 1.908570 -0.012226 -0.007817 -708138.000000 0 0 1
-32.602062 8.490889 -10.619654 35.323741 -0.254780 1.876158 -0.010948 -0.004158 272300.000000 0 0 1
-33.140952 9.630989 -11.187454 36.279991 -0.282817 1.884269 -0.020230 -0.001089 -225407.000000 0 0 1
-33.892532 10.480789 -10.138854 36.896436 -0.299908 1.849170 0.007628 0.000236 108239.000000 0 0 1
-33.085802 11.174489 -9.213854 36.116957 -0.325714 1.828759 0.007308 -0.001542 -83762.700000 0 0 1
-33.888852 11.875189 -8.298254 36.855602 -0.337045 1.797899 0.023013 -0.001975 -109546.000000 0 0 1
-33.088492 12.906789 -7.467054 36.293117 -0.371916 1.778019 0.030879 -0.004641 96407.900000 0 0 1
-32.332092 13.874389 -8.134854 36.111475 -0.405356 1.798017 0.015833 -0.002637 -203122.000000 0 0 1
-31.785932 14.907289 -7.355154 35.870196 -0.438533 1.777310 0.013321 -0.005584 -10559.700000 0 0 1
-30.836832 15.820489 -8.112054 35.594992 -0.474024 1.800715 -0.002946 -0.002167 -116743.000000 0 0 1
-31.556852 16.640189 -8.990954 36.790869 -0.485255 1.817677 0.007699 -0.003912 105940.000000 0 0 1
-30.899052 17.901089 -9.132654 36.859269 -0.525091 1.821175 0.012033 -0.003747 434736.000000 0 0 1
-31.615142 18.753189 -10.200554 38.147747 -0.535383 1.841486 0.007113 -0.006969 81971.700000 0 0 1
-31.167542 18.528589 -11.537054 38.050333 -0.536353 1.878851 0.009526 -0.010473 -399477.000000 0 0 1
-32.152182 18.798489 -12.501554 39.286573 -0.529073 1.894642 0.000927 -0.017373 -497935.000000 0 0 1
-31.708892 18.992189 -13.951454 39.506963 -0.539651 1.931721 -0.006307 -0.011065 -114650.000000 0 0 1
-30.823552 20.087089 -14.192854 39.433736 -0.577555 1.938975 -0.000435 -0.018386 337113.000000 0 0 1
-30.716202 20.416989 -15.556154 40.029144 -0.586638 1.969930 -0.007851 -0.014444 -388884.000000 0 0 1
-29.836322 21.673289 -15.767854 40.106892 -0.628229 1.974847 0.005858 -0.017662 -677232.000000 0 0 1
-28.493482 21.386989 -15.470854 38.841075 -0.643880 1.980472 0.002419 -0.014508 42532.400000 0 0 1
-27.680302 22.544089 -15.295754 38.838063 -0.683487 1.975595 0.017254 -0.013899 158031.000000 0 0 1
-27.096322 23.138789 -16.591354 39.305053 -0.706780 2.006576 0.002672 -0.013743 -919012.000000 0 0 1
-28.012502 23.970089 -17.270954 40.713035 -0.707790 2.008888 0.016256 -0.005686 59457.700000 0 0 1
-27.454652 24.538389 -18.405954 41.166364 -0.729367 2.034330 0.010066 -0.005274 -388271.000000 0 0 1
-26.649342 25.818489 -18.193154 41.325206 -0.769564 2.026666 0.008466 -0.003400 -666118.000000 0 0 1
-27.354382 26.881589 -17.638054 42.213540 -0.776681 2.001851 0.010877 -0.002360 -121602.000000 0 0 1
-26.550012 28.051089 -17.624854 42.454707 -0.812883 1.998898 0.007824 -0.007866 -107412.000000 0 0 1
-27.322112 29.275789 -17.194754 43.580146 -0.819903 1.976380 0.000751 -0.004674 -399952.000000 0 0 1
-27.391222 29.487689 -15.786654 43.232178 -0.822240 1.944601 0.005049 -0.005091 -652979.000000 0 0 1
-26.240672 29.922889 -15.173154 42.593153 -0.850867 1.935031 0.007469 -0.005008 -962818.000000 0 0 1
-26.438182 30.449889 -13.706554 42.591581 -0.855801 1.898441 0.006579 0.002651 64742.400000 0 0 1
-27.399552 31.502489 -13.634154 43.920751 -0.854943 1.886438 0.002060 0.003114 349153.000000 0 0 1
-27.467342 32.329089 -12.453154 44.212056 -0.866525 1.856329 -0.003839 0.003793 -140204.000000 0 0 1
-26.424402 33.461089 -12.463754 44.421151 -0.902364 1.855196 -0.008152 0.000425 -102264.000000 0 0 1
-26.697972 34.442289 -13.474354 45.613717 -0.911392 1.870672 -0.008413 -0.009498 -58155.600000 0 0 1
-25.886682 -33.879220 -13.486254 44.719133 0.918340 1.877142 -0.005406 -0.004078 -173630.000000 0 0 1
-26.273192 -32.969420 -14.637754 44.626529 0.897951 1.904988 -0.010005 -0.006300 -227905.000000 0 0 1
-25.870612 -33.499820 -15.875154 45.205608 0.913200 1.929624 -0.012243 -0.008989 -64402.600000 0 0 1
-26.152772 -32.602620 -16.927554 45.093685 0.894735 1.955610 0.001781 -0.000251 -128981.000000 0 0 1
-25.453962 -32.971920 -18.260054 45.480559 0.913370 1.983941 -0.013163 -0.001622 -262142.000000 0 0 1
-25.740072 -34.228220 -18.885154 46.805677 0.926008 1.986113 -0.011111 0.000097 -111743.000000 0 0 1
-25.132302 34.165989 -18.250554 46.173911 -0.936579 1.977144 -0.005604 -0.007874 -864462.000000 0 0 1
-25.247412 32.819589 -19.086954 45.594616 -0.915071 2.002725 -0.003119 -0.015421 1629580.000000 0 0 1
-26.569042 32.179089 -19.197454 45.934192 -0.880603 2.001966 -0.007017 -0.011871 1366880.000000 0 0 1
-27.404372 32.898889 -20.099854 47.300535 -0.876262 2.009691 -0.008044 -0.011962 -30742.100000 0 0 1
-28.874142 32.421289 -19.934554 47.772821 -0.843203 2.001245 -0.006264 -0.006060 150476.000000 0 0 1
-29.082102 31.157089 -20.494354 47.292191 -0.819830 2.019010 -0.006922 -0.009505 853841.000000 0 0 1
-30.457522 30.793289 -20.700454 48.004125 -0.790880 2.016644 -0.003128 -0.010973 450565.000000 0 0 1
-30.600572 29.474189 -21.431454 47.586027 -0.766651 2.037979 -0.003209 -0.014677 300528.000000 0 0 1
-31.951702 29.093289 -21.744754 48.375252 -0.738608 2.037004 0.004382 -0.016554 927939.000000 0 0 1
-32.002952 27.776389 -22.288154 47.879834 -0.714813 2.054998 -0.001997 -0.010740 -193155.000000 0 0 1
-33.440432 27.262089 -22.501354 48.659993 -0.683967 2.051519 0.006839 -0.008398 -131607.000000 0 0 1
-34.168590 27.970889 -23.482154 50.012745 -0.685988 2.059547 -0.000321 -0.007168 -726687.000000 0 0 1
34.320840 27.185589 -23.795054 49.831525 0.669906 2.068615 0.005656 -0.001464 -83644.100000 0 0 1
33.445536 27.815289 -24.951854 50.148670 0.693749 2.091577 0.010237 -0.000938 571871.000000 0 0 1
34.203070 27.752889 -26.171144 51.234769 0.681663 2.106921 0.013690 -0.000041 204672.000000 0 0 1
33.388056 28.161189 -27.266964 51.490797 0.700680 2.128867 0.027654 0.001124 2221.660000 0 0 1
34.102938 28.320689 -28.606874 52.758175 0.693033 2.143881 0.024690 0.001301 -56175.200000 0 0 1
34.428967 27.028189 -29.088574 52.554941 0.665553 2.157344 0.021730 0.004375 126441.000000 0 0 1
-34.421598 27.134289 -30.295124 53.281428 -0.667561 2.175583 0.012757 0.001685 -961022.000000 0 0 1
-34.010082 25.790189 -30.894794 52.690680 -0.648798 2.197333 0.012896 0.001307 514166.000000 0 0 1
-32.978602 25.019889 -30.265854 51.279673 -0.649027 2.202117 0.010865 0.009573 -31242.700000 0 0 1
-31.739622 25.643089 -30.206994 50.768436 -0.679552 2.208056 -0.006116 0.008279 -1428870.000000 0 0 1
-30.686042 25.033589 -29.315044 49.271549 -0.684299 2.208023 -0.011366 0.011366 -93800.700000 0 0 1
-30.120472 23.720489 -29.608214 48.441209 -0.667085 2.228397 0.008981 0.010049 514200.000000 0 0 1
-30.836802 22.676089 -28.982374 48.011367 -0.634064 2.218876 0.012125 0.009224 287691.000000 0 0 1
-30.298892 21.323189 -29.622014 47.435903 -0.613246 2.245241 0.020620 0.006839 -38541.100000 0 0 1
-28.964742 20.924089 -29.474204 46.319569 -0.625601 2.260519 0.017218 0.005360 -322161.000000 0 0 1
-28.776532 19.665689 -30.135514 46.075778 -0.599493 2.283712 0.014786 0.002228 1067880.000000 0 0 1
-27.272662 19.200489 -30.333044 45.083815 -0.613419 2.308803 0.011528 0.000256 1161220.000000 0 0 1
-26.576812 19.656789 -31.477824 45.646135 -0.636826 2.331740 0.004214 0.003023 511078.000000 0 0 1
-25.460272 18.864589 -31.917694 44.975964 -0.637679 2.359813 0.004644 -0.000331 367464.000000 0 0 1
-25.705022 17.512689 -32.584034 45.046217 -0.598061 2.379433 0.003238 0.003695 -292953.000000 0 0 1
-26.098272 16.512789 -31.615134 44.196252 -0.564129 2.367900 -0.002593 0.003910 131694.000000 0 0 1
-26.189192 15.247689 -32.215204 44.228782 -0.527238 2.386746 -0.004818 0.007497 -165613.000000 0 0 1
-26.705582 14.062889 -31.372244 43.533557 -0.484693 2.375529 -0.003828 0.012651 -490775.000000 0 0 1
-28.112892 14.022589 -31.370124 44.396535 -0.462684 2.355463 -0.001566 0.005064 -166718.000000 0 0 1
-28.763432 12.801489 -31.217324 44.336604 -0.418739 2.351949 0.000057 0.009135 -48683.300000 0 0 1
-28.553692 12.058989 -29.888394 43.058665 -0.399604 2.338010 -0.005860 -0.007999 -556925.000000 0 0 1
-29.297172 12.588889 -28.807064 42.972681 -0.405842 2.305487 0.000344 -0.009645 383833.000000 0 0 1
-29.058712 11.758389 -27.694444 41.828826 -0.384502 2.294400 -0.009830 -0.010142 -74326.200000 0 0 1
-28.940122 12.575589 -26.327034 41.094875 -0.409922 2.266128 -0.008505 -0.016157 353422.000000 0 0 1
-27.688712 13.216889 -26.085524 40.271646 -0.445355 2.275410 -0.001373 -0.024411 297012.000000 0 0 1
-27.566472 13.671289 -24.759454 39.494874 -0.460394 2.248368 0.002162 -0.017227 325611.000000 0 0 1
-26.075302 13.914889 -24.362854 38.302665 -0.490198 2.260180 0.006481 -0.011816 -486812.000000 0 0 1
-25.350632 14.765389 -25.178674 38.660533 -0.527413 2.280061 0.014086 -0.009683 367762.000000 0 0 1
-23.951982 14.787389 -24.872554 37.563389 -0.553098 2.294479 0.007245 -0.009782 821755.000000 0 0 1
-23.516782 15.416289 -23.515454 36.656207 -0.580263 2.267266 0.012323 -0.004162 -1152890.000000 0 0 1
-23.737982 16.809389 -23.407954 37.336037 -0.616156 2.248433 0.017853 -0.009805 94476.400000 0 0 1
-24.014382 17.241489 -22.076454 36.896196 -0.622682 2.212224 0.023896 -0.007254 319977.000000 0 0 1
-25.481952 17.617589 -21.695654 37.820771 -0.604914 2.181744 0.024413 -0.009648 1007440.000000 0 0 1
-26.353042 16.455589 -21.682054 37.886418 -0.558188 2.180093 0.024795 -0.000645 119778.000000 0 0 1
-27.563762 16.694989 -21.025554 38.478013 -0.544590 2.148892 0.027678 -0.002071 -945235.000000 0 0 1
-28.441142 15.391589 -21.122154 38.625703 -0.496041 2.149384 0.010491 -0.007323 287754.000000 0 0 1
-29.097902 15.134289 -22.368454 39.699903 -0.479611 2.169338 0.010322 -0.010543 237969.000000 0 0 1
-29.956082 16.118889 -22.853154 40.981118 -0.493649 2.162349 0.003761 -0.005834 -986732.000000 0 0 1
-30.352162 15.937989 -24.316354 42.030444 -0.483527 2.187736 0.000872 -0.007626 -151333.000000 0 0 1
-31.488942 15.122989 -24.537254 42.688817 -0.447734 2.183148 0.003194 -0.006841 421921.000000 0 0 1
-32.225512 15.498689 -25.708754 44.041264 -0.448287 2.194127 0.002668 -0.003270 34764.900000 0 0 1
-33.448702 14.581289 -25.877314 44.733265 -0.411092 2.187661 0.008109 -0.003290 -406259.000000 0 0 1
-33.201662 13.200589 -26.124954 44.261937 -0.378426 2.202147 -0.000672 -0.002594 123106.000000 0 0 1
-32.849772 12.419189 -24.977454 43.095440 -0.361451 2.189015 -0.010585 -0.005311 -116687.000000 0 0 1
-32.782452 10.900089 -25.425954 42.894990 -0.320998 2.205264 -0.009951 -0.006945 -291230.000000 0 0 1
-34.080006 10.474989 -25.719954 43.962350 -0.298200 2.195732 0.000476 -0.004559 -391573.000000 0 0 1
-34.059672 9.399389 -26.647774 44.255097 -0.269266 2.216975 -0.002350 0.005174 356569.000000 0 0 1
34.178212 8.683089 -26.927154 44.369109 0.248790 2.222938 0.014441 0.009915 470382.000000 0 0 1
33.680035 7.806189 -25.903154 43.200170 0.227754 2.213807 0.012214 0.008653 -144178.000000 0 0 1
32.566306 7.063889 -26.325234 42.467408 0.213599 2.239402 0.013791 0.007979 -350081.000000 0 0 1
31.981556 6.192989 -25.117544 41.134706 0.191275 2.227636 0.001488 0.003519 268052.000000 0 0 1
32.840006 5.168289 -24.704454 41.418441 0.156097 2.209880 0.001006 0.000495 -143688.000000 0 0 1
32.035986 4.301389 -24.020354 40.271376 0.133469 2.209882 0.005239 0.006466 -147938.000000 0 0 1
32.844316 3.198989 -23.357954 40.429897 0.097092 2.186753 -0.002338 0.005880 -152276.000000 0 0 1
33.465256 2.219689 -24.124754 41.314091 0.066231 2.194364 0.004431 0.004319 480502.000000 0 0 1
34.449321 1.471589 -23.394254 41.667882 0.042692 2.166928 0.011962 0.004330 297005.000000 0 0 1
-34.521103 0.350389 -24.238254 42.182013 -0.010150 2.182925 0.020407 0.006220 -277842.000000 0 0 1
34.269716 -0.773211 -24.417754 42.086078 -0.022559 2.189753 0.006750 0.000116 176610.000000 0 0 1
-34.534006 -1.919111 -24.801254 42.560342 0.055515 2.192882 0.013423 -0.000171 527264.000000 0 0 1
-21.822482 30.035289 28.024293 46.515592 -0.942465 0.924203 -0.010383 -0.000018 -1112950.000000 0 0 1
-23.137782 30.300989 27.635113 47.087220 -0.918649 0.943581 -0.026262 0.003524 -148600.000000 0 0 1
-23.564482 29.858689 26.361693 46.279206 -0.902675 0.964749 -0.031620 0.001795 -405465.000000 0 0 1
-23.798982 28.306089 26.180393 45.310475 -0.871684 0.954766 -0.027029 0.003123 1257280.000000 0 0 1
-25.134042 27.792389 26.525353 45.910035 -0.835583 0.954805 -0.022410 0.003858 1252530.000000 0 0 1
-25.347542 27.459389 27.884193 46.626646 -0.825369 0.929754 -0.020166 -0.003155 -748436.000000 0 0 1
-24.549482 26.234889 28.468323 45.840941 -0.818574 0.900748 -0.014598 -0.000503 1285250.000000 0 0 1
-23.114182 26.322989 28.641903 45.249572 -0.850214 0.885405 -0.007542 0.001226 1118080.000000 0 0 1
-22.851882 27.101789 29.831793 46.331969 -0.870271 0.871250 -0.008972 -0.005924 -1082550.000000 0 0 1
-21.569682 26.795189 30.554723 46.008960 -0.893024 0.844502 0.003072 -0.000346 -730239.000000 0 0 1
-20.387882 27.097389 29.807253 45.148716 -0.925766 0.849709 0.007943 -0.002837 336284.000000 0 0 1
-19.215382 26.702089 30.493133 44.856032 -0.947023 0.823306 0.009473 -0.002254 136339.000000 0 0 1
-18.768782 25.260089 30.209813 43.623068 -0.931777 0.805821 0.018352 -0.003214 -458823.000000 0 0 1
-18.163582 25.029389 28.945173 42.358105 -0.943036 0.818463 0.018626 -0.003971 364510.000000 0 0 1
-19.052282 24.423989 27.988623 41.747858 -0.908330 0.836021 0.022202 0.001951 198240.000000 0 0 1
-19.086782 22.848089 27.948353 40.834432 -0.874853 0.816973 0.022095 0.011115 -245327.000000 0 0 1
-19.828382 22.268889 28.954863 41.562630 -0.843306 0.800070 0.001647 0.005998 -362439.000000 0 0 1
-19.551082 20.903689 29.109863 40.823928 -0.818821 0.776945 -0.004349 0.005487 16965.700000 0 0 1
-19.935182 20.318389 30.495363 41.715891 -0.794918 0.750973 -0.005955 -0.001930 78036.100000 0 0 1
-19.063082 20.747389 31.520203 42.277398 -0.827681 0.729426 0.001028 -0.006803 4739.070000 0 0 1
-19.582182 20.365489 32.764473 43.263445 -0.805004 0.711590 -0.003161 -0.001857 -91539.000000 0 0 1
-18.722782 20.893389 33.956442 44.046750 -0.840134 0.690515 0.003027 -0.009376 -220833.000000 0 0 1
-18.682182 22.327189 34.135237 44.863590 -0.874048 0.706148 -0.000157 -0.010535 -24181.900000 0 0 1
-17.966682 23.062189 33.141243 44.192852 -0.908959 0.722850 0.009931 -0.000087 -1243360.000000 0 0 1
-16.514182 23.273289 33.514293 44.017860 -0.953672 0.705358 0.009458 -0.001432 -758758.000000 0 0 1
-15.877282 21.992789 33.585721 43.171420 -0.945503 0.679381 0.013334 -0.005646 25741.200000 0 0 1
-14.500082 22.116189 33.942212 43.028501 -0.990472 0.661892 0.008742 -0.006936 164770.000000 0 0 1
-13.692582 20.793389 33.868717 42.035007 -0.988464 0.633895 0.010710 0.001873 556128.000000 0 0 1
-12.344882 20.813389 34.340087 42.009937 -1.035449 0.613865 0.000545 0.011532 535682.000000 0 0 1
-12.183282 20.881389 -33.656194 41.439162 -1.042634 2.518681 0.002228 0.004229 338112.000000 0 0 1
-10.699282 20.771789 -33.153414 40.559717 -1.095152 2.527675 -0.002155 0.005189 546455.000000 0 0 1
-9.932782 21.877289 -33.461224 41.193803 -1.144602 2.518860 -0.012961 0.001198 305362.000000 0 0 1
-8.563782 21.638389 -33.095404 40.458176 -1.193944 2.528748 -0.021190 0.006788 874201.000000 0 0 1
-7.577982 22.846289 -33.225014 41.027799 -1.250522 2.514637 -0.023350 0.007123 207796.000000 0 0 1
-7.697382 23.926789 -32.326724 40.948235 -1.259547 2.480714 -0.018785 0.007217 -9744.810000 0 0 1
-7.275782 23.562889 -31.042634 39.645830 -1.271303 2.470269 -0.016132 -0.001633 -285899.000000 0 0 1
-7.247882 24.703889 -30.067864 39.583966 -1.285414 2.433490 -0.017347 -0.000521 203927.000000 0 0 1
-6.116782 25.520389 -30.347234 40.120567 -1.335552 2.428590 -0.020234 0.003461 306587.000000 0 0 1
-5.910882 26.538589 -29.380974 40.030948 -1.351646 2.394925 -0.008768 0.004099 125190.000000 0 0 1
-4.637782 27.344789 -29.774834 40.691365 -1.402791 2.391644 -0.005410 0.001362 -799948.000000 0 0 1
-3.491382 26.567989 -29.700044 40.001755 -1.440132 2.407544 -0.008221 0.003056 -978201.000000 0 0 1
-2.369382 26.969289 -30.406704 40.712702 -1.483167 2.414124 -0.006529 0.003380 -163889.000000 0 0 1
-1.650282 28.248589 -29.944644 41.199368 -1.512443 2.384481 -0.001619 -0.004840 -902758.000000 0 0 1
-0.995682 28.051889 -28.685694 40.134385 -1.535317 2.367050 -0.002219 -0.005819 229427.000000 0 0 1
-0.506182 29.260889 -28.223644 40.657470 -1.553499 2.338078 -0.002531 -0.005757 -612093.000000 0 0 1
0.031518 29.263089 -26.715614 39.623899 1.569719 2.310718 0.000762 0.000045 1404310.000000 0 0 1
1.263318 28.561189 -26.414814 38.924027 1.526593 2.316685 0.000027 0.002686 1132570.000000 0 0 1
2.459918 28.952889 -27.076024 39.716899 1.486037 2.320915 -0.004012 0.004720 -327135.000000 0 0 1
3.580418 28.988189 -26.025664 39.121217 1.447906 2.298634 -0.001479 0.007558 -543864.000000 0 0 1
4.065818 27.730689 -25.691924 38.021006 1.425216 2.312750 -0.001396 0.010584 -173986.000000 0 0 1
4.569518 27.641389 -24.384954 37.142332 1.406964 2.287002 0.001462 0.020941 61113.100000 0 0 1
5.528918 26.497889 -24.004654 36.179144 1.365093 2.296276 -0.001183 0.017050 -173011.000000 0 0 1
5.949718 26.516889 -22.658654 35.383034 1.350077 2.265792 0.006134 0.019549 418539.000000 0 0 1
6.908818 25.446889 -22.462454 34.638674 1.305687 2.276381 0.012972 0.014805 332995.000000 0 0 1
8.363018 25.908489 -22.409754 35.261692 1.258564 2.259487 0.010233 0.018833 -1176160.000000 0 0 1
8.723818 26.528489 -21.201754 35.062517 1.253089 2.220166 0.011434 0.021316 441621.000000 0 0 1
10.127318 26.708989 -21.034654 35.473783 1.208372 2.205530 0.012099 0.016956 321294.000000 0 0 1
10.937718 25.542989 -20.545554 34.557166 1.166211 2.207487 0.001848 0.020013 -741954.000000 0 0 1
11.079818 24.516689 -21.543854 34.466912 1.146339 2.246003 0.000313 0.020008 -57546.000000 0 0 1
11.507618 23.333189 -20.937654 33.395334 1.112614 2.248446 0.000887 0.019189 -299555.000000 0 0 1
11.570618 22.222589 -22.006754 33.346962 1.090750 2.291526 0.000092 0.014690 558669.000000 0 0 1
10.304518 21.909089 -22.594554 33.116539 1.131165 2.321665 0.007786 0.009468 687111.000000 0 0 1
10.558818 20.817489 -23.423054 33.068050 1.101398 2.357924 0.004732 0.009500 232852.000000 0 0 1
9.876718 21.082289 -24.777354 33.998967 1.132678 2.387317 0.013927 0.013487 812521.000000 0 0 1
8.452918 21.253789 -24.841454 33.767931 1.192263 2.397425 0.008795 0.007261 555003.000000 0 0 1
8.091118 21.502189 -26.165364 34.820060 1.210893 2.421046 -0.004334 0.004680 97657.200000 0 0 1
6.632918 20.998889 -26.434974 34.405767 1.264844 2.447024 -0.007820 0.000163 807148.000000 0 0 1
5.530318 21.716489 -25.895754 34.245881 1.321437 2.428239 -0.004853 0.003228 182756.000000 0 0 1
5.405618 21.741389 -24.511354 33.207155 1.327105 2.401098 0.000317 0.006238 -786454.000000 0 0 1
3.924218 21.908589 -24.099654 32.805168 1.393558 2.395917 0.009469 0.004477 128296.000000 0 0 1
3.372818 23.210589 -24.334554 33.797601 1.426493 2.374611 0.006400 0.010633 126481.000000 0 0 1
2.198418 23.435589 -23.572254 33.312325 1.477263 2.356911 0.002756 0.003608 634983.000000 0 0 1
1.419018 24.770289 -23.883654 34.438492 1.513572 2.337155 0.001947 0.005178 350108.000000 0 0 1
0.442418 24.873289 -24.916754 35.209670 1.553011 2.356988 0.005482 -0.006009 210521.000000 0 0 1
0.820518 25.180789 -26.263984 36.394261 1.538223 2.376982 0.011075 -0.011309 -563119.000000 0 0 1
-0.454782 25.311089 -27.077394 37.068090 -1.552831 2.389817 0.010153 -0.010591 32094.100000 0 0 1
-1.092682 24.038789 -27.324834 36.410216 -1.525373 2.419572 0.011381 -0.016091 58139.500000 0 0 1
-2.374782 24.257989 -27.893794 37.042588 -1.473210 2.423435 0.009878 -0.009688 43375.700000 0 0 1
-3.055782 22.934489 -28.222434 36.494306 -1.438337 2.454886 0.000301 -0.013801 -645281.000000 0 0 1
-2.399882 22.191689 -29.205284 36.758388 -1.463072 2.489013 0.014695 -0.012053 -470965.000000 0 0 1
-3.030482 21.006189 -29.604514 36.426241 -1.427519 2.519610 0.005628 -0.004496 734901.000000 0 0 1
-4.267582 21.172189 -30.596604 37.451649 -1.371896 2.526921 -0.013826 -0.002718 604036.000000 0 0 1
-4.040682 21.405989 -31.995154 38.707019 -1.384228 2.543832 -0.003504 -0.000855 140871.000000 0 0 1
-3.266882 22.592689 -32.266384 39.524949 -1.427193 2.525867 -0.008394 -0.001066 214589.000000 0 0 1
-2.985682 22.776089 -33.753444 40.828415 -1.440451 2.544039 -0.007428 0.002112 -23480.700000 0 0 1
-1.981382 21.873689 -34.173238 40.622584 -1.480460 2.570364 -0.000656 0.006290 50924.400000 0 0 1
-1.873282 21.836389 33.783324 40.269716 -1.485219 0.575489 0.000829 0.008119 309310.000000 0 0 1
-0.660082 20.983389 33.312668 39.376035 -1.539349 0.562333 0.010330 0.009182 260313.000000 0 0 1
-1.026082 19.640289 33.072933 38.478730 -1.518600 0.536482 0.002204 0.020967 194403.000000 0 0 1
0.070018 18.856089 32.664683 37.716555 1.567083 0.523536 0.017705 0.012514 -22575.600000 0 0 1
-0.482482 17.465589 32.229083 36.660515 -1.543179 0.496778 0.011820 0.011656 -53889.100000 0 0 1
-1.293582 17.551389 31.095443 35.730256 -1.497227 0.515019 0.008522 0.009969 -92094.800000 0 0 1
-1.555082 16.212589 30.681433 34.736388 -1.475171 0.488016 0.001614 0.008460 -106346.000000 0 0 1
-2.703882 16.037489 29.659233 33.825761 -1.403770 0.501580 0.010803 0.003884 16034.400000 0 0 1
-4.007482 16.466589 29.952223 34.414301 -1.332067 0.514899 -0.000520 -0.002497 -94620.000000 0 0 1
-4.167882 17.825589 29.566613 34.775098 -1.341108 0.554386 0.000710 0.004014 64874.500000 0 0 1
-5.641282 18.320289 29.749423 35.390468 -1.272085 0.572396 -0.007816 0.003115 643711.000000 0 0 1
-6.401982 17.590989 28.786663 34.338029 -1.221761 0.576580 -0.014351 -0.000628 -630919.000000 0 0 1
-7.757982 17.959289 28.908423 34.905863 -1.163032 0.594939 -0.014339 0.014020 -139159.000000 0 0 1
-8.637582 17.004689 27.990683 33.871014 -1.100807 0.598129 -0.009589 0.002598 214062.000000 0 0 1
-8.911382 15.654989 28.447753 33.671443 -1.053305 0.564487 -0.006093 -0.006763 -230161.000000 0 0 1
-9.745982 15.642389 29.565033 34.839054 -1.013601 0.557430 -0.007463 0.004224 -772969.000000 0 0 1
-10.209482 14.230489 30.018063 34.753769 -0.948463 0.528161 0.000687 -0.005669 -404229.000000 0 0 1
-9.227082 13.324089 30.408263 34.457696 -0.965114 0.489685 0.010079 -0.007205 -572725.000000 0 0 1
-8.424282 13.528989 31.524863 35.324482 -1.013864 0.468079 0.004611 0.001001 -566136.000000 0 0 1
-8.889882 13.045689 32.874943 36.468916 -0.972634 0.447686 0.007631 -0.004564 -575013.000000 0 0 1
-8.926382 11.626689 33.010333 36.118448 -0.916032 0.417892 0.004511 -0.007163 469510.000000 0 0 1
-9.355882 11.284389 34.321321 37.320544 -0.878562 0.403643 -0.004860 -0.002656 -57467.000000 0 0 1
-9.777882 9.774089 34.522806 37.188223 -0.785204 0.380911 0.004971 0.002216 800104.000000 0 0 1
-8.615382 8.900389 34.628105 36.776995 -0.801668 0.343536 0.006140 0.004675 1163360.000000 0 0 1
-8.395882 8.340789 -33.457954 35.489354 -0.782106 2.801610 0.009367 0.001210 -393103.000000 0 0 1
-7.615782 9.170189 -32.420284 34.542254 -0.877736 2.789256 0.006370 0.000946 -862593.000000 0 0 1
-8.292382 10.237489 -31.865124 34.481240 -0.889987 2.749547 0.005855 0.001616 42302.600000 0 0 1
-7.475182 11.104189 -31.083454 33.843204 -0.978294 2.734952 0.001011 0.002653 431463.000000 0 0 1
-6.565682 12.162589 -31.842024 34.712407 -1.075798 2.732066 -0.015775 0.007507 572564.000000 0 0 1
-7.402382 13.203789 -32.320274 35.689430 -1.059832 2.703584 -0.017946 0.009642 504271.000000 0 0 1
-6.597182 14.290989 -32.731134 36.319172 -1.138311 2.693345 -0.023498 0.016665 46901.400000 0 0 1
-7.302482 15.654389 -33.002404 37.249762 -1.134321 2.659391 -0.027725 0.015098 -239014.000000 0 0 1
-8.211582 15.743189 -34.063324 38.413384 -1.090022 2.661077 -0.016936 0.011378 27152.000000 0 0 1
-8.637582 17.040589 -34.332791 39.290330 -1.101658 2.633806 -0.009207 0.012467 -603279.000000 0 0 1
-9.079582 17.390689 33.571668 38.883567 -1.089630 0.528847 -0.004824 0.008336 1258220.000000 0 0 1
-10.230482 16.702289 33.040803 38.409945 -1.021222 0.535106 0.001754 0.002539 1483450.000000 0 0 1
-11.513982 16.822489 33.662398 39.353843 -0.970590 0.544517 0.006546 0.002635 785378.000000 0 0 1
-12.714982 16.241289 32.821063 38.764319 -0.906582 0.561077 0.000472 0.003818 360659.000000 0 0 1
-12.677182 14.877489 32.424463 37.860222 -0.865082 0.542490 0.008122 0.001362 317957.000000 0 0 1
-13.404382 14.028189 33.302468 38.542469 -0.808134 0.527544 0.013490 0.000863 91655.200000 0 0 1
-12.938682 12.564389 33.119903 37.712085 -0.770723 0.498647 0.007597 -0.001909 319636.000000 0 0 1
-13.500382 12.091889 31.847743 36.643592 -0.730418 0.517372 -0.001418 -0.000870 630461.000000 0 0 1
-12.484982 11.481989 31.064813 35.393975 -0.743574 0.499783 0.000949 -0.003834 12463.900000 0 0 1
-12.805482 11.107789 29.589243 34.101124 -0.714523 0.520258 0.003504 -0.004665 -438262.000000 0 0 1
-13.739682 10.072889 29.474863 34.044228 -0.632613 0.524086 0.006070 -0.002831 -2075.600000 0 0 1
-13.504182 9.340289 28.281113 32.702068 -0.605106 0.526022 -0.010624 0.004462 455591.000000 0 0 1
-14.438982 8.077189 28.256313 32.743616 -0.510033 0.529705 -0.006332 0.000747 260896.000000 0 0 1
-14.039882 7.048689 29.080443 33.052601 -0.465284 0.495306 -0.008488 -0.001455 -32819.900000 0 0 1
-14.764482 5.846989 28.874973 32.953623 -0.377068 0.502813 -0.012906 0.000899 61932.000000 0 0 1
-13.821082 4.617789 28.742873 32.225751 -0.322451 0.469217 -0.011303 0.002268 234140.000000 0 0 1
-12.941782 4.560989 27.636853 30.855923 -0.338832 0.460851 -0.003750 -0.002890 47218.900000 0 0 1
-13.509182 4.222889 26.397773 29.952850 -0.302970 0.492167 -0.005636 0.000667 -562976.000000 0 0 1
-12.412082 4.184989 25.330033 28.516390 -0.325200 0.477248 -0.000346 0.002324 -494120.000000 0 0 1
-11.714882 2.983589 25.405763 28.135263 -0.249382 0.444126 -0.005515 0.001656 -252319.000000 0 0 1
-11.164682 2.731289 24.142453 26.738887 -0.239924 0.444335 -0.003539 0.005749 486425.000000 0 0 1
-10.120282 1.530689 23.972453 26.066101 -0.150112 0.403533 -0.007893 0.002749 121527.000000 0 0 1
-8.837882 1.846789 24.414013 26.030037 -0.205999 0.354221 -0.004200 0.001697 -373536.000000 0 0 1
-8.034882 0.663389 24.480523 25.773929 -0.082377 0.318145 -0.006327 0.002576 -122368.000000 0 0 1
-6.535282 0.984289 24.491213 25.367267 -0.149488 0.263573 0.001605 0.003041 -867467.000000 0 0 1
-6.155382 1.456589 23.215553 24.061843 -0.232362 0.266006 0.002541 0.005139 612670.000000 0 1 0
-4.754482 1.696589 23.031653 23.578392 -0.342755 0.215770 0.004788 0.003797 647544.000000 0 1 0
-4.364182 3.074189 23.654053 24.248937 -0.613682 0.221961 0.015384 0.004429 -841591.000000 0 1 0
-4.187282 3.050489 25.003253 25.534319 -0.629607 0.204307 0.018832 0.003104 105582.000000 0 0 1
-3.595782 4.243089 25.504203 26.103598 -0.867788 0.214712 0.010728 -0.000119 -2913.500000 0 0 1
4.011218 -23.434511 12.874946 27.037574 -1.401272 1.074483 -0.003257 -0.003575 235527.000000 0 0 1
3.986318 -24.756711 13.408246 28.435305 -1.411147 1.079766 -0.002957 -0.007384 441563.000000 0 0 1
2.646618 -25.295371 13.391946 28.743775 -1.466547 1.086136 0.002070 -0.004752 1043240.000000 0 0 1
2.462118 -26.790221 13.895946 30.279949 -1.479150 1.094022 -0.001936 -0.006744 -69219.100000 0 0 1
2.337718 -26.857251 15.293346 30.994569 -1.483973 1.054779 -0.010335 -0.008626 -10863.100000 0 0 1
2.431218 -28.160211 15.799346 32.380977 -1.484675 1.061090 -0.013299 -0.009528 -381778.000000 0 0 1
2.092718 -28.136471 17.287946 33.089478 -1.496556 1.021062 -0.011511 -0.012922 -83510.600000 0 0 1
2.870118 -27.225291 18.034946 32.782821 -1.465763 0.988272 -0.011762 -0.012168 94291.700000 0 0 1
2.736618 -27.613431 19.356446 33.832864 -1.472014 0.961708 -0.016213 -0.005942 9351.490000 0 0 1
3.387618 -26.670301 20.372646 33.731671 -1.444455 0.922334 -0.013833 -0.004288 118387.000000 0 0 1
2.608718 -25.490381 20.628146 32.895066 -1.468810 0.892985 -0.016890 -0.006831 371223.000000 0 0 1
3.139218 -24.746311 21.751446 33.096224 -1.444614 0.853674 -0.009388 -0.003555 183493.000000 0 0 1
2.249718 -23.575611 22.292746 32.524410 -1.475659 0.815622 -0.005195 -0.003415 138411.000000 0 0 1
1.891618 -22.477611 21.392146 31.087701 -1.486838 0.811898 -0.010446 -0.008129 176834.000000 0 0 1
2.989118 -21.818811 20.795046 30.289095 -1.434647 0.814060 -0.007665 0.000424 70380.100000 0 0 1
2.486518 -20.522511 20.116146 28.844680 -1.450224 0.799040 -0.007693 -0.000244 333663.000000 0 0 1
2.028118 -19.458211 20.990746 28.694018 -1.466942 0.750222 -0.009085 0.000054 533680.000000 0 0 1
1.178518 -18.527111 20.278246 27.492727 -1.507271 0.741308 -0.014114 -0.003887 670410.000000 0 0 1
0.837918 -17.221511 21.060646 27.218254 -1.522179 0.686027 -0.007771 0.007221 241982.000000 0 0 1
2.005818 -16.450511 21.021146 26.768101 -1.449465 0.667606 -0.016180 0.018651 5496.670000 0 0 1
1.637218 -15.097011 21.388346 26.230928 -1.462772 0.617400 -0.004745 0.019158 881011.000000 0 0 1
2.668218 -13.943011 21.008746 25.355362 -1.381716 0.594244 -0.008214 0.013200 146987.000000 0 0 1
2.930918 -13.673811 19.648146 24.116655 -1.359646 0.618563 -0.012271 0.011106 -217195.000000 0 1 0
1.837618 -13.285611 18.855646 23.139138 -1.433352 0.618272 -0.002324 0.017685 20169.000000 0 1 0
1.083118 -11.932511 19.142946 22.583409 -1.480274 0.559246 -0.006183 0.006823 144830.000000 0 1 0
1.806618 -10.695411 18.976946 21.858183 -1.403461 0.519263 -0.003004 0.006065 -339805.000000 0 1 0
1.545518 -9.725211 19.955946 22.253273 -1.413196 0.458393 -0.000782 0.000087 1182250.000000 0 1 0
0.058818 -9.170711 20.101046 22.094286 -1.564383 0.428031 0.008026 -0.002876 1361180.000000 0 1 0
-0.156382 -8.314911 21.204446 22.776978 1.551991 0.373764 0.011165 -0.005745 -957917.000000 0 1 0
-1.493182 -7.936011 21.202646 22.688369 1.384818 0.363899 0.008481 -0.004191 -485115.000000 0 1 0
-1.818782 -7.160011 22.511146 23.692307 1.322038 0.317093 0.007307 -0.000991 -181894.000000 0 1 0
-1.850582 -7.962711 23.629046 25.003225 1.342444 0.333080 0.001501 0.007568 73958.200000 0 0 1
-1.915982 -7.267911 24.803446 25.917262 1.313039 0.294235 0.009507 0.013839 -178973.000000 0 0 1
-2.106182 -8.235611 25.990046 27.344904 1.320422 0.316106 0.003493 0.010590 -380588.000000 0 0 1
-0.936782 -8.891711 26.354446 27.829785 1.465829 0.327072 0.013201 0.008781 -391086.000000 0 0 1
-1.162182 -9.771311 27.452546 29.162844 1.452414 0.344177 0.010607 0.004329 -84078.400000 0 0 1
-0.065982 -10.868911 27.592846 29.656412 1.564726 0.375246 0.006039 0.006862 614572.000000 0 0 1
1.041018 -10.286611 28.320146 30.148446 -1.469938 0.350047 0.005401 0.007567 195696.000000 0 0 1
1.957218 -11.322811 28.583046 30.806286 -1.399631 0.382240 0.006760 0.003697 160036.000000 0 0 1
2.955018 -10.945911 29.728346 31.816971 -1.307117 0.364352 0.007810 0.002803 404309.000000 0 0 1
2.237218 -10.825411 30.926646 32.842840 -1.367002 0.343280 0.000996 0.000859 32380.900000 0 0 1
3.072118 -10.253511 31.901446 33.649289 -1.279692 0.323725 0.001959 0.002302 -477648.000000 0 0 1
2.559118 -10.176911 33.359646 34.971197 -1.324441 0.304764 -0.006401 -0.003493 -411646.000000 0 0 1
2.431318 -11.438211 34.091746 36.041520 -1.361353 0.330433 -0.014350 -0.004224 159469.000000 0 0 1
2.206318 -11.421211 -33.868061 35.810019 -1.379970 2.810755 -0.014664 -0.005359 -343776.000000 0 0 1
3.280418 -10.740911 -32.978061 34.837922 -1.274381 2.813361 -0.021405 0.000290 -175965.000000 0 0 1
3.173918 -9.315111 -32.997961 34.434147 -1.242405 2.851760 -0.023299 -0.000228 -111275.000000 0 0 1
3.753518 -8.704611 -31.916761 33.294726 -1.163677 2.852887 -0.012096 0.004562 -421775.000000 0 0 1
3.177618 -7.273511 -31.702461 32.680992 -1.158910 2.896266 -0.023717 0.006302 -74237.200000 0 0 1
3.561518 -6.336911 -32.654661 33.453964 -1.058766 2.922557 -0.012910 0.004859 -99231.100000 0 0 1
3.373418 -4.980311 -32.224361 32.780984 -0.975433 2.957048 -0.010044 0.009616 124698.000000 0 0 1
3.269218 -3.873811 -33.298561 33.682167 -0.869838 2.990525 -0.007014 0.009503 269090.000000 0 0 1
2.031018 -3.832811 -33.980261 34.256001 -1.083513 3.014626 0.000957 0.004654 -67200.000000 0 0 1
2.198918 -2.845011 34.412046 34.599397 -0.912798 0.104113 0.022275 0.008070 249190.000000 0 0 1
1.874118 -3.166011 32.914646 33.119630 -1.036317 0.111316 0.019265 -0.000355 1108370.000000 0 0 1
0.455918 -3.258211 32.676146 32.841351 -1.431770 0.100346 0.015083 -0.001581 497671.000000 0 0 1
0.143218 -3.597711 31.360746 31.566762 -1.531009 0.114311 0.016327 0.002651 467258.000000 0 0 1
-1.397882 -3.773511 31.293446 31.551121 1.216024 0.127891 0.012948 -0.008214 379708.000000 0 0 1
-2.133682 -2.581611 31.160846 31.340320 0.880109 0.107071 0.014629 -0.006511 318275.000000 0 0 1
-3.532682 -2.828811 31.014646 31.343106 0.675201 0.144899 0.007504 -0.003133 727832.000000 0 0 1
-4.345982 -1.699211 30.350646 30.707273 0.372710 0.152554 0.016950 0.004044 -309119.000000 0 0 1
-4.176182 -1.628011 28.949746 29.294687 0.371711 0.153610 0.015687 0.011379 -9846.380000 0 0 1
-5.129682 -0.906111 28.184946 28.662272 0.174837 0.182756 0.011540 0.007376 222817.000000 0 0 1
-5.446582 0.599589 28.466946 28.989512 -0.109644 0.190160 0.016751 0.006002 -199006.000000 0 0 1
-6.271882 0.852189 29.548346 30.218661 -0.135047 0.211020 0.018452 0.005716 -572076.000000 0 0 1
-6.542882 2.220489 29.737746 30.529877 -0.327178 0.228294 0.020609 -0.003374 -1532660.000000 0 0 1
-7.935582 2.492489 30.221846 31.345589 -0.304333 0.268575 0.016381 -0.003524 -906905.000000 0 0 1
-8.843182 2.097089 29.167046 30.550225 -0.232841 0.302064 0.009501 -0.000543 -465087.000000 0 0 1
-10.139382 2.527089 29.440846 31.240305 -0.244259 0.341064 -0.005200 0.001255 -1046330.000000 0 0 1
-11.117182 1.834689 28.508046 30.653980 -0.163558 0.376397 -0.007286 0.006579 -606366.000000 0 0 1
-11.544882 0.569289 28.968646 31.189595 -0.049271 0.379657 -0.006455 0.009087 37854.600000 0 0 1
-11.972882 -0.141011 27.804046 30.272673 0.011777 0.406643 -0.004157 0.010780 -837306.000000 0 0 1
-12.125982 -1.742011 27.941546 30.509081 0.142683 0.413193 -0.007818 0.005218 341709.000000 0 0 1
-10.967182 -2.518011 28.282046 30.438357 0.225684 0.378667 -0.004423 0.006377 697661.000000 0 0 1
-9.782582 -2.331911 27.524246 29.303939 0.234007 0.350306 -0.023372 0.008085 -202121.000000 0 0 1
-9.721782 -2.989011 26.112546 28.023424 0.298282 0.371424 -0.012810 0.010987 -555184.000000 0 0 1
-10.466982 -2.249811 25.164846 27.347556 0.211722 0.402240 -0.011556 0.012097 433370.000000 0 0 1
-10.597382 -2.847011 23.892846 26.292167 0.262455 0.430532 -0.006592 0.010134 37362.100000 0 0 1
-9.464082 -2.410411 22.871146 24.869022 0.249388 0.403572 -0.002532 0.007776 791477.000000 0 1 0
-8.197282 -2.860611 23.327446 24.890727 0.335758 0.356299 0.001216 0.011100 193070.000000 0 1 0
-7.166982 -2.374511 22.453446 23.688841 0.319931 0.324378 -0.001251 0.008674 573460.000000 0 1 0
-5.718482 -2.717311 22.884146 23.743819 0.443596 0.269914 0.002877 0.007825 263595.000000 0 1 0
-5.227982 -3.995911 22.728946 23.662293 0.652610 0.281803 0.012807 0.003528 -49159.300000 0 1 0
-5.828682 -4.887511 23.682746 24.874360 0.697796 0.310782 0.012502 0.008699 -98290.200000 0 1 0
-5.679882 -6.364611 23.223946 24.741079 0.842187 0.352016 0.009528 0.006954 -361555.000000 0 1 0
-6.429982 -6.832911 22.112046 24.020323 0.815769 0.401296 0.014683 -0.005689 -74653.400000 0 1 0
-6.013282 -6.208611 20.882846 22.600878 0.801379 0.392426 0.013777 -0.011382 -515126.000000 0 1 0
-7.025882 -6.189311 19.761246 21.867269 0.722179 0.442484 0.008707 -0.014404 -289442.000000 0 1 0
-8.154682 -5.401011 20.096146 22.350052 0.584988 0.452963 0.010804 -0.009847 216546.000000 0 1 0
-9.071182 -5.158911 19.003446 21.680214 0.517098 0.502183 0.010189 -0.012751 862619.000000 0 1 0
-9.691982 -3.793611 19.292646 21.921044 0.373086 0.494730 0.000779 -0.005950 547316.000000 0 1 0
-8.698782 -2.817311 18.971046 21.059597 0.313213 0.449127 0.004342 -0.005043 259400.000000 0 1 0
-9.278582 -1.577211 18.984246 21.189178 0.168375 0.460252 -0.001559 -0.005961 -624807.000000 0 1 0
-8.325482 -0.513211 18.440546 20.239337 0.061566 0.424793 -0.001103 -0.002772 -221502.000000 0 1 0
-7.207282 -0.271811 19.284846 20.589417 0.037696 0.357888 0.001711 0.006019 286586.000000 0 1 0
-7.449382 0.521789 20.465246 21.785129 -0.069930 0.349881 0.007234 0.009520 -445534.000000 0 1 0
-7.485682 2.041289 20.254246 21.689555 -0.266220 0.365836 0.005171 0.004598 -224999.000000 0 1 0
-8.512982 2.549289 19.445446 21.379783 -0.290960 0.428657 -0.003735 -0.000464 6185.440000 0 1 0
-8.415882 3.990689 19.368646 21.491792 -0.442784 0.448240 -0.003996 0.006942 -287324.000000 0 1 0
-9.104982 4.516289 18.124146 20.779370 -0.460462 0.511077 -0.005923 0.004458 -753340.000000 0 1 0
-10.497682 4.476589 18.305946 21.571945 -0.403086 0.557464 -0.004005 0.008861 -494879.000000 0 1 0
-11.234582 5.038389 17.277246 21.215664 -0.421582 0.619166 -0.003256 0.013358 -364647.000000 0 1 0
-11.299682 6.574589 17.042046 21.478812 -0.526958 0.654364 -0.007802 0.011514 -998782.000000 0 1 0
-10.102682 7.192589 16.667746 20.775256 -0.618700 0.639677 -0.008435 0.006371 -218816.000000 0 1 0
-10.272982 8.594289 16.682446 21.393923 -0.696658 0.676490 -0.014474 0.002409 -358324.000000 0 1 0
-8.998882 9.427989 16.782846 21.249253 -0.808681 0.660299 -0.015729 0.006619 -598327.000000 0 1 0
-8.358082 9.377789 18.056346 21.996183 -0.842829 0.607837 -0.007501 0.012400 13720.700000 0 1 0
-7.220782 10.217389 18.114246 22.015009 -0.955578 0.604452 -0.009516 0.006191 -236001.000000 0 1 0
-7.441582 11.757889 18.079546 22.814361 -1.006535 0.655959 -0.024342 0.012531 -661819.000000 0 1 0
-7.754282 12.144889 16.741546 22.088607 -1.002561 0.710667 -0.022489 0.004653 48168.500000 0 1 0
-8.339682 13.449889 16.724546 23.025209 -1.015760 0.757788 -0.017733 0.008055 91295.300000 0 1 0
-8.607382 13.893989 15.272146 22.368916 -1.016159 0.819291 -0.007152 0.003762 755905.000000 0 1 0
-7.379582 14.264989 14.631246 21.726056 -1.093388 0.831941 0.002781 -0.002594 472710.000000 0 1 0
-7.584682 14.942389 13.404346 21.458771 -1.101091 0.896106 0.003601 -0.012264 377149.000000 0 1 0
-6.748682 16.297389 13.437846 22.174880 -1.178198 0.919781 0.001899 -0.001912 697319.000000 0 1 0
-5.351382 16.084389 13.531246 21.689617 -1.249610 0.897127 0.003586 -0.007142 -390788.000000 0 1 0
-4.679882 17.315989 13.582946 22.499804 -1.306839 0.922672 0.005855 -0.005884 -1118830.000000 0 1 0
-3.179082 17.246689 13.490746 22.125891 -1.388512 0.915081 0.005179 -0.009588 -561572.000000 0 1 0
-2.466782 16.741689 14.643346 22.378488 -1.424505 0.857475 0.006085 -0.009392 133482.000000 0 1 0
-2.362282 15.351889 14.445546 21.211663 -1.418118 0.821643 0.005056 -0.011210 -16377.500000 0 1 0
-1.566882 14.669589 15.646446 21.504958 -1.464388 0.756017 -0.007414 -0.012262 976694.000000 0 1 0
-0.169182 14.947589 15.683446 21.666322 -1.559478 0.761412 -0.006060 0.004383 197670.000000 0 1 0
0.499918 13.950989 16.437446 21.565473 1.534978 0.704074 -0.004662 -0.002836 -34611.600000 0 1 0
1.772618 14.440389 17.117746 22.465178 1.448653 0.704450 -0.008042 -0.011334 -180179.000000 0 1 0
1.465918 15.160289 18.293046 23.803756 1.474401 0.694312 -0.001055 -0.010643 -313615.000000 0 1 0
2.294718 16.297789 18.442846 24.718864 1.430916 0.728605 -0.007061 -0.014227 -668874.000000 0 1 0
1.559718 17.514989 18.939846 25.844251 1.481980 0.748301 -0.000861 -0.009417 -3865.540000 0 0 1
0.950218 18.273489 17.910346 25.604761 1.518843 0.796109 0.000225 -0.007972 162087.000000 0 0 1
-0.346082 17.793889 17.539046 24.987204 -1.551349 0.792705 0.000315 -0.006827 -194196.000000 0 1 0
-1.057882 18.708389 16.564046 25.009809 -1.514311 0.846909 0.000573 -0.008491 -633481.000000 0 0 1
-1.422482 19.896589 17.195446 26.335927 -1.499424 0.859353 0.000669 -0.001439 238855.000000 0 0 1
-2.165482 20.747089 16.272146 26.455883 -1.466798 0.908325 -0.000143 -0.007050 367234.000000 0 0 1
-2.769282 22.073389 16.868446 27.918594 -1.445990 0.922033 0.001275 -0.003357 116582.000000 0 0 1
-3.797182 21.868289 17.858346 28.487913 -1.398872 0.893261 -0.001796 0.001420 434170.000000 0 0 1
-4.385182 23.121889 18.126146 29.705365 -1.383367 0.914486 0.000599 -0.000130 244229.000000 0 0 1
-5.513882 23.122989 19.199146 30.556222 -1.336709 0.891402 -0.004558 0.006998 1052840.000000 0 0 1
-6.772382 22.549589 18.818646 30.141177 -1.279034 0.896497 -0.007791 0.003997 495058.000000 0 0 1
-7.508082 21.880589 19.850246 30.482187 -1.240247 0.861621 -0.013248 0.008349 94266.500000 0 0 1
-8.993082 22.169489 19.612246 30.935448 -1.185428 0.884116 -0.007539 0.002730 -432677.000000 0 0 1
-9.460282 23.426589 19.974046 32.206591 -1.186995 0.901818 -0.005788 0.007327 736987.000000 0 0 1
-10.728182 23.743489 19.347946 32.452891 -1.146416 0.932055 -0.013474 0.012106 865055.000000 0 0 1
-11.152682 25.213189 19.348246 33.681476 -1.154335 0.958867 -0.013028 0.014898 173539.000000 0 0 1
-11.779782 25.564389 20.600046 34.880698 -1.139007 0.939012 -0.011312 0.005024 24854.000000 0 0 1
-12.256982 26.879989 20.600346 36.015853 -1.142973 0.961879 -0.010240 0.011457 -513716.000000 0 0 1
-13.065382 27.213989 21.862746 37.273114 -1.123197 0.943997 0.006693 0.008729 -436141.000000 0 0 1
-14.312382 26.550189 21.778446 37.202923 -1.076384 0.945428 0.016072 0.009543 49930.900000 0 0 1
-15.133382 26.936989 22.861346 38.435163 -1.058934 0.933776 0.014822 0.010120 121731.000000 0 0 1
-16.624682 26.554289 22.858746 38.781859 -1.011432 0.940457 0.021938 0.014412 142256.000000 0 0 1
-16.823282 25.229289 23.251246 38.212043 -0.982691 0.916653 0.023597 0.012191 -746817.000000 0 0 1
-18.150582 24.845689 23.078446 38.462534 -0.939871 0.927265 0.028565 0.027105 -482943.000000 0 0 1
25.715018 24.283889 23.815853 42.639938 0.756783 0.978179 -0.011076 -0.005175 -156469.000000 0 0 1
25.584918 23.492789 24.955373 42.769964 0.742795 0.947790 -0.006794 -0.006596 271351.000000 0 0 1
25.586418 22.113689 24.664203 41.856934 0.712723 0.940666 -0.006407 0.001485 -480318.000000 0 0 1
25.425318 21.156589 25.878633 41.997044 0.694014 0.906886 0.005328 0.004760 -495479.000000 0 0 1
24.168818 21.407189 26.416623 41.716154 0.724878 0.885055 0.004077 -0.000542 -334501.000000 0 0 1
24.197118 20.924089 27.753403 42.350554 0.712986 0.856183 0.016367 -0.007960 37603.600000 0 0 1
22.909818 21.265889 28.523653 42.316623 0.748202 0.831114 0.013845 -0.008451 -122308.000000 0 0 1
22.705518 22.576289 28.937653 43.158048 0.782544 0.835908 0.010998 -0.003848 -673023.000000 0 0 1
21.550818 22.678789 29.692583 43.132525 0.810895 0.811511 0.014585 0.002593 -816530.000000 0 0 1
21.202318 23.985489 30.417843 44.159791 0.846912 0.810946 0.004683 -0.001244 -344857.000000 0 0 1
20.765918 25.084089 29.622993 44.022228 0.879302 0.832661 -0.011008 0.000960 157293.000000 0 0 1
20.600618 26.255689 30.436783 45.167958 0.905507 0.831379 -0.014346 0.000272 1122120.000000 0 0 1
19.122818 26.352589 30.999803 44.956967 0.943061 0.809937 -0.023222 0.003684 900795.000000 0 0 1
18.080318 26.672289 30.033593 44.049127 0.975078 0.820548 -0.022108 -0.000342 1333580.000000 0 0 1
16.839118 27.021789 30.648143 44.193231 1.013515 0.804456 -0.016605 0.001157 430901.000000 0 0 1
15.981718 26.028189 31.422023 43.820377 1.020135 0.771215 -0.025659 0.011392 -1479810.000000 0 0 1
16.513118 25.471889 32.596333 44.542352 0.995626 0.749829 -0.023461 0.006054 27465.500000 0 0 1
15.585718 24.658089 33.327339 44.290490 1.007127 0.718989 -0.031755 0.000925 234457.000000 0 0 1
16.066618 24.186889 -34.613041 45.179690 0.984455 2.443578 -0.027888 0.001352 -452766.000000 0 0 1
16.155718 25.364489 -33.799794 45.241470 1.003655 2.414481 -0.026928 0.003203 40957.700000 0 0 1
16.342318 25.039289 -32.429144 44.109939 0.992548 2.396742 -0.017184 0.005372 -164510.000000 0 0 1
16.910718 26.241789 -31.637824 44.447224 0.998354 2.362863 -0.009904 0.009670 -952907.000000 0 0 1
16.043918 27.294889 -31.693124 44.798129 1.039396 2.356702 0.002900 0.004487 -509649.000000 0 0 1
16.520518 28.561489 -31.226014 45.428516 1.046396 2.328652 0.011432 0.003108 -303235.000000 0 0 1
15.971718 28.970189 -29.881574 44.578875 1.066944 2.305420 0.020027 0.009210 -261467.000000 0 0 1
16.395718 28.129389 -28.828574 43.487570 1.043069 2.295502 0.010646 0.008974 84669.200000 0 0 1
15.888818 28.625989 -27.598954 42.820603 1.064085 2.271198 0.014664 0.010914 -68891.300000 0 0 1
16.277218 27.821889 -26.332294 41.622050 1.041441 2.255770 0.006879 0.026480 721045.000000 0 0 1
17.678818 28.035989 -26.106494 42.191306 1.008197 2.237966 0.016029 0.024479 273650.000000 0 0 1
18.119618 27.315289 -25.001854 41.225456 0.985093 2.222405 0.016821 0.023091 -293519.000000 0 0 1
19.648618 27.351489 -24.962254 41.919998 0.947844 2.208651 0.007115 0.022542 -171938.000000 0 0 1
20.227418 26.479589 -24.008254 41.069616 0.918467 2.195152 0.010310 0.021754 -166832.000000 0 0 1
21.609318 26.217289 -24.172054 41.696487 0.881449 2.189174 0.011432 0.022648 367152.000000 0 0 1
22.247218 26.210289 -22.750954 41.225282 0.867001 2.155400 0.017416 0.019251 92455.400000 0 0 1
21.794718 25.138189 -21.949454 39.858710 0.856517 2.153977 0.006884 0.021624 -74805.100000 0 0 1
22.410218 25.210889 -20.715854 39.584762 0.844142 2.121549 0.009992 0.007526 -325728.000000 0 0 1
22.140218 24.021389 -19.754754 38.176782 0.826127 2.114670 0.016071 -0.000850 -464253.000000 0 0 1
22.774718 22.789289 -20.071554 37.959277 0.785718 2.127942 0.015293 0.004504 94432.000000 0 0 1
22.540418 21.855789 -19.009154 36.702778 0.769978 2.115216 0.017795 0.001020 -588913.000000 0 0 1
22.611218 20.422289 -19.520854 36.185644 0.734576 2.140597 0.026779 -0.002443 745065.000000 0 0 1
21.758718 19.960289 -20.631654 36.021106 0.742317 2.180672 0.006933 -0.001229 2173080.000000 0 0 1
20.324118 20.105889 -20.380654 35.109651 0.780000 2.190121 0.002548 0.001219 1206520.000000 0 0 1
19.419518 19.912489 -21.612954 35.224206 0.797931 2.231386 0.008535 -0.003820 -109121.000000 0 0 1
19.649818 20.676189 -22.782954 36.505933 0.810844 2.244761 0.006628 0.003882 -53251.300000 0 0 1
19.703818 22.108489 -22.647654 37.281925 0.842846 2.223668 0.002849 0.012817 -37260.200000 0 0 1
19.225618 22.837589 -23.905854 38.244865 0.871058 2.246022 0.002511 0.017612 233516.000000 0 0 1
17.841118 22.798289 -24.188854 37.724901 0.906778 2.266845 0.015175 0.013066 -269625.000000 0 0 1
17.561018 23.024489 -25.539914 38.610926 0.919210 2.293572 0.012255 0.022995 559705.000000 0 0 1
16.012818 23.224689 -25.634344 38.117137 0.967170 2.308398 0.014682 0.009865 495208.000000 0 0 1
15.575218 24.279089 -24.810054 38.047343 1.000414 2.281126 0.004592 0.020722 126280.000000 0 0 1
14.153818 24.281989 -24.798754 37.482312 1.043050 2.293763 0.011538 0.020517 343846.000000 0 0 1
13.481618 25.417389 -24.052154 37.500717 1.083118 2.267090 -0.002579 0.028627 -101555.000000 0 0 1
13.501118 26.693689 -24.677654 38.779116 1.102536 2.260572 -0.003205 0.030991 -159152.000000 0 0 1
12.572018 27.601189 -24.144354 38.766365 1.143388 2.243135 -0.003935 0.031144 -43364.800000 0 0 1
12.530918 29.022789 -24.679454 40.105132 1.163213 2.233650 -0.005818 0.022591 88324.400000 0 0 1
12.179218 29.047789 -26.062374 40.882205 1.173779 2.262044 0.002129 0.015922 -130924.000000 0 0 1
11.618118 30.290689 -26.463434 41.866691 1.204547 2.255041 0.014898 0.008123 -210753.000000 0 0 1
12.434118 31.618289 -26.428064 43.043769 1.196116 2.231891 0.025522 0.000117 816998.000000 0 0 1
13.723218 31.547689 -27.071864 43.777496 1.160487 2.237497 0.019628 0.003831 925080.000000 0 0 1
14.445118 32.768589 -27.093464 44.905430 1.155601 2.218485 0.010015 0.001090 -108247.000000 0 0 1
15.835918 32.690289 -27.710514 45.687021 1.119688 2.222484 0.013275 0.010122 59979.000000 0 0 1
16.829818 32.030889 -26.942054 45.112026 1.087016 2.210834 0.008393 0.010162 291034.000000 0 0 1
18.099218 31.906189 -27.540674 45.870201 1.054796 2.214803 0.005324 0.010649 189468.000000 0 0 1
19.175918 31.072289 -26.788304 45.285938 1.017870 2.203760 0.009111 0.017762 -55490.100000 0 0 1
19.717318 31.598389 -25.570694 45.178437 1.012918 2.172434 0.024928 0.011029 149235.000000 0 0 1
20.584818 32.694189 -25.610474 46.352358 1.008884 2.156178 0.018430 -0.000352 -57369.200000 0 0 1
22.007818 32.597489 -26.211534 47.265049 0.976952 2.158636 0.014832 0.001566 -155510.000000 0 0 1
21.951918 32.303389 -27.580184 47.812783 0.973924 2.185648 0.005051 0.009079 259359.000000 0 0 1
23.235818 32.209789 -28.172444 48.693535 0.945858 2.187766 -0.003334 0.010453 -794985.000000 0 0 1
23.112618 31.305189 -29.439564 48.794425 0.934825 2.218477 -0.019837 0.012379 249075.000000 0 0 1
22.196718 31.843789 -30.422694 49.317963 0.962053 2.235554 -0.021459 0.005941 417862.000000 0 0 1
20.930318 31.236989 -30.270014 48.271124 0.980456 2.248599 -0.021119 0.006877 -281316.000000 0 0 1
19.787618 31.905489 -31.083264 48.740941 1.015660 2.262336 -0.024606 -0.000566 -402832.000000 0 0 1
19.318918 33.133889 -30.465644 48.981942 1.042929 2.242061 -0.015658 0.006089 11524.000000 0 0 1
18.565618 33.863389 -31.411214 49.780274 1.069297 2.253634 -0.020411 0.007968 1179190.000000 0 0 1
17.006918 33.555889 -31.432184 49.022598 1.101705 2.266828 -0.013526 0.002535 614661.000000 0 0 1
16.512418 32.341089 -31.893034 48.329821 1.098728 2.291487 -0.009680 0.001831 -75173.200000 0 0 1
16.862718 31.862889 -33.223764 49.024621 1.084041 2.315420 -0.011847 -0.004584 -746899.000000 0 0 1
16.373218 32.567789 -34.490847 50.183281 1.104957 2.328558 -0.006710 -0.003280 -443030.000000 0 0 1
16.847718 33.873089 -34.659261 51.307856 1.109249 2.312460 -0.017444 0.003525 -56448.600000 0 0 1
16.602318 34.509989 33.412656 50.823045 1.122393 0.853392 -0.008432 -0.000811 767798.000000 0 0 1
15.167418 -34.405220 33.031853 50.048707 -1.155581 0.849985 0.000322 -0.004397 853169.000000 0 0 1
14.202318 34.039889 32.812003 49.366460 1.175529 0.843755 0.011787 -0.005583 921872.000000 0 0 1
12.885218 34.548289 32.514413 49.160962 1.213813 0.848130 0.018025 -0.006710 805838.000000 0 0 1
12.621018 -34.204420 31.142663 47.948910 -1.217307 0.863874 0.007370 -0.000377 -897544.000000 0 0 1
13.285818 -32.969220 31.025293 47.181048 -1.187727 0.853195 0.005688 0.002888 244876.000000 0 0 1
12.823818 -32.309820 29.857383 45.823991 -1.192964 0.861149 0.010473 -0.002566 52034.400000 0 0 1
13.330818 -30.816120 29.735943 44.850533 -1.162512 0.845976 0.004226 -0.005507 -32608.900000 0 0 1
12.795718 -29.904620 30.659543 44.699265 -1.166485 0.814947 -0.001158 0.001401 379069.000000 0 0 1
13.424518 -28.625320 30.560123 43.972125 -1.132276 0.802392 0.002074 -0.000186 -222851.000000 0 0 1
12.792418 -27.813320 31.709053 44.075966 -1.139708 0.767832 0.003165 0.003544 12139.700000 0 0 1
11.439018 -27.467720 31.547173 43.365319 -1.176187 0.756162 0.008900 0.008637 -190514.000000 0 0 1
11.189018 -26.326620 30.710373 41.969180 -1.168919 0.749930 0.007492 0.008448 -383545.000000 0 0 1
11.464218 -24.948820 31.387243 41.701690 -1.140063 0.718702 0.010464 0.005719 552802.000000 0 0 1
10.521318 -24.559320 32.430603 42.019071 -1.166046 0.689119 0.004035 0.001201 608899.000000 0 0 1
10.940818 -23.359720 33.012223 41.894927 -1.132777 0.663281 -0.002224 -0.002478 199910.000000 0 0 1
9.927018 -22.827020 34.069881 42.194494 -1.160587 0.630982 -0.000896 -0.000013 -220828.000000 0 0 1
9.796518 -23.517820 -34.039304 42.517453 -1.176098 2.499086 -0.003762 0.003599 263393.000000 0 0 1
10.953818 -23.829620 -33.272504 42.366218 -1.139928 2.474065 -0.010001 0.002296 615165.000000 0 0 1
11.852118 -22.689820 -32.664364 41.500136 -1.089426 2.476874 -0.011343 -0.007075 130406.000000 0 0 1
12.371718 -21.814320 -33.635804 41.955825 -1.054891 2.500923 -0.015191 -0.000643 -92029.800000 0 0 1
13.269118 -20.864820 -33.136404 41.345272 -1.004357 2.500522 -0.016677 -0.003495 -189653.000000 0 0 1
13.378018 -19.678020 -34.111380 41.590649 -0.973725 2.532503 -0.022925 0.000551 -500745.000000 0 0 1
13.885418 -20.029120 33.996240 41.829593 -0.964607 0.621971 -0.009911 0.000360 141881.000000 0 0 1
13.653318 -19.066720 32.998063 40.482405 -0.949359 0.617858 -0.019141 0.003301 -174869.000000 0 0 1
14.476118 -17.725320 32.942053 40.111393 -0.885960 0.607173 -0.001488 -0.000655 -684784.000000 0 0 1
14.120418 -16.904120 33.984799 40.498174 -0.874884 0.575043 -0.005102 -0.001606 713466.000000 0 0 1
14.861118 -15.646320 33.983805 40.256169 -0.811131 0.565746 0.012241 0.000488 504293.000000 0 0 1
16.394118 -15.605720 34.209255 41.019249 -0.760766 0.584514 0.009772 0.004013 -118961.000000 0 0 1
17.155818 -16.165520 33.178863 40.699915 -0.755687 0.617710 0.011688 -0.000767 326452.000000 0 0 1
18.530418 -16.158920 33.589540 41.626245 -0.717140 0.631858 0.018861 0.001113 735812.000000 0 0 1
19.481618 -16.811720 32.526853 41.474855 -0.711966 0.669302 0.029978 -0.006916 -33268.200000 0 0 1
19.796118 -16.101320 31.321203 40.399958 -0.682833 0.683641 0.016709 0.000249 581880.000000 0 0 1
20.451218 -16.829320 30.287573 40.234505 -0.688550 0.718527 0.014733 -0.008483 -153148.000000 0 0 1
20.573818 -16.082620 28.954713 38.991128 -0.663484 0.733856 0.010102 -0.006184 -156632.000000 0 0 1
21.448618 -14.982120 29.111323 39.140469 -0.609727 0.732110 0.003610 0.002685 331305.000000 0 0 1
21.492518 -14.191920 27.920833 37.985680 -0.583595 0.745077 -0.000036 0.004782 61369.800000 0 0 1
22.241318 -12.840220 28.031343 38.017150 -0.523571 0.741681 -0.007149 0.005486 553945.000000 0 0 1
21.462518 -11.845920 28.758653 37.789227 -0.504328 0.705900 -0.004535 0.002079 1011120.000000 0 0 1
22.288218 -10.731720 29.129103 38.215692 -0.448736 0.704047 -0.009467 0.002240 342716.000000 0 0 1
21.516018 -9.390420 29.260093 37.513625 -0.411519 0.676153 -0.006673 -0.001288 537120.000000 0 0 1
20.481218 -9.465720 30.243033 37.732230 -0.432925 0.640968 -0.000997 -0.004636 -41482.700000 0 0 1
19.511018 -8.486820 30.030993 36.804436 -0.410290 0.616406 0.006256 -0.005026 -351487.000000 0 0 1
18.366318 -8.419320 31.053153 37.047333 -0.429826 0.576818 -0.000934 0.004660 -338935.000000 0 0 1
18.636518 -7.954120 32.369903 38.188984 -0.403397 0.559305 -0.005088 0.002554 164801.000000 0 0 1
19.090518 -8.996820 33.277473 39.405341 -0.440402 0.565181 0.005364 0.000905 -364822.000000 0 0 1
19.042818 -8.477620 -34.662815 40.447617 -0.418844 2.600178 0.006482 -0.007698 -36205.200000 0 0 1
17.761118 -8.238320 -34.109269 39.328990 -0.434304 2.620510 0.003824 -0.009708 128238.000000 0 0 1
17.875118 -7.712320 -32.794574 38.137695 -0.407326 2.605869 0.006555 -0.012379 -429781.000000 0 0 1
16.595418 -7.239320 -32.121144 36.872531 -0.411339 2.628316 0.007651 -0.011414 -456051.000000 0 0 1
16.905518 -6.659920 -30.873004 35.823086 -0.375280 2.609641 0.006720 -0.009782 13218.000000 0 0 1
15.793118 -6.022020 -30.297954 34.693707 -0.364288 2.632728 0.008961 -0.004571 -176280.000000 0 0 1
16.106818 -4.990220 -29.180734 33.702331 -0.300442 2.617618 0.010066 -0.001365 -321761.000000 0 0 1
16.690618 -5.448120 -27.962824 33.017848 -0.315514 2.580925 0.011602 -0.000322 197275.000000 0 0 1
16.049818 -6.501720 -27.202704 32.246800 -0.384892 2.574709 0.020186 -0.003621 -388909.000000 0 0 1
14.749418 -6.072620 -26.524524 30.951130 -0.390568 2.600179 0.006710 -0.002572 -473650.000000 0 0 1
14.841918 -4.984820 -25.660384 30.059712 -0.324024 2.593744 -0.000574 0.007170 -601699.000000 0 0 1
13.653418 -4.826020 -24.920854 28.822825 -0.339759 2.615194 0.003155 0.002032 -90696.400000 0 0 1
13.503718 -3.533320 -24.048354 27.805720 -0.255918 2.615689 0.006676 0.003152 -6460.200000 0 0 1
13.375318 -2.330320 -24.815254 28.286505 -0.172494 2.640967 0.004082 0.007045 113113.000000 0 0 1
12.834818 -1.293320 -23.986554 27.235271 -0.100428 2.648169 0.001551 0.006040 102004.000000 0 0 1
13.073318 0.183680 -24.419954 27.699811 0.014049 2.650022 0.004307 0.002733 -99662.000000 0 0 1
12.339318 0.568680 -25.564004 28.391908 0.046054 2.691479 0.005785 0.002037 -19979.900000 0 0 1
12.914818 1.754680 -25.960874 29.048897 0.135039 2.676312 0.015229 0.004065 260822.000000 0 0 1
12.202418 2.465680 -27.193684 29.907775 0.199380 2.712278 0.016581 0.004724 446799.000000 0 0 1
10.960118 3.091680 -26.907704 29.218268 0.274941 2.741232 0.007752 -0.000792 103530.000000 0 0 1
10.427818 3.584680 -28.115524 30.200530 0.331106 2.767833 0.001651 0.004643 174813.000000 0 0 1
9.196018 4.463680 -27.768054 29.589796 0.451894 2.788864 0.004569 0.004010 151408.000000 0 0 1
9.560918 5.620680 -27.063034 29.247410 0.531461 2.752659 0.009795 -0.009648 812821.000000 0 0 1
8.370418 6.399680 -26.831854 28.826519 0.652754 2.767404 0.011382 -0.008865 739949.000000 0 0 1
7.433418 4.789989 -32.013064 33.211985 0.572418 2.872081 0.002083 -0.002356 -98286.600000 0 0 1
7.375818 4.001989 -30.853744 31.974554 0.497130 2.876037 -0.003590 0.008840 441255.000000 0 0 1
7.118118 2.716989 -31.322424 32.235755 0.364632 2.902981 -0.007154 0.012618 -311705.000000 0 0 1
6.952018 1.686089 -30.221564 31.056664 0.237938 2.909167 -0.005453 0.013258 105398.000000 0 0 1
8.152318 1.459989 -29.496144 30.636814 0.177210 2.867858 -0.001025 0.007228 460822.000000 0 0 1
7.847318 0.437489 -28.579564 29.640568 0.055692 2.873222 -0.007685 0.009698 347382.000000 0 0 1
9.048618 -0.135311 -27.759724 29.197570 -0.014953 2.826458 -0.004594 0.008106 -183384.000000 0 0 1
9.830118 -1.006611 -28.438294 30.106163 -0.102045 2.807171 0.015505 0.009737 -985398.000000 0 0 1
10.857418 -1.498411 -27.651014 29.744030 -0.137142 2.764210 0.008626 0.007438 -160616.000000 0 0 1
11.688318 -2.657811 -28.265184 30.701814 -0.223588 2.740502 0.005945 0.008986 245451.000000 0 0 1
10.946618 -3.877711 -28.385274 30.669021 -0.340446 2.753244 0.002868 0.008001 125226.000000 0 0 1
11.714618 -4.973211 -28.843744 31.526603 -0.401473 2.726061 0.004045 0.006219 -248004.000000 0 0 1
11.169618 -6.346711 -28.320154 31.097785 -0.516718 2.715725 -0.008809 0.007321 -76916.600000 0 0 1
11.288918 -6.376911 -26.914164 29.874352 -0.514197 2.692663 -0.006326 0.004706 -14310.000000 0 0 1
10.806718 -7.528211 -26.333714 29.443567 -0.608456 2.677838 -0.001702 -0.000009 -314027.000000 0 0 1
10.207818 -7.253111 -24.951054 27.917061 -0.617768 2.676448 -0.003347 -0.002323 -362358.000000 0 0 1
11.170518 -6.823611 -24.013754 27.349635 -0.548366 2.642523 -0.004017 -0.001222 4989.420000 0 0 1
10.709818 -6.837611 -22.632754 25.955629 -0.568208 2.630026 -0.008594 -0.002198 -154065.000000 0 0 1
11.845118 -7.026911 -21.613554 25.628695 -0.535429 2.574254 -0.010485 -0.004291 -13683.000000 0 0 1
12.583718 -5.821611 -21.460954 25.550219 -0.433308 2.567991 -0.010564 -0.005390 -1425830.000000 0 0 1
13.747118 -6.162611 -20.836854 25.712556 -0.421426 2.515591 -0.010449 -0.003428 -1365570.000000 0 0 1
14.212618 -5.011211 -19.937254 24.992096 -0.338979 2.494338 -0.009047 -0.004337 -224902.000000 0 1 0
14.793418 -3.956211 -20.698454 25.747288 -0.261315 2.504634 -0.008696 -0.004971 51157.000000 0 0 1
15.337218 -2.970511 -19.836754 25.249772 -0.191311 2.474496 -0.013775 -0.003438 -774417.000000 0 0 1
16.200218 -1.999911 -20.590754 26.275956 -0.122828 2.471292 -0.007934 -0.000002 -924053.000000 0 0 1
17.363018 -2.655411 -20.978154 27.360712 -0.151759 2.444521 -0.009773 0.001034 -509445.000000 0 0 1
18.323218 -1.730311 -21.479054 28.285757 -0.094154 2.433124 -0.009161 0.000722 -280232.000000 0 0 1
19.631118 -2.365811 -21.902954 29.507919 -0.119935 2.407254 -0.001682 0.004030 -1248910.000000 0 0 1
20.553018 -2.699211 -20.851354 29.402232 -0.130582 2.359125 -0.002852 0.008519 1429530.000000 0 0 1
21.775918 -3.323411 -21.306454 30.646381 -0.151450 2.339544 -0.001647 0.004879 922488.000000 0 0 1
22.710718 -2.560411 -22.251454 31.897643 -0.112266 2.342824 0.009177 0.002670 -1648340.000000 0 0 1
22.273618 -2.526511 -23.587754 32.540428 -0.112948 2.381650 0.006772 -0.001563 98957.700000 0 0 1
22.999518 -1.695211 -24.519354 33.660813 -0.073573 2.386816 0.017773 0.004433 -670138.000000 0 0 1
24.204818 -2.352111 -25.135694 34.974402 -0.096871 2.372710 0.011333 -0.002705 -720761.000000 0 0 1
25.180718 -2.604611 -24.058754 34.923863 -0.103070 2.330755 0.011706 0.001371 683457.000000 0 0 1
26.380018 -3.277511 -24.399654 36.083106 -0.123609 2.313398 -0.000379 0.004183 334239.000000 0 0 1
27.406618 -2.422411 -25.163964 37.285599 -0.088159 2.311622 -0.007651 0.002164 -1012600.000000 0 0 1
26.925018 -1.943011 -26.385954 37.748516 -0.072039 2.344785 -0.016117 0.001760 -409801.000000 0 0 1
27.819318 -1.144111 -27.112694 38.862857 -0.041103 2.342909 -0.018100 0.002713 -946758.000000 0 0 1
27.225418 -0.812911 -28.471584 39.401971 -0.029850 2.378342 -0.023961 0.001893 -764013.000000 0 0 1
25.928518 -0.334511 -28.462824 38.503666 -0.012901 2.402713 -0.016350 0.002830 -721664.000000 0 0 1
25.797218 1.003289 -27.989214 38.077541 0.038872 2.396549 -0.013851 0.004754 -1575410.000000 0 0 1
24.379118 1.522589 -28.152254 37.272095 0.062374 2.426934 -0.014272 0.000975 -625711.000000 0 0 1
23.503018 0.818889 -27.295334 36.029123 0.034828 2.430411 -0.007381 0.002238 -239837.000000 0 0 1
22.162418 1.003589 -27.679094 35.472697 0.045252 2.465930 -0.007159 0.004585 -156707.000000 0 0 1
21.136218 0.821089 -26.548434 33.944561 0.038828 2.468844 0.002058 0.001556 -166966.000000 0 0 1
20.953018 1.975589 -25.787274 33.285363 0.094009 2.457089 0.010112 -0.000514 238143.000000 0 0 1
19.990918 1.807589 -24.762554 31.876139 0.090175 2.460423 0.012641 -0.002052 -233683.000000 0 0 1
20.333418 2.291089 -23.315154 31.020854 0.112203 2.421275 0.009533 0.002823 -343660.000000 0 0 1
20.055818 3.656089 -23.075054 30.790598 0.180316 2.417980 0.005262 -0.003596 249696.000000 0 0 1
20.440818 4.003289 -21.800154 30.151287 0.193400 2.378968 0.002378 0.003003 -297545.000000 0 0 1
19.929118 5.448989 -21.342454 29.704572 0.266895 2.372426 0.002385 0.003338 -129928.000000 0 0 1
20.563418 6.513789 -22.026654 30.829484 0.306766 2.366659 0.009329 0.001435 219889.000000 0 0 1
20.180918 7.802789 -21.678654 30.628696 0.368938 2.357160 0.009524 -0.006128 -324393.000000 0 0 1
20.527518 8.240989 -20.199354 29.955080 0.381765 2.310842 0.012897 0.006471 -1043580.000000 0 0 1
21.887818 8.438689 -20.001954 30.828010 0.367981 2.276834 0.032559 0.015209 -376622.000000 0 0 1
22.293718 8.569489 -18.656454 30.306918 0.366978 2.233923 0.015310 0.009529 -140620.000000 0 0 1
22.252718 10.062589 -18.075854 30.383806 0.424679 2.207959 0.025844 0.002021 360672.000000 0 0 1
20.925018 10.509289 -17.779754 29.401041 0.465434 2.220226 0.015888 -0.000781 607389.000000 0 0 1
20.825218 11.865189 -17.483454 29.667214 0.517881 2.201012 0.009624 -0.002802 -900999.000000 0 0 1
19.393418 12.308889 -17.150354 28.666148 0.565540 2.212148 0.011710 -0.009126 29784.000000 0 0 1
18.536318 12.303289 -18.289454 28.800523 0.585973 2.258855 0.002881 -0.009393 363599.000000 0 0 1
17.908318 11.043189 -18.503554 28.018590 0.552573 2.292151 0.003942 -0.012199 -850212.000000 0 0 1
17.133718 10.827889 -19.809454 28.341170 0.563591 2.344744 -0.011346 -0.009342 -301088.000000 0 0 1
17.888818 10.920889 -20.985054 29.658862 0.548095 2.356818 -0.004553 -0.007253 239783.000000 0 0 1
17.032718 10.811889 -22.115554 29.935066 0.565595 2.402061 -0.006005 -0.005556 -26161.000000 0 0 1
17.822918 10.923589 -23.424954 31.396014 0.549848 2.413000 0.004176 -0.006794 -61477.400000 0 0 1
18.296818 12.242389 -23.557454 32.242879 0.589685 2.390033 0.008881 -0.004200 236756.000000 0 0 1
19.287218 12.382889 -24.566854 33.598557 0.570749 2.390858 0.011924 -0.009649 12947.300000 0 0 1
19.874718 13.721389 -24.903954 34.691322 0.604250 2.371538 0.012894 -0.016112 -184643.000000 0 0 1
20.562918 13.708189 -26.159094 35.986751 0.587988 2.384607 0.013664 -0.024290 180039.000000 0 0 1
20.668218 15.023089 -26.655994 36.924388 0.628532 2.377351 0.014738 -0.022269 463071.000000 0 0 1
19.383918 15.589589 -27.356384 36.974901 0.677329 2.403664 0.014672 -0.025483 544204.000000 0 0 1
18.279118 15.823989 -26.516524 35.883852 0.713531 2.402313 0.018314 -0.026946 236802.000000 0 0 1
17.094118 16.076589 -27.294164 35.994958 0.754732 2.431463 0.012461 -0.027452 538972.000000 0 0 1
15.813718 15.635489 -26.577734 34.654266 0.779731 2.444855 0.001526 -0.026364 -310908.000000 0 0 1
15.651218 14.244189 -26.534574 33.940259 0.738368 2.468348 -0.003044 -0.014218 391694.000000 0 0 1
14.292818 13.852589 -26.370194 33.038856 0.769758 2.495026 -0.004509 -0.015663 214668.000000 0 0 1
14.130118 12.320789 -26.297164 32.295555 0.717101 2.522259 -0.006052 -0.011595 1187150.000000 0 0 1
12.761718 11.827189 -26.262404 31.503297 0.747410 2.556462 -0.006612 -0.008863 1270550.000000 0 0 1
12.784418 10.430189 -26.034484 30.822468 0.684332 2.576725 -0.006287 -0.008169 71154.000000 0 0 1
11.379918 9.838489 -25.823454 29.885601 0.712880 2.614110 -0.007203 -0.002367 206313.000000 0 0 1
10.636818 10.316489 -24.707054 28.809900 0.770112 2.601360 -0.004225 -0.004204 243646.000000 0 0 1
9.352918 9.729889 -24.595854 28.055371 0.805150 2.639733 0.005954 -0.003539 91173.300000 0 0 1
8.561218 10.360989 -23.441154 27.020959 0.880227 2.620986 0.010069 0.003837 -46762.600000 0 0 1
7.988118 11.633689 -23.835054 27.699504 0.969095 2.607020 0.003755 0.006663 364037.000000 0 0 1
7.173118 12.237689 -22.820154 26.869575 1.040623 2.585442 0.006816 0.013639 168227.000000 0 0 1
7.961818 13.100989 -21.869954 26.708076 1.024715 2.530204 0.007411 0.013354 306089.000000 0 0 1
8.790318 12.395289 -20.934854 25.868533 0.953945 2.513720 0.012139 0.005271 -209574.000000 0 0 1
9.584618 13.149889 -20.102054 25.862657 0.940953 2.461098 0.010571 0.005224 -417144.000000 0 0 1
10.538218 12.284589 -19.226954 25.132467 0.861768 2.441876 0.007980 -0.002113 966099.000000 0 0 1
11.676518 11.629589 -19.863854 25.810097 0.783385 2.449035 0.007086 -0.009892 1113050.000000 0 0 1
11.261818 10.551789 -20.705254 25.823949 0.752860 2.501072 0.008364 -0.006356 -488116.000000 0 0 1
12.313918 9.981389 -21.683454 26.859503 0.681158 2.510345 0.005590 -0.007355 113656.000000 0 0 1
13.163418 9.028789 -21.045354 26.414040 0.601200 2.492692 0.016090 -0.013402 265829.000000 0 0 1
14.110518 8.531589 -21.993654 27.488462 0.543814 2.498266 0.013301 -0.012110 -80758.200000 0 0 1
14.690718 7.187389 -21.566954 27.066756 0.455008 2.492787 0.021582 -0.006570 -344108.000000 0 0 1
15.541218 7.311289 -20.483454 26.731186 0.439725 2.443821 -0.005445 -0.009146 -346317.000000 0 0 1
15.970018 6.094489 -19.968154 26.285194 0.364562 2.433607 -0.009005 -0.007261 31043.300000 0 0 1
16.796318 6.066189 -18.662554 25.830329 0.346584 2.378216 -0.006441 -0.008964 -1031590.000000 0 0 1
18.109318 6.490689 -18.836554 26.923822 0.344154 2.345668 -0.008436 -0.012446 -567503.000000 0 0 1
18.739918 6.813289 -17.616854 26.607499 0.348713 2.294415 -0.002818 0.003644 -239560.000000 0 0 1
19.360618 5.647089 -16.815354 26.257937 0.283806 2.265804 0.000502 -0.000674 -989395.000000 0 0 1
20.574618 5.213789 -17.355454 27.417336 0.248184 2.256232 0.003175 0.003352 -117401.000000 0 0 1
21.177418 4.336089 -16.450254 27.164233 0.201959 2.221297 0.007253 -0.000890 -414185.000000 0 0 1
22.591718 3.855189 -16.836654 28.438023 0.169018 2.204393 0.004354 0.019864 -5266.660000 0 0 1
23.126518 2.808489 -15.989954 28.256010 0.120848 2.172316 0.003574 0.013788 560927.000000 0 0 1
24.366418 2.408989 -16.582054 29.571778 0.098545 2.166075 0.009985 0.011848 359362.000000 0 0 1
25.016018 1.249189 -15.823954 29.627001 0.049894 2.134246 0.012758 0.003235 -79014.300000 0 0 1
24.436518 0.011189 -16.113154 29.270758 0.000458 2.153743 0.018523 -0.002746 -129236.000000 0 0 1
25.461718 -0.947511 -15.964754 30.067761 -0.037196 2.130528 0.013033 0.001338 -38694.600000 0 0 1
25.217618 -2.441611 -16.300154 30.126147 -0.096521 2.142497 0.015335 0.001956 -331688.000000 0 0 1
24.500518 -3.084311 -15.262254 29.029722 -0.125229 2.124388 0.017773 0.001666 385789.000000 0 0 1
24.449118 -4.481111 -15.422054 29.252000 -0.181271 2.126114 0.015148 -0.000326 -792159.000000 0 0 1
23.870518 -5.224411 -14.127654 28.225639 -0.215467 2.095002 0.012876 0.001454 1054460.000000 0 0 1
22.477418 -5.052011 -13.804154 26.857249 -0.221085 2.110617 0.012840 0.004032 553585.000000 0 0 1
21.653418 -5.675611 -14.746954 26.805890 -0.256345 2.153326 0.013608 0.001317 -464967.000000 0 0 1
20.153918 -5.599911 -14.308654 25.343185 -0.271021 2.170740 0.009973 -0.000515 271561.000000 0 0 1
19.735618 -6.525511 -13.273454 24.662958 -0.319330 2.139089 0.001779 0.004575 569271.000000 0 1 0
20.222218 -6.253711 -11.941554 24.303245 -0.299921 2.084443 0.008573 0.005290 -447431.000000 0 1 0
19.949418 -7.468711 -10.982954 23.966356 -0.358229 2.046839 0.005851 0.005741 616448.000000 0 1 0
18.582118 -7.915511 -11.004854 23.001245 -0.402696 2.069681 0.005466 0.004218 1259610.000000 0 1 0
18.333518 -8.986211 -11.904054 23.634221 -0.455738 2.098648 -0.000153 0.002666 -1326060.000000 0 1 0
16.926118 -9.470811 -11.709154 22.655993 -0.510137 2.113933 0.011192 -0.001820 -970325.000000 0 1 0
15.965118 -8.554711 -12.156954 21.814207 -0.491905 2.161921 0.010549 0.004920 728518.000000 0 1 0
14.655018 -9.109011 -12.429554 21.265875 -0.556124 2.195040 0.007728 0.002496 1008430.000000 0 1 0
13.671818 -7.978011 -12.804854 20.360048 -0.528226 2.250960 0.009007 0.002066 -516050.000000 0 1 0
13.912518 -7.152911 -13.955154 20.963507 -0.474891 2.299212 0.005325 0.002274 20105.500000 0 1 0
14.937918 -6.188711 -13.863354 21.298689 -0.392769 2.279568 0.004050 0.002351 -188551.000000 0 1 0
14.750618 -5.069811 -14.897754 21.569117 -0.331053 2.333251 -0.011326 0.000236 -710409.000000 0 1 0
13.779518 -4.162411 -14.537854 20.458494 -0.293357 2.361150 -0.000401 -0.004398 -695769.000000 0 1 0
13.470918 -3.103011 -15.461654 20.740228 -0.226400 2.412068 -0.001197 -0.009976 -68779.000000 0 1 0
14.498518 -1.941811 -15.733254 21.482852 -0.133139 2.392583 -0.007088 -0.003692 81438.500000 0 1 0
15.565918 -2.416211 -16.547154 22.846098 -0.153995 2.380797 -0.011688 0.002186 637722.000000 0 1 0
16.720618 -1.562811 -16.532254 23.565587 -0.093195 2.348356 0.005401 0.004977 454414.000000 0 1 0
17.791818 -1.907211 -15.499354 23.673112 -0.106788 2.284614 0.002240 0.004670 -1475850.000000 0 1 0
17.332418 -1.888811 -14.182054 22.474674 -0.108547 2.253669 -0.002434 0.007317 -240971.000000 0 1 0
18.334518 -2.487211 -13.414854 22.853864 -0.134834 2.198125 0.000132 0.016005 -270333.000000 0 1 0
18.004218 -2.769811 -11.919954 21.769452 -0.152646 2.150235 0.002642 0.016594 -399335.000000 0 1 0
17.867718 -1.605611 -11.107954 21.100237 -0.089620 2.125201 0.008373 0.007453 802314.000000 0 1 0
17.295418 -1.927211 -9.830754 19.987230 -0.110971 2.085012 0.003036 0.005421 -1599500.000000 0 1 0
17.231618 -0.750911 -8.756354 19.343378 -0.043550 2.040565 -0.001576 0.003963 414715.000000 0 1 0
18.440918 -0.323211 -8.091654 20.140675 -0.017525 1.984231 -0.003800 0.004057 1064370.000000 0 1 0
19.539118 0.041289 -8.892554 21.467565 0.002113 1.997895 0.000135 0.001426 -561261.000000 0 1 0
19.524818 1.317389 -9.789354 21.881168 0.067370 2.034638 0.008616 -0.001237 -735294.000000 0 1 0
19.247818 2.497089 -9.057654 21.418568 0.129013 2.007426 0.005120 0.003667 906045.000000 0 1 0
18.757018 3.523789 -9.937454 21.517337 0.185701 2.050859 -0.001116 0.001484 -68668.500000 0 1 0
18.541918 4.818689 -9.063954 21.193814 0.254256 2.012710 0.002974 0.001448 301088.000000 0 1 0
17.883918 5.874489 -9.842154 21.241755 0.317375 2.052557 0.005269 0.000859 955317.000000 0 1 0
18.319018 7.085189 -9.309054 21.735796 0.369047 2.013387 0.018333 -0.006961 -283305.000000 0 1 0
-24.908582 -29.723181 6.103646 39.257604 0.873299 1.414686 0.017077 -0.010418 -82738.600000 0 0 1
-25.120532 -28.525111 6.799946 38.612982 0.848777 1.393768 0.021896 -0.009068 547006.000000 0 0 1
-23.934582 -27.694481 6.837146 37.237012 0.858095 1.386137 0.026607 -0.009127 174982.000000 0 0 1
-24.073382 -26.537351 7.804646 36.669759 0.834044 1.356320 0.030494 -0.003973 127336.000000 0 0 1
-25.119412 -25.623261 7.375046 36.632331 0.795327 1.368085 0.017062 -0.005176 1335470.000000 0 0 1
-26.462262 -26.033991 7.669746 37.905738 0.777240 1.367052 0.013133 -0.004610 315132.000000 0 0 1
-26.921192 -26.093561 9.168946 38.596555 0.769788 1.330945 0.016860 -0.006307 -645594.000000 0 0 1
-26.188322 -27.021211 9.891746 38.907849 0.801050 1.313739 0.016735 -0.006795 -74547.600000 0 0 1
-26.778032 -27.253161 11.180246 39.809492 0.794192 1.286123 0.021466 -0.009486 92394.900000 0 0 1
-25.823232 -28.206851 11.958946 40.068468 0.829486 1.267715 0.022259 -0.003863 658875.000000 0 0 1
-24.631482 -27.674281 12.501046 39.100536 0.843506 1.245367 0.021913 -0.007561 -5918.190000 0 0 1
-24.830782 -26.805621 13.593246 38.985708 0.823625 1.214642 0.029760 -0.008160 -465918.000000 0 0 1
-23.494382 -26.290651 14.166846 37.998472 0.841506 1.188743 0.023024 -0.006369 181804.000000 0 0 1
-22.764982 -27.229131 14.925646 38.502531 0.874455 1.172712 0.016824 -0.002197 -883700.000000 0 0 1
-21.679482 -26.651121 15.548246 37.709815 0.887905 1.145805 0.010044 -0.001969 -366023.000000 0 0 1
-20.838382 -27.708531 16.340146 38.327552 0.925980 1.130366 0.003700 -0.004144 67994.400000 0 0 1
-21.599782 -28.415561 17.320346 39.673531 0.920838 1.119012 0.006258 0.005337 170879.000000 0 0 1
-20.920882 -29.577081 17.767646 40.350666 0.955165 1.114829 0.000139 0.010285 -236390.000000 0 0 1
-21.732882 -30.553571 18.637546 41.871195 0.952524 1.109492 0.007670 0.006638 -490247.000000 0 0 1
-22.837382 -31.045781 17.928546 42.506697 0.936573 1.135387 -0.003688 0.008815 -140902.000000 0 0 1
-23.367982 -32.147081 18.644946 43.899105 0.942238 1.132141 -0.001134 0.004227 -333089.000000 0 0 1
-24.330982 -33.086031 17.912746 44.805676 0.936714 1.159511 -0.010528 0.005166 -247816.000000 0 0 1
-23.736582 -33.907651 16.975046 44.735962 0.960046 1.181595 -0.011117 0.002565 -417569.000000 0 0 1
-24.692982 -34.732304 16.407246 45.664801 0.952758 1.203281 -0.013117 0.002251 -816475.000000 0 0 1
-24.216082 34.129048 15.067546 44.477427 -0.953693 1.225189 -0.014657 -0.001100 126007.000000 0 0 1
-23.098582 33.240377 15.077046 43.194728 -0.963505 1.214241 -0.018492 -0.002515 178595.000000 0 0 1
-21.952782 34.028515 14.819746 43.121797 -0.997853 1.219972 -0.008321 -0.000554 -1126950.000000 0 0 1
-20.683482 33.193367 14.821746 41.824517 -1.013549 1.208546 0.007044 -0.007821 -524884.000000 0 0 1
-20.591882 32.224077 13.755646 40.640307 -1.002178 1.225503 0.007434 -0.008423 172352.000000 0 0 1
-19.330582 31.572517 13.810546 39.512358 -1.021411 1.213733 0.008248 -0.006254 376370.000000 0 0 1
-19.166882 30.751817 12.555946 38.349647 -1.013437 1.237238 0.004862 -0.006387 110361.000000 0 0 1
-18.747582 31.570947 11.486346 38.472493 -1.034930 1.267613 -0.001797 -0.001373 7346.160000 0 0 1
-19.082082 30.973307 10.239946 37.793228 -1.018636 1.296420 0.001783 -0.001951 63134.100000 0 0 1
-18.471382 31.767347 9.051946 37.845661 -1.044122 1.329275 -0.007147 -0.003285 1225320.000000 0 0 1
-17.089282 31.430007 8.745146 36.828881 -1.072784 1.331053 -0.012025 -0.006287 1081940.000000 0 0 1
-16.757082 31.819387 7.442346 36.724130 -1.086071 1.366727 -0.016503 -0.012306 -78595.600000 0 0 1
-16.108382 30.756267 6.518246 35.325847 -1.088335 1.385215 -0.020863 -0.009898 -656096.000000 0 0 1
-16.876782 29.637427 6.131546 34.652543 -1.053149 1.392916 -0.017453 -0.000955 -224446.000000 0 0 1
-17.098482 28.627567 7.056646 34.083602 -1.032384 1.362249 -0.024997 -0.000201 -218561.000000 0 0 1
-18.239982 27.669797 6.629046 33.797321 -0.987979 1.373375 -0.021149 0.011416 -250620.000000 0 0 1
-17.882582 26.913487 5.507846 32.778940 -0.984332 1.401965 -0.023026 0.007510 225325.000000 0 0 1
-18.983782 26.382667 4.798146 32.855004 -0.947066 1.424232 -0.016450 0.008066 -1092300.000000 0 0 1
-18.598482 25.625637 3.467846 31.852830 -0.942979 1.461709 -0.010447 -0.005368 -889762.000000 0 0 1
-18.202982 26.361917 2.325946 32.120231 -0.966473 1.498319 -0.008843 0.001010 1023030.000000 0 0 1
-16.844482 26.801027 2.226346 31.733078 -1.009683 1.500580 -0.006982 -0.002329 1132790.000000 0 0 1
-15.595782 25.836267 2.281046 30.264572 -1.027705 1.495355 -0.005300 -0.007157 262095.000000 0 0 1
-15.446982 24.805647 1.338546 29.252711 -1.013838 1.525022 -0.002786 -0.005480 41585.600000 0 0 1
-15.310082 25.216517 -0.045754 29.500397 -1.025140 1.572347 -0.001310 -0.001196 -133394.000000 0 0 1
-15.106482 23.968297 -0.927254 28.346867 -1.008417 1.603513 0.003643 -0.003209 -296289.000000 0 0 1
-16.266182 23.206097 -1.103854 28.360714 -0.959437 1.609728 -0.002782 -0.009643 -301227.000000 0 0 1
-16.033582 22.012197 -1.928454 27.300760 -0.941266 1.641493 0.002421 -0.008772 -246119.000000 0 0 1
-15.149282 20.887597 -1.410254 25.841464 -0.943307 1.625397 0.005217 -0.010476 -80626.900000 0 0 1
-15.808182 20.141297 -0.396454 25.607180 -0.905353 1.586279 0.014876 -0.016135 -174014.000000 0 0 1
-14.937882 19.194197 0.163346 24.322504 -0.909459 1.564080 0.029906 -0.021884 -520814.000000 0 1 0
-15.554182 18.060297 1.032546 23.857348 -0.859815 1.527503 0.026185 -0.020134 247224.000000 0 1 0
-16.333882 17.077997 0.339646 23.634065 -0.807665 1.556425 0.025451 -0.017297 406839.000000 0 1 0
-16.731382 16.096997 1.260646 23.251703 -0.766076 1.516552 0.015729 -0.028970 37890.800000 0 1 0
-17.425682 14.883397 0.549346 22.923169 -0.706874 1.546829 0.029672 -0.022639 280668.000000 0 1 0
-18.504482 15.257997 -0.314754 23.985858 -0.689536 1.583919 0.044854 -0.024051 935669.000000 0 1 0
-19.237482 14.139097 -0.807554 23.888217 -0.633817 1.604608 0.027965 -0.010662 -1871.520000 0 1 0
-20.236782 14.410997 -1.981854 24.922518 -0.618813 1.650401 0.026040 -0.002960 92681.100000 0 1 0
-21.300782 13.494097 -2.241654 25.314798 -0.564690 1.659464 0.019911 0.000935 1441760.000000 0 0 1
-22.328882 13.345697 -1.245554 26.043003 -0.538718 1.618641 0.005363 0.005945 -486462.000000 0 0 1
-23.240882 14.523497 -0.957154 27.422376 -0.558536 1.605708 -0.023422 0.005929 -1276000.000000 0 0 1
-22.702682 15.736297 -0.483654 27.627463 -0.606112 1.588303 -0.026846 -0.003971 -667613.000000 0 0 1
-23.758982 16.551397 -0.143154 28.956147 -0.608466 1.575740 -0.031941 -0.006106 -699072.000000 0 0 1
-23.442882 17.673897 0.786946 29.369280 -0.646001 1.543998 -0.028246 -0.011456 -11413.800000 0 0 1
-22.955482 17.232997 2.046246 28.777030 -0.643958 1.499629 -0.028280 -0.016305 229296.000000 0 0 1
-22.615582 18.255797 2.951846 29.213902 -0.679129 1.469581 -0.030039 -0.020038 -329653.000000 0 0 1
-23.829782 18.924897 3.588046 30.641219 -0.671176 1.453428 -0.012399 -0.025676 -328654.000000 0 0 1
-24.661082 18.051297 4.393146 30.875849 -0.631865 1.428028 -0.011528 -0.020434 80825.900000 0 0 1
-25.982722 18.517997 4.414646 32.210358 -0.619202 1.433307 -0.007411 -0.022522 -283447.000000 0 0 1
-26.895622 18.008297 3.235846 32.529125 -0.590005 1.471156 -0.004704 -0.011736 -639569.000000 0 0 1
-28.070092 18.756697 3.155946 33.907282 -0.589070 1.477586 0.001928 -0.009228 -149688.000000 0 0 1
-28.580032 18.914997 1.831446 34.321269 -0.584644 1.517409 0.003755 -0.003016 258374.000000 0 0 1
-29.763312 19.913997 1.683346 35.850463 -0.589671 1.523824 0.002385 -0.004930 442223.000000 0 0 1
-30.988942 19.441897 2.240246 36.651338 -0.560310 1.509635 0.005176 0.008443 580534.000000 0 0 1
-31.961632 20.467497 2.397146 38.029077 -0.569581 1.507720 0.005755 0.007651 229631.000000 0 0 1
-32.212802 20.914597 3.854346 38.599753 -0.575857 1.470775 0.004553 0.003344 -590514.000000 0 0 1
-31.197622 21.785297 4.248946 38.287652 -0.609584 1.459593 0.001578 0.002565 67284.200000 0 0 1
-31.263692 22.213497 5.623346 38.761836 -0.617752 1.425208 0.015171 0.002061 -197028.000000 0 0 1
-30.143162 23.205697 6.041146 38.517659 -0.656084 1.413305 0.008552 -0.000813 -31717.500000 0 0 1
-30.320892 24.451217 5.442646 39.329898 -0.678640 1.431966 0.008112 0.001907 217601.000000 0 0 1
-29.372452 25.398277 5.861546 39.270487 -0.712965 1.420976 0.014041 -0.001747 -355273.000000 0 0 1
-29.765262 26.859797 5.469746 40.464029 -0.734133 1.435206 0.013375 -0.001714 -904763.000000 0 0 1
-30.939632 27.196597 6.116746 41.645291 -0.721103 1.423386 0.016120 0.001982 -610240.000000 0 0 1
-31.303132 28.551857 5.861046 42.772029 -0.739465 1.433334 0.011693 -0.002752 -220634.000000 0 0 1
-32.327232 28.990517 6.924746 43.971037 -0.731035 1.412654 0.014363 0.001578 -447716.000000 0 0 1
-31.714302 29.070217 8.218046 43.799666 -0.741926 1.382050 0.019716 0.005923 575601.000000 0 0 1
-32.438792 29.776097 9.252546 44.994453 -0.742626 1.363681 0.026015 0.001690 482998.000000 0 0 1
-33.682492 29.115437 9.935146 45.617169 -0.712800 1.351243 0.026001 -0.001956 269193.000000 0 0 1
-33.335342 27.959027 10.604646 44.781813 -0.697909 1.331718 0.028257 -0.001534 -324132.000000 0 0 1
-34.353009 27.506227 11.426646 45.467461 -0.675164 1.316758 0.034189 -0.002356 -531804.000000 0 0 1
-34.068616 26.080267 11.996846 44.550816 -0.653361 1.298146 0.028970 -0.000819 -292319.000000 0 0 1
-33.128602 26.241637 13.030946 44.225935 -0.669914 1.271712 0.020512 -0.000435 -52389.900000 0 0 1
-33.076402 25.169437 13.932346 43.836733 -0.650471 1.247363 0.028543 0.002671 -105659.000000 0 0 1
-31.976582 25.388517 14.983046 43.492186 -0.671055 1.219090 0.024082 0.005148 -233879.000000 0 0 1
-32.275112 26.412917 15.917146 44.639451 -0.685841 1.206201 0.028905 0.001911 -207373.000000 0 0 1
-31.141592 26.932547 16.555646 44.376235 -0.713048 1.188476 0.030111 0.006632 -373915.000000 0 0 1
-31.449302 28.232757 17.323346 45.675436 -0.731556 1.181789 0.036770 -0.001309 -385526.000000 0 0 1
-31.474002 29.383797 16.453146 46.094754 -0.751066 1.205804 0.037292 0.001176 165261.000000 0 0 1
-31.862722 30.582297 17.118146 47.366031 -0.764896 1.201026 0.039023 -0.001980 -167305.000000 0 0 1
-31.588162 31.859347 16.355746 47.752910 -0.789672 1.221211 0.032664 0.000012 -382898.000000 0 0 1
-30.202242 32.022897 16.335546 46.952012 -0.814649 1.215445 0.011400 0.003343 -480652.000000 0 0 1
-29.750732 33.273537 15.854646 47.366699 -0.841236 1.229487 0.011338 0.008537 -173189.000000 0 0 1
-28.238012 33.453036 15.609346 46.477335 -0.869732 1.228290 0.003072 0.004836 16259.100000 0 0 1
-27.784312 32.897837 14.355446 45.390688 -0.869467 1.249007 0.002181 0.007702 -16659.200000 0 0 1
-27.186472 31.633477 14.427346 44.135354 -0.860858 1.237787 0.003745 0.005028 -566212.000000 0 0 1
-27.994482 30.342527 14.216246 43.663047 -0.825626 1.239161 0.017543 0.003438 -302521.000000 0 0 1
-28.182002 30.030547 12.846946 43.140503 -0.817143 1.268416 0.025200 0.003209 4507.370000 0 0 1
-29.181642 29.045317 12.680446 43.081230 -0.783057 1.272033 0.004962 0.002730 68163.700000 0 0 1
-29.407652 28.713737 11.202946 42.600407 -0.773460 1.304689 0.017447 0.002110 -91970.800000 0 0 1
-28.329952 28.059057 10.575446 41.252114 -0.780594 1.311541 0.013300 0.006194 -145695.000000 0 0 1
-28.493172 28.066127 9.152746 41.028540 -0.777848 1.345821 0.009774 0.009628 -148698.000000 0 0 1
-27.263412 27.478847 8.452546 39.621032 -0.789334 1.355809 0.003307 0.010656 -32923.000000 0 0 1
-27.147122 27.775317 7.092246 39.480811 -0.796836 1.390178 0.000751 0.004506 59654.600000 0 0 1
-26.017752 27.099317 6.522546 38.129254 -0.805757 1.398887 0.001408 0.007818 146388.000000 0 0 1
-25.745382 27.456427 5.067346 37.978390 -0.817549 1.436970 0.008530 0.002090 -480184.000000 0 0 1
-24.913782 28.539567 4.779946 38.184438 -0.853125 1.445287 0.004395 0.006751 46763.500000 0 0 1
-24.702582 28.678787 3.377646 38.001301 -0.859748 1.481796 0.007444 0.005114 -639364.000000 0 0 1
-23.716782 29.787127 3.062046 38.198623 -0.898371 1.490549 0.005314 0.002874 -234692.000000 0 0 1
-22.430082 29.377547 3.504846 37.127252 -0.918704 1.476255 0.000360 0.004065 -229616.000000 0 0 1
-21.448882 30.270437 3.062546 37.225436 -0.954338 1.488433 -0.002044 0.000737 -481066.000000 0 0 1
-20.008282 29.819907 3.329446 36.064434 -0.979820 1.478345 -0.014743 -0.002669 -331982.000000 0 0 1
-19.120982 30.798607 2.808246 36.360039 -1.015195 1.493485 -0.019135 -0.000977 -1250590.000000 0 0 1
-17.849782 30.349837 3.128146 35.348446 -1.039147 1.482186 -0.017976 -0.001370 -1173190.000000 0 0 1
-16.754482 31.359387 2.838646 35.667657 -1.080108 1.491126 -0.006702 -0.008551 -673802.000000 0 0 1
-16.733982 32.504167 3.665446 36.742109 -1.095359 1.470869 -0.008696 -0.018631 572203.000000 0 0 1
-15.724382 33.443271 3.210346 37.094675 -1.131287 1.484143 -0.008562 -0.007162 285754.000000 0 0 1
-15.545382 -34.686387 3.849946 38.205058 1.149466 1.469854 -0.011001 -0.013686 -92426.900000 0 0 1
-16.573682 -33.716651 3.672246 37.748972 1.113925 1.473362 -0.012965 -0.018951 14892.200000 0 0 1
-16.297582 -32.608181 4.472346 36.727463 1.107308 1.448722 -0.013738 -0.009780 -606136.000000 0 0 1
-17.383782 -31.562001 4.690046 36.336653 1.067353 1.441363 -0.007814 -0.010836 -568961.000000 0 0 1
-17.645682 -30.723051 3.541846 35.606469 1.049453 1.471160 -0.007323 -0.005539 -305130.000000 0 0 1
-18.593582 -29.785931 3.901746 35.329118 1.012743 1.460131 0.001586 -0.002092 -1086770.000000 0 0 1
-18.986982 -28.892711 2.684946 34.677128 0.989408 1.493292 -0.006034 -0.000103 -185721.000000 0 0 1
-17.998382 -27.967971 2.351846 33.341871 0.998979 1.500200 -0.010616 0.003934 -224495.000000 0 0 1
-18.533682 -27.064001 1.361846 32.830050 0.970338 1.529303 -0.012163 0.006539 377925.000000 0 0 1
-17.622682 -25.793611 1.335746 31.267451 0.971422 1.528063 -0.004955 0.010150 785062.000000 0 0 1
-16.295282 -26.142261 0.951746 30.819796 1.013398 1.539910 -0.013694 0.018348 -669997.000000 0 0 1
-15.479782 -25.055711 1.209246 29.476679 1.017381 1.529761 -0.014633 0.015655 493339.000000 0 0 1
-14.081182 -25.226741 0.491246 28.894800 1.061691 1.553794 -0.009449 0.014215 507894.000000 0 0 1
-14.117582 -25.152111 -0.914954 28.857789 1.059328 1.602507 -0.010066 0.015030 -119321.000000 0 0 1
-14.152382 -23.830211 -1.424454 27.752440 1.034886 1.622146 -0.004801 0.007626 -301329.000000 0 0 1
-14.337082 -23.901311 -2.974654 28.029862 1.030491 1.677121 0.000014 0.015840 -197880.000000 0 0 1
-13.308082 -24.554711 -3.662054 28.168236 1.074134 1.701172 -0.002885 0.014616 -196621.000000 0 0 1
-13.620682 -24.469811 -5.069654 28.460429 1.062876 1.749882 0.004685 0.014970 -103446.000000 0 0 1
-12.705082 -25.268631 -5.949454 28.901883 1.104911 1.778129 0.010555 0.013107 -229329.000000 0 0 1
-12.790782 -26.654941 -5.782254 30.125147 1.123386 1.763936 -0.005804 0.008394 -954029.000000 0 0 1
-11.971182 -27.326581 -6.676154 30.571593 1.157901 1.790948 0.017515 0.012596 -510845.000000 0 0 1
22.513818 13.695789 28.671413 38.942221 0.546521 0.743277 0.006307 -0.000036 -373207.000000 0 0 1
23.009818 12.394189 28.916753 38.977510 0.494086 0.734922 0.001635 -0.006528 -248444.000000 0 0 1
21.990018 11.527889 29.309003 38.411857 0.482845 0.702824 -0.007051 -0.012275 -611126.000000 0 0 1
21.927718 11.362489 30.872753 39.535527 0.478085 0.674713 -0.004500 0.008440 -100201.000000 0 0 1
21.389318 12.511689 31.518703 40.093315 0.529280 0.666268 -0.002065 0.000964 58730.500000 0 0 1
21.742918 12.580789 32.871413 41.371011 0.524547 0.652527 -0.004856 0.001310 -330550.000000 0 0 1
20.814718 13.565389 33.628540 41.810895 0.577584 0.636298 -0.011985 0.003553 -773634.000000 0 0 1
19.528118 13.083189 33.850937 41.211687 0.590284 0.606950 -0.017588 0.012353 -730038.000000 0 0 1
18.975118 13.957689 -34.528582 41.798267 0.634207 2.542907 -0.016521 0.011399 48875.400000 0 0 1
17.838018 13.168589 -33.811444 40.432912 0.635927 2.561179 -0.010748 0.016788 -44076.200000 0 0 1
16.685818 12.913089 -34.578301 40.507077 0.658620 2.593723 -0.013460 0.017781 -199627.000000 0 0 1
15.769318 12.203189 -33.792534 39.236776 0.658595 2.608514 -0.016270 0.014672 -145148.000000 0 0 1
14.422418 11.904389 -34.475256 39.220707 0.690043 2.644571 -0.013100 0.017242 8093.110000 0 0 1
14.530018 10.869589 33.937930 38.484445 0.642270 0.491002 -0.020657 0.019190 25587.000000 0 0 1
13.326618 10.572789 33.247303 37.346563 0.670678 0.472930 -0.011756 0.017702 78322.100000 0 0 1
13.571418 9.481289 32.177753 36.186821 0.609800 0.475177 -0.011075 0.015622 -91097.300000 0 0 1
13.764518 8.192489 32.641663 36.360102 0.536874 0.456200 -0.017138 0.013042 -126147.000000 0 0 1
14.421718 7.390489 31.702143 35.603808 0.473562 0.472542 -0.015433 0.000961 -71601.000000 0 0 1
14.671818 5.943089 32.217833 35.896676 0.384868 0.456693 -0.005312 0.001845 -342241.000000 0 0 1
13.631518 5.029589 32.276513 35.396163 0.353472 0.422992 -0.001131 0.004292 -398387.000000 0 0 1
14.239818 3.838589 32.695923 35.868239 0.263308 0.423743 -0.006042 0.003699 610340.000000 0 0 1
13.192818 2.701189 32.798093 35.455067 0.201956 0.389601 -0.006213 0.001144 368588.000000 0 0 1
13.863618 1.506389 33.100273 35.917923 0.108233 0.398734 -0.003915 0.000151 255213.000000 0 0 1
12.894618 0.609389 33.623444 36.016365 0.047224 0.366576 -0.004896 0.000566 221458.000000 0 0 1
13.451318 -0.778911 34.008193 36.580075 -0.057841 0.377221 -0.004742 0.006609 -168014.000000 0 0 1
13.728218 -1.643611 32.920773 35.706340 -0.119158 0.397616 -0.012237 0.004107 26039.400000 0 0 1
14.034218 -2.945011 33.420261 36.366829 -0.206844 0.405319 -0.002698 -0.001437 -281900.000000 0 0 1
14.230518 -4.011211 32.297093 35.520412 -0.274746 0.429307 -0.002864 -0.007578 -1120910.000000 0 0 1
14.556118 -5.344211 32.650893 36.145843 -0.351867 0.443373 0.000026 -0.005491 1553440.000000 0 0 1
15.896818 -5.619211 33.176813 37.215391 -0.339772 0.470193 -0.003275 -0.003775 1521370.000000 0 0 1
17.143018 -5.273611 32.346283 36.986161 -0.298437 0.506287 -0.001977 -0.006363 -821070.000000 0 0 1
17.197018 -3.899111 32.155093 36.672749 -0.222962 0.501606 -0.001591 -0.014082 -195276.000000 0 0 1
18.269518 -3.540411 31.308433 36.421529 -0.191415 0.536284 -0.002246 -0.012173 -303443.000000 0 0 1
18.288218 -2.027611 31.148023 36.176919 -0.110419 0.533580 -0.001602 -0.006990 -168389.000000 0 0 1
18.380318 -1.390811 32.407413 37.282850 -0.075525 0.517151 0.012769 -0.004190 78365.200000 0 0 1
18.135318 0.041589 32.383363 37.115680 0.002293 0.510504 0.012985 -0.000259 247703.000000 0 0 1
19.350018 0.906189 31.923723 37.341244 0.046797 0.545402 0.010938 0.005766 -75957.100000 0 0 1
19.625718 0.945689 30.514543 36.293257 0.048149 0.572079 0.019397 0.008340 74094.900000 0 0 1
20.650418 1.837889 30.138563 36.580741 0.088766 0.602553 0.023782 0.011923 -106265.000000 0 0 1
20.344718 3.388689 30.202283 36.572786 0.165048 0.599154 0.018415 0.011929 -110495.000000 0 0 1
19.768718 3.833789 31.436803 37.333266 0.191554 0.569708 0.012773 0.015848 708345.000000 0 0 1
19.212218 5.133989 31.322773 37.102335 0.261124 0.565676 0.008379 0.015204 -210242.000000 0 0 1
18.886518 5.799289 32.724403 38.225893 0.297921 0.543160 0.004051 0.019981 356210.000000 0 0 1
17.924218 5.096389 33.532331 38.362325 0.277019 0.507226 -0.006622 0.020710 683339.000000 0 0 1
17.537318 5.755989 -34.641096 39.251681 0.317136 2.652028 -0.011648 0.020934 473918.000000 0 0 1
16.331118 5.097089 -33.890864 37.964146 0.302529 2.674114 0.001810 0.018418 357415.000000 0 0 1
16.701518 3.919689 -33.223024 37.390828 0.230519 2.664936 -0.003625 0.012620 357464.000000 0 0 1
15.477718 3.303489 -32.845874 36.459899 0.210280 2.692581 0.000569 0.013168 431764.000000 0 0 1
15.477018 1.835289 -33.090034 36.576724 0.118030 2.701412 0.003551 0.002819 -181874.000000 0 0 1
16.491918 1.223789 -32.339594 36.322587 0.074070 2.668896 0.007013 0.007776 -13549.400000 0 0 1
16.597418 -0.120311 -32.741164 36.707936 -0.007249 2.672407 0.009490 0.005808 -383943.000000 0 0 1
17.656218 -0.923511 -31.973504 36.536282 -0.052258 2.636473 0.009961 0.002144 -390009.000000 0 0 1
17.446618 -1.294011 -30.619984 35.265314 -0.074034 2.622510 0.014317 0.002206 121271.000000 0 0 1
17.646618 -0.197311 -29.712724 34.558473 -0.011181 2.605637 0.016020 0.005953 -256693.000000 0 0 1
17.508418 -0.607311 -28.242014 33.234393 -0.034673 2.586369 0.011591 0.001850 65030.100000 0 0 1
16.211018 -1.131211 -28.037274 32.406257 -0.069667 2.616307 0.010199 0.004045 3081.540000 0 0 1
15.954818 -1.578111 -26.683524 31.129682 -0.098591 2.600552 0.008449 0.002831 -103849.000000 0 0 1
16.810618 -2.723911 -26.053164 31.125294 -0.160639 2.562650 0.005804 -0.000906 -1067690.000000 0 0 1
18.086418 -2.231511 -25.733184 31.532442 -0.122760 2.525402 0.004327 -0.000267 -1136200.000000 0 0 1
18.926518 -3.308411 -25.534824 31.956000 -0.173054 2.496530 0.001378 -0.001454 -329866.000000 0 0 1
19.759718 -3.703011 -26.757934 33.468579 -0.185253 2.497249 0.000725 -0.003957 -496438.000000 0 0 1
20.814418 -2.786211 -27.057044 34.250352 -0.133069 2.481570 -0.003418 0.004376 146234.000000 0 0 1
21.191818 -2.871811 -28.443324 35.585996 -0.134695 2.496899 -0.008471 0.001640 726602.000000 0 0 1
22.681918 -2.552011 -28.835664 36.776048 -0.112042 2.472022 -0.008805 -0.001734 425170.000000 0 0 1
23.448818 -3.647511 -28.448014 37.046470 -0.154315 2.446354 -0.003790 -0.005980 335358.000000 0 0 1
24.823518 -3.363611 -28.803964 38.173149 -0.134681 2.425781 -0.010168 -0.004881 910660.000000 0 0 1
25.776318 -4.540311 -28.402514 38.622996 -0.174354 2.397021 -0.003699 -0.005831 -73077.800000 0 0 1
25.501818 -5.769211 -29.043464 39.078758 -0.222482 2.408642 0.004316 -0.013312 614916.000000 0 0 1
26.577918 -6.695511 -28.895734 39.826863 -0.246785 2.382606 0.007224 -0.012213 324029.000000 0 0 1
26.450118 -7.593511 -27.643444 39.005515 -0.279569 2.358459 0.006121 -0.007645 -146965.000000 0 0 1
26.424018 -6.854711 -26.462964 38.019788 -0.253817 2.340652 0.006668 -0.003777 168487.000000 0 0 1
26.008318 -7.664111 -25.430634 37.173759 -0.286568 2.324168 0.002633 -0.002912 -242836.000000 0 0 1
26.123318 -6.879011 -24.132954 36.223584 -0.257483 2.299928 0.001582 -0.000812 754621.000000 0 0 1
27.494518 -6.867311 -23.698654 36.942316 -0.244762 2.267254 0.005765 0.000351 940735.000000 0 0 1
27.550718 -6.112711 -22.541754 36.118389 -0.218334 2.244785 0.009191 -0.004180 331450.000000 0 0 1
28.988018 -5.723611 -22.078454 36.885269 -0.194940 2.212512 0.014818 -0.000775 254393.000000 0 0 1
29.521218 -4.613911 -22.820854 37.597631 -0.155037 2.223046 0.009241 -0.002615 -217230.000000 0 0 1
30.824318 -4.297811 -22.411454 38.352093 -0.138536 2.194888 0.003172 -0.001129 -627363.000000 0 0 1
31.187518 -2.962211 -23.094154 38.920123 -0.094697 2.206039 0.000798 -0.005453 194909.000000 0 0 1
30.525618 -1.767011 -22.555254 37.995726 -0.057822 2.206354 0.004582 -0.007232 553060.000000 0 0 1
31.126218 -0.574411 -23.031954 38.725216 -0.018452 2.207755 0.000077 -0.006303 49435.700000 0 0 1
30.242818 0.664089 -22.734354 37.840718 0.021955 2.215286 0.004910 -0.000716 680049.000000 0 0 1
29.164418 0.786889 -23.686054 37.579404 0.026975 2.252728 0.006598 0.006472 1218580.000000 0 0 1
28.064818 1.614089 -23.272254 36.494344 0.057450 2.262298 0.004108 0.009894 99965.900000 0 0 1
26.864318 1.556889 -24.203454 36.192854 0.057889 2.303303 -0.004566 0.012680 -450176.000000 0 0 1
25.925918 2.537889 -23.837154 35.310112 0.097579 2.311870 -0.005948 0.015749 -287961.000000 0 0 1
24.828718 2.688489 -24.693354 35.120577 0.107861 2.350547 -0.004287 0.010262 -516492.000000 0 0 1
23.835418 3.724089 -24.201954 34.172073 0.154989 2.357795 0.000530 0.007566 -519318.000000 0 0 1
24.371418 5.024789 -24.011354 34.579758 0.203326 2.338349 0.000385 0.010008 -95480.100000 0 0 1
23.350918 5.962789 -23.765554 33.847035 0.250013 2.349203 0.015731 0.002421 -281548.000000 0 0 1
23.789218 7.360589 -23.407554 34.176289 0.300066 2.325271 0.022803 0.006974 -153211.000000 0 0 1
24.426118 8.119189 -24.404654 35.470320 0.320908 2.329568 0.015187 0.006599 -12479.000000 0 0 1
24.784918 9.376489 -23.870954 35.665574 0.361673 2.304062 0.019240 0.005269 13547.100000 0 0 1
25.620218 10.260289 -24.893554 37.166627 0.380917 2.304712 0.032420 0.001881 -110017.000000 0 0 1
25.044918 10.490689 -26.162364 37.706389 0.396671 2.337610 0.028079 -0.011170 119209.000000 0 0 1
23.873018 11.275789 -26.169804 37.174226 0.441262 2.351778 0.029922 -0.014339 3961.860000 0 0 1
23.285118 11.660589 -27.519574 37.887901 0.464267 2.383781 0.016833 -0.013020 -176324.000000 0 0 1
22.676718 10.672689 -28.327294 37.822948 0.439889 2.417264 0.017642 -0.004129 544721.000000 0 0 1
23.560218 9.751189 -29.022364 38.632463 0.392417 2.420740 0.017253 -0.004467 598260.000000 0 0 1
24.400318 10.283789 -30.239944 40.194353 0.398869 2.422408 0.009186 -0.003562 -555111.000000 0 0 1
25.322018 11.304689 -29.855344 40.747296 0.419887 2.393070 0.001261 -0.001134 606343.000000 0 0 1
26.286518 11.670789 -30.825244 42.159032 0.417840 2.390826 -0.000554 0.002692 593149.000000 0 0 1
27.265418 10.547889 -31.384324 42.890987 0.369127 2.391643 -0.007472 0.001963 -900556.000000 0 0 1
26.694118 9.612489 -32.252764 42.955985 0.345642 2.420118 -0.004553 0.002761 -301863.000000 0 0 1
27.484718 8.473389 -32.534694 43.424813 0.299049 2.417678 -0.005322 0.005492 -493570.000000 0 0 1
26.818218 7.409589 -33.476534 43.529268 0.269565 2.448162 0.003233 0.010168 -592194.000000 0 0 1
25.729418 6.861889 -32.822344 42.265763 0.260628 2.460000 0.002059 0.012065 -647455.000000 0 0 1
25.186018 5.725089 -33.449364 42.260763 0.223514 2.484055 -0.003795 0.014646 -458976.000000 0 0 1
24.042118 4.953889 -32.777814 40.950574 0.203206 2.498798 0.004858 0.018576 207327.000000 0 0 1
22.810918 5.652489 -32.931634 40.457152 0.242905 2.521781 0.006066 0.021769 119493.000000 0 0 1
22.474618 6.391989 -31.778654 39.444250 0.277093 2.507585 0.010261 0.017200 -646026.000000 0 0 1
21.098118 7.054289 -31.708684 38.734148 0.322671 2.529807 0.007149 0.013717 -200373.000000 0 0 1
20.834318 8.121189 -32.597724 39.530167 0.371681 2.540342 0.003221 0.015400 750722.000000 0 0 1
19.465918 8.553389 -32.469304 38.811572 0.414007 2.561822 -0.006283 0.019665 792615.000000 0 0 1
19.087118 9.626589 -33.494634 39.735120 0.467122 2.573536 -0.007498 0.022136 -236080.000000 0 0 1
19.047318 9.154389 34.555842 40.505671 0.448018 0.548877 -0.005511 0.021625 690.664000 0 0 1
18.777218 10.134289 33.596772 39.799885 0.494910 0.565833 -0.012092 0.018281 -152968.000000 0 0 1
17.691918 9.922289 32.523963 38.330979 0.511126 0.557646 -0.008831 0.014895 -221532.000000 0 0 1
17.903218 8.881789 31.558923 37.354746 0.460523 0.564523 -0.010907 0.011012 -444634.000000 0 0 1
18.915718 9.081989 30.611273 37.112491 0.447625 0.600905 -0.000149 0.008373 -1146020.000000 0 0 1
18.640218 9.828289 29.305293 36.095058 0.485219 0.623410 -0.001308 0.001875 -686700.000000 0 0 1
17.720918 9.239489 28.422433 34.745270 0.480612 0.612831 -0.009705 0.006346 150782.000000 0 0 1
16.403218 9.634789 28.790563 34.507843 0.531082 0.583899 -0.013285 0.005894 -475702.000000 0 0 1
15.289518 8.867589 28.073373 33.174053 0.525568 0.561899 -0.003521 0.007231 -758877.000000 0 0 1
15.073218 9.348389 26.740743 32.088341 0.555139 0.585660 -0.003691 0.006877 -78091.200000 0 0 1
13.978918 8.788289 26.061463 30.851970 0.561242 0.564743 0.004269 0.005884 -435707.000000 0 0 1
13.911818 7.270189 25.798643 30.198747 0.481557 0.546603 0.002723 0.010710 -449867.000000 0 0 1
13.766018 6.504389 26.965713 30.967079 0.441403 0.513997 0.002729 0.000618 -67764.200000 0 0 1
13.730518 5.131989 26.733263 30.488224 0.357688 0.501549 -0.003458 -0.004892 -74969.700000 0 0 1
14.207018 4.349389 28.016223 31.712226 0.297084 0.487617 -0.005328 -0.008385 625727.000000 0 0 1
15.611818 4.482689 28.277373 32.610323 0.279612 0.521386 -0.000372 0.003346 712351.000000 0 0 1
16.038818 3.785489 29.432363 33.731849 0.231779 0.510420 0.001803 0.003348 -317473.000000 0 0 1
16.632218 2.349989 29.257733 33.736747 0.140362 0.521172 0.008353 0.005092 -446089.000000 0 0 1
15.801718 1.256889 28.957663 33.012427 0.079374 0.500850 0.001311 -0.006209 269141.000000 0 0 1
14.982118 0.807689 30.062663 33.598809 0.053858 0.462917 -0.004226 -0.003477 363835.000000 0 0 1
14.462518 -0.651011 30.010483 33.319924 -0.044983 0.449472 -0.010066 -0.005245 214807.000000 0 0 1
13.662318 -1.104811 28.889553 31.976332 -0.080690 0.443007 -0.012966 -0.009624 356186.000000 0 0 1
14.285218 -1.089911 27.642153 31.134290 -0.076149 0.478175 -0.011746 -0.008454 -1310600.000000 0 0 1
15.325818 -2.203911 27.414853 31.485109 -0.142825 0.514123 -0.006590 -0.005364 851522.000000 0 0 1
16.670318 -2.065711 27.905313 32.571048 -0.123287 0.541858 -0.009687 -0.003993 1218720.000000 0 0 1
17.407018 -0.930911 27.424773 32.495985 -0.053428 0.566204 -0.008317 -0.007416 621475.000000 0 0 1
18.937218 -0.872211 27.867423 33.704188 -0.046026 0.597359 0.009300 0.006526 1648570.000000 0 0 1
19.779718 -1.717111 27.077233 33.576216 -0.086595 0.632688 -0.000962 0.004274 -218235.000000 0 0 1
21.125818 -1.486611 27.412033 34.640002 -0.070254 0.657798 0.008333 0.002893 -268470.000000 0 0 1
22.091818 -1.934111 26.297173 34.399572 -0.087326 0.700590 0.004331 0.007741 -402516.000000 0 0 1
22.207418 -1.266211 25.054723 33.503908 -0.056956 0.726032 0.007430 0.011881 75735.200000 0 0 1
21.405418 -1.885711 24.098253 32.287360 -0.087868 0.728208 0.004235 0.018953 -482373.000000 0 0 1
21.474018 -1.149511 22.760353 31.312753 -0.053479 0.757041 0.001314 -0.001309 43319.900000 0 0 1
20.710918 0.102789 22.735153 30.754510 0.004963 0.738846 -0.003118 0.006227 621750.000000 0 0 1
20.862018 0.756689 21.463353 29.941141 0.036255 0.771520 -0.004374 0.001950 -679346.000000 0 0 1
-29.142442 -28.047820 -10.599154 41.812728 0.766261 1.827084 -0.003168 0.007286 -33420.400000 0 0 1
-29.085752 -26.915720 -9.708554 40.800649 0.746668 1.811052 -0.003437 0.006780 73330.700000 0 0 1
-29.589812 -27.270020 -8.377054 41.102141 0.744622 1.776045 -0.000444 -0.001067 -250719.000000 0 0 1
-29.856002 -26.090720 -7.501054 40.353096 0.718198 1.757769 0.007699 -0.002344 188771.000000 0 0 1
-28.739972 -25.399020 -6.969854 38.983010 0.723766 1.750555 -0.003751 -0.000089 -631573.000000 0 0 1
-28.019872 -26.014520 -5.957754 38.695779 0.748303 1.725375 -0.003221 0.000966 39748.800000 0 0 1
-26.818922 -25.177520 -5.432954 37.184393 0.753841 1.717430 -0.001936 0.002376 -136489.000000 0 0 1
-27.037012 -24.047820 -4.640754 36.480601 0.726951 1.698354 0.004595 -0.001925 -584932.000000 0 0 1
-27.797332 -22.998720 -5.162654 36.445655 0.691209 1.712928 0.000034 -0.006855 -173547.000000 0 0 1
-27.931612 -21.789020 -4.207854 35.674113 0.662479 1.689024 -0.006362 -0.011398 -602615.000000 0 0 1
-26.818852 -20.971020 -4.120954 34.293101 0.663638 1.691256 0.004977 -0.015079 -458298.000000 0 0 1
-27.119882 -19.948320 -3.189054 33.817060 0.634196 1.665240 0.006148 -0.009350 -356612.000000 0 0 1
-26.131802 -18.792120 -2.993754 32.326110 0.623449 1.663540 0.005935 -0.013094 -372607.000000 0 0 1
-25.959782 -18.020620 -4.143054 31.871898 0.606806 1.701156 0.005316 -0.013621 -94087.600000 0 0 1
-25.048282 -16.985820 -3.949554 30.521033 0.595892 1.700565 0.010744 -0.010046 -312758.000000 0 0 1
-25.128162 -16.069420 -5.210854 30.278768 0.568957 1.743753 0.008499 -0.015348 -438520.000000 0 0 1
-26.371392 -15.427420 -5.280454 31.005464 0.529321 1.741938 0.004784 -0.008893 -146697.000000 0 0 1
-26.319122 -14.195220 -5.973154 30.493918 0.494630 1.767951 0.011897 -0.012771 -33890.300000 0 0 1
-27.697972 -13.487820 -6.032054 31.392429 0.453162 1.764149 0.018769 -0.011570 286055.000000 0 0 1
-28.638222 -14.194120 -6.806354 32.679462 0.460150 1.780608 0.014229 -0.005737 611627.000000 0 0 1
-29.957002 -13.618220 -6.771454 33.596584 0.426666 1.773738 0.004033 -0.000378 710471.000000 0 0 1
-30.872772 -14.491820 -7.681054 34.959111 0.438873 1.792319 -0.004913 -0.004330 -226563.000000 0 0 1
-31.591022 -15.509520 -7.010154 35.884260 0.456379 1.767415 -0.013162 -0.004851 -73547.200000 0 0 1
-31.886382 -16.515120 -7.970254 36.783359 0.477894 1.789210 -0.009449 0.006076 -914672.000000 0 0 1
-32.752112 -17.618520 -7.402654 37.919815 0.493533 1.767277 -0.012143 -0.003223 427965.000000 0 0 1
-34.068249 -17.277420 -6.937654 38.823780 0.469344 1.750457 -0.001245 -0.010521 719688.000000 0 0 1
-34.201134 -16.378120 -5.829654 38.365938 0.446606 1.723336 0.002147 -0.007675 -794359.000000 0 0 1
33.906824 -16.115220 -5.511454 37.944026 -0.443676 1.716564 0.024024 -0.005965 -304001.000000 0 0 1
33.281796 -15.337420 -6.523654 37.221935 -0.431828 1.746970 0.012373 -0.012523 -14714.000000 0 0 1
31.883386 -15.242520 -6.537354 35.939139 -0.445951 1.753715 0.015087 -0.006728 141871.000000 0 0 1
31.100046 -14.549520 -5.373554 34.753078 -0.437582 1.726040 0.017117 -0.007119 -472803.000000 0 0 1
31.188426 -15.235020 -4.132854 34.955747 -0.454392 1.689305 0.020001 -0.004723 665007.000000 0 0 1
30.505386 -14.647620 -2.989954 33.971623 -0.447654 1.658924 0.008479 -0.003121 -1076900.000000 0 0 1
30.578376 -15.517920 -1.719354 34.333644 -0.469614 1.620895 0.006623 -0.000942 -769079.000000 0 0 1
31.801736 -15.710320 -1.065454 35.486614 -0.458843 1.600825 0.010188 -0.004047 566900.000000 0 0 1
32.885386 -16.380020 -1.752354 36.780761 -0.462122 1.618458 0.000154 -0.007083 -190767.000000 0 0 1
32.611276 -17.843920 -2.145854 37.235809 -0.500668 1.628457 0.000754 -0.000417 -996858.000000 0 0 1
32.639086 -18.721220 -1.041154 37.641440 -0.520769 1.598460 0.004116 -0.003892 388351.000000 0 0 1
32.297706 -20.103220 -1.386254 38.068398 -0.556753 1.607219 0.005533 -0.002393 -330883.000000 0 0 1
33.184126 -20.956420 -2.301254 39.314800 -0.563274 1.629364 0.005929 -0.001897 -317895.000000 0 0 1
33.252866 -20.478120 -3.611554 39.219253 -0.551978 1.663013 -0.006423 -0.010212 -66344.100000 0 0 1
34.318241 -20.946920 -4.393254 40.445220 -0.548012 1.679633 -0.009672 -0.015127 -425376.000000 0 0 1
34.268170 -20.211820 -5.749454 40.198027 -0.532896 1.714317 0.013591 -0.015159 -489743.000000 0 0 1
33.170846 -20.459520 -6.581654 39.524867 -0.552675 1.738095 0.004212 -0.019832 -142863.000000 0 0 1
33.013366 -19.312120 -7.348854 38.946707 -0.529301 1.760624 0.009780 -0.016160 -867667.000000 0 0 1
31.908196 -19.436820 -8.345954 38.282867 -0.547119 1.790569 0.003917 -0.015157 -921307.000000 0 0 1
32.041866 -20.493320 -9.277354 39.150053 -0.569015 1.810041 0.003872 -0.020041 -309864.000000 0 0 1
30.897156 -20.795520 -10.023354 38.568841 -0.592413 1.833696 0.009658 -0.020258 -482218.000000 0 0 1
31.012456 -22.126320 -10.767854 39.589053 -0.619706 1.846257 0.001634 -0.011586 -93814.800000 0 0 1
31.011296 -23.172320 -9.859154 39.948214 -0.641721 1.820171 -0.015067 -0.015673 -52420.400000 0 0 1
30.833426 -24.426120 -10.506954 40.715250 -0.669964 1.831809 -0.013815 -0.012387 -462937.000000 0 0 1
30.027146 -25.393720 -9.648854 40.491615 -0.701988 1.811404 -0.005522 -0.012271 307149.000000 0 0 1
28.669636 -25.013720 -9.431454 39.199318 -0.717402 1.813783 -0.002655 -0.008947 398242.000000 0 0 1
27.901346 -26.076920 -8.880254 39.209052 -0.751612 1.799263 -0.011570 -0.006398 -189901.000000 0 0 1
26.432176 -25.713420 -8.684054 37.884729 -0.771615 1.802076 0.000080 -0.015478 -141327.000000 0 0 1
25.724846 -25.677320 -9.956454 37.685852 -0.784474 1.838167 -0.002482 -0.010420 340004.000000 0 0 1
24.431606 -25.125920 -9.734454 36.372721 -0.799408 1.841729 0.006715 -0.011510 -13337.700000 0 0 1
23.913106 -24.717620 -11.123054 36.145812 -0.801940 1.883600 0.026337 -0.009000 -316984.000000 0 0 1
23.490906 -25.844920 -11.847254 36.880076 -0.833076 1.897832 0.020925 -0.008907 650793.000000 0 0 1
22.401806 -25.595920 -12.751554 36.326219 -0.851847 1.929466 0.020887 0.000247 479530.000000 0 0 1
21.878106 -26.923920 -13.358554 37.175260 -0.888426 1.938357 0.019205 0.000044 -230712.000000 0 0 1
22.660206 -27.521220 -14.346854 38.428306 -0.881966 1.953404 0.016263 -0.002706 -241046.000000 0 0 1
22.127106 -28.817320 -14.523454 39.127707 -0.915975 1.951077 0.027918 -0.000038 -243848.000000 0 0 1
22.999006 -29.880520 -15.213154 40.660052 -0.914807 1.954282 0.021290 -0.003374 -479710.000000 0 0 1
23.124606 -29.924020 -16.635854 41.315203 -0.912876 1.985214 0.016196 -0.002037 179878.000000 0 0 1
23.424506 -31.246520 -16.938954 42.567366 -0.927508 1.980059 0.016518 -0.006492 -448782.000000 0 0 1
23.285506 -31.398520 -18.447954 43.225095 -0.932685 2.011734 0.001304 0.007529 796988.000000 0 0 1
21.923706 -31.218220 -18.885154 42.566127 -0.958547 2.030482 0.003616 0.003789 675186.000000 0 0 1
21.792106 -31.149720 -20.289954 43.091567 -0.960344 2.061058 -0.000514 0.002857 -755605.000000 0 0 1
20.413806 -30.810320 -20.809854 42.415201 -0.985639 2.083600 0.002852 0.001256 -669341.000000 0 0 1
20.402306 -30.820920 -22.234054 43.133935 -0.986057 2.112347 -0.003948 0.002839 -223901.000000 0 0 1
19.111506 -30.534620 -22.683754 42.569536 -1.011553 2.132777 0.006004 -0.002157 -707287.000000 0 0 1
18.975906 -30.792520 -24.198154 43.517984 -1.018514 2.160421 0.000675 0.006315 -809736.000000 0 0 1
19.648506 -29.890620 -24.985054 43.632166 -0.989274 2.180506 -0.001842 0.005530 -95024.500000 0 0 1
19.305206 -30.073020 -26.345034 44.397504 -1.000105 2.206060 -0.009101 0.000353 -381223.000000 0 0 1
19.744706 -28.935520 -27.301214 44.412543 -0.972001 2.232825 -0.014231 -0.008152 -216063.000000 0 0 1
18.929306 -27.807120 -27.282994 43.311849 -0.973117 2.252246 -0.007171 -0.006949 -478632.000000 0 0 1
17.872106 -27.840620 -28.194884 43.467963 -1.000106 2.276587 -0.005325 -0.009944 -637133.000000 0 0 1
17.232406 -26.472420 -28.444414 42.506817 -0.993749 2.303892 -0.006465 -0.006040 -451668.000000 0 0 1
16.520206 -25.986220 -27.336744 41.176430 -1.004519 2.296809 -0.011617 0.004860 -278553.000000 0 0 1
16.012906 -24.701120 -27.537844 40.309941 -0.995641 2.322867 -0.014257 0.011804 -285813.000000 0 0 1
14.911706 -24.290120 -26.557784 38.957474 -1.020219 2.320897 -0.007747 0.005379 -53417.000000 0 0 1
13.613706 -24.834820 -26.850174 39.026057 -1.069359 2.329535 -0.001686 -0.004252 813159.000000 0 0 1
12.631606 -24.298820 -25.907294 37.698515 -1.091400 2.328456 0.000070 -0.002296 393563.000000 0 0 1
12.696006 -24.740720 -24.432154 37.016509 -1.096674 2.291660 0.004208 0.006344 -867376.000000 0 0 1
13.705406 -24.097420 -23.690454 36.465894 -1.053672 2.277934 -0.011368 -0.000802 -185590.000000 0 0 1
13.702106 -24.504820 -22.350454 35.885606 -1.060948 2.243145 0.004806 0.000523 389266.000000 0 0 1
14.819006 -23.890420 -21.442554 35.357294 -1.015591 2.222389 -0.011336 -0.003622 389182.000000 0 0 1
14.742106 -22.494020 -21.262954 34.284455 -0.990649 2.239784 -0.009027 -0.007562 311660.000000 0 0 1
15.964406 -21.966220 -20.761354 34.182026 -0.942328 2.223550 0.001276 -0.006920 -35941.200000 0 0 1
15.794906 -20.485220 -20.264154 32.859690 -0.913966 2.235324 -0.000377 0.000589 282957.000000 0 0 1
15.078706 -20.341120 -19.047154 31.684738 -0.932892 2.215731 0.003337 -0.006599 548590.000000 0 0 1
13.657206 -20.304520 -19.109454 31.047770 -0.978684 2.233798 -0.007082 -0.006874 198621.000000 0 0 1
13.005906 -20.348720 -17.716354 29.951514 -1.002086 2.203716 0.003503 -0.007598 -251288.000000 0 0 1
13.040006 -19.141620 -16.981754 28.719738 -0.972773 2.203456 0.009516 -0.004673 60165.400000 0 0 1
12.498306 -19.327620 -15.695154 27.858615 -0.996776 2.169275 0.016014 -0.004117 -171240.000000 0 0 1
12.553206 -18.041020 -14.838754 26.518861 -0.962885 2.164645 0.013349 -0.006261 -520358.000000 0 0 1
11.574406 -17.083620 -15.055854 25.543995 -0.975321 2.201123 -0.007818 -0.003718 -309329.000000 0 0 1
12.014806 -15.832020 -14.508454 24.606984 -0.921628 2.201369 0.007619 -0.003193 -269957.000000 0 1 0
10.866806 -14.863020 -14.313254 23.320936 -0.939482 2.231600 0.015850 -0.006785 -632327.000000 0 1 0
10.247906 -14.414520 -15.483254 23.505938 -0.952764 2.289880 0.016969 0.004177 290119.000000 0 1 0
9.015206 -13.759920 -15.149054 22.362987 -0.990789 2.315041 0.011542 -0.002610 1203260.000000 0 1 0
8.111106 -13.374720 -16.398654 22.662503 -1.025647 2.379805 0.007285 0.005729 392949.000000 0 1 0
8.512706 -12.183520 -17.035154 22.607538 -0.960939 2.424191 0.009397 0.005338 -146191.000000 0 1 0
9.695606 -12.388120 -17.782254 23.741922 -0.906722 2.417320 0.008026 0.008457 173281.000000 0 1 0
10.055806 -11.215820 -18.754554 24.055086 -0.839878 2.464903 0.018348 0.006299 144329.000000 0 1 0
9.122706 -11.250320 -19.811854 24.541863 -0.889454 2.510304 0.010774 0.006572 273163.000000 0 1 0
9.168206 -9.974820 -20.429054 24.513247 -0.827509 2.556007 0.010618 -0.003824 -21831.400000 0 1 0
8.718006 -10.075520 -21.863654 25.603498 -0.857506 2.594292 0.011946 -0.006300 -21448.200000 0 0 1
9.614906 -10.817420 -22.670954 26.896750 -0.844184 2.573425 -0.002324 0.005881 -114413.000000 0 0 1
9.272206 -10.697920 -24.017554 27.879422 -0.856670 2.608973 -0.003214 0.007399 -199223.000000 0 0 1
10.341206 -11.450620 -24.790854 29.200063 -0.836264 2.584886 0.008765 0.008003 -156809.000000 0 0 1
10.356806 -12.880620 -24.581754 29.621553 -0.893584 2.549654 0.004001 0.008545 -737126.000000 0 0 1
11.361806 -13.475120 -25.328214 30.857542 -0.870281 2.533626 0.000143 0.001976 -557966.000000 0 0 1
11.475306 -14.945720 -25.084924 31.373725 -0.916001 2.497345 -0.002131 0.004130 390552.000000 0 0 1
10.334806 -15.677320 -25.554014 31.711105 -0.987967 2.507886 0.003406 -0.000541 260494.000000 0 0 1
10.609406 -17.073620 -25.299234 32.312834 -1.014796 2.470185 0.004128 0.000048 74734.900000 0 0 1
9.434406 -18.047820 -25.386064 32.545108 -1.089119 2.465505 0.008528 -0.001701 -112376.000000 0 0 1
9.514506 -18.670220 -26.661314 33.910597 -1.099491 2.475470 0.010244 -0.004966 -166484.000000 0 0 1
8.544206 -19.681320 -26.836984 34.359591 -1.161220 2.467162 0.010703 -0.007107 -89817.400000 0 0 1
8.674506 -20.562820 -28.126374 35.905007 -1.171593 2.470842 0.006574 -0.009286 -524449.000000 0 0 1
9.565706 -21.629420 -28.011424 36.660257 -1.154402 2.440413 0.002573 -0.005084 -176034.000000 0 0 1
9.489306 -22.357720 -29.184314 37.968918 -1.169408 2.447504 0.009566 -0.003260 105242.000000 0 0 1
10.006206 -23.793420 -29.021644 38.839501 -1.172705 2.414665 0.008912 -0.006208 45406.700000 0 0 1
9.761506 -24.732220 -30.065854 40.136334 -1.194878 2.417488 0.008905 -0.002431 -46012.300000 0 0 1
10.244206 -26.096620 -29.850304 40.951410 -1.196730 2.387539 0.008012 0.000742 83271.400000 0 0 1
9.818106 -26.945520 -28.648704 40.536459 -1.221379 2.355675 0.013713 -0.001976 -95901.900000 0 0 1
10.551106 -26.631020 -27.488704 39.700956 -1.193573 2.335598 0.006984 -0.002904 -338946.000000 0 0 1
10.021406 -27.221220 -26.281824 39.142786 -1.218047 2.306939 0.010424 0.003245 800310.000000 0 0 1
8.939506 -26.317520 -25.566954 37.765007 -1.243346 2.314477 0.009511 0.004430 228451.000000 0 0 1
9.495606 -25.121920 -25.070654 36.739830 -1.209415 2.321815 0.010794 0.004207 -269067.000000 0 0 1
8.628906 -23.987920 -24.916654 35.647131 -1.225490 2.344767 0.004693 0.002258 -9447.730000 0 0 1
9.451806 -22.716720 -24.731754 34.886181 -1.176511 2.358772 0.001751 -0.001124 -103741.000000 0 0 1
10.002706 -22.472420 -23.453954 33.987523 -1.152016 2.332390 0.005547 -0.002821 338359.000000 0 0 1
11.011406 -21.459220 -23.551154 33.710622 -1.096699 2.344273 0.004790 -0.005361 21375.400000 0 0 1
11.641806 -21.091120 -22.263154 32.802668 -1.066437 2.316787 -0.001753 0.000270 -266310.000000 0 0 1
10.756506 -20.420120 -21.369254 31.453597 -1.085970 2.317727 -0.001549 -0.000303 -63826.700000 0 0 1
10.489806 -19.057520 -21.549954 30.620673 -1.067624 2.351489 -0.000620 0.000003 -535841.000000 0 0 1
11.596106 -17.996420 -21.420454 30.284924 -0.998399 2.356464 -0.007062 -0.001791 548537.000000 0 0 1
12.600606 -18.260720 -22.462254 31.571855 -0.966787 2.362376 -0.008272 -0.002759 376626.000000 0 0 1
13.588106 -17.263520 -22.392954 31.370530 -0.903971 2.365736 -0.005975 0.008192 638776.000000 0 0 1
14.958006 -17.602520 -23.095454 32.664823 -0.866439 2.356105 -0.016046 0.014933 -234892.000000 0 0 1
16.039906 -17.730920 -22.255054 32.664224 -0.835430 2.320372 -0.002646 0.011464 -559588.000000 0 0 1
17.169306 -17.472420 -23.068154 33.648332 -0.794148 2.326177 -0.007129 0.016179 -218198.000000 0 0 1
18.535906 -17.896620 -22.497254 34.205193 -0.767853 2.288577 -0.004882 0.010903 -153749.000000 0 0 1
18.745106 -19.249720 -22.225754 34.869971 -0.798679 2.261902 -0.005297 0.004165 -349900.000000 0 0 1
20.020906 -19.554420 -21.749754 35.443812 -0.773611 2.231459 0.002462 0.003925 -381750.000000 0 0 1
20.326906 -21.064720 -21.645354 36.406413 -0.803221 2.207500 -0.006541 0.005024 -302360.000000 0 0 1
19.496506 -21.641220 -20.679854 35.722717 -0.837486 2.188174 -0.007722 0.004154 187272.000000 0 0 1
19.842906 -22.989220 -20.474554 36.625845 -0.858723 2.163999 -0.008281 0.006052 -399348.000000 0 0 1
-15.842482 13.276589 29.151643 35.736121 -0.697508 0.616776 -0.002966 -0.002160 -162738.000000 0 0 1
-16.957582 14.005089 28.704713 36.161618 -0.690329 0.653782 0.002993 -0.004329 -165092.000000 0 0 1
-17.242982 13.652189 27.358323 35.102429 -0.669692 0.677112 0.001332 -0.006149 796294.000000 0 0 1
-18.544282 14.429189 26.909903 35.724428 -0.661240 0.717787 0.006256 -0.004266 735505.000000 0 0 1
-18.421082 15.822389 27.040323 36.343683 -0.709655 0.731734 0.001628 -0.002693 -350607.000000 0 0 1
-19.541982 16.484489 26.523203 36.838943 -0.700733 0.767027 0.005681 -0.004281 -926611.000000 0 0 1
-19.559382 18.028189 26.591713 37.612554 -0.744684 0.785563 0.006670 0.002721 185240.000000 0 0 1
-18.490882 18.686989 25.892953 36.899340 -0.790673 0.792989 0.003284 0.000573 -526146.000000 0 0 1
-17.430582 18.833689 26.739653 37.061328 -0.824070 0.764834 0.001160 0.001132 -1509530.000000 0 0 1
-16.231782 19.622789 26.214133 36.547303 -0.879694 0.770926 0.002360 0.005298 -369596.000000 0 0 1
-16.495682 20.995589 26.071643 37.318264 -0.904852 0.797316 0.007550 0.006324 -378003.000000 0 0 1
-15.376482 21.800689 25.805133 37.116184 -0.956508 0.802025 0.020616 -0.004347 -214489.000000 0 0 1
-15.615882 23.314689 25.654893 38.021099 -0.980636 0.830165 0.026008 -0.000076 -145340.000000 0 0 1
-15.136582 24.028789 26.741013 39.007442 -1.008656 0.815456 0.025342 -0.000234 -89282.300000 0 0 1
-15.428682 25.390289 26.602663 39.879978 -1.024763 0.840530 0.023427 -0.000452 -11961.400000 0 0 1
-14.866882 26.285589 27.786533 41.037151 -1.056062 0.826972 0.015390 0.001689 780895.000000 0 0 1
-13.439482 26.345489 27.697783 40.520015 -1.099082 0.818170 0.015013 -0.002126 335497.000000 0 0 1
-12.875982 27.145589 28.710413 41.556729 -1.127894 0.808101 0.018825 -0.000949 -485604.000000 0 0 1
-11.375582 26.914589 28.804313 41.030323 -1.170914 0.792559 0.025312 -0.002041 -284601.000000 0 0 1
-10.647482 27.581889 27.779083 40.568546 -1.202389 0.816543 0.025845 0.001518 -1068620.000000 0 0 1
-9.289282 27.340589 27.857503 40.122799 -1.243272 0.803341 0.010495 0.005873 -520722.000000 0 0 1
-8.508882 28.283989 26.814823 39.892604 -1.278571 0.833653 0.016899 -0.002320 1714650.000000 0 0 1
-7.081882 28.064489 26.615983 39.321484 -1.323614 0.827279 -0.004458 -0.004045 1581980.000000 0 0 1
-6.601982 28.749689 25.473633 38.974822 -1.345073 0.858476 0.010027 -0.009629 -924252.000000 0 0 1
-5.151882 28.443789 25.178993 38.335006 -1.391614 0.854210 -0.009185 -0.006475 -1174780.000000 0 0 1
-4.303082 28.960689 26.195053 39.286369 -1.423292 0.840927 -0.004186 -0.007796 118544.000000 0 0 1
-2.916182 28.818889 25.962363 38.898287 -1.469950 0.840028 -0.009254 -0.004943 393328.000000 0 0 1
-2.294082 29.902889 25.021803 39.058113 -1.494229 0.875478 -0.010388 -0.007056 -752996.000000 0 0 1
-2.667482 29.717189 23.680753 38.092057 -1.481274 0.899921 -0.007355 -0.004849 -242579.000000 0 0 1
-2.363682 30.826989 22.830653 38.433435 -1.494270 0.934736 -0.010136 0.000396 -677415.000000 0 0 1
-2.829582 30.718389 21.334253 37.507016 -1.478942 0.965742 -0.001633 0.001835 722063.000000 0 0 1
-4.248282 30.565589 21.223753 37.453315 -1.432692 0.968335 -0.004780 -0.001248 327126.000000 0 0 1
-4.720382 29.276989 21.489753 36.622856 -1.410940 0.943713 0.003416 -0.000293 -1073650.000000 0 0 1
-6.197782 29.097189 21.147653 36.500440 -1.360930 0.952828 -0.001534 -0.000746 -705457.000000 0 0 1
-6.448782 29.084689 19.734653 35.734611 -1.352602 0.985728 -0.001524 0.004907 205751.000000 0 0 1
-7.290782 28.006189 19.306353 34.788466 -1.316122 0.982476 -0.011700 0.013571 -789709.000000 0 0 1
-6.636282 26.646389 19.228453 33.523181 -1.326712 0.959918 -0.022159 0.016245 61899.100000 0 0 1
-5.626682 26.511689 18.259053 32.679079 -1.361665 0.977933 -0.016389 0.013771 1568170.000000 0 0 1
-4.305982 27.092289 18.498953 33.086929 -1.413177 0.977495 -0.004748 0.011898 574320.000000 0 0 1
-3.446282 27.296789 17.296353 32.498544 -1.445209 1.009576 0.005584 0.011456 -387402.000000 0 0 1
-2.993482 26.049489 16.764453 31.122077 -1.456383 1.001942 0.003403 0.007360 122575.000000 0 0 1
-2.501682 26.238389 15.412453 30.532854 -1.475739 1.041666 0.005172 0.004752 144197.000000 0 0 1
-2.035782 24.999789 14.621253 29.032996 -1.489544 1.043026 -0.004465 0.002496 -335505.000000 0 0 1
-0.978082 24.427089 15.319853 28.850255 -1.530777 1.011001 0.000549 0.002705 -357292.000000 0 0 1
-0.184382 23.620889 14.436753 27.683934 -1.562991 1.022206 0.003982 -0.006485 -367629.000000 0 0 1
1.037218 23.005589 15.117753 27.547766 1.525741 0.989888 -0.000461 -0.004795 -780222.000000 0 0 1
2.048318 23.958589 15.261753 28.480356 1.485510 1.005259 -0.003462 -0.001612 254194.000000 0 0 1
3.246418 23.246689 15.669953 28.222246 1.432043 0.982152 0.000576 -0.000529 437635.000000 0 0 1
4.416018 24.179889 15.962653 29.308267 1.390155 0.994828 0.009232 0.005962 -239475.000000 0 0 1
5.675118 23.571389 15.763953 28.919190 1.334530 0.994284 0.011971 0.000836 94586.300000 0 0 1
6.672218 24.610189 15.677653 29.932736 1.306045 1.019534 0.010247 0.006513 11766.000000 0 0 1
8.121118 24.098989 15.738653 29.906839 1.245758 1.016605 0.009858 0.011282 -120637.000000 0 0 1
8.560618 23.299489 14.639653 28.817873 1.218691 1.037928 0.009407 0.010424 -157973.000000 0 0 1
8.946118 24.047189 13.548453 29.014839 1.214638 1.084959 0.003807 0.007557 -621973.000000 0 0 1
9.484818 23.139489 12.436353 27.929565 1.181787 1.109314 0.007712 0.002472 -152663.000000 0 0 1
10.683718 22.435389 12.684153 27.899395 1.126370 1.098829 0.011058 0.006956 65105.600000 0 0 1
11.272318 22.009489 11.442153 27.247121 1.097470 1.137417 0.030622 0.007362 28274.800000 0 0 1
12.526018 21.184789 11.736853 27.266282 1.036818 1.125802 0.018631 0.004182 -302134.000000 0 0 1
12.170618 19.941889 12.357553 26.429377 1.022835 1.084258 0.020440 0.018983 -97743.000000 0 0 1
13.266718 19.087089 12.585153 26.433101 0.963392 1.074567 0.032142 0.013303 23987.600000 0 0 1
13.855118 19.140289 14.065953 27.498472 0.944228 1.033846 0.022611 0.017776 11577.300000 0 0 1
14.950218 18.268389 14.218653 27.557452 0.884957 1.028664 0.019608 0.013500 -129646.000000 0 0 1
15.180518 17.946589 15.577953 28.199305 0.868704 0.985528 0.010481 0.018739 -543705.000000 0 0 1
16.409518 17.101889 15.803653 28.486880 0.806056 0.982710 0.004183 0.017091 -566151.000000 0 0 1
16.583818 16.717889 17.166053 29.140765 0.789424 0.940884 0.006669 0.009669 86352.000000 0 0 1
17.810918 16.046289 17.368553 29.603696 0.733326 0.943816 0.011164 0.006802 101635.000000 0 0 1
17.867918 15.635289 18.839553 30.309298 0.718857 0.900042 0.012582 0.003016 -113883.000000 0 0 1
18.578318 16.551689 19.615853 31.684286 0.727773 0.903196 0.011188 0.004917 -128818.000000 0 0 1
17.714318 17.405089 20.291153 32.069691 0.776593 0.885735 0.001148 0.005831 -344334.000000 0 0 1
18.426118 18.462389 21.192053 33.607808 0.786381 0.888510 -0.000065 0.005296 -164007.000000 0 0 1
17.506618 19.362989 21.790953 34.003715 0.835705 0.875204 -0.014433 0.009964 4503.040000 0 0 1
18.115318 20.591589 22.259853 35.322505 0.849286 0.889000 -0.002597 0.006353 -554474.000000 0 0 1
17.257118 21.778289 22.631953 35.837233 0.900707 0.887283 -0.009434 0.000983 -632107.000000 0 0 1
16.386518 21.429889 23.676253 35.893218 0.917980 0.850470 -0.012850 -0.005373 -269922.000000 0 0 1
15.870418 22.600989 24.308023 36.790690 0.958595 0.849030 -0.018319 -0.005242 230329.000000 0 0 1
15.181318 22.176989 25.648173 37.149967 0.970513 0.808761 -0.005734 -0.006279 316854.000000 0 0 1
14.128918 21.241489 25.447223 36.033156 0.983840 0.786656 -0.004576 -0.006854 -122614.000000 0 0 1
13.474118 20.940089 26.660093 36.480128 0.999032 0.751286 0.004228 -0.008335 186297.000000 0 0 1
12.392418 19.806489 26.587453 35.394374 1.011712 0.720952 0.016112 -0.004553 127407.000000 0 0 1
12.868618 18.464589 26.368503 34.667569 0.962130 0.706544 0.001825 -0.001423 -34711.000000 0 0 1
13.443618 18.213989 25.085673 33.790106 0.934959 0.734155 0.001975 0.000141 209255.000000 0 0 1
12.461718 18.174289 23.836853 32.462205 0.969747 0.746168 0.003246 -0.001315 -284846.000000 0 0 1
12.414218 19.361889 22.983853 32.515428 1.000655 0.785747 0.002041 0.006527 275860.000000 0 0 1
13.647118 19.650589 22.305153 32.709468 0.963779 0.820416 -0.001081 0.009059 617853.000000 0 0 1
14.253718 18.536589 21.411453 31.705267 0.915277 0.829387 -0.000881 0.013541 -259807.000000 0 0 1
13.314818 18.033089 20.421253 30.323328 0.934790 0.831930 0.005872 0.008241 168399.000000 0 0 1
13.892418 17.031589 19.616153 29.459595 0.886564 0.842142 0.002389 0.007602 -26060.800000 0 0 1
12.961818 16.123389 18.721553 27.901056 0.893673 0.835242 0.004683 0.009056 307403.000000 0 0 1
12.387118 16.852089 17.644753 27.363679 0.936932 0.870004 0.011454 0.016091 -341762.000000 0 0 1
11.299918 16.150789 17.103453 26.097207 0.960305 0.856118 0.016270 0.008300 82298.300000 0 0 1
10.860118 16.817189 15.728253 25.458554 0.997397 0.904857 0.021795 0.009948 113376.000000 0 0 1
10.206718 18.054689 15.780453 26.060921 1.056265 0.920375 0.015789 0.010655 -42864.800000 0 0 1
9.767918 18.420589 14.498153 25.395408 1.083226 0.963199 0.007525 0.014867 -82292.200000 0 0 1
8.795418 19.631089 14.477953 25.929716 1.149578 0.978396 0.007751 0.010870 85747.900000 0 0 1
7.571218 19.361489 15.133153 25.713866 1.198033 0.941568 -0.001767 0.010565 -494729.000000 0 0 1
6.713218 20.446289 14.914453 26.183180 1.253552 0.964753 -0.000430 0.003946 -145553.000000 0 0 1
5.370118 20.252689 15.652453 26.153563 1.311605 0.929191 0.003442 -0.002319 139936.000000 0 0 1
4.421118 19.515589 14.881453 24.937164 1.348014 0.931342 0.003988 -0.007952 -697174.000000 0 1 0
3.276118 19.293789 15.664753 25.067264 1.402599 0.895782 -0.002676 -0.008611 264021.000000 0 0 1
2.102318 18.811089 14.768053 24.007753 1.459499 0.908237 -0.002899 -0.008864 133498.000000 0 1 0
1.365918 19.719889 13.954653 24.196530 1.501641 0.956087 -0.002124 -0.014365 195894.000000 0 1 0
0.389818 19.102989 13.137853 23.187913 1.550393 0.968445 -0.001178 -0.019808 355258.000000 0 1 0
-0.558782 20.090189 12.421553 23.626741 -1.542990 1.017210 0.008083 -0.019255 646162.000000 0 1 0
-1.514582 20.836489 13.204953 24.714854 -1.498235 1.007126 0.007691 -0.014528 439708.000000 0 1 0
-2.585782 21.170489 12.340853 24.640871 -1.449257 1.046240 0.010881 -0.012777 381682.000000 0 1 0
-3.774582 21.977189 12.930053 25.776551 -1.400706 1.045325 0.005928 -0.007531 251602.000000 0 0 1
-4.450482 21.193189 13.866453 25.714520 -1.363808 1.001255 0.006896 -0.010284 -664503.000000 0 0 1
-5.610382 21.777789 14.362053 26.683647 -1.318659 1.002456 -0.000213 -0.005233 -661144.000000 0 0 1
-6.382982 21.053289 15.455753 26.886125 -1.276423 0.958364 0.000857 -0.001160 -433617.000000 0 0 1
-7.116882 19.915889 14.947453 25.898243 -1.227591 0.955549 0.003359 -0.004149 133799.000000 0 0 1
-7.702782 19.151889 16.005253 26.120793 -1.188400 0.911273 0.005245 0.009217 316006.000000 0 0 1
-8.865382 19.770689 16.839053 27.441371 -1.149265 0.910137 0.000409 0.013538 164880.000000 0 0 1
-10.047482 19.809889 16.044253 27.400760 -1.101409 0.945250 -0.004372 0.002310 -780006.000000 0 0 1
-11.216282 19.814389 16.794753 28.292732 -1.055701 0.935263 -0.003156 0.010205 358123.000000 0 0 1
-12.447182 19.783289 15.784453 28.203897 -1.009199 0.976827 -0.001755 0.006390 439704.000000 0 0 1
-12.755882 21.001589 15.238253 28.913381 -1.024970 1.015693 -0.006502 0.005908 -62221.500000 0 0 1
-13.800082 20.816589 14.300753 28.779926 -0.985380 1.050773 -0.006707 0.001443 -73327.700000 0 0 1
-14.806782 21.974089 14.176253 30.051082 -0.977851 1.079535 -0.010312 0.001857 -6915.950000 0 0 1
-15.768582 21.981889 15.223153 31.041842 -0.948525 1.058239 -0.015163 0.001982 170589.000000 0 0 1
-16.638382 23.103489 15.097053 32.226200 -0.946663 1.083237 -0.011049 0.002374 111403.000000 0 0 1
-17.995282 22.973489 15.815153 33.192325 -0.906318 1.074161 0.005296 0.006572 -582213.000000 0 0 1
-18.877882 22.097289 15.151053 32.775280 -0.863807 1.090242 -0.001418 -0.002824 349104.000000 0 0 1
-20.114282 21.852189 15.821353 33.651414 -0.826786 1.081331 -0.002340 0.005161 1261090.000000 0 0 1
-21.179382 23.024989 15.679553 34.993781 -0.827126 1.106195 0.008601 -0.002446 -607142.000000 0 0 1
-21.879782 23.081589 14.500753 34.953632 -0.812122 1.143011 0.006295 0.007490 537332.000000 0 0 1
-22.733382 24.271689 14.434653 36.253010 -0.818113 1.161282 0.018746 0.005646 560826.000000 0 0 1
-22.002582 25.513089 13.848753 36.425530 -0.859145 1.180791 0.012229 0.004211 289567.000000 0 0 1
-21.002082 26.006589 14.757853 36.540721 -0.891458 1.155049 0.004132 -0.000321 342637.000000 0 0 1
-20.540582 27.220889 14.210153 36.943480 -0.924365 1.175972 -0.000857 0.002291 -462204.000000 0 0 1
-19.063482 27.579289 14.397753 36.487378 -0.965984 1.165169 0.004166 -0.003684 207941.000000 0 0 1
-18.181782 26.845089 13.542553 35.137398 -0.975478 1.175137 -0.001839 0.002554 -186180.000000 0 0 1
-16.821982 27.126089 13.616353 34.701712 -1.015699 1.167576 -0.003107 -0.002046 -819139.000000 0 0 1
-15.952982 26.520989 12.527753 33.388697 -1.029258 1.186174 -0.013525 -0.006549 -1649990.000000 0 0 1
-14.678082 26.967189 12.676453 33.216981 -1.072344 1.179242 -0.020817 -0.001796 -1804180.000000 0 0 1
-13.790982 26.312989 11.844253 31.982040 -1.088045 1.191420 -0.022583 -0.003444 -111077.000000 0 0 1
-12.319182 26.777989 11.919753 31.794707 -1.139617 1.186510 -0.020378 -0.000382 -192914.000000 0 0 1
-11.371382 25.868289 11.328953 30.443749 -1.156635 1.189496 -0.009604 -0.005308 1660490.000000 0 0 1
-10.000982 26.205089 11.659653 30.375546 -1.206215 1.176834 -0.002599 -0.003357 1114770.000000 0 0 1
-9.355782 27.445989 11.051353 31.031361 -1.242269 1.206668 -0.001326 -0.010716 -162324.000000 0 0 1
-8.152082 27.977089 11.642553 31.380296 -1.287263 1.190695 0.015820 -0.009892 755426.000000 0 0 1
-7.891482 29.104089 10.830753 32.041047 -1.306016 1.225976 0.021543 -0.011800 -138404.000000 0 0 1
-6.800182 30.022189 11.424453 32.834318 -1.348050 1.215421 0.019403 -0.007859 607790.000000 0 0 1
-5.462982 29.536689 11.344853 32.108657 -1.387907 1.209671 0.018423 -0.007522 -75245.500000 0 0 1
-4.542282 30.435289 11.884453 32.987563 -1.422646 1.202238 0.011089 -0.008504 -966027.000000 0 0 1
-3.161882 29.959689 11.482753 32.240255 -1.465648 1.206639 0.002482 -0.002953 -986723.000000 0 0 1
-2.873682 30.310189 10.140353 32.090378 -1.476270 1.249293 0.017770 -0.004343 1162560.000000 0 0 1
-1.534282 29.996689 9.662153 31.551744 -1.519692 1.259564 -0.015996 -0.003150 1156730.000000 0 0 1
-1.218882 30.573489 8.289353 31.700745 -1.530950 1.306233 -0.019480 -0.002445 -383601.000000 0 0 1
-2.045982 30.054089 7.252653 30.984436 -1.502825 1.334530 -0.004721 0.001994 335253.000000 0 0 1
-2.069782 30.961789 6.153953 31.635225 -1.504046 1.375020 -0.000335 0.005372 -157434.000000 0 0 1
10.028118 -34.333620 -26.559644 44.550817 -1.286623 2.209512 0.012071 -0.002611 -44967.200000 0 0 1
10.855718 -34.391320 -25.427024 44.126444 -1.265042 2.184906 0.000434 -0.002725 -520451.000000 0 0 1
12.018518 -33.649620 -25.589124 43.949346 -1.227751 2.192279 0.001023 -0.006075 -551600.000000 0 0 1
12.830618 -33.635520 -24.275154 43.419536 -1.206374 2.164077 0.005606 -0.005438 -640938.000000 0 0 1
12.279218 -32.787220 -23.260354 42.033618 -1.212453 2.157207 0.007895 -0.008161 725486.000000 0 0 1
12.949018 -32.891520 -21.967354 41.618431 -1.195743 2.126837 0.008265 -0.004909 180450.000000 0 0 1
14.427518 -32.479820 -21.805054 41.695952 -1.152777 2.121109 0.001418 -0.006484 -218695.000000 0 0 1
15.278518 -33.406620 -22.445754 43.049358 -1.141847 2.119282 0.002479 -0.002958 205490.000000 0 0 1
16.624618 -33.160420 -22.024954 43.140352 -1.106078 2.106611 0.001428 -0.003517 -122598.000000 0 0 1
17.529218 -34.339820 -22.249154 44.514285 -1.098813 2.094188 0.010263 0.000291 -917877.000000 0 0 1
18.803918 -34.175620 -21.688054 44.631066 -1.067789 2.078236 0.014106 0.004307 -136824.000000 0 0 1
19.571118 34.179289 -22.033654 45.130193 1.050766 2.080850 0.018309 0.012278 155707.000000 0 0 1
21.094818 34.138789 -21.730354 45.636132 1.017309 2.067085 0.019558 0.015050 494921.000000 0 0 1
21.848018 -34.583820 -22.673054 46.770118 -1.007364 2.076904 0.013493 0.007723 -10523.800000 0 0 1
23.225718 34.671989 -22.477454 47.400598 0.980579 2.064854 0.013577 0.014161 115269.000000 0 0 1
24.144918 -34.234620 -23.579954 48.072867 -0.956537 2.083465 0.015778 0.002380 -8590.330000 0 0 1
24.162518 -32.832520 -23.789354 47.198888 -0.936359 2.099047 0.008470 0.000489 -16540.700000 0 0 1
23.024618 -32.413520 -24.516454 46.710019 -0.953164 2.123353 0.005109 -0.000154 -63098.400000 0 0 1
22.637618 -30.938420 -24.485854 45.488511 -0.939111 2.139199 -0.000809 -0.004696 -971144.000000 0 0 1
23.477118 -29.998920 -25.059254 45.596891 -0.906756 2.152661 0.006134 -0.008019 -548829.000000 0 0 1
22.958218 -28.702620 -24.859154 44.372263 -0.896138 2.165473 -0.000566 -0.006309 347270.000000 0 0 1
23.682118 -27.630620 -25.752674 44.581320 -0.862197 2.186651 -0.004901 -0.005101 464414.000000 0 0 1
23.108018 -27.559620 -27.033694 44.992597 -0.873032 2.215357 0.001585 -0.009584 -334772.000000 0 0 1
23.911218 -26.791720 -27.889654 45.468400 -0.842149 2.231136 0.000702 -0.006277 -1081010.000000 0 0 1
23.120618 -26.350220 -29.114184 45.568989 -0.850589 2.263868 0.001003 -0.005544 27436.800000 0 0 1
22.297218 -25.218520 -28.958184 44.404010 -0.846802 2.281217 0.006266 -0.001008 -1062630.000000 0 0 1
21.149418 -25.437520 -28.247074 43.500144 -0.877185 2.277533 -0.007482 -0.000021 -1600710.000000 0 0 1
20.300718 -24.187220 -27.883914 42.126636 -0.872538 2.294156 -0.011015 0.003722 18155.800000 0 0 1
19.888118 -23.487720 -29.021794 42.302184 -0.868195 2.326855 -0.002875 0.002096 23785.200000 0 0 1
19.261218 -22.314920 -28.527714 41.021710 -0.858715 2.339814 -0.003314 0.012725 105497.000000 0 0 1
18.255818 -21.622820 -29.538584 40.906591 -0.869630 2.377627 -0.003207 0.009094 320523.000000 0 0 1
17.104018 -22.395020 -29.728434 40.961740 -0.918558 2.382936 -0.008590 0.001469 74669.900000 0 0 1
16.050518 -21.686420 -30.407604 40.651474 -0.933650 2.415851 -0.011811 -0.001088 648952.000000 0 0 1
14.789118 -22.603420 -30.377174 40.649789 -0.991413 2.414770 -0.020994 -0.005725 -319101.000000 0 0 1
14.837418 -23.679520 -31.234254 41.909990 -1.011052 2.411736 -0.022614 -0.001826 -129389.000000 0 0 1
14.019618 -24.752220 -30.798244 41.925576 -1.055450 2.395863 -0.016995 -0.001147 -253125.000000 0 0 1
14.477018 -26.107820 -31.361734 43.298507 -1.064498 2.380836 -0.015326 -0.001015 -135662.000000 0 0 1
13.853618 -27.276220 -30.878034 43.466860 -1.100848 2.360836 -0.012329 0.001473 48007.900000 0 0 1
14.625318 -28.450220 -31.147464 44.648398 -1.095959 2.342862 -0.016315 -0.010295 280759.000000 0 0 1
14.164118 -29.616520 -30.303824 44.677536 -1.124699 2.316214 -0.010842 -0.012521 -176056.000000 0 0 1
14.484518 -29.528320 -28.916154 43.793458 -1.114754 2.291994 -0.009045 -0.015810 168296.000000 0 0 1
13.908518 -28.491520 -28.083894 42.354677 -1.116663 2.295702 -0.017968 -0.010137 32686.800000 0 0 1
14.591618 -28.405920 -26.669964 41.606473 -1.096263 2.266603 -0.016510 -0.000595 -182926.000000 0 0 1
14.370118 -29.471820 -25.738264 41.683890 -1.117127 2.236310 -0.005026 -0.008748 -258927.000000 0 0 1
15.209018 -29.500620 -24.607354 41.317341 -1.094787 2.208771 0.001559 -0.007738 -807745.000000 0 0 1
14.943618 -28.365520 -23.563654 39.788946 -1.085921 2.204603 0.004213 -0.004073 1289070.000000 0 0 1
13.722118 -28.511320 -22.807754 39.004943 -1.122231 2.195356 0.006438 -0.008136 997061.000000 0 0 1
12.475218 -28.401420 -23.477054 38.903005 -1.156921 2.218650 0.010775 -0.006368 -264680.000000 0 0 1
11.303918 -28.302620 -22.477454 37.868890 -1.190812 2.206271 0.008838 -0.003171 -98979.500000 0 0 1
11.203618 -26.980320 -21.962554 36.548769 -1.177212 2.215437 0.004668 0.003735 -526068.000000 0 0 1
9.899218 -26.605620 -21.652354 35.702633 -1.214595 2.222402 0.008684 0.004484 -644398.000000 0 0 1
9.716518 -25.112120 -21.299454 34.332143 -1.201612 2.240041 0.009688 0.001810 -239452.000000 0 0 1
10.228618 -24.626420 -20.102154 33.394338 -1.177126 2.216753 0.008389 -0.004430 78623.100000 0 0 1
9.960818 -23.246120 -19.974854 32.227237 -1.165970 2.239300 0.003797 -0.004619 -291348.000000 0 0 1
10.329218 -22.642720 -18.589854 31.063937 -1.142813 2.212347 -0.004662 -0.010972 -287709.000000 0 0 1
9.505418 -23.165620 -17.591654 30.601719 -1.181421 2.183227 0.002318 -0.008834 117595.000000 0 0 1
9.568818 -22.318320 -16.435554 29.322298 -1.165760 2.165802 0.003900 -0.007147 276711.000000 0 0 1
8.824718 -22.807020 -15.139354 28.761708 -1.201608 2.125124 0.017352 -0.009099 514690.000000 0 0 1
9.541018 -23.870720 -14.566454 29.546978 -1.190553 2.086323 0.010535 -0.004295 247222.000000 0 0 1
8.667118 -24.560120 -13.687354 29.422136 -1.231546 2.054664 0.016915 -0.001648 196513.000000 0 0 1
9.040018 -26.063920 -13.548954 30.734736 -1.236939 2.027325 0.017759 0.000365 1005760.000000 0 0 1
10.378518 -26.387020 -13.115554 31.241098 -1.196063 2.004040 0.007422 0.000892 664038.000000 0 0 1
10.608418 -27.771620 -13.218454 32.535042 -1.205914 1.989179 0.009552 -0.001667 -1465200.000000 0 0 1
11.873618 -28.338920 -12.562054 33.194614 -1.174030 1.958903 -0.006304 0.004314 490997.000000 0 0 1
13.086018 -28.029120 -13.301754 33.672127 -1.134000 1.976905 -0.014900 0.004502 825710.000000 0 0 1
13.182418 -28.393520 -14.659254 34.566774 -1.136134 2.008748 -0.002898 0.001025 -1769630.000000 0 0 1
14.477918 -28.003620 -15.350754 35.063635 -1.093640 2.023943 0.001485 0.000853 -443472.000000 0 0 1
15.634818 -28.685120 -14.925954 35.917513 -1.071762 1.999357 0.001620 0.001128 152613.000000 0 0 1
16.740918 -28.191520 -15.682554 36.345050 -1.034927 2.016941 0.013158 -0.000385 1237600.000000 0 0 1
18.113918 -28.965020 -15.586154 37.550161 -1.011929 1.998822 0.014118 -0.004122 878813.000000 0 0 1
18.059918 -30.336320 -15.915354 38.726625 -1.033823 1.994311 0.018855 -0.006202 -939885.000000 0 0 1
19.295918 -30.881720 -16.188854 39.850873 -1.012317 1.989127 0.023786 -0.005250 -843474.000000 0 0 1
19.275518 -31.937720 -17.316654 41.126999 -1.027782 2.005402 0.017244 -0.009066 -190313.000000 0 0 1
18.799018 -33.214220 -17.013554 41.785746 -1.055757 1.990141 0.020656 -0.008660 156572.000000 0 0 1
19.279918 -34.132220 -17.992754 43.133084 -1.056616 2.001098 0.018990 -0.006587 99579.500000 0 0 1
19.107718 33.832589 -17.679254 42.688464 1.056682 1.997801 0.019348 -0.001290 -91245.900000 0 0 1
20.004118 33.439389 -16.682854 42.387204 1.031687 1.975322 0.019272 -0.006271 78196.900000 0 0 1
19.794018 32.123289 -16.433754 41.155523 1.018558 1.981559 0.014837 -0.012152 -137324.000000 0 0 1
20.561518 31.557389 -15.170354 40.605227 0.993326 1.953690 0.012492 -0.010790 -253948.000000 0 0 1
21.949118 31.420089 -15.392154 41.302593 0.961031 1.952679 0.026407 -0.010952 106690.000000 0 0 1
22.742318 31.136089 -14.280054 41.116773 0.939947 1.925492 0.034550 -0.009452 -120508.000000 0 0 1
22.404718 29.784989 -13.583054 39.668833 0.925879 1.920278 0.034230 -0.005253 -1024500.000000 0 0 1
22.624418 28.689389 -14.461754 39.294881 0.903046 1.947687 0.030333 -0.005693 120901.000000 0 0 1
22.366618 27.413189 -13.845554 37.992735 0.886431 1.943813 0.005840 0.003341 482661.000000 0 0 1
20.912918 27.014189 -13.376554 36.688537 0.912020 1.943997 0.006581 0.001521 -287552.000000 0 0 1
20.050018 26.953889 -14.443454 36.566771 0.931234 1.976852 0.003684 -0.007647 -1978190.000000 0 0 1
18.737118 26.989789 -14.086254 35.748438 0.963953 1.975818 0.000636 -0.007045 -1290040.000000 0 0 1
18.105218 28.420789 -14.041454 36.506199 1.003585 1.965605 -0.002033 -0.010760 -395645.000000 0 0 1
17.940818 29.144589 -15.310554 37.492574 1.019000 1.991456 0.001450 -0.006526 522819.000000 0 0 1
17.026818 28.651589 -16.327454 37.113499 1.034600 2.026320 -0.019740 0.004826 -125805.000000 0 0 1
17.077318 29.373489 -17.727754 38.323751 1.044176 2.051698 -0.011842 0.005566 -81705.900000 0 0 1
16.246118 30.493189 -17.922654 38.922904 1.081271 2.049316 -0.008209 0.000298 -64378.000000 0 0 1
16.566918 31.014189 -19.154154 40.040283 1.080186 2.069596 -0.011679 0.009573 170884.000000 0 0 1
15.682818 32.253489 -19.537054 40.840357 1.118220 2.069601 -0.011661 0.004622 247766.000000 0 0 1
15.927918 33.370489 -18.800254 41.481775 1.125469 2.041168 0.000475 -0.000411 -202497.000000 0 0 1
14.974918 34.376389 -19.048154 42.057299 1.159968 2.040822 -0.002824 -0.002216 -225393.000000 0 0 1
15.154718 -33.784920 -18.239154 41.276544 -1.149137 2.028486 -0.000268 -0.002152 -209945.000000 0 0 1
14.263618 -32.746520 -18.563554 40.254080 -1.160001 2.050098 0.002357 0.000724 -226088.000000 0 0 1
13.897418 -32.079020 -17.356954 39.031598 -1.161980 2.031624 -0.001117 -0.000400 -306729.000000 0 0 1
12.797218 -31.066120 -17.631354 37.943870 -1.180044 2.054058 0.000099 0.005547 -137509.000000 0 0 1
11.527518 -31.607920 -17.960254 38.138105 -1.221083 2.061137 0.003620 0.006498 -226599.000000 0 0 1
10.562418 -30.594420 -18.046554 37.057541 -1.238368 2.079433 0.003197 0.008513 -110539.000000 0 0 1
9.189118 -31.129220 -18.488254 37.353498 -1.283756 2.088578 0.007164 0.002512 -1427820.000000 0 0 1
8.595218 -31.903920 -17.467854 37.374641 -1.307635 2.057112 0.009640 -0.000615 342180.000000 0 0 1
7.426118 -32.658320 -17.801754 37.929086 -1.347210 2.059343 0.014074 -0.002014 294271.000000 0 0 1
6.195118 -31.811820 -18.168054 37.154402 -1.378461 2.081725 0.011408 0.007863 -1317190.000000 0 0 1
6.265218 -31.246120 -19.490454 37.355733 -1.372909 2.119700 0.005521 0.014850 -264284.000000 0 0 1
6.074818 -32.224220 -20.488754 38.666430 -1.384466 2.129261 0.005151 0.007580 -1744830.000000 0 0 1
6.439418 -31.773720 -21.879954 39.112246 -1.370840 2.164475 0.002423 0.008850 312633.000000 0 0 1
7.822218 -31.398920 -22.036854 39.149741 -1.326642 2.168670 0.010026 -0.000018 1024070.000000 0 0 1
8.786618 -32.445220 -22.009654 40.178624 -1.306326 2.150523 0.006917 -0.005892 -500961.000000 0 0 1
8.810418 -33.556420 -23.065254 41.661286 -1.314036 2.157522 0.004651 -0.001422 9343.230000 0 0 1
7.594218 -34.313220 -22.938754 41.967317 -1.352987 2.149078 -0.003346 0.000033 501049.000000 0 0 1
7.607018 33.997189 -23.713654 42.142769 1.350668 2.168442 -0.007482 -0.003222 -241739.000000 0 0 1
6.352818 33.134989 -23.437654 41.080523 1.381370 2.177947 -0.002115 -0.001188 270016.000000 0 0 1
5.090718 33.657289 -23.760554 41.512557 1.420683 2.180190 0.002165 -0.001066 -83016.600000 0 0 1
4.501218 34.372289 -22.717854 41.446545 1.440582 2.150916 -0.009410 0.001040 -305829.000000 0 0 1
3.128418 -34.409120 -22.905254 41.453893 -1.480127 2.156214 -0.014665 0.003631 -356165.000000 0 0 1
2.079618 34.191489 -23.026654 41.274805 1.510048 2.162633 -0.010818 -0.004968 18953.300000 0 0 1
0.885418 -34.570320 -23.434354 41.773915 -1.545190 2.166366 -0.009023 -0.006634 748441.000000 0 0 1
-0.399182 34.246589 -22.907954 41.203914 -1.559141 2.160320 -0.009999 -0.010778 -250067.000000 0 0 1
-0.559682 34.516689 -21.541654 40.691005 -1.554583 2.128685 -0.011239 -0.009997 683037.000000 0 0 1
-1.853582 34.087289 -21.082054 40.122712 -1.516472 2.124028 -0.005531 -0.011580 931068.000000 0 0 1
-2.018282 34.518189 -19.560354 39.726392 -1.512393 2.085615 -0.009828 -0.015239 95292.200000 0 0 1
-1.182982 33.770489 -18.696054 38.618490 -1.535781 2.076156 -0.018885 -0.009608 21769.600000 0 0 1
-1.802482 33.427489 -17.481154 37.765549 -1.516926 2.052045 -0.015993 -0.011461 -674732.000000 0 0 1
-1.020182 32.350089 -16.787054 36.460584 -1.539271 2.049261 -0.018552 -0.000621 -636735.000000 0 0 1
0.114718 32.806889 -16.136054 36.560598 1.567300 2.027900 -0.013868 -0.005101 -837460.000000 0 0 1
0.677118 31.708189 -15.439454 35.273849 1.549445 2.023838 -0.012401 0.000879 268874.000000 0 0 1
1.694618 32.176789 -14.378154 35.283832 1.518179 1.990511 -0.007875 -0.001780 244455.000000 0 0 1
2.903818 32.739089 -14.855754 36.069010 1.482332 1.995302 -0.003907 -0.006519 -245983.000000 0 0 1
3.701718 33.056389 -13.743454 35.990416 1.459279 1.962609 0.000095 -0.008204 499723.000000 0 0 1
5.153718 33.497389 -14.157454 36.729680 1.418139 1.966492 0.011179 -0.011247 468531.000000 0 0 1
5.937318 32.405289 -14.501554 35.995132 1.389586 1.985453 0.018199 -0.010884 -485142.000000 0 0 1
7.040418 32.822789 -15.301254 36.892158 1.359500 1.998471 0.014693 -0.002682 -32223.900000 0 0 1
8.140418 31.788189 -15.486254 36.284699 1.320101 2.011746 0.008950 -0.005798 -283717.000000 0 0 1
8.877518 31.662489 -14.273454 35.847664 1.297436 1.980317 0.009457 -0.012597 158910.000000 0 0 1
9.825518 30.572589 -14.268854 35.140065 1.259839 1.988931 0.011797 -0.013106 568956.000000 0 0 1
9.214718 29.159189 -14.096254 33.673041 1.264713 2.002723 0.016978 -0.017872 59488.600000 0 0 1
8.485818 28.573789 -15.180754 33.450348 1.282113 2.041855 0.025791 -0.017938 286796.000000 0 0 1
7.869918 27.358889 -14.832454 32.100562 1.290703 2.051115 0.013554 -0.012297 -207228.000000 0 0 1
7.079518 26.626689 -15.980354 31.850775 1.310928 2.096389 0.020955 -0.007906 549889.000000 0 0 1
7.940618 25.970889 -16.893954 31.983529 1.274072 2.127285 0.016295 -0.000123 127418.000000 0 0 1
7.113118 25.106689 -17.608154 31.479983 1.294716 2.164391 0.015089 0.009146 382054.000000 0 0 1
7.954718 24.048989 -18.387454 31.300637 1.251353 2.198696 0.013791 0.016962 227988.000000 0 0 1
7.235418 23.000789 -19.028654 30.716074 1.266024 2.238904 0.022641 0.014007 -381692.000000 0 0 1
8.136318 22.167589 -19.675654 30.736510 1.219025 2.265476 0.016837 0.014586 -459412.000000 0 0 1
7.454518 21.484589 -20.852354 30.854142 1.236823 2.312895 0.015743 0.006821 -184595.000000 0 0 1
6.537218 20.499389 -20.415454 29.660595 1.262093 2.329942 0.008905 0.005018 -72713.800000 0 0 1
6.035418 19.726489 -21.487454 29.787100 1.273885 2.376572 0.005593 0.008035 -86252.600000 0 0 1
23.958118 -12.450211 -9.818854 28.729934 -0.479256 1.919589 -0.010539 0.002234 -311423.000000 0 0 1
24.693518 -11.805011 -8.826254 28.758145 -0.445943 1.882744 -0.003883 0.003098 133770.000000 0 0 1
24.062118 -12.084611 -7.630454 27.986554 -0.465426 1.846940 -0.021765 0.008237 -557610.000000 0 0 1
24.809618 -11.649511 -6.326354 28.129185 -0.438997 1.797640 -0.017859 0.012990 -371949.000000 0 0 1
24.809118 -10.265111 -5.936054 27.497302 -0.392315 1.788387 -0.012937 0.011407 462974.000000 0 0 1
25.700818 -9.316511 -6.540154 28.108772 -0.347766 1.805622 -0.015445 0.009128 -557718.000000 0 0 1
25.706418 -7.969511 -5.840554 27.539882 -0.300624 1.784495 0.005864 0.006607 -632007.000000 0 0 1
26.333418 -7.904011 -4.594954 27.875364 -0.291596 1.736391 -0.001864 0.005735 213962.000000 0 0 1
27.734118 -7.759511 -4.703654 29.180742 -0.272807 1.732693 -0.013501 0.010136 -578087.000000 0 0 1
28.379918 -7.503511 -3.347854 29.545399 -0.258480 1.684352 -0.008556 0.008147 -490282.000000 0 0 1
28.215418 -6.237311 -2.717254 29.024082 -0.217562 1.664554 -0.010289 0.005168 319760.000000 0 0 1
28.922318 -6.244911 -1.497554 29.626712 -0.212655 1.621365 -0.008195 0.005366 -437614.000000 0 0 1
29.161118 -4.816311 -0.929054 29.570776 -0.163684 1.602219 -0.002353 0.001296 -29065.100000 0 0 1
27.972218 -4.322711 -0.340454 28.306302 -0.153323 1.582824 -0.006190 -0.001846 -40541.200000 0 0 1
28.051318 -3.035311 0.229746 28.215995 -0.107786 1.562654 -0.007468 -0.002723 -208810.000000 0 0 1
28.818218 -2.950111 1.588046 29.012321 -0.102014 1.516032 -0.000789 0.002213 245868.000000 0 0 1
27.966918 -3.346111 2.670846 28.292727 -0.119079 1.476255 -0.000912 -0.008449 1260870.000000 0 0 1
28.782218 -3.344811 3.865046 29.232558 -0.115692 1.438191 0.005593 -0.008426 311323.000000 0 0 1
28.251318 -4.363911 4.914946 29.005817 -0.153256 1.400528 0.000777 -0.014239 -501237.000000 0 0 1
28.600418 -5.707811 4.712246 29.542652 -0.196983 1.410606 0.000094 -0.015483 335728.000000 0 0 1
28.225318 -6.414311 5.872746 29.534745 -0.223459 1.370620 -0.004688 -0.015649 -178090.000000 0 0 1
29.074918 -7.709711 5.945546 30.661703 -0.259202 1.375652 -0.018880 -0.016265 223493.000000 0 0 1
30.457718 -7.444611 6.142446 31.950344 -0.239724 1.377342 -0.004178 -0.018911 262339.000000 0 0 1
31.206918 -8.652911 6.013946 32.938005 -0.270480 1.387183 -0.007654 -0.016953 341547.000000 0 0 1
32.744318 -8.482411 6.031946 34.358784 -0.253478 1.394324 0.005946 -0.010355 254652.000000 0 0 1
33.337518 -8.092911 4.797846 34.639640 -0.238150 1.431842 0.009008 -0.010992 -464134.000000 0 0 1
34.656018 -7.650411 4.917446 35.829453 -0.217268 1.433116 0.007189 -0.004813 -147286.000000 0 0 1
-34.308769 -7.309911 3.524146 35.255440 0.209924 1.470669 0.004415 0.000584 -159673.000000 0 0 1
-34.195269 -8.492911 2.746646 35.341053 0.243439 1.493000 0.007736 -0.001647 803026.000000 0 0 1
-33.336069 -8.298511 1.594546 34.390425 0.243976 1.524414 0.013685 -0.000947 278322.000000 0 0 1
-33.203169 -9.563411 0.753646 34.561210 0.280437 1.548988 0.010595 0.002780 -155676.000000 0 0 1
-32.718669 -10.665111 1.513346 34.446279 0.315104 1.526849 0.005948 0.001461 490382.000000 0 0 1
-32.687269 -11.873511 0.824046 34.786734 0.348426 1.547106 -0.000447 0.001568 -818545.000000 0 0 1
-32.534069 -13.110211 1.703646 35.117598 0.383063 1.522265 0.012384 -0.014017 1052730.000000 0 0 1
-31.230669 -13.345511 2.270146 34.038374 0.403835 1.504053 0.013445 -0.011441 817153.000000 0 0 1
-30.237869 -13.849511 1.416946 33.288818 0.429502 1.528218 0.018743 -0.003196 -360898.000000 0 0 1
-28.887969 -14.132911 2.112546 32.229129 0.454996 1.505202 0.014814 -0.002419 122235.000000 0 0 1
-28.274469 -12.918811 2.631046 31.197174 0.428583 1.486360 0.010452 -0.002866 507453.000000 0 0 1
-27.052869 -13.308411 3.244446 30.323225 0.457180 1.463596 0.010983 0.000753 -332592.000000 0 0 1
-26.219669 -12.162111 3.740946 29.144170 0.434315 1.442081 0.019185 0.001922 -906066.000000 0 0 1
-25.015169 -12.601811 4.310146 28.339755 0.466656 1.418115 0.018218 0.011164 -16889.900000 0 0 1
-24.293269 -11.453811 4.763446 27.277154 0.440573 1.395265 0.015057 0.007568 -570788.000000 0 0 1
-22.902569 -11.860611 5.228146 26.316065 0.477843 1.370798 0.015371 0.012784 -550756.000000 0 0 1
-22.896269 -12.384711 6.595446 26.853680 0.495834 1.322651 0.019757 0.023619 1218620.000000 0 0 1
-21.600469 -13.011211 6.828146 26.124614 0.542151 1.306357 0.019353 0.018677 1112860.000000 0 0 1
-21.051969 -13.031411 8.291146 26.110270 0.554281 1.247659 0.014310 0.012632 -290461.000000 0 0 1
-20.566369 -11.824411 8.824646 25.311393 0.521789 1.214673 0.008854 0.010962 1029380.000000 0 0 1
-21.567769 -10.806511 9.143446 25.798294 0.464487 1.208502 0.020751 0.010446 10853.800000 0 0 1
-22.009669 -10.843911 10.630146 26.739782 0.457781 1.161961 0.033824 0.009919 -735948.000000 0 0 1
-22.643369 -12.072411 10.906546 27.882217 0.489818 1.168899 0.029614 0.001086 645009.000000 0 0 1
-24.055869 -12.113311 10.688946 28.977072 0.466483 1.192997 0.027608 -0.000380 442334.000000 0 0 1
-24.898769 -11.470511 11.820146 29.853596 0.431705 1.163708 0.030020 -0.002304 -598829.000000 0 0 1
-24.991269 -12.381511 12.865346 30.714532 0.459988 1.138598 0.023257 -0.000459 -133450.000000 0 0 1
-25.998869 -12.030911 13.775946 31.787745 0.433404 1.122564 0.012963 -0.001376 -88578.200000 0 0 1
-26.082269 -12.884711 15.054246 32.755623 0.458838 1.093260 0.010861 -0.000982 -126009.000000 0 0 1
-26.364769 -14.281111 14.780946 33.429441 0.496428 1.112798 0.016628 -0.004569 273806.000000 0 0 1
-26.182469 -14.987611 15.953246 34.127060 0.519900 1.084374 0.008694 0.006660 -618942.000000 0 0 1
-25.949569 -16.495511 15.681346 34.516469 0.566239 1.099193 0.009685 -0.001652 -680299.000000 0 0 1
-27.063269 -17.305311 15.820046 35.807376 0.568915 1.113181 0.003462 -0.002449 -611897.000000 0 0 1
-26.666469 -18.676211 15.793346 36.184682 0.610970 1.119130 0.008413 0.002458 158515.000000 0 0 1
-27.646069 -19.597211 16.563646 37.718831 0.616648 1.116161 0.007648 0.000964 -37758.000000 0 0 1
-27.686769 -19.270111 17.961646 38.216686 0.608039 1.081511 -0.002977 0.005826 -210625.000000 0 0 1
-28.168569 -20.197111 18.900346 39.479294 0.622050 1.071576 -0.000602 0.001137 -424333.000000 0 0 1
-27.396269 -21.534511 19.023646 39.701257 0.666169 1.071088 -0.000097 0.001319 3199.140000 0 0 1
-26.196669 -21.305511 19.742646 39.114733 0.682793 1.041719 0.003825 0.003258 227479.000000 0 0 1
-25.504569 -22.536211 20.015846 39.484148 0.723688 1.039173 0.003227 0.006029 897947.000000 0 0 1
-24.134569 -22.308711 20.756546 38.871458 0.746105 1.007496 0.013270 0.011756 709521.000000 0 0 1
-23.082169 -21.770111 20.013546 37.513548 0.756154 1.008061 0.011143 0.012532 469735.000000 0 0 1
-21.806169 -21.811411 20.656646 37.120664 0.785518 0.980662 0.012237 0.017208 1166050.000000 0 0 1
-20.599269 -21.622611 19.670046 35.760004 0.809631 0.988364 0.010172 0.019828 293910.000000 0 0 1
-20.346169 -22.673811 18.716146 35.754195 0.839452 1.019881 0.009421 0.018230 488956.000000 0 0 1
-19.221669 -22.314511 17.918646 34.474452 0.859722 1.024219 0.002764 0.007237 150531.000000 0 0 1
-19.107069 -23.139611 16.619146 34.303319 0.880562 1.065032 -0.001900 0.008235 -339345.000000 0 0 1
-19.067769 -24.602811 16.650246 35.300267 0.911471 1.079607 -0.000020 0.006644 -646557.000000 0 0 1
-18.010369 -25.172441 17.312446 35.464715 0.949757 1.060816 -0.000924 0.001421 -108561.000000 0 0 1
-16.637569 -25.298941 16.558346 34.511215 0.989070 1.070374 -0.002699 -0.002897 787217.000000 0 0 1
-16.016169 -24.052911 16.308346 33.181657 0.983344 1.057000 -0.001125 -0.004925 -1492530.000000 0 0 1
-14.789869 -24.180611 15.716346 32.410580 1.021861 1.064531 -0.002583 -0.007472 -1428110.000000 0 0 1
-14.132069 -22.791411 15.746246 31.098361 1.015756 1.039865 -0.001231 -0.004965 -885583.000000 0 0 1
-14.688969 -21.754411 14.936346 30.201236 0.976897 1.053467 0.001802 0.001001 -160078.000000 0 0 1
-15.701469 -21.023811 15.605846 30.529972 0.929319 1.034257 0.000980 0.006968 -116636.000000 0 0 1
-15.252969 -19.856911 16.506746 29.990376 0.915784 0.987951 0.008843 0.008915 -308188.000000 0 0 1
-14.651769 -18.755811 15.852946 28.596690 0.907633 0.983199 0.008488 0.006861 -51064.900000 0 0 1
-14.544569 -17.654911 16.735246 28.342704 0.881695 0.939167 0.003172 0.006519 -506961.000000 0 0 1
-13.863169 -16.436411 16.053946 26.834162 0.870122 0.929462 0.004393 0.005365 -186316.000000 0 0 1
-14.546569 -15.803511 15.010346 26.204277 0.826789 0.960854 -0.005490 0.000149 -152610.000000 0 0 1
-14.610069 -16.568911 13.791446 26.042022 0.848141 1.012686 -0.004147 -0.000897 -433951.000000 0 0 1
-15.299869 -15.691311 12.759446 25.359549 0.798028 1.043566 -0.005339 -0.000593 -1005400.000000 0 0 1
-16.661369 -15.756011 13.008746 26.364381 0.757477 1.054778 -0.007247 -0.002580 -1102590.000000 0 0 1
-17.395069 -14.773111 12.350046 25.949121 0.704070 1.074772 -0.006150 -0.003995 -550961.000000 0 0 1
-18.925569 -14.830011 12.524846 27.110481 0.664659 1.090556 0.006947 -0.002969 23826.800000 0 0 1
-19.698169 -15.768311 11.831546 27.868315 0.675043 1.132329 0.014730 -0.002616 119545.000000 0 0 1
-19.444669 -15.852711 10.377446 27.149493 0.683985 1.178584 0.007987 0.004096 -920350.000000 0 0 1
-20.277769 -16.966611 9.755046 28.181816 0.696728 1.217335 0.003757 0.007546 -6978.280000 0 0 1
-19.841269 -18.286111 10.080546 28.804084 0.744632 1.213258 0.009911 0.010032 170099.000000 0 0 1
-20.842469 -19.193811 9.654546 29.933613 0.744242 1.242393 0.009364 0.015304 236921.000000 0 0 1
-20.386669 -20.712211 9.577846 30.599789 0.793319 1.252442 0.012151 0.012919 127609.000000 0 0 1
-19.532969 -20.972011 8.461846 29.882520 0.820911 1.283698 0.010157 0.011299 -142952.000000 0 0 1
-19.236369 -22.393611 8.481646 30.715632 0.861094 1.291026 -0.001533 0.005476 456330.000000 0 0 1
-17.982569 -22.696011 7.580946 29.932465 0.900754 1.314739 -0.002154 0.006174 715283.000000 0 0 1
-16.795369 -22.217811 8.201546 29.034134 0.923503 1.284418 -0.005736 0.008384 -326667.000000 0 0 1
-15.644269 -22.721711 7.560246 28.603787 0.967819 1.303309 -0.001610 0.014179 353155.000000 0 0 1
-14.373069 -22.441111 8.430546 27.951077 1.001143 1.264407 -0.011236 0.022478 1304240.000000 0 0 1
-13.142269 -22.619411 7.677246 27.263476 1.044452 1.285341 -0.004363 0.015848 779670.000000 0 0 1
-11.998969 -22.247111 8.421746 26.642729 1.076167 1.249181 0.001471 0.007297 -213400.000000 0 0 1
-10.695369 -22.642811 7.756746 26.215548 1.129511 1.270416 0.002745 0.004058 -513887.000000 0 0 1
-10.528669 -24.043511 7.953846 27.426392 1.158050 1.276562 0.000939 0.013345 -622114.000000 0 0 1
-9.347169 -24.519111 7.386446 27.260154 1.206584 1.296405 0.001038 0.012403 -343409.000000 0 0 1
-9.187169 -26.046991 7.370846 28.586346 1.231705 1.310005 -0.007334 0.020705 -109796.000000 0 0 1
-9.941469 -26.697381 6.342946 29.185886 1.214328 1.351719 -0.006788 0.018628 -12739.300000 0 0 1
-9.929369 -28.097191 6.450746 30.490272 1.231101 1.357618 -0.005674 0.014932 216286.000000 0 0 1
-8.730569 -28.876791 5.827946 30.725508 1.277195 1.379962 -0.007209 0.009101 1599830.000000 0 0 1
-7.433369 -28.540581 6.441446 30.187944 1.316008 1.355765 -0.010596 0.009726 1530330.000000 0 0 1
-6.358469 -29.358731 5.972446 30.627363 1.357512 1.374535 -0.013976 0.013934 509739.000000 0 0 1
-6.356469 -30.865511 6.379846 32.152557 1.367695 1.371046 -0.017841 0.016890 -634472.000000 0 0 1
-6.463569 -31.076431 7.760246 32.676348 1.365731 1.331017 -0.017697 0.022923 97455.000000 0 0 1
-6.030769 -32.345871 8.166746 33.901642 1.386466 1.327508 -0.007373 0.016428 -153748.000000 0 0 1
-6.419169 -32.560491 9.619046 34.553110 1.376147 1.288685 0.001401 0.017823 -381872.000000 0 0 1
-5.604769 -31.808661 10.472046 33.953912 1.396384 1.257265 -0.012231 0.020438 56222.100000 0 0 1
-6.062169 -31.909591 11.802646 34.558275 1.383054 1.222253 -0.003455 0.009624 298391.000000 0 0 1
-5.216069 -31.042011 12.806546 33.982664 1.404319 1.184397 -0.008229 0.013850 435681.000000 0 0 1
-5.479569 -29.658321 12.580646 32.678959 1.388100 1.175613 -0.014009 0.011277 168083.000000 0 0 1
-4.737569 -28.854981 13.511746 32.212137 1.408063 1.137944 -0.014056 0.003258 -186777.000000 0 0 1
-5.507369 -28.324501 14.781346 32.420621 1.378754 1.097386 -0.004322 0.000954 -193633.000000 0 0 1
-5.927169 -29.297431 15.705846 33.766025 1.371180 1.087006 -0.001912 0.001446 593097.000000 0 0 1
-4.905269 -29.916241 16.513746 34.521688 1.408276 1.072012 -0.002387 -0.000503 420070.000000 0 0 1
-5.549469 -31.189531 17.070446 35.985881 1.394712 1.076554 -0.001865 -0.000720 213655.000000 0 0 1
-5.703169 -32.173591 16.065246 36.410963 1.395356 1.113839 0.000768 0.000484 48163.800000 0 0 1
-6.101069 -33.435831 16.545446 37.801186 1.390311 1.117761 0.001340 -0.002917 161328.000000 0 0 1
-5.296869 -34.581978 15.893146 38.426061 1.418809 1.144388 -0.000246 -0.007540 -17963.700000 0 0 1
-5.867069 34.506755 14.641046 37.940728 -1.402380 1.174621 0.005449 -0.008821 185136.000000 0 0 1
-5.156569 33.422297 14.087746 36.634748 -1.417718 1.176080 0.011340 -0.009682 672627.000000 0 0 1
-3.822769 33.803761 13.348846 36.544487 -1.458188 1.196866 0.005732 -0.010754 303141.000000 0 0 1
-4.154769 34.093327 11.966146 36.370396 -1.449530 1.235544 0.000362 -0.010000 -287815.000000 0 0 1
-3.105769 34.578552 11.205246 36.481223 -1.481219 1.258598 -0.005883 -0.005152 -940159.000000 0 0 1
-3.559769 -34.538078 9.767346 36.068710 1.468091 1.296574 -0.010916 -0.001003 -840196.000000 0 0 1
-3.776769 33.934090 8.740146 35.244526 -1.459955 1.320196 -0.008624 -0.010268 208894.000000 0 0 1
-4.650769 32.840627 8.962046 34.357746 -1.430115 1.306899 0.000519 -0.006765 -350197.000000 0 0 1
-6.129069 33.104197 9.231246 34.909444 -1.387725 1.303179 0.012356 -0.001921 -716910.000000 0 0 1
-6.857769 33.317487 8.067346 34.959491 -1.367800 1.337935 0.012459 -0.003948 201145.000000 0 0 1
-8.205469 33.743067 8.335346 35.712775 -1.332251 1.335224 0.013421 -0.004792 1000810.000000 0 0 1
-9.048969 34.136520 7.095246 36.021221 -1.311674 1.372526 0.019953 -0.004559 -75158.300000 0 0 1
-8.768069 -34.046621 6.579546 35.767889 1.318742 1.385792 0.017008 0.003058 231689.000000 0 0 1
-9.438069 -33.935691 5.337046 35.625726 1.299535 1.420421 0.011456 0.004194 -615446.000000 0 0 1
-9.505969 -32.524761 4.804846 34.224408 1.286447 1.429939 0.001027 0.005496 98741.600000 0 0 1
-10.455669 -31.642251 5.349646 33.751619 1.251658 1.411625 0.012939 0.004549 921512.000000 0 0 1
-11.852569 -31.893371 5.051746 34.397539 1.214982 1.423400 0.017393 0.005212 961401.000000 0 0 1
-12.770569 -30.907421 5.818646 33.944260 1.178973 1.398528 0.008810 0.005345 -1295.400000 0 0 1
-12.831269 -31.320651 7.151746 34.594395 1.181978 1.362563 0.003435 0.005006 -332594.000000 0 0 1
-13.720769 -30.453321 7.782346 34.296198 1.147484 1.341887 -0.004568 0.005779 -108441.000000 0 0 1
31.939946 -13.042311 -13.150654 36.921562 -0.387674 1.934971 0.008378 0.002824 223151.000000 0 0 1
31.043756 -13.020611 -12.023954 35.746700 -0.397141 1.913851 0.011704 0.002898 537021.000000 0 0 1
30.679336 -14.315411 -11.520454 35.761341 -0.436584 1.898794 0.007651 0.005270 -195699.000000 0 0 1
31.669696 -15.000511 -10.589254 36.607612 -0.442350 1.864254 0.009440 0.001451 30426.500000 0 0 1
32.969936 -15.268111 -11.082554 37.986246 -0.433688 1.866854 0.016623 -0.001757 406437.000000 0 0 1
33.819131 -15.807711 -10.036354 38.656768 -0.437245 1.833433 0.005984 -0.003479 -245217.000000 0 0 1
-34.379791 -16.083211 -10.552854 39.395462 0.437566 1.841978 -0.005450 -0.010959 -944377.000000 0 0 1
-33.744662 -14.909811 -10.977554 38.490406 0.416049 1.860014 -0.007921 -0.008314 132538.000000 0 0 1
-32.369972 -15.125411 -11.241854 37.456273 0.437120 1.875628 -0.006647 -0.009888 401603.000000 0 0 1
-31.536962 -13.831411 -11.519754 36.312431 0.413315 1.893614 0.001657 -0.013598 -104120.000000 0 0 1
-31.589832 -12.898711 -10.430254 35.680309 0.387657 1.867454 0.000179 -0.008986 402717.000000 0 0 1
-31.094042 -11.621311 -10.866654 34.928190 0.357672 1.887161 0.003303 -0.008074 -333555.000000 0 0 1
-31.587652 -10.451611 -10.071154 34.762682 0.319538 1.864722 0.003968 -0.009666 -321563.000000 0 0 1
-31.136932 -10.344011 -8.755354 33.958258 0.320740 1.831569 0.007498 -0.001161 -92951.400000 0 0 1
-32.014182 -9.578111 -8.003754 34.361434 0.290707 1.805884 0.010924 0.003275 -498634.000000 0 0 1
-31.571582 -9.403211 -6.559054 33.588783 0.289472 1.767334 0.020095 0.006568 130256.000000 0 0 1
-30.496062 -8.446011 -6.360754 32.276990 0.270182 1.769162 0.021209 0.005303 1016350.000000 0 0 1
-30.124342 -8.179611 -4.972554 31.608674 0.265136 1.728769 0.024616 0.008052 -98848.200000 0 0 1
-29.318492 -9.246511 -4.237454 31.032691 0.305508 1.707772 0.025995 0.012295 -646290.000000 0 0 1
-30.003592 -10.493611 -4.140554 32.054260 0.336448 1.700332 0.037029 0.005153 422549.000000 0 0 1
-30.021152 -11.060911 -2.844254 32.120135 0.353005 1.659463 0.026019 0.003324 -333540.000000 0 0 1
-30.634232 -12.465511 -2.841854 33.195199 0.386453 1.656512 0.020075 -0.001499 1336820.000000 0 0 1
-32.091892 -12.559611 -2.907954 34.584528 0.373039 1.654978 0.011150 -0.000897 1837740.000000 0 0 1
-32.509672 -13.832511 -2.464354 35.415959 0.402285 1.640436 0.005699 -0.005183 62734.800000 0 0 1
-34.058262 -13.765011 -2.399054 36.812989 0.384088 1.636011 -0.007882 -0.002601 199541.000000 0 0 1
-34.582342 -12.926511 -1.358154 36.944250 0.357709 1.607567 -0.000373 -0.001712 669654.000000 0 0 1
33.595274 -12.773611 -1.409954 35.969369 -0.363340 1.610005 0.008232 -0.004972 414231.000000 0 0 1
33.049676 -11.903211 -0.265654 35.128878 -0.345698 1.578359 0.014170 -0.006537 -317852.000000 0 0 1
33.342036 -12.361311 1.034146 35.574750 -0.355033 1.541723 0.020207 -0.003910 176212.000000 0 0 1
33.164066 -11.321411 1.985946 35.099481 -0.328971 1.514186 0.015569 -0.005491 -277567.000000 0 0 1
33.635574 -11.801711 3.330146 35.801146 -0.337450 1.477644 0.007125 -0.005826 440786.000000 0 0 1
32.687636 -12.589011 4.090946 35.266139 -0.367623 1.454532 0.002168 -0.013923 594523.000000 0 0 1
33.300616 -13.085411 5.272246 36.165668 -0.374412 1.424495 0.007135 -0.007672 102638.000000 0 0 1
32.257396 -13.377711 6.397946 35.502626 -0.393129 1.389596 0.004693 -0.004534 532370.000000 0 0 1
31.592226 -12.193611 6.857346 34.551065 -0.368352 1.371000 -0.002250 -0.006395 7877.390000 0 0 1
31.613856 -11.997411 8.226746 34.800188 -0.362709 1.332138 -0.001926 -0.001850 -449136.000000 0 0 1
31.125076 -10.659211 8.748346 34.042953 -0.329945 1.310901 -0.012509 -0.015954 266328.000000 0 0 1
29.747906 -10.398411 8.454146 32.627250 -0.336275 1.308693 -0.016303 -0.015482 576519.000000 0 0 1
29.285536 -9.322311 9.311946 32.113244 -0.308183 1.276599 -0.017481 -0.010456 -1366840.000000 0 0 1
27.791226 -9.481211 9.258046 30.788911 -0.328777 1.265376 -0.024083 -0.006103 -1147220.000000 0 0 1
27.207496 -9.040511 8.020946 29.771030 -0.320802 1.298004 -0.020359 -0.013007 186152.000000 0 0 1
26.155466 -9.830811 7.503646 28.931954 -0.359525 1.308442 -0.011941 -0.015740 -461019.000000 0 0 1
25.376156 -9.249411 6.356846 27.747259 -0.349527 1.339645 -0.011595 -0.015661 -541783.000000 0 0 1
24.784616 -8.069911 6.815246 26.941571 -0.314776 1.315054 -0.007168 -0.013145 221452.000000 0 0 1
23.795506 -7.539311 5.942446 25.658916 -0.306832 1.337081 -0.000986 -0.013156 -103209.000000 0 0 1
24.263306 -6.385311 5.040946 25.590845 -0.257333 1.372517 -0.005966 -0.010306 -710732.000000 0 0 1
24.858106 -6.882111 3.896546 26.085857 -0.270091 1.420861 -0.009510 -0.012031 95729.100000 0 0 1
25.421096 -5.727311 3.271346 26.262824 -0.221598 1.445910 0.000882 -0.009274 -352312.000000 0 0 1
25.878766 -5.953011 1.785746 26.614615 -0.226101 1.503649 -0.004850 -0.008528 311423.000000 0 0 1
24.838566 -6.034711 0.820846 25.574321 -0.238339 1.538694 -0.004688 -0.008187 605968.000000 0 0 1
25.481416 -6.044311 -0.451154 26.192361 -0.232900 1.588022 -0.004976 -0.004211 -845237.000000 0 0 1
24.499106 -6.031611 -1.581454 25.280180 -0.241396 1.633394 -0.008012 -0.004888 -510004.000000 0 0 1
23.679706 -4.898611 -1.743354 24.243847 -0.203992 1.642768 0.000214 -0.004728 10599.500000 0 1 0
23.205306 -4.966311 -3.070354 23.928592 -0.210836 1.699464 0.005875 -0.007011 -43902.200000 0 1 0
22.209306 -3.781011 -3.253754 22.762606 -0.168628 1.714231 0.002769 -0.007939 -244895.000000 0 1 0
22.824706 -2.499211 -3.282754 23.194605 -0.109061 1.712804 -0.006485 -0.004619 598007.000000 0 1 0
23.174006 -1.938111 -4.577854 23.701214 -0.083439 1.765166 -0.005859 0.000101 -325504.000000 0 1 0
22.090406 -1.036811 -5.196154 22.716976 -0.046900 1.801574 -0.001106 0.001372 -193020.000000 0 1 0
22.049006 0.246689 -4.517554 22.508394 0.011188 1.772874 0.004079 0.002665 229638.000000 0 1 0
20.963906 0.946089 -5.048654 21.584006 0.045099 1.806891 0.006119 -0.000172 -1000350.000000 0 1 0
20.695206 2.330489 -4.361354 21.277785 0.112138 1.777232 0.007946 0.002189 -1092100.000000 0 1 0
21.710706 3.266889 -4.501854 22.411916 0.149353 1.773041 0.004470 -0.001450 -166478.000000 0 1 0
22.689006 3.012889 -3.517454 23.156877 0.132018 1.723283 0.006464 0.008986 -185150.000000 0 1 0
23.858306 4.047589 -3.489354 24.449485 0.168051 1.714002 -0.002991 0.008005 203080.000000 0 1 0
23.416406 5.329189 -3.110454 24.215764 0.223772 1.699600 -0.012641 0.005242 350193.000000 0 1 0
24.570636 6.103589 -2.913854 25.484514 0.243482 1.685385 -0.012788 0.007418 -439921.000000 0 0 1
24.481306 7.655789 -3.039154 25.829864 0.303085 1.688730 -0.013749 0.002885 -213945.000000 0 0 1
23.700306 8.232089 -2.007754 25.169482 0.334304 1.650651 -0.008356 0.008040 -645771.000000 0 0 1
22.561506 8.822389 -2.494854 24.353242 0.372756 1.673421 -0.005756 0.002069 -683001.000000 0 1 0
21.475706 8.980789 -1.367954 23.318057 0.396083 1.629495 -0.009862 0.006489 202856.000000 0 1 0
21.969606 9.903489 -0.464354 24.103076 0.423504 1.590063 -0.013288 0.010508 1128810.000000 0 1 0
20.888606 10.301089 0.392946 23.293791 0.458148 1.553926 -0.011003 0.013836 446441.000000 0 1 0
21.361606 10.991589 1.683246 24.082494 0.475219 1.500844 0.004427 0.005680 -215634.000000 0 1 0
22.094206 12.244689 1.478346 25.303593 0.506065 1.512339 0.004021 0.008862 1212050.000000 0 0 1
21.302506 13.463789 1.392646 25.239053 0.563637 1.515590 0.002300 0.006193 -784693.000000 0 0 1
20.337506 13.871689 2.516146 24.746088 0.598594 1.468942 0.000996 0.005484 -3317.350000 0 1 0
19.188706 13.007489 2.607246 23.328071 0.595720 1.458798 0.027641 0.004911 676610.000000 0 1 0
18.224906 13.648689 3.440646 23.027634 0.642799 1.420821 0.017673 0.001563 -482184.000000 0 1 0
18.418106 13.488389 4.968246 23.363363 0.632105 1.356509 0.013227 0.004346 -564175.000000 0 1 0
17.828906 12.322089 5.497446 22.359017 0.604748 1.322378 0.005120 0.005228 403747.000000 0 1 0
18.027906 12.190389 6.915346 22.834907 0.594571 1.263124 0.002909 0.002548 -108332.000000 0 1 0
18.141206 10.748289 7.369446 22.336915 0.534871 1.234575 -0.000779 0.000474 -950857.000000 0 1 0
19.108306 10.013289 6.756846 22.606377 0.482685 1.267266 -0.016420 -0.011665 -491899.000000 0 1 0
19.230906 8.750089 7.375846 22.378447 0.427005 1.234921 -0.002947 -0.005097 -417675.000000 0 1 0
20.267806 7.882589 6.686446 22.751433 0.370920 1.272501 -0.000524 -0.006223 -299866.000000 0 1 0
19.920806 7.716289 5.307146 22.012392 0.369552 1.327299 -0.000044 -0.008974 994827.000000 0 1 0
20.777606 6.733689 4.706246 22.342789 0.313403 1.358569 -0.003558 -0.013540 -185420.000000 0 1 0
20.617006 6.634089 3.146546 21.885447 0.311315 1.426523 0.001974 -0.007954 91652.600000 0 1 0
21.461706 5.630389 2.543746 22.333310 0.256564 1.456649 -0.008901 -0.009706 653970.000000 0 1 0
21.453306 5.770289 1.112846 22.243628 0.262751 1.520746 0.008264 0.003170 -282397.000000 0 1 0
22.544506 4.902789 0.502246 23.076922 0.214137 1.549031 0.006853 0.000494 -128459.000000 0 1 0
22.183206 3.567489 0.537946 22.474674 0.159454 1.546858 -0.004415 0.006551 1275520.000000 0 1 0
23.424006 2.843889 0.491546 23.601131 0.120818 1.549968 -0.003203 0.009925 745575.000000 0 1 0
23.211306 1.303889 0.515046 23.253604 0.056116 1.548645 -0.000578 0.003128 -98470.600000 0 1 0
22.342706 0.897589 -0.540154 22.367251 0.040152 1.594948 0.011424 -0.001792 981526.000000 0 1 0
22.620206 -0.444211 -0.968754 22.645298 -0.019635 1.613589 0.016012 -0.000810 -735926.000000 0 1 0
22.260006 -1.649511 -0.054054 22.321103 -0.073967 1.573218 0.014004 0.000380 144480.000000 0 1 0
23.014206 -1.788711 1.178446 23.113673 -0.077566 1.519789 0.003630 0.000980 1128330.000000 0 1 0
24.359006 -2.234411 0.944846 24.479512 -0.091472 1.532189 0.009164 -0.002520 81413.800000 0 1 0
25.191586 -1.816011 2.177046 25.350610 -0.071964 1.484813 0.002353 -0.006888 -1030730.000000 0 0 1
25.238606 -0.472611 2.378946 25.354880 -0.018724 1.476832 -0.008377 -0.004046 656712.000000 0 0 1
26.156336 -0.003011 3.373046 26.372928 -0.000115 1.442547 -0.001868 -0.004669 150929.000000 0 0 1
25.773316 1.407689 3.836346 26.095267 0.054564 1.423248 -0.005604 -0.001406 -422492.000000 0 0 1
25.865436 2.449789 2.898446 26.142364 0.094431 1.459696 -0.012804 0.002649 -316848.000000 0 0 1
27.168366 2.926889 2.806146 27.469278 0.107318 1.468462 -0.002991 -0.001173 -521567.000000 0 0 1
27.285616 4.097289 1.795646 27.649899 0.149049 1.505808 -0.004491 -0.001916 -300022.000000 0 0 1
26.604566 3.771789 0.563546 26.876512 0.140834 1.549827 -0.011123 0.003454 571927.000000 0 0 1
26.903906 4.675389 -0.539954 27.312469 0.172063 1.590567 -0.017821 0.006818 30881.900000 0 0 1
28.320786 4.502989 -1.170954 28.700434 0.157680 1.611607 -0.009327 0.010603 -231611.000000 0 0 1
29.290246 4.667089 -0.199254 29.660410 0.158011 1.577514 0.003047 0.004378 -828037.000000 0 0 1
30.617826 4.586689 -0.676654 30.966867 0.148699 1.592649 0.004273 0.011236 50498.600000 0 0 1
31.618596 4.797389 0.473246 31.983972 0.150578 1.555999 -0.010676 0.008009 -259379.000000 0 0 1
31.672246 3.739389 1.401346 31.923000 0.117521 1.526885 -0.009853 0.005093 464380.000000 0 0 1
31.054656 4.129789 2.655146 31.440366 0.132209 1.486245 -0.003119 0.007851 175166.000000 0 0 1
31.313076 3.080989 3.793146 31.692099 0.098077 1.450821 -0.002294 0.005500 -82059.300000 0 0 1
30.396116 2.011789 3.591046 30.673551 0.066089 1.453454 0.003766 -0.000996 296341.000000 0 0 1
30.487296 0.871389 4.429946 30.819782 0.028574 1.426560 0.005505 0.000985 -315569.000000 0 0 1
31.681086 -0.147411 4.356946 31.979617 -0.004653 1.434130 0.010302 0.001090 -356936.000000 0 0 1
32.841516 0.576489 4.596046 33.166566 0.017552 1.431774 -0.004343 0.003175 -852172.000000 0 0 1
33.979889 -0.191811 4.300646 34.251499 -0.005645 1.444903 -0.007267 0.004052 -584074.000000 0 0 1
-34.306069 0.565389 4.582446 34.615384 -0.016479 1.438025 -0.011380 0.002960 -366071.000000 0 0 1
-34.047732 1.700989 3.758646 34.296776 -0.049917 1.460984 -0.009750 0.004645 217267.000000 0 0 1
-34.205973 1.605989 2.335746 34.323221 -0.046916 1.502692 -0.007545 0.013163 -897799.000000 0 0 1
-34.382986 2.948789 1.649446 34.548600 -0.085554 1.523035 -0.023347 0.004574 1350750.000000 0 0 1
-33.258732 3.898989 1.716346 33.530452 -0.116699 1.519586 -0.010590 0.006167 2029210.000000 0 0 1
-32.049692 3.504289 1.039246 32.257446 -0.108907 1.538574 0.008068 0.006465 -169097.000000 0 0 1
-30.839352 4.394589 1.335146 31.179491 -0.141546 1.527962 0.007308 0.003508 -741215.000000 0 0 1
-30.320422 3.955889 2.516346 30.680760 -0.129737 1.488687 0.004641 0.000778 -235018.000000 0 0 1
-29.852252 5.113989 3.171946 30.452768 -0.169663 1.466448 0.014426 -0.004209 -512491.000000 0 0 1
-29.829702 4.959389 4.740246 30.608440 -0.164750 1.415303 0.003693 -0.001528 -353455.000000 0 0 1
-31.056792 5.047089 5.404546 31.925014 -0.161103 1.400688 -0.004962 0.005985 -140346.000000 0 0 1
-31.764122 3.813289 5.463646 32.455385 -0.119478 1.401648 -0.008667 0.002655 -364371.000000 0 0 1
-31.675392 3.099889 6.878146 32.561459 -0.097554 1.357957 -0.010321 0.004267 -532713.000000 0 0 1
-32.411522 3.826989 7.839646 33.565051 -0.117531 1.335053 -0.009353 0.016974 408046.000000 0 0 1
-32.629062 3.261889 9.155946 34.045953 -0.099638 1.298515 0.001079 0.017709 -116862.000000 0 0 1
-33.370242 1.915189 9.346646 34.707359 -0.057329 1.298132 -0.007292 0.020798 -593972.000000 0 0 1
-32.773202 0.859789 8.723046 33.925116 -0.026228 1.310749 -0.006731 0.018065 315193.000000 0 0 1
-33.620662 -0.316811 8.654846 34.718232 0.009423 1.318851 -0.005978 0.014922 357383.000000 0 0 1
-33.743372 -1.141711 9.956446 35.200134 0.033822 1.284030 0.004485 0.016224 -789697.000000 0 0 1
-32.600042 -1.906911 10.110046 34.184968 0.058428 1.270561 0.010062 0.009641 -161915.000000 0 0 1
-32.783712 -2.837111 11.179546 34.753463 0.086325 1.243291 0.007903 0.012640 854194.000000 0 0 1
-31.443842 -3.671111 11.261846 33.600914 0.116225 1.229016 0.003055 0.009465 741765.000000 0 0 1
-31.350832 -4.572211 10.194346 33.282194 0.144819 1.259492 0.007419 0.008602 922584.000000 0 0 1
-30.187792 -5.407611 10.384646 32.378788 0.177252 1.244303 0.002689 0.000026 662262.000000 0 0 1
-30.178472 -6.429811 9.272846 32.219067 0.209921 1.278861 0.002225 0.005980 416064.000000 0 0 1
-31.179482 -7.437211 9.435046 33.413953 0.234154 1.284534 0.005230 -0.000336 203882.000000 0 0 1
-31.161962 -8.344611 8.320846 33.315715 0.261643 1.318367 0.006476 0.004451 -277042.000000 0 0 1
-32.154172 -9.495111 8.303246 34.539713 0.287139 1.328021 0.007569 -0.001956 43786.600000 0 0 1
-33.502262 -9.090611 8.315046 35.695668 0.264963 1.335694 0.006757 -0.003600 73906.700000 0 0 1
-34.495300 -10.084511 8.261246 36.876432 0.284419 1.344854 0.009816 -0.008262 55803.300000 0 0 1
7.165118 -24.269011 10.905846 27.554697 -1.283715 1.163869 0.008247 -0.002029 -257667.000000 0 0 1
6.832318 -25.175221 9.892646 27.898688 -1.305789 1.208319 0.009101 0.003239 -450157.000000 0 0 1
5.488918 -25.564271 10.047246 28.010843 -1.359297 1.203931 0.010268 0.001543 47704.000000 0 0 1
5.177418 -26.661771 9.027046 28.620679 -1.378995 1.249915 0.008677 0.006173 -76594.200000 0 0 1
4.756618 -26.125481 7.772946 27.669205 -1.390701 1.286039 0.012901 0.009810 -274824.000000 0 0 1
4.463518 -27.067551 6.758446 28.253352 -1.407364 1.329246 0.012595 0.008286 -522705.000000 0 0 1
3.863518 -26.416911 5.470346 27.252608 -1.425574 1.368696 0.008566 0.006851 1321700.000000 0 0 1
2.428518 -26.296011 5.438546 26.962116 -1.478704 1.367692 0.002031 0.004778 761666.000000 0 0 1
1.698918 -27.503351 5.176546 28.037783 -1.509103 1.385103 0.000459 -0.000974 -1169980.000000 0 0 1
0.232618 -27.220841 4.979146 27.673457 -1.562251 1.389886 0.004166 0.000294 -1117830.000000 0 0 1
-0.357582 -26.965261 6.255046 27.683547 1.557536 1.342880 0.005778 0.003833 490393.000000 0 0 1
-1.796382 -27.050291 6.281346 27.828053 1.504485 1.343114 -0.016126 0.005273 1281450.000000 0 0 1
-2.361882 -28.502221 6.485746 29.326098 1.488119 1.347793 -0.019620 0.010491 -428519.000000 0 0 1
-2.094082 -28.992741 7.810646 30.099343 1.498694 1.308296 -0.009454 0.005411 126600.000000 0 0 1
-2.649782 -30.280621 8.104546 31.458243 1.483511 1.310229 -0.022406 0.010978 22398.600000 0 0 1
-2.390482 -30.786871 9.534846 32.318093 1.493306 1.271308 -0.019987 0.010561 -625967.000000 0 0 1
-1.073482 -31.172151 9.698346 32.663639 1.536373 1.269335 -0.008588 0.004458 -1071170.000000 0 0 1
-0.862482 -31.651471 11.000546 33.519719 1.543554 1.236419 -0.011493 0.009572 677383.000000 0 0 1
0.602218 -31.982691 11.443746 33.973733 -1.551969 1.227237 -0.006621 0.000375 654137.000000 0 0 1
1.121518 -33.246041 10.946446 35.019734 -1.537075 1.252889 -0.006476 -0.002996 459865.000000 0 0 1
2.504018 -33.476171 11.187846 35.384913 -1.496135 1.249101 -0.002132 -0.003193 507241.000000 0 0 1
2.916218 -33.974171 12.575046 36.343919 -1.485170 1.217490 -0.001375 -0.004212 -748450.000000 0 0 1
2.709718 -33.108231 13.705046 35.935023 -1.489134 1.179503 0.009715 -0.007202 404613.000000 0 0 1
3.503018 -33.558301 14.815246 36.849997 -1.466787 1.157050 0.006413 -0.005654 -328000.000000 0 0 1
3.211518 -32.633211 16.011346 36.491143 -1.472700 1.116563 -0.000552 -0.004919 -88597.800000 0 0 1
3.600918 -31.296311 15.891146 35.283909 -1.456241 1.103606 -0.009887 -0.010620 227321.000000 0 0 1
5.011518 -31.189631 16.065046 35.440007 -1.411479 1.100329 -0.006567 -0.005227 176659.000000 0 0 1
5.650218 -29.919811 15.318546 34.084864 -1.384149 1.104676 -0.002643 -0.005387 -214197.000000 0 0 1
5.745618 -29.876791 13.913246 33.454644 -1.380805 1.141882 -0.005724 -0.000229 23623.000000 0 0 1
4.533318 -30.096341 13.187446 33.170009 -1.421293 1.161928 -0.011594 -0.004520 -294921.000000 0 0 1
4.579518 -29.897051 11.676246 32.421295 -1.418801 1.202377 -0.001894 -0.002781 64945.000000 0 0 1
5.066918 -31.005661 10.953246 33.271584 -1.408809 1.235332 0.001443 -0.007040 324910.000000 0 0 1
6.459618 -31.270691 11.089746 33.801853 -1.367091 1.236525 0.001605 -0.002968 -148812.000000 0 0 1
6.908918 -32.672641 10.637646 35.048454 -1.362407 1.262419 0.000394 -0.005318 -491707.000000 0 0 1
6.525918 -33.751271 11.444446 36.231358 -1.379800 1.249421 -0.009693 -0.001776 128913.000000 0 0 1
6.765118 34.500173 10.795846 36.777426 1.377164 1.272863 0.001050 -0.002041 -49188.300000 0 0 1
6.334618 33.239817 11.640146 35.784157 1.382481 1.239480 -0.010749 0.001320 -527887.000000 0 0 1
4.997618 33.233607 12.008646 35.688324 1.421536 1.227613 -0.004107 -0.002857 -787192.000000 0 0 1
4.640418 31.874157 12.393346 34.512178 1.426226 1.203492 -0.000537 0.001937 -76332.600000 0 0 1
3.519718 31.806777 13.433846 34.706307 1.460585 1.173342 0.007009 0.001565 -298970.000000 0 0 1
3.813918 32.455877 14.653246 35.814070 1.453822 1.149276 0.018510 0.000024 154677.000000 0 0 1
2.891118 32.038297 15.652546 35.774478 1.480801 1.117942 0.015325 0.004812 195976.000000 0 0 1
3.482618 32.236977 17.055246 36.636495 1.463182 1.086567 0.012542 0.004440 -97101.800000 0 0 1
3.629018 33.548072 17.504746 38.013933 1.463042 1.092258 0.004096 -0.002462 90398.400000 0 0 1
4.296418 33.530952 18.755746 38.659565 1.443358 1.064260 -0.000687 -0.000637 -91922.500000 0 0 1
4.604018 -34.554905 19.273346 39.833407 -1.438339 1.065749 -0.011701 -0.000706 407590.000000 0 0 1
3.397918 -33.825961 19.514846 39.199116 -1.470679 1.049691 -0.014127 -0.002855 215821.000000 0 0 1
3.694118 -32.620591 20.143446 38.516333 -1.458032 1.020448 -0.018523 -0.001336 -431129.000000 0 0 1
2.489618 -31.825701 20.623946 38.005534 -1.492729 0.997200 -0.016497 0.003200 -892989.000000 0 0 1
1.722418 -32.649051 21.408246 39.079922 -1.518090 0.991056 -0.015273 0.002765 -729901.000000 0 0 1
0.752718 -31.911411 22.129946 38.841206 -1.547213 0.964589 -0.010323 0.001811 -878349.000000 0 0 1
-0.170982 -32.811451 22.838346 39.977627 1.565585 0.962734 -0.009305 0.007708 -737763.000000 0 0 1
-1.021182 -33.556661 21.908246 40.088198 1.540374 0.992616 -0.000559 0.003400 410215.000000 0 0 1
-1.697282 -34.648658 22.506046 41.351329 1.521850 0.995285 -0.000528 0.004751 463896.000000 0 0 1
-3.011282 -34.306955 23.306046 41.583732 1.483246 0.975854 -0.004641 0.007340 949937.000000 0 0 1
-4.033282 -33.835981 22.393246 40.774974 1.452155 0.989401 -0.002292 -0.003208 -383459.000000 0 0 1
-5.193682 -33.555811 23.079746 41.056564 1.417237 0.973819 -0.001460 0.000745 -86985.700000 0 0 1
-6.505782 -33.153551 22.335246 40.501190 1.377027 0.986669 0.005564 -0.003959 890059.000000 0 0 1
-7.149782 -34.229809 21.628346 41.116719 1.364881 1.016879 0.003149 -0.002396 350108.000000 0 0 1
-8.206882 -33.806431 20.779646 40.521863 1.332642 1.032352 0.006008 -0.012126 122977.000000 0 0 1
-9.427682 34.734415 20.682346 41.510484 -1.305760 1.049224 0.006764 -0.008490 339432.000000 0 0 1
-9.925182 34.473463 22.003046 42.083998 -1.290470 1.020621 0.015486 -0.006155 -166103.000000 0 0 1
-11.191882 33.856256 22.001946 41.899761 -1.251534 1.017953 0.018559 -0.009319 -70458.100000 0 0 1
-11.724782 33.546410 23.463446 42.583629 -1.234559 0.987238 0.023384 -0.007828 47702.600000 0 0 1
-12.126982 34.644264 24.305946 44.023491 -1.234083 0.985900 0.025480 -0.010316 240050.000000 0 0 1
-10.975882 -34.204231 24.813746 43.659150 1.260284 0.966295 0.022310 -0.003124 -211647.000000 0 0 1
-11.264282 -32.762201 25.257046 42.873818 1.239638 0.940849 0.011995 0.003700 -218939.000000 0 0 1
-11.905882 -32.650451 26.505246 43.707323 1.221133 0.919239 0.014562 0.001748 593.171000 0 0 1
-12.214082 -31.311861 26.747346 42.953894 1.198872 0.898609 0.017989 0.005798 17123.600000 0 0 1
-13.035782 -31.008691 28.044546 43.794601 1.172836 0.875822 0.007515 0.001887 -154785.000000 0 0 1
-12.294982 -30.574301 29.165246 44.006432 1.188451 0.846312 0.009461 -0.001112 -85589.300000 0 0 1
-13.139682 -30.276251 30.236146 44.760777 1.161333 0.829146 0.005110 -0.001599 -259834.000000 0 0 1
-12.404782 -29.886131 31.505146 45.162304 1.177368 0.798756 0.005439 -0.002739 -37690.000000 0 0 1
-13.367682 -29.428441 32.466946 45.812997 1.144419 0.783165 0.002120 -0.003659 604584.000000 0 0 1
-12.920282 -29.208031 33.841246 46.532491 1.154319 0.756474 0.010418 -0.002515 -200214.000000 0 0 1
-12.235282 -30.322941 34.682346 47.666005 1.187277 0.755962 0.011917 -0.001977 -394789.000000 0 0 1
-10.932882 -30.545081 34.231946 47.163079 1.227078 0.758569 0.016731 -0.000926 -797582.000000 0 0 1
-10.403982 -31.613161 -34.435961 47.890189 1.252858 2.373246 0.019463 0.003526 -475828.000000 0 0 1
-8.927982 -31.956291 -34.664361 47.984699 1.298362 2.378070 0.021975 0.003235 62887.500000 0 0 1
-8.018782 -31.141861 -33.915061 46.737006 1.318779 2.382786 0.029932 -0.001266 -190549.000000 0 0 1
-6.715982 -31.669051 -33.995861 46.944135 1.361825 2.380636 0.019129 -0.002689 346515.000000 0 0 1
-5.773682 -30.962241 -32.945661 45.578639 1.386439 2.378687 0.010838 -0.005333 256593.000000 0 0 1
-6.237182 -31.042771 -31.606461 44.738400 1.372514 2.355298 0.017103 -0.007171 51153.300000 0 0 1
-5.371282 -30.328321 -30.732961 43.510604 1.395509 2.355100 0.014949 -0.002062 165684.000000 0 0 1
-5.997082 -30.165761 -29.346461 42.510621 1.374551 2.332745 0.011778 -0.001726 -46701.400000 0 0 1
-5.695882 -31.319071 -28.538861 42.752706 1.390896 2.301687 0.011360 0.000227 -123065.000000 0 0 1
-6.511282 -31.414631 -27.403661 42.192849 1.366421 2.277704 0.016275 0.004373 -138544.000000 0 0 1
-6.438482 -32.711481 -26.568661 42.630843 1.376454 2.243658 0.013779 -0.001496 -131952.000000 0 0 1
-5.380082 -32.636331 -25.660361 41.863224 1.407416 2.230594 0.005818 -0.005391 -335663.000000 0 0 1
-5.231382 -33.897801 -25.051161 42.473391 1.417676 2.201618 0.006002 -0.008667 10458.000000 0 0 1
-4.269982 -34.029151 -23.842161 41.769181 1.445969 2.178285 0.004866 -0.014443 154438.000000 0 0 1
-4.752982 -33.512471 -22.592161 40.694991 1.429909 2.159350 0.008175 -0.012732 57904.700000 0 0 1
-4.818782 -32.084961 -22.530661 39.500583 1.421722 2.177775 -0.003767 -0.011397 -244647.000000 0 0 1
-5.236382 -31.615471 -21.140561 38.391158 1.406659 2.153954 0.003073 -0.010551 -613612.000000 0 0 1
-6.597682 -31.797461 -20.806961 38.568609 1.366209 2.140615 0.002710 -0.010103 101713.000000 0 0 1
-7.276582 -30.568261 -20.491261 37.513451 1.337102 2.148662 0.002762 -0.005187 151740.000000 0 0 1
-7.677482 -29.718321 -21.660361 37.567188 1.317982 2.185329 0.011981 -0.005865 -325376.000000 0 0 1
-6.487482 -29.082171 -22.139461 37.121636 1.351316 2.209809 0.007030 -0.001962 159488.000000 0 0 1
-6.724982 -28.135241 -23.188861 37.074795 1.336175 2.246519 0.014123 -0.001764 -1687210.000000 0 0 1
-5.732982 -28.064021 -24.328661 37.581114 1.369287 2.274917 0.000757 -0.005162 22591.700000 0 0 1
-4.455082 -27.510601 -24.101861 36.845361 1.410250 2.283836 0.004816 -0.001789 31007.000000 0 0 1
-3.666582 -28.033881 -23.063261 36.486385 1.440743 2.255064 0.003196 -0.004731 -1511600.000000 0 0 1
-2.200682 -27.556521 -23.119461 36.037679 1.491105 2.267295 0.004453 -0.011040 -255685.000000 0 0 1
-1.917582 -26.180641 -23.074261 34.950316 1.497683 2.291884 0.008800 -0.005477 -42635.100000 0 0 1
-2.363782 -25.492551 -21.937761 33.715323 1.478336 2.279271 0.005403 -0.002681 -580366.000000 0 0 1
-1.983482 -24.044711 -22.253661 32.822367 1.488491 2.315839 -0.001479 -0.004938 450483.000000 0 0 1
-2.642182 -23.454311 -23.397061 33.234144 1.458617 2.351820 -0.004186 -0.004321 -167196.000000 0 0 1
-4.009182 -23.197511 -23.200561 33.052445 1.399659 2.348902 -0.004264 -0.002009 -507342.000000 0 0 1
-4.795482 -23.142811 -24.540461 34.070817 1.366475 2.374999 -0.003003 0.003668 -92102.400000 0 0 1
-4.488982 -22.026711 -25.435561 33.945467 1.369752 2.417811 0.003718 0.003725 199883.000000 0 0 1
-5.152582 -22.131811 -26.697761 35.059045 1.342058 2.436434 0.005236 0.011688 107161.000000 0 0 1
-4.765782 -20.993111 -27.648161 35.040608 1.347563 2.480028 0.007259 0.010848 293400.000000 0 0 1
-5.376682 -21.080411 -28.944861 36.209079 1.321065 2.497061 0.013355 0.014321 766403.000000 0 0 1
-4.519782 -21.851411 -29.832561 37.254453 1.366831 2.499390 0.015028 0.010507 274860.000000 0 0 1
-5.210782 -22.304911 -31.123961 38.644045 1.341296 2.507148 0.024655 0.010317 -45334.100000 0 0 1
-5.582582 -21.218211 -31.997361 38.797021 1.313524 2.540534 0.022968 0.009680 285239.000000 0 0 1
-6.493082 -21.760811 -32.965961 40.030583 1.280823 2.538384 0.034540 0.003854 308712.000000 0 0 1
-6.482182 -20.800211 -34.157761 40.514443 1.268695 2.573820 0.030341 -0.000017 -467827.000000 0 0 1
-5.355282 -20.868911 34.411946 40.600154 1.319601 0.559385 0.029142 0.004206 -903579.000000 0 0 1
-5.486482 -20.217711 33.183146 39.242560 1.305808 0.563125 0.017889 0.006039 352959.000000 0 0 1
-4.327882 -20.593311 32.219846 38.482899 1.363651 0.578560 -0.009676 0.008354 -1037970.000000 0 0 1
-4.360682 -21.896211 31.670446 38.748894 1.374216 0.614043 -0.013361 0.007436 241127.000000 0 0 1
-3.241582 -22.294511 30.886246 38.229744 1.426410 0.630197 -0.021617 0.008185 -218186.000000 0 0 1
-1.842382 -22.221011 31.471946 38.570080 1.488074 0.616395 -0.018585 0.003531 -1407890.000000 0 0 1
-1.378282 -20.880311 31.289446 37.641951 1.504883 0.589464 -0.017569 0.003718 760300.000000 0 0 1
-0.145582 -20.582911 32.005546 38.053021 1.563724 0.571524 -0.014252 0.005468 843425.000000 0 0 1
-0.333882 -20.268711 33.549646 39.198353 1.554325 0.543519 -0.020502 -0.000161 -277758.000000 0 0 1
-1.107082 -19.099511 33.721546 38.770603 1.512897 0.516058 -0.026180 -0.000012 -236101.000000 0 0 1
-1.269182 -18.695111 -34.352261 39.130497 1.503012 2.642234 -0.030557 -0.005350 -36900.700000 0 0 1
-2.464382 -17.736511 -34.284561 38.679298 1.432736 2.660263 -0.033797 -0.009776 -12819.900000 0 0 1
-2.159282 -16.379711 -34.599661 38.341804 1.439726 2.696105 -0.014617 -0.009080 279896.000000 0 0 1
-3.222782 -15.495011 -34.206961 37.690819 1.365732 2.708251 -0.010708 -0.009501 415680.000000 0 0 1
-2.991182 -14.004411 -34.550861 37.400972 1.360370 2.748675 -0.013820 -0.009841 -427070.000000 0 0 1
-1.923082 -13.446711 -33.805561 36.432516 1.428745 2.759524 -0.016052 -0.006614 -153402.000000 0 0 1
-1.859582 -12.029011 -33.917761 36.035672 1.417419 2.797042 -0.021554 -0.006734 362700.000000 0 0 1
-1.270182 -11.553311 34.020146 35.950837 1.461295 0.329215 -0.014680 -0.012143 306116.000000 0 0 1
-2.305082 -11.295911 33.036446 34.990253 1.369497 0.335756 -0.013448 -0.006498 428429.000000 0 0 1
-1.880682 -10.905111 31.745446 33.618920 1.400017 0.335417 -0.016097 -0.005218 -172322.000000 0 0 1
-0.898582 -11.849111 30.963446 33.165402 1.495106 0.366445 -0.015065 -0.005725 48527.000000 0 0 1
-1.441282 -13.086611 30.571046 33.285516 1.461104 0.406655 -0.011991 -0.005785 -700861.000000 0 0 1
-0.529182 -14.120411 30.700046 33.795841 1.533337 0.431362 -0.004532 -0.002336 -600680.000000 0 0 1
-1.072482 -15.483311 31.258846 34.899837 1.501640 0.460854 -0.015245 0.000640 -166218.000000 0 0 1
-1.785782 -16.156111 30.254646 34.344615 1.460710 0.493007 -0.008551 -0.001015 12117.900000 0 0 1
-2.028382 -17.434911 30.747746 35.405005 1.454977 0.518714 -0.014208 0.003082 -294587.000000 0 0 1
-2.590782 -18.432711 29.669046 35.024696 1.431158 0.560312 -0.019418 0.003981 -1017240.000000 0 0 1
-3.931982 -18.221311 29.380346 34.794847 1.358265 0.565375 -0.017626 0.002683 -824674.000000 0 0 1
-4.527282 -19.234611 28.570146 34.737873 1.339632 0.605092 -0.011179 -0.002556 -174258.000000 0 0 1
-4.081182 -19.290911 27.127746 33.536695 1.362311 0.628522 -0.013040 -0.008321 -606948.000000 0 0 1
-4.745182 -20.185211 26.280846 33.475997 1.339907 0.667995 -0.008112 -0.007305 -311245.000000 0 0 1
-4.420382 -21.516411 26.458646 34.388307 1.368173 0.692882 -0.009438 -0.000854 -479572.000000 0 0 1
-27.655672 34.671689 -0.436854 44.352599 -0.897493 1.580646 -0.000987 -0.006144 -53168.300000 0 0 1
-27.100892 -33.634320 0.138546 43.194271 0.892558 1.567589 0.001042 0.007202 -78612.100000 0 0 1
-27.603122 -33.319820 1.412946 43.291329 0.878959 1.538152 -0.005575 -0.000204 -427883.000000 0 0 1
-27.219152 -31.905020 1.799846 41.976803 0.864488 1.527906 -0.008052 -0.002069 -221586.000000 0 0 1
-25.817912 -31.906320 1.905946 41.087838 0.890484 1.524393 0.004664 -0.005586 -642036.000000 0 0 1
-25.272512 -30.618020 2.099646 39.756402 0.880751 1.517959 0.013588 -0.008786 1086290.000000 0 0 1
-23.718682 -30.560820 2.322646 38.754797 0.910791 1.510829 0.019312 -0.010711 787587.000000 0 0 1
-23.334082 -31.304820 3.452146 39.196791 0.930257 1.482610 0.013276 -0.009772 -55871.100000 0 0 1
-21.926082 -31.209520 3.588546 38.310114 0.958365 1.476988 0.008156 -0.007427 31091.300000 0 0 1
-21.340582 -31.712020 4.943246 38.542293 0.978457 1.442187 0.011511 -0.013321 -208658.000000 0 0 1
-21.615782 -30.738620 5.989946 38.052388 0.957918 1.412726 0.009678 -0.018881 34048.800000 0 0 1
-21.566782 -31.492620 7.216046 38.845624 0.970331 1.383949 0.004612 -0.015000 -632591.000000 0 0 1
-22.108582 -30.815920 8.492846 38.865650 0.948461 1.350501 0.010582 -0.003883 -579953.000000 0 0 1
-21.386682 -29.716620 8.985446 37.698885 0.946979 1.330132 0.006467 -0.005330 -160948.000000 0 0 1
-21.949982 -29.093120 10.117346 37.822904 0.924438 1.300006 0.003114 -0.003140 -97695.100000 0 0 1
-21.154382 -27.851320 10.554046 36.532065 0.921213 1.277721 -0.000782 -0.003954 616087.000000 0 0 1
-19.888482 -28.120620 11.155246 36.204427 0.955217 1.257582 -0.008778 -0.007242 131212.000000 0 0 1
-19.441482 -27.079620 11.990046 35.426519 0.948133 1.225529 -0.001225 -0.008497 -271086.000000 0 0 1
-18.112682 -27.478620 12.629246 35.251123 0.988012 1.204387 -0.002500 -0.007197 -276348.000000 0 0 1
-18.321382 -28.401020 13.681046 36.461788 0.997876 1.186167 0.002765 -0.003993 322654.000000 0 0 1
-17.143982 -28.539520 14.481346 36.306056 1.029855 1.160514 0.004889 -0.006427 18083.800000 0 0 1
-17.248382 -29.666420 15.563946 37.680759 1.044157 1.144998 0.000569 -0.000676 -321192.000000 0 0 1
-17.132982 -30.907120 14.956746 38.373082 1.064629 1.170413 0.011880 0.000368 -128844.000000 0 0 1
-17.279282 -31.883920 15.957646 39.620757 1.074160 1.156266 0.020479 0.002910 195889.000000 0 0 1
-17.360182 -33.301720 15.303046 40.553221 1.090254 1.183856 0.011380 0.002227 171550.000000 0 0 1
-17.322182 -34.282620 16.316646 41.732349 1.102937 1.169097 0.020968 0.002636 -22650.100000 0 0 1
-16.748582 33.966689 15.934346 41.087155 -1.112693 1.172533 0.010322 -0.002234 5012.510000 0 0 1
-16.758582 32.830089 17.010946 40.596023 -1.098813 1.138420 0.011253 0.003995 -872779.000000 0 0 1
-17.991482 32.210789 16.957846 40.605380 -1.061409 1.139966 0.029115 0.000350 -662628.000000 0 0 1
-18.082082 31.096989 17.772646 40.122953 -1.044110 1.111905 0.026733 0.003373 6630.770000 0 0 1
-18.715682 31.318889 19.177646 41.218098 -1.032155 1.086854 0.019998 -0.005815 388761.000000 0 0 1
-17.889482 32.088889 20.072846 41.864657 -1.062215 1.070746 0.018032 -0.000897 424032.000000 0 0 1
-18.687082 32.368289 21.194646 42.966570 -1.047215 1.054937 0.013793 0.003001 -117533.000000 0 0 1
-18.117982 33.322389 22.294546 43.996473 -1.072789 1.039403 0.004506 0.007160 -147372.000000 0 0 1
-17.090882 32.667489 23.003046 43.455761 -1.088779 1.012969 0.007794 -0.001732 -149030.000000 0 0 1
-16.837982 33.306989 24.231446 44.497597 -1.102727 0.994936 0.006807 -0.009604 -474521.000000 0 0 1
-17.812882 32.881289 25.339446 45.172618 -1.074322 0.975267 0.001523 -0.004235 -739351.000000 0 0 1
-19.033882 33.521089 25.148946 46.026313 -1.054376 0.992732 -0.005087 -0.008503 -1036310.000000 0 0 1
-19.987282 33.053689 26.045746 46.587752 -1.026934 0.977534 -0.006433 -0.005727 -300211.000000 0 0 1
-21.448182 33.415489 25.700546 47.298387 -1.000162 0.996350 -0.019095 -0.007670 -321763.000000 0 0 1
-21.904482 32.711589 24.607846 46.426290 -0.980749 1.012147 -0.017011 0.006394 -1369660.000000 0 0 1
-23.185082 33.006789 24.291746 47.085932 -0.958439 1.028736 -0.024282 0.003869 -1777580.000000 0 0 1
-23.613082 32.556389 22.917146 46.289217 -0.943293 1.052862 -0.032656 0.006238 -325612.000000 0 0 1
-22.938682 33.274389 21.886246 45.960590 -0.967234 1.074473 -0.026642 0.008151 326990.000000 0 0 1
-22.908982 32.586489 20.665546 44.874998 -0.958046 1.092223 -0.032819 0.012639 -249351.000000 0 0 1
-22.508182 33.519389 19.548246 44.858685 -0.979457 1.119898 -0.018182 0.006582 -780714.000000 0 0 1
-21.223982 34.013889 19.704146 44.672759 -1.012931 1.113997 0.002931 0.005542 -581825.000000 0 0 1
-20.717682 34.703489 18.573246 44.480557 -1.032592 1.140039 0.003531 0.008322 -266137.000000 0 0 1
-19.365782 -34.095620 18.746646 43.462415 1.054250 1.124830 0.016325 0.006150 -527510.000000 0 0 1
-19.474782 -32.889420 19.451746 42.887662 1.036184 1.100051 0.001913 0.002274 -291010.000000 0 0 1
-18.271982 -32.378020 19.936446 42.186057 1.057016 1.078576 0.010399 0.002445 -551055.000000 0 0 1
-18.468382 -31.437720 21.085246 42.118867 1.039649 1.046490 0.004312 0.002355 -81643.600000 0 0 1
-18.933582 -30.134720 20.742546 41.192658 1.009829 1.043094 0.010967 0.008470 274733.000000 0 0 1
-18.990582 -29.309620 21.832446 41.186791 0.995878 1.012097 0.018051 0.010758 -26895.000000 0 0 1
-19.766582 -27.971320 21.601046 40.493428 0.955606 1.008127 0.004822 0.000288 1940.690000 0 0 1
-19.068782 -26.976720 20.828446 39.053630 0.955481 1.008265 0.005507 0.008782 -3393.750000 0 0 1
-19.709082 -25.753820 20.681746 38.463512 0.917583 1.003092 0.008185 0.014586 -1094470.000000 0 0 1
-20.768282 -25.630420 19.598046 38.370866 0.889808 1.034736 0.014614 0.008811 -217218.000000 0 0 1
-22.059682 -25.962020 20.109446 39.560661 0.866482 1.037564 0.003468 0.007602 374355.000000 0 0 1
-23.018782 -25.760020 19.091846 39.470768 0.841536 1.065924 0.007719 0.011479 -863798.000000 0 0 1
-24.477282 -25.922120 19.483046 40.628595 0.814058 1.070666 0.001941 0.005179 -513667.000000 0 0 1
-25.054482 -27.191220 19.736246 41.911919 0.826273 1.080488 -0.007692 0.007300 62189.700000 0 0 1
-25.079742 -28.105720 18.640546 42.028501 0.842232 1.111272 -0.008405 0.004095 -461901.000000 0 0 1
-25.830942 -29.425520 19.069846 43.551783 0.850359 1.117573 -0.014410 0.005017 631023.000000 0 0 1
-27.201232 -29.167520 19.354246 44.331006 0.820267 1.118997 -0.016269 0.005239 -87347.100000 0 0 1
-28.050122 -29.645220 18.354546 44.749724 0.813038 1.148167 -0.019552 0.004774 211378.000000 0 0 1
-29.530472 -29.175520 18.502746 45.448997 0.779352 1.151508 -0.012724 0.002815 555734.000000 0 0 1
-29.795012 -27.861720 18.179146 44.659820 0.751880 1.151565 -0.008757 0.003097 -813900.000000 0 0 1
-31.136762 -27.573720 18.395446 45.477471 0.724784 1.154369 0.000802 0.008708 -781543.000000 0 0 1
-31.711012 -26.289920 17.696746 44.832165 0.692203 1.165019 -0.000295 -0.001106 -141861.000000 0 0 1
-31.714242 -26.477720 16.294746 44.411502 0.695653 1.195118 0.004215 -0.008781 394748.000000 0 0 1
-32.534992 -25.511520 15.608046 44.192471 0.664986 1.209825 -0.001231 -0.005218 -156009.000000 0 0 1
-31.817072 -24.250820 15.132846 42.771852 0.651260 1.209161 -0.005787 -0.002474 -151218.000000 0 0 1
-31.414632 -23.502820 16.256546 42.468070 0.642315 1.177977 -0.017016 -0.007257 140375.000000 0 0 1
-30.750552 -22.334520 15.862346 41.183021 0.628168 1.175407 -0.001456 -0.002241 -267075.000000 0 0 1
-31.479262 -21.055920 16.331946 41.243523 0.589535 1.163653 -0.010088 -0.002692 -3578.240000 0 0 1
-31.626012 -21.001320 17.736746 41.902890 0.586190 1.133731 -0.011101 0.000773 573390.000000 0 0 1
-32.379922 -19.786020 17.997246 41.998176 0.548511 1.127937 -0.009538 0.003529 310076.000000 0 0 1
-32.755432 -19.580720 19.494446 42.852728 0.538790 1.098517 -0.009524 0.002998 21033.800000 0 0 1
-33.824502 -20.342520 20.058646 44.274872 0.541458 1.100615 -0.000946 0.002576 487659.000000 0 0 1
-34.091319 -19.906420 21.362446 44.886943 0.528508 1.074790 -0.003890 0.007755 163701.000000 0 0 1
34.102299 -20.243020 21.985946 45.344553 -0.535698 1.064589 0.004300 0.002898 410748.000000 0 0 1
33.748262 -21.554520 22.240446 45.805894 -0.568380 1.063819 0.013372 -0.003745 44072.400000 0 0 1
34.530663 -22.239720 23.199546 47.171928 -0.572186 1.056631 0.010582 0.003928 -426903.000000 0 0 1
33.995049 -23.604120 23.503346 47.594381 -0.606917 1.054312 0.004415 0.001253 -295808.000000 0 0 1
32.994016 -23.599220 24.482246 47.380467 -0.620893 1.027786 0.014112 -0.010309 86439.000000 0 0 1
32.268366 -24.801020 24.433846 47.469473 -0.655291 1.030106 0.010492 -0.015650 -511193.000000 0 0 1
31.283916 -25.157020 25.539746 47.579803 -0.677267 1.004184 0.024727 -0.022282 -684055.000000 0 0 1
30.416756 -24.026820 25.810146 46.568560 -0.668565 0.983347 0.020419 -0.022297 390515.000000 0 0 1
29.646776 -24.302220 26.992846 46.884357 -0.686654 0.957297 0.011420 -0.014007 -137654.000000 0 0 1
28.405236 -25.153320 26.692646 46.390131 -0.724756 0.957709 0.016136 -0.016990 -1261850.000000 0 0 1
27.377946 -24.387420 26.093246 45.001730 -0.727692 0.952279 0.018645 -0.014870 -598136.000000 0 0 1
26.269106 -25.187420 25.772246 44.594627 -0.764380 0.954615 0.005824 -0.012756 -172840.000000 0 0 1
24.985206 -24.371120 25.561546 43.262046 -0.772957 0.938680 -0.006710 -0.002802 -412926.000000 0 0 1
24.880526 -23.674920 24.324146 42.085704 -0.760574 0.954561 -0.008888 -0.005640 102335.000000 0 0 1
25.836196 -22.652620 24.114046 41.977821 -0.719836 0.958868 -0.003261 0.003598 -32456.500000 0 0 1
25.608836 -22.052120 22.725346 40.725297 -0.710911 0.978804 -0.005169 0.006795 -275570.000000 0 0 1
24.667586 -21.051320 22.615846 39.536368 -0.706465 0.961822 -0.017036 0.007300 -487298.000000 0 0 1
24.779186 -20.445520 21.348746 38.571963 -0.689865 0.984261 -0.025623 0.009641 -41502.300000 0 0 1
24.212806 -18.994720 21.291246 37.421605 -0.665212 0.965561 -0.012392 0.015415 -177600.000000 0 0 1
24.922666 -17.987220 21.964646 37.777308 -0.625156 0.950318 -0.011180 0.005834 -141822.000000 0 0 1
24.676966 -17.971720 23.368146 38.444839 -0.629454 0.917464 -0.012195 0.000241 -369039.000000 0 0 1
24.623026 -16.507420 24.027046 38.158711 -0.590587 0.889680 -0.001348 0.006881 -221719.000000 0 0 1
23.535306 -15.688020 23.667746 36.880710 -0.587938 0.874034 -0.018035 0.008136 -131866.000000 0 0 1
23.679806 -14.483620 24.358046 36.929972 -0.548938 0.850545 -0.016207 0.007349 29013.600000 0 0 1
22.441206 -13.622420 24.094846 35.633406 -0.545570 0.828222 -0.017557 0.007884 -81535.200000 0 0 1
21.255106 -14.126820 24.649246 35.481430 -0.586593 0.802782 -0.002113 0.005920 -957560.000000 0 0 1
20.129406 -13.431220 24.254946 34.262123 -0.588402 0.784243 0.007299 0.007409 -714405.000000 0 0 1
18.870106 -14.036520 24.889946 34.243455 -0.639553 0.757068 0.009926 0.004649 -467539.000000 0 0 1
18.573106 -15.279920 24.306246 34.194003 -0.688424 0.780114 0.011654 -0.001309 -934319.000000 0 0 1
17.483506 -15.885920 24.861946 34.295070 -0.737559 0.759846 0.007794 0.004295 -722402.000000 0 0 1
16.885406 -17.085220 24.085046 34.016336 -0.791280 0.784073 0.008238 0.004105 195564.000000 0 0 1
17.741006 -18.221220 24.106946 35.041418 -0.798751 0.812128 0.002032 0.002589 482761.000000 0 0 1
17.114206 -19.279820 23.361546 34.790363 -0.844833 0.834572 0.008169 0.004072 105586.000000 0 0 1
17.615506 -20.693720 23.655346 36.029314 -0.865578 0.854550 0.000350 0.002622 -374028.000000 0 0 1
16.965206 -21.239220 24.775446 36.779687 -0.896807 0.831704 0.002441 -0.001035 156687.000000 0 0 1
17.251306 -22.612620 24.951146 37.835140 -0.919086 0.850683 0.003705 -0.000149 -138304.000000 0 0 1
16.685406 -23.652120 23.959146 37.574809 -0.956422 0.879367 0.005284 0.001600 518706.000000 0 0 1
17.591806 -23.782920 22.859246 37.385078 -0.933931 0.912900 0.008013 0.007405 1164230.000000 0 0 1
18.533106 -24.906520 22.909246 38.582954 -0.931078 0.935065 -0.002107 0.006609 772573.000000 0 0 1
19.488006 -25.114820 21.697746 38.488034 -0.910889 0.971874 -0.006176 0.020584 242844.000000 0 0 1
18.894506 -25.754520 20.557746 37.985768 -0.937849 0.998938 0.009227 0.008257 843507.000000 0 0 1
19.873006 -25.806320 19.532346 37.979140 -0.914566 1.030615 -0.000392 0.014900 645740.000000 0 0 1
19.173206 -26.518120 18.322646 37.503891 -0.944785 1.060366 0.011355 0.009164 659211.000000 0 0 1
18.614406 -27.808020 18.618646 38.294074 -0.980911 1.063058 0.020180 -0.003002 212017.000000 0 0 1
17.895906 -28.355620 17.542846 37.842517 -1.007806 1.088771 0.021435 -0.004709 -371122.000000 0 0 1
17.090606 -29.614220 17.893546 38.591059 -1.047379 1.088663 0.025087 -0.006722 74798.000000 0 0 1
16.109906 -29.326920 18.874746 38.416837 -1.068474 1.057198 0.034681 -0.008064 392653.000000 0 0 1
15.260406 -30.428120 19.225146 39.094203 -1.105931 1.056681 0.039377 -0.010341 661304.000000 0 0 1
13.924106 -30.084020 19.954646 38.692595 -1.137316 1.028945 0.030939 -0.002321 456306.000000 0 0 1
12.927106 -29.748520 18.990546 37.586239 -1.160868 1.041122 0.043769 -0.005808 -509116.000000 0 0 1
11.740606 -29.428120 19.677346 37.296837 -1.191188 1.015038 0.021559 -0.002868 12912.700000 0 0 1
10.720406 -28.795420 18.681046 35.959488 -1.214399 1.024528 0.012692 -0.005802 -232867.000000 0 0 1
10.399806 -29.709220 17.694746 36.109525 -1.234074 1.058672 0.006365 -0.004357 -35414.700000 0 0 1
9.882806 -29.068020 16.556446 34.881737 -1.243068 1.076236 0.002726 -0.002895 -134646.000000 0 0 1
9.748806 -29.955620 15.354246 35.044704 -1.256165 1.117276 -0.002278 -0.001802 -374905.000000 0 0 1
8.795106 -30.958920 15.504146 35.723762 -1.293999 1.121867 -0.018056 0.000241 -313109.000000 0 0 1
8.820306 -31.772820 14.384446 35.975300 -1.300010 1.159452 -0.017811 0.003992 -31024.000000 0 0 1
7.734506 -32.873220 14.227746 36.645599 -1.339716 1.172062 -0.025519 0.001727 -155616.000000 0 0 1
7.746206 -33.897720 15.228946 37.960242 -1.346137 1.157990 -0.023787 -0.000881 -242614.000000 0 0 1
6.834306 34.573689 14.905146 38.265011 1.375639 1.170681 -0.019688 -0.004299 -333081.000000 0 0 1
6.881806 33.509789 16.012946 37.771413 1.368246 1.133001 -0.013876 -0.002677 -639140.000000 0 0 1
8.062206 32.788989 16.050146 37.386149 1.329698 1.127071 -0.017421 -0.001557 -794725.000000 0 0 1
7.984106 31.778089 17.049646 36.936206 1.324646 1.091002 -0.006955 -0.001334 -268197.000000 0 0 1
9.249206 30.942489 17.280146 36.627706 1.280334 1.079490 -0.012196 -0.002590 -433873.000000 0 0 1
9.539906 30.094789 16.169746 35.470647 1.263821 1.097455 -0.004892 0.000499 500855.000000 0 0 1
10.631206 29.208489 16.501446 35.191705 1.221725 1.082750 0.004410 0.001672 612476.000000 0 0 1
11.389106 28.605089 15.323046 34.391257 1.191886 1.109007 0.001411 0.001171 -256033.000000 0 0 1
10.505106 27.797789 14.596146 33.107730 1.209476 1.114231 -0.004758 0.004354 237659.000000 0 0 1
11.159106 27.079389 13.530146 32.262731 1.179912 1.138041 -0.005804 0.010145 209845.000000 0 0 1
-9.188982 -9.448111 19.378953 23.436041 0.799301 0.597247 -0.011056 -0.005374 -184307.000000 0 1 0
-9.099182 -9.633711 17.971653 22.328990 0.813925 0.635361 -0.016373 -0.006897 -208534.000000 0 1 0
-9.386782 -10.967011 17.625853 22.782838 0.862881 0.686221 -0.006489 -0.008344 -213093.000000 0 1 0
-9.510782 -11.143311 16.072653 21.747610 0.864276 0.739132 -0.007003 -0.009006 16453.400000 0 1 0
-10.855782 -11.001211 15.650453 21.995712 0.792052 0.779133 -0.004530 -0.009253 168235.000000 0 1 0
-11.142082 -11.778311 14.492153 21.746197 0.813149 0.841396 -0.008891 -0.007992 110993.000000 0 1 0
-11.249882 -13.302311 14.649853 22.762459 0.868799 0.871607 -0.011938 0.002801 454252.000000 0 1 0
-10.014882 -13.944111 14.242553 22.306645 0.947949 0.878263 -0.014000 0.005903 684993.000000 0 1 0
-10.000482 -15.368211 14.303253 23.254561 0.993912 0.908318 -0.007085 0.004834 114999.000000 0 1 0
-9.747682 -15.911411 15.752653 24.420000 1.021148 0.869679 0.002693 0.006996 759979.000000 0 1 0
-10.766582 -15.477611 16.688553 25.179030 0.963014 0.846250 -0.007224 0.006260 406605.000000 0 0 1
-10.231782 -15.540211 18.002253 25.889547 0.988534 0.801892 0.000056 0.008782 -534623.000000 0 0 1
-11.082882 -14.804211 19.030353 26.535811 0.928172 0.771081 0.001721 -0.001429 -768164.000000 0 0 1
-11.291882 -13.455211 18.812353 25.738180 0.872594 0.751139 0.003454 0.001098 514795.000000 0 0 1
-12.438082 -13.215711 17.986053 25.551106 0.815701 0.789888 -0.001566 -0.007229 1117400.000000 0 0 1
-13.872082 -13.262011 18.652953 26.762815 0.762918 0.799629 0.001678 -0.002384 716119.000000 0 0 1
-14.280982 -14.558611 19.147353 27.973572 0.795025 0.816906 0.007959 0.007360 635018.000000 0 0 1
-15.393482 -14.539911 20.068053 29.173533 0.756890 0.812224 0.014403 0.004984 372527.000000 0 0 1
-15.923682 -15.861111 20.536253 30.444641 0.783430 0.830449 0.009271 0.017123 130657.000000 0 0 1
-16.764282 -16.466111 19.518053 30.547150 0.776426 0.877666 0.010309 0.015324 244077.000000 0 0 1
-17.029982 -17.783711 19.864353 31.636580 0.807045 0.891955 0.001497 0.011407 128820.000000 0 0 1
-18.306682 -18.371811 19.200153 32.269241 0.787174 0.933532 0.008938 0.014414 111062.000000 0 0 1
-18.229682 -18.543611 17.767453 31.493955 0.793935 0.971388 0.005451 0.016824 96165.700000 0 0 1
-18.608882 -17.381711 17.011053 30.623362 0.751314 0.981841 0.007757 0.023696 -527412.000000 0 0 1
-18.341682 -17.541311 15.480653 29.728194 0.763097 1.023079 0.007566 0.010874 -122344.000000 0 0 1
-19.024782 -18.612711 14.864553 30.484919 0.774450 1.061454 0.006737 0.001492 -83597.400000 0 0 1
-18.634382 -18.706911 13.504053 29.657177 0.787341 1.098044 0.004414 -0.003375 -23591.200000 0 0 1
-18.939682 -20.058311 12.888753 30.449423 0.814075 1.133729 0.009997 -0.005418 -148069.000000 0 0 1
-18.298382 -21.151311 13.523553 31.065982 0.857591 1.120406 -0.003474 -0.001013 -109522.000000 0 0 1
-18.087782 -22.106511 12.559953 31.202854 0.885050 1.156522 -0.003331 -0.002301 -291076.000000 0 0 1
-17.207082 -23.339911 13.122053 31.828028 0.935513 1.145841 -0.012815 -0.005171 377814.000000 0 0 1
-17.168782 -24.455511 12.203653 32.276435 0.958702 1.183055 -0.009003 -0.009499 289118.000000 0 0 1
-16.429382 -24.294611 10.975653 31.314816 0.976184 1.212698 -0.018115 -0.003075 -108635.000000 0 0 1
-16.462682 -25.516671 10.068253 31.992032 0.997822 1.250644 -0.014866 -0.002858 391980.000000 0 0 1
-17.757582 -25.802631 9.530153 32.740362 0.968028 1.275438 -0.013241 0.002821 279985.000000 0 0 1
-17.809382 -26.880151 8.559953 33.361496 0.985651 1.311312 -0.007895 0.002925 -19758.300000 0 0 1
-18.958082 -26.694851 7.551353 33.601293 0.953272 1.344126 -0.005658 -0.001554 -13143.900000 0 0 1
-18.773082 -25.647961 6.663553 32.475367 0.938946 1.364141 -0.009031 -0.000883 -46370.600000 0 0 1
-19.591582 -25.851121 5.546053 32.906979 0.922283 1.401451 -0.005577 0.001832 -29714.200000 0 0 1
-19.553982 -24.501711 4.788953 31.711609 0.897236 1.419201 -0.007214 0.003618 13359.900000 0 0 1
-20.232082 -24.545611 3.550653 32.006738 0.881434 1.459633 0.006385 0.003511 -2971.670000 0 0 1
-20.486282 -23.247111 3.023353 31.132886 0.848443 1.473532 0.012133 0.009016 22709.900000 0 0 1
-21.087182 -23.145111 1.610053 31.352156 0.831890 1.519420 0.006589 0.004465 66111.400000 0 0 1
-20.336682 -23.739711 0.568253 31.264635 0.862453 1.552620 0.000701 0.004809 51137.400000 0 0 1
-20.754582 -23.136911 -0.650947 31.088471 0.839623 1.591736 0.005445 0.007882 -172741.000000 0 0 1
-20.166282 -23.914611 -1.856947 31.337451 0.870227 1.630088 0.006049 0.008140 -35688.300000 0 0 1
-18.793082 -23.618311 -2.056747 30.252847 0.898683 1.638834 -0.002303 0.011817 280921.000000 0 0 1
-18.176282 -24.246111 -3.198847 30.471031 0.927514 1.675970 0.000848 0.008322 -68767.700000 0 0 1
-18.022082 -25.816611 -3.291247 31.656360 0.961360 1.674952 0.003170 0.011098 -810858.000000 0 0 1
-19.142382 -26.641091 -3.285347 32.969259 0.947743 1.670611 0.012598 0.007817 -798217.000000 0 0 1
-18.733282 -27.939851 -3.721447 33.844059 0.980154 1.680978 0.006172 0.005079 -762150.000000 0 0 1
-19.795882 -28.861881 -4.344647 35.266997 0.969608 1.694303 0.008759 0.004665 163884.000000 0 0 1
-20.471482 -28.243831 -5.442547 35.304630 0.943611 1.725573 0.000252 0.009891 -224349.000000 0 0 1
-21.220482 -29.115381 -6.203647 36.558166 0.940975 1.741314 -0.015930 0.007713 -333751.000000 0 0 1
-21.724682 -28.566411 -7.515947 36.667303 0.920611 1.777236 -0.013993 0.019161 -263046.000000 0 0 1
-20.634682 -28.361371 -8.385447 36.062074 0.941810 1.805473 -0.003079 0.021301 213069.000000 0 0 1
-20.996582 -28.385841 -9.750347 36.628973 0.933930 1.840237 -0.002458 0.017696 -97486.800000 0 0 1
-21.924982 -27.284401 -10.370947 36.506163 0.893881 1.858851 -0.000334 0.020633 93684.800000 0 0 1
-21.281082 -26.061931 -10.754247 35.323682 0.886040 1.880156 -0.000669 0.024658 219032.000000 0 0 1
-21.119382 -25.190361 -9.668447 34.264580 0.873080 1.856852 -0.002135 0.021629 16596.900000 0 0 1
-20.839082 -23.706311 -10.001947 33.110353 0.849676 1.877669 0.010531 0.011758 95621.700000 0 0 1
-22.016582 -23.074011 -10.433047 33.555750 0.808845 1.886954 -0.011178 0.014526 45640.400000 0 0 1
-21.771682 -21.711511 -10.519547 32.497026 0.784014 1.900442 0.005801 0.012322 113577.000000 0 0 1
-23.119382 -20.982311 -10.661747 32.991454 0.736978 1.899870 0.011375 0.014217 -213061.000000 0 0 1
-23.651982 -21.092111 -11.996547 33.885255 0.728249 1.932678 0.002926 0.011602 85763.400000 0 0 1
-24.851782 -20.375311 -12.189747 34.370835 0.686742 1.933340 -0.002592 0.005330 -187153.000000 0 0 1
-24.954882 -18.835411 -12.098547 33.524524 0.646552 1.940015 -0.001753 0.003681 -1243800.000000 0 0 1
-24.263882 -18.152611 -13.156247 33.035437 0.642305 1.980401 0.001518 0.009152 532589.000000 0 0 1
-24.005082 -16.775711 -12.906647 32.003906 0.609947 1.985899 0.005096 0.002486 764466.000000 0 0 1
-23.014982 -16.611511 -11.621247 30.670590 0.625187 1.959409 0.009137 0.006667 -180653.000000 0 0 1
-23.541582 -16.835811 -10.326647 30.729306 0.620823 1.913518 0.014216 0.000440 -149969.000000 0 0 1
-22.534482 -16.955711 -9.343347 29.708537 0.645057 1.890727 0.013001 -0.003337 -114937.000000 0 0 1
-23.104382 -17.387511 -8.021347 30.007999 0.645140 1.841394 -0.003186 -0.007621 -157488.000000 0 0 1
-23.386882 -18.770911 -8.091347 31.060638 0.676340 1.834338 -0.001914 -0.003577 100688.000000 0 0 1
-24.111182 -19.179311 -6.942947 31.581634 0.671962 1.792448 -0.005158 0.005678 106215.000000 0 0 1
-24.545382 -20.720311 -7.046347 32.885530 0.701096 1.786740 -0.011758 0.005466 796300.000000 0 0 1
-25.488552 -20.942811 -8.149147 33.980527 0.687807 1.812975 -0.017556 -0.001433 748773.000000 0 0 1
-25.956382 -22.275711 -8.330547 35.204248 0.709234 1.809697 -0.012988 0.003814 338764.000000 0 0 1
-24.912782 -23.419511 -8.558247 35.247181 0.754512 1.816054 -0.015683 0.016395 334670.000000 0 0 1
-25.603722 -24.665911 -8.517247 36.558190 0.766745 1.805935 -0.014556 0.014988 -198689.000000 0 0 1
-24.835982 -25.749051 -8.978147 36.884234 0.803446 1.816681 -0.019120 0.022735 -313443.000000 0 0 1
-25.339732 -27.175311 -8.581047 38.134419 0.820337 1.797761 -0.015499 0.017619 -114336.000000 0 0 1
-24.968082 -27.534101 -7.284947 37.876144 0.834234 1.764338 -0.009877 0.003348 -112439.000000 0 0 1
-25.520032 -28.745141 -6.871047 39.048258 0.844761 1.747680 -0.005689 0.005318 -271067.000000 0 0 1
-25.104252 -29.220041 -5.452447 38.907113 0.861017 1.711399 0.000446 -0.003641 -114520.000000 0 0 1
-25.666852 -28.459971 -4.394947 38.575547 0.836956 1.684975 -0.003277 -0.005855 93798.900000 0 0 1
-25.184402 -28.872951 -3.122347 38.440219 0.853527 1.652112 -0.010767 0.003369 -276113.000000 0 0 1
-25.502272 -30.332211 -2.615347 39.714594 0.871688 1.636698 -0.005938 0.010694 -209123.000000 0 0 1
-24.785282 -31.416841 -3.224147 40.146273 0.902850 1.651193 0.012516 -0.002726 -60417.400000 0 0 1
-24.954782 -32.716661 -2.742047 41.238815 0.919182 1.637337 0.015214 -0.002466 -621300.000000 0 0 1
-24.228482 -33.050801 -1.462047 41.006248 0.938220 1.606458 0.010300 -0.002178 1083140.000000 0 0 1
-22.819482 -32.778431 -1.688847 39.975074 0.962643 1.613056 0.007082 -0.011248 1048980.000000 0 0 1
-21.939182 -33.056791 -0.603247 39.679252 0.984863 1.586000 0.020515 -0.008481 718310.000000 0 0 1
-20.869782 -31.952881 -0.370747 38.166371 0.992215 1.580510 0.010954 -0.007307 141784.000000 0 0 1
-21.378382 -30.712041 0.087653 37.420213 0.962699 1.568454 0.013994 -0.003298 -248323.000000 0 0 1
-21.699582 -29.858151 -0.966347 36.923094 0.942338 1.596971 0.018453 0.003348 -31085.000000 0 0 1
-22.164982 -28.430981 -0.619747 36.055391 0.908615 1.587986 0.013296 -0.005119 588465.000000 0 0 1
-23.522282 -28.382001 -0.166547 36.862765 0.878754 1.575314 0.021191 -0.007228 676814.000000 0 0 1
-24.122782 -27.080461 0.009853 36.266515 0.843098 1.570525 0.018767 -0.008182 388203.000000 0 0 1
-23.648882 -26.323141 1.270253 35.408910 0.838862 1.534915 0.022674 0.002848 -192293.000000 0 0 1
-23.950782 -26.898171 2.496253 36.102394 0.843297 1.501597 0.010231 0.004613 -291717.000000 0 0 1
-23.518282 -26.179431 3.615553 35.377174 0.838894 1.468417 0.020221 -0.002694 263017.000000 0 0 1
-24.433882 -24.991611 4.111153 35.192283 0.796682 1.453709 0.014711 0.000720 89175.900000 0 0 1
-24.390182 -23.890211 3.219353 34.292673 0.775043 1.476779 0.009797 0.004502 -86643.700000 0 0 1
-25.390882 -22.939611 3.459953 34.393225 0.734723 1.470026 0.001013 0.004888 -420090.000000 0 0 1
-25.356682 -21.833411 2.434253 33.549735 0.710875 1.498176 0.006698 0.001468 189424.000000 0 0 1
-24.233582 -20.982011 2.623053 32.161960 0.713609 1.489148 0.007564 0.004921 182071.000000 0 0 1
-24.182482 -19.965411 1.638453 31.402143 0.690166 1.518596 0.005525 0.004152 130109.000000 0 0 1
-22.874482 -19.160711 1.831753 29.895319 0.697278 1.509486 0.018038 0.008506 469537.000000 0 0 1
-21.693582 -19.924411 1.540353 29.495192 0.742914 1.518549 0.008572 0.005941 -24639.600000 0 0 1
-20.602882 -19.107211 1.914453 28.164328 0.747751 1.502769 0.004295 0.009513 334651.000000 0 0 1
-19.248482 -19.788511 1.479853 27.645600 0.799231 1.517241 -0.000585 0.004024 289038.000000 0 0 1
-19.124482 -19.855211 0.088753 27.567791 0.804142 1.567577 0.000636 -0.002163 290487.000000 0 0 1
-17.946982 -20.537011 -0.313847 27.275657 0.852598 1.582303 0.005915 -0.003167 161085.000000 0 0 1
-17.684082 -20.674511 -1.831647 27.267510 0.863201 1.638020 0.003457 -0.002717 -91566.700000 0 0 1
-17.145182 -19.535911 -2.472847 26.109846 0.850482 1.665648 -0.007857 -0.003827 -44289.400000 0 0 1
-16.978282 -19.763111 -3.867847 26.340138 0.861049 1.718172 0.008726 -0.000264 98979.700000 0 0 1
-16.005582 -18.668411 -4.387047 24.978679 0.862044 1.747344 0.010662 -0.011228 -343947.000000 0 1 0
-14.660082 -18.938411 -4.121647 24.301634 0.912053 1.741224 0.007860 -0.012103 -725064.000000 0 1 0
-13.862382 -18.257611 -5.027647 23.468771 0.921391 1.786697 0.006903 -0.015147 -1125910.000000 0 1 0
-12.378382 -18.469811 -4.879347 22.763266 0.980355 1.786824 0.008717 -0.006453 -811458.000000 0 1 0
-11.816682 -19.732611 -5.236247 23.588730 1.031230 1.794642 0.013455 -0.003069 984382.000000 0 1 0
-10.393382 -19.608811 -5.460947 22.854973 1.083409 1.812069 0.000694 -0.000306 921830.000000 0 1 0
-9.753482 -20.968311 -5.778247 23.836707 1.135413 1.815645 -0.000533 0.004631 -150522.000000 0 1 0
-10.252682 -21.644611 -6.896347 24.923208 1.128423 1.851159 0.009903 0.003884 -155085.000000 0 1 0
-9.219282 -22.514911 -7.360647 25.418409 1.182149 1.864584 0.006547 0.010410 340338.000000 0 0 1
-9.714882 -23.616411 -8.306647 26.853570 1.180534 1.885286 0.018657 0.009651 -102428.000000 0 0 1
-10.043382 -23.212211 -9.592647 27.049864 1.162442 1.933313 0.015308 0.008527 -243270.000000 0 0 1
-10.227282 -24.295411 -10.463147 28.360919 1.172357 1.948652 0.018208 0.008821 -465829.000000 0 0 1
-11.064682 -23.946411 -11.672447 28.846210 1.137959 1.987386 0.024730 0.007818 -670806.000000 0 0 1
-10.500482 -22.968511 -12.558247 28.205003 1.141997 2.032249 0.010651 0.015021 -249231.000000 0 0 1
-11.431882 -22.249211 -13.347647 28.352690 1.096161 2.060962 0.018843 0.005820 -412412.000000 0 0 1
-10.886682 -21.031911 -14.126647 27.575774 1.093147 2.108639 0.017372 0.009548 -512764.000000 0 0 1
-10.537182 -19.960511 -13.344147 26.220612 1.085078 2.104724 0.013582 0.007983 -369132.000000 0 0 1
-10.163082 -18.793211 -14.028347 25.559099 1.075056 2.151795 0.013104 0.013812 13533.300000 0 0 1
-9.690682 -17.624811 -13.111547 24.009497 1.068082 2.148496 0.006616 0.006641 103481.000000 0 1 0
-10.729482 -17.142511 -12.242947 23.640584 1.011551 2.115165 0.002693 -0.000984 266975.000000 0 1 0
-10.422982 -16.062411 -11.386947 22.277840 0.995191 2.107299 0.001073 -0.008333 -159457.000000 0 1 0
-10.187582 -14.706711 -12.105247 21.601185 0.964975 2.165662 0.007039 -0.002492 114182.000000 0 1 0
-11.323882 -14.020611 -12.604847 21.992954 0.891402 2.181118 0.010370 -0.000450 -4995.190000 0 1 0
-11.408982 -13.995111 -14.006247 22.851761 0.886848 2.230544 0.014310 0.001744 350279.000000 0 1 0
-12.690382 -13.269611 -14.547047 23.425306 0.807707 2.240811 0.016376 0.002902 226526.000000 0 1 0
-12.788882 -11.892611 -14.190447 22.502411 0.749101 2.253147 0.007149 -0.000183 -18695.000000 0 1 0
-13.855382 -11.256511 -14.904047 23.255349 0.682274 2.266449 0.000679 -0.005457 -55542.100000 0 1 0
-14.154382 -9.911511 -14.174447 22.349486 0.610889 2.257793 -0.009382 -0.012448 -336463.000000 0 1 0
-13.152682 -8.935611 -14.365147 21.428850 0.596750 2.305497 0.002897 -0.011544 -114350.000000 0 1 0
-13.242282 -8.068611 -15.493247 21.920338 0.547235 2.355758 -0.001558 -0.016571 -58332.000000 0 1 0
-12.055682 -7.090711 -15.555047 20.918344 0.531671 2.409247 -0.000489 -0.006123 -193550.000000 0 1 0
-10.799682 -7.619611 -15.851047 20.638491 0.614435 2.446561 -0.002424 -0.004066 -672165.000000 0 1 0
-9.786482 -6.693611 -15.668047 19.648597 0.599883 2.493792 -0.005118 0.002430 -206699.000000 0 1 0
11.274818 21.948689 15.764553 29.281182 1.096257 1.002277 0.016223 0.014384 -306407.000000 0 0 1
12.142018 21.975089 16.868753 30.247115 1.066008 0.979187 0.016468 0.017274 -344482.000000 0 0 1
12.479618 20.670189 17.178453 29.632699 1.027624 0.952420 0.014637 0.017318 372175.000000 0 0 1
13.551618 20.643889 18.349453 30.765548 0.989902 0.931752 0.011862 0.014235 -145646.000000 0 0 1
14.740818 21.195989 17.909253 31.421378 0.963128 0.964327 0.000821 0.017657 -1210430.000000 0 0 1
15.678418 21.258089 18.947353 32.507250 0.935326 0.948546 -0.001059 0.010758 71923.800000 0 0 1
17.073318 21.715989 18.455653 33.221883 0.904521 0.981800 0.003328 0.016066 -1210280.000000 0 0 1
17.197918 23.123989 18.234053 34.102316 0.931322 1.006659 0.009342 0.014974 427019.000000 0 0 1
18.433918 23.547089 17.640853 34.719943 0.906598 1.037831 0.011516 0.014275 1136140.000000 0 0 1
19.787218 23.149689 18.312253 35.535626 0.863551 1.029414 0.006711 0.006145 -469261.000000 0 0 1
20.084318 21.797589 18.165753 34.763620 0.826283 1.020957 0.010823 0.007831 -391331.000000 0 0 1
21.183418 21.348689 18.911353 35.526652 0.789284 1.009464 0.010357 0.002319 -381734.000000 0 0 1
21.350218 19.800289 18.906353 34.717912 0.747751 0.994919 0.016705 0.005937 -88850.200000 0 0 1
21.737818 19.216489 17.667153 33.969611 0.723911 1.023844 0.004412 0.012781 68289.600000 0 0 1
21.594718 17.777189 17.729753 33.116528 0.688740 1.005845 0.009668 0.003825 135259.000000 0 0 1
22.781518 16.971689 18.325153 33.806021 0.640278 0.997901 0.002450 0.006695 -11857.800000 0 0 1
23.962718 17.028789 17.590553 34.258124 0.617829 1.031571 -0.000579 0.001942 58100.300000 0 0 1
24.981618 16.105689 17.926453 34.710693 0.572641 1.028092 0.001333 -0.010454 166305.000000 0 0 1
25.998218 15.805989 16.768853 34.740913 0.546255 1.067081 -0.012481 -0.002568 -350118.000000 0 0 1
26.797618 16.883189 16.329253 35.634238 0.562205 1.094775 -0.017833 -0.002886 -232052.000000 0 0 1
27.971218 17.093389 17.050953 36.950074 0.548546 1.091157 -0.018921 -0.016764 -603109.000000 0 0 1
29.160918 16.138089 16.809653 37.327758 0.505461 1.103666 -0.012754 -0.017149 -382878.000000 0 0 1
29.680318 16.270389 15.454053 37.208529 0.501451 1.142484 -0.007236 -0.013841 231330.000000 0 0 1
29.293618 15.114289 14.688353 36.087470 0.476333 1.151606 0.002305 -0.020679 662957.000000 0 0 1
28.331718 15.384289 13.454953 34.934200 0.497458 1.175425 -0.006842 -0.007975 511002.000000 0 0 1
29.061118 16.093589 12.479853 35.486602 0.505744 1.211433 -0.012620 -0.000749 326767.000000 0 0 1
28.365918 16.132989 11.232753 34.511931 0.517121 1.239283 -0.019171 0.001791 809240.000000 0 0 1
27.043818 16.974389 11.133753 33.815062 0.560512 1.235283 -0.021334 0.006259 125780.000000 0 0 1
27.162618 18.378489 11.094953 34.621881 0.594855 1.244581 -0.027706 0.007408 -101845.000000 0 0 1
27.630618 19.017889 12.279053 35.719831 0.602824 1.219878 -0.019471 0.006515 -139131.000000 0 0 1
26.862818 18.858389 13.622453 35.536194 0.612084 1.177386 -0.025523 0.002033 -255777.000000 0 0 1
25.643918 19.522889 13.789153 35.055591 0.650698 1.166523 -0.021225 0.009440 211716.000000 0 0 1
24.986318 19.326489 15.078253 35.002614 0.658362 1.125445 -0.020662 0.009757 507514.000000 0 0 1
25.668618 20.023689 16.332253 36.422089 0.662479 1.105804 -0.018356 0.002134 -89865.300000 0 0 1
25.597618 21.453189 16.340153 37.181689 0.697541 1.115790 -0.021634 0.004736 149906.000000 0 0 1
24.286518 21.932689 16.600453 36.694044 0.734515 1.101340 -0.016705 0.008040 -52322.600000 0 0 1
24.155818 23.465089 16.588453 37.540521 0.770894 1.113102 -0.017257 0.010882 -154999.000000 0 0 1
24.113218 23.911689 15.277653 37.237385 0.781202 1.148038 0.000299 0.008559 -127601.000000 0 0 1
24.019718 25.357989 15.264753 38.118068 0.812494 1.158778 -0.003397 0.004658 -266149.000000 0 0 1
23.909118 25.893889 13.791453 37.846315 0.825230 1.197801 -0.002132 0.000048 -107685.000000 0 0 1
22.678618 25.539389 13.205153 36.619068 0.844659 1.201876 0.005428 0.004551 -49140.100000 0 0 1
22.535518 26.192889 11.938253 36.557337 0.860314 1.238132 0.001833 0.002013 -31753.100000 0 0 1
21.809518 25.381389 10.863253 35.183522 0.860944 1.256908 0.010116 0.003790 -375683.000000 0 0 1
20.413218 25.198489 11.021153 34.250973 0.889929 1.243191 0.021701 0.001787 91369.100000 0 0 1
20.023618 23.822989 10.934953 32.985653 0.871834 1.232897 0.016467 0.004741 3356.550000 0 0 1
19.996418 23.292189 9.471953 32.126324 0.861386 1.271514 0.011164 0.013942 -1684670.000000 0 0 1
18.945618 23.759589 8.716553 31.613807 0.897650 1.291458 0.012031 0.011701 -644959.000000 0 0 1
19.199618 23.723589 7.321753 31.385380 0.890407 1.335341 0.008638 -0.009030 -25233.500000 0 0 1
18.012918 24.061689 6.374653 30.725662 0.928183 1.361808 0.012686 -0.009722 -450109.000000 0 0 1
17.148218 22.953489 6.162853 29.307077 0.929163 1.358929 0.024056 -0.003342 89302.700000 0 0 1
16.095618 23.103189 5.263653 28.644935 0.962299 1.385991 0.029960 -0.007781 816993.000000 0 0 1
14.945418 24.200689 5.528253 28.975860 1.017564 1.378831 0.012416 -0.007982 146604.000000 0 0 1
15.317918 25.547389 5.529953 30.296668 1.030680 1.387241 0.019035 -0.006572 -367762.000000 0 0 1
14.243918 26.409189 5.775853 30.556422 1.076163 1.380630 0.015279 -0.002714 -402789.000000 0 0 1
14.338018 27.732189 4.977653 31.613764 1.093628 1.412686 0.007052 0.003018 -303980.000000 0 0 1
14.022618 27.562389 3.589053 31.131983 1.100166 1.455254 -0.002356 0.004234 338379.000000 0 0 1
13.719618 28.831889 3.002253 32.070536 1.126656 1.477045 -0.002833 0.007553 -98643.500000 0 0 1
13.224318 28.745589 1.551853 31.679642 1.139619 1.521791 -0.005105 0.012709 461437.000000 0 0 1
14.234118 28.551689 0.533253 31.907576 1.108319 1.554083 -0.000082 0.010860 276929.000000 0 0 1
14.354018 27.213689 0.196853 30.767864 1.085426 1.564398 -0.004771 0.012678 -263714.000000 0 0 1
15.321918 26.970789 -0.919047 31.032713 1.054168 1.600416 0.004043 0.008663 -682236.000000 0 0 1
14.880318 27.581789 -2.082247 31.408831 1.076052 1.637140 0.010932 0.000249 -607931.000000 0 0 1
15.785918 27.566589 -3.151247 31.922443 1.050732 1.669673 -0.002037 0.001096 -647740.000000 0 0 1
15.249518 28.041489 -4.496747 32.234975 1.072710 1.710752 -0.001614 0.011801 -1270000.000000 0 0 1
14.368718 27.118889 -5.006847 31.096024 1.083561 1.732513 0.014824 0.001191 -819390.000000 0 0 1
13.954918 27.545789 -6.312847 31.517650 1.101876 1.772456 0.017934 0.003106 358930.000000 0 0 1
12.675918 26.868389 -6.872847 30.493036 1.129980 1.798140 0.017276 -0.004865 333544.000000 0 0 1
12.744018 25.559489 -7.291047 29.476377 1.108268 1.820743 0.026895 -0.009026 543705.000000 0 0 1
11.411618 25.229989 -7.719547 28.746630 1.146028 1.842671 0.021879 0.001996 872646.000000 0 0 1
11.322018 23.843089 -8.361847 27.687569 1.127466 1.877594 0.017956 0.000246 225691.000000 0 0 1
11.877418 23.633989 -9.680247 28.166392 1.105105 1.921630 0.018495 -0.001963 94586.200000 0 0 1
11.385218 22.450689 -10.201647 27.161190 1.101468 1.955837 0.022021 0.006059 -321733.000000 0 0 1
11.796718 22.129089 -11.614947 27.636319 1.081031 2.004548 0.017535 0.007116 -38197.000000 0 0 1
11.251518 20.892789 -12.023747 26.602176 1.076797 2.039784 0.019976 0.012108 -260807.000000 0 0 1
11.519918 20.519489 -13.363547 27.061824 1.059233 2.087268 0.020568 0.004603 1760430.000000 0 0 1
12.961818 19.882189 -13.751047 27.429937 0.993065 2.095915 0.007095 0.004143 2036960.000000 0 0 1
13.988418 20.858689 -13.688047 28.602856 0.980056 2.069805 0.005227 0.005114 354499.000000 0 0 1
15.225118 20.386589 -14.248747 29.162373 0.929333 2.081281 0.013648 0.007881 1081460.000000 0 0 1
16.404918 21.391789 -14.055547 30.402111 0.916580 2.051408 -0.002355 0.011937 -126971.000000 0 0 1
16.470418 22.673889 -14.738947 31.664119 0.942568 2.054971 -0.003671 0.009324 -416471.000000 0 0 1
15.347018 23.531989 -14.800647 31.754442 0.992892 2.055670 0.000645 0.006506 -105541.000000 0 0 1
15.707718 24.939589 -15.342847 33.228278 1.008731 2.050753 -0.000478 0.001779 284718.000000 0 0 1
16.030718 25.031489 -16.747047 34.117780 1.001184 2.083873 -0.012937 0.007536 878103.000000 0 0 1
14.806418 25.049989 -17.543547 33.978052 1.036965 2.113345 -0.012544 0.013571 767403.000000 0 0 1
15.004418 24.873689 -19.059147 34.743115 1.028009 2.151453 -0.018730 0.021472 -128832.000000 0 0 1
15.392318 23.623389 -19.599547 34.338465 0.993317 2.178246 -0.019761 0.024767 -75824.200000 0 0 1
15.389918 23.797989 -20.996647 35.271136 0.996752 2.208426 -0.021951 0.033615 -246319.000000 0 0 1
15.752118 22.452589 -21.637747 34.934797 0.959016 2.238743 -0.007190 0.024865 -237699.000000 0 0 1
14.773118 21.456589 -21.590047 33.834307 0.967822 2.262839 0.004552 0.020867 -112871.000000 0 0 1
15.346018 20.257189 -22.130447 33.698823 0.922475 2.287248 0.003356 0.008775 152043.000000 0 0 1
14.430418 19.012489 -22.215547 32.607395 0.921562 2.320339 0.002396 0.002205 -307629.000000 0 0 1
13.959618 18.527789 -20.926547 31.242123 0.925096 2.304760 0.006257 -0.001631 228415.000000 0 0 1
13.239618 17.300789 -20.991547 30.253096 0.917600 2.337638 0.006057 -0.004289 -13336.300000 0 0 1
11.748818 17.423689 -21.390647 29.986321 0.977527 2.365059 0.011315 -0.002524 -516906.000000 0 0 1
10.967518 17.839889 -20.316647 29.177290 1.019584 2.341050 -0.000247 0.004842 1241410.000000 0 0 1
9.574418 18.039089 -20.717547 29.091149 1.082845 2.363366 0.006203 0.009116 1959140.000000 0 0 1
8.467718 17.620989 -19.706147 27.758489 1.122832 2.360173 0.007189 0.004199 72773.000000 0 0 1
8.466218 16.276589 -19.446847 26.735446 1.091161 2.385294 -0.008022 -0.001239 201062.000000 0 0 1
7.242618 15.794589 -18.908447 25.679835 1.140855 2.398404 0.001138 0.008293 223478.000000 0 0 1
6.837918 15.981289 -17.457747 24.635983 1.166497 2.358348 -0.005107 0.009251 -155270.000000 0 1 0
6.517418 17.308289 -17.044547 25.150948 1.210668 2.315413 0.002867 0.003323 -179102.000000 0 0 1
6.219918 17.311489 -15.677747 24.169542 1.225866 2.276615 -0.012735 -0.006383 -147384.000000 0 1 0
5.645518 18.643089 -15.094747 24.643214 1.276753 2.230056 -0.002997 -0.008829 -286021.000000 0 1 0
6.575918 19.663089 -14.810547 25.480033 1.248059 2.191074 0.004902 -0.007909 -480327.000000 0 0 1
7.096318 20.260789 -15.949147 26.743833 1.233900 2.209764 0.007246 -0.003430 -537094.000000 0 0 1
8.239118 21.259589 -15.728147 27.698877 1.201070 2.174659 0.005271 0.005789 -362615.000000 0 0 1
8.130318 22.462089 -15.022147 28.219008 1.223509 2.132160 0.005813 -0.003942 -203549.000000 0 0 1
7.909818 22.325389 -13.615347 27.319698 1.230299 2.092515 -0.007231 0.002293 -151556.000000 0 0 1
7.726418 23.612589 -12.793847 27.945204 1.254561 2.046337 0.007078 -0.005246 -311811.000000 0 0 1
6.556818 24.380089 -13.052047 28.420706 1.308071 2.047941 0.004483 -0.001096 77475.600000 0 0 1
6.080818 25.317689 -12.110347 28.716236 1.335081 2.006143 -0.005143 -0.001182 58163.400000 0 0 1
5.608918 24.638389 -10.807347 27.482884 1.346961 1.974948 -0.014377 -0.003379 165847.000000 0 0 1
6.638118 24.484489 -9.810047 27.199114 1.306045 1.939788 -0.015359 -0.002316 417651.000000 0 0 1
6.012018 23.757189 -8.804047 26.039578 1.322939 1.915696 -0.015145 0.001776 129159.000000 0 0 1
6.853118 23.479089 -7.550847 25.597815 1.286804 1.870231 -0.015610 -0.001151 -193594.000000 0 0 1
6.896018 24.563889 -6.670347 26.371068 1.297103 1.826516 -0.022882 0.000177 256364.000000 0 0 1
7.954518 24.526389 -5.708947 26.408525 1.257175 1.788695 -0.005211 0.003066 326844.000000 0 0 1
8.249918 25.885189 -5.044647 27.632456 1.262262 1.754388 -0.001762 0.002304 94632.400000 0 0 1
8.839518 26.732889 -6.030147 28.794914 1.251453 1.781775 0.006675 0.002316 92230.700000 0 0 1
9.062018 28.044989 -5.499947 29.981511 1.258262 1.755286 0.001835 0.004285 172112.000000 0 0 1
9.053118 29.259189 -6.548047 31.319898 1.270728 1.781420 0.001490 0.005955 -260247.000000 0 0 1
10.217018 29.318689 -7.315047 31.898007 1.235475 1.802182 0.014533 -0.003251 -559561.000000 0 0 1
10.318318 30.544289 -7.990047 33.215390 1.245018 1.813731 0.011241 -0.004776 621331.000000 0 0 1
11.682018 30.819589 -8.716147 34.092342 1.208484 1.829330 0.006693 -0.008583 380181.000000 0 0 1
12.782918 30.846689 -7.862447 34.303634 1.177937 1.802054 0.012983 -0.002950 -39420.000000 0 0 1
13.878318 31.470489 -8.602247 35.454168 1.155456 1.815872 0.006074 -0.006305 1866500.000000 0 0 1
15.224518 31.619389 -7.779447 35.945674 1.122064 1.788945 -0.003383 0.001223 812728.000000 0 0 1
15.826118 30.398989 -7.483147 35.079367 1.090794 1.785769 0.006740 0.003425 626245.000000 0 0 1
17.116518 30.669589 -6.875847 35.789330 1.061760 1.764118 -0.000070 0.012698 826419.000000 0 0 1
18.106718 29.532589 -6.722447 35.287651 1.020793 1.762472 -0.005096 0.011230 -526998.000000 0 0 1
17.953618 28.698489 -5.568047 34.306542 1.011770 1.733820 -0.000072 0.013530 -406425.000000 0 0 1
18.919618 27.676389 -5.389147 33.955520 0.971161 1.730182 -0.005173 0.013327 -358842.000000 0 0 1
18.905718 26.526689 -6.440247 33.204942 0.951594 1.765988 -0.006178 0.017630 -371900.000000 0 0 1
19.178418 26.903389 -7.756547 33.937709 0.951490 1.801387 -0.002170 0.019340 252358.000000 0 0 1
18.824318 25.881689 -8.691047 33.162495 0.941968 1.835968 0.000273 0.015143 -1300790.000000 0 0 1
19.391018 26.187289 -10.111047 34.117722 0.933419 1.871673 -0.002074 0.009366 642499.000000 0 0 1
20.801818 26.380089 -10.266447 35.128687 0.903081 1.867378 -0.002941 0.008710 521152.000000 0 0 1
21.511118 25.190989 -9.982647 34.597216 0.864030 1.863497 -0.007365 0.011073 -396310.000000 0 0 1
23.042718 25.456589 -9.786347 35.704024 0.835128 1.848446 0.004229 0.007588 595513.000000 0 0 1
23.758818 25.787189 -10.947447 36.732916 0.826314 1.873423 0.007868 0.004028 624195.000000 0 0 1
25.151118 25.982989 -10.641247 37.695233 0.801665 1.856984 0.005088 0.012895 1047760.000000 0 0 1
26.033118 26.188689 -11.914747 38.801184 0.788377 1.882911 0.004377 0.007009 54337.200000 0 0 1
25.745918 27.366289 -12.656947 39.648006 0.815897 1.895716 0.008830 0.004230 37425.200000 0 0 1
26.420318 27.370989 -13.920547 40.509084 0.803070 1.921587 0.000215 0.002549 197886.000000 0 0 1
26.092418 28.591289 -14.770947 41.430145 0.831063 1.935344 0.006673 -0.001571 94752.200000 0 0 1
26.751318 29.771089 -14.315747 42.507545 0.838773 1.914293 0.015829 -0.005058 278772.000000 0 0 1
26.348318 30.786489 -15.248847 43.296294 0.862921 1.930714 0.018555 -0.001641 55127.500000 0 0 1
27.046418 32.135189 -15.008347 44.603022 0.871173 1.913980 0.007392 -0.006441 -179302.000000 0 0 1
28.436718 32.179589 -15.242547 45.568719 0.847067 1.911867 0.012252 -0.005630 38145.100000 0 0 1
28.858918 33.487589 -14.998647 46.682065 0.859503 1.897891 0.006951 -0.005089 -258025.000000 0 0 1
14.143118 -33.009620 -29.065684 46.200398 -1.166003 2.251219 0.005635 -0.005226 -32733.300000 0 0 1
14.982118 -33.462020 -28.038884 46.155711 -1.149828 2.223686 0.008467 -0.001916 61242.000000 0 0 1
15.488718 -32.366720 -27.273764 45.070646 -1.124465 2.220730 0.006433 -0.004895 -570867.000000 0 0 1
16.573518 -32.918920 -26.292554 45.272897 -1.104381 2.190455 0.007683 -0.005217 1370810.000000 0 0 1
17.955818 -32.855220 -26.726844 46.002186 -1.070634 2.190742 0.005463 -0.010643 1217990.000000 0 0 1
18.276418 -33.645820 -27.877954 47.362950 -1.073189 2.200125 -0.001427 -0.008329 -817448.000000 0 0 1
19.787918 -33.541320 -28.155654 48.055413 -1.037795 2.196786 0.003986 -0.007683 -34978.300000 0 0 1
20.277418 -32.320420 -28.622834 47.697483 -1.010482 2.214411 -0.011427 -0.008973 -1116190.000000 0 0 1
21.638318 -32.230320 -28.461164 48.135727 -0.979548 2.203428 -0.009327 -0.005305 -1335230.000000 0 0 1
22.324218 -30.899220 -28.790634 47.770630 -0.945139 2.217658 -0.010003 -0.005507 -414991.000000 0 0 1
22.498318 -30.810820 -30.164354 48.635062 -0.940083 2.239817 -0.011707 -0.005830 14122.200000 0 0 1
23.189018 -29.649320 -30.601434 48.510417 -0.907060 2.253408 -0.007810 -0.013549 147227.000000 0 0 1
23.451618 -29.752220 -32.118934 49.666880 -0.903273 2.274029 -0.002612 -0.011775 -182142.000000 0 0 1
24.382718 -30.751420 -32.399294 50.890874 -0.900401 2.260933 0.008288 -0.009744 -469211.000000 0 0 1
24.496018 -30.884320 -33.794564 51.922719 -0.900244 2.279517 0.006036 -0.011605 -644796.000000 0 0 1
25.688818 -31.714320 -34.207064 53.252575 -0.889983 2.268364 0.001147 -0.006365 -281438.000000 0 0 1
26.853518 -30.899820 -34.273852 53.391078 -0.855346 2.267822 0.007677 -0.011448 174076.000000 0 0 1
27.996918 -31.595820 34.598088 54.581599 -0.845717 0.884239 0.017015 -0.005085 -20876.600000 0 0 1
29.261218 -30.760120 -34.660389 54.806445 -0.810366 2.255463 0.011165 -0.008056 -692105.000000 0 0 1
29.456818 -29.654220 33.829381 53.772706 -0.788738 0.890378 0.001041 -0.010201 616459.000000 0 0 1
30.789618 -29.354220 33.371251 54.067654 -0.761537 0.905601 -0.003620 -0.007937 548952.000000 0 0 1
30.773518 -28.098120 32.535753 52.868601 -0.739985 0.907893 -0.004088 -0.011719 758982.000000 0 0 1
31.957618 -27.882520 31.717493 52.959642 -0.717403 0.928670 -0.020063 -0.010912 1014280.000000 0 0 1
31.934518 -26.743420 30.947083 51.891675 -0.697160 0.931814 -0.010117 -0.007062 120475.000000 0 0 1
32.836718 -26.967220 29.679613 51.830112 -0.687566 0.961083 -0.010442 -0.004567 15714.000000 0 0 1
32.302218 -27.934220 28.770613 51.492739 -0.713011 0.977941 -0.015158 -0.012017 782482.000000 0 0 1
31.142318 -27.521020 28.040443 50.134988 -0.723746 0.977257 -0.010195 -0.016913 296652.000000 0 0 1
30.482918 -28.651720 27.228883 49.915343 -0.754441 0.993809 -0.011935 -0.018157 127813.000000 0 0 1
29.213318 -28.361620 26.669583 48.673053 -0.770606 0.990905 -0.000040 -0.014685 244093.000000 0 0 1
28.848818 -29.413720 25.816483 48.620079 -0.795094 1.011035 0.004944 -0.005296 1762430.000000 0 0 1
27.360218 -29.324020 25.199333 47.365453 -0.820029 1.009813 0.009315 -0.007453 1819410.000000 0 0 1
26.314318 -29.232020 26.144223 47.227902 -0.837877 0.984144 0.012224 -0.004514 303948.000000 0 0 1
25.107718 -28.793520 25.516243 45.940646 -0.853673 0.981931 0.007517 0.002199 521075.000000 0 0 1
23.926818 -28.737820 26.507923 45.836938 -0.876497 0.954142 0.008758 0.000203 -70284.500000 0 0 1
23.960118 -27.630720 27.412723 45.705594 -0.856427 0.927586 0.009223 -0.006679 450618.000000 0 0 1
22.735518 -27.607020 28.141113 45.507951 -0.881865 0.904119 0.009213 -0.011573 219714.000000 0 0 1
22.749718 -26.503320 29.211843 45.533586 -0.861462 0.874286 0.013495 -0.006333 -113215.000000 0 0 1
21.469818 -26.393520 29.820253 45.241778 -0.887908 0.851134 0.010442 -0.003238 93151.900000 0 0 1
21.238018 -25.228620 30.632403 45.009786 -0.871069 0.822253 0.011341 -0.007352 -260296.000000 0 0 1
20.903118 -23.860320 29.922323 43.607346 -0.851365 0.814577 0.008086 -0.009588 -65813.800000 0 0 1
21.924118 -23.369820 29.036923 43.243015 -0.817306 0.834589 0.006483 -0.010772 411829.000000 0 0 1
21.688118 -22.068220 28.593813 42.130594 -0.794085 0.824812 0.012540 -0.012008 -91874.900000 0 0 1
22.250118 -20.869320 29.449003 42.400944 -0.753386 0.803021 0.012419 -0.008504 -390199.000000 0 0 1
21.868618 -20.894220 30.823033 43.184074 -0.762616 0.775945 0.019828 -0.006528 11623.200000 0 0 1
22.390218 -19.834220 31.589343 43.504078 -0.724938 0.758129 0.013332 -0.001894 -645758.000000 0 0 1
21.841918 -19.629720 32.994413 44.170427 -0.732106 0.727289 0.023356 -0.005213 -373385.000000 0 0 1
22.112918 -20.605120 33.996127 45.489436 -0.750116 0.726745 0.013149 -0.004527 48796.400000 0 0 1
21.454318 -20.280520 -34.170033 45.157263 -0.757280 2.429031 0.015398 -0.003515 -378820.000000 0 0 1
21.456218 -21.341320 -33.028824 44.796478 -0.782713 2.399874 0.004280 0.000724 157563.000000 0 0 1
22.695318 -21.606020 -32.382724 45.061496 -0.760815 2.372632 0.007339 0.000816 42914.800000 0 0 1
22.566318 -22.510720 -31.281144 44.659615 -0.784165 2.346803 0.006780 -0.000224 -97439.900000 0 0 1
23.866118 -22.827120 -30.515594 44.965214 -0.763150 2.316718 0.009462 0.002003 -114652.000000 0 0 1
24.725818 -23.702020 -31.196214 46.328777 -0.764261 2.309548 0.008804 0.002250 -731011.000000 0 0 1
25.652318 -24.301220 -30.335964 46.571037 -0.758358 2.280213 0.008456 -0.003188 -381217.000000 0 0 1
26.758018 -25.078020 -31.088794 48.077144 -0.753000 2.273973 -0.003541 -0.008266 -138899.000000 0 0 1
27.587718 -24.214020 -31.884204 48.621018 -0.720363 2.285998 -0.005402 -0.004287 87483.700000 0 0 1
27.272218 -24.070820 -33.260394 49.289269 -0.723126 2.311490 0.000982 0.001518 -226843.000000 0 0 1
27.646618 -25.248820 -34.160935 50.683409 -0.740098 2.310415 0.000253 0.000548 43444.100000 0 0 1
26.889418 -26.426220 -33.836784 50.658799 -0.776711 2.302227 0.016305 -0.006764 83204.600000 0 0 1
27.236318 -27.653820 -34.463332 51.906378 -0.793004 2.296887 0.013090 -0.008507 -140266.000000 0 0 1
26.695218 -27.848720 33.476132 51.076779 -0.806543 0.856074 0.012759 -0.005273 -123712.000000 0 0 1
27.382718 -27.000320 32.580263 50.401429 -0.778367 0.867919 0.001364 -0.008664 170459.000000 0 0 1
26.862018 -27.070720 31.257023 49.309162 -0.789268 0.884212 0.001996 -0.005010 83346.700000 0 0 1
27.882818 -26.415720 30.261223 48.897684 -0.758386 0.903495 0.000292 -0.009548 435025.000000 0 0 1
28.231718 -25.022920 30.305963 48.390369 -0.725217 0.894023 -0.000257 -0.012409 198672.000000 0 0 1
28.570718 -24.483820 31.605903 49.139358 -0.708518 0.872140 -0.001673 -0.004611 -874528.000000 0 0 1
29.056418 -23.014720 31.438313 48.603707 -0.669887 0.867377 -0.002771 0.000602 1357240.000000 0 0 1
30.328318 -22.855820 30.744243 48.861067 -0.645810 0.890250 -0.003978 -0.000639 1519020.000000 0 0 1
31.461318 -23.008520 31.606043 50.181157 -0.631443 0.889451 -0.008101 0.000777 -657128.000000 0 0 1
32.755818 -22.461820 31.082663 50.434204 -0.601088 0.906759 -0.012117 -0.001205 -895069.000000 0 0 1
33.369418 -23.126220 30.028693 50.498144 -0.606037 0.933967 -0.010577 -0.012020 407225.000000 0 0 1
34.679618 -22.606020 29.813693 51.015335 -0.577677 0.946648 -0.027807 -0.015085 419054.000000 0 0 1
-34.419069 -22.910620 28.373343 50.145941 0.587290 0.969375 -0.007555 -0.015554 -132595.000000 0 0 1
-34.402769 -24.279320 28.177083 50.665411 0.614566 0.981062 -0.006341 -0.013662 112394.000000 0 0 1
-34.220469 -24.475120 26.783603 49.874176 0.620867 1.003892 -0.000157 -0.007075 -79479.900000 0 0 1
-34.077669 -25.935620 26.334753 50.273881 0.650551 1.019460 -0.008342 -0.011927 214564.000000 0 0 1
34.281318 -26.641520 26.303213 50.762569 -0.660648 1.026096 -0.002763 -0.014024 392592.000000 0 0 1
34.364618 -28.004420 25.921513 51.352696 -0.683773 1.041676 -0.003138 -0.006368 148952.000000 0 0 1
-34.412969 -28.892120 26.943013 52.392108 0.698408 1.030655 -0.008589 -0.001068 -913570.000000 0 0 1
-34.370469 -30.273920 26.496853 52.914295 0.722112 1.046331 -0.000034 -0.000259 141682.000000 0 0 1
-33.387269 -31.075120 27.138963 53.074440 0.749545 1.034056 0.011687 0.003982 497068.000000 0 0 1
-31.932269 -30.553020 26.918573 51.747139 0.763329 1.023718 0.021981 0.007032 -940176.000000 0 0 1
-31.474069 -30.495920 25.605803 50.757022 0.769615 1.042019 0.017873 0.010455 634139.000000 0 0 1
-30.188169 -29.864220 25.526753 49.546063 0.780004 1.029541 0.008006 0.008455 865986.000000 0 0 1
-29.539969 -29.691720 24.101353 48.322699 0.787960 1.048631 -0.004418 0.013557 -22926.000000 0 0 1
-29.322769 -30.970820 23.528553 48.709437 0.812725 1.066674 -0.004581 0.013303 507132.000000 0 0 1
-28.816169 -30.921420 22.172153 47.729553 0.820625 1.087684 -0.015808 0.012173 -219007.000000 0 0 1
-28.837969 -32.302720 21.429653 48.314845 0.842006 1.111250 -0.014783 0.015008 854402.000000 0 0 1
-27.801069 -33.249420 21.836153 48.530825 0.874406 1.104094 -0.016565 0.005226 1202700.000000 0 0 1
-26.514069 -33.035720 21.270853 47.400463 0.894479 1.105433 -0.012628 0.009268 218863.000000 0 0 1
-25.631769 -34.300020 21.189953 47.775444 0.929037 1.111260 -0.014784 0.011818 -473342.000000 0 0 1
-25.991869 34.268189 20.163053 47.501944 -0.921888 1.132422 -0.030144 0.013054 354949.000000 0 0 1
-27.174869 33.483989 20.321853 47.672096 -0.889035 1.130415 -0.022510 0.007235 306516.000000 0 0 1
-27.195969 32.401989 21.473653 47.440778 -0.872529 1.101071 -0.019290 0.011836 -48648.500000 0 0 1
-26.371069 31.303589 21.052753 46.027887 -0.870714 1.095737 -0.025908 0.013985 296143.000000 0 0 1
-26.535469 30.176389 21.897153 45.762767 -0.849511 1.071859 -0.018830 0.015536 -15356.000000 0 0 1
-25.498669 29.059589 21.591453 44.281290 -0.850574 1.061460 -0.014219 0.020685 455302.000000 0 0 1
-24.149369 29.434389 21.814753 43.880049 -0.883711 1.050491 -0.024595 0.022939 -118555.000000 0 0 1
-23.241969 28.432889 21.388853 42.498251 -0.885516 1.043397 -0.018454 0.020453 214458.000000 0 0 1
-21.796369 28.871589 21.739253 42.204804 -0.924140 1.029684 -0.012819 0.024008 -109577.000000 0 0 1
-21.600869 29.002689 23.151853 42.939047 -0.930639 1.001334 -0.015687 0.023917 46505.800000 0 0 1
-20.363669 29.651089 23.326553 42.871834 -0.969000 0.995481 0.022596 0.022881 -232053.000000 0 0 1
-19.944769 29.596489 24.787533 43.453052 -0.977810 0.963750 0.014041 0.020223 -569668.000000 0 0 1
-19.447569 28.313389 25.150953 42.572601 -0.968938 0.938774 0.018655 0.012239 353814.000000 0 0 1
-19.147069 28.164989 26.544353 43.179619 -0.973744 0.908737 0.013649 -0.000676 1110910.000000 0 0 1
-17.687269 28.682989 26.928473 43.135785 -1.018226 0.896597 0.020584 0.002821 543978.000000 0 0 1
-17.457069 30.067289 26.875723 43.944233 -1.044764 0.912731 0.012092 0.002451 435655.000000 0 0 1
-16.137769 30.442789 27.267923 43.940080 -1.083358 0.901326 0.007574 -0.002431 155119.000000 0 0 1
-15.974469 30.555589 28.752403 44.894636 -1.089075 0.875723 -0.001636 0.009989 -563917.000000 0 0 1
-16.176069 29.361389 29.463293 44.630057 -1.067239 0.849755 -0.000683 0.011283 174312.000000 0 0 1
-15.966669 29.519489 30.847373 45.583935 -1.074978 0.827504 -0.004594 0.009581 -280840.000000 0 0 1
-15.958069 28.218689 31.665573 45.317357 -1.056120 0.797146 -0.008230 0.008959 -810085.000000 0 0 1
-14.731869 27.555789 31.623523 44.456683 -1.079838 0.779403 0.003700 0.009069 -311373.000000 0 0 1
-14.512769 26.435689 32.498293 44.335146 -1.068734 0.748054 0.006491 0.008417 -276863.000000 0 0 1
-14.725569 26.617989 34.024584 45.640246 -1.065485 0.729519 0.010068 0.006081 557892.000000 0 0 1
-16.101869 26.386589 34.367352 46.223772 -1.022889 0.732508 0.007472 0.003550 548791.000000 0 0 1
-16.445669 26.793189 -33.687954 46.078338 -1.020291 2.390732 0.004512 0.003218 -204493.000000 0 0 1
-17.807769 26.218189 -33.280344 45.957495 -0.974157 2.380604 -0.002958 0.001780 -272463.000000 0 0 1
-18.847669 26.702789 -34.082004 47.221357 -0.956167 2.377123 -0.005735 0.003526 -1506200.000000 0 0 1
-20.085069 26.278289 -33.679664 47.204642 -0.918192 2.365252 0.007866 -0.005021 -939620.000000 0 0 1
-21.203269 26.592789 34.644342 48.548795 -0.897685 0.776175 0.002002 -0.011714 -376592.000000 0 0 1
-21.277869 25.768489 33.535394 47.343272 -0.880561 0.783645 0.001512 -0.007528 84980.500000 0 0 1
-21.345669 24.352189 33.757019 46.778232 -0.851095 0.764629 -0.003949 -0.005058 -544754.000000 0 0 1
-21.759369 23.589289 32.465223 45.649922 -0.825729 0.779624 -0.008079 -0.005250 1755130.000000 0 0 1
-23.195269 23.702689 32.174783 46.206651 -0.796217 0.800534 -0.010784 -0.007730 1646560.000000 0 0 1
-23.479969 23.523489 30.805613 45.317207 -0.786324 0.823337 -0.004094 -0.006500 695421.000000 0 0 1
-24.968769 23.152289 30.501973 45.714749 -0.747668 0.840321 -0.010806 -0.008438 408145.000000 0 0 1
-25.227169 21.836789 30.941563 45.504238 -0.713485 0.823073 -0.008474 -0.005147 -1053430.000000 0 0 1
-26.454169 21.325089 30.594563 45.723186 -0.678458 0.837765 -0.008526 -0.011710 -966306.000000 0 0 1
-26.648569 19.909989 31.150883 45.573363 -0.641663 0.818205 0.003206 -0.013714 -403748.000000 0 0 1
-27.177469 19.853189 32.436613 46.742890 -0.630905 0.803854 0.005869 -0.005081 -269707.000000 0 0 1
-27.289969 18.563289 33.015613 46.683710 -0.597330 0.785239 0.002475 0.003632 -188495.000000 0 0 1
-28.013369 17.406889 32.291513 46.157236 -0.555990 0.795961 0.000764 -0.000299 -685514.000000 0 0 1
-29.388569 17.668189 32.234603 47.062963 -0.541296 0.816295 -0.001957 -0.004888 -382716.000000 0 0 1
-30.078169 16.433589 31.993913 46.886774 -0.500046 0.819803 -0.002799 0.001005 1016650.000000 0 0 1
-31.634369 16.617889 31.819293 47.847204 -0.483691 0.843277 0.002188 0.002812 1036650.000000 0 0 1
-32.233269 17.034989 33.049053 49.207869 -0.486180 0.834401 0.005549 0.005230 778288.000000 0 0 1
-33.656269 17.014889 33.114163 50.187635 -0.468077 0.850234 0.014144 -0.006532 385656.000000 0 0 1
-34.152069 17.396089 34.551904 51.602537 -0.471117 0.837156 0.019852 0.006926 -132963.000000 0 0 1
34.046118 17.479389 -34.635751 51.616881 0.474313 2.306375 0.013399 -0.006481 -109925.000000 0 0 1
33.765918 18.026889 -33.380844 50.787663 0.490381 2.287978 0.004330 -0.003545 1350750.000000 0 0 1
32.205518 18.239089 -33.128034 49.672189 0.515297 2.300882 0.005173 -0.002699 1350370.000000 0 0 1
31.594818 16.964889 -33.110804 48.809480 0.492770 2.316336 0.003633 0.005377 -611814.000000 0 0 1
30.352918 16.980789 -32.476124 47.585139 0.510066 2.321953 0.002951 0.003702 -512363.000000 0 0 1
29.653018 15.576389 -32.600884 46.741235 0.483673 2.342665 -0.003170 0.000266 28235.700000 0 0 1
28.974118 15.485589 -33.861324 47.179362 0.490836 2.371311 -0.000493 -0.014286 157136.000000 0 0 1
28.149518 14.337389 -34.009904 46.417989 0.471084 2.393060 -0.004135 -0.015714 -24070.100000 0 0 1
28.897618 12.996589 -34.293413 46.690704 0.422643 2.395697 -0.004899 -0.005451 156862.000000 0 0 1
29.542218 12.341989 -33.186864 46.113287 0.395735 2.374139 -0.002202 0.005331 280851.000000 0 0 1
30.187018 11.190689 -33.661874 46.579065 0.355006 2.378472 0.004010 0.004279 -444415.000000 0 0 1
16.796118 -21.602511 10.296946 29.237052 -0.909921 1.210888 -0.000050 -0.004097 89648.900000 0 0 1
16.571318 -22.777611 11.046946 30.256622 -0.941834 1.197047 0.000194 -0.005932 358648.000000 0 0 1
17.776418 -23.530511 11.075446 31.501611 -0.923808 1.211534 0.001252 -0.006264 -161289.000000 0 0 1
17.569918 -24.940611 11.796546 32.709244 -0.957077 1.201833 0.012581 -0.009316 259614.000000 0 0 1
16.753918 -25.894711 11.125146 32.787173 -0.996532 1.224609 0.009069 -0.012228 179430.000000 0 0 1
15.366718 -25.687881 11.285146 31.989964 -1.031695 1.210265 0.019360 -0.012436 151418.000000 0 0 1
14.450918 -26.707711 10.520946 32.137536 -1.074830 1.237275 0.028282 -0.003458 258624.000000 0 0 1
14.591518 -26.553401 9.162446 31.653530 -1.068325 1.277133 0.027955 -0.009254 190303.000000 0 0 1
13.593218 -27.280641 8.472846 31.635393 -1.108531 1.299658 0.027111 0.000047 -18529.500000 0 0 1
13.324318 -26.668451 7.087146 30.642640 -1.107446 1.337399 0.023757 -0.008108 26758.000000 0 0 1
12.654318 -25.397721 7.045246 29.237160 -1.108553 1.327432 0.027400 -0.005718 147098.000000 0 0 1
12.394418 -24.958911 5.713046 28.446577 -1.109878 1.368587 0.023355 0.004319 260919.000000 0 0 1
11.766618 -23.537111 5.848846 26.956593 -1.107215 1.352084 0.025714 0.014199 271435.000000 0 0 1
11.142318 -22.954111 4.697246 25.944298 -1.118883 1.388741 0.021071 0.008613 343687.000000 0 0 1
10.504618 -21.710811 5.089546 24.649743 -1.120158 1.362826 0.022867 0.009743 71208.300000 0 1 0
9.866418 -20.991211 3.899046 23.519773 -1.131414 1.404250 0.013696 0.005759 -115450.000000 0 1 0
10.724818 -20.418611 2.937046 23.250111 -1.087156 1.444134 0.005031 0.008045 -220359.000000 0 1 0
9.954118 -19.894611 1.845646 22.322331 -1.106875 1.488020 0.006685 0.014398 265074.000000 0 1 0
10.756818 -19.451911 0.603646 22.236240 -1.065656 1.543646 0.006161 0.015053 -135331.000000 0 1 0
11.512018 -18.313411 0.893246 21.649607 -1.009604 1.529525 -0.002346 0.017272 -415644.000000 0 1 0
12.295818 -18.024811 -0.227354 21.820464 -0.972144 1.581216 0.005583 0.013473 -177825.000000 0 1 0
13.588018 -17.202111 -0.115154 21.921682 -0.902242 1.576049 0.012027 0.023405 120259.000000 0 1 0
14.575918 -17.834211 0.686246 23.043164 -0.885595 1.541011 0.006320 0.012477 526623.000000 0 1 0
15.830718 -17.171611 0.475146 23.360258 -0.826006 1.550455 0.009636 0.008027 1098120.000000 0 1 0
17.101318 -17.848211 1.084446 24.742469 -0.806766 1.526953 0.017747 0.007055 505841.000000 0 1 0
17.562018 -18.969511 0.313846 25.852763 -0.823907 1.558656 0.011599 -0.001153 27791.700000 0 0 1
18.617418 -19.585711 1.029646 27.041977 -0.810739 1.532711 0.005631 0.001739 239369.000000 0 0 1
18.808018 -21.036311 0.591746 28.224424 -0.841265 1.549829 0.000456 -0.000426 141471.000000 0 0 1
17.871918 -21.911111 1.193946 28.300667 -0.886582 1.528596 0.008502 -0.000823 -10497.900000 0 0 1
17.976918 -23.183611 0.533346 29.341675 -0.911227 1.552618 0.009333 -0.000644 -808302.000000 0 0 1
16.775318 -24.091511 0.680046 29.364514 -0.962547 1.547635 0.010296 -0.002570 -921346.000000 0 0 1
16.672318 -24.476911 2.001746 29.683200 -0.972837 1.503308 0.008799 -0.007792 347525.000000 0 0 1
15.537218 -25.339781 2.137746 29.800665 -1.020760 1.499000 0.009644 -0.006852 1649.490000 0 0 1
15.432518 -26.202901 3.410946 30.600477 -1.038532 1.459097 0.011430 -0.007493 837900.000000 0 0 1
16.413718 -27.263791 3.552146 32.020965 -1.028883 1.459636 0.011429 -0.008030 1475780.000000 0 0 1
17.745618 -26.861101 3.936946 32.433398 -0.986975 1.449111 0.007085 -0.003632 257767.000000 0 0 1
18.781018 -27.963321 3.944846 33.915126 -0.979365 1.454217 0.006537 -0.001846 -626970.000000 0 0 1
19.352718 -28.179551 2.662946 34.288571 -0.969009 1.493055 0.010899 -0.001736 335735.000000 0 0 1
20.358318 -29.203371 2.623346 35.695658 -0.962004 1.497238 0.018303 0.000323 140427.000000 0 0 1
19.807218 -30.620241 2.736246 36.570646 -0.996627 1.495906 0.018865 0.005621 -162164.000000 0 0 1
19.475318 -30.874401 4.106446 36.733902 -1.008043 1.458773 0.031789 -0.003768 -172189.000000 0 0 1
19.475318 -32.272601 4.419746 37.951851 -1.027834 1.454075 0.014327 -0.005404 -37291.300000 0 0 1
18.898418 -32.518241 5.842846 38.062121 -1.044342 1.416679 0.016042 -0.008696 -581866.000000 0 0 1
19.506218 -33.655281 6.379346 39.419114 -1.045520 1.408248 0.012642 -0.010287 -99094.500000 0 0 1
19.157318 -34.064281 7.701346 39.833263 -1.058493 1.376232 0.011926 -0.006559 -300916.000000 0 0 1
20.201018 34.540129 8.411046 40.888230 1.041586 1.363609 0.010790 -0.009174 450936.000000 0 0 1
21.374618 -34.215286 8.779846 41.287357 -1.012406 1.356508 0.000011 -0.006414 -140838.000000 0 0 1
22.375718 34.475743 9.321846 42.144352 0.995105 1.347763 0.013891 -0.011632 -285834.000000 0 0 1
23.318818 -34.123471 10.180446 42.565480 -0.971322 1.329284 0.011371 -0.003517 -128427.000000 0 0 1
24.077118 -33.177481 9.434246 42.064925 -0.943025 1.344594 -0.000501 -0.002139 30400.300000 0 0 1
24.845218 -32.372821 10.275446 42.081697 -0.916207 1.324124 -0.007253 0.001053 -258251.000000 0 0 1
25.370318 -31.239531 9.389646 41.324652 -0.888707 1.341578 -0.009676 -0.003039 -409501.000000 0 0 1
24.447418 -30.222121 9.136846 39.931627 -0.890637 1.339939 -0.006000 -0.004103 -86243.600000 0 0 1
25.034618 -29.349201 8.241246 39.446494 -0.864568 1.360324 -0.007877 -0.001604 -378181.000000 0 0 1
24.580118 -27.888061 8.506046 38.135010 -0.848361 1.345853 -0.010268 0.000984 -57292.300000 0 0 1
25.375018 -27.357441 9.527346 38.510927 -0.822974 1.320807 -0.006752 -0.009215 -85525.300000 0 0 1
24.882418 -26.126751 9.929246 37.421008 -0.809788 1.302241 -0.008026 -0.012370 -654958.000000 0 0 1
25.751718 -25.459491 10.958046 37.834052 -0.779692 1.276951 -0.002943 -0.005560 -941780.000000 0 0 1
26.974718 -25.166151 10.384746 38.325103 -0.750726 1.296401 0.003899 -0.003668 -1228160.000000 0 0 1
27.854618 -24.564411 11.295446 38.818516 -0.722713 1.275544 0.003823 -0.001597 -161008.000000 0 0 1
29.235418 -24.210011 10.741646 39.448920 -0.691645 1.295022 0.005135 -0.002465 -18213.600000 0 0 1
29.175218 -23.097911 9.854446 38.494376 -0.669657 1.311917 0.008154 -0.008180 -275003.000000 0 0 1
30.373918 -22.979311 9.113846 39.162301 -0.647678 1.335923 -0.000249 -0.005455 -210859.000000 0 0 1
30.291818 -22.193811 7.766346 38.346782 -0.632315 1.366856 -0.000496 -0.004965 -529145.000000 0 0 1
30.003518 -20.831611 7.912346 37.373418 -0.606894 1.357471 0.001516 0.003727 -126008.000000 0 0 1
30.124218 -20.094211 6.721346 36.829640 -0.588265 1.387270 -0.001846 0.007651 -445634.000000 0 0 1
29.993618 -18.559011 6.945246 35.948442 -0.554103 1.376374 0.001018 0.005860 367918.000000 0 0 1
30.846318 -17.908311 7.926946 36.538192 -0.526007 1.352108 0.007312 0.009096 380753.000000 0 0 1
30.588718 -16.494411 7.961046 35.652679 -0.494538 1.345603 0.008105 0.008945 156323.000000 0 0 1
31.037818 -15.784311 9.278546 36.035844 -0.470465 1.310382 0.012897 0.006066 154361.000000 0 0 1
32.443718 -15.617811 9.345446 37.200111 -0.448642 1.316855 0.000838 0.004177 79802.600000 0 0 1
32.859118 -15.043811 10.578146 37.655479 -0.429344 1.286045 0.008192 0.002409 522350.000000 0 0 1
34.399118 -14.824711 10.707246 38.957881 -0.406910 1.292371 0.010423 0.004828 562524.000000 0 0 1
-34.719669 -13.881111 9.728146 38.636479 0.380339 1.316270 0.003077 0.005124 -18837.100000 0 0 1
-33.648869 -14.509711 9.048346 37.744545 0.407118 1.328713 0.007549 0.001517 -171050.000000 0 0 1
-32.922769 -13.590511 8.083246 36.523275 0.391492 1.347631 0.005344 -0.001424 -857779.000000 0 0 1
-33.535869 -13.260111 6.862746 36.709431 0.376535 1.382742 0.013010 -0.005230 17020.200000 0 0 1
-32.637369 -12.829011 5.828146 35.549243 0.374524 1.406107 0.004154 -0.001933 458906.000000 0 0 1
-31.597069 -13.866011 5.238046 34.900977 0.413533 1.420144 -0.002778 0.000032 265749.000000 0 0 1
-30.713769 -14.255811 6.269046 34.436386 0.434559 1.387728 0.003051 0.001454 -400703.000000 0 0 1
-29.806769 -15.196811 5.744846 33.946867 0.471492 1.400747 -0.001728 0.005182 -310651.000000 0 0 1
-29.052069 -15.991511 6.820346 33.856584 0.503183 1.367960 -0.006047 0.011852 25146.800000 0 0 1
-29.856769 -16.934411 7.585946 35.153201 0.515944 1.353289 -0.000625 0.000172 111833.000000 0 0 1
-29.405969 -17.144711 8.877146 35.177491 0.527852 1.315685 0.003252 -0.000529 -113168.000000 0 0 1
-30.443469 -17.815611 9.825346 36.616093 0.529468 1.299133 -0.010743 -0.002483 -214252.000000 0 0 1
-31.548769 -16.994111 10.166446 37.248910 0.494096 1.294356 -0.013525 0.005748 2641.770000 0 0 1
-32.501169 -17.592311 10.993546 38.557405 0.496126 1.281663 -0.012050 0.000633 50503.600000 0 0 1
-33.387769 -18.783211 10.518946 39.726570 0.512448 1.302817 -0.001933 -0.004447 -1266530.000000 0 0 1
-32.776769 -20.006711 10.388746 39.780788 0.548026 1.306583 -0.011795 -0.004527 -653248.000000 0 0 1
-32.624169 -20.694011 11.656846 40.354189 0.565270 1.277757 -0.005296 -0.008911 213354.000000 0 0 1
-33.924269 -21.380911 12.170846 41.906192 0.562369 1.276119 -0.029682 -0.000415 107964.000000 0 0 1
-34.111369 -22.722711 11.846346 42.664306 0.587633 1.289435 -0.000242 -0.000387 -892014.000000 0 0 1
34.311918 -23.172711 12.417946 43.226007 -0.593993 1.279411 0.006937 0.004041 -730319.000000 0 0 1
34.101218 -24.690611 12.315646 43.865642 -0.626678 1.286212 0.011095 0.002412 151464.000000 0 0 1
34.793818 -25.472591 13.306746 45.127954 -0.631947 1.271480 0.000215 0.002604 612645.000000 0 0 1
34.040618 -26.651031 13.497346 45.290391 -0.664238 1.268181 0.001381 0.003144 360981.000000 0 0 1
33.158318 -26.756161 14.796246 45.103161 -0.678947 1.236554 -0.001202 0.003623 289190.000000 0 0 1
32.355918 -25.606251 14.856946 43.855609 -0.669471 1.225187 -0.007342 0.007118 -290176.000000 0 0 1
31.517918 -25.610631 15.999746 43.649462 -0.682361 1.195497 0.000905 0.006109 -336581.000000 0 0 1
31.026418 -24.187711 16.289846 42.579844 -0.662168 1.178218 0.004179 0.004088 -382133.000000 0 0 1
31.995818 -23.275911 16.760646 42.969986 -0.628924 1.170105 0.010909 0.003777 -64807.400000 0 0 1
32.747018 -22.686411 15.693046 42.817195 -0.605862 1.195538 -0.002496 0.007142 -155490.000000 0 0 1
33.972218 -21.915511 16.207546 43.555549 -0.572924 1.189513 -0.002623 0.010209 -261267.000000 0 0 1
33.800018 -20.606011 16.678346 42.955979 -0.547481 1.172047 0.003493 0.009016 66763.500000 0 0 1
33.085418 -20.482811 17.906846 42.835098 -0.554337 1.139508 0.003584 0.009159 95826.100000 0 0 1
33.249418 -19.076211 18.503246 42.565194 -0.520880 1.121087 -0.009367 0.008186 -402249.000000 0 0 1
32.726418 -17.998111 17.688446 41.325919 -0.502810 1.128492 0.003799 0.003415 176219.000000 0 0 1
32.773618 -16.624611 18.113246 40.970446 -0.469435 1.112852 0.009374 0.000838 4093.460000 0 0 1
34.143718 -15.995811 18.478346 41.989389 -0.438119 1.115118 0.006635 -0.002969 -39627.500000 0 0 1
34.604218 -16.420111 19.725146 43.083098 -0.443050 1.095233 0.006294 0.007675 1019400.000000 0 0 1
-33.864669 -15.679711 20.278446 42.472162 0.433621 1.073043 -0.003876 -0.003056 828686.000000 0 0 1
-33.717369 -15.883311 21.777446 43.167091 0.440239 1.042003 -0.006477 0.002058 -500148.000000 0 0 1
-33.100669 -17.064511 22.099146 43.303858 0.475997 1.035231 -0.015578 0.002176 -90527.500000 0 0 1
-32.728669 -16.997311 23.473646 43.715975 0.479000 1.003969 -0.016104 0.002883 -103737.000000 0 0 1
-31.685369 -18.064011 23.793946 43.547939 0.518148 0.992754 -0.024558 0.004545 -884997.000000 0 0 1
-32.371269 -19.323611 23.888146 44.631206 0.538164 1.006011 -0.012863 0.002671 588751.000000 0 0 1
-31.647969 -20.500111 24.283246 44.850023 0.574795 0.998657 -0.016404 -0.001671 249737.000000 0 0 1
-30.565069 -21.029911 23.252146 43.785191 0.602652 1.010957 -0.020653 0.003099 530090.000000 0 0 1
-29.405569 -20.223811 23.149746 42.539403 0.602460 0.995367 -0.015702 0.001325 -427859.000000 0 0 1
-28.318369 -21.035711 22.826546 42.017644 0.638896 0.996480 -0.011508 0.003316 173452.000000 0 0 1
-26.965269 -20.236511 22.841746 40.723304 0.643799 0.975322 -0.006766 0.006079 439032.000000 0 0 1
-26.567369 -19.819411 24.150346 41.010650 0.640940 0.941124 -0.000775 -0.002549 -10930.700000 0 0 1
-25.536669 -18.881111 24.123346 39.881746 0.636665 0.921191 0.001325 0.003446 -481702.000000 0 0 1
-25.230369 -18.326811 25.548946 40.313672 0.628212 0.884400 0.003960 -0.001057 -1282940.000000 0 0 1
-24.363269 -17.220211 25.516246 39.257908 0.615282 0.863259 0.003934 0.002909 -35077.200000 0 0 1
-24.002469 -16.787311 26.802046 39.702418 0.610323 0.829732 0.001368 -0.003131 433574.000000 0 0 1
-22.972869 -17.740511 27.544646 40.014822 0.657582 0.811569 0.006345 -0.006184 -639229.000000 0 0 1
-23.339869 -19.025711 27.876346 41.034350 0.683916 0.823931 0.015201 -0.003221 -322601.000000 0 0 1
-22.565869 -19.431711 28.985746 41.556989 0.710909 0.798902 0.014918 -0.009713 -428162.000000 0 0 1
-23.145969 -20.679111 29.589646 42.882499 0.729169 0.809284 0.015156 -0.005627 -402160.000000 0 0 1
-24.218569 -20.557511 30.488746 44.030830 0.703816 0.805930 0.009415 -0.005616 -106876.000000 0 0 1
-24.578669 -21.792211 31.022546 45.181963 0.725380 0.813976 -0.003473 -0.000983 -714019.000000 0 0 1
-25.820669 -21.653211 31.905446 46.406099 0.697838 0.812718 -0.000387 0.001411 -1243640.000000 0 0 1
-25.546669 -20.800611 33.009546 46.636122 0.683352 0.784402 -0.003360 -0.000541 1155300.000000 0 0 1
-26.581869 -20.780511 34.054446 47.938823 0.663517 0.780768 0.001236 0.003718 694860.000000 0 0 1
-27.895469 -20.114411 33.612846 48.089190 0.624723 0.796842 0.005945 0.006872 -425802.000000 0 0 1
-28.627969 -20.768411 32.552946 48.068512 0.627609 0.826819 0.010766 0.004488 57253.100000 0 0 1
-29.485069 -19.786911 31.992846 47.795746 0.591053 0.837441 -0.004024 -0.001146 -531894.000000 0 0 1
-30.385469 -20.407411 30.923846 47.916839 0.591422 0.869295 -0.002404 0.002514 -592078.000000 0 0 1
-31.055469 -19.450511 30.162546 47.460971 0.559544 0.882110 -0.007813 -0.002613 -147167.000000 0 0 1
-31.887769 -20.091511 29.255046 47.711176 0.562237 0.910729 -0.009992 -0.002556 -616845.000000 0 0 1
-32.526269 -19.126911 28.262746 47.144244 0.531583 0.927926 -0.009982 0.004417 -613221.000000 0 0 1
-33.431069 -19.808711 27.442746 47.572321 0.534904 0.955912 -0.012435 0.002046 -156339.000000 0 0 1
-34.128169 -18.877011 26.623846 47.221845 0.505236 0.971812 -0.005048 0.004170 -463965.000000 0 0 1
34.227318 -19.559811 26.016346 47.232889 -0.519176 0.987462 0.000314 0.000031 -331111.000000 0 0 1
33.269118 -19.826911 27.011546 47.218262 -0.537440 0.961785 -0.003750 0.005491 -347216.000000 0 0 1
32.274618 -20.714511 26.550046 46.643830 -0.570604 0.965254 0.013254 0.002511 -187448.000000 0 0 1
31.094418 -20.775611 27.535146 46.439995 -0.589026 0.936118 0.011529 -0.002869 25707.100000 0 0 1
30.249518 -19.611511 27.505346 45.345218 -0.575197 0.919049 0.003842 -0.008697 1090040.000000 0 0 1
29.181518 -19.794411 28.466046 45.317717 -0.596027 0.891631 0.006772 0.000257 473138.000000 0 0 1
-29.090952 -6.454211 34.421526 45.527813 0.218327 0.713532 -0.000737 -0.000906 -58077.900000 0 0 1
-29.747682 -6.411711 33.174453 45.017540 0.212289 0.742290 0.001843 0.005984 184338.000000 0 0 1
-29.371182 -5.196811 32.514103 44.123011 0.175123 0.742328 0.002704 0.006944 355347.000000 0 0 1
-30.202782 -4.910611 31.193943 43.696501 0.161178 0.775777 0.004537 -0.005180 281492.000000 0 0 1
-29.863292 -5.804611 30.112733 42.805215 0.191979 0.790510 -0.002336 -0.009490 1267650.000000 0 0 1
-28.571862 -5.562011 29.472043 41.423285 0.192263 0.779187 0.000675 -0.008791 1307810.000000 0 0 1
-28.174622 -6.580411 28.394643 40.538462 0.229445 0.794787 0.003370 -0.017580 118133.000000 0 0 1
-28.959812 -6.386011 27.226113 40.258081 0.217039 0.828083 -0.004009 -0.013348 556629.000000 0 0 1
-28.329352 -7.091911 26.165573 39.210771 0.245297 0.840211 0.003483 -0.005611 216809.000000 0 0 1
-28.926472 -6.557211 24.835143 38.684908 0.222918 0.873711 -0.006248 0.006517 46901.000000 0 0 1
-28.643812 -5.146511 24.614763 38.116153 0.177776 0.868748 -0.006604 0.000041 -258752.000000 0 0 1
-29.514332 -4.632211 23.657153 38.107926 0.155678 0.901042 -0.001855 -0.000726 -499254.000000 0 0 1
-28.997332 -3.349411 22.943453 37.127696 0.114998 0.904650 -0.002717 -0.001878 -100889.000000 0 0 1
-27.933062 -3.641811 22.075153 35.788701 0.129645 0.906101 0.006295 -0.000254 -166042.000000 0 0 1
-27.342122 -2.404511 21.622553 34.941495 0.087716 0.903555 0.006749 0.002662 -482530.000000 0 0 1
-25.946742 -2.599311 21.069853 33.525043 0.099846 0.891198 0.009122 0.005530 -902758.000000 0 0 1
-25.927742 -3.488111 19.976453 32.916157 0.133729 0.918656 0.010380 0.003548 -428515.000000 0 0 1
-24.772982 -3.159711 19.253853 31.534033 0.126862 0.914011 0.023655 0.001780 -358790.000000 0 0 1
-24.417382 -4.130911 18.122153 30.686893 0.167592 0.939056 0.020257 0.002563 -226725.000000 0 0 1
-25.273432 -3.988111 17.005353 30.721872 0.156508 0.984204 0.012349 0.007542 392162.000000 0 0 1
-24.695182 -4.525511 15.798353 29.663449 0.181244 1.009143 0.022011 0.005847 -201753.000000 0 0 1
-25.702762 -4.515811 14.672253 29.938262 0.173919 1.058611 0.017332 -0.001684 -354768.000000 0 0 1
-26.142952 -3.243311 14.249253 29.950195 0.123430 1.074963 0.019220 -0.000653 -269343.000000 0 0 1
-27.324772 -3.452911 13.529753 30.685827 0.125699 1.114182 0.009535 -0.002930 -72039.300000 0 0 1
-27.854092 -2.161011 12.815953 30.737096 0.077428 1.140705 0.008320 0.001434 60823.900000 0 0 1
-27.023932 -1.917511 11.682453 29.503380 0.070837 1.163672 0.014753 -0.003450 333109.000000 0 0 1
-27.366132 -0.806211 10.909353 29.471497 0.029452 1.191608 0.011194 -0.002269 -315687.000000 0 0 1
-28.745182 -0.859011 10.237353 30.525838 0.029875 1.228802 0.005107 0.004612 -101586.000000 0 0 1
-28.665532 -1.496311 9.009653 30.085304 0.052152 1.266659 0.004619 0.002557 -219764.000000 0 0 1
-29.958682 -1.732211 8.527653 31.196859 0.057756 1.293923 0.003787 0.007610 -845815.000000 0 0 1
-30.105832 -2.402311 7.152053 31.036818 0.079627 1.338269 0.002963 0.001238 -632641.000000 0 0 1
-29.828702 -1.618211 6.000653 30.469294 0.054197 1.372560 0.004675 0.002892 19657.100000 0 0 1
-30.698382 -0.586311 5.704453 31.229396 0.019097 1.387102 -0.007007 0.004522 -890853.000000 0 0 1
-30.277132 0.207589 4.398953 30.595728 -0.006856 1.426520 -0.004175 0.002156 -136532.000000 0 0 1
-30.544292 -0.553111 3.250153 30.721705 0.018107 1.464805 -0.007617 0.005300 367405.000000 0 0 1
-30.052912 0.077789 2.101853 30.126423 -0.002588 1.500972 -0.005759 0.002823 83851.300000 0 0 1
-30.691392 -0.584811 0.825453 30.708059 0.019052 1.543912 -0.004534 -0.000641 184360.000000 0 0 1
-32.028902 -0.275811 0.506953 32.034101 0.008611 1.554970 -0.000966 0.002436 240395.000000 0 0 1
-32.447392 -0.743211 -0.804447 32.465870 0.022901 1.595577 0.001888 0.002467 811484.000000 0 0 1
-34.001182 -0.577111 -0.988447 34.020441 0.016972 1.599855 0.002987 0.008606 516750.000000 0 0 1
-34.697560 -1.481111 -0.181947 34.729633 0.042660 1.576035 0.004221 0.009365 -608306.000000 0 0 1
33.556252 -1.132611 -0.050447 33.575398 -0.033740 1.572299 0.011220 0.010761 -947905.000000 0 0 1
32.724626 -2.246011 0.532153 32.805927 -0.068526 1.554574 0.004846 0.001987 -650378.000000 0 0 1
33.033836 -2.646611 1.881853 33.193075 -0.079947 1.514072 0.004146 0.000376 279834.000000 0 0 1
32.342036 -3.842511 2.214053 32.644666 -0.118254 1.502921 0.002122 0.000107 -324799.000000 0 0 1
32.764676 -4.437911 3.540953 33.252930 -0.134629 1.464109 0.006994 -0.003598 -56531.600000 0 0 1
32.250416 -3.537411 4.493753 32.753571 -0.109249 1.433163 0.011329 -0.007675 278674.000000 0 0 1
32.092556 -4.095411 5.844553 32.876486 -0.126926 1.392073 0.007035 -0.009416 -266380.000000 0 0 1
31.644106 -3.061611 6.858353 32.523221 -0.096451 1.358326 0.006292 -0.004432 674845.000000 0 0 1
30.228816 -2.828911 6.870653 31.128603 -0.093311 1.348245 0.003773 -0.008389 716948.000000 0 0 1
29.841586 -1.753911 7.703353 30.869695 -0.058707 1.318587 0.008350 -0.001782 230448.000000 0 0 1
28.314746 -1.810311 8.073853 29.498969 -0.063848 1.293559 0.000546 -0.003199 40690.700000 0 0 1
27.504826 -1.639011 6.938353 28.413774 -0.059520 1.324112 -0.010932 -0.003874 421876.000000 0 0 1
26.119416 -1.729211 7.251753 27.162510 -0.066108 1.300542 -0.006514 0.001159 331681.000000 0 0 1
25.507456 -3.175611 7.315653 26.725149 -0.123860 1.293520 -0.010016 -0.003782 -1104370.000000 0 0 1
26.028176 -3.906011 8.396153 27.626405 -0.148957 1.261994 -0.013958 -0.005984 601957.000000 0 0 1
25.490816 -5.228811 8.394353 27.342043 -0.202319 1.258744 -0.015124 -0.003142 -85191.400000 0 0 1
26.164846 -6.220311 9.422553 28.496946 -0.233403 1.233803 -0.022986 -0.007956 100652.000000 0 0 1
25.508256 -6.048211 10.685553 28.309592 -0.232809 1.183752 -0.028267 -0.003141 834251.000000 0 0 1
26.128166 -6.830611 11.669153 29.419508 -0.255704 1.162935 -0.025124 -0.001062 -425766.000000 0 0 1
25.277266 -6.847211 12.952653 29.216360 -0.264536 1.111480 -0.012378 -0.004810 744554.000000 0 0 1
24.106206 -7.656311 12.692253 28.298790 -0.307531 1.105700 -0.009756 -0.003292 391232.000000 0 0 1
22.942906 -7.086711 13.267353 27.433940 -0.299588 1.066021 -0.004818 -0.005908 -237998.000000 0 0 1
21.812806 -8.091511 13.103953 26.701772 -0.355217 1.057843 0.001226 -0.005075 -487739.000000 0 0 1
21.986906 -9.299311 13.840953 27.594804 -0.400131 1.045374 -0.001438 -0.006492 -157671.000000 0 0 1
20.805206 -10.065311 13.857653 26.948128 -0.450594 1.030682 0.007786 -0.014385 -314240.000000 0 0 1
20.875706 -11.344611 14.723853 27.951514 -0.497790 1.016007 -0.000439 -0.005083 -225029.000000 0 0 1
21.009306 -10.902811 16.047653 28.597017 -0.478694 0.975003 0.007430 -0.012016 137112.000000 0 0 1
21.329906 -11.953111 16.945053 29.748556 -0.510787 0.964766 0.004880 -0.009828 -249590.000000 0 0 1
21.152706 -11.587911 18.447053 30.364624 -0.501169 0.917864 0.015879 -0.004383 -153515.000000 0 0 1
19.781806 -11.448511 18.764253 29.571700 -0.524640 0.883391 0.015084 -0.013828 -100876.000000 0 0 1
19.513506 -11.819811 20.122553 30.420421 -0.544618 0.848004 0.024221 -0.009045 219528.000000 0 0 1
19.982606 -10.839511 21.258553 31.124357 -0.497026 0.818907 0.016943 -0.007199 -360859.000000 0 0 1
19.195506 -9.701411 21.489753 30.403853 -0.467958 0.785818 0.009576 -0.001243 -316289.000000 0 0 1
19.530206 -8.593411 20.625553 29.676406 -0.414512 0.802355 0.010235 0.000748 -1211730.000000 0 0 1
20.599106 -7.665711 21.197653 30.535664 -0.356259 0.803498 0.002650 0.001860 1314800.000000 0 0 1
21.932206 -8.220211 21.369753 31.705833 -0.358596 0.831185 0.000412 0.002624 1331270.000000 0 0 1
22.626406 -8.469311 20.155153 31.462893 -0.358166 0.875516 0.003260 -0.006531 -348029.000000 0 0 1
23.973606 -9.237611 20.276653 32.729343 -0.367791 0.902659 -0.016315 -0.003642 156558.000000 0 0 1
23.655206 -10.504611 20.659453 33.116893 -0.417913 0.897157 -0.013362 -0.003320 -69132.200000 0 0 1
24.764796 -11.338811 20.516953 34.099987 -0.429371 0.925206 -0.017329 -0.002423 -383296.000000 0 0 1
24.550436 -12.842911 20.905853 34.709062 -0.481975 0.924396 -0.020965 -0.001080 -482128.000000 0 0 1
23.705206 -13.499111 20.027853 33.841951 -0.517659 0.937499 -0.001633 -0.002872 -156662.000000 0 0 1
23.815106 -14.921711 20.120453 34.563700 -0.559724 0.949455 -0.000784 0.001614 -46137.700000 0 0 1
22.696606 -15.536511 19.252253 33.573328 -0.600268 0.960099 0.011076 0.005718 -318876.000000 0 0 1
22.934406 -15.388511 17.858153 32.889312 -0.590982 0.996818 0.003560 0.005321 -33570.600000 0 0 1
21.926506 -15.836411 16.992053 31.942033 -0.625503 1.009876 -0.002529 0.016886 -638365.000000 0 0 1
21.673706 -17.339211 16.932953 32.513423 -0.674748 1.023010 -0.007142 0.013121 -825783.000000 0 0 1
22.787106 -18.134711 16.674353 33.558218 -0.672194 1.050798 0.005152 0.010647 -623517.000000 0 0 1
22.504806 -19.505211 16.756053 34.171404 -0.714117 1.058301 -0.000656 0.021080 -221926.000000 0 0 1
23.683006 -20.481511 16.609853 35.443819 -0.713035 1.083063 -0.008164 0.015457 124532.000000 0 0 1
24.209106 -20.661611 15.270453 35.301129 -0.706502 1.123447 0.001620 0.006946 -47535.100000 0 0 1
25.088976 -21.725711 15.108453 36.465444 -0.713679 1.143598 -0.001964 0.008726 -304223.000000 0 0 1
25.520396 -21.895511 13.624853 36.281409 -0.709098 1.185825 0.008520 -0.004224 -43084.600000 0 0 1
24.462106 -22.348711 12.762553 35.506933 -0.740281 1.203130 -0.000561 -0.004465 639116.000000 0 0 1
24.765326 -22.036911 11.396453 35.054614 -0.727167 1.239673 0.005881 -0.008798 -354027.000000 0 0 1
23.509406 -22.004311 10.536453 33.880654 -0.752341 1.254565 -0.016813 -0.003895 -415428.000000 0 0 1
23.003806 -23.320811 10.242553 34.321206 -0.792241 1.267747 -0.018669 -0.002675 257144.000000 0 0 1
21.591506 -23.433311 10.174053 33.448835 -0.826282 1.261732 -0.026137 0.001240 435195.000000 0 0 1
21.093506 -23.968011 8.827653 33.125957 -0.849103 1.301049 -0.020691 -0.007442 -362644.000000 0 0 1
21.720506 -25.228571 8.660553 34.398639 -0.859980 1.316287 -0.024386 -0.002930 43617.100000 0 0 1
21.291706 -26.080411 7.611853 34.517603 -0.886143 1.348448 -0.014765 0.004221 48269.000000 0 0 1
19.856606 -26.675841 7.732753 34.142067 -0.930910 1.342326 -0.008859 0.001701 721724.000000 0 0 1
18.881106 -25.684921 7.450753 32.737212 -0.936897 1.341191 -0.002140 -0.001718 -401274.000000 0 0 1
17.543006 -26.031261 7.747753 32.332821 -0.977789 1.328817 0.003450 -0.003175 111242.000000 0 0 1
16.715006 -24.734811 7.623253 30.810977 -0.976519 1.320780 0.010907 -0.006584 -403865.000000 0 0 1
16.676006 -24.079211 6.340153 29.968235 -0.965089 1.357623 0.013974 -0.007196 253207.000000 0 0 1
16.029706 -22.792811 6.511053 28.615687 -0.957873 1.341251 0.022977 -0.008111 187334.000000 0 0 1
15.583606 -22.136911 5.187953 27.564587 -0.957414 1.381456 0.022544 -0.003017 -103463.000000 0 0 1
14.949206 -20.852311 5.272053 26.193361 -0.948812 1.368138 0.034373 0.001703 38257.600000 0 0 1
14.280706 -20.507111 4.081153 25.320663 -0.962505 1.408911 0.007787 0.005966 4755.730000 0 0 1
13.641806 -19.157711 4.196453 23.889893 -0.952010 1.394222 -0.002543 0.013537 -600485.000000 0 1 0
14.575806 -18.152511 4.387653 23.690067 -0.894251 1.384510 0.001735 0.004180 -596607.000000 0 1 0
14.072006 -16.879211 4.230253 22.379101 -0.875848 1.380625 -0.005186 0.009852 -104547.000000 0 1 0
15.180706 -15.807211 4.330353 22.339958 -0.805613 1.375723 -0.004289 0.008564 -130233.000000 0 1 0
15.796606 -15.755211 5.599353 23.002439 -0.784086 1.324902 0.006141 0.000430 40196.900000 0 1 0
16.834706 -14.811011 5.774553 23.154240 -0.721537 1.318741 0.010425 -0.000258 498501.000000 0 1 0
18.249406 -15.354711 5.407453 24.455030 -0.699469 1.347835 0.007070 -0.003361 -165647.000000 0 1 0
19.151006 -14.261111 5.326053 24.464406 -0.640079 1.351333 0.004315 -0.000486 1025630.000000 0 1 0
20.486406 -14.816511 5.191653 25.810368 -0.626151 1.368269 0.001727 0.000398 1694370.000000 0 0 1
21.669206 -13.787911 5.361153 26.237434 -0.566677 1.365015 -0.000326 -0.001633 365815.000000 0 0 1
21.712306 -13.232511 6.675553 26.288526 -0.547337 1.314051 0.009851 -0.000694 -669357.000000 0 0 1
22.836806 -12.462311 6.806653 26.891624 -0.499545 1.314898 0.010900 0.003904 -732949.000000 0 0 1
22.783806 -11.551811 7.988653 26.764991 -0.469247 1.267703 0.005397 0.000453 -303024.000000 0 0 1
23.046006 -12.264811 9.197353 27.679149 -0.489065 1.232072 -0.000236 -0.001468 289320.000000 0 0 1
22.706806 -11.503411 10.367553 27.484789 -0.468919 1.184014 -0.002991 0.002283 -159116.000000 0 0 1
22.925306 -12.392411 11.596353 28.523971 -0.495564 1.152124 -0.003659 0.003479 -861351.000000 0 0 1
22.035106 -13.396011 11.725553 28.328212 -0.546237 1.144043 0.003030 0.002180 -547831.000000 0 0 1
22.488406 -14.274011 12.721153 29.517851 -0.565564 1.125235 0.004291 -0.002199 89186.900000 0 0 1
21.555406 -15.525111 12.958853 29.556665 -0.624183 1.116933 0.007070 -0.003372 -280578.000000 0 0 1
20.430306 -15.045011 13.623653 28.798501 -0.634744 1.078026 0.005221 -0.001471 -782935.000000 0 0 1
19.463506 -16.070511 13.722953 28.729929 -0.690201 1.072814 -0.016885 0.006212 1022750.000000 0 0 1
18.113106 -15.643611 14.440353 27.952298 -0.712373 1.027913 -0.010325 0.000676 526120.000000 0 0 1
18.343006 -15.256311 15.806653 28.619420 -0.693788 0.985669 -0.009620 0.006117 113805.000000 0 0 1
18.082306 -13.846111 16.044853 27.858964 -0.653491 0.957053 0.011585 -0.005523 381790.000000 0 0 1
16.567706 -13.463511 16.046453 26.706622 -0.682398 0.926243 0.014120 -0.004486 424027.000000 0 0 1
15.942606 -13.528011 14.709553 25.564521 -0.703649 0.957716 0.004963 -0.008938 -964979.000000 0 0 1
14.599206 -13.252311 14.800253 24.653763 -0.737076 0.926890 0.012570 -0.007935 -1153970.000000 0 1 0
14.275306 -11.796611 14.428053 23.475798 -0.690612 0.908927 0.008449 -0.008335 -376625.000000 0 1 0
14.708106 -10.818211 15.317253 23.832337 -0.634174 0.872767 -0.002541 -0.001845 40670.800000 0 1 0
14.462606 -9.529311 14.826953 22.799414 -0.582602 0.862789 -0.000004 -0.003893 -598066.000000 0 1 0
15.048106 -8.541711 15.872753 23.480856 -0.516276 0.828493 -0.000045 -0.000838 -594919.000000 0 1 0
16.435306 -8.590611 15.953153 24.462644 -0.481636 0.860388 -0.002399 -0.006159 -832915.000000 0 1 0
16.958006 -9.315211 17.014753 25.765266 -0.502314 0.849478 0.005406 0.002997 -793460.000000 0 0 1
18.474706 -9.204411 16.965653 26.718333 -0.462220 0.882811 0.004283 -0.001840 -601997.000000 0 0 1
19.037406 -7.876411 17.174553 26.822117 -0.392289 0.875890 0.006902 -0.009603 130844.000000 0 0 1
20.344706 -7.734811 16.677553 27.420342 -0.363311 0.916982 0.009461 -0.007839 -349661.000000 0 0 1
20.950106 -6.374711 16.972753 27.705924 -0.295379 0.911446 0.003732 -0.001463 -598295.000000 0 0 1
21.373706 -6.107211 18.301853 28.793943 -0.278319 0.881992 0.000136 0.002268 286237.000000 0 0 1
21.513006 -4.707911 18.498253 28.760376 -0.215444 0.872145 0.001569 -0.001862 -93967.900000 0 0 1
-5.425482 -33.354820 -6.780454 34.466715 1.409549 1.768813 -0.001147 -0.004612 -517137.000000 0 0 1
-6.187382 -32.182720 -6.745454 33.459114 1.380856 1.773790 0.005619 -0.012546 -293784.000000 0 0 1
-5.899282 -31.288220 -5.695154 32.344845 1.384438 1.747795 0.008277 -0.009913 -1122790.000000 0 0 1
-6.738982 -29.982320 -5.678254 31.250535 1.349705 1.753512 0.020179 -0.007654 -305391.000000 0 0 1
-8.081782 -30.063620 -5.333354 31.584508 1.308182 1.740469 0.023432 -0.003494 -518548.000000 0 0 1
-8.882782 -30.716920 -6.309954 32.592154 1.289294 1.765630 0.017403 -0.007855 -514898.000000 0 0 1
-10.403482 -30.499020 -6.026054 32.783166 1.242064 1.755663 -0.013533 -0.001237 647644.000000 0 0 1
-11.230582 -31.145620 -6.981754 33.836674 1.224725 1.778626 0.004478 -0.003033 -486853.000000 0 0 1
-12.589082 -30.972420 -6.709054 34.099666 1.184733 1.768837 0.007124 0.003342 -22912.100000 0 0 1
-13.553082 -31.416920 -7.859554 35.106716 1.163522 1.796586 0.015959 -0.004613 225332.000000 0 0 1
-13.593882 -30.420020 -8.898654 34.487060 1.150546 1.831778 0.023521 -0.002724 32169.000000 0 0 1
-14.599682 -30.657720 -9.841054 35.353824 1.126357 1.852881 0.033197 -0.006053 -526055.000000 0 0 1
-14.350182 -29.741120 -11.024054 34.813671 1.121244 1.893001 0.022970 -0.007905 -341792.000000 0 0 1
-14.584582 -28.352120 -10.687854 33.627116 1.095688 1.894241 0.021902 -0.002605 -202390.000000 0 0 1
-13.521482 -27.636020 -10.124954 32.389732 1.115769 1.888723 0.026451 0.000195 -547339.000000 0 0 1
-13.730382 -26.177620 -9.740654 31.123488 1.087735 1.889113 0.016547 0.008808 -155563.000000 0 0 1
-14.155582 -25.398020 -10.821154 31.024785 1.062328 1.927077 0.028038 0.004271 64145.000000 0 0 1
-14.527782 -24.110420 -10.391954 30.006025 1.028502 1.924451 0.038222 0.012017 -532540.000000 0 0 1
-15.217382 -23.306220 -11.475554 30.107091 0.992363 1.961845 0.034248 0.013710 -543118.000000 0 0 1
-16.492782 -23.850720 -11.701554 31.269715 0.965798 1.954345 0.025545 0.005625 -354528.000000 0 0 1
-17.059682 -23.112920 -12.789254 31.445267 0.934954 1.989651 0.033700 0.003498 1029310.000000 0 0 1
-18.473082 -23.611920 -13.342654 32.814691 0.906903 1.989532 0.024057 0.015415 1151000.000000 0 0 1
-18.577682 -24.861520 -13.935154 34.020787 0.929060 1.992820 0.030209 0.015771 87548.600000 0 0 1
-18.304882 -25.925920 -12.937254 34.272359 0.956024 1.957874 0.028712 0.009338 -804805.000000 0 0 1
-18.617882 -27.294920 -13.497854 35.690759 0.972185 1.958636 0.021893 0.006630 166171.000000 0 0 1
-17.763682 -27.889520 -14.472954 36.094877 1.003664 1.983372 0.027759 0.002188 1063390.000000 0 0 1
-16.353782 -27.986320 -14.198454 35.387517 1.041964 1.983653 0.033466 -0.004456 516355.000000 0 0 1
-15.805182 -29.381420 -14.509954 36.381457 1.077266 1.981035 0.031591 -0.005070 -245371.000000 0 0 1
-15.693182 -29.629220 -15.908354 37.111216 1.083709 2.013813 0.030639 -0.004071 -181440.000000 0 0 1
-15.062782 -30.845420 -16.285654 37.994077 1.116527 2.013780 0.024861 0.000653 -83644.000000 0 0 1
-15.802182 -32.202120 -16.112454 39.322979 1.114601 1.992972 0.019887 -0.001111 -182708.000000 0 0 1
-15.983182 -32.488520 -14.728754 39.088390 1.113598 1.957142 0.027827 -0.007893 101311.000000 0 0 1
-16.332682 -33.832920 -14.451854 40.252690 1.121048 1.938023 0.011944 -0.004526 -1134640.000000 0 0 1
-16.826382 -34.025120 -13.005354 40.124496 1.111536 1.900883 0.017580 -0.004677 -458608.000000 0 0 1
-18.164582 -33.798120 -12.669754 40.407767 1.077644 1.889723 0.012441 -0.000801 -256235.000000 0 0 1
-18.696882 -32.508820 -12.818654 39.632243 1.048862 1.900159 0.018939 -0.003299 -599069.000000 0 0 1
-18.086382 -31.438120 -11.870254 38.162489 1.048736 1.887089 0.028830 0.001004 -173093.000000 0 0 1
-18.693982 -31.464320 -10.585354 38.098794 1.034702 1.852341 0.020398 0.001842 -22992.400000 0 0 1
-18.169882 -30.469620 -9.756454 36.793080 1.033081 1.839177 0.020052 0.007186 -719323.000000 0 0 1
-18.346682 -30.721720 -8.199654 36.710477 1.032446 1.796057 0.005218 0.009271 401556.000000 0 0 1
-17.404382 -31.672120 -7.654054 36.940767 1.068324 1.779506 0.009993 -0.002256 597283.000000 0 0 1
-17.708182 -31.844720 -6.274754 36.973483 1.063298 1.741331 0.009849 -0.005309 -12969.800000 0 0 1
-16.900182 -32.939920 -5.548154 37.435765 1.096755 1.719549 0.010275 -0.009986 367793.000000 0 0 1
-15.603682 -32.559920 -5.103854 36.464676 1.123903 1.711224 0.002880 -0.008317 438226.000000 0 0 1
-15.515082 -32.385720 -3.721054 36.102616 1.124031 1.674049 -0.002149 -0.003976 201642.000000 0 0 1
-14.189282 -31.778520 -3.176254 34.947084 1.150852 1.661809 -0.003743 0.001671 -335847.000000 0 0 1
-13.062982 -32.571420 -3.201054 35.238979 1.189379 1.661760 -0.009466 0.000612 -1359260.000000 0 0 1
-12.049382 -31.872920 -2.564354 34.170844 1.209359 1.645912 -0.008967 0.003654 230622.000000 0 0 1
-10.618682 -32.492720 -2.712354 34.291254 1.254936 1.649977 0.001951 -0.004786 146564.000000 0 0 1
-10.569982 -33.662720 -1.912054 35.334957 1.266549 1.624935 -0.001596 0.004483 972955.000000 0 0 1
-9.271682 -34.314320 -1.815354 35.591181 1.306899 1.621824 0.008822 -0.003574 794416.000000 0 0 1
-8.233782 -33.661620 -0.932654 34.666550 1.330902 1.597703 0.004535 0.001434 -838748.000000 0 0 1
-8.574582 -33.582220 0.399346 34.661916 1.320807 1.559275 0.006909 0.004589 -447418.000000 0 0 1
-7.570682 -32.926620 1.138346 33.804931 1.344798 1.537116 0.008004 0.002538 136943.000000 0 0 1
-6.667082 -33.959820 1.860846 34.658074 1.376939 1.517079 0.011518 0.003379 61224.900000 0 0 1
-7.375182 34.738289 2.845946 35.626415 -1.361596 1.490828 0.020594 -0.006595 425448.000000 0 0 1
-6.577682 33.628489 3.264546 34.420901 -1.377637 1.475812 0.016092 -0.001359 175469.000000 0 0 1
-5.662382 33.895189 4.509446 34.659508 -1.405269 1.440319 0.008506 -0.006332 845660.000000 0 0 1
-4.464482 34.649189 4.268846 35.195467 -1.442654 1.449207 -0.004630 -0.000507 403378.000000 0 0 1
-4.004082 -34.234520 5.481346 34.901006 1.454365 1.413089 -0.016612 -0.002165 463782.000000 0 0 1
-3.082782 -32.951420 5.406446 33.534002 1.477513 1.408867 -0.015406 0.003700 141695.000000 0 0 1
-3.629582 -31.790120 4.783146 32.352188 1.457115 1.422406 -0.016652 0.003636 -34291.000000 0 0 1
-3.740182 -31.889620 3.394546 32.287146 1.454044 1.465466 -0.017347 -0.004579 -184645.000000 0 0 1
-4.313982 -30.621120 2.778546 31.048088 1.430835 1.481185 -0.009070 -0.000704 -214725.000000 0 0 1
-3.425182 -29.550320 2.862746 29.885592 1.455401 1.474859 -0.004175 0.005106 -352806.000000 0 0 1
-3.915582 -28.453120 2.213146 28.806420 1.434040 1.493892 -0.001997 0.007699 -458626.000000 0 0 1
-2.937682 -27.307620 2.354046 27.565878 1.463631 1.485295 -0.002025 0.008550 -151771.000000 0 0 1
-3.348482 -26.186020 1.597746 26.447548 1.443614 1.510348 0.003433 0.004608 -503400.000000 0 0 1
-2.938882 -24.996420 2.215346 25.265902 1.453762 1.483002 -0.007483 0.001696 21125.400000 0 0 1
-3.947182 -24.382020 3.207446 24.906844 1.410300 1.441660 -0.015078 0.004788 -44584.600000 0 1 0
-4.002082 -25.124220 4.418546 25.821825 1.412832 1.398833 -0.004190 0.000005 373235.000000 0 0 1
-4.931982 -24.419120 5.273446 25.464232 1.371505 1.362194 -0.012228 0.002277 189636.000000 0 0 1
-5.565282 -25.223120 6.382846 26.606745 1.353634 1.328538 -0.012171 0.006492 -452296.000000 0 0 1
-4.702282 -25.565720 7.425146 27.034243 1.388900 1.292563 -0.014896 -0.003096 -776750.000000 0 0 1
-5.344082 -26.440620 8.223046 28.200782 1.371367 1.274908 -0.019623 -0.001377 -156724.000000 0 0 1
-4.521882 -27.046220 9.413246 28.992320 1.405138 1.240122 -0.020138 0.000405 543416.000000 0 0 1
-4.081582 -26.109220 10.433046 28.411250 1.415724 1.194783 -0.013616 -0.006073 307914.000000 0 0 1
-5.226782 -25.722520 11.164146 28.523770 1.370327 1.168646 -0.016108 -0.003627 522887.000000 0 0 1
-4.748582 -24.811120 12.310246 28.101297 1.381694 1.117349 -0.010526 -0.005490 295403.000000 0 0 1
-4.115882 -25.422020 13.422046 29.040849 1.410287 1.090346 0.003236 -0.004444 -136275.000000 0 0 1
-3.422882 -24.445020 14.195046 28.474102 1.431677 1.048900 0.000270 -0.007837 -133847.000000 0 0 1
-2.367482 -25.110620 15.094046 29.393510 1.476792 1.031519 0.003620 -0.010373 37220.700000 0 0 1
-2.848682 -25.862120 16.243446 30.672688 1.461090 1.012699 0.001231 -0.010139 29611.300000 0 0 1
-1.725682 -26.288520 17.002846 31.355399 1.505246 0.997669 -0.002471 -0.010895 284648.000000 0 0 1
-1.999182 -26.851820 18.361346 32.590735 1.496481 0.972311 -0.003175 -0.012787 -1410.180000 0 0 1
-2.296382 -25.899220 19.371846 32.423932 1.482362 0.930472 -0.001043 -0.014861 -202404.000000 0 0 1
-2.443182 -26.423720 20.682746 33.644585 1.478597 0.908737 0.000470 -0.015806 101241.000000 0 0 1
-2.840882 -25.262920 21.591146 33.353611 1.458814 0.866706 0.013952 -0.019575 24838.900000 0 0 1
-3.031482 -25.576120 22.973646 34.512552 1.452819 0.842418 0.024576 -0.015106 -91281.200000 0 0 1
-3.339982 -24.471020 23.811446 34.307015 1.435147 0.803670 0.016921 -0.012331 -249425.000000 0 0 1
-2.263382 -23.392020 23.992246 33.584779 1.474338 0.775061 0.006236 -0.004405 -175163.000000 0 0 1
-2.216082 -22.569020 22.823646 32.174377 1.472919 0.782188 0.008576 -0.005616 133929.000000 0 0 1
-1.085182 -21.714520 22.933346 31.601208 1.520863 0.758729 0.005214 -0.007889 -188568.000000 0 0 1
-1.349482 -20.450120 22.060146 30.111104 1.504903 0.748626 0.002168 0.000194 768260.000000 0 0 1
-2.264082 -19.404820 22.559046 29.842649 1.454645 0.713718 -0.001803 -0.005849 1556190.000000 0 0 1
-3.614282 -19.808020 22.869246 30.470036 1.390316 0.721904 0.008475 -0.012515 88891.200000 0 0 1
-4.578282 -19.665320 21.690346 29.633707 1.342061 0.749619 0.015509 -0.003226 -792890.000000 0 0 1
-4.568582 -20.474620 20.512446 29.340117 1.351259 0.796622 0.024631 -0.002946 -315196.000000 0 0 1
-4.807082 -21.857920 20.750846 30.520064 1.354318 0.823159 0.017113 -0.007701 9578.480000 0 0 1
-5.095482 -22.565120 19.359646 30.165286 1.348709 0.873972 0.015980 -0.006994 86160.000000 0 0 1
-5.631882 -23.874720 19.427646 31.291433 1.339138 0.900955 0.015717 -0.010363 -222919.000000 0 0 1
-5.425782 -24.432820 18.165546 30.925538 1.352273 0.942958 0.015355 -0.014591 55329.700000 0 0 1
-6.068182 -25.833820 17.901346 32.010425 1.340086 0.977334 0.004791 -0.017096 -23018.400000 0 0 1
-7.438082 -25.719620 18.187246 32.366647 1.289278 0.974099 0.017151 -0.017205 -870717.000000 0 0 1
-8.064182 -26.976620 17.979946 33.407297 1.280319 1.002491 0.011989 -0.007604 -249740.000000 0 0 1
-9.561182 -27.007420 18.264746 33.976726 1.230544 1.003248 0.017287 -0.012947 -1370380.000000 0 0 1
-10.363582 -26.450120 17.256346 33.238444 1.197365 1.024919 0.021390 -0.012333 -88754.700000 0 0 1
-11.729882 -26.630720 17.617946 34.017310 1.155901 1.026389 0.010843 -0.011777 335769.000000 0 0 1
-12.230582 -25.499320 18.538446 33.815329 1.123566 0.990555 0.010412 -0.014151 -1178770.000000 0 0 1
-12.405382 -24.214220 17.919846 32.578257 1.097343 0.988366 0.008481 -0.012912 1951.710000 0 0 1
-12.670882 -23.143120 18.874146 32.440540 1.069874 0.949847 0.004833 -0.000473 -19752.600000 0 0 1
-11.327082 -22.631620 19.415946 31.897837 1.106750 0.916386 -0.001392 -0.002631 -255444.000000 0 0 1
-10.632882 -23.504620 20.242846 32.791739 1.145970 0.905471 0.001253 -0.005033 -1488350.000000 0 0 1
-9.316582 -23.089520 20.235946 32.084547 1.187278 0.888332 0.012573 -0.013264 -1125260.000000 0 0 1
-8.438782 -23.946520 21.118546 33.024867 1.231984 0.876982 0.006319 -0.010612 -395629.000000 0 0 1
-8.525982 -23.671020 22.473246 33.735091 1.225076 0.841737 0.001530 -0.011970 -512014.000000 0 0 1
-7.609382 -24.388820 23.201646 34.511355 1.268364 0.833498 -0.000355 -0.009750 -483964.000000 0 0 1
-7.464482 -24.041120 24.653346 35.234662 1.269745 0.795833 -0.001645 -0.005113 -504634.000000 0 0 1
-6.532282 -24.844420 25.281746 36.042789 1.313688 0.793385 0.005413 -0.009638 -416896.000000 0 0 1
-6.585982 -24.642720 26.651246 36.890754 1.309641 0.763476 0.008660 -0.001720 718507.000000 0 0 1
-5.332982 -25.258220 27.409446 37.652306 1.362714 0.755452 0.000853 0.002142 1149110.000000 0 0 1
-4.124082 -24.620920 27.021646 36.788138 1.404834 0.745836 0.000986 -0.003792 161604.000000 0 0 1
-3.103882 -24.671120 28.010046 37.454785 1.445644 0.725999 -0.001897 -0.004674 500560.000000 0 0 1
-1.750182 -24.074920 27.571846 36.645213 1.498227 0.719099 -0.009183 -0.000827 -734154.000000 0 0 1
-1.823682 -22.661720 27.394046 35.599342 1.490495 0.692723 -0.011909 0.002618 -381792.000000 0 0 1
-0.572482 -22.111620 27.062446 34.951788 1.544912 0.685221 -0.008150 -0.000492 59900.700000 0 0 1
0.396318 -21.848120 28.253746 35.717945 -1.552659 0.658316 -0.004466 0.005773 -317667.000000 0 0 1
0.848618 -23.061220 28.817446 36.918630 -1.534014 0.675225 0.002878 0.002116 -479973.000000 0 0 1
1.634818 -22.886020 29.944246 37.724003 -1.499484 0.653811 -0.001816 0.001517 -395930.000000 0 0 1
2.123118 -24.242020 30.534146 39.045067 -1.483439 0.672891 0.007546 -0.001884 -111904.000000 0 0 1
2.991818 -24.873620 29.595046 38.775182 -1.451091 0.702472 0.006433 -0.009367 309388.000000 0 0 1
3.723818 -25.944520 30.129846 39.934854 -1.428240 0.715943 0.008883 0.000394 -172398.000000 0 0 1
5.011518 -25.756220 30.979246 40.598176 -1.378622 0.702747 0.008397 0.001727 1388370.000000 0 0 1
6.201218 -25.220820 30.312646 39.917432 -1.329702 0.708431 0.019681 0.000912 1177900.000000 0 0 1
6.850318 -26.188720 29.500246 40.037988 -1.314953 0.742462 0.017705 0.004867 -375929.000000 0 0 1
7.993518 -25.469520 28.702346 39.197161 -1.266685 0.749168 0.015543 0.008525 333186.000000 0 0 1
7.552318 -24.517720 27.799046 37.827808 -1.271984 0.745301 0.019548 0.002298 605093.000000 0 0 1
8.694018 -24.226120 26.982846 37.290278 -1.226242 0.761808 0.016511 0.003743 622271.000000 0 0 1
8.443418 -23.075720 25.978946 35.758717 -1.220027 0.757572 0.028715 -0.001967 -12627.300000 0 0 1
7.641318 -23.406320 24.866446 34.994081 -1.255241 0.780460 0.018196 0.000493 -21554.900000 0 0 1
7.285918 -22.176120 24.267046 33.671270 -1.253359 0.765978 0.012502 -0.000185 -91808.500000 0 0 1
6.499318 -22.335320 22.958546 32.683367 -1.287627 0.791957 0.006988 0.004485 365180.000000 0 0 1
7.321918 -22.917920 21.921346 32.548225 -1.261561 0.831858 0.002669 0.010067 430722.000000 0 0 1
6.667318 -22.903220 20.667646 31.562038 -1.287517 0.856844 -0.003720 0.001314 -317246.000000 0 0 1
7.288818 -23.741220 19.550546 31.606902 -1.272920 0.903896 -0.006132 -0.004354 -516288.000000 0 0 1
8.564018 -23.400220 19.120846 31.408908 -1.219957 0.916285 -0.001723 -0.007536 -984715.000000 0 0 1
9.115118 -24.424420 18.340446 31.874906 -1.213607 0.957718 -0.002724 -0.013664 312740.000000 0 0 1
10.525318 -24.153720 17.761846 31.775269 -1.159844 0.977637 0.002652 -0.010211 302943.000000 0 0 1
10.453718 -23.209920 16.762246 30.478739 -1.147611 0.988474 0.005368 -0.002724 -639759.000000 0 0 1
11.640818 -23.112820 16.041946 30.447580 -1.104231 1.015881 0.012052 -0.010609 -535460.000000 0 0 1
-12.325482 22.839589 11.250546 28.286730 -1.075931 1.161752 -0.004532 -0.000691 66314.200000 0 0 1
-13.279682 21.782289 11.148246 27.840644 -1.023308 1.158810 -0.019235 -0.004848 322333.000000 0 0 1
-12.622282 20.637489 10.596346 26.410424 -1.021877 1.157950 0.002707 -0.012774 396336.000000 0 0 1
-13.442982 20.075989 9.399046 25.924914 -0.980762 1.199795 -0.000330 -0.009535 -930907.000000 0 0 1
-13.566682 20.874789 8.239646 26.224100 -0.994486 1.251181 0.000519 -0.010878 33895.600000 0 0 1
-14.357182 20.243489 7.247546 25.854486 -0.953906 1.286668 0.003620 -0.009509 60638.700000 0 0 1
-15.881282 20.138189 7.450946 26.707271 -0.903036 1.288059 -0.009547 -0.010610 -871155.000000 0 0 1
-16.199082 19.472589 8.607546 26.752230 -0.876910 1.243218 -0.012496 -0.004179 -715552.000000 0 0 1
-17.594282 19.503589 8.766446 27.691141 -0.836820 1.248675 -0.011064 -0.004402 -490531.000000 0 0 1
-18.109982 18.480889 9.796946 27.667577 -0.795534 1.208850 -0.020416 0.001058 -142753.000000 0 0 1
-17.939882 17.201689 9.232646 26.513755 -0.764395 1.215124 -0.027833 0.002592 250426.000000 0 0 1
-18.561082 16.153389 9.951146 26.541873 -0.716152 1.186483 -0.020021 0.004811 -272728.000000 0 0 1
-17.555682 15.323889 10.780446 25.675699 -0.717624 1.137495 -0.010398 0.005494 223895.000000 0 0 1
-16.873982 14.284489 10.055646 24.287731 -0.702482 1.143929 -0.008128 0.009864 361223.000000 0 1 0
-16.140682 13.403989 10.926546 23.655400 -0.693033 1.090655 -0.010115 0.009529 69240.000000 0 1 0
-16.979182 12.591089 11.941246 24.278004 -0.638078 1.056578 -0.001294 0.011210 -464208.000000 0 1 0
-17.634282 11.498489 11.433346 23.956305 -0.577817 1.073264 -0.016880 0.007863 -335136.000000 0 1 0
-18.346282 10.752089 12.393646 24.612922 -0.530109 1.043102 -0.005469 0.009180 -196090.000000 0 1 0
-19.536482 10.003589 11.736346 24.889510 -0.473238 1.079762 0.003530 0.001459 -408387.000000 0 1 0
-19.310382 8.871989 10.876346 23.872535 -0.430678 1.097749 0.012014 -0.000511 117834.000000 0 1 0
-18.784182 9.163089 9.614346 23.005289 -0.453847 1.139643 0.015017 0.002226 -470538.000000 0 1 0
-19.793782 9.430789 8.455946 23.499715 -0.444632 1.202709 0.020673 0.009536 8880.280000 0 1 0
-20.268182 8.265489 7.789746 23.233545 -0.387218 1.228894 0.007315 0.008269 671678.000000 0 1 0
-21.188282 8.672089 6.782046 23.877700 -0.388487 1.282799 0.014349 0.017290 27346.900000 0 1 0
-21.519582 7.460589 5.863846 23.518875 -0.333722 1.318813 0.028891 0.013065 257401.000000 0 1 0
-22.332682 6.459389 6.513046 24.143159 -0.281551 1.297644 0.032543 0.009579 850594.000000 0 1 0
-21.921082 5.239889 5.981846 23.318935 -0.234632 1.311373 0.032747 -0.002778 320702.000000 0 1 0
-22.973982 4.058789 6.150546 24.126890 -0.174865 1.313026 0.057723 -0.002732 902401.000000 0 1 0
-24.092982 4.262589 5.282246 25.030852 -0.175110 1.358168 0.050135 -0.007355 627408.000000 0 0 1
-24.915682 3.120289 5.191646 25.641384 -0.124585 1.366915 0.053162 -0.006920 283145.000000 0 0 1
-25.998032 3.096689 4.053446 26.493727 -0.118554 1.417197 0.052941 -0.008085 482628.000000 0 0 1
-25.417562 2.889189 2.792146 25.733168 -0.113183 1.462079 0.038662 -0.001374 726157.000000 0 0 1
-26.437542 2.858989 1.806246 26.652954 -0.107723 1.502975 0.032986 0.003941 155888.000000 0 0 1
-25.811212 2.797389 0.405246 25.965520 -0.107957 1.555189 0.031240 0.004305 -43922.200000 0 0 1
-25.247682 4.075089 0.085646 25.574579 -0.160024 1.567447 0.024889 -0.003189 638210.000000 0 0 1
-24.950482 4.266189 -1.298954 25.345891 -0.169349 1.622068 0.021111 0.000806 -499104.000000 0 0 1
-26.129582 4.896989 -2.050754 26.663479 -0.185263 1.647785 0.016114 -0.002713 404787.000000 0 0 1
-27.238212 4.018789 -2.232854 27.623477 -0.146485 1.651716 0.015204 -0.004843 824118.000000 0 0 1
-28.475282 4.703289 -2.467454 28.966376 -0.163693 1.656083 0.002607 0.000204 401584.000000 0 0 1
-29.590382 3.640689 -2.606254 29.927209 -0.122421 1.657993 -0.007134 0.003741 -546855.000000 0 0 1
-29.565682 3.022689 -3.876654 29.971564 -0.101882 1.700504 -0.001954 0.003855 517270.000000 0 0 1
-30.631162 2.097389 -3.989354 30.960976 -0.068366 1.700007 0.003418 0.006303 -58386.900000 0 0 1
-30.807712 1.447389 -5.340854 31.300715 -0.046947 1.742266 0.002177 0.000440 -205757.000000 0 0 1
-29.715052 0.617489 -5.696554 30.262457 -0.020777 1.760164 0.001186 0.004539 657592.000000 0 0 1
-30.042772 -0.262011 -6.810054 30.806065 0.008721 1.793700 0.006084 0.010173 -159971.000000 0 0 1
-30.155222 0.339089 -8.198154 31.251594 -0.011244 1.836230 0.001038 0.008439 -147660.000000 0 0 1
-31.460472 0.854589 -8.353954 32.561943 -0.027157 1.830253 0.000011 0.001316 286116.000000 0 0 1
-31.676642 1.559889 -9.579454 33.130180 -0.049204 1.864131 0.003449 -0.002727 -218906.000000 0 0 1
-33.156842 1.979089 -9.715054 34.607444 -0.059618 1.855342 -0.001204 -0.001726 34289.200000 0 0 1
-33.447992 2.842589 -8.579254 34.647540 -0.084782 1.821014 -0.004823 0.002141 -1047860.000000 0 0 1
-34.780266 2.772289 -8.284254 35.860582 -0.079540 1.803915 -0.002191 0.006902 -1446860.000000 0 0 1
34.375446 3.631189 -7.084154 35.285153 0.105243 1.772939 0.000517 0.011334 -823616.000000 0 0 1
33.053266 3.479689 -6.695454 33.903624 0.104889 1.769588 0.004227 0.013709 -372661.000000 0 0 1
32.650366 4.363689 -5.632754 33.418798 0.132862 1.740155 0.002058 0.007817 -248796.000000 0 0 1
31.306706 3.998589 -5.017754 31.957415 0.127035 1.728463 0.005034 0.005011 -510958.000000 0 0 1
31.370256 2.875489 -4.186954 31.778797 0.091407 1.702934 0.004651 0.008475 -127688.000000 0 0 1
30.110736 2.338289 -3.889654 30.450836 0.077501 1.698882 0.011066 0.011306 -876027.000000 0 0 1
30.271876 1.090889 -3.017854 30.441484 0.036021 1.670096 0.016319 0.006163 -441222.000000 0 0 1
31.059026 0.147089 -3.670354 31.275489 0.004736 1.688423 0.007323 0.014468 -108161.000000 0 0 1
30.824256 -1.133111 -3.191554 31.009752 -0.036744 1.673900 0.003714 0.011647 16735.000000 0 0 1
31.928116 -2.164111 -3.533954 32.195912 -0.067677 1.680782 0.001952 0.009205 207039.000000 0 0 1
31.673006 -3.514611 -3.105854 32.018403 -0.110513 1.667951 0.002637 0.002374 377951.000000 0 0 1
32.923086 -4.190111 -3.156354 33.338404 -0.126589 1.665615 0.009534 0.001796 360696.000000 0 0 1
32.738706 -5.684711 -2.669054 33.335606 -0.171925 1.650948 0.001625 0.005980 -58629.900000 0 0 1
32.457586 -5.795411 -1.297854 32.996456 -0.176691 1.610140 -0.000505 0.004690 -16185.000000 0 0 1
32.705946 -7.129811 -0.880654 33.485648 -0.214639 1.597099 -0.004265 0.006803 -173959.000000 0 0 1
32.330066 -7.332511 0.579546 33.156217 -0.223029 1.553316 -0.003643 0.008262 -1204060.000000 0 0 1
30.982086 -7.131911 0.802546 31.802482 -0.226253 1.545558 -0.006159 0.003208 -946228.000000 0 0 1
30.498126 -7.375111 2.095046 31.447053 -0.237267 1.504126 -0.010279 -0.005959 -536316.000000 0 0 1
30.486936 -8.844611 2.622446 31.852121 -0.282360 1.488371 -0.013089 -0.008351 575270.000000 0 0 1
29.500756 -9.739311 1.974146 31.129504 -0.318872 1.507337 -0.016881 -0.009551 747004.000000 0 0 1
28.213716 -9.547311 2.486046 29.888883 -0.326297 1.487524 -0.018683 -0.008404 -1981400.000000 0 0 1
27.288276 -10.718711 2.132346 29.395368 -0.374280 1.498192 -0.017967 -0.005164 -64103.200000 0 0 1
25.970426 -10.613211 2.688646 28.183898 -0.387954 1.475255 -0.006919 -0.007757 1260460.000000 0 0 1
25.102236 -9.561711 2.250346 26.955753 -0.363943 1.487216 -0.011768 -0.003520 -787562.000000 0 0 1
24.585696 -9.735011 0.799646 26.454987 -0.377021 1.540565 -0.010939 0.006706 -902075.000000 0 0 1
25.498146 -9.432211 -0.284754 27.188290 -0.354307 1.581270 -0.011442 0.005902 467531.000000 0 0 1
25.120366 -9.641211 -1.651954 26.957646 -0.366464 1.632114 -0.004962 0.013754 -418014.000000 0 0 1
24.632976 -11.086011 -2.080454 27.092645 -0.422894 1.647662 -0.002024 0.018787 -82824.300000 0 0 1
23.313006 -11.340211 -1.640954 25.976708 -0.452735 1.634009 0.002341 0.015173 104896.000000 0 0 1
23.001606 -12.690711 -1.774554 26.330155 -0.504172 1.638244 -0.002837 0.023821 -1125300.000000 0 0 1
21.557706 -12.942911 -1.423754 25.184930 -0.540702 1.627358 0.004765 0.020068 -752326.000000 0 0 1
20.697706 -12.502911 -2.487654 24.308563 -0.543408 1.673312 -0.002650 0.021818 826851.000000 0 1 0
19.326106 -12.733711 -2.173954 23.245899 -0.582597 1.664453 0.003184 0.020188 555022.000000 0 1 0
18.299206 -12.308311 -3.263054 22.293564 -0.592109 1.717692 0.004732 0.018101 114952.000000 0 1 0
18.385906 -12.985711 -4.471954 22.949261 -0.614932 1.766914 0.001211 0.011870 400016.000000 0 1 0
17.533006 -12.343011 -5.396554 22.110609 -0.613397 1.817358 0.007990 0.005003 -336458.000000 0 1 0
17.599106 -13.092611 -6.787254 22.961093 -0.639609 1.870878 -0.000978 0.001586 -698160.000000 0 1 0
16.874906 -14.293611 -6.913754 23.170450 -0.702769 1.873798 0.008034 0.005124 251412.000000 0 1 0
16.928106 -14.793511 -8.206354 23.932258 -0.718208 1.920798 0.007072 -0.000696 -461211.000000 0 1 0
16.071406 -16.022011 -8.533254 24.244821 -0.783859 1.930463 0.014514 -0.001668 111488.000000 0 1 0
14.675706 -15.750611 -8.397854 23.108052 -0.820712 1.942729 0.023494 -0.000091 698499.000000 0 1 0
13.759206 -16.557411 -9.097954 23.371700 -0.877437 1.970638 0.023200 -0.000569 -27424.100000 0 1 0
13.697306 -16.450511 -10.634554 23.902494 -0.876469 2.031875 0.022924 -0.003071 -692154.000000 0 1 0
13.062806 -15.313511 -11.244454 23.055981 -0.864549 2.080252 0.023460 0.000631 279858.000000 0 1 0
13.434006 -13.996011 -10.887454 22.246292 -0.805884 2.082204 0.028424 0.004969 -159026.000000 0 1 0
13.168606 -12.918411 -11.950454 21.979783 -0.775808 2.145638 0.027385 0.003517 -246075.000000 0 1 0
14.209806 -12.935511 -12.893954 23.140875 -0.738489 2.161799 0.023023 0.003978 376845.000000 0 1 0
13.816506 -12.347711 -14.130154 23.302855 -0.729320 2.222284 0.021313 0.002888 -769392.000000 0 1 0
15.095906 -12.109511 -14.885854 24.415472 -0.676064 2.226465 0.020496 0.000710 -398331.000000 0 1 0
15.628006 -13.358311 -15.371154 25.670049 -0.707255 2.212795 0.020684 -0.000749 224279.000000 0 0 1
16.711606 -13.123511 -16.261954 26.757344 -0.665709 2.224029 0.016763 -0.000374 167402.000000 0 0 1
17.751806 -14.286311 -16.287654 28.009159 -0.677649 2.191382 0.010282 -0.001353 -268206.000000 0 0 1
18.639806 -14.136411 -15.212454 27.905183 -0.648855 2.147362 0.001417 -0.013497 -327059.000000 0 0 1
19.749906 -14.993111 -15.388254 29.183052 -0.649330 2.126217 -0.001529 -0.008124 -419017.000000 0 0 1
20.803406 -14.799211 -14.295054 29.259988 -0.618325 2.081227 -0.015910 -0.008210 -422091.000000 0 0 1
21.409006 -13.531011 -14.500854 29.184046 -0.563635 2.090792 -0.013254 -0.010538 220580.000000 0 0 1
22.409706 -13.267611 -13.504254 29.335802 -0.534552 2.049167 -0.024004 -0.006576 371082.000000 0 0 1
22.977406 -11.851711 -13.692654 29.255991 -0.476206 2.057855 -0.017002 -0.014181 -349166.000000 0 0 1
22.009906 -10.875411 -13.312054 27.927071 -0.458928 2.067661 -0.004785 -0.006912 671324.000000 0 0 1
22.548706 -9.535711 -13.377754 27.898714 -0.400085 2.070894 0.002890 -0.007862 -215162.000000 0 0 1
23.567806 -9.173511 -12.298154 28.121866 -0.371195 2.023409 0.001845 -0.011330 -848378.000000 0 0 1
24.777556 -9.773511 -12.590954 29.461516 -0.375713 2.012378 -0.007144 -0.000627 -408606.000000 0 0 1
25.739546 -9.654711 -11.512254 29.803853 -0.358852 1.967378 -0.001860 -0.002999 761419.000000 0 0 1
27.069146 -10.402211 -11.836454 31.321658 -0.366884 1.958323 0.001868 0.003254 361123.000000 0 0 1
27.760216 -9.878411 -12.947154 32.184490 -0.341875 1.984801 0.001798 0.002196 117937.000000 0 0 1
28.954616 -10.579511 -13.227054 33.544758 -0.350312 1.976114 -0.001949 0.001026 300168.000000 0 0 1
29.663826 -10.188111 -14.580054 34.587832 -0.330830 2.005936 0.001881 0.001558 -16601.800000 0 0 1
29.007796 -10.797211 -15.644254 34.681042 -0.356329 2.038782 -0.003876 -0.000407 207915.000000 0 0 1
29.575706 -10.298211 -16.819854 35.548319 -0.335069 2.063665 0.006731 -0.000820 -404774.000000 0 0 1
29.175056 -11.113511 -18.073154 36.073992 -0.363955 2.095553 0.003657 0.002570 1054880.000000 0 0 1
27.820936 -10.878311 -18.522754 35.148749 -0.372734 2.125842 -0.002069 -0.000991 1048800.000000 0 0 1
27.774796 -9.655111 -19.255054 35.148507 -0.334554 2.150552 0.003455 -0.004286 -112779.000000 0 0 1
26.350386 -9.218011 -19.701154 34.167968 -0.336518 2.185354 -0.002074 -0.007985 313205.000000 0 0 1
25.870526 -10.082411 -20.736254 34.654456 -0.371618 2.212264 -0.004780 0.006976 243372.000000 0 0 1
24.505406 -9.819111 -20.987854 33.725656 -0.381102 2.242488 0.006042 0.009367 -16651.800000 0 0 1
24.031006 -10.238411 -22.397254 34.408593 -0.402760 2.279592 0.013222 0.002072 -107272.000000 0 0 1
24.167606 -11.664511 -22.587154 35.075825 -0.449672 2.270449 0.013082 0.007585 462989.000000 0 0 1
23.480606 -12.182111 -23.750154 35.550140 -0.478587 2.302415 0.014858 0.005082 -275300.000000 0 0 1
23.880706 -13.658511 -24.013154 36.516771 -0.519537 2.288415 0.009201 0.010991 614608.000000 0 0 1
25.126536 -14.006011 -24.630154 37.870247 -0.508521 2.278884 0.009881 0.010562 458105.000000 0 0 1
26.234776 -13.878111 -23.755654 38.015740 -0.486575 2.245787 0.001147 0.015158 45467.700000 0 0 1
27.571306 -14.277311 -24.449054 39.519296 -0.477811 2.237834 -0.000459 0.012388 261106.000000 0 0 1
27.852546 -13.687811 -25.700774 40.294544 -0.456775 2.262464 -0.007081 0.002774 176948.000000 0 0 1
29.141786 -14.082411 -26.130914 41.597868 -0.450148 2.250007 -0.018988 0.006255 -42663.400000 0 0 1
29.702306 -13.542711 -27.437924 42.643542 -0.427789 2.269760 -0.018561 -0.002573 -47264.100000 0 0 1
29.220486 -14.176711 -28.589114 43.268388 -0.451708 2.292599 -0.021248 -0.004515 262329.000000 0 0 1
29.911476 -13.664811 -29.715454 44.321909 -0.428529 2.305606 -0.019252 -0.004730 92156.200000 0 0 1
29.813556 -14.675511 -30.880594 45.363309 -0.457423 2.319568 -0.016927 -0.010748 186002.000000 0 0 1
30.561006 -15.863811 -30.614284 46.074613 -0.478800 2.297554 -0.008114 -0.015621 201637.000000 0 0 1
30.839456 -16.664711 -31.769204 47.308212 -0.495420 2.307077 -0.003410 -0.013138 1047440.000000 0 0 1
29.548276 -17.333911 -32.438624 47.178696 -0.530531 2.328933 -0.004651 -0.008045 1208800.000000 0 0 1
28.850736 -16.397111 -33.250844 46.977110 -0.516817 2.357189 -0.005426 -0.010953 232416.000000 0 0 1
27.744066 -16.994111 -33.903544 46.989183 -0.549583 2.376789 0.003655 -0.006243 556016.000000 0 0 1
26.908236 -16.097211 34.428223 46.566897 -0.539114 0.738724 0.011579 -0.006853 319246.000000 0 0 1
26.171896 -15.001311 -34.391429 45.746889 -0.520468 2.421548 0.002239 -0.006744 274329.000000 0 0 1
26.981956 -13.896611 -34.008964 45.582358 -0.475602 2.412981 0.004297 -0.007554 355046.000000 0 0 1
26.106396 -12.575611 -33.804734 44.524711 -0.448906 2.432934 0.000129 -0.003998 778125.000000 0 0 1
25.562296 -11.991311 34.368145 44.479117 -0.438625 0.687743 0.003254 -0.003472 -42503.100000 0 0 1
24.899536 -10.836511 -34.614711 43.995398 -0.410486 2.476371 -0.006003 -0.004580 -265125.000000 0 0 1
19.970318 -30.351920 9.206246 37.480764 -0.988846 1.322631 -0.005291 -0.006814 -168714.000000 0 0 1
20.370218 -30.035220 7.960946 37.154231 -0.974844 1.354854 -0.000625 -0.004559 207835.000000 0 0 1
21.561218 -30.723720 7.584046 38.292961 -0.958878 1.371425 0.000754 -0.002131 186987.000000 0 0 1
22.132918 -30.278420 6.221746 38.017876 -0.939580 1.406404 -0.002941 -0.003162 -184439.000000 0 0 1
22.452818 -28.910620 6.015646 37.096375 -0.910469 1.407914 -0.004403 -0.002131 -102922.000000 0 0 1
23.178818 -28.816120 4.835346 37.296206 -0.893397 1.440783 -0.004555 0.001593 -332947.000000 0 0 1
23.415618 -27.358820 4.444746 36.284322 -0.862904 1.447990 -0.005244 -0.000015 -20373.600000 0 0 1
24.286218 -26.651820 5.289046 36.443297 -0.831806 1.425151 -0.007821 -0.001685 -13825.700000 0 0 1
24.132718 -25.266120 5.105046 35.310429 -0.808338 1.425712 -0.008528 -0.001863 -92554.600000 0 0 1
24.782118 -24.366420 6.145646 35.293693 -0.776940 1.395775 -0.010322 -0.002766 337695.000000 0 0 1
26.188218 -24.151620 6.026846 36.130962 -0.744963 1.403207 -0.013378 -0.001433 260131.000000 0 0 1
26.721418 -23.275120 6.990846 36.119764 -0.716576 1.376021 -0.001386 -0.007505 -161078.000000 0 0 1
26.362618 -21.798920 6.947846 34.906348 -0.690922 1.370416 -0.001925 -0.003607 -641848.000000 0 0 1
26.854618 -21.095920 5.814746 34.641300 -0.665874 1.402142 -0.000775 0.009170 -370901.000000 0 0 1
26.227818 -19.899520 5.572246 33.390707 -0.649057 1.403132 -0.000497 0.010268 -799956.000000 0 0 1
26.616318 -19.161120 4.240746 33.069032 -0.623958 1.442203 0.001534 0.019686 780351.000000 0 0 1
27.974918 -18.677220 4.166246 33.893837 -0.588677 1.447564 -0.002973 0.020704 1081970.000000 0 0 1
28.178318 -17.956720 2.919746 33.540816 -0.567362 1.483635 -0.004667 0.026478 105590.000000 0 0 1
29.141818 -16.763020 3.068246 33.758829 -0.522001 1.479784 -0.004768 0.014991 -91965.400000 0 0 1
28.538118 -15.611720 3.594546 32.727218 -0.500574 1.460741 -0.011557 0.008168 182775.000000 0 0 1
29.460018 -14.547520 3.611346 33.053969 -0.458680 1.461322 -0.006847 0.005260 201679.000000 0 0 1
28.864518 -13.381020 4.444246 32.124188 -0.434090 1.432005 -0.014960 0.003767 203006.000000 0 0 1
28.497618 -13.819520 5.754446 32.190170 -0.451524 1.391066 -0.007296 0.007685 40800.700000 0 0 1
28.281418 -12.718620 6.651846 31.715122 -0.422618 1.359490 -0.006505 -0.001952 -331240.000000 0 0 1
27.879718 -13.106620 8.076346 31.847913 -0.439454 1.314405 -0.007228 0.008048 -155366.000000 0 0 1
26.630018 -13.751620 8.174046 31.065736 -0.476678 1.304541 -0.004138 0.006328 -324624.000000 0 0 1
26.072518 -13.853720 9.464546 31.004506 -0.488415 1.260581 -0.002247 0.003323 117845.000000 0 0 1
26.588918 -14.966920 10.431746 32.245939 -0.512694 1.241364 0.002372 0.001960 968536.000000 0 0 1
27.970418 -14.789520 10.820346 33.438811 -0.486387 1.241279 -0.008027 0.005310 954626.000000 0 0 1
28.424018 -15.869020 11.607446 34.561300 -0.509190 1.228288 0.007564 0.004095 -201043.000000 0 0 1
28.848518 -15.584520 13.049446 35.290258 -0.495303 1.192030 0.019776 0.006198 781406.000000 0 0 1
30.216718 -15.154720 13.158746 36.274898 -0.464874 1.199578 0.024254 0.004703 668685.000000 0 0 1
30.567318 -14.916220 14.518446 36.981615 -0.453985 1.167355 0.028385 0.003832 -1113750.000000 0 0 1
32.048818 -14.914820 14.759046 38.306763 -0.435569 1.175279 0.017420 0.005422 -1316850.000000 0 0 1
32.664818 -13.787320 14.211546 38.197495 -0.399399 1.189575 0.015609 -0.001161 705123.000000 0 0 1
33.980418 -13.627220 14.781546 39.482453 -0.381395 1.187065 0.004441 -0.003143 505120.000000 0 0 1
34.751018 -12.434320 14.217846 39.552405 -0.343617 1.203098 0.005372 -0.007243 -220642.000000 0 0 1
-33.871669 -12.743820 13.250346 38.539157 0.359856 1.219820 0.008963 -0.005347 -34621.200000 0 0 1
-33.101269 -11.664520 12.829846 37.367901 0.338801 1.220327 0.013926 -0.008324 -363011.000000 0 0 1
-32.114469 -11.989920 11.693846 36.219378 0.357323 1.242045 0.009625 -0.009272 812329.000000 0 0 1
-30.879069 -12.586820 12.146046 35.489032 0.387055 1.221488 -0.005432 -0.003741 669471.000000 0 0 1
-30.978269 -13.983320 12.116546 36.083197 0.424010 1.228348 -0.005413 -0.000992 -468125.000000 0 0 1
-29.723669 -14.707420 12.615346 35.481709 0.459483 1.207299 0.000145 0.002654 -192547.000000 0 0 1
-28.617569 -14.598920 11.759446 34.210792 0.471725 1.219905 0.006005 0.000236 -462041.000000 0 0 1
-27.612569 -15.508020 12.142446 33.917424 0.511728 1.204671 0.012558 0.002215 52014.100000 0 0 1
-26.282969 -15.414620 11.365646 32.520499 0.530424 1.213768 0.018066 0.005286 179889.000000 0 0 1
-26.452769 -15.768120 9.968246 32.368944 0.537536 1.257751 0.011746 0.008936 -102875.000000 0 0 1
-25.201669 -15.649120 9.344246 31.101994 0.555686 1.265644 0.013490 0.009528 -95521.500000 0 0 1
-25.288869 -15.138620 7.871746 30.506870 0.539410 1.309812 0.012931 0.019368 -98443.700000 0 0 1
-25.465569 -16.152920 6.917946 30.939780 0.565262 1.345296 0.016252 0.024196 271127.000000 0 0 1
-25.516769 -15.634120 5.632646 30.450910 0.549705 1.384750 0.016604 0.016567 -507672.000000 0 0 1
-25.619869 -16.768020 4.517146 30.950748 0.579527 1.424327 0.010737 0.014725 -482207.000000 0 0 1
-26.917369 -17.312420 4.547846 32.325648 0.571558 1.429640 0.008919 0.009623 -119926.000000 0 0 1
-27.155569 -18.212120 3.508046 32.884839 0.590761 1.463916 0.006010 0.006565 -64716.200000 0 0 1
-28.615869 -18.699020 3.546146 34.367084 0.578796 1.467428 0.002977 0.005424 3879.170000 0 0 1
-29.564369 -17.720920 3.194646 34.616307 0.539979 1.478378 0.002234 0.001633 116427.000000 0 0 1
-30.874869 -18.051920 3.630446 35.948706 0.529079 1.469634 0.001267 0.004317 130856.000000 0 0 1
-31.961469 -17.158620 3.041646 36.403370 0.492694 1.487145 0.011224 -0.009338 -240770.000000 0 0 1
-32.056869 -17.362120 1.634046 36.493235 0.496374 1.526005 0.009239 -0.010005 141500.000000 0 0 1
-33.006969 -16.524420 0.958446 36.924722 0.464155 1.544837 0.008576 -0.013187 -262069.000000 0 0 1
-33.518069 -16.977920 -0.425854 37.575152 0.468858 1.582130 0.004814 -0.007343 -222759.000000 0 0 1
-32.556669 -17.041220 -1.498254 36.777502 0.482217 1.611546 0.004221 -0.004068 552199.000000 0 0 1
-32.976169 -18.013120 -2.449554 37.655020 0.499957 1.635895 0.000771 -0.003120 -852649.000000 0 0 1
-31.885769 -18.522020 -3.332054 37.025263 0.526247 1.660912 -0.004552 -0.003296 -868150.000000 0 0 1
-32.311169 -19.570620 -4.223154 38.011259 0.544594 1.682129 -0.005397 -0.004392 416598.000000 0 0 1
-31.218369 -20.203620 -4.885554 37.505219 0.574384 1.701431 -0.007840 -0.006548 69674.800000 0 0 1
-31.738469 -21.279620 -5.900454 38.664816 0.590630 1.724000 -0.007696 -0.006848 -227527.000000 0 0 1
-32.176769 -22.438220 -5.274554 39.580792 0.608940 1.704454 -0.002864 -0.008151 -72006.500000 0 0 1
-32.701569 -23.394920 -6.172354 40.679391 0.620991 1.723116 0.005025 -0.009720 -46961.600000 0 0 1
-33.266969 -24.659220 -5.487454 41.771767 0.637879 1.702545 0.000796 -0.005679 -1091020.000000 0 0 1
-32.315769 -25.522320 -5.049454 41.487284 0.668478 1.692810 0.005133 -0.001196 -1157820.000000 0 0 1
-32.861269 -26.750620 -4.616454 42.623589 0.683248 1.679317 0.001783 0.000253 76178.400000 0 0 1
-31.829869 -27.784320 -4.104854 42.449486 0.717640 1.667647 -0.006555 -0.001579 -307392.000000 0 0 1
-30.958869 -28.327620 -5.111054 42.273260 0.741045 1.691998 -0.015190 -0.001842 654550.000000 0 0 1
-30.001169 -29.287120 -4.702454 42.189082 0.773355 1.682490 -0.011242 0.000389 760580.000000 0 0 1
-28.987369 -28.956520 -3.519754 41.123428 0.784866 1.656491 -0.014640 -0.002424 -311663.000000 0 0 1
-29.593069 -28.842920 -2.231954 41.384120 0.772562 1.624755 -0.017745 -0.000396 -336671.000000 0 0 1
-28.619869 -28.782620 -1.232754 40.608568 0.788233 1.601158 -0.016880 -0.002526 -489100.000000 0 0 1
-29.158969 -28.829920 0.179146 41.005388 0.779724 1.566427 -0.017979 0.010196 -116366.000000 0 0 1
-29.591269 -30.096020 0.582746 42.210819 0.793855 1.556990 -0.011476 0.009246 -134212.000000 0 0 1
-30.359469 -29.953620 1.774346 42.685654 0.778669 1.529217 -0.009029 0.014489 -145035.000000 0 0 1
-31.101769 -31.223620 2.263546 44.128881 0.787353 1.519480 -0.007524 0.003412 -818677.000000 0 0 1
-31.839869 -30.944920 3.437546 44.532932 0.771145 1.493528 -0.000765 0.005509 219984.000000 0 0 1
-32.365469 -32.071620 4.137246 45.751822 0.780838 1.480245 0.006858 0.005663 -725139.000000 0 0 1
-33.512569 -32.765120 3.425646 46.993408 0.774121 1.497835 0.006606 0.008486 -630897.000000 0 0 1
-34.186469 -33.877320 4.092546 48.302551 0.780856 1.485967 0.007580 0.000420 453342.000000 0 0 1
34.451318 -34.471420 3.222046 48.842131 -0.785690 1.504780 0.003952 0.013236 423689.000000 0 0 1
33.223818 34.342089 3.960546 47.946711 0.801947 1.488099 0.005991 0.005653 749405.000000 0 0 1
32.361118 -34.424120 4.868346 47.496977 -0.816278 1.468118 0.000574 0.000353 788938.000000 0 0 1
31.894418 -33.120120 4.452546 46.195470 -0.804249 1.474262 -0.002154 0.001000 -8449.850000 0 0 1
30.784618 -33.134820 3.341046 45.351644 -0.822150 1.497060 0.004348 0.011715 -474059.000000 0 0 1
31.214318 -33.602620 2.036346 45.908784 -0.822228 1.526425 0.006713 0.010646 -7381.910000 0 0 1
30.356618 -33.177220 0.980946 44.980156 -0.829764 1.548986 0.004294 0.010254 -718656.000000 0 0 1
30.769918 -33.869220 -0.354954 45.760659 -0.833309 1.578553 0.010882 0.019086 788362.000000 0 0 1
31.877718 -33.379920 -1.128454 46.170135 -0.808414 1.595240 0.007344 0.020120 -16424.100000 0 0 1
33.115718 -33.631820 -0.513754 47.201844 -0.793130 1.581681 -0.002909 0.020120 158568.000000 0 0 1
34.388918 -33.387520 -1.418854 47.951406 -0.770624 1.600390 -0.000115 0.015841 645146.000000 0 0 1
34.636518 -34.396420 -2.414554 48.873635 -0.781920 1.620220 -0.002102 0.013193 -96488.100000 0 0 1
-33.953469 -33.972920 -3.287754 48.143605 0.785685 1.639140 -0.004504 0.006770 -693442.000000 0 0 1
-33.285869 34.283789 -3.971254 47.948911 -0.800166 1.653714 -0.006348 0.002594 -8316.410000 0 0 1
-32.197069 33.592289 -3.383154 46.653390 -0.806602 1.643377 -0.003087 0.007413 287176.000000 0 0 1
-31.684669 32.624289 -4.329654 45.683787 -0.800008 1.665713 -0.001245 0.007336 -145849.000000 0 0 1
-30.444269 31.917589 -3.806954 44.272778 -0.809019 1.656891 0.006004 0.002874 122964.000000 0 0 1
-29.183269 32.630089 -3.828854 43.943668 -0.841102 1.658038 0.009792 -0.006320 1382890.000000 0 0 1
-28.086569 31.725589 -3.547354 42.520019 -0.846164 1.654321 0.020908 -0.008093 922679.000000 0 0 1
-27.824969 31.433789 -2.011754 42.028075 -0.846222 1.618682 0.017131 -0.011420 123403.000000 0 0 1
-28.971669 30.788289 -1.457354 42.301303 -0.815787 1.605255 0.017624 -0.007209 233244.000000 0 0 1
-28.790569 30.718289 -0.056554 42.101227 -0.817781 1.572140 0.017074 -0.003529 198494.000000 0 0 1
-30.033069 30.163589 0.688546 42.571133 -0.787566 1.554622 0.014001 -0.004367 211901.000000 0 0 1
-30.455269 28.797489 0.449246 41.916829 -0.757427 1.560079 0.012927 -0.007355 -531884.000000 0 0 1
-31.391369 28.646689 -0.536654 42.501045 -0.739714 1.583424 0.008444 -0.007083 -825720.000000 0 0 1
-31.825069 27.291489 -1.065054 41.937986 -0.708859 1.596195 0.005652 -0.001154 -252864.000000 0 0 1
-32.558269 26.527689 -0.150054 41.997401 -0.683686 1.574369 0.004314 -0.002518 -111560.000000 0 0 1
-32.790269 25.284489 -0.720854 41.412881 -0.656867 1.588204 0.017896 0.008311 -357858.000000 0 0 1
-33.016069 24.069589 0.257346 40.859174 -0.629942 1.564498 0.005324 0.013641 644987.000000 0 0 1
-31.810869 23.667289 0.939746 39.660497 -0.639650 1.547099 0.008119 0.005143 778793.000000 0 0 1
-31.322169 24.467989 1.981946 39.795588 -0.663154 1.520973 0.004142 0.002199 -1155990.000000 0 0 1
-29.835169 24.109789 2.250246 38.425029 -0.679660 1.512201 0.006412 -0.004612 703218.000000 0 0 1
-28.906869 24.713589 1.311846 38.053771 -0.707354 1.536316 0.010843 -0.009732 415090.000000 0 0 1
-28.645969 26.055189 1.725946 38.761363 -0.738071 1.526254 0.009027 -0.009314 -338742.000000 0 0 1
-27.843369 26.936089 0.686646 38.746323 -0.768837 1.553074 0.011168 -0.009029 130059.000000 0 0 1
-26.507469 26.574889 0.479046 37.537982 -0.786668 1.558034 0.021422 -0.011552 -327267.000000 0 0 1
-25.827369 27.495089 -0.359354 37.724820 -0.816664 1.580322 0.025076 -0.011324 421349.000000 0 0 1
-24.559269 26.970389 -1.069354 36.492507 -0.832155 1.600104 0.029852 -0.007897 -290944.000000 0 0 1
-24.881869 26.035889 -2.113254 36.075487 -0.808059 1.629409 0.034617 -0.009882 458146.000000 0 0 1
-23.767569 25.334889 -2.697054 34.842905 -0.817307 1.648280 0.024752 -0.007779 1090930.000000 0 0 1
-22.914969 24.373789 -1.784954 33.501693 -0.816238 1.624101 0.013627 -0.005143 238029.000000 0 0 1
-23.634069 23.189889 -1.452054 33.142852 -0.775912 1.614622 0.013849 -0.008890 190042.000000 0 0 1
-22.712769 22.205189 -1.003954 31.779682 -0.774098 1.602393 0.002673 -0.014286 -963505.000000 0 0 1
-23.325369 20.859489 -0.647654 31.298731 -0.729648 1.591490 -0.002262 -0.011399 -1229180.000000 0 0 1
-24.237669 20.779089 0.450246 31.928637 -0.708720 1.556694 -0.007846 -0.018223 833009.000000 0 0 1
-25.489369 21.441189 0.205546 33.308779 -0.699352 1.564625 -0.004384 -0.017474 340192.000000 0 0 1
-26.321969 20.812189 -1.002754 33.570802 -0.669031 1.600671 -0.011259 -0.014318 -1247920.000000 0 0 1
-26.528369 19.434289 -0.847054 32.896253 -0.632262 1.596548 -0.017498 -0.007340 274647.000000 0 0 1
-27.374769 18.932789 -1.868054 33.336438 -0.605076 1.626862 -0.006715 0.003340 7654.020000 0 0 1
-27.467469 17.398889 -1.756054 32.561740 -0.564643 1.624752 -0.025686 0.004730 -167153.000000 0 0 1
-28.137069 17.012989 -0.587754 32.885892 -0.543829 1.588670 -0.007917 0.005136 196341.000000 0 0 1
-28.370869 15.604089 -0.458554 32.382157 -0.502846 1.584957 -0.007617 -0.004626 -446705.000000 0 0 1
-27.200669 14.771489 0.051546 30.952802 -0.497496 1.569131 -0.011039 -0.002613 -698886.000000 0 0 1
-27.071869 14.705289 1.477146 30.843371 -0.497603 1.522886 0.000733 0.001799 777788.000000 0 0 1
-25.820969 14.216689 1.995246 29.543488 -0.503294 1.503209 -0.016331 0.001359 631413.000000 0 0 1
-25.561969 12.660789 1.928646 28.590724 -0.459879 1.503288 -0.021349 0.008087 -245803.000000 0 0 1
-25.430269 12.288289 0.579446 28.249538 -0.450130 1.550283 -0.030642 0.006423 210478.000000 0 0 1
-25.093369 10.963489 0.449746 27.387543 -0.411913 1.554374 -0.021130 0.016568 -246643.000000 0 0 1
-25.060869 10.391989 -0.988854 27.148083 -0.393089 1.607229 -0.015120 0.013808 653208.000000 0 0 1
-26.387569 10.238789 -1.516254 28.344940 -0.370133 1.624315 -0.017603 -0.002875 808891.000000 0 0 1
-26.387969 9.162189 -2.415354 28.037556 -0.334188 1.657050 -0.011663 -0.002308 151436.000000 0 0 1
-27.724169 8.867589 -3.152454 29.278006 -0.309567 1.678679 -0.008521 -0.008852 1800.110000 0 0 1
-27.669869 7.864089 -4.105554 29.057204 -0.276910 1.712563 -0.001447 -0.003579 -349995.000000 0 0 1
-28.856669 7.762089 -4.819954 30.268619 -0.262768 1.730716 -0.004073 -0.009273 -643155.000000 0 0 1
-11.015382 18.044189 -20.187054 29.230951 -1.022716 2.333122 0.027952 0.001539 186626.000000 0 0 1
-11.250082 17.171989 -21.243954 29.542294 -0.990815 2.373307 0.019470 -0.006668 -656057.000000 0 0 1
-10.219482 17.217889 -22.151954 29.859715 -1.035141 2.406648 0.017858 -0.009789 -628201.000000 0 0 1
-10.281682 16.058389 -23.167554 30.005339 -1.001293 2.452958 0.009647 -0.008313 -220343.000000 0 0 1
-10.099182 14.767889 -22.665154 28.875478 -0.970984 2.473375 0.011426 -0.009694 8909.110000 0 0 1
-10.090982 13.743789 -23.610654 29.123575 -0.937470 2.516153 0.006498 -0.009460 -613890.000000 0 0 1
-9.297982 12.517289 -23.241554 27.987583 -0.931912 2.550664 0.003986 0.001785 387950.000000 0 0 1
-7.877782 12.749689 -23.254154 27.665315 -1.017333 2.569099 -0.000331 0.000479 618516.000000 0 0 1
-7.275082 11.684189 -22.552954 26.421257 -1.013894 2.593637 -0.005092 0.000413 -693181.000000 0 0 1
-5.760382 11.658989 -22.479354 25.969893 -1.111902 2.617129 -0.008477 0.002886 -727315.000000 0 0 1
-5.225582 11.152189 -23.660154 26.673599 -1.132607 2.661658 -0.011488 0.000084 1242310.000000 0 0 1
-3.768382 11.264489 -23.530854 26.358879 -1.247963 2.674122 -0.003137 0.003859 1778050.000000 0 0 1
-2.955582 10.941489 -24.797854 27.265091 -1.306967 2.712898 0.009481 -0.002431 -313993.000000 0 0 1
-3.050582 9.549989 -25.142184 27.067282 -1.261608 2.762166 0.003622 -0.002619 84050.100000 0 0 1
-2.527182 9.233989 -26.438774 28.118712 -1.303655 2.794176 0.005291 -0.003190 -264392.000000 0 0 1
-2.260882 7.740389 -26.600364 27.795765 -1.286613 2.847251 0.014161 0.004286 656189.000000 0 0 1
-1.019182 7.355989 -25.972674 27.013498 -1.433122 2.863097 0.017172 -0.002069 590713.000000 0 0 1
-1.031382 5.937789 -25.705724 26.402752 -1.398814 2.911302 0.010347 0.003289 568520.000000 0 0 1
0.274818 5.354589 -25.055354 25.622605 1.519517 2.930780 -0.006170 0.011539 561134.000000 0 0 1
0.564918 5.942289 -23.786054 24.523586 1.476014 2.895721 -0.008743 -0.003116 -369135.000000 0 1 0
1.635518 5.317589 -23.133754 23.793323 1.272411 2.905585 0.003096 -0.002887 -214414.000000 0 1 0
1.890318 5.988489 -21.799454 22.685932 1.265036 2.861117 0.008623 -0.002422 514445.000000 0 1 0
2.533018 7.298489 -21.868554 23.193054 1.236742 2.802006 0.001775 0.004618 177759.000000 0 1 0
2.331718 7.970889 -20.626054 22.235244 1.286207 2.758810 0.009408 0.001244 1364.880000 0 1 0
2.811018 9.408389 -20.675654 22.888911 1.280461 2.698207 -0.005259 0.000271 -256973.000000 0 1 0
2.740818 10.162889 -19.485854 22.147119 1.307374 2.646315 -0.000227 -0.006848 -184097.000000 0 1 0
3.175318 11.478789 -19.594354 22.929979 1.300920 2.595442 -0.001608 0.006937 -952209.000000 0 1 0
4.353718 11.772489 -18.699654 22.521621 1.216574 2.550438 -0.002928 -0.003385 -874661.000000 0 1 0
5.460218 11.140489 -19.269254 22.917867 1.115081 2.569549 0.003474 0.006323 -1011770.000000 0 1 0
6.439218 10.776489 -18.353654 22.236296 1.032199 2.541692 0.005271 0.003273 373839.000000 0 1 0
7.593218 9.814589 -18.812154 22.536199 0.912320 2.558480 0.011376 0.001749 527707.000000 0 1 0
7.142318 8.477089 -19.018554 22.013158 0.870647 2.613884 0.007262 -0.003081 5014.040000 0 1 0
6.520818 8.188789 -20.248854 22.794592 0.898309 2.664466 0.006983 0.003889 172340.000000 0 1 0
6.008618 6.736089 -20.401854 22.309505 0.842416 2.725046 0.010361 -0.000278 68820.000000 0 1 0
7.097218 5.839289 -20.295254 22.279253 0.688464 2.716374 0.010805 -0.004239 101752.000000 0 1 0
6.742318 4.488989 -20.568954 22.106373 0.587398 2.766445 0.004363 -0.008901 -81635.100000 0 1 0
6.997118 4.086389 -22.008554 23.452818 0.528579 2.788820 0.005601 -0.015539 -399804.000000 0 1 0
6.070818 4.629089 -22.896554 24.135772 0.651463 2.819757 0.008134 -0.009405 -236252.000000 0 1 0
6.395118 4.254089 -24.219454 25.408203 0.586993 2.834492 0.002922 -0.005646 -358.205000 0 0 1
5.341318 4.950389 -25.114054 26.148647 0.747431 2.859353 -0.000106 -0.007708 -77748.900000 0 0 1
5.401718 6.351689 -25.352834 26.688737 0.866048 2.823856 -0.010972 -0.000316 64960.600000 0 0 1
4.944518 7.129189 -24.248354 25.753762 0.964406 2.797987 0.005443 -0.001678 -1053070.000000 0 0 1
4.801918 8.630789 -24.574854 26.485324 1.063075 2.759448 0.007805 0.005021 425293.000000 0 0 1
3.661718 9.045589 -25.321974 27.137303 1.186153 2.773751 0.013059 0.008110 -65505.400000 0 0 1
2.447918 8.918389 -24.631054 26.310051 1.302914 2.782409 0.005482 0.012562 -410132.000000 0 0 1
1.234818 9.498989 -25.414604 27.159854 1.441527 2.781152 0.015649 0.008508 3957.110000 0 0 1
1.396118 10.857289 -25.685904 27.921238 1.442910 2.738727 0.018793 0.008031 -287356.000000 0 0 1
0.301418 11.384689 -26.370834 28.724952 1.544327 2.733920 0.026229 0.002396 -811313.000000 0 0 1
0.300918 12.881589 -26.752054 29.693404 1.547440 2.692733 0.013151 0.002027 -664124.000000 0 0 1
0.023418 13.737989 -25.717744 29.157079 1.569092 2.650973 0.009161 0.002126 -77372.900000 0 0 1
-0.330782 14.932389 -26.344524 30.283982 -1.548648 2.625829 0.008179 0.000386 -42969.100000 0 0 1
-0.728582 16.071189 -25.362624 30.034590 -1.525493 2.576328 0.010615 -0.003999 -226195.000000 0 0 1
-1.950882 15.765489 -24.758454 29.416621 -1.447678 2.571125 0.003410 0.008181 -546839.000000 0 0 1
-2.203682 16.434989 -23.565854 28.815179 -1.437507 2.528422 0.000190 0.006761 -765273.000000 0 0 1
-3.210782 15.840289 -22.543654 27.738785 -1.370809 2.519589 -0.004944 -0.001818 131923.000000 0 0 1
-4.575082 15.848989 -22.861254 28.191466 -1.289769 2.516533 -0.009640 -0.000837 -370416.000000 0 0 1
-4.984382 15.199889 -24.042154 28.877428 -1.253924 2.554507 -0.006396 -0.004669 -287741.000000 0 0 1
-6.509182 15.230289 -24.405054 29.494708 -1.166908 2.545327 -0.009843 0.000028 556274.000000 0 0 1
-6.844382 16.441389 -25.028254 30.717720 -1.176326 2.523150 -0.006424 0.001866 -4468.570000 0 0 1
-7.991782 16.295889 -25.838064 31.575784 -1.114844 2.529221 0.001719 -0.002348 -81997.800000 0 0 1
-8.745682 17.612189 -26.205214 32.762622 -1.109897 2.497843 0.001228 0.001333 -6965.480000 0 0 1
-9.318382 18.323889 -25.150184 32.482747 -1.100342 2.456346 0.004916 -0.001725 -223811.000000 0 0 1
-10.156682 19.301389 -25.707774 33.713372 -1.086397 2.438026 0.005728 0.001954 181419.000000 0 0 1
-11.017282 20.122389 -24.686354 33.700254 -1.069864 2.392823 0.017873 -0.002465 210159.000000 0 0 1
-10.314682 21.172789 -24.017654 33.638183 -1.117468 2.365991 0.001433 -0.007240 81746.400000 0 0 1
-10.612082 22.471189 -24.489354 34.889813 -1.129592 2.348866 0.000073 -0.009374 -99517.200000 0 0 1
-9.932582 23.066689 -25.782924 35.992881 -1.164190 2.369330 -0.008310 -0.005066 -782614.000000 0 0 1
-10.376482 22.403589 -26.916604 36.525275 -1.137051 2.399315 -0.004338 -0.004940 56483.700000 0 0 1
-9.930782 22.984889 -28.116214 37.648997 -1.162964 2.414031 -0.016829 0.003241 -234209.000000 0 0 1
-10.695182 22.487189 -29.360114 38.497751 -1.126849 2.438189 -0.013147 0.008709 -123245.000000 0 0 1
-10.079782 21.361489 -29.973214 38.161614 -1.129907 2.474184 -0.021621 0.010309 63826.400000 0 0 1
-10.257882 20.138289 -29.350694 37.043731 -1.099679 2.485408 -0.010763 0.008821 -140859.000000 0 0 1
-9.269482 19.137789 -29.967664 36.745600 -1.119743 2.524465 -0.020923 0.009804 -26443.500000 0 0 1
-7.908582 19.500089 -29.796114 36.477493 -1.185501 2.526700 -0.021956 0.011967 861590.000000 0 0 1
-6.925882 18.564889 -30.354534 36.249423 -1.213725 2.563268 -0.024983 0.016189 849707.000000 0 0 1
-6.710782 17.177889 -29.690104 34.951634 -1.198364 2.585762 -0.020717 0.009641 -1250800.000000 0 0 1
-7.750182 16.251589 -29.700254 34.731607 -1.125809 2.596610 -0.029919 0.006410 -139684.000000 0 0 1
-7.304182 15.045489 -29.159544 33.615425 -1.118838 2.620841 -0.030935 -0.001530 -204762.000000 0 0 1
-8.542382 14.151389 -28.985184 33.367274 -1.027703 2.623310 -0.019588 -0.003169 113300.000000 0 0 1
-9.472082 14.671889 -28.042744 33.036043 -0.997525 2.584608 -0.008592 -0.001137 -517062.000000 0 0 1
-10.562082 13.826389 -27.882434 32.865738 -0.918454 2.583702 0.022576 -0.009955 49831.400000 0 0 1
-11.516982 14.350189 -26.726084 32.447686 -0.894492 2.538644 0.008858 -0.006469 360114.000000 0 0 1
-12.223282 15.516289 -27.108854 33.541821 -0.903557 2.511903 0.006162 -0.002173 -50788.600000 0 0 1
-13.140882 15.901289 -26.081904 33.253563 -0.880162 2.472418 0.001804 -0.005192 361337.000000 0 0 1
-14.054782 17.070589 -26.507874 34.519694 -0.881989 2.446362 0.000381 -0.009275 251426.000000 0 0 1
-13.349282 18.292189 -26.724274 35.028478 -0.940362 2.438629 -0.002906 -0.005760 308153.000000 0 0 1
-14.304982 19.263189 -27.103064 36.197776 -0.932043 2.416970 0.003075 -0.005327 -70531.800000 0 0 1
-13.779982 20.683589 -27.275684 36.900700 -0.983098 2.402625 0.003629 -0.006142 3646.790000 0 0 1
-14.782082 21.704489 -27.411964 37.960644 -0.972894 2.377652 -0.002621 -0.005007 372100.000000 0 0 1
-14.284782 22.998189 -27.643694 38.692964 -1.014987 2.366616 -0.001837 -0.007232 -21377.000000 0 0 1
-13.714982 23.760389 -26.388594 38.065925 -1.047295 2.336763 -0.013742 -0.005681 -15159.600000 0 0 1
-13.282382 25.087189 -26.688174 38.962127 -1.083868 2.325369 -0.006795 -0.012257 182315.000000 0 0 1
-12.912482 25.684789 -25.439544 38.387640 -1.104968 2.295217 -0.004811 -0.014959 -401898.000000 0 0 1
-12.508582 27.162589 -25.622214 39.379800 -1.139239 2.279228 -0.008153 -0.014402 -431405.000000 0 0 1
-13.528682 28.010789 -26.056414 40.577903 -1.120856 2.268074 -0.007612 -0.014448 -412078.000000 0 0 1
-14.180882 28.759889 -25.058754 40.696065 -1.112701 2.234139 -0.003124 -0.016355 -537983.000000 0 0 1
-15.556482 29.200489 -25.571804 41.816143 -1.081295 2.228789 -0.007294 -0.013468 -44682.000000 0 0 1
-16.491982 28.106889 -25.510004 41.385299 -1.040169 2.234962 -0.006272 -0.013221 -708364.000000 0 0 1
-17.672782 28.480989 -26.139344 42.505990 -1.015431 2.233127 -0.003444 -0.006024 -1090730.000000 0 0 1
-18.813482 27.547389 -25.790594 42.165868 -0.971605 2.228936 0.006216 -0.004433 -837129.000000 0 0 1
-19.347082 27.790289 -24.527354 41.811491 -0.962638 2.197672 0.002969 -0.002728 -174155.000000 0 0 1
-20.188282 26.689189 -24.198054 41.296795 -0.923198 2.196854 0.008765 -0.009785 -191258.000000 0 0 1
-20.747082 26.846089 -22.793554 40.874197 -0.912852 2.162350 0.009068 -0.007197 180665.000000 0 0 1
-21.756182 27.852789 -22.661354 41.983881 -0.907678 2.140952 0.006241 -0.004704 254893.000000 0 0 1
-22.004082 28.193889 -21.296054 41.624474 -0.908087 2.107869 0.005902 -0.002259 230984.000000 0 0 1
-23.375282 28.899789 -21.074754 42.728759 -0.890689 2.086586 0.005501 -0.000792 167403.000000 0 0 1
-24.490382 28.045889 -21.052954 42.773561 -0.852972 2.085406 0.006268 -0.008292 -347047.000000 0 0 1
-25.651032 28.829189 -20.938654 43.903585 -0.843668 2.067948 0.005580 -0.005676 284253.000000 0 0 1
-26.965232 28.132689 -21.408954 44.462514 -0.806584 2.073168 -0.002571 -0.009060 382694.000000 0 0 1
-26.883042 27.978989 -22.788454 44.998171 -0.805372 2.101837 0.000012 -0.010333 161289.000000 0 0 1
-28.185612 27.769889 -23.300954 45.918731 -0.777969 2.103006 -0.011696 -0.007160 -30629.000000 0 0 1
-28.208392 27.314989 -24.815254 46.450175 -0.769309 2.134397 -0.007450 0.001571 79344.200000 0 0 1
-27.757392 25.953289 -24.910654 45.437723 -0.751822 2.151051 0.004812 0.005731 -11021.500000 0 0 1
-28.027752 25.524089 -26.194784 46.078202 -0.738680 2.175460 0.012657 0.004823 -345351.000000 0 0 1
-28.119942 24.025089 -26.470224 45.481961 -0.707031 2.191975 0.014857 0.002402 -189730.000000 0 0 1
-27.005322 23.156089 -26.315754 44.249415 -0.708811 2.207706 0.011491 0.001408 139884.000000 0 0 1
-27.326742 21.896989 -26.916554 44.167067 -0.675535 2.226133 0.013823 -0.000308 -525051.000000 0 0 1
-26.210202 20.863489 -26.813424 42.909434 -0.672301 2.245779 0.015033 -0.007927 -308748.000000 0 0 1
-26.201132 20.289789 -25.478154 41.800851 -0.658926 2.226242 0.022667 -0.008778 187677.000000 0 0 1
-25.451392 19.097689 -25.444404 40.742027 -0.643731 2.245319 0.014233 -0.009793 -103210.000000 0 0 1
-26.335412 17.861889 -25.657704 40.876873 -0.595976 2.249369 0.027446 -0.009978 147228.000000 0 0 1
-27.015142 17.730289 -26.908934 42.050823 -0.580798 2.265183 0.028687 -0.005918 568785.000000 0 0 1
-27.589622 16.395389 -27.053294 41.974715 -0.536188 2.271184 0.022653 -0.007728 30035.100000 0 0 1
-28.512652 16.183289 -28.250014 43.277401 -0.516242 2.282026 0.005545 -0.004060 553980.000000 0 0 1
-29.823442 16.752589 -28.324794 44.411495 -0.511801 2.262410 0.004203 -0.000992 813435.000000 0 0 1
-30.470572 16.229189 -29.501994 45.411562 -0.489401 2.277931 0.007942 0.002954 783503.000000 0 0 1
-31.840642 16.942789 -29.756974 46.758550 -0.489006 2.260614 0.015361 0.003924 326043.000000 0 0 1
-32.946392 16.615189 -28.972484 46.914113 -0.467090 2.236439 0.001597 0.007097 -262362.000000 0 0 1
-34.135020 17.097389 -29.546754 48.275573 -0.464348 2.229438 -0.007150 0.011402 -329267.000000 0 0 1
34.206321 16.741189 -28.755774 47.720376 0.455146 2.217538 0.000747 0.018185 -389907.000000 0 0 1
33.756993 17.665589 -27.820164 47.175938 0.482126 2.201497 -0.005399 0.012237 -123093.000000 0 0 1
32.769756 17.104289 -26.993214 45.771685 0.481056 2.201528 -0.013899 0.012700 -48912.100000 0 0 1
32.228076 18.068689 -25.891534 45.116493 0.510983 2.182034 -0.020196 0.018937 212150.000000 0 0 1
31.615206 19.247389 -26.455544 45.495923 0.546866 2.191359 -0.018143 0.021066 269354.000000 0 0 1
31.186216 20.124289 -25.431324 44.992436 0.573060 2.171515 -0.013262 0.015709 -214825.000000 0 0 1
30.483826 21.408589 -26.021984 45.439355 0.612263 2.180562 -0.011513 0.014834 448603.000000 0 0 1
29.177166 21.291789 -26.538524 44.821206 0.630409 2.204455 -0.009649 0.014079 262545.000000 0 0 1
28.135676 21.428089 -25.565914 43.639376 0.650883 2.196719 -0.016485 0.016910 978550.000000 0 0 1
26.727476 20.973589 -26.099004 42.841655 0.665354 2.225844 -0.001683 0.015662 570064.000000 0 0 1
26.531586 19.548089 -26.286114 42.154627 0.634990 2.244090 -0.009160 0.012033 -678392.000000 0 0 1
25.446526 19.236989 -27.077624 41.842384 0.647315 2.274615 -0.013000 0.006692 -967088.000000 0 0 1
25.207766 17.685689 -27.278514 41.137967 0.611797 2.295747 -0.015962 -0.007354 317693.000000 0 0 1
26.259726 16.995289 -27.960024 41.954451 0.574404 2.300217 -0.020458 -0.008821 667201.000000 0 0 1
27.351126 16.583289 -27.138054 41.947151 0.545047 2.274385 -0.015420 0.003131 146094.000000 0 0 1
28.423986 15.792189 -27.921684 42.859499 0.507128 2.280317 -0.014163 0.010268 -32135.600000 0 0 1
27.976716 14.627989 -28.651984 42.633448 0.481770 2.307776 -0.014040 0.011591 440440.000000 0 0 1
27.197296 13.555289 -28.042354 41.349877 0.462371 2.316070 -0.014370 0.003144 352963.000000 0 0 1
27.833596 12.764289 -26.838944 40.718117 0.429977 2.290471 -0.013598 -0.004101 -157863.000000 0 0 1
27.777066 13.391289 -25.593954 40.074212 0.449224 2.263557 -0.005509 0.002681 187417.000000 0 0 1
28.502846 12.694389 -24.563554 39.710551 0.418999 2.237711 -0.006143 -0.003536 2734.720000 0 0 1
-14.074782 -31.707220 -25.766594 43.213015 1.153028 2.209642 0.008795 0.014153 117327.000000 0 0 1
-13.298582 -30.525620 -25.890254 42.177850 1.159937 2.231706 0.008061 0.012373 191624.000000 0 0 1
-13.481682 -29.994220 -27.216844 42.686831 1.148378 2.262167 0.008996 0.012831 -49646.300000 0 0 1
-12.825282 -28.599220 -27.437594 41.656030 1.149233 2.289847 0.013958 0.010462 -469550.000000 0 0 1
-13.255682 -27.555320 -26.653154 40.563523 1.122418 2.287724 0.012902 0.008291 -90298.800000 0 0 1
-12.720282 -26.306220 -27.066834 39.830093 1.120398 2.317955 0.005726 0.003728 -336011.000000 0 0 1
-13.113582 -25.121020 -26.198454 38.592624 1.089691 2.316986 -0.011232 -0.004406 -381882.000000 0 0 1
-12.483082 -24.972820 -24.939254 37.435751 1.107255 2.299882 0.000866 -0.005463 19425.100000 0 0 1
-12.789082 -23.705320 -24.335754 36.300575 1.076048 2.305538 0.009114 -0.009446 -379213.000000 0 0 1
-12.199382 -23.344020 -22.957254 34.940001 1.089239 2.287692 0.011313 -0.012250 1190390.000000 0 0 1
-10.834682 -22.841520 -23.054854 34.214787 1.127885 2.310173 0.010049 -0.008019 960388.000000 0 0 1
-10.393382 -22.348620 -21.832554 32.926336 1.135492 2.295712 0.013354 -0.005724 400706.000000 0 0 1
-8.895182 -21.934920 -21.914754 32.257114 1.185535 2.317710 0.006335 0.001254 297394.000000 0 0 1
-8.536882 -21.015920 -22.923354 32.249456 1.184948 2.361451 0.008637 -0.005697 680345.000000 0 0 1
-7.185382 -20.540920 -22.805554 31.522252 1.234292 2.379619 0.002843 -0.003232 840068.000000 0 0 1
-6.799282 -19.327620 -23.751454 31.367478 1.232527 2.429812 0.001797 -0.001482 -81520.700000 0 0 1
-7.378782 -18.157720 -23.312154 30.456621 1.184809 2.442492 0.014022 -0.002162 -413422.000000 0 0 1
-7.694882 -17.210220 -24.340054 30.787028 1.150347 2.482576 0.013281 0.001995 466783.000000 0 0 1
-6.605682 -16.526420 -25.269534 30.908040 1.190545 2.527977 0.008038 -0.002070 407539.000000 0 0 1
-6.098182 -17.313620 -26.317824 32.087024 1.232146 2.532559 0.013868 0.003820 -9221.750000 0 0 1
-5.087282 -16.631920 -27.030504 32.142641 1.273959 2.569841 0.000329 -0.000027 -103007.000000 0 0 1
-4.720182 -17.461720 -28.278694 33.568978 1.306790 2.572528 0.006600 0.003863 610893.000000 0 0 1
-5.780982 -17.276820 -29.269034 34.475855 1.247898 2.584833 0.032135 0.001022 1097030.000000 0 0 1
-5.652182 -18.101620 -30.359634 35.795575 1.268142 2.583259 0.023252 0.003159 -255516.000000 0 0 1
-6.643282 -17.600120 -31.422964 36.623764 1.209874 2.602148 0.025972 0.000787 -13563.600000 0 0 1
-6.325082 -16.462320 -32.193374 36.707329 1.203971 2.640438 0.020429 0.003188 -148651.000000 0 0 1
-6.316782 -15.219720 -31.418924 35.478027 1.177393 2.658555 0.024441 0.003495 -190885.000000 0 0 1
-6.804282 -14.080920 -32.322464 35.906994 1.120657 2.690960 0.020060 0.004525 -70640.800000 0 0 1
-5.979782 -13.796120 -33.437444 36.662697 1.161799 2.719001 0.004803 -0.001794 87530.300000 0 0 1
-6.713282 -13.077020 -34.433346 37.439710 1.096514 2.738115 0.000585 -0.001572 310928.000000 0 0 1
-7.220082 -11.607920 -34.214361 36.844211 1.014360 2.761479 -0.001226 -0.000394 74541.800000 0 0 1
-6.178382 -10.667820 -34.327963 36.474427 1.045841 2.796818 -0.009353 -0.003496 -216062.000000 0 0 1
-5.973182 -10.211520 33.704633 35.720531 1.041520 0.337563 -0.031706 -0.006555 -393830.000000 0 0 1
-4.761182 -9.300320 33.823233 35.400225 1.097644 0.299607 -0.009959 -0.005070 -383393.000000 0 0 1
-4.692482 -8.576320 32.622523 34.055861 1.070149 0.291158 -0.012326 -0.007994 -391281.000000 0 0 1
-3.572682 -7.741820 32.631933 33.727480 1.138438 0.255577 -0.016380 -0.018963 -1026780.000000 0 0 1
-3.549182 -6.833020 31.357443 32.288947 1.091737 0.240785 -0.008188 -0.012548 177546.000000 0 0 1
-4.586582 -5.842220 31.214233 32.085770 0.905222 0.233609 0.004443 -0.008686 -387733.000000 0 0 1
-5.748182 -6.464720 30.788523 31.980734 0.844002 0.273909 -0.009019 -0.005148 -910660.000000 0 0 1
-7.034182 -5.595620 30.758023 32.044448 0.671985 0.284312 -0.009311 -0.001630 -526949.000000 0 0 1
-8.083282 -6.232420 30.160963 31.841266 0.656822 0.326319 -0.004535 0.004899 -653088.000000 0 0 1
-9.262682 -5.397320 30.165013 32.013378 0.527598 0.341472 -0.006547 0.000139 1054820.000000 0 0 1
-10.342682 -6.119720 29.273443 31.644218 0.534291 0.389549 0.002630 -0.000888 105166.000000 0 0 1
-10.069782 -6.000920 27.862613 30.228079 0.537424 0.398237 0.000002 0.001262 933227.000000 0 0 1
-11.059282 -6.706220 27.067433 29.998784 0.545104 0.445757 0.000348 -0.001327 436985.000000 0 0 1
-10.765382 -6.532520 25.600453 28.529817 0.545410 0.457130 -0.006060 0.001510 -20791.900000 0 0 1
-9.624782 -7.216520 25.116973 27.849182 0.643364 0.446665 -0.003899 0.005448 180272.000000 0 0 1
-9.104982 -6.679220 23.925653 26.456560 0.632908 0.440972 -0.001938 0.003523 -1234160.000000 0 0 1
-9.856082 -6.907120 22.623153 25.625333 0.611261 0.488914 -0.009702 -0.001755 547859.000000 0 0 1
-11.019582 -6.048720 22.558853 25.824795 0.502003 0.508379 -0.011737 -0.001699 216555.000000 0 0 1
-11.965682 -6.286820 21.568153 25.453622 0.483764 0.559819 -0.007326 0.001066 134904.000000 0 0 1
-13.079882 -5.225320 21.648953 25.827591 0.380069 0.576803 -0.005169 0.012443 -36865.600000 0 0 1
-12.538382 -3.999320 21.270653 25.012922 0.308765 0.554077 -0.013287 0.013841 -21236.700000 0 0 1
-13.471182 -2.909320 21.360053 25.420243 0.212700 0.573002 -0.015766 0.012535 252721.000000 0 0 1
-13.061482 -1.625320 20.658553 24.495301 0.123800 0.567276 -0.024458 0.008893 -364985.000000 0 1 0
-12.113682 -0.850320 21.337753 24.551253 0.070080 0.517395 -0.015736 0.003267 -261316.000000 0 1 0
-12.179782 0.535680 21.147053 24.409668 -0.043953 0.522971 -0.011791 -0.000659 -528495.000000 0 1 0
-11.814282 1.079680 19.739153 23.029918 -0.091135 0.541165 -0.011077 -0.005335 -231852.000000 0 1 0
-12.733582 0.877680 18.709953 22.648990 -0.068818 0.598675 -0.001893 0.001664 157975.000000 0 1 0
-14.011882 1.522680 18.816853 23.510111 -0.108246 0.642880 -0.000652 0.007347 480084.000000 0 1 0
-15.004882 0.959680 17.779553 23.284758 -0.063871 0.701972 0.007697 0.008641 -293103.000000 0 1 0
-15.306282 -0.365320 18.149653 23.745013 0.023863 0.700754 -0.006831 0.005520 -138134.000000 0 1 0
-16.431682 -0.921320 17.529653 24.044495 0.056011 0.753863 0.000851 0.012695 -317024.000000 0 1 0
-16.540382 -2.455320 17.635953 24.303079 0.147368 0.758792 0.000524 0.014436 -174755.000000 0 1 0
-16.780682 -2.882320 18.976853 25.495490 0.170104 0.731277 -0.004897 0.014874 -10000.300000 0 0 1
-16.700182 -4.310320 19.032253 25.684657 0.252588 0.736242 0.003123 0.017708 -314583.000000 0 0 1
-17.426082 -4.839020 20.326253 27.207370 0.270864 0.727128 0.001961 0.016324 37829.400000 0 0 1
-16.832182 -4.453320 21.568153 27.718940 0.258646 0.679158 0.001655 0.013375 70486.700000 0 0 1
-17.731482 -4.544320 22.634853 29.110013 0.250886 0.680016 0.004008 0.005767 85220.600000 0 0 1
-18.323982 -5.931120 23.125153 30.095169 0.313038 0.694458 0.004755 0.002592 806598.000000 0 0 1
-17.361582 -6.628720 23.953153 30.316959 0.364722 0.659839 0.019138 -0.002468 1155840.000000 0 0 1
-16.290682 -7.260220 23.240053 29.295003 0.419245 0.654568 0.006032 0.001632 -359231.000000 0 0 1
-15.181882 -7.719720 24.151753 29.553186 0.470411 0.614208 0.001452 -0.001448 -630920.000000 0 0 1
-15.544782 -8.790020 24.925713 30.662613 0.514638 0.621678 0.005987 -0.013272 397285.000000 0 0 1
-14.454582 -9.170520 25.770093 30.937535 0.565357 0.586339 0.009701 -0.008440 558378.000000 0 0 1
-14.825282 -10.220920 26.867513 32.343770 0.603593 0.590458 0.019612 -0.015127 -306670.000000 0 0 1
-14.791682 -11.547920 26.434723 32.418249 0.662864 0.617329 0.018415 -0.013553 -23387.400000 0 0 1
-14.074482 -12.319220 27.364783 33.146426 0.718993 0.599580 0.019309 -0.016079 -147025.000000 0 0 1
-14.008782 -13.781820 26.976003 33.374980 0.777232 0.629588 0.005951 -0.013006 -802678.000000 0 0 1
-15.231182 -14.416120 27.202493 34.348057 0.757913 0.656774 0.001228 -0.008236 -322091.000000 0 0 1
-15.277582 -15.856920 27.082443 34.904228 0.804004 0.682644 0.004144 -0.004751 -263457.000000 0 0 1
-14.525482 -16.773620 28.103373 35.807032 0.857103 0.668332 0.003125 -0.001887 -21284.900000 0 0 1
-13.162582 -16.768920 27.748253 34.991653 0.905307 0.655085 0.004476 -0.005092 -307917.000000 0 0 1
-12.322182 -17.386420 28.693753 35.741506 0.954239 0.638798 0.008621 -0.005479 65537.700000 0 0 1
-10.956582 -17.727520 28.046233 34.941420 1.017207 0.639047 0.006656 -0.005051 128382.000000 0 0 1
-10.088882 -18.621620 28.750773 35.709344 1.074283 0.634897 0.005981 -0.012262 -29045.200000 0 0 1
-9.244482 -19.235420 27.834763 35.074718 1.122791 0.654118 -0.000964 -0.010626 -543537.000000 0 0 1
-8.105482 -19.948820 28.594923 35.795585 1.184859 0.645433 0.005996 -0.006516 -263039.000000 0 0 1
-8.493082 -21.180920 29.157023 37.025610 1.189447 0.664083 0.006104 -0.001097 349697.000000 0 0 1
-7.355682 -21.769920 29.792313 37.624691 1.244957 0.656999 0.020579 0.000900 425748.000000 0 0 1
-7.594582 -23.084920 30.625193 39.095955 1.252965 0.670785 0.020067 0.001789 -18227.400000 0 0 1
-7.775782 -24.216020 29.825083 39.197117 1.260095 0.706097 0.007894 0.002931 93591.300000 0 0 1
-8.235882 -25.310420 30.592633 40.550664 1.256207 0.716011 0.006385 0.001852 -270420.000000 0 0 1
-8.365082 -26.607720 29.783513 40.804448 1.266195 0.752608 0.002374 0.002396 172684.000000 0 0 1
-9.422182 -26.509020 28.824893 40.278780 1.229290 0.773264 0.001549 0.002833 407954.000000 0 0 1
-9.552082 -27.659720 28.074753 40.552363 1.238277 0.806113 0.005799 0.004134 333563.000000 0 0 1
-10.950282 -27.731820 27.372573 40.474934 1.194726 0.828089 -0.001490 0.009848 432224.000000 0 0 1
-11.042482 -27.065520 26.098263 39.186708 1.183420 0.841966 0.004260 0.011337 137276.000000 0 0 1
-11.164682 -25.661020 26.218163 38.347492 1.160416 0.817976 -0.007158 0.012612 -344607.000000 0 0 1
-11.225582 -25.065020 24.801783 37.005369 1.149725 0.836290 0.001483 0.000405 18248.500000 0 0 1
-12.482882 -25.244620 24.173953 37.114595 1.111577 0.861457 -0.005410 0.005493 300645.000000 0 0 1
-12.470282 -24.660820 22.917453 35.900886 1.102622 0.878439 0.000461 0.005331 -345461.000000 0 0 1
-13.779382 -24.769220 22.145253 35.969402 1.063121 0.907561 -0.004962 0.008129 -483954.000000 0 0 1
-14.090282 -26.043020 21.618653 36.662530 1.074859 0.940151 -0.000192 0.009107 -793318.000000 0 0 1
-15.334482 -26.060420 21.031953 36.832525 1.038935 0.963054 -0.001399 0.001696 -947428.000000 0 0 1
-15.753382 -27.464420 20.581353 37.763150 1.050021 0.994393 0.002010 0.001963 -76599.100000 0 0 1
-15.095382 -27.851520 19.377353 37.135691 1.074120 1.021838 -0.005941 -0.000808 49766.900000 0 0 1
-15.067582 -29.249320 19.196553 38.092813 1.095108 1.042640 0.011154 0.000125 -480380.000000 0 0 1
-14.063782 -29.536720 18.126053 37.400021 1.126414 1.064829 0.010358 -0.004588 -543052.000000 0 0 1
-14.456082 -29.154720 16.785953 36.616174 1.110482 1.094568 0.007937 -0.006602 -420034.000000 0 0 1
-13.455982 -29.411620 15.824253 36.007136 1.141718 1.115782 0.015143 -0.004214 -374510.000000 0 0 1
-13.650782 -28.784420 14.441053 34.977574 1.127967 1.145198 -0.009322 -0.006881 -751156.000000 0 0 1
-13.409482 -27.395220 14.422253 33.738904 1.115598 1.129108 -0.004339 -0.012146 -177667.000000 0 0 1
-13.642282 -26.768120 13.196653 32.814566 1.099461 1.156923 -0.010569 -0.020488 292136.000000 0 0 1
-12.799082 -27.269020 11.961853 32.411447 1.131957 1.192796 -0.012962 -0.009240 292658.000000 0 0 1
-13.184182 -26.671020 10.751453 31.634786 1.111698 1.224026 -0.014764 0.000602 -106408.000000 0 0 1
-12.419482 -27.177220 9.677153 31.408472 1.142152 1.257594 -0.009616 0.005035 117009.000000 0 0 1
-12.867482 -26.612920 8.260053 30.692802 1.120432 1.298317 -0.003981 0.012137 -194466.000000 0 0 1
-14.041582 -27.183920 7.738653 31.559757 1.094004 1.323064 -0.013377 0.006168 -178758.000000 0 0 1
-14.319282 -26.339420 6.603553 30.698759 1.072846 1.353994 -0.007945 0.011817 245333.000000 0 0 1
-15.220782 -26.952720 5.487953 31.436268 1.056721 1.395323 -0.014023 0.009184 -38210.700000 0 0 1
-14.615582 -27.972420 4.789853 31.922002 1.089311 1.420179 0.005416 0.010176 -246145.000000 0 0 1
-15.243582 -28.169320 3.539353 32.224283 1.074780 1.460739 -0.003223 0.011758 -853427.000000 0 0 1
-14.702682 -29.389620 2.828253 32.983597 1.106934 1.484944 -0.003867 0.009520 -330547.000000 0 0 1
-13.486882 -29.103920 2.183253 32.151217 1.136851 1.502838 0.000094 0.017146 -464172.000000 0 0 1
-13.085782 -30.190720 1.382053 32.933681 1.161801 1.528819 -0.007119 0.014134 665333.000000 0 0 1
-11.667682 -30.044920 0.717853 32.238910 1.200381 1.548528 -0.016917 0.014872 703210.000000 0 0 1
-11.532482 -29.309520 -0.504747 31.500808 1.195930 1.586820 -0.014002 0.020662 -225744.000000 0 0 1
-11.782282 -27.920320 -0.478547 30.308340 1.171472 1.586586 -0.013916 0.020796 -356561.000000 0 0 1
-11.514882 -27.222020 -1.843947 29.614710 1.170622 1.633101 -0.004841 0.019708 329146.000000 0 0 1
-10.128682 -27.012220 -2.051747 28.921616 1.212055 1.641798 -0.003397 0.017840 -248284.000000 0 0 1
-9.881182 -26.287320 -3.231847 28.268459 1.211244 1.685374 0.012624 0.011698 998492.000000 0 0 1
-8.421682 -26.482320 -3.782747 28.045448 1.262898 1.706088 0.008523 0.010446 901566.000000 0 0 1
-8.159982 -25.741420 -4.963147 27.456126 1.263819 1.752562 0.010969 0.006729 -830072.000000 0 0 1
-7.003482 -26.250120 -5.537947 27.726998 1.310071 1.771880 0.019009 0.013429 250316.000000 0 0 1
-6.098682 -25.167120 -6.282747 26.646778 1.333052 1.808816 0.011793 0.014373 694267.000000 0 0 1
-6.607482 -24.786420 -7.567147 26.744853 1.310278 1.857653 0.013208 0.009147 90898.500000 0 0 1
-5.698482 -23.856220 -8.112747 25.834252 1.336322 1.890232 -0.002688 0.015384 -135712.000000 0 0 1
-5.924182 -23.827020 -9.683347 26.392992 1.327105 1.946461 0.016170 0.008769 288426.000000 0 0 1
-5.428082 -25.036920 -10.309847 27.615293 1.357297 1.953401 0.006388 0.010688 81007.200000 0 0 1
-5.753182 -25.150520 -11.705347 28.331306 1.345915 1.996717 0.000823 0.017248 -238542.000000 0 0 1
-7.054282 -25.875020 -12.045147 29.400087 1.304636 1.992919 -0.002499 0.008494 -213982.000000 0 0 1
-7.269082 -25.820020 -13.439947 30.002419 1.296370 2.035281 0.003648 0.014022 347778.000000 0 0 1
-8.411382 -26.596120 -13.837947 31.138300 1.264486 2.031304 0.005500 0.005607 30545.400000 0 0 1
-8.616982 -26.656520 -15.338247 31.938758 1.258139 2.071724 0.003174 0.001871 382364.000000 0 0 1
-7.695182 -27.520020 -16.023547 32.761584 1.298139 2.081849 0.001681 0.006740 669026.000000 0 0 1
-6.361282 -27.079220 -16.195547 32.187666 1.340066 2.098048 0.003065 0.006026 259125.000000 0 0 1
-5.464082 -27.986020 -17.101647 33.249659 1.377979 2.111035 -0.005949 -0.002071 206362.000000 0 0 1
-5.712182 -27.839820 -18.448547 33.882643 1.368425 2.146570 0.001912 0.000826 488217.000000 0 0 1
-4.618482 -28.425420 -19.168747 34.594447 1.409727 2.158077 0.004519 -0.002813 541250.000000 0 0 1
-24.184082 14.765489 -6.112854 28.987177 -0.548138 1.783273 -0.021385 -0.000905 -81439.300000 0 0 1
-24.569182 13.538689 -5.504954 28.587502 -0.503644 1.764572 -0.030238 0.001274 710504.000000 0 0 1
-23.402382 12.853489 -5.055154 27.174220 -0.502258 1.757914 -0.018644 0.004970 54397.000000 0 0 1
-23.749682 11.489589 -4.451154 26.755762 -0.450587 1.737936 -0.014630 -0.000969 -154374.000000 0 0 1
-24.079082 10.455489 -5.395254 26.799779 -0.409650 1.773499 -0.009535 0.001803 174598.000000 0 0 1
-25.422402 10.405089 -5.831354 28.081472 -0.388488 1.779977 -0.016441 -0.006662 -243710.000000 0 0 1
-25.505472 9.651289 -7.172954 28.198009 -0.361749 1.828001 -0.009236 -0.006106 -229268.000000 0 0 1
-25.080082 10.421689 -8.273354 28.391380 -0.393828 1.866490 0.001633 -0.003446 -90775.300000 0 0 1
-25.364432 9.748389 -9.511954 28.789976 -0.366928 1.907514 0.013957 0.001495 -1553.530000 0 0 1
-26.040702 10.589989 -10.655854 30.063487 -0.386244 1.933117 0.005466 0.004241 286809.000000 0 0 1
-25.202472 11.661189 -11.055754 29.889423 -0.433365 1.949685 0.017122 0.000943 372805.000000 0 0 1
-25.859782 12.455289 -12.034454 31.123795 -0.448858 1.967808 0.010754 0.002519 -186538.000000 0 0 1
-24.945182 13.459189 -12.723854 31.069411 -0.494785 1.992735 0.020373 0.004855 -284618.000000 0 0 1
-24.764782 14.622489 -11.942154 31.140434 -0.533372 1.964372 0.018710 0.009301 201701.000000 0 0 1
-24.030682 15.615989 -12.659454 31.330409 -0.576260 1.986750 0.015616 0.009710 97712.300000 0 0 1
-23.917282 17.027489 -12.002854 31.718137 -0.618690 1.958888 0.012987 0.008929 428813.000000 0 0 1
-22.916682 17.033289 -10.953754 30.582543 -0.639180 1.937104 0.014412 0.011500 634844.000000 0 0 1
-22.753782 18.365989 -10.500754 31.069438 -0.679093 1.915563 0.005612 0.012073 -11920.900000 0 0 1
-21.700282 18.602189 -9.392154 30.085814 -0.708678 1.888282 0.000908 0.012299 -127788.000000 0 0 1
-22.024482 18.104489 -8.063554 29.628891 -0.688022 1.846425 0.001736 0.008301 566759.000000 0 0 1
-22.819182 19.059789 -7.275154 30.609124 -0.695870 1.810772 -0.015322 0.005068 238498.000000 0 0 1
-23.306382 18.536189 -5.924254 30.362386 -0.671885 1.767174 -0.025262 0.004386 -395104.000000 0 0 1
-22.210082 18.289989 -5.086154 29.217809 -0.688906 1.745765 -0.010286 -0.004407 -225381.000000 0 0 1
-22.531082 18.058789 -3.748654 29.117381 -0.675658 1.699897 -0.033705 -0.003871 -488196.000000 0 0 1
-21.342082 17.821789 -2.819054 27.947230 -0.695753 1.671839 -0.020690 -0.011166 -830699.000000 0 0 1
-20.667082 18.946289 -2.354154 28.135958 -0.741986 1.654565 -0.009939 -0.018429 121906.000000 0 0 1
-19.901482 18.520189 -1.225154 27.213367 -0.749463 1.615832 0.024969 -0.025936 -42060.300000 0 0 1
-19.047282 19.664389 -0.624454 27.383883 -0.801338 1.593602 0.011255 -0.026009 -353926.000000 0 0 1
-19.761082 20.605189 0.166946 28.549992 -0.806306 1.564949 0.009142 -0.023241 96180.100000 0 0 1
-19.063382 21.783389 0.576446 28.952734 -0.851891 1.550885 0.005731 -0.019998 125438.000000 0 0 1
-19.892682 22.550889 1.646046 30.115956 -0.847946 1.516112 -0.006928 -0.019843 94173.500000 0 0 1
-19.870482 21.967189 2.903146 29.762757 -0.835472 1.473098 -0.005297 -0.020434 851227.000000 0 0 1
-21.046582 22.264089 3.708046 30.860944 -0.813502 1.450352 -0.015806 -0.011975 801379.000000 0 0 1
-20.846582 21.859589 5.186246 30.648307 -0.809114 1.400760 -0.008392 -0.008623 -850568.000000 0 0 1
-20.005582 22.818189 5.755246 30.887148 -0.850983 1.383369 -0.011822 -0.006571 -213009.000000 0 0 1
-19.352582 22.233289 6.878246 30.268000 -0.854559 1.341549 -0.013038 -0.001823 -214187.000000 0 0 1
-20.168582 21.989189 8.202146 30.944649 -0.828557 1.302532 -0.012143 -0.008387 -416222.000000 0 0 1
-21.307982 21.149089 8.061746 31.085459 -0.781656 1.308456 -0.013371 -0.004079 703702.000000 0 0 1
-21.775782 20.543289 9.299846 31.348022 -0.756283 1.269598 -0.006653 -0.000338 -95374.100000 0 0 1
-22.222482 21.483489 10.407146 32.614225 -0.768491 1.246018 -0.001288 -0.003480 -195582.000000 0 0 1
-23.479082 22.098589 10.101746 33.788462 -0.755119 1.267183 0.006773 -0.005553 1366710.000000 0 0 1
-24.126782 22.761889 11.252146 35.025933 -0.756297 1.243745 0.010303 0.000599 784997.000000 0 0 1
-25.318852 23.706189 10.908346 36.359588 -0.752515 1.266090 0.012687 0.001758 428808.000000 0 0 1
-25.965652 24.163789 12.107446 37.479248 -0.749469 1.241852 0.010936 0.001685 87720.100000 0 0 1
-26.370962 25.482689 12.054846 38.601999 -0.768269 1.253198 0.012301 0.002458 -145365.000000 0 0 1
-26.922092 25.960689 13.416746 39.733682 -0.767220 1.226359 0.014173 0.000020 -418616.000000 0 0 1
-25.905942 26.075589 14.362346 39.463035 -0.788662 1.198297 0.009438 -0.004682 -309215.000000 0 0 1
-26.275002 26.698089 15.579846 40.569635 -0.793385 1.176642 0.005206 0.002789 -50896.100000 0 0 1
-25.041282 26.942789 16.484546 40.307814 -0.821961 1.149475 -0.000149 0.002768 133156.000000 0 0 1
-24.652882 25.720689 17.082446 39.511117 -0.806593 1.123704 0.009144 0.003095 -569612.000000 0 0 1
-23.724182 25.887389 18.078046 39.494423 -0.828973 1.095348 0.006854 0.012254 -730262.000000 0 0 1
-23.124282 24.537089 18.557746 38.486245 -0.815032 1.067642 0.022731 0.019758 -280998.000000 0 0 1
-22.120182 24.566489 19.544146 38.402974 -0.837749 1.036863 0.027600 0.016593 289014.000000 0 0 1
-21.908082 23.238389 20.018046 37.692293 -0.814856 1.010908 0.031646 0.010197 1013530.000000 0 0 1
-20.396382 22.917189 20.389246 36.836548 -0.843532 0.984228 0.025835 0.013378 916017.000000 0 0 1
-19.575782 22.739789 19.260146 35.654767 -0.860031 1.000140 0.015805 0.016390 357495.000000 0 0 1
-18.250082 22.282989 19.513246 34.790284 -0.884568 0.975345 0.019087 0.015680 459553.000000 0 0 1
-18.008682 20.749889 19.719546 33.819092 -0.856006 0.948270 0.018890 0.010744 -560431.000000 0 0 1
-18.553282 20.292189 20.955946 34.570925 -0.830133 0.919557 0.029048 0.009480 128754.000000 0 0 1
-17.770482 20.590489 22.103846 35.047657 -0.858779 0.888368 0.023289 0.006528 -112451.000000 0 0 1
-18.548382 20.426289 23.431046 36.197923 -0.833544 0.866755 0.015151 0.004352 -49061.600000 0 0 1
-19.440982 21.516889 23.574846 37.372472 -0.836039 0.888203 0.016841 0.012939 -105812.000000 0 0 1
-20.287482 21.436689 24.678646 38.472706 -0.812934 0.874398 0.020748 0.010479 333786.000000 0 0 1
-21.388582 22.537789 24.762746 39.731813 -0.811554 0.897908 0.024489 0.009993 -207321.000000 0 0 1
-20.856482 23.797489 25.139546 40.414231 -0.851165 0.899442 0.017545 0.012931 -415557.000000 0 0 1
-21.786282 24.678989 25.636246 41.724234 -0.847573 0.909144 0.005208 0.012761 -52440.500000 0 0 1
-22.832982 25.273489 24.593546 42.011151 -0.836086 0.945417 -0.000377 0.014833 546426.000000 0 0 1
-23.758382 24.344489 24.084246 41.679320 -0.797582 0.954709 0.002589 0.008963 -473192.000000 0 0 1
-24.361982 24.840389 22.921346 41.664603 -0.795121 0.988265 -0.004495 0.016273 -157539.000000 0 0 1
-25.363662 23.788689 22.384446 41.355537 -0.753366 0.998851 -0.006347 0.016331 701456.000000 0 0 1
-26.554872 23.751389 23.200146 42.515132 -0.729727 0.993582 -0.014314 0.004472 395975.000000 0 0 1
-27.441892 22.755789 22.747846 42.288862 -0.692315 1.002834 -0.008654 0.002786 666574.000000 0 0 1
-28.897262 22.936689 23.311446 43.641344 -0.670907 1.007283 0.007519 0.005420 -441232.000000 0 0 1
-29.496882 24.168089 22.940646 44.502087 -0.686425 1.029210 -0.000590 0.008573 -235261.000000 0 0 1
-30.883992 24.012789 22.743046 45.251311 -0.660880 1.044199 -0.004893 0.005550 52520.700000 0 0 1
-31.438252 23.198289 21.572546 44.630696 -0.635712 1.066311 0.001134 0.000770 -1066560.000000 0 0 1
-30.997952 21.840289 21.609146 43.644317 -0.613788 1.052824 -0.011764 0.002753 305174.000000 0 0 1
-31.571872 20.955989 20.624046 43.142645 -0.585984 1.072371 -0.012565 0.008212 -369672.000000 0 0 1
-33.011322 20.451089 20.747246 44.027748 -0.554647 1.080110 -0.016184 0.017127 -301489.000000 0 0 1
-33.432192 19.756889 19.588846 43.494471 -0.533742 1.103610 -0.018328 0.010589 1817200.000000 0 0 1
34.712716 19.925689 19.422146 44.488487 0.521095 1.119019 0.001907 0.004979 1828520.000000 0 0 1
34.086671 19.051189 18.314446 43.130822 0.509654 1.132248 -0.000389 -0.004249 -297903.000000 0 0 1
34.006087 17.640889 18.604846 42.588205 0.478540 1.118698 0.009712 -0.005972 170796.000000 0 0 1
33.406076 16.895389 17.571046 41.354101 0.468243 1.131953 0.007215 -0.011119 -193201.000000 0 0 1
33.465076 15.373489 17.657746 40.841785 0.430634 1.123704 0.002676 -0.007793 143508.000000 0 0 1
32.665976 14.675789 16.697446 39.512649 0.422245 1.134501 0.000387 -0.017680 271228.000000 0 0 1
32.875866 13.318089 16.793546 39.245601 0.384897 1.128618 -0.015507 -0.017824 -44032.900000 0 0 1
32.026826 12.574089 15.775546 37.850933 0.374120 1.140895 -0.006631 -0.017514 -42448.600000 0 0 1
32.471936 12.839789 14.447346 37.789054 0.376545 1.178495 0.002625 -0.023472 112033.000000 0 0 1
31.564106 12.285489 13.573046 36.489088 0.371182 1.189660 0.003567 -0.016420 -652901.000000 0 0 1
31.679416 12.886389 12.181046 36.304576 0.386333 1.228635 0.007524 -0.017866 -313668.000000 0 0 1
32.912136 12.673789 11.534246 37.106232 0.367578 1.254716 0.010521 -0.012104 218550.000000 0 0 1
32.863526 13.018089 10.190446 36.787595 0.377162 1.290118 0.009595 -0.009576 104061.000000 0 0 1
34.301966 12.888589 9.623446 37.886030 0.359418 1.313972 0.020113 -0.009061 145625.000000 0 0 1
-34.776706 11.571389 9.517046 37.866746 -0.321211 1.316742 0.020402 -0.003250 -150463.000000 0 0 1
-33.443832 11.538989 9.098746 36.529787 -0.332237 1.319069 0.011934 0.000868 -691332.000000 0 0 1
-33.186462 11.374089 7.558746 35.886568 -0.330186 1.358578 0.025916 -0.006187 -495255.000000 0 0 1
-33.444242 12.502889 6.765846 36.340283 -0.357756 1.383523 0.026480 -0.011478 221156.000000 0 0 1
-33.092172 12.385389 5.355846 35.737582 -0.358130 1.420364 0.023652 -0.012593 -236222.000000 0 0 1
-33.954702 13.272989 4.475246 36.730394 -0.372639 1.448652 0.023320 -0.011057 1016390.000000 0 0 1
34.275813 12.776089 4.289946 36.830197 0.356791 1.454052 0.012643 -0.011680 1744700.000000 0 0 1
33.222736 13.715989 4.267946 36.195219 0.391534 1.452607 0.014030 -0.011662 -93705.100000 0 0 1
32.931696 14.459089 5.592046 36.398253 0.413722 1.416550 0.012764 -0.006285 -1091190.000000 0 0 1
32.080646 15.590089 5.500646 36.089830 0.452357 1.417785 0.000163 -0.002162 61668.800000 0 0 1
31.819626 16.156789 6.789246 36.326633 0.469838 1.382796 0.006278 -0.003260 -725344.000000 0 0 1
30.550986 15.750589 7.490946 35.178943 0.476011 1.356215 0.003264 -0.005429 -682625.000000 0 0 1
30.819176 14.472589 8.039346 34.984404 0.439031 1.338926 0.003992 -0.005819 -20649.300000 0 0 1
29.615536 13.794189 8.225246 33.689973 0.435895 1.324158 -0.000807 -0.006687 -611563.000000 0 0 1
29.543516 12.569589 7.325346 32.931362 0.402260 1.346477 0.006921 -0.011795 -121975.000000 0 0 1
29.418666 12.871889 6.004646 32.668015 0.412445 1.385937 -0.001019 -0.013847 313441.000000 0 0 1
30.137246 11.923189 5.236746 32.830466 0.376733 1.410603 0.014347 -0.020183 -258741.000000 0 0 1
29.905706 12.048489 3.696046 32.452705 0.382989 1.456658 0.009108 -0.027443 -50297.200000 0 0 1
28.634256 11.582989 3.278546 31.061795 0.384393 1.465050 0.000173 -0.017567 266787.000000 0 0 1
28.377636 11.887789 1.940246 30.828141 0.396704 1.507817 -0.009117 -0.017981 -627859.000000 0 0 1
26.922046 11.646289 1.565946 29.374900 0.408284 1.517462 -0.000689 -0.011527 -639218.000000 0 0 1
26.535536 10.302889 1.576746 28.509127 0.370351 1.515461 -0.010938 -0.006144 414499.000000 0 0 1
25.119826 10.222689 1.444346 27.158703 0.386489 1.517590 -0.004697 -0.000553 282679.000000 0 0 1
24.483906 8.835389 1.570846 26.076681 0.346321 1.510520 -0.008684 -0.000588 -258185.000000 0 0 1
24.810866 8.181889 2.787546 26.273423 0.318540 1.464499 -0.003863 -0.003832 1164300.000000 0 0 1
26.126506 7.592889 2.813046 27.352504 0.282829 1.467770 -0.002587 -0.003168 522038.000000 0 0 1
26.402006 6.906789 4.158946 27.605551 0.255867 1.419564 -0.001737 -0.006820 -566591.000000 0 0 1
27.658736 6.280189 4.286946 28.684915 0.223274 1.420785 0.007207 -0.017845 280532.000000 0 0 1
27.930646 5.921289 5.653546 29.105759 0.208907 1.375312 0.000105 -0.001925 762684.000000 0 0 1
29.484656 5.872489 5.934746 30.643959 0.196598 1.375897 0.004840 -0.003291 1133490.000000 0 0 1
30.056116 7.182689 5.907346 31.462006 0.234576 1.381914 0.010949 -0.011203 379580.000000 0 0 1
31.416186 7.271489 6.322346 32.860665 0.227452 1.377190 -0.006216 -0.002478 439579.000000 0 0 1
31.717676 8.551289 7.080846 33.604670 0.263345 1.358495 -0.002625 -0.003631 -177349.000000 0 0 1
31.290106 8.465889 8.426646 33.492542 0.264235 1.316466 0.003834 -0.009465 77351.100000 0 0 1
31.848206 9.451289 9.243246 34.482933 0.288482 1.299425 0.005849 -0.005206 -213102.000000 0 0 1
31.233686 9.380189 10.685846 34.317902 0.291753 1.254153 -0.001582 -0.000600 966918.000000 0 0 1
29.895886 9.910689 10.855146 33.313960 0.320106 1.238892 -0.003300 -0.003995 778657.000000 0 0 1
29.429176 9.479389 12.083546 33.195591 0.311614 1.198226 -0.013338 -0.006248 -377249.000000 0 0 1
27.948826 9.879689 12.261546 32.079442 0.339782 1.178594 -0.015209 -0.013603 -357074.000000 0 0 1
27.572846 11.229089 12.577046 32.319287 0.386742 1.171088 -0.013022 -0.015023 237164.000000 0 0 1
27.737276 12.174189 11.517646 32.407152 0.413594 1.207450 -0.008881 -0.016443 -426179.000000 0 0 1
26.615316 12.240289 10.449846 31.103038 0.431053 1.228156 -0.014337 -0.014298 -243301.000000 0 0 1
26.733546 13.279689 9.521646 31.332002 0.461038 1.262018 -0.020441 -0.004344 228865.000000 0 0 1
25.618976 13.365889 8.641846 30.160577 0.480871 1.280196 -0.014192 -0.004753 -160129.000000 0 0 1
25.670656 14.587789 7.732546 30.521769 0.516760 1.314660 -0.020255 -0.002619 -171523.000000 0 0 1
25.433996 15.787589 8.412946 31.095237 0.555521 1.296828 -0.021602 -0.000221 401210.000000 0 0 1
25.778866 16.830489 7.519246 31.691550 0.578397 1.331248 -0.016693 -0.003617 -944197.000000 0 0 1
25.340506 18.258989 7.952646 32.230055 0.624382 1.321475 -0.025001 -0.000611 -203066.000000 0 0 1
24.031506 18.758989 7.977946 31.512863 0.662799 1.314846 -0.019967 0.004890 625317.000000 0 0 1
23.034506 17.891289 8.619046 30.413395 0.660382 1.283462 -0.013236 0.009917 592243.000000 0 0 1
21.631806 18.580589 8.638646 29.795964 0.709666 1.276646 -0.006196 0.009393 -5089.610000 0 0 1
21.067006 18.845189 7.363446 29.209249 0.729788 1.315954 -0.002394 -0.002745 -430168.000000 0 0 1
19.941906 19.631689 7.611546 29.000318 0.777559 1.305221 0.013219 -0.004452 -664653.000000 0 0 1
19.259306 19.989489 6.319146 28.468089 0.804000 1.346959 0.008728 -0.008305 -130858.000000 0 0 1
20.149506 20.773789 5.540246 29.466035 0.800652 1.381649 0.007405 -0.005833 478816.000000 0 0 1
19.513606 21.140089 4.327646 29.093172 0.825385 1.421491 0.007536 -0.008891 -4182.910000 0 0 1
17.210718 17.510689 33.458800 41.500896 0.794037 0.633064 -0.005644 0.006254 -2467.100000 0 0 1
16.631418 18.127789 32.324253 40.621154 0.828421 0.650553 -0.005910 0.007316 336885.000000 0 0 1
15.979918 17.181689 31.424113 39.217893 0.821622 0.641382 0.002279 0.007884 189096.000000 0 0 1
15.444118 17.868789 30.167293 38.312922 0.858055 0.664229 0.000525 0.010495 -514176.000000 0 0 1
16.399418 18.290689 29.248343 38.196280 0.839863 0.698608 -0.002685 0.007693 -331868.000000 0 0 1
15.785318 18.690989 28.030473 37.205332 0.869480 0.717580 -0.006138 0.000566 -339796.000000 0 0 1
16.881018 18.812589 26.976383 36.967655 0.839461 0.752870 0.002598 -0.003425 -264289.000000 0 0 1
17.686118 19.949689 27.163893 38.061344 0.845470 0.776048 -0.004579 -0.000938 -77300.600000 0 0 1
18.599018 20.111089 26.085363 37.826255 0.824440 0.809846 0.001805 -0.002102 -252230.000000 0 0 1
19.500518 21.307689 26.348093 39.096161 0.829654 0.831280 -0.003457 -0.002867 -590396.000000 0 0 1
18.910318 22.546189 26.186903 39.391429 0.872878 0.843588 -0.015089 -0.001046 166830.000000 0 0 1
19.787518 23.523789 26.663033 40.691914 0.871451 0.856294 -0.014339 0.000294 168204.000000 0 0 1
18.954818 24.816789 26.428673 40.910059 0.918528 0.868439 -0.011112 -0.008092 406642.000000 0 0 1
18.973718 25.303889 25.102033 40.378222 0.927401 0.899920 -0.006868 -0.006347 385273.000000 0 0 1
17.951018 26.289089 25.016843 40.487006 0.971686 0.904730 -0.004291 -0.007029 184354.000000 0 0 1
17.924918 27.032089 23.693853 40.167589 0.985269 0.939892 0.001984 -0.014322 -407525.000000 0 0 1
19.055318 27.810389 23.432753 41.056264 0.970081 0.963381 -0.003821 -0.014313 -164318.000000 0 0 1
18.620018 29.075089 23.068253 41.523610 1.001191 0.981777 0.001170 -0.008823 243367.000000 0 0 1
19.801818 30.018989 22.766653 42.562568 0.987672 1.006409 0.008692 -0.010292 76936.500000 0 0 1
20.564318 29.726989 21.637253 42.127850 0.965613 1.031410 -0.001819 -0.012049 -140707.000000 0 0 1
21.861418 30.306089 21.673553 43.198652 0.945882 1.045212 -0.004838 -0.017346 450214.000000 0 0 1
22.338018 30.581189 20.232853 42.936750 0.939925 1.080118 -0.004981 -0.019878 -98587.300000 0 0 1
21.593018 31.615589 19.617453 43.019163 0.971580 1.097282 -0.004336 -0.016316 57521.800000 0 0 1
21.711218 31.544989 18.224953 42.410049 0.967992 1.126600 0.005007 -0.009281 -46103.200000 0 0 1
21.110818 32.646089 17.284453 42.546282 0.996775 1.152449 0.009624 -0.012913 61586.800000 0 0 1
21.810618 33.876289 17.480753 43.919047 0.998770 1.161436 -0.000916 -0.008528 310234.000000 0 0 1
21.616418 -34.691020 16.436753 44.055684 -1.013555 1.188459 -0.005692 -0.004045 -194033.000000 0 0 1
22.843418 34.722289 15.508653 44.361891 0.988895 1.213659 -0.012303 -0.002497 -199538.000000 0 0 1
22.836018 33.596789 14.588553 43.163107 0.973819 1.226020 0.002262 -0.000675 15431.800000 0 0 1
21.972818 33.749789 13.481053 42.468715 0.993683 1.247773 0.006680 -0.002731 -134983.000000 0 0 1
21.675118 32.470089 12.669753 41.044367 0.982189 1.256987 0.022694 -0.002882 14048.200000 0 0 1
22.785018 31.930989 11.975653 41.014160 0.951020 1.274491 0.010829 -0.012662 -29056.700000 0 0 1
22.421318 30.696289 11.427753 39.693465 0.939942 1.278763 0.008637 -0.016771 -211009.000000 0 0 1
23.554018 29.843189 10.735353 39.505132 0.902639 1.295590 0.000970 -0.014000 365569.000000 0 0 1
24.439918 29.190189 11.575753 39.791642 0.873742 1.275619 -0.003950 -0.014615 98985.500000 0 0 1
25.373518 29.982989 12.329453 41.168076 0.868475 1.266638 -0.003980 -0.010313 -1142810.000000 0 0 1
26.706218 29.343989 12.563153 41.618801 0.832424 1.264151 -0.007059 -0.006813 -988919.000000 0 0 1
26.545318 28.179889 13.360353 40.954354 0.815258 1.238489 -0.001347 -0.007339 -555694.000000 0 0 1
27.627818 27.345889 13.217053 41.058306 0.780270 1.243051 -0.002656 0.005595 -1071960.000000 0 0 1
27.842118 26.480989 14.456953 41.053986 0.760347 1.210934 -0.016044 -0.006601 -196331.000000 0 0 1
28.488518 27.117489 15.560653 42.297610 0.760747 1.194063 -0.036170 -0.001447 115026.000000 0 0 1
29.100618 26.188789 16.415953 42.452116 0.732782 1.173753 -0.032312 -0.003691 581988.000000 0 0 1
30.367818 26.702389 17.193253 43.941210 0.721260 1.168776 -0.028083 -0.001704 480698.000000 0 0 1
31.490218 26.883289 16.367453 44.522338 0.706640 1.194344 -0.007771 0.000246 -414619.000000 0 0 1
32.546118 27.459589 17.107453 45.890563 0.700833 1.188784 -0.003933 0.006016 475357.000000 0 0 1
33.832818 27.651989 16.234153 46.613730 0.685209 1.215072 0.014822 0.000914 517567.000000 0 0 1
33.718018 28.595789 15.193353 46.748924 0.703382 1.239786 0.018654 -0.007570 -314441.000000 0 0 1
-34.574869 29.029489 14.909953 47.544079 -0.698433 1.251812 0.033785 -0.008892 -30341.400000 0 0 1
-34.573369 30.287389 14.049453 48.062781 -0.719414 1.274150 0.030085 -0.006256 -14067.300000 0 0 1
34.531118 31.341189 14.837253 48.936820 0.737010 1.262756 0.039390 -0.008444 36632.400000 0 0 1
34.441018 32.496789 14.024153 49.385240 0.756361 1.282860 0.030844 -0.007015 16242.200000 0 0 1
33.449818 33.545489 14.586053 49.567561 0.786826 1.272109 0.014053 -0.008384 -1132650.000000 0 0 1
33.133918 34.564589 13.625153 49.781644 0.806528 1.293560 -0.002851 -0.015120 1445290.000000 0 0 1
31.737418 -34.535320 13.702053 48.864080 -0.827591 1.286573 -0.000413 -0.007689 1307560.000000 0 0 1
30.623318 33.939889 13.405453 47.638323 0.836722 1.285543 -0.013108 -0.005694 -1051480.000000 0 0 1
30.496118 32.883889 14.382053 47.097843 0.823054 1.260474 -0.018462 -0.010476 -97272.200000 0 0 1
29.594818 31.901289 13.881953 45.675531 0.822887 1.261986 -0.020366 -0.004294 -67701.400000 0 0 1
29.172118 30.864389 14.933253 45.018052 0.813578 1.232673 -0.026819 -0.001563 -100607.000000 0 0 1
28.301118 31.488789 15.851453 45.208027 0.838662 1.212549 -0.026955 -0.008687 -167546.000000 0 0 1
27.756918 30.516089 16.709953 44.507311 0.832712 1.185922 -0.027759 -0.005202 134878.000000 0 0 1
27.005118 31.115189 17.956953 44.943115 0.855997 1.159772 -0.024017 -0.010207 -12721.900000 0 0 1
26.773518 30.134389 18.901853 44.521711 0.844388 1.132328 -0.024601 -0.005664 -166345.000000 0 0 1
27.451218 30.429289 20.096753 45.644172 0.836805 1.114873 -0.019065 -0.010544 -131356.000000 0 0 1
27.351818 29.270489 21.119953 45.287260 0.819271 1.085630 -0.012950 -0.009129 318505.000000 0 0 1
26.056818 29.124789 21.694053 44.697237 0.840939 1.064027 -0.014616 -0.011671 323758.000000 0 0 1
26.120818 28.283389 22.818753 44.754248 0.825127 1.035765 -0.017707 -0.011613 -425424.000000 0 0 1
24.842718 28.166389 23.645953 44.380595 0.848016 1.008891 -0.016037 -0.009727 -454476.000000 0 0 1
23.859418 27.327289 23.041653 42.976393 0.853044 1.004931 -0.009574 -0.005867 328121.000000 0 0 1
22.609618 27.369289 23.705653 42.687595 0.880345 0.982038 -0.011279 -0.003562 165559.000000 0 0 1
22.574718 26.225389 24.720833 42.526562 0.860068 0.950467 -0.009747 0.000097 -443152.000000 0 0 1
23.392018 26.535589 25.842633 43.808283 0.848278 0.939858 -0.008991 0.000314 121188.000000 0 0 1
23.276518 25.426589 26.777633 43.650308 0.829516 0.910364 -0.008053 0.001122 -531649.000000 0 0 1
24.442718 25.252889 27.774363 44.794755 0.801699 0.902008 0.002402 -0.000444 -27399.500000 0 0 1
24.743118 26.375789 28.665333 46.147648 0.817326 0.900567 -0.003195 0.008632 331308.000000 0 0 1
25.247218 27.524689 28.035713 46.701517 0.828528 0.926899 0.000267 0.005578 -824995.000000 0 0 1
25.659218 28.694589 28.947953 48.163875 0.841185 0.926007 0.006424 0.007490 -657546.000000 0 0 1
27.000418 28.598989 29.349283 49.074486 0.814142 0.929723 0.008550 0.002866 -280012.000000 0 0 1
27.352418 29.739189 30.126203 50.400022 0.827180 0.930115 0.005348 0.002173 899615.000000 0 0 1
28.894418 30.054089 30.169483 51.461960 0.805068 0.944376 0.000651 0.008515 793504.000000 0 0 1
29.313218 30.463889 28.922533 51.223297 0.804645 0.970804 -0.008831 -0.002051 716208.000000 0 0 1
30.748918 30.340189 28.840663 51.940417 0.778708 0.982116 0.003954 0.001909 1142370.000000 0 0 1
31.366518 30.965189 27.546873 51.976260 0.778960 1.012208 0.000108 0.001444 -161919.000000 0 0 1
31.053518 32.351589 27.392943 52.548260 0.805868 1.022433 -0.005663 0.002166 273646.000000 0 0 1
31.515618 32.868289 26.140943 52.506262 0.806405 1.049663 -0.003310 -0.009627 -84964.700000 0 0 1
31.147118 34.350289 26.035983 53.178546 0.834265 1.059170 -0.009402 -0.008532 -140230.000000 0 0 1
32.035918 -34.357720 26.805593 54.085976 -0.820354 1.052258 -0.010888 0.002675 261174.000000 0 0 1
31.642818 -33.014220 26.675113 52.941178 -0.806605 1.042731 -0.014184 -0.001920 9224.820000 0 0 1
32.542618 -32.029920 27.478903 53.291912 -0.777458 1.029054 -0.022646 0.006087 -106411.000000 0 0 1
32.290318 -32.017620 28.843973 53.849489 -0.781158 1.005530 -0.022442 0.008415 518588.000000 0 0 1
33.344618 -31.329420 29.512423 54.446113 -0.754249 0.997924 -0.017236 0.002864 -151073.000000 0 0 1
32.994218 -30.913520 30.970373 54.803542 -0.752852 0.970222 -0.016942 -0.001497 -443066.000000 0 0 1
32.954918 -31.957320 31.924073 55.914608 -0.770031 0.963142 -0.005923 0.003354 636586.000000 0 0 1
31.776018 -32.758820 31.808873 55.629669 -0.800626 0.962102 -0.010391 -0.000575 -40984.300000 0 0 1
31.621818 -33.796220 32.932373 56.803742 -0.818624 0.952366 0.002081 0.000872 -276607.000000 0 0 1
31.505318 -33.141120 34.180178 57.089434 -0.810697 0.928903 0.006702 -0.007836 345745.000000 0 0 1
31.888218 -33.781820 -33.956824 57.542469 -0.814225 2.202001 0.012769 -0.008833 79529.900000 0 0 1
31.125518 34.370989 -33.643874 57.289379 0.834909 2.198468 0.012272 -0.002669 155443.000000 0 0 1
31.553718 33.292689 -34.470540 57.378205 0.812208 2.215248 0.015354 0.001522 538374.000000 0 0 1
30.603918 32.221989 -34.382754 56.187455 0.811147 2.229294 0.024150 0.007728 351127.000000 0 0 1
30.741218 31.232089 33.764434 55.321812 0.793319 0.914322 0.007919 0.007339 265786.000000 0 0 1
31.911918 30.421089 33.902641 55.616564 0.761486 0.915268 0.012894 0.006083 508180.000000 0 0 1
32.392618 29.963689 32.662543 54.899418 0.746465 0.933590 0.006593 -0.000175 383443.000000 0 0 1
33.764618 29.214389 32.716343 55.352408 0.713274 0.938430 0.011772 0.000028 443193.000000 0 0 1
33.687918 27.925689 33.315394 54.996685 0.692147 0.920062 0.013526 0.002362 -566716.000000 0 0 1
-34.616469 27.506989 33.549802 55.502464 -0.671453 0.921691 0.019677 -0.003885 -711141.000000 0 0 1
-34.575869 26.299889 34.549469 55.505321 -0.650278 0.898923 0.017145 -0.008508 122328.000000 0 0 1
34.695618 25.116989 33.834719 54.584222 0.626603 0.902229 0.015500 -0.010244 36298.100000 0 0 1
34.267918 24.122689 -34.663555 54.385259 0.613368 2.261877 0.015525 -0.017401 -167165.000000 0 0 1
33.899318 22.916889 33.876127 53.121931 0.594456 0.879281 0.010604 -0.021881 -586533.000000 0 0 1
-34.582169 22.259389 33.360051 52.955640 -0.571910 0.889292 0.015420 -0.025065 -244624.000000 0 0 1
34.669418 21.166289 32.520253 52.034097 0.548117 0.895691 0.017078 -0.023328 -296305.000000 0 0 1
-33.770369 20.449589 31.816383 50.704100 -0.544489 0.892469 0.010017 -0.024759 -277569.000000 0 0 1
-33.158069 21.040189 30.683833 49.836178 -0.565432 0.907530 0.006292 -0.021744 207077.000000 0 0 1
-32.066369 20.211789 30.303063 48.528796 -0.562409 0.896389 0.010898 -0.018985 15513.600000 0 0 1
-32.315069 19.327389 29.085363 47.579092 -0.539015 0.913087 0.008618 -0.012293 -524074.000000 0 0 1
-33.331269 18.333389 29.268653 47.997299 -0.502871 0.914991 0.003923 -0.012174 319695.000000 0 0 1
-33.511169 17.473589 28.164353 47.133380 -0.480641 0.930359 -0.002707 -0.007479 -59870.500000 0 0 1
-34.477569 16.339089 28.552363 47.654024 -0.442554 0.928345 -0.002163 -0.017027 -222041.000000 0 0 1
-33.741969 15.368889 29.268253 47.237208 -0.427404 0.902561 -0.001453 -0.015928 609634.000000 0 0 1
-34.406269 14.111689 29.288323 47.336423 -0.389225 0.903675 0.006801 -0.016579 -242453.000000 0 0 1
-33.446269 12.980489 29.647083 46.541331 -0.370206 0.880189 0.010476 -0.008246 -536199.000000 0 0 1
-33.154469 13.060289 31.027063 47.249006 -0.375256 0.854400 0.006621 -0.003626 483236.000000 0 0 1
-32.184469 12.118589 31.474723 46.619292 -0.360116 0.829637 0.017784 0.002494 677621.000000 0 0 1
-30.697369 12.562689 31.369233 45.652803 -0.388449 0.813270 0.004284 0.004274 -639713.000000 0 0 1
-30.074769 12.419189 30.111903 44.333449 -0.391615 0.824105 0.001829 -0.001431 757230.000000 0 0 1
-28.688669 12.777789 30.105353 43.504527 -0.419018 0.806533 0.008351 -0.000822 461377.000000 0 0 1
-27.742269 11.715789 30.613183 42.942522 -0.399588 0.777189 0.003896 -0.001865 -876751.000000 0 0 1
-27.354369 10.751389 29.598423 41.712354 -0.374493 0.781889 -0.003195 -0.007947 272720.000000 0 0 1
-26.181869 10.026389 29.905933 40.992482 -0.365724 0.753137 0.002915 -0.007678 -148280.000000 0 0 1
-25.558669 9.067289 28.927623 39.651843 -0.340912 0.753147 0.006469 -0.010793 -40625.200000 0 0 1
-26.232569 7.836289 28.742433 39.694868 -0.290285 0.761090 0.008769 -0.011670 1765890.000000 0 0 1
-27.556769 7.870689 28.074823 40.118810 -0.278210 0.795690 0.007679 -0.007550 1560060.000000 0 0 1
-28.247169 6.514289 28.077963 40.357286 -0.226655 0.801354 0.003416 -0.009224 -302610.000000 0 0 1
-28.766969 6.129489 29.317453 41.528571 -0.209934 0.787021 0.008477 -0.006905 139396.000000 0 0 1
-29.525269 4.941189 29.266523 41.865096 -0.165818 0.796704 0.013051 -0.006192 -364108.000000 0 0 1
-30.139269 4.511489 30.590243 43.179764 -0.148585 0.783512 0.009658 0.000132 441737.000000 0 0 1
-31.292469 5.259089 31.009383 44.367313 -0.166506 0.796904 0.007194 -0.008195 54969.800000 0 0 1
-31.846369 4.738089 32.132103 45.487501 -0.147696 0.786406 0.010068 -0.008263 -495764.000000 0 0 1
-33.306869 5.163389 32.305493 46.686754 -0.153800 0.806592 0.016855 -0.001287 -264736.000000 0 0 1
-33.512769 6.509689 32.730453 47.294442 -0.191856 0.806461 0.014322 0.000054 -898026.000000 0 0 1
34.724518 6.769689 32.749153 48.209210 0.192539 0.823970 0.002482 0.006650 -718588.000000 0 0 1
34.413118 8.202389 33.179933 48.502060 0.233985 0.817436 0.003820 0.001871 -237857.000000 0 0 1
34.419918 8.455589 34.548630 49.495814 0.240890 0.798180 0.006177 0.002678 476687.000000 0 0 1
33.779018 9.733189 -34.673206 49.375989 0.280544 2.349319 0.010801 0.003642 -159138.000000 0 0 1
33.707618 10.216189 -33.227624 48.421576 0.294282 2.327069 0.002335 0.002750 -350261.000000 0 0 1
32.914418 9.403589 -32.384224 47.122440 0.278285 2.328473 0.017704 0.006947 47780.300000 0 0 1
33.155218 9.550589 -31.006494 46.388414 0.280464 2.302866 0.014499 0.013831 188884.000000 0 0 1
32.085818 8.854989 -30.111244 44.884269 0.269275 2.306170 0.015954 0.006149 291430.000000 0 0 1
32.227618 7.451989 -30.132454 44.745014 0.227236 2.309630 0.012196 0.005173 683635.000000 0 0 1
31.025218 6.899489 -29.559894 43.404544 0.218822 2.319968 0.003050 0.009290 481706.000000 0 0 1
33.832155 6.015089 -20.034354 39.776517 0.175953 2.098641 0.007460 -0.002114 -596054.000000 0 0 1
33.192406 7.056589 -19.306954 39.042153 0.209478 2.088074 0.001242 0.000262 160674.000000 0 0 1
33.766986 8.344489 -19.288354 39.772860 0.242266 2.077117 -0.007723 0.002639 -1517530.000000 0 0 1
-34.417390 8.526889 -18.751054 40.110679 -0.242859 2.057237 -0.005885 -0.000152 -334795.000000 0 0 1
-33.325052 8.043789 -19.508654 39.444254 -0.236843 2.088157 -0.001324 0.001996 184124.000000 0 0 1
-33.055732 8.807589 -20.646454 39.956615 -0.260397 2.113814 -0.004880 0.002227 -176050.000000 0 0 1
-31.939732 8.254689 -21.627754 39.446750 -0.252912 2.151099 -0.004366 0.008910 477186.000000 0 0 1
-32.362692 7.095789 -22.414354 40.001216 -0.215843 2.165595 -0.003946 0.014417 -160406.000000 0 0 1
-33.125782 7.462689 -23.480954 41.283948 -0.221584 2.175803 -0.003030 0.012810 -423503.000000 0 0 1
-33.242652 6.346089 -24.500554 41.780664 -0.188632 2.197415 0.012544 0.008774 227303.000000 0 0 1
-32.037012 6.117789 -25.210174 41.223177 -0.188688 2.228819 0.007532 0.003707 157457.000000 0 0 1
-32.066472 4.814689 -25.845804 41.466196 -0.149034 2.243750 0.010665 0.006576 -709504.000000 0 0 1
-30.819712 4.580489 -26.656764 41.005104 -0.147542 2.278491 0.015279 0.006340 -205007.000000 0 0 1
-29.644112 4.473389 -25.861074 39.592672 -0.149773 2.282571 0.012999 0.009142 -389937.000000 0 0 1
-28.515442 4.287889 -26.628864 39.250641 -0.149253 2.316422 0.010976 0.005061 -339878.000000 0 0 1
-27.150732 4.526989 -25.929314 37.815145 -0.165216 2.326342 -0.004149 0.006134 238340.000000 0 0 1
-26.858242 5.936389 -25.957934 37.820896 -0.217529 2.327239 -0.018504 0.006228 -560930.000000 0 0 1
-25.616992 6.269389 -25.445174 36.646860 -0.240018 2.338291 -0.017165 0.012076 -1163590.000000 0 0 1
-25.322092 7.773989 -25.627974 36.856970 -0.297870 2.339683 -0.015799 0.001221 -345134.000000 0 0 1
-26.053242 8.805489 -24.945554 37.129351 -0.325927 2.307507 -0.014629 -0.007098 -225575.000000 0 0 1
-25.535452 10.111689 -25.318884 37.354403 -0.377041 2.315565 -0.015128 -0.010703 -60580.500000 0 0 1
-24.248582 10.678789 -24.670454 36.203060 -0.414832 2.320534 -0.010765 -0.006972 -456285.000000 0 0 1
-24.233882 11.005189 -23.251054 35.341289 -0.426278 2.288824 -0.005500 -0.005509 -335730.000000 0 0 1
-22.918682 11.200489 -22.828454 34.232371 -0.454571 2.300793 -0.005747 0.001630 -917139.000000 0 0 1
-22.868882 11.493389 -21.259754 33.272524 -0.465708 2.263940 0.001958 -0.005657 -1308150.000000 0 0 1
-23.374282 12.725389 -20.737054 33.738968 -0.498548 2.232716 0.012698 -0.005229 -45332.000000 0 0 1
-24.666182 13.149089 -21.060354 34.997965 -0.489761 2.216498 0.005945 -0.005123 -725957.000000 0 0 1
-25.766672 12.227989 -20.507554 35.128405 -0.443094 2.194183 0.003468 -0.001782 -1461090.000000 0 0 1
-25.647052 11.988589 -19.115254 34.159778 -0.437266 2.164680 0.001332 -0.000558 692680.000000 0 0 1
-26.845912 11.442089 -18.545754 34.577006 -0.402898 2.136916 -0.001425 -0.000008 181970.000000 0 0 1
-26.620292 10.820689 -17.145654 33.461929 -0.386082 2.108765 0.014710 0.003820 215757.000000 0 0 1
-25.787642 9.682189 -17.078454 32.410196 -0.359173 2.125801 0.024199 0.007104 1457960.000000 0 0 1
-24.364582 9.950089 -17.146954 31.411067 -0.387712 2.148246 0.025346 0.006623 630343.000000 0 0 1
-23.487182 8.706189 -16.850954 30.189403 -0.354976 2.162980 0.029790 0.003644 -547909.000000 0 0 1
-22.179782 9.104289 -16.520354 29.116196 -0.389505 2.174134 0.032668 0.007601 205661.000000 0 0 1
-21.353582 7.984089 -16.204154 27.969550 -0.357805 2.188727 0.017208 0.007600 579894.000000 0 0 1
-19.836582 8.283089 -16.034954 26.818264 -0.395557 2.211690 0.015948 0.006145 716407.000000 0 0 1
-19.147082 8.492589 -17.283854 27.156333 -0.417473 2.260693 0.015498 0.004123 589572.000000 0 0 1
-17.735782 8.583489 -17.168954 26.134407 -0.450737 2.287560 0.012262 0.006922 223464.000000 0 0 1
-17.087582 8.998489 -18.541254 26.771932 -0.484708 2.335833 0.011088 0.013479 -277489.000000 0 0 1
-16.989082 8.003289 -19.564754 27.119386 -0.440249 2.376662 0.016200 0.010530 328000.000000 0 0 1
-15.747182 7.313489 -19.530854 26.132644 -0.434790 2.414897 0.015947 0.008303 -158747.000000 0 0 1
-15.428382 6.762489 -20.946654 26.879891 -0.413094 2.464294 0.013888 0.005170 -640638.000000 0 0 1
-16.240982 5.774389 -21.491154 27.549641 -0.341606 2.465603 0.009401 0.002550 -129783.000000 0 0 1
-17.426482 6.320789 -22.081054 28.830671 -0.347954 2.443217 0.009079 0.003458 -256097.000000 0 0 1
-18.339482 5.221889 -22.538454 29.522646 -0.277394 2.439402 0.007928 0.007599 -806579.000000 0 0 1
-19.073182 4.546489 -21.562954 29.144773 -0.234004 2.403654 0.005792 0.008163 153341.000000 0 0 1
-19.553782 3.297889 -21.992954 29.612775 -0.167085 2.407867 -0.003120 0.013963 -481877.000000 0 0 1
-20.707882 2.716989 -21.189054 29.751881 -0.130460 2.363412 -0.000131 0.013630 -241313.000000 0 0 1
-21.284582 1.542089 -21.794254 30.502475 -0.072325 2.366717 -0.000669 0.019088 564196.000000 0 0 1
-22.283582 1.001989 -20.932854 30.589972 -0.044935 2.324446 0.005966 0.009884 -348997.000000 0 0 1
-22.872982 -0.364211 -21.354954 31.294408 0.015922 2.321822 -0.000757 0.015189 -58847.200000 0 0 1
-21.981582 -1.479811 -21.265454 30.620243 0.067219 2.338507 0.003117 0.006023 -261698.000000 0 0 1
-22.456882 -2.746711 -21.573254 31.261178 0.121706 2.332420 0.007909 -0.000343 -933046.000000 0 0 1
-22.781782 -2.995311 -23.042254 32.541157 0.130729 2.357594 0.009408 -0.006907 44301.900000 0 0 1
-21.699482 -2.767511 -23.932354 32.423513 0.126853 2.401072 -0.000402 -0.003549 -96516.700000 0 0 1
-20.682682 -3.735611 -23.831354 31.775172 0.178689 2.418857 -0.007383 -0.012212 -449855.000000 0 0 1
-19.659182 -3.562611 -24.964054 31.974671 0.179273 2.466653 0.001959 -0.012080 -323759.000000 0 0 1
-20.272382 -3.787411 -26.192314 33.336935 0.184697 2.474598 -0.003084 -0.010960 -331098.000000 0 0 1
-19.350282 -4.027711 -27.187154 33.612456 0.205217 2.512976 0.001183 -0.008054 -719848.000000 0 0 1
-20.008582 -4.216811 -28.547084 35.114966 0.207711 2.520015 -0.002429 -0.009229 -128414.000000 0 0 1
-20.751182 -5.426911 -28.486904 35.659033 0.255794 2.496209 -0.000123 -0.008123 -119344.000000 0 0 1
-21.508482 -5.657711 -29.616374 37.037199 0.257219 2.497489 -0.002394 -0.015161 -615499.000000 0 0 1
-21.097682 -6.910811 -30.416724 37.656986 0.316548 2.511090 0.000817 -0.012748 -238294.000000 0 0 1
-19.888582 -6.703711 -31.103344 37.522172 0.325104 2.547993 -0.000377 -0.019503 -203258.000000 0 0 1
-19.450582 -7.940111 -31.636194 37.976562 0.387572 2.555386 -0.000440 -0.017115 -309522.000000 0 0 1
-18.103382 -7.880711 -32.395724 37.938384 0.410577 2.594237 0.008422 -0.011089 -386631.000000 0 0 1
-18.015382 -7.224311 -33.616634 38.817815 0.381375 2.617964 0.004053 -0.016288 254278.000000 0 0 1
-18.477482 -8.056411 -34.656711 40.092527 0.411161 2.614788 0.011530 -0.016288 -534310.000000 0 0 1
-18.598182 -7.356911 33.339422 38.878446 0.376683 0.540348 0.014570 -0.019555 43264.400000 0 0 1
-17.433282 -7.037711 32.582553 37.617435 0.383687 0.523338 0.013621 -0.018541 76295.100000 0 0 1
-16.751282 -5.907011 33.021133 37.495246 0.339016 0.493511 0.009048 -0.012615 -592490.000000 0 0 1
-15.408382 -5.757811 32.308663 36.254935 0.357613 0.470918 0.001961 -0.009827 -515087.000000 0 0 1
-15.644082 -5.411211 30.958343 35.106089 0.333013 0.491023 0.001106 -0.011255 242715.000000 0 0 1
-14.450482 -5.296611 30.215363 33.909271 0.351329 0.471110 0.004069 -0.009279 -130041.000000 0 0 1
-14.768882 -5.273911 28.707903 32.712042 0.342983 0.499975 0.009762 -0.005647 201283.000000 0 0 1
-15.495382 -4.107211 28.309323 32.532965 0.259102 0.515242 -0.001939 -0.010036 -3891.670000 0 0 1
-15.992682 -4.156311 26.965573 31.625669 0.254263 0.549763 0.008015 -0.007643 -233046.000000 0 0 1
-15.070382 -3.679211 25.813413 30.116197 0.239451 0.541130 0.014131 -0.005167 127004.000000 0 0 1
-14.971682 -2.275011 25.779403 29.898237 0.150801 0.531124 0.012734 0.000800 -93329.600000 0 0 1
-14.110282 -1.968811 24.709103 28.522203 0.138635 0.523027 0.005550 0.001010 -122154.000000 0 0 1
-13.754482 -0.472811 24.599303 28.187498 0.034362 0.510086 0.008657 0.002557 212647.000000 0 0 1
-14.802282 0.237189 23.941253 28.148666 -0.016022 0.553806 0.002585 -0.003398 330430.000000 0 0 1
-15.109482 1.398989 24.646013 28.942694 -0.092327 0.551871 -0.011569 -0.001548 -184512.000000 0 0 1
-15.837082 2.431889 23.735653 28.637536 -0.152366 0.593783 0.002156 -0.003792 -347860.000000 0 0 1
-14.973582 3.024189 22.816753 27.458297 -0.199287 0.589965 -0.001555 -0.001387 162724.000000 0 0 1
-15.669682 3.884489 21.940153 27.239649 -0.243000 0.634363 0.005679 0.001594 -315348.000000 0 0 1
-14.727982 4.619489 21.003953 26.065670 -0.303936 0.633756 0.003872 0.009136 -467176.000000 0 0 1
-13.778382 5.416789 21.651853 26.229528 -0.374576 0.599751 -0.007349 0.009431 -9268.230000 0 0 1
-12.863582 5.792089 20.638553 24.999398 -0.423079 0.599599 -0.006468 0.013911 -149813.000000 0 1 0
-11.789082 6.828489 20.933153 24.976141 -0.525001 0.576958 -0.011383 0.012764 57619.000000 0 1 0
-12.221582 8.172489 20.574153 25.287396 -0.589404 0.620457 -0.001118 0.012292 945129.000000 0 0 1
-11.137682 9.124889 20.719653 25.231242 -0.686387 0.607302 -0.013254 0.013722 597373.000000 0 0 1
-11.518382 10.627589 20.699753 25.963408 -0.745196 0.648043 -0.010481 0.015153 -379220.000000 0 0 1
-11.893282 11.127789 19.424553 25.349380 -0.752159 0.697776 -0.009684 0.017289 188063.000000 0 0 1
-12.360282 12.433689 19.509853 26.229898 -0.788359 0.732055 -0.012361 0.016700 -401584.000000 0 0 1
-12.751982 13.022789 18.129853 25.707929 -0.795904 0.788057 -0.012071 0.014310 -471191.000000 0 0 1
-11.833782 13.807389 17.431453 25.190036 -0.862217 0.806543 -0.002268 0.014524 -76703.000000 0 0 1
-11.459882 15.073989 17.992253 26.120398 -0.920772 0.810936 -0.002153 0.016911 116691.000000 0 0 1
-12.565282 16.169689 17.763053 27.108508 -0.910183 0.856273 0.002693 0.012577 424620.000000 0 0 1
-12.702582 16.702289 16.425653 26.648154 -0.920590 0.906646 0.000534 0.007555 218697.000000 0 0 1
-13.242582 15.823189 15.407453 25.751289 -0.873951 0.929396 0.005482 0.010357 -122563.000000 0 0 1
-13.669182 16.433789 14.076153 25.594023 -0.876980 0.988458 -0.001591 0.008026 452421.000000 0 0 1
-14.804582 17.296189 14.218653 26.842203 -0.862861 1.012535 -0.002846 0.004361 57986.000000 0 0 1
-15.362182 17.520289 12.974753 26.670234 -0.850935 1.062731 -0.003297 0.003807 168334.000000 0 0 1
-16.528782 18.564689 13.066353 28.081629 -0.843347 1.086824 -0.010872 0.000352 350503.000000 0 0 1
-17.754282 17.985789 13.464953 28.635783 -0.791876 1.081263 -0.008717 0.007258 -104404.000000 0 0 1
-18.832282 18.915089 13.457053 29.891933 -0.787592 1.103818 -0.014302 0.008370 225155.000000 0 0 1
-20.184082 18.183989 13.535253 30.352227 -0.733316 1.108573 -0.004072 0.012551 -96726.000000 0 0 1
-20.547182 17.558189 12.320753 29.703158 -0.707118 1.143078 -0.006101 0.010159 578512.000000 0 0 1
-21.855882 16.970089 12.403553 30.323450 -0.660218 1.149393 -0.007397 0.004396 337473.000000 0 0 1
-22.299482 16.278789 11.093753 29.754616 -0.630583 1.188727 -0.003007 0.000395 -839475.000000 0 0 1
-21.586282 15.135689 10.753353 28.472640 -0.611512 1.183514 -0.011325 0.001332 -77556.700000 0 0 1
-21.996882 14.552689 9.518053 28.039916 -0.584473 1.224468 -0.007010 0.002130 -392574.000000 0 0 1
-21.386182 13.152389 9.252953 26.757639 -0.551372 1.217699 0.004235 0.010025 -395389.000000 0 0 1
-21.766982 12.001889 10.059653 26.814985 -0.503902 1.186237 0.002740 0.009119 717567.000000 0 0 1
-23.155682 11.691089 10.203653 27.874391 -0.467553 1.196027 0.010710 0.008130 570301.000000 0 0 1
-23.997282 11.304389 8.957753 27.998215 -0.440237 1.245130 0.010942 0.008238 -250806.000000 0 0 1
-24.434082 12.491089 8.229453 28.649180 -0.472580 1.279443 0.020065 0.004239 639271.000000 0 0 1
-25.311852 12.203589 7.136353 28.992153 -0.449249 1.322093 0.009364 0.007594 -220191.000000 0 0 1
-25.564262 13.386089 6.130253 29.500828 -0.482369 1.361472 -0.002674 0.000046 471142.000000 0 0 1
-24.467382 13.587589 5.177253 28.461892 -0.506930 1.387877 -0.004119 0.009567 1828320.000000 0 0 1
-23.208082 14.131089 5.545953 27.731937 -0.546928 1.369454 0.004079 0.010444 79165.000000 0 0 1
-23.292982 15.587189 5.989253 28.659982 -0.589740 1.360268 -0.001702 -0.003143 -1876750.000000 0 0 1
-22.085482 16.199489 6.167453 28.075424 -0.632851 1.349316 -0.015374 -0.008956 -685798.000000 0 0 1
-22.234882 17.488389 6.769153 29.087027 -0.666473 1.335922 -0.012599 -0.015950 101599.000000 0 0 1
-20.838982 18.159989 6.795353 28.464454 -0.716812 1.329737 -0.013599 -0.012004 254272.000000 0 0 1
-20.383282 18.489289 5.459853 28.056050 -0.736714 1.374941 -0.012319 -0.016828 22220.000000 0 0 1
-18.994182 18.681289 5.466853 27.196617 -0.777093 1.368405 -0.011065 -0.013671 -651935.000000 0 0 1
-18.437282 19.209689 4.139153 26.945836 -0.805912 1.416576 -0.002552 -0.020504 -1307170.000000 0 0 1
-17.080782 19.445589 4.271353 26.232203 -0.850050 1.407239 -0.008403 -0.021336 -781110.000000 0 0 1
-16.633982 20.516389 3.409853 26.631535 -0.889525 1.442406 -0.007202 -0.017423 -15429.800000 0 0 1
-16.918082 21.973989 3.958253 28.013308 -0.914672 1.429023 -0.010473 -0.015812 -497206.000000 0 0 1
-16.171782 22.394289 5.092253 28.088463 -0.945366 1.388495 -0.004663 -0.013051 66959.800000 0 0 1
-16.395882 23.742489 5.421653 29.358560 -0.966426 1.385060 -0.013617 -0.014378 -286862.000000 0 0 1
-15.634782 24.062589 6.756253 29.480528 -0.994594 1.339564 -0.019781 0.002152 190541.000000 0 0 1
-16.197382 23.485089 7.926353 29.609654 -0.967025 1.299797 -0.021933 0.005456 166857.000000 0 0 1
-15.338982 23.697189 9.010053 29.631439 -0.996328 1.261834 -0.013442 0.003142 16726.500000 0 0 1
-15.946482 23.012889 10.257853 29.817895 -0.964826 1.219605 -0.014319 -0.000039 -551058.000000 0 0 1
-17.049382 23.713389 10.738753 31.117954 -0.947447 1.218453 -0.016387 0.003722 -274951.000000 0 0 1
-17.958982 22.877489 11.490953 31.272136 -0.905265 1.194530 -0.022602 0.004392 766466.000000 0 0 1
-19.176382 23.677689 12.053953 32.766818 -0.890052 1.194078 -0.017813 -0.001910 365084.000000 0 0 1
-19.985982 24.251689 11.023453 33.303159 -0.881528 1.233430 -0.009418 0.005992 124827.000000 0 0 1
-19.505382 25.484089 10.564253 33.786123 -0.917515 1.252783 -0.018866 0.004021 -723218.000000 0 0 1
-20.582282 26.433689 10.034253 34.972224 -0.909217 1.279786 -0.006922 0.005223 77327.600000 0 0 1
-21.548782 26.785289 11.027853 36.102842 -0.893317 1.260378 -0.000117 -0.006799 323361.000000 0 0 1
-22.518482 27.634289 10.461453 37.150746 -0.887051 1.285341 -0.006615 0.003173 708006.000000 0 0 1
-23.815382 27.911589 11.322453 38.398270 -0.864422 1.271478 -0.005509 -0.003242 580903.000000 0 0 1
-23.552982 28.833089 12.369753 39.231374 -0.885851 1.250021 -0.025049 -0.006270 210330.000000 0 0 1
-24.649982 28.963089 13.245253 40.273053 -0.865674 1.235672 -0.013889 -0.011093 -170168.000000 0 0 1
7.924918 -33.129620 28.563623 44.455108 -1.335999 0.873004 0.007724 0.009971 612517.000000 0 0 1
9.319418 -33.064820 28.253983 44.479450 -1.296070 0.882510 0.000785 -0.000085 815202.000000 0 0 1
9.480118 -32.857520 26.862283 43.486452 -1.289903 0.904961 -0.000802 0.002934 140079.000000 0 0 1
10.978718 -32.904820 26.460623 43.628248 -1.248760 0.919143 0.000597 0.003524 116259.000000 0 0 1
11.435118 -34.232720 26.446283 44.744239 -1.248409 0.938431 0.000554 -0.001874 -248173.000000 0 0 1
12.779618 -34.190420 26.031763 44.832535 -1.213098 0.951276 0.004713 -0.002266 -199033.000000 0 0 1
13.475218 33.916889 26.010143 44.815894 1.192619 0.951604 0.005896 -0.002634 -282748.000000 0 0 1
13.232018 33.120889 24.858613 43.474478 1.190715 0.962101 0.009747 -0.005034 300067.000000 0 0 1
14.292018 32.190989 24.659113 42.995272 1.152963 0.959987 0.007112 -0.011505 -359602.000000 0 0 1
14.627818 31.845189 23.213153 42.034980 1.140201 0.985755 0.014843 -0.021831 202390.000000 0 0 1
13.726618 30.859989 22.674653 40.680448 1.152273 0.979564 0.010045 -0.017693 173157.000000 0 0 1
14.360718 29.605789 22.589353 39.912552 1.119168 0.969186 0.009623 -0.016487 102709.000000 0 0 1
14.297018 28.621789 23.771053 39.858180 1.107537 0.931799 0.006457 -0.012550 -219905.000000 0 0 1
14.982218 29.060189 24.911703 41.104189 1.094780 0.919696 0.003515 -0.010783 -10196.100000 0 0 1
14.595018 28.463389 26.130733 41.303683 1.096989 0.885827 -0.002142 -0.006111 -440405.000000 0 0 1
15.369118 28.959089 27.334323 42.684937 1.082877 0.875811 -0.006654 -0.007724 -193536.000000 0 0 1
15.174318 30.336289 27.494983 43.663766 1.106986 0.889632 -0.001002 -0.002897 240773.000000 0 0 1
15.675118 30.625189 28.785943 44.858021 1.097724 0.874068 0.002267 -0.003564 -99983.600000 0 0 1
15.463818 32.101189 29.214283 46.077004 1.121879 0.884041 0.004803 -0.004204 28044.100000 0 0 1
16.195118 33.091989 28.542243 46.604948 1.115667 0.911666 0.000021 -0.002389 -62064.600000 0 0 1
15.674018 34.293889 29.039093 47.592169 1.142095 0.914527 0.001556 0.005939 154374.000000 0 0 1
16.331218 -33.941920 28.398703 47.172545 -1.122341 0.924771 -0.003292 -0.000690 -333585.000000 0 0 1
15.981418 -33.816320 27.018703 46.140650 -1.129312 0.945210 0.007488 -0.005123 78516.900000 0 0 1
16.320518 -32.499820 26.409893 44.945301 -1.105412 0.942706 0.002326 -0.004604 -160447.000000 0 0 1
17.809118 -32.088620 26.369353 45.190563 -1.064124 0.947747 0.001205 0.000783 12449.200000 0 0 1
18.310518 -31.554920 27.590263 45.740690 -1.045007 0.923303 -0.000145 0.002624 -863937.000000 0 0 1
19.414218 -30.768820 27.390833 45.539981 -1.007915 0.925459 0.000251 0.004370 -815370.000000 0 0 1
19.884318 -29.956620 28.612383 45.950557 -0.984801 0.898636 0.006461 0.005630 -92815.800000 0 0 1
18.858318 -29.054920 28.975453 45.159732 -0.995084 0.874186 -0.009344 -0.001164 414673.000000 0 0 1
19.208218 -28.297320 30.170133 45.606260 -0.974441 0.847933 0.002343 -0.004511 -161387.000000 0 0 1
17.930318 -27.646920 30.759433 45.077613 -0.995443 0.819802 -0.005610 -0.008967 292695.000000 0 0 1
17.316318 -26.852420 29.746263 43.654868 -0.998036 0.821128 -0.000873 -0.004587 429441.000000 0 0 1
16.091818 -26.278520 30.202723 43.147558 -1.021341 0.795417 -0.001218 -0.006324 -80923.000000 0 0 1
15.395218 -25.497120 29.092183 41.634973 -1.027586 0.797156 -0.001459 0.003393 -701194.000000 0 0 1
14.946518 -26.292820 28.036283 41.240077 -1.053888 0.823264 -0.000552 0.008496 361310.000000 0 0 1
14.309418 -25.569520 26.959913 39.817041 -1.060591 0.826989 -0.001622 0.004791 1506510.000000 0 0 1
12.769818 -25.133520 27.153573 39.141776 -1.100706 0.804150 0.010483 0.007060 2276750.000000 0 0 1
11.831718 -26.252920 27.127143 39.561184 -1.147375 0.815230 0.012439 0.008550 732882.000000 0 0 1
11.447618 -26.668920 25.812663 38.840351 -1.165332 0.843860 0.010108 0.007464 236095.000000 0 0 1
10.408918 -27.847520 25.815853 39.373700 -1.213093 0.855737 0.007537 0.004581 304063.000000 0 0 1
9.088018 -27.677020 26.262593 39.221592 -1.253529 0.837133 0.001653 0.005405 -354470.000000 0 0 1
8.468818 -28.938020 26.297793 40.008797 -1.286093 0.853565 0.007068 0.012027 -890150.000000 0 0 1
7.049718 -28.780120 26.830743 39.973524 -1.330575 0.834953 0.007349 0.003531 -245560.000000 0 0 1
5.986018 -28.395820 25.969523 38.943178 -1.363032 0.840814 0.002332 0.005796 251925.000000 0 0 1
6.108118 -27.096820 25.310673 37.578943 -1.349084 0.831818 0.004490 0.000835 -1170850.000000 0 0 1
4.979418 -26.792620 24.336263 36.536185 -1.387042 0.841847 0.003268 0.004342 -579908.000000 0 0 1
4.807118 -27.700920 23.240053 36.476697 -1.398971 0.880040 -0.012227 0.005095 135235.000000 0 0 1
4.264818 -29.016820 23.481353 37.570447 -1.424864 0.895671 -0.015416 0.007386 -551959.000000 0 0 1
2.796118 -29.157820 23.886253 37.796162 -1.475193 0.886697 -0.008833 0.005042 -371786.000000 0 0 1
1.877618 -28.858320 22.811353 36.833218 -1.505825 0.902927 -0.011860 0.003815 977790.000000 0 0 1
0.616318 -28.346820 23.272753 36.681645 -1.549058 0.883497 -0.010431 -0.006107 681346.000000 0 0 1
0.507718 -26.882620 23.687453 35.833343 -1.551912 0.848586 -0.001126 -0.009534 -441729.000000 0 0 1
1.016118 -26.708520 24.980023 36.583864 -1.532770 0.819187 -0.001297 -0.009810 -91127.700000 0 0 1
0.872918 -25.372720 25.409893 35.919348 -1.536406 0.784962 0.005699 -0.009486 -422476.000000 0 0 1
1.887418 -24.978020 26.506403 36.469895 -1.495376 0.757142 0.008874 -0.002613 56321.500000 0 0 1
3.167018 -24.832320 25.881863 36.007568 -1.443945 0.768737 0.004360 0.001523 694602.000000 0 0 1
4.150518 -24.043620 26.576043 36.077812 -1.399856 0.742721 0.013078 0.003322 657813.000000 0 0 1
3.859418 -22.515520 26.686703 35.128676 -1.401035 0.707969 0.012213 0.000260 -672283.000000 0 0 1
3.744618 -21.863720 25.460433 33.768004 -1.401171 0.716695 0.010329 0.001411 365379.000000 0 0 1
2.996618 -20.664420 25.538633 32.988176 -1.426787 0.685385 0.014456 -0.008860 -60404.800000 0 0 1
3.196018 -19.784320 24.295533 31.494552 -1.410637 0.689726 0.015183 -0.006629 1256110.000000 0 0 1
4.577618 -19.355620 24.183753 31.312115 -1.338563 0.688272 0.023162 0.001279 1014240.000000 0 0 1
4.738418 -18.536120 23.009453 29.924493 -1.320524 0.693651 0.019609 0.002788 -344773.000000 0 0 1
6.164818 -18.087520 22.717353 29.685712 -1.242312 0.699348 0.023928 -0.002343 -749550.000000 0 0 1
7.047918 -19.173420 22.432153 30.339655 -1.218540 0.738666 0.014107 0.003247 -323574.000000 0 0 1
8.255118 -18.686020 21.891753 29.942665 -1.154799 0.750831 0.007347 0.006841 194627.000000 0 0 1
9.336018 -18.571820 23.029753 31.023270 -1.104993 0.734243 0.008069 0.001103 -429854.000000 0 0 1
9.250518 -17.456220 23.855353 30.973692 -1.083495 0.691671 0.010338 0.004035 -107325.000000 0 0 1
10.236918 -17.606820 24.833313 32.116788 -1.044152 0.686894 0.008263 0.003395 -291004.000000 0 0 1
10.247918 -16.588120 26.011833 32.508476 -1.017401 0.643242 0.007818 -0.000827 -256745.000000 0 0 1
10.543018 -15.232420 25.712603 31.691005 -0.965363 0.624333 0.009264 -0.000452 119380.000000 0 0 1
10.321918 -14.463220 26.889543 32.230021 -0.950957 0.583932 0.002248 -0.006183 -232993.000000 0 0 1
10.701918 -12.997820 26.755513 31.612211 -0.881971 0.561671 0.000008 -0.005209 -242581.000000 0 0 1
9.800618 -12.205020 25.992893 30.342135 -0.894229 0.542036 0.004350 0.001314 84465.200000 0 0 1
10.170518 -10.828120 25.924753 29.879432 -0.816704 0.520350 0.002326 0.008592 -447948.000000 0 0 1
9.238918 -9.994520 25.049263 28.508133 -0.824664 0.497725 0.012739 0.008977 173739.000000 0 0 1
7.958118 -9.850420 25.660633 28.615215 -0.891259 0.458431 0.009704 0.007238 -611764.000000 0 0 1
7.025018 -9.415320 24.757993 27.403601 -0.929779 0.443028 0.016597 0.013527 -46378.600000 0 0 1
5.584818 -9.490720 25.356893 27.644819 -1.038912 0.409705 0.017758 0.007068 -592121.000000 0 0 1
5.268018 -8.566620 26.368293 28.221018 -1.019459 0.364367 0.017490 0.009629 862028.000000 0 0 1
3.886618 -8.451220 26.758843 28.329571 -1.139750 0.334559 0.012140 0.010365 1293220.000000 0 0 1
2.728018 -8.416120 25.753183 27.230490 -1.257341 0.330907 0.014264 0.009785 -766461.000000 0 0 1
2.803018 -7.316420 24.906753 26.110022 -1.204932 0.304772 0.014243 0.009202 -764916.000000 0 0 1
1.690118 -7.158520 24.098853 25.196342 -1.338943 0.296234 0.025259 -0.000348 -651761.000000 0 0 1
1.746418 -5.807120 23.319453 24.095010 -1.278663 0.254408 0.014188 -0.006114 -444258.000000 0 1 0
1.569818 -4.626920 24.132753 24.622398 -1.243704 0.199762 0.012789 0.004220 40854.500000 0 1 0
1.805318 -3.413320 23.406953 23.723309 -1.084294 0.163493 0.009131 -0.006055 -980907.000000 0 1 0
0.697418 -2.945320 22.439053 22.642270 -1.338290 0.134079 -0.008782 -0.011155 25013.400000 0 1 0
-0.237782 -2.044320 22.978253 23.070238 1.455003 0.089329 0.001339 -0.007851 78429.000000 0 1 0
-1.205382 -2.596320 23.861053 24.032138 1.136143 0.119394 0.011419 0.003221 -511824.000000 0 1 0
-2.090882 -1.499320 24.499483 24.634212 0.622094 0.104634 0.019768 0.007351 -301751.000000 0 1 0
-1.439982 -0.667320 25.425943 25.475428 0.433960 0.062339 0.019785 0.006786 49442.300000 0 0 1
-2.173182 0.489680 25.756803 25.852957 -0.221627 0.086274 0.015535 0.006848 -390919.000000 0 0 1
-1.431682 1.360680 26.781673 26.854407 -0.759976 0.073616 0.021165 -0.001352 -211547.000000 0 0 1
-1.616482 0.878680 28.126363 28.186475 -0.497897 0.065321 0.021671 0.006610 434927.000000 0 0 1
-0.793482 -0.234320 28.518163 28.530162 0.287145 0.029003 0.029131 0.001640 -1233280.000000 0 0 1
0.546718 0.075680 29.109963 29.115195 0.137551 0.018958 0.031999 -0.004385 -884008.000000 0 0 1
1.596818 0.532680 28.275503 28.325565 0.321980 0.059463 0.034104 -0.001137 255600.000000 0 0 1
2.170418 -0.348320 27.347823 27.436025 -0.159128 0.080207 0.027469 -0.003202 -170448.000000 0 0 1
3.221818 -1.390320 27.847463 28.067674 -0.407391 0.125347 0.021927 -0.000564 -274248.000000 0 0 1
2.658118 -2.501320 28.461233 28.694320 -0.755017 0.127547 0.029133 0.002769 -278332.000000 0 0 1
3.583418 -3.489320 28.837013 29.267551 -0.772095 0.171736 0.023145 0.009047 91189.100000 0 0 1
4.161018 -4.361320 27.651593 28.300986 -0.808897 0.214636 0.023713 0.006049 -1717.640000 0 0 1
5.133718 -3.717320 26.884533 27.621579 -0.626717 0.231531 0.020743 0.007254 -418010.000000 0 0 1
5.477218 -4.390320 25.692783 26.634450 -0.675692 0.266704 0.019834 0.008198 -145776.000000 0 0 1
6.659618 -3.723320 24.947933 26.088561 -0.509795 0.296795 0.027855 0.006824 1470340.000000 0 0 1
7.995918 -3.733320 25.530753 27.012807 -0.436821 0.332788 0.021815 0.007508 1591900.000000 0 0 1
8.647118 -5.033120 25.643693 27.526423 -0.527122 0.371998 0.012292 0.010676 213989.000000 0 0 1
9.425618 -5.553820 24.405503 26.745388 -0.532460 0.421411 0.012165 0.006253 -111179.000000 0 0 1
8.503618 -6.007420 23.428853 25.638092 -0.615045 0.418179 0.018766 0.005729 246160.000000 0 0 1
9.039518 -6.065620 22.098653 24.634429 -0.591004 0.457717 0.019160 0.003470 230207.000000 0 1 0
9.277318 -4.736620 21.325753 23.733772 -0.472059 0.454364 0.021490 -0.010456 596780.000000 0 1 0
8.011118 -4.222320 20.930153 22.805204 -0.485059 0.408344 0.028285 -0.016545 -84414.200000 0 1 0
8.018218 -3.004320 20.228653 21.966251 -0.358496 0.400421 0.016985 -0.015819 -132339.000000 0 1 0
6.685718 -2.237320 20.113253 21.313080 -0.322928 0.337140 0.019758 -0.012188 27711.400000 0 1 0
6.348518 -1.659320 21.368153 22.352964 -0.255652 0.297942 0.019409 -0.005651 -880523.000000 0 1 0
5.105018 -1.078320 21.310353 21.939807 -0.208168 0.240118 0.007710 0.000733 -956897.000000 0 1 0
4.495118 -0.525320 22.591053 23.039916 -0.116337 0.197715 0.000659 -0.004906 789341.000000 0 1 0
3.208518 0.100680 22.406553 22.635334 0.031369 0.142298 0.000970 -0.006333 885856.000000 0 1 0
2.564518 0.361680 23.672053 23.813308 0.140108 0.108974 0.008560 -0.006840 -212144.000000 0 1 0
1.155018 0.892680 23.438453 23.483867 0.657978 0.062201 0.011556 -0.015952 -764700.000000 0 1 0
1.053118 2.253680 23.032153 23.166100 1.133659 0.107588 0.009294 -0.013644 1685350.000000 0 1 0
-0.384382 2.492680 22.969853 23.107907 -1.417797 0.109364 0.008690 -0.010535 1387350.000000 0 1 0
-0.770282 3.945680 22.726853 23.079679 -1.378000 0.175079 0.004921 -0.003054 -265634.000000 0 1 0
-0.572682 4.884680 23.736853 24.241004 -1.454089 0.204303 0.005966 -0.001255 -110258.000000 0 1 0
-1.404482 5.942680 23.327853 24.113829 -1.338717 0.256020 0.005846 -0.002532 -293498.000000 0 1 0
-1.210082 7.295680 23.964253 25.079407 -1.406430 0.299327 0.007253 -0.003858 257099.000000 0 0 1
-0.215982 8.227680 23.519053 24.917609 -1.544552 0.336631 0.003300 -0.003258 243021.000000 0 1 0
-0.394082 9.471680 24.138553 25.933333 -1.529214 0.374221 0.008934 0.000629 -512584.000000 0 0 1
0.419518 10.648680 23.570053 25.867311 1.531420 0.424631 0.006102 -0.005944 807812.000000 0 0 1
1.825918 10.776680 23.827553 26.214940 1.402958 0.430085 -0.003639 -0.001299 373528.000000 0 0 1
2.100318 11.092680 25.211763 27.624118 1.383669 0.421021 -0.004829 -0.003495 -397966.000000 0 0 1
3.417918 11.906680 25.157833 28.042249 1.291254 0.457544 -0.003459 -0.006313 657047.000000 0 0 1
4.687618 11.337680 24.840853 27.705319 1.178745 0.458744 0.007267 -0.004764 578308.000000 0 0 1
4.821118 10.696680 23.562453 26.322069 1.147351 0.462007 0.003248 -0.005225 -1661310.000000 0 0 1
6.224018 10.411680 23.083053 26.076212 1.032002 0.483840 0.011512 0.000199 -548736.000000 0 0 1
6.921218 11.484680 22.469153 26.166084 1.028432 0.538044 0.010951 -0.000322 -715880.000000 0 0 1
8.143018 11.036680 22.003953 25.928575 0.935140 0.557393 0.012973 0.009102 -756357.000000 0 0 1
8.997718 12.019680 21.229353 26.002251 0.928203 0.615573 0.011648 -0.010795 -479609.000000 0 0 1
8.544318 12.300680 19.912353 24.916137 0.963689 0.644875 0.013348 -0.014427 295459.000000 0 1 0
9.366418 13.227680 19.169053 25.102866 0.954660 0.701895 0.021944 -0.015800 386315.000000 0 0 1
10.743618 12.733680 18.637753 24.998755 0.869961 0.729441 0.010178 -0.009776 252871.000000 0 1 0
11.701218 12.713680 19.683253 26.191346 0.826843 0.720437 -0.000206 -0.010423 -622278.000000 0 0 1
12.955418 12.400680 19.154553 26.239600 0.763524 0.752494 -0.001225 -0.009321 -523974.000000 0 0 1
14.032318 12.140680 20.207253 27.434197 0.713249 0.742809 -0.006321 -0.002205 -142094.000000 0 0 1
14.584818 13.284680 20.841353 28.697764 0.738781 0.757965 -0.011820 -0.001394 -170146.000000 0 0 1
15.626318 12.952680 21.721353 29.728285 0.692117 0.751504 -0.009604 0.001084 128522.000000 0 0 1
16.345918 14.175680 22.352853 31.109307 0.714413 0.769115 -0.010431 0.006629 338449.000000 0 0 1
15.512918 14.838680 23.313553 31.691620 0.763188 0.744189 -0.012751 0.009856 716752.000000 0 0 1
16.190318 16.022680 23.744453 32.903673 0.780194 0.764635 -0.004904 0.011780 42892.800000 0 0 1
-20.084782 12.814289 -25.383314 34.812599 -0.567900 2.387863 -0.005500 0.000112 -169442.000000 0 0 1
-19.850082 12.791089 -26.784824 35.708045 -0.572418 2.419019 -0.000141 -0.002693 206605.000000 0 0 1
-20.625082 13.813689 -27.404964 36.976263 -0.590136 2.405578 0.001403 -0.003750 -5489.340000 0 0 1
-20.321482 13.973089 -28.868394 37.968329 -0.602357 2.434615 0.005868 0.003331 697048.000000 0 0 1
-19.012782 14.435789 -29.257814 37.761058 -0.649406 2.457218 0.007361 0.002912 486299.000000 0 0 1
-18.801582 14.656189 -30.648094 38.827941 -0.662127 2.480515 0.020047 -0.000130 -373667.000000 0 0 1
-17.366582 15.042789 -31.023354 38.604820 -0.713819 2.504138 0.022186 0.002445 -223647.000000 0 0 1
-16.558382 13.860089 -31.197444 37.941568 -0.696924 2.536149 0.026724 -0.003552 -482316.000000 0 0 1
-15.272982 14.188589 -30.749734 37.150049 -0.748608 2.545824 0.018535 0.000075 -416382.000000 0 0 1
-14.650982 13.820289 -29.419154 35.653026 -0.756230 2.541267 0.021182 0.006325 -98444.100000 0 0 1
-15.381682 14.411389 -28.333094 35.313573 -0.752842 2.501983 0.016465 -0.001857 -234423.000000 0 0 1
-16.075582 13.393689 -27.694744 34.710432 -0.694642 2.494566 0.021923 0.002857 -305301.000000 0 0 1
-16.793982 13.909589 -26.422164 34.258506 -0.691730 2.451612 0.020586 -0.000736 -500914.000000 0 0 1
-15.946082 14.109089 -25.310944 33.075486 -0.724353 2.442223 0.034857 -0.004959 -230044.000000 0 0 1
-16.684882 14.600789 -24.246854 32.855414 -0.718881 2.400878 0.014116 -0.007429 -592645.000000 0 0 1
-15.969682 15.090289 -22.979654 31.793270 -0.757093 2.378618 0.023410 -0.007559 -212828.000000 0 0 1
-15.284482 16.303189 -23.278254 32.268970 -0.817637 2.376592 0.002900 -0.010452 -85703.700000 0 0 1
-14.694082 16.909989 -22.154154 31.506670 -0.855398 2.350625 0.008455 -0.009803 -339150.000000 0 0 1
-14.335482 18.398289 -22.456854 32.377667 -0.908883 2.337258 0.005516 -0.014310 585234.000000 0 0 1
-15.475382 19.274989 -22.574454 33.475642 -0.894306 2.310887 -0.008704 -0.012045 821230.000000 0 0 1
-16.237482 19.020789 -23.733354 34.477794 -0.864175 2.330031 -0.015574 -0.010918 -135269.000000 0 0 1
-17.476382 19.914889 -24.004554 35.752557 -0.850522 2.306903 -0.017203 -0.003275 68472.400000 0 0 1
-17.156982 21.215689 -24.513954 36.679714 -0.890777 2.302751 -0.014453 -0.005746 187921.000000 0 0 1
-18.363482 21.945489 -24.660954 37.775449 -0.874029 2.282111 -0.000139 -0.006574 281265.000000 0 0 1
-18.178182 23.448289 -25.050254 38.830191 -0.911333 2.271981 -0.000355 -0.009372 -31448.500000 0 0 1
-17.592582 24.082189 -23.960054 38.256175 -0.939878 2.247601 -0.006958 -0.000934 -230675.000000 0 0 1
-16.706482 25.105489 -24.372654 38.773939 -0.983636 2.250527 -0.013140 -0.008239 -274148.000000 0 0 1
-15.701982 25.422689 -23.208754 37.835322 -1.017510 2.231174 -0.019690 -0.005719 396042.000000 0 0 1
-14.564082 24.563589 -23.047954 36.697282 -1.035604 2.249849 -0.014861 -0.012558 485643.000000 0 0 1
-14.876482 23.289689 -22.522254 35.650683 -1.002365 2.254603 -0.009281 -0.008083 -616514.000000 0 0 1
-13.644982 22.442889 -22.203954 34.393086 -1.024525 2.272597 0.001029 -0.010176 -108787.000000 0 0 1
-12.797282 22.856889 -21.156154 33.671808 -1.060394 2.250168 0.004538 -0.010889 266780.000000 0 0 1
-11.911982 21.779089 -20.806654 32.390444 -1.070301 2.268383 0.013260 -0.008083 311771.000000 0 0 1
-11.280882 21.993689 -19.393354 31.417874 -1.096871 2.236066 0.015179 -0.007263 214668.000000 0 0 1
-12.255482 21.900089 -18.376454 31.104739 -1.060606 2.202837 0.010582 -0.003612 592291.000000 0 0 1
-13.107682 23.061089 -18.203654 32.171387 -1.053944 2.172240 0.003106 -0.003999 376066.000000 0 0 1
-13.902282 23.035889 -16.846554 31.744794 -1.027803 2.130207 0.008379 -0.003051 -172231.000000 0 0 1
-13.193882 23.377189 -15.673754 31.084369 -1.056971 2.099289 0.012851 -0.001154 -183042.000000 0 0 1
-13.952782 23.323189 -14.458454 30.784706 -1.031675 2.059706 0.009130 0.003879 -77556.600000 0 0 1
-13.182982 23.696289 -13.181554 30.150596 -1.063105 2.023269 0.006927 0.007461 -296588.000000 0 0 1
-12.764582 25.030089 -13.120154 31.009326 -1.099205 2.007664 0.003015 0.002742 347418.000000 0 0 1
-11.811082 25.209389 -12.085554 30.349226 -1.132649 1.980368 0.001782 0.003471 -55211.200000 0 0 1
-11.464282 26.704889 -11.810854 31.370003 -1.165293 1.956813 -0.002734 -0.000718 53531.400000 0 0 1
-10.709982 27.350689 -12.831654 32.053318 -1.197570 1.982665 -0.001446 -0.009511 267614.000000 0 0 1
-10.624782 28.736689 -12.568054 33.115544 -1.216655 1.960075 0.003896 -0.008578 -879006.000000 0 0 1
-10.150782 29.662689 -13.717354 34.221035 -1.241081 1.983236 0.006412 -0.013205 681182.000000 0 0 1
-8.751182 29.740889 -14.004654 34.018142 -1.284625 1.995095 0.005954 -0.001491 487145.000000 0 0 1
-8.158282 28.507989 -14.389754 32.959490 -1.292071 2.022600 0.009944 0.001479 -1047720.000000 0 0 1
-6.897082 28.702089 -15.212054 33.208225 -1.334969 2.046631 0.010219 0.005204 694317.000000 0 0 1
-5.843182 29.429189 -14.525854 33.334972 -1.374795 2.021672 0.002466 0.004322 422853.000000 0 0 1
-4.606382 29.467289 -15.209554 33.479402 -1.415729 2.042378 -0.002575 0.008071 813512.000000 0 0 1
-3.464782 30.165489 -14.392454 33.602145 -1.456438 2.013429 -0.009026 0.000055 257407.000000 0 0 1
-3.437982 31.588789 -14.405254 34.888144 -1.462388 1.996430 -0.011462 -0.009556 109308.000000 0 0 1
-4.526382 32.228089 -13.743454 35.327332 -1.431261 1.970377 -0.013696 -0.016361 32676.600000 0 0 1
-4.533182 33.773489 -13.981554 36.833166 -1.437371 1.960151 -0.011649 -0.023376 -115959.000000 0 0 1
-3.541382 34.452089 -13.245554 37.080082 -1.468365 1.936081 -0.013811 -0.024576 -194501.000000 0 0 1
-3.438282 -33.663620 -13.677254 36.498334 1.469013 1.954909 -0.014348 -0.022326 203944.000000 0 0 1
-2.492582 -32.866820 -12.758654 35.344364 1.495102 1.940116 -0.016016 -0.022496 -79238.600000 0 0 1
-3.028482 -32.585920 -11.462254 34.675599 1.478124 1.907690 -0.010528 -0.018849 399374.000000 0 0 1
-2.038582 -31.997120 -10.610654 33.772141 1.507171 1.890393 -0.010821 -0.019786 105891.000000 0 0 1
-2.491882 -31.929420 -9.135954 33.304099 1.492911 1.848678 -0.010125 -0.012729 -702029.000000 0 0 1
-1.626082 -31.199220 -8.329954 32.333011 1.518724 1.831365 -0.013778 -0.016069 -498109.000000 0 0 1
-1.985782 -31.270020 -6.977254 32.100460 1.507377 1.789902 -0.005275 -0.022015 -518445.000000 0 0 1
-0.766982 -31.098320 -6.077754 31.695944 1.546138 1.763743 -0.006106 -0.012736 -459098.000000 0 0 1
-0.987782 -31.211020 -4.669654 31.573868 1.539158 1.719237 0.006868 -0.008686 -453975.000000 0 0 1
0.152018 -30.787120 -3.975454 31.043101 -1.565859 1.699211 0.007632 -0.003091 -273330.000000 0 0 1
0.120518 -30.842920 -2.416554 30.937679 -1.566889 1.648986 0.008507 0.004205 -582363.000000 0 0 1
0.014318 -32.138420 -1.822754 32.190071 -1.570351 1.627451 0.013307 0.002346 690389.000000 0 0 1
1.126918 -33.040720 -1.981154 33.119241 -1.536703 1.630651 0.011201 0.000437 -535093.000000 0 0 1
2.478318 -32.686220 -1.458354 32.812465 -1.495120 1.615256 0.005066 0.005951 -1749320.000000 0 0 1
2.519818 -32.829120 -0.053854 32.925727 -1.494191 1.572432 0.010128 0.003406 216925.000000 0 0 1
3.750418 -32.376920 0.512046 32.597435 -1.455474 1.555088 0.004079 0.001367 418580.000000 0 0 1
3.971718 -30.811120 0.664746 31.073165 -1.442598 1.549402 0.002094 0.003163 -335645.000000 0 0 1
4.193118 -30.223720 -0.626854 30.519640 -1.432940 1.591337 0.003311 -0.000515 174498.000000 0 0 1
4.143418 -28.852920 -0.510054 29.153372 -1.428167 1.588293 0.012112 0.000539 -442920.000000 0 0 1
3.848818 -28.187020 -1.811954 28.506222 -1.435090 1.634403 0.009247 -0.001358 1794860.000000 0 0 1
2.469818 -28.374920 -2.322054 28.576704 -1.483973 1.652143 0.004181 0.000304 2048310.000000 0 0 1
2.018618 -27.326020 -3.153854 27.581389 -1.497059 1.685394 -0.003285 -0.000594 33055.100000 0 0 1
2.545018 -27.371420 -4.614354 27.874074 -1.478082 1.737105 -0.007485 0.001136 21677.700000 0 0 1
1.885018 -28.364720 -5.379754 28.931858 -1.504437 1.757831 -0.006622 -0.003800 298252.000000 0 0 1
2.595918 -28.456020 -6.606654 29.328003 -1.479823 1.798014 -0.001151 -0.010966 -418571.000000 0 0 1
1.946918 -29.316320 -7.722254 30.378781 -1.504483 1.827816 -0.012297 -0.005216 -622584.000000 0 0 1
0.784318 -28.703720 -8.186654 29.858667 -1.543479 1.848533 -0.012983 -0.003228 -711547.000000 0 0 1
0.382218 -29.054220 -9.531354 30.580067 -1.557642 1.887762 -0.011501 0.002899 178072.000000 0 0 1
-0.949082 -28.360320 -9.916654 30.059084 1.537344 1.907000 -0.018842 -0.000359 -531141.000000 0 0 1
-0.895582 -26.959020 -9.651154 28.648484 1.537588 1.914400 -0.021809 0.000875 490911.000000 0 0 1
-2.209982 -26.371820 -9.589854 28.148219 1.487191 1.918448 -0.007742 -0.000743 1569190.000000 0 0 1
-3.059882 -26.859520 -8.329354 28.287362 1.457364 1.869681 -0.000171 -0.003622 -239539.000000 0 0 1
-2.459382 -26.552620 -7.104054 27.596336 1.478437 1.831155 0.004586 -0.004409 -237418.000000 0 0 1
-1.768082 -27.641420 -6.490754 28.448271 1.506918 1.800984 -0.005418 -0.003447 225977.000000 0 0 1
-1.423382 -27.258020 -5.082854 27.764385 1.518625 1.754906 0.001852 0.005092 -296229.000000 0 0 1
-2.537182 -27.337720 -4.244654 27.781384 1.478253 1.724185 0.001947 0.002881 -328141.000000 0 0 1
-2.203082 -26.990220 -2.901954 27.235031 1.489352 1.677551 0.002302 0.008377 548386.000000 0 0 1
-3.386882 -27.111020 -1.878354 27.386248 1.446514 1.639438 0.004550 0.007093 647173.000000 0 0 1
-4.423782 -26.158020 -1.968354 26.602374 1.403264 1.644856 0.003745 0.008590 26953.100000 0 0 1
-5.210182 -26.167420 -0.782954 26.692562 1.374257 1.600133 0.010569 0.010238 557633.000000 0 0 1
-6.282382 -24.999920 -0.689654 25.786430 1.324598 1.597544 0.004131 0.006680 662033.000000 0 0 1
-5.689582 -23.777120 -0.278154 24.449952 1.335925 1.582173 -0.004163 0.009972 -121892.000000 0 1 0
-6.586582 -22.825720 0.262646 23.758484 1.289868 1.559741 -0.004637 0.002159 -294628.000000 0 1 0
-5.942982 -21.483120 0.561446 22.297056 1.300911 1.545613 -0.005484 -0.002736 225226.000000 0 1 0
-5.045682 -21.561120 1.662946 22.205995 1.340916 1.495839 -0.007918 -0.000496 -674967.000000 0 1 0
-4.152582 -20.535220 1.624846 21.013789 1.371269 1.493396 -0.011376 0.000636 -1081590.000000 0 1 0
-3.188682 -20.456120 2.807646 20.892664 1.416162 1.436004 -0.005799 0.004685 -633235.000000 0 1 0
-3.771382 -20.169220 4.062846 20.917158 1.385944 1.375319 -0.009196 0.001038 -472965.000000 0 1 0
-2.994582 -20.132820 5.235046 21.016748 1.423138 1.319057 0.004197 0.002787 -166517.000000 0 1 0
-2.074582 -21.332020 5.644646 22.163506 1.473849 1.313277 -0.009952 -0.003354 282496.000000 0 1 0
-1.031982 -21.550820 4.728646 22.087619 1.522947 1.355040 0.004755 -0.008492 -603723.000000 0 1 0
-0.609982 -22.881420 4.916246 23.411556 1.544144 1.359229 0.000407 -0.011128 -550153.000000 0 1 0
0.287418 -23.334820 3.726146 23.632194 -1.558480 1.412463 0.006225 -0.009289 647504.000000 0 1 0
1.499518 -22.612820 3.551646 22.939102 -1.504581 1.415342 -0.002683 -0.009125 652008.000000 0 1 0
2.556618 -23.103520 4.402546 23.657797 -1.460585 1.383612 0.006907 -0.005936 -291102.000000 0 1 0
3.780818 -22.202920 4.486446 22.965027 -1.402129 1.374172 0.010564 -0.001881 -294984.000000 0 1 0
4.484118 -22.102220 3.270646 22.788431 -1.370632 1.426777 0.003813 0.004376 -622188.000000 0 1 0
5.366818 -21.007320 3.415946 21.949463 -1.320673 1.414533 0.012198 0.001344 -15311.500000 0 1 0
6.016518 -20.705220 2.102646 21.663928 -1.288004 1.473586 0.013167 0.004615 -579009.000000 0 1 0
6.836018 -21.699620 1.601746 22.807241 -1.265609 1.500509 0.012811 0.008254 -518452.000000 0 1 0
6.636618 -21.880620 0.206946 22.865893 -1.276305 1.561746 0.012696 0.003218 -175037.000000 0 1 0
7.735418 -22.801920 -0.313154 24.080331 -1.243735 1.583801 0.008549 0.007626 -521932.000000 0 1 0
8.961118 -22.197420 -0.566954 23.944698 -1.187104 1.594476 0.007625 0.008555 -1455500.000000 0 1 0
9.669818 -23.069420 -1.375654 25.051865 -1.173881 1.625736 0.009223 0.002427 684729.000000 0 0 1
11.034718 -22.482520 -1.924454 25.118365 -1.114525 1.647487 0.009985 0.004344 933820.000000 0 0 1
10.873518 -21.342420 -2.701854 24.104612 -1.099594 1.683121 0.011535 0.006807 -103213.000000 0 1 0
12.075318 -21.110520 -3.430054 24.560795 -1.051216 1.710910 0.006748 0.003259 309312.000000 0 1 0
12.137118 -19.939020 -4.364254 23.747018 -1.023996 1.755628 0.002504 -0.002945 -212937.000000 0 1 0
12.246618 -18.737720 -3.633954 22.677906 -0.991908 1.731732 0.011788 0.003057 -176940.000000 0 1 0
12.592218 -17.680020 -4.506554 22.168809 -0.951910 1.775507 0.014625 -0.001977 -983837.000000 0 1 0
13.035018 -16.410120 -3.732954 21.287055 -0.899523 1.747070 0.041100 0.000058 -372647.000000 0 1 0
14.361418 -16.475920 -3.305654 22.105059 -0.853861 1.720902 0.028448 0.011093 -254649.000000 0 1 0
15.285618 -16.089120 -4.302854 22.605850 -0.811002 1.762307 0.016999 0.003930 -651105.000000 0 1 0
16.752618 -15.889120 -3.909554 23.417920 -0.758951 1.738529 0.007050 0.011245 -28935.300000 0 1 0
17.451418 -17.038820 -3.433254 24.630482 -0.773436 1.710642 0.005939 0.017605 -361110.000000 0 1 0
18.816718 -16.847720 -3.586354 25.510321 -0.730245 1.711848 -0.017129 0.029820 -780015.000000 0 0 1
19.671118 -17.554020 -2.502854 26.483217 -0.728587 1.665445 -0.007360 0.011343 -1150370.000000 0 0 1
21.020618 -17.603820 -2.748554 27.555679 -0.697166 1.670708 -0.021035 0.016353 -787796.000000 0 0 1
21.636418 -18.301520 -1.648854 28.386598 -0.702089 1.628915 -0.014460 0.016284 176546.000000 0 0 1
23.174018 -18.180520 -1.536354 29.494522 -0.665231 1.622909 -0.006170 0.014110 144129.000000 0 0 1
23.548018 -16.881720 -1.020154 28.992109 -0.621983 1.605991 -0.011845 0.016746 -1567900.000000 0 0 1
24.790418 -16.937320 -0.503054 30.028165 -0.599376 1.587550 0.000425 0.016684 -1781670.000000 0 0 1
25.240418 -15.579320 -0.022954 29.661329 -0.552997 1.571570 -0.007255 0.020465 44267.600000 0 0 1
24.645418 -15.233920 1.223246 28.999402 -0.553639 1.528602 -0.020776 0.023273 162841.000000 0 0 1
25.534218 -14.412620 1.907046 29.382933 -0.513865 1.505847 -0.019250 0.011583 -221945.000000 0 0 1
24.981118 -13.790520 3.198946 28.713550 -0.504406 1.459156 -0.005173 0.009399 -163701.000000 0 0 1
24.502718 -14.585020 4.268746 28.832763 -0.536913 1.422198 -0.001169 0.010045 55367.200000 0 0 1
25.502218 -15.267220 5.017846 30.143489 -0.539435 1.403552 -0.009520 0.004835 105860.000000 0 0 1
24.832518 -16.052720 6.146246 30.201327 -0.573868 1.365856 0.007368 -0.000361 170576.000000 0 0 1
24.178518 -17.201820 5.707646 30.217223 -0.618370 1.380768 0.001281 0.004634 -263376.000000 0 0 1
23.237218 -17.574220 6.693246 29.893496 -0.647519 1.344979 -0.000473 -0.001096 316587.000000 0 0 1
22.505318 -18.973020 6.544746 30.154578 -0.700443 1.352015 -0.004767 -0.000349 175467.000000 0 0 1
23.417518 -20.000620 6.800846 31.538175 -0.706863 1.353451 -0.003162 0.000466 -430445.000000 0 0 1
22.777318 -21.274020 6.962946 31.935447 -0.751285 1.350999 -0.015499 -0.002686 -79403.700000 0 0 1
1.617218 23.520389 -2.926754 23.756893 1.502146 1.694306 0.009329 -0.007062 -15751.300000 0 1 0
2.375418 24.631289 -2.542354 24.875823 1.474655 1.673177 0.010711 -0.006547 -919171.000000 0 1 0
3.187918 25.057389 -3.553554 25.508103 1.444251 1.710562 0.008067 -0.000451 -492459.000000 0 0 1
4.151118 26.130589 -2.993654 26.627080 1.413252 1.683463 0.006852 -0.000479 108488.000000 0 0 1
5.189618 25.558689 -2.218054 26.174386 1.370473 1.655639 0.004848 -0.000754 -498269.000000 0 0 1
6.038718 26.486489 -1.644754 27.215904 1.346635 1.631267 0.008459 -0.001791 -693833.000000 0 0 1
7.166318 25.887389 -0.826654 26.873711 1.300733 1.601562 0.002657 -0.009597 -205050.000000 0 0 1
8.175518 25.317889 -1.635654 26.655392 1.258452 1.632198 -0.000464 -0.007036 -281148.000000 0 0 1
9.149818 24.593689 -0.895954 26.255884 1.214624 1.604927 -0.003821 -0.008555 598769.000000 0 0 1
10.416818 24.349589 -1.786954 26.544411 1.166554 1.638167 -0.005708 -0.005736 -428843.000000 0 0 1
11.120618 25.563789 -1.996554 27.949270 1.160474 1.642292 -0.007007 -0.000141 435713.000000 0 0 1
12.127818 25.579789 -3.027054 28.470557 1.128069 1.677320 -0.005980 0.000798 1003930.000000 0 0 1
13.304118 24.564389 -3.038154 28.100518 1.074424 1.679125 0.004771 -0.003516 -667788.000000 0 0 1
12.925818 23.176489 -3.196854 26.729128 1.062051 1.690685 0.018443 -0.006209 -267429.000000 0 0 1
12.701118 22.878089 -4.556654 26.561032 1.063996 1.743203 0.009743 -0.004630 -55246.200000 0 0 1
11.928418 21.505889 -4.688554 25.035434 1.064384 1.759185 0.017052 -0.005892 1620560.000000 0 0 1
10.518918 21.714089 -4.354254 24.517521 1.119684 1.749341 0.017064 -0.002058 919851.000000 0 1 0
9.804118 20.567589 -4.623654 23.249185 1.125980 1.771005 0.009461 0.004866 -439143.000000 0 1 0
8.283518 20.778189 -4.696354 22.856193 1.191442 1.777744 -0.000966 0.005147 -240077.000000 0 1 0
7.785318 21.171289 -3.454854 22.820400 1.218415 1.722774 0.002229 -0.004778 228995.000000 0 1 0
6.480218 21.742189 -3.623354 22.974871 1.281131 1.729167 0.002258 0.006679 843344.000000 0 1 0
5.901418 22.458789 -2.361054 23.340919 1.313839 1.672125 0.012031 -0.002584 149843.000000 0 1 0
5.429718 21.517089 -1.448354 22.238810 1.323612 1.635970 0.011449 -0.010916 -225451.000000 0 1 0
4.620918 22.188889 -0.506654 22.670606 1.365477 1.593147 0.010727 -0.007733 237462.000000 0 1 0
4.314718 21.384089 0.786746 21.829224 1.371697 1.534748 0.006499 -0.004338 202768.000000 0 1 0
3.458218 21.959389 1.767046 22.300145 1.414597 1.491474 0.009135 -0.000765 254503.000000 0 1 0
3.006118 21.014989 2.703946 21.400416 1.428714 1.444108 0.002659 -0.007334 -232436.000000 0 1 0
2.006418 21.519589 3.739346 21.934017 1.477828 1.399478 -0.003315 -0.001077 96547.700000 0 1 0
0.728718 21.786189 3.164446 22.026865 1.537360 1.426634 0.003036 0.002753 -172472.000000 0 1 0
-0.143782 22.260989 4.161946 22.647165 -1.564338 1.385972 -0.005610 -0.003506 -188647.000000 0 1 0
-1.602682 22.193589 3.678146 22.553331 -1.498708 1.406978 -0.006951 -0.009997 -142246.000000 0 1 0
-2.497782 22.388789 4.754446 23.023934 -1.459692 1.362800 0.000267 -0.013339 -125627.000000 0 1 0
-3.836282 22.514989 4.311746 23.242911 -1.402029 1.384208 0.001858 -0.005635 234297.000000 0 1 0
-4.815382 23.052289 5.358346 24.151766 -1.364868 1.347073 0.009348 -0.011249 -473895.000000 0 1 0
-4.816382 24.470789 5.655846 25.573534 -1.376459 1.347792 0.008930 0.000514 -267942.000000 0 0 1
-5.845482 24.827789 6.529346 26.329092 -1.339566 1.320192 0.017734 -0.004799 -159784.000000 0 0 1
-6.020282 26.323089 6.833946 27.854113 -1.345956 1.322918 0.022169 -0.006952 549018.000000 0 0 1
-4.963682 26.865989 7.678946 28.379318 -1.388099 1.296798 0.015802 -0.009140 647628.000000 0 0 1
-5.153782 28.161289 8.241146 29.791545 -1.389790 1.290514 0.019158 -0.006494 -186646.000000 0 0 1
-5.471282 29.350689 7.340546 30.745430 -1.386501 1.329715 0.012922 -0.008200 -762688.000000 0 0 1
-6.769882 29.314389 6.875446 30.861569 -1.343835 1.346128 0.027299 -0.010837 -1282180.000000 0 0 1
-7.027282 30.473689 6.166546 31.875613 -1.344157 1.376112 0.022988 -0.010825 -31870.100000 0 0 1
-8.520382 30.546989 5.771946 32.234000 -1.298783 1.390761 0.025908 -0.013705 336418.000000 0 0 1
-9.399982 31.007389 6.770846 33.100788 -1.276449 1.364790 0.029153 -0.011786 -57346.100000 0 0 1
-9.926682 30.067589 7.725946 32.592777 -1.251917 1.331474 0.009860 -0.009453 -445211.000000 0 0 1
-10.877482 30.645989 8.755246 33.677152 -1.229728 1.307799 -0.002224 -0.012102 -757333.000000 0 0 1
-10.223282 31.346789 9.809946 34.400170 -1.255538 1.281611 0.006549 -0.014180 202281.000000 0 0 1
-11.099982 31.418589 10.926846 35.067553 -1.231190 1.253926 0.006505 -0.006840 44343.500000 0 0 1
-10.381682 31.870589 12.257746 35.689860 -1.255891 1.220207 0.003818 -0.007905 -20736.700000 0 0 1
-10.075982 33.267789 12.298146 36.871609 -1.276704 1.230741 0.002044 -0.006675 366489.000000 0 0 1
-9.091182 33.650489 13.254446 37.291893 -1.306931 1.207428 -0.003673 -0.007154 263589.000000 0 0 1
-8.737682 -34.308520 13.327746 37.829228 1.321418 1.210754 -0.005994 -0.009747 477152.000000 0 0 1
-9.693982 -33.510320 14.069346 37.614643 1.289200 1.187436 -0.000237 0.004613 491636.000000 0 0 1
-9.266782 -32.141020 14.061346 36.285533 1.290093 1.172857 0.005211 0.014586 532967.000000 0 0 1
-10.331182 -31.168720 14.673646 35.965794 1.250733 1.150546 -0.000396 0.000450 434832.000000 0 0 1
-10.588882 -31.212620 16.111146 36.686797 1.243730 1.116140 0.000219 -0.000458 221181.000000 0 0 1
-9.551882 -30.511720 16.766646 36.101578 1.267405 1.087806 0.004232 0.013392 150048.000000 0 0 1
-9.535282 -30.925920 18.292846 37.174754 1.271718 1.056322 -0.005720 0.002337 395339.000000 0 0 1
-10.697382 -30.501520 19.011746 37.499643 1.233483 1.039113 0.014438 -0.001511 675964.000000 0 0 1
-10.950682 -31.403520 20.080546 38.850056 1.235272 1.027602 0.012843 -0.002980 -168914.000000 0 0 1
-11.096682 -30.634220 21.359346 38.959125 1.223267 0.990526 0.017730 0.003861 74031.000000 0 0 1
-9.841782 -30.179120 21.822346 38.520835 1.255559 0.968535 0.017276 -0.004800 201506.000000 0 0 1
-9.981582 -29.267320 22.921846 38.491805 1.242118 0.932909 0.011774 -0.004279 733525.000000 0 0 1
-8.791682 -29.333520 23.958946 38.881617 1.279601 0.906885 0.011993 -0.001509 724541.000000 0 0 1
-8.834682 -30.545720 24.709246 40.269585 1.289251 0.910190 0.014205 0.002472 -639842.000000 0 0 1
-7.648182 -30.607020 25.414346 40.511398 1.325928 0.892666 0.014409 0.007086 -601990.000000 0 0 1
-7.592082 -31.704020 26.470846 41.993932 1.335755 0.888793 0.020421 0.009228 -154909.000000 0 0 1
-7.284382 -32.875420 25.759846 42.396051 1.352744 0.917761 0.023293 0.013632 309619.000000 0 0 1
-7.630782 -34.051920 26.453746 43.789985 1.350346 0.922154 0.024360 0.011115 -373967.000000 0 0 1
-7.350582 34.219689 25.557046 43.337983 -1.359206 0.940091 0.016136 0.007032 675298.000000 0 0 1
-5.958682 33.868589 25.370046 42.734371 -1.396643 0.935186 0.011043 0.007905 1219700.000000 0 0 1
-5.635582 32.574389 24.833346 41.346652 -1.399486 0.926528 0.017384 0.001499 -178647.000000 0 0 1
-6.366082 32.183789 23.529946 40.373031 -1.375513 0.948610 0.019073 0.002414 698860.000000 0 0 1
-7.655182 31.591189 23.762546 40.264918 -1.333059 0.939545 0.013161 -0.003327 1181250.000000 0 0 1
-8.521382 31.522489 22.606646 39.715761 -1.306780 0.965250 0.009489 -0.000823 435992.000000 0 0 1
-9.584882 30.405489 22.798646 39.193647 -1.265422 0.949989 0.014283 -0.005850 141270.000000 0 0 1
-9.098982 29.126389 22.413646 37.861716 -1.268006 0.937274 0.004973 -0.000554 -36844.200000 0 0 1
-9.611082 28.037289 23.189946 37.632912 -1.240553 0.906869 -0.001613 0.006101 -258177.000000 0 0 1
-9.102782 26.636289 22.703846 36.163754 -1.241496 0.892064 -0.005474 -0.000853 -498072.000000 0 0 1
-7.789382 26.465289 23.142746 36.009341 -1.284555 0.872796 -0.009851 -0.000661 -543190.000000 0 0 1
-7.299082 25.183089 22.851646 34.780199 -1.288686 0.853924 -0.007519 -0.005670 -651180.000000 0 0 1
-5.851682 24.924889 23.219146 34.563290 -1.340200 0.834179 -0.016015 0.001621 -1169850.000000 0 0 1
-4.971082 25.701789 22.483246 34.507824 -1.379742 0.861183 -0.016139 0.004050 -499547.000000 0 0 1
-3.706282 25.447289 23.079146 34.553553 -1.426168 0.839381 0.000498 0.005549 324060.000000 0 0 1
-2.465782 25.865989 22.235446 34.198604 -1.475754 0.862967 0.002301 0.006156 266058.000000 0 0 1
-2.201082 24.839489 21.271346 32.776747 -1.482415 0.864558 0.002521 0.012971 -245715.000000 0 0 1
-1.249582 25.312689 20.365446 32.512229 -1.521471 0.893879 0.002476 0.012133 -326409.000000 0 0 1
-0.932782 24.234389 19.309346 31.000428 -1.532325 0.898386 0.004231 0.010136 -608039.000000 0 0 1
-0.197782 23.135589 19.796146 30.449663 -1.562248 0.863045 0.007188 0.005708 -187704.000000 0 0 1
0.154518 22.236889 18.779446 29.106197 1.563848 0.869506 0.000000 0.002964 -600727.000000 0 0 1
1.232818 21.196489 19.232346 28.647759 1.512700 0.834783 0.006039 -0.004424 1183400.000000 0 0 1
2.509418 21.850589 19.009146 29.070484 1.456453 0.858071 0.007163 -0.001549 594215.000000 0 0 1
3.577018 21.102889 19.578146 29.007426 1.402889 0.829919 0.012175 0.000379 151326.000000 0 0 1
4.986218 21.566489 19.194646 29.298639 1.343586 0.856431 0.009087 -0.000634 268099.000000 0 0 1
5.914218 20.457289 19.184246 28.662064 1.289369 0.837496 0.014335 -0.003006 -19632.900000 0 0 1
7.201318 20.987689 18.942346 29.174553 1.240263 0.864164 0.020628 0.002432 232784.000000 0 0 1
8.277718 19.907389 18.597946 28.472941 1.176734 0.859020 0.014291 0.006383 306496.000000 0 0 1
8.715118 19.358489 19.855946 29.068247 1.147779 0.818824 0.011443 0.004647 -336740.000000 0 0 1
9.794218 18.481389 19.638846 28.690987 1.083477 0.816885 0.013864 0.004572 50035.600000 0 0 1
10.243318 17.745589 20.924846 29.286186 1.047286 0.774894 0.013492 -0.004187 -438268.000000 0 0 1
9.283818 16.793489 21.343646 28.701250 1.065789 0.732285 0.017129 -0.005738 -229930.000000 0 0 1
9.654918 16.115589 22.514746 29.323087 1.031036 0.695371 0.021393 -0.007727 -79758.700000 0 0 1
8.598118 15.186689 23.162246 29.000910 1.055630 0.645709 0.013923 -0.008292 -396781.000000 0 0 1
7.452818 15.774289 23.696446 29.426081 1.129417 0.634637 0.014149 -0.001045 -682490.000000 0 0 1
6.419718 14.919089 24.087346 29.051544 1.164443 0.593257 0.008630 0.000125 50359.500000 0 0 1
6.703118 13.833289 25.224846 29.539542 1.119573 0.547296 0.006304 0.002818 -609444.000000 0 0 1
7.016118 14.389489 26.477246 30.940715 1.117129 0.543815 0.006963 0.001196 -124010.000000 0 0 1
7.334418 13.414889 27.420446 31.394805 1.070462 0.508641 0.000330 0.001243 -266138.000000 0 0 1
8.355818 13.957889 28.490546 32.807828 1.031374 0.518816 -0.003152 0.005041 -712555.000000 0 0 1
9.649918 14.119289 28.065346 32.865467 0.971260 0.547274 0.004819 0.009544 -979269.000000 0 0 1
9.905918 15.316389 27.399546 32.915864 0.996707 0.587351 0.002886 0.007846 -1293900.000000 0 0 1
11.210718 15.352689 26.630046 32.719178 0.940080 0.619968 0.007021 0.009514 -474435.000000 0 0 1
11.167818 14.560989 25.453046 31.378338 0.916524 0.624653 0.005028 0.008360 -428758.000000 0 0 1
12.439418 14.347089 24.912646 31.324400 0.856496 0.651276 0.005978 0.007432 -678956.000000 0 0 1
12.599118 13.091689 24.023546 30.120771 0.804569 0.647533 -0.001096 0.006532 -105712.000000 0 0 1
12.385418 11.793589 24.534946 29.907372 0.760926 0.608748 0.004171 0.010563 875736.000000 0 0 1
10.981818 11.538589 24.719946 29.407739 0.810116 0.572419 0.014143 0.011055 698933.000000 0 0 1
10.576118 10.180689 25.292346 29.243862 0.766350 0.525891 0.006342 0.010688 -176145.000000 0 0 1
10.619218 9.173289 24.292046 28.053886 0.712473 0.523836 0.004867 0.010198 39111.100000 0 0 1
10.097618 8.006089 24.778946 27.929474 0.670378 0.479562 0.007390 0.001837 -195796.000000 0 0 1
10.037518 6.835789 23.712646 26.641497 0.597876 0.473310 0.007685 0.003094 -183159.000000 0 0 1
11.345818 6.368989 23.454446 26.821683 0.511516 0.506478 0.003615 0.002358 328399.000000 0 0 1
11.336018 5.182789 22.658946 25.861060 0.428822 0.502918 0.003127 0.001539 -114035.000000 0 0 1
11.312418 3.855889 23.364646 26.243959 0.328504 0.472822 0.001543 -0.001954 423622.000000 0 0 1
12.542318 3.426089 23.977746 27.275999 0.266657 0.496871 -0.005639 -0.006973 843126.000000 0 0 1
12.367818 2.265189 24.808846 27.813178 0.181144 0.469086 -0.005572 0.000114 -502241.000000 0 0 1
13.710718 1.787789 25.378546 28.900702 0.129662 0.498859 -0.007850 -0.001871 -343432.000000 0 0 1
14.555818 1.163389 24.479946 28.504264 0.079756 0.537840 -0.002800 -0.003835 -729229.000000 0 0 1
15.898418 1.294589 24.849646 29.528640 0.081250 0.570661 0.003093 -0.007308 -364097.000000 0 0 1
16.757218 0.429089 23.867346 29.165711 0.025601 0.612287 0.003514 -0.011277 -96234.400000 0 0 1
16.576418 -0.948111 24.153846 29.310149 -0.057134 0.602224 -0.005050 -0.006015 66725.500000 0 0 1
17.736818 -1.614011 23.733046 29.672500 -0.090748 0.643779 -0.003579 -0.000363 -430750.000000 0 0 1
17.748718 -3.148511 24.119646 30.111251 -0.175567 0.641803 -0.003918 0.010254 -417552.000000 0 0 1
16.713218 -3.936311 23.616146 29.198434 -0.231305 0.628661 -0.011598 0.011147 -323011.000000 0 0 1
16.904618 -5.301211 23.851946 29.711686 -0.303883 0.638853 -0.003362 0.017183 -107749.000000 0 0 1
15.991418 -6.259111 23.075546 28.764262 -0.373074 0.639776 -0.006130 0.012755 -202859.000000 0 0 1
16.159218 -6.194411 21.711646 27.764846 -0.366059 0.672955 -0.011333 0.008259 -173762.000000 0 0 1
15.381518 -7.133711 21.011646 26.999448 -0.434258 0.678962 -0.009825 0.004736 -245362.000000 0 0 1
15.809418 -8.651911 21.028646 27.694715 -0.500740 0.708557 -0.007079 0.003714 -198517.000000 0 0 1
15.679418 -9.335411 22.306146 28.819407 -0.537025 0.685666 -0.005746 0.001756 -34462.700000 0 0 1
16.237918 -10.653611 22.254446 29.536923 -0.580648 0.717510 -0.000759 -0.001102 -115919.000000 0 0 1
15.918418 -11.451011 23.553146 30.647551 -0.623599 0.694277 0.004078 0.000942 525853.000000 0 0 1
14.679918 -12.169011 23.548846 30.300709 -0.692150 0.680638 0.003749 -0.002993 387198.000000 0 0 1
14.640918 -12.954611 24.694346 31.495860 -0.724366 0.669631 0.007269 0.002391 241577.000000 0 0 1
13.551618 -14.034111 24.497946 31.316960 -0.802887 0.672514 0.004849 0.003477 44416.700000 0 0 1
13.888218 -14.998911 23.537046 31.174388 -0.823829 0.715123 0.002238 0.005361 -679823.000000 0 0 1
12.803118 -15.768811 23.192246 30.829459 -0.888825 0.719287 0.003854 0.005195 -951064.000000 0 0 1
13.084818 -16.718111 22.030446 30.594906 -0.906710 0.766894 -0.003855 0.002407 -7385.040000 0 0 1
14.043918 -17.696211 22.399346 31.813806 -0.899963 0.789675 0.007279 -0.000321 109482.000000 0 0 1
14.304618 -18.459311 21.249246 31.573703 -0.911532 0.832533 0.005509 0.009933 -48035.200000 0 0 1
-22.627682 -32.455620 26.769913 47.770362 0.961960 0.975943 -0.005024 -0.006779 -461769.000000 0 0 1
-23.188582 -33.330720 27.683243 49.142743 0.962954 0.972394 -0.005021 -0.011114 -306634.000000 0 0 1
-24.354182 -33.888220 27.121403 49.770555 0.947655 0.994492 -0.004047 -0.007388 -37790.300000 0 0 1
-25.152122 34.695589 28.099503 51.244465 -0.943529 0.990416 -0.005048 -0.005164 -120039.000000 0 0 1
-25.789602 -34.037020 29.179093 51.720806 0.922390 0.971374 0.014279 -0.009418 335714.000000 0 0 1
-25.023582 -33.674220 30.296373 51.749425 0.931721 0.945369 0.004035 -0.011438 -504239.000000 0 0 1
-25.994602 -33.025220 31.322303 52.416325 0.903962 0.930332 0.008648 -0.010160 227490.000000 0 0 1
-26.368192 -31.724220 31.055933 51.635053 0.877337 0.925481 0.016650 -0.010173 -319705.000000 0 0 1
-27.426022 -31.255620 31.824143 52.362931 0.850566 0.917558 0.010567 -0.002955 -495168.000000 0 0 1
-27.750012 -29.787920 31.488693 51.467671 0.820802 0.912443 0.016931 -0.008716 -318178.000000 0 0 1
-28.247002 -29.656620 30.185763 50.878173 0.809738 0.935650 0.011312 0.000920 60306.400000 0 0 1
-28.501892 -28.233620 30.057873 50.129541 0.780670 0.927790 0.007312 -0.001189 52491.700000 0 0 1
-29.082792 -27.784920 28.655093 49.385473 0.762579 0.951781 -0.001612 -0.000726 653996.000000 0 0 1
-28.106842 -27.575720 27.588863 48.078688 0.775860 0.959625 0.003388 -0.003273 674527.000000 0 0 1
-27.726782 -26.219320 27.569253 47.077499 0.757462 0.945159 0.009404 -0.000452 13943.900000 0 0 1
-26.803782 -25.887720 26.358583 45.644185 0.768015 0.955158 -0.004189 0.002149 53894.200000 0 0 1
-27.381782 -26.153020 25.103543 45.430500 0.762450 0.985351 -0.006176 0.006033 783441.000000 0 0 1
-26.380752 -25.891420 24.071553 44.110649 0.776037 0.993562 -0.001032 0.010635 613104.000000 0 0 1
-26.798832 -26.357820 22.638253 43.879409 0.777102 1.028715 -0.005200 0.013568 48763.700000 0 0 1
-27.571242 -25.320220 22.029753 43.434974 0.742865 1.038876 -0.010453 0.009933 291485.000000 0 0 1
-28.095702 -25.826120 20.840153 43.481823 0.743333 1.070957 -0.013609 0.017201 103894.000000 0 0 1
-28.946592 -24.835120 19.958953 43.047046 0.709099 1.088681 -0.020542 0.012439 1051270.000000 0 0 1
-30.207392 -24.424120 20.532953 43.938893 0.679931 1.084554 -0.012065 0.000224 1038680.000000 0 0 1
-30.852582 -23.449620 19.703553 43.474090 0.649905 1.100416 -0.012833 -0.004307 -146125.000000 0 0 1
-32.327862 -23.166320 20.010453 44.521762 0.621784 1.104643 -0.005376 -0.001624 -221169.000000 0 0 1
-33.208752 -24.190120 19.618553 45.528790 0.629550 1.125302 0.000386 -0.003801 544354.000000 0 0 1
-34.587527 -23.803320 19.699353 46.378439 0.602766 1.132108 0.005112 -0.004026 732238.000000 0 0 1
34.122144 -24.895120 19.068053 46.343051 -0.630309 1.146747 0.010914 -0.006428 -178407.000000 0 0 1
33.913501 -26.032420 19.891753 47.153942 -0.654678 1.135315 0.008406 -0.007555 65026.700000 0 0 1
33.328716 -27.069220 19.100053 46.993170 -0.682129 1.152239 0.011524 -0.006424 -30384.100000 0 0 1
33.210136 -28.367720 19.907253 47.999369 -0.706921 1.143139 0.011946 -0.007762 -1046110.000000 0 0 1
32.060786 -28.472820 20.672353 47.601908 -0.726195 1.121562 0.011461 -0.003915 -575385.000000 0 0 1
32.139996 -27.692920 21.891553 47.740101 -0.711210 1.094426 0.012368 -0.012894 494037.000000 0 0 1
30.801336 -27.631020 22.727853 47.209648 -0.731195 1.068518 0.006559 -0.011817 1261300.000000 0 0 1
29.704196 -27.098620 21.960753 45.814290 -0.739560 1.070891 0.012942 -0.007464 315788.000000 0 0 1
28.668126 -26.564320 22.760853 45.228099 -0.747327 1.043446 0.012423 -0.011137 -56356.200000 0 0 1
27.885146 -25.479020 21.947453 43.685839 -0.740340 1.044432 0.010579 -0.005473 -76690.200000 0 0 1
28.646386 -24.398620 21.390253 43.283380 -0.705490 1.053892 0.012765 -0.006061 48356.500000 0 0 1
29.207396 -23.604520 22.410453 43.731839 -0.679702 1.032759 0.016457 -0.010945 -557570.000000 0 0 1
30.032726 -22.442620 21.897053 43.417931 -0.641753 1.042188 0.013951 0.000534 -164518.000000 0 0 1
29.343376 -21.228420 21.557653 42.147502 -0.626290 1.033889 0.010561 -0.003264 -483592.000000 0 0 1
30.190356 -20.266820 21.083353 42.032242 -0.591204 1.045350 0.012607 0.000783 -899975.000000 0 0 1
29.511416 -18.867420 21.066653 40.874284 -0.568835 1.029321 0.007212 0.003576 160663.000000 0 0 1
29.288376 -18.314120 22.350153 41.142986 -0.558817 0.996515 0.011705 0.000982 -465804.000000 0 0 1
28.237586 -18.879420 23.066753 41.059333 -0.589334 0.974248 0.013441 0.000135 -1041260.000000 0 0 1
28.323176 -18.692720 24.598823 41.913270 -0.583359 0.943574 0.008902 0.000700 -112133.000000 0 0 1
27.999166 -17.347420 24.945833 41.318045 -0.554684 0.922598 0.003067 0.001112 156230.000000 0 0 1
28.267556 -16.979520 26.256833 42.151869 -0.540913 0.898339 0.006655 -0.005533 -99723.600000 0 0 1
28.098596 -15.456020 26.562053 41.640873 -0.502892 0.879049 0.001441 0.001653 1884410.000000 0 0 1
26.666976 -15.117420 26.674193 40.634672 -0.515723 0.854707 -0.001722 0.002230 2167270.000000 0 0 1
26.322826 -13.828120 27.234243 40.321360 -0.483704 0.829249 -0.009283 0.002500 -45308.900000 0 0 1
26.852316 -12.582220 26.454113 39.738888 -0.438190 0.842367 -0.005435 0.000917 -408392.000000 0 0 1
26.163426 -12.204020 25.271043 38.367806 -0.436452 0.851770 -0.004992 0.000614 337946.000000 0 0 1
27.003346 -11.583820 24.305403 38.132902 -0.405235 0.879694 -0.002093 -0.001624 432711.000000 0 0 1
27.976536 -12.577320 23.562653 38.679118 -0.422494 0.915767 0.000033 0.005555 -22646.700000 0 0 1
27.348446 -13.376620 22.612253 37.923415 -0.454904 0.931961 0.003252 0.004475 -65635.400000 0 0 1
27.819166 -14.744520 22.637553 38.778417 -0.487369 0.947436 0.000279 0.004134 -175943.000000 0 0 1
27.270606 -15.659220 21.559153 38.127342 -0.521245 0.969816 0.006687 -0.000200 -438127.000000 0 0 1
27.568196 -15.257920 20.279453 37.470865 -0.505496 0.998926 0.003453 -0.000920 -251662.000000 0 0 1
27.314816 -16.322120 19.322553 37.227299 -0.538620 1.025066 0.005287 -0.003643 -88422.500000 0 0 1
27.750676 -15.923120 17.871053 36.647241 -0.520926 1.061400 0.005457 0.000914 -75049.200000 0 0 1
27.500616 -16.814720 16.848153 36.371403 -0.548782 1.089165 0.000767 -0.001203 323900.000000 0 0 1
26.131796 -17.104020 16.586653 35.362909 -0.579553 1.082592 0.012349 0.002410 162.416000 0 0 1
25.278446 -16.256220 15.667553 33.893019 -0.571500 1.090249 0.003787 0.003366 -727570.000000 0 0 1
25.355206 -16.632920 14.275953 33.516314 -0.580579 1.130795 0.011377 0.001683 460888.000000 0 0 1
24.424306 -17.671220 13.917353 33.204088 -0.626331 1.138292 -0.012667 -0.001391 -64723.000000 0 0 1
24.616386 -18.261120 12.525453 33.110752 -0.638250 1.182848 0.019912 -0.006294 -283709.000000 0 0 1
23.996306 -17.534520 11.484153 31.861699 -0.631046 1.202059 0.025672 -0.006054 -152514.000000 0 0 1
23.992206 -18.183220 10.185253 31.780415 -0.648525 1.244551 0.009190 -0.010099 394381.000000 0 0 1
25.396506 -18.415620 9.480553 32.771916 -0.627390 1.277312 0.012212 -0.002491 983063.000000 0 0 1
26.183296 -19.319020 10.253653 34.116373 -0.635672 1.265528 0.021447 -0.000522 -168423.000000 0 0 1
27.484696 -19.414420 9.656753 35.008300 -0.614990 1.291331 0.017993 0.004463 342000.000000 0 0 1
28.373136 -20.138020 10.674753 36.394025 -0.617244 1.273108 0.018433 0.000118 -418043.000000 0 0 1
28.401116 -19.495620 11.952353 36.463150 -0.601566 1.236830 0.019031 -0.000563 7180.800000 0 0 1
28.623656 -20.391820 12.997353 37.470938 -0.619007 1.216570 0.019995 0.001391 -367938.000000 0 0 1
28.635596 -19.742720 14.378153 37.636467 -0.603608 1.178807 0.023831 0.002005 77124.400000 0 0 1
28.646306 -20.663520 15.414753 38.538377 -0.624900 1.159296 0.014037 0.006220 -19939.800000 0 0 1
28.384146 -19.978420 16.628953 38.487908 -0.613311 1.124024 0.018998 0.006291 8451.700000 0 0 1
28.286006 -20.974220 17.808153 39.460694 -0.638042 1.102588 0.006966 0.013698 4822.000000 0 0 1
27.124996 -21.769720 17.822453 39.081018 -0.676306 1.097257 -0.002654 0.013030 -276480.000000 0 0 1
27.043516 -22.646120 18.950353 40.041408 -0.697131 1.077798 0.001261 0.010868 -623358.000000 0 0 1
25.829326 -23.536520 18.852653 39.705722 -0.738986 1.076049 -0.006398 0.019377 -458575.000000 0 0 1
24.636556 -22.793320 18.845553 38.492209 -0.746555 1.059172 -0.005927 0.015930 -187694.000000 0 0 1
23.488906 -23.604220 18.956853 38.317753 -0.787847 1.053275 -0.007300 0.021531 685686.000000 0 0 1
22.274806 -23.092320 19.810453 37.707775 -0.803416 1.017649 -0.007102 0.023425 607756.000000 0 0 1
21.645006 -21.899720 19.236753 36.306428 -0.791248 1.012379 -0.005122 0.027542 819271.000000 0 0 1
20.579806 -21.375020 20.080553 35.828041 -0.804350 0.975843 -0.001801 0.022072 782633.000000 0 0 1
20.909906 -20.804120 21.491653 36.495571 -0.782862 0.941119 -0.013346 0.021461 -528276.000000 0 0 1
20.986706 -21.884120 22.404353 37.700286 -0.806328 0.934432 -0.002900 0.016793 -68937.600000 0 0 1
21.352506 -21.467120 23.739053 38.474789 -0.788075 0.905868 -0.008845 0.007578 -43911.800000 0 0 1
21.594706 -22.605720 24.718593 39.854219 -0.808268 0.901766 -0.005696 0.002922 161660.000000 0 0 1
20.454106 -23.334920 25.108623 39.916562 -0.851092 0.890494 -0.007415 -0.000798 -10288.900000 0 0 1
20.969906 -24.428620 25.838013 41.280714 -0.861437 0.894498 -0.009999 0.003367 287909.000000 0 0 1
19.953306 -25.271420 26.697163 41.827235 -0.902454 0.878545 0.000755 0.000596 326935.000000 0 0 1
19.185006 -26.129720 25.826213 41.446592 -0.937470 0.898070 0.003764 0.005302 53114.400000 0 0 1
18.185806 -26.724920 26.607943 41.867977 -0.973291 0.882114 0.006525 -0.003214 -367104.000000 0 0 1
17.380006 -27.770620 25.786513 41.691920 -1.011592 0.903962 0.009423 0.001299 131722.000000 0 0 1
16.540506 -27.150020 24.794813 40.317424 -1.023620 0.908423 0.012738 -0.001318 609491.000000 0 0 1
16.231306 -27.937320 23.635953 40.032579 -1.044472 0.939220 0.016994 -0.000742 -100846.000000 0 0 1
15.410106 -27.159420 22.581853 38.536289 -1.054697 0.944696 0.019052 0.000208 579276.000000 0 0 1
14.077506 -26.782220 22.926853 37.961877 -1.086857 0.922356 0.009738 0.000031 578842.000000 0 0 1
13.450506 -26.207420 21.768453 36.628002 -1.096619 0.934387 0.009712 -0.002700 261220.000000 0 0 1
12.025206 -25.644220 21.972753 35.847364 -1.132317 0.911004 0.020250 0.000797 271581.000000 0 0 1
10.990406 -26.591220 22.030653 36.238539 -1.178869 0.917340 0.010556 0.001439 877430.000000 0 0 1
9.674906 -25.990820 21.912953 35.345495 -1.214445 0.902099 0.007904 0.000166 1008900.000000 0 0 1
8.508706 -26.972120 21.948553 35.799893 -1.265214 0.910830 0.001900 0.007541 -227581.000000 0 0 1
8.483906 -27.985120 21.002353 36.003367 -1.276445 0.947956 0.000060 0.006487 870161.000000 0 0 1
7.120606 -28.380520 20.767453 35.880971 -1.324973 0.953555 -0.011392 0.007324 814804.000000 0 0 1
7.014606 -29.306220 19.537953 35.913658 -1.335861 0.995569 -0.018059 -0.002777 14087.700000 0 0 1
7.612506 -30.604020 19.757353 37.214369 -1.327002 1.011126 -0.010703 0.002625 411300.000000 0 0 1
7.419306 -31.368620 18.584653 37.207872 -1.338544 1.047796 -0.026253 -0.000765 -444633.000000 0 0 1
8.175806 -32.688920 18.710853 38.542254 -1.325715 1.063903 -0.022596 -0.006474 -277580.000000 0 0 1
7.785606 -33.508420 19.859953 39.722130 -1.342499 1.047230 -0.020124 -0.004046 307141.000000 0 0 1
8.485006 34.739689 19.865353 40.908111 1.331241 1.063736 -0.020725 -0.007443 -292673.000000 0 0 1
7.931606 33.761989 20.919053 40.501716 1.340053 1.028040 -0.015556 -0.002501 -792721.000000 0 0 1
7.144006 32.789589 20.374753 39.259706 1.356275 1.025147 -0.014431 -0.002978 -639216.000000 0 0 1
7.029706 31.689089 21.222853 38.781756 1.352498 0.991736 -0.011697 -0.005143 -504326.000000 0 0 1
6.102306 30.590989 20.695953 37.434866 1.373900 0.985013 -0.004494 -0.005083 -921219.000000 0 0 1
4.833506 30.663789 21.231653 37.608693 1.414454 0.970919 -0.000461 -0.001040 -1213050.000000 0 0 1
4.125706 29.474489 20.969753 36.407382 1.431724 0.957000 0.002981 -0.000373 648103.000000 0 0 1
2.662406 29.440089 21.525253 36.566976 1.480607 0.941405 0.000017 0.000363 554944.000000 0 0 1
2.636806 29.191889 22.898353 37.194807 1.480714 0.907607 -0.005917 -0.003164 -45827.900000 0 0 1
1.282306 29.006889 23.246153 37.194456 1.526618 0.895678 -0.007603 -0.003532 -5917.930000 0 0 1
1.179206 28.309989 24.624903 37.539737 1.529167 0.855331 0.002269 -0.008349 -298178.000000 0 0 1
1.222706 29.228889 25.725253 38.956535 1.528989 0.849501 -0.006240 -0.006987 110119.000000 0 0 1
1.215206 28.567389 27.002763 39.328382 1.528284 0.813998 -0.000554 -0.008872 -470269.000000 0 0 1
2.499506 27.964489 27.592213 39.364837 1.481652 0.794088 -0.004102 -0.010378 -697119.000000 0 0 1
2.955906 26.856989 26.919093 38.140173 1.461177 0.787253 0.004081 -0.004926 -150170.000000 0 0 1
3.677906 26.081789 27.832033 38.319822 1.430706 0.757859 0.005609 -0.006448 -213936.000000 0 0 1
4.289406 24.849189 27.130353 37.039671 1.399863 0.748857 0.009847 0.004917 -105868.000000 0 0 1
3.271306 23.958689 26.723853 36.040041 1.435096 0.735486 0.018361 0.012033 -83774.600000 0 0 1
3.755606 22.642389 26.538573 35.086724 1.406427 0.713049 0.023462 0.015537 -141276.000000 0 0 1
2.669606 21.570689 26.346003 34.154550 1.447662 0.689796 0.019963 0.017135 -62279.900000 0 0 1
3.112506 20.235489 26.546443 33.524265 1.418178 0.656952 0.018498 0.020989 95529.900000 0 0 1
3.902306 19.627389 25.533383 32.440962 1.374536 0.664748 0.025625 0.016450 -138762.000000 0 0 1
4.385406 18.206689 25.829533 31.904233 1.334431 0.627333 0.018570 0.009274 -364598.000000 0 0 1
5.338206 18.157889 26.869763 32.866237 1.284864 0.613654 0.007097 0.009363 -318760.000000 0 0 1
6.584606 17.916789 26.257273 32.462482 1.218608 0.628603 0.007478 0.013470 -1169730.000000 0 0 1
7.759906 17.989889 27.227643 33.543953 1.163561 0.623739 0.003164 0.008167 -653694.000000 0 0 1
8.049406 19.196389 27.927763 34.831799 1.173748 0.640513 -0.000553 0.004787 115636.000000 0 0 1
8.576306 20.226189 27.118273 34.900608 1.169756 0.680888 -0.002581 -0.001627 -307584.000000 0 0 1
9.057206 21.518589 27.929593 36.402538 1.172402 0.696265 -0.003551 -0.000662 541823.000000 0 0 1
10.215706 21.134889 28.677053 37.059648 1.120551 0.685965 0.001781 -0.004273 120190.000000 0 0 1
10.593406 22.180889 29.513983 38.409468 1.125236 0.694453 0.003299 -0.007854 28511.900000 0 0 1
11.756906 21.732289 30.452943 39.216055 1.074898 0.681636 0.002876 -0.008010 -360958.000000 0 0 1
12.927506 21.761089 29.710463 39.030462 1.034752 0.705616 -0.007487 -0.010283 -1128650.000000 0 0 1
14.066206 21.603889 30.531453 39.959427 0.993651 0.701211 -0.009513 0.005845 -287017.000000 0 0 1
15.337106 21.959889 29.776713 40.051419 0.961135 0.732564 -0.013591 0.001154 -557585.000000 0 0 1
15.528106 23.328489 29.506613 40.693742 0.983513 0.759632 -0.013689 -0.008492 539075.000000 0 0 1
16.860406 23.529089 29.018633 40.987466 0.949031 0.784151 -0.018175 0.001469 499796.000000 0 0 1
-8.400782 16.785089 4.747646 19.361107 -1.106756 1.323054 0.005806 -0.009646 -142759.000000 0 1 0
-8.297982 18.167389 4.859946 20.555524 -1.142342 1.332106 0.009708 -0.010228 126846.000000 0 1 0
-7.062382 18.555689 5.435946 20.584954 -1.207121 1.303553 0.002576 -0.001757 -45146.200000 0 1 0
-6.999682 19.986189 5.958246 21.998727 -1.233920 1.296526 0.006580 0.002295 -136443.000000 0 1 0
-7.133382 21.118789 5.138046 22.875487 -1.245054 1.344254 0.006194 0.001602 -911442.000000 0 1 0
-8.415582 21.359189 4.666046 23.426672 -1.195471 1.370279 0.004763 -0.005303 -590734.000000 0 1 0
-8.320182 22.479889 3.587646 24.237203 -1.216314 1.422228 0.003739 -0.004256 268804.000000 0 1 0
-7.695682 22.160589 2.333246 23.574546 -1.236557 1.471661 -0.008353 -0.006797 -467150.000000 0 1 0
-8.308282 21.178789 1.571146 22.804323 -1.196952 1.501845 0.005832 -0.003950 -932951.000000 0 1 0
-7.891182 21.036489 0.111746 22.468135 -1.211922 1.565823 0.005565 0.003124 1187270.000000 0 1 0
-6.548882 20.647489 -0.258954 21.662726 -1.263657 1.582751 0.007581 0.006867 1194120.000000 0 1 0
-5.537982 21.606689 0.090446 22.305300 -1.319889 1.566741 0.014046 0.002190 271885.000000 0 1 0
-4.123382 21.257189 -0.444854 21.657983 -1.379200 1.591338 0.013919 0.003243 259620.000000 0 1 0
-3.967082 21.709189 -1.803854 22.142278 -1.390053 1.652353 0.013706 0.004703 302851.000000 0 1 0
-2.695582 21.386589 -2.361354 21.684749 -1.445417 1.679907 0.014854 0.002135 315802.000000 0 1 0
-2.559582 21.838889 -3.855654 22.323857 -1.454126 1.744381 0.017404 0.007516 -405304.000000 0 1 0
-1.291182 22.323289 -4.206454 22.752816 -1.513021 1.756742 0.021512 0.010771 -189902.000000 0 1 0
-1.279482 22.700189 -5.583354 23.411738 -1.514492 1.811602 0.023147 0.007361 -1014160.000000 0 1 0
0.019718 23.241089 -6.109854 24.030791 1.569948 1.827870 0.010865 0.002891 -898425.000000 0 1 0
1.012718 22.221989 -6.136654 23.075981 1.525255 1.839967 -0.002735 0.006336 -1188010.000000 0 1 0
2.178018 22.840689 -6.516354 23.851702 1.475727 1.847517 -0.003753 0.004732 -1282480.000000 0 1 0
3.378518 21.903889 -6.570154 23.116264 1.417759 1.858991 -0.005027 0.010539 -455931.000000 0 1 0
3.323518 21.102689 -7.751754 22.725733 1.414587 1.918883 -0.004607 0.008923 -11346.700000 0 1 0
4.030318 19.860589 -7.757754 21.699521 1.370585 1.936395 -0.007198 0.006435 263972.000000 0 1 0
3.486018 18.986489 -8.928154 21.268545 1.389214 2.004002 -0.017182 0.010088 117863.000000 0 1 0
3.878018 19.428389 -10.211454 22.288452 1.373780 2.046709 -0.019722 0.007254 -366495.000000 0 1 0
2.892318 19.161889 -11.186654 22.375985 1.420986 2.094326 -0.021096 0.003876 -296962.000000 0 1 0
3.235918 19.750689 -12.546754 23.621641 1.408401 2.130760 -0.020003 0.005615 -131459.000000 0 1 0
3.155218 21.164089 -12.581554 24.822763 1.422803 2.102329 -0.006160 0.002117 84625.000000 0 1 0
3.509518 21.545389 -13.953854 25.908117 1.409325 2.139559 0.002139 -0.000968 140809.000000 0 0 1
3.812818 22.996389 -14.225054 27.307941 1.406490 2.118716 0.009054 -0.008607 -705374.000000 0 0 1
2.693218 23.763889 -14.454654 27.944818 1.457945 2.114439 0.008814 -0.000489 -607425.000000 0 0 1
3.051118 24.926989 -15.212554 29.361299 1.449000 2.115443 0.013663 0.002269 -140811.000000 0 0 1
1.752918 25.598589 -15.611154 30.034457 1.502426 2.117384 0.008827 0.006612 -57821.500000 0 0 1
0.864618 26.012589 -14.593554 29.839138 1.537570 2.081824 0.012152 0.008868 -159277.000000 0 0 1
0.798218 27.417389 -14.535754 31.042527 1.541691 2.058109 0.009823 0.007566 -922057.000000 0 0 1
0.108418 28.006389 -13.258654 30.986472 1.566925 2.012948 0.009603 0.006010 1389240.000000 0 0 1
-1.333682 27.917489 -13.237454 30.925638 -1.523060 2.013121 0.000149 0.003854 1184390.000000 0 0 1
-2.008682 26.662389 -13.434854 29.923453 -1.495601 2.036413 0.000371 0.009308 -631871.000000 0 0 1
-1.797282 25.489689 -12.405954 28.405319 -1.500403 2.022776 0.012618 0.007734 -112528.000000 0 0 1
-2.535482 25.518089 -11.175554 27.973103 -1.471761 1.981779 0.016962 0.011293 73878.100000 0 0 1
-2.272782 24.323989 -10.500354 26.590964 -1.477629 1.976738 0.024070 0.005923 149904.000000 0 0 1
-3.205382 24.163189 -9.242954 26.068493 -1.438911 1.933244 0.016849 0.006073 494236.000000 0 0 1
-2.845882 24.849689 -8.033854 26.270685 -1.456769 1.881586 0.027904 0.000933 -117894.000000 0 0 1
-2.518182 26.280189 -8.126754 27.623064 -1.475267 1.869417 0.019634 0.000375 79870.900000 0 0 1
-2.169682 26.890789 -6.736054 27.806410 -1.490286 1.815479 0.011604 0.002047 159450.000000 0 0 1
-1.039382 26.308589 -6.113154 27.029480 -1.531310 1.798936 0.013819 0.001146 -362082.000000 0 0 1
-0.830082 26.748789 -4.864354 27.200159 -1.539774 1.750599 0.011250 0.000872 -144080.000000 0 0 1
-1.665782 26.053989 -3.778354 26.379179 -1.506947 1.714523 0.023357 0.000541 -99509.600000 0 0 1
-3.059082 25.972089 -3.880454 26.437952 -1.453553 1.718104 0.014675 0.001410 -183111.000000 0 0 1
-3.629782 25.130989 -2.845954 25.550760 -1.427354 1.682412 0.008005 0.000138 -110117.000000 0 0 1
-4.984082 24.577489 -3.276954 25.290956 -1.370719 1.700732 0.003572 0.007663 587018.000000 0 0 1
-6.047182 25.595789 -3.313354 26.508322 -1.338794 1.696117 -0.008216 0.008038 216295.000000 0 0 1
-7.224082 25.009689 -3.781954 26.305419 -1.289599 1.715067 0.004717 0.006248 -326941.000000 0 0 1
-8.371582 26.013989 -3.984054 27.616728 -1.259452 1.715564 0.002729 0.012050 -200602.000000 0 0 1
-9.021182 26.291389 -2.777054 27.934403 -1.240261 1.670374 -0.001166 0.009094 -76859.200000 0 0 1
-10.303882 26.873589 -3.076954 28.945248 -1.204664 1.677300 0.006382 0.011281 989715.000000 0 0 1
-11.267782 26.828289 -1.853454 29.157422 -1.173171 1.634406 0.004905 0.014294 210014.000000 0 0 1
-11.698582 25.581289 -1.373454 28.162839 -1.141880 1.619584 0.009328 0.011257 -25311.000000 0 0 1
-10.679482 24.934489 -0.654454 27.133160 -1.166133 1.594919 0.005051 0.010081 -111452.000000 0 0 1
-11.030082 23.489989 -0.256554 25.952034 -1.131792 1.580682 0.007348 0.004159 374761.000000 0 0 1
-12.067482 23.397789 0.722346 26.336333 -1.094626 1.543365 0.017259 0.001890 260963.000000 0 0 1
-12.392282 22.024089 1.020946 25.291727 -1.058278 1.530419 0.007437 -0.004218 -302428.000000 0 0 1
-13.256782 21.840589 2.255546 25.648412 -1.025261 1.482742 0.005127 -0.007957 -423554.000000 0 0 1
-12.631982 21.945889 3.521846 25.565453 -1.048514 1.432599 0.012481 -0.016394 -26550.500000 0 0 1
-12.385682 23.265089 3.886446 26.641583 -1.081588 1.424395 0.009058 -0.014116 -14711.200000 0 0 1
-12.180582 23.484689 5.395046 27.000068 -1.092332 1.369626 0.008089 -0.016659 -563084.000000 0 0 1
-10.968182 23.025789 5.912346 26.180981 -1.126252 1.343005 0.006123 -0.013469 -647165.000000 0 0 1
-11.046482 22.590789 7.276046 26.178414 -1.116002 1.289147 0.009320 -0.016084 -95339.100000 0 0 1
-9.747182 22.232889 8.051446 25.576057 -1.157620 1.250546 0.013541 -0.018973 49721.900000 0 0 1
-9.038382 23.414889 8.421346 26.473920 -1.202408 1.247072 0.012875 -0.019113 733187.000000 0 0 1
-7.820082 23.112789 9.123846 26.049937 -1.244543 1.212964 0.017719 -0.017542 583066.000000 0 0 1
-8.063282 22.931389 10.653346 26.539760 -1.232673 1.157740 0.016238 -0.016323 -399292.000000 0 0 1
-8.983782 21.941189 11.005346 26.138893 -1.182172 1.136212 0.012749 -0.016763 -205601.000000 0 0 1
-8.799782 21.534889 12.358546 26.342385 -1.182873 1.082468 0.016128 -0.010701 -719146.000000 0 0 1
-9.748382 20.482789 12.837946 26.065081 -1.126589 1.055797 0.020556 -0.005363 -709233.000000 0 0 1
-9.609582 19.311389 12.042846 24.704330 -1.109061 1.061596 0.012258 -0.001100 -48267.200000 0 1 0
-10.058182 18.160589 12.761746 24.368754 -1.065005 1.019616 0.008259 0.007074 -135023.000000 0 1 0
-10.468482 17.089489 11.787546 23.250505 -1.021187 1.039119 0.006047 0.004110 -150563.000000 0 1 0
-10.634782 15.807389 12.353546 22.706436 -0.978578 0.995534 0.001790 0.007102 -228485.000000 0 1 0
-11.231882 14.866189 11.523346 21.907675 -0.923764 1.016911 0.000677 0.005186 -155740.000000 0 1 0
-11.376282 13.431589 12.027846 21.318922 -0.868058 0.971349 -0.001903 0.003390 136540.000000 0 1 0
-12.377982 13.381989 13.025546 22.404395 -0.824354 0.950368 -0.006757 0.008657 118016.000000 0 1 0
-12.666782 12.061989 13.466946 22.074817 -0.760946 0.914661 -0.005211 0.009646 549844.000000 0 1 0
-13.566082 11.963289 14.767646 23.350422 -0.722698 0.886102 -0.000475 0.009827 484950.000000 0 1 0
-14.893182 12.378089 14.606246 24.256264 -0.693433 0.924588 0.007710 0.000094 -78413.100000 0 1 0
-15.700882 12.388689 15.789846 25.481690 -0.668025 0.902494 0.009275 -0.003538 550570.000000 0 0 1
-16.690882 13.608889 15.749246 26.680070 -0.684030 0.939366 0.002260 0.003355 -589360.000000 0 0 1
-17.713282 13.418189 14.871246 26.738775 -0.648297 0.981029 -0.001223 0.001664 -753803.000000 0 0 1
-18.573282 14.561689 14.736246 27.823848 -0.664916 1.012636 -0.000818 0.007547 604477.000000 0 0 1
-19.810082 14.192989 13.848046 28.029425 -0.621683 1.054050 -0.003728 0.001995 -225499.000000 0 0 1
-20.627082 13.276389 14.462146 28.476177 -0.571890 1.038088 -0.003842 -0.001157 -470865.000000 0 0 1
-21.690182 12.822789 13.664246 28.663557 -0.533909 1.073886 -0.011001 -0.002949 -158962.000000 0 0 1
-22.552182 11.801089 14.431046 29.259557 -0.482097 1.055023 -0.007985 -0.002909 230752.000000 0 0 1
-23.151882 12.398589 15.633946 30.563948 -0.491668 1.033848 0.002136 0.004851 480109.000000 0 0 1
-23.973282 11.529289 16.394046 31.247520 -0.448269 1.018491 0.004189 0.007244 325978.000000 0 0 1
-24.691782 12.243589 17.614546 32.708742 -0.460328 1.002108 0.002418 0.006031 234653.000000 0 0 1
-25.630542 13.237689 17.180246 33.575615 -0.476745 1.033648 0.005556 0.007563 808309.000000 0 0 1
-26.466192 13.754289 18.233446 34.958523 -0.479277 1.022102 -0.002779 0.013108 209546.000000 0 0 1
-27.454962 14.808389 17.752846 35.891877 -0.494646 1.053399 -0.011889 0.010892 -174249.000000 0 0 1
-26.875412 16.071189 17.436246 35.841227 -0.538939 1.062733 -0.001521 0.007610 32579.300000 0 0 1
-27.856892 17.031489 17.055646 36.837116 -0.548754 1.089418 -0.003543 0.001596 38805.300000 0 0 1
-27.479122 18.516789 17.166946 37.318596 -0.592959 1.092789 -0.004868 0.009765 -371514.000000 0 0 1
-27.193092 19.054389 18.427346 37.975006 -0.611200 1.064148 0.000694 0.011407 -956671.000000 0 0 1
-28.245222 19.221689 19.291346 39.235467 -0.597538 1.056777 -0.002912 0.008168 -1728920.000000 0 0 1
-27.824362 19.745289 20.698246 39.906001 -0.617167 1.025496 0.001417 0.004647 209320.000000 0 0 1
-27.363332 18.676389 21.556646 39.525288 -0.598907 0.993944 -0.006943 0.003701 888501.000000 0 0 1
-26.142052 18.022289 21.115646 38.132404 -0.603575 0.983941 0.010498 0.011758 130972.000000 0 0 1
-25.769362 16.689789 21.854746 37.686058 -0.574729 0.952171 0.018780 0.007697 -343270.000000 0 0 1
-26.773752 15.748289 21.987146 38.056234 -0.531697 0.954822 -0.028137 0.018239 -471002.000000 0 0 1
-26.149382 14.506089 22.196746 37.241272 -0.506475 0.932254 -0.018224 0.021944 -202174.000000 0 0 1
-27.101402 13.325289 22.406346 37.604436 -0.456972 0.932481 -0.014068 0.010380 -483263.000000 0 0 1
-27.751982 13.034389 21.199346 37.275730 -0.439094 0.965851 -0.011090 0.014663 61379.000000 0 0 1
-28.697662 11.999689 21.418546 37.766419 -0.396047 0.967777 -0.012856 0.014927 -6997.910000 0 0 1
-29.650232 11.753489 20.209446 37.758475 -0.377403 1.006017 -0.011612 0.013760 -622356.000000 0 0 1
-29.085772 11.263989 19.025746 36.535443 -0.369483 1.023070 0.000553 0.002086 75734.700000 0 0 1
-28.687352 9.914489 19.053446 35.837062 -0.332754 1.010227 0.002182 0.001105 -132406.000000 0 0 1
-28.033062 9.435989 17.717846 34.479160 -0.324690 1.031105 0.004039 -0.008305 -215935.000000 0 0 1
-28.844672 9.343489 16.563546 34.549485 -0.313259 1.070808 -0.002419 -0.002636 275603.000000 0 0 1
-29.199312 10.596789 15.934146 34.911155 -0.348131 1.096829 0.005106 -0.000485 -125474.000000 0 0 1
-28.014712 11.379189 15.287746 33.882520 -0.385828 1.102688 0.007022 -0.000821 42404.600000 0 0 1
-27.617502 10.894889 14.064546 32.851734 -0.375749 1.128383 0.001304 -0.007128 214309.000000 0 0 1
-26.708192 11.783389 13.436546 32.135907 -0.415503 1.139426 -0.000890 -0.008404 -127393.000000 0 0 1
-26.550542 11.605489 11.913746 31.329794 -0.412082 1.180709 0.009038 -0.001495 -461638.000000 0 0 1
-25.850122 10.475589 11.499046 30.169435 -0.385018 1.179758 0.009306 -0.001600 1029020.000000 0 0 1
-26.744762 9.302089 11.468246 30.550480 -0.334722 1.185982 -0.000440 0.002852 470007.000000 0 0 1
-26.268542 8.104089 10.630346 29.474002 -0.299245 1.201812 0.009299 -0.004716 -460997.000000 0 0 1
-26.493332 8.350289 9.277246 29.286366 -0.305329 1.248467 0.025473 0.001244 395940.000000 0 0 1
-25.940952 7.336089 8.430846 28.245891 -0.275603 1.267696 0.026269 -0.007250 -177839.000000 0 0 1
-25.347602 7.802189 7.091446 27.452935 -0.298604 1.309521 0.025626 0.005213 -192558.000000 0 0 1
-26.171572 8.545889 6.198846 28.220721 -0.315618 1.349335 0.018145 0.011123 100060.000000 0 0 1
-25.416622 8.913889 5.082646 27.409768 -0.337308 1.384285 0.019668 0.014570 -34806.700000 0 0 1
-26.302962 9.096589 3.826546 28.093347 -0.332963 1.434163 0.007060 0.018511 -238774.000000 0 0 1
-26.941842 7.981889 3.226546 28.283988 -0.288025 1.456471 0.015565 0.006235 292998.000000 0 0 1
-26.155752 6.793689 3.013146 27.191113 -0.254124 1.459755 0.026622 0.004798 -364783.000000 0 0 1
-25.129122 6.823389 1.858446 26.105272 -0.265140 1.499546 0.034311 0.005876 -195955.000000 0 0 1
-24.064682 7.664689 2.255146 25.356302 -0.308345 1.481740 0.027569 0.010855 -417607.000000 0 0 1
-23.048782 7.701789 1.321446 24.337422 -0.322487 1.516473 0.028062 0.012830 -1088350.000000 0 1 0
-21.855482 8.510089 1.773846 23.520846 -0.371318 1.495309 0.022370 0.016023 -589427.000000 0 1 0
-22.079082 9.880089 1.577046 24.240237 -0.420762 1.505691 0.005965 0.015716 887567.000000 0 1 0
-20.931382 10.659089 1.904846 23.566233 -0.471012 1.489879 0.012324 0.015941 514333.000000 0 1 0
-21.472182 12.112689 2.191646 24.750255 -0.513612 1.482130 0.012964 0.012239 654373.000000 0 1 0
-20.332882 12.914289 2.443146 24.211028 -0.565860 1.469714 0.006476 0.004133 693401.000000 0 1 0
-20.805882 14.144689 2.821246 25.316326 -0.597068 1.459125 0.001500 -0.005639 -1313.140000 0 0 1
-19.742182 14.956689 3.620046 25.031201 -0.648348 1.425666 -0.006556 -0.004468 245346.000000 0 0 1
-19.307682 14.128089 4.735746 24.388865 -0.631708 1.375378 -0.009650 0.002056 -295096.000000 0 1 0
-18.460582 14.784189 5.581346 24.300550 -0.675260 1.339048 -0.007863 -0.002078 -833614.000000 0 1 0
-18.063682 13.858689 6.770646 23.752926 -0.654427 1.281743 -0.007444 0.004950 37977.600000 0 1 0
-17.084082 12.857089 6.561546 22.365698 -0.645148 1.273041 -0.002827 0.002608 411108.000000 0 1 0
-17.099882 12.028289 7.685046 22.274326 -0.613013 1.218538 0.009012 0.008095 -86740.000000 0 1 0
9.581418 -33.523920 -14.644254 37.816808 -1.292410 1.968435 -0.000059 -0.005139 -753658.000000 0 0 1
10.661418 -33.371620 -13.794554 37.651303 -1.261569 1.945908 0.007417 -0.000330 -324181.000000 0 0 1
11.340318 -32.156620 -14.210954 36.940523 -1.231755 1.965677 0.003280 -0.001789 720275.000000 0 0 1
12.767018 -31.987820 -13.549954 37.011061 -1.191048 1.945617 -0.017090 -0.004720 608090.000000 0 0 1
13.720418 -32.740120 -14.264154 38.257436 -1.173959 1.952871 -0.009150 -0.003135 73981.900000 0 0 1
15.034318 -32.382420 -13.807354 38.279170 -1.136136 1.939816 -0.008748 -0.002538 298481.000000 0 0 1
16.069618 -33.235620 -14.522054 39.670255 -1.120431 1.945578 0.007910 -0.006662 -340636.000000 0 0 1
16.087318 -34.470220 -13.881354 40.493084 -1.134140 1.920701 0.005542 -0.005858 -564151.000000 0 0 1
17.075418 34.242389 -14.468354 40.907754 1.108219 1.932301 0.020257 -0.004218 -379319.000000 0 0 1
17.219318 32.825389 -13.841854 39.567764 1.087684 1.928182 0.012002 -0.009714 -100399.000000 0 0 1
17.775118 32.822389 -12.512454 39.367824 1.074460 1.894241 0.010231 -0.016020 -13358.100000 0 0 1
17.638318 31.486189 -12.010354 38.036022 1.060162 1.892057 0.000389 -0.009856 -91636.300000 0 0 1
18.383618 31.069089 -10.741854 37.664746 1.036501 1.860008 -0.002669 -0.010780 -527098.000000 0 0 1
19.712918 30.713189 -10.979154 38.110903 1.000180 1.863022 0.005385 -0.012029 -522856.000000 0 0 1
20.368318 30.681689 -9.745954 38.094856 0.984740 1.829506 -0.000014 -0.004874 1048020.000000 0 0 1
21.775718 29.946689 -9.710354 38.278937 0.942081 1.827272 0.005055 0.005648 1526420.000000 0 0 1
22.842718 30.419089 -10.527354 39.470697 0.926698 1.840777 0.009284 -0.005395 -658606.000000 0 0 1
23.986618 29.700989 -10.315554 39.546393 0.891436 1.834696 0.015578 0.002521 -906717.000000 0 0 1
25.155218 30.287889 -11.135854 40.916359 0.877710 1.846435 0.014363 -0.001105 -258761.000000 0 0 1
25.551818 31.575689 -10.723154 42.010779 0.890456 1.828900 0.019691 -0.013258 292457.000000 0 0 1
26.768718 31.900189 -11.386654 43.172239 0.872641 1.837704 0.016983 -0.004396 314753.000000 0 0 1
27.220618 33.352389 -11.274554 44.502353 0.886284 1.826935 0.017103 -0.010997 -733338.000000 0 0 1
26.444418 34.248589 -12.000054 44.902944 0.913281 1.841328 0.017857 -0.009124 -364000.000000 0 0 1
26.856618 -33.917620 -11.865754 44.860662 -0.901064 1.838484 0.027802 -0.008406 -254278.000000 0 0 1
25.720218 -32.914020 -12.067154 43.479634 -0.907478 1.852024 0.013855 -0.003650 -493259.000000 0 0 1
24.717718 -32.994120 -11.102954 42.694884 -0.927836 1.833874 0.025098 -0.009533 115882.000000 0 0 1
23.575918 -32.153620 -11.394954 41.467146 -0.938116 1.849173 0.018695 -0.007650 798723.000000 0 0 1
23.705818 -30.582820 -11.194154 40.281308 -0.911402 1.852403 0.012331 -0.006661 -966685.000000 0 0 1
24.655718 -30.023520 -12.009354 40.663753 -0.883254 1.870601 0.009437 0.005159 -507131.000000 0 0 1
25.200518 -28.831820 -11.492554 39.980230 -0.852503 1.862366 0.004557 0.005998 618465.000000 0 0 1
26.253118 -28.048120 -12.386054 40.365054 -0.818443 1.882679 0.003699 0.011987 1684270.000000 0 0 1
27.464818 -28.741620 -12.778054 41.757342 -0.808111 1.881793 -0.003248 0.011760 891865.000000 0 0 1
27.284118 -29.624320 -13.880254 42.599119 -0.826497 1.902690 -0.006728 0.006736 -460212.000000 0 0 1
28.513718 -30.421120 -14.329554 44.088692 -0.817751 1.901826 -0.022836 0.009812 -196145.000000 0 0 1
29.071318 -31.255320 -13.342954 44.722153 -0.821585 1.873762 -0.015106 0.008408 -157603.000000 0 0 1
30.050018 -32.107020 -13.857654 46.107471 -0.818480 1.876067 -0.015815 0.001815 -869075.000000 0 0 1
30.901418 -32.809120 -12.850754 46.866597 -0.815332 1.848553 -0.008254 -0.003574 -729700.000000 0 0 1
31.700318 -33.728820 -13.517254 48.220946 -0.816391 1.854923 -0.005389 -0.015165 -248383.000000 0 0 1
32.397818 -34.684320 -12.698854 49.131269 -0.819470 1.832232 -0.002095 -0.010465 -175025.000000 0 0 1
31.648518 33.867989 -11.743154 47.818104 0.819262 1.818914 -0.005728 -0.012882 -378819.000000 0 0 1
31.240718 34.459989 -10.530854 47.690378 0.834358 1.793449 0.006331 -0.015828 -644146.000000 0 0 1
30.535818 33.482289 -9.877354 46.379543 0.831391 1.785408 0.011873 -0.011943 -906610.000000 0 0 1
29.879018 33.945689 -8.568354 46.026973 0.849028 1.758048 0.004596 -0.006793 400822.000000 0 0 1
28.783118 -34.668820 -8.902054 45.930835 -0.877892 1.765845 0.010513 -0.012215 -136255.000000 0 0 1
27.902118 -34.506020 -7.822554 45.059805 -0.890824 1.745284 0.007091 -0.008206 221440.000000 0 0 1
26.883518 -33.411320 -8.118754 43.645779 -0.893243 1.757901 0.002764 -0.011951 -211037.000000 0 0 1
27.567018 -32.175120 -7.960854 43.110951 -0.862379 1.756522 0.004675 -0.016510 346083.000000 0 0 1
26.819818 -31.073220 -8.442654 41.906158 -0.858736 1.773650 0.006034 -0.004703 546538.000000 0 0 1
25.646318 -30.613420 -7.494354 40.633490 -0.873459 1.756296 0.001655 -0.000950 498218.000000 0 0 1
24.912618 -29.571520 -8.062154 39.498249 -0.870700 1.776355 0.009652 -0.005986 -376899.000000 0 0 1
23.827618 -29.155220 -7.277054 38.350199 -0.885615 1.761707 0.008760 -0.008676 621602.000000 0 0 1
22.697518 -28.391520 -8.110854 37.243009 -0.896393 1.790338 0.009034 -0.008342 297856.000000 0 0 1
21.851018 -29.221020 -8.836654 37.542263 -0.928715 1.808405 0.012150 -0.008313 367294.000000 0 0 1
20.870918 -28.437220 -9.563554 36.547671 -0.937660 1.835552 0.006896 -0.011773 789134.000000 0 0 1
19.697118 -29.185220 -10.250954 36.672000 -0.977115 1.854102 0.010124 -0.008849 -91319.600000 0 0 1
19.982918 -29.822020 -11.487754 37.691357 -0.980439 1.880509 0.013496 -0.009112 -384324.000000 0 0 1
19.032318 -30.703320 -12.023254 38.072059 -1.015889 1.892099 0.019750 -0.008875 -134995.000000 0 0 1
18.833718 -32.038720 -11.250354 38.829873 -1.039364 1.864746 0.015354 -0.011117 -840083.000000 0 0 1
19.910318 -32.872120 -11.342554 40.070570 -1.026203 1.857784 0.016400 -0.012495 -735013.000000 0 0 1
19.564018 -34.225120 -10.991954 40.925942 -1.051500 1.842717 0.010140 -0.008861 167494.000000 0 0 1
20.803318 34.333889 -11.061554 41.640749 1.026041 1.839667 0.002605 -0.006058 521193.000000 0 0 1
21.613218 34.319289 -9.867154 41.740933 1.008775 1.809446 0.006368 -0.003430 408659.000000 0 0 1
22.853218 33.669489 -10.166354 41.943519 0.974474 1.815617 0.018469 -0.006379 235104.000000 0 0 1
23.942618 34.121789 -9.156854 42.677786 0.958943 1.787035 0.023081 -0.010615 -449649.000000 0 0 1
23.872318 33.638689 -7.830154 41.985239 0.953611 1.758392 0.011606 -0.013274 172930.000000 0 0 1
24.503518 32.354189 -7.670654 41.304417 0.922606 1.757591 0.012834 -0.002302 -19706.000000 0 0 1
24.497718 31.946689 -6.129754 40.722267 0.916610 1.721896 -0.001384 0.007233 146786.000000 0 0 1
25.534018 32.641889 -5.349054 41.786258 0.906975 1.699158 0.004140 -0.001045 704522.000000 0 0 1
26.603718 31.803189 -4.980754 41.761328 0.874186 1.690348 0.005782 0.003437 -167046.000000 0 0 1
26.285818 30.671989 -4.024854 40.594514 0.862254 1.670107 0.008229 0.010969 -827045.000000 0 0 1
25.942918 31.001589 -2.700254 40.514502 0.874001 1.637495 0.002068 0.010677 60326.900000 0 0 1
25.670618 29.937789 -1.757554 39.475826 0.861984 1.615333 0.001817 0.008810 -109496.000000 0 0 1
24.281118 29.247789 -1.861454 38.058782 0.877918 1.619726 0.001975 0.010219 243653.000000 0 0 1
23.299218 30.002289 -1.162454 38.004502 0.910499 1.601388 0.000926 0.011915 469115.000000 0 0 1
22.012018 29.364789 -1.280754 36.721385 0.927547 1.605681 -0.008719 0.017488 965300.000000 0 0 1
20.890418 30.093789 -0.510254 36.637495 0.963989 1.584724 -0.005287 0.017342 34038.200000 0 0 1
20.617518 29.676789 0.785746 36.144311 0.963612 1.549055 -0.007394 0.008515 -850705.000000 0 0 1
19.405218 30.207589 1.157746 35.922156 0.999786 1.538561 -0.003189 0.008228 -882529.000000 0 0 1
18.781818 29.385689 2.334846 34.953210 1.002087 1.503947 0.000112 0.005204 -159418.000000 0 0 1
18.314018 28.116989 1.976946 33.613638 0.993472 1.511949 0.011060 0.002652 102902.000000 0 0 1
17.874018 27.380589 3.141046 32.848795 0.992456 1.475029 0.018517 -0.001058 26040.800000 0 0 1
17.270318 25.978189 2.698746 31.311554 0.984087 1.484499 0.009401 -0.004138 113848.000000 0 0 1
18.171718 25.198089 1.959546 31.128682 0.946013 1.507805 0.008645 -0.008957 315758.000000 0 0 1
19.260518 24.648489 2.697346 31.397313 0.907495 1.484780 0.006894 -0.009343 88272.000000 0 0 1
20.401618 24.003389 1.906246 31.559824 0.866333 1.510359 0.005558 -0.005975 -305710.000000 0 0 1
20.052118 22.761789 1.392746 30.366531 0.848603 1.524916 0.007733 -0.011494 -317284.000000 0 0 1
21.184218 22.060689 0.993946 30.601193 0.805663 1.538310 0.011943 -0.017308 -501378.000000 0 0 1
20.956618 21.021489 -0.119554 29.683280 0.786943 1.574824 0.024761 -0.017569 -432067.000000 0 0 1
20.818018 21.643789 -1.388654 30.062798 0.804843 1.617005 0.014315 -0.009238 366520.000000 0 0 1
21.025018 20.685789 -2.443154 29.595984 0.777265 1.653441 0.030329 -0.017989 21165.000000 0 0 1
20.622918 21.428689 -3.748554 29.975742 0.804557 1.696177 0.015008 -0.005386 -256560.000000 0 0 1
21.468718 22.466689 -4.134654 31.348897 0.808109 1.703073 0.007245 0.001618 -10349.200000 0 0 1
20.947218 23.143189 -5.247454 31.653261 0.835163 1.737344 0.002559 0.003657 -262948.000000 0 0 1
21.767518 24.395389 -5.659054 33.181090 0.842263 1.742185 -0.002124 0.012203 -292636.000000 0 0 1
21.795118 25.475489 -4.733154 33.858979 0.863099 1.711046 -0.008298 0.014018 189105.000000 0 0 1
22.315318 25.304089 -3.412354 33.910389 0.848080 1.671596 -0.001945 0.013805 -934404.000000 0 0 1
21.321118 25.047589 -2.298854 32.973573 0.865592 1.640571 0.003435 0.004990 -1732300.000000 0 0 1
20.417918 26.132089 -2.137654 33.231717 0.907540 1.635166 -0.004156 0.015231 309682.000000 0 0 1
19.390718 25.914189 -1.210854 32.388444 0.928406 1.608190 -0.006859 0.001497 -38939.500000 0 0 1
18.392618 24.740389 -1.451054 30.862288 0.931517 1.617831 -0.002887 0.000042 -1235800.000000 0 0 1
17.564318 25.025389 -2.552254 30.680439 0.958823 1.654081 -0.009874 0.009203 -77366.000000 0 0 1
17.154818 23.873589 -3.250654 29.577065 0.947716 1.680923 -0.007270 0.002455 4772.230000 0 0 1
16.732018 24.208889 -4.724454 29.805221 0.966033 1.729979 -0.003651 0.000195 -148656.000000 0 0 1
16.256618 23.140489 -5.484554 28.806947 0.958382 1.762356 -0.007573 -0.006676 12177.600000 0 0 1
15.858318 23.595389 -6.729354 29.214942 0.979046 1.803223 -0.000548 -0.003459 -390852.000000 0 0 1
15.127618 22.459489 -7.475354 28.091892 0.978043 1.840145 0.008428 0.000777 -151066.000000 0 0 1
15.862018 21.257289 -7.805454 27.647804 0.929737 1.857005 -0.008164 0.005759 227950.000000 0 0 1
15.047018 20.296189 -8.452054 26.641795 0.932840 1.893622 0.015343 0.009976 -121725.000000 0 0 1
15.807018 19.028389 -8.826654 26.265019 0.877610 1.913528 0.005197 0.012004 105142.000000 0 0 1
16.884418 19.262889 -9.727254 27.400035 0.851103 1.933720 0.002970 0.009191 169816.000000 0 0 1
17.463118 18.032489 -10.130754 27.069601 0.801437 1.954382 0.003935 0.008078 -547877.000000 0 0 1
18.736518 18.300189 -10.915254 28.374228 0.773618 1.965667 -0.006811 0.006675 -659799.000000 0 0 1
18.562418 18.649989 -12.260554 29.029410 0.787751 2.006832 -0.004592 0.007888 188084.000000 0 0 1
19.784218 19.088389 -12.827654 30.336951 0.767500 2.007373 -0.005860 0.007103 4575.620000 0 0 1
19.746218 19.290389 -14.369454 31.120949 0.773722 2.050740 0.007440 0.005313 -153541.000000 0 0 1
19.794318 18.117089 -15.122954 30.801748 0.741186 2.084007 0.012392 0.000831 166624.000000 0 0 1
20.173818 18.535689 -16.374654 31.916829 0.743105 2.109521 0.012805 -0.000145 2693.440000 0 0 1
20.246818 17.453189 -17.448454 31.921717 0.711432 2.149097 0.015307 -0.008388 -625981.000000 0 0 1
21.311018 16.560889 -17.242654 32.027046 0.660624 2.139307 0.016385 -0.000732 21078.600000 0 0 1
21.706518 15.887489 -18.441754 32.614161 0.631831 2.171778 0.024853 -0.015205 -634236.000000 0 0 1
22.647318 16.635289 -19.382054 34.136460 0.633531 2.174605 0.027771 -0.014562 -914830.000000 0 0 1
23.917718 16.862089 -18.823754 34.795416 0.614077 2.142403 0.025217 -0.010920 -194675.000000 0 0 1
24.850018 17.111389 -19.844254 36.112566 0.603025 2.152575 0.015902 -0.011766 128256.000000 0 0 1
26.177618 17.597789 -19.188754 36.920972 0.591855 2.117325 0.010169 -0.003886 220286.000000 0 0 1
25.976318 18.882989 -18.709354 37.166871 0.628573 2.098312 0.006214 -0.004310 -203420.000000 0 0 1
27.169918 19.315289 -18.145254 37.954382 0.618009 2.069264 0.004558 -0.008321 -613309.000000 0 0 1
26.997418 20.620989 -17.383754 38.161246 0.652283 2.043769 0.002233 -0.009792 170148.000000 0 0 1
26.389318 20.521989 -16.090954 37.100767 0.660971 2.019402 -0.005101 -0.004951 986476.000000 0 0 1
24.958018 20.566889 -16.073754 36.114611 0.689240 2.032056 -0.000072 -0.005783 486237.000000 0 0 1
24.271618 19.779689 -14.928154 34.687135 0.683779 2.015694 -0.006734 -0.007055 -245595.000000 0 0 1
24.526018 20.248189 -13.658154 34.613002 0.690145 1.976425 -0.012653 -0.002060 -113413.000000 0 0 1
23.791318 19.573189 -12.730954 33.334873 0.688432 1.962659 -0.005857 -0.003964 -560608.000000 0 0 1
24.261118 20.023289 -11.363854 33.446541 0.689993 1.917460 -0.004434 0.000974 -169267.000000 0 0 1
24.013418 21.436489 -11.203654 34.083562 0.728761 1.905735 -0.003103 -0.001102 -81428.700000 0 0 1
24.640918 22.039389 -10.082454 34.562485 0.729725 1.866817 -0.003795 0.003244 23484.800000 0 0 1
24.153218 21.791789 -8.628654 33.655812 0.734046 1.830071 0.001136 0.003973 -645276.000000 0 0 1
24.302418 20.473989 -8.084654 32.789532 0.700105 1.819927 0.001197 0.004369 152667.000000 0 0 1
23.421518 20.245089 -6.990254 31.737908 0.712783 1.792866 0.003593 0.004285 848267.000000 0 0 1
21.936318 19.886689 -7.371854 30.512730 0.736430 1.814810 0.001294 -0.000770 794272.000000 0 0 1
21.204918 21.056789 -7.815754 30.888880 0.781893 1.826605 -0.000086 0.005850 -234648.000000 0 0 1
19.901718 20.732789 -8.200654 29.886078 0.805848 1.848759 -0.005416 0.002674 -188032.000000 0 0 1
18.983618 21.909789 -8.621154 30.244684 0.856832 1.859852 0.005030 0.001599 -623297.000000 0 0 1
19.415118 22.736389 -9.666054 31.421693 0.864029 1.883491 0.000772 0.006899 316053.000000 0 0 1
18.591318 22.585689 -10.841354 31.197522 0.882100 1.925707 -0.000465 0.013546 1609770.000000 0 0 1
17.030618 22.851689 -10.838654 30.491278 0.930331 1.934210 0.005452 0.008938 757089.000000 0 0 1
16.726418 24.187989 -10.512354 31.230457 0.965786 1.914106 0.009916 0.003606 -1146260.000000 0 0 1
15.430918 24.539789 -10.803854 30.936026 1.009460 1.927548 0.005055 0.003165 -878482.000000 0 0 1
15.204718 25.982189 -10.220054 31.791620 1.041332 1.898078 0.008697 0.005822 -372024.000000 0 0 1
15.956018 26.929389 -10.878154 33.137905 1.035900 1.905267 0.015026 0.003247 -216776.000000 0 0 1
16.078518 28.106889 -10.052654 33.905336 1.051183 1.871813 0.019932 -0.004625 -81168.200000 0 0 1
19.686718 29.229089 -34.414967 49.257451 0.978056 2.344341 -0.033788 -0.000409 -1015190.000000 0 0 1
18.373718 29.537589 34.563064 49.037415 1.014325 0.788612 -0.012455 0.000250 -340180.000000 0 0 1
17.616718 28.324389 34.436992 47.942947 1.014384 0.769453 -0.023170 -0.001889 153961.000000 0 0 1
16.101618 28.572789 34.308424 47.462979 1.057625 0.762884 0.002316 -0.004816 -132675.000000 0 0 1
15.746318 29.199289 33.070623 46.842407 1.076228 0.786966 -0.002479 -0.003380 -471494.000000 0 0 1
14.390018 29.547589 33.192213 46.710337 1.117593 0.780450 0.036105 -0.009180 -360223.000000 0 0 1
13.771918 29.590989 31.756263 45.538474 1.135202 0.799103 0.023057 -0.009405 -256053.000000 0 0 1
13.434118 28.293589 31.410503 44.357890 1.127502 0.783971 0.026312 -0.012678 856301.000000 0 0 1
12.000218 28.273789 31.237983 43.808948 1.169409 0.776957 0.026914 -0.000939 781510.000000 0 0 1
11.375918 26.879189 30.874763 42.487096 1.170431 0.757311 0.023322 -0.001837 39257.000000 0 0 1
11.662718 26.362889 29.606133 41.322440 1.154288 0.772073 0.019387 0.000254 34511.000000 0 0 1
12.979618 25.896989 29.439483 41.301425 1.106188 0.777320 0.009245 0.000844 -389422.000000 0 0 1
13.114018 25.131689 28.126763 39.933621 1.089852 0.789306 0.000292 -0.000766 -317865.000000 0 0 1
12.817718 25.908689 26.986413 39.545171 1.111376 0.819728 -0.003865 -0.000050 164620.000000 0 0 1
12.785218 25.134189 25.751553 38.188110 1.100230 0.830733 -0.001403 -0.008632 330769.000000 0 0 1
11.497018 24.276489 25.515743 37.048380 1.128502 0.811082 0.002510 -0.007906 -507801.000000 0 0 1
11.655718 23.501989 24.320673 35.772816 1.110397 0.823218 0.005213 -0.007125 -303862.000000 0 0 1
10.658418 22.579589 24.010353 34.640103 1.129768 0.804964 0.008331 -0.007668 -353702.000000 0 0 1
10.844518 21.996489 22.633353 33.372410 1.112755 0.825478 0.010855 0.002175 -183138.000000 0 0 1
10.450218 22.952489 21.665153 33.247596 1.143545 0.861064 0.017126 -0.004005 84099.700000 0 0 1
10.965618 22.716289 20.379553 32.428394 1.121068 0.891240 0.015670 0.005543 -265933.000000 0 0 1
10.437518 23.930889 19.459753 32.562420 1.159517 0.930275 0.017047 0.005508 1287750.000000 0 0 1
9.042418 24.121889 19.181353 32.117832 1.212145 0.930768 0.015334 0.001230 699389.000000 0 0 1
8.227818 24.497289 20.288653 32.854887 1.246768 0.905207 0.012574 0.003712 -111464.000000 0 0 1
6.918918 25.104189 19.739253 32.676135 1.301865 0.922176 0.019175 0.004639 -7136.360000 0 0 1
7.177818 26.395589 19.185953 33.411809 1.305284 0.959137 0.012822 0.001696 299882.000000 0 0 1
5.925618 26.995289 18.888553 33.475902 1.354718 0.971280 0.012901 -0.000130 351613.000000 0 0 1
6.046318 28.022389 17.754553 33.719970 1.358287 1.016283 0.012271 0.004661 96353.600000 0 0 1
6.194318 27.572589 16.402653 32.675132 1.349810 1.044896 0.011187 0.006281 -207063.000000 0 0 1
6.532218 28.715089 15.682653 33.364229 1.347119 1.081456 0.001389 0.009251 107649.000000 0 0 1
7.174618 28.244689 14.316953 32.468642 1.322041 1.114143 -0.000542 0.006405 230778.000000 0 0 1
6.264518 28.075089 13.245653 31.668630 1.351258 1.139270 -0.000200 0.010287 -248438.000000 0 0 1
6.827718 27.275189 12.231553 30.662103 1.325510 1.160464 -0.003583 0.004164 36061.300000 0 0 1
6.077218 27.228189 10.863453 29.938628 1.351200 1.199464 -0.012774 0.002129 -165410.000000 0 0 1
6.434018 28.221489 9.883553 30.586494 1.346644 1.241756 -0.010877 -0.000328 33762.800000 0 0 1
6.251018 29.565389 10.140353 31.874978 1.362435 1.247041 -0.006165 0.001280 -324333.000000 0 0 1
6.275418 30.455589 8.884953 32.339854 1.367589 1.292480 0.006292 0.000077 -320814.000000 0 0 1
5.244118 30.199089 7.960653 31.667929 1.398859 1.316692 -0.006014 -0.000715 -262472.000000 0 0 1
5.398918 29.061189 7.159053 30.413041 1.387113 1.333172 -0.015480 0.010233 313976.000000 0 0 1
3.997618 28.623889 6.634053 29.653307 1.432034 1.345166 -0.009054 0.012991 482533.000000 0 0 1
3.431218 29.572289 5.757653 30.322336 1.455285 1.379755 0.003135 0.006781 198503.000000 0 0 1
2.067018 29.193189 5.532653 29.784645 1.500109 1.383956 -0.012222 0.006462 884091.000000 0 0 1
1.270018 30.294289 4.770553 30.693893 1.528898 1.414740 -0.012234 0.002591 -307903.000000 0 0 1
1.680718 30.336489 3.419553 30.574838 1.515450 1.458720 0.005530 0.001444 398090.000000 0 0 1
0.810418 31.040889 2.521253 31.153656 1.544694 1.489778 0.004566 -0.001000 248514.000000 0 0 1
-0.400182 30.258789 1.969953 30.325487 -1.557572 1.505790 -0.000863 0.003123 9216.890000 0 0 1
-0.152282 29.440389 0.863253 29.453436 -1.565624 1.541483 0.007806 0.003959 -144657.000000 0 0 1
-1.174482 28.469889 0.900753 28.508338 -1.529566 1.539195 0.002814 0.005954 192643.000000 0 0 1
-1.551582 27.946389 -0.469447 27.993364 -1.515333 1.587567 0.007385 -0.004835 -432278.000000 0 0 1
-2.294882 28.808489 -1.253047 28.926901 -1.491304 1.614128 0.005481 -0.003411 -437048.000000 0 0 1
-1.593482 29.735189 -2.060747 29.849075 -1.517258 1.639890 0.004916 0.000975 -512020.000000 0 0 1
-2.442382 30.941389 -2.501247 31.138256 -1.492024 1.651210 0.006587 -0.000538 478345.000000 0 0 1
-3.585282 30.719889 -3.352047 31.109517 -1.454613 1.678756 -0.008166 -0.000176 330113.000000 0 0 1
-3.424282 30.040389 -4.591747 30.581609 -1.457297 1.721514 -0.014223 0.003597 -595371.000000 0 0 1
-4.740782 29.537589 -5.235247 30.370248 -1.411654 1.744042 -0.008398 0.005469 -198629.000000 0 0 1
-5.327282 30.678589 -5.744747 31.663194 -1.398863 1.753240 -0.008969 0.006100 -601412.000000 0 0 1
-6.295782 30.305889 -6.698847 31.669517 -1.365969 1.783930 -0.005092 0.006857 -374365.000000 0 0 1
-6.909582 31.492289 -7.436947 33.087985 -1.354813 1.797496 -0.001647 -0.008139 -531326.000000 0 0 1
-7.750482 32.216389 -6.585147 33.783573 -1.334707 1.766974 -0.000080 0.000728 -83254.200000 0 0 1
-8.124082 33.467889 -7.183147 35.180931 -1.332660 1.776420 -0.000727 -0.012061 106550.000000 0 0 1
-9.149282 34.321689 -6.379047 36.088501 -1.310280 1.748491 0.003568 -0.014437 714627.000000 0 0 1
-10.480182 33.829389 -6.521447 36.010985 -1.270378 1.752897 0.009939 -0.013888 -128627.000000 0 0 1
-11.403982 -34.725420 -6.023247 37.043017 1.253488 1.734123 0.018459 -0.010161 -154857.000000 0 0 1
-12.868782 34.399589 -6.307447 37.265549 -1.212818 1.740872 0.022382 -0.013094 -220652.000000 0 0 1
-13.253382 34.509689 -7.659647 37.752363 -1.204117 1.775107 0.031128 -0.014822 -172683.000000 0 0 1
-14.604582 34.175689 -7.867847 37.989137 -1.166947 1.779414 0.027431 -0.015551 -590974.000000 0 0 1
-15.098682 34.360089 -9.304347 38.667257 -1.156771 1.813807 0.023245 -0.008843 708857.000000 0 0 1
-16.486782 34.100589 -9.518447 39.054641 -1.120456 1.816997 0.016559 -0.005435 791941.000000 0 0 1
-17.436882 -34.387520 -9.199947 39.638181 1.101509 1.805030 0.021906 -0.007092 -1036650.000000 0 0 1
-18.885582 34.695889 -9.426647 40.611963 -1.072326 1.805048 0.012455 -0.002343 -650539.000000 0 0 1
-19.374682 33.628189 -8.591247 39.749753 -1.048103 1.788649 0.000189 -0.001149 136586.000000 0 0 1
-19.600082 33.988389 -7.227047 39.894912 -1.047708 1.752954 -0.003030 0.000034 -612770.000000 0 0 1
-19.633582 32.965389 -6.174547 38.862828 -1.033632 1.730353 -0.008093 -0.006533 -463070.000000 0 0 1
-19.493682 33.409489 -4.848447 38.983394 -1.042614 1.695491 -0.005536 -0.013033 427729.000000 0 0 1
-20.687982 33.483789 -4.050947 39.567245 -1.017355 1.673357 -0.001895 -0.007614 405986.000000 0 0 1
-21.423782 -34.648120 -4.147347 40.947175 1.017012 1.672256 -0.002462 -0.002092 -57895.600000 0 0 1
-22.018982 -34.385420 -5.443447 41.192521 1.001229 1.703330 -0.003228 -0.002001 339076.000000 0 0 1
-22.570982 -33.080620 -5.520047 40.425828 0.972047 1.707772 -0.004545 0.000781 163464.000000 0 0 1
-23.205382 -32.807220 -6.943147 40.780029 0.955171 1.741888 -0.002823 0.001998 90699.800000 0 0 1
-22.168982 -32.599020 -7.884047 40.203458 0.973585 1.768179 0.003157 0.003323 200390.000000 0 0 1
-22.449582 -32.949320 -9.212647 40.920829 0.972706 1.797876 -0.007196 0.013787 -406641.000000 0 0 1
-23.553082 -32.266820 -10.043547 41.191846 0.940253 1.817103 -0.012570 0.014625 -1099930.000000 0 0 1
-24.805582 -32.758320 -9.643147 42.206809 0.922684 1.801306 -0.013529 0.014073 -150631.000000 0 0 1
-25.887602 -32.123720 -10.335047 42.531336 0.892485 1.816252 -0.018444 0.012180 606304.000000 0 0 1
-26.159342 -30.584320 -10.126547 41.500105 0.863223 1.817298 -0.005291 0.017082 -341190.000000 0 0 1
-25.161692 -29.774820 -10.758947 40.440148 0.869174 1.840085 -0.014082 0.019852 387119.000000 0 0 1
-25.563162 -29.458020 -12.070247 40.828189 0.856069 1.870917 -0.018238 0.013373 -145272.000000 0 0 1
-24.417682 -28.832520 -12.894347 39.922445 0.868116 1.899678 -0.030690 0.018311 -615440.000000 0 0 1
-23.379682 -29.758020 -13.010347 40.017726 0.904861 1.901929 -0.021494 0.018507 -409949.000000 0 0 1
-22.329882 -29.117820 -13.728447 39.178327 0.916579 1.928804 -0.019216 0.015068 -483415.000000 0 0 1
-21.117082 -29.976220 -14.043147 39.264677 0.957083 1.936550 -0.007588 0.007399 -771588.000000 0 0 1
-21.263182 -31.101120 -14.849947 40.495969 0.971108 1.946258 -0.005926 0.005557 439675.000000 0 0 1
-22.090382 -32.182420 -14.280647 41.564769 0.969249 1.921518 -0.015621 0.003874 404153.000000 0 0 1
-22.180182 -33.464720 -15.128247 42.903517 0.985480 1.931156 -0.015190 0.001258 -147314.000000 0 0 1
-22.688482 -34.539120 -14.419847 43.768139 0.989591 1.906528 -0.017805 -0.005689 -290562.000000 0 0 1
-22.508182 33.775289 -15.120347 43.312969 -0.982972 1.927402 -0.012787 -0.004783 -226108.000000 0 0 1
-22.961082 32.465889 -14.432847 42.303100 -0.955230 1.918965 -0.011038 -0.005572 -398824.000000 0 0 1
-22.244182 32.029889 -13.317247 41.207602 -0.963783 1.899878 -0.017207 -0.009549 -129543.000000 0 0 1
-22.366382 32.856389 -12.130547 41.556558 -0.973120 1.867014 0.001778 0.000008 -69693.800000 0 0 1
-21.664482 32.489989 -10.785547 40.512679 -0.982698 1.840272 0.001586 0.002322 -78873.700000 0 0 1
-22.263982 31.482689 -9.994347 39.833799 -0.955267 1.824407 0.003799 -0.001278 -152420.000000 0 0 1
-21.453982 31.120589 -8.921647 38.837613 -0.967232 1.802583 0.001494 0.001620 -340025.000000 0 0 1
-22.056582 29.949689 -8.061647 38.058728 -0.936021 1.784234 0.009449 0.002416 61181.100000 0 0 1
-21.902382 28.617689 -8.677847 37.067391 -0.917547 1.807099 0.015818 0.001147 155701.000000 0 0 1
-22.547882 27.556689 -7.949647 36.482529 -0.885034 1.790461 0.005529 0.001203 406888.000000 0 0 1
-21.732482 26.913689 -6.781147 35.250977 -0.891506 1.764371 0.008889 0.004781 -146840.000000 0 0 1
-21.840082 27.728689 -5.623347 35.742011 -0.903641 1.728784 0.002951 0.008638 110727.000000 0 0 1
-20.931482 27.333389 -4.608847 34.734457 -0.917270 1.703877 -0.004538 0.013155 -885821.000000 0 0 1
-19.659082 28.122589 -4.624947 34.622964 -0.960709 1.704777 -0.016002 0.006551 -1278010.000000 0 0 1
-18.862082 27.886989 -5.750447 34.154500 -0.976102 1.739968 -0.011596 0.007681 -418014.000000 0 0 1
-17.852282 28.880989 -5.789347 34.443171 -1.017151 1.739682 -0.007977 0.006761 -74710.100000 0 0 1
-17.045982 28.841889 -7.114847 34.249687 -1.037010 1.780055 -0.004191 0.013409 88035.100000 0 0 1
-17.720182 29.365489 -8.294447 35.286465 -1.027854 1.808077 -0.002931 0.010118 306368.000000 0 0 1
-17.556982 30.822189 -8.442847 36.462811 -1.053014 1.804464 0.005654 0.002736 -199186.000000 0 0 1
-17.412782 31.257289 -9.926747 37.131703 -1.062534 1.841427 -0.009919 -0.000260 -1222320.000000 0 0 1
-16.158982 31.058389 -10.438747 36.533596 -1.091059 1.860565 -0.009694 -0.004524 -1208610.000000 0 0 1
-16.058782 31.657289 -11.752047 37.392232 -1.101350 1.890506 0.000859 0.000306 367804.000000 0 0 1
-14.648982 31.562989 -12.416047 36.945543 -1.136263 1.913530 0.014269 -0.004493 462521.000000 0 0 1
-14.589282 32.182289 -13.663847 37.884661 -1.145174 1.939782 0.015999 -0.005230 -137129.000000 0 0 1
-14.898082 31.432089 -14.782447 37.794838 -1.128183 1.972648 -0.003271 -0.008930 -198180.000000 0 0 1
-14.514382 32.056889 -16.162647 38.723927 -1.145642 2.001358 0.007207 -0.000941 227865.000000 0 0 1
-13.105582 32.066889 -16.239247 38.259048 -1.182817 2.009156 0.008816 -0.009094 -422462.000000 0 0 1
-12.603882 32.599289 -17.410747 39.047478 -1.201868 2.032961 -0.002116 -0.005173 -438844.000000 0 0 1
-11.088682 32.476489 -17.542747 38.541265 -1.241770 2.043357 0.016150 -0.006281 -718857.000000 0 0 1
-10.618482 31.140689 -17.702847 37.361550 -1.242176 2.064426 0.013076 -0.007338 750014.000000 0 0 1
-9.324482 31.090689 -18.325747 37.274789 -1.279420 2.084767 0.016160 -0.004454 593774.000000 0 0 1
-9.348582 31.316989 -19.885047 38.256566 -1.280703 2.117391 0.018962 -0.011454 -634282.000000 0 0 1
-10.182982 30.377989 -20.489747 38.030843 -1.247358 2.139769 0.004434 -0.015585 -29661.200000 0 0 1
-9.734982 29.906589 -21.735847 38.231152 -1.256101 2.175523 0.022112 -0.017629 -1283810.000000 0 0 1
-10.841082 29.289889 -22.571847 38.534594 -1.216302 2.196608 0.015021 -0.015875 -439460.000000 0 0 1
-11.721482 30.214389 -23.174147 39.841480 -1.200726 2.191563 -0.003390 -0.015432 379233.000000 0 0 1
-12.778482 30.688289 -22.355247 40.060176 -1.176236 2.162820 -0.004302 -0.020102 -158520.000000 0 0 1
-13.473782 32.007289 -22.882447 41.588649 -1.172353 2.153411 -0.009759 -0.011273 -72168.200000 0 0 1
-14.228982 31.936389 -24.031647 42.425427 -1.151656 2.172981 -0.009814 -0.011728 -442800.000000 0 0 1
-14.767982 33.206289 -24.208947 43.667196 -1.152330 2.158434 -0.010855 -0.005218 -8590.740000 0 0 1
-15.207982 33.444689 -25.664647 44.816336 -1.144024 2.180547 -0.011749 -0.003258 -410015.000000 0 0 1
-14.115282 33.494389 -26.537547 45.003963 -1.171960 2.201448 -0.011159 -0.003090 -270183.000000 0 0 1
-14.403882 33.724589 -27.923447 46.092717 -1.167146 2.221580 0.006295 0.001145 -58915.500000 0 0 1
-14.794282 -34.281220 -28.362247 46.888057 1.163385 2.220428 0.008404 0.004282 417218.000000 0 0 1
-16.075382 -33.875220 -27.900847 46.737626 1.127718 2.210512 0.006778 0.007237 -30390.400000 0 0 1
-16.608382 -32.889220 -28.707747 46.708392 1.103173 2.232696 -0.001236 0.009359 -553297.000000 0 0 1
-17.981582 -32.451220 -28.189847 46.594919 1.064802 2.220560 -0.005728 0.008378 -110833.000000 0 0 1
-18.937182 -33.485220 -28.409747 47.822490 1.056102 2.206901 -0.012522 0.009625 -171344.000000 0 0 1
-20.184782 -33.170120 -27.809747 47.760489 1.024133 2.192321 -0.003775 0.009343 526412.000000 0 0 1
-21.288582 -34.242220 -28.095247 49.143425 1.014569 2.179371 0.001059 0.010826 47760.900000 0 0 1
-21.046682 33.996989 -27.554847 48.559527 -1.016469 2.174196 0.006506 0.007109 -759810.000000 0 0 1
-22.226682 33.266189 -27.569247 48.587324 -0.981770 2.174161 0.009692 0.006334 -622133.000000 0 0 1
-22.124382 31.719889 -27.306547 47.342234 -0.961755 2.185591 0.008015 0.010713 -103639.000000 0 0 1
-21.705382 31.417089 -25.962647 46.175925 -0.966219 2.167907 0.001683 0.008277 -58382.900000 0 0 1
-21.859882 30.042289 -25.656347 45.151320 -0.941762 2.175150 0.001669 0.000175 47387.500000 0 0 1
30.164236 9.789889 -26.844434 41.549328 0.313827 2.273241 -0.006370 0.000486 -286514.000000 0 0 1
29.876366 8.407189 -26.844334 41.035306 0.274306 2.283890 -0.012504 0.005420 411001.000000 0 0 1
28.476186 8.131189 -26.964174 40.050918 0.278142 2.309388 -0.018921 0.001469 684026.000000 0 0 1
28.057316 6.728989 -26.441084 39.135957 0.235384 2.312603 -0.014399 0.002932 -78416.500000 0 0 1
28.227436 6.640089 -25.060154 38.326104 0.231035 2.283480 -0.013658 0.012550 -15619.500000 0 0 1
27.812416 5.388589 -24.736954 37.609630 0.191376 2.288597 -0.004011 0.013497 -106969.000000 0 0 1
27.723326 5.147889 -23.239954 36.540101 0.183597 2.260116 0.000831 0.007406 991659.000000 0 0 1
29.019206 4.942589 -22.619554 37.123950 0.168702 2.225971 -0.008669 0.004830 1136360.000000 0 0 1
28.840466 4.621689 -21.280254 36.138368 0.158899 2.200438 -0.001831 0.003497 117939.000000 0 0 1
30.168506 4.465389 -20.496854 36.745060 0.146948 2.162544 -0.009287 0.000404 -6583.660000 0 0 1
30.891206 3.278489 -20.700454 37.329933 0.105734 2.158591 -0.003616 0.007283 348829.000000 0 0 1
31.775466 3.061889 -19.603554 37.461376 0.096064 2.121516 0.000122 0.003748 -227228.000000 0 0 1
32.344806 1.635489 -19.584054 37.847014 0.050521 2.114668 0.008074 -0.003966 -623748.000000 0 0 1
31.408576 0.644889 -19.243254 36.840431 0.020529 2.120390 0.011977 -0.001519 -496748.000000 0 0 1
31.896426 -0.635711 -19.349754 37.312184 -0.019928 2.115998 0.019062 -0.002226 -728717.000000 0 0 1
30.951216 -1.789611 -19.000354 36.361984 -0.057756 2.120616 0.000424 0.002437 -172994.000000 0 0 1
30.857256 -2.115311 -17.603454 35.588290 -0.068444 2.088219 0.002343 0.004373 58343.600000 0 0 1
29.517406 -2.003611 -17.157554 34.200488 -0.067775 2.096331 0.003535 0.000199 110159.000000 0 0 1
29.172546 -2.238711 -15.680854 33.195458 -0.076590 2.062785 0.004629 0.003468 -304767.000000 0 0 1
29.290846 -3.591511 -15.326854 33.253046 -0.122006 2.049823 0.010368 -0.003466 392947.000000 0 0 1
28.588656 -3.882411 -14.135254 32.127710 -0.134977 2.026362 0.033127 -0.000487 -109530.000000 0 0 1
28.525366 -5.349511 -13.744954 32.112887 -0.185382 2.013097 0.018155 -0.000370 -32358.500000 0 0 1
27.872876 -6.098911 -14.744054 32.116679 -0.215417 2.047753 0.016818 -0.004995 430186.000000 0 0 1
27.210706 -7.218111 -14.240954 31.548826 -0.259296 2.039123 0.008182 -0.007987 -171045.000000 0 0 1
26.466406 -8.215911 -15.206054 31.610060 -0.300996 2.072650 0.006217 -0.004462 179857.000000 0 0 1
25.230436 -7.679111 -15.665854 30.675114 -0.295451 2.106798 0.014962 -0.009471 454569.000000 0 0 1
24.611566 -8.639611 -16.546154 30.889274 -0.337600 2.136086 -0.002612 -0.007772 581460.000000 0 0 1
23.197006 -8.251511 -17.073654 29.961612 -0.341757 2.177121 -0.004513 -0.012605 272481.000000 0 0 1
23.222406 -7.208811 -18.035754 30.274337 -0.300993 2.208988 -0.008177 -0.011135 -114080.000000 0 0 1
21.906706 -6.805911 -18.328854 29.362750 -0.301223 2.244931 0.010971 -0.019199 -84785.300000 0 0 1
21.335906 -7.309111 -19.615454 29.889965 -0.330043 2.286642 0.005794 -0.010062 -46570.100000 0 0 1
22.017506 -6.586411 -20.673454 30.911860 -0.290672 2.303373 -0.001416 -0.010478 635279.000000 0 0 1
21.854006 -7.211611 -21.952454 31.804326 -0.318739 2.332610 0.012193 -0.008483 -377739.000000 0 0 1
22.390706 -6.383311 -23.111454 32.805939 -0.277720 2.352501 0.003915 -0.009367 -264777.000000 0 0 1
22.375606 -6.909811 -24.411754 33.828198 -0.299520 2.376964 0.010668 -0.012611 191710.000000 0 0 1
22.582906 -5.852511 -25.340814 34.444105 -0.253578 2.397508 0.008145 -0.010723 -355164.000000 0 0 1
22.555206 -6.213211 -26.857174 35.618101 -0.268800 2.424975 0.011057 -0.015516 162850.000000 0 0 1
21.258706 -6.600411 -27.295044 35.220980 -0.301044 2.457457 0.010694 -0.013782 53262.200000 0 0 1
21.278906 -6.856111 -28.649574 36.340008 -0.311699 2.478960 0.009414 -0.010829 -473508.000000 0 0 1
20.090306 -7.579511 -29.215394 36.257532 -0.360761 2.507778 0.023571 -0.017975 -577289.000000 0 0 1
20.108606 -8.928611 -28.823184 36.260889 -0.417869 2.489612 0.017399 -0.013191 211208.000000 0 0 1
19.028906 -9.555911 -29.484874 36.369939 -0.465389 2.516132 0.016517 -0.015525 -121709.000000 0 0 1
18.977506 -11.071611 -29.299554 36.622263 -0.528129 2.498171 0.018756 -0.007518 -372913.000000 0 0 1
18.040006 -11.363811 -28.279334 35.416080 -0.562131 2.495577 0.021607 -0.004708 223307.000000 0 0 1
18.211206 -12.672511 -27.708504 35.496503 -0.607944 2.466419 0.018258 -0.005087 -370477.000000 0 0 1
18.180306 -13.851911 -28.699624 36.688791 -0.651085 2.469058 0.017126 -0.000425 106639.000000 0 0 1
16.977606 -14.011311 -29.445944 36.764379 -0.689968 2.499655 0.011890 -0.001969 759288.000000 0 0 1
17.250306 -15.044211 -30.422474 38.071357 -0.717192 2.496578 0.005367 -0.003868 463577.000000 0 0 1
16.026506 -15.338911 -31.377964 38.427955 -0.763480 2.526188 -0.008965 -0.006355 239871.000000 0 0 1
15.015006 -16.076411 -30.735654 37.796585 -0.819523 2.520402 -0.001331 -0.002230 -358240.000000 0 0 1
13.959906 -16.212011 -31.643724 38.197298 -0.859902 2.547092 -0.013115 -0.000194 -580706.000000 0 0 1
12.673906 -16.732011 -30.973394 37.415762 -0.922535 2.546001 -0.008618 -0.001846 -105909.000000 0 0 1
12.885806 -18.027511 -30.452564 37.661569 -0.950216 2.512539 -0.011182 -0.008591 -103025.000000 0 0 1
11.873706 -18.331211 -29.535734 36.733878 -0.996017 2.504866 -0.004431 -0.009553 -189851.000000 0 0 1
12.166006 -19.573011 -28.644344 36.764288 -1.014667 2.464081 -0.000696 -0.000466 -363800.000000 0 0 1
13.097506 -19.367511 -27.599274 36.171329 -0.976180 2.438761 -0.001603 0.000923 -164913.000000 0 0 1
13.207006 -20.575311 -26.784114 36.265096 -1.000146 2.401735 0.002040 0.003521 173127.000000 0 0 1
14.190206 -20.537811 -25.575464 35.738886 -0.966183 2.368308 -0.006759 0.007668 847057.000000 0 0 1
15.552306 -20.858711 -25.920964 36.726781 -0.930116 2.354317 -0.008893 0.004583 1288080.000000 0 0 1
16.344906 -20.784211 -24.698054 36.181946 -0.904397 2.322121 -0.006942 0.008320 65881.600000 0 0 1
17.823106 -21.177611 -24.869154 37.210605 -0.871198 2.302765 -0.011310 0.006555 -244026.000000 0 0 1
18.069606 -22.534611 -25.170734 38.312990 -0.894922 2.287598 -0.012490 0.007565 276789.000000 0 0 1
17.797606 -23.463411 -24.082654 38.042879 -0.921861 2.256270 -0.014934 0.001013 -457070.000000 0 0 1
18.231006 -24.926911 -24.291454 39.291159 -0.939320 2.237301 -0.015847 0.000941 -137283.000000 0 0 1
19.647106 -25.021811 -24.323654 40.046722 -0.905146 2.223557 -0.009585 0.001495 446260.000000 0 0 1
20.085006 -26.398061 -24.051454 40.972400 -0.920386 2.198164 -0.006642 -0.004062 56114.400000 0 0 1
20.157506 -26.769301 -22.561454 40.397274 -0.925373 2.163360 -0.000006 -0.006441 211539.000000 0 0 1
18.844406 -26.963391 -22.026054 39.588927 -0.960817 2.160806 -0.008513 -0.003714 576255.000000 0 0 1
18.945906 -27.055961 -20.601254 38.927934 -0.959903 2.128472 -0.006980 -0.004864 -427742.000000 0 0 1
17.824506 -27.651041 -19.772054 38.382642 -0.998210 2.111956 -0.001776 -0.006157 -1212620.000000 0 0 1
17.622306 -29.032671 -19.981954 39.404570 -1.025259 2.102610 0.004392 -0.007469 656738.000000 0 0 1
16.508406 -29.590291 -19.266454 38.978315 -1.061909 2.087810 0.005617 -0.004548 1145970.000000 0 0 1
15.062206 -29.094961 -19.577154 38.166108 -1.093096 2.109410 0.002683 -0.002067 -530447.000000 0 0 1
14.581306 -28.062941 -18.834654 36.808794 -1.091598 2.107946 0.006610 0.000241 159906.000000 0 0 1
13.369206 -27.632461 -19.490854 36.361820 -1.120174 2.136518 0.012249 0.006942 249085.000000 0 0 1
12.576306 -26.703051 -18.606354 34.891443 -1.130642 2.133251 0.015246 -0.003209 -911873.000000 0 0 1
11.864706 -27.459181 -17.665054 34.739488 -1.162940 2.104239 0.012608 0.000052 50996.700000 0 0 1
11.004806 -26.570391 -16.912254 33.363390 -1.178130 2.102393 0.008483 -0.006798 780828.000000 0 0 1
9.503206 -26.562121 -17.366154 33.127640 -1.227214 2.122595 0.009844 -0.002305 -269857.000000 0 0 1
8.925206 -27.751121 -16.829354 33.660232 -1.259628 2.094369 0.012193 0.006126 37288.400000 0 0 1
7.526906 -27.516671 -16.669754 33.040917 -1.303788 2.099621 0.008711 0.011323 680620.000000 0 0 1
6.682106 -28.042851 -17.869554 33.917149 -1.336876 2.125697 0.004515 0.014759 -399809.000000 0 0 1
6.904306 -27.439141 -19.144854 34.162865 -1.324291 2.165664 0.009593 0.011586 -479706.000000 0 0 1
6.029306 -28.016911 -20.048954 34.975140 -1.358827 2.181244 0.015162 0.012640 -361372.000000 0 0 1
6.085006 -27.367221 -21.468254 35.311160 -1.352009 2.224302 0.010542 0.003360 -71572.200000 0 0 1
5.323406 -26.181141 -21.520854 34.306529 -1.370201 2.248891 0.008342 -0.000008 -137027.000000 0 0 1
5.366206 -25.686061 -22.859654 34.801346 -1.364843 2.287445 0.007882 -0.000945 664265.000000 0 0 1
4.026606 -25.030511 -23.397654 34.499134 -1.411295 2.316120 -0.001235 0.002214 505512.000000 0 0 1
3.101006 -26.027021 -23.728554 35.356277 -1.452210 2.306524 -0.004917 0.004211 -455703.000000 0 0 1
1.915006 -25.491081 -24.269554 35.248741 -1.495813 2.330246 -0.010030 0.000725 876048.000000 0 0 1
0.993006 -26.635691 -24.909654 36.482009 -1.533533 2.322375 -0.008615 -0.008931 406752.000000 0 0 1
1.720806 -27.302801 -25.900764 37.672984 -1.507853 2.328859 -0.007283 -0.000245 -47235.600000 0 0 1
0.962806 -28.260311 -26.572954 38.803274 -1.536740 2.325142 -0.004885 -0.001989 -367845.000000 0 0 1
1.751606 -29.018331 -27.644494 40.116701 -1.510507 2.331045 0.000593 -0.000032 -605679.000000 0 0 1
2.138606 -28.257851 -28.783724 40.392853 -1.495259 2.363986 0.006859 -0.001381 154022.000000 0 0 1
2.713906 -29.014151 -29.834394 41.704644 -1.477530 2.367955 0.006582 -0.002260 105375.000000 0 0 1
4.179606 -29.481171 -29.655064 42.024176 -1.429963 2.354160 0.009849 -0.002440 -531417.000000 0 0 1
4.395906 -30.420831 -28.658174 42.024301 -1.427287 2.321212 -0.002233 -0.003305 -230897.000000 0 0 1
5.589406 -31.127731 -28.911364 42.849085 -1.393126 2.311389 0.002029 -0.000104 145429.000000 0 0 1
5.958306 -32.120711 -27.793704 42.892091 -1.387384 2.275741 0.011655 -0.011464 7900.510000 0 0 1
4.972506 -33.118791 -27.694324 43.457516 -1.421768 2.261751 0.007532 -0.010706 290104.000000 0 0 1
5.591706 -34.303896 -27.217284 44.145272 -1.409212 2.235136 0.011486 -0.007478 183007.000000 0 0 1
4.490406 34.128188 -26.990294 43.742119 1.439973 2.235762 -0.001807 -0.001301 -106845.000000 0 0 1
3.889106 33.753871 -28.199444 44.154927 1.456083 2.263536 -0.004127 -0.004967 184825.000000 0 0 1
2.604106 33.219617 -27.901664 43.460640 1.492566 2.267898 -0.017733 0.000326 530859.000000 0 0 1
1.568306 33.448904 -29.046954 44.328482 1.523944 2.285331 -0.015995 -0.002180 -67039.000000 0 0 1
1.348106 32.365937 -29.944594 44.114057 1.529168 2.316923 -0.013326 -0.003654 44150.600000 0 0 1
0.514706 32.809367 -30.991454 45.135238 1.555110 2.327647 -0.012000 -0.003744 24242.600000 0 0 1
0.166006 31.682007 -31.969654 45.009287 1.565557 2.360707 -0.012870 -0.001841 211675.000000 0 0 1
1.304306 31.285847 -32.714524 45.285158 1.529130 2.378080 -0.011007 -0.003110 96262.200000 0 0 1
0.953306 30.163877 -33.456574 45.056749 1.539203 2.407655 -0.016218 -0.000168 -465125.000000 0 0 1
1.922106 29.667797 -34.551101 45.581260 1.506099 2.431055 -0.012415 -0.004942 -36488.800000 0 0 1
1.960306 30.684687 33.791181 45.686286 1.506998 0.738268 -0.015522 -0.007842 -174774.000000 0 0 1
2.875906 30.427897 32.743803 44.791566 1.476561 0.750972 -0.011242 -0.008670 -56756.300000 0 0 1
2.408506 29.412107 31.652713 43.275480 1.489090 0.750389 -0.010924 -0.006788 77706.200000 0 0 1
2.526406 28.041477 32.020493 42.638236 1.480944 0.721250 -0.002634 -0.006540 -240943.000000 0 0 1
3.537706 27.405577 31.276583 41.734946 1.442419 0.723626 0.001875 -0.010878 -292642.000000 0 0 1
3.715606 25.869957 31.537693 40.959572 1.428146 0.692000 0.013290 -0.010825 -119248.000000 0 0 1
2.761606 25.134267 30.794033 39.845079 1.461361 0.687486 0.015214 0.002995 271597.000000 0 0 1
2.927706 23.754597 30.919873 39.101035 1.448167 0.658733 0.008117 0.000014 -343899.000000 0 0 1
2.029906 22.939297 29.942253 37.773938 1.482536 0.655621 0.017123 0.005938 -91465.000000 0 0 1
0.710906 22.889897 30.412063 38.070282 1.539749 0.645432 0.009424 0.009395 -320470.000000 0 0 1
-0.126894 22.229897 29.444783 36.894169 -1.565088 0.646682 0.018209 0.011764 1010810.000000 0 0 1
-1.524094 21.800897 30.003703 37.119054 -1.501000 0.629520 0.012826 0.011274 409806.000000 0 0 1
-2.457894 22.821097 30.331223 38.037177 -1.463507 0.647806 0.017303 0.008873 -941990.000000 0 0 1
-3.654994 22.176297 30.544863 37.922761 -1.407449 0.634363 -0.001607 0.013840 -766694.000000 0 0 1
-4.819494 23.189597 30.751453 38.815420 -1.365883 0.656311 -0.021536 0.006904 -161524.000000 0 0 1
-5.043294 23.765497 32.019893 40.193373 -1.361688 0.649070 -0.025902 0.004493 109169.000000 0 0 1
-4.386594 25.020617 32.171713 40.991373 -1.397241 0.668357 -0.012494 -0.003392 -196288.000000 0 0 1
-4.484694 25.572577 33.675259 42.521668 -1.397190 0.656792 -0.012183 0.001227 195210.000000 0 0 1
-5.824894 25.901317 34.016784 43.150310 -1.349589 0.662703 -0.017287 0.000320 224960.000000 0 0 1
-5.981794 26.180377 -33.975384 43.307283 -1.346168 2.472716 -0.018477 0.005393 -261291.000000 0 0 1
-7.419094 26.624967 -33.688964 43.576119 -1.299038 2.454520 -0.002818 0.006430 -249719.000000 0 0 1
-7.874194 27.938147 -34.124177 44.799581 -1.296079 2.436741 -0.004511 0.004250 -82168.100000 0 0 1
-9.140594 28.275687 -33.603024 44.857866 -1.258133 2.417499 0.000056 0.004760 -106393.000000 0 0 1
-9.219594 28.687897 -32.134714 44.052653 -1.259846 2.388331 0.001146 0.005167 -504853.000000 0 0 1
-8.650594 29.946747 -31.916684 44.612949 -1.289585 2.368011 0.001214 0.005627 110191.000000 0 0 1
-8.571794 30.150467 -30.544624 43.766430 -1.293804 2.343258 0.007633 0.001273 -345692.000000 0 0 1
-8.215694 31.602927 -30.098914 44.409315 -1.316460 2.315510 0.007410 0.002909 -698170.000000 0 0 1
-6.835694 31.767687 -30.023404 44.241581 -1.358850 2.316684 -0.001695 -0.000540 -731411.000000 0 0 1
-6.550994 33.052037 -29.609414 44.856104 -1.375130 2.291745 0.000656 0.004119 1273760.000000 0 0 1
-4.981994 33.289367 -29.491144 44.751869 -1.422242 2.290275 -0.001749 0.004207 845182.000000 0 0 1
-4.399894 34.460146 -29.017804 45.264707 -1.443803 2.266687 -0.005579 0.005163 -182838.000000 0 0 1
-4.133194 -34.070720 -29.993064 45.579394 1.450074 2.289009 0.002151 -0.001082 147611.000000 0 0 1
-2.864994 -34.254237 -30.881124 46.208276 1.487351 2.302721 -0.002655 -0.007143 -146201.000000 0 0 1
-2.963994 34.252469 -31.905514 46.903931 -1.484478 2.318874 -0.004865 -0.003443 226163.000000 0 0 1
-3.697494 34.644148 -33.067944 48.035168 -1.464471 2.330093 -0.005570 -0.006675 316100.000000 0 0 1
-2.915994 -33.883071 -34.027154 48.108344 1.484947 2.356471 -0.002039 -0.002015 158538.000000 0 0 1
-2.964994 -32.514571 -33.639254 46.878438 1.479858 2.371125 -0.000238 -0.005303 475017.000000 0 0 1
-2.091594 -31.692701 -34.456103 46.861766 1.504896 2.396863 -0.006901 -0.005395 347790.000000 0 0 1
31.314746 20.258889 12.705353 39.401293 0.574224 1.242469 0.010375 -0.010801 -309942.000000 0 0 1
32.178116 19.436689 13.408153 39.912336 0.543381 1.228193 0.006242 -0.011033 -132435.000000 0 0 1
31.789466 18.092689 13.323953 38.928694 0.517420 1.221469 0.012307 -0.011777 -227010.000000 0 0 1
32.710596 17.135289 14.124553 39.536112 0.482541 1.205467 0.014944 -0.021264 226276.000000 0 0 1
33.847837 16.815289 13.323253 40.074169 0.461077 1.231880 0.012260 -0.002329 -90391.100000 0 0 1
34.534349 15.764589 13.913653 40.431834 0.428238 1.219488 0.013905 -0.004514 -126431.000000 0 0 1
-33.978252 15.189989 12.958953 39.410554 -0.420398 1.235743 0.018350 -0.015612 417168.000000 0 0 1
-33.090882 14.205989 13.442053 38.438332 -0.405509 1.213541 0.012895 -0.016379 114703.000000 0 0 1
-33.753282 12.953689 13.584553 38.621524 -0.366442 1.211372 0.014280 -0.013494 332296.000000 0 0 1
-33.077122 12.014389 14.672253 38.127635 -0.348406 1.175784 0.012970 -0.010942 225724.000000 0 0 1
-33.229302 12.588689 15.979553 38.961618 -0.362136 1.148193 0.010031 -0.010291 8700.570000 0 0 1
-32.525252 11.940189 16.992153 38.590068 -0.351831 1.114836 0.008663 -0.005863 -479290.000000 0 0 1
-32.441722 12.638989 18.342853 39.353140 -0.371501 1.085909 -0.001243 -0.003285 912674.000000 0 0 1
-33.665272 12.808989 19.131053 40.785020 -0.363567 1.082558 0.000478 -0.001690 1402690.000000 0 0 1
-33.284012 13.448289 20.346753 41.263449 -0.383990 1.055154 -0.008384 -0.002026 174316.000000 0 0 1
-34.511979 13.656589 21.256753 42.771821 -0.376799 1.050681 0.002501 0.001295 283879.000000 0 0 1
34.479167 12.467689 21.770053 42.640256 0.346972 1.034970 -0.007323 0.011661 495244.000000 0 0 1
33.571551 12.647889 22.855053 42.536708 0.360299 1.003562 -0.006131 0.003344 153574.000000 0 0 1
33.245886 11.318489 23.578553 42.300653 0.328140 0.979541 -0.005382 0.005009 -336563.000000 0 0 1
34.334794 10.725089 24.257953 43.386102 0.302765 0.977475 -0.007263 0.008297 120436.000000 0 0 1
34.274488 10.935889 25.644963 44.181425 0.308857 0.951519 -0.001843 0.005716 149039.000000 0 0 1
-33.917532 11.166589 26.309073 44.353793 -0.318051 0.935813 0.002247 -0.001325 566492.000000 0 0 1
-33.220812 12.363789 26.122573 44.032652 -0.356287 0.935701 -0.016764 0.000119 150527.000000 0 0 1
-32.595132 12.516189 24.867383 42.865888 -0.366628 0.951920 -0.011476 0.001288 -675452.000000 0 0 1
-31.905432 13.880589 24.656633 42.644775 -0.410356 0.954292 -0.011070 0.007041 -371988.000000 0 0 1
-30.968232 14.215989 25.632753 42.639931 -0.430355 0.925864 -0.011267 -0.000173 -531653.000000 0 0 1
-31.426752 14.752089 26.869453 43.900255 -0.438879 0.912137 -0.013388 -0.002746 -1216670.000000 0 0 1
-30.468702 15.256089 27.955663 44.075040 -0.464218 0.883727 -0.009159 0.003126 -822307.000000 0 0 1
-29.803832 16.426989 27.532693 43.774005 -0.503741 0.890564 -0.014602 -0.000355 -539357.000000 0 0 1
-29.143152 16.983089 28.615403 44.233357 -0.527637 0.867259 -0.015978 -0.010911 -529558.000000 0 0 1
-28.633862 18.352589 28.170353 44.162024 -0.569980 0.879046 -0.007791 -0.005342 -189000.000000 0 0 1
-29.638542 19.268989 27.752053 44.943448 -0.576469 0.905251 -0.011456 -0.010032 -24346.200000 0 0 1
-29.068362 20.515989 27.394113 44.903373 -0.614597 0.914650 -0.013437 -0.014659 240527.000000 0 0 1
-30.086232 21.544189 26.769643 45.672171 -0.621437 0.944527 -0.009480 -0.005726 713167.000000 0 0 1
-31.057332 22.083789 27.689753 47.105987 -0.618114 0.942437 -0.001283 -0.006661 654681.000000 0 0 1
-32.005672 22.995689 27.137853 47.850055 -0.623027 0.967763 0.002876 -0.001953 -195618.000000 0 0 1
-31.612422 24.368689 26.592083 47.961621 -0.656717 0.983100 0.005780 -0.003106 -1265570.000000 0 0 1
-32.665422 24.897289 25.900013 48.556312 -0.651258 1.008179 0.017458 0.004069 -834129.000000 0 0 1
-32.357562 26.167389 25.372233 48.739042 -0.680020 1.023274 0.018809 -0.003372 508614.000000 0 0 1
-33.417512 26.818289 24.396293 49.306488 -0.676277 1.053205 0.028380 -0.000239 498753.000000 0 0 1
-33.431152 26.278989 23.097753 48.391459 -0.666185 1.073205 0.024850 0.001461 48149.300000 0 0 1
-34.466701 26.873789 22.350353 49.088616 -0.662242 1.098080 0.033709 0.000588 32046.100000 0 0 1
-34.057232 26.813089 20.836753 48.093732 -0.666946 1.122697 0.040730 -0.005803 335004.000000 0 0 1
-34.250567 25.500089 20.293553 47.277734 -0.639982 1.127144 0.022843 0.000821 229549.000000 0 0 1
-33.526272 25.411289 19.059953 46.184698 -0.648571 1.145391 0.021193 0.004772 135236.000000 0 0 1
-33.680412 24.071589 18.325053 45.272719 -0.620528 1.154069 0.020018 0.010927 248848.000000 0 0 1
34.648935 23.820489 17.745853 45.638576 0.602275 1.171430 0.007356 0.002334 -67622.400000 0 0 1
34.793588 23.078589 16.570253 44.919798 0.585668 1.192987 0.007086 -0.000252 -781440.000000 0 0 1
33.503726 22.987389 15.798853 43.594993 0.601346 1.199954 0.007824 0.003410 -1068970.000000 0 0 1
32.659296 22.056489 16.354553 42.668369 0.593991 1.177436 -0.003611 -0.005718 27978.100000 0 0 1
31.443816 21.916389 15.609653 41.384815 0.608711 1.184043 -0.002661 -0.001447 -755402.000000 0 0 1
30.472916 20.874189 16.140553 40.309401 0.600593 1.158825 -0.018600 -0.005070 -259071.000000 0 0 1
29.736016 21.285889 17.256753 40.436558 0.621270 1.129888 -0.018378 -0.001973 -126193.000000 0 0 1
28.660636 22.135789 16.893753 39.960281 0.657647 1.134304 -0.014718 0.002152 -799253.000000 0 0 1
27.948276 22.717189 18.184653 40.346727 0.682515 1.103236 -0.019789 0.003151 135416.000000 0 0 1
28.744036 23.656789 18.853053 41.728897 0.688618 1.102016 -0.029325 0.007997 -492820.000000 0 0 1
27.946416 24.317889 19.813253 42.011032 0.716083 1.079669 -0.031218 0.005769 -730643.000000 0 0 1
28.620056 25.083589 20.925453 43.430042 0.719642 1.068066 -0.029836 0.000746 -376551.000000 0 0 1
29.322986 26.205689 20.418653 44.311364 0.729319 1.091901 -0.019086 -0.000002 -836769.000000 0 0 1
30.180866 26.592789 21.404053 45.565278 0.722282 1.081795 -0.010387 -0.001259 -849806.000000 0 0 1
31.141696 27.649789 20.755953 46.530910 0.726073 1.108429 0.009682 -0.004092 -168191.000000 0 0 1
32.062916 28.197789 21.677253 47.885793 0.721346 1.101020 0.017008 -0.007263 388076.000000 0 0 1
31.525846 29.088889 22.685353 48.524918 0.745216 1.084337 0.016987 -0.009516 -939292.000000 0 0 1
32.496786 29.286389 23.795653 49.799264 0.733483 1.072612 0.016593 -0.012963 -810416.000000 0 0 1
33.591778 30.086189 23.474353 50.839271 0.730402 1.090844 0.038209 -0.012530 -295445.000000 0 0 1
34.314931 30.385589 24.680743 52.057060 0.724741 1.076844 0.042547 -0.003794 435073.000000 0 0 1
-34.028972 31.296989 24.469353 52.308906 -0.743602 1.084013 0.037526 0.001124 -555766.000000 0 0 1
-32.951052 30.600789 23.983053 50.964369 -0.748433 1.080843 0.028645 -0.003010 -899963.000000 0 0 1
-31.824712 31.401889 24.343533 50.906763 -0.778711 1.072194 0.028432 0.001139 701654.000000 0 0 1
-30.456162 30.638389 24.273353 49.552844 -0.788381 1.058881 0.026594 0.003403 581938.000000 0 0 1
-29.914472 30.362889 22.950953 48.409987 -0.792837 1.076860 0.010258 0.001417 360164.000000 0 0 1
-30.305822 29.125989 22.289853 47.577343 -0.765549 1.083207 0.028284 0.004917 -240572.000000 0 0 1
-29.721752 27.842889 22.937653 46.741255 -0.752771 1.057861 0.019987 0.006074 -1908.270000 0 0 1
-28.297602 27.749789 22.874753 45.760893 -0.775624 1.047341 -0.026109 0.010549 492774.000000 0 0 1
-27.778902 26.906189 23.884953 45.454388 -0.769441 1.017528 -0.015146 0.007753 -45767.500000 0 0 1
-27.839302 27.485289 25.305913 46.592457 -0.778999 0.996632 -0.003501 -0.004085 -976430.000000 0 0 1
-29.078632 27.434089 25.989063 47.682570 -0.756306 0.994356 0.001926 0.002215 -66216.300000 0 0 1
-28.975132 28.002689 27.291383 48.667529 -0.768333 0.975479 0.006719 -0.004614 -13727.500000 0 0 1
-30.272332 28.094589 28.148403 49.980522 -0.748104 0.972558 0.015541 -0.008013 198180.000000 0 0 1
-30.660492 26.867389 28.784333 49.904510 -0.719558 0.956005 0.007301 -0.012926 147808.000000 0 0 1
-31.543152 27.240389 29.849233 51.263885 -0.712332 0.949283 0.018707 -0.002828 332495.000000 0 0 1
-32.196382 26.118189 30.745383 51.614391 -0.681542 0.932691 0.014678 0.007073 91575.700000 0 0 1
-31.268262 25.437389 31.529933 51.175205 -0.682931 0.906993 0.005500 -0.005299 179618.000000 0 0 1
-31.840212 24.156189 31.855323 51.108533 -0.649026 0.897856 0.000479 -0.015722 563413.000000 0 0 1
-30.870472 23.403289 32.785183 50.750056 -0.648673 0.868447 0.005400 -0.023996 876918.000000 0 0 1
-29.563382 23.011689 32.307333 49.470144 -0.661421 0.859169 0.007048 -0.015413 1139320.000000 0 0 1
-28.769212 22.289389 33.235163 49.285499 -0.659163 0.830726 0.004231 -0.016380 180195.000000 0 0 1
-28.136672 23.009989 34.467007 50.090982 -0.685497 0.811945 0.002329 -0.012070 -88556.600000 0 0 1
-29.090732 23.232689 -33.842774 50.312641 -0.673904 2.308580 0.006754 -0.008463 507253.000000 0 0 1
-28.726132 22.732689 -32.579044 49.024074 -0.669450 2.297690 0.000056 0.009372 -650766.000000 0 0 1
-27.589832 23.294289 -31.742794 48.077309 -0.701180 2.291941 0.005958 0.001524 -556831.000000 0 0 1
-27.675792 24.666089 -31.387664 48.575208 -0.727961 2.273347 -0.000044 0.000951 526909.000000 0 0 1
-26.639342 24.959089 -30.424094 47.520902 -0.752846 2.265588 -0.003058 0.005226 556407.000000 0 0 1
-26.885042 26.321189 -29.702414 47.935830 -0.774801 2.239066 -0.009319 0.007847 -122106.000000 0 0 1
-26.742812 27.456389 -30.477104 48.968205 -0.798563 2.242583 -0.002674 0.008512 719726.000000 0 0 1
-27.899642 27.885789 -31.249844 50.324546 -0.785150 2.240771 -0.003705 0.012517 606709.000000 0 0 1
-27.710912 29.302989 -31.902394 51.422976 -0.813315 2.240039 -0.000731 0.010865 -59758.700000 0 0 1
-27.815992 30.332889 -31.004304 51.527472 -0.828655 2.216430 0.001279 0.003074 96101.900000 0 0 1
-27.447632 31.580389 -31.597134 52.431596 -0.855298 2.217596 -0.001613 -0.003301 -56031.700000 0 0 1
-27.626302 32.822989 -30.629024 52.713359 -0.871155 2.190813 -0.004355 0.003544 -13488.200000 0 0 1
-26.760242 32.855489 -29.512344 51.638862 -0.887286 2.179146 -0.010082 0.002543 -15201.800000 0 0 1
-27.097492 33.855089 -28.572314 51.930898 -0.895814 2.153399 -0.019909 0.009213 -667964.000000 0 0 1
-26.194422 34.011389 -27.332644 50.892000 -0.914513 2.137758 -0.010367 0.005525 -310426.000000 0 0 1
-24.962682 34.668789 -27.479664 50.795593 -0.946751 2.142404 -0.004763 0.001089 -438793.000000 0 0 1
-24.908482 -33.414920 -27.847104 50.124351 0.930226 2.159833 0.000984 0.009038 -1038900.000000 0 0 1
-25.359452 -32.395620 -26.842104 49.123075 0.906628 2.148887 0.003512 0.012809 1079910.000000 0 0 1
-26.802942 -32.352620 -26.700984 49.779838 0.878939 2.136940 -0.008230 0.006485 987794.000000 0 0 1
-27.166772 -31.549920 -25.614604 48.882910 0.859909 2.122336 -0.012501 0.012308 -1371440.000000 0 0 1
-28.632812 -31.406520 -25.400444 49.511513 0.831564 2.109497 -0.023049 0.007949 -1328410.000000 0 0 1
-29.178592 -30.474520 -26.295764 49.714724 0.807119 2.128139 -0.011184 0.003952 971621.000000 0 0 1
-30.619932 -30.456220 -26.315534 50.573401 0.782718 2.118049 -0.009292 0.007052 714577.000000 0 0 1
-31.171882 -29.662720 -27.532724 51.084382 0.760596 2.140005 -0.006878 0.002938 -82605.400000 0 0 1
-32.579462 -29.767420 -27.551284 52.024935 0.740326 2.128900 -0.010739 0.003502 44918.200000 0 0 1
-33.132902 -29.117020 -28.735164 52.643135 0.720975 2.148197 -0.007711 0.001139 942535.000000 0 0 1
-34.689820 -29.258420 -28.857904 53.779340 0.700667 2.137197 -0.005000 0.001312 792041.000000 0 0 1
34.228827 -28.246920 -28.132724 52.544755 -0.689941 2.135784 -0.009555 0.007162 -627867.000000 0 0 1
32.853616 -28.381820 -28.361124 51.857894 -0.712501 2.149454 -0.005653 0.001209 -541858.000000 0 0 1
32.058716 -27.655520 -27.254684 50.352824 -0.711794 2.142748 -0.004640 0.003668 -259363.000000 0 0 1
31.923486 -28.565620 -26.195054 50.212393 -0.729943 2.119621 -0.004115 0.003341 147635.000000 0 0 1
31.064476 -28.012220 -25.229274 48.848771 -0.733778 2.113528 -0.003925 0.008840 -157190.000000 0 0 1
31.090506 -28.922420 -23.974154 48.763572 -0.749287 2.084769 -0.000623 0.012793 -11468.900000 0 0 1
30.588936 -30.230820 -24.144354 49.320739 -0.779510 2.082356 0.003886 0.000239 -38167.900000 0 0 1
30.059606 -30.827220 -22.966754 48.799274 -0.798005 2.060809 0.004472 0.004615 -325100.000000 0 0 1
31.003416 -31.070120 -21.794554 49.005783 -0.786473 2.031674 -0.000735 0.008806 -1211260.000000 0 0 1
32.080616 -31.981620 -22.079554 50.393419 -0.783853 2.024329 0.001469 0.008831 703142.000000 0 0 1
33.032246 -32.028620 -21.029854 50.588700 -0.769973 1.999512 -0.008834 0.014479 315663.000000 0 0 1
33.916119 -30.744020 -20.859154 50.305091 -0.736379 1.998358 -0.017597 0.015262 -1187350.000000 0 0 1
33.233156 -29.564320 -20.585454 49.012780 -0.727041 2.004244 -0.014622 0.016407 -525238.000000 0 0 1
33.958446 -28.449020 -21.036154 49.041233 -0.697345 2.014125 -0.016079 0.015646 152053.000000 0 0 1
33.157696 -27.136620 -20.677954 47.575274 -0.685867 2.020431 -0.016699 0.014285 561567.000000 0 0 1
32.035036 -26.903920 -21.517054 47.043045 -0.698559 2.045855 -0.005533 0.012484 -111542.000000 0 0 1
31.156946 -26.037420 -20.817754 45.629830 -0.696125 2.044552 0.016751 0.008858 -272258.000000 0 0 1
29.873776 -25.844420 -21.636954 45.039253 -0.713207 2.071910 0.014718 0.013021 -143580.000000 0 0 1
29.196556 -27.049320 -21.981554 45.467497 -0.747241 2.075395 0.015301 0.010395 224392.000000 0 0 1
27.968126 -26.764920 -22.631754 44.841647 -0.763419 2.099835 0.009021 0.007982 374492.000000 0 0 1
27.176886 -27.992120 -23.157954 45.369954 -0.800174 2.106475 0.010057 0.005392 -30650.800000 0 0 1
26.688956 -28.853420 -22.143054 45.112471 -0.824348 2.083851 0.007443 0.004268 29967.400000 0 0 1
26.094536 -30.050920 -22.617554 45.777029 -0.855749 2.087574 0.007958 0.002901 76069.900000 0 0 1
25.493936 -30.841220 -21.401354 45.377743 -0.880034 2.061931 0.010151 0.007200 -534908.000000 0 0 1
26.459526 -31.432820 -20.582754 45.954091 -0.871094 2.035209 0.013234 0.004756 -332338.000000 0 0 1
26.818926 -32.705220 -21.008354 47.225387 -0.883967 2.031806 0.009529 0.003977 415639.000000 0 0 1
28.013506 -33.273620 -20.180454 47.949359 -0.871016 2.005201 0.001844 -0.001828 497734.000000 0 0 1
27.600876 -33.688120 -18.864854 47.461358 -0.884394 1.979563 -0.001708 0.002550 94928.100000 0 0 1
27.209836 -32.747520 -17.885354 46.180744 -0.877497 1.968487 -0.004230 -0.000178 -68338.800000 0 0 1
26.719296 -33.219820 -16.478454 45.705762 -0.893428 1.939636 0.006028 0.002614 324893.000000 0 0 1
25.351246 -33.601820 -16.404554 45.176071 -0.924447 1.942416 0.014642 0.001290 239573.000000 0 0 1
25.078526 -34.552320 -15.376554 45.378780 -0.942955 1.916490 0.028724 -0.001289 -603072.000000 0 0 1
23.589506 34.657889 -15.163554 44.582142 0.973183 1.917847 0.025750 -0.006313 -138725.000000 0 0 1
22.875906 -33.698020 -14.673354 43.291696 -0.974406 1.916588 0.010018 -0.002768 -961691.000000 0 0 1
21.525306 -33.931020 -14.555154 42.737635 -1.005477 1.918319 0.023413 -0.012446 -942820.000000 0 0 1
-0.048382 -6.902511 -29.283934 30.086472 1.563787 2.910103 0.000419 0.000942 59653.700000 0 0 1
0.370118 -8.252611 -29.318714 30.460295 -1.525978 2.866951 -0.009318 0.004047 -97029.600000 0 0 1
-0.054082 -8.844311 -30.514714 31.770624 1.564682 2.859480 -0.017017 0.001032 -321523.000000 0 0 1
-0.140382 -10.343611 -30.400634 32.112436 1.557225 2.813608 -0.022596 0.001073 -656747.000000 0 0 1
1.111918 -10.950611 -30.448334 32.376740 -1.469604 2.794714 -0.034098 0.005507 -410876.000000 0 0 1
1.008618 -12.275411 -30.058234 32.483849 -1.488815 2.752698 -0.025955 0.000018 -324509.000000 0 0 1
2.315018 -12.818211 -29.456934 32.208334 -1.392119 2.725252 -0.018433 -0.000323 -95869.500000 0 0 1
3.331518 -12.875411 -30.477904 33.253238 -1.317599 2.730137 -0.010739 -0.005544 1483870.000000 0 0 1
4.691418 -13.146211 -30.046684 33.130582 -1.228019 2.706704 -0.005826 -0.002296 1563120.000000 0 0 1
4.943918 -14.578711 -29.576064 33.342536 -1.243848 2.661684 0.001633 -0.007936 -1179540.000000 0 0 1
4.561018 -14.795211 -28.231724 32.198314 -1.271764 2.639978 0.002918 -0.005474 79829.500000 0 0 1
5.464818 -15.638511 -27.529874 32.129756 -1.234615 2.599894 0.015500 -0.003170 -45475.100000 0 0 1
5.291918 -17.209111 -27.805994 33.125990 -1.272467 2.566977 0.005240 -0.002067 -350370.000000 0 0 1
5.633418 -17.587011 -29.087824 34.454896 -1.260806 2.575921 0.011551 -0.012814 20582.800000 0 0 1
5.416118 -18.978211 -29.143194 35.197054 -1.292800 2.546329 0.011206 -0.014298 -464387.000000 0 0 1
5.653218 -19.587211 -30.495374 36.682224 -1.289814 2.552309 0.009327 -0.014153 -545145.000000 0 0 1
6.981918 -19.629911 -30.916714 37.281682 -1.229073 2.548603 0.013006 -0.012828 -482346.000000 0 0 1
7.067218 -20.375511 -32.128434 38.695520 -1.236932 2.550421 0.010787 -0.011369 83692.900000 0 0 1
8.437818 -20.292611 -32.832344 39.508855 -1.176738 2.551721 0.002532 -0.006232 -8682.170000 0 0 1
8.623218 -19.023911 -33.392834 39.387186 -1.145215 2.582637 -0.001001 -0.004118 -229004.000000 0 0 1
9.656018 -18.945111 -34.335295 40.386488 -1.099432 2.587100 -0.004677 -0.000109 -612961.000000 0 0 1
9.971818 -17.581211 34.415924 39.912304 -1.054854 0.531025 -0.009866 0.001071 -349256.000000 0 0 1
8.959118 -17.280411 33.520931 38.762498 -1.092494 0.526089 -0.004683 0.004219 -216475.000000 0 0 1
9.259418 -16.015311 32.901963 37.746075 -1.046590 0.512205 -0.013303 0.007491 524786.000000 0 0 1
8.207418 -15.494711 31.846513 36.354480 -1.083679 0.503292 -0.003378 0.005472 334780.000000 0 0 1
8.292218 -16.217511 30.574493 35.588877 -1.098140 0.537283 -0.002246 0.006919 78859.900000 0 0 1
7.357818 -15.761511 29.608803 34.340122 -1.134042 0.531156 0.008388 0.005823 -372360.000000 0 0 1
7.395618 -16.542811 28.312093 33.614497 -1.150391 0.569337 0.010166 0.005530 -461900.000000 0 0 1
7.000018 -17.867511 28.519663 34.374691 -1.197402 0.592279 0.015228 0.006463 254893.000000 0 0 1
6.925118 -18.656511 27.379563 33.847646 -1.215370 0.628507 0.015163 0.004016 -72845.200000 0 0 1
6.397318 -20.069211 27.747053 34.836732 -1.262216 0.649331 0.022533 0.000603 -625001.000000 0 0 1
7.159018 -20.687311 28.724433 36.115225 -1.237637 0.651203 0.023918 0.000480 109283.000000 0 0 1
6.486918 -21.715411 29.407093 37.127030 -1.280510 0.656609 0.022319 -0.001098 -82561.000000 0 0 1
7.221018 -22.079311 30.747293 38.536153 -1.254712 0.647023 0.019788 -0.000109 104069.000000 0 0 1
6.762818 -21.347411 31.881723 38.960133 -1.264001 0.612320 0.020218 -0.000989 161134.000000 0 0 1
7.134918 -20.015911 32.038963 38.445272 -1.228376 0.585627 0.011960 0.000040 -484511.000000 0 0 1
6.603018 -19.536911 33.379560 39.236281 -1.244873 0.553420 0.001784 -0.006077 528765.000000 0 0 1
5.177618 -19.320111 33.456700 38.979805 -1.308958 0.538832 0.010167 -0.005420 876387.000000 0 0 1
4.795318 -18.390911 34.461455 39.354956 -1.315732 0.504001 0.006477 -0.008769 388767.000000 0 0 1
3.285918 -18.434111 -34.549984 39.297775 -1.394397 2.644944 -0.002430 -0.011548 353159.000000 0 0 1
2.916018 -19.583411 -33.790824 39.164179 -1.422980 2.611577 -0.003263 -0.005242 49609.400000 0 0 1
2.410318 -19.324911 -32.503004 37.890726 -1.446711 2.601788 -0.012421 -0.014223 -134252.000000 0 0 1
1.767818 -20.564211 -31.828224 37.934784 -1.485041 2.566285 -0.012645 -0.001141 -175020.000000 0 0 1
0.551818 -20.975111 -32.448364 38.641378 -1.544494 2.567584 -0.016846 0.004304 626740.000000 0 0 1
-0.414382 -21.645611 -31.656674 38.351652 1.551655 2.541763 -0.019217 0.005445 407346.000000 0 0 1
-1.133082 -20.831511 -30.592914 37.029206 1.516457 2.543096 -0.016467 0.005509 -1003300.000000 0 0 1
-1.795482 -19.685511 -31.048994 36.807379 1.479840 2.574662 -0.015911 0.005656 -193196.000000 0 0 1
-1.699482 -18.656211 -30.083154 35.439224 1.479952 2.584633 -0.021138 0.000108 -64318.000000 0 0 1
-1.838182 -17.276811 -30.767574 35.334271 1.464799 2.627537 -0.022275 0.001546 -121824.000000 0 0 1
-2.136782 -16.341111 -29.793754 34.047989 1.440773 2.636339 -0.023418 -0.001420 -430113.000000 0 0 1
-2.091182 -15.004011 -30.369004 33.937734 1.432314 2.678880 -0.019275 -0.004441 140468.000000 0 0 1
-2.973582 -13.980711 -29.584574 32.856498 1.361227 2.691525 -0.014372 -0.005891 96133.200000 0 0 1
-2.801482 -13.836611 -28.165474 31.505460 1.371028 2.676962 -0.014369 -0.010497 260304.000000 0 0 1
-3.824682 -12.965011 -27.656184 30.782856 1.283933 2.686973 -0.003851 -0.007976 388589.000000 0 0 1
-3.964882 -12.807611 -26.153154 29.389499 1.270581 2.667880 -0.003383 -0.009110 -334302.000000 0 0 1
-4.516182 -13.894611 -25.429904 29.328078 1.256536 2.620115 -0.001766 -0.008411 186405.000000 0 0 1
-4.458082 -13.628711 -24.043954 27.995142 1.254658 2.603839 -0.002704 -0.005582 181158.000000 0 0 1
-5.709882 -12.872811 -23.461554 27.363416 1.153310 2.601004 0.004091 -0.000955 732552.000000 0 0 1
-6.933282 -13.593911 -23.565154 28.074567 1.099158 2.566933 0.007852 -0.000574 -26157.300000 0 0 1
-8.034082 -12.777611 -23.240854 27.711931 1.009496 2.565612 0.013187 0.000255 308856.000000 0 0 1
-9.411082 -13.474111 -23.377854 28.576987 0.961107 2.528836 0.014888 0.000107 221367.000000 0 0 1
-9.867282 -14.128011 -22.215454 28.115660 0.961132 2.481842 0.014506 -0.002134 58132.900000 0 0 1
-11.011782 -14.935611 -22.477154 29.147114 0.935483 2.451461 0.004598 0.001532 344595.000000 0 0 1
-11.367282 -15.820611 -21.251154 28.829124 0.947755 2.399627 0.011103 -0.003280 243837.000000 0 0 1
-10.469382 -16.907711 -20.981554 28.908550 1.016373 2.382979 0.019540 -0.000866 1217.330000 0 0 1
-10.936982 -18.232611 -21.275354 30.078005 1.030481 2.356523 0.013166 0.001262 264640.000000 0 0 1
-11.351682 -18.589011 -22.785254 31.521101 1.022571 2.378725 0.013380 -0.005052 524381.000000 0 0 1
-12.461382 -17.872811 -23.316054 31.911781 0.961935 2.390057 0.007353 -0.007706 -29359.400000 0 0 1
-12.958982 -18.612011 -24.412554 33.321389 0.962578 2.392988 0.006217 -0.006036 -128214.000000 0 0 1
-14.135982 -17.895411 -25.098664 33.911866 0.902231 2.404037 0.002526 -0.001079 317092.000000 0 0 1
-15.414682 -18.337811 -24.623654 34.354215 0.871787 2.369938 0.003259 -0.002734 611162.000000 0 0 1
-16.526682 -17.763111 -25.288234 35.045030 0.821441 2.376896 0.001644 -0.001099 233483.000000 0 0 1
-17.060982 -16.371111 -24.857254 34.307047 0.764766 2.381181 -0.005445 0.010007 -508632.000000 0 0 1
-17.914582 -16.514211 -23.745154 34.021813 0.744746 2.343312 -0.000042 0.002400 112223.000000 0 0 1
-18.593282 -15.274411 -23.518454 33.647220 0.687715 2.344755 -0.008659 0.008215 61231.900000 0 0 1
-19.444382 -15.248211 -22.234354 33.240915 0.665030 2.303504 -0.007250 0.001764 -395593.000000 0 0 1
-18.648482 -14.983311 -21.122554 31.912815 0.676847 2.294124 -0.004544 0.004588 -30508.500000 0 0 1
-19.285082 -15.019011 -19.835954 31.479361 0.661673 2.252511 -0.012891 0.004904 -282885.000000 0 0 1
-19.910882 -13.705711 -19.292354 30.927086 0.602866 2.244393 -0.015107 0.003226 -252919.000000 0 0 1
-21.137582 -13.315311 -19.853554 31.910163 0.562141 2.242308 -0.009213 0.002138 -143279.000000 0 0 1
-21.565982 -12.244811 -19.019454 31.253265 0.516394 2.225040 -0.009327 0.004330 38026.100000 0 0 1
-22.955582 -11.713011 -19.432054 32.276277 0.471811 2.216867 0.009883 0.003932 26281.300000 0 0 1
-22.959482 -11.030011 -20.706754 32.826340 0.447855 2.253376 0.004191 0.003998 147438.000000 0 0 1
-24.281782 -10.603611 -20.973854 33.792663 0.411730 2.240384 0.008605 0.001899 -48415.900000 0 0 1
-24.448282 -9.657111 -22.117154 34.353264 0.376190 2.270270 0.012510 -0.002390 -97269.900000 0 0 1
-24.220682 -10.314011 -23.341254 35.182871 0.402578 2.296185 0.004310 0.006513 383982.000000 0 0 1
-24.980482 -9.638811 -24.329954 36.178416 0.368252 2.308377 0.013658 -0.007711 -123421.000000 0 0 1
-24.962982 -10.339011 -25.722864 37.305647 0.392665 2.331618 0.014100 -0.000919 -156682.000000 0 0 1
-23.887182 -10.042511 -26.583504 37.123202 0.397980 2.368979 0.008691 -0.005904 -403386.000000 0 0 1
-22.959082 -11.079611 -26.592144 36.837743 0.449615 2.377300 0.004253 0.001207 -797639.000000 0 0 1
-22.109082 -10.989311 -27.843994 37.213767 0.461285 2.416168 0.012694 -0.002726 -592769.000000 0 0 1
-22.756382 -11.271311 -29.042114 38.579007 0.459883 2.423095 0.017200 0.004192 -253977.000000 0 0 1
-21.889282 -10.984011 -30.129184 38.827270 0.465085 2.459064 0.011873 0.007317 153508.000000 0 0 1
-22.406482 -11.283711 -31.526094 40.289790 0.466517 2.469441 0.009936 0.006827 -33006.300000 0 0 1
-23.344182 -10.400911 -32.110544 41.039211 0.419144 2.469364 0.010756 -0.002085 62629.600000 0 0 1
-22.769582 -9.421111 -32.906494 41.110200 0.392311 2.498835 0.006724 -0.003484 -1047130.000000 0 0 1
-23.800082 -8.366211 -33.331494 41.802223 0.338029 2.493707 0.010577 -0.010084 -1400440.000000 0 0 1
-24.655482 -8.698211 -34.372224 43.185662 0.339158 2.491318 0.007793 -0.013520 773811.000000 0 0 1
-25.781772 -9.505411 -34.007784 43.721642 0.353225 2.461994 0.013329 -0.009435 -202549.000000 0 0 1
-26.794842 -8.958011 -32.975314 43.423275 0.322637 2.433175 0.006072 -0.000292 -1575150.000000 0 0 1
-28.093742 -9.446411 -33.186754 44.495546 0.324370 2.412598 0.005878 0.000070 -565548.000000 0 0 1
-28.870432 -9.045611 -32.102244 44.112118 0.303629 2.385820 0.012400 0.004073 -630290.000000 0 0 1
-30.318232 -9.499311 -32.302024 45.308419 0.303632 2.364473 0.010491 0.003984 -538390.000000 0 0 1
-30.508992 -10.899111 -32.275294 45.730556 0.343112 2.354307 0.012203 -0.000941 1197130.000000 0 0 1
-31.861592 -11.334011 -31.962214 46.531752 0.341767 2.327998 0.011146 -0.004212 1038930.000000 0 0 1
-31.992832 -12.823111 -32.157734 47.139085 0.381206 2.321548 0.009392 -0.003750 539690.000000 0 0 1
-33.339092 -13.276811 -31.948934 48.046885 0.378984 2.298228 -0.000139 -0.007584 682235.000000 0 0 1
-33.430622 -14.689911 -32.019934 48.566204 0.414017 2.290690 0.000503 -0.005008 553198.000000 0 0 1
-34.771984 -15.258311 -31.465024 49.314852 0.413510 2.262751 0.007623 -0.014504 457093.000000 0 0 1
-34.713872 -15.225611 -30.028614 48.358968 0.413336 2.240753 0.000026 -0.011539 -39024.000000 0 0 1
34.154061 -16.242211 -29.377484 47.888891 -0.443903 2.231219 0.002880 -0.005794 -162877.000000 0 0 1
34.344293 -16.189311 -27.859204 47.093094 -0.440493 2.203810 -0.007033 0.000534 -70603.500000 0 0 1
-33.913332 -16.300411 -27.436924 46.568254 0.448047 2.200836 0.006362 -0.003673 108091.000000 0 0 1
-33.900362 -16.381211 -25.991254 45.750671 0.450131 2.175000 0.001605 0.000489 511467.000000 0 0 1
-32.524972 -15.999111 -25.342734 44.227814 0.457149 2.180963 0.023069 0.008692 1010820.000000 0 0 1
-31.523562 -17.019111 -25.293374 43.853618 0.495045 2.185563 0.021673 0.015458 -219399.000000 0 0 1
-30.290232 -16.553411 -24.877054 42.548577 0.500147 2.195275 0.024345 0.028515 18088.100000 0 0 1
-29.056332 -17.458411 -25.222434 42.252073 0.541042 2.210492 0.019161 0.018618 365803.000000 0 0 1
-28.832692 -18.691711 -24.588154 42.252592 0.575166 2.191899 0.008220 0.005997 34113.900000 0 0 1
-29.746812 -19.738711 -24.955754 43.557768 0.585847 2.180878 0.015633 -0.000411 93347.800000 0 0 1
-29.446642 -21.169211 -24.378754 43.698557 0.623299 2.162631 0.008134 -0.012691 -374008.000000 0 0 1
-28.201942 -21.728311 -24.688054 43.324001 0.656464 2.177116 0.015638 -0.006719 -306579.000000 0 0 1
-28.054802 -22.994111 -24.012154 43.501547 0.686587 2.155538 0.005639 -0.002618 -671109.000000 0 0 1
-26.603732 -23.480011 -24.105254 42.896768 0.723109 2.167521 0.017895 -0.016819 267308.000000 0 0 1
-25.549652 -22.837111 -23.367854 41.477403 0.729397 2.169277 0.009132 -0.013814 396305.000000 0 0 1
-25.765892 -22.541111 -21.997454 40.692393 0.718741 2.141922 0.008072 -0.002805 -825177.000000 0 0 1
-25.484072 -23.749311 -21.078454 40.715708 0.750177 2.114955 0.003476 -0.009191 -104923.000000 0 0 1
-25.721302 -23.495411 -19.726054 40.034197 0.740203 2.086021 -0.004368 -0.006207 13855.600000 0 0 1
-25.625662 -24.662911 -18.958454 40.303309 0.766256 2.060534 0.000150 0.012860 -303678.000000 0 0 1
-25.395662 -24.341811 -17.507954 39.293662 0.764213 2.032604 -0.010560 0.007172 -499284.000000 0 0 1
-26.402292 -23.652611 -16.830954 39.240388 0.730520 2.014092 -0.009319 0.007514 -428496.000000 0 0 1
-25.896432 -22.677011 -15.960454 37.942168 0.719216 2.004960 -0.012140 0.005394 76685.300000 0 0 1
-27.047272 -22.020811 -15.154054 38.027837 0.683316 1.980676 -0.006363 0.003593 665095.000000 0 0 1
-28.052722 -21.306711 -15.845954 38.626745 0.649569 1.993506 -0.004081 0.003687 752352.000000 0 0 1
-29.108052 -20.783211 -15.016254 38.790571 0.620062 1.968292 -0.009071 0.002582 1102740.000000 0 0 1
-30.308832 -20.129611 -15.772854 39.656140 0.586258 1.979849 0.000610 0.001711 163131.000000 0 0 1
-31.095652 -21.028511 -16.489854 41.000648 0.594610 1.984699 0.003849 0.007467 -220820.000000 0 0 1
-31.878442 -20.272111 -17.414654 41.598843 0.566413 2.002736 -0.003249 0.005072 254380.000000 0 0 1
-32.591552 -21.033811 -18.590454 43.014363 0.573118 2.017718 -0.001881 0.014805 1253740.000000 0 0 1
-33.685142 -21.949011 -18.337354 44.189438 0.577494 1.998708 -0.001602 0.010483 856049.000000 0 0 1
-33.324162 -22.985411 -17.475254 44.093235 0.603815 1.978307 -0.001668 0.005100 -544316.000000 0 0 1
-34.278440 -24.142611 -17.664154 45.496148 0.613612 1.969535 -0.003425 0.011369 716296.000000 0 0 1
33.946002 -23.941611 -17.275454 44.988588 -0.614264 1.964917 -0.014575 0.009091 778759.000000 0 0 1
33.299586 -25.185201 -17.137154 45.131351 -0.647535 1.960287 -0.009170 0.006911 -403884.000000 0 0 1
31.837626 -25.098971 -16.733654 43.858955 -0.667593 1.962251 -0.016274 0.007912 155680.000000 0 0 1
30.856886 -24.640211 -17.708254 43.276664 -0.673845 1.992359 -0.003887 0.003185 1583440.000000 0 0 1
29.556686 -24.938811 -17.160354 42.308625 -0.700861 1.988431 0.000508 0.006988 877419.000000 0 0 1
28.263376 -24.581111 -17.894354 41.512135 -0.715829 2.016467 0.005184 0.007494 99742.600000 0 0 1
27.932706 -23.192411 -18.004754 40.525241 -0.692943 2.031172 0.010052 0.000600 128613.000000 0 0 1
26.650336 -23.007111 -18.570654 39.804984 -0.712162 2.056172 0.017549 -0.008436 -106921.000000 0 0 1
33.319066 29.457389 -18.396554 48.128277 0.723961 1.963016 -0.003440 -0.008420 -760999.000000 0 0 1
32.358196 29.468089 -19.393154 47.869776 0.738687 1.987910 0.002705 -0.013716 -431308.000000 0 0 1
32.958966 29.212389 -20.647854 48.641453 0.725209 2.009196 -0.001546 -0.014618 165822.000000 0 0 1
32.023436 29.441989 -21.882954 48.694916 0.743424 2.036877 0.005096 -0.014123 -256008.000000 0 0 1
31.059236 28.371089 -21.974854 47.460394 0.740197 2.052190 0.008422 -0.007212 769046.000000 0 0 1
30.157986 28.506189 -23.067554 47.478616 0.757249 2.078133 0.017259 -0.004305 -120088.000000 0 0 1
29.016046 29.490389 -22.985554 47.328106 0.793506 2.077919 0.019354 -0.003549 -761589.000000 0 0 1
29.570326 30.815889 -22.968154 48.492878 0.806022 2.064215 0.018829 0.003273 405349.000000 0 0 1
28.504876 31.750889 -23.094454 48.518045 0.839217 2.066894 0.015239 0.010224 -180168.000000 0 0 1
28.938776 33.255189 -22.984954 49.715877 0.854689 2.051413 0.012687 0.002140 -144789.000000 0 0 1
29.473016 33.521589 -21.708854 49.634966 0.849578 2.023469 0.014881 0.003517 723154.000000 0 0 1
30.905306 33.425389 -21.693954 50.428386 0.824552 2.015503 0.013503 -0.001417 521633.000000 0 0 1
31.467336 33.321189 -20.230854 50.097727 0.814004 1.986493 0.012132 -0.003121 -271460.000000 0 0 1
31.338466 34.537689 -19.494654 50.546938 0.833924 1.966735 0.013048 -0.003626 87929.500000 0 0 1
31.580766 34.395889 -18.171254 50.106051 0.828041 1.941913 -0.004861 -0.007709 -204263.000000 0 0 1
31.049616 -33.913520 -17.307754 49.130071 -0.829455 1.930807 -0.001897 -0.013356 46658.400000 0 0 1
31.877516 -32.773820 -17.406354 48.921166 -0.799261 1.934571 0.000483 -0.001434 468031.000000 0 0 1
32.993726 -32.783520 -16.522854 49.359395 -0.782202 1.912132 -0.003089 -0.003213 -146713.000000 0 0 1
34.132056 -31.791820 -16.777054 49.570017 -0.749914 1.916067 0.012931 -0.002283 -557507.000000 0 0 1
-34.598331 -32.337320 -17.739654 50.571159 0.751632 1.929207 -0.002677 -0.003173 404608.000000 0 0 1
-33.398522 -31.517420 -17.807354 49.253537 0.756429 1.940720 -0.009042 0.001681 903457.000000 0 0 1
-32.202112 -32.091420 -18.583554 49.113987 0.783677 1.958838 -0.011621 -0.005471 -1185820.000000 0 0 1
-31.631032 -33.133620 -17.806154 49.146903 0.808595 1.941536 -0.013013 -0.009357 864979.000000 0 0 1
-30.663102 -33.911620 -18.574254 49.348016 0.835662 1.956696 -0.009728 -0.005088 646096.000000 0 0 1
-29.368862 -33.314420 -19.127054 48.355194 0.848260 1.977466 -0.012199 -0.000677 -1474730.000000 0 0 1
-29.647362 -32.376020 -20.117854 48.289759 0.829364 2.000506 -0.018529 0.003270 958449.000000 0 0 1
-28.501412 -31.797920 -20.834354 47.513245 0.840013 2.024721 -0.011404 0.006872 472244.000000 0 0 1
-27.605342 -32.727220 -21.622954 47.965383 0.870089 2.038461 -0.018118 0.014829 -603877.000000 0 0 1
-28.102692 -33.269520 -22.829054 49.171007 0.869389 2.053616 -0.020759 0.013967 -308478.000000 0 0 1
-27.509372 -34.522720 -23.029354 49.788903 0.897980 2.051654 -0.023319 0.005386 -122198.000000 0 0 1
-28.178192 34.091889 -24.129254 50.383412 -0.880083 2.070212 -0.027365 -0.001845 -306154.000000 0 0 1
-29.387862 33.450389 -23.796554 50.486146 -0.849959 2.061615 -0.033119 -0.010740 -68532.800000 0 0 1
-29.952822 32.629989 -24.828954 50.777600 -0.828150 2.081710 -0.020670 -0.011597 185905.000000 0 0 1
-30.834002 33.342589 -25.879944 52.270789 -0.824467 2.088761 -0.012879 -0.016946 -941039.000000 0 0 1
-30.162402 34.091889 -26.829684 52.838048 -0.846477 2.103393 -0.018974 -0.013350 -490532.000000 0 0 1
-31.028172 34.597289 -27.811284 54.158908 -0.839731 2.110070 -0.013829 -0.007272 166786.000000 0 0 1
-30.281192 -33.952420 -28.843334 53.867015 0.842490 2.135842 -0.013220 -0.007515 108931.000000 0 0 1
-30.083832 -34.500920 -30.157424 54.816244 0.853684 2.153346 -0.010665 -0.001818 -27365.100000 0 0 1
-31.184562 -34.235120 -30.988634 55.720874 0.831995 2.160531 0.000122 0.003603 -447905.000000 0 0 1
-31.254642 34.494689 -32.342934 56.681580 -0.834637 2.178042 0.011353 0.010171 -277240.000000 0 0 1
-30.315782 -34.487620 -33.245324 56.689453 0.849686 2.197461 0.011190 -0.003668 -384202.000000 0 0 1
-30.392272 34.450289 -34.576608 57.498299 -0.847899 2.215986 0.010511 -0.006407 49164.500000 0 0 1
-29.186272 -34.618820 33.885883 56.555762 0.870336 0.928346 -0.001287 -0.007780 1248590.000000 0 0 1
-27.937562 34.154089 34.003094 55.706548 -0.885184 0.914235 0.011036 -0.003714 672508.000000 0 0 1
-27.970182 32.839989 33.514286 54.626031 -0.865310 0.910283 0.015606 -0.004681 -781439.000000 0 0 1
-26.578102 32.226389 33.617604 53.619762 -0.881156 0.893148 0.008793 -0.000747 -777809.000000 0 0 1
-26.183872 31.991889 -34.411471 53.788711 -0.884904 2.264973 0.001269 0.000115 285486.000000 0 0 1
-24.837182 31.531789 -34.377618 52.848462 -0.903609 2.279031 -0.004723 0.001593 228728.000000 0 0 1
-24.500682 30.066589 34.578348 51.960998 -0.887047 0.842677 0.000130 0.003658 -510737.000000 0 0 1
-24.913482 29.077389 -33.850264 51.107890 -0.862368 2.294720 -0.003694 0.010994 103232.000000 0 0 1
-24.483882 27.790389 -34.086754 50.335603 -0.848567 2.314733 -0.010230 -0.000625 -720428.000000 0 0 1
-24.414682 26.928689 -32.790144 48.953289 -0.834324 2.304770 -0.001076 0.002042 -153370.000000 0 0 1
-23.383582 27.087589 -31.818684 47.884841 -0.858655 2.297599 0.001628 -0.005665 135917.000000 0 0 1
-23.460782 28.303489 -31.023814 48.103771 -0.878680 2.271735 0.000736 0.000510 -573159.000000 0 0 1
-22.198882 28.489589 -30.218824 47.091659 -0.908872 2.267512 0.003938 -0.002626 -913811.000000 0 0 1
-21.042282 28.750189 -30.953504 47.196084 -0.938980 2.286103 0.002859 -0.001577 -902472.000000 0 0 1
-19.848482 28.482189 -30.308134 46.084491 -0.962172 2.288511 0.004246 -0.004068 -186365.000000 0 0 1
-19.227582 29.623789 -29.395024 45.949278 -0.995083 2.264940 0.004029 0.002432 -502195.000000 0 0 1
-18.902582 30.789189 -30.226114 47.105198 -1.020193 2.267473 0.005096 0.003587 318823.000000 0 0 1
-18.564182 31.923889 -29.368304 47.183268 -1.044081 2.242641 -0.001480 0.001170 -46780.400000 0 0 1
-18.279082 33.148889 -30.248834 48.455811 -1.066861 2.244975 -0.012460 0.006232 311616.000000 0 0 1
-17.070182 33.067689 -30.998674 48.433262 -1.094258 2.265332 -0.005665 0.007085 140392.000000 0 0 1
-16.843782 34.185789 -31.871924 49.680989 -1.112995 2.267290 -0.001165 0.007539 502403.000000 0 0 1
-15.365482 34.263989 -32.370954 49.578197 -1.149237 2.282239 0.000011 0.009380 851937.000000 0 0 1
-14.459982 34.643389 -31.296214 48.874415 -1.175385 2.265736 0.005933 0.007625 1006730.000000 0 0 1
-13.065182 34.489489 -31.573854 48.550304 -1.208684 2.278819 0.018651 0.014057 872639.000000 0 0 1
-12.478182 33.090489 -31.469394 47.339288 -1.210192 2.297972 0.015158 0.004283 -661666.000000 0 0 1
-12.502382 32.571389 -30.187604 46.135630 -1.204293 2.284083 0.014976 -0.003830 -47305.700000 0 0 1
-12.028282 31.278789 -30.091574 45.039372 -1.203679 2.302472 0.009311 -0.000285 -471728.000000 0 0 1
-12.158482 30.806189 -28.660594 43.798169 -1.194887 2.284157 0.001847 -0.004936 -637905.000000 0 0 1
-11.105882 31.335189 -27.944324 43.429482 -1.230187 2.269782 0.003505 0.002107 -594295.000000 0 0 1
-10.987782 30.678189 -26.706174 42.131963 -1.226868 2.257343 -0.000942 -0.005273 -343068.000000 0 0 1
-9.674282 31.063089 -26.026494 41.663960 -1.268878 2.245513 0.009156 -0.000704 -184063.000000 0 0 1
-8.571382 30.405489 -26.627874 41.315929 -1.296024 2.271158 0.013156 0.002938 52227.500000 0 0 1
-7.388282 30.958489 -26.048944 41.128606 -1.336527 2.256675 0.012360 -0.001248 1399100.000000 0 0 1
-6.035082 30.197489 -26.421074 40.575654 -1.373541 2.279903 0.007431 -0.000467 891789.000000 0 0 1
-5.788382 28.904289 -25.883264 39.228900 -1.373150 2.291350 0.009150 -0.009136 -150671.000000 0 0 1
-4.659782 28.259289 -26.426254 38.969833 -1.407373 2.315999 0.009859 -0.009659 -340230.000000 0 0 1
-4.174982 27.152289 -25.562164 37.524678 -1.418230 2.320210 0.009736 -0.014246 -128071.000000 0 0 1
-5.036682 26.008589 -25.326874 36.650585 -1.379510 2.333718 0.013961 -0.016024 316981.000000 0 0 1
-4.348582 24.867889 -24.852154 35.425296 -1.397679 2.348348 0.015132 -0.012701 20254.800000 0 0 1
-5.269782 23.611989 -24.695654 34.571259 -1.351213 2.366478 0.015150 -0.009981 200087.000000 0 0 1
-5.637882 23.003189 -25.983384 35.157768 -1.330443 2.402457 0.000982 -0.010771 186888.000000 0 0 1
-6.462082 21.897989 -25.685754 34.366239 -1.283842 2.414955 0.001089 -0.011732 -365541.000000 0 0 1
-6.616282 21.046889 -26.927424 34.811390 -1.266219 2.455178 -0.007325 -0.002914 4175.590000 0 0 1
-5.491382 20.264189 -27.272484 34.417742 -1.306162 2.485523 -0.003071 -0.002821 -171667.000000 0 0 1
-5.149582 19.110489 -26.510954 33.084130 -1.307584 2.500294 -0.011417 -0.000813 45714.600000 0 0 1
-3.879982 18.357989 -26.966124 32.851816 -1.362510 2.533679 -0.004906 -0.004049 162516.000000 0 0 1
-4.063382 17.681289 -28.237944 33.563678 -1.344906 2.570525 -0.008797 -0.002955 -170152.000000 0 0 1
-3.038582 16.739789 -28.494764 33.187423 -1.391233 2.603331 -0.006555 0.000062 -197345.000000 0 0 1
-2.795682 16.613089 -30.001594 34.407938 -1.404077 2.629943 -0.005397 0.001172 -90344.000000 0 0 1
-2.397582 17.871789 -30.528784 35.456394 -1.437438 2.608075 0.004996 -0.000182 140568.000000 0 0 1
-2.099082 17.820889 -31.896674 36.597650 -1.453549 2.629151 -0.001291 0.003994 57607.700000 0 0 1
-1.323282 19.005189 -32.544054 37.710260 -1.501281 2.611980 0.009658 0.005485 737309.000000 0 0 1
0.071518 19.028789 -32.170314 37.376851 1.567038 2.607442 0.019262 0.001964 610275.000000 0 0 1
0.772018 20.075789 -32.729494 38.403816 1.532360 2.591060 0.023603 0.002417 -88073.300000 0 0 1
0.540318 21.376889 -31.963954 38.457219 1.545526 2.551980 0.012495 -0.001403 -554726.000000 0 0 1
1.041118 21.437389 -30.659654 37.425392 1.522269 2.530847 0.014105 -0.015254 -238414.000000 0 0 1
0.773818 22.692289 -30.049244 37.662924 1.536709 2.494511 0.014430 -0.014439 -263363.000000 0 0 1
1.719718 22.834489 -28.858214 36.839759 1.495626 2.470824 0.017012 -0.010959 -838888.000000 0 0 1
3.027218 22.992889 -29.300184 37.367603 1.439890 2.472052 0.001645 -0.012134 -1254020.000000 0 0 1
3.942418 23.130089 -28.255434 36.727554 1.401973 2.448581 -0.002526 -0.008451 -208563.000000 0 0 1
4.374118 24.584689 -28.006274 37.521876 1.394718 2.413430 -0.003655 -0.008151 -407374.000000 0 0 1
5.124118 25.123789 -29.074824 38.766051 1.369601 2.418870 -0.007559 -0.009373 140130.000000 0 0 1
5.420918 26.514789 -28.807764 39.526037 1.369127 2.387408 -0.012599 -0.008154 -216733.000000 0 0 1
6.249918 27.094889 -29.973744 40.885447 1.344094 2.393688 0.000634 -0.008153 -308026.000000 0 0 1
7.639718 26.859689 -29.933304 40.936669 1.293684 2.390890 0.013948 -0.000432 -368375.000000 0 0 1
8.237218 27.809489 -30.741464 42.264134 1.282828 2.385271 0.026552 -0.009323 49467.800000 0 0 1
9.768418 27.831289 -30.478544 42.413963 1.233243 2.372579 0.023253 -0.005550 190585.000000 0 0 1
10.505818 28.701689 -31.294834 43.743866 1.219909 2.368008 0.039477 -0.011115 127499.000000 0 0 1
11.800818 28.914989 -30.742614 43.822873 1.183309 2.348324 0.026960 -0.012003 577590.000000 0 0 1
12.695018 29.985989 -31.450764 45.271112 1.170311 2.338827 0.033670 -0.005520 -81260.000000 0 0 1
12.224018 31.321889 -31.380314 45.991428 1.198705 2.321711 0.030826 -0.001846 -21036.300000 0 0 1
13.000518 32.258189 -32.088234 47.320809 1.187694 2.315971 0.040492 -0.005484 -20890.700000 0 0 1
12.241418 33.602289 -32.245744 48.153444 1.221437 2.304528 0.035057 -0.007181 -71121.500000 0 0 1
11.338718 33.685689 -33.310024 48.711907 1.246106 2.323777 0.030088 -0.006337 -327885.000000 0 0 1
10.458918 34.740089 -33.038344 49.069287 1.278366 2.309459 0.018222 0.003946 -419032.000000 0 0 1
9.340718 -34.522520 -34.050714 49.381216 -1.306554 2.331661 0.018025 0.004678 -218677.000000 0 0 1
9.776118 -33.860220 34.157432 49.079702 -1.289720 0.801043 0.011555 0.003866 287486.000000 0 0 1
8.691318 -33.578720 33.269553 48.061758 -1.317521 0.806229 0.020608 0.008416 300404.000000 0 0 1
9.003618 -32.711120 32.037983 46.663850 -1.302201 0.814036 0.009949 0.012505 -140002.000000 0 0 1
8.875718 -31.339120 32.358113 45.912594 -1.294809 0.788688 0.003800 0.010791 89972.500000 0 0 1
9.162418 -30.569120 31.181643 44.617439 -1.279589 0.796985 0.010642 0.009743 -242097.000000 0 0 1
8.622118 -29.111520 31.337663 43.633366 -1.282852 0.769578 0.010729 0.000149 817695.000000 0 0 1
7.196818 -28.948020 31.342193 43.267946 -1.327125 0.760670 0.012194 0.007827 419727.000000 0 0 1
6.645518 -29.108620 32.645063 44.239969 -1.346342 0.740830 0.010625 0.010748 232691.000000 0 0 1
5.099218 -29.351420 32.549273 44.124404 -1.398783 0.741183 0.004794 0.010097 722620.000000 0 0 1
4.532218 -30.590820 32.088043 44.564356 -1.423710 0.766939 0.005618 0.009759 143326.000000 0 0 1
4.882818 -31.054020 30.769943 43.988447 -1.414837 0.796098 0.007489 0.008669 -342225.000000 0 0 1
4.546418 -30.088520 29.550323 42.417102 -1.420829 0.800064 -0.000042 0.008022 235569.000000 0 0 1
3.151218 -29.990420 29.309633 42.052468 -1.466106 0.799622 -0.002111 0.004842 330804.000000 0 0 1
2.906718 -29.244020 28.103353 40.662762 -1.471726 0.807742 0.001979 -0.001977 254213.000000 0 0 1
1.412718 -29.207820 27.627313 40.228857 -1.522466 0.813783 0.001892 -0.001497 801536.000000 0 0 1
0.864918 -30.370120 27.003813 40.648471 -1.542325 0.844205 -0.008178 0.005331 96322.900000 0 0 1
0.595018 -31.382820 27.935243 42.019201 -1.551839 0.843542 -0.004472 0.005148 -1104620.000000 0 0 1
0.544918 -32.827820 27.280153 42.686877 -1.554199 0.877500 -0.012120 0.010602 274702.000000 0 0 1
1.804018 -33.319320 26.836153 42.820681 -1.516706 0.893472 -0.014179 0.011973 340586.000000 0 0 1
2.393218 -32.548220 25.789003 41.595514 -1.497400 0.902060 -0.011653 0.011168 -512145.000000 0 0 1
3.843318 -33.026520 25.551293 41.933170 -1.454947 0.915576 -0.015791 0.010883 414386.000000 0 0 1
4.618218 -32.355120 24.546513 40.874357 -1.429019 0.926625 -0.020923 0.009734 720876.000000 0 0 1
6.009818 -32.351520 24.836833 41.226291 -1.387124 0.924228 -0.012882 0.006031 297967.000000 0 0 1
6.879618 -31.935220 23.635053 40.321250 -1.358615 0.944475 -0.013171 0.007385 -1291930.000000 0 0 1
8.225218 -31.863120 23.881953 40.660304 -1.318169 0.943012 -0.009758 0.008224 -1220180.000000 0 0 1
8.900518 -31.486620 22.714953 39.832092 -1.295308 0.963965 -0.008085 0.006597 -320184.000000 0 0 1
10.003618 -30.453020 22.950653 39.423233 -1.253408 0.949413 0.000607 0.014901 -7085.750000 0 0 1
11.112618 -30.973820 23.669453 40.535304 -1.226326 0.947245 0.001843 0.007924 528407.000000 0 0 1
12.294618 -30.169620 23.538353 40.192259 -1.183827 0.945122 0.006027 0.009354 352842.000000 0 0 1
13.540018 -30.919120 24.079453 41.462563 -1.158036 0.951145 0.022334 0.009239 -110834.000000 0 0 1
13.621618 -30.988920 25.493223 42.376480 -1.156655 0.925308 0.019501 0.004204 -31084.500000 0 0 1
13.998318 -29.748020 26.054853 41.949410 -1.130974 0.900649 0.010442 0.005818 -618025.000000 0 0 1
-10.508882 -14.265711 26.456003 31.841282 0.935892 0.590125 0.009194 -0.021149 -359751.000000 0 0 1
-9.248882 -14.593111 25.903953 31.137044 1.005905 0.588213 -0.007631 -0.013370 -391667.000000 0 0 1
-8.360182 -14.741511 26.963553 31.847103 1.054905 0.561126 -0.001006 -0.014677 377395.000000 0 0 1
-6.852082 -14.501011 26.616193 31.074943 1.129370 0.542315 -0.002261 -0.005313 370509.000000 0 0 1
-6.166682 -15.352911 25.740583 30.599305 1.188858 0.571271 -0.003738 -0.005420 -128.776000 0 0 1
-6.291982 -15.118211 24.360883 29.353057 1.176415 0.591820 -0.003035 -0.002065 -547340.000000 0 0 1
-5.721082 -16.224811 23.549453 29.164225 1.231795 0.630933 0.000719 -0.003935 132600.000000 0 0 1
-6.464682 -17.470411 23.367753 29.884097 1.216385 0.673015 0.003325 -0.010619 -187793.000000 0 0 1
-6.718082 -18.237711 24.494303 31.268476 1.217858 0.670752 0.004327 -0.012075 -87025.700000 0 0 1
-7.482382 -19.554011 24.234253 32.025684 1.205334 0.712526 0.004549 -0.013160 -638738.000000 0 0 1
-8.835582 -19.436011 23.949253 32.084151 1.144125 0.728083 -0.003370 -0.009090 -1067950.000000 0 0 1
-9.337582 -20.779311 23.847153 32.979644 1.148467 0.762535 -0.006567 -0.007842 -425482.000000 0 0 1
-10.833682 -20.843511 24.135453 33.679975 1.091464 0.771865 -0.002355 -0.009435 -569786.000000 0 0 1
-11.117882 -20.880911 25.498873 34.782356 1.081533 0.747931 -0.003725 -0.009041 1419420.000000 0 0 1
-12.559282 -20.800611 25.699883 35.367852 1.027592 0.757370 -0.002345 -0.004922 1293150.000000 0 0 1
-12.950682 -20.722211 27.226643 36.584427 1.012221 0.731439 -0.000539 0.001674 -398585.000000 0 0 1
-12.743482 -21.953511 27.880073 37.704794 1.044857 0.738572 -0.005478 0.001213 -419845.000000 0 0 1
-11.595582 -22.018111 28.660763 37.956476 1.086066 0.714997 -0.005283 0.001788 -790164.000000 0 0 1
-11.334382 -23.396111 29.316243 39.182756 1.119661 0.725463 -0.006895 0.001238 -354404.000000 0 0 1
-12.328682 -23.901611 30.167153 40.414608 1.094581 0.728097 -0.005705 0.002802 -220347.000000 0 0 1
-11.935882 -25.156231 30.699863 41.446144 1.127780 0.736659 -0.002049 0.008181 -391919.000000 0 0 1
-13.013982 -25.698401 31.625523 42.777859 1.102032 0.738771 -0.001026 -0.006030 -347400.000000 0 0 1
-12.952482 -25.172751 32.888623 43.394651 1.095582 0.710715 0.013502 -0.007993 -262105.000000 0 0 1
-14.041982 -25.550291 33.703383 44.563580 1.068274 0.713159 -0.001910 -0.010098 -251396.000000 0 0 1
-14.025482 -25.048411 -34.144676 44.609371 1.060358 2.442482 -0.002809 -0.011403 -58058.300000 0 0 1
-13.938282 -23.631311 -33.900414 43.611382 1.037894 2.461206 -0.000813 -0.009058 -445719.000000 0 0 1
-14.983782 -22.864811 -34.397199 43.937235 0.990690 2.470064 -0.002850 -0.008994 -709256.000000 0 0 1
-14.942682 -21.381411 -33.934634 42.801961 0.960834 2.486233 -0.006758 -0.005951 -115693.000000 0 0 1
-15.323682 -21.286411 -32.550604 41.802731 0.946852 2.463342 0.000186 0.000715 281896.000000 0 0 1
-15.363582 -19.910911 -32.131174 40.803142 0.913604 2.477487 0.004417 0.001165 -246615.000000 0 0 1
-15.307482 -19.737611 -30.623304 39.518085 0.911143 2.457383 0.002170 0.003894 -23479.200000 0 0 1
-16.475282 -20.175311 -29.955944 39.696809 0.886011 2.425869 -0.002628 0.006841 122224.000000 0 0 1
-16.468182 -19.817811 -28.598874 38.494704 0.877449 2.408234 -0.008133 0.010750 -238307.000000 0 0 1
-15.600982 -20.602311 -27.595524 37.806862 0.922675 2.388983 -0.009098 -0.002549 -6606.310000 0 0 1
-14.210182 -20.369611 -27.742934 37.236014 0.961672 2.411416 -0.007178 -0.001528 -56223.200000 0 0 1
-13.555182 -21.501611 -27.184894 37.216672 1.008304 2.389776 -0.008233 -0.010524 514447.000000 0 0 1
-12.026982 -21.554711 -27.501674 36.953971 1.061851 2.410154 0.008527 -0.003404 61212.100000 0 0 1
-11.378882 -20.441111 -26.859674 35.619658 1.062849 2.425032 0.014008 0.002023 746748.000000 0 0 1
-9.945082 -20.465511 -26.871424 35.211010 1.118457 2.438976 0.016800 0.001918 1051470.000000 0 0 1
-9.254982 -21.506611 -25.957684 34.956979 1.164418 2.407682 0.010070 0.003004 -701692.000000 0 0 1
-9.330182 -22.788711 -26.502414 36.176727 1.182195 2.392904 0.006459 0.004488 26918.000000 0 0 1
-8.839282 -23.712911 -25.563544 35.971236 1.213989 2.361241 0.007896 0.005373 -128741.000000 0 0 1
-9.065782 -25.216491 -25.987314 37.328278 1.225668 2.340863 0.011753 0.002165 -201606.000000 0 0 1
-8.153482 -25.740891 -26.929834 38.135137 1.264042 2.354868 0.009080 -0.000373 -97038.500000 0 0 1
-8.527482 -26.912121 -27.642254 39.510434 1.263941 2.345661 0.011585 0.003797 -247797.000000 0 0 1
-8.622982 -28.293731 -26.957484 40.019957 1.274972 2.309867 0.019563 0.009542 -343685.000000 0 0 1
-9.686882 -28.494541 -26.070334 39.817545 1.243098 2.284641 0.012806 0.008264 -363943.000000 0 0 1
-9.662782 -29.701411 -25.356984 40.230832 1.256265 2.252720 0.016104 0.010963 405511.000000 0 0 1
-10.714282 -29.602231 -24.194454 39.704654 1.223523 2.226050 0.012512 0.012403 290083.000000 0 0 1
-10.305282 -28.691411 -23.213154 38.317704 1.225970 2.221577 0.012977 0.003721 -18155.500000 0 0 1
-10.766782 -27.352921 -23.363154 37.549206 1.195798 2.242347 0.013518 0.001645 -193283.000000 0 0 1
-10.313782 -26.462061 -22.146954 36.015307 1.199151 2.233096 0.019316 -0.005999 140182.000000 0 0 1
-10.825182 -26.792341 -20.824454 35.618422 1.186812 2.195250 0.024221 -0.004706 204462.000000 0 0 1
-11.231282 -25.596081 -20.182454 34.476550 1.157304 2.196165 0.011087 0.005742 -157252.000000 0 0 1
-11.990282 -25.809801 -18.859354 34.140708 1.135898 2.156038 0.015253 0.002951 -649672.000000 0 0 1
-13.184382 -26.496331 -19.016454 35.178246 1.109076 2.141916 0.022091 -0.001276 -597513.000000 0 0 1
-13.730882 -26.718461 -17.715454 34.874785 1.096083 2.103626 0.023812 -0.002734 249777.000000 0 0 1
-15.270482 -26.917451 -17.664354 35.633779 1.054762 2.089459 0.035063 -0.007110 -587440.000000 0 0 1
-16.019382 -25.735561 -17.934754 35.222083 1.014025 2.105040 0.034068 -0.002329 866458.000000 0 0 1
-17.417082 -25.919311 -17.649254 35.870065 0.979129 2.085220 0.023586 -0.000406 1141050.000000 0 0 1
-18.256082 -26.781401 -18.681354 37.410172 0.972479 2.093663 0.014763 0.000620 -945175.000000 0 0 1
-17.921082 -28.184541 -18.728154 38.292000 1.004434 2.081840 0.018778 -0.000577 149512.000000 0 0 1
-18.366982 -28.907201 -17.547854 38.482457 1.004769 2.044288 0.024733 -0.002521 316289.000000 0 0 1
-19.852882 -29.393871 -17.414554 39.514596 0.976766 2.027188 0.012059 0.005184 685354.000000 0 0 1
-20.184882 -30.348851 -18.433254 40.844425 0.983882 2.039022 0.013327 0.005786 34959.300000 0 0 1
-21.330882 -31.066141 -17.991554 41.758923 0.969101 2.016223 0.008473 0.009124 128114.000000 0 0 1
-21.924082 -32.001881 -19.056754 43.219737 0.970149 2.027428 0.011125 0.008950 157381.000000 0 0 1
-21.196082 -33.244141 -19.261754 43.880086 1.003196 2.025241 0.009553 0.001217 168619.000000 0 0 1
-21.703382 -33.941341 -20.327754 45.125037 1.001882 2.038095 0.011579 0.007980 -15971.200000 0 0 1
-21.124082 34.145495 -20.476154 45.071217 -1.016777 2.042390 0.010948 0.003731 167098.000000 0 0 1
-21.663782 33.347047 -19.469054 44.276281 -0.994670 2.026080 0.011271 -0.002899 -281948.000000 0 0 1
-20.821082 32.245377 -19.283854 42.955196 -0.997445 2.036363 0.009270 -0.007203 -305844.000000 0 0 1
-21.403982 30.970867 -18.660554 42.018345 -0.966068 2.030971 0.010918 -0.017458 -267368.000000 0 0 1
-21.658982 31.077027 -17.255054 41.624872 -0.962124 1.998230 0.006793 -0.020110 -168362.000000 0 0 1
-22.524782 30.017327 -16.874754 41.148063 -0.927044 1.993358 -0.003567 -0.017358 118713.000000 0 0 1
-21.874482 28.611737 -16.560954 39.640758 -0.918062 2.001792 -0.000976 -0.019396 -21776.400000 0 0 1
-21.506082 27.934517 -17.721254 39.457466 -0.914696 2.036580 -0.013677 -0.019507 6278.610000 0 0 1
-20.863482 26.687087 -17.438954 38.099903 -0.907263 2.046221 -0.012063 -0.021802 -106712.000000 0 0 1
-20.322682 26.093997 -18.726454 38.007738 -0.909100 2.085987 -0.006194 -0.015777 -1065000.000000 0 0 1
-19.947282 24.738887 -18.580654 36.812325 -0.892218 2.099877 0.001927 -0.016383 3805.010000 0 0 1
-19.355682 24.199597 -19.718954 36.730098 -0.896156 2.137508 -0.000070 -0.008692 305950.000000 0 0 1
-17.940082 24.713767 -20.127054 36.574788 -0.942889 2.153518 -0.006792 -0.012127 -330947.000000 0 0 1
-16.861682 24.359897 -19.286354 35.350875 -0.965331 2.147865 -0.004210 -0.007249 -314847.000000 0 0 1
-15.913682 25.353627 -19.129154 35.524305 -1.010280 2.139429 -0.004925 -0.004038 -743391.000000 0 0 1
-16.100282 26.506777 -18.101254 35.909382 -1.024952 2.099114 -0.017024 -0.006810 -948596.000000 0 0 1
-17.063682 27.392087 -18.541254 37.219266 -1.013678 2.092275 -0.015793 -0.009484 -423552.000000 0 0 1
-16.904982 28.525157 -17.728854 37.600203 -1.035811 2.061798 -0.020946 -0.012052 -349167.000000 0 0 1
-17.938482 29.597197 -18.053154 39.034595 -1.025913 2.051599 -0.016278 -0.012760 -424583.000000 0 0 1
-17.876782 30.256977 -19.330854 40.109175 -1.037145 2.073682 -0.013947 -0.006979 125598.000000 0 0 1
-18.213382 29.410657 -20.454954 40.188545 -1.016322 2.104790 -0.008729 -0.007569 -255638.000000 0 0 1
-17.547682 29.866547 -21.776554 40.916379 -1.039592 2.132018 -0.009247 -0.004749 78502.400000 0 0 1
-18.108282 31.079897 -22.230554 42.285546 -1.043242 2.124363 -0.000697 -0.000339 -10796.400000 0 0 1
-18.282882 31.200317 -23.603154 43.183706 -1.040747 2.149066 0.002238 0.000971 472910.000000 0 0 1
-19.100482 32.443447 -24.143254 44.724740 -1.038704 2.141018 -0.002032 0.008736 262175.000000 0 0 1
-18.345182 33.624546 -24.002954 45.202850 -1.071346 2.130583 0.003460 0.009941 -101030.000000 0 0 1
-18.788382 34.709563 -24.806154 46.616546 -1.074655 2.131913 -0.001908 0.008675 -102961.000000 0 0 1
-17.920082 -33.512201 -24.574654 45.256056 1.079750 2.144818 0.014649 0.013223 -36311.700000 0 0 1
-18.240582 -32.697571 -23.460754 44.184352 1.061941 2.130546 0.005580 0.009690 42091.800000 0 0 1
-17.803882 -33.254361 -22.226454 43.781800 1.079243 2.103268 0.005229 0.006748 -52396.500000 0 0 1
-17.616482 -32.176661 -21.073254 42.305555 1.069880 2.092226 0.006665 0.002967 -193828.000000 0 0 1
-16.361282 -31.560261 -21.078854 41.328679 1.092526 2.106016 0.001750 0.010744 -357967.000000 0 0 1
-16.175682 -30.677901 -19.920054 39.994935 1.085568 2.092162 0.011953 0.009883 -763468.000000 0 0 1
-14.963282 -29.811841 -20.054154 38.920621 1.105611 2.112105 0.012395 0.005739 -926005.000000 0 0 1
-13.735682 -30.482941 -20.060654 38.991134 1.147442 2.111212 0.021285 0.005305 -673326.000000 0 0 1
-12.717382 -29.520861 -20.193154 37.960196 1.164029 2.131705 0.020472 -0.002534 -65753.300000 0 0 1
-11.312082 -30.202591 -20.400954 38.162267 1.212429 2.134812 0.018118 -0.000144 569005.000000 0 0 1
-10.735682 -30.816101 -19.252154 37.888420 1.235566 2.103806 0.018081 -0.002733 176833.000000 0 0 1
-10.240082 -29.899161 -18.278654 36.509291 1.240830 2.095155 0.020435 -0.007096 -598008.000000 0 0 1
-9.771382 -30.640481 -17.021954 36.387716 1.262088 2.057589 0.012228 -0.008091 -536496.000000 0 0 1
-10.791182 -31.238101 -16.266154 36.835531 1.238181 2.028165 0.013207 -0.008150 -108005.000000 0 0 1
-10.888982 -32.645571 -16.565054 38.192987 1.248849 2.019413 0.013406 -0.008365 -130699.000000 0 0 1
-11.997682 -33.338181 -15.772354 38.783319 1.225349 1.989612 0.021069 -0.006988 -226754.000000 0 0 1
-11.631682 -33.509211 -14.412054 38.286689 1.236690 1.956730 0.020369 -0.012284 417015.000000 0 0 1
-12.587182 -34.312581 -13.711154 39.035703 1.219200 1.929698 0.023980 -0.007869 298938.000000 0 0 1
-12.140782 -34.602452 -12.197154 38.645813 1.233351 1.891900 0.031014 -0.010218 113724.000000 0 0 1
-11.881182 -33.507071 -11.372954 37.326002 1.230041 1.880412 0.028150 -0.016828 217054.000000 0 0 1
-11.464982 -33.891211 -10.082754 37.171521 1.244593 1.845487 0.031752 -0.017625 -472582.000000 0 0 1
-10.253482 -33.135711 -9.539054 35.973640 1.270703 1.839174 0.024742 -0.016277 -1071530.000000 0 0 1
-9.063282 -33.517981 -10.101254 36.161215 1.306711 1.853902 0.010132 -0.021473 -1113480.000000 0 0 1
-7.986482 -32.723801 -9.603254 35.026469 1.331419 1.848524 0.006891 -0.020335 170082.000000 0 0 1
-6.655682 -33.224641 -10.199254 35.386433 1.373090 1.863169 0.005075 -0.024214 -244018.000000 0 0 1
-6.341782 -34.574905 -9.827754 36.499685 1.389391 1.843417 0.004238 -0.024139 1812.960000 0 0 1
-5.077782 34.603370 -10.410854 36.490588 -1.425094 1.860118 0.004215 -0.020650 -88818.100000 0 0 1
-4.473782 33.500653 -9.600154 35.135046 -1.438039 1.847552 -0.008112 -0.017621 -785146.000000 0 0 1
-3.920982 34.003162 -8.451054 35.256339 -1.455991 1.812856 0.000113 -0.011712 -362071.000000 0 0 1
-3.428182 32.929007 -7.667654 33.983303 -1.467062 1.798386 -0.005160 -0.007576 -150106.000000 0 0 1
-3.161982 33.459470 -6.246854 34.184170 -1.476574 1.754570 0.000506 0.000848 -65102.600000 0 0 1
-2.165182 34.495935 -6.208854 35.117053 -1.508112 1.748535 0.004444 -0.001863 170379.000000 0 0 1
-1.700882 -34.555490 -5.017554 34.959273 1.521614 1.714819 0.004356 -0.004188 -358940.000000 0 0 1
-0.766482 33.994780 -4.235754 34.266225 -1.548253 1.694726 0.003895 -0.004565 -187328.000000 0 0 1
0.547518 34.069443 -4.783754 34.408009 1.554727 1.710278 0.001289 -0.005414 -190518.000000 0 0 1
1.473918 33.445956 -3.960554 33.711874 1.526756 1.688551 -0.001393 0.000299 190128.000000 0 0 1
2.953918 33.600735 -4.407454 34.017065 1.483109 1.700728 0.003539 0.005346 573445.000000 0 0 1
3.596218 -34.660374 -4.013654 35.076826 -1.467410 1.685472 0.004657 0.002896 997871.000000 0 0 1
5.024818 -34.661347 -4.214654 35.276353 -1.426830 1.690558 0.003853 0.006934 1040220.000000 0 0 1
5.614218 -33.324841 -3.810754 34.008622 -1.403894 1.683085 0.007866 0.007460 -269537.000000 0 0 1
5.292918 -32.240071 -4.684354 33.005762 -1.408076 1.713202 0.010195 0.001714 -44189.200000 0 0 1
5.675518 -30.978371 -4.167154 31.768478 -1.389597 1.702348 0.015572 0.001645 52985.000000 0 0 1
5.483518 -29.836871 -5.150854 30.770752 -1.389041 1.738983 0.015780 -0.006216 -476558.000000 0 0 1
6.553118 -29.712321 -6.050754 31.022202 -1.353719 1.767101 0.026484 -0.004033 -164310.000000 0 0 1
6.278518 -28.707401 -7.031254 30.215447 -1.355479 1.805653 0.029346 -0.006175 13201.400000 0 0 1
6.607418 -27.280481 -6.530054 28.818818 -1.333169 1.799371 0.032397 -0.005496 -122001.000000 0 0 1
5.973818 -26.921871 -5.363154 28.093364 -1.352440 1.762880 0.024168 -0.007747 -588374.000000 0 0 1
6.471318 -25.699831 -4.941154 26.958752 -1.324121 1.755124 0.025110 -0.010914 34378.000000 0 0 1
5.696718 -25.176691 -3.698754 26.076794 -1.348274 1.713117 0.016010 -0.010447 -754566.000000 0 0 1
4.484418 -24.636911 -4.057854 25.368358 -1.390747 1.731444 0.008308 -0.013645 -1447920.000000 0 0 1
3.936418 -24.007311 -2.955454 24.506756 -1.408275 1.691688 0.006890 -0.008075 350504.000000 0 1 0
2.570618 -23.283011 -3.224254 23.645349 -1.460834 1.707581 0.006707 -0.009910 1002750.000000 0 1 0
1.607018 -24.131611 -3.841654 24.488272 -1.504301 1.728324 -0.004061 -0.005254 -767516.000000 0 1 0
0.484818 -23.386711 -4.171354 23.760756 -1.550069 1.747267 -0.014731 -0.002926 -849655.000000 0 1 0
-14.532582 23.343189 18.279653 33.018875 -1.013952 0.984101 -0.003874 0.009355 -55763.900000 0 0 1
-15.085182 22.990889 19.532053 33.728990 -0.990119 0.953187 0.005749 0.009703 55248.300000 0 0 1
-14.625682 23.839089 20.510353 34.682666 -1.020497 0.938037 0.003343 0.007376 -949626.000000 0 0 1
-14.557082 23.179789 21.991653 35.111879 -1.010037 0.893959 0.012555 0.000952 -557745.000000 0 0 1
-13.480282 22.282189 22.223553 34.235949 -1.026723 0.864357 0.014308 -0.003655 32551.400000 0 0 1
-12.180182 22.816689 22.262253 34.125738 -1.080454 0.860103 -0.003149 -0.007236 -385882.000000 0 0 1
-11.877182 23.856289 23.329253 35.418131 -1.108859 0.851732 0.011616 -0.004349 -1115980.000000 0 0 1
-11.752782 23.295689 24.626333 35.878591 -1.103552 0.814297 0.010091 -0.002649 -27296.200000 0 0 1
-11.730582 24.289489 25.629573 37.208343 -1.120882 0.810947 0.018041 0.001799 -35089.900000 0 0 1
-11.173582 23.760289 26.966733 37.637813 -1.131220 0.772053 0.012901 0.000922 -1137250.000000 0 0 1
-9.853082 23.428089 27.052843 37.118929 -1.172686 0.754206 -0.004118 0.000490 -2033250.000000 0 0 1
-9.578982 22.872089 28.319253 37.641326 -1.174183 0.719182 -0.008581 -0.000191 -822230.000000 0 0 1
-8.124482 22.356589 28.338293 36.998420 -1.222230 0.698306 -0.017184 0.004895 374018.000000 0 0 1
-7.070782 23.298489 28.304513 37.335787 -1.276144 0.710391 -0.023230 0.006237 113586.000000 0 0 1
-7.008082 24.085589 27.148533 36.963112 -1.287648 0.745902 -0.018523 0.005805 -1711570.000000 0 0 1
-6.094382 25.299689 27.393153 37.783602 -1.334412 0.759760 -0.019150 -0.000051 -397477.000000 0 0 1
-4.752782 24.915289 27.307813 37.270326 -1.382303 0.748522 -0.012848 0.002799 -29723.400000 0 0 1
-3.816882 25.911589 27.794693 38.190627 -1.424544 0.755705 -0.007605 0.002596 -375456.000000 0 0 1
-2.384282 25.487189 27.849503 37.826927 -1.477520 0.743307 -0.008672 0.009654 -997375.000000 0 0 1
-1.740682 25.457589 26.559413 36.830982 -1.502527 0.765384 -0.002090 0.003138 129177.000000 0 0 1
-0.402582 25.025189 26.783883 36.657858 -1.554711 0.751530 0.011723 0.007929 690249.000000 0 0 1
0.297218 24.662489 25.416743 35.416628 1.558745 0.770374 0.015253 0.002650 358461.000000 0 0 1
-0.305182 23.495389 24.845913 34.197161 -1.557808 0.757510 0.010391 0.006340 -27009.600000 0 0 1
0.210518 23.247789 23.576353 33.111152 1.561741 0.778402 0.009506 0.015133 -75126.100000 0 0 1
-0.130282 21.914589 22.921753 31.712347 -1.564851 0.762948 0.001039 0.012046 246210.000000 0 0 1
0.575318 20.757489 23.368453 31.261621 1.543087 0.726487 0.011957 0.010699 248478.000000 0 0 1
0.028518 19.623289 22.666753 29.980927 1.569343 0.713556 0.010714 0.012145 122343.000000 0 0 1
1.008018 18.468889 22.726653 29.302162 1.516271 0.683137 0.011271 0.016860 -111328.000000 0 0 1
2.260718 18.659689 22.112453 29.021637 1.450229 0.704509 0.013487 0.007504 -451946.000000 0 0 1
3.052118 17.526989 22.313253 28.537555 1.398387 0.673103 0.007425 0.002220 235707.000000 0 0 1
4.519918 17.659989 21.807053 28.422745 1.320234 0.696270 0.013198 0.002633 521297.000000 0 0 1
5.325718 18.420489 22.686353 29.704348 1.289351 0.701712 0.008726 0.008541 365276.000000 0 0 1
6.562318 18.839289 22.072053 29.751611 1.235609 0.734930 0.010224 -0.000934 1125470.000000 0 0 1
7.618818 19.566789 22.982753 31.130573 1.199483 0.740295 0.012700 -0.003105 364119.000000 0 0 1
7.177018 20.784289 23.648053 32.291278 1.238306 0.749051 0.007371 0.000192 48325.100000 0 0 1
6.848118 21.833589 22.749953 32.267053 1.266864 0.788300 0.012801 0.000107 -28415.700000 0 0 1
6.074318 22.916189 23.530053 33.402282 1.311688 0.789156 0.007605 0.003149 -212766.000000 0 0 1
5.648918 23.909489 22.676053 33.433177 1.338788 0.825418 0.003462 0.002215 -153502.000000 0 0 1
4.709518 24.743489 23.305253 34.315516 1.382712 0.824197 -0.014662 0.011354 -160652.000000 0 0 1
4.323518 25.946589 22.394953 34.546377 1.405682 0.865502 -0.000472 0.002155 100224.000000 0 0 1
3.954018 25.701389 21.049853 33.455821 1.418149 0.890294 0.006725 0.001503 361967.000000 0 0 1
2.830818 24.867189 20.711753 32.486417 1.457447 0.879481 -0.000219 0.001139 171283.000000 0 0 1
2.413318 25.230789 19.278153 31.844371 1.475437 0.920545 0.002308 0.005356 -940119.000000 0 0 1
1.805318 26.507689 19.273453 32.823509 1.502796 0.943220 0.003635 0.007755 95255.500000 0 0 1
1.590118 27.053689 17.968153 32.515920 1.512087 0.985321 0.007388 0.010891 577451.000000 0 0 1
0.451318 28.141589 17.880853 33.344829 1.554760 1.004819 0.010120 0.016025 463964.000000 0 0 1
0.855218 29.411089 18.413353 34.710158 1.541726 1.011619 0.012327 0.009401 145017.000000 0 0 1
-0.217682 30.279589 18.710253 35.594584 -1.563607 1.017319 0.009588 0.005309 -324167.000000 0 0 1
0.213718 31.673189 19.214353 37.046294 1.564049 1.025516 0.008510 0.002522 -122299.000000 0 0 1
0.730418 31.761889 20.514353 37.817850 1.547804 0.997444 0.005027 0.005255 -182151.000000 0 0 1
1.213418 33.005789 20.834153 39.050178 1.534049 1.008036 0.000045 0.003211 -386286.000000 0 0 1
1.694718 33.063889 22.318753 39.927679 1.519585 0.977642 -0.008378 0.001481 -156561.000000 0 0 1
0.680018 32.810989 23.272553 40.232265 1.550074 0.953963 -0.015014 0.007249 111218.000000 0 0 1
1.127918 33.017389 24.586273 41.181367 1.536648 0.931010 -0.018701 0.002257 -391975.000000 0 0 1
0.053718 32.660189 25.628053 41.514912 1.569152 0.905463 -0.016877 0.002099 -408802.000000 0 0 1
-1.108582 33.462089 25.524323 42.100254 -1.537679 0.919428 -0.016711 0.004682 252132.000000 0 0 1
-2.102782 33.192389 26.512633 42.533235 -1.507530 0.897790 -0.019562 0.004453 212334.000000 0 0 1
-1.769282 33.527189 27.974793 43.701165 -1.518074 0.876118 -0.015571 0.009312 -448449.000000 0 0 1
-0.812782 32.627089 28.553263 43.364460 -1.545890 0.852041 -0.016092 0.002763 291363.000000 0 0 1
-0.323182 33.179889 29.727543 44.550379 -1.561056 0.840247 -0.011163 0.002352 -1084430.000000 0 0 1
0.734218 32.308789 30.452463 44.404385 1.548075 0.815096 -0.019436 0.000878 22227.900000 0 0 1
2.056518 32.333789 29.958533 44.127280 1.507279 0.824517 -0.015600 0.000934 78109.900000 0 0 1
2.171018 31.819289 28.630843 42.859137 1.502672 0.839249 -0.017851 -0.001034 -1337610.000000 0 0 1
3.667918 31.827389 28.259213 42.720246 1.456058 0.847986 -0.012970 -0.002145 -322446.000000 0 0 1
4.277418 30.806789 28.965413 42.501173 1.432832 0.820958 -0.010345 -0.002880 1060560.000000 0 0 1
5.722718 30.816889 28.809453 42.572464 1.387187 0.827504 0.002113 -0.002310 1485090.000000 0 0 1
6.464418 29.715689 29.601973 42.439223 1.356591 0.798873 0.013385 0.001314 26746.400000 0 0 1
6.324618 29.842089 31.039573 43.520181 1.361950 0.776711 0.015492 0.001180 11151.200000 0 0 1
6.993718 28.784089 31.669533 43.363524 1.332443 0.751996 0.015822 -0.000551 -282098.000000 0 0 1
6.931318 28.748589 33.174453 44.441747 1.334210 0.728054 0.028779 -0.016193 -119087.000000 0 0 1
5.623818 28.708389 33.714286 44.636891 1.377351 0.714683 0.013574 -0.018082 -163079.000000 0 0 1
5.670118 28.514389 -34.247077 44.923077 1.374506 2.437732 0.017169 -0.017839 6995.830000 0 0 1
5.741218 27.014089 -33.773574 43.627708 1.361385 2.456138 0.010807 -0.014786 168104.000000 0 0 1
6.954218 26.435489 -34.234751 43.808839 1.313561 2.467795 0.019767 -0.015897 167687.000000 0 0 1
6.980618 25.031589 -34.099648 42.873015 1.298834 2.490404 0.007929 -0.008664 -1168520.000000 0 0 1
8.379618 24.527889 -34.268895 42.967342 1.241592 2.494030 0.019532 -0.007482 -1310840.000000 0 0 1
8.817918 24.413189 33.762728 42.587337 1.224183 0.655427 0.018826 -0.010929 442467.000000 0 0 1
10.018018 23.681989 33.490147 42.223065 1.170602 0.654797 0.014835 -0.011085 382128.000000 0 0 1
10.007618 22.167989 33.830384 41.666138 1.146742 0.623329 0.005901 -0.006978 -797340.000000 0 0 1
9.291018 21.415289 32.846013 40.296379 1.161454 0.617876 0.005094 -0.008444 433557.000000 0 0 1
8.915718 20.098389 33.346260 39.942563 1.153274 0.582926 0.001544 -0.005095 -235370.000000 0 0 1
7.616218 19.998589 34.143411 40.295444 1.206917 0.559865 0.010392 -0.013129 -860395.000000 0 0 1
7.620618 20.683989 -34.012704 40.531040 1.217797 2.566564 0.010174 -0.016751 128034.000000 0 0 1
6.362818 20.956989 -33.417794 39.955347 1.276028 2.561439 0.021684 -0.012198 -76700.700000 0 0 1
6.607918 21.513589 -32.002104 39.123314 1.272792 2.528688 0.021424 -0.015185 39626.900000 0 0 1
7.147918 22.827789 -31.968874 39.927554 1.267343 2.499212 0.011973 -0.010588 85717.400000 0 0 1
7.194118 23.352989 -30.630474 39.183458 1.271962 2.468215 0.004959 -0.011019 -843034.000000 0 0 1
8.640618 23.443989 -30.198154 39.194507 1.217680 2.450373 0.010136 -0.004088 -770911.000000 0 0 1
9.181918 22.174489 -29.992184 38.412845 1.178215 2.466718 0.010252 -0.014774 -203533.000000 0 0 1
10.533918 22.237089 -29.573084 38.471013 1.128402 2.447619 0.016559 -0.008401 342603.000000 0 0 1
11.164918 20.815089 -29.517364 37.804736 1.078466 2.466717 0.014034 -0.017888 -200821.000000 0 0 1
11.319918 19.922489 -30.605474 38.232723 1.054089 2.498933 0.005447 -0.018366 22449.500000 0 0 1
10.128318 19.437289 -31.190084 38.121022 1.090430 2.529045 0.009043 -0.014707 -210880.000000 0 0 1
10.293118 18.292989 -32.263014 38.490048 1.058269 2.564802 0.012838 -0.015908 -527063.000000 0 0 1
10.745918 17.110689 -31.664914 37.562178 1.010026 2.573632 0.014187 -0.016042 260672.000000 0 0 1
10.961518 16.001489 -32.514804 37.860467 0.970187 2.603731 0.010555 -0.008611 -65925.800000 0 0 1
12.261418 15.995289 -33.381134 38.993483 0.916778 2.598413 0.005603 -0.000755 -17862.400000 0 0 1
12.254118 16.936189 -34.471841 40.315080 0.944442 2.596464 0.006521 -0.001514 -109893.000000 0 0 1
12.925318 16.441789 33.808880 39.754706 0.904573 0.553981 0.005649 0.002558 -254245.000000 0 0 1
12.096718 16.662189 32.507113 38.479495 0.942834 0.564623 0.003388 0.001464 -261867.000000 0 0 1
12.407018 17.765889 31.668723 38.372763 0.961171 0.600078 0.001138 0.007102 17763.800000 0 0 1
11.727318 17.701089 30.427363 37.103678 0.985670 0.609275 0.001971 0.004491 487336.000000 0 0 1
10.202918 18.029689 30.358653 36.753463 1.055831 0.598808 0.001154 0.007637 749644.000000 0 0 1
9.344718 17.049189 30.951763 36.551474 1.069410 0.560857 0.002470 0.006803 1066820.000000 0 0 1
7.994918 17.495189 31.199973 36.652949 1.142155 0.552478 0.005977 0.000364 971012.000000 0 0 1
7.324518 16.533289 32.197903 36.928352 1.153765 0.511723 0.005489 0.007138 -136351.000000 0 0 1
7.847818 16.713989 33.504891 38.256024 1.131816 0.503691 0.022425 0.006515 134715.000000 0 0 1
7.525518 15.636789 34.337974 38.473875 1.122245 0.467936 0.024406 0.006875 -98333.700000 0 0 1
7.467318 15.939289 -33.515654 37.856582 1.132677 2.658004 0.025539 0.002299 369735.000000 0 0 1
6.356918 16.782289 -33.128724 37.677154 1.208709 2.645142 0.019428 0.001654 857801.000000 0 0 1
6.398918 17.045789 -31.760464 36.609181 1.211679 2.621060 0.024937 -0.005926 9242.970000 0 0 1
5.430518 18.137089 -31.216264 36.508898 1.279876 2.596408 0.026604 -0.012706 -293993.000000 0 0 1
5.441118 18.264689 -29.818224 35.388290 1.281264 2.572892 0.018095 -0.017098 338939.000000 0 0 1
4.556818 19.254389 -29.294934 35.350944 1.338408 2.547557 0.019366 -0.018550 1804910.000000 0 0 1
2.976518 19.094589 -29.388584 35.173169 1.416158 2.559911 0.020023 -0.019475 -13850.300000 0 0 1
2.496318 18.218089 -28.398124 33.831698 1.434620 2.566964 0.030019 -0.016135 503945.000000 0 0 1
1.072418 18.076789 -28.343024 33.634021 1.511540 2.573055 0.024835 -0.018673 783071.000000 0 0 1
0.312118 19.380689 -28.000424 34.054842 1.554693 2.536089 0.012722 -0.021663 -1187530.000000 0 0 1
0.041618 19.646489 -26.638494 33.099783 1.568678 2.506124 0.014027 -0.017635 24348.000000 0 0 1
-0.547782 20.937589 -26.485864 33.766606 -1.544640 2.472493 0.019479 -0.010920 -13094.900000 0 0 1
-1.067882 21.188589 -25.022754 32.806019 -1.520440 2.438350 0.003036 -0.005626 -279028.000000 0 0 1
-2.256882 20.493089 -24.803854 32.253548 -1.461109 2.448114 0.000427 -0.005290 -400662.000000 0 0 1
-2.577382 20.406289 -23.417454 31.167879 -1.445158 2.420876 -0.001528 0.002656 -345512.000000 0 0 1
-3.767582 19.587089 -22.979254 30.428520 -1.380767 2.426737 -0.002841 0.000063 231400.000000 0 0 1
-5.094182 20.122789 -23.066354 31.031178 -1.322851 2.408829 -0.003432 -0.001599 273941.000000 0 0 1
-6.015482 19.144789 -22.637054 30.251366 -1.266354 2.416290 -0.006069 -0.001815 1019830.000000 0 0 1
-7.440682 19.825089 -22.429254 30.845896 -1.211748 2.384941 0.007897 -0.005554 938198.000000 0 0 1
-7.595982 20.711489 -21.313654 30.674689 -1.219276 2.338978 0.002091 -0.009292 183960.000000 0 0 1
-7.026482 21.986189 -21.608954 31.618204 -1.261469 2.323253 -0.001200 -0.006016 -107557.000000 0 0 1
-7.311382 22.982489 -20.519454 31.665424 -1.262792 2.275763 0.004940 -0.002494 66979.900000 0 0 1
-6.602382 22.670589 -19.318754 30.508381 -1.287404 2.256513 0.008316 0.007582 202082.000000 0 0 1
-7.041282 23.498989 -18.296454 30.602979 -1.279668 2.211631 0.019944 0.013848 -309729.000000 0 0 1
-5.977082 23.766089 -17.224354 29.953812 -1.324410 2.183438 0.007277 0.021772 246665.000000 0 0 1
-4.837082 24.417789 -17.762054 30.579672 -1.375232 2.190563 0.000566 0.021770 -158172.000000 0 0 1
-3.827882 24.604689 -16.777354 30.025372 -1.416458 2.163701 0.002821 0.029906 21475.700000 0 0 1
-2.573282 25.221889 -17.387354 30.742243 -1.469122 2.171939 0.003934 0.023582 -400165.000000 0 0 1
-2.617682 26.628889 -17.593554 32.023165 -1.472809 2.152443 -0.003045 0.032297 -341412.000000 0 0 1
-1.402082 27.156189 -18.038854 32.631651 -1.519212 2.156520 -0.006447 0.025082 -375180.000000 0 0 1
-1.414882 28.632789 -17.659654 33.670489 -1.521422 2.122906 -0.013458 0.008564 -76705.800000 0 0 1
-2.438382 29.499089 -18.117754 34.704394 -1.488324 2.120060 -0.010675 0.008434 -44883.000000 0 0 1
-2.509382 29.728389 -19.563054 35.676143 -1.486586 2.151188 -0.008981 -0.002231 436821.000000 0 0 1
-3.949082 30.295789 -19.889554 36.455787 -1.441176 2.147878 -0.008117 -0.006282 1025510.000000 0 0 1
-4.296982 31.598489 -19.382654 37.317768 -1.435638 2.116939 0.002235 -0.016780 124739.000000 0 0 1
-4.895082 31.581489 -18.076954 36.716870 -1.417022 2.085565 -0.004700 -0.012426 -311029.000000 0 0 1
-5.528382 32.891789 -17.660654 37.740316 -1.404275 2.057768 0.002620 -0.014355 83845.500000 0 0 1
-6.552282 33.386089 -18.532154 38.742793 -1.377002 2.069558 0.010225 -0.008733 161523.000000 0 0 1
-7.098482 34.557389 -18.032954 39.620563 -1.368203 2.043327 0.014205 -0.014124 -313815.000000 0 0 1
-7.988182 -34.268720 -19.107254 40.040522 1.341782 2.068260 0.014674 -0.007061 96388.200000 0 0 1
-9.273382 34.617389 -19.103954 40.611824 -1.309059 2.060545 0.009028 -0.006598 -322797.000000 0 0 1
-10.090482 -34.317920 -20.090454 41.026379 1.284826 2.082537 0.011477 -0.000687 -269578.000000 0 0 1
28.524718 -20.813111 -26.650614 44.239127 -0.630351 2.217328 0.008572 0.002634 463199.000000 0 0 1
27.687518 -21.898611 -26.156704 43.935419 -0.669180 2.208491 0.016974 0.000754 1078010.000000 0 0 1
26.461218 -21.963311 -26.923634 43.674537 -0.692779 2.235036 0.009769 0.001569 978799.000000 0 0 1
25.744918 -23.366711 -26.727234 43.853723 -0.737011 2.226180 0.008201 0.003789 319239.000000 0 0 1
26.369818 -24.575211 -27.240184 45.181146 -0.750186 2.217940 0.000567 0.010080 -1503.810000 0 0 1
27.433818 -25.035411 -26.432404 45.585723 -0.739719 2.189328 0.008006 0.011716 162710.000000 0 0 1
28.102118 -26.328581 -26.914984 46.982333 -0.752826 2.180805 0.005119 0.009693 59837.900000 0 0 1
27.273618 -27.443091 -26.609014 46.957567 -0.788495 2.173244 0.008761 -0.002445 164112.000000 0 0 1
27.726718 -28.657981 -27.230644 48.286217 -0.801913 2.169948 0.003618 -0.000231 381046.000000 0 0 1
26.619718 -29.308611 -28.105674 48.554433 -0.833439 2.188113 0.013482 -0.010741 -172002.000000 0 0 1
26.320718 -28.672341 -29.339724 48.741181 -0.828134 2.216736 0.006741 -0.011816 717165.000000 0 0 1
27.306218 -28.866971 -30.402434 50.032385 -0.813176 2.223901 0.002685 -0.009852 77239.000000 0 0 1
27.564918 -30.273851 -30.979844 51.342785 -0.832200 2.218545 0.009136 -0.007674 -1377230.000000 0 0 1
28.090918 -31.211731 -30.091974 51.660418 -0.837975 2.192592 0.011704 -0.009260 -199748.000000 0 0 1
29.364818 -31.014151 -29.523184 51.920984 -0.812708 2.175621 0.010033 -0.007205 -190339.000000 0 0 1
30.558718 -30.661301 -30.451074 52.926539 -0.787074 2.183823 0.009653 -0.007225 -1124460.000000 0 0 1
30.518618 -29.370141 -30.966784 52.468400 -0.766224 2.202101 0.006997 -0.011044 -464235.000000 0 0 1
31.654418 -29.016361 -31.718514 53.385537 -0.741944 2.206993 0.002626 -0.007927 -181293.000000 0 0 1
31.551818 -27.626161 -32.377814 52.981552 -0.719159 2.228265 -0.005082 0.000670 94362.500000 0 0 1
31.393218 -26.391911 -31.568704 51.755678 -0.699063 2.226802 -0.012209 0.007290 -621166.000000 0 0 1
30.349318 -26.333131 -30.658384 50.541581 -0.714662 2.222570 -0.003415 0.004712 -665984.000000 0 0 1
30.298518 -24.935911 -29.929304 49.351425 -0.688613 2.222388 -0.014411 0.008645 -340996.000000 0 0 1
31.296218 -24.802111 -28.951074 49.323044 -0.670148 2.198106 -0.010297 0.009995 -19620.700000 0 0 1
31.177918 -23.569311 -28.349904 48.283456 -0.647306 2.198337 -0.012353 0.009220 251922.000000 0 0 1
32.101818 -23.350411 -27.101534 48.065181 -0.628870 2.169836 -0.012155 0.012753 -31213.800000 0 0 1
31.726618 -24.214911 -26.043994 47.657422 -0.651919 2.148956 -0.014062 0.006593 728798.000000 0 0 1
30.803218 -23.696411 -25.050254 46.237143 -0.655729 2.143347 0.006816 0.007008 417276.000000 0 0 1
31.425318 -22.654211 -24.087554 45.617696 -0.624609 2.127077 0.011671 0.005694 -65086.900000 0 0 1
31.684918 -21.402611 -24.651254 45.493847 -0.594081 2.143444 0.004790 0.004131 -74152.800000 0 0 1
31.594718 -20.333211 -23.758954 44.453949 -0.571837 2.134668 -0.011606 0.005806 -8839.990000 0 0 1
31.735418 -18.981111 -24.481154 44.348013 -0.539025 2.155586 -0.014257 0.003028 123858.000000 0 0 1
30.618718 -18.722811 -25.312594 43.917844 -0.548820 2.185067 -0.004398 -0.003071 199496.000000 0 0 1
30.873818 -17.649411 -26.219154 44.183010 -0.519323 2.206100 -0.011705 -0.005318 313332.000000 0 0 1
29.916718 -17.696811 -27.480414 44.309822 -0.534173 2.239778 -0.012692 0.004643 92376.900000 0 0 1
28.585918 -17.402611 -27.163994 43.103227 -0.546852 2.252617 -0.006630 0.004423 -198557.000000 0 0 1
27.714518 -17.317511 -28.260424 43.204656 -0.558494 2.283796 -0.011846 -0.000308 -283792.000000 0 0 1
26.262918 -16.976811 -27.892194 41.903788 -0.573853 2.299127 -0.014866 0.002419 -62345.500000 0 0 1
25.600918 -17.982211 -27.117714 41.402142 -0.612338 2.284957 -0.009793 0.008646 386913.000000 0 0 1
25.551518 -17.648011 -25.764594 40.350300 -0.604446 2.263374 -0.007502 0.012158 -75785.100000 0 0 1
24.940818 -18.796211 -24.898854 39.941143 -0.645822 2.243865 0.000187 0.010604 -106148.000000 0 0 1
24.723918 -18.468411 -23.511454 38.796170 -0.641569 2.221850 0.002244 0.020624 356964.000000 0 0 1
23.980018 -19.487811 -22.820154 38.413220 -0.682418 2.206906 0.012853 0.014424 131757.000000 0 0 1
23.962718 -19.163811 -21.280954 37.340896 -0.674579 2.177193 0.008419 0.009012 219123.000000 0 0 1
23.249818 -17.944811 -20.851254 36.018677 -0.657324 2.188177 -0.004369 0.007245 345570.000000 0 0 1
23.633918 -16.657311 -21.370954 35.954774 -0.613944 2.207296 -0.002733 0.012027 -603980.000000 0 0 1
24.896218 -15.992111 -20.857354 36.202190 -0.570979 2.184789 0.001352 0.011444 -389882.000000 0 0 1
24.661218 -15.072811 -19.833054 35.053036 -0.548610 2.172201 -0.001102 -0.004546 368614.000000 0 0 1
25.850418 -14.341511 -19.605354 35.472426 -0.506512 2.156388 0.000109 0.003196 63978.400000 0 0 1
25.629718 -13.202111 -18.606754 34.313110 -0.475662 2.143925 0.001095 0.001153 -358255.000000 0 0 1
25.848318 -13.596011 -17.308954 33.949771 -0.484224 2.105795 -0.004787 0.003214 60830.700000 0 0 1
25.642618 -12.523011 -16.494454 32.961139 -0.454298 2.094882 -0.009937 0.000179 -15534.300000 0 0 1
26.260418 -12.720811 -15.080554 32.845878 -0.451098 2.047813 -0.010138 -0.000847 -12937.700000 0 0 1
25.731618 -13.869711 -14.326054 32.553355 -0.494370 2.026483 -0.019293 -0.006204 506805.000000 0 0 1
26.401018 -13.883311 -13.062954 32.563797 -0.484123 1.983568 -0.008498 -0.003876 155625.000000 0 0 1
25.992218 -15.159211 -12.264154 32.493177 -0.527991 1.957824 -0.014069 -0.002435 -288446.000000 0 0 1
24.634818 -15.159711 -11.917054 31.284298 -0.551650 1.961596 -0.025485 -0.005497 -68519.900000 0 0 1
24.249418 -16.428011 -11.314454 31.399534 -0.595438 1.939427 -0.029038 -0.009958 554709.000000 0 0 1
22.749118 -16.380811 -10.875554 30.068772 -0.624065 1.940876 -0.029513 -0.012561 54273.900000 0 0 1
22.579418 -15.795811 -9.622354 29.187797 -0.610435 1.906751 -0.039564 -0.013937 -33240.300000 0 0 1
21.201418 -15.753011 -9.379554 28.029155 -0.639017 1.912015 -0.041706 -0.009925 -685494.000000 0 0 1
20.812618 -15.384511 -7.942354 27.072666 -0.636548 1.868548 -0.033618 -0.001078 -392157.000000 0 0 1
21.259218 -14.070211 -7.554254 26.589320 -0.584654 1.858873 -0.032822 0.003455 481269.000000 0 0 1
21.138518 -13.616611 -6.214254 25.901081 -0.572260 1.813082 -0.031167 0.010718 -820022.000000 0 0 1
21.816518 -14.529211 -5.137554 26.710539 -0.587522 1.764344 -0.031357 0.012259 -521421.000000 0 0 1
23.205518 -14.618411 -5.309354 27.935341 -0.562154 1.762018 -0.020840 0.023752 -162084.000000 0 0 1
23.724718 -15.294011 -4.151854 28.530807 -0.572601 1.716837 -0.025104 0.016695 -580925.000000 0 0 1
25.246718 -15.169711 -4.274454 29.762189 -0.541051 1.714915 -0.009896 0.015576 -577365.000000 0 0 1
25.723518 -13.909311 -3.854454 29.496189 -0.495693 1.701847 -0.010344 0.023148 1327070.000000 0 0 1
27.152718 -13.781011 -4.054754 30.718519 -0.469659 1.703180 0.000657 0.008483 955880.000000 0 0 1
27.745718 -12.437011 -3.506654 30.607201 -0.421397 1.685618 -0.003924 0.012588 -1237190.000000 0 0 1
28.288018 -12.546511 -2.161054 31.020914 -0.417458 1.640517 -0.008675 0.005425 639749.000000 0 0 1
28.703518 -11.289711 -1.571954 30.883986 -0.374736 1.621717 -0.010454 0.006082 2859.490000 0 0 1
30.007918 -10.708311 -2.174154 31.935404 -0.342764 1.638929 -0.010322 0.004969 -610547.000000 0 0 1
29.850618 -10.403011 -3.521054 31.806916 -0.335340 1.681725 -0.013705 0.011508 -437369.000000 0 0 1
31.035518 -10.665711 -4.204154 33.085279 -0.331017 1.698211 -0.002148 0.006851 -643612.000000 0 0 1
30.895718 -10.425811 -5.689854 33.100112 -0.325452 1.743553 -0.000997 0.005434 204573.000000 0 0 1
29.849518 -11.219511 -6.268754 32.498745 -0.359532 1.764905 -0.001776 0.003480 597867.000000 0 0 1
29.966918 -11.315811 -7.729554 32.951628 -0.361057 1.807575 0.000491 0.006592 154180.000000 0 0 1
28.761818 -12.106611 -8.303354 32.291762 -0.398415 1.830853 0.001321 0.005256 292451.000000 0 0 1
28.724518 -13.519111 -8.083854 32.759930 -0.439891 1.820132 0.011276 0.007097 294584.000000 0 0 1
27.457918 -13.911111 -8.587254 31.956177 -0.468941 1.842860 0.008194 0.005644 226994.000000 0 0 1
27.213818 -15.460611 -8.635654 32.468399 -0.516646 1.840007 0.007671 0.000018 163770.000000 0 0 1
27.906918 -15.953011 -9.802854 33.606407 -0.519314 1.866796 0.010807 -0.003234 428140.000000 0 0 1
28.223018 -17.287411 -9.607454 34.462973 -0.549581 1.853316 0.008098 -0.008753 -238614.000000 0 0 1
28.440518 -17.850211 -10.959454 35.321421 -0.560491 1.886282 0.006570 -0.008398 45099.000000 0 0 1
29.715018 -17.613511 -11.545854 36.421489 -0.535070 1.893368 0.007750 0.001846 415853.000000 0 0 1
30.000718 -18.254411 -12.763254 37.365322 -0.546621 1.919394 -0.001522 0.012475 -52839.600000 0 0 1
29.288618 -17.670811 -14.049454 36.979290 -0.542867 1.960514 -0.003227 0.002050 281602.000000 0 0 1
29.827918 -16.440011 -14.609354 37.059572 -0.503735 1.976007 -0.001399 0.006415 346136.000000 0 0 1
28.982818 -15.959611 -15.652454 36.602080 -0.503348 2.012675 0.004216 -0.002956 -935137.000000 0 0 1
29.534018 -14.695511 -16.266854 36.780794 -0.461709 2.028919 0.006653 0.007523 1094980.000000 0 0 1
30.700518 -14.803111 -17.129254 38.145318 -0.449289 2.036501 0.000110 0.007151 971182.000000 0 0 1
31.894618 -15.138411 -16.468754 38.957131 -0.443153 2.007263 0.017174 0.003525 -875092.000000 0 0 1
33.015418 -15.569611 -17.457154 40.462116 -0.440659 2.016890 0.015315 0.004906 231886.000000 0 0 1
34.298118 -15.688611 -16.857154 41.311706 -0.429006 1.991111 0.011125 0.004667 355947.000000 0 0 1
-34.393869 -16.218311 -17.813554 41.991601 0.440627 2.008893 0.007234 0.008255 220153.000000 0 0 1
-32.928469 -16.342711 -17.314754 40.634579 0.460691 2.010984 0.008167 0.008050 50416.000000 0 0 1
-32.602969 -17.191111 -16.188054 40.255943 0.485238 1.984637 0.001684 0.000870 204314.000000 0 0 1
-32.994469 -16.756511 -14.893954 39.890419 0.469914 1.953437 0.003244 -0.002402 -398232.000000 0 0 1
-32.486169 -17.723011 -13.815354 39.500890 0.499425 1.928098 -0.002925 -0.009706 -603688.000000 0 0 1
-31.090169 -17.683111 -13.731454 38.312450 0.517139 1.937357 0.000668 -0.010071 -496078.000000 0 0 1
-30.693869 -18.165111 -12.487054 37.789038 0.534380 1.907567 -0.000715 -0.007463 -303872.000000 0 0 1
-29.243469 -17.813211 -12.133754 36.327936 0.547109 1.911347 0.007493 -0.008299 -294043.000000 0 0 1
-29.023269 -16.401511 -11.867754 35.386485 0.514374 1.912800 0.000489 -0.012579 -125643.000000 0 0 1
-27.805469 -16.179811 -11.209154 34.067221 0.526999 1.906073 0.013553 -0.013380 -333124.000000 0 0 1
-27.885969 -16.205111 -9.683254 33.674891 0.526422 1.862465 0.001937 -0.010798 -171243.000000 0 0 1
-27.983769 -17.472711 -9.253054 34.263771 0.558159 1.844245 -0.008155 -0.011154 -158950.000000 0 0 1
-28.019169 -17.524011 -7.855154 33.968636 0.558908 1.804156 0.001648 -0.008294 -127765.000000 0 0 1
-28.485669 -18.912411 -7.330154 34.969184 0.586104 1.781980 -0.002029 -0.013135 979317.000000 0 0 1
-29.736369 -19.483211 -7.769854 36.389803 0.580021 1.785970 -0.012667 -0.009167 665875.000000 0 0 1
-29.621069 -20.002811 -9.087454 36.879561 0.593949 1.819770 -0.008425 -0.009285 751977.000000 0 0 1
-30.920169 -20.808511 -9.491154 38.459498 0.592357 1.820156 -0.009555 -0.005709 1301770.000000 0 0 1
-32.128469 -20.059811 -9.607654 39.076100 0.558141 1.819214 -0.006663 -0.008721 300940.000000 0 0 1
-33.228069 -20.926611 -9.784954 40.469408 0.562034 1.815003 -0.004472 -0.009788 1070690.000000 0 0 1
-34.480069 -20.155011 -10.422054 41.276129 0.528975 1.826055 0.002750 -0.015595 798602.000000 0 0 1
-34.477769 -20.024011 -11.852354 41.595142 0.526168 1.859746 -0.003707 -0.010029 398315.000000 0 0 1
33.780718 -19.745711 -12.224054 40.993384 -0.528964 1.873598 -0.000165 -0.011817 166817.000000 0 0 1
33.717218 -19.468711 -13.752954 41.291952 -0.523645 1.910350 -0.008213 -0.008113 -480141.000000 0 0 1
34.158118 -20.501811 -14.594354 42.427544 -0.540569 1.921952 -0.005579 -0.006270 -242400.000000 0 0 1
33.517818 -20.673611 -15.810854 42.436134 -0.552677 1.952584 -0.008288 -0.003684 -681168.000000 0 0 1
32.285018 -21.569311 -15.721254 41.889324 -0.588988 1.955522 -0.006986 -0.003421 -47077.200000 0 0 1
31.226618 -20.876211 -15.027454 40.456671 -0.589298 1.951362 0.000670 -0.002153 -257264.000000 0 0 1
29.994718 -21.535711 -14.935754 39.831479 -0.622694 1.955165 0.003017 -0.000887 -146611.000000 0 0 1
29.050318 -21.233911 -16.113254 39.426348 -0.631188 1.991817 0.006795 -0.006222 -579807.000000 0 0 1
28.476218 -19.893711 -16.073054 38.275290 -0.609791 2.004168 0.000107 -0.001506 792486.000000 0 0 1
27.641518 -19.688511 -17.237854 38.063560 -0.618920 2.040778 0.002839 -0.007062 423528.000000 0 0 1
26.772818 -18.403211 -17.300654 36.807263 -0.602209 2.060125 -0.002424 -0.004239 516381.000000 0 0 1
25.782618 -18.334611 -16.244454 35.563797 -0.618152 2.045157 -0.012601 -0.006630 690365.000000 0 0 1
25.300218 -17.037711 -16.050254 34.467308 -0.592664 2.055183 -0.015080 -0.002239 -1439950.000000 0 0 1
23.952518 -16.958911 -15.312754 33.102994 -0.616090 2.051698 -0.023313 -0.008127 -87899.400000 0 0 1
22.825218 -17.421611 -16.017854 32.879702 -0.651935 2.079637 -0.020257 -0.007002 224109.000000 0 0 1
22.496518 -16.740211 -17.237654 32.916025 -0.639730 2.121968 -0.011885 0.000542 -1236170.000000 0 0 1
21.485318 -17.467011 -18.146054 33.105810 -0.682602 2.150915 -0.006618 0.003825 234357.000000 0 0 1
20.167318 -17.443011 -17.615054 31.957307 -0.713089 2.154605 -0.005842 0.005691 -271665.000000 0 0 1
19.328118 -18.016611 -18.571754 32.296819 -0.750294 2.183441 -0.003887 0.000264 452180.000000 0 0 1
17.838818 -18.230411 -18.143454 31.301058 -0.796254 2.189087 -0.000403 0.002761 553297.000000 0 0 1
17.093418 -17.050811 -18.103954 30.177281 -0.784150 2.214197 0.001012 0.005094 -271190.000000 0 0 1
15.755018 -17.298311 -17.766054 29.378306 -0.832055 2.220228 -0.000685 0.000962 99688.600000 0 0 1
14.772718 -16.093811 -17.636454 28.076476 -0.828172 2.249980 0.001374 0.006595 186602.000000 0 0 1
14.384518 -15.517511 -18.893354 28.366641 -0.823270 2.299685 0.001023 0.013646 236707.000000 0 0 1
13.063918 -15.024411 -18.748254 27.347686 -0.855083 2.326158 0.002218 0.014180 606647.000000 0 0 1
12.398318 -14.402911 -20.061854 27.634039 -0.860054 2.383260 0.001175 0.014127 445198.000000 0 0 1
13.078118 -13.244111 -20.425954 27.634458 -0.791704 2.402601 -0.001658 0.012093 509447.000000 0 0 1
12.243418 -12.585411 -21.423554 27.699504 -0.799171 2.455027 0.006965 0.008425 566720.000000 0 0 1
12.734118 -11.200411 -21.836554 27.648546 -0.721406 2.481263 0.001614 0.007087 -748989.000000 0 0 1
13.763818 -11.164411 -22.751954 28.839871 -0.681498 2.479823 -0.010336 0.010680 -813862.000000 0 0 1
13.854018 -9.845911 -23.355154 28.884927 -0.617864 2.512495 -0.012507 0.007038 -63102.500000 0 0 1
15.006418 -9.587511 -24.337254 30.156507 -0.568528 2.509904 -0.007080 0.004669 -86454.700000 0 0 1
14.877618 -10.161411 -25.605834 31.309049 -0.599225 2.528446 0.000161 0.004550 831456.000000 0 0 1
16.083818 -9.943811 -26.362874 32.443331 -0.553730 2.519365 0.010685 0.002770 134475.000000 0 0 1
22.146218 4.956889 -7.217554 23.814257 0.220196 1.878716 0.063922 0.006500 -769661.000000 0 1 0
22.162718 6.336189 -7.125354 24.126832 0.278466 1.870596 0.022202 0.000685 -246164.000000 0 1 0
21.274218 6.782989 -6.170054 23.166158 0.308647 1.840389 -0.000283 0.001944 -759274.000000 0 1 0
21.119418 8.280989 -6.178454 23.511229 0.373680 1.836706 -0.014322 0.000233 -547402.000000 0 1 0
20.302418 8.634489 -7.272754 23.230057 0.402119 1.889226 0.008954 0.012114 403039.000000 0 1 0
20.096618 10.022289 -7.424754 23.652639 0.462611 1.890103 0.010577 0.014459 -66793.200000 0 1 0
19.289118 10.826689 -6.352254 23.013874 0.511466 1.850445 0.001134 0.009993 -28340.600000 0 1 0
20.017618 11.261589 -5.201054 23.549509 0.512453 1.793489 -0.010532 0.005981 508856.000000 0 1 0
19.249018 12.239289 -4.498154 23.249909 0.566356 1.765494 -0.008685 0.006917 528207.000000 0 1 0
20.006418 12.730789 -3.180054 23.925771 0.566709 1.704104 -0.012977 0.003672 107547.000000 0 1 0
21.195018 13.420289 -3.510454 25.330934 0.564461 1.709827 -0.012079 -0.004915 646436.000000 0 0 1
21.991318 13.777389 -2.341454 26.056034 0.559672 1.660780 -0.013812 -0.009619 550364.000000 0 0 1
23.015518 12.713389 -1.877554 26.360378 0.504671 1.642083 -0.013603 -0.005410 -1460290.000000 0 0 1
24.099118 12.479089 -2.688554 27.271294 0.477804 1.669542 -0.015826 -0.008733 -245116.000000 0 0 1
24.861618 11.475889 -1.965654 27.452867 0.432451 1.642459 -0.016812 -0.008751 64000.000000 0 0 1
26.271718 11.144089 -2.476654 28.644855 0.401181 1.657365 -0.008502 -0.013686 -391772.000000 0 0 1
27.275718 12.069789 -2.323554 29.917278 0.416608 1.648541 -0.002306 -0.021703 -394246.000000 0 0 1
28.574418 11.513089 -2.378954 30.898350 0.383018 1.647866 -0.003193 -0.022122 469840.000000 0 0 1
29.598418 12.687889 -2.180754 32.276998 0.404973 1.638412 -0.005651 -0.022009 -183194.000000 0 0 1
29.422418 13.225589 -0.853754 32.269549 0.422444 1.597256 -0.001748 -0.023031 952475.000000 0 0 1
30.383418 14.253189 -0.532154 33.564694 0.438632 1.586652 -0.003311 -0.020577 853511.000000 0 0 1
31.855418 13.815189 -0.147254 34.722454 0.409203 1.575037 0.003339 -0.018729 1424030.000000 0 0 1
32.817618 14.901089 -0.142954 36.042460 0.426223 1.574763 0.008435 -0.014359 944827.000000 0 0 1
33.495718 15.222289 -1.420754 36.819828 0.426552 1.609393 0.009341 -0.007571 -8029.590000 0 0 1
32.773318 16.109689 -2.427354 36.599242 0.456864 1.637168 -0.009236 0.001891 -347188.000000 0 0 1
31.602518 15.531889 -2.961054 35.337325 0.456805 1.654689 -0.001314 -0.000305 -610024.000000 0 0 1
31.003118 16.532189 -3.717954 35.331711 0.489887 1.676221 -0.001500 0.003901 260933.000000 0 0 1
29.616018 16.156589 -4.349454 34.015609 0.499409 1.699014 0.000004 -0.006231 209466.000000 0 0 1
29.716718 15.200289 -5.397254 33.812165 0.472810 1.731107 -0.002393 -0.012832 602357.000000 0 0 1
28.491918 14.962989 -6.094954 32.754067 0.483577 1.757970 -0.011040 -0.019694 -42684.300000 0 0 1
27.510918 14.014089 -5.445354 31.351191 0.471140 1.745371 -0.015161 -0.015573 -740205.000000 0 0 1
26.347318 13.859889 -6.202654 30.409712 0.484266 1.776207 -0.016414 -0.011048 -394107.000000 0 0 1
25.282718 13.211089 -5.566154 29.064253 0.481512 1.763499 -0.019550 -0.008740 2090.870000 0 0 1
24.130018 13.043389 -6.594554 28.211273 0.495556 1.806735 -0.023007 -0.005272 -225768.000000 0 0 1
24.384718 12.070689 -7.611254 28.253269 0.459648 1.843560 -0.018042 -0.000083 123386.000000 0 0 1
23.304418 11.914189 -8.499954 27.518957 0.472600 1.884808 -0.016549 0.007610 -241173.000000 0 0 1
23.253018 12.944689 -9.615754 28.297183 0.507964 1.917515 -0.018755 0.007504 -568106.000000 0 0 1
22.662818 14.048589 -9.111054 28.177606 0.554921 1.900057 -0.015597 0.005356 -278156.000000 0 0 1
22.571218 15.172489 -9.970954 28.966951 0.591827 1.922202 -0.014264 0.001858 -1465220.000000 0 0 1
21.747818 16.304689 -9.367354 28.749918 0.643319 1.902677 -0.010225 0.001337 -784767.000000 0 0 1
20.428718 15.943689 -9.142954 27.479581 0.662709 1.909981 -0.010586 0.007863 -660102.000000 0 0 1
20.238918 15.390989 -7.785754 26.591621 0.650165 1.867939 -0.001776 0.001135 355340.000000 0 0 1
18.810518 14.780489 -7.472054 25.062522 0.665995 1.873536 0.007274 0.002671 963111.000000 0 0 1
17.819518 15.782589 -7.497654 24.956766 0.724853 1.875935 0.008961 0.001395 351170.000000 0 1 0
16.479918 15.333789 -7.671454 23.781589 0.749387 1.899250 0.010443 0.004776 415293.000000 0 1 0
15.602718 15.300489 -6.435654 22.780856 0.775619 1.857198 0.008093 0.004690 -642906.000000 0 1 0
16.018418 14.403389 -5.435054 22.216821 0.732360 1.817942 -0.000700 0.003657 166112.000000 0 1 0
15.758518 14.878189 -4.149654 22.066060 0.756672 1.759979 0.007873 0.009328 -223452.000000 0 1 0
15.489618 13.663589 -3.154754 20.894363 0.722844 1.722362 0.003004 0.009358 66266.400000 0 1 0
16.708818 13.117189 -2.619154 21.403393 0.665556 1.693475 0.005009 0.007081 825557.000000 0 1 0
16.480718 12.280789 -1.477454 20.606182 0.640397 1.642557 -0.001163 0.003307 -26580.400000 0 1 0
16.689618 13.020189 -0.086854 21.167811 0.662511 1.574899 0.010488 0.000064 -85162.300000 0 1 0
15.670818 13.996689 0.084446 21.011639 0.729028 1.566777 0.007294 -0.005432 441006.000000 0 1 0
15.861118 14.845589 1.237046 21.759983 0.752338 1.513916 0.011880 -0.003486 -362227.000000 0 1 0
14.605718 15.690889 1.568246 21.493962 0.821201 1.497769 0.010708 0.000567 -93074.500000 0 1 0
14.441418 16.792789 0.667146 22.158461 0.860538 1.540684 0.017011 -0.001410 485296.000000 0 1 0
13.357018 17.647289 1.029646 22.156193 0.922902 1.524307 0.004385 -0.004498 216908.000000 0 1 0
13.473518 19.122789 0.538346 23.398858 0.957004 1.547787 -0.007216 -0.002538 -77889.700000 0 1 0
13.024918 19.275289 -0.838054 23.278479 0.976544 1.606805 -0.002089 -0.003915 374034.000000 0 1 0
12.492818 20.624189 -1.093954 24.137614 1.026170 1.616133 -0.007589 -0.005321 -225921.000000 0 1 0
10.972318 20.686889 -1.097254 23.442336 1.083126 1.617620 -0.001193 -0.008039 -485571.000000 0 1 0
10.465118 20.788189 0.218646 23.274778 1.104419 1.561402 -0.003431 -0.011907 740512.000000 0 1 0
9.080718 20.388789 0.316146 22.321785 1.151793 1.556633 0.001865 -0.018119 1221140.000000 0 1 0
8.397618 20.491289 1.674846 22.208512 1.181858 1.495310 0.009772 -0.016904 -22310.900000 0 1 0
8.140818 21.829989 2.060246 23.389441 1.213851 1.482598 0.005582 -0.012461 -39179.800000 0 1 0
7.133718 21.876389 3.034446 23.209355 1.255577 1.439679 -0.005136 -0.005923 -213340.000000 0 1 0
6.760418 23.314789 3.406846 24.513042 1.288573 1.431364 -0.008745 -0.002337 106138.000000 0 1 0
7.350718 23.784489 4.634646 25.322222 1.271053 1.386732 -0.010198 0.001054 231221.000000 0 0 1
6.977318 25.103789 5.016446 26.533901 1.299700 1.380594 -0.006278 0.002372 -71620.400000 0 0 1
7.483618 25.524389 6.461546 27.372441 1.285594 1.332487 -0.015939 0.002945 -86879.700000 0 0 1
6.939118 24.691089 7.492346 26.719590 1.296826 1.286579 -0.019229 0.003066 24378.700000 0 0 1
7.690618 24.640289 8.694446 27.237526 1.268262 1.245902 -0.011866 -0.000232 -524828.000000 0 0 1
7.214118 23.686389 9.794946 26.627607 1.275154 1.194101 -0.011043 -0.001316 -178062.000000 0 0 1
6.069218 24.173189 10.475346 27.035372 1.324809 1.172913 -0.012889 0.004270 -21977.500000 0 0 1
5.700018 23.186589 11.387146 26.453264 1.329744 1.125791 -0.019525 0.005594 -709189.000000 0 0 1
4.340218 23.438489 12.024746 26.698216 1.387696 1.103589 -0.007058 0.002453 -100703.000000 0 0 1
3.271618 23.321889 11.090546 26.031024 1.431425 1.130673 -0.013245 0.005098 240956.000000 0 0 1
1.997318 23.603689 11.626646 26.387541 1.486379 1.114517 -0.013673 0.003669 586435.000000 0 0 1
0.875018 23.845589 10.549146 26.089504 1.534118 1.154534 -0.003434 0.007580 -138552.000000 0 0 1
1.108718 25.026389 9.716346 26.869253 1.526523 1.200796 -0.010602 0.013302 -119924.000000 0 0 1
0.218218 25.185089 8.643146 26.627810 1.562132 1.240217 -0.016474 0.010853 -294893.000000 0 0 1
-1.209182 25.621489 9.011446 27.186926 -1.523637 1.232943 -0.008503 0.006205 -440327.000000 0 0 1
-2.024582 24.712089 9.702546 26.625658 -1.489052 1.197802 0.000449 0.003543 -587510.000000 0 0 1
-3.282082 25.308589 9.821146 27.345048 -1.441834 1.203433 0.012569 0.001249 -876872.000000 0 0 1
-4.362582 24.433889 10.502546 26.950891 -1.394112 1.170499 0.024015 -0.011966 -129216.000000 0 0 1
-4.688882 24.744589 11.799546 27.812040 -1.383526 1.132651 0.015832 0.001500 160609.000000 0 0 1
-5.609682 25.826489 11.923446 28.993872 -1.356912 1.146982 0.017479 -0.003018 -249343.000000 0 0 1
-5.951982 26.197689 13.408446 30.025513 -1.347394 1.107870 0.012488 0.012846 13904.600000 0 0 1
-6.708582 25.164489 14.022046 29.578275 -1.310266 1.076894 0.014029 -0.002080 247009.000000 0 0 1
-7.177782 25.567889 15.329046 30.662960 -1.297107 1.047289 0.000137 0.010502 278633.000000 0 0 1
-8.328382 24.723089 15.959546 30.582678 -1.245869 1.021779 -0.001839 -0.002044 455966.000000 0 0 1
-9.504682 24.822789 15.186646 30.612808 -1.205116 1.051709 -0.007723 0.009548 -339233.000000 0 0 1
-10.510282 23.919689 15.557146 30.407932 -1.156793 1.033733 -0.009155 0.003430 -533117.000000 0 0 1
-11.918982 24.326989 15.177746 31.052029 -1.115222 1.060101 -0.017011 0.005339 -749022.000000 0 0 1
-12.412582 25.305389 16.039646 32.430003 -1.114768 1.053430 -0.012227 0.009491 115738.000000 0 0 1
-13.509382 25.999389 15.444046 33.120842 -1.091589 1.085700 -0.013120 0.009149 -5233.250000 0 0 1
-14.055382 27.129689 16.386246 34.671066 -1.092789 1.078535 -0.009974 0.007802 -130549.000000 0 0 1
-15.015582 26.678589 17.326946 35.177235 -1.058154 1.055766 -0.003143 0.003452 11061.800000 0 0 1
-15.370182 27.714789 18.246746 36.569054 -1.064440 1.048390 0.003164 0.010523 -137721.000000 0 0 1
-16.605182 27.285589 19.073146 37.202423 -1.024099 1.032486 0.014052 0.002243 81834.800000 0 0 1
-17.785382 27.580989 18.345846 37.597883 -0.998056 1.061058 0.010499 0.001937 -312368.000000 0 0 1
-18.894382 26.881189 18.877846 37.894182 -0.958137 1.049306 0.017160 0.008445 -318067.000000 0 0 1
-20.112682 27.221489 18.021146 38.344375 -0.934467 1.081527 0.017627 0.002489 -601482.000000 0 0 1
-20.686182 28.521489 18.108846 39.614691 -0.943302 1.096037 0.013923 -0.000530 67587.600000 0 0 1
-21.522582 28.793489 17.027446 39.777135 -0.928909 1.128439 0.004210 -0.004366 -602902.000000 0 0 1
-22.333682 30.091289 17.195346 41.230558 -0.932307 1.140595 -0.013176 -0.011814 217371.000000 0 0 1
-23.661082 29.865789 17.657646 41.995292 -0.900801 1.136836 -0.016455 -0.003160 288030.000000 0 0 1
-24.492482 30.986989 17.406146 43.163052 -0.901929 1.155714 -0.022584 -0.002271 -21942.200000 0 0 1
-25.883172 30.634989 17.988146 43.954687 -0.869277 1.149172 -0.025669 0.002211 -570889.000000 0 0 1
-26.648572 29.767889 17.194646 43.496315 -0.840633 1.164388 -0.013161 0.001265 -709200.000000 0 0 1
-27.919162 29.595489 17.752846 44.390721 -0.814536 1.159364 0.007653 0.005352 -450672.000000 0 0 1
-28.181042 28.577889 18.854246 44.343539 -0.792390 1.131629 0.006378 0.006039 -840023.000000 0 0 1
-28.209432 27.194589 18.446946 43.308284 -0.767083 1.130790 0.006554 0.003880 153794.000000 0 0 1
-28.504972 26.409689 19.571446 43.509155 -0.747261 1.104228 0.004094 0.008354 -136727.000000 0 0 1
-28.575502 24.890689 19.221946 42.492222 -0.716588 1.101382 0.000851 0.006773 21906.400000 0 0 1
-29.708652 24.489489 18.467246 42.701033 -0.689396 1.123557 0.012957 0.008758 194275.000000 0 0 1
-29.422172 23.870489 17.240846 41.625848 -0.681599 1.143748 0.009368 0.004332 -372346.000000 0 0 1
-29.617702 22.353489 17.261246 40.924776 -0.646524 1.135389 0.008758 0.002311 48447.800000 0 0 1
-30.973772 21.956089 17.187646 41.675647 -0.616648 1.145693 0.004768 0.007568 -43036.300000 0 0 1
-31.057652 20.556689 16.865746 40.885310 -0.584687 1.145585 -0.003603 -0.000422 1191250.000000 0 0 1
-32.466912 20.063389 16.309346 41.504635 -0.553524 1.166956 0.002724 -0.009950 916555.000000 0 0 1
-32.702772 20.425889 14.990746 41.369200 -0.558306 1.199992 0.007239 -0.014079 -169500.000000 0 0 1
-33.910782 20.004489 14.409446 41.925563 -0.532971 1.219952 0.008238 -0.010335 -3325.100000 0 0 1
-33.958422 20.355089 12.899946 41.640277 -0.539987 1.255819 0.009781 -0.004394 -42424.300000 0 0 1
-34.181390 21.721189 12.603946 42.415055 -0.566092 1.269082 0.005813 -0.006450 24283.300000 0 0 1
-34.065752 22.078089 11.212546 42.114589 -0.575040 1.301307 0.006091 -0.008723 223402.000000 0 0 1
-32.815652 21.797389 10.324646 40.725808 -0.586319 1.314483 0.012371 -0.008865 -111318.000000 0 0 1
-32.943192 20.516789 9.731146 40.011095 -0.557011 1.325121 0.012632 -0.001777 969779.000000 0 0 1
-31.691482 19.984789 9.245946 38.590534 -0.562619 1.328852 0.023844 0.002350 827584.000000 0 0 1
-30.980172 18.905289 10.174246 37.692125 -0.547914 1.297476 0.013958 -0.007096 240432.000000 0 0 1
-30.723602 19.343189 11.472646 38.075192 -0.561891 1.264724 0.017146 -0.009220 298813.000000 0 0 1
-30.166092 18.294489 12.280146 37.356169 -0.545155 1.235836 0.020997 -0.015199 83910.400000 0 0 1
-29.752592 18.710289 13.722146 37.730477 -0.561372 1.198572 0.006368 -0.010322 296178.000000 0 0 1
-28.583002 19.532189 13.717846 37.238068 -0.599464 1.193528 0.005771 -0.001113 177042.000000 0 0 1
-28.825432 20.950889 13.644246 38.157708 -0.628500 1.205126 0.008590 0.001195 -321863.000000 0 0 1
-27.573452 21.808689 13.831746 37.778715 -0.669186 1.195954 0.012453 0.000678 -198021.000000 0 0 1
-27.154742 21.704989 15.167246 37.927983 -0.674319 1.159393 0.012833 0.000868 224954.000000 0 0 1
-26.089862 22.592189 15.531346 37.845879 -0.713674 1.147921 0.013994 -0.001105 193846.000000 0 0 1
-25.497272 22.315989 16.942546 37.883559 -0.718961 1.107134 0.011781 0.005516 -125450.000000 0 0 1
-24.797482 21.071689 17.031946 36.728985 -0.704350 1.088608 0.021858 0.009355 179502.000000 0 0 1
-24.492982 20.891489 18.381846 37.070915 -0.706209 1.051976 0.012231 0.017018 -91630.300000 0 0 1
-23.754082 19.570889 18.657646 35.991441 -0.689143 1.025828 0.008861 0.015548 254899.000000 0 0 1
-23.047282 19.423489 19.896046 36.115118 -0.700280 0.987347 0.008747 0.015061 -110283.000000 0 0 1
-22.296182 18.245889 19.823046 34.971207 -0.685825 0.968132 0.001961 0.015450 -234211.000000 0 0 1
-21.607582 18.091589 21.201746 35.266233 -0.697063 0.925805 0.013484 0.015099 -65690.300000 0 0 1
-22.421382 17.533089 22.211446 36.103683 -0.663657 0.908141 0.023093 0.008198 230362.000000 0 0 1
-21.995682 18.058589 23.461746 36.883278 -0.687419 0.881353 0.037668 -0.000615 414811.000000 0 0 1
-22.876182 17.505089 24.640046 37.906196 -0.653165 0.863177 0.022550 0.006109 -13758.000000 0 0 1
-22.414682 16.287689 25.092346 37.380912 -0.628391 0.834888 0.023563 -0.004280 -621259.000000 0 0 1
-23.354382 15.627089 25.838546 38.174121 -0.589705 0.827307 0.018960 -0.011546 -746750.000000 0 0 1
19.691518 24.637989 34.053824 46.416046 0.896523 0.747097 -0.014455 0.002206 -97518.900000 0 0 1
20.594218 23.577789 33.823448 46.087521 0.852840 0.746756 -0.019044 0.000387 95400.400000 0 0 1
19.996818 22.318089 33.949994 45.283241 0.840200 0.723149 -0.012595 0.001285 119560.000000 0 0 1
18.939418 21.891189 32.891193 43.815024 0.857566 0.721701 -0.004101 0.000501 194551.000000 0 0 1
19.532518 21.385789 31.747763 42.974314 0.830659 0.739566 -0.003271 0.006029 362872.000000 0 0 1
18.651918 20.365389 31.261643 41.712509 0.829286 0.723558 -0.005327 0.003545 33853.400000 0 0 1
19.134118 19.703689 29.957353 40.642254 0.800062 0.742029 -0.000665 0.005040 -257684.000000 0 0 1
20.380418 19.038689 30.000543 40.961759 0.751374 0.748951 -0.001576 0.000292 -179016.000000 0 0 1
20.528718 18.225589 28.827493 39.807345 0.726039 0.760959 0.003139 -0.007552 -501658.000000 0 0 1
21.754318 17.345989 28.794653 40.040801 0.673128 0.768243 0.012309 -0.006736 27924.200000 0 0 1
23.033218 17.966789 28.854163 41.059681 0.662450 0.791559 0.020024 -0.012339 130981.000000 0 0 1
23.944818 17.207689 29.571443 41.760377 0.623126 0.783961 0.023984 -0.011932 -98827.600000 0 0 1
25.391218 17.716689 29.770543 42.952069 0.609213 0.805001 0.018635 -0.020026 201411.000000 0 0 1
26.201118 17.729489 28.637093 42.672198 0.594895 0.835112 0.017189 -0.009528 -955116.000000 0 0 1
27.461718 18.221389 28.906973 43.838089 0.585821 0.850772 0.002929 -0.011274 -687325.000000 0 0 1
28.432518 18.204689 27.725963 43.686930 0.569510 0.883239 0.012468 -0.003103 -249489.000000 0 0 1
28.296718 19.280689 26.833573 43.502757 0.598117 0.906094 -0.000361 0.006964 -655.230000 0 0 1
29.401118 19.338189 25.969633 43.735719 0.581795 0.935041 0.003877 0.005209 -200121.000000 0 0 1
29.413518 20.645789 25.136783 43.855006 0.612010 0.960416 -0.005201 0.010381 -572423.000000 0 0 1
28.458318 20.686489 24.150353 42.673718 0.628556 0.969235 -0.005665 0.005721 -308482.000000 0 0 1
28.901618 21.551189 23.100553 42.818137 0.640727 1.000948 -0.006443 0.002906 -13613.200000 0 0 1
29.717818 20.760289 22.070353 42.441004 0.609773 1.023917 -0.013920 0.006193 -491167.000000 0 0 1
28.875818 19.961089 21.286653 41.053374 0.604845 1.025687 -0.011260 0.004963 -38030.900000 0 0 1
29.465318 19.532689 20.043153 40.638146 0.585393 1.055020 -0.016909 -0.000015 659645.000000 0 0 1
30.672218 18.506389 20.080053 41.066774 0.542886 1.059898 -0.007822 -0.002161 778719.000000 0 0 1
30.211718 17.182989 20.350153 40.275697 0.517126 1.041100 -0.003273 0.003020 686691.000000 0 0 1
31.330518 16.343589 20.600753 40.903610 0.480818 1.042988 -0.003715 0.010345 -246100.000000 0 0 1
30.832418 14.912989 20.835753 40.089448 0.450506 1.024260 -0.003601 0.010971 239817.000000 0 0 1
30.239818 14.666089 22.093853 40.220382 0.451570 0.989246 -0.000544 0.007347 -86555.400000 0 0 1
28.957118 15.172689 22.325153 39.587089 0.482640 0.971635 0.000733 0.010944 -868762.000000 0 0 1
28.216618 14.554689 23.518953 39.511488 0.476223 0.933228 0.000178 0.003613 13619.100000 0 0 1
27.819118 13.192289 23.353353 38.643485 0.442809 0.921874 0.003731 0.005432 140958.000000 0 0 1
26.885518 12.791589 24.326273 38.447671 0.444084 0.885747 0.004237 0.006590 -171258.000000 0 0 1
26.315318 11.375789 24.194153 37.513485 0.408027 0.869844 0.009596 0.010187 259797.000000 0 0 1
25.197318 11.326389 23.303753 36.142175 0.422444 0.870061 0.018128 0.008358 402751.000000 0 0 1
24.865318 10.021389 22.803253 35.195179 0.383113 0.865961 0.017819 0.011259 333578.000000 0 0 1
23.550918 9.775889 22.014253 33.687403 0.393452 0.858615 0.013671 0.003159 576718.000000 0 0 1
22.313918 9.901289 22.707053 33.340017 0.417625 0.821566 -0.000660 0.007172 616324.000000 0 0 1
21.309718 9.207189 21.983353 31.970990 0.407840 0.812614 -0.010865 0.011752 549954.000000 0 0 1
19.830218 9.363889 22.458453 31.389522 0.441164 0.773491 -0.011591 0.003968 547133.000000 0 0 1
19.528218 8.739189 23.657353 31.896631 0.420786 0.735213 -0.002007 0.005489 87223.200000 0 0 1
18.150318 8.537189 23.875653 31.182759 0.439656 0.698717 -0.012065 0.007511 -147623.000000 0 0 1
17.729418 7.740689 25.144433 31.725275 0.411656 0.655788 -0.008969 0.007862 -279288.000000 0 0 1
18.022718 6.395389 24.947333 31.433880 0.340990 0.654020 0.000269 0.006660 264120.000000 0 0 1
17.776518 5.773089 26.206393 32.188635 0.314014 0.619532 0.003909 0.000819 -190023.000000 0 0 1
18.026818 4.231389 26.176603 32.063770 0.230554 0.615661 0.009533 -0.007339 559124.000000 0 0 1
19.411518 3.976589 25.919283 32.625596 0.202062 0.652701 0.016068 -0.003521 602752.000000 0 0 1
19.615918 2.579089 25.770273 32.489120 0.130730 0.654755 -0.001875 -0.003549 861124.000000 0 0 1
21.132718 2.293689 25.409703 33.128625 0.108114 0.696642 0.002806 0.008017 1352660.000000 0 0 1
21.976218 2.768689 26.490763 34.530861 0.125325 0.696391 0.005289 0.009441 850332.000000 0 0 1
23.359718 2.603289 26.132663 35.147825 0.110986 0.732496 0.009813 0.011843 864270.000000 0 0 1
24.222118 3.140989 27.322983 36.648632 0.128955 0.729453 0.009357 0.005514 -656554.000000 0 0 1
24.269518 2.160689 28.371183 37.397889 0.088795 0.709588 0.000067 -0.001046 126380.000000 0 0 1
24.883918 2.668389 29.535793 38.712953 0.106825 0.702942 0.008731 0.004994 507084.000000 0 0 1
26.439918 2.793989 29.514103 39.723519 0.105282 0.733272 0.010081 0.011003 -251429.000000 0 0 1
26.849718 3.940389 28.723893 39.515770 0.145717 0.757004 0.007115 0.019453 34575.100000 0 0 1
28.194518 3.894289 28.293563 40.132556 0.137254 0.788369 0.002231 0.015219 17491.800000 0 0 1
28.616418 2.816789 27.253373 39.617926 0.098117 0.812198 0.005448 0.009383 -452034.000000 0 0 1
28.089618 3.130689 25.958623 38.375487 0.110996 0.827881 0.014769 0.013335 292122.000000 0 0 1
28.484218 2.137089 25.021963 37.973892 0.074887 0.851407 0.016048 0.016164 -376022.000000 0 0 1
28.200618 2.390989 23.541553 36.812993 0.084583 0.876961 0.019642 0.013304 -65240.100000 0 0 1
28.868818 3.407289 22.856553 36.978917 0.117483 0.904477 0.022303 0.013301 217848.000000 0 0 1
30.218318 3.108489 22.481553 37.791926 0.102507 0.933684 0.016543 0.011048 740986.000000 0 0 1
30.985118 4.280189 21.800553 38.126916 0.137268 0.962111 0.005375 0.009994 -379964.000000 0 0 1
30.626818 4.471089 20.454453 37.099559 0.144962 0.986827 0.008221 -0.001537 44879.300000 0 0 1
31.157718 5.670689 19.903853 37.404859 0.180029 1.009694 0.002720 0.010154 687959.000000 0 0 1
32.705618 5.933689 19.777753 38.678491 0.179475 1.034056 -0.011430 0.005154 443064.000000 0 0 1
33.460218 6.182689 20.973453 39.971209 0.182716 1.018417 -0.006909 0.009678 419466.000000 0 0 1
32.996218 7.283889 21.756753 40.189075 0.217265 0.998743 -0.005676 0.007176 -848558.000000 0 0 1
33.582618 7.282889 23.136353 41.426122 0.213558 0.978224 -0.006883 0.002384 -627752.000000 0 0 1
33.116318 6.230089 23.857053 41.287571 0.185954 0.954733 -0.007356 0.002316 -216771.000000 0 0 1
33.766518 6.109189 25.082963 42.504764 0.178988 0.939587 -0.004135 -0.002310 -172713.000000 0 0 1
33.154018 5.039089 25.996503 42.431115 0.150836 0.911355 -0.005251 -0.000472 -50050.200000 0 0 1
33.241118 3.729789 25.518523 42.072298 0.111737 0.919095 -0.007245 0.002283 11072.600000 0 0 1
32.385318 2.845789 26.218143 41.764798 0.087648 0.892128 -0.000624 0.009251 -68076.400000 0 0 1
32.390318 1.411589 25.746503 41.400576 0.043553 0.899646 -0.008394 0.003054 71815.600000 0 0 1
31.612718 1.142589 24.577753 40.059149 0.036128 0.910265 -0.003804 0.001096 15088.500000 0 0 1
31.844518 -0.208011 24.187853 39.989609 -0.006532 0.921215 -0.002504 0.009130 101165.000000 0 0 1
30.681218 -0.901611 23.427853 38.613655 -0.029378 0.918863 0.005877 0.005637 -118797.000000 0 0 1
29.565618 -1.191011 24.238653 38.249923 -0.040262 0.884480 0.012948 0.005728 -434534.000000 0 0 1
28.777218 -2.148011 23.586453 37.270136 -0.074505 0.885566 0.018933 -0.002454 825873.000000 0 0 1
27.230418 -1.957411 23.796453 36.215995 -0.071760 0.853871 0.012943 0.006946 937324.000000 0 0 1
26.628818 -0.841711 23.153953 35.297422 -0.031599 0.855333 0.019307 0.011559 -1448290.000000 0 0 1
25.297018 -0.781511 23.424453 34.485575 -0.030884 0.824051 0.020908 0.010536 -1545640.000000 0 0 1
24.660218 0.605489 23.360353 33.973506 0.024548 0.812611 0.011659 0.012337 -278934.000000 0 0 1
24.635418 1.200789 22.058753 33.089792 0.048704 0.841114 0.012296 0.008065 15010.700000 0 0 1
23.852318 2.336689 22.195053 32.665174 0.097653 0.823754 0.003628 0.011735 -648654.000000 0 0 1
23.909118 3.093989 20.818853 31.853467 0.128691 0.858489 -0.000943 0.004124 -103319.000000 0 0 1
23.203918 2.521889 19.748553 30.574288 0.108259 0.868568 0.000789 0.004136 110273.000000 0 0 1
22.580418 3.504289 18.934453 29.676065 0.153963 0.878849 0.001598 0.004539 -142283.000000 0 0 1
22.597718 3.203089 17.426153 28.715631 0.140806 0.918702 -0.000372 0.010176 -944042.000000 0 0 1
23.876218 3.146489 16.888653 29.414296 0.131028 0.959213 0.001392 0.005457 -610589.000000 0 0 1
24.044218 3.110989 15.485853 28.768287 0.128671 1.002382 -0.003968 0.003130 -545017.000000 0 0 1
23.489818 1.863589 14.800053 27.825997 0.079170 1.009979 -0.009529 0.021894 -49350.900000 0 0 1
22.076218 1.862789 14.716653 26.597167 0.084180 0.984456 0.000540 0.015500 305494.000000 0 0 1
21.668118 0.734889 13.991453 25.803259 0.033903 0.997700 -0.000717 0.018114 -1078780.000000 0 0 1
20.163418 0.547789 13.921653 24.508691 0.027161 0.966687 -0.001932 0.002796 -611595.000000 0 1 0
19.405018 1.400389 13.036353 23.419273 0.072041 0.980448 0.017671 0.003269 635366.000000 0 1 0
19.550518 1.160389 11.601453 22.763194 0.059284 1.036009 0.023308 0.002210 -942587.000000 0 1 0
19.281818 -0.292511 11.030053 22.215674 -0.015169 1.051236 0.019926 0.003063 -45672.600000 0 1 0
20.202618 -1.368111 11.213353 23.146421 -0.067616 1.065059 0.009367 -0.002311 366293.000000 0 1 0
21.394018 -1.341111 10.454853 23.849666 -0.062604 1.117018 0.008996 0.002977 -274544.000000 0 1 0
22.391418 -2.430511 10.919953 25.030549 -0.108123 1.119353 -0.008218 0.002237 -110743.000000 0 0 1
23.009018 -1.979211 12.122453 26.082294 -0.085808 1.087413 -0.001798 -0.002370 296010.000000 0 0 1
23.749518 -2.950011 12.832253 27.155274 -0.123581 1.078613 -0.016710 -0.002510 -72929.100000 0 0 1
23.880118 -2.633011 14.342653 27.980431 -0.109816 1.032591 0.008153 -0.000994 -485674.000000 0 0 1
24.745418 -1.576911 14.611653 28.780597 -0.063639 1.038294 0.002953 0.002241 -164493.000000 0 0 1
24.932718 -1.446711 15.973353 29.645934 -0.057960 1.001779 -0.005960 -0.004106 40298.300000 0 0 1
26.212318 -0.629311 16.243053 30.843450 -0.024004 1.016166 0.019363 -0.002010 465685.000000 0 0 1
27.459718 -1.320211 16.195553 31.907288 -0.048041 1.038421 0.013918 -0.003192 856266.000000 0 0 1
28.531518 -0.371111 16.298153 32.860539 -0.013006 1.051834 0.002522 0.004660 424054.000000 0 0 1
29.947218 -0.986911 16.273553 34.097484 -0.032943 1.073256 -0.006161 0.007112 -50598.900000 0 0 1
30.290318 -1.391611 15.015353 33.836383 -0.045910 1.111002 -0.007158 0.010812 242542.000000 0 0 1
31.564418 -2.012411 15.061153 35.031424 -0.063670 1.126378 -0.007903 0.007135 187814.000000 0 0 1
32.126018 -2.484711 13.692753 35.010660 -0.077189 1.168967 -0.007516 0.012385 46653.700000 0 0 1
32.026018 -1.442711 12.736453 34.495862 -0.045018 1.192630 0.001352 0.011950 449189.000000 0 0 1
32.620918 -1.850711 11.516353 34.643554 -0.056673 1.231924 -0.001606 0.006868 -70669.700000 0 0 1
31.873618 -1.146311 10.350953 33.531833 -0.035949 1.256981 -0.002743 0.012587 -350755.000000 0 0 1
32.285118 0.177189 10.149053 33.843220 0.005488 1.266225 -0.003035 0.016887 520051.000000 0 0 1
31.550018 0.795089 9.094153 32.844169 0.025196 1.290242 -0.013904 0.012364 -205655.000000 0 0 1
31.807518 2.325889 8.942253 33.122377 0.072994 1.297428 -0.022634 0.013808 -428515.000000 0 0 1
32.896918 2.514489 8.098853 33.972361 0.076287 1.330083 -0.012631 0.008866 -162889.000000 0 0 1
32.969518 3.807789 7.539353 34.034251 0.114985 1.347421 -0.020318 0.007230 32329.600000 0 0 1
33.973318 3.871589 6.362253 34.780078 0.113470 1.386832 -0.011477 0.011435 -181006.000000 0 0 1
34.035918 5.203789 5.934653 34.939137 0.151716 1.400112 -0.025452 0.007032 65711.800000 0 0 1
34.555718 5.286389 4.638053 35.264077 0.151805 1.438891 -0.018604 0.007137 -289041.000000 0 0 1
-34.503169 6.660789 4.215153 35.392122 -0.190703 1.451414 -0.017297 -0.006349 104750.000000 0 0 1
34.020018 7.558089 4.047553 35.083743 0.218615 1.455171 -0.010889 -0.004320 187752.000000 0 0 1
34.509518 8.763589 3.546553 35.781076 0.248690 1.471515 -0.010118 -0.012995 337095.000000 0 0 1
33.307718 9.775289 3.377753 34.876490 0.285468 1.473795 0.005689 -0.016055 1855350.000000 0 0 1
32.247218 9.432589 2.432353 33.686394 0.284570 1.498528 0.012290 -0.022497 1342950.000000 0 0 1
31.326218 8.384789 2.822753 32.551568 0.261530 1.483971 0.001454 -0.009289 -282520.000000 0 0 1
30.035218 8.380589 2.026053 31.248256 0.272105 1.505913 0.006965 -0.015758 -335664.000000 0 0 1
30.387618 8.275289 0.700853 31.502047 0.265877 1.548547 0.013094 -0.020474 753221.000000 0 0 1
29.195518 8.117289 -0.057647 30.303003 0.271183 1.572699 0.012666 -0.010495 486055.000000 0 0 1
29.670318 8.014289 -1.496747 30.770064 0.263816 1.619458 0.014421 -0.002753 578693.000000 0 0 1
28.594018 7.541389 -2.329747 29.663414 0.257868 1.649417 -0.000690 0.003526 1324580.000000 0 0 1
29.132318 7.443689 -3.589847 30.281801 0.250161 1.689624 0.009299 0.000996 -303733.000000 0 0 1
28.139318 6.740689 -4.588347 29.296946 0.235117 1.728059 -0.002624 0.001541 -32973.000000 0 0 1
28.162018 5.325389 -4.547747 29.019666 0.186891 1.728158 -0.000234 0.001928 431076.000000 0 0 1
27.251618 4.762289 -5.439047 28.194207 0.173006 1.764927 -0.013407 0.001173 -783833.000000 0 0 1
27.196518 3.218189 -5.494847 27.932073 0.117783 1.768810 -0.007137 0.003976 -677678.000000 0 0 1
26.701018 2.562089 -4.307447 27.167311 0.095662 1.730021 -0.002079 0.001145 535838.000000 0 0 1
26.608718 1.193589 -4.636547 27.036015 0.044827 1.743143 -0.003137 0.009931 -266914.000000 0 0 1
26.200118 0.344989 -3.363247 26.417355 0.013167 1.698455 -0.017079 0.010962 -474361.000000 0 0 1
27.117418 0.536489 -2.327847 27.222437 0.019781 1.656413 -0.003558 0.009074 158844.000000 0 0 1
26.690518 0.297889 -0.970447 26.709816 0.011160 1.607137 -0.005327 0.009805 -557051.000000 0 0 1
27.769418 0.845189 -0.029947 27.782294 0.030427 1.571874 -0.006055 0.009078 -175098.000000 0 0 1
28.932318 0.055389 -0.053647 28.932421 0.001914 1.572651 -0.001735 0.019297 -231498.000000 0 0 1
29.977318 0.689089 0.633153 29.991921 0.022983 1.549684 0.000685 0.008315 -187997.000000 0 0 1
-2.574382 -21.180711 -8.643454 23.020844 1.449846 1.955692 -0.002516 0.004656 164146.000000 0 1 0
-3.066682 -21.972511 -7.580154 23.444712 1.432123 1.900033 -0.009561 0.014005 -738001.000000 0 1 0
-2.231382 -23.009911 -7.200354 24.213223 1.474124 1.872736 -0.011093 0.013162 -402077.000000 0 1 0
-2.680782 -23.698711 -5.883254 24.564775 1.458156 1.812647 -0.008728 0.017355 -365440.000000 0 1 0
-2.672582 -22.850011 -4.775254 23.496144 1.454363 1.775458 -0.017558 0.008632 -317307.000000 0 1 0
-3.203982 -23.540111 -3.669554 24.038884 1.435520 1.724046 -0.007844 0.014709 -440463.000000 0 1 0
-3.112982 -22.945011 -2.297554 23.268927 1.435948 1.669697 -0.011643 0.010481 271836.000000 0 1 0
-1.748482 -22.835211 -1.917354 22.982174 1.494376 1.654321 -0.004060 0.000916 -116944.000000 0 1 0
-1.650082 -22.510611 -0.536254 22.577377 1.497625 1.594550 -0.000746 -0.003390 1664730.000000 0 1 0
-0.175582 -22.416011 0.067846 22.416802 1.562964 1.567770 0.000783 -0.011128 2114950.000000 0 1 0
0.686918 -21.330611 -0.367454 21.344832 -1.538604 1.588012 0.000561 -0.009173 709024.000000 0 1 0
2.026618 -21.465911 0.125146 21.561730 -1.476664 1.564992 0.005224 -0.001104 613739.000000 0 1 0
2.888418 -20.343211 -0.439254 20.551938 -1.429755 1.592171 0.008339 -0.004374 -72885.900000 0 1 0
3.370418 -20.608811 -1.712554 20.952701 -1.408689 1.652622 0.005732 -0.006663 259690.000000 0 1 0
4.512218 -19.765011 -2.028554 20.374759 -1.346350 1.670524 0.012627 -0.005421 954835.000000 0 1 0
5.272618 -20.366011 -3.249054 21.286880 -1.317465 1.724027 0.007756 -0.000753 29281.900000 0 1 0
6.280918 -21.326711 -2.861354 22.415751 -1.284384 1.698795 0.011252 -0.003439 249416.000000 0 1 0
6.905518 -21.970911 -3.972354 23.370638 -1.266270 1.741598 0.006864 -0.001873 485751.000000 0 1 0
8.162718 -21.223511 -4.490054 23.178179 -1.203629 1.765748 0.009291 0.002276 -377046.000000 0 1 0
7.819718 -20.270211 -5.392154 22.385370 -1.202614 1.814067 0.002767 0.006270 -915960.000000 0 1 0
8.881318 -19.786811 -6.141354 22.541339 -1.148899 1.846733 0.001759 0.013966 -941909.000000 0 1 0
8.619818 -18.442411 -6.859054 21.481863 -1.133574 1.895782 -0.002082 0.013332 -760036.000000 0 1 0
9.575118 -18.072311 -7.766554 21.877173 -1.083576 1.933718 0.004251 0.014323 -368588.000000 0 1 0
9.161518 -16.840111 -8.311954 20.895247 -1.072549 1.979905 -0.000991 0.010201 394037.000000 0 1 0
10.074818 -16.580811 -9.539854 21.620224 -1.024793 2.027784 0.007521 0.000079 -26125.300000 0 1 0
9.702018 -17.340611 -10.700854 22.568435 -1.060691 2.064796 0.010153 0.001857 -138605.000000 0 1 0
9.074118 -16.481811 -11.612454 22.109700 -1.067528 2.123770 -0.001644 -0.001157 -3467.620000 0 1 0
8.463318 -17.123511 -12.886054 23.041111 -1.111758 2.164294 -0.008462 -0.006133 287610.000000 0 1 0
7.164118 -17.682711 -12.731754 22.936879 -1.185860 2.159253 -0.014160 -0.003511 299735.000000 0 1 0
6.881318 -18.431111 -13.909654 24.094333 -1.213470 2.186214 -0.012120 0.002081 -363761.000000 0 1 0
5.632318 -19.263911 -13.692354 24.296128 -1.286348 2.169487 -0.011297 0.010634 -376496.000000 0 1 0
5.876518 -20.491911 -13.016854 24.977798 -1.291519 2.118979 0.000520 0.000901 -647180.000000 0 1 0
4.641918 -21.117811 -12.983854 25.220821 -1.354427 2.111579 0.006539 0.007609 -676753.000000 0 0 1
4.607418 -22.621111 -12.619554 26.309620 -1.369867 2.071058 0.004666 0.003888 140189.000000 0 0 1
5.189218 -23.281211 -13.785554 27.549669 -1.351488 2.094844 0.007456 -0.002447 78901.300000 0 0 1
4.841718 -24.624111 -13.916554 28.695985 -1.376648 2.077120 -0.004182 0.003831 -91049.500000 0 0 1
3.417618 -24.924311 -14.424554 28.999468 -1.434526 2.091404 -0.004190 0.010795 121339.000000 0 0 1
2.387718 -24.797211 -13.452654 28.312131 -1.474802 2.065937 0.007984 0.004834 -134530.000000 0 0 1
1.135518 -25.240671 -13.915154 28.844625 -1.525839 2.074209 -0.006425 0.007091 -269721.000000 0 0 1
0.587518 -26.565851 -13.338554 29.732249 -1.548684 2.036020 -0.016878 0.011058 -683595.000000 0 0 1
1.229418 -27.718361 -13.840754 31.006217 -1.526471 2.033519 -0.015642 0.014569 -69354.700000 0 0 1
0.901618 -29.014661 -13.274954 31.920023 -1.539732 1.999708 -0.018671 0.009183 -157060.000000 0 0 1
-0.503782 -29.595221 -13.574854 32.563900 1.553776 2.000793 -0.017483 0.000547 422060.000000 0 0 1
-1.584982 -28.787751 -13.155354 31.690852 1.515794 1.998866 -0.026640 0.001421 -280703.000000 0 0 1
-2.809082 -29.298251 -13.638854 32.439125 1.475210 2.004732 -0.020959 -0.004181 452277.000000 0 0 1
-4.066382 -28.446901 -13.211054 31.627419 1.428812 2.001719 -0.009224 -0.002900 800011.000000 0 0 1
-4.504982 -28.477231 -11.834054 31.165564 1.413901 1.960285 -0.002775 -0.013848 178376.000000 0 0 1
-4.887082 -29.751291 -11.323454 32.206265 1.407986 1.930067 -0.000926 -0.019582 -778125.000000 0 0 1
-5.421682 -29.934261 -9.880654 31.985652 1.391619 1.884842 0.008004 -0.023767 -891374.000000 0 0 1
-6.730682 -29.614321 -9.559454 31.838550 1.347315 1.875749 0.016524 -0.021273 -1279860.000000 0 0 1
-6.934982 -28.223251 -9.424954 30.552834 1.329851 1.884392 0.013186 -0.008862 -356135.000000 0 0 1
-8.442282 -27.944961 -9.066654 30.567911 1.277410 1.871934 0.014561 -0.004804 1158480.000000 0 0 1
-9.400182 -28.114431 -10.101554 31.318143 1.248127 1.899215 0.010969 -0.007195 36746.600000 0 0 1
-9.421182 -29.435331 -10.642354 32.687262 1.261036 1.902423 0.018472 -0.020022 -2281870.000000 0 0 1
-10.587482 -29.753171 -11.549754 33.626519 1.228925 1.921407 0.021691 -0.015513 -757951.000000 0 0 1
-10.744882 -28.840361 -12.632254 33.268495 1.214163 1.960275 0.021603 -0.012773 -152239.000000 0 0 1
-11.545682 -29.412891 -13.619054 34.407842 1.196739 1.977749 0.022001 -0.015130 -521360.000000 0 0 1
-11.753282 -28.587421 -14.881654 34.305159 1.180728 2.019505 0.025437 -0.008721 -325077.000000 0 0 1
-12.778482 -27.601381 -14.879554 33.860404 1.137213 2.025769 0.021040 -0.012149 397322.000000 0 0 1
-12.569382 -26.504701 -13.978354 32.494352 1.127975 2.015486 0.021001 -0.000807 -156271.000000 0 0 1
-13.631582 -25.421501 -14.188354 32.146262 1.078592 2.027920 0.031237 0.006491 198493.000000 0 0 1
-13.159082 -24.589411 -15.272054 31.796796 1.079424 2.071795 0.018218 0.008103 579996.000000 0 0 1
-14.143082 -23.591811 -15.520954 31.583229 1.030751 2.084528 0.031320 0.008955 9172.900000 0 0 1
-13.917782 -22.582411 -16.678054 31.334126 1.018470 2.132070 0.032906 0.004592 -357897.000000 0 0 1
-13.038782 -21.509411 -16.521054 30.093352 1.025838 2.151956 0.018157 0.003297 -11605.700000 0 0 1
-12.808782 -20.833211 -17.726354 30.204490 1.019547 2.197994 0.017399 0.004704 -178475.000000 0 0 1
-12.896282 -19.294011 -17.641454 29.151224 0.981589 2.220776 0.020141 0.003031 -113068.000000 0 0 1
-11.733182 -18.592711 -17.271154 27.957990 1.007849 2.236679 0.023639 0.002016 -93569.100000 0 0 1
-11.880582 -17.242211 -17.550354 27.321365 0.967464 2.268380 0.021785 0.005983 -1243560.000000 0 0 1
-10.585582 -16.544311 -17.723654 26.455561 1.001602 2.304925 0.023009 -0.003279 -1551740.000000 0 0 1
-9.971082 -16.322811 -16.508854 25.266557 1.022424 2.282847 0.020388 0.000126 253724.000000 0 0 1
-8.754882 -15.613211 -16.803654 24.551642 1.059748 2.324605 0.020644 -0.002928 34391.100000 0 1 0
-8.057682 -15.017511 -15.549854 23.070540 1.078336 2.310425 0.015616 -0.006148 -105149.000000 0 1 0
-7.523482 -15.881311 -14.607454 22.851620 1.128383 2.264294 0.007239 0.002991 -866798.000000 0 1 0
-6.381182 -16.560811 -14.963254 23.213766 1.203010 2.271277 0.009446 0.007070 -1102070.000000 0 1 0
-5.909282 -17.474411 -13.797954 23.036019 1.244701 2.213014 0.000655 0.014588 -373703.000000 0 1 0
-5.397682 -16.808111 -12.632754 21.707926 1.260064 2.191911 -0.003978 0.009912 285261.000000 0 1 0
-5.255982 -17.554711 -11.410254 21.586735 1.279885 2.127720 -0.003847 0.002141 -792273.000000 0 1 0
-4.250282 -18.680411 -11.492654 22.340630 1.347079 2.111137 0.009764 0.005000 -338754.000000 0 1 0
-2.941782 -18.187511 -11.760754 21.857607 1.410438 2.138933 0.005554 0.009066 -586976.000000 0 1 0
-1.991282 -19.182311 -11.637854 22.524784 1.467359 2.113752 0.000423 0.011585 -465711.000000 0 1 0
-0.562682 -18.729511 -11.931754 22.214364 1.540763 2.137814 0.005988 0.017915 -1068460.000000 0 1 0
-0.463682 -18.298011 -13.290054 22.619853 1.545461 2.198811 0.006438 0.007366 -247602.000000 0 1 0
0.723318 -17.559311 -13.502354 22.162269 -1.529627 2.225910 0.007454 0.006330 373442.000000 0 1 0
2.035418 -18.363911 -13.623354 22.955869 -1.460409 2.206145 0.007991 0.001237 -830887.000000 0 1 0
2.074618 -19.366711 -14.666654 24.382048 -1.464080 2.216217 0.013182 0.003680 156370.000000 0 1 0
1.360918 -20.600711 -14.408354 25.176220 -1.504830 2.180104 0.001020 0.005090 -716635.000000 0 0 1
0.991418 -21.362311 -15.705054 26.532621 -1.524420 2.204229 -0.000211 0.006059 -136326.000000 0 0 1
2.053218 -22.051611 -16.309454 27.504319 -1.477954 2.205548 -0.006369 0.012924 -732343.000000 0 0 1
3.105718 -21.305011 -16.788454 27.302036 -1.426042 2.233076 -0.006205 0.016547 -737447.000000 0 0 1
4.426818 -22.108711 -16.853754 28.150326 -1.373180 2.212680 -0.005392 0.009094 63742.700000 0 0 1
4.362918 -23.024711 -17.937354 29.511372 -1.383528 2.224098 -0.009498 0.008455 33764.000000 0 0 1
5.582118 -23.727211 -18.065854 30.340001 -1.339736 2.208618 0.007169 0.000825 337857.000000 0 0 1
6.018818 -23.748411 -19.580554 31.362578 -1.322582 2.245068 0.001056 0.005145 42147.900000 0 0 1
6.062218 -22.427911 -20.023454 30.670840 -1.306807 2.282137 0.005966 -0.005837 37811.300000 0 0 1
6.655618 -22.426011 -21.298754 31.636374 -1.282295 2.309373 0.013869 -0.000803 -165247.000000 0 0 1
6.925718 -21.032811 -21.872854 31.125014 -1.252697 2.350041 0.003495 -0.006752 599327.000000 0 0 1
5.761918 -20.241711 -22.140054 30.546826 -1.293476 2.381527 0.003236 -0.004590 392530.000000 0 0 1
6.133718 -19.079011 -22.866154 30.405463 -1.259742 2.421949 0.007005 -0.006453 -138561.000000 0 0 1
4.892918 -18.274311 -23.234054 29.961849 -1.309184 2.458231 0.008363 -0.003295 -367072.000000 0 0 1
4.070818 -18.858111 -24.282354 31.013427 -1.358193 2.470211 0.018907 0.001924 245199.000000 0 0 1
3.191218 -17.955311 -24.877254 30.845662 -1.394902 2.509017 0.014697 0.012446 398682.000000 0 0 1
1.945018 -17.419611 -24.086154 29.788736 -1.459600 2.512507 0.006961 0.009868 -412791.000000 0 0 1
2.191618 -16.608511 -22.949254 28.413273 -1.439597 2.511028 0.010421 0.007847 344939.000000 0 0 1
1.031918 -15.876211 -22.468954 27.531306 -1.505890 2.525468 0.004217 0.008550 925652.000000 0 0 1
1.330218 -15.142511 -21.106754 26.010771 -1.483175 2.517446 0.003679 0.012595 133850.000000 0 0 1
2.046818 -13.919911 -21.168154 25.417398 -1.424800 2.554982 0.005886 0.011284 -223464.000000 0 0 1
2.008718 -13.235911 -19.961054 24.034724 -1.420183 2.550817 0.007777 0.005801 574057.000000 0 1 0
3.267018 -12.306411 -19.810954 23.549842 -1.311309 2.570360 0.009115 -0.001114 122506.000000 0 1 0
4.441418 -13.015311 -19.462054 23.830570 -1.241942 2.526438 0.009086 -0.006625 167927.000000 0 1 0
5.617018 -12.209211 -19.344154 23.554448 -1.139605 2.534399 0.015226 -0.008289 714446.000000 0 1 0
5.662018 -11.244411 -18.135554 22.076991 -1.104320 2.534778 0.014322 -0.015117 -539511.000000 0 1 0
4.811918 -10.081311 -18.187254 21.343936 -1.125464 2.590789 0.004582 -0.006003 -100985.000000 0 1 0
5.236918 -9.045811 -19.070854 21.747402 -1.046011 2.640224 0.012538 -0.008224 -449477.000000 0 1 0
4.674418 -9.118211 -20.518354 22.934577 -1.097083 2.678437 0.014938 -0.007750 -260183.000000 0 1 0
3.328218 -8.703911 -20.577354 22.588993 -1.205570 2.716368 0.010195 -0.010650 -418987.000000 0 1 0
2.884318 -8.873711 -21.894854 23.800140 -1.256528 2.738740 0.005152 -0.015780 -967700.000000 0 1 0
1.385518 -8.872111 -22.041054 23.800044 -1.415882 2.754719 -0.003292 -0.009587 -951286.000000 0 1 0
0.894618 -7.566011 -21.958254 23.242413 -1.453101 2.807625 -0.001505 -0.007097 -83935.800000 0 1 0
-0.523782 -7.514011 -22.074254 23.323966 1.501202 2.812758 0.001803 -0.001777 559847.000000 0 1 0
-0.978682 -6.554811 -23.216054 24.143499 1.422584 2.863519 0.012152 0.004949 -187191.000000 0 1 0
-0.419582 -7.009411 -24.425854 25.415158 1.511008 2.861661 0.004253 0.002281 -217521.000000 0 0 1
-0.787382 -6.363611 -25.623204 26.413332 1.447690 2.896381 -0.006434 0.007097 -118354.000000 0 0 1
-0.487282 -4.852811 -25.808004 26.264811 1.470720 2.954815 0.010394 -0.003000 -259722.000000 0 0 1
-0.902382 -4.436011 -27.073744 27.449592 1.370113 2.975920 0.002403 0.000651 -177755.000000 0 0 1
-0.613182 -3.086211 -27.453434 27.633163 1.374666 3.027477 -0.003412 0.001351 -460758.000000 0 0 1
-1.148082 -1.898911 -26.533754 26.626379 1.027001 3.058158 -0.003624 -0.001168 529676.000000 0 0 1
-2.551782 -1.674011 -26.530544 26.705499 0.580593 3.027064 -0.001204 0.002217 165249.000000 0 0 1
-3.085782 -1.056011 -27.719294 27.910508 0.329726 3.024470 0.004072 -0.001304 -2008270.000000 0 0 1
-4.549682 -1.270711 -27.712964 28.112678 0.272356 2.972761 0.004793 0.005076 -1777310.000000 0 0 1
-5.037782 -0.498811 -26.633884 27.110733 0.098692 2.953759 0.001319 -0.002285 -1408520.000000 0 0 1
-6.397882 -0.685511 -26.502624 27.272548 0.106739 2.903414 -0.004416 -0.004282 -1396440.000000 0 0 1
-7.086782 0.484489 -25.778744 26.739500 -0.068259 2.872716 -0.007867 0.001615 -897700.000000 0 0 1
-7.080782 1.748989 -26.432974 27.420768 -0.242158 2.872364 -0.012046 -0.002356 588898.000000 0 0 1
-8.010382 1.897889 -27.533014 28.737346 -0.232639 2.851061 -0.004042 -0.000964 1563010.000000 0 0 1
-9.538782 1.552789 -27.333684 28.991892 -0.161371 2.801742 -0.002989 -0.003088 204289.000000 0 0 1
-10.379482 1.863689 -28.418824 30.312316 -0.177662 2.786269 0.002017 -0.007166 1084610.000000 0 0 1
-11.740182 1.662489 -27.964224 30.374225 -0.140671 2.740555 0.003243 -0.005120 590529.000000 0 0 1
-12.811582 2.142389 -28.935874 31.717680 -0.165690 2.719649 0.004802 0.000074 -1064780.000000 0 0 1
-14.074382 1.668389 -28.573664 31.895548 -0.117990 2.681139 -0.002052 -0.000514 -621429.000000 0 0 1
-15.129282 2.120589 -29.353374 33.090975 -0.139257 2.661714 -0.004049 -0.000909 -428518.000000 0 0 1
-15.793582 3.468789 -28.910674 33.125470 -0.216200 2.631630 0.001084 0.004652 -660765.000000 0 0 1
-15.074182 4.700789 -28.920874 32.950650 -0.302287 2.641843 0.005217 0.003041 -74392.500000 0 0 1
-14.899882 5.262989 -30.203904 34.087847 -0.339544 2.659574 -0.001625 -0.004393 -638305.000000 0 0 1
-16.160282 5.730289 -30.919744 35.355643 -0.340759 2.635272 -0.005081 -0.001794 -422176.000000 0 0 1
-16.772582 6.862689 -30.285924 35.293812 -0.388379 2.602371 0.000548 0.000612 426955.000000 0 0 1
-17.486482 7.709489 -31.184404 36.574312 -0.415246 2.591797 0.001309 0.000057 -431043.000000 0 0 1
-18.285282 8.732289 -30.380894 36.518531 -0.445534 2.553375 0.004226 -0.001428 -563599.000000 0 0 1
-17.552082 9.777989 -29.787534 35.930235 -0.508266 2.548182 0.004749 0.002681 306900.000000 0 0 1
-18.370382 10.569389 -28.951824 35.880231 -0.522097 2.509684 0.015265 0.008705 -63101.000000 0 0 1
-8.120582 25.113189 30.979303 40.698075 -1.258049 0.705638 -0.010392 0.000692 -267484.000000 0 0 1
-8.995882 26.225889 31.073943 41.645084 -1.240357 0.728519 -0.004764 -0.005074 159779.000000 0 0 1
-8.460382 27.163089 31.952263 42.782690 -1.268854 0.727483 -0.008553 -0.003483 -30455.100000 0 0 1
-7.173382 27.917589 31.576643 42.754339 -1.319289 0.739864 -0.005709 -0.003708 -166610.000000 0 0 1
-7.265082 28.847289 30.519233 42.618905 -1.324081 0.772603 0.004198 0.003260 111766.000000 0 0 1
-5.986782 28.831389 29.922103 41.981219 -1.366058 0.777386 0.001572 0.002086 -200351.000000 0 0 1
-5.818782 30.103789 29.075933 42.255250 -1.379860 0.811926 0.008784 0.002399 -613278.000000 0 0 1
-5.873682 31.293389 29.803203 43.612008 -1.385258 0.818426 0.014919 0.006444 158252.000000 0 0 1
-5.569582 32.491789 29.120503 43.985683 -1.401031 0.847252 0.022613 0.010243 -236673.000000 0 0 1
-5.865582 33.765289 29.893863 45.476838 -1.398796 0.853509 0.011226 0.013253 -204785.000000 0 0 1
-5.129482 33.885389 31.109003 46.285000 -1.420560 0.833730 0.002617 0.006571 11180.100000 0 0 1
-5.660082 -34.594920 32.024003 47.480331 1.408623 0.830551 -0.000020 0.006536 780063.000000 0 0 1
-6.928982 34.344989 32.793493 47.989605 -1.371722 0.818461 0.002736 0.003005 433494.000000 0 0 1
-6.782882 33.442189 33.800508 48.029801 -1.370687 0.790148 0.004582 0.004203 -351021.000000 0 0 1
-6.627282 32.077289 33.372236 46.760875 -1.367059 0.776060 0.011691 0.007906 -231051.000000 0 0 1
-6.480482 30.940489 34.444272 46.751667 -1.364331 0.742546 0.011593 0.006427 -446619.000000 0 0 1
-5.281682 31.001489 -34.214188 46.471487 -1.402048 2.398294 0.006622 0.005191 -614455.000000 0 0 1
-5.434882 30.485189 -32.907784 45.186358 -1.394370 2.386588 0.007696 0.003592 -691762.000000 0 0 1
-4.100082 30.259989 -32.171724 44.356481 -1.436121 2.382265 -0.006896 0.004024 385737.000000 0 0 1
-3.266382 29.159389 -32.493014 43.780534 -1.459243 2.407113 -0.010457 0.005171 210092.000000 0 0 1
-2.725982 29.200889 -33.803124 44.752364 -1.477713 2.426965 -0.009458 0.004360 -597766.000000 0 0 1
-2.024282 27.878489 -34.296857 44.244573 -1.498313 2.457773 -0.008690 0.003236 -109813.000000 0 0 1
-0.776982 27.585689 -33.701354 43.558641 -1.542638 2.455458 0.007146 0.001985 209456.000000 0 0 1
-0.215982 26.282389 -34.069364 43.029434 -1.562579 2.484496 0.007646 0.002553 424871.000000 0 0 1
0.088718 25.847289 33.826553 42.571421 1.567364 0.652475 0.004942 0.001481 -267362.000000 0 0 1
-1.058182 25.519289 33.073743 41.787873 -1.529354 0.657590 0.004840 0.009583 -32261.800000 0 0 1
-0.759282 25.364089 31.733103 40.631310 -1.540870 0.674529 0.012202 0.004134 -126156.000000 0 0 1
-0.431582 26.623989 30.909943 40.797642 -1.554587 0.711106 -0.007409 0.002303 921738.000000 0 0 1
-1.651782 27.365689 30.665543 41.133743 -1.510510 0.729499 -0.015599 -0.001086 1016900.000000 0 0 1
-1.420682 28.563789 29.888023 41.366681 -1.521100 0.763364 -0.017469 -0.001242 152137.000000 0 0 1
-2.477782 29.671889 30.139293 42.366701 -1.487484 0.779321 -0.009765 0.002139 -465032.000000 0 0 1
-2.322682 30.211589 31.427323 43.655602 -1.494067 0.767149 -0.006653 -0.004931 523905.000000 0 0 1
-3.223182 31.308489 31.679903 44.656765 -1.468209 0.782137 -0.006979 0.003800 164180.000000 0 0 1
-2.691182 31.932089 32.995493 45.995688 -1.486717 0.770790 -0.001392 0.002747 757615.000000 0 0 1
-1.402382 32.508689 32.764113 46.176494 -1.527684 0.781950 -0.019780 -0.002551 85609.200000 0 0 1
-0.793682 32.899089 33.989707 47.310466 -1.546676 0.769240 -0.016903 -0.001401 28200.700000 0 0 1
0.555718 33.601889 33.750051 47.628371 1.554260 0.783267 -0.009093 -0.003548 31587.400000 0 0 1
0.363418 -34.567320 33.264263 47.974398 -1.560283 0.804634 -0.002530 -0.001945 -209156.000000 0 0 1
1.605918 -33.954620 33.262013 47.558981 -1.523536 0.796260 -0.008078 0.004971 -590645.000000 0 0 1
1.520318 -32.535020 32.808603 46.230329 -1.524102 0.781757 -0.007327 0.002820 -219017.000000 0 0 1
0.925018 -31.615320 33.696188 46.214903 -1.541546 0.753762 -0.008347 0.005516 131147.000000 0 0 1
1.435918 -30.378520 33.379782 45.156685 -1.523564 0.738916 -0.005157 0.012645 -241840.000000 0 0 1
1.208318 -29.323820 34.494188 45.290126 -1.529614 0.704976 -0.011572 0.016066 137174.000000 0 0 1
-0.169282 -29.030520 34.677975 45.225675 1.564965 0.696992 -0.011040 0.015692 296174.000000 0 0 1
-0.287582 -28.361120 -33.452104 43.857486 1.560657 2.438344 -0.013003 0.015399 -967281.000000 0 0 1
-1.743182 -28.101620 -33.185674 43.520440 1.508844 2.438012 -0.013281 0.016620 -1033250.000000 0 0 1
-1.889482 -27.702020 -31.861064 42.262270 1.502694 2.424758 -0.008352 0.010750 449910.000000 0 0 1
-3.007482 -26.807520 -31.777044 41.682953 1.459075 2.437735 -0.000664 0.009205 278985.000000 0 0 1
-3.311782 -26.294020 -30.373004 40.309586 1.445504 2.424156 0.004963 0.004274 167991.000000 0 0 1
-4.054782 -27.327220 -29.683654 40.550432 1.423492 2.392076 0.000481 0.009569 240570.000000 0 0 1
-4.556782 -26.995320 -28.387064 39.437761 1.403574 2.374302 0.007030 0.007024 -62251.600000 0 0 1
-3.611382 -26.461720 -27.272664 38.171493 1.435159 2.366673 0.008529 0.001360 44971.300000 0 0 1
-3.068982 -25.181020 -27.528184 37.433986 1.449518 2.397023 -0.001039 0.008383 308589.000000 0 0 1
-2.044282 -24.829520 -26.597964 36.443598 1.488649 2.388883 -0.000145 0.005703 -779402.000000 0 0 1
-1.240482 -23.602020 -27.066124 35.932843 1.518286 2.423773 0.008427 -0.000899 -407638.000000 0 0 1
-0.347482 -23.738620 -28.093324 36.781486 1.556160 2.439961 -0.008508 0.001780 -135930.000000 0 0 1
0.799818 -24.538220 -27.810544 37.097039 -1.538213 2.418360 -0.007459 -0.003946 -622368.000000 0 0 1
1.518718 -24.955120 -29.093494 38.360082 -1.510013 2.431699 -0.012073 -0.006738 -175362.000000 0 0 1
2.267018 -23.901220 -29.664944 38.163027 -1.476230 2.461193 0.003211 -0.009928 507358.000000 0 0 1
3.030718 -24.329620 -30.820024 39.382605 -1.446866 2.469595 0.008175 -0.004548 -540820.000000 0 0 1
4.071218 -23.351020 -31.366514 39.315432 -1.398183 2.494462 0.008428 -0.003128 -1137910.000000 0 0 1
5.281118 -23.235520 -30.690604 38.854765 -1.347307 2.481410 0.012745 -0.012032 -151961.000000 0 0 1
6.209418 -24.283020 -30.795784 39.706451 -1.320451 2.458440 0.017433 -0.007007 -478761.000000 0 0 1
6.982318 -24.413020 -32.102194 40.930419 -1.292225 2.472382 0.014139 -0.001944 -566821.000000 0 0 1
6.229618 -25.290620 -32.936624 41.991009 -1.329283 2.472481 0.005041 0.000827 356214.000000 0 0 1
6.588818 -25.186320 -34.327997 43.083345 -1.314927 2.492746 0.011817 0.003780 105433.000000 0 0 1
6.016418 -23.898620 34.318335 42.250319 -1.324174 0.622776 0.013177 0.005429 24890.800000 0 0 1
4.621518 -23.755720 34.437415 42.090714 -1.378653 0.612573 0.023275 0.005388 -266117.000000 0 0 1
4.226918 -22.588620 33.762820 40.841653 -1.385810 0.597622 0.019744 0.003473 -583818.000000 0 0 1
2.759818 -22.210920 34.008832 40.712925 -1.447175 0.582059 -0.005702 0.002618 313237.000000 0 0 1
1.769518 -23.164220 33.552092 40.809989 -1.494554 0.605612 -0.006437 0.007804 438215.000000 0 0 1
1.396818 -24.047420 34.572710 42.136704 -1.512776 0.608530 -0.003126 0.014098 -380274.000000 0 0 1
0.154618 -24.854920 34.136167 42.226400 -1.564576 0.629354 -0.012790 0.015250 -176341.000000 0 0 1
0.331018 -25.751520 33.085513 41.927336 -1.557943 0.661429 -0.008459 0.011857 -366977.000000 0 0 1
-0.929682 -26.074420 32.561703 41.725342 1.535156 0.675520 -0.014673 0.012073 -212312.000000 0 0 1
-0.907482 -27.300520 31.596063 41.766651 1.537568 0.712867 -0.008223 -0.004969 -1116960.000000 0 0 1
-2.007082 -27.253320 30.807283 41.180827 1.497284 0.725606 -0.003239 -0.009993 -1065340.000000 0 0 1
-1.981182 -28.346620 29.885303 41.238178 1.501019 0.760198 -0.003862 -0.010818 -440276.000000 0 0 1
-3.325182 -28.539720 29.208873 40.972317 1.454809 0.777182 -0.000495 -0.003131 -883743.000000 0 0 1
-4.368382 -28.952720 30.009303 41.927330 1.421046 0.773105 0.006943 0.000205 -202875.000000 0 0 1
-5.486782 -29.419620 29.263083 41.856264 1.386414 0.796613 0.004173 0.006780 392945.000000 0 0 1
-6.599282 -30.061520 30.133893 43.073159 1.354698 0.795962 0.012066 0.006148 44746.800000 0 0 1
-7.649082 -30.653420 29.360103 43.129529 1.326256 0.822021 0.017657 0.006261 1463090.000000 0 0 1
-8.854182 -30.887220 30.163433 44.070961 1.291621 0.816976 0.012205 0.003454 1183540.000000 0 0 1
-8.764782 -32.100520 31.192473 45.609595 1.304252 0.817699 0.014060 0.007517 -636788.000000 0 0 1
-8.733582 -33.434620 30.651873 46.191846 1.315292 0.845205 0.021814 0.006861 8167.970000 0 0 1
-9.845282 -33.887320 29.914443 46.261798 1.288050 0.867633 0.018032 0.005711 -239791.000000 0 0 1
-9.721682 34.102789 29.436553 46.087113 -1.293092 0.877969 0.025488 0.007495 -428256.000000 0 0 1
-9.975382 33.173389 30.422853 46.103492 -1.278693 0.850135 0.019085 0.008559 225425.000000 0 0 1
-9.580782 31.846189 30.047883 44.820156 -1.278564 0.836035 0.016102 0.007608 -34228.700000 0 0 1
-10.114782 30.751689 31.027863 44.840868 -1.253025 0.806603 0.012348 0.007402 -71009.000000 0 0 1
-11.526082 30.843189 31.048113 45.256361 -1.213166 0.814751 0.013289 0.013485 -102804.000000 0 0 1
-12.179282 29.691489 31.567193 45.015631 -1.181533 0.793648 0.015455 0.008770 -46421.300000 0 0 1
-12.194782 29.526189 33.109363 46.008026 -1.179120 0.767508 0.012666 -0.001532 -30036.100000 0 0 1
-13.189882 30.380389 33.702804 47.252725 -1.161195 0.776678 0.013682 0.008342 629159.000000 0 0 1
-13.123982 30.284389 -34.277598 47.585048 -1.161868 2.375094 0.002859 0.004593 646741.000000 0 0 1
-14.525082 30.450989 -33.582724 47.602942 -1.125719 2.353891 -0.000213 0.008938 645217.000000 0 0 1
-14.478082 30.062789 -32.212784 46.379409 -1.121981 2.338590 -0.004651 0.001495 -725902.000000 0 0 1
-15.702582 30.171289 -31.577334 46.411267 -1.090925 2.319078 0.003900 0.004621 -663707.000000 0 0 1
-15.645282 29.533189 -30.173634 45.027017 -1.083631 2.305171 0.006671 -0.001966 -363898.000000 0 0 1
-15.646382 28.130789 -30.307084 44.211648 -1.063204 2.326087 0.007956 -0.009992 98635.200000 0 0 1
-15.662082 27.661489 -28.972184 43.009838 -1.055597 2.309889 0.004590 -0.009798 -194070.000000 0 0 1
-16.326282 26.251189 -28.794134 42.246592 -1.014411 2.320706 0.004214 -0.015494 -574694.000000 0 0 1
-17.681582 26.252189 -29.093734 42.991407 -0.978059 2.314113 0.008405 -0.011242 -880258.000000 0 0 1
-18.240082 25.003889 -28.671354 42.189354 -0.940551 2.317996 0.004827 -0.015401 490831.000000 0 0 1
-19.769482 25.002489 -28.979184 43.078416 -0.901752 2.308659 0.009895 -0.017086 41451.400000 0 0 1
-20.623282 25.591389 -28.037754 43.201326 -0.892488 2.277068 0.008729 -0.014779 -1056650.000000 0 0 1
-21.854282 25.020989 -28.273464 43.623941 -0.852852 2.275907 -0.002319 -0.010452 -969558.000000 0 0 1
-22.793582 25.202289 -27.039514 43.426237 -0.835542 2.242926 -0.000828 -0.009346 -128872.000000 0 0 1
-23.270582 26.525189 -26.874004 44.354455 -0.850664 2.221683 0.008624 -0.004694 97379.800000 0 0 1
-24.390582 26.559989 -26.001454 44.456823 -0.827951 2.195516 0.010190 -0.008370 96574.300000 0 0 1
-24.163482 26.179789 -24.443454 43.205759 -0.825428 2.172133 0.013854 -0.005259 -611625.000000 0 0 1
-23.957782 24.803689 -24.120154 42.083014 -0.802744 2.181149 0.002783 -0.004917 360354.000000 0 0 1
-25.128762 23.983489 -23.943654 42.189583 -0.762083 2.174293 0.009343 -0.007002 166150.000000 0 0 1
-25.999632 24.145489 -22.639954 42.089820 -0.748439 2.138736 0.007924 -0.008506 19469.600000 0 0 1
-25.367212 23.896889 -21.390054 40.891211 -0.755561 2.121277 0.006639 -0.009333 -379549.000000 0 0 1
-24.444482 24.876389 -21.070354 40.747113 -0.794155 2.114256 0.004130 -0.009197 -1043750.000000 0 0 1
-23.518282 24.415889 -19.958854 39.339561 -0.804122 2.102901 0.002063 -0.012057 -940840.000000 0 0 1
-24.057582 24.267289 -18.694554 38.950672 -0.789738 2.071399 0.000290 -0.015962 -628312.000000 0 0 1
-23.080882 23.918489 -17.770754 37.691125 -0.803218 2.061769 -0.007756 -0.018478 -797908.000000 0 0 1
-23.505282 24.010989 -16.294054 37.343300 -0.796041 2.022314 -0.003219 -0.018537 -179566.000000 0 0 1
-23.987982 25.258489 -15.812154 38.254918 -0.811191 1.996912 0.008045 -0.021198 102673.000000 0 0 1
-24.148982 25.122689 -14.396454 37.703855 -0.805158 1.962572 -0.003779 -0.018866 36661.900000 0 0 1
-24.119882 26.490989 -13.599954 38.321011 -0.832214 1.933599 0.000296 -0.017931 179791.000000 0 0 1
-22.927482 27.251689 -13.644354 38.137807 -0.871361 1.936669 -0.008755 -0.008391 -60553.100000 0 0 1
-22.925282 28.294889 -12.698954 38.567249 -0.889850 1.906324 -0.005634 -0.003294 2020640.000000 0 0 1
-21.407682 28.646689 -12.237454 37.797842 -0.929025 1.900498 -0.007182 -0.003420 1489790.000000 0 0 1
-20.795182 27.552389 -11.690054 36.444904 -0.924262 1.897328 -0.011892 -0.003468 51984.900000 0 0 1
-19.621082 28.004889 -11.007454 35.922481 -0.959647 1.882229 -0.010691 0.000267 141622.000000 0 0 1
-18.778182 26.875289 -10.415554 34.400363 -0.960933 1.878399 -0.020023 0.002613 -196116.000000 0 0 1
-18.164282 26.016789 -11.353854 33.700511 -0.961296 1.914424 -0.024743 0.004050 123675.000000 0 0 1
-17.779982 24.797189 -10.808054 32.370393 -0.948741 1.911221 -0.020993 0.013311 -350755.000000 0 0 1
-17.010782 23.822589 -11.755054 31.544630 -0.950696 1.952658 -0.015711 0.016974 92111.500000 0 0 1
-17.002482 22.546389 -11.113354 30.346839 -0.924669 1.945730 -0.006539 0.016620 372669.000000 0 0 1
-16.339582 21.584889 -11.977754 29.603310 -0.922836 1.987347 0.000353 0.017133 377248.000000 0 0 1
-16.163782 20.148289 -11.314754 28.200089 -0.894690 1.983657 0.005850 0.014395 -382700.000000 0 0 1
-17.404182 19.518589 -11.229254 28.460095 -0.842601 1.976387 0.006816 0.019690 -402410.000000 0 0 1
-17.246182 18.180889 -10.847354 27.306420 -0.811776 1.979310 0.014018 0.018266 -969824.000000 0 0 1
-18.482182 17.302789 -10.922354 27.573091 -0.752452 1.978088 0.020372 0.013867 -421469.000000 0 0 1
-18.958182 16.968089 -12.246654 28.236664 -0.730061 2.019408 0.010664 0.015962 111896.000000 0 0 1
-19.627582 17.965589 -12.957554 29.595651 -0.741217 2.023968 0.009218 0.021553 -609192.000000 0 0 1
-20.218482 17.493689 -14.305154 30.322493 -0.713271 2.062090 0.011195 0.016803 488984.000000 0 0 1
-19.255282 17.272389 -15.354854 30.081104 -0.731167 2.106503 0.011661 0.019010 28376.000000 0 0 1
-19.906682 16.858689 -16.478954 30.855263 -0.702683 2.134207 0.011320 0.015096 -297061.000000 0 0 1
-19.107082 16.710289 -17.808454 31.007343 -0.718581 2.182582 0.003213 0.010885 -189711.000000 0 0 1
-18.447782 17.889689 -18.169154 31.471888 -0.770041 2.186231 -0.004624 -0.000649 113454.000000 0 0 1
-17.641782 17.721589 -19.318854 31.599134 -0.787655 2.228591 -0.010373 0.004344 -297914.000000 0 0 1
-16.580982 18.865989 -19.487254 31.790054 -0.849772 2.230646 -0.004378 0.006326 -153129.000000 0 0 1
-15.480882 18.652189 -18.620354 30.565985 -0.878042 2.225829 0.006923 0.004672 -124395.000000 0 0 1
-14.662482 19.786789 -18.665154 30.901349 -0.933065 2.219337 0.003895 0.003187 -338873.000000 0 0 1
31.280026 31.701189 2.140646 44.586856 0.792085 1.522767 0.011805 0.006932 -328872.000000 0 0 1
32.410586 31.348589 1.414446 45.112977 0.768743 1.539438 0.007907 0.004101 -500794.000000 0 0 1
32.485966 32.132089 0.252246 45.693246 0.779922 1.565276 0.003917 0.013889 -470255.000000 0 0 1
33.849701 31.911489 -0.384254 46.521962 0.755933 1.579056 0.006289 0.010486 -466002.000000 0 0 1
-34.631254 32.428389 0.294446 47.444819 -0.752561 1.564590 0.005392 0.008580 257851.000000 0 0 1
-33.486502 32.379089 -0.571254 46.584091 -0.768587 1.583059 -0.002619 0.009044 488546.000000 0 0 1
-32.450932 33.455189 -0.123754 46.608239 -0.800635 1.573452 -0.006104 0.005969 72917.800000 0 0 1
-31.801782 33.168889 1.093646 45.964384 -0.806437 1.547001 -0.004393 0.005452 -123654.000000 0 0 1
-31.030172 34.229089 1.558746 46.226959 -0.834378 1.537071 -0.000944 0.007351 -105432.000000 0 0 1
-30.448182 33.988489 3.012646 45.731665 -0.840285 1.504872 -0.000568 0.006946 -182240.000000 0 0 1
-29.927452 -34.302520 3.508346 45.657680 0.853409 1.493880 -0.001155 0.010098 -10535.700000 0 0 1
-29.411772 -34.490820 4.849446 45.587127 0.864713 1.464217 0.003684 0.003158 18844.700000 0 0 1
-29.094002 -33.084820 5.525946 44.402729 0.849493 1.446022 0.008673 0.002335 386432.000000 0 0 1
-30.212052 -32.467320 6.209846 44.782331 0.821364 1.431681 0.005591 0.001937 624263.000000 0 0 1
-30.514212 -33.015420 7.491946 45.577015 0.824749 1.405667 0.007849 -0.001043 -681031.000000 0 0 1
-31.680702 -32.267520 8.210946 45.959540 0.794574 1.391176 0.005771 -0.006143 516471.000000 0 0 1
-32.993052 -32.261920 7.690046 46.781511 0.774194 1.405665 0.009307 -0.002089 323866.000000 0 0 1
-33.590692 -33.537020 7.598246 48.070777 0.784599 1.412067 0.009356 -0.001872 -1772410.000000 0 0 1
34.511137 -33.560820 7.411146 48.705978 -0.771439 1.418042 0.006354 -0.003612 -836621.000000 0 0 1
33.707361 -33.566220 8.587046 48.338542 -0.783300 1.392205 0.004181 -0.002109 465759.000000 0 0 1
32.357966 -33.309820 8.213746 47.159810 -0.799892 1.395735 0.008065 0.000861 -392398.000000 0 0 1
31.481176 -33.437620 9.426346 46.882778 -0.815526 1.368354 0.001882 -0.000184 -1154010.000000 0 0 1
30.117576 -33.402320 9.069146 45.880636 -0.837064 1.371818 -0.007157 0.000660 131725.000000 0 0 1
29.221036 -33.355420 10.161746 45.494110 -0.851372 1.345532 -0.014277 -0.001551 -61888.600000 0 0 1
29.198066 -32.107020 11.112346 44.798125 -0.832813 1.320126 -0.008062 0.001700 -534724.000000 0 0 1
28.560336 -30.861720 10.660046 43.379432 -0.824108 1.322514 -0.012942 0.000798 679286.000000 0 0 1
29.083216 -30.262620 9.470446 43.027305 -0.805269 1.348876 -0.006768 -0.005008 -238855.000000 0 0 1
28.575776 -28.833220 9.205346 41.625328 -0.789883 1.347805 -0.012076 0.001854 -49314.600000 0 0 1
29.112986 -28.187320 8.061046 41.316721 -0.769245 1.374433 -0.003730 -0.010020 350476.000000 0 0 1
28.370016 -26.961620 7.955846 39.938481 -0.759950 1.370252 -0.003620 -0.007627 309834.000000 0 0 1
28.570296 -26.296520 6.604346 39.387640 -0.743980 1.402325 0.001070 -0.005984 1084730.000000 0 0 1
29.962796 -25.988020 6.374846 40.171943 -0.714477 1.411434 0.005091 -0.009777 693758.000000 0 0 1
30.092736 -25.377020 5.109346 39.694726 -0.700588 1.441722 0.004647 -0.005862 331960.000000 0 0 1
31.533676 -24.963420 4.688846 40.491114 -0.669625 1.454737 0.001949 -0.005119 309806.000000 0 0 1
32.392446 -26.053920 4.510646 41.814151 -0.677370 1.462712 0.008233 -0.002653 -625251.000000 0 0 1
33.725982 -25.652320 4.347946 42.595634 -0.650257 1.468543 0.006123 -0.000408 -23314.300000 0 0 1
34.692845 -26.849820 4.174146 44.067333 -0.658641 1.475932 0.006133 0.001111 -163426.000000 0 0 1
34.702666 -27.719920 5.282346 44.727756 -0.673999 1.452420 0.007946 -0.001237 -304952.000000 0 0 1
-34.637889 -29.046620 4.899746 45.469737 0.697826 1.462828 0.004351 0.001720 -1226100.000000 0 0 1
34.243178 -30.005920 5.846546 45.903514 -0.719543 1.443083 0.011386 -0.003517 331037.000000 0 0 1
32.849436 -30.184120 5.708246 44.975000 -0.743139 1.443533 0.015825 -0.002783 -63966.800000 0 0 1
32.050226 -29.043820 5.913646 43.654687 -0.736228 1.434914 0.013665 -0.011803 -490849.000000 0 0 1
30.551976 -29.292220 5.515046 42.683406 -0.764351 1.441226 -0.000160 -0.007899 38802.400000 0 0 1
30.322056 -29.516220 4.142946 42.518212 -0.771932 1.473202 -0.003648 -0.008292 762358.000000 0 0 1
29.027116 -29.084020 3.670246 41.254386 -0.786377 1.481712 -0.001862 -0.006398 910171.000000 0 0 1
27.867606 -30.046620 3.974646 41.172814 -0.823005 1.474110 0.001221 -0.004228 -328706.000000 0 0 1
28.092686 -31.349720 3.470146 42.237967 -0.840137 1.488547 0.000412 -0.004088 -45707.600000 0 0 1
26.903966 -32.095120 3.647246 42.038346 -0.873159 1.483927 0.000922 -0.002950 137965.000000 0 0 1
27.082806 -33.483120 3.060546 43.173657 -0.890683 1.499848 0.000803 0.000264 -257740.000000 0 0 1
27.098286 -33.456520 1.657946 43.086014 -0.890014 1.532307 0.000598 0.010109 21759.800000 0 0 1
26.991756 -34.732420 1.184446 44.003395 -0.910154 1.543876 -0.009165 0.008432 -367570.000000 0 0 1
26.598426 -34.645120 -0.303054 43.678970 -0.916038 1.577735 -0.005221 0.002799 -254978.000000 0 0 1
27.546116 -34.017320 -1.130754 43.786358 -0.890128 1.596624 -0.004106 0.003949 -353734.000000 0 0 1
27.219656 -34.217520 -2.505454 43.795270 -0.898812 1.628036 0.002633 0.004321 -686890.000000 0 0 1
28.194646 -33.970420 -3.643054 44.296719 -0.878042 1.653131 0.005128 0.012948 -491636.000000 0 0 1
28.474696 -32.582120 -3.766954 43.434926 -0.852569 1.657632 -0.003129 0.009806 73711.500000 0 0 1
29.230806 -32.261620 -4.927054 43.812418 -0.834646 1.683493 0.003893 0.007728 120947.000000 0 0 1
29.732126 -30.777320 -4.889354 43.071435 -0.802670 1.684559 0.000580 0.009707 96830.500000 0 0 1
28.606606 -29.924720 -5.054254 41.705782 -0.807914 1.692283 -0.000565 -0.002358 270188.000000 0 0 1
28.858886 -28.519120 -4.879554 40.865457 -0.779477 1.690487 0.003361 -0.016941 119030.000000 0 0 1
29.776296 -27.855720 -5.991354 41.212441 -0.752086 1.716691 0.012400 -0.016951 -188066.000000 0 0 1
31.128576 -28.097220 -5.706454 42.320274 -0.734260 1.706048 0.009483 -0.005207 -147053.000000 0 0 1
32.043306 -27.489320 -6.631854 42.736608 -0.709051 1.726606 0.009402 -0.004835 395180.000000 0 0 1
32.183196 -28.270620 -8.009254 43.579057 -0.720768 1.755634 0.006570 -0.003109 -1248690.000000 0 0 1
31.042246 -28.217020 -8.797054 42.862681 -0.737759 1.777503 0.004902 -0.004544 -615125.000000 0 0 1
30.975376 -29.176720 -9.832854 43.674248 -0.755505 1.797884 0.003518 0.000016 238226.000000 0 0 1
30.731686 -30.668720 -9.541454 44.452742 -0.784373 1.787122 0.004841 -0.007543 607489.000000 0 0 1
31.953266 -31.084520 -8.927654 45.463849 -0.771618 1.768449 0.007582 -0.000925 191571.000000 0 0 1
31.832936 -32.365220 -8.418054 46.170412 -0.793689 1.754148 0.009602 0.001360 341039.000000 0 0 1
33.077686 -32.964720 -7.708054 47.330964 -0.783688 1.734379 0.007071 -0.001749 271613.000000 0 0 1
32.859526 -34.202720 -7.035454 47.948640 -0.805425 1.718057 0.004395 0.000588 -176108.000000 0 0 1
32.504346 -34.105620 -5.666354 47.453487 -0.809433 1.690491 0.005903 0.002633 -59262.900000 0 0 1
32.268306 33.995189 -5.024054 47.139766 0.811453 1.677577 0.001775 0.009352 -44744.600000 0 0 1
31.298916 33.145889 -5.614954 45.932557 0.814050 1.693346 0.004515 0.001757 303640.000000 0 0 1
31.475556 31.808389 -5.143154 45.043715 0.790657 1.685227 -0.001159 0.007956 -94286.600000 0 0 1
30.317366 30.923289 -5.635154 43.670899 0.795292 1.700194 0.004716 0.009444 111804.000000 0 0 1
30.453576 30.622689 -6.997454 43.750814 0.788167 1.731425 0.007793 0.007513 673177.000000 0 0 1
29.180636 30.143089 -7.455254 42.610986 0.801620 1.746662 0.004539 0.004475 809374.000000 0 0 1
29.207256 29.744189 -8.971754 42.641211 0.794506 1.782781 0.002061 0.006011 -225345.000000 0 0 1
29.855706 28.467589 -9.178154 42.261156 0.761602 1.789718 -0.002422 0.009898 161026.000000 0 0 1
30.155266 28.222489 -10.539354 42.625425 0.752302 1.820643 -0.001327 0.009771 -77243.100000 0 0 1
31.263926 29.104789 -11.162754 44.148939 0.749648 1.826414 -0.003161 0.005220 -1715610.000000 0 0 1
32.497466 28.743889 -10.653654 44.674341 0.724183 1.811590 -0.004193 0.008825 -633848.000000 0 0 1
33.505066 29.685189 -10.977654 46.090224 0.725021 1.811285 0.000831 0.007848 -129612.000000 0 0 1
33.564081 31.074189 -10.177554 46.858674 0.746897 1.789738 -0.005461 0.001959 -1095320.000000 0 0 1
34.136733 31.042089 -8.915354 46.993737 0.737955 1.761667 -0.006654 0.005179 -182519.000000 0 0 1
33.908773 32.165989 -8.124354 47.439022 0.759028 1.742904 -0.009013 0.000464 -746136.000000 0 0 1
-34.763622 32.090089 -6.863954 47.805826 -0.745429 1.714874 -0.007018 0.005829 543805.000000 0 0 1
-33.362132 32.206789 -7.047654 46.903928 -0.767780 1.721625 -0.016672 0.004727 374832.000000 0 0 1
-32.739452 31.129289 -7.736754 45.834067 -0.760193 1.740408 -0.013009 0.012222 -845551.000000 0 0 1
-31.366642 31.516689 -8.360154 45.244448 -0.787784 1.756642 -0.005186 0.010553 558885.000000 0 0 1
-30.346162 31.822889 -7.397554 44.590465 -0.809147 1.737467 0.003040 0.006790 614640.000000 0 0 1
-29.101852 32.291189 -7.899254 44.181861 -0.837301 1.750552 0.005531 0.005824 225350.000000 0 0 1
-29.007192 33.592089 -8.773954 45.241882 -0.858510 1.765967 0.001006 0.011411 -798626.000000 0 0 1
-29.045072 -34.606220 -8.158854 45.910495 0.872546 1.749457 -0.009440 0.004895 194439.000000 0 0 1
-27.863222 -34.131720 -7.540654 44.701173 0.886169 1.740297 -0.003320 0.000020 260480.000000 0 0 1
-28.212512 -32.733520 -6.886354 43.759011 0.859443 1.728823 -0.013231 -0.005451 120078.000000 0 0 1
-29.169482 -32.798520 -5.864854 44.283158 0.843894 1.703626 -0.010610 -0.007458 -341263.000000 0 0 1
-28.608612 -33.078520 -4.643754 43.979604 0.857733 1.676582 -0.006583 -0.008446 -332816.000000 0 0 1
-29.649262 -33.290120 -3.535554 44.719246 0.843181 1.649940 0.006425 -0.005739 -191007.000000 0 0 1
-30.288142 -32.076520 -3.182954 44.231277 0.814066 1.642820 -0.008750 -0.002425 -192208.000000 0 0 1
-31.173142 -32.292520 -2.119154 44.933979 0.803034 1.617975 -0.008117 0.002538 -462809.000000 0 0 1
-31.987142 -31.017720 -1.807754 44.593096 0.770013 1.611346 -0.002881 0.010919 -142486.000000 0 0 1
-32.875202 -31.030120 -0.725154 45.212532 0.756534 1.586836 -0.000202 0.017154 -277724.000000 0 0 1
-33.383772 -29.722320 -0.437754 44.699935 0.727443 1.580590 -0.000720 0.013936 -204389.000000 0 0 1
-34.410948 -29.711220 0.701046 45.468246 0.712236 1.555377 -0.002507 0.014502 135656.000000 0 0 1
33.987376 -30.439320 0.363346 45.627031 -0.730383 1.562833 -0.001551 0.009272 868152.000000 0 0 1
32.988186 -30.410520 1.400546 44.888547 -0.744763 1.539591 0.000367 0.005833 714820.000000 0 0 1
32.130206 -29.130220 1.535646 43.396752 -0.736466 1.535403 0.001615 0.012706 -840221.000000 0 0 1
31.284756 -28.908720 0.433346 42.598566 -0.745945 1.560623 -0.005971 0.007223 -223473.000000 0 0 1
30.626166 -27.686820 0.632846 41.290708 -0.735034 1.555469 -0.006620 0.008913 -767344.000000 0 0 1
29.451536 -27.521320 -0.325754 40.310323 -0.751532 1.578878 -0.018605 -0.002888 -321697.000000 0 0 1
28.312316 -28.313020 -0.015554 40.040162 -0.785411 1.571185 -0.020647 0.003190 131451.000000 0 0 1
28.311246 -29.681520 -0.414354 41.020616 -0.809022 1.580898 -0.016670 0.014834 -602100.000000 0 0 1
27.764826 -29.923420 -1.829954 40.861294 -0.822799 1.615596 -0.009517 -0.010862 -648847.000000 0 0 1
26.395816 -30.187920 -1.887054 40.144870 -0.852316 1.617820 -0.003202 -0.000816 -693460.000000 0 0 1
26.050766 -30.404920 -3.247354 40.170224 -0.862371 1.651724 -0.004114 0.008955 83412.000000 0 0 1
24.588906 -30.876920 -3.484554 39.625000 -0.898284 1.658848 -0.007191 0.007941 -221535.000000 0 0 1
23.671506 -29.889220 -3.336454 38.273197 -0.900968 1.658082 -0.002324 0.008932 279172.000000 0 0 1
22.342206 -30.276720 -3.794654 37.818690 -0.935063 1.671304 0.004157 0.004566 1319720.000000 0 0 1
21.327506 -29.119120 -3.759154 36.289350 -0.938640 1.674571 0.008853 0.000773 -220075.000000 0 0 1
21.455606 -28.356820 -4.878854 35.892276 -0.923066 1.707149 0.007365 0.004997 -156781.000000 0 0 1
20.951006 -27.071820 -4.674454 34.549654 -0.912171 1.706509 0.000259 -0.001828 -149423.000000 0 0 1
20.471306 -26.403820 -5.997254 33.944118 -0.911289 1.748409 -0.000083 -0.012283 -36552.400000 0 0 1
19.175306 -26.757720 -6.424954 33.540244 -0.948998 1.763547 -0.000942 -0.008555 -394850.000000 0 0 1
18.736506 -25.939220 -7.452854 32.854906 -0.945245 1.799630 0.005423 -0.004318 -1104740.000000 0 0 1
17.248006 -25.985220 -7.627554 32.107709 -0.984807 1.810651 -0.002307 -0.004231 -1155480.000000 0 0 1
16.514506 -25.271220 -6.669254 30.916701 -0.991971 1.788222 -0.009109 -0.003514 -563163.000000 0 0 1
15.137706 -25.482120 -6.805754 30.410637 -1.034762 1.796503 -0.013651 -0.004735 -287395.000000 0 0 1
14.329406 -24.573120 -5.860554 29.043350 -1.042871 1.773978 -0.012793 -0.002932 -317206.000000 0 0 1
14.620506 -24.991820 -4.546854 29.309114 -1.041471 1.726560 -0.012387 -0.002859 238442.000000 0 0 1
14.082506 -24.140420 -3.560954 28.173698 -1.042704 1.697528 -0.007593 -0.005764 -204148.000000 0 0 1
14.257706 -24.797220 -2.174254 28.686437 -1.048983 1.646663 0.002884 -0.006707 631721.000000 0 0 1
13.410206 -25.971520 -2.025854 29.299446 -1.094160 1.639995 0.006184 -0.003907 754593.000000 0 0 1
14.138506 -26.964820 -1.338554 30.476066 -1.087873 1.614732 0.010706 -0.007681 -416155.000000 0 0 1
13.656306 -28.375520 -1.634354 31.533093 -1.122244 1.622649 0.003825 -0.000370 123380.000000 0 0 1
12.403706 -28.612220 -0.998054 31.201076 -1.161739 1.602790 0.012654 -0.003792 314039.000000 0 0 1
11.702206 -29.751420 -1.499454 32.005265 -1.196051 1.617664 0.013878 -0.002097 -121843.000000 0 0 1
12.171106 -31.152720 -1.128054 33.464911 -1.198340 1.604511 0.006893 -0.000896 -629853.000000 0 0 1
13.233006 -31.621220 -1.924754 34.332473 -1.174457 1.626888 0.008822 0.001804 -223733.000000 0 0 1
13.765306 -32.845420 -1.434154 35.642139 -1.173939 1.611045 0.005479 0.004584 -180752.000000 0 0 1
15.276506 -32.980420 -1.688954 36.385881 -1.137020 1.617231 -0.003183 0.008455 419819.000000 0 0 1
16.136506 -31.996820 -1.067254 35.851393 -1.103702 1.600570 0.005486 0.008521 -195126.000000 0 0 1
17.392206 -31.944220 -1.644154 36.409137 -1.072220 1.615969 -0.000645 0.007519 -402215.000000 0 0 1
18.299406 -30.794420 -1.033454 35.836191 -1.034620 1.599639 0.005798 0.011891 262778.000000 0 0 1
17.869006 -29.499320 -1.354554 34.515881 -1.026165 1.610051 0.004079 0.005891 42777.600000 0 0 1
18.385306 -28.637820 -0.416454 34.034066 -1.000070 1.583033 0.010254 0.002799 -328075.000000 0 0 1
17.807106 -27.183720 -0.498654 32.500712 -0.990869 1.586140 0.012147 -0.003771 -273593.000000 0 0 1
18.153106 -26.350220 -1.611054 32.038490 -0.967548 1.621102 0.007005 -0.005383 382864.000000 0 0 1
17.551106 -26.820520 -2.834554 32.177885 -0.991341 1.659001 -0.001898 -0.004912 -195499.000000 0 0 1
31.671956 -30.392720 13.354346 45.882118 -0.764790 1.275464 -0.002742 0.002030 129285.000000 0 0 1
31.956616 -30.293820 14.733746 46.433007 -0.758693 1.247903 -0.004331 0.006664 235796.000000 0 0 1
31.073706 -31.111920 15.466146 46.612535 -0.786013 1.232583 -0.004366 0.007149 -101677.000000 0 0 1
31.652536 -31.233520 16.846846 47.552413 -0.778735 1.208653 -0.001311 0.004357 227597.000000 0 0 1
30.801266 -31.909820 17.780246 47.781709 -0.803073 1.189511 -0.003525 -0.000405 196041.000000 0 0 1
31.330656 -31.906020 19.077846 48.616544 -0.794497 1.167541 0.004894 0.001640 40462.400000 0 0 1
32.212116 -33.139220 19.374346 50.111811 -0.799584 1.173830 0.001520 0.006329 -597010.000000 0 0 1
33.364486 -33.278020 18.635246 50.674332 -0.784101 1.194213 -0.003328 0.009220 -227069.000000 0 0 1
34.145579 -34.450320 18.965146 52.080917 -0.789841 1.198079 0.015097 0.003360 60682.300000 0 0 1
-34.169589 -34.632220 18.140046 51.923143 0.792122 1.213905 0.017755 0.000413 -715944.000000 0 0 1
-33.227862 -33.684020 18.563346 50.826192 0.792215 1.196914 0.024223 0.005630 -480925.000000 0 0 1
-32.260492 -33.741420 17.527646 49.864227 0.807832 1.211616 0.031350 0.008178 -180037.000000 0 0 1
-30.985162 -32.896120 17.834346 48.582907 0.815303 1.194917 0.012262 0.006390 659360.000000 0 0 1
-29.956012 -33.007420 16.843246 47.650261 0.833823 1.209511 0.009013 0.001437 287516.000000 0 0 1
-30.077162 -31.968720 15.853046 46.668553 0.815875 1.224204 0.014647 -0.001705 -661949.000000 0 0 1
-28.928992 -31.770420 14.866146 45.467004 0.832175 1.237705 0.003462 -0.001241 -770977.000000 0 0 1
-27.686892 -31.438720 15.384046 44.627637 0.848768 1.218856 -0.008319 -0.000145 -1451250.000000 0 0 1
-26.823572 -31.219220 14.337446 43.585618 0.860985 1.235606 -0.001501 0.003221 -1028030.000000 0 0 1
-25.499032 -30.788820 14.921846 42.670992 0.879100 1.213550 0.005347 0.000041 -493757.000000 0 0 1
-24.405882 -30.745620 14.038346 41.689512 0.899847 1.227348 0.012854 0.002597 -221427.000000 0 0 1
-23.176582 -30.506220 14.662646 41.021660 0.921095 1.205275 0.005615 0.003385 -286934.000000 0 0 1
-21.907382 -30.438420 13.818446 39.967240 0.946952 1.217764 0.004106 0.000240 18313.600000 0 0 1
-21.388482 -31.692420 13.458246 40.533949 0.977131 1.232348 0.005956 0.000256 8962.280000 0 0 1
-20.325582 -31.592920 12.524546 39.599320 0.999104 1.248989 0.002693 -0.007206 277390.000000 0 0 1
-19.856682 -32.977020 12.033346 40.330796 1.028807 1.267816 0.005694 -0.005294 109635.000000 0 0 1
-20.784082 -33.505220 11.110046 40.963532 1.015567 1.296138 0.002932 0.000207 128751.000000 0 0 1
-20.620082 34.582389 10.984246 41.734674 -1.033132 1.304467 0.009785 0.009435 43271.700000 0 0 1
-21.482282 33.892589 9.908246 41.332425 -1.005870 1.328718 0.004334 0.006234 -292345.000000 0 0 1
-21.235382 34.341689 8.603246 41.283276 -1.016989 1.360862 0.000511 -0.003519 239950.000000 0 0 1
-22.371382 33.992989 7.811546 41.436967 -0.988736 1.381145 0.006262 0.000084 -3351.120000 0 0 1
-22.154782 34.418089 6.296446 41.413578 -0.998866 1.418166 0.004518 -0.008617 500952.000000 0 0 1
-21.323982 33.487989 5.509946 40.081381 -1.003781 1.432891 -0.000150 -0.011068 1333790.000000 0 0 1
-19.946282 33.301189 5.842746 39.255076 -1.031137 1.421401 -0.009643 -0.009209 800090.000000 0 0 1
-18.884282 34.408489 5.496746 39.632996 -1.068855 1.431657 -0.011820 -0.011715 -277783.000000 0 0 1
-18.991582 -33.907520 6.309646 39.372728 1.060232 1.409848 -0.004031 -0.009880 23562.000000 0 0 1
-18.544182 -34.036920 7.642146 39.506974 1.071935 1.376131 -0.012264 -0.007809 -599238.000000 0 0 1
-18.587282 -32.655920 8.401246 38.502949 1.053343 1.350829 -0.006492 -0.007316 97395.400000 0 0 1
-17.555382 -31.686720 8.045846 37.107618 1.064865 1.352236 -0.008645 -0.015049 567838.000000 0 0 1
-17.436382 -30.472520 8.849446 36.206555 1.051069 1.323879 -0.008778 -0.009228 175970.000000 0 0 1
-17.179782 -30.620020 10.387046 36.614495 1.059499 1.283160 -0.011338 -0.000873 537623.000000 0 0 1
-15.963882 -31.304320 10.700046 36.732778 1.099214 1.275217 -0.017682 0.000424 228304.000000 0 0 1
-15.561682 -31.145020 12.035746 36.837989 1.107427 1.237964 -0.012440 0.002498 924621.000000 0 0 1
-14.210982 -31.915820 12.333446 37.049770 1.151887 1.231431 -0.011135 0.003654 1750710.000000 0 0 1
-13.057782 -31.393720 11.638246 35.937725 1.176628 1.241006 -0.010405 0.008619 269723.000000 0 0 1
-12.105082 -32.405020 11.390346 36.419203 1.213292 1.252702 -0.002252 0.006722 364580.000000 0 0 1
-11.038482 -31.828920 10.387346 35.253726 1.236969 1.271712 0.002371 0.009107 431566.000000 0 0 1
-10.129182 -30.897820 10.934046 34.304941 1.254008 1.246406 -0.001764 0.011457 -313929.000000 0 0 1
-9.652082 -29.997620 9.940546 33.042917 1.259496 1.265226 0.003658 0.019308 126345.000000 0 0 1
-8.778382 -28.870920 10.519946 31.957148 1.275622 1.235352 0.000858 0.025211 214373.000000 0 0 1
-9.336482 -28.073020 11.562346 31.764008 1.249725 1.198229 0.005394 0.006263 -360027.000000 0 0 1
-8.364582 -27.903420 12.567646 31.725586 1.279551 1.163492 -0.002533 0.003699 3576.940000 0 0 1
-8.698982 -26.658820 13.548746 31.143755 1.255382 1.120715 0.005316 -0.003038 166043.000000 0 0 1
-8.400782 -25.411020 12.968246 29.740015 1.251511 1.119587 -0.001985 -0.002366 -255626.000000 0 0 1
-9.402982 -24.935820 12.095846 29.266375 1.210197 1.144719 -0.002032 -0.001334 -146597.000000 0 0 1
-9.119582 -23.631520 11.375046 27.767016 1.202497 1.148715 -0.006781 -0.005321 417879.000000 0 0 1
-7.909082 -23.560320 10.599346 27.018297 1.246922 1.167663 -0.012074 -0.006852 435004.000000 0 0 1
-7.664182 -22.287320 10.028746 25.613279 1.239583 1.168486 -0.017288 -0.004528 -173451.000000 0 0 1
-6.400482 -22.193220 9.150846 24.844379 1.290017 1.193588 -0.016590 -0.007035 413223.000000 0 1 0
-5.201082 -22.471420 9.881246 25.092927 1.343348 1.166049 -0.004379 -0.003368 -430658.000000 0 0 1
-4.148882 -22.544620 8.962146 24.612866 1.388803 1.198104 -0.012268 -0.003278 109600.000000 0 1 0
-2.884082 -23.240820 9.552746 25.292462 1.447332 1.183495 -0.001816 -0.006493 163908.000000 0 0 1
-2.183982 -22.492220 10.504846 24.920304 1.474000 1.135656 -0.002129 -0.005991 474544.000000 0 1 0
-1.030982 -23.279620 10.933746 25.740055 1.526538 1.132082 0.005340 -0.006708 1425820.000000 0 0 1
-0.151682 -22.589320 12.017046 25.587297 1.564082 1.081903 -0.000867 -0.010442 72089.000000 0 0 1
-0.814882 -22.547720 13.254846 26.167817 1.534672 1.039638 0.003686 -0.005743 -254275.000000 0 0 1
-0.019782 -22.384520 14.437246 26.636464 1.569913 0.997969 0.000119 -0.006329 2965.330000 0 0 1
0.707118 -21.048420 14.668946 25.665424 -1.537214 0.962409 0.001348 -0.002320 -188205.000000 0 0 1
1.919618 -20.936120 13.971946 25.243243 -1.479363 0.984244 -0.005371 -0.001100 -527124.000000 0 0 1
2.094218 -19.649320 13.526246 23.946625 -1.464617 0.970545 -0.010202 0.001452 71601.600000 0 1 0
3.517618 -19.456520 12.954946 23.638114 -1.391935 0.990761 -0.009633 -0.004606 378320.000000 0 1 0
3.669518 -20.077420 11.711346 23.531336 -1.390023 1.049861 0.004858 0.000183 352262.000000 0 1 0
5.064118 -20.212120 11.390546 23.746992 -1.325301 1.070526 -0.001233 0.004794 616124.000000 0 1 0
5.390118 -21.153920 10.243146 24.113560 -1.321301 1.132069 0.001593 0.004574 -520446.000000 0 1 0
5.203018 -20.717120 8.887446 23.135626 -1.324740 1.176514 0.005314 0.004816 -640647.000000 0 1 0
5.609118 -21.617320 7.905546 23.691104 -1.316922 1.230578 0.003877 0.005204 177600.000000 0 1 0
7.130018 -21.999920 7.755246 24.392160 -1.257385 1.247240 0.005252 0.010702 691876.000000 0 1 0
7.974818 -21.044120 7.117746 23.603284 -1.208561 1.264471 0.005099 0.007779 36698.900000 0 1 0
8.436618 -19.904320 7.847446 22.998715 -1.169893 1.222590 0.010481 0.009049 108994.000000 0 1 0
9.321918 -20.124720 9.081246 23.966050 -1.137014 1.182166 0.005706 0.011138 -229675.000000 0 1 0
8.529218 -20.329620 10.208946 24.295341 -1.173554 1.137129 0.004841 0.005938 -380053.000000 0 1 0
9.190618 -19.837320 11.346046 24.631677 -1.136938 1.092093 0.003353 0.002435 431701.000000 0 1 0
8.346318 -20.161220 12.626346 25.210324 -1.178298 1.046227 0.005671 0.001043 -120802.000000 0 0 1
8.331218 -21.516420 13.000546 26.483575 -1.201370 1.057684 -0.000904 -0.002086 -287977.000000 0 0 1
7.575618 -21.753820 14.198046 27.059254 -1.235688 1.018431 0.001668 -0.003843 187218.000000 0 0 1
7.840618 -23.094620 14.882246 28.571280 -1.243506 1.022913 -0.009209 -0.007208 -104563.000000 0 0 1
7.461918 -24.203220 14.089446 28.982557 -1.271740 1.063134 -0.006957 -0.002502 -381701.000000 0 0 1
7.205018 -25.347520 14.852446 30.249037 -1.293851 1.057553 -0.003264 -0.010348 396241.000000 0 0 1
6.994118 -26.597920 14.000246 30.860556 -1.313660 1.099927 -0.011143 -0.010292 610646.000000 0 0 1
8.255318 -27.008020 13.485946 31.296233 -1.274153 1.125292 0.000098 -0.003410 242209.000000 0 0 1
8.133818 -28.124420 12.605946 31.875569 -1.289269 1.164213 -0.001555 -0.004359 -523158.000000 0 0 1
9.408318 -28.354120 11.801746 32.120925 -1.250413 1.194567 0.003639 -0.003807 308403.000000 0 0 1
10.531918 -28.894820 12.490846 33.194174 -1.221270 1.185001 0.006468 -0.011488 -33128.000000 0 0 1
11.488718 -29.476420 11.674746 33.721650 -1.199149 1.217269 0.015627 -0.008955 -343685.000000 0 0 1
12.533118 -30.297620 12.459246 35.075029 -1.178564 1.207650 0.018269 -0.004382 -400919.000000 0 0 1
13.440618 -29.500020 13.163746 34.988364 -1.143284 1.185070 0.025868 -0.001993 -19047.500000 0 0 1
14.095618 -30.189120 14.227046 36.228142 -1.133969 1.167223 0.032777 0.001770 -23201.200000 0 0 1
15.582518 -30.474920 14.009646 36.983859 -1.098132 1.182292 0.038558 0.000205 -393806.000000 0 0 1
16.441018 -29.385820 13.879046 36.420618 -1.060698 1.179836 0.035674 -0.004955 85477.400000 0 0 1
17.644518 -29.620620 13.192746 36.915562 -1.033557 1.205339 0.019360 -0.001318 -268447.000000 0 0 1
18.532218 -28.370520 12.997846 36.294263 -0.992160 1.204538 -0.002827 -0.007236 1236950.000000 0 0 1
19.845818 -28.806720 12.538746 37.160514 -0.967538 1.226620 -0.014426 -0.006725 1447290.000000 0 0 1
20.637718 -27.765620 11.936346 36.596741 -0.931608 1.238559 -0.017418 0.001669 436194.000000 0 0 1
22.068818 -28.185020 11.545346 37.612805 -0.906509 1.258807 -0.011039 -0.001104 114760.000000 0 0 1
22.942018 -28.387020 12.657646 38.631271 -0.891083 1.236978 -0.010911 0.004239 -259849.000000 0 0 1
24.030418 -29.138020 12.249146 39.705501 -0.881169 1.257181 -0.014185 -0.002426 -1499830.000000 0 0 1
24.863218 -29.827520 13.337546 41.057895 -0.875921 1.239946 -0.014168 0.005133 -239167.000000 0 0 1
25.847818 -29.003720 13.897246 41.260865 -0.842870 1.227265 -0.013731 0.004556 967392.000000 0 0 1
27.075118 -28.877420 13.121746 41.703089 -0.817598 1.250712 -0.019150 0.005716 669979.000000 0 0 1
28.194518 -28.039220 13.796446 42.088842 -0.782637 1.236829 -0.008787 0.006438 159691.000000 0 0 1
27.943618 -26.630820 13.866146 41.016051 -0.761348 1.225935 -0.007224 0.006724 -412324.000000 0 0 1
27.101218 -26.178720 14.866946 40.507129 -0.768086 1.194992 -0.004063 0.003978 -994220.000000 0 0 1
27.753218 -25.846620 16.190746 41.236260 -0.749842 1.167303 -0.005294 0.014601 -605702.000000 0 0 1
28.114718 -27.032020 16.875246 42.496370 -0.765768 1.162443 -0.003821 0.008957 135246.000000 0 0 1
28.514118 -26.786320 18.210646 43.153094 -0.754164 1.135145 0.000743 0.015716 -164700.000000 0 0 1
28.898718 -28.028220 19.078046 44.549847 -0.770108 1.128252 0.002369 0.010052 -203780.000000 0 0 1
27.789918 -28.729520 19.582046 44.509790 -0.802021 1.115254 -0.013384 0.006302 -353234.000000 0 0 1
28.090318 -29.510820 20.667146 45.684630 -0.810054 1.101356 0.001135 0.007697 254305.000000 0 0 1
26.916918 -30.396820 21.211046 45.808249 -0.846040 1.089374 -0.004670 0.008267 -591317.000000 0 0 1
25.800118 -29.729420 21.696446 44.946861 -0.856041 1.067046 -0.000639 0.012331 281547.000000 0 0 1
24.620318 -30.458920 22.048546 44.944903 -0.891007 1.058054 0.016550 0.006410 974732.000000 0 0 1
23.919818 -31.262320 20.913246 44.574143 -0.917681 1.082436 0.000520 0.006943 -1126010.000000 0 0 1
24.673218 -32.380420 20.433346 45.549763 -0.919672 1.105605 -0.004924 0.002408 44505.700000 0 0 1
24.019218 -33.016020 19.366646 45.189019 -0.941850 1.127887 -0.004894 0.007420 -606739.000000 0 0 1
24.195718 -32.285620 17.988146 44.174285 -0.927662 1.151401 -0.014972 0.013579 536582.000000 0 0 1
25.554018 -32.460520 17.573346 44.894495 -0.903888 1.168604 -0.014262 0.004865 577190.000000 0 0 1
25.991918 -31.400320 16.749846 44.069460 -0.879356 1.180915 -0.021310 0.002328 -162290.000000 0 0 1
27.467018 -31.481520 16.313646 44.851513 -0.853395 1.198532 -0.009656 0.012438 -244940.000000 0 0 1
27.770518 -32.324020 15.224946 45.253099 -0.861026 1.227663 -0.002067 0.010269 137744.000000 0 0 1
27.875918 -33.754920 15.482646 46.434618 -0.880501 1.230858 0.002790 0.010903 -471957.000000 0 0 1
26.818718 -34.581620 14.725746 46.173366 -0.911162 1.246203 -0.017242 0.004911 207476.000000 0 0 1
27.162218 -34.694020 13.316646 46.030362 -0.906565 1.277299 -0.007236 0.002166 425208.000000 0 0 1
26.202018 33.955589 12.702746 44.731281 0.913579 1.282855 -0.015179 -0.003057 53043.800000 0 0 1
26.520418 33.604589 11.216146 44.253846 0.902681 1.314551 -0.013509 -0.004035 -82471.200000 0 0 1
27.644418 32.757989 11.045046 44.263899 0.869855 1.318604 -0.014969 -0.000211 244000.000000 0 0 1
27.828718 32.210689 9.744646 43.668343 0.858254 1.345750 -0.009866 -0.002991 -24335.400000 0 0 1
29.277718 31.706889 9.565246 44.204135 0.825210 1.352683 -0.003894 -0.009113 73916.400000 0 0 1
29.657918 30.757889 10.564546 44.014196 0.803603 1.328404 -0.003716 -0.011209 705623.000000 0 0 1
31.040118 30.391589 10.574546 44.709715 0.774842 1.332018 -0.000689 -0.008737 562786.000000 0 0 1
31.505318 29.541489 11.757646 44.760774 0.753240 1.305000 -0.009338 -0.005725 -190559.000000 0 0 1
31.150618 28.212789 11.655846 43.614003 0.735950 1.300258 -0.009492 -0.005980 302844.000000 0 0 1
31.423018 27.594289 12.924346 43.770876 0.720614 1.271055 -0.005850 -0.008973 -128559.000000 0 0 1
31.250818 26.031689 12.977646 42.692877 0.694537 1.261932 -0.005330 -0.005246 -1202060.000000 0 0 1
32.311218 25.399889 12.387846 42.925842 0.666208 1.278045 0.000134 0.001854 -894086.000000 0 0 1
32.208918 23.996089 12.066346 41.938329 0.640302 1.278955 -0.002070 -0.004281 -588364.000000 0 0 1
31.047618 23.597689 11.167646 40.565032 0.649901 1.291892 0.006770 -0.008756 -879058.000000 0 0 1
29.813218 23.555989 11.785146 39.781934 0.668687 1.270039 -0.006413 -0.006706 -1097500.000000 0 0 1
28.783918 23.227589 10.881546 38.554414 0.678973 1.284669 -0.006452 -0.004786 -552615.000000 0 0 1
27.558518 22.814389 11.685446 37.636657 0.691495 1.255098 -0.014045 -0.003045 -654523.000000 0 0 1
27.099018 23.846089 12.527446 38.209026 0.721633 1.236752 -0.017470 0.000208 -80961.200000 0 0 1
26.596818 23.238289 13.699746 37.882606 0.718107 1.200773 -0.000080 0.002979 -527324.000000 0 0 1
23.178818 9.358189 26.178973 36.196297 0.383725 0.762299 0.001407 0.007392 -259870.000000 0 0 1
22.869118 8.248189 27.001693 36.333464 0.346148 0.733011 0.004747 0.003410 -1171720.000000 0 0 1
21.523618 8.024489 26.891833 35.367064 0.356860 0.706923 0.002892 0.003850 -1154790.000000 0 0 1
21.050318 6.825489 27.847483 35.569446 0.313550 0.671475 0.002396 0.006331 -7514.290000 0 0 1
21.200418 6.984489 29.290013 36.825883 0.318252 0.651187 0.005047 0.008522 -11332.700000 0 0 1
22.540118 6.759089 29.660943 37.861772 0.291337 0.670677 -0.001700 0.007532 -292065.000000 0 0 1
22.730118 6.570289 31.169453 39.132618 0.281387 0.649298 0.005693 0.012252 -376035.000000 0 0 1
22.505918 7.820189 31.870773 39.792184 0.334421 0.641949 0.008161 0.014173 340201.000000 0 0 1
22.682718 7.611189 33.235973 40.951994 0.323744 0.623938 0.013659 0.017089 -67516.100000 0 0 1
22.719818 8.937189 34.091868 41.932314 0.374774 0.621474 0.014051 0.011768 -114631.000000 0 0 1
23.798818 9.759789 33.741292 42.427727 0.389179 0.651352 -0.003482 0.008143 -440208.000000 0 0 1
24.351518 10.316589 -34.469834 43.446495 0.400729 2.487148 0.000710 0.008129 268969.000000 0 0 1
25.495718 11.318289 34.534539 44.393352 0.417794 0.679445 -0.000773 -0.001337 117724.000000 0 0 1
24.962518 12.509489 33.993041 43.990243 0.464552 0.687649 -0.002640 -0.001600 503187.000000 0 0 1
24.567018 13.471189 -34.392176 44.360265 0.501571 2.457974 -0.005850 -0.008347 -798291.000000 0 0 1
24.093618 14.780589 34.455020 44.565869 0.550261 0.687042 -0.008326 -0.009326 -612415.000000 0 0 1
25.119118 15.564889 33.845416 44.930480 0.554738 0.717755 -0.002625 -0.013361 282894.000000 0 0 1
24.669818 16.811889 33.585628 44.935887 0.598185 0.726638 -0.004959 -0.013583 -560007.000000 0 0 1
25.199618 17.810389 34.612985 46.371213 0.615257 0.728111 -0.013348 -0.011442 -228052.000000 0 0 1
24.841918 17.476289 -33.412384 45.154501 0.613071 2.403803 -0.008164 -0.015608 441032.000000 0 0 1
25.980318 16.964889 -32.721314 45.093999 0.578474 2.382738 -0.008483 -0.015212 -170567.000000 0 0 1
25.710918 16.277489 -31.365544 43.701319 0.564400 2.371326 -0.015026 -0.007981 -150760.000000 0 0 1
24.825418 15.190189 -31.453284 42.852681 0.549109 2.394969 -0.016200 -0.009397 -382132.000000 0 0 1
24.100518 15.051889 -30.286694 41.529245 0.558273 2.388074 -0.011263 -0.011010 -854560.000000 0 0 1
23.285218 13.806389 -30.423894 40.723839 0.535201 2.414452 -0.004680 -0.008166 -1358320.000000 0 0 1
22.306818 13.987989 -31.418994 40.992818 0.560088 2.444094 -0.003245 -0.011848 -172923.000000 0 0 1
21.802418 12.770789 -31.940424 40.726271 0.529876 2.472316 -0.001036 0.004761 38257.200000 0 0 1
20.846618 11.930789 -31.049474 39.255510 0.519813 2.483170 -0.002978 0.011238 -693093.000000 0 0 1
19.606518 12.478689 -30.716984 38.518390 0.566795 2.493875 -0.002354 0.006897 44834.200000 0 0 1
18.821518 11.664589 -29.843034 37.160717 0.554813 2.503243 -0.003698 0.017265 503148.000000 0 0 1
17.552718 12.421889 -29.351724 36.385779 0.615869 2.509311 -0.005429 0.010471 198078.000000 0 0 1
16.621618 12.695189 -30.392364 36.893655 0.652259 2.538848 -0.012016 0.012057 -107416.000000 0 0 1
15.490718 13.251989 -29.772664 36.083086 0.707666 2.541201 -0.007070 -0.000047 -1155940.000000 0 0 1
14.331718 13.484789 -30.723804 36.485474 0.754961 2.571930 -0.001710 -0.004302 -566406.000000 0 0 1
13.777018 12.299389 -31.256504 36.304962 0.728793 2.607917 -0.011771 0.002942 88462.700000 0 0 1
12.606518 11.901989 -30.534904 35.113559 0.756660 2.625197 -0.012154 -0.000023 -498380.000000 0 0 1
11.741218 11.045389 -31.399824 35.295974 0.754871 2.667298 -0.004598 0.004773 -410504.000000 0 0 1
11.260218 11.907289 -32.468444 36.369986 0.813321 2.674156 -0.000480 0.003274 -150362.000000 0 0 1
10.382418 11.284489 -33.359124 36.714649 0.827008 2.710729 0.007330 0.010994 -125468.000000 0 0 1
9.769118 12.112389 -34.474585 37.823837 0.892081 2.717594 0.013734 0.011227 194547.000000 0 0 1
10.710618 12.433389 33.901192 37.664271 0.859698 0.450823 0.005606 0.010633 202473.000000 0 0 1
9.964718 12.924289 32.820063 36.653641 0.913986 0.461444 0.001018 0.010053 441585.000000 0 0 1
10.793918 12.906789 31.420193 35.641582 0.874311 0.491640 0.000528 0.013848 357264.000000 0 0 1
10.980218 11.598089 30.909433 34.791866 0.812757 0.476927 -0.005518 0.012066 114527.000000 0 0 1
11.156218 11.648589 29.558633 33.672891 0.806985 0.499511 0.004991 0.014720 -291654.000000 0 0 1
11.854118 10.381489 29.062203 33.059145 0.719266 0.496831 0.004858 0.010435 -207019.000000 0 0 1
11.047418 9.211189 29.154913 32.510005 0.695006 0.458317 0.000765 0.003414 368769.000000 0 0 1
11.731918 8.002189 28.796303 32.107631 0.598602 0.458160 -0.006138 -0.001320 -251880.000000 0 0 1
10.787318 6.766989 28.819493 31.507484 0.560258 0.416063 -0.009280 -0.003308 190732.000000 0 0 1
9.814818 6.755189 27.789103 30.235699 0.602806 0.405050 -0.009135 -0.004857 393722.000000 0 0 1
8.910018 5.599689 27.880003 29.799992 0.561091 0.360924 -0.015501 -0.010159 49206.200000 0 0 1
9.428418 4.215189 27.453923 29.332248 0.420417 0.359810 -0.014057 -0.007819 -323036.000000 0 0 1
10.298618 3.589789 28.375553 30.399344 0.335400 0.366948 -0.017379 -0.007630 406282.000000 0 0 1
10.656418 2.277289 27.936233 29.986304 0.210534 0.371915 -0.027529 -0.004219 -218749.000000 0 0 1
11.246418 1.367389 29.022473 31.155347 0.120991 0.372169 -0.026750 -0.005374 -364807.000000 0 0 1
10.229618 1.166689 29.942613 31.663328 0.113559 0.331190 -0.015413 -0.007645 -191560.000000 0 0 1
10.477318 -0.004811 30.660073 32.400838 -0.000459 0.329284 -0.018219 -0.004161 -132308.000000 0 0 1
9.442718 -0.303511 31.743353 33.119443 -0.032131 0.289276 -0.012904 0.000592 -128780.000000 0 0 1
9.520418 0.657089 32.787703 34.148259 0.068910 0.283231 -0.014448 0.000560 459871.000000 0 0 1
8.228618 0.953389 33.297542 34.312467 0.115348 0.243827 -0.006536 0.000639 5231.450000 0 0 1
8.373418 2.238089 34.176881 35.258791 0.261180 0.248367 -0.000604 -0.000788 -145239.000000 0 0 1
8.499518 3.451189 33.472761 34.707035 0.385707 0.267490 -0.008433 -0.004546 -264785.000000 0 0 1
9.603018 3.694489 32.658863 34.241328 0.367266 0.305206 -0.013030 -0.003357 -759619.000000 0 0 1
9.556018 5.087689 31.900853 33.687779 0.489236 0.327168 -0.012534 -0.002038 66066.600000 0 0 1
9.608718 6.150189 32.835863 34.761274 0.569358 0.334391 -0.009838 -0.004274 50125.100000 0 0 1
9.669118 7.391289 32.191073 34.414941 0.652668 0.361462 -0.003931 -0.001379 -142158.000000 0 0 1
9.732618 8.621789 33.161603 35.619531 0.724951 0.373667 0.000605 0.002669 755353.000000 0 0 1
8.522518 8.969789 33.865575 36.055063 0.810962 0.350288 0.009758 0.001138 536213.000000 0 0 1
8.064618 8.128489 -34.451496 36.304490 0.789342 2.820717 0.008944 -0.002108 -221082.000000 0 0 1
6.788118 8.724689 -33.836414 35.596371 0.909593 2.825824 0.013688 -0.001632 155331.000000 0 0 1
6.165918 7.822089 -32.908804 34.383033 0.903249 2.847699 0.012360 0.004943 55459.300000 0 0 1
4.914418 8.276989 -32.445294 33.843125 1.034989 2.853181 0.013992 0.004518 97768.900000 0 0 1
4.366218 7.358589 -31.328994 32.476431 1.035281 2.874979 0.007324 0.009931 -3131.600000 0 0 1
5.124218 7.465689 -30.087044 31.420126 0.969277 2.849253 0.013010 0.007928 747894.000000 0 0 1
4.455518 6.967789 -28.929394 30.088396 1.001877 2.863133 -0.000582 0.009205 -470563.000000 0 0 1
3.116718 7.533889 -28.471994 29.616344 1.178542 2.862700 0.003376 0.004730 185888.000000 0 0 1
2.048118 7.036289 -29.292714 30.195484 1.287544 2.896449 -0.000454 0.006958 1199400.000000 0 0 1
0.734318 7.583889 -29.049554 30.032169 1.474271 2.885082 0.003795 0.012223 1108170.000000 0 0 1
-0.291182 7.070189 -30.101754 30.922289 -1.529635 2.910709 -0.004249 0.011871 123717.000000 0 0 1
0.047318 7.539889 -31.411234 32.303526 1.564521 2.906007 -0.006756 0.017750 198076.000000 0 0 1
-0.565382 6.772289 -32.411714 33.116503 -1.487505 2.934914 -0.002780 0.012585 -441427.000000 0 0 1
-0.317882 7.370789 -33.791154 34.587160 -1.527696 2.926635 0.002246 0.009084 1644120.000000 0 0 1
1.084218 7.440989 -34.223551 35.039910 1.426106 2.925310 0.001145 0.004978 1518080.000000 0 0 1
1.631118 6.269589 34.653565 35.253906 1.316275 0.184811 -0.000317 0.006027 -479572.000000 0 0 1
1.623118 6.087089 33.090593 33.684930 1.310210 0.188128 0.005763 -0.004259 70117.200000 0 0 1
0.363218 5.652389 32.569153 33.057997 1.506625 0.172186 0.009044 -0.004756 202302.000000 0 0 1
0.257218 5.728389 31.186913 31.709685 1.525924 0.181833 0.017161 -0.010278 84651.700000 0 0 1
1.025118 4.676789 30.327643 30.703243 1.355016 0.156578 0.026531 -0.014367 46893.700000 0 0 1
0.807718 4.859589 29.000303 29.415737 1.406091 0.168263 0.021661 -0.014205 -61041.200000 0 0 1
1.473918 3.912889 28.216283 28.524406 1.210551 0.147116 0.018581 -0.010041 -282837.000000 0 0 1
1.535118 4.249589 26.711883 27.091332 1.224144 0.167566 0.018860 -0.009508 -98775.100000 0 0 1
2.199018 5.433189 26.384373 27.027585 1.186212 0.218602 0.011615 -0.008115 1996.460000 0 0 1
2.227818 5.685889 24.982533 25.718077 1.197366 0.239740 0.009559 -0.005733 -1353720.000000 0 0 1
2.691118 7.126489 24.791943 25.935871 1.209729 0.298108 0.001359 0.000254 1806900.000000 0 0 1
4.145218 7.349889 24.859163 26.252270 1.057280 0.327238 0.001499 0.003794 2003430.000000 0 0 1
4.801018 6.745289 23.741453 25.143693 0.952222 0.335545 0.003272 -0.001401 -1319730.000000 0 0 1
6.326318 6.674289 23.809753 25.523965 0.812157 0.368582 0.011841 0.003725 -252524.000000 0 0 1
6.997418 5.697789 24.653943 26.253487 0.683382 0.350873 0.007743 0.004292 328731.000000 0 0 1
6.656218 4.290489 24.546243 25.792084 0.572558 0.312081 0.002704 0.002696 -876742.000000 0 0 1
7.073918 3.550889 23.212253 24.524637 0.465222 0.328625 0.007573 0.003621 631304.000000 0 1 0
6.195318 3.815489 22.066953 23.235540 0.552004 0.318498 0.011089 -0.000590 286878.000000 0 1 0
4.918118 3.252289 22.271953 23.039209 0.584269 0.258800 0.003284 -0.002262 -309841.000000 0 1 0
3.860518 3.570589 21.205453 21.847745 0.746402 0.243079 0.001555 -0.005596 8757.600000 0 1 0
3.393318 4.887389 21.282653 22.098699 0.963906 0.272605 -0.001909 -0.009004 97867.000000 0 1 0
2.232118 5.204689 20.539453 21.305874 1.165655 0.269035 -0.001481 -0.005602 158116.000000 0 1 0
1.721818 6.667289 20.780253 21.891467 1.318069 0.319986 -0.001225 0.000972 49446.600000 0 1 0
2.555818 7.625289 20.190353 21.733099 1.247388 0.379057 -0.001481 0.001589 -410218.000000 0 1 0
1.983318 8.830589 20.474153 22.385348 1.349866 0.416222 0.000609 0.002854 -111268.000000 0 1 0
2.827418 10.036789 20.120153 22.661685 1.296207 0.478147 0.004584 -0.002236 -503702.000000 0 1 0
2.894218 10.202189 18.700853 21.498443 1.294373 0.515857 -0.006171 -0.001845 33312.700000 0 1 0
3.810318 11.226389 18.330053 21.829823 1.243589 0.574104 -0.008155 -0.006351 1523350.000000 0 1 0
5.330218 10.779089 18.239153 21.846434 1.111561 0.582881 0.002650 -0.009752 763164.000000 0 1 0
5.681218 9.836189 17.232253 20.639220 1.047023 0.582795 0.002745 -0.008236 -159799.000000 0 1 0
7.040418 9.515289 17.397253 21.042163 0.933787 0.597436 0.002095 -0.003767 -213301.000000 0 1 0
7.280818 8.126689 18.071153 21.109712 0.840243 0.543201 0.008198 0.002239 -132016.000000 0 1 0
6.663718 7.878989 19.355653 21.934560 0.868770 0.489799 0.012115 -0.002216 34709.400000 0 1 0
6.746718 6.521789 19.685953 21.807996 0.768448 0.444806 0.008435 -0.011277 -432289.000000 0 1 0
8.119918 5.958189 20.041453 22.429733 0.633036 0.465668 0.011414 -0.002887 348777.000000 0 1 0
9.057918 5.841889 18.924953 21.779059 0.572816 0.517716 0.010194 -0.003932 1203740.000000 0 1 0
10.342318 5.258789 19.211553 22.443310 0.470403 0.543307 0.010672 -0.003892 845952.000000 0 1 0
10.357418 3.716889 19.219553 22.146842 0.344548 0.519991 0.016853 -0.004002 -574513.000000 0 1 0
9.746318 3.167889 20.322153 22.759968 0.314263 0.467073 0.019252 -0.002777 -170887.000000 0 1 0
9.776818 1.749489 20.164353 22.477723 0.177068 0.457676 0.019348 -0.019596 116702.000000 0 1 0
8.906518 0.988789 21.200553 23.016673 0.110566 0.399911 0.018461 -0.017529 182566.000000 0 1 0
9.401418 1.170189 22.527353 24.438446 0.123832 0.398099 0.004361 -0.011827 174871.000000 0 1 0
8.645418 0.391389 23.438953 24.985615 0.045240 0.353699 0.011232 -0.012721 -498731.000000 0 1 0
9.009218 0.516989 24.887983 26.473477 0.057322 0.347843 -0.003801 -0.004994 -326191.000000 0 0 1
10.285818 -0.020011 25.178083 27.198057 -0.001946 0.387833 -0.012887 -0.005138 232035.000000 0 0 1
10.290918 -1.435211 25.391633 27.435340 -0.138570 0.388421 -0.010274 -0.003772 -626727.000000 0 0 1
11.700018 -2.011711 25.207283 27.862960 -0.170276 0.440150 -0.019078 -0.002156 -270984.000000 0 0 1
11.764318 -3.407111 25.300723 28.109326 -0.281901 0.450837 -0.012115 0.004708 313441.000000 0 0 1
13.102418 -3.906711 25.348793 28.800991 -0.289774 0.494647 -0.018280 0.008615 279012.000000 0 0 1
13.185018 -5.426211 25.665403 29.359860 -0.390418 0.507080 -0.018054 0.005806 -202578.000000 0 0 1
12.852718 -6.210411 24.536923 28.387007 -0.450116 0.526897 -0.011554 0.013214 196655.000000 0 0 1
12.685918 -7.567411 24.791813 28.858833 -0.537857 0.537343 -0.012368 0.010795 -121595.000000 0 0 1
12.478618 -8.333111 23.436853 27.828811 -0.588781 0.569484 0.006535 0.006190 -16110.900000 0 0 1
12.263918 -9.712411 23.569253 28.288590 -0.669813 0.585978 0.008985 0.010938 -299411.000000 0 0 1
12.136018 -10.309111 22.325453 27.422374 -0.704183 0.619562 -0.000036 0.007423 74584.100000 0 0 1
11.614518 -11.787411 22.299853 27.769111 -0.792786 0.638408 0.009010 0.011340 2557.000000 0 0 1
10.248518 -11.871211 22.605353 27.512902 -0.858627 0.606536 0.013558 0.012646 -831556.000000 0 0 1
9.713118 -13.117911 22.434353 27.743909 -0.933437 0.628989 0.010461 0.010673 504592.000000 0 0 1
8.179418 -13.207511 22.759253 27.555849 -1.016306 0.598943 0.009329 0.014406 634709.000000 0 0 1
7.466818 -12.579811 21.725953 26.192023 -1.035129 0.592607 0.009717 0.007775 1021220.000000 0 0 1
6.053918 -12.478511 22.073653 26.069318 -1.119101 0.560989 0.010949 0.008339 1837160.000000 0 0 1
5.260518 -11.301611 21.413353 24.777634 -1.135155 0.527196 0.011168 0.011413 256077.000000 0 1 0
5.691118 -10.056611 21.840053 24.708545 -1.055822 0.486645 0.015904 0.008517 -34474.300000 0 1 0
4.841518 -8.995611 21.353653 23.671498 -1.077051 0.446225 0.014195 0.008213 302008.000000 0 1 0
5.152318 -7.559211 21.904353 23.737918 -0.972530 0.395620 0.012088 0.001994 113963.000000 0 1 0
4.316418 -6.568911 21.350753 22.751631 -0.989447 0.352747 -0.003752 0.005924 -38383.000000 0 1 0
4.812318 -5.251911 21.674853 22.815351 -0.829049 0.317523 0.016086 -0.005733 45003.900000 0 1 0
-7.064182 -15.866811 -20.989354 27.243556 1.151927 2.450318 0.009670 0.005255 -11903.100000 0 0 1
-6.990082 -15.188211 -19.764654 25.887923 1.139467 2.439465 0.010141 0.002372 -180573.000000 0 0 1
-6.365982 -13.941611 -19.981854 25.182707 1.142453 2.487294 0.011383 -0.006898 -53761.800000 0 0 1
-5.843782 -13.348311 -18.648754 23.666500 1.158141 2.478319 0.018987 -0.009566 -59982.100000 0 1 0
-4.782082 -14.152811 -18.210254 23.553847 1.244951 2.454562 0.004755 0.002847 -279320.000000 0 1 0
-4.252882 -13.754411 -16.923854 22.219083 1.270920 2.436700 0.012162 -0.004382 -316106.000000 0 1 0
-3.147382 -14.650711 -16.416054 22.226925 1.359185 2.401737 0.002554 0.006634 -336020.000000 0 1 0
-1.939482 -14.435311 -17.137254 22.490560 1.437239 2.437154 -0.002824 -0.003309 319736.000000 0 1 0
-0.944982 -15.293911 -16.538254 22.545744 1.509087 2.394316 0.000881 0.004966 857532.000000 0 1 0
0.391118 -15.467611 -17.344654 23.242999 -1.545515 2.413179 -0.000846 0.014148 602545.000000 0 1 0
0.490618 -16.327911 -18.485254 24.668725 -1.540758 2.417861 0.005374 0.006190 -410994.000000 0 1 0
0.307118 -17.653311 -18.250554 25.393236 -1.553401 2.372752 0.002572 0.012849 -179734.000000 0 0 1
-0.008582 -18.351611 -19.601354 26.851346 1.570329 2.389111 -0.000935 -0.000286 1457560.000000 0 0 1
-1.395082 -18.283411 -20.048554 27.169356 1.494641 2.400765 0.002578 0.008414 1054760.000000 0 0 1
-1.557382 -18.617211 -21.399154 28.406862 1.487338 2.423876 0.002353 0.006591 -184216.000000 0 0 1
-2.795282 -17.977911 -22.050854 28.587743 1.416547 2.451739 -0.000646 0.006592 42506.900000 0 0 1
-2.780082 -16.562511 -22.087954 27.747493 1.404493 2.491511 -0.006508 0.008281 -145800.000000 0 0 1
-3.281282 -15.981211 -20.919954 26.529425 1.368289 2.479255 -0.001536 0.001690 61861.700000 0 0 1
-2.468182 -14.621711 -20.679654 25.446698 1.403570 2.519508 -0.002358 0.005602 352245.000000 0 0 1
-2.519282 -13.656011 -21.694454 25.758159 1.388366 2.572214 -0.007129 -0.004406 85902.500000 0 0 1
-1.705182 -12.517011 -21.380554 24.833673 1.435401 2.607931 -0.005839 0.002520 331739.000000 0 1 0
-1.564882 -11.670011 -22.671954 25.547123 1.437497 2.662593 -0.003819 0.008141 -143564.000000 0 0 1
-2.690282 -10.859411 -22.852754 25.444308 1.327948 2.686336 0.000510 0.004922 -90797.600000 0 0 1
-2.559082 -10.124411 -24.022454 26.194100 1.323218 2.731526 -0.004905 0.003358 -67507.600000 0 0 1
-3.656882 -9.054011 -24.204954 26.100339 1.186936 2.758146 0.001561 0.011662 857728.000000 0 0 1
-4.974882 -9.628311 -24.339454 26.643251 1.093884 2.722680 0.008410 0.005568 1459040.000000 0 0 1
-5.981082 -8.625111 -24.207154 26.384696 0.964480 2.732468 0.018319 0.011238 -650765.000000 0 0 1
-7.458982 -8.955211 -24.193354 26.854247 0.876302 2.692666 0.009350 0.008265 -73800.600000 0 0 1
-8.205982 -9.215411 -25.393894 28.233168 0.843275 2.689271 0.009829 -0.003759 287514.000000 0 0 1
-8.318482 -8.066111 -26.213264 28.659981 0.769996 2.725387 0.008189 0.001070 -297427.000000 0 0 1
-9.225682 -8.233211 -27.460194 30.115797 0.728613 2.718492 0.004398 0.004144 462905.000000 0 0 1
-9.969882 -7.100511 -27.943934 30.507036 0.618864 2.728748 0.005551 0.004887 536342.000000 0 0 1
-10.697882 -7.486811 -29.123634 31.916815 0.610619 2.720115 0.014226 0.002680 298975.000000 0 0 1
-11.385682 -6.336811 -29.850394 32.570461 0.507865 2.730005 0.010283 -0.000977 64397.600000 0 0 1
-10.458382 -5.589511 -30.608894 32.825672 0.490828 2.771982 0.006055 0.002378 -13830.800000 0 0 1
-11.085282 -4.965311 -31.716784 33.963100 0.421122 2.775855 0.009020 -0.003327 -286794.000000 0 0 1
-10.354682 -3.793211 -32.434174 34.257605 0.351146 2.813855 0.000563 -0.003598 -313985.000000 0 0 1
-9.395082 -4.335511 -33.303004 34.873404 0.432348 2.840350 0.004010 -0.002215 -238679.000000 0 0 1
-8.841982 -3.307711 -34.098665 35.381359 0.357974 2.871502 0.001171 -0.001999 47098.900000 0 0 1
-7.757982 -3.872211 34.322522 35.400788 0.462948 0.247446 0.009078 -0.010933 -403679.000000 0 0 1
-6.638282 -4.441511 -34.458345 35.371900 0.589668 2.913825 0.009618 -0.013225 -614008.000000 0 0 1
-5.650782 -4.767811 33.934415 34.730504 0.700851 0.214523 -0.002413 -0.014482 644872.000000 0 0 1
-4.245182 -4.270711 34.401527 34.924570 0.788396 0.173285 0.006032 -0.013259 188652.000000 0 0 1
-4.218182 -2.896611 34.469768 34.847501 0.601742 0.147372 0.013211 -0.014744 358467.000000 0 0 1
-2.896482 -2.368311 34.612531 34.814161 0.685412 0.107677 0.007892 -0.018808 595104.000000 0 0 1
-2.936682 -0.916711 -34.218607 34.356623 0.302574 3.051928 0.010622 -0.019839 -322684.000000 0 0 1
-3.320282 -0.886711 -32.853474 33.032730 0.260969 3.037366 0.006849 -0.017065 253008.000000 0 0 1
-3.478082 0.455589 -32.486874 32.675703 -0.130247 3.034034 0.006358 -0.015326 -1026340.000000 0 0 1
-3.850482 0.566389 -30.978924 31.222440 -0.146048 3.016616 0.015059 -0.010502 937756.000000 0 0 1
-5.013982 -0.166011 -30.555474 30.964569 0.033098 2.978860 0.003990 -0.008505 1350510.000000 0 0 1
-6.291782 0.171389 -31.124354 31.754390 -0.027233 2.942059 0.004393 -0.006493 501264.000000 0 0 1
-7.357882 -0.919811 -30.851394 31.730001 0.124365 2.905716 0.004337 -0.003083 309772.000000 0 0 1
-7.771482 -1.158811 -29.471414 30.500869 0.148020 2.881042 0.004980 -0.003395 575835.000000 0 0 1
-8.845582 -2.109711 -29.442674 30.815033 0.234130 2.842027 -0.002779 0.000357 427917.000000 0 0 1
-9.196882 -2.698611 -28.053594 29.645729 0.285415 2.812372 -0.004871 0.001708 -213258.000000 0 0 1
-9.715082 -1.770711 -27.115834 28.858044 0.180285 2.792339 -0.009079 0.002447 192405.000000 0 0 1
-9.840282 -2.422911 -25.851534 27.766949 0.241421 2.767989 -0.017191 0.003839 280566.000000 0 0 1
-10.808882 -1.639911 -24.894654 27.189429 0.150571 2.727795 -0.016724 0.000320 402022.000000 0 0 1
-10.191582 -0.509511 -24.325054 26.378707 0.049952 2.744392 -0.014946 -0.004970 -4730.450000 0 0 1
-11.097882 0.217089 -23.544254 26.029637 -0.019559 2.701042 -0.011188 -0.000526 -92554.400000 0 0 1
-10.432982 1.510989 -23.116854 25.407068 -0.143828 2.713741 -0.014777 0.000953 153281.000000 0 0 1
-10.339982 2.377789 -24.194754 26.418842 -0.226031 2.728327 -0.020494 -0.000965 -182921.000000 0 0 1
-9.571182 3.518489 -23.914254 25.997669 -0.352279 2.738523 -0.011468 0.006217 -439396.000000 0 0 1
-9.528582 4.560889 -25.049254 27.185671 -0.446425 2.742500 -0.007624 0.009381 -445972.000000 0 0 1
-10.734882 5.213589 -25.296894 27.970556 -0.452116 2.700795 -0.003470 0.008473 -770492.000000 0 0 1
-11.467182 4.719189 -26.370944 29.140928 -0.390414 2.702047 -0.003256 -0.000292 -336875.000000 0 0 1
-12.783782 5.511789 -26.498294 29.932666 -0.407072 2.657856 -0.002801 0.001606 -213137.000000 0 0 1
-12.616082 6.899089 -26.782544 30.398480 -0.500421 2.648871 0.001996 -0.000322 -257407.000000 0 0 1
-13.777182 7.467989 -27.320084 31.495533 -0.496723 2.620804 0.014413 0.000329 -368016.000000 0 0 1
-13.825982 9.010589 -27.242874 31.851572 -0.577579 2.596939 0.011824 0.002230 -137463.000000 0 0 1
-13.769782 9.517389 -25.933304 30.866225 -0.604781 2.568419 0.015201 -0.001753 87923.300000 0 0 1
-14.065482 10.921689 -25.878314 31.413503 -0.660240 2.538871 0.008398 0.000989 -282748.000000 0 0 1
-13.857482 11.569789 -24.494654 30.428241 -0.695670 2.506467 0.001391 -0.002239 -175653.000000 0 0 1
-14.626882 11.101989 -23.402254 29.746686 -0.649244 2.476271 0.014217 -0.002644 -11569.000000 0 0 1
-14.206782 11.687989 -22.191454 28.825377 -0.688433 2.449415 0.007793 0.001229 -614652.000000 0 0 1
-15.121582 11.614389 -20.978154 28.348531 -0.654964 2.403879 0.003481 0.006190 -1101830.000000 0 0 1
-16.262382 12.360589 -21.203154 29.441857 -0.649916 2.374844 0.005702 0.000063 -619374.000000 0 0 1
-16.823082 12.863889 -20.000054 29.128987 -0.652816 2.327603 0.007854 0.009433 -455177.000000 0 0 1
-18.291782 13.254689 -20.129454 30.256751 -0.627063 2.298676 0.003713 0.000862 -537027.000000 0 0 1
-18.595582 14.383389 -20.908054 31.461472 -0.658362 2.297702 -0.004697 -0.002337 871222.000000 0 0 1
-19.988082 14.581289 -21.210254 32.588530 -0.630251 2.279500 -0.009046 0.000659 862937.000000 0 0 1
-20.316782 15.952689 -21.797154 33.799050 -0.665650 2.271694 -0.008936 -0.000843 -328234.000000 0 0 1
-19.971382 16.080189 -23.151454 34.545888 -0.677880 2.305228 -0.001201 0.000771 131254.000000 0 0 1
-20.164282 17.412389 -23.599554 35.591129 -0.712295 2.295714 0.001572 0.003282 -220839.000000 0 0 1
-19.976682 17.557389 -25.160224 36.611017 -0.721031 2.328467 -0.004933 0.004212 441314.000000 0 0 1
-18.646782 17.216789 -25.596714 36.045971 -0.745546 2.360455 -0.001128 0.005916 698631.000000 0 0 1
-18.477382 16.971289 -26.987994 36.848203 -0.742937 2.392651 -0.005525 0.002698 -285277.000000 0 0 1
-18.174382 18.281489 -27.747074 37.873752 -0.788336 2.392960 -0.008671 0.000973 -67223.000000 0 0 1
-19.264082 19.152689 -28.043944 39.043477 -0.782499 2.372116 -0.012026 -0.004469 459530.000000 0 0 1
-18.735682 20.380889 -28.431974 39.683542 -0.827432 2.369522 -0.016070 0.000216 -466833.000000 0 0 1
-19.839182 21.434689 -28.599344 40.877396 -0.824036 2.345686 -0.005126 -0.011158 110218.000000 0 0 1
-20.496282 21.876089 -27.392904 40.608275 -0.817950 2.311171 0.003313 -0.003394 509105.000000 0 0 1
-21.666382 21.139689 -27.098844 40.628387 -0.773095 2.300962 0.008802 -0.007912 -393921.000000 0 0 1
-22.420882 21.666189 -25.869584 40.513640 -0.768282 2.263396 0.012962 -0.004472 -255800.000000 0 0 1
-21.764082 21.381089 -24.658554 39.228440 -0.776522 2.250534 0.007766 -0.006711 -5816.220000 0 0 1
-22.393682 21.924989 -23.518854 39.183142 -0.774823 2.214584 0.008427 -0.019095 -176205.000000 0 0 1
-21.800982 21.220789 -22.212254 37.669469 -0.771913 2.201437 0.004064 -0.008794 590014.000000 0 0 1
-20.544682 21.701589 -21.739254 36.954540 -0.812776 2.199714 0.004034 -0.006117 510581.000000 0 0 1
-19.721982 20.710389 -21.107654 35.544477 -0.809839 2.206617 0.001071 -0.000872 99769.700000 0 0 1
-20.258582 20.031889 -19.811354 34.701245 -0.779772 2.178412 0.001389 -0.003044 -1398520.000000 0 0 1
-21.389982 19.224389 -20.131154 35.105153 -0.732128 2.181511 0.011296 -0.003688 211616.000000 0 0 1
-22.127982 18.892289 -18.977154 34.737566 -0.706681 2.148737 0.014734 0.002203 -157677.000000 0 0 1
-23.141882 20.032589 -18.636354 35.835248 -0.713505 2.117713 0.006585 -0.006823 -1141380.000000 0 0 1
-24.144382 20.062189 -19.626854 37.022371 -0.693316 2.129556 0.009175 -0.004100 -401651.000000 0 0 1
-25.112982 20.988089 -19.210254 37.949909 -0.696161 2.101569 0.013699 -0.013403 -1656780.000000 0 0 1
-26.474832 20.722589 -19.851854 39.044058 -0.664120 2.104177 0.016939 -0.012459 -280494.000000 0 0 1
-27.137962 19.532489 -19.332654 38.623032 -0.623857 2.095027 0.021917 -0.007823 547524.000000 0 0 1
-27.434132 19.511189 -17.942354 38.147688 -0.618204 2.060471 0.009868 -0.007541 -1025160.000000 0 0 1
-28.314512 18.316689 -17.473054 37.980525 -0.574194 2.048851 -0.001852 -0.002977 -180951.000000 0 0 1
-27.703412 17.018989 -17.478854 36.913891 -0.550888 2.064060 0.004578 -0.002528 391637.000000 0 0 1
-28.593852 15.983589 -17.053354 36.931021 -0.509717 2.050777 -0.003041 -0.000408 304886.000000 0 0 1
-27.882032 14.878789 -16.228654 35.526824 -0.490191 2.045191 0.003991 0.003353 -74432.300000 0 0 1
-27.406382 15.299089 -14.930854 34.757766 -0.509141 2.014812 -0.002429 0.007032 276885.000000 0 0 1
-28.421512 15.743889 -14.026854 35.389334 -0.505865 1.978343 -0.009530 0.005530 469311.000000 0 0 1
-27.888812 16.396489 -12.660454 34.740722 -0.531492 1.943814 -0.008200 0.004003 23652.400000 0 0 1
-27.226202 17.645289 -12.788954 34.873767 -0.575038 1.946279 -0.010710 0.002423 -71272.000000 0 0 1
-28.037342 18.818089 -12.784054 36.106025 -0.591120 1.932716 -0.016951 -0.004796 -274753.000000 0 0 1
-27.272052 20.151789 -12.818554 36.251548 -0.636370 1.932213 -0.015319 -0.009425 137124.000000 0 0 1
-26.523482 20.435089 -11.621554 35.442184 -0.656463 1.904878 -0.021428 -0.009487 -191779.000000 0 0 1
-25.627882 21.466689 -11.903154 35.486506 -0.697269 1.912855 -0.019264 -0.007991 -176483.000000 0 0 1
-24.740882 21.899589 -10.728854 34.739193 -0.724554 1.884770 -0.014529 -0.002538 -390082.000000 0 0 1
-25.399402 22.616189 -9.693854 35.363716 -0.727498 1.848469 0.006342 -0.000065 -7928.970000 0 0 1
-25.838742 23.955389 -9.993454 36.624723 -0.747593 1.847162 0.004552 -0.000484 208323.000000 0 0 1
-26.628992 24.757889 -8.915654 37.437216 -0.749002 1.811256 0.014120 0.007103 793431.000000 0 0 1
-25.752772 25.403089 -7.956254 37.038144 -0.778563 1.787296 0.018673 0.011241 647899.000000 0 0 1
-26.519602 25.719889 -6.820954 37.567637 -0.770091 1.753374 0.023275 0.004291 274697.000000 0 0 1
-26.256132 24.815789 -5.619554 36.562101 -0.757203 1.725107 0.017457 -0.002883 32291.400000 0 0 1
-26.493662 23.465489 -5.901554 35.879961 -0.724859 1.736028 0.012280 -0.001362 -89944.800000 0 0 1
-26.615052 22.726189 -4.668554 35.307733 -0.706745 1.703409 0.009502 -0.000933 65989.300000 0 0 1
-27.048272 21.234289 -4.913554 34.736825 -0.665559 1.712723 -0.010768 -0.000284 374973.000000 0 0 1
-26.095622 20.417489 -5.625554 33.608067 -0.663923 1.738975 -0.022206 -0.003964 478258.000000 0 0 1
-25.894312 20.748489 -7.007154 33.913351 -0.675518 1.778915 -0.017728 0.000007 -866452.000000 0 0 1
-26.596792 19.825189 -8.022254 34.128932 -0.640549 1.808074 -0.016404 0.000678 -562658.000000 0 0 1
-26.173782 18.520589 -8.054554 33.059868 -0.615809 1.816909 -0.024858 0.001146 -69930.200000 0 0 1
-26.761652 17.843689 -9.116854 33.432024 -0.588070 1.846993 -0.025234 0.001429 -121893.000000 0 0 1
-26.192042 16.448389 -9.413154 32.329244 -0.560748 1.866241 -0.019861 0.002454 -250631.000000 0 0 1
-26.838912 15.561289 -8.558454 32.182729 -0.525437 1.839968 -0.026414 0.003471 1780.950000 0 0 1
-26.442162 14.240589 -8.831254 31.304526 -0.494015 1.856787 -0.022219 0.006309 311020.000000 0 0 1
-27.215032 13.166389 -7.931554 31.255740 -0.450597 1.827365 -0.021847 0.000606 1106130.000000 0 0 1
-28.585542 12.972989 -8.303654 32.471253 -0.426035 1.829392 -0.018156 0.005541 492482.000000 0 0 1
-29.290532 12.099489 -7.411154 32.546245 -0.391736 1.800523 -0.015187 0.000548 82588.300000 0 0 1
-29.733142 10.740689 -8.055054 32.623703 -0.346650 1.820285 -0.020691 -0.004836 -574753.000000 0 0 1
-28.735122 9.832089 -8.364754 31.501528 -0.329676 1.839555 -0.011329 -0.003077 -377769.000000 0 0 1
-29.293432 8.523289 -8.560954 31.686614 -0.283145 1.844372 -0.018295 0.000341 -191457.000000 0 0 1
-28.399932 7.473689 -9.330754 30.813554 -0.257324 1.878439 -0.001052 0.003422 -122453.000000 0 0 1
-28.287402 7.654089 -10.751254 31.214606 -0.264255 1.922428 -0.001536 0.003435 555515.000000 0 0 1
-27.220232 6.826189 -11.207254 30.218213 -0.245709 1.950750 0.008161 -0.002517 -166437.000000 0 0 1
-26.925252 7.071989 -12.681454 30.590872 -0.256851 1.998245 0.018222 -0.005594 -159330.000000 0 0 1
-26.278412 8.328389 -12.844554 30.412161 -0.306915 2.006832 0.017049 -0.003312 712288.000000 0 0 1
-25.358022 8.311889 -13.948054 30.110878 -0.316746 2.052425 0.019636 0.001801 208350.000000 0 0 1
-30.301182 26.247489 -33.942044 52.527656 -0.713836 2.273358 -0.001819 0.007272 56365.000000 0 0 1
-30.775042 27.532089 -34.322361 53.694912 -0.729837 2.264268 0.002032 0.005729 215959.000000 0 0 1
-30.409612 27.782989 33.730693 53.239070 -0.740292 0.884637 0.011181 0.005143 -60492.800000 0 0 1
-30.890552 29.215489 33.344390 54.033502 -0.757537 0.905737 0.011815 -0.004812 57151.500000 0 0 1
-30.893192 29.618989 31.965963 53.418130 -0.764344 0.929281 0.019304 -0.001715 129667.000000 0 0 1
-31.074702 30.980389 31.883163 54.239816 -0.783878 0.942437 0.020946 -0.000340 -25445.000000 0 0 1
-30.965022 31.599489 30.460803 53.714251 -0.795539 0.967828 0.027075 -0.001979 -1019230.000000 0 0 1
-29.680082 31.552489 29.985813 52.684113 -0.815967 0.965310 0.025160 -0.004883 -1064440.000000 0 0 1
-29.584172 32.351689 28.841653 52.475670 -0.830052 0.988888 0.016578 0.001339 466835.000000 0 0 1
-28.195952 32.408489 28.132923 51.349617 -0.854795 0.990980 0.017142 0.001816 117078.000000 0 0 1
-28.070432 31.314389 27.234833 50.102657 -0.839970 0.996099 0.014630 -0.001806 777758.000000 0 0 1
-26.867562 31.379989 26.447863 49.051595 -0.862714 1.001328 -0.008052 0.005680 312733.000000 0 0 1
-26.915372 32.278089 25.164423 48.985308 -0.875748 1.031289 -0.005857 0.002863 -432823.000000 0 0 1
-26.893202 33.630689 25.441613 50.015429 -0.896261 1.037151 -0.010162 0.002878 610419.000000 0 0 1
-27.784912 34.499889 24.706073 50.721136 -0.892794 1.062035 -0.001383 0.014039 337942.000000 0 0 1
-28.117602 -33.685920 25.542853 50.771824 0.875253 1.043625 0.007990 0.011331 -290331.000000 0 0 1
-28.839022 -33.830720 26.736453 51.875280 0.864881 1.029323 0.020359 0.003520 64533.900000 0 0 1
-28.709682 -32.675320 27.567593 51.496549 0.849911 1.005899 0.024506 0.003561 -78375.300000 0 0 1
-29.250272 -32.942920 28.979173 52.731460 0.844702 0.988957 0.031871 -0.007187 -23559.300000 0 0 1
-30.596802 -33.336120 29.080693 53.787990 0.828219 0.999582 0.032089 -0.002637 -246570.000000 0 0 1
-30.932552 -33.891720 30.364073 55.022254 0.831016 0.986214 0.028077 -0.001173 322800.000000 0 0 1
-32.435172 -34.047520 30.701393 56.159145 0.809646 0.992396 0.034682 -0.003031 231307.000000 0 0 1
-32.608142 -34.273320 32.117553 57.179442 0.810290 0.974360 0.027364 -0.007514 -131034.000000 0 0 1
-33.966762 -34.289420 32.474813 58.173179 0.790125 0.978529 0.012069 -0.003165 -130648.000000 0 0 1
-34.216698 34.580989 33.936728 59.315501 -0.790693 0.961684 0.010688 0.000277 38707.500000 0 0 1
-33.821302 33.226589 34.072443 58.385084 -0.776528 0.947664 0.013475 0.001053 260809.000000 0 0 1
-34.688599 32.573189 -34.361931 58.694581 -0.753958 2.196214 0.020422 0.002690 341848.000000 0 0 1
-34.106131 31.269389 -33.742534 57.267455 -0.742034 2.200877 0.013396 0.007537 -223220.000000 0 0 1
-33.092362 31.445689 -32.813994 56.220049 -0.759889 2.194038 0.012031 0.000606 -675873.000000 0 0 1
-32.548252 30.168289 -32.558834 55.041730 -0.747468 2.203751 0.007163 -0.001175 204482.000000 0 0 1
-31.636172 30.096089 -31.285524 53.715974 -0.760456 2.192505 0.009107 0.001588 -894.083000 0 0 1
-32.214632 30.199189 -29.988004 53.376529 -0.753118 2.167381 0.014521 0.001255 -487785.000000 0 0 1
-32.465412 31.523389 -29.653034 54.102028 -0.770678 2.150881 0.008807 0.008985 -164260.000000 0 0 1
-33.472522 31.789889 -28.528514 54.266775 -0.759621 2.124344 0.006713 0.006999 -286903.000000 0 0 1
-33.144242 31.386089 -27.266284 53.170269 -0.758160 2.109252 -0.005672 -0.003884 -350670.000000 0 0 1
-34.256865 31.438589 -26.410994 53.473902 -0.742525 2.087371 0.007681 -0.002752 -205987.000000 0 0 1
-33.873522 31.036189 -24.954454 52.281787 -0.741714 2.068384 0.002273 -0.006646 -256775.000000 0 0 1
-33.206522 32.066189 -24.279854 52.157692 -0.767930 2.055006 0.007222 -0.009388 -471723.000000 0 0 1
-33.027012 31.883589 -22.899554 51.300451 -0.767785 2.033513 -0.007712 -0.011378 -851425.000000 0 0 1
-34.179351 31.815689 -21.889254 51.571363 -0.749598 2.009146 -0.008088 -0.010494 -308266.000000 0 0 1
34.698853 33.059089 -21.636154 52.583618 0.761203 1.994854 -0.010157 -0.011278 300562.000000 0 0 1
-34.392143 34.074289 -20.740654 52.669264 -0.780756 1.975548 -0.005533 -0.008667 -163856.000000 0 0 1
-34.246584 33.770989 -19.201254 51.787994 -0.778406 1.950631 -0.006499 -0.013498 85315.900000 0 0 1
-33.365912 32.676589 -18.999154 50.418363 -0.774961 1.957168 -0.005570 -0.017152 48869.900000 0 0 1
-33.315672 32.413689 -17.625254 49.711475 -0.771676 1.933230 0.002499 -0.015148 -149669.000000 0 0 1
-32.081662 31.542589 -17.369654 48.227303 -0.776926 1.939238 -0.003625 -0.006515 -276587.000000 0 0 1
-31.807602 31.404989 -15.972254 47.466933 -0.779029 1.913986 0.004461 -0.003122 -350641.000000 0 0 1
-30.716852 30.555289 -15.736454 46.095408 -0.782761 1.919190 -0.002008 0.002598 -288836.000000 0 0 1
-30.466272 30.375489 -14.241254 45.317517 -0.783906 1.890468 0.002039 0.003590 306646.000000 0 0 1
-31.528802 29.625589 -13.638554 45.362440 -0.754287 1.876178 0.007354 0.004080 543014.000000 0 0 1
-31.167112 29.266089 -12.290954 44.485507 -0.753952 1.850729 0.008007 0.005098 -82827.200000 0 0 1
-32.172842 28.339889 -11.597254 44.415508 -0.722141 1.834966 0.007337 0.005987 -2117.250000 0 0 1
-31.643812 27.989389 -10.293754 43.482158 -0.724193 1.809800 0.004617 0.014866 155892.000000 0 0 1
-32.065732 26.736789 -9.856554 42.897770 -0.695021 1.802636 -0.005538 0.021368 -236661.000000 0 0 1
-31.341892 26.092189 -8.617954 41.681958 -0.694247 1.779053 0.002214 0.022302 82174.400000 0 0 1
-31.401152 26.830289 -7.442054 41.967617 -0.707064 1.749068 0.003077 0.017153 859410.000000 0 0 1
-30.308772 27.792089 -7.353454 41.774336 -0.742109 1.747746 0.020731 0.015502 526687.000000 0 0 1
-29.999382 28.276989 -5.921154 41.648662 -0.755851 1.713449 0.026788 0.009783 -260990.000000 0 0 1
-29.234482 27.345889 -5.168854 40.362973 -0.752032 1.699208 0.030624 0.002153 264138.000000 0 0 1
-29.238182 27.704489 -3.820754 40.459957 -0.758471 1.665370 0.023785 -0.000922 -166116.000000 0 0 1
-28.547712 26.682589 -2.917754 39.184763 -0.751641 1.645327 0.019247 -0.000407 172331.000000 0 0 1
-29.308932 25.462989 -2.708854 38.919342 -0.715296 1.640454 0.020582 0.005229 299961.000000 0 0 1
-28.656832 24.584289 -1.845554 37.802213 -0.709054 1.619637 0.002057 0.003681 442022.000000 0 0 1
-29.596422 23.362189 -1.523354 37.736728 -0.668218 1.611175 -0.007844 0.003924 272686.000000 0 0 1
-29.731412 22.455689 -2.640554 37.352206 -0.646875 1.641549 0.003958 0.011797 -257343.000000 0 0 1
-30.644732 21.478389 -2.257054 37.490199 -0.611319 1.631037 0.017808 0.015329 -256711.000000 0 0 1
-30.979162 20.537989 -3.428454 37.326555 -0.585433 1.662776 0.004345 0.011872 375284.000000 0 0 1
-29.875912 19.692789 -3.765854 35.979962 -0.582783 1.675654 -0.007044 0.006981 262828.000000 0 0 1
-30.189272 18.952089 -4.918454 35.982843 -0.560593 1.707914 0.001256 0.005307 174314.000000 0 0 1
-29.042972 18.049389 -5.477954 34.630660 -0.556058 1.729646 -0.002427 0.002352 241558.000000 0 0 1
-28.725962 16.966989 -4.619754 33.680880 -0.533516 1.708393 -0.004919 -0.004552 107695.000000 0 0 1
-28.054552 15.928989 -5.298754 32.693537 -0.516396 1.733588 -0.016249 -0.001521 -333342.000000 0 0 1
-27.824902 14.693889 -4.532454 31.791173 -0.485862 1.713853 -0.016588 -0.000173 -98385.800000 0 0 1
-28.967942 14.028889 -4.050554 32.440073 -0.451001 1.695986 0.005213 -0.004480 354621.000000 0 0 1
-28.526292 12.711289 -3.709354 31.449729 -0.419188 1.689017 0.000474 -0.005648 313339.000000 0 0 1
-29.671502 11.850389 -3.112554 32.101678 -0.379977 1.667908 0.018835 -0.014872 -135133.000000 0 0 1
-30.513132 11.315889 -4.098054 32.800832 -0.355130 1.696061 0.011542 -0.009765 -775667.000000 0 0 1
-31.579662 10.678289 -3.536954 33.523289 -0.326069 1.676500 0.020406 -0.011261 -1113540.000000 0 0 1
-32.572022 10.158089 -4.597854 34.427658 -0.302307 1.704748 0.007508 -0.003354 -289556.000000 0 0 1
-32.126252 9.103089 -5.438354 33.831021 -0.276116 1.732247 0.002688 -0.005894 829889.000000 0 0 1
-33.139582 8.701889 -6.391954 34.854151 -0.256786 1.755232 0.002918 -0.000741 678737.000000 0 0 1
-32.527712 7.765589 -7.493754 34.271165 -0.234351 1.791238 -0.005958 -0.006349 -429444.000000 0 0 1
-32.310942 6.444089 -7.057454 33.694671 -0.196857 1.781812 -0.003792 -0.001054 511956.000000 0 0 1
-31.738702 5.612289 -8.060554 33.223719 -0.175019 1.815856 -0.016022 0.003812 -673171.000000 0 0 1
-30.739942 4.577889 -7.549954 31.982853 -0.147837 1.809108 -0.017643 0.000992 -642038.000000 0 0 1
-29.465032 5.125489 -7.392254 30.807534 -0.172228 1.813110 -0.013365 -0.001941 -566765.000000 0 0 1
-28.524352 4.198089 -6.953254 29.658225 -0.146127 1.807445 -0.019387 -0.003713 -64838.400000 0 0 1
-27.112062 4.799589 -6.732854 28.344863 -0.175213 1.810622 -0.006670 -0.005882 275319.000000 0 0 1
-26.430652 5.220289 -7.909954 28.078428 -0.194999 1.856371 -0.001504 -0.001557 -115499.000000 0 0 1
-25.070892 5.445289 -7.626954 26.765112 -0.213874 1.859760 0.009717 -0.001980 -324429.000000 0 0 1
-24.423982 5.859189 -8.965254 26.669022 -0.235446 1.913641 0.010129 -0.002834 -406719.000000 0 0 1
-24.547382 4.850089 -9.940354 26.924114 -0.195068 1.948943 0.016475 -0.012980 133602.000000 0 0 1
-23.601082 4.943189 -10.960754 26.487437 -0.206463 1.997431 0.014627 -0.016041 -584530.000000 0 0 1
-23.903582 3.888089 -12.045954 27.048169 -0.161245 2.032364 0.015111 -0.021750 25326.400000 0 0 1
-24.946782 4.391889 -12.868854 28.411934 -0.174265 2.040855 0.013425 -0.011746 329777.000000 0 0 1
-25.148622 3.650189 -14.046354 29.035790 -0.144138 2.075742 0.017627 -0.008379 107376.000000 0 0 1
-26.010782 4.268289 -15.154954 30.404797 -0.162647 2.092594 0.008914 0.001070 -626778.000000 0 0 1
-25.239112 5.104689 -15.907554 30.267489 -0.199561 2.124176 0.004740 0.005114 -246971.000000 0 0 1
-25.900222 5.936889 -16.810154 31.442796 -0.225329 2.134862 0.019909 0.005653 -508746.000000 0 0 1
-26.747072 5.363489 -17.984654 32.674464 -0.197901 2.153663 -0.007895 0.010054 1335680.000000 0 0 1
-28.083282 5.011889 -17.512954 33.473770 -0.176606 2.121380 -0.007472 0.004792 846149.000000 0 0 1
-28.751152 4.350889 -18.559854 34.496770 -0.150190 2.138879 -0.003592 0.011873 45691.800000 0 0 1
-30.074632 3.744189 -18.014854 35.256735 -0.123859 2.107100 0.001245 0.009267 -137018.000000 0 0 1
-29.953332 2.569289 -17.207854 34.639768 -0.085567 2.090665 0.009406 0.001568 285752.000000 0 0 1
-29.502662 1.402089 -17.873854 34.523145 -0.047488 2.114998 0.020565 0.000099 -179588.000000 0 0 1
-29.401922 0.243089 -16.899154 33.913323 -0.008268 2.092438 0.015023 -0.003257 -250822.000000 0 0 1
-28.960352 -1.000011 -17.457254 33.829835 0.034517 2.113008 0.019437 0.000738 409773.000000 0 0 1
-29.488402 -2.022111 -16.665054 33.931973 0.068466 2.084184 0.018334 -0.005923 -9059.000000 0 0 1
-29.277682 -3.394611 -17.286854 34.169304 0.115430 2.101242 0.009608 -0.002545 111752.000000 0 0 1
-30.177812 -3.570911 -18.379854 35.514374 0.117781 2.114761 0.008823 -0.004450 316523.000000 0 0 1
-30.073832 -4.822711 -18.928554 35.860620 0.159009 2.126848 0.013027 -0.002767 -166982.000000 0 0 1
-30.989572 -5.081311 -20.111654 37.291445 0.162522 2.140414 0.015777 -0.005474 -306033.000000 0 0 1
-30.858432 -6.368811 -20.702954 37.701682 0.203530 2.152114 0.022024 -0.005585 -201487.000000 0 0 1
-31.822422 -6.521711 -21.718254 39.075335 0.202142 2.160127 0.022225 -0.005354 -628235.000000 0 0 1
-31.669022 -7.798311 -22.594154 39.676648 0.241441 2.176642 0.029500 -0.002944 122363.000000 0 0 1
-30.512142 -7.655811 -23.415354 39.215826 0.245835 2.210664 0.022291 -0.008800 208120.000000 0 0 1
-30.392462 -8.511311 -24.524454 39.969901 0.273052 2.231374 0.020830 -0.000368 -47151.800000 0 0 1
-28.978872 -8.370811 -25.133144 39.262201 0.281205 2.265471 0.020240 -0.001310 -134138.000000 0 0 1
-28.768192 -7.075311 -25.710994 39.226574 0.241156 2.285572 0.027478 -0.010346 -46962.800000 0 0 1
-28.784482 -7.010111 -27.123094 40.166532 0.238887 2.312122 0.031375 -0.002642 -385633.000000 0 0 1
-30.083262 -7.111011 -27.957894 41.679887 0.232117 2.306052 0.025827 -0.003963 -408164.000000 0 0 1
-30.715112 -8.347011 -27.712364 42.202675 0.265348 2.287164 0.019736 0.000931 -82010.100000 0 0 1
-31.906282 -8.470511 -28.484314 43.601795 0.259495 2.282709 0.015698 0.003089 319947.000000 0 0 1
-32.827102 -9.605211 -28.021524 44.216337 0.284654 2.257171 0.003995 0.005073 -273230.000000 0 0 1
-32.427742 -10.900611 -28.527074 44.544087 0.324284 2.265846 0.006563 0.008570 110915.000000 0 0 1
-33.144062 -12.005411 -27.983374 45.008087 0.347519 2.241760 -0.003840 0.008472 518514.000000 0 0 1
-34.468499 -12.263111 -28.804754 46.563668 0.341812 2.237769 -0.012742 0.009473 1176370.000000 0 0 1
33.997840 -11.422911 -28.480774 45.798368 -0.324139 2.241929 -0.019139 0.005367 583817.000000 0 0 1
33.083496 -11.424411 -29.560114 45.813046 -0.332500 2.272125 -0.023985 0.003425 -220680.000000 0 0 1
32.096416 -10.247411 -29.342294 44.678401 -0.309040 2.287290 -0.020214 0.003459 -244607.000000 0 0 1
31.264526 -10.531311 -28.230524 43.420520 -0.324908 2.278599 -0.025923 0.002794 -694479.000000 0 0 1
30.579296 -9.390911 -27.853624 42.415880 -0.297958 2.287203 -0.026354 0.002731 -312973.000000 0 0 1
29.588936 -9.892511 -26.775004 41.112866 -0.322649 2.280035 -0.018528 0.004558 -201731.000000 0 0 1
30.151016 -10.083311 -25.499734 40.755286 -0.322734 2.246798 -0.025001 0.004408 -160377.000000 0 0 1
29.163886 -10.498211 -24.585954 39.562783 -0.345532 2.241378 -0.014600 0.008900 -163285.000000 0 0 1
29.545626 -10.581811 -23.118754 38.979424 -0.343918 2.205702 -0.013785 0.010486 3107.010000 0 0 1
30.520336 -11.576711 -22.850754 39.845553 -0.362545 2.181548 -0.010851 0.010920 319618.000000 0 0 1
30.698796 -11.692411 -21.429254 39.221696 -0.363912 2.148811 0.002807 0.011350 -224113.000000 0 0 1
31.590806 -12.886711 -21.005954 40.066151 -0.387320 2.122668 0.006304 0.011413 417515.000000 0 0 1
32.951386 -12.613711 -21.362854 41.246467 -0.365589 2.115228 0.003541 0.010720 -106617.000000 0 0 1
33.760843 -13.646211 -20.829854 41.951119 -0.384124 2.090389 0.007984 0.014136 -1129310.000000 0 0 1
-34.523810 -13.622911 -21.569554 42.926947 0.375838 2.097251 -0.001972 0.010727 -1205140.000000 0 0 1
-33.716522 -12.449911 -21.372954 41.816352 0.353722 2.107278 0.000061 0.011297 593666.000000 0 0 1
-34.150169 -11.242611 -22.034054 42.167877 0.318036 2.120614 0.002268 0.012326 -954471.000000 0 0 1
-33.829532 -11.157111 -23.599954 42.730272 0.318571 2.155918 -0.009324 0.006891 52600.300000 0 0 1
-34.406692 -12.076111 -24.496054 43.928459 0.337549 2.162330 -0.007121 0.010723 -5691.810000 0 0 1
33.798070 -11.991211 -24.700854 43.545733 -0.340936 2.173946 -0.002091 0.010943 -309385.000000 0 0 1
33.283936 -13.053311 -25.704324 44.033187 -0.373747 2.194135 -0.018717 0.008183 -284809.000000 0 0 1
33.227656 -14.382211 -25.262804 44.149002 -0.408491 2.180003 -0.009930 0.004602 487240.000000 0 0 1
32.227206 -14.687711 -24.296054 42.949038 -0.427630 2.172072 -0.014048 -0.000177 -294660.000000 0 0 1
-28.342862 7.974289 -20.640254 35.957296 -0.274261 2.182205 -0.011450 0.002660 2552.850000 0 0 1
-27.155172 7.562089 -21.267254 35.311253 -0.271596 2.217150 -0.016385 0.003735 -133243.000000 0 0 1
-26.095932 8.478689 -21.149054 34.643445 -0.314146 2.227460 -0.009753 0.002366 279128.000000 0 0 1
-24.681082 7.904589 -21.429954 33.628578 -0.309947 2.261726 -0.014604 0.008404 -237329.000000 0 0 1
-24.284182 7.086189 -20.297854 32.433600 -0.283919 2.246989 0.000427 0.004972 452066.000000 0 0 1
-22.988582 6.517789 -20.441254 31.445211 -0.276272 2.278459 -0.002447 0.002860 485116.000000 0 0 1
-21.783182 7.403989 -20.121354 30.564603 -0.327644 2.289384 0.004858 -0.000346 -527269.000000 0 0 1
-21.404682 8.431289 -21.026554 31.166697 -0.375236 2.311284 0.005808 -0.000918 -410463.000000 0 0 1
-20.222182 9.004489 -20.549754 30.204467 -0.418920 2.319043 0.006041 0.002425 -376484.000000 0 0 1
-19.482982 9.859689 -21.642154 30.743826 -0.468489 2.351742 0.006724 -0.000821 -114491.000000 0 0 1
-18.899482 9.077689 -22.680554 30.886929 -0.447775 2.395445 0.012796 0.002253 -78445.600000 0 0 1
-18.315082 9.903889 -23.601054 31.472829 -0.495714 2.418687 0.011632 0.001981 -726942.000000 0 0 1
-17.523082 9.164689 -24.622554 31.580375 -0.481883 2.464949 0.015874 0.000863 -565207.000000 0 0 1
-18.297082 8.468589 -25.582594 32.572524 -0.433479 2.474145 0.014730 0.004080 209596.000000 0 0 1
-17.509582 7.638789 -26.468434 32.642220 -0.411372 2.516425 0.008255 0.007745 -191272.000000 0 0 1
-18.320382 6.570689 -27.185614 33.434532 -0.344364 2.520254 -0.002015 0.004610 -146667.000000 0 0 1
-18.721082 5.534189 -26.324394 32.773158 -0.287427 2.503495 0.005573 0.003985 269735.000000 0 0 1
-19.493382 4.496589 -26.933034 33.549956 -0.226707 2.502729 -0.002391 0.004209 -477999.000000 0 0 1
-19.817182 3.290789 -25.988194 32.847164 -0.164556 2.483541 -0.005207 0.007330 657603.000000 0 0 1
-18.755982 2.372089 -25.626444 31.845381 -0.125803 2.505991 0.002445 0.011534 806874.000000 0 0 1
-17.492582 2.865889 -25.218364 30.824821 -0.162392 2.528928 0.007398 0.008941 -110501.000000 0 0 1
-16.620582 1.641689 -24.796054 29.896207 -0.098455 2.548838 0.005390 0.003746 603.257000 0 0 1
-17.078782 0.911389 -23.632554 29.172127 -0.053313 2.515131 0.003393 0.006870 229677.000000 0 0 1
-18.201582 0.051189 -23.811554 29.971491 -0.002812 2.488936 0.005269 0.009298 305313.000000 0 0 1
-18.856782 -0.557311 -22.556954 29.405866 0.029546 2.445090 0.005018 0.004110 -212168.000000 0 0 1
-18.129082 -1.617111 -22.004454 28.556517 0.088964 2.450513 0.004333 0.003756 -214655.000000 0 0 1
-18.588482 -1.998411 -20.730854 27.915831 0.107097 2.407770 0.009236 -0.003727 66672.800000 0 0 1
-17.905082 -3.348811 -20.331254 27.297736 0.184895 2.411026 0.003585 -0.009759 199328.000000 0 0 1
-18.228082 -4.400611 -21.256954 28.345836 0.236887 2.418729 0.001343 -0.013726 268135.000000 0 0 1
-18.454882 -5.648811 -20.631554 28.251597 0.297032 2.389527 0.009531 -0.007769 -484987.000000 0 0 1
-18.321082 -6.845611 -21.577154 29.122122 0.357584 2.405235 -0.008607 -0.003322 1268470.000000 0 0 1
-16.950282 -7.009811 -22.040454 28.674573 0.392134 2.447510 -0.008419 -0.006919 1404010.000000 0 0 1
-17.089682 -7.765311 -23.238854 29.873092 0.426495 2.462144 -0.018313 -0.000597 319305.000000 0 0 1
-15.716482 -7.913011 -23.944354 29.714569 0.466432 2.507842 -0.026226 0.003943 -611948.000000 0 0 1
-15.708382 -8.633311 -25.165744 30.896634 0.502535 2.522687 -0.029428 0.010692 -426326.000000 0 0 1
-14.527582 -8.682211 -25.939214 30.972153 0.538680 2.563490 -0.020685 0.010976 82395.200000 0 0 1
-13.449182 -9.587011 -25.266894 30.186209 0.619286 2.562637 -0.011982 0.010966 -251053.000000 0 0 1
-12.673082 -8.919011 -24.269654 28.795344 0.613256 2.573321 -0.017420 0.006354 16271.000000 0 0 1
-11.883782 -9.815011 -23.537654 28.135029 0.690345 2.561836 -0.013781 0.004837 130150.000000 0 0 1
-11.079282 -9.122211 -22.395654 26.599446 0.688822 2.571701 -0.008074 0.004040 183228.000000 0 0 1
-11.876282 -8.793611 -21.298454 25.922920 0.637351 2.535021 -0.016185 0.005584 144284.000000 0 0 1
-11.064082 -7.974911 -20.489454 24.613631 0.624545 2.554299 -0.014260 0.007219 -1134320.000000 0 1 0
-11.707482 -7.597711 -19.179354 23.719991 0.575645 2.512520 -0.019674 0.001012 -345192.000000 0 1 0
-12.737982 -6.660811 -19.202954 23.986997 0.481807 2.499020 -0.021240 -0.002440 -682936.000000 0 1 0
-13.956382 -7.106111 -19.722254 25.184215 0.470953 2.470463 -0.028450 -0.004203 -779375.000000 0 0 1
-15.109682 -6.088211 -19.438554 25.361904 0.383034 2.444087 -0.012839 -0.005852 -287491.000000 0 0 1
-15.210482 -5.904411 -18.055054 24.335279 0.370276 2.406739 -0.008564 -0.011825 223340.000000 0 1 0
-14.776182 -4.624411 -17.636854 23.468688 0.303307 2.421138 -0.007461 -0.008213 -817581.000000 0 1 0
-14.740382 -4.415611 -16.080454 22.256628 0.291052 2.378210 0.000586 -0.009084 -35530.700000 0 1 0
-15.958382 -4.151911 -15.409954 22.569337 0.254528 2.322361 0.003155 -0.015141 196046.000000 0 1 0
-16.622982 -2.923111 -15.880554 23.174557 0.174068 2.325754 -0.012092 -0.012971 855389.000000 0 1 0
-17.922882 -2.659411 -15.028254 23.540403 0.147306 2.263217 -0.006055 -0.011339 800726.000000 0 1 0
-17.453682 -2.514511 -13.648454 22.298746 0.143083 2.229475 -0.002624 -0.012394 740077.000000 0 1 0
-18.446182 -2.049311 -12.759354 22.522487 0.110643 2.173068 -0.010799 -0.016366 -121038.000000 0 1 0
-17.872182 -0.840211 -11.979754 21.532193 0.046978 2.160801 -0.007347 -0.016343 9973.510000 0 1 0
-17.442782 0.139489 -12.865754 21.674817 -0.007997 2.206297 -0.003828 -0.014436 336195.000000 0 1 0
-16.556182 1.014889 -12.224354 20.605144 -0.061223 2.205908 0.002921 -0.014709 -1156370.000000 0 1 0
-16.073882 2.160089 -13.136854 20.871334 -0.133585 2.251604 0.010130 -0.013590 384209.000000 0 1 0
-15.389282 1.863289 -14.391054 21.151933 -0.120491 2.319058 0.004984 -0.006964 416097.000000 0 1 0
-14.261982 1.055189 -14.159754 20.125014 -0.073852 2.351233 0.012255 -0.010212 -1366900.000000 0 1 0
-13.795382 0.229989 -15.334754 20.628139 -0.016670 2.408921 0.010301 -0.007052 -137931.000000 0 1 0
-13.228782 0.925589 -16.406454 21.095713 -0.069854 2.461819 -0.004346 -0.012822 -38415.200000 0 1 0
-12.841582 0.023089 -17.434354 21.653255 -0.001798 2.506743 -0.010733 -0.006042 81407.900000 0 1 0
-12.207782 0.709389 -18.694454 22.338661 -0.058044 2.562328 -0.011395 0.000034 188296.000000 0 1 0
-10.857482 1.106689 -18.565054 21.535341 -0.101578 2.610144 -0.027366 0.003271 -128225.000000 0 1 0
-10.617582 2.133589 -19.488354 22.295317 -0.198308 2.634378 -0.016377 0.001739 345123.000000 0 1 0
-9.176982 2.659389 -19.285254 21.522322 -0.282063 2.681606 -0.019209 0.002653 -451128.000000 0 1 0
-8.149482 1.740589 -19.591054 21.289741 -0.210421 2.739415 -0.017853 0.013441 -101641.000000 0 1 0
-6.847082 2.276189 -19.473254 20.767070 -0.320939 2.786743 -0.010641 0.014851 387719.000000 0 1 0
-6.445382 3.410589 -20.482254 21.741614 -0.486697 2.799564 -0.004318 0.021025 -1012810.000000 0 1 0
-6.221782 2.968489 -21.814454 22.877782 -0.445170 2.835510 -0.008901 0.022613 169469.000000 0 1 0
-5.935082 4.006089 -22.694354 23.797219 -0.593739 2.835956 -0.002956 0.014352 -328645.000000 0 1 0
-5.463382 3.501689 -24.074154 24.933416 -0.569978 2.878298 -0.004134 0.007107 -658117.000000 0 1 0
-4.208282 2.911689 -23.982654 24.522546 -0.605266 2.931367 -0.000322 0.001189 -699165.000000 0 1 0
-3.862082 2.410189 -25.264194 25.671077 -0.557926 2.963313 0.000277 0.000334 -509688.000000 0 0 1
-2.530982 1.672189 -25.234434 25.416112 -0.583852 3.021954 -0.003904 -0.004606 160784.000000 0 0 1
-1.381082 2.565889 -25.175574 25.343652 -1.077021 3.026360 0.005614 -0.005615 561256.000000 0 0 1
-0.131782 1.949889 -25.270384 25.345843 -1.503315 3.064409 0.003446 -0.008108 -111124.000000 0 0 1
0.381918 1.162789 -24.047854 24.078979 1.253447 3.090742 0.002738 -0.004709 -816385.000000 0 1 0
0.097318 -0.187411 -23.992954 23.993883 -1.091847 3.132791 0.006146 -0.009263 16165.000000 0 1 0
0.752718 -0.810911 -22.903054 22.929763 -0.822598 3.093321 0.004000 -0.008874 -642815.000000 0 1 0
0.343918 -2.320411 -22.903454 23.023266 -1.423653 3.039529 0.007120 -0.011020 784236.000000 0 1 0
-0.879582 -2.658111 -22.209854 22.385639 1.251233 3.016190 0.010580 -0.008624 878183.000000 0 1 0
-2.033582 -2.489511 -23.043954 23.267078 0.885859 3.002992 0.013446 -0.006011 157000.000000 0 1 0
-2.851282 -1.233711 -22.737354 22.948619 0.408363 3.005797 0.009202 -0.008627 -1698440.000000 0 1 0
-3.476282 -1.154911 -21.472954 21.783161 0.320754 2.972627 0.005589 -0.008393 605672.000000 0 1 0
-4.490182 -0.136311 -21.381354 21.848172 0.030348 2.934503 -0.011146 -0.010209 846379.000000 0 1 0
-5.744582 -0.348011 -22.267754 22.999439 0.060507 2.888676 -0.006597 0.004272 -907022.000000 0 1 0
-6.512882 -1.469511 -21.921654 22.915846 0.221915 2.845951 -0.004497 0.020582 -764504.000000 0 1 0
-7.867182 -1.166111 -21.857954 23.259891 0.147153 2.792628 -0.009251 0.014680 -1044900.000000 0 1 0
-8.815282 -2.258811 -21.503154 23.349455 0.250841 2.741250 -0.011394 0.010583 -733627.000000 0 1 0
-8.879982 -3.139111 -22.579754 24.465351 0.339793 2.746414 0.010749 0.009843 -75236.900000 0 1 0
-9.034482 -4.491511 -22.127954 24.319578 0.461367 2.713797 -0.015020 0.010568 -572533.000000 0 1 0
-9.753382 -5.239411 -23.276754 25.775709 0.492954 2.697614 -0.018720 0.011836 -82584.800000 0 0 1
-11.141582 -5.034411 -23.248654 26.267471 0.424398 2.657449 -0.022776 0.012086 -261738.000000 0 0 1
-11.811882 -5.569111 -24.392454 27.668165 0.440576 2.650053 -0.028386 0.007902 632764.000000 0 0 1
-13.354182 -5.352511 -24.291254 28.232048 0.381206 2.606878 -0.035904 0.001015 263851.000000 0 0 1
-13.783082 -4.033711 -24.589754 28.476309 0.284706 2.612997 -0.028542 -0.001021 -170991.000000 0 0 1
-15.188182 -3.965311 -24.506454 29.102763 0.255378 2.571899 -0.017115 -0.001116 69855.400000 0 0 1
-15.615582 -2.545711 -24.934154 29.530308 0.161602 2.576162 -0.007394 -0.003007 -378876.000000 0 0 1
-15.194082 -2.342411 -26.251974 30.422247 0.152962 2.611817 -0.008852 0.000899 -10201.200000 0 0 1
-15.500982 -1.099911 -26.786114 30.967501 0.070839 2.615897 -0.005715 0.001183 113250.000000 0 0 1
-16.962682 -1.044711 -27.334194 32.186677 0.061511 2.585339 0.000873 0.004543 339251.000000 0 0 1
-17.147482 -1.784811 -28.531784 33.335932 0.103712 2.598059 -0.000682 -0.000971 -238076.000000 0 0 1
-16.904882 -1.125811 -29.709024 34.200418 0.066499 2.623316 0.004275 -0.009095 -210529.000000 0 0 1
-17.180882 -1.975311 -31.012664 35.508729 0.114469 2.632899 -0.000688 -0.011789 185042.000000 0 0 1
-18.518982 -2.339311 -31.272564 36.419752 0.125654 2.603466 0.002921 -0.012370 -281889.000000 0 0 1
-18.599482 -2.950811 -32.542424 37.598635 0.157339 2.616987 0.003433 -0.013844 -1380980.000000 0 0 1
-19.940482 -3.633411 -32.829894 38.582722 0.180235 2.588485 0.002864 -0.014861 -134767.000000 0 0 1
-20.975682 -2.673911 -33.054804 39.239637 0.126793 2.572487 -0.001142 -0.011453 268117.000000 0 0 1
-21.494482 -2.155011 -31.820234 38.460163 0.099925 2.545180 -0.003461 -0.004780 -1663350.000000 0 0 1
-22.604282 -1.177811 -32.166854 39.332522 0.052059 2.528406 0.003447 -0.006745 -539136.000000 0 0 1
-22.124782 0.131489 -32.416374 39.247223 -0.005943 2.542687 0.008510 -0.012822 409268.000000 0 0 1
-23.149682 1.032389 -32.829444 40.183902 -0.044567 2.526951 0.008993 -0.015535 275109.000000 0 0 1
-22.586682 2.139989 -33.805194 40.712761 -0.094464 2.550503 0.006972 -0.008856 -356328.000000 0 0 1
-21.908682 3.224289 -33.205644 39.912419 -0.146121 2.553432 0.005554 -0.007027 104559.000000 0 0 1
-22.593682 4.127689 -32.330184 39.657951 -0.180699 2.523915 0.003799 -0.007388 -831382.000000 0 0 1
-23.694382 4.962589 -32.999184 40.926729 -0.206457 2.508665 -0.008351 -0.008631 -409043.000000 0 0 1
-24.907282 4.312789 -33.238824 41.758738 -0.171454 2.491409 -0.003318 -0.007642 336060.000000 0 0 1
-25.837132 5.082989 -34.033594 43.031148 -0.194251 2.483084 0.005303 -0.006313 1164630.000000 0 0 1
-27.202392 4.353789 -34.309800 44.000999 -0.158706 2.465063 0.008877 -0.002356 447268.000000 0 0 1
-26.952352 3.099189 34.397747 43.809123 -0.114485 0.667821 0.004671 -0.000590 13106.400000 0 0 1
-28.106032 2.563789 33.813202 44.043781 -0.090967 0.695524 0.008130 0.004033 -286108.000000 0 0 1
-28.071062 1.040189 33.499476 43.718204 -0.037039 0.697798 0.009621 0.014026 -309488.000000 0 0 1
-28.362852 0.173589 34.577065 44.721973 -0.006120 0.686994 0.006146 0.012324 174989.000000 0 0 1
-28.230722 -1.204311 34.212512 44.372514 0.042634 0.690340 0.005054 0.010014 -497495.000000 0 0 1
-28.371142 -2.089911 -33.864944 44.228089 0.073530 2.442908 -0.009659 0.002370 229957.000000 0 0 1
-27.271882 -2.125911 -32.953534 42.827683 0.077795 2.448768 -0.003002 -0.001876 511738.000000 0 0 1
-26.902732 -0.878611 -32.410024 42.130020 0.032647 2.448519 0.001798 -0.005922 -448416.000000 0 0 1
-26.793652 -0.791311 -30.891764 40.900208 0.029525 2.426902 0.007596 -0.010316 65098.100000 0 0 1
-25.757542 -1.562811 -30.293954 39.794685 0.060600 2.436045 0.002045 -0.010912 437018.000000 0 0 1
-25.683922 -1.214211 -28.906634 38.687616 0.047240 2.414606 0.004790 -0.017287 638185.000000 0 0 1
-24.423182 -1.881511 -28.202034 37.354874 0.076886 2.426414 0.004956 -0.011747 854894.000000 0 0 1
-24.653382 -3.239111 -27.884054 37.360427 0.130638 2.413361 0.004991 -0.018043 312097.000000 0 0 1
-23.548882 -3.684511 -27.117704 36.103952 0.155204 2.420524 0.006066 -0.008871 -45200.200000 0 0 1
-23.796282 -5.010511 -26.340284 35.849391 0.207527 2.396092 0.015647 -0.014482 212757.000000 0 0 1
-24.822582 -4.869711 -25.373464 35.828582 0.193720 2.357728 0.029211 -0.015526 8663.090000 0 0 1
-25.181842 -6.072211 -24.706454 35.796728 0.236617 2.332544 0.026823 -0.015667 438202.000000 0 0 1
-26.318142 -5.820411 -23.669954 35.871834 0.217653 2.291413 0.028501 -0.011543 236479.000000 0 0 1
-26.599342 -6.874411 -22.853754 35.736208 0.252909 2.264660 0.021151 -0.011152 195749.000000 0 0 1
-27.750492 -6.615211 -22.052754 36.057936 0.234014 2.228868 0.017063 -0.009844 160865.000000 0 0 1
-27.970312 -7.800411 -21.141054 35.918365 0.271972 2.200105 0.016333 -0.007006 -178419.000000 0 0 1
-26.985822 -7.863111 -20.121454 34.567846 0.283529 2.192088 0.001084 -0.006560 290395.000000 0 0 1
-27.298572 -8.791811 -19.100154 34.457566 0.311572 2.158329 0.009148 0.006718 -55915.100000 0 0 1
-27.980252 -8.318111 -17.790254 34.184479 0.288964 2.118138 0.013689 -0.004608 33278.600000 0 0 1
-27.219732 -7.392511 -16.997254 32.931287 0.265190 2.113138 0.005459 -0.007413 669312.000000 0 0 1
-27.941552 -6.980211 -15.845154 32.871303 0.244804 2.073773 0.000275 -0.004975 301082.000000 0 0 1
-26.996612 -6.090111 -15.001654 31.479455 0.221874 2.067527 -0.001454 -0.004057 302145.000000 0 0 1
-26.943672 -4.774411 -15.548054 31.472185 0.175379 2.087510 -0.000820 -0.004633 1005450.000000 0 0 1
-25.848612 -3.900811 -15.105354 30.191700 0.149780 2.094759 0.006991 -0.011698 992241.000000 0 0 1
-14.063182 21.777689 -4.921954 26.386861 -0.997407 1.758426 0.009003 0.005075 105241.000000 0 0 1
-14.128782 21.277389 -6.223954 26.288540 -0.984623 1.809821 0.029908 0.000408 -18017.500000 0 0 1
-14.750682 20.005789 -6.016954 25.573774 -0.935459 1.808301 0.016894 -0.005768 167686.000000 0 0 1
-14.964882 19.259489 -7.389054 25.484774 -0.910230 1.864960 0.025930 -0.004033 -1457.630000 0 0 1
-13.690082 18.913789 -7.899154 24.648456 -0.944265 1.897025 0.018667 -0.002536 -261.929000 0 1 0
-13.775482 17.942389 -8.950054 24.326871 -0.916024 1.947555 0.009765 -0.004907 -237236.000000 0 1 0
-14.086782 16.461489 -8.630054 23.321575 -0.862978 1.949855 0.011878 -0.000031 1012890.000000 0 1 0
-15.498682 16.338089 -8.317354 24.006679 -0.811758 1.924591 0.016409 0.002438 1292490.000000 0 1 0
-15.707282 15.318589 -7.405654 23.156458 -0.772871 1.896325 0.019995 0.002494 -440623.000000 0 1 0
-17.170482 15.196289 -7.000254 23.974073 -0.724479 1.867106 0.032766 -0.005844 -653973.000000 0 1 0
-18.084882 14.937589 -8.013754 24.787391 -0.690378 1.900011 0.026281 0.000627 -468145.000000 0 1 0
-19.354082 15.427889 -7.665154 25.910515 -0.672994 1.871122 0.016388 0.003522 -5407.820000 0 0 1
-20.552682 14.873989 -8.462654 26.744434 -0.626456 1.892757 0.013933 0.008994 -59106.000000 0 0 1
-20.813582 13.545389 -8.132554 26.130847 -0.576934 1.887277 0.021070 0.003577 105187.000000 0 0 1
-21.563882 12.986689 -9.207654 26.803656 -0.542067 1.921461 0.014844 0.003404 -147406.000000 0 0 1
-22.013382 11.530989 -8.914754 26.401241 -0.482519 1.915231 0.011825 0.004926 -600135.000000 0 0 1
-21.109182 10.512889 -8.718754 25.142296 -0.462066 1.924928 0.014274 0.005494 -767337.000000 0 0 1
-21.798082 9.544389 -8.000654 25.105023 -0.412708 1.895141 0.017698 -0.005005 -476904.000000 0 0 1
-20.918182 8.475689 -7.367554 23.742124 -0.384966 1.886321 0.020981 0.005711 -316616.000000 0 1 0
-20.504282 7.392789 -8.207254 23.290296 -0.346041 1.930919 0.003038 0.001807 595344.000000 0 1 0
-19.764282 6.354689 -7.574254 22.099281 -0.311085 1.920626 0.021192 0.000049 -15501.400000 0 1 0
-19.465382 5.209889 -8.514754 21.875673 -0.261519 1.970596 0.007033 -0.011376 -980748.000000 0 1 0
-20.613082 4.448789 -8.688454 22.807457 -0.212563 1.961618 0.014219 -0.004572 78596.800000 0 1 0
-20.421282 3.515389 -9.725354 22.890374 -0.170473 2.009611 0.004582 -0.002804 -181021.000000 0 1 0
-21.368882 2.308589 -9.718854 23.588446 -0.107618 1.995464 0.000513 0.004418 -113106.000000 0 1 0
-20.829082 1.416789 -8.753654 22.638118 -0.067915 1.967823 -0.003031 -0.004728 525153.000000 0 1 0
-21.693782 0.413289 -8.259454 23.216579 -0.019049 1.934520 0.000709 -0.002287 -468278.000000 0 1 0
-21.625382 -0.934311 -9.023154 23.450957 0.043178 1.965752 -0.004438 -0.010819 175383.000000 0 1 0
-20.454982 -1.703611 -8.720254 22.301377 0.083094 1.972534 -0.003351 -0.008553 675672.000000 0 1 0
-20.505482 -3.017411 -9.217454 22.683496 0.146103 1.989253 -0.008606 -0.008451 -531542.000000 0 1 0
-21.465482 -3.997111 -8.537554 23.444266 0.184103 1.943531 -0.008581 -0.002295 -182794.000000 0 1 0
-21.079782 -4.333311 -7.244554 22.707231 0.202743 1.895515 -0.013443 0.003366 412544.000000 0 1 0
-22.053882 -5.150611 -6.596354 23.588437 0.229434 1.854219 -0.013477 0.006067 -129365.000000 0 1 0
-22.075382 -6.668711 -6.979054 24.093596 0.293371 1.864672 -0.017398 0.000194 52713.900000 0 1 0
-21.060282 -7.381511 -6.281554 23.183617 0.337115 1.845174 -0.010519 0.001031 794136.000000 0 1 0
-21.193482 -8.758311 -6.678154 23.884502 0.391881 1.854176 -0.008599 0.007578 280540.000000 0 1 0
-20.267782 -9.847011 -5.912954 23.296129 0.452260 1.827421 -0.004412 0.015137 1037930.000000 0 1 0
-18.890282 -9.629011 -6.250354 22.104921 0.471404 1.857465 -0.013585 0.009573 1545090.000000 0 1 0
-17.970582 -10.533911 -5.544654 21.555702 0.530192 1.830945 -0.001219 0.007069 651775.000000 0 1 0
-17.582982 -11.757711 -6.376954 22.092319 0.589408 1.863613 0.009980 0.010718 97936.500000 0 1 0
-16.396282 -11.759811 -7.203254 21.424707 0.622193 1.913689 0.001601 0.006621 1010800.000000 0 1 0
-16.500782 -11.061411 -8.416054 21.574535 0.590553 1.971528 -0.009416 0.002709 -240448.000000 0 1 0
-15.351682 -11.275911 -9.421054 21.250331 0.633511 2.030114 -0.009040 -0.002511 112350.000000 0 1 0
-15.542282 -12.488211 -10.127954 22.362768 0.676871 2.040804 -0.001599 -0.005722 317948.000000 0 1 0
-14.459982 -12.728111 -10.995254 22.180881 0.721785 2.089447 0.001391 0.000158 -86409.100000 0 1 0
-14.592682 -14.159011 -11.578454 23.398388 0.770316 2.088447 0.012692 -0.003973 420617.000000 0 1 0
-15.509282 -14.252811 -12.682454 24.587092 0.743206 2.112758 0.012132 -0.000901 468254.000000 0 1 0
-15.332982 -15.502711 -13.323354 25.552811 0.790902 2.119293 -0.004179 0.001675 -503082.000000 0 0 1
-16.041082 -15.629411 -14.622554 26.747222 0.772400 2.149208 0.013336 0.009792 -595676.000000 0 0 1
-15.816182 -16.735611 -15.450154 27.729759 0.813636 2.161769 0.001022 0.013769 -17839.000000 0 0 1
-16.203382 -16.480811 -16.803354 28.574804 0.793886 2.199440 0.006412 0.009063 -305301.000000 0 0 1
-16.752482 -17.666511 -17.548854 30.011890 0.811948 2.195344 0.004593 0.003382 812697.000000 0 0 1
-18.067682 -18.012711 -17.065254 30.694002 0.783875 2.160338 -0.000157 0.008328 506675.000000 0 0 1
-18.953482 -18.408211 -18.101054 32.027252 0.770805 2.171444 0.008990 0.007274 -1718750.000000 0 0 1
-20.377282 -18.239111 -17.801854 32.631347 0.730085 2.147835 0.012630 0.005478 -2041740.000000 0 0 1
-20.691682 -16.916311 -17.322554 31.849304 0.685346 2.145863 0.003402 0.014461 229801.000000 0 0 1
-20.622382 -16.784611 -15.934254 30.998488 0.683161 2.110677 0.002548 0.012552 -542909.000000 0 0 1
-20.520882 -15.381411 -15.405654 29.917028 0.643213 2.111741 0.007201 0.010028 275013.000000 0 0 1
-21.764882 -14.719211 -15.253454 30.381460 0.594630 2.096781 0.016952 0.014005 515105.000000 0 0 1
-21.483082 -13.481111 -14.681754 29.305581 0.560411 2.095537 0.018978 0.007541 -33917.000000 0 0 1
-22.754482 -12.703311 -14.280454 29.716526 0.509176 2.072085 0.015567 0.003453 -156172.000000 0 0 1
-23.418082 -13.265411 -13.168554 29.963119 0.515393 2.025829 0.023746 0.006037 -380489.000000 0 0 1
-24.491882 -12.478011 -12.809554 30.325529 0.471199 2.006890 0.022119 -0.001594 -625019.000000 0 0 1
-25.408782 -13.165211 -11.752054 30.936059 0.478051 1.960465 0.018355 -0.005161 334365.000000 0 0 1
-26.440552 -12.352111 -11.189854 31.255244 0.437037 1.936938 0.022502 -0.009289 395952.000000 0 0 1
-26.868222 -12.752311 -9.942854 31.358940 0.443142 1.893431 0.010698 -0.007305 537086.000000 0 0 1
-27.732842 -11.642111 -9.184754 31.448513 0.397454 1.867173 0.016237 -0.003602 502705.000000 0 0 1
-26.882082 -10.631811 -8.656154 30.176327 0.376619 1.861736 0.010113 -0.006839 404702.000000 0 0 1
-27.629932 -9.609511 -8.010854 30.330341 0.334708 1.838088 0.015212 0.002809 330087.000000 0 0 1
-26.739302 -8.497311 -7.331254 28.998997 0.307691 1.826380 0.006746 0.005255 302113.000000 0 0 1
-26.224902 -8.939711 -6.080254 28.366061 0.328533 1.786822 0.001942 0.001641 110012.000000 0 0 1
-25.369862 -8.004011 -5.446254 27.154295 0.305609 1.772733 0.001754 0.004552 -79280.100000 0 0 1
-26.016712 -6.626811 -4.996954 27.308487 0.249410 1.754815 0.000174 0.003546 115241.000000 0 0 1
-27.102362 -6.807111 -4.089554 28.241799 0.246073 1.716112 0.007304 0.007962 550045.000000 0 0 1
-26.735212 -7.092411 -2.715554 27.792950 0.259311 1.668659 0.018585 0.004383 -451549.000000 0 0 1
-26.169072 -5.924111 -1.890454 26.897755 0.222626 1.641137 0.010454 0.007188 1171390.000000 0 0 1
-27.148632 -4.887311 -1.370054 27.619034 0.178113 1.620422 0.006395 0.009219 990898.000000 0 0 1
-26.533012 -3.838011 -0.774254 26.820338 0.143654 1.599669 0.007206 0.001662 -613884.000000 0 0 1
-27.414562 -2.746211 -0.018054 27.551773 0.099840 1.571452 0.007529 -0.001494 407244.000000 0 0 1
-28.216522 -3.213211 1.059446 28.418643 0.113388 1.533508 0.009996 0.003243 960464.000000 0 0 1
-27.401102 -3.610911 2.199246 27.725363 0.131025 1.491390 0.004045 0.004204 843641.000000 0 0 1
-28.354382 -3.975511 3.376446 28.830124 0.139300 1.453412 -0.000549 0.005069 264119.000000 0 0 1
-29.026032 -5.208211 3.344546 29.678645 0.177543 1.457864 0.003068 0.005348 28696.400000 0 0 1
-29.805992 -5.430911 4.491946 30.627921 0.180232 1.423604 -0.000646 0.002505 -698920.000000 0 0 1
-30.705202 -6.617311 4.455046 31.724528 0.212265 1.429902 -0.002936 0.002599 -546836.000000 0 0 1
-29.948202 -7.839811 4.631746 31.301925 0.256034 1.422281 -0.001542 0.000175 408981.000000 0 0 1
-30.535772 -9.031511 4.099946 32.106247 0.287570 1.442747 0.006370 -0.000744 -308558.000000 0 0 1
-29.802862 -10.319211 4.471246 31.854179 0.333329 1.429965 0.006914 0.000562 -60663.800000 0 0 1
-29.984852 -10.569211 5.871946 32.330780 0.338887 1.388162 0.009161 0.002401 720304.000000 0 0 1
-28.848842 -11.349511 6.267346 31.628258 0.374815 1.371320 0.007162 0.003637 364748.000000 0 0 1
-28.816462 -11.790911 7.733246 32.081414 0.388389 1.327348 0.001721 0.003370 -114045.000000 0 0 1
-28.698942 -10.728411 8.669846 31.841707 0.357741 1.295035 0.022662 0.003170 270335.000000 0 0 1
-28.598292 -11.279611 9.990346 32.324897 0.375683 1.256591 0.007720 0.000417 -184218.000000 0 0 1
-28.677292 -10.170111 11.079846 32.381804 0.340802 1.221579 0.010312 0.002797 -821180.000000 0 0 1
-27.610602 -9.305911 11.039946 31.158076 0.325084 1.208609 0.023625 0.005012 -417380.000000 0 0 1
-27.817512 -8.253511 11.903246 31.362743 0.288428 1.181503 0.013951 -0.000519 656396.000000 0 0 1
-26.626042 -7.223811 11.826346 30.016529 0.264929 1.165823 0.023383 0.003009 555592.000000 0 0 1
-26.862952 -6.402011 10.660346 29.601468 0.233957 1.202390 0.022147 0.003839 1078110.000000 0 0 1
-25.992462 -5.237511 10.782346 28.623392 0.198839 1.184568 0.023554 0.001053 94080.200000 0 0 1
-26.219542 -4.230411 9.598946 28.240052 0.159967 1.223980 0.024321 -0.001483 -120563.000000 0 0 1
-25.862762 -4.804711 8.380346 27.607932 0.183683 1.262382 0.016804 0.001268 395156.000000 0 0 1
-26.172452 -3.937111 7.283346 27.450778 0.149310 1.302257 0.003648 -0.005685 166036.000000 0 0 1
-25.353272 -4.330311 5.976746 26.405709 0.169167 1.342475 0.016218 0.003647 -104888.000000 0 0 1
-24.018282 -3.913111 6.089946 25.085409 0.161503 1.325578 0.021043 -0.005014 41671.100000 0 0 1
-23.361282 -4.175911 4.864546 24.225019 0.176885 1.368615 0.035107 -0.003731 807448.000000 0 1 0
-21.871682 -3.658011 4.790246 22.686956 0.165715 1.358050 0.033444 -0.009460 825201.000000 0 1 0
-21.842782 -2.264911 4.671946 22.451370 0.103322 1.361173 0.028746 -0.008599 -20977.700000 0 1 0
-20.650182 -1.721011 5.147346 21.351512 0.083149 1.327321 0.018043 -0.008237 -831237.000000 0 1 0
-20.539682 -0.213511 5.250446 21.201210 0.010395 1.320544 0.012765 -0.007052 -777640.000000 0 1 0
-20.545482 0.600989 4.136646 20.966398 -0.029243 1.372194 0.011003 -0.013008 234865.000000 0 1 0
-21.824382 0.919389 3.675546 22.150814 -0.042102 1.404092 0.013984 -0.014451 -693147.000000 0 1 0
-21.720382 2.000489 2.572146 21.963444 -0.091843 1.453417 0.014387 -0.001793 -336711.000000 0 1 0
-21.304682 3.225489 3.140346 21.775101 -0.150257 1.426074 0.010338 -0.002819 177660.000000 0 1 0
-21.379582 4.286989 2.146846 21.910585 -0.197893 1.472657 0.013489 0.006088 827480.000000 0 1 0
-20.148582 4.398289 1.146146 20.654877 -0.214921 1.515277 0.000021 0.007137 -414324.000000 0 1 0
-20.367382 5.099489 -0.086854 20.996251 -0.245332 1.574933 0.004549 0.020084 448347.000000 0 1 0
-21.269182 4.542389 -1.045454 21.773938 -0.210406 1.618829 0.009686 0.008630 -193294.000000 0 1 0
-20.813782 3.270589 -1.763754 21.142873 -0.155861 1.654314 0.008410 0.008575 -627378.000000 0 1 0
-20.796982 2.163089 -0.905554 20.928770 -0.103637 1.614078 -0.004767 0.009224 599170.000000 0 1 0
-20.313282 1.050889 -1.670054 20.408892 -0.051688 1.652718 -0.008809 0.007261 -42740.500000 0 1 0
-19.529582 0.048189 -0.757754 19.544336 -0.002467 1.609577 -0.005540 0.003725 142208.000000 0 1 0
-20.368082 -0.644611 0.172846 20.379012 0.031638 1.562315 0.001708 -0.000750 940913.000000 0 1 0
-19.603982 -1.393011 1.118246 19.685199 0.070938 1.513959 0.002377 -0.005047 -307830.000000 0 1 0
-18.856582 -2.609411 0.582546 19.045185 0.137509 1.540204 -0.008589 -0.003593 -168881.000000 0 1 0
-18.051882 -3.303211 1.526746 18.415010 0.180982 1.487793 -0.004690 -0.004280 876867.000000 0 1 0
-17.457982 -4.554511 1.001646 18.070086 0.255196 1.515337 -0.004037 -0.002825 424236.000000 0 1 0
-18.501282 -5.700711 0.824546 19.377188 0.298894 1.528231 0.000409 0.001534 -28442.100000 0 1 0
-19.168982 -6.049711 2.007046 20.200918 0.305706 1.471278 0.023391 -0.005468 435058.000000 0 1 0
-20.183282 -6.991911 1.681846 21.426159 0.333483 1.492221 0.007373 -0.005006 -336987.000000 0 1 0
-20.899082 -7.459911 2.934446 22.383763 0.342852 1.439321 0.015073 -0.002903 308207.000000 0 1 0
-19.999882 -8.168911 3.868746 21.947519 0.387768 1.393598 0.010224 -0.002740 1211990.000000 0 1 0
-20.670782 -8.751211 4.968646 22.990267 0.400482 1.352958 0.012476 0.003402 -192762.000000 0 1 0
-19.738082 -9.588711 5.845746 22.709205 0.452221 1.310448 0.007716 0.004406 -220486.000000 0 1 0
-19.427782 -10.821511 5.217846 22.842279 0.508211 1.340332 0.010787 0.009177 480522.000000 0 1 0
-18.433682 -11.436211 6.047446 22.520194 0.555283 1.298925 0.003300 0.007828 -91208.400000 0 1 0
-17.885382 -12.763311 5.397546 22.625704 0.619807 1.329915 0.000774 0.008606 447227.000000 0 1 0
-18.776082 -13.885311 5.322946 23.951553 0.636761 1.346687 0.010976 0.016455 1164670.000000 0 1 0
-17.901782 -14.962911 4.875246 23.835489 0.696212 1.364805 -0.005251 0.018969 774860.000000 0 1 0
-18.637882 -16.325911 4.828246 25.243177 0.719370 1.378341 0.002214 0.024740 -765146.000000 0 0 1
-17.845182 -17.484811 4.637146 25.410082 0.775198 1.387276 -0.003416 0.014574 -75797.700000 0 0 1
-18.289382 -18.593311 5.374346 26.628862 0.793638 1.367576 0.001848 0.015651 -110060.000000 0 0 1
-17.361982 -19.802011 5.187746 26.841587 0.850960 1.376300 -0.004467 0.010849 -412491.000000 0 0 1
-17.322682 -20.260111 3.828746 26.929662 0.863398 1.428137 0.000498 0.009269 309408.000000 0 0 1
-16.623382 -21.526511 3.617046 27.437393 0.913220 1.438582 -0.003057 0.009414 -954858.000000 0 0 1
-15.128682 -21.479911 3.697246 26.531740 0.957178 1.430990 -0.007648 0.013762 -1829980.000000 0 0 1
-14.600582 -22.739011 3.699346 27.274985 0.999999 1.434746 -0.008267 0.014940 -1082740.000000 0 0 1
-13.287282 -22.594411 4.137646 26.536379 1.039189 1.414234 -0.007903 0.012322 -678012.000000 0 0 1
-12.547182 -23.928911 4.331346 27.363938 1.087857 1.411841 -0.000291 0.018654 -222252.000000 0 0 1
-12.565482 -24.783411 3.181146 27.968348 1.101555 1.456809 0.001745 0.015748 -15503.000000 0 0 1
-12.106982 -26.069661 3.462846 28.951642 1.136025 1.450901 -0.003437 0.013598 -289986.000000 0 0 1
17.435618 19.179889 -25.024354 36.028977 0.833000 2.338607 0.030039 -0.013429 -156854.000000 0 0 1
16.571218 19.531289 -26.062174 36.541941 0.867206 2.364867 0.025212 -0.015297 -407517.000000 0 0 1
17.192818 19.426989 -27.306784 37.665121 0.846333 2.381814 0.026126 -0.019900 -296828.000000 0 0 1
16.294518 19.674289 -28.531064 38.296352 0.879087 2.411342 0.025348 -0.016657 -277939.000000 0 0 1
16.057618 21.048089 -28.687754 39.036603 0.919089 2.396306 0.020576 -0.001181 282199.000000 0 0 1
15.219918 21.336589 -29.792764 39.680029 0.951183 2.420107 0.005570 0.001742 -28196.400000 0 0 1
14.952918 22.893589 -29.907564 40.523679 0.992211 2.400938 0.006346 0.004813 -35279.500000 0 0 1
14.065318 23.411289 -28.909304 39.770208 1.029795 2.384606 0.011116 0.008300 583625.000000 0 0 1
13.809018 24.815889 -29.211894 40.741282 1.063008 2.370299 0.011899 0.012754 -360592.000000 0 0 1
12.961618 25.543989 -28.194544 40.192427 1.101228 2.348281 0.012442 0.015061 1163010.000000 0 0 1
11.578418 25.070589 -28.188424 39.461138 1.138146 2.366468 0.011215 0.009718 1081800.000000 0 0 1
10.917618 25.767389 -27.179404 39.011187 1.170028 2.341594 0.004916 0.016314 535598.000000 0 0 1
9.346018 25.679789 -27.130424 38.507915 1.221753 2.352573 0.008728 0.018283 1087910.000000 0 0 1
8.684418 26.538889 -26.213944 38.300164 1.254545 2.324624 0.003575 0.028576 182769.000000 0 0 1
8.502418 27.865589 -26.709304 39.524284 1.274647 2.312804 0.002118 0.019530 -441929.000000 0 0 1
8.036018 28.888689 -25.669304 39.472105 1.299484 2.278795 -0.006315 0.027580 825344.000000 0 0 1
8.994618 29.092689 -24.570854 39.128181 1.270947 2.249723 -0.005204 0.022314 1001850.000000 0 0 1
8.422018 30.042789 -23.736954 39.203858 1.297478 2.221159 0.000357 0.018239 42431.700000 0 0 1
9.343818 30.401289 -22.519954 38.970420 1.272611 2.186916 0.000572 0.013439 -659001.000000 0 0 1
10.390918 31.178489 -22.938954 40.078235 1.249101 2.180170 -0.008744 0.003425 -558563.000000 0 0 1
11.083418 31.623189 -21.751354 39.949839 1.233690 2.146549 -0.006796 0.002580 -753575.000000 0 0 1
12.202118 32.585389 -22.009754 41.171938 1.212494 2.134809 -0.010473 0.009632 -1026930.000000 0 0 1
13.288318 31.880689 -22.550754 41.249172 1.175880 2.149209 -0.010354 0.013267 -41001.700000 0 0 1
14.289118 32.815989 -23.022254 42.556929 1.160123 2.142393 -0.004190 0.007877 217554.000000 0 0 1
15.532118 32.083689 -23.523654 42.707986 1.119939 2.154121 0.002169 0.010579 -420672.000000 0 0 1
16.330918 31.394589 -22.590854 41.984113 1.091133 2.138955 -0.009282 0.018544 -246602.000000 0 0 1
17.569618 31.213789 -23.231854 42.693221 1.058118 2.146181 0.007447 0.025642 -624064.000000 0 0 1
18.532118 30.248289 -22.567454 42.043886 1.021115 2.137388 0.005776 0.023736 -276645.000000 0 0 1
19.060118 30.878089 -21.371954 42.113001 1.017775 2.103066 0.019397 0.022650 -421875.000000 0 0 1
20.157518 30.127589 -20.993154 41.889255 0.981131 2.095733 0.017084 0.023540 -390055.000000 0 0 1
20.929818 30.587089 -19.731254 41.987494 0.970706 2.060010 0.026477 0.012415 -296861.000000 0 0 1
22.013018 31.425289 -19.930754 43.236058 0.959743 2.049890 0.032584 0.003140 -531686.000000 0 0 1
22.581518 31.794189 -18.731254 43.262631 0.953231 2.018577 0.031816 -0.001761 -108920.000000 0 0 1
23.799618 32.768689 -18.704254 44.610065 0.942642 2.003452 0.031500 0.002288 353981.000000 0 0 1
24.975718 32.140189 -19.134654 44.976807 0.910184 2.010237 0.024777 0.005899 -818556.000000 0 0 1
26.118818 32.915389 -18.871054 46.062264 0.900023 1.992906 0.014743 0.002768 149624.000000 0 0 1
27.374118 32.236489 -19.464854 46.555495 0.866787 2.002149 0.017033 -0.001798 81254.400000 0 0 1
27.738718 30.986289 -18.849154 45.660455 0.840643 1.996335 0.027031 -0.000129 239511.000000 0 0 1
29.046818 30.524889 -19.174554 46.294168 0.810205 1.997848 0.017408 -0.005066 293236.000000 0 0 1
29.439218 29.357489 -18.241554 45.401366 0.784008 1.984261 0.011313 -0.010981 -381827.000000 0 0 1
29.893118 29.853889 -17.011854 45.544005 0.784742 1.953603 0.010600 -0.002914 -20534.500000 0 0 1
29.888418 28.839989 -16.028654 44.519437 0.767548 1.939104 0.005985 -0.008180 -554406.000000 0 0 1
30.238218 29.296089 -14.570054 44.552184 0.769574 1.903959 0.008656 -0.004246 102848.000000 0 0 1
31.544218 29.806189 -14.375054 45.717489 0.757076 1.890655 0.002672 -0.000040 -6838.740000 0 0 1
31.779418 31.045689 -14.981154 46.884978 0.773720 1.896030 0.001487 -0.004351 399467.000000 0 0 1
33.297218 31.464989 -15.010254 48.208485 0.757114 1.887421 0.000133 -0.005893 991606.000000 0 0 1
33.979618 31.602689 -13.797754 48.412007 0.749171 1.859810 -0.003658 -0.003873 813062.000000 0 0 1
-34.274069 32.108489 -14.018954 49.012222 -0.752787 1.860877 -0.002554 -0.009907 1096190.000000 0 0 1
-33.585869 32.392189 -12.669054 48.350485 -0.767308 1.835917 -0.001059 -0.002254 -218621.000000 0 0 1
-34.149869 33.521889 -12.023254 49.340543 -0.776119 1.816954 0.001508 -0.010943 453957.000000 0 0 1
-33.271869 33.968689 -10.990054 48.802360 -0.795761 1.797940 -0.004666 -0.001737 177399.000000 0 0 1
-33.788069 -34.273620 -10.181254 49.193217 0.792532 1.779268 -0.000319 -0.001166 -164161.000000 0 0 1
-32.850269 -33.672620 -9.328554 47.958393 0.797759 1.766558 0.001391 -0.001267 -277322.000000 0 0 1
-32.614569 -34.412220 -8.111854 48.101073 0.812212 1.740248 -0.005403 -0.001517 94524.100000 0 0 1
-32.116469 -33.617720 -6.930754 47.006957 0.808232 1.718777 0.014945 0.007865 -115300.000000 0 0 1
-33.134769 -32.703920 -6.592854 47.020475 0.778854 1.711472 0.008316 0.001412 76069.200000 0 0 1
-32.681669 -31.586820 -5.770554 45.816132 0.768364 1.697082 0.013462 -0.001491 -479281.000000 0 0 1
-33.817369 -30.615920 -5.472754 45.944532 0.735753 1.690196 0.004988 0.000839 -417392.000000 0 0 1
-34.670669 -31.295620 -4.591254 46.931341 0.734280 1.668782 0.004492 0.004730 705826.000000 0 0 1
33.662718 -30.629320 -4.304354 45.715001 -0.738252 1.665092 -0.002598 0.011114 1120800.000000 0 0 1
33.559718 -29.713920 -3.028054 44.925949 -0.724692 1.638248 -0.007419 0.013504 -161354.000000 0 0 1
34.037618 -28.401820 -3.258054 44.450397 -0.695382 1.644159 -0.004135 0.005771 438551.000000 0 0 1
33.477618 -27.561420 -2.218854 43.420112 -0.688775 1.621921 -0.010549 0.006546 105774.000000 0 0 1
33.505818 -26.069720 -2.650654 42.535822 -0.661222 1.633153 0.001994 0.003346 246222.000000 0 0 1
32.640618 -25.801020 -3.764554 41.776482 -0.668895 1.661031 0.007016 -0.008681 758881.000000 0 0 1
32.759818 -24.415320 -4.031354 41.055638 -0.640475 1.669147 0.004701 -0.009071 -416535.000000 0 0 1
32.350318 -24.014420 -5.461554 40.657890 -0.638570 1.705533 0.003891 -0.015477 -727811.000000 0 0 1
33.344218 -24.310920 -6.390754 41.757628 -0.629984 1.724444 0.004703 -0.017184 -116669.000000 0 0 1
33.008218 -23.814220 -7.677254 41.419799 -0.624986 1.757227 -0.015153 -0.020789 -834997.000000 0 0 1
34.236418 -23.834720 -8.561354 42.585479 -0.608158 1.773215 -0.013989 -0.021170 -684433.000000 0 0 1
34.661618 -25.073820 -9.041954 43.725063 -0.626251 1.779090 -0.010045 -0.009421 435269.000000 0 0 1
-33.814269 -24.866620 -9.926354 43.131034 0.634084 1.803022 0.003934 -0.008170 454063.000000 0 0 1
-33.293669 -26.173520 -10.572954 43.649844 0.666233 1.815452 0.005356 -0.005111 -202279.000000 0 0 1
-32.621169 -27.060720 -9.725254 43.485674 0.692498 1.796347 0.014267 -0.006484 -57342.100000 0 0 1
-33.476169 -28.113220 -9.341354 44.701990 0.698541 1.781317 0.003072 -0.005692 50548.000000 0 0 1
-32.707769 -29.376720 -8.901954 44.855709 0.731796 1.770580 0.013520 -0.006763 -62063.500000 0 0 1
-32.043269 -30.058620 -9.956854 45.049203 0.753451 1.793658 0.012117 -0.003333 299889.000000 0 0 1
-31.204469 -31.061520 -9.419554 45.025159 0.783102 1.781560 0.007023 -0.001048 -63672.000000 0 0 1
-30.527869 -31.995520 -10.488854 45.449754 0.808867 1.803675 0.002244 -0.000627 60021.800000 0 0 1
-29.659969 -31.214220 -11.310454 44.519295 0.810925 1.827669 -0.008447 0.003455 405356.000000 0 0 1
-29.346469 -31.872820 -12.553854 45.107551 0.826642 1.852830 -0.009571 0.002459 -4949.600000 0 0 1
-29.508869 -31.030820 -13.785054 44.985696 0.810533 1.882239 -0.008138 0.003628 1425480.000000 0 0 1
-28.354969 -30.121820 -13.900554 43.641193 0.815604 1.894963 -0.019074 0.010305 1498570.000000 0 0 1
-28.715769 -29.224820 -14.935954 43.609268 0.794184 1.920368 -0.015445 0.009693 587840.000000 0 0 1
-27.529369 -28.265720 -15.267654 42.307427 0.798595 1.940001 -0.017835 0.008045 365190.000000 0 0 1
-26.478769 -28.900620 -15.953054 42.318684 0.829102 1.957324 -0.014196 0.009700 -561022.000000 0 0 1
-25.382669 -28.070320 -16.215554 41.172405 0.835637 1.975607 -0.009385 0.010887 -449882.000000 0 0 1
-24.248469 -28.948420 -16.771054 41.319094 0.873519 1.988750 -0.010222 0.012224 -852504.000000 0 0 1
-24.507969 -29.703220 -17.987254 42.502507 0.880940 2.007776 -0.013338 0.014660 -2505.280000 0 0 1
-24.900069 -28.973220 -19.158554 42.737701 0.860861 2.035639 -0.003608 0.012469 247992.000000 0 0 1
-23.735169 -28.195420 -19.850454 41.861444 0.871077 2.064845 0.008504 0.012754 315081.000000 0 0 1
-23.425069 -27.057820 -19.055854 40.546086 0.857234 2.060065 0.002019 0.005438 268341.000000 0 0 1
-22.067869 -26.689620 -19.274854 39.633908 0.879906 2.078672 0.003343 0.000216 341410.000000 0 0 1
-21.669669 -25.534220 -18.281554 38.154766 0.867085 2.070473 0.002216 0.001703 -306679.000000 0 0 1
-21.872869 -25.893520 -16.947954 37.896305 0.869373 2.034450 0.004198 0.006394 102765.000000 0 0 1
-21.379769 -24.923120 -16.089754 36.566879 0.861775 2.026405 0.002023 0.005862 -174935.000000 0 0 1
-21.937369 -24.989720 -14.664954 36.342745 0.850351 1.986155 -0.007949 0.014589 660091.000000 0 0 1
-23.245169 -24.413220 -14.498154 36.695227 0.809902 1.976969 -0.017665 0.023018 680470.000000 0 0 1
-23.592469 -24.234020 -13.122954 36.278151 0.798811 1.940921 -0.024713 0.026171 254070.000000 0 0 1
-25.105469 -24.287620 -12.780254 37.195537 0.768842 1.921540 -0.021232 0.029683 -570376.000000 0 0 1
-25.628369 -25.639220 -12.848854 38.461357 0.785610 1.911417 -0.016537 0.020359 533979.000000 0 0 1
-26.962569 -25.822920 -12.400454 39.339225 0.763811 1.891483 -0.018589 0.017155 525465.000000 0 0 1
-28.110469 -25.048020 -13.148954 39.881033 0.727852 1.906787 -0.015686 0.008028 -926285.000000 0 0 1
-28.223969 -23.690620 -12.740054 38.989061 0.698296 1.903669 -0.007992 0.015695 80455.900000 0 0 1
-28.791369 -23.363820 -11.501754 38.821403 0.681706 1.871585 -0.004913 0.012258 -916949.000000 0 0 1
-30.152169 -23.925120 -11.052154 40.046408 0.670752 1.850409 0.001744 0.004469 -442525.000000 0 0 1
-31.345269 -23.368220 -11.545654 40.766429 0.640621 1.857941 0.003337 0.000028 95956.200000 0 0 1
-31.585169 -23.380420 -12.929954 41.369683 0.637222 1.888669 -0.002834 0.001947 -1346440.000000 0 0 1
-33.036669 -23.150620 -13.354954 42.493853 0.611233 1.890494 -0.000445 -0.003475 -50876.700000 0 0 1
-33.817869 -24.332620 -13.134854 43.683510 0.623707 1.876204 0.000525 -0.001748 -108702.000000 0 0 1
34.406318 -24.100120 -13.297354 44.061663 -0.611032 1.877366 -0.007456 -0.002840 -235064.000000 0 0 1
33.545218 -25.364120 -13.059754 44.036092 -0.647405 1.871895 -0.009616 0.000746 -165268.000000 0 0 1
33.700718 -26.390920 -14.099654 45.066832 -0.664349 1.889000 -0.009522 0.003252 121938.000000 0 0 1
32.867618 -27.524420 -13.904354 45.068893 -0.697153 1.884426 -0.014193 0.001309 213103.000000 0 0 1
32.840318 -28.620420 -14.988154 46.067990 -0.716846 1.902177 -0.011131 0.002221 236242.000000 0 0 1
31.821818 -28.409020 -15.942154 45.539574 -0.728797 1.928445 -0.014561 0.004687 -45031.400000 0 0 1
31.692518 -29.410520 -16.897254 46.421025 -0.748069 1.943355 -0.016811 0.005748 -429699.000000 0 0 1
30.902118 -29.051720 -18.186454 46.148570 -0.754544 1.975868 -0.006832 0.006851 327815.000000 0 0 1
29.522118 -28.938720 -17.897954 45.048216 -0.775419 1.979376 -0.013165 0.005167 -265655.000000 0 0 1
28.659818 -28.861320 -18.986054 44.886872 -0.788901 2.007523 0.003678 0.010704 -709025.000000 0 0 1
27.224718 -28.804520 -18.508654 43.743067 -0.813587 2.007685 0.006462 0.005991 -714192.000000 0 0 1
26.902818 -27.671020 -17.679154 42.449964 -0.799474 2.000356 0.007804 0.003696 178225.000000 0 0 1
25.534918 -27.772220 -17.297654 41.503459 -0.827344 2.000692 0.009973 0.001485 194576.000000 0 0 1
25.125418 -26.821220 -16.126454 40.133864 -0.818032 1.984296 0.011975 0.000443 -326776.000000 0 0 1
25.104518 -25.434120 -16.433354 39.334291 -0.791920 2.001804 0.024139 -0.004157 26843.800000 0 0 1
25.014718 -24.666720 -15.279654 38.309934 -0.778394 1.981051 0.008326 0.001391 -322828.000000 0 0 1
24.926118 -23.144420 -15.569754 37.408459 -0.748351 2.000069 -0.001181 -0.005634 568187.000000 0 0 1
23.715518 -22.689220 -16.198254 36.600682 -0.763286 2.029256 0.006113 -0.001433 462483.000000 0 0 1
23.564718 -21.305820 -16.062854 35.598444 -0.735098 2.038932 -0.003856 -0.001730 -944883.000000 0 0 1
22.215518 -20.817420 -16.520754 34.638556 -0.752921 2.067974 0.001360 -0.000086 -336714.000000 0 0 1
21.133118 -21.269920 -15.666854 33.829994 -0.788624 2.052292 -0.008400 -0.008146 226746.000000 0 0 1
20.141618 -20.297120 -15.534554 32.541977 -0.789244 2.068455 0.002735 -0.011453 -471711.000000 0 0 1
20.389018 -19.098620 -14.614454 31.528584 -0.752731 2.052772 0.010643 -0.006850 -635172.000000 0 0 1
20.219218 -19.371520 -13.216654 30.963729 -0.763990 2.011795 0.002200 -0.012191 241139.000000 0 0 1
20.278918 -18.103220 -12.554654 29.942953 -0.728774 2.003455 -0.007337 -0.014609 -894591.000000 0 0 1
19.247918 -17.995020 -11.468854 28.737392 -0.751770 1.981322 -0.008273 -0.015456 -913091.000000 0 0 1
19.574018 -18.752020 -10.325654 29.006889 -0.763954 1.934751 -0.018007 -0.007504 -33724.200000 0 0 1
18.465718 -18.804320 -9.483754 28.009406 -0.794483 1.916216 -0.011150 -0.010891 -258512.000000 0 0 1
18.821518 -19.570920 -8.177154 28.357297 -0.804915 1.863312 -0.013486 -0.008222 195963.000000 0 0 1
19.832218 -18.922720 -7.413354 28.396198 -0.761935 1.834925 -0.020970 -0.008635 162245.000000 0 0 1
20.260818 -19.612220 -6.264854 28.885781 -0.769133 1.789417 -0.025508 -0.000342 -433705.000000 0 0 1
21.544818 -18.960020 -5.751654 29.270174 -0.721670 1.768586 -0.033280 0.004042 -454073.000000 0 0 1
22.578918 -18.974220 -6.720354 30.248830 -0.698866 1.794835 -0.039853 -0.000210 211116.000000 0 0 1
23.493418 -17.920220 -6.399654 30.232938 -0.651628 1.784088 -0.034392 -0.002301 -562117.000000 0 0 1
24.475518 -17.685420 -7.533754 31.122059 -0.625717 1.815296 -0.013687 -0.009188 -57758.600000 0 0 1
25.518918 -18.678620 -7.562954 32.516216 -0.631850 1.805536 -0.000774 -0.016787 555763.000000 0 0 1
25.257418 -19.776220 -8.427454 33.167123 -0.664280 1.827704 0.001954 -0.020378 -409777.000000 0 0 1
26.021118 -21.102720 -8.049554 34.456040 -0.681403 1.806593 0.017494 -0.025226 549956.000000 0 0 1
27.365218 -21.105020 -8.510454 35.590798 -0.656954 1.812255 0.012614 -0.013546 -191392.000000 0 0 1
27.933718 -22.294620 -8.178854 36.663829 -0.673597 1.795766 0.008205 -0.020141 -266363.000000 0 0 1
-28.673772 30.568389 4.118846 42.113851 -0.817368 1.472837 0.014656 -0.003692 79256.100000 0 0 1
-27.882872 31.378189 3.293346 42.105717 -0.844312 1.492500 0.010343 -0.000331 -206593.000000 0 0 1
-26.778562 31.883389 4.020946 41.830728 -0.872201 1.474523 0.009994 0.001683 210330.000000 0 0 1
-26.126212 33.130989 3.331046 42.324192 -0.903062 1.492012 0.008980 -0.000939 191516.000000 0 0 1
-25.324202 32.743089 2.169546 41.450356 -0.912473 1.518432 0.011706 -0.002629 726309.000000 0 0 1
-24.644682 33.894989 1.601046 41.937977 -0.942120 1.532611 0.008578 -0.008151 1026820.000000 0 0 1
-23.376882 34.515089 2.360346 41.753337 -0.975472 1.514235 0.003717 -0.016501 837140.000000 0 0 1
-22.200082 33.940789 1.819546 40.597186 -0.991556 1.525962 0.006206 -0.013631 -641984.000000 0 0 1
-21.037282 34.413389 2.444646 40.408227 -1.022101 1.510261 -0.003606 -0.013068 11973.900000 0 0 1
-19.752282 33.784989 1.864346 39.179764 -1.041743 1.523194 -0.003187 -0.011343 11175.000000 0 0 1
-19.379582 34.423389 0.666646 39.509268 -1.058044 1.553922 -0.011681 -0.012449 -247346.000000 0 0 1
-18.131782 33.996889 0.191446 38.530333 -1.080837 1.565828 -0.007757 -0.009689 -412469.000000 0 0 1
-17.741382 -34.602620 -1.028854 38.899312 1.097026 1.597249 -0.005565 -0.009198 -249475.000000 0 0 1
-17.745882 -33.161820 -0.875754 37.621664 1.079441 1.594076 -0.003822 -0.007693 284500.000000 0 0 1
-16.916182 -32.653320 0.150046 36.775250 1.092810 1.566716 -0.005589 -0.005022 -401428.000000 0 0 1
-16.962782 -31.085620 0.179846 35.413050 1.071276 1.565718 -0.011238 0.005359 -218756.000000 0 0 1
-16.160282 -30.437420 -0.788954 34.470476 1.082708 1.593686 -0.013162 0.013178 111580.000000 0 0 1
-16.445282 -29.046420 -0.962254 33.392630 1.055622 1.599617 -0.024251 0.014044 -359030.000000 0 0 1
-15.486182 -28.375420 -1.922054 32.383338 1.071214 1.630184 -0.023237 0.021615 -555635.000000 0 0 1
-15.817282 -28.696320 -3.218654 32.924534 1.067036 1.668711 -0.022836 0.015398 -326664.000000 0 0 1
-14.933882 -28.156220 -4.177454 32.144124 1.083130 1.701125 -0.018186 0.016420 -637625.000000 0 0 1
-15.359882 -28.233420 -5.645654 32.633195 1.072547 1.744675 -0.003819 0.009945 -720633.000000 0 0 1
-16.429182 -27.327720 -5.824154 32.413625 1.029501 1.751460 0.000349 0.016891 -467642.000000 0 0 1
-16.983682 -27.310420 -7.107154 32.936547 1.014447 1.788290 0.007103 0.015603 312980.000000 0 0 1
-17.760282 -25.973920 -7.358154 32.314309 0.971044 1.800517 -0.000080 0.016135 192352.000000 0 0 1
-16.952782 -24.816920 -7.172054 30.898458 0.971493 1.805050 0.022885 0.013643 204683.000000 0 0 1
-17.597582 -23.533520 -7.311154 30.281255 0.928726 1.814647 0.026004 0.005568 -68423.500000 0 0 1
-16.636282 -22.464220 -6.815754 28.772583 0.933359 1.809953 0.024245 0.002328 223271.000000 0 0 1
-15.450082 -22.369920 -7.575254 28.222382 0.966364 1.842542 0.031945 0.007440 -368527.000000 0 0 1
-14.532482 -21.478120 -6.997754 26.860216 0.975936 1.834362 0.034237 -0.004679 193998.000000 0 0 1
-13.246482 -21.139120 -7.768754 26.128246 1.011023 1.872693 0.028530 -0.008337 -190745.000000 0 0 1
-13.470682 -20.473920 -8.943054 26.088674 0.988857 1.920686 0.026686 0.002690 -27547.100000 0 0 1
-12.393082 -20.508920 -9.886754 25.922040 1.027237 1.962110 0.021239 0.005655 471768.000000 0 0 1
-12.716382 -19.598720 -11.087754 25.860288 0.995239 2.013912 0.018858 0.003509 235187.000000 0 0 1
-13.886382 -19.955020 -11.820354 27.032484 0.962838 2.023351 0.028812 -0.002304 -92838.200000 0 0 1
-14.034182 -19.210120 -12.978154 27.100174 0.939852 2.070193 0.020581 0.007607 -147262.000000 0 0 1
-15.110482 -19.783120 -13.935354 28.528803 0.918517 2.081127 0.020218 0.012838 -435553.000000 0 0 1
-16.397382 -19.648220 -13.445054 28.908410 0.875342 2.054534 0.025596 0.008418 -321343.000000 0 0 1
-17.376282 -19.815020 -14.497754 30.079147 0.850877 2.073717 0.018024 0.014852 1162960.000000 0 0 1
-18.865982 -19.643520 -14.059854 30.650818 0.805586 2.047340 0.016044 0.011245 495458.000000 0 0 1
-19.776982 -20.318220 -14.879954 32.021432 0.798896 2.054078 0.010708 0.003940 -408585.000000 0 0 1
-21.116382 -20.065720 -14.498754 32.538417 0.759891 2.032628 0.002554 0.009323 233556.000000 0 0 1
-22.049282 -21.015120 -15.314154 34.092952 0.761388 2.036653 0.000009 0.006639 -156810.000000 0 0 1
-22.076982 -20.647620 -16.699354 34.533835 0.751955 2.075519 -0.005541 0.001895 171147.000000 0 0 1
-22.769282 -21.606320 -17.500754 35.938136 0.759197 2.079412 -0.005924 0.000128 -202329.000000 0 0 1
-23.382182 -20.795320 -18.652254 36.429086 0.726909 2.108326 -0.015468 0.001376 74541.600000 0 0 1
-22.373582 -20.444420 -19.587454 36.086283 0.740374 2.144558 -0.006259 -0.002429 325953.000000 0 0 1
-22.882082 -20.170120 -20.868254 36.958185 0.722489 2.170799 -0.006882 -0.005660 256025.000000 0 0 1
-21.819382 -19.367520 -21.698354 36.359384 0.725938 2.210272 -0.009435 -0.005058 321854.000000 0 0 1
-20.618882 -20.033020 -21.960054 36.176016 0.770987 2.223119 -0.003415 -0.010532 -89199.900000 0 0 1
-19.741082 -19.243220 -22.785454 35.765748 0.772628 2.261493 -0.002472 -0.010389 932773.000000 0 0 1
-18.282882 -19.768920 -22.937754 35.372511 0.824431 2.276360 0.002492 -0.012567 177907.000000 0 0 1
-18.121382 -21.040020 -23.545854 36.407062 0.859789 2.274097 -0.003557 -0.013657 912208.000000 0 0 1
-16.712482 -21.304720 -23.742754 36.012727 0.905609 2.290668 -0.002731 -0.012268 978238.000000 0 0 1
-16.346682 -22.820620 -24.100454 36.997656 0.949206 2.280231 -0.002347 -0.010200 -343909.000000 0 0 1
-16.689182 -22.972520 -25.442654 38.126029 0.942516 2.301415 -0.002170 -0.009702 289158.000000 0 0 1
-16.775582 -24.353320 -25.800114 39.244748 0.967598 2.288180 0.000540 -0.013053 -187298.000000 0 0 1
-16.984382 -24.633920 -27.357644 40.543063 0.967172 2.311463 -0.005581 -0.011196 448454.000000 0 0 1
-15.765082 -24.285320 -28.035274 40.302496 0.995011 2.340081 -0.009496 -0.005940 820884.000000 0 0 1
-16.001882 -24.102620 -29.419644 41.261507 0.984707 2.364570 -0.012234 -0.008145 -366855.000000 0 0 1
-14.722982 -23.946420 -30.243144 41.289768 1.019544 2.392726 -0.014323 -0.001781 38196.700000 0 0 1
-13.942282 -25.118120 -30.281604 41.740660 1.064070 2.382514 -0.013293 -0.003915 404670.000000 0 0 1
-12.634082 -25.024920 -30.825884 41.666555 1.103268 2.403604 -0.002829 -0.001058 347271.000000 0 0 1
-11.760082 -26.268720 -30.692524 42.075839 1.149870 2.388324 0.011244 0.001381 -691348.000000 0 0 1
-12.026882 -27.342120 -31.593564 43.478623 1.156401 2.384223 0.014936 0.007880 311648.000000 0 0 1
-11.197882 -28.458420 -31.311504 43.768533 1.195921 2.367976 0.021246 0.002985 802385.000000 0 0 1
-9.725782 -28.447520 -31.854064 43.801069 1.241369 2.385094 0.035622 -0.005306 473426.000000 0 0 1
-8.930082 -27.560420 -31.116814 42.515635 1.257453 2.391889 0.031099 -0.003323 -244408.000000 0 0 1
-7.725782 -27.204120 -31.768244 42.532025 1.294089 2.414222 0.032794 -0.003547 -142757.000000 0 0 1
-7.070182 -25.952720 -31.196284 41.191495 1.304825 2.430038 0.022881 0.000777 -380983.000000 0 0 1
-7.727482 -24.712320 -31.322234 40.638591 1.267732 2.450815 0.028148 0.002333 129125.000000 0 0 1
-8.528582 -24.355420 -30.193614 39.718730 1.233968 2.434395 0.024911 0.007000 172208.000000 0 0 1
-9.037682 -22.850020 -30.245034 38.968772 1.194156 2.459310 0.030691 0.001348 150317.000000 0 0 1
-9.974282 -22.599620 -31.283504 39.860842 1.155161 2.473199 0.027829 -0.000580 21592.800000 0 0 1
-10.387882 -21.263820 -31.080934 39.065107 1.116372 2.490825 0.020345 -0.001146 -59438.900000 0 0 1
-11.124682 -20.700520 -32.290264 39.936590 1.077670 2.512460 0.015969 0.002733 -64132.600000 0 0 1
-11.482882 -19.332520 -32.199964 39.273917 1.034825 2.532001 0.018681 0.004248 44039.500000 0 0 1
-11.933782 -18.894920 -33.449694 40.228288 1.007474 2.552593 0.011032 0.005237 -48747.000000 0 0 1
-12.805082 -17.562520 -33.432354 39.876491 0.940797 2.565133 0.026734 0.009644 -82386.200000 0 0 1
-12.200482 -16.325220 -33.456964 39.175668 0.929000 2.594468 0.023309 0.012615 177218.000000 0 0 1
-11.283482 -16.053820 -32.335774 37.823860 0.958158 2.596162 0.025886 0.012772 768285.000000 0 0 1
-10.772382 -14.568820 -32.414114 37.134479 0.934105 2.631880 0.019486 0.014641 7096.460000 0 0 1
-9.889882 -14.227120 -33.481564 37.699282 0.963338 2.664039 0.020851 0.012103 237738.000000 0 0 1
-10.461982 -14.132520 34.551375 38.768269 0.933547 0.470750 0.019522 0.009369 -208992.000000 0 0 1
-10.735882 -12.696320 34.063590 37.904932 0.868868 0.454095 0.014847 0.008139 -250876.000000 0 0 1
-11.839882 -12.045720 34.621127 38.521482 0.794016 0.453889 -0.002426 0.017045 -332905.000000 0 0 1
-12.616882 -11.269620 33.709016 37.715883 0.729055 0.465133 0.003748 -0.001954 330183.000000 0 0 1
-13.911282 -10.777020 34.349137 38.594444 0.659120 0.473447 0.005997 -0.002549 -241465.000000 0 0 1
-13.600482 -9.757520 -34.132284 38.015722 0.622335 2.685650 0.006095 0.001200 301108.000000 0 0 1
-14.634482 -9.379320 -33.225124 37.497314 0.569955 2.659587 0.001299 0.001931 444021.000000 0 0 1
-13.963182 -8.437320 -32.200484 36.097507 0.543542 2.672639 0.008647 -0.003305 122910.000000 0 0 1
-13.613682 -7.126120 -32.627824 36.065064 0.482233 2.701456 0.000619 -0.006608 143994.000000 0 0 1
-14.666782 -6.189520 -32.854784 36.508375 0.399335 2.690393 -0.005577 -0.011885 58527.100000 0 0 1
-15.029482 -5.304020 -31.662284 35.447400 0.339263 2.675250 -0.009881 -0.010522 5831.840000 0 0 1
-15.532182 -6.125320 -30.596744 34.855831 0.375638 2.642064 -0.011373 -0.009770 61042.800000 0 0 1
-16.033882 -5.310920 -29.517674 34.008592 0.319857 2.621851 -0.001825 -0.008204 -412654.000000 0 0 1
-15.001782 -4.686620 -28.609394 32.642232 0.302798 2.639242 -0.004561 -0.000664 -413824.000000 0 0 1
-14.511582 -3.481320 -29.134044 32.733746 0.235450 2.668209 -0.006813 -0.005731 1073830.000000 0 0 1
-13.197482 -3.140320 -28.581704 31.637777 0.233604 2.698440 -0.002688 -0.005005 1319810.000000 0 0 1
-12.710282 -1.828320 -29.284654 31.976319 0.142866 2.728349 -0.006622 0.002744 -236436.000000 0 0 1
-12.604282 -2.026320 -30.690794 33.240017 0.159401 2.747404 -0.012664 0.003483 186111.000000 0 0 1
-12.772982 -0.789320 -31.339894 33.852046 0.061718 2.753917 -0.006411 0.001278 -59142.700000 0 0 1
-12.921382 -0.890320 -32.897104 35.354974 0.068794 2.766518 -0.013959 -0.003494 -919590.000000 0 0 1
-14.162682 -1.327320 -33.323234 36.232323 0.093447 2.738138 -0.014265 -0.005336 -502781.000000 0 0 1
-14.128682 -1.546320 34.674286 37.474216 0.109012 0.389013 -0.020563 -0.001647 -778014.000000 0 0 1
-15.498682 -1.787320 34.085301 37.486149 0.114814 0.429252 -0.017345 -0.001957 -805237.000000 0 0 1
-15.353382 -1.920320 32.697443 36.173702 0.124429 0.441993 -0.014048 -0.008768 528539.000000 0 0 1
-16.572382 -2.097320 31.972583 36.073379 0.125886 0.481458 -0.007016 -0.002968 376876.000000 0 0 1
-16.371882 -2.003320 30.453553 34.633375 0.121758 0.496380 -0.007696 -0.002801 29493.600000 0 0 1
-16.044882 -0.676320 29.977303 34.007857 0.042127 0.491806 -0.013622 0.001806 129889.000000 0 0 1
-16.159582 -0.596320 28.540303 32.802996 0.036885 0.515489 -0.014993 -0.001209 -339166.000000 0 0 1
-15.761382 0.846680 28.094023 32.224403 -0.053667 0.511881 -0.010462 -0.001611 17078.600000 0 0 1
-16.535482 1.970680 28.547673 33.049590 -0.118619 0.528066 -0.010446 -0.001297 127110.000000 0 0 1
-17.890682 2.018680 28.148823 33.414186 -0.112359 0.569035 -0.006370 -0.004636 6990.800000 0 0 1
-18.117782 2.699680 26.818293 32.477117 -0.147919 0.599249 -0.000049 -0.013424 -719479.000000 0 0 1
-17.887582 4.098680 26.805753 32.485584 -0.225247 0.600314 -0.001024 -0.010229 86333.500000 0 0 1
-18.031882 4.636680 25.513313 31.584438 -0.251685 0.630418 0.002753 -0.006228 -895079.000000 0 0 1
-17.854482 6.178680 25.561953 31.786350 -0.333158 0.636501 0.003066 -0.007472 837982.000000 0 0 1
-16.524582 6.703680 25.758413 31.328852 -0.385393 0.605540 -0.002472 -0.004934 1027540.000000 0 0 1
-15.796982 6.657680 24.504843 29.905796 -0.398862 0.610431 0.002577 -0.005045 592345.000000 0 0 1
-14.652782 7.722680 24.297863 29.406291 -0.485049 0.598323 0.000780 0.002974 1189300.000000 0 0 1
-13.472982 7.534680 25.097983 29.465257 -0.509912 0.551418 -0.003354 -0.003492 535985.000000 0 0 1
-12.432282 8.269680 24.478453 28.673052 -0.586971 0.547729 0.003951 0.004741 596191.000000 0 0 1
-10.974882 8.032680 24.979923 28.442372 -0.631826 0.498576 0.005581 0.010386 542202.000000 0 0 1
-9.969982 8.813680 24.349043 27.748106 -0.723917 0.500166 -0.003894 0.010851 -111914.000000 0 0 1
-8.833282 8.859680 25.165893 28.104145 -0.786890 0.461352 -0.002523 0.000123 -569418.000000 0 0 1
-8.639582 10.240680 25.823503 29.092391 -0.869999 0.478606 0.000269 -0.012778 -452114.000000 0 0 1
-9.703582 10.558680 26.711413 30.317401 -0.827575 0.492700 -0.004211 -0.009998 123532.000000 0 0 1
-9.707382 11.846680 27.323993 31.323756 -0.884327 0.510891 0.003974 -0.013554 -677780.000000 0 0 1
-10.442982 12.967680 26.509873 31.304791 -0.892827 0.560798 -0.003809 -0.014745 756530.000000 0 0 1
-11.849982 12.822680 26.302933 31.570357 -0.824802 0.586012 -0.000039 -0.012430 445712.000000 0 0 1
-12.052582 11.844680 25.303353 30.427304 -0.776699 0.588813 -0.003594 -0.008451 -1058940.000000 0 0 1
-13.546782 11.537680 25.094823 30.763347 -0.705475 0.616793 0.000535 -0.006428 -80105.900000 0 0 1
-14.232582 12.696680 24.651893 31.168700 -0.728425 0.658488 0.000386 -0.004850 -294901.000000 0 0 1
-15.505782 12.572680 24.078653 31.277517 -0.681315 0.692207 0.008395 0.001660 -120212.000000 0 0 1
-15.541782 12.006680 22.637653 29.969496 -0.657773 0.714598 0.004827 0.007982 -350334.000000 0 0 1
-15.577982 10.576680 22.593153 29.410716 -0.596459 0.694780 0.005930 0.006112 49054.100000 0 0 1
-15.257682 10.190680 21.240853 28.068143 -0.588859 0.712454 0.004546 0.006964 -140820.000000 0 0 1
-15.617682 8.759680 20.911153 27.530352 -0.511160 0.708149 0.001568 0.000100 -842368.000000 0 0 1
-16.993982 8.651680 20.956853 28.334373 -0.470903 0.738281 0.014688 0.004761 -1146020.000000 0 0 1
-17.431882 7.320680 20.856353 28.150494 -0.397593 0.736405 0.009738 0.004490 -356912.000000 0 0 1
-18.928782 7.212680 21.141353 29.279316 -0.364058 0.764024 0.018044 -0.002510 -274568.000000 0 0 1
-19.343782 7.587680 22.463953 30.600391 -0.373811 0.746446 0.007954 -0.001985 110147.000000 0 0 1
-20.745982 7.747680 22.561053 31.613659 -0.357415 0.776103 0.007350 -0.000449 108216.000000 0 0 1
-21.116882 8.310680 24.031953 33.053364 -0.374939 0.756759 0.008658 -0.004260 -713689.000000 0 0 1
-21.013782 9.712680 24.230753 33.511857 -0.432957 0.762589 0.009308 -0.004981 348429.000000 0 0 1
-19.755482 10.366680 24.063853 32.814877 -0.483251 0.747602 0.011500 0.000991 825888.000000 0 0 1
-18.621882 9.906680 25.060603 32.755925 -0.488912 0.699645 0.001481 -0.009425 -243937.000000 0 0 1
-18.943582 10.128680 26.420443 34.051274 -0.491002 0.682653 -0.001344 -0.001901 -107871.000000 0 0 1
-18.087582 9.519680 27.354923 34.147866 -0.484474 0.641711 -0.003513 -0.000618 -133638.000000 0 0 1
-29.675632 -14.489211 21.050753 39.162668 0.454206 1.003302 -0.020944 0.008995 -29368.500000 0 0 1
-29.146102 -15.778411 21.270353 39.381232 0.496182 1.000224 -0.018070 0.008595 -58525.000000 0 0 1
-29.872382 -16.803111 20.608853 39.992856 0.512387 1.029423 -0.023003 0.009809 -58863.600000 0 0 1
-29.648272 -17.031211 19.079553 39.154968 0.521415 1.061821 -0.017625 0.000830 -74164.700000 0 0 1
-30.224852 -16.035911 18.234553 38.771008 0.487791 1.081150 -0.019789 0.001423 -105310.000000 0 0 1
-29.505672 -15.844011 17.046953 37.579462 0.492794 1.099969 -0.003770 -0.002322 -1135930.000000 0 0 1
-29.908532 -14.479511 16.367653 37.041552 0.450868 1.113111 -0.008680 -0.005104 632245.000000 0 0 1
-31.218342 -14.415111 15.763153 37.826674 0.432583 1.140962 0.000684 -0.002091 1568900.000000 0 0 1
-32.362712 -14.390511 16.638053 39.131276 0.418407 1.131629 -0.001912 -0.002562 65120.900000 0 0 1
-32.530792 -13.135711 17.492353 39.201808 0.383772 1.108267 -0.002810 -0.003999 -86486.100000 0 0 1
-33.816222 -13.140111 18.130753 40.557657 0.370618 1.107347 0.002747 -0.003355 766605.000000 0 0 1
-34.119340 -11.929511 18.856653 40.767830 0.336355 1.089941 0.003735 -0.001259 304137.000000 0 0 1
34.294715 -12.044711 19.845053 41.412904 -0.337754 1.071054 0.007131 -0.001090 13364.400000 0 0 1
34.697343 -12.646211 21.057953 42.511994 -0.349509 1.052568 0.005128 -0.000345 -88764.800000 0 0 1
34.077624 -12.102411 22.179453 42.422646 -0.341249 1.020639 0.004765 -0.000189 -1469600.000000 0 0 1
-34.735687 -12.458511 23.472053 43.734651 0.344374 1.004284 -0.000415 -0.001322 -6293.840000 0 0 1
-33.491992 -11.812811 23.518153 42.595300 0.339083 0.985879 -0.002615 0.001145 -512648.000000 0 0 1
-32.482892 -12.435511 22.779153 41.577278 0.365620 0.990974 -0.009027 -0.000297 -1541760.000000 0 0 1
-31.169132 -11.638111 22.748753 40.304667 0.357355 0.971066 -0.011948 0.002327 -240092.000000 0 0 1
-31.225182 -10.449911 21.992853 39.596694 0.322947 0.981927 -0.009633 0.001100 242336.000000 0 0 1
-29.973172 -9.785011 22.036453 38.467424 0.315551 0.960805 -0.013275 -0.000084 -33662.800000 0 0 1
-30.062012 -8.451511 21.325053 37.814157 0.274062 0.971643 -0.009147 0.005699 37592.200000 0 0 1
-30.208122 -8.555311 19.895753 37.169409 0.275985 1.005966 -0.009433 0.009376 794768.000000 0 0 1
-31.574332 -8.687911 19.481153 38.104246 0.268513 1.034147 -0.008549 0.003157 323486.000000 0 0 1
-31.851802 -8.625811 17.972053 37.575745 0.264467 1.072091 -0.000456 0.004315 357809.000000 0 0 1
-33.245742 -8.751211 17.674753 38.655658 0.257389 1.095912 0.007625 0.002619 710550.000000 0 0 1
-33.479692 -8.873011 16.246853 38.256768 0.259071 1.132189 0.012080 -0.001805 -431659.000000 0 0 1
34.630968 -8.937111 15.916353 39.147237 -0.252557 1.152092 0.011280 -0.000020 -358739.000000 0 0 1
33.930691 -10.087711 16.402853 39.014193 -0.288981 1.136874 0.009313 -0.002874 1255000.000000 0 0 1
32.527306 -9.780311 16.164753 37.616211 -0.292081 1.126604 0.011086 0.001268 1460160.000000 0 0 1
31.548136 -11.001311 16.292053 37.171827 -0.335530 1.117101 0.009377 0.001234 117339.000000 0 0 1
31.424216 -11.534911 17.579153 37.809551 -0.351801 1.087230 -0.000328 -0.000512 -22223.300000 0 0 1
30.322266 -12.393711 17.744853 37.254848 -0.388012 1.074343 0.001116 -0.000114 35653.400000 0 0 1
30.028616 -12.867011 19.184253 37.885529 -0.404824 1.039822 0.003299 0.002622 234365.000000 0 0 1
30.861996 -13.983011 19.456353 39.070923 -0.425414 1.049534 0.009396 0.006382 35574.700000 0 0 1
30.955586 -14.050311 20.847653 39.878367 -0.426081 1.020686 -0.000127 0.007136 408062.000000 0 0 1
31.767536 -15.297811 21.446953 41.269494 -0.448783 1.024319 -0.004661 0.009573 529779.000000 0 0 1
31.569996 -15.415911 22.856653 41.913501 -0.454251 0.994015 -0.002022 0.005427 -25388.600000 0 0 1
32.175496 -16.579911 23.393853 43.097893 -0.475810 0.997020 -0.001643 0.008425 154147.000000 0 0 1
32.537246 -16.460011 24.878593 44.142369 -0.468342 0.972060 0.014791 0.004660 -66207.700000 0 0 1
33.534379 -15.503411 25.125013 44.678592 -0.433047 0.973571 0.006724 0.002958 -35819.700000 0 0 1
33.976439 -15.590011 26.486123 45.814425 -0.430187 0.954377 0.002666 0.002648 -972227.000000 0 0 1
-34.489570 -14.658511 26.744503 46.039883 0.401882 0.950964 -0.001202 -0.000469 -2195350.000000 0 0 1
-33.313992 -14.986511 26.139843 44.918915 0.422734 0.949692 -0.010942 -0.001682 -1137800.000000 0 0 1
-32.373052 -13.987011 26.491923 44.107516 0.407833 0.926518 -0.012062 -0.005462 241576.000000 0 0 1
-30.919472 -14.458311 26.193123 43.024832 0.437403 0.916261 -0.012293 -0.000768 -178305.000000 0 0 1
-30.473202 -14.410611 24.804563 41.851500 0.441729 0.936414 -0.016292 0.004542 -472101.000000 0 0 1
-29.168742 -14.892811 24.713383 41.028802 0.472071 0.924364 -0.009255 -0.001490 -532303.000000 0 0 1
-28.869262 -16.414911 24.907833 41.512453 0.517007 0.927284 -0.008457 -0.008279 -1023120.000000 0 0 1
-28.856292 -16.755311 26.270473 42.468386 0.526068 0.903851 -0.000707 -0.008174 132826.000000 0 0 1
-28.757702 -18.156611 26.558223 43.150981 0.563163 0.907812 -0.001835 -0.016475 -382078.000000 0 0 1
-28.411342 -18.387011 28.004033 43.926215 0.574384 0.879516 -0.007194 -0.008533 478278.000000 0 0 1
-27.082882 -18.024911 28.394933 43.181618 0.587227 0.853208 -0.000513 -0.005507 554145.000000 0 0 1
-26.795772 -18.539211 29.658203 44.060467 0.605249 0.832370 0.004888 -0.006959 310691.000000 0 0 1
-25.648342 -17.850411 30.471463 43.646130 0.608014 0.797989 -0.004090 -0.004657 51623.000000 0 0 1
-25.925532 -16.467011 30.786233 43.486639 0.565876 0.784209 0.000827 -0.009425 -93361.600000 0 0 1
-24.856882 -15.601711 30.499923 42.326390 0.560511 0.766145 0.004339 -0.006710 -638570.000000 0 0 1
-24.812482 -14.204611 31.155413 42.285813 0.519937 0.742498 0.009616 -0.007657 -434280.000000 0 0 1
-24.319982 -14.220011 32.462803 42.982599 0.529097 0.714754 0.008691 -0.008715 191907.000000 0 0 1
-24.258482 -12.896911 32.932993 42.888067 0.488642 0.695267 0.013700 -0.008514 -668572.000000 0 0 1
-23.641282 -12.720111 34.349494 43.595862 0.493620 0.663393 0.010960 -0.004241 192750.000000 0 0 1
-22.222182 -12.828511 34.387134 42.905373 0.523549 0.641056 0.012294 -0.002738 534578.000000 0 0 1
-21.754182 -14.174011 34.414366 43.110273 0.577466 0.646351 0.006102 -0.001267 -499041.000000 0 0 1
-21.782682 -14.923411 -33.612604 42.743427 0.600659 2.475724 -0.002165 0.008686 -730072.000000 0 0 1
-20.782282 -14.384311 -32.764624 41.380336 0.605433 2.484534 0.000759 0.007720 55293.600000 0 0 1
-20.557882 -15.324511 -31.707974 40.778214 0.640571 2.461591 0.000493 0.015222 88710.100000 0 0 1
-19.174782 -15.320611 -31.008344 39.546312 0.674130 2.472044 -0.000560 0.016808 182081.000000 0 0 1
-18.885182 -14.307011 -30.044284 38.262248 0.648334 2.473848 -0.009876 0.019412 -359626.000000 0 0 1
-19.545282 -14.515511 -28.880304 37.772875 0.638787 2.441182 -0.015242 0.019390 -509931.000000 0 0 1
-19.276482 -13.403911 -27.811164 36.396544 0.607599 2.440465 -0.016395 0.010413 266125.000000 0 0 1
-17.990282 -13.461811 -27.205584 35.284761 0.642401 2.451252 -0.012828 0.013455 241203.000000 0 0 1
-17.793382 -12.243811 -26.459264 34.155644 0.602702 2.456985 -0.025088 0.012381 322529.000000 0 0 1
-16.446882 -12.292511 -25.701884 32.896696 0.641839 2.467527 -0.017679 0.011986 -580206.000000 0 0 1
-16.576782 -13.001611 -24.504354 32.315553 0.665111 2.431473 -0.010430 0.015018 467939.000000 0 0 1
-15.438982 -13.111111 -23.635454 31.127128 0.704042 2.433064 -0.010718 0.007804 696416.000000 0 0 1
-14.149482 -13.802811 -24.164754 31.219557 0.772997 2.455972 -0.008482 0.006251 -41456.400000 0 0 1
-13.447482 -13.097511 -25.177944 31.405548 0.772215 2.500936 -0.009128 0.007987 200603.000000 0 0 1
-12.723982 -13.919311 -26.128874 32.223671 0.830232 2.516416 0.005724 0.011862 668103.000000 0 0 1
-12.013882 -12.936911 -27.124534 32.364137 0.822375 2.564596 0.013843 0.019638 52297.900000 0 0 1
-12.997382 -12.228111 -27.847304 33.074627 0.754912 2.571690 -0.001095 0.019145 361888.000000 0 0 1
-12.431082 -11.223511 -28.688974 33.219817 0.734392 2.613184 0.007973 0.006715 457935.000000 0 0 1
-11.669982 -11.559311 -30.029244 34.228083 0.780634 2.641061 0.018598 0.008245 308172.000000 0 0 1
-11.234282 -10.402811 -30.671044 34.280322 0.746989 2.678584 0.013674 0.008636 64472.400000 0 0 1
-10.620382 -10.762411 -31.911734 35.312615 0.792040 2.699112 0.017856 0.004458 -9893.710000 0 0 1
-10.204082 -9.493611 -32.642004 35.492990 0.749345 2.738048 0.011517 0.004449 157276.000000 0 0 1
-8.896682 -9.078711 -32.276174 34.688980 0.795524 2.766421 0.004912 0.002531 -50305.000000 0 0 1
-8.602382 -7.771711 -32.812294 34.800102 0.734711 2.801966 0.001738 0.003442 -50238.100000 0 0 1
-7.089382 -7.492811 -32.739714 34.326235 0.813057 2.836373 0.009065 -0.000374 74202.800000 0 0 1
-6.478482 -7.353711 -31.421864 32.914758 0.848589 2.839257 0.009592 -0.002105 102659.000000 0 0 1
-6.774282 -6.129311 -30.704214 32.034483 0.735456 2.852398 0.005781 -0.000989 -241491.000000 0 0 1
-6.115082 -4.857911 -31.241174 32.202554 0.671326 2.896628 0.006877 -0.001898 -174041.000000 0 0 1
-4.732782 -4.763311 -31.023984 31.742337 0.788613 2.928442 0.014732 -0.001648 -235452.000000 0 0 1
-4.167282 -3.491911 -31.310214 31.778754 0.697448 2.969661 0.014507 -0.006875 -827487.000000 0 0 1
-2.736882 -3.311911 -30.873434 31.170951 0.880179 3.003318 -0.002700 -0.007572 -480088.000000 0 0 1
-1.792582 -3.786311 -31.896784 32.170706 1.128624 3.011004 0.000101 -0.016771 1367360.000000 0 0 1
-0.405582 -3.495711 -31.663944 31.858905 1.455290 3.030906 -0.006977 -0.001493 1009930.000000 0 0 1
0.076318 -2.015911 -31.651164 31.715389 -1.532956 3.077942 -0.008293 -0.005406 -612200.000000 0 0 1
-0.125882 -1.342811 -30.489634 30.519449 1.477325 3.097387 -0.008525 -0.004903 -42711.200000 0 0 1
0.764018 -0.255711 -30.324984 30.335685 -0.322973 3.115031 -0.013796 0.001608 77772.300000 0 0 1
0.737118 0.348189 -28.867034 28.878543 0.441296 3.113360 -0.009562 -0.000166 357389.000000 0 0 1
-0.422982 1.094489 -28.508154 28.532291 -1.202012 3.100456 0.000483 -0.005824 11703.300000 0 0 1
-0.253082 2.479389 -28.900224 29.007488 -1.469074 3.055568 0.007001 -0.008259 716997.000000 0 0 1
-1.519282 3.424889 -28.766674 29.009647 -1.153277 3.012076 -0.001777 -0.003064 552628.000000 0 0 1
-2.570482 3.091489 -29.627524 29.899078 -0.877158 3.006714 -0.009773 -0.007210 -76122.500000 0 0 1
-3.718382 3.867089 -29.277094 29.764559 -0.805000 2.960362 0.005212 -0.009333 116857.000000 0 0 1
-4.693582 4.002389 -30.446614 31.065175 -0.706081 2.941702 0.007912 -0.009678 -487764.000000 0 0 1
-4.151182 4.731089 -31.471334 32.094554 -0.850594 2.944203 0.008117 -0.000657 212604.000000 0 0 1
-5.153882 5.248389 -32.347344 33.173163 -0.794483 2.917994 0.013035 -0.005210 -308079.000000 0 0 1
-4.629682 6.009789 -33.592134 34.438103 -0.914394 2.919484 0.010143 0.000180 -7433.360000 0 0 1
-4.055682 5.234089 -34.654080 35.281007 -0.911574 2.952794 0.019779 -0.001403 385974.000000 0 0 1
-2.874582 4.511989 -34.359007 34.773016 -1.003544 2.987128 0.013759 -0.000459 -557556.000000 0 0 1
-2.240582 3.730089 33.873030 34.151368 -1.029879 0.127759 0.015833 0.000867 -442597.000000 0 0 1
-2.996482 2.616289 33.528148 33.763302 -0.717764 0.118092 0.018559 -0.006120 -340402.000000 0 0 1
-2.710882 1.943889 32.313873 32.485596 -0.622090 0.102867 0.027777 -0.011076 -364303.000000 0 0 1
-2.526982 2.765189 31.008673 31.234111 -0.830379 0.120220 0.028573 -0.007891 667791.000000 0 0 1
-3.696782 3.525689 30.617083 31.040336 -0.761714 0.165328 0.023629 -0.007618 543951.000000 0 0 1
-3.426982 4.530689 29.672543 30.211441 -0.923216 0.189160 0.021049 -0.012794 590915.000000 0 0 1
-4.709682 5.284989 29.143653 29.991077 -0.842896 0.238285 0.023275 -0.009060 614789.000000 0 0 1
-4.497882 6.161489 28.113233 29.129860 -0.940219 0.264971 0.020611 -0.001463 -132014.000000 0 0 1
-5.688482 6.847289 27.751113 29.143927 -0.877576 0.310408 0.013548 0.000286 -34288.700000 0 0 1
-5.631082 7.452189 26.328073 27.935848 -0.923703 0.340920 0.012600 -0.000251 -650660.000000 0 0 1
-4.656682 8.434489 26.221263 27.935281 -1.066342 0.352121 0.004783 -0.003041 -355299.000000 0 0 1
-4.866382 9.341789 25.114753 27.234197 -1.090548 0.397124 0.013117 -0.001048 -404041.000000 0 0 1
-4.131582 10.631389 25.305833 27.757550 -1.200138 0.423457 0.008696 -0.007070 -758140.000000 0 0 1
-4.215182 11.559189 24.203153 27.150971 -1.221121 0.470308 0.011068 -0.002284 107019.000000 0 0 1
-3.735282 12.843689 24.444953 27.865182 -1.287777 0.500677 0.009361 -0.000525 26665.300000 0 0 1
-2.179882 13.042789 24.414413 27.765622 -1.405194 0.496398 0.011710 -0.004343 96992.500000 0 0 1
-1.426882 12.542489 25.501753 28.455042 -1.457519 0.459640 0.012963 -0.004662 -38906.700000 0 0 1
-1.815182 13.015889 26.803573 29.851964 -1.432231 0.455859 0.015875 -0.007450 -863102.000000 0 0 1
-0.899582 12.482389 27.898003 30.576426 -1.498853 0.421681 0.008259 -0.005877 -65924.000000 0 0 1
0.382918 13.073689 27.941393 30.851084 1.541515 0.437801 0.003494 -0.005342 47946.300000 0 0 1
1.134418 12.518089 29.043783 31.646971 1.480421 0.408437 0.002386 -0.006960 -89251.500000 0 0 1
2.623818 12.857689 29.007693 31.837884 1.369494 0.424836 0.001722 -0.003140 -267245.000000 0 0 1
2.953618 14.238089 29.122053 32.550591 1.366253 0.463103 0.002054 -0.001031 -1138920.000000 0 0 1
4.309918 14.455189 29.132423 32.805883 1.281031 0.477766 0.001549 -0.002258 -1503590.000000 0 0 1
4.758318 15.880789 29.296143 33.661626 1.279681 0.514959 0.000978 0.001203 -520932.000000 0 0 1
4.526218 16.432289 30.599093 35.025866 1.302015 0.508216 0.001156 0.007219 98183.800000 0 0 1
3.250218 17.012289 30.752253 35.294234 1.382020 0.512929 -0.000141 0.007999 -246262.000000 0 0 1
2.990718 18.438689 30.094193 35.420193 1.409999 0.555506 0.011703 0.010082 -929042.000000 0 0 1
3.850318 19.371989 30.593783 36.415360 1.374596 0.573266 0.020250 0.007193 -772058.000000 0 0 1
4.760218 19.744989 29.584663 35.885604 1.334226 0.601627 0.011342 0.009211 -623543.000000 0 0 1
5.841018 20.594289 30.240383 37.050276 1.294431 0.615996 0.012298 0.001455 -619696.000000 0 0 1
5.530918 21.916289 30.485683 37.951174 1.323592 0.638003 0.013716 -0.000649 -505540.000000 0 0 1
6.565018 22.462189 31.236223 39.030130 1.286447 0.642983 0.006939 -0.005253 -475701.000000 0 0 1
6.770118 23.957789 30.930223 39.705023 1.295392 0.677727 0.012754 -0.005705 -639174.000000 0 0 1
7.528918 24.056889 29.780353 39.016508 1.267490 0.702428 0.001958 0.001139 -50508.900000 0 0 1
7.514518 25.374889 29.287433 39.472860 1.282885 0.734802 -0.002524 0.003273 -67063.600000 0 0 1
8.280018 25.553089 27.969233 38.778822 1.257440 0.765191 0.005447 0.002157 -144346.000000 0 0 1
7.642918 24.837589 26.916663 37.414259 1.272276 0.767826 0.006807 -0.002339 258010.000000 0 0 1
8.150818 25.075989 25.640033 36.778422 1.256524 0.799384 0.014742 -0.005275 -944679.000000 0 0 1
28.340096 1.957289 6.936746 29.242272 0.068955 1.331297 -0.015692 0.010549 -154276.000000 0 0 1
28.587486 2.748089 8.055246 29.827560 0.095835 1.297340 -0.017841 0.008844 494295.000000 0 0 1
27.363546 2.788489 8.766846 28.868614 0.101555 1.262243 -0.012636 0.010740 12739.600000 0 0 1
27.527696 3.576389 10.119046 29.545891 0.129196 1.221235 -0.016456 0.011672 -38334.300000 0 0 1
27.336666 4.998089 10.129046 29.578231 0.180837 1.221274 -0.015144 0.008112 458733.000000 0 0 1
28.439556 5.742389 9.591546 30.557832 0.199237 1.251518 -0.013712 0.004617 158501.000000 0 0 1
28.324826 7.247489 9.469846 30.732716 0.250496 1.257564 -0.015663 0.003934 -386911.000000 0 0 1
27.469486 7.770089 8.507846 29.788091 0.275661 1.281151 -0.005863 0.003519 18453.900000 0 0 1
27.902316 9.110889 8.256246 30.491197 0.315613 1.296599 -0.007208 -0.006816 -36950.700000 0 0 1
27.414716 9.499889 6.865746 29.815315 0.333576 1.338435 -0.000140 -0.006463 1236470.000000 0 0 1
26.034296 9.977489 6.915446 28.725567 0.365979 1.327666 -0.001258 0.000424 1419080.000000 0 0 1
25.850056 10.584989 5.684646 28.505834 0.388649 1.370030 -0.005615 -0.008228 188279.000000 0 0 1
24.379906 10.806789 5.217446 27.173300 0.417240 1.377590 -0.013188 -0.004673 293863.000000 0 0 1
23.948806 12.023689 5.766046 27.410977 0.465293 1.358858 -0.015314 -0.003729 -1050410.000000 0 0 1
22.568106 12.031589 5.814446 26.227587 0.489794 1.347247 -0.010597 0.002642 -1032430.000000 0 0 1
22.139206 13.367989 6.393846 26.640736 0.543220 1.328428 0.005210 0.009727 -380947.000000 0 0 1
22.184306 14.499689 5.504246 27.068083 0.578903 1.366020 -0.004933 0.009083 420675.000000 0 0 1
21.622306 15.657789 6.088646 27.381783 0.626751 1.346561 -0.007703 0.003080 -136624.000000 0 0 1
21.470606 16.823189 5.089246 27.747198 0.664627 1.386337 0.010178 -0.003481 30674.700000 0 0 1
20.485106 16.590289 4.065346 26.672163 0.680731 1.417781 0.018860 0.002187 594495.000000 0 0 1
20.244006 17.740689 3.293246 27.118209 0.719590 1.449055 0.009679 -0.005426 839090.000000 0 0 1
18.732006 17.781589 2.832646 25.982625 0.759375 1.461558 0.008655 0.001141 582854.000000 0 0 1
17.925006 18.251989 3.831646 25.867401 0.794436 1.422123 0.010083 -0.003805 -564160.000000 0 0 1
16.558706 18.310989 3.500446 24.934638 0.835608 1.429946 0.011699 -0.005824 -219488.000000 0 1 0
15.769606 19.338889 4.367546 25.332756 0.886714 1.397524 0.013087 -0.010838 717645.000000 0 0 1
14.383006 19.192789 4.000046 24.315311 0.927682 1.405538 0.013815 -0.011365 634144.000000 0 1 0
13.618406 20.355689 4.212646 24.850783 0.981165 1.400456 0.009342 -0.015212 32994.200000 0 1 0
12.132406 19.994289 3.951446 23.718785 1.025397 1.403420 0.007774 -0.012473 -101799.000000 0 1 0
11.452006 19.348189 4.993746 23.031247 1.036361 1.352236 0.001740 -0.011259 513199.000000 0 1 0
10.077906 19.187889 4.574346 22.150934 1.087175 1.362792 0.003412 -0.007554 1007070.000000 0 1 0
9.288406 18.725289 5.844246 21.704058 1.110325 1.298162 0.007214 -0.005119 -424823.000000 0 1 0
8.896406 19.661389 6.774246 22.618723 1.145881 1.266631 0.000518 -0.005850 -174074.000000 0 1 0
8.304206 19.073889 7.953546 22.271775 1.160175 1.205621 0.001891 -0.000117 -389084.000000 0 1 0
7.367106 19.943389 8.786246 23.004589 1.216943 1.178908 0.001514 0.000049 23496.500000 0 1 0
6.173006 20.376189 8.167646 22.803629 1.276634 1.204486 -0.002151 0.000844 -44929.400000 0 1 0
6.249406 21.377589 7.191146 23.404464 1.286387 1.258489 -0.006366 0.000922 -409256.000000 0 1 0
4.956406 21.506089 6.312246 22.954787 1.344286 1.292221 -0.009855 0.003857 437401.000000 0 1 0
3.756106 21.727589 7.008346 23.136840 1.399616 1.263053 -0.017912 0.005679 -255088.000000 0 1 0
3.472706 22.901989 7.831746 24.451933 1.420309 1.244759 -0.016219 0.008863 -516526.000000 0 1 0
3.533106 24.254689 7.124446 25.525095 1.426147 1.287924 -0.009039 0.011705 -340790.000000 0 0 1
2.473406 24.341889 6.219946 25.245455 1.469533 1.321854 -0.012667 0.009063 -101505.000000 0 0 1
2.735506 25.390689 5.343546 26.090679 1.463474 1.364530 -0.002220 0.007855 -355890.000000 0 0 1
1.548406 25.607789 4.412346 26.031235 1.510404 1.400472 -0.005077 0.003798 -117165.000000 0 0 1
0.433306 26.180389 5.078646 26.671954 1.554247 1.379215 -0.004036 0.013558 -217683.000000 0 0 1
-0.653294 26.309089 4.199946 26.650225 -1.545970 1.412541 -0.009235 0.009523 -939303.000000 0 0 1
-1.866694 26.977089 4.811646 27.466339 -1.501711 1.394704 -0.010528 0.015416 -528430.000000 0 0 1
-2.636894 27.487889 3.716646 27.863070 -1.475160 1.437008 0.004482 0.011510 113780.000000 0 0 1
-3.794394 28.112989 4.256246 28.685418 -1.436638 1.421870 -0.006032 0.005692 -89400.700000 0 0 1
-4.766294 28.625089 3.203446 29.195468 -1.405802 1.460851 -0.012733 0.004883 -110404.000000 0 0 1
-4.197194 29.766789 2.524246 30.167034 -1.430717 1.487023 -0.006065 0.004171 192574.000000 0 0 1
-5.095694 30.416489 1.662446 30.885152 -1.404807 1.516944 0.005029 -0.002339 -639998.000000 0 0 1
-4.434394 31.361489 0.660246 31.680321 -1.430331 1.549954 0.001448 0.004693 -179339.000000 0 0 1
-4.125194 32.690589 1.163846 32.970386 -1.445271 1.535489 -0.001384 0.012098 196349.000000 0 0 1
-3.082794 32.831289 2.108946 33.043075 -1.477173 1.506929 -0.008498 -0.003065 -870701.000000 0 0 1
-2.185994 34.041889 1.951146 34.167759 -1.506670 1.513660 -0.004001 0.002047 -930826.000000 0 0 1
-1.455194 34.085289 0.749446 34.124568 -1.528129 1.548832 -0.006593 0.003665 389640.000000 0 0 1
-0.404194 -34.442920 0.744146 34.453329 1.559062 1.549196 -0.003659 0.000510 1430650.000000 0 0 1
0.866106 -34.558420 1.711946 34.611635 -1.545739 1.521315 -0.006364 0.003342 174523.000000 0 0 1
0.582606 -34.292620 3.063846 34.434146 -1.553809 1.481702 -0.003182 0.000849 -299231.000000 0 0 1
1.562506 -34.737220 3.952146 34.996219 -1.525846 1.457624 -0.006257 0.000663 -172431.000000 0 0 1
1.073406 -34.577920 5.421046 35.016746 -1.539763 1.415358 -0.005852 -0.003774 149676.000000 0 0 1
-0.012294 34.066889 5.770946 34.552234 -1.570435 1.402989 -0.017526 -0.003702 -138956.000000 0 0 1
-0.577294 34.373489 7.045446 35.092853 -1.554003 1.368657 -0.020918 -0.008894 -570575.000000 0 0 1
0.262306 34.322989 8.286646 35.310124 1.563154 1.333905 -0.006295 -0.006929 -555570.000000 0 0 1
0.611006 32.974589 8.538146 34.067532 1.552269 1.317471 -0.009677 -0.008866 -520381.000000 0 0 1
1.784106 32.826789 9.290246 34.162695 1.516501 1.295387 -0.002188 -0.007759 -64606.500000 0 0 1
2.410506 31.402289 9.182846 32.806081 1.494184 1.287093 -0.005730 -0.003250 207921.000000 0 0 1
1.670806 30.456889 9.963946 32.088844 1.515993 1.255066 -0.011892 -0.000036 409013.000000 0 0 1
2.366306 29.221489 9.876146 30.935951 1.489994 1.245864 -0.004963 0.003948 41421.900000 0 0 1
2.173006 28.265289 11.078946 30.436681 1.494068 1.198238 -0.013193 0.007514 180009.000000 0 0 1
2.721306 28.840689 12.327846 31.482799 1.476718 1.168455 -0.008870 0.009718 207928.000000 0 0 1
2.764906 28.048089 13.494046 31.247868 1.472536 1.124266 -0.007752 0.008863 -498561.000000 0 0 1
1.404206 27.687889 14.114346 31.109576 1.520124 1.099886 -0.005349 0.013359 245089.000000 0 0 1
0.676306 28.745989 14.745646 32.314445 1.547274 1.096944 0.002639 0.010723 104156.000000 0 0 1
-0.149394 29.474589 13.880046 32.579585 -1.565728 1.130691 0.004235 0.007426 -575427.000000 0 0 1
-0.804994 30.678289 14.635346 33.999982 -1.544562 1.125803 0.001013 0.005626 186706.000000 0 0 1
-1.847394 30.252089 15.503446 34.043481 -1.509805 1.097973 0.001510 0.011989 -245479.000000 0 0 1
-2.642694 31.336389 15.870846 35.225514 -1.486662 1.103415 0.004253 0.002501 -104455.000000 0 0 1
-4.006494 30.837189 16.415546 35.163253 -1.441596 1.085084 -0.001615 0.002386 82825.800000 0 0 1
-4.947494 30.398789 15.463446 34.462766 -1.409458 1.105486 0.006660 0.001531 270249.000000 0 0 1
-6.109294 29.914689 16.113546 34.523303 -1.369343 1.085191 0.007052 0.000601 69103.200000 0 0 1
-7.267494 29.509989 15.143646 33.955646 -1.329329 1.108524 -0.008492 0.004759 -221082.000000 0 0 1
-8.349194 29.032889 15.890046 34.133726 -1.290775 1.086570 -0.014125 0.007877 -638916.000000 0 0 1
-9.414794 28.778289 14.973846 33.779347 -1.254622 1.111537 -0.003169 0.004314 -12286.700000 0 0 1
-10.680594 28.382489 15.763846 34.178057 -1.210878 1.091419 -0.008769 0.007696 -710714.000000 0 0 1
-11.253694 29.473389 16.454946 35.582180 -1.206055 1.090041 -0.011557 0.002991 186319.000000 0 0 1
-10.672094 29.774189 17.743846 36.266237 -1.226627 1.059548 -0.008675 0.000850 -448788.000000 0 0 1
-11.310294 30.916489 18.567346 37.795481 -1.220086 1.057262 -0.010567 0.004830 -1068050.000000 0 0 1
-12.584094 30.632989 19.015346 38.187993 -1.181013 1.049574 -0.012724 0.012759 -874642.000000 0 0 1
-13.307694 31.746489 19.428646 39.527289 -1.173860 1.056956 -0.000985 0.003429 -148402.000000 0 0 1
-14.286894 31.306989 20.533646 40.073352 -1.142676 1.032817 0.009394 0.005286 191108.000000 0 0 1
-13.674194 31.063989 21.776746 40.325943 -1.156127 1.000338 0.019293 0.001963 197464.000000 0 0 1
-14.701194 30.570189 22.593246 40.756795 -1.122545 0.983223 0.016992 -0.001789 97533.500000 0 0 1
-14.243494 30.427889 24.080746 41.335407 -1.132987 0.948910 0.024051 -0.009846 -156564.000000 0 0 1
-13.138794 29.524589 24.234046 40.393295 -1.152098 0.927355 0.015838 -0.005703 826442.000000 0 0 1
-12.644294 29.316089 25.543846 40.887642 -1.163594 0.896007 0.022047 -0.005263 -634.466000 0 0 1
-12.087294 30.507789 26.344946 42.081873 -1.193567 0.894332 0.023153 -0.008879 -194675.000000 0 0 1
-13.103394 31.375289 26.861346 43.331739 -1.175181 0.902181 0.018414 0.000563 663122.000000 0 0 1
-12.522994 32.575789 27.371246 44.353044 -1.203787 0.905716 0.018467 0.000638 -115425.000000 0 0 1
-13.603494 33.630289 27.727346 45.660235 -1.186416 0.918197 0.020768 -0.002260 -96581.900000 0 0 1
-14.268094 33.391289 28.933246 46.429402 -1.166979 0.898011 0.002707 -0.000681 -417422.000000 0 0 1
-13.499294 33.503789 30.066046 46.996829 -1.187777 0.876628 0.011481 0.009382 -969936.000000 0 0 1
-14.121294 32.816389 31.267346 47.476028 -1.164435 0.851850 0.004997 0.008183 -958822.000000 0 0 1
-15.317194 33.365789 31.685146 48.495781 -1.140426 0.858784 -0.001258 0.014107 -817453.000000 0 0 1
-15.721294 32.810289 32.920446 49.065567 -1.123961 0.835310 -0.004529 0.015778 1240820.000000 0 0 1
-17.242794 33.039189 33.301446 49.978878 -1.089791 0.841547 -0.019116 0.007105 1269930.000000 0 0 1
-17.597094 34.393389 33.627546 51.218891 -1.097879 0.854566 -0.014297 0.006992 -305645.000000 0 0 1
-18.986494 34.558989 33.787446 51.926893 -1.068419 0.862325 -0.017069 0.003429 -155789.000000 0 0 1
-19.387494 -33.456920 34.019946 51.503371 1.045604 0.849261 -0.013728 -0.000191 -365994.000000 0 0 1
-19.150894 -32.900420 -34.036161 51.065200 1.043653 2.300332 -0.003317 0.003917 -312207.000000 0 0 1
-20.084294 -33.147420 -33.010261 50.909799 1.026044 2.276286 -0.007116 0.006403 -303570.000000 0 0 1
-19.808894 -32.304620 -31.773661 49.452465 1.020734 2.268565 -0.008438 0.002367 -243743.000000 0 0 1
-19.798594 -30.863120 -32.018961 48.679877 1.000422 2.288618 -0.002435 0.002811 155991.000000 0 0 1
-19.366694 -30.142620 -30.870161 47.292845 0.999710 2.281998 -0.005603 -0.000617 -366310.000000 0 0 1
-19.461994 -28.664820 -30.971061 46.472010 0.974338 2.300227 0.000058 -0.000545 143220.000000 0 0 1
-20.794694 -28.172520 -30.921161 46.714327 0.934942 2.294174 0.002427 -0.000816 252676.000000 0 0 1
-20.862794 -26.768120 -30.907561 45.902786 0.908750 2.309495 0.004841 -0.000417 93779.400000 0 0 1
-22.030094 -26.282320 -30.006761 45.568532 0.873187 2.289617 0.013268 -0.004676 61020.200000 0 0 1
-21.898594 -26.474920 -28.620361 44.716830 0.879721 2.265341 0.010567 -0.008212 318594.000000 0 0 1
-21.070494 -25.424520 -28.093361 43.354456 0.878771 2.275742 0.010328 -0.011602 139705.000000 0 0 1
-20.815194 -25.571520 -26.592861 42.359830 0.887577 2.249500 0.010564 -0.011102 28820.800000 0 0 1
-22.041494 -25.577220 -25.887261 42.546115 0.859513 2.224905 0.012038 -0.018833 129771.000000 0 0 1
-21.875094 -25.998420 -24.570161 41.930066 0.871316 2.196885 0.013066 -0.007596 688954.000000 0 0 1
-23.127094 -25.838020 -23.564361 41.925468 0.840706 2.167663 0.012675 -0.007146 1311920.000000 0 0 1
-24.293794 -26.575720 -23.843761 43.185441 0.830227 2.155707 0.014953 -0.006508 -119872.000000 0 0 1
-24.156794 -27.965120 -23.615061 43.855100 0.858334 2.139428 0.012747 0.003904 -1261300.000000 0 0 1
-25.442794 -28.821420 -23.599561 45.110413 0.847580 2.121341 0.002719 0.009651 -8782.660000 0 0 1
-26.166194 -28.579420 -22.427761 44.771168 0.829450 2.095483 -0.001590 0.012006 169167.000000 0 0 1
-27.382894 -27.872920 -22.710261 45.193789 0.794266 2.097294 0.000733 0.005291 343134.000000 0 0 1
-28.072394 -27.277420 -21.456961 44.637631 0.771036 2.072240 0.001799 0.010269 -43901.700000 0 0 1
-28.663094 -28.293420 -20.645961 45.258660 0.778908 2.044491 -0.006030 0.013538 333520.000000 0 0 1
-28.850794 -27.782820 -19.303861 44.462259 0.766543 2.019905 -0.011452 0.017190 -833397.000000 0 0 1
-29.566694 -28.716220 -18.265061 45.082404 0.770807 1.987937 -0.011865 0.010948 575983.000000 0 0 1
-30.921994 -29.023420 -18.596561 46.307243 0.753737 1.984049 -0.010642 0.008145 1585350.000000 0 0 1
-31.934194 -27.981320 -18.623461 46.363567 0.719520 1.984150 -0.007692 0.009876 261609.000000 0 0 1
-32.552994 -27.560220 -17.273861 46.017925 0.702532 1.955595 -0.003204 0.008468 -439308.000000 0 0 1
-31.598794 -26.881520 -16.489761 44.643165 0.704908 1.949125 -0.004133 0.008076 483902.000000 0 0 1
-32.150194 -26.310920 -15.280061 44.264882 0.685845 1.923244 0.001861 0.005880 105705.000000 0 0 1
-32.068594 -27.220320 -13.984761 44.327352 0.703806 1.891768 0.019534 0.006241 -9515.530000 0 0 1
-32.806394 -28.423620 -14.099261 45.639356 0.713941 1.884862 0.016469 0.002880 342443.000000 0 0 1
-32.762094 -29.041820 -12.884961 45.637751 0.725276 1.857020 0.009839 -0.006911 75922.900000 0 0 1
-33.526694 -30.422620 -12.974561 47.094737 0.736897 1.849905 0.014618 -0.005598 101397.000000 0 0 1
-33.003894 -31.357420 -13.889961 47.597015 0.759822 1.866930 0.010680 -0.008774 215023.000000 0 0 1
-33.555594 -32.635220 -13.642761 48.756132 0.771494 1.854399 0.006734 -0.013161 -142826.000000 0 0 1
-32.879594 -33.784320 -14.396261 49.291991 0.798969 1.867177 -0.005892 0.004878 -435265.000000 0 0 1
-31.623394 -34.244620 -13.977361 48.663125 0.825172 1.862127 -0.002909 0.001957 -26868.100000 0 0 1
-31.098494 34.472689 -15.082161 48.815512 -0.836811 1.884898 -0.009414 -0.008353 -434663.000000 0 0 1
-29.582694 34.275889 -15.116561 47.733455 -0.858760 1.893031 -0.007384 -0.006256 -366439.000000 0 0 1
-29.206494 33.525289 -16.266061 47.345000 -0.854135 1.921506 0.004821 -0.006046 -878077.000000 0 0 1
-27.848594 33.234889 -16.226961 46.297044 -0.873350 1.928898 0.002129 -0.003263 -1083070.000000 0 0 1
8.878918 20.456389 -8.868154 23.998816 1.161293 1.949294 0.000021 0.005057 -466341.000000 0 1 0
7.493718 20.229489 -8.985454 23.369348 1.216034 1.965460 -0.001773 0.001121 -33605.400000 0 1 0
6.918318 20.606089 -10.260554 24.036493 1.246880 2.011830 -0.000719 0.009811 333582.000000 0 1 0
6.803018 19.444589 -11.210954 23.453328 1.234240 2.069185 -0.007286 0.012125 200124.000000 0 1 0
8.116118 19.053489 -11.641654 23.757839 1.168109 2.082901 0.003958 0.020460 372829.000000 0 1 0
8.048218 17.856589 -12.423254 23.194155 1.147349 2.136038 -0.002747 0.003288 -572673.000000 0 1 0
9.362518 17.270289 -12.920954 23.513202 1.074025 2.152585 0.007452 -0.002147 -316812.000000 0 1 0
9.186018 16.104789 -13.693654 23.049150 1.052433 2.206951 0.006269 -0.016988 35459.500000 0 1 0
10.412218 15.854089 -14.346454 23.782076 0.989689 2.218362 0.013381 -0.017389 51081.500000 0 1 0
10.232818 14.688089 -15.402354 23.615313 0.962306 2.281304 0.014434 -0.015213 -157647.000000 0 1 0
10.075018 13.408089 -14.834854 22.390974 0.926391 2.294997 0.018831 -0.020821 279093.000000 0 1 0
11.327118 12.828389 -14.517654 22.441779 0.847469 2.274312 0.021628 -0.016904 -56188.200000 0 1 0
12.213118 12.140589 -15.585054 23.226021 0.782420 2.306376 0.014746 -0.011766 -227737.000000 0 1 0
12.836018 13.037389 -16.476654 24.621474 0.793181 2.303926 0.008609 -0.010417 492497.000000 0 1 0
13.766018 12.336589 -17.317854 25.329878 0.730691 2.323607 0.003891 -0.009644 270856.000000 0 0 1
14.425218 13.160289 -18.441554 26.858351 0.739575 2.327630 0.000634 -0.007797 231252.000000 0 0 1
15.400618 14.088289 -18.002754 27.563709 0.740925 2.282510 -0.005906 -0.007337 454997.000000 0 0 1
16.224618 14.679189 -19.054854 29.013864 0.735432 2.287297 -0.003657 -0.009355 468436.000000 0 0 1
17.265418 15.668989 -18.462254 29.739985 0.736963 2.240545 -0.000776 -0.011655 -440985.000000 0 0 1
16.805818 16.919689 -17.954454 29.850859 0.788775 2.216139 -0.001264 -0.011351 1225.380000 0 0 1
16.241918 17.750889 -18.926554 30.612226 0.829760 2.237333 0.000311 -0.004432 -632838.000000 0 0 1
16.088618 19.194789 -18.464654 31.116346 0.873207 2.206081 0.001771 -0.002237 1625660.000000 0 0 1
17.348218 19.946989 -18.248054 32.122181 0.854967 2.174971 -0.003065 0.006159 1642050.000000 0 0 1
17.054218 21.269989 -17.986254 32.661355 0.894960 2.153986 -0.012046 0.013466 -418376.000000 0 0 1
18.115318 22.306889 -18.381654 34.112274 0.888724 2.139877 -0.002111 0.013110 248815.000000 0 0 1
19.317518 22.389989 -17.629354 34.427783 0.858932 2.108387 -0.001429 0.003905 -8262.220000 0 0 1
19.133918 23.045389 -16.360054 34.129872 0.877868 2.070707 -0.006756 0.005148 -1234490.000000 0 0 1
20.349418 23.417089 -15.547154 34.701194 0.855375 2.035356 -0.008813 -0.002234 -1251630.000000 0 0 1
20.781318 22.447789 -14.605454 33.898166 0.823929 2.016245 0.004994 -0.001510 -12285.000000 0 0 1
21.631518 23.011189 -13.619354 34.393665 0.816293 1.977936 -0.006370 0.000130 633682.000000 0 0 1
23.127918 23.274489 -13.962554 35.658875 0.788557 1.973122 -0.001785 -0.003066 -113838.000000 0 0 1
23.337118 24.041889 -15.079554 36.742706 0.800272 1.993699 0.003116 -0.003013 -63570.300000 0 0 1
24.732918 24.207289 -15.250554 37.819168 0.774658 1.985861 0.005122 -0.000991 -13709.300000 0 0 1
25.025218 24.796689 -16.648054 38.965305 0.780811 2.012249 0.010132 -0.004311 -453709.000000 0 0 1
25.464818 23.843589 -17.601154 39.073959 0.752531 2.038074 0.002917 -0.006626 193890.000000 0 0 1
25.537818 24.457889 -18.900354 40.094786 0.763801 2.061665 0.004959 -0.006348 -858281.000000 0 0 1
26.007718 23.465489 -19.931854 40.302722 0.734057 2.088117 -0.001501 -0.010284 124851.000000 0 0 1
27.390918 23.160789 -19.776654 40.960964 0.701913 2.074665 -0.007670 -0.007426 174087.000000 0 0 1
27.809518 22.344089 -20.883954 41.337237 0.676853 2.100421 -0.011461 -0.001073 744733.000000 0 0 1
29.329718 22.469889 -21.216254 42.605841 0.653734 2.092048 -0.001323 0.006357 293365.000000 0 0 1
29.679218 23.650789 -21.943354 43.837502 0.672836 2.095043 -0.003049 -0.004948 -708615.000000 0 0 1
31.050018 23.790889 -22.094854 44.925411 0.653796 2.084966 -0.008155 0.004403 -780327.000000 0 0 1
31.476218 25.130989 -22.668954 46.219048 0.673772 2.083423 -0.002645 0.003125 -403688.000000 0 0 1
31.453018 25.295289 -24.077754 46.998747 0.677312 2.108664 -0.001316 0.008170 367696.000000 0 0 1
30.192818 25.210689 -24.732554 46.463796 0.695715 2.132108 -0.010483 0.009706 -192042.000000 0 0 1
30.297518 25.752289 -26.179214 47.607470 0.704483 2.153037 0.001691 0.009434 -487668.000000 0 0 1
30.218718 27.163789 -26.293204 48.398088 0.732210 2.145123 0.009046 0.001250 1046000.000000 0 0 1
28.918318 27.617489 -26.770324 48.121150 0.762393 2.160736 0.007114 0.009265 1212840.000000 0 0 1
28.573118 27.319789 -28.256914 48.592665 0.762978 2.191375 0.007236 0.012588 -461233.000000 0 0 1
28.384118 25.974589 -28.479304 47.868655 0.741101 2.207996 -0.003156 0.007015 -146956.000000 0 0 1
28.280918 25.678989 -29.849314 48.478885 0.737216 2.234093 0.001398 0.005314 -48585.900000 0 0 1
27.672118 24.272489 -30.221334 47.625926 0.720044 2.258231 -0.002888 0.010289 167222.000000 0 0 1
26.350218 24.201889 -29.729114 46.517584 0.742926 2.264116 -0.005104 0.012069 -194774.000000 0 0 1
25.815318 22.899789 -29.850724 45.627806 0.725621 2.283950 -0.001903 0.011530 325716.000000 0 0 1
24.352918 22.807389 -29.331594 44.425038 0.752638 2.291947 -0.013684 0.010058 218083.000000 0 0 1
24.218818 22.868689 -27.944164 43.478781 0.756733 2.268824 -0.003624 0.020344 -422973.000000 0 0 1
22.903418 22.720789 -27.516444 42.402305 0.781395 2.276983 -0.003869 0.012852 -652209.000000 0 0 1
22.871218 23.002089 -25.973434 41.554879 0.788251 2.245978 -0.001813 0.020492 97137.100000 0 0 1
23.513018 21.953189 -25.191014 40.858190 0.751104 2.235146 -0.009353 0.013170 562982.000000 0 0 1
23.691218 22.406689 -23.867254 40.410139 0.757540 2.202630 -0.001216 0.012393 -200170.000000 0 0 1
24.161918 21.344089 -22.823254 39.500245 0.723555 2.186827 0.013321 0.008518 684609.000000 0 0 1
25.411118 20.767289 -23.219154 40.201173 0.685172 2.186550 -0.014816 0.007689 674795.000000 0 0 1
25.282218 19.452989 -22.704454 39.154841 0.655823 2.189357 0.003673 0.004213 640501.000000 0 0 1
26.555718 18.622989 -23.070754 39.803035 0.611584 2.189062 0.004085 0.008801 916669.000000 0 0 1
27.701118 18.744889 -22.231154 40.161512 0.594905 2.157410 0.001654 0.005232 427142.000000 0 0 1
28.825418 18.187089 -22.876154 41.048671 0.562859 2.161919 -0.015971 0.008691 856129.000000 0 0 1
30.241718 18.203889 -22.209354 41.703699 0.541849 2.132408 -0.012589 0.007958 820318.000000 0 0 1
30.713418 19.528989 -21.966154 42.511262 0.566360 2.113804 -0.016159 0.006931 -1289360.000000 0 0 1
31.921818 19.434089 -21.340254 43.035947 0.546867 2.089633 -0.023889 0.000791 -1089040.000000 0 0 1
32.220218 20.547289 -20.297954 43.270550 0.567690 2.059061 -0.012175 -0.001320 -302840.000000 0 0 1
31.414018 20.475689 -19.147054 42.103492 0.577640 2.042901 -0.010162 -0.003999 124931.000000 0 0 1
31.769518 21.424689 -18.182054 42.413520 0.593323 2.013833 -0.011151 0.004793 -288555.000000 0 0 1
31.047518 21.080489 -16.904154 41.159274 0.596475 1.994019 -0.003140 -0.007560 -387307.000000 0 0 1
31.583518 19.892889 -16.364254 40.755790 0.562080 1.983972 0.002799 -0.012544 457728.000000 0 0 1
31.291718 19.856089 -14.947354 39.960722 0.565436 1.954170 0.010071 -0.012421 -346565.000000 0 0 1
31.774718 18.571389 -14.239654 39.462602 0.528923 1.939964 0.001662 -0.012377 -710332.000000 0 0 1
33.175218 18.439089 -14.206954 40.526937 0.507292 1.928961 0.003055 -0.013464 77015.200000 0 0 1
33.613818 17.314789 -13.462154 40.136271 0.475662 1.912838 0.003746 -0.007241 1615.270000 0 0 1
33.469318 17.555089 -11.917354 39.628269 0.483065 1.876253 0.014135 -0.014489 -445566.000000 0 0 1
34.444318 18.489289 -11.475754 40.742580 0.492643 1.856325 0.012613 -0.015190 246832.000000 0 0 1
34.126618 19.089689 -10.229154 40.418781 0.510015 1.826658 0.011768 -0.013583 -464700.000000 0 0 1
32.892218 19.981689 -10.156554 39.803536 0.545909 1.828817 0.011540 -0.013911 -262001.000000 0 0 1
31.631818 19.369489 -10.259254 38.483780 0.549445 1.840646 0.013546 -0.019552 -598775.000000 0 0 1
30.601818 20.311389 -10.237354 38.129086 0.585968 1.842624 0.002679 -0.010267 -41653.800000 0 0 1
29.201918 19.780589 -10.605054 36.830570 0.595378 1.862873 -0.006969 -0.007420 84875.000000 0 0 1
29.063918 19.381189 -11.971454 36.927734 0.588127 1.900947 -0.004526 -0.008045 -429992.000000 0 0 1
27.734718 19.017589 -12.196154 35.771909 0.601061 1.918715 -0.010354 -0.011402 -590868.000000 0 0 1
27.482818 18.420389 -13.629954 35.782561 0.590480 1.961577 0.001363 -0.005142 -508842.000000 0 0 1
27.837818 17.039889 -13.650854 35.378634 0.549278 1.966926 0.004482 -0.007225 267440.000000 0 0 1
27.807418 16.570289 -14.957654 35.658917 0.537395 2.003652 0.006791 0.001941 739437.000000 0 0 1
29.260118 16.349989 -15.535854 36.943733 0.509560 2.004823 -0.001296 -0.005769 757800.000000 0 0 1
29.954018 15.157889 -15.173554 36.840759 0.468467 1.995300 -0.006336 -0.000896 -628675.000000 0 0 1
31.195618 15.185089 -15.790154 38.119319 0.453008 1.997893 -0.008042 -0.006801 -1059320.000000 0 0 1
32.006518 14.020989 -15.255754 38.127987 0.412886 1.982444 -0.006872 0.002090 -603455.000000 0 0 1
32.497018 14.109689 -13.903354 38.058413 0.409624 1.944769 -0.003707 0.003189 279277.000000 0 0 1
33.158718 12.890689 -13.535154 38.064036 0.370777 1.934341 -0.002341 0.010449 -97210.200000 0 0 1
34.148518 13.151989 -12.364654 38.626167 0.367631 1.896643 0.008084 0.005742 313263.000000 0 0 1
-34.318369 13.941389 -12.722954 39.166137 -0.385871 1.901645 -0.006647 -0.004333 191233.000000 0 0 1
-33.675569 14.430189 -11.528654 38.408126 -0.404837 1.875659 -0.004993 -0.009268 -760446.000000 0 0 1
-32.312369 15.126689 -11.802854 37.579426 -0.437836 1.890281 -0.003602 -0.010950 830844.000000 0 0 1
-31.238869 14.300889 -12.278454 36.484829 -0.429314 1.914032 -0.018068 0.005068 592482.000000 0 0 1
-30.870869 13.295389 -11.328154 35.469776 -0.406670 1.895866 -0.013473 0.006437 -1015030.000000 0 0 1
-29.842269 12.251789 -11.877354 34.376429 -0.389569 1.923577 -0.017993 0.005648 173291.000000 0 0 1
-30.262169 11.415689 -12.931654 34.833095 -0.360721 1.951147 -0.030994 0.003270 70189.800000 0 0 1
-29.488769 10.234289 -12.878154 33.766478 -0.334051 1.962094 -0.012621 -0.000591 -580208.000000 0 0 1
-29.418369 9.483989 -14.216554 34.022006 -0.311863 2.001889 -0.007452 -0.001954 -679655.000000 0 0 1
-30.491569 9.111789 -15.019654 35.190204 -0.290383 2.011763 -0.024332 0.001289 -324995.000000 0 0 1
-29.993569 8.211389 -15.935354 34.942475 -0.267224 2.044343 -0.007761 0.001458 -274330.000000 0 0 1
-31.131269 7.497089 -16.649354 36.091041 -0.236322 2.050274 -0.007249 -0.003022 -568379.000000 0 0 1
-31.821269 6.655989 -15.809754 36.150293 -0.206195 2.023428 -0.010147 -0.005149 36973.200000 0 0 1
-32.771269 5.834489 -16.475354 37.140741 -0.176191 2.030400 -0.007664 -0.009127 245377.000000 0 0 1
-33.982869 5.388889 -15.623954 37.788668 -0.157267 1.997043 -0.017698 -0.008276 534596.000000 0 0 1
34.724418 4.365989 -16.119254 38.531512 0.125076 2.002413 -0.008297 -0.009393 597813.000000 0 0 1
33.818218 3.992789 -15.079654 37.242586 0.117522 1.987670 -0.010281 -0.011538 302668.000000 0 0 1
32.846418 2.864989 -15.543654 36.451345 0.087004 2.011330 -0.001384 -0.014524 -68500.400000 0 0 1
33.553318 1.656089 -15.767254 37.110296 0.049317 2.009621 -0.000890 -0.010608 449522.000000 0 0 1
32.718118 0.497189 -15.844054 36.355969 0.015195 2.021727 0.000682 -0.004813 266419.000000 0 0 1
31.981318 0.013189 -14.574154 35.145567 0.000412 1.998387 -0.002506 -0.004329 -312538.000000 0 0 1
32.888818 -0.492111 -13.615754 35.599232 -0.014962 1.963268 -0.008159 -0.002492 184369.000000 0 0 1
32.538818 -0.310811 -12.257354 34.772317 -0.009552 1.931041 -0.003024 0.000665 -486108.000000 0 0 1
32.805618 1.051589 -11.522154 34.786125 0.032044 1.908402 -0.002383 0.000088 -313589.000000 0 0 1
31.891318 2.024089 -11.949754 34.116708 0.063383 1.928646 -0.001990 -0.002556 279057.000000 0 0 1
32.246518 3.287889 -11.521154 34.400365 0.101610 1.912310 -0.008539 -0.000311 -170662.000000 0 0 1
31.117118 4.299889 -11.841554 33.570620 0.137314 1.931289 -0.007193 0.001618 -167909.000000 0 0 1
31.235218 4.857989 -13.131654 34.229801 0.154293 1.964523 -0.003143 -0.007707 161865.000000 0 0 1
30.207618 5.712289 -13.543354 33.593941 0.186894 1.985751 0.003831 -0.012611 -565109.000000 0 0 1
30.567018 6.406989 -14.852954 34.583267 0.206613 2.014717 -0.012851 -0.010998 -427371.000000 0 0 1
30.654118 5.530989 -15.930754 34.986508 0.178511 2.043550 -0.002785 -0.005378 144676.000000 0 0 1
30.885418 6.193289 -17.166054 35.873936 0.197900 2.069754 -0.009140 -0.004210 -266881.000000 0 0 1
29.719918 7.025589 -17.838654 35.367358 0.232132 2.099462 -0.001715 -0.001286 359057.000000 0 0 1
28.562418 6.401289 -18.313654 34.527933 0.220473 2.129870 -0.002145 -0.004186 -205243.000000 0 0 1
27.696318 5.896789 -17.344954 33.207011 0.209776 2.120375 0.002088 0.005344 -2055360.000000 0 0 1
26.299218 5.788589 -17.889654 32.329497 0.216650 2.157182 0.008867 0.011041 -1203090.000000 0 0 1
26.157818 4.884689 -18.907954 32.643565 0.184613 2.188573 0.016373 0.004076 192073.000000 0 0 1
24.958018 5.085989 -19.634454 32.160251 0.201029 2.227512 0.018637 0.002900 78671.000000 0 0 1
24.611218 3.910389 -20.628454 32.350214 0.157569 2.262254 0.025927 0.024470 -100170.000000 0 0 1
24.229118 2.788489 -19.884554 31.467782 0.114584 2.254801 0.025093 0.014990 75503.400000 0 0 1
23.915218 1.693689 -20.717854 31.686523 0.070702 2.283442 0.010979 0.013966 -47564.100000 0 0 1
22.859018 0.802489 -19.987754 30.375796 0.035092 2.288977 0.005801 0.011134 343867.000000 0 0 1
21.531218 1.280089 -20.044654 29.445206 0.059383 2.319574 0.001415 0.008276 10052.500000 0 0 1
20.685718 0.455189 -19.257954 28.266145 0.022001 2.320345 -0.001195 0.005484 381852.000000 0 0 1
19.299418 1.144089 -19.033554 27.130290 0.059212 2.348382 -0.001990 0.005078 -756878.000000 0 0 1
18.617118 1.358389 -20.275954 27.560055 0.072835 2.397497 -0.002100 0.001318 -24735.500000 0 0 1
17.609118 2.318189 -20.184054 26.885890 0.130894 2.419963 -0.013557 0.001592 587249.000000 0 0 1
16.345418 2.094289 -19.265354 25.351777 0.127433 2.433988 -0.005506 0.002435 -283435.000000 0 0 1
16.711618 2.130589 -17.872954 24.561353 0.126807 2.385739 -0.009196 -0.001420 479264.000000 0 1 0
15.587818 2.186689 -16.982654 23.155393 0.139372 2.394137 -0.012196 -0.000987 721026.000000 0 1 0
14.747318 3.478689 -16.882454 22.684839 0.231652 2.410159 0.000631 0.004275 114656.000000 0 1 0
14.096118 3.894189 -18.076954 23.251699 0.269537 2.461392 0.007005 0.005813 169468.000000 0 1 0
12.954418 4.647189 -17.752054 22.462162 0.344434 2.482110 0.011950 -0.008038 -404515.000000 0 1 0
-18.539282 -22.301611 -17.613854 33.931028 0.877261 2.116603 0.014561 0.002776 67288.100000 0 0 1
-18.361282 -22.462611 -18.999854 34.679966 0.885526 2.150603 0.012927 -0.004547 726687.000000 0 0 1
-19.565382 -22.210811 -19.750254 35.583660 0.848638 2.159204 0.006299 -0.003473 537462.000000 0 0 1
-19.581382 -22.876911 -21.132354 36.788041 0.862861 2.182711 0.005437 0.002004 -21557.000000 0 0 1
-19.310282 -24.306011 -21.093854 37.531585 0.899439 2.167634 0.003471 0.004068 314540.000000 0 0 1
-19.031382 -24.941911 -22.311354 38.497908 0.919009 2.188969 0.010389 -0.001068 -70845.000000 0 0 1
-18.635982 -26.434031 -22.167554 39.210436 0.956723 2.171652 0.009977 0.002142 -891447.000000 0 0 1
-19.766482 -27.225961 -22.125754 40.268049 0.942823 2.152516 0.015833 0.002309 -543582.000000 0 0 1
-19.477582 -28.578341 -21.869054 40.918862 0.972560 2.134652 0.014804 0.008792 -256453.000000 0 0 1
-20.800282 -29.361511 -21.780554 42.061177 0.954442 2.115109 0.021799 0.013668 -114461.000000 0 0 1
-21.514882 -29.449761 -22.988654 43.112142 0.939852 2.133209 0.014658 0.018217 9041.510000 0 0 1
-20.908882 -30.250731 -24.041254 43.934838 0.966010 2.149815 0.014834 0.012651 -619310.000000 0 0 1
-21.359082 -29.846051 -25.476384 44.677100 0.949649 2.177587 0.008618 0.012795 544618.000000 0 0 1
-22.755682 -30.025091 -25.794114 45.658115 0.922265 2.171157 0.007531 0.014742 1262260.000000 0 0 1
-23.258982 -29.256671 -26.900094 46.049409 0.899113 2.194638 0.004505 0.013019 -71862.800000 0 0 1
-22.692282 -29.557281 -28.288994 46.785037 0.916038 2.220134 0.005427 0.002724 -410081.000000 0 0 1
-23.039082 -30.903611 -28.724414 48.072075 0.930172 2.211211 0.004723 0.010098 274791.000000 0 0 1
-22.905382 -31.012321 -30.092864 48.908088 0.934638 2.233555 0.004497 0.002746 -328153.000000 0 0 1
-23.549082 -32.248431 -30.782504 50.419075 0.940062 2.227530 -0.004727 0.010427 265790.000000 0 0 1
-22.756682 -33.454041 -30.695474 50.786332 0.973458 2.219814 -0.003004 0.006378 198678.000000 0 0 1
-23.488682 -34.452739 -31.339114 52.161763 0.972414 2.215306 -0.005989 0.009420 -293303.000000 0 0 1
-22.839182 33.658332 -31.326774 51.340806 -0.974605 2.227075 0.003601 0.006450 -394537.000000 0 0 1
-21.924082 33.439414 -32.352954 51.435138 -0.990469 2.251069 -0.005581 0.002591 -330250.000000 0 0 1
-21.471882 32.134187 -32.123624 50.255098 -0.981737 2.264269 -0.004244 0.010293 -516917.000000 0 0 1
-20.456282 31.459207 -33.026704 49.989042 -0.994247 2.292519 -0.003328 0.010701 -233027.000000 0 0 1
-20.934782 31.140977 -34.288218 50.830182 -0.978933 2.311170 -0.000715 0.010208 148545.000000 0 0 1
-20.073982 30.132227 34.620110 50.094589 -0.983119 0.807794 -0.005617 0.007922 40836.000000 0 0 1
-20.215182 29.903497 33.115503 48.984786 -0.976350 0.828426 -0.006593 0.003399 -7221.230000 0 0 1
-19.666882 30.960887 32.367463 48.918457 -1.004884 0.847764 -0.014443 0.007131 212444.000000 0 0 1
-19.711482 30.706527 30.992683 47.874625 -1.000114 0.866665 -0.003384 0.005538 -179427.000000 0 0 1
-19.184682 31.866177 30.110943 47.855764 -1.028879 0.890270 -0.011098 -0.001155 320593.000000 0 0 1
-20.163282 32.905177 29.859783 48.794623 -1.021041 0.912275 -0.013784 -0.002968 642978.000000 0 0 1
-19.567882 34.073734 29.362873 49.052010 -1.049503 0.929035 -0.018578 -0.012861 -146843.000000 0 0 1
-20.513182 -34.226450 29.530253 49.641478 1.030864 0.933692 -0.012254 -0.012724 -102688.000000 0 0 1
-20.828082 -33.918021 30.852803 50.360070 1.020095 0.911395 -0.019046 -0.006343 -563382.000000 0 0 1
-21.701982 -32.848141 30.990423 50.103720 0.986953 0.903932 -0.011090 -0.008382 -1006610.000000 0 0 1
-21.136482 -31.400401 30.839723 48.824426 0.978334 0.887123 -0.015738 -0.010093 -441632.000000 0 0 1
-20.674182 -31.234481 29.487773 47.671201 0.986099 0.903880 -0.000894 -0.010172 -181259.000000 0 0 1
-20.697382 -29.897391 28.993133 46.506316 0.965270 0.897683 0.000582 -0.012973 -178239.000000 0 0 1
-22.059782 -29.379791 28.461533 46.474347 0.926752 0.911686 -0.007390 -0.005875 -1473110.000000 0 0 1
-22.948182 -29.071411 29.469333 47.330831 0.902569 0.898704 -0.005528 -0.008842 -163611.000000 0 0 1
-24.077382 -29.952391 29.489033 48.440367 0.893709 0.916287 -0.001995 -0.009469 633519.000000 0 0 1
-25.158342 -29.673681 28.366773 48.147101 0.867561 0.940766 -0.004901 -0.004145 -277238.000000 0 0 1
-24.668082 -30.045271 27.065683 47.368595 0.883363 0.962604 -0.003634 0.003303 -366163.000000 0 0 1
-25.757362 -30.103491 26.203363 47.500296 0.863045 0.986460 0.002049 0.009808 -375965.000000 0 0 1
-25.468942 -30.243841 24.688573 46.614188 0.870895 1.012624 0.001495 0.005197 -330617.000000 0 0 1
-24.645482 -29.185521 24.243053 45.242900 0.869538 1.005291 -0.022152 0.006321 425308.000000 0 0 1
-24.115782 -29.200501 22.912753 44.263240 0.880480 1.026697 -0.009514 0.004744 10828.100000 0 0 1
-23.028782 -30.222241 22.524753 44.170954 0.919671 1.035676 -0.017868 0.007802 -495726.000000 0 0 1
-23.459182 -31.560241 22.378953 45.245990 0.931588 1.053415 -0.014815 0.001511 96691.500000 0 0 1
-22.400082 -32.395931 21.983253 45.105692 0.965833 1.061719 -0.009906 0.010086 -219466.000000 0 0 1
-21.590482 -33.167111 23.036053 45.791549 0.993746 1.043657 -0.015530 0.002899 -248346.000000 0 0 1
-20.834182 -32.325631 23.850653 45.253323 0.998290 1.015674 -0.002682 0.001807 893383.000000 0 0 1
-19.657882 -33.051031 24.305043 45.492176 1.034229 1.007154 0.000905 -0.002759 855153.000000 0 0 1
-18.967682 -32.527071 25.581723 45.521510 1.042870 0.974031 0.002759 0.000623 -463393.000000 0 0 1
-18.100482 -31.429891 25.429463 44.295859 1.048286 0.959314 0.007100 0.004398 146648.000000 0 0 1
-17.691382 -30.792721 26.627143 44.386726 1.049314 0.927433 0.001747 0.008278 85057.400000 0 0 1
-16.643682 -31.443331 27.575293 45.012132 1.083966 0.911426 -0.004192 -0.000292 -610430.000000 0 0 1
-17.135482 -32.581731 28.231323 46.391826 1.086626 0.916576 -0.008852 -0.007731 -254450.000000 0 0 1
-16.494682 -33.028581 29.399483 47.194187 1.107624 0.898292 -0.004229 -0.010203 -401807.000000 0 0 1
-17.027282 -32.466621 30.711033 47.824443 1.087777 0.873481 -0.004041 -0.006419 -138103.000000 0 0 1
-16.692882 -31.107641 30.860473 46.890366 1.078286 0.852449 -0.004438 -0.003041 153074.000000 0 0 1
-17.108782 -30.506341 32.075583 47.457247 1.059679 0.828633 -0.003434 -0.000781 4534.800000 0 0 1
-16.568282 -29.020651 32.125923 46.354947 1.052039 0.805096 0.000262 -0.004693 19455.000000 0 0 1
-17.220682 -27.984881 31.361153 45.422763 1.019162 0.808716 0.001287 -0.002541 83470.900000 0 0 1
-17.156182 -28.123631 29.944893 44.519320 1.023036 0.833043 -0.005061 -0.005568 6333.370000 0 0 1
-15.870982 -27.642081 29.222013 43.242326 1.049593 0.828783 -0.006250 0.000585 137086.000000 0 0 1
-15.906982 -26.228931 28.934313 42.168512 1.025635 0.814600 -0.009741 0.004507 -148633.000000 0 0 1
-14.771482 -25.921641 28.186233 41.043780 1.052840 0.813807 -0.004463 0.006050 -427503.000000 0 0 1
-14.931682 -24.503411 27.520743 39.758818 1.023514 0.806274 -0.006068 0.004191 2087.160000 0 0 1
-15.855482 -24.363211 26.441173 39.295012 0.993862 0.832689 -0.006348 0.005518 263621.000000 0 0 1
-15.637082 -23.224111 25.636173 37.961705 0.978207 0.829402 -0.009744 0.002044 -39641.800000 0 0 1
-16.237082 -21.901311 26.170873 37.791862 0.932838 0.805847 0.000024 0.003590 -491317.000000 0 0 1
-15.887882 -20.877911 25.241303 36.406529 0.920299 0.804713 -0.002102 0.007212 96488.500000 0 0 1
-16.657482 -19.744711 25.524393 36.315561 0.870005 0.791400 0.004341 0.005813 -118257.000000 0 0 1
-16.257382 -18.564411 24.594813 34.840273 0.851554 0.787060 0.002411 0.001376 -510007.000000 0 0 1
-14.897382 -18.253011 24.697563 34.133181 0.886279 0.761844 0.004888 -0.001754 -693754.000000 0 0 1
-14.479182 -17.276911 23.812253 32.789659 0.873272 0.758000 0.007481 -0.000865 -1294200.000000 0 0 1
-13.138482 -16.662011 23.979453 32.019627 0.903089 0.724398 0.006084 -0.003238 -2138070.000000 0 0 1
-12.123482 -17.646211 23.901853 32.088412 0.968828 0.730449 -0.001474 -0.001599 492412.000000 0 0 1
-10.810682 -17.060311 24.009653 31.374966 1.005984 0.699369 -0.000807 -0.002003 656517.000000 0 0 1
-10.323282 -16.200111 22.843953 29.847277 1.003447 0.699194 -0.004191 0.004443 -1129870.000000 0 0 1
-10.075582 -16.928211 21.634153 29.259499 1.033918 0.738634 -0.000740 0.003123 765548.000000 0 0 1
-8.666882 -17.051411 21.361953 28.674004 1.100547 0.730271 0.004502 0.002105 553430.000000 0 0 1
-8.235982 -18.416411 20.725353 28.922930 1.150266 0.771922 0.010407 0.002068 -46122.900000 0 0 1
-8.605082 -18.568211 19.404953 28.202449 1.136830 0.811985 0.002945 0.004970 -350655.000000 0 0 1
-8.113982 -19.803711 18.932153 28.573591 1.181939 0.846545 0.005248 0.000992 31900.700000 0 0 1
-7.592082 -19.619011 17.486653 27.355591 1.201568 0.877293 0.003457 -0.007411 -310399.000000 0 0 1
-6.601382 -18.693511 17.233753 26.268381 1.231329 0.855204 0.011264 -0.001518 -617389.000000 0 0 1
-6.454582 -18.396511 15.863453 25.134486 1.233356 0.887771 0.016432 0.003273 -94599.000000 0 0 1
-5.604482 -17.232111 15.436153 23.804006 1.256352 0.865225 0.006142 0.006273 -367003.000000 0 1 0
-6.217382 -16.042211 15.782253 23.347117 1.201057 0.828499 0.001050 0.004321 44392.600000 0 1 0
-5.519982 -14.896611 15.315053 22.066492 1.215930 0.803709 0.003189 -0.003000 -109944.000000 0 1 0
-5.811582 -13.661411 16.215453 21.985212 1.168586 0.741344 0.000812 -0.006585 80163.000000 0 1 0
-5.456082 -13.627011 17.632253 22.942550 1.189956 0.694241 0.002319 -0.006297 41549.900000 0 1 0
-5.889282 -14.633111 18.572553 24.367013 1.188169 0.704090 0.001743 -0.001506 63825.500000 0 1 0
-7.189182 -14.232111 19.311653 25.043508 1.103047 0.690191 -0.001830 -0.003263 55044.700000 0 0 1
-6.835982 -13.389311 20.412853 25.351309 1.098740 0.634785 -0.003132 -0.004207 -205192.000000 0 0 1
-7.966182 -13.026311 21.163753 26.096921 1.021931 0.624993 -0.007670 -0.000612 -41307.100000 0 0 1
-7.722782 -12.077611 22.304753 26.514375 1.001888 0.571238 -0.002429 0.008064 -735823.000000 0 0 1
-7.538582 -10.755211 21.912653 25.547390 0.959451 0.539967 0.003960 0.006396 63690.000000 0 0 1
-7.164382 -9.871611 22.954753 25.994187 0.942993 0.488426 0.002161 0.003365 768631.000000 0 0 1
-5.701582 -10.099111 23.532853 26.235382 1.056841 0.457886 0.008458 0.007095 645724.000000 0 0 1
-5.503282 -11.204311 24.386893 27.396045 1.114233 0.473098 -0.000855 0.007115 -284792.000000 0 0 1
-4.221482 -11.230711 24.960963 27.694755 1.211248 0.448062 0.006073 0.005075 -332087.000000 0 0 1
-4.044182 -12.447311 25.898133 29.017310 1.256651 0.467924 0.004016 0.012740 -1495220.000000 0 0 1
-2.715982 -12.671611 26.179803 29.211785 1.359655 0.459652 0.004421 0.005489 -796375.000000 0 0 1
-2.599582 -13.805811 27.052323 30.482560 1.384679 0.478973 0.000429 0.005169 -96782.600000 0 0 1
-2.680682 -15.201211 26.329993 30.521000 1.396244 0.530242 0.000563 -0.005906 -185865.000000 0 0 1
-1.549182 -15.587911 25.568763 29.985740 1.471738 0.549669 0.000647 0.000228 237538.000000 0 0 1
-1.761682 -16.848111 24.914423 30.127908 1.466612 0.597126 -0.000651 0.001826 -399447.000000 0 0 1
-0.538482 -17.742611 25.079213 30.725513 1.540456 0.615934 -0.001915 -0.001939 -158442.000000 0 0 1
-0.208782 -18.134811 26.411303 32.038600 1.559284 0.601728 -0.004198 -0.004519 671004.000000 0 0 1
0.580318 -17.266511 27.294423 32.302550 -1.537200 0.564302 0.012952 -0.000241 373543.000000 0 0 1
1.024218 -17.801211 28.671633 33.763807 -1.513323 0.556361 0.007510 0.004294 -250997.000000 0 0 1
2.065018 -18.782211 28.520943 34.212278 -1.461291 0.585119 0.008376 0.004668 445591.000000 0 0 1
2.826618 -19.008311 29.679553 35.357906 -1.423174 0.574611 -0.000720 0.004087 451657.000000 0 0 1
3.903018 -17.977411 30.108833 35.284029 -1.357007 0.548462 0.014131 0.004947 -345577.000000 0 0 1
3.276618 -16.860611 30.647663 35.132545 -1.378853 0.510820 0.002968 0.003284 172180.000000 0 0 1
4.233818 -15.963111 31.178643 35.282487 -1.311540 0.487117 0.013113 -0.006758 -270236.000000 0 0 1
3.530118 -14.779311 31.836243 35.276567 -1.336334 0.445314 0.007783 -0.004958 137377.000000 0 0 1
2.852918 -15.205011 33.010553 36.455838 -1.385323 0.438253 -0.005848 -0.010378 -420053.000000 0 0 1
1.892418 -14.274511 33.371438 36.345506 -1.438992 0.407354 -0.007310 -0.006886 -417636.000000 0 0 1
1.061818 -14.751111 34.605887 37.633631 -1.498938 0.403870 -0.019664 -0.005898 -138643.000000 0 0 1
1.829818 -14.854811 -33.617304 36.798597 -1.448234 2.722721 -0.003089 -0.004080 -343621.000000 0 0 1
1.228518 -15.764611 -32.718954 36.339540 -1.493025 2.691411 -0.020739 -0.010163 423668.000000 0 0 1
1.995118 -15.784811 -31.344224 35.151119 -1.445068 2.671882 -0.010925 -0.011933 48422.500000 0 0 1
1.517218 -16.807411 -30.571654 34.920152 -1.480770 2.637210 -0.022674 -0.009489 -211514.000000 0 0 1
1.991218 -16.638811 -29.248404 33.708814 -1.451690 2.621309 -0.014260 -0.005040 -315667.000000 0 0 1
1.525018 -17.784611 -28.342144 33.494704 -1.485256 2.579549 -0.012310 -0.007472 -75554.800000 0 0 1
2.100918 -19.023511 -28.751544 34.539240 -1.460804 2.554277 0.000404 -0.007121 358430.000000 0 0 1
1.589718 -19.971911 -27.857164 34.313642 -1.491366 2.518092 0.004373 -0.013583 -195380.000000 0 0 1
2.521918 -21.193211 -28.025614 35.227082 -1.452357 2.490744 0.013469 -0.015205 838168.000000 0 0 1
3.815818 -21.122411 -27.406214 34.811166 -1.392071 2.477185 0.014266 -0.015034 626308.000000 0 0 1
3.820818 -21.238911 -25.982154 33.775173 -1.392803 2.448491 0.013053 -0.016094 -1303110.000000 0 0 1
5.075918 -21.864211 -25.350224 33.859157 -1.342681 2.416890 0.006753 -0.015253 -206768.000000 0 0 1
5.253618 -23.264711 -25.588404 34.980190 -1.348702 2.391332 0.013480 -0.016003 128948.000000 0 0 1
5.455618 -23.713011 -26.925654 36.291342 -1.344663 2.406741 0.008541 -0.013875 -499940.000000 0 0 1
5.025918 -25.172241 -27.171914 37.379332 -1.373727 2.384628 0.015974 -0.008631 -53010.800000 0 0 1
5.784418 -26.120421 -26.468964 37.634319 -1.352862 2.350853 0.012568 -0.008440 -233947.000000 0 0 1
5.341318 -27.437351 -26.788114 38.716159 -1.378528 2.334928 0.011961 -0.001346 98316.400000 0 0 1
5.784118 -28.625361 -25.857604 39.006192 -1.371418 2.295495 0.009926 -0.000674 -58304.100000 0 0 1
7.095818 -29.080601 -26.099274 39.714029 -1.331468 2.287868 0.012306 -0.000712 -240221.000000 0 0 1
7.456918 -30.155911 -25.263054 40.040061 -1.328380 2.253566 0.016697 -0.004025 -386510.000000 0 0 1
8.917018 -30.571601 -25.478414 40.783399 -1.286993 2.245576 0.017129 -0.002569 -236711.000000 0 0 1
9.164618 -30.797651 -26.861524 41.881106 -1.281566 2.267086 0.022247 0.000222 -999925.000000 0 0 1
10.511318 -30.773871 -27.158574 42.368704 -1.241654 2.266604 -0.002303 0.000757 -799952.000000 0 0 1
10.700118 -30.758181 -28.656464 43.379156 -1.236012 2.292420 0.005978 -0.006272 28304.200000 0 0 1
10.150718 -31.836521 -29.390934 44.502002 -1.262147 2.292202 0.010518 -0.010714 235118.000000 0 0 1
10.441718 -31.664851 -30.805884 45.394876 -1.252268 2.316679 0.010689 0.006428 174592.000000 0 0 1
-33.796502 -4.803311 -5.631054 34.597458 0.141179 1.734283 0.011556 0.001791 -92084.200000 0 0 1
-33.590562 -4.229911 -4.346454 34.133702 0.125266 1.698479 0.015419 -0.005150 325069.000000 0 0 1
-32.714462 -3.110811 -4.279954 33.139571 0.094805 1.700307 0.008564 -0.006825 -370988.000000 0 0 1
-33.089662 -1.797411 -5.022554 33.516898 0.054266 1.721214 0.012059 0.006673 -602809.000000 0 0 1
-33.969662 -1.016711 -4.283954 34.253815 0.029921 1.696190 0.009723 0.005828 89845.400000 0 0 1
-34.338325 0.148689 -5.042954 34.706974 -0.004330 1.716613 -0.001211 0.005695 -278330.000000 0 0 1
34.431059 1.106389 -4.216254 34.705889 0.032122 1.692582 0.004525 0.005884 -76562.700000 0 0 1
-34.373851 1.952289 -3.378554 34.594619 -0.056735 1.668613 0.000587 0.010055 350365.000000 0 0 1
34.393971 2.840989 -2.654054 34.613010 0.082414 1.647550 0.001988 0.011394 -317126.000000 0 0 1
-34.490931 4.108989 -2.097054 34.798071 -0.118574 1.631096 -0.000102 0.003311 -43881.500000 0 0 1
-34.261503 5.105589 -3.085354 34.776961 -0.147930 1.659631 0.004816 0.005723 481742.000000 0 0 1
-33.120662 4.879689 -3.923454 33.707315 -0.146278 1.687458 -0.005332 0.005388 -578201.000000 0 0 1
-32.179202 6.059589 -3.816354 32.966410 -0.186128 1.686821 -0.001963 -0.009878 -799256.000000 0 0 1
-31.619292 6.111589 -2.518454 32.302844 -0.190932 1.648839 -0.010149 -0.008375 185709.000000 0 0 1
-31.813932 7.385389 -1.905854 32.715478 -0.228103 1.629085 -0.003136 -0.014108 -413668.000000 0 0 1
-31.198572 7.452889 -0.514954 32.080549 -0.234491 1.586849 -0.002007 -0.011640 609637.000000 0 0 1
-29.760612 7.464789 -0.706654 30.690657 -0.245758 1.593823 -0.001442 -0.008919 1256670.000000 0 0 1
-29.032412 7.590189 0.494946 30.012279 -0.255715 1.554304 -0.008531 -0.004935 -239994.000000 0 0 1
-28.932502 9.037789 1.085146 30.330658 -0.302771 1.535011 -0.002412 -0.007951 -1340710.000000 0 0 1
-30.186142 9.608889 1.284646 31.704640 -0.308179 1.530266 0.009117 -0.014429 -435424.000000 0 0 1
-30.178102 10.877289 1.879646 32.133570 -0.345942 1.512268 0.006985 -0.007835 -955967.000000 0 0 1
-31.405702 11.679689 1.585246 33.544690 -0.356048 1.523521 0.022533 -0.008747 -1652990.000000 0 0 1
-31.515072 11.899489 0.191846 33.687303 -0.361031 1.565101 0.023452 -0.004671 1065990.000000 0 0 1
-32.620992 12.781189 -0.151354 35.035850 -0.373425 1.575116 0.028789 -0.003833 436788.000000 0 0 1
-34.052042 12.307789 0.061146 36.208106 -0.346830 1.569108 0.034132 -0.017586 -1044060.000000 0 0 1
-34.414204 11.210189 -0.791154 36.202647 -0.314904 1.592652 0.025635 -0.014429 221036.000000 0 0 1
33.898560 10.717289 -0.422054 35.554898 0.306214 1.582667 0.023913 -0.020996 439222.000000 0 0 1
33.513006 9.484289 -1.324654 34.854383 0.275791 1.608811 0.014305 -0.024163 158458.000000 0 0 1
32.970716 9.906789 -2.576854 34.523220 0.291890 1.645507 0.017004 -0.018202 309324.000000 0 0 1
32.573836 8.836989 -3.420554 33.924141 0.264915 1.671797 0.011701 -0.018965 -422865.000000 0 0 1
32.082886 9.261889 -4.806954 33.737234 0.281045 1.713765 0.014504 -0.015846 438789.000000 0 0 1
30.743126 9.764789 -4.814554 32.613966 0.307547 1.718960 0.012553 -0.018154 770174.000000 0 0 1
30.238716 9.974089 -6.158554 32.431314 0.318608 1.761852 0.013830 -0.007910 -635891.000000 0 0 1
28.830356 10.528789 -6.230354 31.318718 0.350150 1.771066 0.002124 -0.002892 -1335650.000000 0 0 1
27.863996 9.624789 -5.839654 30.052294 0.332589 1.766357 -0.004785 -0.000045 -181563.000000 0 0 1
26.630616 10.037089 -6.395654 29.169114 0.360436 1.791853 -0.019836 0.001047 -245821.000000 0 0 1
25.575156 8.947489 -6.647554 27.898676 0.336542 1.811386 -0.016258 -0.001819 -68670.800000 0 0 1
26.004996 7.976589 -7.570054 28.234580 0.297622 1.842230 -0.014787 -0.001484 417238.000000 0 0 1
25.097386 6.881589 -7.525154 27.089905 0.267618 1.852283 -0.011102 -0.006575 -682157.000000 0 0 1
25.338376 5.817989 -8.636454 27.394719 0.225700 1.891527 -0.012694 -0.009257 -36343.800000 0 0 1
26.620096 5.178789 -8.652854 28.466142 0.192144 1.879653 -0.015993 -0.001849 897540.000000 0 0 1
26.603876 4.048989 -9.554554 28.556085 0.151036 1.911965 -0.008708 -0.004021 -826214.000000 0 0 1
27.606426 2.931589 -9.281754 29.272169 0.105796 1.893450 -0.008742 0.004878 655984.000000 0 0 1
28.971366 3.349989 -9.620154 30.710093 0.115120 1.889417 0.001876 0.009692 2857980.000000 0 0 1
30.039256 2.922889 -8.701254 31.410380 0.096997 1.851486 0.017626 0.004875 861439.000000 0 0 1
30.169746 1.458189 -8.271454 31.317037 0.048295 1.838088 0.018072 0.005295 -1383080.000000 0 0 1
29.100536 1.017489 -7.481354 30.064050 0.034950 1.822286 0.011361 0.000813 145430.000000 0 0 1
29.220876 -0.397811 -7.126154 30.079892 -0.013613 1.809978 0.012671 0.004975 -242987.000000 0 0 1
28.775516 -1.460611 -8.160654 29.945951 -0.050715 1.846800 0.009360 0.007722 -100780.000000 0 0 1
29.723426 -1.651911 -9.238254 31.169796 -0.055519 1.871701 0.007388 0.006370 614433.000000 0 0 1
29.465016 -2.817311 -9.999954 31.242975 -0.095326 1.896600 0.011982 0.004883 -445569.000000 0 0 1
30.430696 -3.135611 -11.160754 32.564117 -0.102679 1.920619 0.005559 -0.000927 415628.000000 0 0 1
31.762226 -3.484811 -10.744554 33.710953 -0.109279 1.895181 0.000800 0.004051 949842.000000 0 0 1
32.458366 -4.080011 -11.852154 34.794619 -0.125044 1.918385 -0.005931 -0.004537 529826.000000 0 0 1
33.915498 -4.530111 -11.523954 36.105185 -0.132785 1.895658 -0.022496 0.004773 272954.000000 0 0 1
33.965378 -5.535711 -10.585754 36.004849 -0.161560 1.869215 -0.017764 0.000627 -511323.000000 0 0 1
-34.325757 -5.739711 -10.179254 36.260434 0.165680 1.855347 -0.016748 0.002261 -803274.000000 0 0 1
-34.383428 -6.926711 -9.172554 36.253761 0.198794 1.826586 -0.006799 -0.003452 -25655.200000 0 0 1
34.517367 -6.748411 -7.944954 36.057066 -0.193072 1.792963 -0.003011 -0.001303 292587.000000 0 0 1
33.993666 -7.964711 -7.479554 35.706437 -0.230148 1.781833 0.002474 0.002339 -480536.000000 0 0 1
33.545776 -7.939911 -5.984654 34.988246 -0.232412 1.742689 -0.003695 0.006165 -1239270.000000 0 0 1
34.550170 -7.741911 -5.075154 35.768822 -0.220436 1.713164 0.006823 0.006113 -529273.000000 0 0 1
34.580538 -8.649711 -3.988454 35.868355 -0.245103 1.682224 0.002366 0.005378 -486440.000000 0 0 1
-34.547212 -10.069311 -4.223854 36.231779 0.283608 1.687641 0.009741 0.003023 -640766.000000 0 0 1
34.290753 -10.891111 -5.088254 36.336791 -0.307534 1.711288 -0.002690 0.006231 396491.000000 0 0 1
-34.525769 -11.891911 -5.746854 36.965830 0.331709 1.726893 0.001158 0.005834 400199.000000 0 0 1
34.270980 -12.385211 -7.010054 37.108414 -0.346786 1.760846 0.008040 0.004409 149422.000000 0 0 1
34.185743 -11.346511 -7.998954 36.897040 -0.320467 1.789323 0.021166 0.005431 373148.000000 0 0 1
33.701145 -11.970511 -9.199354 36.928152 -0.341296 1.822563 0.012809 0.006506 -20492.100000 0 0 1
34.049301 -11.280211 -10.573354 37.395105 -0.319911 1.857453 -0.003455 0.002313 -100030.000000 0 0 1
33.396046 -10.052111 -10.817654 36.515236 -0.292371 1.871561 -0.008047 0.001640 260133.000000 0 0 1
33.802667 -9.524911 -12.063254 37.133089 -0.274658 1.901666 -0.005393 -0.000290 -456669.000000 0 0 1
32.857176 -8.449111 -12.592054 36.187585 -0.251693 1.926197 -0.004631 -0.000587 -223206.000000 0 0 1
33.334846 -7.856111 -13.795454 36.922147 -0.231449 1.953722 -0.004525 0.003410 -376704.000000 0 0 1
32.351446 -7.197811 -14.451154 36.156056 -0.218922 1.981973 -0.003305 0.001049 -807421.000000 0 0 1
32.890696 -6.753211 -15.844654 37.127574 -0.202508 2.011706 -0.001137 -0.002422 102402.000000 0 0 1
33.755520 -5.621811 -15.731254 37.663141 -0.165030 2.001690 -0.004298 -0.003090 794151.000000 0 0 1
33.075686 -4.363011 -15.801854 36.915247 -0.131153 2.013139 0.003576 -0.002237 270632.000000 0 0 1
34.188791 -3.313911 -15.937254 37.866231 -0.096628 2.005215 -0.000802 -0.004030 -157825.000000 0 0 1
-34.739732 -3.384211 -17.159954 38.894291 0.097110 2.027726 -0.001418 -0.007254 150064.000000 0 0 1
-33.525442 -2.634211 -17.196454 37.770522 0.078412 2.043492 -0.004536 -0.003205 202294.000000 0 0 1
-33.527012 -1.084011 -17.049254 37.628615 0.032321 2.041028 -0.014332 0.003670 -708841.000000 0 0 1
-33.896602 -0.218711 -18.075754 38.415626 0.006452 2.060689 -0.013204 0.000579 172342.000000 0 0 1
-33.478612 1.113589 -17.787454 37.926917 -0.033250 2.058946 -0.002207 -0.004300 -282660.000000 0 0 1
-33.819092 2.281089 -18.733154 38.728095 -0.067348 2.075685 -0.007060 0.001051 -1150090.000000 0 0 1
-32.995792 2.352989 -19.805054 38.555142 -0.071191 2.110266 -0.000208 0.003899 -383791.000000 0 0 1
-33.167702 3.470189 -20.640054 39.219261 -0.104246 2.125008 0.006666 0.003746 -469680.000000 0 0 1
-32.229912 3.557089 -21.863754 39.108104 -0.109921 2.164047 0.011122 0.012671 247958.000000 0 0 1
-30.862562 3.737389 -21.517954 37.808572 -0.120511 2.176242 0.011575 0.015121 738036.000000 0 0 1
-30.093652 4.154789 -22.655254 37.896579 -0.137195 2.211573 0.013542 0.018307 165535.000000 0 0 1
-28.613232 4.519289 -22.448854 36.648220 -0.156650 2.230079 0.001462 0.018628 355889.000000 0 0 1
-27.786792 3.413989 -22.086154 35.658930 -0.122251 2.238739 -0.001039 0.026095 1105570.000000 0 0 1
-26.407202 3.766689 -21.910154 34.519315 -0.141683 2.258444 -0.012998 0.026002 1121870.000000 0 0 1
-25.492432 2.739189 -21.180754 33.256451 -0.107040 2.261256 -0.007293 0.023530 45913.000000 0 0 1
-25.672492 2.889389 -19.755054 32.522109 -0.112076 2.223623 -0.008698 0.025073 120365.000000 0 0 1
-25.276932 1.721389 -19.064154 31.706914 -0.067996 2.215876 -0.004022 0.020967 -485367.000000 0 0 1
-24.366882 2.045489 -17.866354 30.284246 -0.083749 2.201800 -0.004232 0.012681 -101386.000000 0 0 1
-23.158582 2.658489 -18.276454 29.621213 -0.114295 2.235728 -0.008275 0.011099 -34353.800000 0 0 1
-22.614782 3.244889 -17.088454 28.530210 -0.142513 2.212998 0.005525 0.007027 -444345.000000 0 0 1
-21.609982 4.372389 -17.344054 28.052189 -0.199637 2.237346 0.012495 0.002084 387296.000000 0 0 1
-20.425482 3.775189 -17.865454 27.397569 -0.182765 2.281123 0.014400 0.000198 140059.000000 0 0 1
-19.279782 4.603289 -17.910854 26.715144 -0.234375 2.305596 0.005080 0.001601 743324.000000 0 0 1
-18.019282 3.844389 -18.472654 26.090473 -0.210197 2.357491 0.008011 -0.001741 296923.000000 0 0 1
-17.603282 2.906089 -17.507854 24.996916 -0.163612 2.346755 0.009963 0.000254 -147731.000000 0 1 0
-16.727382 1.959989 -18.068854 24.700816 -0.116641 2.391328 0.014216 -0.003393 -644459.000000 0 1 0
-16.957082 0.566589 -17.445054 24.335027 -0.033401 2.370099 0.012367 -0.006329 166263.000000 0 1 0
-18.078582 -0.166511 -17.874354 25.423520 0.009210 2.350493 0.012960 -0.010591 405272.000000 0 0 1
-19.354082 0.233089 -17.376054 26.010807 -0.012043 2.302357 0.004570 -0.004503 57501.600000 0 0 1
-20.527982 -0.668711 -17.786154 27.169698 0.032564 2.284492 0.005223 -0.001893 -338315.000000 0 0 1
-20.583582 -1.918611 -17.183654 26.882017 0.092942 2.264286 0.011253 -0.011168 250871.000000 0 0 1
-21.546982 -2.720511 -17.808454 28.085844 0.125595 2.257604 0.006501 -0.011189 -290157.000000 0 0 1
-21.589582 -4.103811 -17.088754 27.838405 0.187842 2.231731 0.001703 -0.010235 -11972.500000 0 0 1
-21.923782 -3.864211 -15.739254 27.263684 0.174465 2.186211 0.010263 -0.017486 383209.000000 0 0 1
-21.904682 -5.017011 -14.916654 26.972060 0.225155 2.156806 0.010329 -0.019709 -72713.500000 0 0 1
-21.991182 -4.518711 -13.442054 26.167148 0.202658 2.110288 0.000755 -0.009933 -453687.000000 0 0 1
-23.197082 -3.894111 -13.114954 26.930851 0.166320 2.079432 0.001488 -0.024113 -8258.750000 0 0 1
-23.188882 -3.290711 -11.836754 26.242366 0.140968 2.038744 -0.021474 -0.017861 -482279.000000 0 0 1
-24.326582 -2.275211 -11.664154 27.074188 0.093257 2.016200 -0.000827 -0.006729 -417583.000000 0 0 1
-24.425382 -1.696811 -10.326254 26.572730 0.069358 1.969912 -0.003877 -0.010958 588259.000000 0 0 1
-25.165922 -0.463411 -10.363554 27.220243 0.018412 1.961382 0.001201 -0.017054 -72775.300000 0 0 1
-25.835652 -0.036811 -9.005154 27.360100 0.001425 1.906183 0.003417 -0.005374 -370165.000000 0 0 1
-24.939582 0.224389 -7.951554 26.177477 -0.008997 1.879428 0.002513 -0.010152 210352.000000 0 0 1
-25.544202 0.820689 -6.817754 26.451116 -0.032117 1.831488 0.007038 -0.001698 9607.960000 0 0 1
-24.522682 1.289289 -5.735754 25.217515 -0.052527 1.800256 0.001682 0.003872 216256.000000 0 0 1
-23.944482 2.557089 -5.964654 24.808345 -0.106389 1.813604 0.003033 -0.000377 777151.000000 0 1 0
-22.693282 2.768589 -5.321354 23.472685 -0.121400 1.799489 -0.003314 0.010639 330918.000000 0 1 0
-22.109282 4.194589 -5.469954 23.158914 -0.187492 1.809242 0.010445 0.003431 -349469.000000 0 1 0
-22.622982 5.079489 -4.498054 23.618488 -0.220865 1.762413 0.005888 0.007409 565014.000000 0 1 0
-22.267782 6.408889 -4.827954 23.669328 -0.280236 1.776213 0.020029 0.003083 -440169.000000 0 1 0
-22.928682 7.549989 -4.020954 24.472328 -0.318099 1.735851 0.021635 0.007191 -509268.000000 0 1 0
-22.664382 7.621789 -2.659354 24.059053 -0.324409 1.681557 0.046460 0.009123 417857.000000 0 1 0
-21.345282 8.001589 -2.314954 22.912998 -0.358652 1.672001 0.050474 0.007754 105361.000000 0 1 0
-21.013482 9.523689 -2.453454 23.201002 -0.425527 1.676742 0.057974 0.008143 -326979.000000 0 1 0
-20.699082 9.999689 -3.778354 23.296388 -0.450035 1.733702 0.043699 0.008827 667702.000000 0 1 0
-19.917082 11.192689 -3.747654 23.151918 -0.511982 1.733384 0.042912 0.007512 -97830.800000 0 1 0
-19.619082 11.695889 -5.191154 23.423284 -0.537583 1.794276 0.036300 0.004950 -543729.000000 0 1 0
-18.697882 10.937089 -5.894654 22.449446 -0.529270 1.836486 0.037747 0.006921 -139607.000000 0 1 0
-18.403982 11.572289 -7.158554 22.888191 -0.561322 1.888896 0.021457 0.009541 37505.000000 0 1 0
-17.127482 11.065289 -7.900354 21.867941 -0.573597 1.940432 0.018469 0.003052 -108216.000000 0 1 0
-17.023182 9.813089 -8.601254 21.449172 -0.522927 1.983411 0.021884 0.008339 298968.000000 0 1 0
-18.019182 9.483889 -9.562754 22.496251 -0.484483 2.009849 0.026967 0.014237 -224153.000000 0 1 0
-17.907582 10.209189 -10.876754 23.306926 -0.518147 2.056324 0.016752 0.013566 -55042.800000 0 1 0
-16.872582 9.614989 -11.633354 22.637733 -0.517962 2.110512 0.015230 0.006260 167884.000000 0 1 0
-16.808582 10.277189 -12.884154 23.540400 -0.548778 2.149956 -0.000280 0.014519 56387.900000 0 1 0
-15.710582 9.805489 -13.872054 23.138796 -0.557975 2.213691 -0.000142 0.014252 -351470.000000 0 1 0
-15.823582 8.542689 -14.506354 23.104060 -0.495033 2.249610 -0.000993 0.007553 36560.200000 0 1 0
-15.557782 7.405289 -13.660354 21.988364 -0.444253 2.241138 -0.005872 0.005683 -197262.000000 0 1 0
-15.541982 6.028589 -14.422754 22.043432 -0.370024 2.284037 -0.004587 0.004107 -115302.000000 0 1 0
-14.577182 5.908189 -15.478054 22.067421 -0.385070 2.348154 0.002737 0.002834 602473.000000 0 1 0
-14.801082 4.750589 -16.242654 22.482525 -0.310576 2.378145 0.001896 0.005785 -14133.900000 0 1 0
31.175566 -15.791011 29.001893 45.413453 -0.468849 0.878094 0.010393 0.006538 -354508.000000 0 0 1
30.271766 -14.730011 29.206523 44.568756 -0.452864 0.856198 0.001831 0.007092 578545.000000 0 0 1
29.193346 -14.924011 30.153713 44.544629 -0.472578 0.827209 0.007719 0.006472 854009.000000 0 0 1
29.544446 -15.059011 31.646003 45.837949 -0.471383 0.808770 0.011266 0.000844 -420610.000000 0 0 1
30.193616 -13.947411 32.202863 46.294806 -0.432733 0.801536 -0.000160 0.000216 17664.300000 0 0 1
30.255606 -14.073411 33.599362 47.353772 -0.435381 0.781952 -0.002653 -0.003114 -128033.000000 0 0 1
30.838106 -12.756511 34.249708 47.820077 -0.392227 0.772425 -0.017839 -0.005386 136710.000000 0 0 1
30.351986 -12.492011 -33.810304 47.121439 -0.390442 2.371023 -0.015052 -0.004606 246224.000000 0 0 1
30.526586 -11.078911 -33.599824 46.728609 -0.348144 2.373219 -0.004780 0.001128 -695575.000000 0 0 1
29.939356 -10.672011 -32.249694 45.280234 -0.342413 2.363459 -0.008622 0.001388 156781.000000 0 0 1
28.543976 -10.857811 -32.076484 44.289405 -0.363487 2.380739 0.003722 -0.000113 355382.000000 0 0 1
28.141776 -10.240511 -30.856704 42.999579 -0.348995 2.371153 0.005906 0.002420 392641.000000 0 0 1
27.005756 -11.045911 -30.129214 41.941537 -0.388259 2.372241 0.010713 0.002027 293139.000000 0 0 1
26.906186 -10.871311 -28.738584 40.841577 -0.383989 2.351332 0.016567 0.000338 -398469.000000 0 0 1
26.009256 -11.691711 -28.094684 40.031097 -0.422456 2.348748 0.029927 0.001679 -1573370.000000 0 0 1
25.464066 -11.182511 -26.718274 38.565961 -0.413793 2.336153 0.023756 0.005424 -376141.000000 0 0 1
24.552426 -10.077311 -26.675634 37.629287 -0.389474 2.358742 0.021066 0.001917 1300470.000000 0 0 1
23.434706 -10.064811 -27.600404 37.580156 -0.405662 2.395639 0.013533 -0.002880 618446.000000 0 0 1
22.389006 -11.220211 -27.541044 37.224586 -0.464566 2.403661 0.015875 0.008320 -648786.000000 0 0 1
22.937806 -12.411511 -28.133084 38.362207 -0.495980 2.394039 0.005895 0.002776 77098.900000 0 0 1
22.093206 -13.534011 -27.994454 38.144051 -0.549623 2.394863 0.004735 -0.001251 73736.400000 0 0 1
22.803906 -14.799811 -28.612134 39.467794 -0.575674 2.381757 0.007223 0.004778 375180.000000 0 0 1
22.936606 -14.720211 -29.982314 40.518041 -0.570574 2.403829 0.006090 -0.002882 100396.000000 0 0 1
23.901606 -15.615011 -30.463674 41.751057 -0.578694 2.388607 0.004186 -0.001134 -380704.000000 0 0 1
23.955706 -15.641011 -31.980904 42.910317 -0.578421 2.411776 0.013078 -0.004775 -161407.000000 0 0 1
22.860206 -16.289311 -32.609614 43.026940 -0.619107 2.430866 0.013151 -0.001228 77081.500000 0 0 1
22.973706 -16.617811 -34.024914 44.290378 -0.626220 2.446858 0.015828 -0.002969 -113879.000000 0 0 1
23.151506 -15.472711 34.329465 44.203045 -0.589149 0.681496 0.005302 0.004132 371351.000000 0 0 1
21.992406 -14.638111 34.216286 43.228398 -0.587263 0.657499 0.006704 -0.001234 618966.000000 0 0 1
22.360706 -13.494111 33.426337 42.419479 -0.542970 0.663251 0.011796 0.000564 208792.000000 0 0 1
21.324706 -12.319211 33.554206 41.621999 -0.523859 0.633154 0.017455 -0.002724 920826.000000 0 0 1
20.009706 -12.616611 33.074333 40.662989 -0.562562 0.620863 0.008867 0.000701 730072.000000 0 0 1
19.830906 -12.448011 31.684513 39.397033 -0.560544 0.636407 0.008164 0.007756 -940246.000000 0 0 1
18.410706 -12.867211 31.288613 38.516185 -0.609986 0.622626 0.013899 0.008208 464377.000000 0 0 1
17.450806 -11.838211 31.654503 38.035266 -0.596065 0.587659 0.007552 0.005548 6317.830000 0 0 1
16.352506 -12.335211 32.366213 38.303180 -0.646268 0.564230 0.000941 0.007201 -409160.000000 0 0 1
15.525706 -11.126511 32.807593 37.962942 -0.621814 0.527237 0.003079 0.002007 -426193.000000 0 0 1
14.706206 -10.589811 31.761293 36.567695 -0.624083 0.518504 0.000961 -0.002318 276443.000000 0 0 1
14.084606 -9.323011 32.041393 36.220789 -0.584716 0.485132 0.009997 0.000617 1080900.000000 0 0 1
12.933006 -9.279611 33.143413 36.767644 -0.622384 0.447738 0.011365 -0.000787 78386.600000 0 0 1
11.947506 -10.249511 32.889033 36.462088 -0.709050 0.446402 0.008323 -0.002922 334547.000000 0 0 1
10.808306 -10.301911 33.755435 36.910408 -0.761415 0.416468 0.006454 -0.002261 1568930.000000 0 0 1
9.609206 -9.424611 33.178653 35.804792 -0.775700 0.385384 0.002620 -0.006267 419739.000000 0 0 1
10.030606 -8.080811 33.360759 35.761052 -0.678156 0.368470 0.017675 -0.004172 176284.000000 0 0 1
9.213806 -7.259311 32.594653 34.641063 -0.667303 0.345444 0.009841 0.003857 -306024.000000 0 0 1
9.884006 -5.898411 32.246053 34.238761 -0.538036 0.342852 0.013010 0.006931 -66555.600000 0 0 1
9.953706 -5.146611 33.403512 35.232918 -0.477198 0.323663 0.009809 0.003140 352936.000000 0 0 1
10.303406 -3.780111 33.166123 34.934813 -0.351633 0.319566 -0.007590 0.002789 -307234.000000 0 0 1
10.159506 -2.867411 34.418007 36.000511 -0.275084 0.297603 -0.006628 0.001916 -525675.000000 0 0 1
8.820906 -2.652611 -34.595743 35.800980 -0.292116 2.881379 -0.006641 0.005046 -324945.000000 0 0 1
8.707406 -2.102211 -33.302124 34.485789 -0.236895 2.878833 -0.002988 0.006792 -669840.000000 0 0 1
7.328406 -1.705311 -32.807214 33.658979 -0.228630 2.916146 -0.002992 0.011548 -770069.000000 0 0 1
6.715306 -0.665111 -33.545354 34.217371 -0.098722 2.943077 0.000365 0.011032 168089.000000 0 0 1
5.424606 -0.312911 -33.103924 33.546893 -0.057620 2.978905 -0.005862 0.015188 159604.000000 0 0 1
4.649106 0.744189 -33.965824 34.290599 0.158725 3.003852 0.006185 0.011180 61366.300000 0 0 1
5.171506 2.026589 -34.004314 34.454969 0.373483 2.979678 -0.006232 0.006114 111911.000000 0 0 1
4.359406 2.784289 34.459023 34.845099 0.568380 0.148999 -0.000856 0.005352 410393.000000 0 0 1
4.975506 4.237689 34.306624 34.923604 0.705486 0.188249 0.003004 0.006045 270419.000000 0 0 1
4.688606 4.953889 33.113053 33.808258 0.812903 0.203145 0.007559 -0.008474 421585.000000 0 0 1
5.590506 6.099589 33.095033 34.113633 0.828919 0.244985 0.007694 -0.010138 397745.000000 0 0 1
5.285406 7.209389 32.087873 33.309794 0.938181 0.271699 0.007567 -0.006347 -76679.900000 0 0 1
4.223206 7.997389 32.623163 33.853574 1.084943 0.270434 0.007175 -0.001389 141948.000000 0 0 1
4.032606 9.279889 32.017663 33.578401 1.160862 0.306088 -0.002263 -0.005101 -250800.000000 0 0 1
3.734406 9.366289 30.441313 32.067845 1.191405 0.319863 -0.004856 -0.009396 -830132.000000 0 0 1
2.450006 9.001589 30.045043 31.460066 1.305059 0.301064 0.007773 -0.012274 -666933.000000 0 0 1
2.413906 9.028189 28.571403 30.060941 1.309533 0.316118 0.007669 -0.011417 -928869.000000 0 0 1
1.194506 8.337389 28.079543 29.315519 1.428494 0.291413 0.002045 -0.006453 -686142.000000 0 0 1
0.025406 9.059989 28.427833 29.836651 1.567992 0.308526 0.003417 -0.006132 -85796.200000 0 0 1
-1.101794 8.682389 27.642373 28.994803 -1.444571 0.306630 0.010227 -0.001510 1590350.000000 0 0 1
-2.483294 8.795789 28.416683 29.850302 -1.295631 0.311180 0.018595 -0.004203 839708.000000 0 0 1
-2.826794 10.146089 28.724303 30.594435 -1.299078 0.351453 0.012911 -0.005495 553303.000000 0 0 1
-4.163194 10.203889 29.245953 31.253437 -1.183412 0.360367 0.011664 -0.005087 462366.000000 0 0 1
-4.409994 11.520089 30.060453 32.492943 -1.205197 0.389398 0.006544 -0.003083 -74806.700000 0 0 1
-4.657894 12.743289 29.387973 32.368817 -1.220365 0.432526 0.011097 -0.010278 -223167.000000 0 0 1
-5.838094 12.833389 28.650703 31.931834 -1.143863 0.457305 0.014079 -0.010111 -512597.000000 0 0 1
-5.955594 14.209389 27.913033 31.882805 -1.173907 0.504350 0.007644 -0.011652 -311413.000000 0 0 1
-5.058294 14.397389 26.864633 30.896272 -1.232933 0.516586 0.005995 -0.010077 -471751.000000 0 0 1
-5.061794 15.696389 26.516033 31.226565 -1.258844 0.556423 -0.000882 -0.002351 -341924.000000 0 0 1
-3.837294 16.390889 25.900733 30.890679 -1.340827 0.576337 0.011121 -0.001094 -247350.000000 0 0 1
-3.780594 16.199089 24.490733 29.605732 -1.341517 0.596638 0.010821 0.004522 -564812.000000 0 0 1
-2.798394 17.007789 23.945253 29.503746 -1.407721 0.623910 0.018842 0.008138 -372718.000000 0 0 1
-2.654794 16.763289 22.466553 28.156736 -1.413731 0.646976 0.016048 0.003013 -56678.600000 0 0 1
-2.021594 15.568289 22.017553 27.041285 -1.441666 0.619412 0.007302 0.000329 -11312.800000 0 0 1
-1.983294 15.491289 20.617653 25.865056 -1.443463 0.648279 -0.002307 0.004439 111913.000000 0 0 1
-1.075794 14.355689 20.066553 24.696350 -1.495998 0.622315 0.004047 -0.001577 -262351.000000 0 1 0
-1.513894 13.009889 20.215753 24.087876 -1.454952 0.574894 0.005494 0.003280 -320441.000000 0 1 0
-0.866494 12.110289 19.363753 22.855302 -1.499368 0.560043 0.005740 0.001228 -471875.000000 0 1 0
-1.704794 10.828289 19.080953 22.005475 -1.414639 0.521445 -0.005305 -0.003733 -182978.000000 0 1 0
-2.066094 9.976889 20.109953 22.543675 -1.366595 0.468948 0.002951 -0.006214 578733.000000 0 1 0
-2.988494 10.475289 21.109453 23.754405 -1.292889 0.476394 0.007992 -0.000264 -937600.000000 0 1 0
-4.453594 10.263989 20.902253 23.708398 -1.161407 0.491472 0.007291 0.006112 -1376800.000000 0 1 0
-4.893994 8.958589 21.182953 23.514357 -1.070805 0.449068 0.002917 0.003185 1107530.000000 0 1 0
-6.334094 8.915689 21.318253 23.959928 -0.953096 0.474008 0.003757 0.011220 1299200.000000 0 1 0
-7.115194 7.598489 21.378153 23.777898 -0.818233 0.453141 0.005206 0.010083 -8920.700000 0 1 0
-6.974094 6.898189 22.601653 24.638541 -0.779926 0.409477 -0.000247 0.007752 129138.000000 0 1 0
-7.738694 5.705289 22.678953 24.632755 -0.635286 0.400970 0.000094 0.012759 150423.000000 0 1 0
-7.581794 4.975889 24.025853 25.680434 -0.580787 0.360926 0.000610 0.012037 -135402.000000 0 0 1
-8.296094 5.664089 25.034073 26.974282 -0.599049 0.381595 -0.003678 0.003321 90181.300000 0 0 1
-8.595494 4.836689 26.156923 27.954619 -0.512542 0.360580 -0.000798 0.007666 -257540.000000 0 0 1
-9.483394 5.534489 27.189563 29.322989 -0.528272 0.383812 0.009859 0.000942 -302552.000000 0 0 1
-8.903494 6.723889 27.753263 29.911979 -0.646819 0.382241 0.002710 0.000453 18649.500000 0 0 1
-9.700794 7.265089 28.795793 31.242353 -0.642808 0.398379 0.005382 -0.001520 -13617.100000 0 0 1
-9.027494 8.464289 29.517603 32.006698 -0.753211 0.396982 0.009458 -0.002880 -854630.000000 0 0 1
-8.092594 7.921689 30.333143 32.378122 -0.774726 0.357311 0.010961 -0.004437 -956302.000000 0 0 1
-7.456394 8.970689 31.060023 33.178247 -0.877321 0.359263 0.013017 -0.004823 -136413.000000 0 0 1
-6.447894 8.430689 32.078973 33.789234 -0.917883 0.319526 0.018314 -0.003476 666327.000000 0 0 1
-5.247494 7.885389 31.496023 32.889436 -0.983622 0.292127 0.019261 -0.005137 291185.000000 0 0 1
-4.379194 7.400489 32.482793 33.601732 -1.036470 0.258792 0.015526 -0.002143 -299096.000000 0 0 1
-2.882094 7.498289 32.206773 33.193479 -1.203839 0.244435 0.009413 0.001139 -246997.000000 0 0 1
-2.412194 8.854589 32.260913 33.540855 -1.304827 0.277149 0.000740 0.005424 -901639.000000 0 0 1
-1.028794 8.947289 32.144293 33.382150 -1.456315 0.273177 0.002562 0.000551 -407176.000000 0 0 1
-0.769794 10.332189 31.554193 33.211652 -1.496429 0.317259 0.004372 -0.003191 -107523.000000 0 0 1
-0.988494 11.312389 32.547773 34.471797 -1.483636 0.335683 0.002866 -0.006254 -50566.500000 0 0 1
-1.274394 12.611889 32.079293 34.492968 -1.470091 0.376318 0.005388 -0.007668 -313080.000000 0 0 1
-1.327494 13.587189 33.285203 35.976085 -1.473404 0.389225 0.001897 -0.010385 344294.000000 0 0 1
-0.088494 14.083089 33.821468 36.636497 -1.564513 0.394567 0.014756 -0.002083 311842.000000 0 0 1
-0.291194 14.891389 -34.434425 37.517567 -1.551244 2.733354 0.018721 -0.002016 -711825.000000 0 0 1
0.929706 15.537589 -33.839074 37.247335 1.511032 2.710468 0.013129 -0.000184 -835223.000000 0 0 1
1.487806 16.589589 -34.612416 38.411552 1.481353 2.693082 0.015184 -0.002639 101983.000000 0 0 1
2.783306 16.880389 -34.135919 38.183180 1.407383 2.677000 0.018000 -0.000984 -86422.900000 0 0 1
3.543006 17.856589 34.332899 38.860759 1.374926 0.487546 0.020669 0.005001 -154774.000000 0 0 1
3.096206 19.182589 34.405311 39.513082 1.410769 0.514107 0.014863 0.003796 -41686.800000 0 0 1
3.893906 19.939689 33.539924 39.213265 1.377939 0.544626 0.010144 0.004981 -201221.000000 0 0 1
3.429406 21.455289 33.454570 39.891083 1.412297 0.576000 0.006615 -0.002083 -11459.600000 0 0 1
3.659806 22.052989 -34.652006 41.236998 1.406340 2.568658 0.007614 -0.003954 -24701.700000 0 0 1
3.266706 23.400789 -34.464442 41.785955 1.432095 2.540619 -0.002960 -0.006143 -4242.920000 0 0 1
3.330806 23.867089 -32.970754 40.838741 1.432135 2.510427 -0.003136 -0.007812 -76041.200000 0 0 1
2.774706 25.159289 -32.800244 41.431206 1.460955 2.484350 -0.009839 -0.010890 157176.000000 0 0 1
2.872906 25.518889 -31.450624 40.603066 1.458689 2.456859 -0.004173 -0.010669 -231693.000000 0 0 1
2.367406 26.907989 -31.072034 41.171783 1.483041 2.425982 -0.003946 -0.004126 -2974.380000 0 0 1
3.267706 27.969889 -31.346984 42.138177 1.454494 2.409698 -0.007231 -0.012936 144088.000000 0 0 1
2.798106 29.156589 -30.784254 42.492427 1.475121 2.381054 -0.011853 -0.009277 -571684.000000 0 0 1
3.875006 30.228189 -30.856754 43.369325 1.443300 2.362410 -0.016285 -0.007605 192936.000000 0 0 1
5.005406 30.041189 -30.011964 42.757983 1.405695 2.348862 -0.017201 -0.007905 379026.000000 0 0 1
5.677806 31.201989 -29.560364 43.354546 1.390796 2.321056 -0.001472 -0.009489 -702400.000000 0 0 1
6.874906 31.010689 -28.638194 42.767666 1.352630 2.304497 -0.002319 -0.008623 -471844.000000 0 0 1
8.014206 30.506889 -29.299514 43.050659 1.313899 2.319353 0.002239 -0.009963 548337.000000 0 0 1
9.133706 31.394289 -29.495184 44.033985 1.287676 2.304773 0.014839 -0.008804 457444.000000 0 0 1
8.888806 32.617189 -30.420364 45.478461 1.304738 2.303519 0.011662 -0.005152 -934354.000000 0 0 1
8.032806 33.486689 -29.700084 45.475040 1.335364 2.282477 -0.001196 -0.010270 -18045.200000 0 0 1
7.584706 34.659889 -30.401314 46.723394 1.355360 2.279257 0.003415 -0.005256 1101890.000000 0 0 1
6.218806 34.505889 -31.203214 46.935812 1.392486 2.298031 0.008990 -0.000112 797132.000000 0 0 1
6.290806 33.588289 -32.229474 46.973251 1.385650 2.326944 0.003734 0.002329 -605449.000000 0 0 1
5.148706 33.704789 -32.984584 47.439485 1.419209 2.339631 0.010669 -0.000389 -828357.000000 0 0 1
5.196506 32.994489 -34.345978 47.909145 1.414583 2.370139 0.005700 -0.007590 -139644.000000 0 0 1
6.224106 33.473989 34.188910 48.250689 1.386957 0.783329 0.010955 -0.007908 -80752.900000 0 0 1
6.415006 32.841889 32.946223 46.959510 1.377895 0.793173 0.011663 -0.004565 -290747.000000 0 0 1
5.386806 33.099789 31.836783 46.240615 1.409466 0.811374 -0.003440 0.007973 -127992.000000 0 0 1
5.433006 34.434589 31.438953 46.943223 1.414309 0.836961 -0.000139 0.006146 769750.000000 0 0 1
4.423406 -34.695320 30.454603 46.376876 -1.443988 0.854393 -0.012746 0.001841 601575.000000 0 0 1
17.241618 -22.422111 29.767583 41.062556 -0.915273 0.759860 0.008887 -0.011076 -542474.000000 0 0 1
16.372118 -21.414711 30.228433 40.501781 -0.918063 0.728238 0.004501 -0.007857 1089640.000000 0 0 1
14.987518 -21.836111 30.287173 40.233746 -0.969281 0.718521 0.006615 -0.003382 1138630.000000 0 0 1
14.564718 -22.366111 31.642613 41.396001 -0.993581 0.700704 -0.000858 -0.005488 -516963.000000 0 0 1
15.199118 -23.593111 32.039513 42.593174 -0.998496 0.719369 -0.000062 -0.009070 187476.000000 0 0 1
14.816018 -23.955011 33.319408 43.629576 -1.016890 0.701789 -0.007550 -0.007721 -418011.000000 0 0 1
15.627018 -25.045911 34.010201 45.035488 -1.012963 0.714857 -0.004655 -0.009485 -979795.000000 0 0 1
15.458718 -26.373141 33.613271 45.435301 -1.040620 0.738016 -0.006891 -0.014384 -225891.000000 0 0 1
15.908218 -27.240701 34.590097 46.814549 -1.042234 0.739397 -0.008367 -0.012415 -150491.000000 0 0 1
15.538418 -28.727561 34.381205 47.421330 -1.074975 0.759739 -0.011278 -0.002090 341573.000000 0 0 1
16.310418 -29.323881 33.307441 47.279016 -1.063193 0.789097 -0.011083 -0.010906 524128.000000 0 0 1
15.798118 -30.590441 32.922633 47.636702 -1.094084 0.807760 -0.012788 -0.005881 -136626.000000 0 0 1
16.576118 -31.206521 31.724113 47.487199 -1.082521 0.839203 -0.006036 -0.007813 4511.250000 0 0 1
17.833518 -31.737451 32.065543 48.512877 -1.058857 0.848686 -0.014774 -0.008548 -212796.000000 0 0 1
18.413518 -32.346021 30.945243 48.403831 -1.053281 0.877191 -0.010496 0.000306 -167913.000000 0 0 1
19.832618 -32.961531 31.101983 49.468461 -1.029135 0.890886 -0.010198 0.003067 99489.600000 0 0 1
20.805018 -31.949911 31.052703 49.172309 -0.993595 0.887300 0.000904 0.000596 -422960.000000 0 0 1
21.902118 -32.243311 31.881843 50.356587 -0.974115 0.885217 0.006429 0.000695 -305265.000000 0 0 1
23.033918 -31.196871 31.787053 50.142027 -0.934799 0.884159 0.009349 0.005450 106925.000000 0 0 1
23.782618 -31.290391 30.591793 49.805214 -0.920887 0.909388 0.011502 0.004626 418898.000000 0 0 1
24.629818 -30.110011 30.310533 49.314999 -0.885179 0.908878 0.013282 0.002557 812886.000000 0 0 1
25.699518 -30.346931 29.199343 49.335617 -0.868130 0.937443 0.009849 0.001647 747063.000000 0 0 1
26.841918 -31.007211 29.807893 50.699568 -0.857277 0.942297 0.003219 0.002789 380135.000000 0 0 1
27.793218 -31.229631 28.806333 50.769653 -0.843554 0.967460 0.007783 -0.007810 -111849.000000 0 0 1
28.936318 -32.171081 29.198863 52.200216 -0.838285 0.977179 -0.013440 -0.003896 -156743.000000 0 0 1
28.435218 -33.485261 29.080953 52.683263 -0.866775 0.986040 -0.004897 -0.002556 819266.000000 0 0 1
29.417818 -34.470463 29.467683 54.055205 -0.864320 0.994240 -0.004023 0.000863 -188957.000000 0 0 1
28.748418 33.681208 29.868053 53.413444 0.864248 0.977393 -0.003038 0.003564 -436893.000000 0 0 1
28.290718 33.690768 31.205863 53.937357 0.872302 0.953837 -0.001846 0.008363 920326.000000 0 0 1
27.147418 34.468114 31.590143 54.064502 0.903656 0.946773 -0.001117 0.007221 296108.000000 0 0 1
25.769718 34.303695 30.918443 52.884516 0.926513 0.946359 -0.000910 0.005150 -115975.000000 0 0 1
25.221618 33.005887 31.193833 51.947799 0.918297 0.926690 0.001023 0.011063 602448.000000 0 0 1
23.788818 33.013097 31.136683 51.237345 0.946387 0.917641 -0.003666 0.010692 1041400.000000 0 0 1
23.206718 31.551657 31.207543 50.079633 0.936630 0.898022 -0.005969 0.017009 75359.500000 0 0 1
23.274418 30.776667 30.035063 48.897922 0.923316 0.909374 -0.007573 0.012592 -626759.000000 0 0 1
22.301318 29.816727 30.056183 47.851439 0.928611 0.891669 -0.010587 0.004098 -942366.000000 0 0 1
21.974218 29.349147 28.639763 46.523916 0.928117 0.907659 -0.007929 -0.000154 -336946.000000 0 0 1
21.045218 30.231597 28.032343 46.288907 0.962670 0.920283 -0.005283 -0.006406 36790.500000 0 0 1
20.347918 29.552037 27.015173 44.913030 0.967799 0.925419 0.000529 -0.006612 807349.000000 0 0 1
19.015618 30.224447 26.481343 44.456411 1.009221 0.932697 -0.005454 -0.004603 834159.000000 0 0 1
19.128618 31.464127 25.782983 44.951725 1.024552 0.959938 0.003407 -0.009591 247540.000000 0 0 1
17.816718 31.900477 25.429293 44.516568 1.061443 0.962790 0.012853 -0.009758 -87255.400000 0 0 1
17.755218 33.298387 24.742563 45.124548 1.080931 0.990446 0.018817 -0.014940 -481597.000000 0 0 1
18.404618 33.400327 23.496853 44.793012 1.067162 1.018592 0.018580 -0.012561 527918.000000 0 0 1
19.750518 33.859126 23.677853 45.794805 1.042736 1.027404 0.010463 -0.003245 553056.000000 0 0 1
20.461218 34.051077 22.291053 45.552479 1.029717 1.059453 0.015717 -0.007012 148926.000000 0 0 1
19.909118 -34.294750 21.579453 45.146159 -1.044816 1.072430 0.019455 -0.001691 321892.000000 0 0 1
20.606818 -34.088858 20.386153 44.746916 -1.027072 1.097764 0.028340 -0.006152 -179938.000000 0 0 1
20.282718 -32.718521 19.635853 43.214084 -1.015862 1.099114 0.012757 -0.005699 -137037.000000 0 0 1
20.854118 -31.614421 20.367753 43.002456 -0.987675 1.077375 0.010057 0.001254 91874.300000 0 0 1
20.489318 -30.366741 19.886853 41.682587 -0.977233 1.073442 0.014895 -0.002576 -497042.000000 0 0 1
21.181018 -29.870481 18.580353 41.062278 -0.953992 1.101239 0.009224 -0.006965 -312559.000000 0 0 1
20.808718 -30.547141 17.376753 40.842161 -0.972799 1.131325 0.004765 -0.009120 358413.000000 0 0 1
21.330018 -29.746911 16.324653 40.079206 -0.948719 1.151290 0.002435 -0.000682 -404554.000000 0 0 1
21.091418 -30.348471 14.940553 39.863489 -0.963451 1.186623 -0.000981 -0.006020 -552825.000000 0 0 1
21.737718 -31.542701 14.696653 41.030014 -0.967388 1.204465 0.011164 -0.000495 -248939.000000 0 0 1
21.831718 -31.871401 13.313653 40.861516 -0.970213 1.238913 0.008993 -0.004525 -317515.000000 0 0 1
20.526218 -32.082651 12.499553 40.085671 -1.001631 1.253687 0.006670 -0.001076 -102103.000000 0 0 1
19.944618 -33.326721 12.802853 40.894635 -1.031512 1.252373 0.016706 -0.006600 444773.000000 0 0 1
18.723718 -33.576341 12.088053 40.299744 -1.062102 1.266152 0.019293 -0.003581 274483.000000 0 0 1
17.758118 -34.414326 12.900453 40.818113 -1.094423 1.249236 0.034468 0.000441 -462179.000000 0 0 1
17.223218 -33.752321 14.025853 40.405235 -1.098957 1.216288 0.037019 -0.001290 44625.600000 0 0 1
17.909518 -34.125943 15.163753 41.415821 -1.087501 1.195945 0.027107 -0.004978 -962820.000000 0 0 1
17.743318 -33.195691 16.346453 41.036396 -1.079926 1.161090 0.027841 -0.011442 -148352.000000 0 0 1
16.470118 -33.075611 16.922853 40.640421 -1.108787 1.141309 0.035394 -0.009088 -119370.000000 0 0 1
15.757218 -34.207495 17.419253 41.495458 -1.139132 1.137586 0.028635 -0.002968 -457361.000000 0 0 1
16.127318 34.624930 18.775053 42.561471 1.134904 1.113941 0.014241 -0.010259 -304139.000000 0 0 1
17.271118 33.807621 18.770453 42.350640 1.098495 1.111614 0.006354 -0.006630 -85520.700000 0 0 1
17.365518 33.205297 20.015153 42.482459 1.088939 1.080214 0.010194 -0.014276 39192.800000 0 0 1
18.170618 31.889097 19.884253 41.742897 1.052874 1.074297 0.014231 -0.012874 -539415.000000 0 0 1
17.554318 30.827687 19.250953 40.362106 1.053155 1.073608 0.009566 -0.014734 -744205.000000 0 0 1
18.361918 29.748397 18.870053 39.726642 1.017796 1.075835 0.006087 -0.015172 -581637.000000 0 0 1
17.558218 28.485297 18.577953 38.273275 1.018408 1.063973 0.005948 -0.012828 -211920.000000 0 0 1
17.217718 27.811637 19.787453 38.229312 1.016463 1.026754 0.002889 -0.015677 -150923.000000 0 0 1
16.754018 26.517637 19.425053 36.894646 1.007317 1.016317 -0.000586 -0.006503 -344502.000000 0 0 1
16.535118 25.550647 20.657453 36.782823 0.996427 0.974471 -0.002115 -0.003775 -303392.000000 0 0 1
15.455718 25.848907 21.503253 37.005880 1.031904 0.950745 -0.002344 -0.002260 -1007020.000000 0 0 1
14.559318 24.805537 21.446053 35.877871 1.040036 0.930103 -0.002907 -0.000255 -396461.000000 0 0 1
13.275918 25.226137 22.223553 36.145461 1.086349 0.908618 0.003443 -0.010452 210672.000000 0 0 1
12.518218 26.242407 21.584653 36.211421 1.125699 0.932195 0.013650 -0.015442 832159.000000 0 0 1
11.259518 26.585587 22.207853 36.424702 1.170180 0.915124 0.001435 -0.015547 911770.000000 0 0 1
10.606818 27.788457 21.460253 36.677587 1.206166 0.945786 0.001764 -0.019310 -469576.000000 0 0 1
11.156018 29.033737 21.613053 37.875305 1.203947 0.963515 -0.001302 -0.016175 -421689.000000 0 0 1
10.609218 29.945347 20.684353 37.909389 1.230308 0.993660 -0.000686 -0.016268 -252940.000000 0 0 1
11.077718 31.391127 20.813653 39.259736 1.231546 1.012016 0.007926 -0.017144 -217615.000000 0 0 1
10.360618 32.163427 21.801253 40.213469 1.259168 0.997817 0.001156 -0.013164 89402.400000 0 0 1
10.758718 31.884257 23.194653 40.869889 1.245363 0.967300 0.000275 -0.010513 -86618.200000 0 0 1
10.021918 32.898267 24.113053 42.002073 1.275094 0.959302 -0.004597 -0.009319 736716.000000 0 0 1
8.622718 32.695887 24.298393 41.638735 1.312942 0.947700 -0.004798 -0.012062 265060.000000 0 0 1
8.207518 33.388627 25.467353 42.787263 1.329758 0.933271 0.002726 0.000035 386515.000000 0 0 1
6.749218 33.126637 25.976983 42.634841 1.369807 0.915631 -0.004543 0.003267 364915.000000 0 0 1
5.647318 33.676323 25.266003 42.477734 1.404648 0.933772 -0.016748 0.004432 317764.000000 0 0 1
5.248618 33.036267 24.114253 41.236394 1.413239 0.946186 -0.011742 0.003642 -485027.000000 0 0 1
4.644118 31.601807 24.336803 40.156221 1.424883 0.919707 -0.012992 -0.005027 -192584.000000 0 0 1
5.554918 30.647977 24.966103 39.918191 1.391494 0.895112 -0.009408 -0.005317 -25737.400000 0 0 1
5.064118 29.362957 24.927083 38.848269 1.400010 0.874146 -0.013600 -0.006365 -1961700.000000 0 0 1
6.053218 28.318457 25.420193 38.532619 1.360210 0.850369 -0.009830 -0.006159 -315256.000000 0 0 1
7.013118 27.913637 24.428953 37.750877 1.324648 0.867009 0.004462 -0.008933 500632.000000 0 0 1
8.004818 28.923687 24.257453 38.588610 1.300798 0.891023 0.000083 -0.006445 -1162970.000000 0 0 1
9.322318 28.636587 25.017793 39.151625 1.256077 0.877602 -0.003744 -0.010538 -586183.000000 0 0 1
9.157218 28.487737 26.404353 39.907339 1.259784 0.847790 -0.001182 -0.001564 100991.000000 0 0 1
10.353718 28.532327 27.161333 40.731207 1.222696 0.840832 0.018037 0.003416 138950.000000 0 0 1
11.058718 29.901257 27.458063 42.075238 1.216556 0.859793 0.008288 -0.000111 -311325.000000 0 0 1
10.328818 30.857157 28.146243 43.023943 1.247789 0.857673 0.012983 -0.001241 -11395.100000 0 0 1
10.948718 32.128617 28.023983 44.016657 1.242361 0.880627 0.003948 0.003840 -114784.000000 0 0 1
10.274118 33.193647 28.941643 45.221615 1.270628 0.876304 0.017935 0.004890 -70628.700000 0 0 1
10.546218 33.128667 30.336163 46.141241 1.262599 0.853349 0.030703 -0.003016 145171.000000 0 0 1
9.816318 32.103627 30.972673 45.676137 1.274055 0.825631 0.034818 -0.002131 -266945.000000 0 0 1
10.273418 31.962537 32.415723 46.668255 1.259805 0.802934 0.044662 -0.010753 -220702.000000 0 0 1
10.093518 30.660237 32.976213 46.144988 1.252765 0.774713 0.050310 -0.011335 195074.000000 0 0 1
10.243518 30.771317 34.340545 47.234274 1.249443 0.756816 0.063303 -0.016527 -31557.700000 0 0 1
10.177818 29.354177 -34.422758 46.370055 1.237042 2.407366 0.045955 -0.012407 -421222.000000 0 0 1
11.368718 28.654007 -34.645725 46.374844 1.193088 2.414455 0.046806 0.001485 -223703.000000 0 0 1
11.247118 27.320097 -34.202738 45.196379 1.180262 2.429136 0.047919 -0.007866 -309700.000000 0 0 1
12.605918 26.639467 -34.186276 45.136148 1.128814 2.430124 0.047773 -0.005271 -356048.000000 0 0 1
12.490718 25.233787 -34.212744 44.308847 1.111157 2.453002 0.032426 -0.010646 -169568.000000 0 0 1
12.633018 24.641507 -32.924554 43.021196 1.097062 2.442319 0.042377 -0.005575 -311465.000000 0 0 1
12.447818 23.068697 -32.969984 42.120456 1.075975 2.469876 0.020897 -0.009560 -876856.000000 0 0 1
13.507218 22.352697 -33.480334 42.461992 1.027238 2.479126 0.009857 -0.002525 -768430.000000 0 0 1
13.445718 20.985997 -33.340674 41.626914 1.000987 2.499660 0.001597 0.004121 -638115.000000 0 0 1
14.709818 20.225197 -33.705984 41.970593 0.941981 2.503252 0.004826 -0.001367 -567858.000000 0 0 1
15.782618 20.448597 -32.842204 41.783328 0.913477 2.475128 0.001096 -0.007166 350856.000000 0 0 1
16.972118 19.763697 -33.302874 42.281650 0.861243 2.477772 -0.004537 -0.004431 441157.000000 0 0 1
18.185118 19.997397 -32.407384 42.199917 0.832826 2.446429 -0.008704 -0.006973 -516143.000000 0 0 1
18.690318 21.292497 -32.693744 43.261754 0.850389 2.427548 -0.011741 -0.001763 149840.000000 0 0 1
19.776418 21.709297 -31.858044 43.328227 0.831956 2.396865 -0.008424 -0.000111 408667.000000 0 0 1
19.389218 22.121397 -30.429484 42.323179 0.851122 2.373129 -0.007111 -0.002957 90704.400000 0 0 1
18.800118 23.433897 -30.411814 42.748923 0.894678 2.362292 -0.009830 0.001013 141925.000000 0 0 1
18.399118 23.863697 -29.139294 41.917801 0.913985 2.339429 -0.002783 0.007949 -434864.000000 0 0 1
19.565618 24.450067 -28.345624 42.238532 0.895917 2.306467 -0.007133 0.009309 -22160.400000 0 0 1
20.161618 25.677237 -28.826134 43.551778 0.905149 2.294123 -0.003572 0.006375 516505.000000 0 0 1
19.302818 26.860417 -28.763844 43.834228 0.947673 2.286563 -0.006811 0.011146 -113211.000000 0 0 1
20.018518 28.034797 -29.446614 45.318804 0.950697 2.278073 -0.008349 0.007039 -728938.000000 0 0 1
20.044718 27.982057 -30.866764 46.233574 0.949187 2.301813 -0.014312 0.005316 42148.800000 0 0 1
20.644418 26.847537 -31.533544 46.274687 0.915277 2.320528 -0.008623 0.007767 -506011.000000 0 0 1
22.071718 26.517627 -31.120464 46.463196 0.876644 2.304719 -0.005554 0.005445 -1188450.000000 0 0 1
23.030518 27.542117 -31.228914 47.583801 0.874373 2.286691 -0.013734 0.002305 -565457.000000 0 0 1
24.294918 27.066497 -30.878974 47.711103 0.839308 2.274712 -0.003147 0.002397 47926.400000 0 0 1
25.460418 28.002207 -31.361844 49.152027 0.832906 2.262770 -0.007138 0.006273 232504.000000 0 0 1
25.546518 29.215627 -30.623874 49.436820 0.852299 2.238844 -0.013066 0.008347 298097.000000 0 0 1
26.684318 29.965917 -31.043994 50.732027 0.843261 2.229283 0.000232 0.007964 381266.000000 0 0 1
26.864318 31.296387 -30.306614 51.182481 0.861455 2.204494 -0.008038 0.008845 -92450.100000 0 0 1
27.222218 31.020897 -28.947694 50.411449 0.850527 2.182458 0.003125 0.009050 -20312.900000 0 0 1
26.658718 32.045657 -28.151854 50.300480 0.876906 2.164788 -0.004329 0.010799 -986153.000000 0 0 1
27.176018 32.062637 -26.695224 49.791402 0.867702 2.136655 0.005052 0.019954 -408071.000000 0 0 1
27.000918 30.903567 -25.859934 48.505837 0.852694 2.133093 0.003888 0.020201 243773.000000 0 0 1
25.686318 30.378467 -25.751494 47.389637 0.868895 2.145277 0.010297 0.021269 59192.500000 0 0 1
25.205318 30.075247 -24.298954 46.154824 0.873266 2.125235 0.012694 0.022551 -64641.600000 0 0 1
24.945818 31.236297 -23.561754 46.402116 0.896900 2.103394 0.023636 0.014955 111779.000000 0 0 1
24.366118 31.069897 -22.303854 45.348739 0.905742 2.084986 0.031587 0.019971 59762.800000 0 0 1
2.834918 -26.358461 -19.276354 32.777783 -1.463656 2.199494 -0.013222 0.013023 -363033.000000 0 0 1
2.771418 -27.579151 -18.519654 33.335686 -1.470643 2.159821 -0.017909 0.012591 197175.000000 0 0 1
2.648218 -27.253571 -17.151754 32.310260 -1.473931 2.130394 -0.013330 0.012810 -69923.500000 0 0 1
2.711218 -28.554901 -16.325954 33.004089 -1.476133 2.088245 -0.015391 0.015061 -854853.000000 0 0 1
4.026218 -28.956241 -16.171554 33.409482 -1.432637 2.076063 -0.002573 0.013964 -841678.000000 0 0 1
4.077418 -30.080191 -15.308454 33.996941 -1.436066 2.037885 -0.001440 0.008842 1227920.000000 0 0 1
5.566718 -30.480371 -14.932454 34.395052 -1.390154 2.019886 0.004300 0.000098 1276000.000000 0 0 1
6.192418 -29.614411 -13.994454 33.334729 -1.364665 2.004039 0.013789 0.009837 -294336.000000 0 0 1
7.575618 -29.872331 -13.856954 33.789959 -1.322432 1.993350 0.017740 0.004781 204326.000000 0 0 1
7.961318 -30.868961 -12.657954 34.300134 -1.318390 1.948767 0.015344 0.004487 -500595.000000 0 0 1
8.123818 -30.210671 -11.358254 33.281992 -1.308105 1.919067 0.010264 0.004957 -20658.500000 0 0 1
8.311618 -31.156721 -10.275054 33.843774 -1.310099 1.879268 0.016168 0.007379 345746.000000 0 0 1
9.625818 -31.991101 -10.223554 34.937201 -1.278523 1.867769 0.007119 0.003867 -273724.000000 0 0 1
10.657318 -31.344711 -9.557154 34.458795 -1.243054 1.851831 0.002807 0.010836 -530592.000000 0 0 1
11.815618 -32.145711 -9.630954 35.576831 -1.218560 1.844925 -0.002735 0.003376 399200.000000 0 0 1
13.025118 -31.736511 -8.708254 35.393411 -1.181344 1.819391 -0.010551 -0.000951 287759.000000 0 0 1
13.834818 -30.759081 -9.321954 34.991743 -1.148125 1.840457 -0.024740 0.005428 424843.000000 0 0 1
14.895118 -30.363371 -8.441754 34.857741 -1.114728 1.815406 -0.021000 0.000768 158470.000000 0 0 1
15.968418 -29.427421 -9.029254 34.676951 -1.073623 1.834214 -0.009589 -0.003182 -203883.000000 0 0 1
15.610618 -28.092021 -9.291354 33.454182 -1.063591 1.852231 -0.012030 -0.005812 58881.400000 0 0 1
14.824618 -27.865231 -10.447154 33.247307 -1.081869 1.890437 -0.016997 -0.004425 -231723.000000 0 0 1
14.547018 -26.402561 -10.774054 32.012361 -1.067209 1.914057 -0.021929 -0.005332 -463578.000000 0 0 1
13.555418 -25.812391 -9.921454 30.797145 -1.087230 1.898801 -0.022757 -0.004335 463833.000000 0 0 1
13.117718 -24.517511 -10.301254 29.652972 -1.079515 1.925587 -0.010922 -0.000976 69723.100000 0 0 1
12.413418 -24.383811 -11.665054 29.744524 -1.099908 1.973791 -0.005537 -0.002658 -430161.000000 0 0 1
13.328918 -24.029911 -12.672554 30.260376 -1.064367 2.002902 -0.008883 -0.008175 -76980.800000 0 0 1
12.701918 -24.058211 -13.933354 30.565906 -1.085027 2.044119 0.001594 -0.007764 127567.000000 0 0 1
13.666118 -23.490111 -14.981254 31.032017 -1.043880 2.074609 0.001813 -0.008587 608187.000000 0 0 1
14.687918 -24.308111 -15.549554 32.379127 -1.027265 2.071718 0.008100 -0.008018 394803.000000 0 0 1
15.067218 -23.781111 -16.813954 32.791331 -1.006051 2.109188 0.005323 -0.009331 -672493.000000 0 0 1
15.857318 -24.870211 -17.635854 34.365758 -1.003186 2.109683 0.001750 -0.007421 631625.000000 0 0 1
17.158418 -25.195881 -17.163154 34.983105 -0.972936 2.083589 0.009720 -0.006845 296548.000000 0 0 1
18.127818 -24.188911 -17.492154 34.924156 -0.927662 2.095390 0.001286 -0.009816 637283.000000 0 0 1
19.580118 -24.661311 -17.062954 35.814881 -0.899749 2.067376 0.000964 -0.005869 1188990.000000 0 0 1
20.093418 -25.788871 -17.838254 37.242646 -0.908898 2.070282 0.002568 -0.005260 343882.000000 0 0 1
21.226118 -26.381501 -17.177754 37.968499 -0.893267 2.040275 0.015688 -0.002779 542804.000000 0 0 1
21.945218 -27.364191 -18.121054 39.481188 -0.894856 2.047642 0.011263 -0.001497 -487628.000000 0 0 1
22.595718 -26.711021 -19.199454 39.908197 -0.868668 2.072695 0.015385 -0.002202 -34081.300000 0 0 1
23.064818 -27.638521 -20.189854 41.273526 -0.875360 2.081937 0.010636 -0.005477 387632.000000 0 0 1
24.148418 -27.022731 -21.140354 41.955794 -0.841510 2.098872 0.009978 0.002125 186715.000000 0 0 1
23.623718 -25.868401 -21.746854 41.233238 -0.830721 2.126346 0.009297 0.004136 172318.000000 0 0 1
24.042518 -24.662511 -21.072354 40.377299 -0.798127 2.119857 0.020474 0.003638 -203562.000000 0 0 1
23.246618 -23.469511 -21.543754 39.438009 -0.790169 2.148699 0.039149 0.002298 -622395.000000 0 0 1
23.650018 -23.038211 -22.837754 40.145305 -0.772295 2.175936 0.024769 0.002118 123776.000000 0 0 1
23.007818 -23.661811 -23.931054 40.766854 -0.799410 2.198172 0.003524 0.000520 314918.000000 0 0 1
22.103618 -22.739811 -24.857254 40.293325 -0.799584 2.235604 -0.003681 0.001388 380218.000000 0 0 1
22.794918 -21.873411 -25.720284 40.738034 -0.764771 2.254099 -0.010018 0.007994 -520655.000000 0 0 1
21.922418 -21.062211 -26.449954 40.296516 -0.765389 2.286811 -0.012314 0.011783 -365987.000000 0 0 1
22.558518 -20.335711 -27.648214 41.071299 -0.733624 2.309292 -0.013364 0.010984 820299.000000 0 0 1
21.528618 -19.748111 -28.510544 40.820588 -0.742289 2.344005 -0.011652 0.010984 1172320.000000 0 0 1
22.163518 -19.099011 -29.595964 41.616281 -0.711266 2.361948 -0.003314 0.008969 -52849.700000 0 0 1
21.272518 -18.158011 -30.443424 41.340482 -0.706575 2.398540 0.006659 0.006419 -450560.000000 0 0 1
20.242818 -18.826911 -31.142124 41.642000 -0.749174 2.415619 0.009231 0.005592 179979.000000 0 0 1
19.396818 -17.820511 -31.688994 41.206790 -0.743069 2.448109 0.010691 0.003498 -266476.000000 0 0 1
18.154318 -18.359011 -32.414054 41.440360 -0.791004 2.468962 0.003477 0.001251 -254447.000000 0 0 1
18.396818 -19.007711 -33.680744 42.826727 -0.801729 2.475824 0.006833 0.002255 529684.000000 0 0 1
17.254118 -19.750611 -34.108535 43.025381 -0.852760 2.486110 0.005833 -0.000277 183059.000000 0 0 1
17.559918 -20.567511 33.964105 43.415823 -0.864118 0.672450 0.018193 -0.011240 386557.000000 0 0 1
18.629218 -21.504911 34.134141 44.437018 -0.856928 0.694855 0.014977 -0.007683 300009.000000 0 0 1
18.794718 -22.318711 33.045053 44.083351 -0.870903 0.723333 0.014779 -0.009379 -50201.100000 0 0 1
19.336018 -23.706811 33.436502 45.319909 -0.886596 0.741008 0.010165 0.002827 -96336.000000 0 0 1
18.540618 -24.431411 34.381568 46.073209 -0.921633 0.728404 0.008510 -0.004185 -338869.000000 0 0 1
18.810618 -24.114311 -33.659704 45.478732 -0.908333 2.404045 0.011167 -0.009705 -404395.000000 0 0 1
17.850118 -24.637311 -32.579354 44.576206 -0.943806 2.390390 0.001905 -0.006807 -456231.000000 0 0 1
17.834418 -26.038891 -32.439524 45.259397 -0.970267 2.369922 -0.002571 -0.012388 154978.000000 0 0 1
18.948218 -26.574641 -31.735114 45.523225 -0.951386 2.342168 -0.002700 -0.013481 261383.000000 0 0 1
19.178318 -28.107921 -31.911984 46.650165 -0.972042 2.324124 -0.001391 -0.015248 450299.000000 0 0 1
18.299018 -28.907231 -31.098844 46.234405 -1.006447 2.308559 -0.012002 -0.013053 187082.000000 0 0 1
18.620118 -30.254751 -31.307254 47.351905 -1.019098 2.293162 -0.015219 -0.008652 -180346.000000 0 0 1
17.648718 -31.333621 -30.735974 47.307221 -1.057836 2.277999 -0.009626 -0.009450 1161460.000000 0 0 1
16.412518 -31.639091 -31.433404 47.523276 -1.092268 2.293522 -0.016680 -0.011243 911720.000000 0 0 1
16.532018 -32.297471 -32.684104 48.833236 -1.097700 2.304063 -0.011768 -0.004467 -658212.000000 0 0 1
15.149318 -32.725281 -33.175084 49.000327 -1.137247 2.314527 -0.010453 0.000461 -37826.300000 0 0 1
14.361618 -31.706821 -33.726324 48.466932 -1.145492 2.340417 -0.004195 0.000506 -110015.000000 0 0 1
13.097418 -32.101611 -34.213085 48.709250 -1.183414 2.349552 -0.006368 0.001878 382065.000000 0 0 1
12.200318 -30.984181 34.513340 47.958710 -1.195681 0.767503 0.003030 0.006090 325818.000000 0 0 1
11.836018 -30.015911 -33.859884 46.771124 -1.195192 2.380305 0.003656 0.000073 -176294.000000 0 0 1
11.065818 -28.982451 -34.384884 46.311500 -1.206068 2.407546 0.005231 0.001340 -423651.000000 0 0 1
10.619918 -28.108371 -33.212894 44.787940 -1.209555 2.406187 0.004276 0.002706 117102.000000 0 0 1
9.578718 -28.784531 -32.537184 44.485609 -1.249550 2.391182 0.000034 0.001683 -112424.000000 0 0 1
8.405918 -28.015071 -32.379194 43.633885 -1.279294 2.406943 0.016328 0.006212 -365698.000000 0 0 1
7.371018 -28.587411 -31.440524 43.128628 -1.318451 2.387648 0.009966 0.009234 -612653.000000 0 0 1
6.431118 -29.507921 -31.950864 43.965150 -1.356207 2.384348 0.004802 0.010474 122506.000000 0 0 1
6.909218 -30.746111 -32.591814 45.335273 -1.349750 2.373024 0.006246 0.007930 -329983.000000 0 0 1
5.727018 -31.306811 -33.391504 46.129250 -1.389865 2.380189 0.008773 0.005891 194007.000000 0 0 1
4.697418 -31.742301 -32.525294 45.689541 -1.423877 2.362962 0.009320 0.003005 -85747.100000 0 0 1
3.686518 -32.422531 -33.250334 46.587505 -1.457580 2.365588 0.001852 0.001189 684993.000000 0 0 1
2.455618 -32.810081 -32.316804 46.118405 -1.496092 2.347224 -0.001195 -0.001362 393321.000000 0 0 1
1.583918 -31.735011 -32.158714 45.208435 -1.520927 2.362204 -0.015928 0.009016 -130746.000000 0 0 1
0.678118 -32.060841 -31.102674 44.673636 -1.549648 2.340914 -0.019177 0.002341 133026.000000 0 0 1
-0.403282 -31.038441 -30.737734 43.684731 1.557804 2.351285 -0.007312 -0.000492 -165490.000000 0 0 1
-1.252482 -31.407071 -29.677084 43.228488 1.530938 2.327484 -0.009130 -0.002795 -42386.000000 0 0 1
-1.908182 -30.241241 -29.224654 42.098150 1.507781 2.338108 -0.006139 -0.002893 -242756.000000 0 0 1
-2.456482 -30.421861 -27.809834 41.290566 1.490224 2.309751 -0.001612 -0.006084 -131773.000000 0 0 1
-1.448982 -30.446011 -26.829814 40.606626 1.523240 2.292581 -0.005533 -0.000183 32152.800000 0 0 1
-2.089482 -30.601301 -25.565674 39.930055 1.502621 2.265635 -0.005677 -0.001532 354654.000000 0 0 1
-1.088982 -30.942881 -24.465554 39.461514 1.535618 2.239520 -0.010886 -0.005843 13075.200000 0 0 1
-1.717082 -30.994891 -23.219654 38.765758 1.515454 2.213015 0.002544 -0.008860 -241641.000000 0 0 1
-0.761282 -31.282561 -22.241854 38.391122 1.546465 2.188726 -0.005965 -0.004615 32195.300000 0 0 1
-1.338382 -31.041211 -20.809954 37.395217 1.527707 2.160948 -0.022259 -0.000266 47231.400000 0 0 1
-1.569382 -29.678301 -20.485454 36.095960 1.517966 2.174296 -0.014698 -0.000901 499728.000000 0 0 1
-0.416982 -29.046331 -19.897954 35.210677 1.556442 2.171365 -0.018610 -0.001181 254933.000000 0 0 1
-0.683282 -27.659821 -19.322454 33.747442 1.546098 2.180422 -0.020778 0.003478 -441799.000000 0 0 1
-1.304482 -27.728231 -18.085554 33.130707 1.523786 2.148241 -0.014377 0.004690 -181701.000000 0 0 1
-1.494082 -26.389541 -17.659954 31.788585 1.514240 2.159813 -0.012060 0.011026 -93357.100000 0 0 1
-2.086282 -26.293131 -16.262554 30.986319 1.491615 2.123312 -0.014417 0.010038 -164272.000000 0 0 1
-2.062382 -24.994011 -15.693154 29.584271 1.488468 2.129935 -0.017111 0.018144 -25027.900000 0 0 1
-2.777882 -24.953411 -14.485854 28.986710 1.459930 2.094096 -0.019448 0.012583 -214382.000000 0 0 1
-2.502482 -23.744111 -13.540854 27.448132 1.465790 2.086705 -0.013844 0.016230 -122080.000000 0 0 1
-1.300782 -23.758011 -12.806054 27.020921 1.516100 2.064546 -0.013672 0.010601 -528321.000000 0 0 1
-1.216782 -22.625911 -11.950754 25.617044 1.517070 2.056144 -0.010693 0.009883 605123.000000 0 0 1
0.017718 -22.723011 -10.997254 25.244309 -1.570017 2.021538 -0.005697 0.005265 587669.000000 0 0 1
0.335018 -21.456511 -10.389254 23.841785 -1.555184 2.021677 -0.004070 0.005537 -844576.000000 0 1 0
1.542818 -21.574211 -9.717254 23.711852 -1.499406 1.993037 -0.005306 0.004136 -384795.000000 0 1 0
2.149018 -20.194211 -9.345054 22.355189 -1.464778 2.002068 0.005270 0.005584 -797507.000000 0 1 0
2.707118 -19.564811 -10.548654 22.391615 -1.433303 2.061332 0.004575 0.011818 122875.000000 0 1 0
3.429418 -18.380911 -10.271454 21.333579 -1.386342 2.073126 -0.000844 0.005591 -49186.200000 0 1 0
4.904518 -18.625211 -9.912754 21.661382 -1.313315 2.046117 0.010602 -0.005238 -395227.000000 0 1 0
4.886918 -19.253111 -8.686154 21.679796 -1.322221 1.983030 0.009908 -0.000029 109073.000000 0 1 0
5.884718 -20.285211 -8.673454 22.833057 -1.288448 1.960445 0.008747 0.013480 -213455.000000 0 1 0
5.588418 -21.283911 -7.576954 23.273279 -1.314027 1.902405 0.009191 0.006932 -445000.000000 0 1 0
4.433018 -22.021111 -7.835254 23.790170 -1.372144 1.906410 0.004298 -0.005215 -336855.000000 0 1 0
4.268518 -23.052011 -6.844454 24.422572 -1.387701 1.854852 0.011053 -0.006983 469921.000000 0 1 0
3.221818 -24.139211 -7.299554 25.423712 -1.438112 1.862011 0.000226 -0.005444 563719.000000 0 0 1
3.554518 -24.815511 -8.517954 26.476400 -1.428526 1.898340 0.002988 -0.002605 191695.000000 0 0 1
2.449418 -25.577861 -8.954954 27.210620 -1.475324 1.906144 -0.011650 0.000128 458970.000000 0 0 1
2.855918 -26.276391 -10.287354 28.362557 -1.462534 1.941970 0.002607 0.001207 219610.000000 0 0 1
3.591518 -27.462561 -10.126154 29.489494 -1.440756 1.921312 -0.002241 -0.002766 -38568.900000 0 0 1
4.192918 -27.889641 -11.349454 30.401032 -1.421574 1.953386 0.014740 -0.000265 229365.000000 0 0 1
4.488818 -29.396751 -11.430954 31.858832 -1.419269 1.937778 0.014932 0.002277 -490650.000000 0 0 1
3.368418 -30.226621 -11.519754 32.522294 -1.459815 1.932867 0.006646 0.000992 -441723.000000 0 0 1
3.662218 -31.622081 -11.449554 33.829871 -1.455498 1.916060 0.003402 -0.000385 -624093.000000 0 0 1
2.441818 -32.492741 -11.649454 34.604198 -1.495788 1.914152 -0.002514 -0.005877 -376299.000000 0 0 1
2.053618 -32.462581 -13.074754 35.056893 -1.507619 1.952991 -0.005300 -0.003840 239622.000000 0 0 1
1.192218 -33.513191 -13.425054 36.121842 -1.535237 1.951593 -0.007463 -0.003947 -576507.000000 0 0 1
0.734118 -33.541671 -14.881354 36.702007 -1.548913 1.988283 -0.009708 0.000910 -416663.000000 0 0 1
-0.104282 -32.457921 -15.101654 35.799267 1.567584 2.006273 -0.010858 -0.002962 -348664.000000 0 0 1
-0.423982 -32.474821 -16.509554 36.432940 1.557741 2.041091 -0.014801 -0.012593 551669.000000 0 0 1
-1.674282 -31.631391 -16.966654 35.933487 1.517915 2.062545 -0.011707 -0.010606 274885.000000 0 0 1
-2.881082 -32.126481 -16.496754 36.229192 1.481356 2.043555 -0.010885 -0.014975 -671969.000000 0 0 1
-3.984582 -31.633821 -17.244254 36.248308 1.445497 2.066585 -0.004733 -0.009240 957082.000000 0 0 1
-5.365382 -31.757391 -16.525654 36.199675 1.403428 2.044869 -0.002525 -0.016382 440150.000000 0 0 1
-5.442982 -30.853181 -15.398554 34.909316 1.396177 2.027622 -0.006812 -0.016328 281123.000000 0 0 1
-6.777382 -30.647711 -14.939054 34.761911 1.353161 2.015016 0.001328 -0.010640 443482.000000 0 0 1
-7.295782 -31.622141 -13.814954 35.270968 1.344047 1.973254 0.002715 -0.024834 237374.000000 0 0 1
-7.678782 -32.931121 -14.347754 36.732553 1.341713 1.972080 0.002621 -0.027795 -129224.000000 0 0 1
-8.225082 -33.774571 -13.369654 37.244077 1.331917 1.937965 0.012512 -0.027423 64125.300000 0 0 1
-8.721082 34.427322 -14.017854 38.181121 -1.322697 1.946730 0.013674 -0.027097 -403476.000000 0 0 1
-7.627282 33.614880 -14.348654 37.336570 -1.347672 1.965252 0.000655 -0.020491 -263457.000000 0 0 1
-8.003082 32.445957 -15.036954 36.645593 -1.328965 1.993617 0.002910 -0.016985 -478811.000000 0 0 1
-6.855482 -22.328111 -3.376554 23.599646 1.272899 1.714365 -0.000547 0.016684 122524.000000 0 1 0
-6.918082 -21.273811 -4.345654 22.788585 1.256390 1.762666 -0.001126 0.018439 -212192.000000 0 1 0
-5.702882 -21.138711 -5.047154 22.468684 1.307286 1.797360 -0.007534 0.013405 36053.400000 0 1 0
-5.760682 -20.068111 -6.132254 21.760494 1.291256 1.856473 -0.011080 0.008748 -520083.000000 0 1 0
-6.620482 -20.414211 -7.141654 22.618002 1.257191 1.892044 -0.003754 0.011689 -724755.000000 0 1 0
-6.842082 -19.247411 -7.978654 21.930250 1.229247 1.943162 -0.009959 -0.001474 -162814.000000 0 1 0
-7.645982 -19.495811 -9.277154 22.904438 1.197044 1.987816 -0.011434 -0.000181 193396.000000 0 1 0
-7.044782 -20.307311 -10.264354 23.819589 1.236878 2.016309 -0.007699 0.008133 -389874.000000 0 1 0
-7.970582 -20.473811 -11.306354 24.709123 1.199543 2.046066 0.004433 0.008802 -49265.900000 0 1 0
-7.547382 -21.429011 -12.450354 25.907080 1.232159 2.072109 0.006860 0.012078 -614395.000000 0 0 1
-6.675582 -20.802611 -13.303954 25.579430 1.260276 2.117769 0.008144 0.008249 -745640.000000 0 0 1
-6.446782 -21.600911 -14.480254 26.792501 1.280763 2.141779 0.006776 0.015237 85803.200000 0 0 1
-5.325882 -20.893011 -15.280754 26.426963 1.321200 2.187349 0.005503 0.020070 1673500.000000 0 0 1
-3.992982 -20.944411 -14.642254 25.865186 1.382410 2.172562 0.001342 0.019911 1804810.000000 0 0 1
-2.908982 -20.466911 -15.411954 25.785363 1.429611 2.211428 0.000659 0.023693 116682.000000 0 0 1
-2.780982 -18.929311 -15.638554 24.710667 1.424926 2.256046 0.017742 0.025837 -656827.000000 0 1 0
-3.720082 -18.227911 -16.431754 24.821327 1.369474 2.294282 0.007123 0.020538 -99758.500000 0 1 0
-3.690182 -18.466011 -17.811054 25.919966 1.373558 2.328363 0.010764 0.013113 -488295.000000 0 0 1
-5.070882 -18.130611 -18.394754 26.321092 1.298079 2.344599 0.013804 0.011044 546859.000000 0 0 1
-6.077182 -19.074611 -17.975454 26.905202 1.262363 2.302453 0.009616 0.014962 600016.000000 0 0 1
-7.364082 -18.794811 -18.528754 27.400536 1.197366 2.313414 0.011434 0.003240 169205.000000 0 0 1
-8.377382 -19.833411 -18.070354 28.108405 1.171141 2.269050 0.013309 0.012797 -467660.000000 0 0 1
-8.019682 -21.156911 -18.424954 29.178916 1.208473 2.254215 0.010608 0.014936 391827.000000 0 0 1
-8.721082 -22.126711 -17.649354 29.616690 1.195350 2.209215 0.025296 0.007127 47521.700000 0 0 1
-8.136482 -23.512111 -17.893954 30.646620 1.237640 2.194296 0.023879 0.002254 -547682.000000 0 0 1
-8.212682 -23.882511 -19.276154 31.770940 1.239585 2.222728 0.004372 -0.003300 204524.000000 0 0 1
-7.426782 -24.951211 -19.743254 32.672865 1.281495 2.219647 -0.000832 -0.001949 610099.000000 0 0 1
-5.865882 -24.758111 -19.818854 32.251506 1.338158 2.232560 -0.000255 0.003699 392265.000000 0 0 1
-5.444082 -23.698711 -20.627054 31.886397 1.344993 2.274298 -0.004270 -0.000618 -180546.000000 0 0 1
-5.261782 -22.418511 -20.056754 30.537671 1.340262 2.287347 0.005921 0.006395 23788.000000 0 0 1
-4.129482 -22.280311 -18.973054 29.554047 1.387534 2.267872 0.005745 0.020679 110159.000000 0 0 1
-2.838082 -22.389011 -19.515554 29.835874 1.444707 2.283784 -0.006314 0.012220 -384308.000000 0 0 1
-1.866282 -22.117511 -18.513754 28.903744 1.486615 2.265986 -0.007476 0.015886 522568.000000 0 0 1
-0.488882 -22.736911 -18.883354 29.559892 1.549298 2.263756 -0.007765 0.014367 278095.000000 0 0 1
0.234018 -22.309911 -20.015254 29.973276 -1.560307 2.302005 -0.009739 0.006436 -1541220.000000 0 0 1
1.398818 -22.993111 -20.084954 30.562154 -1.510035 2.287873 -0.012036 0.000277 -1082440.000000 0 0 1
2.412118 -22.539211 -21.163654 31.011846 -1.464183 2.321889 0.004569 -0.002595 -4191.180000 0 0 1
1.979718 -22.630911 -22.487354 31.964958 -1.483540 2.351107 0.001604 -0.010298 -289524.000000 0 0 1
1.417618 -21.397911 -22.954754 31.413389 -1.504643 2.390189 -0.006507 -0.009601 -117404.000000 0 0 1
0.775218 -21.695911 -24.331354 32.608715 -1.535080 2.413073 -0.001920 -0.008038 -157605.000000 0 0 1
0.209318 -20.559911 -25.003354 32.371615 -1.560616 2.453384 -0.007422 -0.006863 574280.000000 0 0 1
-1.164182 -20.325411 -24.662354 31.979827 1.513582 2.451496 -0.009356 -0.004432 457910.000000 0 0 1
-1.690182 -19.167711 -25.529374 31.968841 1.482845 2.495713 -0.009907 0.000145 -254976.000000 0 0 1
-1.017482 -17.974511 -25.314394 31.063433 1.514250 2.523398 -0.007274 -0.004634 -593181.000000 0 0 1
-1.672782 -16.900311 -25.852614 30.931802 1.472138 2.560374 -0.010518 -0.004070 -576010.000000 0 0 1
-1.017482 -15.543511 -25.523464 29.901224 1.505429 2.593640 -0.012939 -0.004100 354028.000000 0 0 1
0.251218 -15.328511 -26.141664 30.305329 -1.554409 2.611202 -0.010069 -0.005651 122223.000000 0 0 1
0.868118 -14.092511 -25.762074 29.377491 -1.509273 2.640238 -0.007571 -0.000634 499534.000000 0 0 1
0.161318 -12.803611 -26.288524 29.241152 -1.558198 2.688334 -0.014515 0.003369 -28225.100000 0 0 1
0.787718 -11.648711 -25.789964 28.309631 -1.503276 2.716489 -0.007439 0.003603 11641.300000 0 0 1
0.472018 -10.597311 -26.636404 28.670958 -1.526284 2.762600 -0.012882 0.000050 -41339.600000 0 0 1
1.461418 -9.395811 -26.404254 28.064241 -1.416493 2.795928 -0.010177 0.000432 852175.000000 0 0 1
2.826218 -9.580611 -26.749004 28.553193 -1.283939 2.784203 -0.003640 0.009001 167548.000000 0 0 1
3.165418 -9.710611 -28.131094 29.927818 -1.255683 2.793323 -0.006141 0.010685 -516501.000000 0 0 1
4.606418 -9.306611 -28.496064 30.329157 -1.111187 2.792139 -0.005712 0.010290 -486970.000000 0 0 1
4.817018 -7.868211 -28.554034 30.007420 -1.021445 2.829086 -0.012435 0.005090 583312.000000 0 0 1
6.097118 -7.456911 -29.044704 30.600248 -0.885387 2.821371 -0.008839 0.006283 676492.000000 0 0 1
7.349818 -7.636111 -28.133354 30.063527 -0.804500 2.781309 0.000726 0.004198 -23025.300000 0 0 1
7.788618 -8.919511 -27.677434 30.104163 -0.852980 2.737320 0.001989 0.000651 259816.000000 0 0 1
8.368618 -9.709111 -28.692524 31.425492 -0.859414 2.721456 0.000909 -0.005348 -586049.000000 0 0 1
8.955618 -11.026111 -28.210744 31.585191 -0.888649 2.675128 0.006769 -0.009150 -345602.000000 0 0 1
7.978218 -11.995211 -27.870864 31.373908 -0.983867 2.664525 0.007590 -0.002480 -133244.000000 0 0 1
8.347918 -13.285111 -27.390414 31.566069 -1.009780 2.621387 0.005739 0.002458 -298523.000000 0 0 1
9.150418 -14.160311 -28.409624 33.035607 -0.997096 2.606007 0.010080 -0.006846 184812.000000 0 0 1
8.339218 -14.466011 -29.538294 33.931090 -1.047858 2.627090 0.011656 -0.013103 449986.000000 0 0 1
8.822218 -15.681711 -30.072094 35.043950 -1.058346 2.602403 0.008400 -0.007301 204257.000000 0 0 1
7.866918 -16.196111 -31.185004 36.009817 -1.118631 2.617971 0.000685 -0.011609 -69134.900000 0 0 1
7.734118 -15.238311 -32.233724 36.483362 -1.101131 2.654118 0.000923 -0.014759 178179.000000 0 0 1
6.941018 -15.783011 -33.286644 37.487089 -1.156476 2.663664 0.008076 -0.012182 -63983.100000 0 0 1
5.937118 -14.780311 -33.905024 37.460080 -1.188833 2.702405 0.006252 -0.007860 209244.000000 0 0 1
6.534918 -13.663811 -34.537551 37.712694 -1.124688 2.728309 0.000136 -0.004099 -263140.000000 0 0 1
5.549118 -12.793711 34.327545 37.052019 -1.161548 0.385876 0.000431 0.000740 -181496.000000 0 0 1
6.115418 -11.737111 33.307278 35.840381 -1.090465 0.378222 0.012187 0.000805 -72643.100000 0 0 1
6.519218 -12.382111 32.092223 35.010394 -1.086172 0.411183 0.009211 -0.000075 303741.000000 0 0 1
6.873918 -11.441211 31.060783 33.807164 -1.029786 0.405860 0.009730 0.000387 -416213.000000 0 0 1
7.342518 -11.903711 29.711333 32.838609 -1.018097 0.439961 -0.000321 0.004983 -882839.000000 0 0 1
6.476118 -12.461711 28.804863 32.046131 -1.091528 0.453644 0.008816 0.001493 -704707.000000 0 0 1
6.925118 -12.383011 27.439973 30.890911 -1.060884 0.477196 0.005747 0.007445 -571081.000000 0 0 1
6.119818 -13.040411 26.330053 30.012934 -1.132012 0.500609 0.009094 -0.000644 -465540.000000 0 0 1
6.303618 -14.454911 26.334243 30.694827 -1.159571 0.539555 0.011410 0.000272 7296.840000 0 0 1
5.700818 -15.136711 25.239483 29.977506 -1.210604 0.569914 0.012167 -0.003661 79093.700000 0 0 1
4.177718 -15.380211 25.292043 29.894676 -1.305566 0.562286 0.008507 -0.001080 -265174.000000 0 0 1
3.408818 -14.247511 25.090703 29.054346 -1.335954 0.528472 0.002157 0.001235 -2112080.000000 0 0 1
2.090318 -14.542911 25.039493 29.031740 -1.428040 0.530633 0.001184 0.000362 -546274.000000 0 0 1
1.099718 -13.267711 24.984953 28.310589 -1.488099 0.489580 0.003620 0.002631 499568.000000 0 0 1
1.308618 -12.562111 23.784853 26.930250 -1.466999 0.488150 0.009464 0.002200 -51367.400000 0 0 1
0.273318 -11.670611 23.463453 26.207089 -1.547381 0.461671 0.013439 0.010555 1091000.000000 0 0 1
-1.150082 -12.210111 23.056453 26.115312 1.476882 0.488855 0.001097 0.018349 523806.000000 0 0 1
-1.127582 -12.689811 21.711053 25.172854 1.482172 0.530649 0.008133 0.005333 -199839.000000 0 0 1
-2.440782 -13.031211 21.340753 25.123647 1.385639 0.555894 0.018707 -0.000481 116982.000000 0 0 1
-2.603682 -13.818111 20.014253 24.459961 1.384555 0.612444 0.013402 0.000106 -91267.900000 0 1 0
-2.221782 -15.160611 20.196753 25.351317 1.425283 0.649023 0.011948 0.000289 -43784.500000 0 0 1
-2.105182 -15.800711 18.954153 24.765989 1.438343 0.699243 0.010237 0.004497 204033.000000 0 1 0
-2.734282 -17.236711 18.953153 25.764365 1.413476 0.744194 0.007246 0.006355 174334.000000 0 0 1
-2.096682 -18.086611 18.096953 25.671410 1.455387 0.788450 -0.004798 0.007530 -490866.000000 0 0 1
-2.886782 -19.240011 18.053153 26.541060 1.421867 0.822765 0.002615 0.003697 197753.000000 0 0 1
-2.360482 -20.326811 17.097553 26.666036 1.455188 0.874770 -0.002870 0.005208 -215960.000000 0 0 1
-1.247182 -21.100011 17.441953 27.404154 1.511757 0.880882 -0.001861 -0.001007 -562602.000000 0 0 1
-1.559882 -22.309011 18.092253 28.765515 1.500988 0.890586 0.001073 -0.009693 267124.000000 0 0 1
-0.304282 -23.119611 18.573553 29.657813 1.557636 0.894047 -0.002768 -0.004114 751428.000000 0 0 1
0.527718 -23.453111 17.453253 29.239408 -1.548299 0.931154 0.020551 -0.008872 -547643.000000 0 0 1
1.544718 -24.315611 17.891153 30.227942 -1.507354 0.937414 0.001401 -0.000071 -1251420.000000 0 0 1
2.844918 -24.104111 17.164653 29.727547 -1.453314 0.955257 0.003522 -0.012556 -798045.000000 0 0 1
3.406718 -22.857911 17.563053 29.026723 -1.422846 0.920949 -0.010152 0.002037 -438675.000000 0 0 1
4.328418 -22.393611 16.611653 28.216237 -1.379863 0.941314 -0.011831 -0.007933 -13744.700000 0 0 1
4.836218 -20.962611 16.935253 27.379242 -1.344057 0.903909 -0.007435 -0.007376 -246891.000000 0 0 1
5.670318 -21.002911 18.108253 28.305187 -1.307105 0.876623 -0.003141 -0.002642 -194298.000000 0 0 1
6.038518 -19.691311 18.508953 27.691024 -1.273242 0.838727 0.002749 -0.000055 -213093.000000 0 0 1
7.111718 -18.976911 17.708153 26.912421 -1.212239 0.852647 0.004176 -0.001716 -888031.000000 0 0 1
6.724718 -18.627811 16.398653 25.712507 -1.224352 0.879197 -0.002090 0.000665 67129.000000 0 0 1
7.676218 -17.682611 15.928153 25.006102 -1.161234 0.880234 0.006488 0.002510 298955.000000 0 0 1
7.052818 -16.690611 14.894053 23.455310 -1.170992 0.882792 0.000220 0.005216 -102359.000000 0 1 0
6.874618 -17.251511 13.601953 23.019299 -1.191589 0.938630 0.004846 -0.008175 152575.000000 0 1 0
6.190618 -16.302011 12.793053 21.627333 -1.207872 0.937851 0.009117 -0.011253 133619.000000 0 1 0
6.460018 -16.526411 11.317953 21.046381 -1.198167 1.003015 0.011030 -0.005552 489341.000000 0 1 0
7.855018 -16.312911 11.129653 21.252801 -1.122040 1.019632 0.012902 0.001695 227341.000000 0 1 0
8.213718 -16.277511 9.727153 20.664947 -1.103471 1.080703 0.007007 -0.004861 113850.000000 0 1 0
9.744118 -16.237111 9.588653 21.225784 -1.030293 1.102075 0.007389 0.004274 51264.800000 0 1 0
10.173518 -16.004111 8.253953 20.682355 -1.004553 1.160281 0.005088 -0.010531 533837.000000 0 1 0
11.597518 -15.882111 8.133753 21.281490 -0.940072 1.178622 0.014158 -0.012370 1010220.000000 0 1 0
12.505418 -17.030611 7.633353 22.465424 -0.937425 1.224111 0.018134 -0.002372 98260.500000 0 1 0
12.516818 -18.210111 8.410353 23.643454 -0.968607 1.207116 0.010040 0.000145 312392.000000 0 1 0
13.335918 -19.209611 7.779053 24.644869 -0.963952 1.249659 0.008902 0.001919 373033.000000 0 1 0
13.583418 -20.473511 8.578953 26.024457 -0.985015 1.234864 0.003957 0.000849 -32925.400000 0 0 1
12.458118 -21.320711 8.670653 26.171696 -1.041986 1.233116 0.007044 0.004944 -6292.980000 0 0 1
12.835818 -22.559811 9.243453 27.552581 -1.053507 1.228677 -0.002615 0.001670 222067.000000 0 0 1
11.642718 -23.273311 9.910053 27.846168 -1.106940 1.206935 0.002848 -0.001409 147637.000000 0 0 1
11.527118 -22.726911 11.212653 27.840807 -1.101404 1.156286 0.012104 -0.004463 270806.000000 0 0 1
10.480518 -23.236311 12.079353 28.207768 -1.147077 1.128265 0.016061 -0.003467 -177551.000000 0 0 1
10.700518 -24.659611 12.580353 29.679333 -1.161387 1.133076 0.022280 -0.006061 485408.000000 0 0 1
11.754418 -24.880511 13.540953 30.668609 -1.129443 1.113499 0.026983 -0.008488 300933.000000 0 0 1
11.688718 -26.234801 14.032353 31.965573 -1.151655 1.116330 0.019337 -0.006860 -242032.000000 0 0 1
12.945418 -26.671131 14.782053 33.127665 -1.118920 1.108265 0.027360 -0.009032 -297347.000000 0 0 1
13.141418 -25.916061 15.951353 33.147923 -1.101504 1.068754 0.028776 -0.014161 -231652.000000 0 0 1
14.183618 -26.486151 16.694053 34.371247 -1.079145 1.063635 0.036071 -0.008963 -378134.000000 0 0 1
14.018418 -26.277331 18.241153 34.924975 -1.080725 1.021256 0.035833 -0.011402 -10419.900000 0 0 1
14.266218 -24.987711 18.823153 34.383452 -1.052027 0.991485 0.018830 -0.001523 -87599.900000 0 0 1
15.609718 -24.819511 19.208953 35.052180 -1.009376 0.990813 0.015639 -0.001441 -249392.000000 0 0 1
15.850318 -23.511511 19.982553 34.688992 -0.977630 0.956910 -0.000688 0.004096 -29349.300000 0 0 1
15.992218 -22.338711 19.173553 33.502152 -0.949481 0.961479 -0.003744 0.003584 442453.000000 0 0 1
14.768218 -21.784311 18.673953 32.270312 -0.975037 0.953696 0.012398 0.001984 52743.100000 0 0 1
14.886218 -20.708611 17.588353 30.980578 -0.947536 0.967060 0.002782 0.003876 13077.600000 0 0 1
15.652018 -19.581911 17.967153 30.842431 -0.896476 0.948938 -0.002328 0.009423 1228960.000000 0 0 1
17.059918 -19.677211 17.631753 31.450154 -0.856522 0.975656 -0.010147 0.013712 920818.000000 0 0 1
17.755718 -18.296311 17.740053 31.060103 -0.800392 0.962887 -0.003206 0.025335 -791252.000000 0 0 1
18.076018 -18.136911 19.061953 31.922532 -0.787080 0.930876 -0.007820 0.023391 145383.000000 0 0 1
18.657718 -16.859611 19.286853 31.691318 -0.734815 0.916521 -0.000814 0.020509 -154272.000000 0 0 1
19.248418 -16.701411 20.709853 32.838038 -0.714667 0.888384 -0.002021 0.017069 167520.000000 0 0 1
20.448618 -17.376611 21.044553 34.102285 -0.704360 0.905743 0.000600 0.014494 112310.000000 0 0 1
20.778718 -17.151711 22.400253 35.038660 -0.690065 0.877207 -0.003142 0.011022 137571.000000 0 0 1
32.711556 -1.268711 -8.261754 33.762584 -0.038765 1.818008 0.007145 0.004775 -616537.000000 0 0 1
33.986352 -1.090711 -8.817954 35.128593 -0.032082 1.824529 -0.007354 0.004592 -134336.000000 0 0 1
-34.679693 -2.019811 -8.350154 35.727941 0.058176 1.806693 -0.009865 0.002512 -342250.000000 0 0 1
-33.292942 -2.039611 -8.994254 34.546730 0.061186 1.834181 -0.006297 0.001428 46913.000000 0 0 1
-32.585212 -3.270911 -8.713054 33.888231 0.100045 1.830828 -0.003611 -0.000387 -344241.000000 0 0 1
-31.291722 -3.268311 -9.208754 32.781929 0.104069 1.855538 0.005913 -0.004998 -561079.000000 0 0 1
-30.332802 -4.229211 -8.421554 31.762992 0.138534 1.839143 0.008651 -0.003406 146515.000000 0 0 1
-30.264752 -3.935911 -7.002954 31.312744 0.129324 1.796349 0.016815 -0.002155 519531.000000 0 0 1
-29.256962 -4.731211 -6.395054 30.319150 0.160324 1.783317 0.019425 -0.003607 98500.800000 0 0 1
-29.138532 -4.190911 -4.953154 29.852161 0.142848 1.737490 0.019592 -0.006451 -118451.000000 0 0 1
-28.618432 -2.846711 -4.812854 29.159595 0.099145 1.736607 0.011393 -0.003368 717164.000000 0 0 1
-28.975472 -2.411311 -3.504654 29.286088 0.083028 1.690753 0.005159 -0.006274 -330191.000000 0 0 1
-28.487732 -0.981111 -3.211354 28.684948 0.034426 1.682984 0.017490 -0.002365 -1034730.000000 0 0 1
-27.114772 -0.901611 -3.009654 27.296186 0.033239 1.681280 0.018484 0.003800 -174283.000000 0 0 1
-26.722802 0.432189 -2.673154 26.859648 -0.016172 1.670484 0.019395 0.003240 -585544.000000 0 0 1
-25.310902 0.390189 -2.093654 25.400342 -0.015415 1.653316 0.014971 0.006398 -695141.000000 0 0 1
-25.185072 -0.292511 -0.879454 25.202120 0.011614 1.605699 0.018213 0.002641 449683.000000 0 0 1
-23.827282 -0.397511 -0.491354 23.835662 0.016681 1.591412 0.008243 0.001668 -13993.100000 0 1 0
-23.519282 -1.326811 0.661046 23.565950 0.056354 1.542742 0.002914 0.002471 -459303.000000 0 1 0
-23.789082 -2.682311 0.429946 23.943685 0.112280 1.552839 0.014400 0.003193 276399.000000 0 1 0
-22.932782 -3.605311 1.071246 23.239155 0.155936 1.524683 0.011645 -0.000361 -296323.000000 0 1 0
-23.273482 -5.098911 0.764446 23.837748 0.215679 1.538722 0.017385 -0.001212 -304363.000000 0 1 0
-24.299682 -5.510111 1.650246 24.971167 0.222986 1.504662 0.014409 0.004190 343555.000000 0 1 0
-24.796682 -6.808411 1.382346 25.751520 0.267966 1.517090 0.026429 -0.000566 -168235.000000 0 0 1
-25.977332 -7.127911 2.317046 27.036967 0.267799 1.484992 0.013961 0.000500 -202946.000000 0 0 1
-25.630262 -7.471411 3.636746 26.943612 0.283647 1.435407 0.012325 0.003119 30919.400000 0 0 1
-26.756742 -8.046511 4.250246 28.261885 0.292125 1.419836 0.009308 0.005160 -264767.000000 0 0 1
-26.571002 -8.082811 5.792446 28.370802 0.295303 1.365181 0.018465 0.005942 55190.600000 0 0 1
-25.748752 -9.190711 6.181846 28.030030 0.342842 1.348424 0.015847 0.015718 189033.000000 0 0 1
-25.534272 -9.368711 7.541846 28.225011 0.351657 1.300306 0.013565 0.007944 68732.800000 0 0 1
-24.814082 -8.227111 8.358146 27.445995 0.320145 1.261351 0.017748 0.004547 -861614.000000 0 0 1
-23.514382 -8.091411 7.890846 26.089510 0.331413 1.263531 0.016749 0.001823 -778811.000000 0 0 1
-23.086382 -6.816411 8.363746 25.483264 0.287100 1.236393 0.017191 -0.000164 27131.200000 0 0 1
-21.637682 -6.502211 7.920146 23.941527 0.291919 1.233632 0.000220 0.000499 7518.330000 0 1 0
-20.644882 -7.160911 8.654346 23.502925 0.333876 1.193698 0.001636 -0.003318 -361438.000000 0 1 0
-19.372682 -6.752411 8.218646 22.100724 0.335385 1.189771 -0.000769 -0.005046 571675.000000 0 1 0
-18.227182 -7.009011 9.277846 21.620241 0.367105 1.127269 -0.016791 -0.000359 429247.000000 0 1 0
-18.514882 -6.239311 10.432046 22.148531 0.325037 1.080368 0.001008 0.008145 678988.000000 0 1 0
-17.424782 -6.190711 11.360746 21.702868 0.341373 1.019881 -0.008778 0.008961 316439.000000 0 1 0
-17.272282 -4.771311 12.007646 21.570366 0.269520 0.980421 -0.008339 -0.000322 -978032.000000 0 1 0
-18.272282 -4.552011 12.898446 22.824701 0.244151 0.970231 -0.007710 0.003207 -624790.000000 0 1 0
-18.289382 -3.154511 13.247546 22.802410 0.170797 0.950875 -0.001949 0.001752 1118080.000000 0 1 0
-19.450882 -3.021111 14.360946 24.365974 0.154089 0.940499 -0.002068 0.003111 1266430.000000 0 1 0
-19.074082 -3.675211 15.553046 24.884232 0.190348 0.895644 -0.000798 0.013997 579434.000000 0 1 0
-20.283682 -3.971311 16.236146 26.283293 0.193343 0.904935 0.001752 0.011827 320630.000000 0 0 1
-20.034082 -4.819111 17.510046 27.040525 0.236061 0.866434 -0.002621 0.020539 -419164.000000 0 0 1
-21.114782 -4.848811 18.405546 28.427260 0.225727 0.866548 0.001059 0.016888 267006.000000 0 0 1
-20.913282 -5.792511 19.454446 29.144365 0.270204 0.839923 -0.000978 0.015989 -317327.000000 0 0 1
-21.878082 -5.425311 20.579946 30.522429 0.243076 0.830839 0.000561 0.016747 -258114.000000 0 0 1
-21.597082 -4.120811 21.101446 30.474351 0.188538 0.805940 0.011684 0.015839 626518.000000 0 0 1
-22.402082 -3.878811 22.267446 31.823538 0.171445 0.795796 0.012406 0.006661 82948.600000 0 0 1
-22.428382 -2.404211 22.838546 32.100027 0.106787 0.779193 0.008736 0.010352 35857.500000 0 0 1
-23.104982 -1.445211 22.018446 31.949034 0.062468 0.810448 0.018999 0.009886 156234.000000 0 0 1
-22.799682 -0.101311 22.405746 31.966439 0.004444 0.794117 0.015943 0.001775 -453775.000000 0 0 1
-23.887682 0.864089 21.922646 32.434093 -0.036157 0.828593 0.010643 0.003718 361419.000000 0 0 1
-25.093702 0.586389 22.646246 33.806659 -0.023364 0.836755 0.005096 0.006225 -81336.700000 0 0 1
-26.178552 1.351989 22.232446 34.371880 -0.051599 0.867388 -0.000110 0.003303 -336254.000000 0 0 1
-27.236052 1.441489 23.340346 35.897802 -0.052876 0.862964 -0.003068 -0.000323 -573403.000000 0 0 1
-26.754242 2.106089 24.496346 36.335878 -0.078558 0.830964 0.001673 0.001129 323416.000000 0 0 1
-27.659392 2.106789 25.610846 37.754416 -0.076022 0.825277 0.000416 0.001615 -151774.000000 0 0 1
-27.312362 3.194089 26.669446 38.307005 -0.116418 0.800702 0.006690 0.003516 256695.000000 0 0 1
-26.431032 2.621489 27.650446 38.340824 -0.098859 0.765299 0.001434 0.005076 576144.000000 0 0 1
-25.873482 3.487889 28.609846 38.731456 -0.133998 0.739698 0.002630 0.005316 -65677.000000 0 0 1
-24.763682 2.870589 29.504946 38.626701 -0.115404 0.701541 -0.006085 0.009303 -130849.000000 0 0 1
-25.168062 1.974189 30.487346 39.582913 -0.078280 0.691618 -0.000988 0.008465 50943.100000 0 0 1
-24.085182 1.587489 31.309846 39.533815 -0.065816 0.656757 -0.002300 0.005876 37437.300000 0 0 1
-24.433882 0.459989 32.346146 40.540095 -0.018824 0.647026 0.004874 0.003943 -129125.000000 0 0 1
-24.617682 -0.770911 31.695546 40.140157 0.031305 0.660604 0.003234 0.007540 -61142.000000 0 0 1
-24.830582 -1.799011 32.637146 41.048478 0.072325 0.651644 0.011021 0.002019 -772348.000000 0 0 1
-25.452882 -2.999311 31.907946 40.926301 0.117297 0.676699 -0.000319 -0.000928 -376052.000000 0 0 1
-26.807172 -2.890611 31.547546 41.499732 0.107415 0.707196 -0.000377 0.005241 -55173.300000 0 0 1
-27.013192 -2.132511 30.366346 40.698588 0.078780 0.728569 -0.000040 0.005924 -1501890.000000 0 0 1
-28.434942 -1.801711 29.993746 41.369275 0.063278 0.759726 0.004949 0.000101 -759897.000000 0 0 1
-29.122362 -1.011011 30.941046 42.502734 0.034702 0.755429 0.010673 0.012905 -249446.000000 0 0 1
-30.380522 -0.647311 30.397946 42.981743 0.021304 0.785225 0.007335 0.004093 -75486.300000 0 0 1
-31.398372 -0.238411 31.457746 44.446646 0.007593 0.784468 0.010978 0.007026 -490100.000000 0 0 1
-31.711862 -1.363411 32.290646 45.278989 0.042967 0.776817 0.011210 0.007156 83085.400000 0 0 1
-32.505492 -1.074311 33.441046 46.648309 0.033038 0.771485 0.027376 0.002491 111481.000000 0 0 1
-32.415162 -2.283811 34.421446 47.337030 0.070339 0.756625 0.026271 0.005977 -101195.000000 0 0 1
-33.153852 -3.340411 33.886246 47.524877 0.100416 0.776998 0.030435 0.000614 16190.300000 0 0 1
-33.034752 -4.533811 34.618146 48.065230 0.136392 0.766659 0.014085 0.004039 -443144.000000 0 0 1
-34.135349 -5.512411 34.216346 48.645319 0.160105 0.790649 0.011506 0.008938 -524479.000000 0 0 1
34.197155 -4.977411 34.502146 48.832552 -0.144535 0.786200 0.014166 0.006159 -382978.000000 0 0 1
33.190716 -5.757011 33.833946 47.744138 -0.171744 0.783211 0.001654 0.003453 -944946.000000 0 0 1
31.804406 -5.286411 34.221346 47.016666 -0.164710 0.755607 0.003770 0.008458 -1071300.000000 0 0 1
31.365716 -5.618911 -33.864161 46.499050 -0.177262 2.386600 0.001674 0.009892 54988.500000 0 0 1
31.052406 -7.043311 -33.655661 46.331022 -0.223046 2.383891 0.000811 0.008822 596957.000000 0 0 1
29.605866 -7.512911 -34.147961 45.815220 -0.248518 2.411842 -0.006636 0.007519 735171.000000 0 0 1
28.548886 -7.026011 -33.411961 44.505762 -0.241309 2.419968 -0.004980 0.000266 -271027.000000 0 0 1
27.305486 -7.576411 -33.826261 44.127174 -0.270660 2.444268 0.006271 -0.000335 -121989.000000 0 0 1
26.163946 -7.218511 -32.859061 42.618973 -0.269198 2.451200 0.008166 -0.004006 -514506.000000 0 0 1
24.980526 -7.872011 -33.242761 42.321110 -0.305275 2.474282 0.007194 -0.002958 -112541.000000 0 0 1
23.895406 -7.446511 -32.422761 40.959448 -0.302092 2.484190 0.004250 -0.006466 -295865.000000 0 0 1
22.588906 -8.056011 -32.950761 40.754271 -0.342574 2.512434 0.002362 -0.012789 -529633.000000 0 0 1
22.428806 -9.488911 -32.830861 40.877331 -0.400233 2.503370 0.014308 -0.017139 197027.000000 0 0 1
22.272306 -9.997711 -31.529661 39.876426 -0.421927 2.482722 0.020428 -0.015905 -441640.000000 0 0 1
22.090806 -11.543211 -31.481561 40.153930 -0.481512 2.471915 0.016295 -0.007700 -246777.000000 0 0 1
20.856306 -11.951711 -32.015161 40.034977 -0.520368 2.497558 0.012957 -0.009290 -181770.000000 0 0 1
20.664006 -13.354611 -32.138261 40.474864 -0.573751 2.488207 0.006748 -0.003228 -1341280.000000 0 0 1
19.602406 -13.740111 -33.131361 40.874589 -0.611357 2.515906 0.008710 0.000838 -869276.000000 0 0 1
18.307806 -13.396511 -32.715261 39.811186 -0.631710 2.535290 0.006543 0.000424 -436168.000000 0 0 1
17.985206 -12.047511 -33.134561 39.579152 -0.590208 2.562888 0.006942 -0.005444 -1097630.000000 0 0 1
16.647606 -11.624411 -32.502661 38.323526 -0.609559 2.583209 0.005210 -0.007089 -827005.000000 0 0 1
15.594706 -12.259811 -33.161561 38.641777 -0.666240 2.602508 0.003842 -0.000171 -1350010.000000 0 0 1
14.450906 -11.844611 -32.461761 37.455165 -0.686605 2.619311 0.009360 -0.008602 49825.900000 0 0 1
13.179906 -12.270811 -33.287661 37.846414 -0.749694 2.645703 0.004931 -0.002807 -777246.000000 0 0 1
13.086106 -13.698611 -33.440261 38.433698 -0.808262 2.626154 0.004567 0.003255 1260940.000000 0 0 1
11.811406 -14.123011 -34.030461 38.691614 -0.874296 2.645671 -0.007213 -0.003633 1488350.000000 0 0 1
10.597206 -13.920311 -33.080361 37.421733 -0.920117 2.655121 -0.014407 0.001697 -794104.000000 0 0 1
10.125706 -12.583411 -33.066261 36.800133 -0.893204 2.687220 0.003546 0.001582 -422903.000000 0 0 1
9.186106 -12.358211 -32.030661 35.539741 -0.931584 2.693473 0.003545 -0.005689 -35804.700000 0 0 1
8.073506 -11.426111 -32.517361 35.399382 -0.955665 2.735283 0.005611 -0.007401 -132241.000000 0 0 1
8.554406 -10.090511 -32.617461 35.197941 -0.867600 2.756295 0.002413 -0.004807 1003590.000000 0 0 1
7.408006 -9.249311 -32.782161 34.858261 -0.895492 2.794723 0.008787 -0.003685 330866.000000 0 0 1
7.770606 -7.768611 -32.976261 34.758703 -0.785270 2.819957 0.011468 0.004774 -77980.700000 0 0 1
8.267906 -7.100411 -31.876061 33.687644 -0.709576 2.812154 -0.001040 0.006646 120294.000000 0 0 1
8.864506 -5.871011 -32.271361 33.977772 -0.584977 2.823324 0.000546 0.004989 -33617.200000 0 0 1
8.965506 -4.863011 -31.113961 32.743056 -0.497000 2.824821 0.000432 0.010417 -231443.000000 0 0 1
7.708606 -4.347911 -30.747261 31.995640 -0.513554 2.861330 -0.010015 0.015783 17821.000000 0 0 1
7.866006 -3.578311 -29.556861 30.794259 -0.426928 2.857147 -0.000704 0.017285 295684.000000 0 0 1
6.496006 -3.064111 -29.040261 29.915274 -0.440746 2.899133 -0.009225 0.018269 -867210.000000 0 0 1
5.845006 -2.175911 -29.945061 30.587667 -0.356374 2.936251 -0.010100 0.018830 66675.900000 0 0 1
4.592806 -1.687311 -29.540461 29.942941 -0.352075 2.977448 -0.011683 0.012435 -53180.400000 0 0 1
3.454906 -2.703911 -29.354961 29.680991 -0.664059 2.993237 -0.013965 0.006671 -1318180.000000 0 0 1
3.578006 -3.596811 -28.236761 28.688915 -0.788019 2.963817 -0.015459 0.002629 -319004.000000 0 0 1
2.621406 -4.638811 -28.227461 28.725944 -1.056432 2.955026 -0.003283 0.000341 -139723.000000 0 0 1
2.969606 -5.669911 -27.153061 27.897225 -1.088331 2.910099 -0.008962 -0.002693 -114588.000000 0 0 1
2.815206 -5.110111 -25.923961 26.572361 -1.067256 2.920228 -0.000750 -0.005854 -160807.000000 0 0 1
3.055406 -6.110411 -24.983261 25.900501 -1.107123 2.874666 0.003376 -0.009439 -238994.000000 0 0 1
2.773306 -5.660811 -23.552461 24.381436 -1.115251 2.880079 0.006581 -0.010824 130113.000000 0 1 0
3.684606 -4.625611 -23.135761 23.879615 -0.898153 2.891340 0.006805 -0.013459 104836.000000 0 1 0
3.514206 -4.283211 -21.800561 22.493554 -0.883703 2.892723 0.009929 -0.014850 -52118.000000 0 1 0
4.299706 -3.031411 -21.347661 21.986349 -0.614092 2.899969 0.012973 -0.022416 -28874.300000 0 1 0
5.674606 -3.280211 -21.204761 22.194657 -0.524124 2.841805 0.013117 -0.020310 -661902.000000 0 1 0
6.355006 -2.153911 -20.729061 21.788056 -0.326780 2.828533 0.018303 -0.013320 175811.000000 0 1 0
7.848706 -2.470411 -20.445861 22.039472 -0.304937 2.758981 0.010809 -0.009856 -414467.000000 0 1 0
8.566506 -2.567711 -21.680561 23.452609 -0.291217 2.750364 0.009379 -0.010358 -97944.800000 0 1 0
9.850806 -3.118311 -21.533061 23.883780 -0.306574 2.694197 0.010180 -0.008144 687641.000000 0 1 0
10.987206 -2.242411 -20.889261 23.708824 -0.201328 2.648927 0.003542 -0.003532 -369647.000000 0 1 0
10.876906 -2.064111 -19.465661 22.393740 -0.187540 2.624471 0.012660 -0.007487 -214155.000000 0 1 0
12.012706 -1.573711 -18.821061 22.383342 -0.130262 2.569650 0.006916 -0.006513 -510699.000000 0 1 0
12.157906 0.002089 -18.857161 22.436737 0.000172 2.568926 0.008583 -0.008560 -123104.000000 0 1 0
12.448406 0.522689 -20.158661 23.698262 0.041964 2.587995 0.000706 -0.004226 95371.900000 0 1 0
12.243006 1.873789 -20.271461 23.755723 0.151871 2.593135 0.004852 -0.006865 -263199.000000 0 1 0
12.664606 2.550789 -21.608761 25.176126 0.198752 2.602751 0.004136 -0.007952 -435878.000000 0 0 1
14.032806 2.479889 -21.914361 26.140174 0.174915 2.565028 -0.002172 -0.009731 -461206.000000 0 0 1
14.351206 3.536889 -22.801661 27.173193 0.241637 2.566466 0.003541 -0.009218 -518666.000000 0 0 1
15.834906 3.608189 -23.208161 28.326348 0.224038 2.531009 0.004476 -0.013249 179777.000000 0 0 1
16.429506 2.580589 -24.015461 29.211820 0.155797 2.535911 0.012159 -0.014995 282872.000000 0 0 1
16.380206 1.301489 -23.385561 28.581278 0.079288 2.529091 0.003884 -0.013121 -1085510.000000 0 0 1
9.345018 27.353189 3.278046 29.090753 1.241586 1.457873 -0.009132 0.010536 408141.000000 0 0 1
8.999918 27.853189 4.571646 29.625978 1.258266 1.415865 -0.011931 0.005524 561119.000000 0 0 1
10.242818 28.367689 5.016946 30.574676 1.224291 1.405963 -0.009628 0.011418 392539.000000 0 0 1
10.142818 28.924789 6.492346 31.331625 1.233532 1.362070 -0.016448 0.004606 62788.600000 0 0 1
10.127518 27.916889 7.479046 30.624425 1.222787 1.324083 -0.015071 -0.000241 -43010.000000 0 0 1
9.857618 28.458989 8.757346 31.365232 1.237350 1.287830 -0.012578 0.002032 -602897.000000 0 0 1
9.773918 27.257289 9.752746 30.554956 1.226498 1.245925 -0.012186 -0.001210 -534256.000000 0 0 1
10.878418 26.492889 10.179246 30.394575 1.181171 1.229294 0.007577 -0.000103 -316645.000000 0 0 1
11.519518 25.871989 9.079946 29.740621 1.151899 1.260538 0.003122 -0.002052 -891394.000000 0 0 1
12.885218 25.301889 9.467946 29.930861 1.099769 1.248941 0.007356 -0.002082 -634914.000000 0 0 1
13.823018 26.294989 9.796946 31.280704 1.086808 1.252241 0.012748 -0.005646 -319072.000000 0 0 1
14.952018 25.711489 10.399246 31.508536 1.044068 1.234445 0.022784 -0.001486 47694.300000 0 0 1
15.971518 26.714189 11.031846 33.021794 1.031947 1.230170 0.019305 0.004440 -96911.700000 0 0 1
16.610618 27.451989 9.929846 33.587589 1.026651 1.270671 0.021875 -0.003618 1265230.000000 0 0 1
18.027618 27.228689 9.783146 34.089683 0.985975 1.279721 0.024565 -0.002946 1493560.000000 0 0 1
18.964118 27.842389 10.905246 35.408485 0.972851 1.257723 0.025690 -0.005707 -501458.000000 0 0 1
19.051518 29.259589 10.989846 36.604106 0.993634 1.265857 0.026784 -0.014457 454839.000000 0 0 1
17.865118 29.867789 11.490346 36.650720 1.031746 1.251910 0.030836 -0.006115 241545.000000 0 0 1
18.008118 31.407789 11.636746 38.028350 1.050192 1.259806 0.031989 -0.008003 -361701.000000 0 0 1
18.225618 32.164789 10.448446 38.417663 1.055273 1.295357 0.029629 -0.012310 750904.000000 0 0 1
17.144818 32.194089 9.488146 37.688580 1.081453 1.316307 0.036471 -0.012548 1588200.000000 0 0 1
15.783018 32.923489 9.837046 37.813057 1.123777 1.307619 0.038254 -0.012797 756779.000000 0 0 1
15.935018 34.291489 10.133046 39.147281 1.135791 1.308971 0.035878 -0.014116 -822316.000000 0 0 1
14.709418 -34.570320 10.251646 38.943167 -1.168508 1.304411 0.026143 -0.006384 -803179.000000 0 0 1
14.739918 -33.070820 10.521246 37.704654 -1.151518 1.287998 0.024998 -0.000089 217156.000000 0 0 1
15.428118 -32.384320 9.421646 37.088252 -1.126201 1.313948 0.026346 -0.005877 501863.000000 0 0 1
15.457818 -30.961220 9.621146 35.918070 -1.107738 1.299621 0.029592 -0.008824 -43499.000000 0 0 1
16.246418 -30.195920 8.500946 35.327125 -1.077187 1.327776 0.020655 -0.011401 -226051.000000 0 0 1
15.727718 -30.287020 7.229246 34.884477 -1.091837 1.362050 0.017584 -0.015872 150635.000000 0 0 1
16.599918 -29.770120 6.239046 34.651739 -1.062134 1.389759 0.009709 -0.005367 176966.000000 0 0 1
15.820618 -29.905520 4.918646 34.188085 -1.084203 1.426425 0.011573 -0.003078 118390.000000 0 0 1
15.877418 -31.177920 4.371246 35.259934 -1.099775 1.446505 0.012349 -0.009832 -66694.800000 0 0 1
15.827718 -31.040020 2.970646 34.968904 -1.099250 1.485743 0.017324 0.001254 -80143.600000 0 0 1
15.878018 -32.353320 2.223446 36.108067 -1.114560 1.509180 0.008320 0.001375 1130870.000000 0 0 1
17.249118 -32.805720 2.124246 37.124921 -1.086725 1.513546 0.008963 0.005204 1286510.000000 0 0 1
17.155118 -34.093220 1.534946 38.196882 -1.104606 1.530600 0.005131 0.010126 -50674.600000 0 0 1
18.533918 34.710689 1.405346 39.374015 1.080356 1.535097 0.004497 0.008391 22934.600000 0 0 1
19.124918 34.255789 2.613846 39.319890 1.061605 1.504271 0.010719 -0.008388 581150.000000 0 0 1
20.376618 33.625189 2.323346 39.386010 1.025982 1.511773 0.002568 -0.002560 207139.000000 0 0 1
21.059118 32.938389 3.492946 39.250791 1.001945 1.481688 -0.000154 -0.010358 -403337.000000 0 0 1
20.359118 31.846289 4.164546 38.026612 1.001985 1.461060 0.003702 -0.003953 603862.000000 0 0 1
21.281918 31.179289 5.034046 38.084245 0.971867 1.438226 0.006358 -0.008874 286163.000000 0 0 1
20.554018 30.496389 6.220746 37.298727 0.977746 1.403232 0.010840 -0.011629 -81325.900000 0 0 1
19.578818 29.605089 5.738046 35.954368 0.986495 1.410519 0.013366 -0.004917 149212.000000 0 0 1
18.625018 29.211889 6.746846 35.295123 1.003199 1.378457 0.010245 -0.012532 930318.000000 0 0 1
17.168818 29.644989 6.391746 34.848932 1.045851 1.386339 0.014418 -0.004909 -34113.400000 0 0 1
16.954218 31.054289 6.382546 35.952069 1.071065 1.392321 0.016612 -0.000466 108279.000000 0 0 1
17.236418 31.670789 5.130446 36.420522 1.072388 1.429459 0.006709 0.000848 -446906.000000 0 0 1
17.135618 33.224589 5.115346 37.731545 1.094627 1.434805 0.012511 -0.002311 168485.000000 0 0 1
15.802918 33.655089 5.300246 37.556488 1.131800 1.429196 0.017434 0.000432 -125336.000000 0 0 1
15.823718 -34.449620 5.583646 38.318970 -1.140211 1.424561 0.015618 -0.000452 -616400.000000 0 0 1
14.433418 -33.831920 5.720446 37.224265 -1.167553 1.416510 0.013258 -0.004813 -99572.000000 0 0 1
13.627218 -34.117720 4.541946 37.018228 -1.190792 1.447792 0.005693 0.003295 787727.000000 0 0 1
12.516818 -33.173020 4.540346 35.745416 -1.209994 1.443433 0.001763 -0.004841 754381.000000 0 0 1
11.740618 -33.144220 3.214446 35.308839 -1.230360 1.479632 0.005058 -0.000013 688015.000000 0 0 1
10.695218 -32.145120 3.197446 34.028225 -1.249601 1.476693 0.002288 -0.010262 225897.000000 0 0 1
10.111518 -31.908720 1.990746 33.531661 -1.263918 1.511392 0.007682 -0.006739 -124985.000000 0 0 1
9.060318 -30.724020 2.094246 32.100477 -1.284031 1.505510 0.009591 -0.009120 268889.000000 0 0 1
8.524118 -30.183520 0.906646 31.377181 -1.295555 1.541897 0.017344 0.005393 -105091.000000 0 0 1
7.674418 -31.021420 0.133446 31.956893 -1.328275 1.566620 0.009485 0.000959 -611260.000000 0 0 1
8.081018 -31.471120 -1.279454 32.517246 -1.319451 1.610153 0.016369 -0.000884 -80389.600000 0 0 1
9.190018 -32.359020 -1.248454 33.661867 -1.294081 1.607893 0.013721 0.000338 -41858.300000 0 0 1
9.221518 -33.163520 -2.429954 34.507393 -1.299586 1.641273 0.014099 0.006457 109590.000000 0 0 1
10.480118 -34.075320 -2.470954 35.736059 -1.272421 1.639996 0.006742 0.014329 -37994.700000 0 0 1
10.531818 34.440389 -1.410954 36.042341 1.274028 1.609953 0.003532 0.015689 -44826.100000 0 0 1
11.676218 33.620789 -1.503854 35.622368 1.236536 1.613025 0.006378 0.011528 -217954.000000 0 0 1
11.718218 32.673489 -0.308854 34.712662 1.226440 1.579694 0.004710 0.014146 -287759.000000 0 0 1
12.017118 33.184189 1.001946 35.307300 1.223353 1.542415 -0.000181 0.016254 2120610.000000 0 0 1
13.393218 33.687389 1.221746 36.272732 1.192383 1.537108 0.006081 0.014159 2024700.000000 0 0 1
14.591318 32.712489 1.224446 35.840100 1.151234 1.536626 0.011292 0.012852 -377616.000000 0 0 1
15.092818 32.470489 -0.068454 35.806850 1.135690 1.572708 0.010813 0.011169 -75708.500000 0 0 1
15.739318 31.220689 -0.168154 34.964065 1.103849 1.575606 0.017480 0.011419 -21114.300000 0 0 1
16.369718 30.964889 -1.569654 35.060745 1.084489 1.615581 0.010065 0.006817 636613.000000 0 0 1
17.503218 31.751089 -1.963654 36.309093 1.066984 1.624904 -0.001723 0.012669 512927.000000 0 0 1
17.188718 33.028989 -2.482454 37.316601 1.090952 1.637370 0.007636 0.011270 -689771.000000 0 0 1
18.384118 33.870289 -2.886654 38.645893 1.073513 1.645561 0.006965 0.011530 -207823.000000 0 0 1
19.106018 34.432489 -1.775354 39.418119 1.064212 1.615851 0.000870 0.011864 470560.000000 0 0 1
20.218118 -34.284320 -2.254554 39.865649 -1.037971 1.627380 -0.006980 0.008435 -1001400.000000 0 0 1
21.231018 -33.998920 -1.129754 40.099365 -1.012584 1.598974 0.000068 0.005570 -219889.000000 0 0 1
22.054218 34.391289 -0.702654 40.861265 1.000580 1.587993 0.005173 0.007229 689439.000000 0 0 1
22.729318 33.479289 -1.563154 40.496026 0.974368 1.609406 0.011306 0.009791 -111004.000000 0 0 1
23.558218 34.015989 -2.751454 41.468634 0.965079 1.637195 -0.003300 0.002655 -525734.000000 0 0 1
22.749618 34.534489 -3.792354 41.527798 0.988294 1.662245 -0.002733 0.003700 393290.000000 0 0 1
23.583918 -34.144220 -4.653754 41.757471 -0.966329 1.682476 0.000211 -0.000476 749724.000000 0 0 1
22.775718 -33.718120 -5.927654 41.119120 -0.976721 1.715458 -0.002005 -0.004563 910538.000000 0 0 1
21.674318 -32.805620 -5.733754 39.734880 -0.986943 1.715602 -0.003465 0.002240 566929.000000 0 0 1
21.159418 -32.374620 -6.970454 39.299163 -0.991908 1.749109 -0.009793 0.003498 -601480.000000 0 0 1
20.471118 -31.012420 -6.784054 37.773804 -0.987358 1.751373 -0.012647 0.005500 914181.000000 0 0 1
19.164718 -31.173120 -6.151054 37.106405 -1.019578 1.737333 -0.012184 0.009958 864226.000000 0 0 1
18.543518 -29.946020 -6.029954 35.734948 -1.016356 1.740349 -0.011177 0.007127 -1701300.000000 0 0 1
17.354918 -30.012320 -5.167854 35.051951 -1.046516 1.718770 -0.019981 0.009472 -1657880.000000 0 0 1
16.271318 -30.681820 -5.712254 35.196019 -1.083185 1.733816 -0.024118 0.004990 -674082.000000 0 0 1
15.201618 -30.687120 -4.784854 34.578655 -1.110856 1.709618 -0.020431 0.002368 170724.000000 0 0 1
13.965618 -31.509420 -5.175454 34.852079 -1.153595 1.719845 -0.010456 0.003345 -95587.800000 0 0 1
14.166718 -32.898120 -5.135254 36.184984 -1.164172 1.713194 -0.005884 0.010450 169102.000000 0 0 1
12.917518 -33.538920 -5.389054 36.342308 -1.203157 1.719631 0.004017 0.011731 66954.400000 0 0 1
13.111518 34.418989 -5.549654 37.247515 1.206829 1.720347 0.005582 0.009571 -203433.000000 0 0 1
13.471218 33.719189 -4.354454 36.570735 1.190711 1.690149 0.010157 0.008639 -43932.400000 0 0 1
13.842218 32.340489 -4.462054 35.460177 1.166375 1.696964 0.007925 0.008852 264249.000000 0 0 1
12.715718 31.295789 -4.758154 34.113867 1.184864 1.710731 0.019018 0.004071 483436.000000 0 0 1
11.821118 30.926289 -3.711254 33.315876 1.205698 1.682424 0.011128 0.003047 170416.000000 0 0 1
12.300618 29.865389 -2.920654 32.431110 1.180100 1.660976 0.008350 0.003895 427348.000000 0 0 1
11.146918 29.030189 -2.230354 31.176596 1.204179 1.642397 0.003463 0.005031 813753.000000 0 0 1
10.372118 29.782989 -1.313354 31.564730 1.235676 1.612417 -0.000996 0.008702 -510022.000000 0 0 1
9.502918 28.970289 -0.589554 30.494764 1.253833 1.590130 -0.006222 0.012789 -732739.000000 0 0 1
8.299618 29.744189 -0.097554 30.880575 1.298684 1.573955 -0.002177 0.020846 -700853.000000 0 0 1
7.500718 29.038589 0.790046 30.002076 1.318020 1.544460 -0.004522 0.015242 -421089.000000 0 0 1
6.238518 29.666489 0.900646 30.328713 1.363528 1.541096 0.002195 0.022284 -55240.700000 0 0 1
5.191518 28.793089 1.605846 29.301409 1.392409 1.515964 0.004219 0.019740 -127409.000000 0 0 1
4.743318 27.741189 0.792646 28.154945 1.401449 1.542640 0.006530 0.005266 586836.000000 0 0 1
3.477518 27.309089 1.347846 27.562586 1.444139 1.521876 0.005224 -0.000436 859188.000000 0 0 1
2.958218 26.108589 0.572346 26.281877 1.457973 1.549017 0.006815 -0.000147 840539.000000 0 0 1
1.648118 25.689289 1.015046 25.762107 1.506728 1.531385 0.010031 -0.004456 762873.000000 0 0 1
1.146918 24.562689 0.376146 24.592328 1.524137 1.555500 0.005811 -0.006191 686050.000000 0 1 0
-0.268082 24.126889 0.874046 24.144204 -1.559685 1.534587 0.005287 0.002258 334688.000000 0 1 0
-1.374782 24.901889 0.523746 24.945308 -1.515644 1.549799 0.009992 -0.002316 -512744.000000 0 1 0
-2.489482 24.339189 1.181946 24.494706 -1.468868 1.522524 0.007900 0.005655 -217154.000000 0 1 0
-3.780182 25.192689 1.125646 25.499577 -1.421857 1.526638 0.005804 0.002775 -597681.000000 0 0 1
-4.846082 24.457389 1.711946 24.991581 -1.375186 1.502242 0.006830 0.003858 -177467.000000 0 1 0
-5.875282 25.275789 2.177346 26.040838 -1.342405 1.487086 -0.001221 0.004898 132323.000000 0 0 1
-6.898182 25.891189 1.165446 26.819710 -1.310415 1.527328 0.004123 0.007075 -394373.000000 0 0 1
-6.436282 27.110489 0.636146 27.871293 -1.337702 1.547970 0.003169 -0.000001 -11313.900000 0 0 1
-6.942282 27.177289 -0.675154 28.058085 -1.320700 1.594861 -0.008641 0.008371 -188267.000000 0 0 1
-6.607982 28.411289 -1.498054 29.208062 -1.342276 1.622108 -0.005098 0.009865 137807.000000 0 0 1
-7.203082 29.617389 -1.070154 30.499497 -1.332224 1.605891 -0.001420 -0.002370 -84194.300000 0 0 1
-7.051482 30.482689 -2.125254 31.359758 -1.343468 1.638618 -0.002035 -0.001054 -188526.000000 0 0 1
-7.337282 31.959389 -1.883354 32.844866 -1.345126 1.628169 0.001357 -0.002360 -837810.000000 0 0 1
-7.175982 32.832489 -3.016154 33.742617 -1.355617 1.660303 0.002556 -0.001076 181664.000000 0 0 1
-5.867282 33.072689 -3.499554 33.770914 -1.395217 1.674609 0.002172 0.002890 323025.000000 0 0 1
-4.802682 33.682589 -2.529654 34.117176 -1.429165 1.645010 0.003194 -0.002179 -501012.000000 0 0 1
-4.845082 -34.379620 -2.377954 34.800686 1.430789 1.639180 0.006373 0.005100 215313.000000 0 0 1
-3.949182 -33.965120 -1.359154 34.220940 1.455044 1.610524 -0.000934 0.006400 60280.400000 0 0 1
-3.918982 -32.460620 -1.401854 32.726373 1.450647 1.613645 0.010596 0.003595 299195.000000 0 0 1
-5.147182 -31.849420 -1.051554 32.279790 1.410572 1.603378 0.007062 0.001340 -92593.100000 0 0 1
-5.406082 -30.718420 -1.895354 31.248031 1.396592 1.631489 0.015897 0.011193 1101320.000000 0 0 1
-6.729282 -29.915420 -1.507954 30.699992 1.349536 1.619935 0.033421 0.011760 968379.000000 0 0 1
-6.883082 -29.525920 -0.175854 30.318108 1.341767 1.576597 0.014991 0.016506 -185789.000000 0 0 1
-7.996782 -28.645520 -0.161954 29.741227 1.298564 1.576242 -0.002409 0.015504 102530.000000 0 0 1
-8.203182 -27.962720 1.214046 29.166416 1.285441 1.529160 -0.005348 0.019188 280355.000000 0 0 1
-7.078582 -27.152520 1.536146 28.102054 1.315775 1.516106 -0.000942 0.014326 -351753.000000 0 0 1
-6.967782 -26.740720 2.911346 27.786544 1.315896 1.465828 0.001533 0.015648 322066.000000 0 0 1
-8.040382 -25.706320 3.463946 27.156243 1.267658 1.442892 -0.007556 0.015464 658948.000000 0 0 1
-7.787782 -24.398920 3.072446 25.795286 1.261832 1.451404 -0.006190 0.009582 -192855.000000 0 0 1
-8.812282 -23.531620 3.553246 25.377530 1.212476 1.430319 -0.000951 0.008003 110217.000000 0 0 1
-8.352982 -22.186420 4.015546 24.044420 1.210719 1.403005 -0.002793 0.020986 353168.000000 0 1 0
-7.492782 -22.213120 5.165746 24.005196 1.245468 1.353907 -0.007716 0.012010 -15034.600000 0 1 0
-6.664882 -21.073620 5.277246 22.723720 1.264484 1.336421 -0.014205 0.015655 -52630.800000 0 1 0
-7.275982 -19.762520 5.875646 21.863676 1.218026 1.298712 -0.013676 0.000983 9798.580000 0 1 0
-7.711882 -19.957320 7.208546 22.577221 1.202053 1.245822 -0.015710 -0.004875 267261.000000 0 1 0
-8.503982 -18.826320 7.608546 22.014495 1.146524 1.217902 -0.019918 -0.011515 -264400.000000 0 1 0
-26.317372 29.304189 -5.730554 39.801743 -0.839046 1.715276 0.016885 0.012533 166880.000000 0 0 1
-25.453302 30.183789 -5.030254 39.802451 -0.870218 1.697516 0.019368 0.005907 417941.000000 0 0 1
-24.303582 29.561089 -4.448954 38.526812 -0.882696 1.686531 0.017532 0.006511 477737.000000 0 0 1
-23.509382 30.516889 -3.551654 38.685731 -0.914384 1.662734 0.016512 -0.000604 -339286.000000 0 0 1
-24.285382 30.917789 -2.428354 39.390180 -0.904970 1.632484 0.014512 -0.006016 203002.000000 0 0 1
-23.742182 31.906289 -1.576654 39.801863 -0.931068 1.610419 0.013149 -0.007085 -198596.000000 0 0 1
-22.472882 31.656789 -0.742654 38.829553 -0.953463 1.589923 0.006989 -0.006914 768011.000000 0 0 1
-21.321682 31.361889 -1.572154 37.955946 -0.973716 1.612229 -0.003942 -0.003808 383698.000000 0 0 1
-20.185882 31.235889 -0.747154 37.198236 -0.997069 1.590883 -0.007808 -0.001751 28862.900000 0 0 1
-18.976082 30.611389 -1.491154 36.046807 -1.015871 1.612175 -0.020434 -0.002135 750886.000000 0 0 1
-17.700082 30.745689 -0.865954 35.487183 -1.048441 1.595201 -0.014416 -0.005354 51346.100000 0 0 1
-16.677582 30.146189 -1.578954 34.488078 -1.065482 1.616595 -0.008040 -0.002888 314816.000000 0 0 1
-15.253582 30.425789 -0.982654 34.049464 -1.106079 1.599660 -0.005650 -0.007861 679153.000000 0 0 1
-14.924482 29.678389 0.236646 33.220519 -1.104852 1.563673 -0.005524 -0.002554 -345837.000000 0 0 1
-13.785082 30.236889 0.808746 33.240818 -1.143045 1.546464 -0.005476 -0.002681 -445976.000000 0 0 1
-13.274582 29.443189 2.032146 32.361173 -1.147232 1.507959 -0.002388 -0.007261 15857.300000 0 0 1
-14.120882 29.555489 3.186946 32.910224 -1.125086 1.473807 -0.014939 -0.003170 -47563.900000 0 0 1
-13.670482 28.867989 4.344246 32.235312 -1.128530 1.435618 -0.010506 -0.008810 162842.000000 0 0 1
-12.547782 29.638289 5.081446 32.583678 -1.170312 1.414207 0.004159 -0.009632 226536.000000 0 0 1
-13.063482 30.833289 5.659746 33.961434 -1.170043 1.403363 -0.006458 -0.017002 -229361.000000 0 0 1
-12.796282 31.964589 4.868346 34.773273 -1.190008 1.430332 -0.005084 -0.014157 -275616.000000 0 0 1
-12.462982 33.148789 5.780646 35.882920 -1.211175 1.408994 0.001770 -0.009297 -1071300.000000 0 0 1
-13.499782 33.717189 6.451446 36.887858 -1.189960 1.394999 -0.007436 -0.000080 -921131.000000 0 0 1
-12.990382 34.631389 7.421846 37.724884 -1.211934 1.372768 0.004090 -0.008118 94485.000000 0 0 1
-14.015682 -34.127220 8.335346 37.823068 1.181109 1.348595 -0.003111 -0.000625 54180.900000 0 0 1
-14.428382 34.477089 9.316446 38.518100 -1.174451 1.326502 -0.010269 -0.004411 -382260.000000 0 0 1
-15.584382 -34.630420 10.002546 39.270726 1.147926 1.313251 -0.006691 -0.002331 -706522.000000 0 0 1
-15.922882 33.982489 11.239946 39.175044 -1.132614 1.279790 -0.010603 -0.002799 -119596.000000 0 0 1
-15.187082 34.198589 12.394746 39.418532 -1.152872 1.250930 -0.014432 0.001306 -595619.000000 0 0 1
-13.896082 33.655989 12.410946 38.468926 -1.179231 1.242297 -0.011023 -0.001348 -419499.000000 0 0 1
-13.184182 33.810089 13.776146 38.816581 -1.198985 1.207985 0.002169 0.002735 -394975.000000 0 0 1
-13.681682 32.999889 14.847646 38.686350 -1.177769 1.176893 -0.007742 -0.000778 146757.000000 0 0 1
-13.183482 31.652889 15.044746 37.444011 -1.176146 1.157322 -0.016413 0.005290 107445.000000 0 0 1
-13.884682 30.531789 14.137146 36.398261 -1.143990 1.171900 -0.016832 0.005525 282438.000000 0 0 1
-13.603482 30.575289 12.766546 35.817422 -1.152177 1.206348 -0.020377 0.002655 547514.000000 0 0 1
-14.676282 29.974089 12.032846 35.477156 -1.115477 1.224760 -0.021648 0.002190 271566.000000 0 0 1
-14.539482 30.125189 10.543346 35.072577 -1.121137 1.265459 -0.021200 -0.000164 30116.600000 0 0 1
-13.715182 29.078989 9.996546 33.669344 -1.130083 1.269348 -0.030097 -0.000542 475560.000000 0 0 1
-13.817582 28.981489 8.576046 33.232526 -1.125903 1.309781 -0.023582 -0.003126 -1265260.000000 0 0 1
-13.294682 27.667089 8.028046 31.727998 -1.122851 1.314988 -0.014704 -0.002164 991814.000000 0 0 1
-11.851782 27.637689 8.143246 31.154759 -1.165689 1.306344 -0.001918 -0.005287 1269950.000000 0 0 1
-11.309082 26.334189 7.839046 29.712547 -1.165167 1.303806 0.006552 -0.009212 63965.300000 0 0 1
-10.103682 26.349589 6.900846 29.051797 -1.204640 1.330968 0.011288 -0.012480 -103462.000000 0 0 1
-10.544682 26.576189 5.548946 29.125160 -1.193076 1.379104 0.010975 -0.013988 919700.000000 0 0 1
-9.421582 26.483389 4.670646 28.494754 -1.229004 1.406141 0.018684 -0.001171 399300.000000 0 0 1
-9.716682 27.037689 3.295146 28.918999 -1.225794 1.456604 0.009206 -0.001616 -122231.000000 0 0 1
-9.388782 28.401189 3.246646 30.088494 -1.251528 1.462683 0.013735 -0.004840 55101.400000 0 0 1
-9.428982 28.912189 1.945646 30.473035 -1.255547 1.506905 0.012804 -0.004281 -36669.800000 0 0 1
-9.066882 30.402889 1.703146 31.771759 -1.280969 1.517165 0.010318 -0.018290 836228.000000 0 0 1
-10.051982 31.376989 2.174246 33.019465 -1.260765 1.504901 0.002524 -0.024479 764387.000000 0 0 1
-9.744682 32.689989 1.659746 34.151851 -1.281089 1.522178 0.012943 -0.016085 -110678.000000 0 0 1
-10.578782 33.733989 2.410046 35.435871 -1.266915 1.502732 0.006100 -0.006347 468200.000000 0 0 1
-11.905582 34.000889 1.968946 36.078803 -1.233983 1.516196 0.005349 -0.008726 189400.000000 0 0 1
-12.078182 -34.554820 0.840346 36.614536 1.234534 1.547843 -0.001004 -0.006224 -78874.200000 0 0 1
-13.554182 -34.407620 0.413346 36.983388 1.195534 1.559620 -0.003022 -0.007597 23477.800000 0 0 1
-14.149782 34.016389 -0.272954 36.842985 -1.176599 1.578205 -0.000949 -0.011082 -155467.000000 0 0 1
-14.212482 34.073089 -1.674754 36.956391 -1.175621 1.616129 0.001794 -0.008838 149813.000000 0 0 1
-12.888082 33.701089 -2.427754 36.162965 -1.205533 1.637981 0.007720 -0.006241 239994.000000 0 0 1
-12.585582 32.363289 -2.396354 34.806922 -1.199909 1.639698 0.004798 -0.004345 160424.000000 0 0 1
-11.223682 32.161789 -2.756854 34.175312 -1.235034 1.651552 0.001920 -0.001865 303671.000000 0 0 1
-10.790782 30.646589 -2.807854 32.611937 -1.232248 1.657002 -0.000355 -0.007022 -117530.000000 0 0 1
-10.936082 29.932489 -4.070354 32.126617 -1.220505 1.697835 -0.000098 -0.003046 94390.500000 0 0 1
-9.953182 30.287889 -5.043854 32.277895 -1.253294 1.727703 -0.002748 0.001461 161340.000000 0 0 1
-10.229082 29.578089 -6.397054 31.944009 -1.237838 1.772418 0.004374 -0.000463 1581.720000 0 0 1
-10.151182 28.189189 -6.306254 30.617735 -1.225144 1.778248 0.011452 0.010017 -40724.600000 0 0 1
-10.321882 27.612589 -7.571454 30.435558 -1.213069 1.822206 0.008356 0.007093 -132095.000000 0 0 1
-10.950482 26.215789 -7.540354 29.394516 -1.175120 1.830219 0.012811 0.008431 -7578.120000 0 0 1
-10.174382 25.200189 -6.914854 28.042517 -1.187068 1.819951 0.009696 0.009136 -46980.900000 0 0 1
-10.924282 24.033389 -6.679254 27.231528 -1.144168 1.818601 0.014336 0.007814 144922.000000 0 0 1
-10.182282 23.139289 -5.651954 25.904635 -1.156253 1.790749 0.015776 0.009589 -735014.000000 0 0 1
-9.037382 22.471289 -6.023954 24.958387 -1.188417 1.814563 0.023882 0.002380 -789578.000000 0 1 0
-8.716182 21.310089 -5.274354 23.620129 -1.182541 1.795994 0.027261 0.003111 -236969.000000 0 1 0
-8.662182 21.370989 -3.650054 23.346851 -1.185708 1.727781 0.018493 0.003669 109805.000000 0 1 0
-9.814382 21.053389 -2.866254 23.404757 -1.134580 1.693569 0.020186 0.001309 136227.000000 0 1 0
-10.342982 19.706889 -3.040454 22.462927 -1.087474 1.706567 0.022207 -0.003847 245607.000000 0 1 0
-11.730982 19.590389 -2.353554 22.955140 -1.031250 1.673505 0.022427 -0.004688 -82021.700000 0 1 0
-11.708882 19.601589 -0.959854 22.852604 -1.032332 1.612811 0.023460 -0.007332 -25463.700000 0 1 0
-11.349982 18.378189 -0.374554 21.603708 -1.017551 1.588135 0.013710 -0.009771 -328179.000000 0 1 0
-10.984082 18.387589 1.124946 21.448053 -1.032317 1.518322 0.011188 -0.010058 -218450.000000 0 1 0
-12.046582 18.670089 1.980746 22.307301 -0.997779 1.481886 0.014849 -0.006005 -27676.300000 0 1 0
-11.543982 18.668089 3.344446 22.202395 -1.016971 1.419586 0.010181 -0.005370 252486.000000 0 1 0
-12.645982 18.566389 4.417546 22.894243 -0.972853 1.376624 0.012900 -0.010552 693.219000 0 1 0
-13.334082 17.341289 4.394146 22.312027 -0.915295 1.372560 0.008738 -0.011000 -852250.000000 0 1 0
-14.609682 17.487689 4.886246 23.305310 -0.874824 1.359567 0.004330 -0.012274 -1088540.000000 0 1 0
-15.224882 16.187289 5.360646 22.859612 -0.816027 1.334089 0.008301 -0.002241 -714327.000000 0 1 0
-14.496082 15.627189 6.445846 22.268685 -0.822930 1.277136 0.015480 -0.000566 411740.000000 0 1 0
-14.926882 16.044489 7.733246 23.238772 -0.821468 1.231553 0.006469 0.000630 -490493.000000 0 1 0
-13.831482 15.785789 8.807246 22.761120 -0.851288 1.173483 -0.000292 0.007205 1213930.000000 0 1 0
-12.713082 16.698289 8.763546 22.743241 -0.920077 1.175236 0.002876 -0.004245 1352440.000000 0 1 0
-11.673582 16.410989 7.789846 21.593396 -0.952509 1.201723 0.003528 -0.005099 27520.900000 0 1 0
-10.653882 17.536889 7.627546 21.891257 -1.024871 1.214902 0.012787 -0.009778 -201278.000000 0 1 0
-9.674782 17.412989 8.655446 21.719354 -1.063658 1.160901 0.016740 -0.007051 -343419.000000 0 1 0
-8.927182 18.617789 8.570846 22.355671 -1.123685 1.177337 0.018851 -0.013519 527392.000000 0 1 0
-7.584782 18.542289 9.421446 22.138406 -1.182510 1.131204 0.013304 -0.014462 275616.000000 0 1 0
-6.697782 17.665889 8.753046 20.822097 -1.208404 1.136940 0.014132 -0.016887 240699.000000 0 1 0
-5.449282 17.446289 9.422946 20.563550 -1.268052 1.094787 0.013057 -0.024417 1521300.000000 0 1 0
-4.329282 18.542689 9.207046 21.150501 -1.341429 1.120413 0.006471 -0.022370 -1038270.000000 0 1 0
-4.774982 19.824689 9.534546 22.510582 -1.334438 1.133426 0.008097 -0.032576 -502095.000000 0 1 0
-4.258982 20.911489 8.834546 23.097153 -1.369877 1.178301 0.008433 -0.021451 -1574370.000000 0 1 0
-2.841782 21.334889 8.920946 23.298851 -1.438377 1.177871 0.010088 -0.016989 -1687960.000000 0 1 0
-1.837082 20.500689 8.418046 22.237729 -1.481424 1.182569 0.002708 -0.005575 -922031.000000 0 1 0
-0.696682 21.298889 8.229946 22.844256 -1.538098 1.202246 -0.002159 -0.005421 -1116150.000000 0 1 0
0.507918 20.463089 7.916646 21.946965 1.545980 1.201760 0.000482 -0.005278 -668139.000000 0 1 0
1.051218 19.868789 9.129546 21.891150 1.517938 1.140607 -0.002664 -0.005391 -871619.000000 0 1 0
2.419518 19.705489 8.956946 21.780432 1.448624 1.146984 -0.006564 0.002999 -910311.000000 0 1 0
3.160118 19.544289 10.253746 22.295849 1.410494 1.092920 -0.012499 -0.004951 -859561.000000 0 1 0
3.538018 18.259289 10.562346 21.388837 1.379403 1.054313 -0.012863 -0.000830 -175850.000000 0 1 0
4.215318 18.151889 11.785846 22.049175 1.342616 1.006850 -0.018902 0.002623 625484.000000 0 1 0
5.715518 18.611489 11.899746 22.817945 1.272842 1.022179 -0.006035 0.007271 417983.000000 0 1 0
6.586418 17.739789 11.218346 21.998461 1.215292 1.035657 -0.007808 0.008818 -235810.000000 0 1 0
7.331618 16.946289 12.125446 22.089721 1.162474 0.989727 -0.007181 0.013701 -77253.600000 0 1 0
8.623918 16.314389 11.517846 21.752977 1.084525 1.012805 0.001729 0.009842 23680.700000 0 1 0
9.451918 17.284989 10.974746 22.551156 1.070392 1.062534 0.010540 -0.003334 -1207530.000000 0 1 0
10.548818 16.654289 10.429946 22.303064 1.006180 1.084170 0.018063 -0.003528 -743104.000000 0 1 0
11.566618 17.618689 9.827246 23.254669 0.989867 1.134493 0.019034 0.004817 154278.000000 0 1 0
12.614218 17.080589 9.030146 23.073980 0.934688 1.168691 0.021526 0.003647 455410.000000 0 1 0
13.464818 18.080689 8.468946 24.081854 0.930691 1.211438 0.030253 0.000406 563356.000000 0 1 0
14.507718 17.599089 7.439746 23.990657 0.881386 1.255487 0.019400 -0.007512 1125320.000000 0 1 0
15.587418 16.732489 7.905746 24.195963 0.820813 1.237946 0.031974 -0.010996 726175.000000 0 1 0
16.645618 16.702489 7.006146 24.599509 0.787104 1.281990 0.040274 -0.003582 -438100.000000 0 1 0
18.046318 16.648489 7.635446 25.712678 0.745131 1.269297 0.026853 0.000400 -399252.000000 0 0 1
18.290318 15.438289 8.317346 25.338799 0.701041 1.236351 0.025265 0.005688 -101269.000000 0 0 1
19.306118 15.681089 9.242146 26.533752 0.682156 1.215022 0.018528 0.009932 -593571.000000 0 0 1
19.441718 14.515489 10.180546 26.312038 0.641332 1.173512 0.009604 0.009613 -271024.000000 0 0 1
20.099018 13.341489 9.744446 26.017688 0.586007 1.186905 0.006177 0.010098 344635.000000 0 0 1
20.481918 12.442789 10.770246 26.274135 0.545917 1.148432 0.014536 0.005158 -196963.000000 0 0 1
21.210018 11.188189 10.227846 26.070084 0.485401 1.167643 0.013248 0.004233 -592672.000000 0 0 1
22.586618 11.494389 10.096046 27.280147 0.470744 1.191693 0.004135 -0.003974 384662.000000 0 0 1
23.239718 10.853989 9.025446 27.191033 0.436938 1.232450 0.005402 -0.003764 -352975.000000 0 0 1
23.564018 9.342089 9.283346 26.994779 0.377447 1.219735 0.014190 -0.011434 -269400.000000 0 0 1
22.388318 8.520789 9.307446 25.699595 0.363663 1.200209 0.019126 -0.009824 751338.000000 0 0 1
22.402118 7.281089 9.998546 25.589843 0.314248 1.169379 0.014675 -0.003834 99393.000000 0 0 1
23.449918 6.296089 9.350946 26.018832 0.262305 1.203181 0.018001 -0.005816 547687.000000 0 0 1
23.122118 6.052389 7.998646 25.204010 0.256014 1.247856 0.013577 -0.006406 1237210.000000 0 0 1
24.261218 5.554289 7.248546 25.922929 0.225058 1.287399 0.004066 -0.000540 579633.000000 0 0 1
23.940318 5.186789 5.793946 25.171639 0.213357 1.338536 0.003590 -0.009581 -957787.000000 0 0 1
23.214218 4.006389 5.643946 24.224063 0.170900 1.335646 0.015809 -0.009977 400070.000000 0 1 0
23.008918 3.726489 4.262546 23.695281 0.160564 1.389922 0.013561 -0.003123 -309315.000000 0 1 0
22.115618 2.474789 3.940046 22.599759 0.111439 1.395561 0.014152 -0.007494 -284706.000000 0 1 0
22.604618 1.270189 4.384646 23.060947 0.056133 1.379499 0.006556 -0.009044 -109773.000000 0 1 0
21.821618 0.262889 3.841146 22.158667 0.012047 1.396569 -0.000586 -0.008871 -641077.000000 0 1 0
22.288018 -1.190911 4.109846 22.695041 -0.053382 1.388702 -0.009285 -0.007752 -902351.000000 0 1 0
22.132718 -1.545911 5.476146 22.852467 -0.069734 1.328811 -0.008459 -0.005060 614827.000000 0 1 0
22.307518 -2.908311 5.709046 23.209413 -0.129642 1.322266 -0.018783 -0.005137 -838219.000000 0 1 0
21.710818 -3.473711 7.035446 23.085143 -0.158654 1.261109 -0.019182 -0.002318 -310324.000000 0 1 0
22.056918 -4.830211 7.301646 23.730837 -0.215585 1.258036 -0.014210 -0.001533 632242.000000 0 1 0
21.672118 -5.130911 8.639746 23.888327 -0.232471 1.200735 -0.013427 -0.002639 -181008.000000 0 1 0
21.791518 -6.593411 9.120346 24.525987 -0.293811 1.189779 -0.001763 -0.004729 -570946.000000 0 1 0
20.838818 -7.414911 8.570046 23.720939 -0.341852 1.201150 0.026051 -0.003294 -229223.000000 0 1 0
20.775618 -8.649011 9.245546 24.329238 -0.394484 1.180981 0.027204 0.003769 27524.200000 0 1 0
-25.246662 -33.235820 5.235846 42.064566 0.921165 1.446001 0.002420 -0.013014 -286228.000000 0 0 1
-25.817662 -34.346620 5.847846 43.364032 0.926221 1.435529 0.008596 -0.011338 33957.400000 0 0 1
-25.995442 -34.087820 7.246246 43.477012 0.919279 1.403346 0.006595 -0.001131 -316633.000000 0 0 1
-26.728622 34.282089 8.017746 44.203677 -0.908577 1.388405 0.000993 0.015806 838268.000000 0 0 1
-28.123832 34.090089 7.722846 44.863419 -0.881005 1.397793 0.007304 0.005809 615281.000000 0 0 1
-28.487212 32.753889 8.025246 44.144570 -0.854956 1.387985 0.006280 0.009234 551955.000000 0 0 1
-30.035672 32.587089 8.108346 45.053359 -0.826118 1.389838 0.019379 0.000907 503526.000000 0 0 1
-30.722492 32.750689 6.910446 45.433835 -0.817341 1.418105 0.016060 -0.000076 31027.900000 0 0 1
-32.132452 32.621889 7.019746 46.324496 -0.792956 1.418676 0.012534 -0.000204 197849.000000 0 0 1
-32.781692 32.875189 5.664846 46.770801 -0.786822 1.449379 0.005827 0.000368 -638659.000000 0 0 1
-32.490492 31.935989 4.721246 45.802070 -0.776792 1.467534 0.006512 -0.000751 140436.000000 0 0 1
-33.479962 31.723889 3.734546 46.273748 -0.758473 1.490003 0.011006 -0.000949 -354100.000000 0 0 1
-33.129192 30.555089 2.829846 45.157113 -0.745000 1.508089 0.009672 -0.004206 -109319.000000 0 0 1
-33.460702 29.355989 3.412446 44.643448 -0.720147 1.494284 0.015123 -0.009296 268541.000000 0 0 1
-32.961462 28.310989 2.606646 43.528894 -0.709645 1.510877 0.000745 -0.005447 -437817.000000 0 0 1
-33.153852 26.968489 3.264146 42.861777 -0.682879 1.494567 0.005099 -0.002748 -840947.000000 0 0 1
-34.475937 26.514189 3.253746 43.613980 -0.655591 1.496124 0.007669 0.000997 -342095.000000 0 0 1
-34.603102 25.400989 4.112346 43.121877 -0.633226 1.475286 0.009580 0.004691 151520.000000 0 0 1
33.588099 24.755389 4.055346 41.921778 0.635148 1.473909 0.017533 0.002882 -421651.000000 0 0 1
33.341276 24.041189 2.910446 41.207889 0.624723 1.500109 0.006618 0.002919 121419.000000 0 0 1
33.766404 22.703889 2.920946 40.794221 0.591948 1.499133 0.002807 0.010976 -1110370.000000 0 0 1
33.094526 21.903389 1.786046 39.726515 0.584656 1.525823 -0.004084 0.015877 129859.000000 0 0 1
31.698396 21.711889 1.969946 38.471744 0.600555 1.519569 -0.000781 0.012446 588697.000000 0 0 1
31.209416 20.948589 3.054846 37.712108 0.591153 1.489703 -0.007624 0.011633 -879309.000000 0 0 1
31.454446 19.463589 3.010646 37.111689 0.554119 1.489583 -0.001275 0.001238 -934161.000000 0 0 1
30.810986 18.754489 2.056546 36.128618 0.546788 1.513843 -0.002314 -0.006963 -189689.000000 0 0 1
31.227326 17.415389 1.910846 35.806326 0.508733 1.517405 -0.009551 -0.008617 -236864.000000 0 0 1
30.668516 16.369989 3.004646 34.893585 0.490299 1.484581 -0.007308 -0.010095 -806146.000000 0 0 1
29.292446 16.213889 2.924646 33.607903 0.505540 1.483664 -0.008764 -0.007518 -746263.000000 0 0 1
28.866006 15.380989 3.983546 32.949806 0.489574 1.449602 -0.012335 -0.014794 -424660.000000 0 0 1
27.336846 15.357689 4.072946 31.618833 0.511853 1.441623 -0.016808 -0.013004 -470976.000000 0 0 1
26.651886 14.810789 2.992246 30.637167 0.507219 1.472973 -0.009162 -0.017901 -602926.000000 0 0 1
25.282296 14.978389 3.194846 29.559324 0.534846 1.462502 -0.015453 -0.017536 81507.900000 0 0 1
24.328006 14.621289 1.969046 28.451908 0.541159 1.501535 0.000953 -0.014912 -576684.000000 0 0 1
24.620996 15.280289 0.738746 28.986659 0.555444 1.545308 0.005242 -0.016375 786996.000000 0 0 1
25.737966 14.668189 0.067946 29.624369 0.517997 1.568503 0.006204 -0.015423 -309598.000000 0 0 1
26.164586 15.249589 -1.292854 30.311829 0.527701 1.613461 0.016470 -0.016863 393356.000000 0 0 1
26.825716 16.562489 -1.307754 31.553847 0.553123 1.612253 0.020255 -0.015028 1150130.000000 0 0 1
27.935286 16.725889 -0.403754 32.562226 0.539490 1.583196 0.022049 -0.017160 -746939.000000 0 0 1
28.524726 18.101589 -0.628754 33.789389 0.565468 1.589405 0.019535 -0.007795 -391525.000000 0 0 1
29.277346 18.136789 -1.820754 34.487987 0.554621 1.623615 -0.006250 0.000550 -237000.000000 0 0 1
29.891646 19.402189 -2.035654 35.694527 0.575731 1.627857 -0.004691 0.007571 -327209.000000 0 0 1
29.106116 20.586889 -2.560054 35.742689 0.615612 1.642482 0.000470 0.006077 -652138.000000 0 0 1
30.001026 21.593689 -2.968854 37.083191 0.623868 1.650941 -0.017160 0.014117 246046.000000 0 0 1
29.334546 22.717389 -3.506854 37.267859 0.658950 1.665034 0.000010 0.012921 -587293.000000 0 0 1
30.209026 23.979189 -3.606954 38.737538 0.670934 1.664044 -0.009924 0.023490 -59693.000000 0 0 1
30.426666 24.620689 -2.359854 39.211340 0.680314 1.631016 -0.016039 0.027739 178898.000000 0 0 1
31.482986 24.101689 -1.584654 39.680989 0.653377 1.610742 -0.015081 0.031960 -484865.000000 0 0 1
31.790746 24.898589 -0.296354 40.381667 0.664414 1.578135 -0.007548 0.021960 60508.200000 0 0 1
32.239956 26.228989 -0.487054 41.564550 0.682952 1.582515 -0.003670 0.019533 188172.000000 0 0 1
33.319976 26.493789 0.402346 42.571158 0.671766 1.561345 0.005016 0.011432 227722.000000 0 0 1
33.874151 27.916689 0.224346 43.895899 0.689282 1.565685 0.004319 0.012314 35094.500000 0 0 1
34.509874 28.265089 -1.042954 44.619888 0.686245 1.594173 -0.005522 0.008330 333129.000000 0 0 1
33.625243 28.383189 -2.128954 44.054453 0.701061 1.619141 -0.010829 0.011475 -385620.000000 0 0 1
34.274280 27.855389 -3.404754 44.297193 0.682449 1.647734 -0.013486 0.016048 -42807.500000 0 0 1
-34.420180 28.824089 -3.905254 45.064707 -0.697144 1.657564 -0.012572 0.016390 61306.500000 0 0 1
-33.826722 28.480289 -5.133654 44.516607 -0.699800 1.686373 -0.011607 0.020421 -6139.300000 0 0 1
-34.751785 28.431789 -6.401854 45.354568 -0.685704 1.712421 -0.015019 0.019936 493422.000000 0 0 1
33.846516 27.413989 -6.405454 44.024348 0.680779 1.716813 -0.013683 0.024117 324085.000000 0 0 1
32.840326 27.610089 -7.379754 43.534639 0.699092 1.741133 -0.011608 0.020110 1151520.000000 0 0 1
31.516896 26.742689 -7.204654 41.957039 0.703634 1.743367 -0.008499 0.019604 595693.000000 0 0 1
31.557846 25.294889 -7.479154 41.129877 0.675680 1.753656 -0.006017 0.018388 57472.300000 0 0 1
32.597246 24.494189 -6.879954 41.350689 0.644409 1.737954 -0.011642 0.019074 328461.000000 0 0 1
32.542026 22.917289 -7.114054 40.432602 0.613564 1.747665 -0.007823 0.016029 -57383.100000 0 0 1
31.542806 22.217889 -6.405154 39.110218 0.613655 1.735309 -0.006397 0.010018 91054.600000 0 0 1
31.554136 20.913989 -6.930254 38.484891 0.585319 1.751861 -0.001119 0.001917 -183197.000000 0 0 1
30.615676 19.938589 -6.220854 37.061650 0.577256 1.739446 -0.005301 0.002696 -593006.000000 0 0 1
29.394716 19.775489 -6.870654 36.087742 0.592207 1.762353 -0.016132 -0.000400 -766083.000000 0 0 1
28.463776 19.079889 -6.062454 34.799167 0.590529 1.745902 0.001088 -0.007115 337342.000000 0 0 1
27.110176 18.979989 -6.818654 33.788987 0.610797 1.773993 -0.011453 -0.007567 89306.200000 0 0 1
27.245736 18.063689 -7.915154 33.634456 0.585454 1.808353 -0.011286 -0.013942 13627.400000 0 0 1
26.057906 18.010689 -8.673154 32.842396 0.604782 1.838050 -0.007856 -0.010618 -210770.000000 0 0 1
26.025486 16.753089 -9.582454 32.400853 0.571947 1.871034 -0.010160 -0.003556 -208621.000000 0 0 1
25.212736 16.863589 -10.737454 32.176942 0.589514 1.911022 -0.011149 0.000855 128772.000000 0 0 1
25.467976 15.787989 -11.623754 32.140162 0.554935 1.940842 -0.005889 -0.001554 -283062.000000 0 0 1
24.693026 15.901389 -13.029154 32.130337 0.572119 1.988332 -0.003231 0.001108 130036.000000 0 0 1
23.279506 15.904189 -12.910054 31.008839 0.599351 2.000207 -0.005748 0.003597 352535.000000 0 0 1
22.559006 15.826689 -14.132254 30.969556 0.611778 2.044660 0.005001 0.002705 -83646.400000 0 0 1
22.643706 14.455289 -14.901254 30.720354 0.568163 2.077230 0.009524 -0.000677 -742031.000000 0 0 1
23.865106 13.923189 -15.363954 31.614072 0.528133 2.078286 0.016816 -0.001589 -9297.840000 0 0 1
24.261306 14.446489 -16.629454 32.769662 0.537070 2.103037 0.017640 -0.002600 3957.180000 0 0 1
25.732106 14.059489 -16.979054 33.883606 0.500059 2.095665 0.026508 0.002039 373365.000000 0 0 1
25.733216 12.677789 -17.240354 33.468709 0.457760 2.111942 0.022164 -0.000779 841175.000000 0 0 1
27.026546 12.073989 -17.465954 34.369680 0.420144 2.103866 0.019074 -0.002167 693416.000000 0 0 1
27.037366 10.694589 -18.219954 34.312681 0.376663 2.130574 0.011111 0.005877 -414481.000000 0 0 1
26.538586 10.799989 -19.503954 34.660359 0.386487 2.168465 0.018496 -0.001830 -51468.300000 0 0 1
26.307706 9.592289 -20.198254 34.526466 0.349639 2.195686 0.019045 0.012625 910672.000000 0 0 1
27.602786 9.003089 -20.938054 35.796250 0.315286 2.195582 0.011524 -0.001600 641695.000000 0 0 1
27.927546 9.768189 -22.071254 36.912133 0.336469 2.211725 0.013111 -0.002251 495947.000000 0 0 1
28.608816 9.045689 -23.132554 37.886724 0.306239 2.227578 -0.002881 0.000090 370619.000000 0 0 1
30.069086 8.512889 -23.001854 38.803408 0.275891 2.205302 -0.006329 0.002223 400529.000000 0 0 1
30.999646 9.589589 -22.923454 39.729372 0.300008 2.185835 -0.008026 -0.000002 -671145.000000 0 0 1
32.315556 9.201889 -22.895854 40.659439 0.277409 2.168944 -0.004614 0.000576 -617536.000000 0 0 1
33.391906 10.311289 -22.743854 41.696822 0.299507 2.147731 0.007058 -0.002284 136835.000000 0 0 1
33.336646 10.918289 -21.470054 41.127900 0.316506 2.120027 -0.000880 0.000631 295575.000000 0 0 1
34.247524 11.993789 -21.390654 42.122487 0.336861 2.103449 -0.006617 0.000403 -11683.200000 0 0 1
34.152324 12.724989 -20.025854 41.585350 0.356661 2.073230 -0.021061 0.004068 -109489.000000 0 0 1
34.625362 11.970689 -18.932354 41.238903 0.332857 2.047767 -0.020260 -0.000085 334040.000000 0 0 1
34.410094 12.610689 -17.655054 40.679048 0.351282 2.019734 -0.028529 -0.005585 -421685.000000 0 0 1
-34.560218 11.738889 -16.574154 40.086316 -0.327438 1.997049 -0.034986 -0.004705 -615454.000000 0 0 1
34.475232 10.490289 -16.305054 39.553034 0.295383 1.995700 -0.030568 -0.002454 96073.000000 0 0 1
-34.411215 9.893189 -15.212754 38.902889 -0.279949 1.972562 -0.023369 -0.006372 262198.000000 0 0 1
34.440721 8.693989 -14.565954 38.391610 0.247268 1.959949 -0.020847 -0.006825 119709.000000 0 0 1
33.216596 9.042089 -13.948054 37.143637 0.265776 1.955750 -0.019240 -0.004613 347084.000000 0 0 1
33.083456 8.383689 -12.716154 36.421173 0.248186 1.927451 -0.013357 -0.002586 -76256.600000 0 0 1
31.968036 9.023189 -11.844854 35.265760 0.275100 1.913329 -0.003986 -0.001672 85310.400000 0 0 1
32.300736 10.404489 -11.640054 35.875922 0.311619 1.901230 -0.005618 0.003273 476278.000000 0 0 1
31.262126 11.091489 -10.947454 34.931195 0.340936 1.889568 -0.001772 0.002387 43389.300000 0 0 1
31.125316 10.826289 -9.432554 34.277790 0.334739 1.849573 0.001199 0.005801 -112802.000000 0 0 1
32.173526 11.284089 -8.594254 35.161451 0.337321 1.817721 0.010705 0.001367 155988.000000 0 0 1
32.213406 12.705089 -8.365754 35.624551 0.375673 1.807841 0.016689 -0.001745 -408919.000000 0 0 1
32.053836 13.061389 -6.898154 35.293523 0.386940 1.767514 0.017070 -0.007999 -1286.170000 0 0 1
33.242276 12.817689 -6.159954 36.156425 0.368017 1.742001 0.025814 -0.003547 372472.000000 0 0 1
33.031146 12.900389 -4.783454 35.782091 0.372335 1.704881 0.027291 -0.007436 131501.000000 0 0 1
34.391242 12.904089 -4.050754 36.955130 0.358959 1.680630 0.030494 -0.003471 269940.000000 0 0 1
-34.453506 14.079589 -4.272654 37.463775 -0.387945 1.685093 0.037389 -0.001774 -147283.000000 0 0 1
-33.084712 13.933089 -3.959454 36.116567 -0.398591 1.680647 0.035448 -0.012789 126287.000000 0 0 1
-32.392492 15.269889 -3.695854 36.001422 -0.440509 1.673636 0.028506 -0.001210 -28911.500000 0 0 1
-32.881032 15.930789 -2.567654 36.627109 -0.451169 1.640956 0.028722 0.001827 47848.900000 0 0 1
-32.089222 17.060989 -2.294654 36.415119 -0.488664 1.633852 0.023137 0.009251 120497.000000 0 0 1
-32.818412 18.043289 -1.332054 37.475095 -0.502683 1.606349 0.019057 0.012082 424292.000000 0 0 1
-33.740352 18.874089 -2.050954 38.714971 -0.510025 1.623797 0.013020 0.010664 321180.000000 0 0 1
-34.433495 19.734489 -1.175754 39.705138 -0.520419 1.600413 0.000315 0.017231 -80395.600000 0 0 1
34.425894 20.884589 -1.883154 40.309484 0.545297 1.617531 -0.017007 0.023163 156234.000000 0 0 1
-34.346217 21.915189 -2.456654 40.816335 -0.567941 1.631021 -0.010896 0.020811 141778.000000 0 0 1
34.621264 22.671989 -3.464754 41.528972 0.579782 1.654323 -0.020941 0.020809 33202.800000 0 0 1
-34.048192 23.811089 -3.996354 41.739887 -0.610279 1.666687 -0.011241 0.015394 -394130.000000 0 0 1
-32.899832 23.282689 -4.571054 40.563247 -0.615865 1.683726 -0.000178 0.009759 -755360.000000 0 0 1
-32.046732 24.406289 -4.873554 40.575996 -0.650874 1.691196 0.001344 0.011178 -187929.000000 0 0 1
-30.715082 23.964389 -5.454454 39.337758 -0.662560 1.709901 0.008958 0.006560 -512874.000000 0 0 1
-30.888542 23.202989 -6.606554 39.193459 -0.644259 1.740168 0.004743 0.007389 -597898.000000 0 0 1
-29.646312 22.983589 -7.199454 38.196613 -0.659472 1.760415 0.007505 0.005088 -638380.000000 0 0 1
-29.537772 22.134789 -8.439354 37.863591 -0.643099 1.795573 -0.006189 -0.002413 -282663.000000 0 0 1
-30.088092 22.840589 -9.545654 38.962870 -0.649315 1.818309 0.004873 -0.006171 131249.000000 0 0 1
-29.914682 22.052989 -10.708754 38.676865 -0.635256 1.851339 0.004731 -0.011861 -54271.500000 0 0 1
-30.964392 22.364289 -11.799554 39.977299 -0.625509 1.870415 0.003397 -0.015062 -207144.000000 0 0 1
-31.028292 23.746889 -12.204354 40.934287 -0.653240 1.873545 0.012511 -0.008792 51325.300000 0 0 1
-31.703012 23.906989 -13.456854 41.925076 -0.646115 1.897554 0.017523 -0.010932 -791781.000000 0 0 1
-31.882572 25.348189 -13.985054 43.065192 -0.671714 1.901535 0.007101 -0.000365 671681.000000 0 0 1
-30.684742 26.138089 -14.044754 42.684988 -0.705554 1.906075 0.008334 0.001339 326454.000000 0 0 1
-29.652112 25.706189 -14.922454 41.984944 -0.714239 1.934164 0.014874 -0.003582 -156279.000000 0 0 1
-28.320662 26.411289 -14.525354 41.359424 -0.750526 1.929647 0.010126 -0.000934 -43095.600000 0 0 1
-27.535722 25.817489 -13.521454 40.094743 -0.753204 1.914777 0.012941 -0.015829 47551.400000 0 0 1
-28.140692 25.653489 -12.243154 39.998685 -0.739196 1.881878 0.022840 -0.007790 -561886.000000 0 0 1
-28.475632 26.913289 -11.421754 40.812292 -0.757199 1.854445 0.025642 0.003937 -261823.000000 0 0 1
-27.305612 27.572289 -11.003954 40.335029 -0.790258 1.847113 0.024101 0.006986 -193352.000000 0 0 1
-27.588922 28.835589 -10.377854 41.235175 -0.807489 1.825207 0.013111 0.012994 428466.000000 0 0 1
-26.334992 29.576289 -9.802754 40.796846 -0.843305 1.813453 0.012924 0.010063 605665.000000 0 0 1
-26.587992 30.920689 -9.383254 41.845618 -0.860596 1.796954 0.004421 0.011916 456073.000000 0 0 1
-25.400932 31.427789 -8.758254 41.347554 -0.891056 1.784234 0.013251 0.005407 323799.000000 0 0 1
33.003176 -25.417181 34.397886 54.022748 -0.656269 0.880547 -0.013330 0.003874 -176599.000000 0 0 1
32.739126 -24.076811 34.550110 53.340916 -0.634101 0.866205 -0.009546 -0.000116 481397.000000 0 0 1
31.669066 -23.979211 -33.864974 52.199318 -0.648081 2.276754 -0.011941 0.001355 451072.000000 0 0 1
31.456056 -22.483811 -33.584914 51.214760 -0.620569 2.285994 -0.010296 0.002025 278609.000000 0 0 1
30.972026 -21.758811 34.591915 51.276825 -0.612423 0.830359 -0.009821 0.006198 298830.000000 0 0 1
30.601266 -20.444311 -34.485228 50.434495 -0.588985 2.323703 -0.010696 0.006353 86760.500000 0 0 1
30.263286 -19.624811 33.608039 49.300101 -0.575298 0.820708 0.004086 0.002018 701742.000000 0 0 1
31.487436 -19.239111 32.980373 49.490474 -0.548475 0.841429 0.003905 0.003338 914780.000000 0 0 1
31.152196 -18.704711 31.727053 48.238277 -0.540736 0.853015 0.005453 0.004643 41091.700000 0 0 1
32.416506 -18.732211 30.836443 48.503730 -0.523981 0.881811 -0.004391 0.010562 -20795.900000 0 0 1
33.214376 -17.610511 31.152903 48.824463 -0.487521 0.878821 -0.008305 0.001680 -33052.900000 0 0 1
34.278275 -17.514611 30.244263 48.953827 -0.472372 0.904839 -0.010027 0.005239 -150060.000000 0 0 1
-34.319625 -16.318811 30.440833 48.690703 0.443852 0.895424 -0.009247 -0.000207 219963.000000 0 0 1
-33.219652 -16.340611 29.501213 47.337959 0.457143 0.897963 -0.004132 0.002089 965181.000000 0 0 1
-32.188372 -15.459011 29.920383 46.586496 0.447737 0.873360 0.001320 -0.000920 269958.000000 0 0 1
-31.190682 -16.036311 30.966953 46.786473 0.474894 0.847475 0.000752 -0.002572 -659715.000000 0 0 1
-30.421872 -15.049911 31.646963 46.406038 0.459404 0.820360 -0.000052 -0.003180 -21219.700000 0 0 1
-29.428512 -15.713911 32.375453 46.488001 0.490452 0.800391 -0.000977 -0.001957 -584687.000000 0 0 1
-28.357712 -14.767311 32.930463 45.898243 0.480110 0.770637 0.002826 -0.004636 -376749.000000 0 0 1
-28.693092 -13.987611 34.068473 46.686268 0.453590 0.752866 0.004041 0.000082 -248851.000000 0 0 1
-27.693442 -13.111811 34.431292 46.090782 0.442193 0.727210 0.000961 -0.000397 -678910.000000 0 0 1
-28.046902 -12.558811 -33.553974 45.499688 0.421005 2.400091 0.008913 -0.000800 -112831.000000 0 0 1
-28.044092 -13.569111 -32.558994 45.063066 0.450644 2.378238 0.009478 0.004773 113769.000000 0 0 1
-28.389772 -13.105511 -31.272234 44.223141 0.432482 2.356250 0.024114 0.011054 -457648.000000 0 0 1
-28.458772 -14.184811 -30.146324 43.816794 0.462394 2.329537 0.027887 0.015720 353585.000000 0 0 1
-29.623232 -14.986611 -30.358824 44.986582 0.468362 2.311547 0.028893 0.008472 341818.000000 0 0 1
-29.866222 -15.622611 -29.120674 44.542910 0.481946 2.283348 0.029014 0.007805 944957.000000 0 0 1
-31.089732 -16.622411 -29.142434 45.740107 0.490989 2.261566 0.022902 0.003761 684563.000000 0 0 1
-30.754622 -17.790911 -29.817334 46.383582 0.524445 2.269000 0.023031 0.003961 -425929.000000 0 0 1
-31.798892 -18.699311 -29.834834 47.444189 0.531586 2.250858 0.017805 0.007245 -365387.000000 0 0 1
-31.471702 -19.993011 -30.604324 48.237052 0.565950 2.258102 0.019470 0.002122 -1255650.000000 0 0 1
-32.659132 -20.632411 -30.704104 49.346300 0.563439 2.242368 -0.002764 -0.000529 -1143530.000000 0 0 1
-32.486452 -21.940811 -31.218574 50.113552 0.594013 2.243313 -0.002494 -0.001942 -631930.000000 0 0 1
-33.747472 -22.721011 -31.528714 51.470341 0.592557 2.230093 0.005317 0.002498 -698440.000000 0 0 1
-34.594649 -22.978711 -30.424774 51.482791 0.586312 2.203057 -0.006939 -0.001177 -41878.100000 0 0 1
34.100957 -24.034211 -30.688394 51.790888 -0.613937 2.205010 -0.010433 0.003651 -158558.000000 0 0 1
34.750009 -25.460781 -30.785444 52.948636 -0.632327 2.191270 -0.012728 0.004848 136688.000000 0 0 1
-34.338690 -25.726191 -32.110684 53.591777 0.642982 2.213263 -0.007276 0.007268 348357.000000 0 0 1
-33.572632 -26.964391 -32.135954 53.730062 0.676668 2.211925 -0.004264 0.007387 -22018.900000 0 0 1
-33.793682 -27.764891 -33.436834 55.053828 0.687774 2.223514 -0.000709 0.002220 -728495.000000 0 0 1
34.534849 -28.293731 -33.607994 55.881019 -0.686387 2.216074 0.004980 -0.000039 -1010920.000000 0 0 1
34.324238 -29.396671 -34.497661 56.854254 -0.708221 2.222792 -0.004019 -0.001495 -180029.000000 0 0 1
-34.580362 -30.720121 -34.132672 57.485360 0.726352 2.206524 0.001858 -0.003833 -440157.000000 0 0 1
34.723183 -31.170101 -32.783154 57.026396 -0.731529 2.183250 0.012073 -0.007736 69633.800000 0 0 1
-34.061462 -32.231321 -32.279134 56.929638 0.757798 2.173656 0.007859 -0.002490 -305420.000000 0 0 1
-34.475065 -32.662811 -30.892274 56.654408 0.758412 2.147514 0.016201 -0.003980 -365975.000000 0 0 1
33.991584 -33.492881 -30.882404 56.841215 -0.778008 2.145171 0.023700 -0.001146 -34214.600000 0 0 1
33.639186 -33.771211 -29.549584 56.082684 -0.787357 2.125737 0.020979 -0.001787 32833.300000 0 0 1
32.470016 34.685846 -29.438974 55.893318 0.818382 2.125509 0.019108 -0.002250 255348.000000 0 0 1
31.287876 -34.264669 -30.002074 55.255074 -0.830778 2.144771 0.020145 -0.007041 -422370.000000 0 0 1
30.164976 34.498994 -29.583124 54.546013 0.852322 2.144030 0.024954 0.002959 -181946.000000 0 0 1
28.834336 -34.551042 -30.212004 54.202939 -0.875344 2.162031 0.011598 0.001789 -125753.000000 0 0 1
28.640156 34.456571 -31.548344 54.797918 0.877321 2.184283 0.011084 -0.002469 293252.000000 0 0 1
27.290926 34.679268 -31.942384 54.477171 0.904062 2.197335 0.006165 0.000500 240690.000000 0 0 1
27.087356 34.343822 -33.476174 55.080642 0.902977 2.224041 0.004973 0.002926 -14301.400000 0 0 1
26.845186 32.944967 -33.664314 54.215504 0.887066 2.240732 -0.003912 0.006727 75480.600000 0 0 1
26.700996 32.538577 34.364036 54.337733 0.883623 0.886129 0.002661 0.007311 -75456.400000 0 0 1
26.608386 30.991547 34.163909 53.250867 0.861348 0.874259 -0.001636 0.006011 146086.000000 0 0 1
27.773266 30.271007 34.563652 53.687375 0.828403 0.871349 0.005547 0.002647 -90694.700000 0 0 1
27.599336 28.885037 34.666813 52.894770 0.808156 0.856095 0.002846 0.002273 75066.100000 0 0 1
28.973256 28.193097 -34.620821 53.225008 0.771752 2.278988 0.011187 0.006901 44202.600000 0 0 1
29.627296 28.391257 -33.400534 52.909695 0.764097 2.253992 0.013383 0.007426 -733817.000000 0 0 1
30.768106 27.583897 -33.368964 53.113421 0.730883 2.250109 0.024778 0.006228 -358343.000000 0 0 1
31.413096 27.574627 -31.936284 52.602936 0.720417 2.223227 0.024486 0.006166 411844.000000 0 0 1
32.401326 28.620497 -31.705894 53.611962 0.723519 2.203585 0.019446 0.007943 855544.000000 0 0 1
31.966576 29.975647 -31.736894 54.107595 0.753268 2.197591 0.019021 0.007453 163714.000000 0 0 1
30.844666 30.449497 -30.744914 53.139581 0.778951 2.187769 0.020245 0.010077 491588.000000 0 0 1
31.307776 30.629417 -29.404524 52.753806 0.774446 2.162037 0.010757 0.010626 450934.000000 0 0 1
30.230706 30.839567 -28.483254 51.732681 0.795368 2.153862 0.017343 0.006321 -400007.000000 0 0 1
30.667836 31.042197 -27.001274 51.314744 0.791465 2.124910 0.030752 0.003022 -250439.000000 0 0 1
31.348406 32.275197 -26.871324 52.406860 0.799964 2.109175 0.026996 0.000376 201299.000000 0 0 1
31.588926 32.598617 -25.533054 52.081349 0.801127 2.083177 0.016891 -0.006024 -131244.000000 0 0 1
32.074156 34.013526 -25.352334 53.182819 0.814735 2.067695 0.020058 -0.005753 357349.000000 0 0 1
30.967626 -34.611095 -25.648314 53.054291 -0.840900 2.075371 0.018727 0.001856 604464.000000 0 0 1
31.082016 -33.235621 -25.292544 52.061608 -0.818870 2.078097 0.014189 -0.002253 -654176.000000 0 0 1
31.707026 -32.303371 -26.380484 52.390583 -0.794714 2.098482 0.009271 -0.000691 728827.000000 0 0 1
33.104776 -32.342901 -26.645364 53.403791 -0.773758 2.093173 0.013963 -0.001050 635045.000000 0 0 1
33.975371 -31.770181 -25.670864 53.128744 -0.751869 2.075082 0.014427 0.000953 559835.000000 0 0 1
-34.106934 -32.086731 -25.863884 53.495624 0.754888 2.075418 -0.002012 0.001001 173093.000000 0 0 1
-33.716282 -33.415001 -25.638374 53.950683 0.780910 2.066009 0.001779 0.001147 -249236.000000 0 0 1
-33.379722 -33.828581 -24.293454 53.373689 0.792077 2.043346 -0.000871 0.000284 -757159.000000 0 0 1
-32.081032 -33.382091 -23.683054 52.004266 0.805270 2.043625 -0.005138 0.004744 -870995.000000 0 0 1
-31.901972 -31.985941 -23.667254 50.999756 0.786712 2.053376 -0.008819 0.009623 -205928.000000 0 0 1
-31.783052 -31.328681 -22.370754 49.920930 0.778199 2.035462 -0.007896 0.002297 -235393.000000 0 0 1
-31.579912 -29.748611 -22.419954 48.835694 0.755547 2.047766 -0.002114 0.006636 262934.000000 0 0 1
-32.772602 -29.026071 -22.673654 49.301631 0.724848 2.048675 -0.015675 0.010557 -85016.100000 0 0 1
-33.006812 -28.808231 -24.066054 49.985385 0.717581 2.073118 -0.013601 0.011741 -622810.000000 0 0 1
-34.148451 -27.876561 -24.408954 50.388653 0.684622 2.076489 -0.021852 0.009575 -537697.000000 0 0 1
-34.069767 -26.525671 -23.920154 49.361260 0.661536 2.076695 -0.024586 0.013476 95634.800000 0 0 1
34.542556 -25.619751 -24.490954 49.491077 -0.638159 2.088465 -0.021723 0.013240 498782.000000 0 0 1
-34.638305 -24.996211 -25.880274 49.944082 0.625099 2.115524 -0.018698 0.010119 -498601.000000 0 0 1
-33.499432 -24.188811 -25.771044 48.697610 0.625383 2.128460 -0.018397 0.005700 -516875.000000 0 0 1
-33.296792 -23.629011 -27.005634 48.952127 0.617172 2.155167 -0.010696 -0.003155 -105922.000000 0 0 1
-32.104762 -22.646811 -27.124744 47.742492 0.614343 2.175048 0.000993 -0.011281 -327888.000000 0 0 1
-32.197872 -21.401211 -26.456894 46.847433 0.586624 2.170922 -0.000139 -0.000294 -843990.000000 0 0 1
-33.182182 -20.528711 -26.863484 47.372270 0.554032 2.173743 -0.007042 -0.000485 -659376.000000 0 0 1
-34.361927 -20.507111 -25.843204 47.635646 0.538061 2.144228 -0.007693 -0.001112 -146535.000000 0 0 1
-34.128577 -20.178011 -24.459454 46.585156 0.533950 2.123568 -0.002752 -0.004224 -220801.000000 0 0 1
-33.411842 -21.090011 -23.591854 46.018641 0.563055 2.109075 -0.012871 -0.002326 -19616.200000 0 0 1
-34.127166 -22.312011 -22.949754 46.788679 0.579035 2.083457 -0.006887 0.004259 299673.000000 0 0 1
34.564468 -21.877311 -21.916354 46.407389 -0.564290 2.062649 -0.009911 0.006640 170863.000000 0 0 1
34.042606 -23.003211 -21.237354 46.250102 -0.594243 2.047874 -0.007398 0.012210 -565364.000000 0 0 1
32.906496 -22.678811 -20.286354 44.818546 -0.603434 2.040512 -0.007160 0.010315 -485068.000000 0 0 1
31.778006 -22.188311 -21.000454 44.081537 -0.609536 2.067352 0.013095 0.005502 -442215.000000 0 0 1
30.767946 -22.043911 -20.021554 42.818958 -0.621686 2.057354 0.018986 0.004996 -877989.000000 0 0 1
29.464086 -21.564511 -20.617154 41.931224 -0.631811 2.084826 0.014223 0.008190 -933096.000000 0 0 1
28.865086 -22.381111 -21.643654 42.456508 -0.659541 2.105730 0.015167 0.008191 669273.000000 0 0 1
27.624986 -21.979611 -22.219654 41.712782 -0.672078 2.132563 0.022342 0.006442 584956.000000 0 0 1
27.729756 -20.631711 -23.058254 41.548645 -0.639668 2.159123 0.021419 0.001299 -539603.000000 0 0 1
27.835416 -19.464011 -22.259154 40.609457 -0.610225 2.150920 0.016062 0.008175 36248.900000 0 0 1
28.128876 -18.314811 -23.011954 40.696634 -0.577151 2.171776 0.014321 0.007700 -802749.000000 0 0 1
28.943786 -17.285211 -22.275654 40.407005 -0.538358 2.154696 0.011064 0.002029 -592294.000000 0 0 1
28.375816 -16.633211 -21.091854 39.073225 -0.530192 2.141000 0.006915 -0.002200 491903.000000 0 0 1
29.344646 -16.194411 -20.137654 39.101052 -0.504277 2.111822 0.002108 -0.001696 466489.000000 0 0 1
30.189896 -17.296211 -19.366354 39.820151 -0.520265 2.078699 0.003618 -0.004362 1071560.000000 0 0 1
31.290146 -17.750211 -20.212054 41.263426 -0.516012 2.082691 0.006406 -0.004716 859954.000000 0 0 1
32.114926 -18.730311 -19.549854 42.004640 -0.527996 2.054907 0.011574 -0.011208 236602.000000 0 0 1
33.371186 -18.964111 -20.420554 43.477265 -0.516768 2.059729 0.002314 -0.004810 42740.000000 0 0 1
34.353611 -17.931611 -20.382554 43.785406 -0.481070 2.055007 0.004448 0.001912 487172.000000 0 0 1
-34.276956 -18.270711 -21.380154 44.337789 0.489723 2.073973 -0.003176 0.008737 358217.000000 0 0 1
-33.343192 -17.099711 -21.763454 43.333780 0.473867 2.096970 -0.005186 0.012284 291565.000000 0 0 1
-32.385222 -16.606611 -20.847654 41.942899 0.473822 2.090990 0.001140 0.009762 360768.000000 0 0 1
-31.523152 -15.590811 -21.312254 41.121705 0.459305 2.115626 -0.002096 0.013207 289006.000000 0 0 1
-30.216952 -15.367411 -20.479754 39.606083 0.470479 2.114239 -0.000471 0.017131 628242.000000 0 0 1
-29.242892 -16.399011 -20.358654 39.224343 0.511087 2.116513 -0.001827 0.009953 579825.000000 0 0 1
-29.690872 -17.613911 -19.736854 39.766080 0.535437 2.090155 -0.002685 0.005697 -240847.000000 0 0 1
-28.632102 -18.732111 -19.895954 39.579518 0.579346 2.097496 -0.004182 -0.000229 136528.000000 0 0 1
-29.110662 -19.911911 -19.328254 40.218108 0.599912 2.072119 -0.005640 0.000112 56132.100000 0 0 1
-28.192712 -20.980011 -19.440954 40.161431 0.639756 2.076097 -0.006895 -0.002691 -125258.000000 0 0 1
-28.796632 -22.392111 -19.171454 41.209189 0.660929 2.054683 -0.006255 0.001985 -403909.000000 0 0 1
-29.733872 -22.790811 -20.125554 42.527193 0.653973 2.063761 -0.010581 0.003676 -143344.000000 0 0 1
-29.973182 -24.179311 -19.946754 43.369387 0.678812 2.048709 -0.004616 0.003350 149672.000000 0 0 1
-31.002232 -24.773111 -20.943954 44.871980 0.674177 2.056408 -0.010935 0.011973 17896.400000 0 0 1
-30.458952 -24.781911 -22.203854 45.109888 0.682989 2.085431 -0.011505 0.003683 108927.000000 0 0 1
-31.302312 -25.562101 -23.012054 46.506025 0.684793 2.088423 -0.011257 0.008075 -372145.000000 0 0 1
-30.910752 -25.626351 -24.520654 47.047284 0.692201 2.119043 -0.012239 0.005565 -1239940.000000 0 0 1
-29.690432 -26.227481 -24.707654 46.689085 0.723548 2.128448 0.004617 -0.007154 -973777.000000 0 0 1
-29.445472 -26.553151 -26.096574 47.467218 0.733794 2.152898 0.006403 -0.001001 418931.000000 0 0 1
-27.943922 -26.751981 -26.463614 46.870610 0.763609 2.170757 0.014037 -0.008401 347558.000000 0 0 1
-27.215082 -25.527041 -26.592664 45.819868 0.753404 2.189984 0.019623 -0.018317 -405334.000000 0 0 1
-25.912672 -25.931661 -26.936264 45.491537 0.785764 2.204478 0.021533 -0.018982 -581518.000000 0 0 1
-24.950882 -24.783711 -27.151584 44.429577 0.782037 2.228265 0.024350 -0.021655 -675938.000000 0 0 1
-25.020882 -24.021011 -28.387054 44.820512 0.765013 2.256670 0.020782 -0.017024 -295981.000000 0 0 1
-24.135482 -22.942111 -28.568514 43.875072 0.760055 2.279873 0.022827 -0.017987 -226945.000000 0 0 1
-23.931782 -22.395011 -29.999604 44.432454 0.752238 2.311996 0.012202 -0.008272 -63622.600000 0 0 1
-23.235382 -23.270011 -30.864384 45.099740 0.786143 2.324520 0.010541 -0.005958 207150.000000 0 0 1
-23.395782 -22.886411 -32.187644 45.904192 0.774393 2.347864 0.012232 -0.003285 -241328.000000 0 0 1
-22.718382 -23.767211 -33.210274 46.732510 0.807957 2.361212 0.013089 -0.007861 -121288.000000 0 0 1
-23.412082 -24.970611 -33.292334 47.749728 0.817600 2.342316 0.013636 -0.008258 76679.000000 0 0 1
-22.943082 -25.623321 -34.438555 48.671898 0.840529 2.356843 0.009669 0.001523 167256.000000 0 0 1
-19.098582 -15.979211 -11.915054 27.605426 0.696704 2.017084 0.014042 0.009085 121592.000000 0 0 1
-19.662082 -15.231211 -10.888354 27.150387 0.659091 1.983447 0.012362 -0.001414 427598.000000 0 0 1
-18.679082 -15.140411 -9.833454 25.977624 0.681143 1.959010 0.004399 -0.003264 384755.000000 0 0 1
-18.993082 -14.285711 -8.611754 25.278074 0.644878 1.918437 0.005726 -0.007915 -855438.000000 0 0 1
-20.143182 -14.756611 -8.003254 26.221316 0.632263 1.880965 0.020508 -0.013917 -372435.000000 0 0 1
-20.478882 -14.059111 -6.799854 25.754247 0.601620 1.837993 0.007391 -0.017737 501339.000000 0 0 1
-21.644082 -14.757211 -5.970854 26.868060 0.598415 1.794896 0.014768 -0.016901 242605.000000 0 0 1
-21.449882 -16.080311 -5.441454 27.354767 0.643289 1.771054 0.009622 -0.015894 316396.000000 0 0 1
-21.012482 -16.188211 -4.079054 26.836938 0.656436 1.723382 0.005364 -0.015576 -252269.000000 0 0 1
-20.792282 -17.627911 -3.704354 27.509716 0.703221 1.705863 0.004482 -0.020687 647274.000000 0 0 1
-21.976882 -18.424711 -3.489554 28.889969 0.697702 1.691880 0.014382 -0.020367 704657.000000 0 0 1
-21.662082 -19.423311 -2.553854 29.206728 0.730961 1.658349 0.004568 -0.010708 165496.000000 0 0 1
-22.820982 -20.382011 -2.167154 30.674422 0.729004 1.641505 -0.003843 -0.013306 -47530.600000 0 0 1
-23.047482 -21.354111 -3.175254 31.579530 0.747279 1.671514 -0.004129 -0.016396 -398591.000000 0 0 1
-23.896682 -22.311011 -2.650554 32.800275 0.751095 1.651693 0.012207 -0.013234 -522105.000000 0 0 1
-24.037682 -23.494411 -3.552954 33.799719 0.773969 1.676109 -0.000438 -0.011402 -454472.000000 0 0 1
-22.861282 -24.266911 -3.603654 33.533677 0.815215 1.678468 -0.003545 -0.005035 -498904.000000 0 0 1
-22.840082 -25.168201 -4.672454 34.306552 0.833854 1.707418 -0.010417 -0.002956 1193630.000000 0 0 1
-21.441482 -25.080031 -5.441754 33.441857 0.863451 1.734246 -0.002311 0.008495 1313880.000000 0 0 1
-21.213082 -23.841511 -6.137854 32.497473 0.843671 1.760809 -0.003516 0.004929 52153.800000 0 0 1
-20.904482 -22.711411 -5.326554 31.323757 0.826803 1.741675 0.000533 0.000061 -859581.000000 0 0 1
-20.945982 -21.345011 -6.057754 30.512949 0.794833 1.770655 0.007895 -0.002228 -172837.000000 0 0 1
-19.788582 -20.889911 -6.738054 29.552965 0.812466 1.800819 0.014755 -0.000015 -63068.700000 0 0 1
-19.977782 -19.673911 -7.419854 29.003944 0.777735 1.829494 0.016011 -0.002310 4988.730000 0 0 1
-18.755282 -19.170911 -8.218754 28.050532 0.796357 1.868157 0.027858 -0.005121 -50036.500000 0 0 1
-18.430482 -19.975311 -9.347254 28.741379 0.825600 1.902040 0.013765 -0.001153 392189.000000 0 0 1
-17.040282 -20.033411 -9.679854 28.025138 0.865958 1.923460 0.027068 0.006518 525426.000000 0 0 1
-16.580582 -18.817211 -10.544154 27.206292 0.848500 1.968783 0.019727 0.004501 -664652.000000 0 0 1
-16.429682 -17.532211 -9.960754 26.010181 0.817850 1.963790 0.024208 -0.002469 308661.000000 0 0 1
-15.152082 -17.383711 -9.351154 24.884193 0.853881 1.956042 0.015562 -0.008282 19460.400000 0 1 0
-15.114382 -16.266611 -8.327154 23.714735 0.822099 1.929583 0.009939 -0.009144 -704733.000000 0 1 0
-15.926682 -16.419411 -7.250554 23.996391 0.800630 1.877746 0.015523 -0.008747 -337713.000000 0 1 0
-16.131882 -15.206211 -6.546754 23.115503 0.755869 1.857945 0.013659 -0.008468 -125614.000000 0 1 0
-16.841682 -15.431011 -5.167854 23.419331 0.741715 1.793294 0.017603 -0.012955 169613.000000 0 1 0
-17.162282 -14.190911 -4.505154 22.720526 0.690909 1.770405 0.003788 -0.006737 202114.000000 0 1 0
-17.290882 -14.424411 -3.088354 22.728312 0.695262 1.707099 -0.011850 -0.007816 -371670.000000 0 1 0
-18.139882 -13.346611 -2.383554 22.646604 0.634325 1.676242 -0.011381 -0.001655 995323.000000 0 1 0
-19.577782 -13.486511 -2.509454 23.905499 0.603216 1.675964 -0.005156 -0.005619 1537250.000000 0 1 0
-20.276282 -12.471911 -1.811854 23.873814 0.551447 1.646762 -0.005117 -0.001156 -1305990.000000 0 1 0
-21.767482 -12.620011 -1.930654 25.235201 0.525407 1.647378 0.000147 -0.003111 -1249070.000000 0 0 1
-22.193982 -12.260611 -3.198854 25.556371 0.504707 1.696294 -0.001213 0.006974 -275357.000000 0 0 1
-23.539182 -12.537311 -3.462854 26.893654 0.489398 1.699916 0.003786 0.004042 -596335.000000 0 0 1
-23.974882 -11.686511 -4.711554 27.084465 0.453556 1.745644 0.003637 0.002074 -153108.000000 0 0 1
-23.422882 -12.132911 -5.946954 27.040806 0.477939 1.792534 0.004173 -0.005967 400878.000000 0 0 1
-23.973182 -11.384411 -7.059354 27.461841 0.443351 1.830776 0.010092 -0.008408 -261030.000000 0 0 1
-23.363182 -11.588011 -8.450154 27.413963 0.460438 1.884142 0.023677 -0.012259 791954.000000 0 0 1
-22.066182 -10.978711 -8.636054 26.115702 0.461674 1.907825 0.006977 -0.009825 711682.000000 0 0 1
-21.442282 -11.225911 -9.830854 26.123518 0.482302 1.956620 0.011547 -0.005585 205657.000000 0 0 1
-20.056482 -10.502711 -9.846654 24.688580 0.482393 1.981042 -0.002732 0.002154 225461.000000 0 1 0
-20.234982 -9.078211 -9.927854 24.298780 0.421722 1.991688 -0.003061 -0.005469 548621.000000 0 1 0
-18.998182 -8.454011 -9.663454 22.929971 0.418680 2.005822 -0.006622 -0.002659 -125300.000000 0 1 0
-18.920182 -7.108311 -10.353654 22.709018 0.359384 2.044210 -0.026181 -0.012331 -190682.000000 0 1 0
-18.788282 -7.241211 -11.772054 23.324149 0.367867 2.099848 0.009802 -0.018041 496497.000000 0 1 0
-18.467482 -6.005811 -12.421554 23.052389 0.314422 2.139856 0.002056 -0.026553 -361589.000000 0 1 0
-17.730582 -6.176511 -13.762354 23.279287 0.335207 2.203323 -0.001964 -0.024330 -510048.000000 0 1 0
-18.462582 -6.795011 -14.786654 24.610653 0.352657 2.215327 -0.000879 -0.022303 107254.000000 0 1 0
-17.974282 -6.515011 -16.076354 24.979378 0.347734 2.269969 -0.000144 -0.024039 -474202.000000 0 1 0
-18.476982 -7.544611 -17.092154 26.276639 0.387662 2.278999 -0.002146 -0.017560 -535846.000000 0 0 1
-19.774382 -7.267711 -17.523454 27.402869 0.352207 2.264612 0.005998 -0.018259 -185365.000000 0 0 1
-20.139282 -8.241811 -18.526454 28.578797 0.388447 2.276092 0.018178 -0.015389 384816.000000 0 0 1
-21.526382 -7.983411 -19.193554 29.925114 0.355142 2.267100 0.009467 -0.012704 -441774.000000 0 0 1
-21.449082 -6.847911 -20.030154 30.135760 0.309035 2.297840 0.009930 -0.014681 580334.000000 0 0 1
-22.605282 -6.661011 -20.852254 31.467194 0.286556 2.295170 0.011543 -0.017729 617683.000000 0 0 1
-23.914482 -6.284211 -20.123054 31.879947 0.256969 2.253913 0.017147 -0.015064 -585632.000000 0 0 1
-24.093082 -4.908511 -19.833354 31.590062 0.200981 2.249565 0.011240 -0.007277 289420.000000 0 0 1
-25.333402 -4.673111 -19.176654 32.114845 0.182414 2.210712 0.017495 -0.003571 222187.000000 0 0 1
-25.412832 -3.195611 -18.755154 31.745547 0.125091 2.202842 0.004472 -0.005802 -155629.000000 0 0 1
-25.624532 -2.219811 -19.719254 32.409769 0.086413 2.224884 0.010456 -0.001067 473919.000000 0 0 1
-26.964352 -1.957711 -20.150854 33.718924 0.072477 2.211317 0.015830 0.004454 526224.000000 0 0 1
-27.186562 -0.807611 -21.161354 34.461054 0.029698 2.231998 0.014656 0.010529 -541302.000000 0 0 1
-26.510972 -1.042811 -22.399854 34.722796 0.039315 2.271957 0.012070 0.011497 18755.300000 0 0 1
-26.993762 -1.960311 -23.362454 35.753465 0.072494 2.282906 0.028917 0.006031 -58627.400000 0 0 1
-26.214222 -1.930411 -24.743354 36.099106 0.073507 2.325988 0.031079 -0.000136 -227864.000000 0 0 1
-26.466422 -0.766111 -25.551064 36.795588 0.028938 2.338390 0.019671 0.005634 224078.000000 0 0 1
-26.014512 0.569489 -25.144264 36.184432 -0.021888 2.339066 0.006099 0.013795 1207280.000000 0 0 1
-24.468282 0.739089 -24.825254 34.864542 -0.030197 2.363208 0.001889 0.013694 1428740.000000 0 0 1
-23.627382 0.699989 -25.997824 35.137302 -0.029617 2.403707 0.001236 0.003637 249660.000000 0 0 1
-22.274382 0.573589 -25.591204 33.932091 -0.025745 2.425214 -0.002293 0.011717 486310.000000 0 0 1
-21.391782 -0.007411 -26.769574 34.266871 0.000346 2.467396 -0.002345 -0.000941 252380.000000 0 0 1
-21.549082 0.835689 -27.927754 35.284851 -0.038761 2.484046 -0.007929 0.008279 -85694.900000 0 0 1
-20.723182 0.336089 -28.912614 35.573901 -0.016217 2.519650 -0.010664 0.003192 -373455.000000 0 0 1
-20.550882 1.371789 -29.998144 36.388311 -0.066652 2.539919 -0.004587 0.013288 -260119.000000 0 0 1
-19.708782 2.485389 -29.700584 35.731470 -0.125443 2.552088 0.001352 0.011512 364912.000000 0 0 1
-19.550282 3.377889 -30.822864 36.656140 -0.171090 2.569676 -0.002920 0.007363 -129259.000000 0 0 1
-18.757582 2.882589 -32.091004 37.282552 -0.152483 2.607540 -0.011588 0.003458 886983.000000 0 0 1
-17.336882 2.678989 -31.950414 36.449601 -0.153313 2.639473 -0.014882 0.005084 827087.000000 0 0 1
-16.877082 2.096789 -33.137704 37.247011 -0.123605 2.667427 -0.027143 0.008504 -334238.000000 0 0 1
-15.357282 1.912989 -33.238604 36.664839 -0.123927 2.705840 -0.010417 0.003926 15264.900000 0 0 1
-14.682782 3.204589 -33.124444 36.374198 -0.214885 2.715670 -0.004257 0.001120 255972.000000 0 0 1
-13.353082 3.069789 -33.595554 36.282084 -0.225967 2.754351 -0.016441 0.001073 -30668.000000 0 0 1
-12.693282 4.424589 -33.918734 36.485297 -0.335407 2.764271 -0.005488 0.001644 -357355.000000 0 0 1
-12.495082 5.234689 -32.812834 35.499452 -0.396727 2.750045 0.008023 -0.009432 -17994.000000 0 0 1
-12.201882 6.575789 -33.278014 36.049315 -0.494294 2.746926 0.008139 -0.004203 -11427.400000 0 0 1
-11.636982 7.468489 -32.120434 34.970272 -0.570581 2.735084 0.007859 -0.005029 -486568.000000 0 0 1
-10.526982 6.956789 -31.429844 33.868117 -0.583967 2.759823 0.010314 -0.009761 391751.000000 0 0 1
-10.891182 6.039489 -30.353424 32.808895 -0.506315 2.752249 0.014619 -0.011064 935824.000000 0 0 1
-9.557782 5.234389 -30.042854 31.958146 -0.501043 2.793628 0.008008 -0.011629 1052060.000000 0 0 1
-9.023482 4.336189 -31.047724 32.621878 -0.447963 2.829671 0.005628 -0.011921 450172.000000 0 0 1
-9.828982 3.205489 -31.339734 33.000954 -0.315250 2.822950 0.009410 -0.008006 -355299.000000 0 0 1
-9.428682 2.509389 -32.646774 34.073581 -0.260115 2.851180 0.005063 -0.012098 -226759.000000 0 0 1
-10.112682 1.309789 -32.979034 34.519539 -0.128802 2.841716 0.004050 -0.007831 208240.000000 0 0 1
-9.777682 0.758589 -34.242288 35.618995 -0.077429 2.862657 0.000454 -0.002163 -620916.000000 0 0 1
-10.324682 1.447089 33.816176 35.386818 -0.139251 0.299056 0.000618 -0.002723 -1427.030000 0 0 1
-11.720282 1.330689 33.637025 35.645269 -0.113053 0.337274 -0.019845 0.000848 -150216.000000 0 0 1
-11.994382 1.471189 32.248313 34.438108 -0.122047 0.358530 -0.018273 0.002940 -22372.300000 0 0 1
-13.465582 1.175389 31.874013 34.621614 -0.087068 0.401082 -0.010441 0.002957 363287.000000 0 0 1
-14.328282 2.286689 32.158073 35.279885 -0.158258 0.423848 -0.015676 0.012388 271564.000000 0 0 1
-15.661682 1.890389 31.859933 35.551613 -0.120120 0.459758 -0.016997 0.012343 654664.000000 0 0 1
-16.645682 3.108589 31.681243 35.922739 -0.184624 0.490861 -0.014521 0.015718 20823.200000 0 0 1
-16.934082 3.858389 32.894533 37.198126 -0.224023 0.485790 -0.019757 0.011789 609037.000000 0 0 1
-15.969582 4.909689 33.041003 37.024863 -0.298268 0.468159 -0.013739 0.008915 -18551.700000 0 0 1
-16.208582 5.666389 34.327917 38.382704 -0.336311 0.463800 -0.019279 0.007535 264796.000000 0 0 1
-17.501982 6.259189 34.252013 38.970466 -0.343454 0.497198 -0.017073 0.005918 408531.000000 0 0 1
-18.434682 5.697189 -34.186499 39.255728 -0.299736 2.627759 -0.018402 0.005540 380105.000000 0 0 1
-19.843082 6.340489 -34.227030 40.067933 -0.309278 2.594855 -0.014191 0.000319 127601.000000 0 0 1
-19.858582 7.654489 -33.753734 39.903246 -0.367901 2.579027 -0.005947 -0.005425 149213.000000 0 0 1
-19.676182 8.629989 34.659697 40.778958 -0.413334 0.554924 -0.008742 -0.000871 -351564.000000 0 0 1
-19.559982 10.046789 -34.059174 40.540821 -0.474500 2.568302 -0.004537 0.004328 -263395.000000 0 0 1
-18.361882 10.150289 -33.305174 39.362694 -0.504984 2.579441 0.005364 0.003061 314279.000000 0 0 1
-18.063582 11.444389 -32.857464 39.203060 -0.564732 2.564652 0.012282 0.003445 -163395.000000 0 0 1
-17.371682 12.382989 -33.935314 40.083903 -0.619282 2.580374 0.004368 -0.003335 -643482.000000 0 0 1
-18.139982 12.708589 34.298452 40.828310 -0.611118 0.573393 0.004143 0.003958 -181995.000000 0 0 1
-17.464882 12.916489 33.081573 39.575854 -0.636792 0.581021 0.005971 -0.000825 233748.000000 0 0 1
-18.321482 12.414889 31.828383 38.766637 -0.595543 0.607592 -0.001367 -0.005006 301097.000000 0 0 1
-18.579982 11.050589 31.723753 38.389162 -0.536556 0.598161 -0.013378 0.001120 633416.000000 0 0 1
-17.385182 10.275589 31.530873 37.443667 -0.533816 0.569653 -0.016391 0.003708 632586.000000 0 0 1
-17.636382 8.742289 31.559753 37.195263 -0.460199 0.557674 -0.008948 0.000114 -112653.000000 0 0 1
-18.202382 8.227389 30.374263 36.353988 -0.424512 0.581729 -0.007168 -0.003725 96253.000000 0 0 1
-18.170582 6.799089 30.458253 36.112364 -0.358053 0.567160 -0.007581 -0.002901 -134521.000000 0 0 1
-18.731882 6.005489 29.232093 35.234423 -0.310249 0.592323 -0.017254 -0.001080 -194100.000000 0 0 1
-20.109882 6.165689 29.011473 35.834182 -0.297501 0.627320 -0.004854 -0.004296 -373664.000000 0 0 1
-20.562682 5.293089 28.009853 35.148151 -0.251943 0.648636 -0.015387 -0.001612 -84246.000000 0 0 1
-22.094582 5.224389 27.765963 35.866607 -0.232191 0.685433 -0.014440 -0.001727 423280.000000 0 0 1
-22.565882 6.110589 26.745613 35.523037 -0.264447 0.718325 -0.008467 -0.007748 46059.700000 0 0 1
-23.954582 6.305889 26.725273 36.439353 -0.257404 0.747460 -0.008323 -0.011297 -481246.000000 0 0 1
-24.458782 7.188289 25.536173 36.083232 -0.285846 0.784556 -0.004954 -0.007509 -219256.000000 0 0 1
-24.411682 6.507389 24.268453 35.031901 -0.260511 0.805497 -0.006427 -0.001075 302217.000000 0 0 1
-25.479832 5.622789 24.035253 35.475780 -0.217195 0.826422 -0.004110 0.000615 -507017.000000 0 0 1
-25.474632 5.060589 22.601653 34.429655 -0.196099 0.854681 -0.003296 0.012544 4688.950000 0 0 1
-26.050812 5.894689 21.598353 34.349396 -0.222529 0.890808 -0.002492 0.009804 -24829.900000 0 0 1
-26.201912 5.187289 20.413253 33.617689 -0.195446 0.918242 0.002319 0.003527 -237530.000000 0 0 1
-27.157132 5.731989 19.297953 33.804977 -0.208014 0.963242 -0.000921 -0.003740 30890.400000 0 0 1
-28.499732 5.565689 19.684253 35.081069 -0.192862 0.975073 -0.003255 -0.000656 -900034.000000 0 0 1
-29.381362 5.959089 18.701353 35.334342 -0.200104 1.013058 -0.004979 0.004387 -749502.000000 0 0 1
-30.822812 5.805589 19.188553 36.768888 -0.186172 1.021755 -0.010821 0.002728 -475744.000000 0 0 1
-31.042162 6.728789 20.272753 37.681254 -0.213461 1.002726 -0.008983 -0.005398 508931.000000 0 0 1
-32.400332 6.644789 20.716453 39.026992 -0.202279 1.011224 -0.016814 -0.002985 477181.000000 0 0 1
-32.667552 7.720289 21.789253 40.019287 -0.232071 0.995041 -0.015220 -0.001369 -318826.000000 0 0 1
-31.945232 7.705089 22.987753 40.103653 -0.236676 0.960380 -0.008390 -0.004887 279334.000000 0 0 1
-32.403912 8.891289 23.683553 41.109356 -0.267798 0.956834 -0.008679 0.003836 -104930.000000 0 0 1
0.064418 33.507289 12.562446 35.784879 1.568874 1.212099 -0.009409 -0.013022 -823587.000000 0 0 1
-0.420482 33.641889 13.841146 36.380363 -1.558298 1.180506 0.000880 -0.009889 -104096.000000 0 0 1
-0.457682 -34.487620 14.307746 37.340555 1.557526 1.177572 0.002105 -0.009897 -174723.000000 0 0 1
-0.459182 -34.374920 15.837146 37.850511 1.557439 1.139099 -0.001870 -0.006017 209477.000000 0 0 1
-1.707782 -34.685820 16.410146 38.409836 1.521600 1.129360 0.002724 -0.008272 -167698.000000 0 0 1
-1.551082 34.691089 17.854946 39.047107 -1.526115 1.095877 -0.001215 -0.004916 441664.000000 0 0 1
-2.861182 -34.608320 18.688046 39.435584 1.488311 1.077096 0.001793 0.003298 189859.000000 0 0 1
-3.714082 33.752789 18.551046 38.693494 -1.461199 1.070785 0.004572 -0.003610 500857.000000 0 0 1
-4.680182 33.796189 19.663646 39.379505 -1.433189 1.047963 0.004338 -0.005034 534622.000000 0 0 1
-5.827482 32.791489 19.460146 38.573807 -1.394919 1.042004 0.004348 -0.008679 -31862.500000 0 0 1
-6.667882 33.214189 18.378046 38.540830 -1.372676 1.073733 0.003130 -0.011390 -424946.000000 0 0 1
-7.726182 32.353889 18.181846 37.908410 -1.336384 1.070568 0.001188 -0.010765 -741930.000000 0 0 1
-8.670482 32.780889 17.042746 37.950219 -1.312220 1.105059 -0.007714 -0.009056 184745.000000 0 0 1
-9.530882 33.887389 17.396346 39.266088 -1.296627 1.111812 -0.002167 -0.003423 -460538.000000 0 0 1
-10.361182 34.241289 16.379946 39.346189 -1.276962 1.141421 -0.007413 -0.008669 -159224.000000 0 0 1
-11.421082 -34.185020 16.884346 39.801229 1.248359 1.132700 -0.005774 -0.001996 -14611.900000 0 0 1
-12.327082 -34.564620 17.860746 40.812696 1.228220 1.117838 0.003510 -0.004000 -602304.000000 0 0 1
-13.402382 -33.658420 17.808046 40.368795 1.191853 1.113935 0.006606 -0.001274 -336955.000000 0 0 1
-14.423882 -34.070920 18.853146 41.524897 1.170325 1.099524 0.017704 -0.002882 -417455.000000 0 0 1
-13.904482 -33.875620 20.138146 41.790396 1.181308 1.067992 0.016174 -0.000698 30426.400000 0 0 1
-14.777582 -34.405320 21.118146 42.989290 1.165108 1.057281 0.011843 0.000178 5712.120000 0 0 1
-14.544982 -33.797420 22.518946 43.138440 1.164396 1.021584 0.017668 0.000168 -251965.000000 0 0 1
-15.288382 -32.619920 22.731146 42.596934 1.132515 1.007905 0.006478 0.003222 64123.000000 0 0 1
-14.916782 -32.148020 23.960046 42.779544 1.136359 0.976312 0.015988 0.004138 10173.500000 0 0 1
-14.851382 -30.599420 23.837746 41.534638 1.118938 0.959506 0.008447 0.000119 197231.000000 0 0 1
-14.387582 -29.904720 25.020846 41.561250 1.122371 0.924764 0.011388 -0.002911 -159133.000000 0 0 1
-14.175782 -28.521420 24.873746 40.411972 1.109534 0.907771 0.001051 0.014545 473909.000000 0 0 1
-15.390582 -27.589620 24.467346 39.958831 1.061954 0.911812 0.002467 0.015731 852059.000000 0 0 1
-16.405582 -27.590620 25.464846 40.973697 1.034352 0.900150 0.013547 0.005498 9126.710000 0 0 1
-17.440582 -26.683520 25.158146 40.609315 0.991888 0.902670 0.006836 0.009366 -623143.000000 0 0 1
-18.514482 -26.674220 26.298046 41.783816 0.964043 0.890037 0.002001 0.008050 -77000.000000 0 0 1
-19.255682 -27.871920 26.492146 43.005337 0.966229 0.907116 0.011898 0.005002 372756.000000 0 0 1
-20.076482 -28.301320 25.401646 43.003180 0.953801 0.938880 -0.001165 0.007476 -435806.000000 0 0 1
-21.389482 -27.562720 25.052246 42.951467 0.910843 0.948049 -0.007074 0.004669 -409881.000000 0 0 1
-21.313382 -26.181620 24.802746 41.891690 0.887541 0.937173 0.002463 0.004128 273853.000000 0 0 1
-22.418982 -25.884020 23.946746 41.785642 0.857011 0.960530 -0.002022 0.003194 233801.000000 0 0 1
-22.771682 -24.364420 23.923246 41.042614 0.819176 0.948518 0.003102 0.003433 -349398.000000 0 0 1
-23.462782 -23.845720 25.021046 41.775271 0.793492 0.928615 0.004388 0.000302 79033.900000 0 0 1
-23.839382 -22.505120 24.811546 41.114588 0.756616 0.922947 0.001256 -0.002361 -225840.000000 0 0 1
-24.361782 -21.902620 26.078646 41.872628 0.732294 0.898468 0.003449 0.001549 705988.000000 0 0 1
-25.590802 -22.558320 26.481746 43.186223 0.722500 0.910692 -0.002152 -0.001076 919182.000000 0 0 1
-25.974872 -21.976420 27.717046 43.884982 0.702205 0.887202 -0.007856 -0.004530 -1638150.000000 0 0 1
-27.211032 -22.514420 28.405946 45.323693 0.691227 0.893440 -0.006320 0.000270 908885.000000 0 0 1
-28.516642 -21.998920 27.980746 45.607823 0.657083 0.910302 -0.009961 -0.002179 1572220.000000 0 0 1
-28.905202 -22.339320 26.708746 45.253873 0.657964 0.939492 -0.009393 0.000689 -720380.000000 0 0 1
-30.356932 -22.913520 26.783846 46.518245 0.646568 0.957250 -0.011767 0.001085 386793.000000 0 0 1
-30.858992 -23.449620 25.552046 46.422722 0.649804 0.987928 -0.011304 -0.003768 300311.000000 0 0 1
-30.161462 -24.609220 25.060946 46.296636 0.684371 0.998799 -0.017199 -0.003671 -492975.000000 0 0 1
-30.725662 -25.136420 23.766946 46.268495 0.685676 1.031334 -0.013591 -0.002564 232196.000000 0 0 1
-31.959832 -25.842620 23.797846 47.493256 0.679961 1.045952 -0.000837 -0.001649 133758.000000 0 0 1
-32.206512 -26.246620 22.465446 47.231777 0.683789 1.075102 0.007475 0.004119 -571973.000000 0 0 1
-33.532422 -26.938520 22.204646 48.406131 0.676785 1.094247 0.009988 0.005760 -838567.000000 0 0 1
-33.827702 -28.148620 22.930646 49.623309 0.694020 1.090441 0.005137 0.012103 209389.000000 0 0 1
-32.936382 -29.245420 22.778446 49.587876 0.726110 1.093527 -0.000188 0.010828 -453350.000000 0 0 1
-33.244032 -30.209220 21.616446 49.850109 0.737607 1.122280 0.011201 0.009724 -124620.000000 0 0 1
-33.113152 -29.672420 20.334646 48.892036 0.730652 1.141854 0.000173 0.007235 523054.000000 0 0 1
-33.721902 -30.580420 19.404946 49.486167 0.736582 1.167852 0.010301 0.008847 -166169.000000 0 0 1
-34.018522 -30.181520 17.916146 48.879160 0.725703 1.195509 0.009761 0.005445 -194868.000000 0 0 1
-32.828022 -30.075520 17.163146 47.715716 0.741669 1.202854 0.005750 0.000306 194861.000000 0 0 1
-33.058042 -29.523120 15.904546 47.089312 0.728973 1.226268 0.004094 -0.003165 10405.600000 0 0 1
-33.726882 -30.392320 14.820946 47.758309 0.733439 1.255254 -0.002349 -0.006617 308161.000000 0 0 1
-32.902882 -31.523620 14.514046 47.822545 0.763993 1.262435 0.015165 -0.007112 -106579.000000 0 0 1
-33.484302 -32.475320 13.689146 48.613142 0.770102 1.285342 0.014762 -0.010293 -112809.000000 0 0 1
-33.759942 -32.043720 12.249846 48.130992 0.759323 1.313455 0.018479 -0.009097 587063.000000 0 0 1
34.652667 -31.325620 11.892646 48.203079 -0.735014 1.321503 0.016692 -0.009538 515663.000000 0 0 1
34.737173 -30.795420 10.591946 47.615317 -0.725321 1.346471 0.003839 -0.004834 24512.300000 0 0 1
33.503426 -29.978620 10.132946 46.085505 -0.729931 1.349112 0.021519 -0.004128 -20568.600000 0 0 1
33.411856 -28.723020 10.795546 45.364169 -0.710079 1.330516 0.010826 -0.004096 894509.000000 0 0 1
32.281636 -27.932220 10.343246 43.923748 -0.713291 1.333082 0.005533 -0.003855 624506.000000 0 0 1
32.473886 -27.089420 9.038746 43.244524 -0.695244 1.360229 0.006378 -0.005960 -35762.400000 0 0 1
33.221766 -25.911520 9.245946 43.134442 -0.662399 1.354768 0.000931 -0.006265 -95982.400000 0 0 1
33.393566 -25.206920 8.017546 42.600471 -0.646594 1.381464 0.004561 -0.010393 408316.000000 0 0 1
34.145248 -23.806520 7.953346 42.378108 -0.608853 1.382001 0.007108 -0.015090 162839.000000 0 0 1
33.388886 -22.749020 8.477246 41.281949 -0.598089 1.363975 -0.001212 -0.006240 -439277.000000 0 0 1
34.041615 -21.493120 8.276046 41.100836 -0.563172 1.368051 0.006175 -0.003033 57339.900000 0 0 1
33.256736 -20.265920 8.817146 39.930691 -0.547287 1.348150 0.004692 0.000969 -109676.000000 0 0 1
33.336826 -20.258120 10.228846 40.328212 -0.546047 1.314355 -0.003078 0.001669 -436757.000000 0 0 1
32.498586 -19.198020 10.610346 39.208437 -0.533578 1.296766 0.012655 0.006100 -81612.700000 0 0 1
32.408186 -19.092120 12.164846 39.532051 -0.532377 1.257999 0.013665 0.001626 -619481.000000 0 0 1
33.521726 -18.462620 12.673646 40.313717 -0.503431 1.250998 -0.004938 0.002261 -545397.000000 0 0 1
33.557848 -18.563620 14.064046 40.847699 -0.505283 1.219298 -0.003934 0.010630 914017.000000 0 0 1
-34.722410 -17.856020 14.606746 41.687411 0.474983 1.212812 -0.008071 0.006532 1052260.000000 0 0 1
-33.506842 -18.467820 14.197646 40.808602 0.503738 1.215457 -0.008223 0.004770 -85225.400000 0 0 1
-32.465202 -17.805820 14.865846 39.900250 0.501659 1.189014 -0.016476 0.001923 529267.000000 0 0 1
-31.056612 -17.886520 14.166146 38.537260 0.522535 1.194374 -0.003151 -0.000014 530194.000000 0 0 1
-30.634942 -19.187320 13.927046 38.737779 0.559549 1.203042 -0.004235 -0.009008 -560709.000000 0 0 1
-29.492232 -19.106020 13.132846 37.514042 0.574850 1.213142 0.005552 -0.012025 -457590.000000 0 0 1
-28.726672 -20.437720 12.941346 37.555299 0.618372 1.218990 0.011419 -0.014569 -83716.600000 0 0 1
-29.350902 -21.345320 12.082746 38.250371 0.628779 1.249406 0.005602 -0.011855 -379766.000000 0 0 1
-28.419652 -22.250020 11.504346 37.882581 0.664233 1.262239 0.007456 -0.014866 -182587.000000 0 0 1
-28.864732 -23.016820 10.243446 38.312856 0.673155 1.300141 0.005680 -0.009213 323947.000000 0 0 1
-29.772582 -24.077620 10.425046 39.684002 0.680034 1.304975 0.005257 -0.006827 379030.000000 0 0 1
-31.170922 -23.786120 10.474646 40.584776 0.651824 1.309749 0.002818 -0.007057 781467.000000 0 0 1
-32.059652 -25.061920 10.639046 42.060794 0.663500 1.315074 0.012430 -0.011315 176743.000000 0 0 1
-31.992632 -25.814820 9.460446 42.183332 0.678933 1.344603 0.009775 -0.008957 -296330.000000 0 0 1
-32.581932 -27.045720 9.656646 43.431602 0.692817 1.346581 0.019047 -0.003640 -49290.500000 0 0 1
-32.565972 -27.860620 8.332046 43.659817 0.707686 1.378778 0.015060 0.000239 934036.000000 0 0 1
-31.234142 -28.189220 7.884146 42.806115 0.734202 1.385556 0.010843 -0.004139 667797.000000 0 0 1
-31.268422 -28.776820 6.627446 43.008634 0.743927 1.416084 0.003124 0.001485 329838.000000 0 0 1
-29.901572 -29.114420 5.948546 42.156122 0.772061 1.429216 0.000120 0.002609 563157.000000 0 0 1
-29.348082 -28.035020 5.211546 40.919830 0.762520 1.443090 -0.001184 0.004657 -445183.000000 0 0 1
-28.148182 -28.411120 4.580146 40.255305 0.790047 1.456772 0.000698 0.002270 -346952.000000 0 0 1
-27.491172 -27.312520 3.787846 38.936950 0.782138 1.473361 -0.003252 0.006094 -231181.000000 0 0 1
-28.135752 -26.901820 2.576746 39.012409 0.762982 1.504699 -0.007616 0.010709 -167933.000000 0 0 1
-27.589152 -25.646220 2.197946 37.732226 0.748917 1.512512 -0.006602 0.001064 -312844.000000 0 0 1
-28.054502 -25.197420 0.805746 37.717559 0.731797 1.549432 0.000165 0.003149 -381306.000000 0 0 1
-27.425112 -25.860520 -0.296854 37.696039 0.756044 1.578671 -0.001240 0.001280 -34083.300000 0 0 1
-27.715742 -25.333820 -1.611554 37.584064 0.740528 1.613688 0.001121 -0.003005 -288294.000000 0 0 1
-29.162372 -25.220320 -2.092954 38.612031 0.713037 1.625028 0.001466 -0.004078 -42271.400000 0 0 1
-29.881592 -24.024820 -1.736254 38.381194 0.677176 1.616049 -0.005593 0.002157 261590.000000 0 0 1
-31.151702 -23.988420 -2.360554 39.388387 0.656211 1.630762 -0.004185 0.004371 78828.600000 0 0 1
-31.916802 -22.679520 -2.105554 39.210665 0.617793 1.624521 -0.004269 0.001927 -67810.700000 0 0 1
-32.105592 -22.347620 -0.696354 39.123779 0.608081 1.588596 0.000453 0.000947 193651.000000 0 0 1
-32.860062 -21.178520 -0.445954 39.096192 0.572504 1.582203 0.000182 0.000067 -140444.000000 0 0 1
-32.839552 -20.757820 1.019346 38.863380 0.563687 1.544564 0.001519 -0.000761 -276903.000000 0 0 1
-33.543222 -21.671620 1.812246 39.976131 0.573615 1.525448 0.005344 -0.002030 132605.000000 0 0 1
-33.644522 -21.198220 3.149946 39.890356 0.562233 1.491749 0.005343 -0.001023 -864780.000000 0 0 1
-34.287937 -22.054820 4.239746 40.988451 0.571597 1.467173 0.006940 -0.000696 58322.400000 0 0 1
33.944799 -22.357020 4.014246 40.843603 -0.582417 1.472354 0.003816 0.006898 211594.000000 0 0 1
33.062366 -21.370820 4.538446 39.628645 -0.573826 1.456020 0.008569 0.005893 -574326.000000 0 0 1
31.912536 -20.968820 3.622346 38.356522 -0.581330 1.476217 0.009282 0.007996 151723.000000 0 0 1
30.869436 -21.971820 3.575646 38.058747 -0.618579 1.476707 -0.001665 0.001960 378026.000000 0 0 1
29.674546 -21.320420 3.129246 36.673303 -0.623018 1.485365 -0.008934 0.007722 733126.000000 0 0 1
28.436706 -22.278620 3.265946 36.271884 -0.664565 1.480634 -0.008297 0.013037 200792.000000 0 0 1
28.387376 -23.394020 2.367246 36.860916 -0.689264 1.506531 -0.017025 0.007912 -215565.000000 0 0 1
27.404456 -24.324820 2.760746 36.746738 -0.725935 1.495596 -0.013196 0.006309 23198.300000 0 0 1
27.097346 -25.298320 1.592746 37.105363 -0.751076 1.527858 -0.017044 0.006435 -70736.800000 0 0 1
26.578746 -24.663520 0.436246 36.261678 -0.748040 1.558766 -0.017725 0.003674 -97529.500000 0 0 1
26.055266 -25.617720 -0.418754 36.542028 -0.776931 1.582256 -0.014298 -0.001131 -450330.000000 0 0 1
25.231186 -25.146620 -1.589354 35.657976 -0.783720 1.615383 -0.007142 -0.007862 -162616.000000 0 0 1
26.018586 -24.603520 -2.661154 35.907962 -0.757452 1.644975 -0.015731 -0.013609 217388.000000 0 0 1
26.525946 -25.489920 -3.634954 36.967211 -0.765483 1.669285 -0.010630 -0.015724 -347683.000000 0 0 1
25.506456 -26.118620 -4.640454 36.800753 -0.797255 1.697230 -0.010455 -0.015093 334625.000000 0 0 1
24.964326 -25.188920 -5.605554 35.904338 -0.789876 1.727562 0.000316 -0.022712 1083360.000000 0 0 1
23.847206 -24.416020 -5.110754 34.510159 -0.797183 1.719437 0.001361 -0.022009 86651.400000 0 0 1
23.337806 -23.321920 -6.059354 33.545207 -0.785058 1.752426 -0.000179 -0.022276 -151218.000000 0 0 1
22.807606 -23.865620 -7.229254 33.793739 -0.808063 1.786385 0.006940 -0.010663 652535.000000 0 0 1
21.659506 -23.282520 -7.864254 32.757540 -0.821496 1.813239 0.000131 -0.010264 577884.000000 0 0 1
21.918106 -21.856420 -8.558354 32.114668 -0.783989 1.840550 -0.011419 -0.007341 -243144.000000 0 0 1
22.728706 -22.014920 -9.712754 33.099673 -0.769447 1.868619 -0.002452 -0.009259 152802.000000 0 0 1
22.568506 -20.864520 -10.481554 32.473506 -0.746186 1.899454 -0.019334 -0.010784 -479104.000000 0 0 1
23.336506 -20.716720 -11.778854 33.354406 -0.725999 1.931724 -0.026261 -0.007691 336238.000000 0 0 1
24.755076 -20.631520 -11.653954 34.267886 -0.694793 1.917802 -0.020773 -0.015979 471038.000000 0 0 1
25.348616 -20.401120 -12.909154 35.005775 -0.677674 1.948484 -0.018989 -0.017716 242255.000000 0 0 1
26.879146 -20.650220 -13.026454 36.312650 -0.655087 1.937704 -0.021373 -0.009783 148942.000000 0 0 1
27.210556 -22.037720 -13.320754 37.463555 -0.680746 1.934316 -0.018563 -0.006727 271409.000000 0 0 1
27.304666 -22.911720 -12.214354 37.678669 -0.698140 1.900932 -0.013104 -0.007911 -442295.000000 0 0 1
27.620426 -24.350920 -12.644054 38.932343 -0.722571 1.901565 -0.011141 -0.007400 -879963.000000 0 0 1
28.854246 -24.475220 -13.267054 40.095120 -0.703469 1.908042 -0.025769 -0.006432 -459677.000000 0 0 1
29.132406 -25.769620 -13.756354 41.255395 -0.724224 1.910750 -0.007676 -0.001867 2455.620000 0 0 1
-3.249182 -9.087511 -27.978164 29.595907 1.227417 2.809429 -0.011054 0.007849 84775.700000 0 0 1
-3.305282 -7.862511 -27.273324 28.575832 1.172841 2.838504 -0.001121 0.013658 792900.000000 0 0 1
-4.280282 -6.947711 -27.870854 29.040937 1.018644 2.856762 0.003059 0.005605 711610.000000 0 0 1
-4.345582 -5.547011 -27.231924 28.128830 0.906254 2.888387 0.002131 0.003615 -47144.200000 0 0 1
-5.115982 -5.529611 -26.044394 27.111996 0.824233 2.860030 0.005641 0.009025 251161.000000 0 0 1
-4.988182 -4.301711 -25.315994 26.158865 0.711638 2.887051 0.007326 0.006833 71704.700000 0 0 1
-5.655582 -4.349411 -23.925154 24.966297 0.655581 2.851782 -0.002799 0.012387 -348206.000000 0 1 0
-4.981782 -5.138211 -23.000654 24.088367 0.800854 2.839934 -0.001571 0.006293 330360.000000 0 1 0
-5.516382 -5.077011 -21.636754 22.898813 0.743946 2.808041 -0.002257 0.003524 -109969.000000 0 1 0
-4.857282 -6.166811 -20.754154 22.189134 0.903632 2.779986 -0.004216 0.002855 -112137.000000 0 1 0
-5.368382 -7.498411 -20.933054 22.874406 0.949455 2.726626 -0.006572 0.007480 667327.000000 0 1 0
-4.421182 -8.395711 -20.359854 22.462379 1.086096 2.705474 -0.002555 0.005398 -139791.000000 0 1 0
-4.999382 -9.868511 -20.111254 22.953080 1.101883 2.638695 -0.001164 0.005766 289254.000000 0 1 0
-6.084882 -9.995711 -19.215954 22.498731 1.023968 2.594596 0.000352 0.002361 246904.000000 0 1 0
-7.350882 -9.562111 -19.703954 23.102278 0.915402 2.592313 -0.003690 0.006896 -419555.000000 0 1 0
-8.372682 -9.565911 -18.559554 22.495900 0.851818 2.541033 -0.007564 0.007004 -637729.000000 0 1 0
-8.972782 -10.837911 -18.483154 23.229251 0.879269 2.490933 0.008625 0.003923 -91064.000000 0 1 0
-9.782982 -10.969811 -17.321754 22.717541 0.842525 2.437940 0.005946 -0.000306 -347365.000000 0 1 0
-10.512582 -12.315611 -17.410554 23.776376 0.864217 2.392435 0.006868 0.000123 121965.000000 0 1 0
-11.688282 -12.343111 -18.237054 24.931074 0.812640 2.391314 0.007991 -0.003292 439437.000000 0 1 0
-11.587682 -11.993211 -19.628654 25.756466 0.802594 2.437326 0.005490 -0.001289 -1151190.000000 0 0 1
-12.967582 -11.789311 -20.304654 26.822099 0.737840 2.429524 -0.005274 0.007449 76896.800000 0 0 1
-13.802182 -12.881011 -20.519854 27.883419 0.750889 2.397815 -0.006310 0.007689 -115180.000000 0 0 1
-14.324582 -13.510411 -19.356554 27.611610 0.756157 2.347636 0.001315 0.007549 -1266520.000000 0 0 1
-15.307182 -14.607911 -19.733254 28.932718 0.762027 2.321344 -0.003190 0.011786 -206354.000000 0 0 1
-14.796882 -15.839011 -20.242154 29.657491 0.819402 2.322016 0.004383 0.012472 206941.000000 0 0 1
-15.884782 -16.536711 -20.828954 30.977967 0.805503 2.308215 -0.005294 -0.000367 269441.000000 0 0 1
-15.373882 -17.829611 -21.479754 31.868968 0.859224 2.310409 0.014017 -0.009614 -37805.000000 0 0 1
-15.361482 -18.886611 -20.527654 31.844368 0.887966 2.271328 0.012228 -0.000354 171623.000000 0 0 1
-14.851482 -20.074511 -21.132554 32.712954 0.933844 2.273128 0.016999 -0.005287 -170766.000000 0 0 1
-15.326982 -21.351011 -20.398754 33.269975 0.948186 2.230810 0.016851 -0.008823 -11556.800000 0 0 1
-14.938482 -22.505911 -21.081554 34.265233 0.984810 2.233495 0.018027 -0.010808 304419.000000 0 0 1
-15.728782 -23.609311 -20.602054 35.060502 0.983109 2.198904 0.025757 -0.001411 209173.000000 0 0 1
-15.199082 -25.035811 -21.001954 36.040061 1.025177 2.192892 0.020548 0.001810 -309882.000000 0 0 1
-15.185182 -25.336141 -22.393454 37.067190 1.030856 2.219472 0.003417 -0.006114 213114.000000 0 0 1
-14.945282 -26.738741 -22.560354 38.043282 1.061117 2.205598 0.001771 0.002208 -318438.000000 0 0 1
-15.172682 -27.311601 -23.995854 39.394604 1.063710 2.225741 -0.002178 0.002199 21081.100000 0 0 1
-16.491982 -27.699841 -24.335254 40.391475 1.033779 2.217407 0.002127 -0.002773 48503.000000 0 0 1
-16.754282 -29.121251 -24.349354 41.492701 1.048715 2.197940 0.005702 0.011896 -166138.000000 0 0 1
-17.762582 -29.618951 -25.394164 42.867880 1.030595 2.204809 0.015244 0.011710 -835453.000000 0 0 1
-17.280482 -29.627611 -26.727634 43.483064 1.042780 2.232761 0.001326 0.006246 175226.000000 0 0 1
-17.463582 -28.282591 -27.277484 42.999335 1.017632 2.257989 0.008446 -0.007353 -107836.000000 0 0 1
-16.390782 -27.969271 -28.329164 43.052054 1.040714 2.288984 0.000494 -0.002954 -458000.000000 0 0 1
-16.531282 -28.503331 -29.582304 44.281326 1.045230 2.302386 -0.001579 0.001070 531122.000000 0 0 1
-15.308782 -28.300211 -30.297114 44.194749 1.074934 2.326137 -0.002197 0.004754 304768.000000 0 0 1
-15.533082 -28.680541 -31.790444 45.546486 1.074433 2.343366 0.001712 -0.000190 54263.900000 0 0 1
-15.622782 -30.058971 -31.994614 46.596871 1.091484 2.327634 0.005438 0.000132 78867.700000 0 0 1
-16.456582 -30.337441 -33.089404 47.813053 1.073767 2.335132 0.006427 0.001915 -235420.000000 0 0 1
-16.310682 -31.747181 -33.727304 49.106546 1.096195 2.327900 -0.000055 0.001766 -168228.000000 0 0 1
-15.185382 -31.937481 -34.572911 49.455886 1.126963 2.344886 0.024830 -0.001631 -11910.000000 0 0 1
-15.146082 -33.148121 34.049515 49.875557 1.142202 0.819359 0.007702 0.003470 -1403810.000000 0 0 1
-13.854282 -33.359371 33.332069 49.150947 1.177167 0.825544 0.005049 0.003313 -1009020.000000 0 0 1
-12.915682 -34.002881 34.158447 49.897999 1.207788 0.816789 0.009724 0.006027 -24541.900000 0 0 1
-11.907782 -34.691615 33.428443 49.626246 1.240150 0.831722 0.011259 0.007967 179758.000000 0 0 1
-11.015382 33.834300 34.263483 49.397214 -1.256050 0.804277 0.018986 0.007468 686372.000000 0 0 1
-10.002982 34.559019 -34.375554 49.760066 -1.289050 2.333427 0.022853 0.002428 107147.000000 0 0 1
-9.239882 33.756746 -33.542654 48.476829 -1.303621 2.334958 0.017995 0.005185 133707.000000 0 0 1
-8.311982 34.546760 -32.568004 48.200027 -1.334683 2.312689 0.025422 0.001532 406982.000000 0 0 1
-9.137582 -34.229432 -31.658524 47.512226 1.309928 2.300064 0.028574 0.001886 -29989.400000 0 0 1
-8.406582 -33.417521 -30.812014 46.225334 1.324348 2.300382 0.020310 0.000845 -619172.000000 0 0 1
-9.295482 -32.577581 -29.865974 45.162830 1.292849 2.293341 0.032626 0.001563 175714.000000 0 0 1
-9.517682 -33.030521 -28.553024 44.686427 1.290248 2.263947 0.026612 0.010484 -168229.000000 0 0 1
-10.084582 -34.309652 -28.403634 45.668561 1.284919 2.242029 0.023541 0.005757 -537779.000000 0 0 1
-10.293382 -34.637396 -26.912134 45.055143 1.281933 2.210946 0.006549 0.011188 435113.000000 0 0 1
-9.191082 -34.453891 -26.018754 44.142068 1.310102 2.201152 0.019372 0.001844 12569.400000 0 0 1
-9.601882 34.588709 -24.743254 43.598206 -1.300013 2.174298 0.008567 0.000904 -14779.100000 0 0 1
-8.476982 34.400868 -23.720554 42.637350 -1.329192 2.160762 0.022694 -0.001294 -222487.000000 0 0 1
-7.806482 33.167397 -23.704254 41.507940 -1.339637 2.178614 0.017162 -0.003380 -284060.000000 0 0 1
-7.125982 32.922217 -22.503654 40.510078 -1.357636 2.159770 0.023804 -0.005204 154494.000000 0 0 1
-6.084582 31.762437 -22.638654 39.476363 -1.381524 2.181536 0.010900 -0.009707 187759.000000 0 0 1
-4.946582 32.087997 -23.411854 40.027780 -1.417844 2.195541 0.006786 -0.007246 -160327.000000 0 0 1
-4.052282 30.997537 -23.452154 39.080325 -1.440804 2.214424 0.008577 -0.005180 -929278.000000 0 0 1
-2.667382 31.396667 -23.883154 39.538218 -1.486042 2.219373 0.002563 -0.007343 -1360590.000000 0 0 1
-2.282882 31.458727 -25.242924 40.398865 -1.498356 2.245726 0.001499 -0.003371 208757.000000 0 0 1
-2.945982 32.420177 -26.082504 41.713831 -1.480176 2.246277 -0.001945 -0.007572 -350206.000000 0 0 1
-2.063882 32.650957 -27.297744 42.608819 -1.507670 2.266153 -0.003176 -0.001429 -480020.000000 0 0 1
-1.084482 33.624459 -27.156024 43.234593 -1.538555 2.249917 -0.003260 -0.003296 -245038.000000 0 0 1
-1.631582 -34.523579 -27.175194 43.966246 1.523572 2.237110 -0.007543 0.000413 -180413.000000 0 0 1
-0.527682 -33.506211 -27.465634 43.327886 1.555049 2.257384 -0.013632 -0.000008 -729122.000000 0 0 1
0.457818 -33.372971 -26.524954 42.632593 -1.557079 2.242315 -0.006670 0.001541 -1035510.000000 0 0 1
1.524718 -32.624281 -27.022454 42.389639 -1.524095 2.262017 -0.008063 0.004452 -68375.500000 0 0 1
2.604918 -32.337451 -25.948184 41.542805 -1.490416 2.245432 -0.011816 0.009298 -426692.000000 0 0 1
2.230518 -31.447581 -24.889854 40.167529 -1.499987 2.239094 -0.011068 0.005773 67171.900000 0 0 1
3.382818 -30.861151 -24.332354 39.445121 -1.461618 2.235551 -0.011530 0.004614 -263903.000000 0 0 1
3.180518 -30.132851 -22.988954 38.034148 -1.465636 2.219846 -0.011533 -0.000464 -280861.000000 0 0 1
3.180418 -31.034051 -21.850254 38.087544 -1.468671 2.181794 -0.011597 0.002356 241815.000000 0 0 1
2.981118 -30.297011 -20.670854 36.797828 -1.472716 2.167285 -0.012035 0.005056 -702455.000000 0 0 1
2.749718 -31.112361 -19.375954 36.755511 -1.482645 2.126049 -0.009324 0.009661 -585166.000000 0 0 1
1.553218 -31.833371 -19.220354 37.218249 -1.522043 2.113465 -0.016429 0.002999 -39424.300000 0 0 1
1.674218 -33.130841 -19.803054 38.634397 -1.520306 2.108978 -0.015980 0.007127 -435518.000000 0 0 1
2.057918 -34.318137 -18.911354 39.237850 -1.510902 2.073695 -0.013483 -0.002572 -883921.000000 0 0 1
3.272418 -33.947541 -18.333954 38.720513 -1.474697 2.064050 -0.011589 0.000462 -682463.000000 0 0 1
3.729518 34.525470 -17.460154 38.868681 1.463191 2.036676 0.004883 -0.000780 226443.000000 0 0 1
4.674218 33.483324 -18.148354 38.371136 1.432094 2.063454 0.015293 -0.006385 -315398.000000 0 0 1
5.946918 34.026305 -18.445654 39.158619 1.397770 2.061277 0.020779 -0.009051 -613911.000000 0 0 1
6.665018 32.972657 -19.036054 38.652166 1.371346 2.085752 0.019700 -0.017286 -476387.000000 0 0 1
8.028918 33.504113 -19.487554 39.582242 1.335592 2.085562 0.009307 -0.011957 -271670.000000 0 0 1
8.922618 33.771053 -18.409454 39.484239 1.312490 2.055841 0.008206 -0.006093 -304853.000000 0 0 1
10.143318 34.246421 -18.914154 40.415956 1.282842 2.057808 0.006285 0.000398 17063.000000 0 0 1
11.182518 34.415199 -17.760554 40.309948 1.256628 2.027063 -0.011333 -0.006579 -277111.000000 0 0 1
11.875018 33.300747 -17.337554 39.376981 1.228255 2.026725 -0.012623 -0.009551 -92705.300000 0 0 1
12.688318 33.664724 -16.204454 39.457463 1.210359 1.993998 -0.014001 -0.012296 485351.000000 0 0 1
13.812118 32.629277 -15.910354 38.840491 1.170363 1.992848 -0.002139 -0.013017 350698.000000 0 0 1
13.332618 31.374817 -15.362254 37.391667 1.168971 1.994179 -0.001766 -0.011215 -645484.000000 0 0 1
14.383018 30.506237 -15.173554 36.982948 1.130226 1.993563 -0.009231 -0.005447 -929032.000000 0 0 1
14.048518 29.444467 -14.122354 35.549661 1.125620 1.979322 -0.009330 -0.007658 -389322.000000 0 0 1
14.116818 29.974677 -12.786054 35.514068 1.130651 1.939094 -0.004431 -0.009414 -89243.100000 0 0 1
12.906018 29.800917 -12.082154 34.650230 1.162106 1.926968 0.007367 -0.008897 148515.000000 0 0 1
12.465118 28.365807 -11.654254 33.103170 1.156757 1.930566 -0.000325 -0.008235 -441213.000000 0 0 1
11.919218 27.658567 -12.783854 32.718359 1.163904 1.972214 -0.005493 -0.007854 -41494.700000 0 0 1
11.485518 26.298387 -12.570254 31.329437 1.159025 1.983654 0.011836 -0.005974 487693.000000 0 0 1
10.377818 26.057847 -11.508554 30.317608 1.191790 1.960160 0.016659 -0.002958 -536022.000000 0 0 1
9.201918 26.798657 -11.574454 30.607374 1.240038 1.958603 0.005755 -0.007356 -348473.000000 0 0 1
8.841918 27.109617 -10.254154 30.302781 1.255521 1.916002 -0.001442 0.002595 -461124.000000 0 0 1
7.689318 28.079247 -10.142654 30.829259 1.303506 1.906035 -0.002230 -0.002739 -186314.000000 0 0 1
8.146818 29.333827 -10.609554 32.239831 1.299896 1.906128 0.000964 -0.006287 -60638.000000 0 0 1
7.071718 30.238267 -10.629654 32.823034 1.341059 1.900590 -0.010473 -0.003274 -180871.000000 0 0 1
7.355718 31.598947 -11.208054 34.325217 1.342086 1.903421 0.001310 -0.002129 -536647.000000 0 0 1
8.193318 32.302137 -10.340654 34.892516 1.322389 1.871673 0.008521 -0.000581 -520173.000000 0 0 1
8.638818 33.557809 -10.846554 36.309826 1.318836 1.874150 0.005939 -0.003255 -503031.000000 0 0 1
9.695918 33.564469 -11.922654 36.915229 1.289577 1.899666 -0.002755 -0.011546 -1128250.000000 0 0 1
10.935918 33.206647 -11.386354 36.768530 1.252654 1.885649 -0.003597 -0.001387 185493.000000 0 0 1
12.039918 33.583986 -12.249854 37.721383 1.226568 1.901539 -0.004427 -0.003376 1775390.000000 0 0 1
13.514518 33.280187 -11.811454 37.811685 1.185057 1.888489 -0.003170 -0.006065 901347.000000 0 0 1
13.908318 34.162837 -10.807554 38.436233 1.184169 1.855821 -0.003993 -0.001238 136649.000000 0 0 1
15.314218 34.376993 -10.929954 39.188861 1.151709 1.853450 -0.003976 -0.009906 380789.000000 0 0 1
15.809218 -34.106617 -9.881754 38.869548 -1.136753 1.827846 -0.006800 -0.008445 -274670.000000 0 0 1
16.080118 -34.687708 -8.598354 39.188506 -1.136717 1.792006 0.000574 0.001428 99244.900000 0 0 1
16.302818 -33.617301 -7.717954 38.150644 -1.119258 1.774504 -0.014794 0.003995 -971666.000000 0 0 1
16.652818 -34.205626 -6.298054 38.561726 -1.117728 1.734855 -0.011976 0.006472 572782.000000 0 0 1
17.675518 34.238938 -6.286154 39.041575 1.094241 1.732512 -0.016277 0.001970 208704.000000 0 0 1
18.972118 34.641624 -6.612254 40.046290 1.069745 1.736671 -0.017409 0.004952 -1196700.000000 0 0 1
19.786718 33.489201 -7.343854 39.585010 1.037140 1.757398 -0.011819 0.009274 393641.000000 0 0 1
19.950618 32.229837 -6.681454 38.489368 1.016515 1.745272 -0.010543 0.021979 -357131.000000 0 0 1
20.750118 32.346697 -5.553754 38.829376 1.000426 1.714318 -0.009852 0.017621 -692591.000000 0 0 1
21.110018 31.005037 -4.909054 37.829143 0.973033 1.700932 -0.003295 0.015835 49963.500000 0 0 1
21.799618 30.086377 -5.753154 37.596705 0.943772 1.724423 0.001796 0.017157 611664.000000 0 0 1
22.452618 28.957797 -5.046954 36.988456 0.911264 1.707670 0.002503 0.017087 225439.000000 0 0 1
23.361518 28.151257 -5.985754 37.068627 0.878113 1.732984 0.007759 0.020380 -74069.300000 0 0 1
24.557218 28.835617 -6.360454 38.405796 0.865358 1.737175 0.009391 0.015052 29387.300000 0 0 1
25.420518 28.028657 -7.087554 38.497296 0.834156 1.755958 0.003847 0.012279 313460.000000 0 0 1
26.424618 27.086127 -6.305954 38.362531 0.797760 1.735924 0.008392 0.018245 -348913.000000 0 0 1
27.279418 27.869187 -5.541454 39.389922 0.796092 1.711947 0.008891 0.014715 -163744.000000 0 0 1
28.257418 27.047167 -4.917654 39.423524 0.763518 1.695861 0.004597 0.023115 310605.000000 0 0 1
29.154718 27.728647 -3.868754 40.420821 0.760333 1.666655 -0.002215 0.019193 137254.000000 0 0 1
28.425118 28.015007 -2.700254 40.001492 0.778132 1.638352 -0.004038 0.016721 579869.000000 0 0 1
29.333418 28.329467 -1.616154 40.812009 0.767989 1.610407 -0.011328 0.019825 599337.000000 0 0 1
29.307718 29.817427 -1.136854 41.824799 0.794019 1.597981 -0.000314 0.016113 -19088.700000 0 0 1
29.726618 30.648867 -2.236854 42.755449 0.800672 1.623138 -0.005431 0.015087 38674.600000 0 0 1
29.549918 31.975877 -1.949154 43.582722 0.824808 1.615534 0.003594 0.013801 -74502.500000 0 0 1
32.003446 22.731089 19.762153 43.948443 0.617585 1.104404 0.000149 0.007008 112279.000000 0 0 1
32.185346 22.677089 21.183153 44.708755 0.613792 1.077192 0.003106 0.011265 -173936.000000 0 0 1
33.111906 23.586689 21.677753 46.072282 0.618955 1.080921 0.013932 0.016367 -437457.000000 0 0 1
32.979776 23.866289 23.150253 46.831608 0.626432 1.053733 0.008447 0.014007 189995.000000 0 0 1
31.764466 24.496289 23.544153 46.512112 0.656922 1.040030 -0.000237 0.017163 495940.000000 0 0 1
31.673316 24.637489 24.954003 47.253646 0.661096 1.014451 0.004702 0.012781 276707.000000 0 0 1
30.266706 25.205389 25.300743 46.813595 0.694409 0.999816 -0.003589 0.007176 376572.000000 0 0 1
30.234556 26.619289 25.185523 47.508162 0.721895 1.012042 -0.003664 0.004536 269949.000000 0 0 1
28.917306 27.050489 25.464203 47.078287 0.752055 0.999301 0.000266 -0.000870 96074.900000 0 0 1
28.677456 28.535289 25.871963 48.021012 0.782913 1.001828 0.003845 -0.004305 -253676.000000 0 0 1
28.536466 29.373189 24.761423 47.856475 0.799846 1.026975 -0.000592 -0.011386 162073.000000 0 0 1
28.259726 30.713889 25.113443 48.709753 0.826989 1.029120 -0.003253 -0.010514 -104939.000000 0 0 1
28.573776 31.723189 23.920953 48.939078 0.837582 1.060094 -0.007757 -0.011281 -444030.000000 0 0 1
29.921876 31.771489 23.559953 49.596547 0.815370 1.075796 -0.012284 -0.019004 -572537.000000 0 0 1
29.944946 32.417689 22.334953 49.461666 0.825028 1.102282 -0.009825 -0.008874 -1588500.000000 0 0 1
31.290916 32.823889 21.919953 50.368774 0.809303 1.120548 -0.004592 -0.016751 -1604340.000000 0 0 1
31.903076 33.808389 22.732253 51.745229 0.814385 1.115965 -0.000899 -0.000404 189139.000000 0 0 1
33.207576 34.088289 22.251353 52.534534 0.798485 1.133428 0.001160 0.007244 21639.900000 0 0 1
33.895437 -34.224320 23.007153 53.381025 -0.790226 1.125197 -0.001622 0.008749 -151703.000000 0 0 1
33.256736 -32.962220 22.862753 52.107810 -0.780951 1.116580 -0.007624 0.004270 -101278.000000 0 0 1
33.653243 -31.999920 23.817253 52.190010 -0.760221 1.096900 -0.003047 0.000343 -1195270.000000 0 0 1
32.806746 -30.710920 23.776053 50.840376 -0.752414 1.084154 -0.000694 -0.001861 1297700.000000 0 0 1
31.375776 -30.840420 23.964753 50.098705 -0.776794 1.072021 -0.005097 -0.003555 1547100.000000 0 0 1
30.654006 -31.500420 22.926053 49.573667 -0.799015 1.090024 -0.002733 -0.000010 -772671.000000 0 0 1
29.944946 -32.839320 23.327053 50.192351 -0.831466 1.087441 -0.008444 0.001002 374869.000000 0 0 1
28.812616 -32.623320 24.189353 49.795307 -0.847346 1.063546 0.004729 -0.004392 465017.000000 0 0 1
28.160076 -33.872920 24.291553 50.303520 -0.877233 1.066833 0.003796 -0.007575 -194387.000000 0 0 1
27.339176 -33.996420 25.594103 50.579099 -0.893513 1.040231 0.007657 -0.003986 -15175.100000 0 0 1
26.931366 34.160489 25.788443 50.569568 0.903182 1.035658 0.006130 -0.014316 -118417.000000 0 0 1
26.107406 33.931589 26.878533 50.551013 0.914986 1.010177 0.007497 -0.011082 -947485.000000 0 0 1
25.761366 32.469789 27.314233 49.638719 0.900096 0.988120 0.005191 -0.005499 -116075.000000 0 0 1
24.975456 31.813889 26.414843 48.307772 0.905239 0.992255 0.004920 -0.005427 135854.000000 0 0 1
23.597106 32.221189 26.316853 47.828915 0.938689 0.988158 0.006523 -0.003444 41448.500000 0 0 1
22.988906 31.794889 24.993973 46.519925 0.944776 1.003594 0.002130 -0.007113 -163938.000000 0 0 1
23.346706 32.534389 23.827853 46.597443 0.948355 1.034035 0.000326 -0.013489 1566660.000000 0 0 1
24.764136 32.503689 23.469453 47.122897 0.919731 1.049450 -0.001324 -0.017310 1204090.000000 0 0 1
25.026136 33.145589 22.130653 47.060634 0.924080 1.081213 0.008029 -0.016129 -20938.600000 0 0 1
26.372826 33.460789 21.858553 47.884723 0.903310 1.096758 -0.000145 -0.010027 120072.000000 0 0 1
26.305496 34.076189 20.557553 47.705123 0.913388 1.125274 -0.011558 -0.006921 -784085.000000 0 0 1
27.601916 34.664589 20.043253 48.633645 0.898342 1.146009 -0.008918 -0.012563 -797043.000000 0 0 1
28.463826 33.682389 19.552353 48.238856 0.869174 1.153463 -0.008515 -0.019231 -115802.000000 0 0 1
29.146916 34.158689 18.370753 48.516423 0.864401 1.182459 -0.004385 -0.003766 -43584.100000 0 0 1
30.088896 33.115289 17.776553 48.145299 0.833244 1.192619 -0.017749 -0.006679 115855.000000 0 0 1
31.243516 32.728289 18.526653 48.893098 0.808604 1.182166 -0.009185 -0.007215 612863.000000 0 0 1
32.052526 31.775289 17.879153 48.545829 0.781055 1.193623 -0.006133 -0.007463 182980.000000 0 0 1
32.996806 31.052189 18.873253 49.083880 0.755046 1.176119 0.015589 -0.012866 11528.500000 0 0 1
34.001040 31.878089 19.407053 50.486800 0.753184 1.176240 0.023545 -0.011526 -315113.000000 0 0 1
34.767424 31.196789 20.339353 50.948039 0.731321 1.160133 0.027714 -0.009945 40359.200000 0 0 1
-33.651182 32.021389 20.932353 50.950317 -0.760586 1.147423 0.040186 -0.002407 673092.000000 0 0 1
-32.529412 32.174689 20.022653 49.942766 -0.779916 1.158284 0.038402 -0.002971 2007480.000000 0 0 1
-31.277982 32.665389 20.590853 49.692283 -0.807092 1.143549 0.036147 0.001961 1305310.000000 0 0 1
-31.260382 34.075189 21.221053 50.878906 -0.828454 1.140556 0.027177 0.008748 -595708.000000 0 0 1
-31.676222 34.113889 22.594553 51.746055 -0.822433 1.118933 0.034404 0.008487 228087.000000 0 0 1
-31.623042 -34.071020 23.161553 51.935621 0.822644 1.108542 0.023704 0.010277 -223850.000000 0 0 1
-31.810222 -34.149420 24.705543 52.805653 0.820847 1.083931 0.019335 0.004752 -306381.000000 0 0 1
-33.003792 -34.697520 25.215583 54.120179 0.810411 1.086124 0.019153 0.002711 -264741.000000 0 0 1
-32.959252 34.702089 26.606133 54.757954 -0.811151 1.063420 0.021443 0.009838 -48539.600000 0 0 1
-34.299462 34.302489 27.232753 55.630357 -0.785442 1.059245 0.000504 0.004865 -143678.000000 0 0 1
-34.255274 33.489689 28.361893 55.672076 -0.774098 1.036256 0.015911 -0.000963 246277.000000 0 0 1
34.056566 33.390689 28.987973 55.812994 0.775526 1.024675 0.011511 -0.004073 462684.000000 0 0 1
34.085852 32.265989 30.041233 55.726250 0.757978 1.001445 0.014733 -0.000317 -94262.400000 0 0 1
34.058384 30.903589 29.584923 54.683388 0.736873 0.999144 0.014442 -0.000397 624699.000000 0 0 1
-34.337637 30.430889 28.971943 54.263116 -0.725153 1.007571 0.024125 -0.000501 200559.000000 0 0 1
-34.555088 28.939289 28.532373 53.344473 -0.697182 1.006442 0.029833 -0.005560 -548432.000000 0 0 1
34.001210 28.848389 27.584923 52.433193 0.703595 1.016792 0.020211 -0.007484 392477.000000 0 0 1
33.509956 27.510289 27.273873 51.221063 0.687391 1.009276 0.024149 0.000518 406462.000000 0 0 1
32.966116 26.610089 28.472293 51.044423 0.679113 0.979070 0.019499 -0.005844 -40366.000000 0 0 1
34.019216 26.201189 29.347603 52.010491 0.656297 0.971256 0.010834 -0.005877 456394.000000 0 0 1
33.698273 24.929889 29.979783 51.535040 0.636939 0.949935 0.018333 -0.007889 111460.000000 0 0 1
34.181975 23.667589 29.199103 50.805017 0.605607 0.958524 0.008769 -0.001441 191875.000000 0 0 1
33.487386 23.471289 27.928773 49.520932 0.611329 0.971600 0.002625 0.001450 238699.000000 0 0 1
33.896559 22.451389 26.999283 48.805766 0.585008 0.984597 0.002214 0.003375 -422522.000000 0 0 1
33.892074 21.004089 27.503823 48.438669 0.554804 0.966957 0.003874 -0.001924 422098.000000 0 0 1
32.620876 20.334289 27.524323 47.277830 0.557413 0.949386 -0.001295 0.004192 625964.000000 0 0 1
32.544496 19.120889 28.353193 47.208645 0.531200 0.926553 -0.000439 -0.004605 -437542.000000 0 0 1
32.473116 19.271589 29.905633 48.168914 0.535599 0.900971 0.005424 -0.028120 266160.000000 0 0 1
31.301996 19.890589 30.434893 47.976381 0.566073 0.883600 0.006668 -0.024683 490785.000000 0 0 1
31.125596 21.291289 30.096763 48.248698 0.599937 0.897222 0.009016 -0.011946 -1492620.000000 0 0 1
29.940906 22.068789 30.651303 48.197424 0.635180 0.881553 0.016071 -0.006831 -408476.000000 0 0 1
28.688846 21.690389 30.081273 46.887160 0.647366 0.874256 0.014796 -0.009090 372751.000000 0 0 1
28.400516 22.175089 28.768263 46.107882 0.662923 0.897030 0.007794 0.000678 -561834.000000 0 0 1
28.138046 23.678989 28.681443 46.637638 0.699556 0.908430 0.006578 0.007742 -858219.000000 0 0 1
29.285116 24.463989 28.762773 47.784954 0.695941 0.924892 0.009137 0.002989 -580897.000000 0 0 1
29.056286 25.805989 29.152623 48.580780 0.726223 0.927188 0.005082 0.005946 -39619.200000 0 0 1
29.185456 25.981089 30.677463 49.678109 0.727378 0.905204 0.008768 0.001156 792716.000000 0 0 1
30.529806 25.653889 31.083663 50.560708 0.698830 0.908691 0.022560 0.000641 783354.000000 0 0 1
30.745556 25.666689 32.495483 51.575426 0.695609 0.889169 0.021827 -0.000332 274395.000000 0 0 1
30.150696 24.455889 33.267203 51.125940 0.681486 0.862302 0.019956 -0.003891 120661.000000 0 0 1
30.763566 24.489289 34.519295 52.323073 0.672327 0.850332 0.014627 -0.008620 422565.000000 0 0 1
29.942146 23.753689 -33.946724 51.118978 0.670654 2.297049 0.011526 -0.018593 -363446.000000 0 0 1
30.637126 23.184589 -32.746104 50.482333 0.647806 2.276625 0.005119 -0.011872 -516976.000000 0 0 1
30.910826 24.134089 -31.731224 50.446050 0.662902 2.251079 0.006338 -0.006613 307428.000000 0 0 1
31.671066 23.546289 -30.705024 50.002826 0.639305 2.231998 0.012322 -0.004073 -424786.000000 0 0 1
32.154516 24.460489 -29.574464 50.068726 0.650325 2.202694 0.018399 0.007920 14742.000000 0 0 1
32.832106 23.622189 -28.648714 49.565147 0.623683 2.187073 0.006363 0.007704 228377.000000 0 0 1
33.540824 24.338689 -27.634914 49.810110 0.627730 2.158925 0.011448 0.010459 228175.000000 0 0 1
34.003862 23.382889 -26.477114 49.031211 0.602392 2.141240 0.004630 0.009937 288692.000000 0 0 1
-34.530891 22.485289 -26.811414 49.161189 -0.577193 2.147636 -0.001307 0.011480 491370.000000 0 0 1
34.758240 21.144389 -26.477814 48.541683 0.546520 2.147741 -0.007591 0.018471 361647.000000 0 0 1
-33.766262 20.056789 -26.928534 47.619126 -0.535988 2.171834 0.005191 0.025195 366665.000000 0 0 1
-32.595032 20.105489 -26.180504 46.390576 -0.552700 2.170442 0.001840 0.024985 -346781.000000 0 0 1
-31.631552 19.095289 -26.407194 45.415031 -0.543120 2.191323 -0.000801 0.005571 227003.000000 0 0 1
-30.255822 19.414789 -25.815234 44.258051 -0.570510 2.193568 0.011233 0.003178 -149658.000000 0 0 1
-30.420562 19.565589 -24.430254 43.646995 -0.571559 2.164849 0.012022 -0.006235 363381.000000 0 0 1
-29.186132 19.861289 -23.807254 42.580352 -0.597521 2.164113 0.020510 -0.004884 273500.000000 0 0 1
-29.504572 20.204589 -22.321354 42.154335 -0.600448 2.128825 0.016593 -0.005735 288988.000000 0 0 1
-30.202222 19.132489 -21.685754 41.815048 -0.564674 2.116022 0.001719 -0.007842 153669.000000 0 0 1
-30.691462 19.612789 -20.469254 41.780589 -0.568625 2.082797 -0.000103 -0.004678 -586269.000000 0 0 1
-31.401132 18.528889 -19.542254 41.367263 -0.533087 2.062818 -0.010207 -0.005014 651447.000000 0 0 1
-32.265282 18.952989 -18.481154 41.735084 -0.531112 2.029538 -0.024606 -0.007074 510717.000000 0 0 1
-33.316292 19.801389 -18.860754 43.102185 -0.536251 2.023704 -0.023538 -0.002332 -1312080.000000 0 0 1
-34.255294 20.120089 -17.680554 43.483849 -0.531071 1.989526 -0.019519 -0.007665 -662497.000000 0 0 1
-33.821192 20.805889 -16.563854 43.024636 -0.551502 1.965988 -0.008143 -0.015937 -448759.000000 0 0 1
34.798267 20.727589 -15.566054 43.391869 0.537215 1.937705 -0.003222 -0.012570 -913523.000000 0 0 1
-34.511953 21.528489 -14.288454 43.112766 -0.557735 1.908605 0.009053 -0.016363 -353095.000000 0 0 1
-34.616777 22.949089 -14.427954 43.967576 -0.585423 1.905141 0.008286 -0.011099 43377.500000 0 0 1
33.692246 23.470689 -14.668454 43.602800 0.608454 1.913899 -0.000529 -0.005488 -264465.000000 0 0 1
33.532819 24.949489 -14.948854 44.389133 0.639671 1.914279 -0.003283 -0.004137 -218627.000000 0 0 1
33.602022 25.732689 -13.776854 44.509199 0.653542 1.885493 0.006696 -0.003346 -24007.000000 0 0 1
33.543456 27.143989 -13.989554 45.361516 0.680337 1.884308 -0.003543 -0.000907 156833.000000 0 0 1
34.733769 27.935989 -14.629554 46.913516 0.677351 1.887926 0.013144 0.007906 381332.000000 0 0 1
-34.546255 27.409189 -15.949354 46.894448 -0.670707 1.917832 0.014973 0.002174 60238.100000 0 0 1
-33.329862 27.969289 -16.407654 46.501311 -0.698171 1.931404 0.012516 -0.001229 -355066.000000 0 0 1
-33.190992 27.892989 -17.963754 46.929279 -0.698882 1.963604 0.012516 -0.001558 -413341.000000 0 0 1
-33.043932 26.601289 -18.490754 46.275673 -0.677799 1.981853 0.008733 -0.005706 695867.000000 0 0 1
-31.710492 26.132789 -18.248954 44.961119 -0.689268 1.988741 0.010502 -0.001709 430265.000000 0 0 1
-31.310342 24.874789 -19.081754 44.308080 -0.671353 2.016021 0.007017 0.001328 -232655.000000 0 0 1
-31.191562 25.101989 -20.469654 44.966989 -0.677642 2.043410 0.000169 0.001777 218989.000000 0 0 1
-30.573562 23.983489 -21.055154 44.195813 -0.665188 2.067359 0.008163 0.001906 -256977.000000 0 0 1
-30.427512 24.109889 -22.584754 44.913153 -0.670072 2.097694 0.003260 0.009213 14391.500000 0 0 1
-31.641632 23.961689 -23.293354 46.021036 -0.648146 2.101506 0.003888 0.010240 325697.000000 0 0 1
-31.394602 23.804989 -24.720054 46.512144 -0.648761 2.131138 0.009363 0.012295 514596.000000 0 0 1
-32.273802 24.878889 -25.509994 48.076160 -0.656724 2.130124 -0.000894 0.008624 288158.000000 0 0 1
-31.659622 26.106489 -25.507254 48.316668 -0.689561 2.126944 -0.003861 0.008080 -214200.000000 0 0 1
-32.340602 26.934489 -26.405174 49.685153 -0.694446 2.131108 0.008212 0.006651 -373588.000000 0 0 1
-31.860682 28.396789 -26.408914 50.188757 -0.727976 2.124912 0.002291 0.003506 -268108.000000 0 0 1
-30.577962 28.474189 -26.966964 49.729350 -0.749788 2.143938 -0.016172 -0.001593 -819743.000000 0 0 1
-30.129662 29.784589 -27.133874 50.310688 -0.779639 2.140433 -0.015187 -0.000890 1132820.000000 0 0 1
-28.686262 29.785489 -27.805654 49.832031 -0.804195 2.162755 -0.009130 0.001161 720309.000000 0 0 1
-27.725322 29.109089 -26.983314 48.416234 -0.809741 2.161950 -0.021574 0.000491 706448.000000 0 0 1
-26.420852 29.291089 -27.584914 48.134777 -0.836872 2.181051 -0.004956 0.005605 925528.000000 0 0 1
-25.676352 30.557189 -27.156744 48.275310 -0.871977 2.168250 -0.006032 0.001036 -948797.000000 0 0 1
-25.152762 30.747789 -25.827044 47.382741 -0.885155 2.147272 0.002906 -0.004292 -368004.000000 0 0 1
-26.103422 30.685489 -24.819454 47.318000 -0.865910 2.122953 -0.009892 -0.007559 -790034.000000 0 0 1
-25.676072 31.293389 -23.489354 46.800498 -0.883683 2.096595 -0.004005 -0.004538 14789.600000 0 0 1
-25.361882 32.676889 -23.516354 47.581751 -0.910774 2.087746 0.014447 -0.003717 462002.000000 0 0 1
-23.985582 32.974289 -23.796754 47.211199 -0.941915 2.099077 0.017592 0.008472 540743.000000 0 0 1
-23.801282 34.467289 -24.035654 48.292936 -0.966443 2.091748 0.012914 0.016871 -81890.400000 0 0 1
-24.077182 -34.195920 -22.934554 47.697646 0.957327 2.072400 0.006383 0.007499 104364.000000 0 0 1
-23.922382 -32.878420 -23.322654 46.874482 0.941785 2.091575 0.012021 0.011455 -33621.000000 0 0 1
16.082418 7.853189 -25.170164 30.884525 0.454251 2.523485 0.006935 -0.005397 -929740.000000 0 0 1
14.705418 7.697089 -25.079614 30.074599 0.482206 2.556957 -0.005370 -0.003829 -802015.000000 0 0 1
14.422718 6.350289 -25.462894 29.944948 0.414756 2.587396 0.000602 -0.006641 743167.000000 0 0 1
12.867918 6.188389 -25.351984 29.096436 0.448264 2.628660 -0.005104 -0.008112 640635.000000 0 0 1
12.351218 6.164989 -24.020954 27.704980 0.462959 2.620000 -0.001286 -0.026153 -887900.000000 0 0 1
11.088118 5.615589 -24.100654 27.116835 0.468795 2.665453 0.008000 -0.015381 -1172660.000000 0 0 1
10.391718 5.862289 -22.770854 25.707315 0.513627 2.658954 0.016133 -0.022377 -208470.000000 0 0 1
11.048618 5.118889 -21.723954 24.903919 0.433864 2.630705 0.016518 -0.024272 163715.000000 0 1 0
10.591918 5.409989 -20.398154 23.612314 0.472223 2.613714 0.024370 -0.019500 -141164.000000 0 1 0
11.004218 6.797089 -19.823554 23.669950 0.553318 2.563486 0.019130 -0.021502 -103993.000000 0 1 0
10.725918 6.943789 -18.431454 22.427216 0.574534 2.535419 0.016773 -0.013292 -434363.000000 0 1 0
10.966218 8.286789 -17.988954 22.639154 0.647117 2.489136 0.011660 -0.006483 1186790.000000 0 1 0
12.486418 8.556189 -17.642054 23.245668 0.600751 2.432479 0.007281 -0.003930 930611.000000 0 1 0
13.056418 7.959089 -16.524354 22.513805 0.547443 2.394938 0.021445 -0.009999 653007.000000 0 1 0
14.441618 8.307589 -16.424654 23.395419 0.522025 2.349062 0.010901 0.001523 410316.000000 0 1 0
15.151118 7.760989 -15.166054 22.799090 0.473391 2.298564 0.029055 -0.001497 -309768.000000 0 1 0
16.510518 8.128989 -15.169154 23.849128 0.457511 2.260160 0.022689 0.007021 463670.000000 0 1 0
17.124218 8.407289 -13.903954 23.605959 0.456389 2.200620 0.037508 0.008144 80210.100000 0 1 0
17.190418 9.936989 -13.686054 24.115603 0.524126 2.174285 0.018798 0.005588 -725571.000000 0 1 0
15.966118 10.498589 -13.321254 23.293628 0.581667 2.179597 0.023516 -0.001166 60306.800000 0 1 0
16.019218 11.895989 -13.504754 24.093739 0.638753 2.165796 0.006812 0.004025 931092.000000 0 1 0
14.688118 12.603389 -12.993554 23.311342 0.709159 2.162037 0.005284 -0.010508 695207.000000 0 1 0
14.622318 12.761589 -11.576554 22.598384 0.717553 2.108626 0.046108 -0.008603 -178819.000000 0 1 0
15.321418 13.802389 -10.935754 23.341862 0.733288 2.058393 0.055576 0.002040 -726813.000000 0 1 0
14.750418 15.249889 -11.120754 23.954230 0.802045 2.053584 0.038390 0.001452 39922.700000 0 1 0
13.613118 15.528389 -10.331554 23.090882 0.851027 2.034686 0.054750 -0.006069 -80997.300000 0 1 0
13.148718 16.805489 -10.688954 23.865602 0.906876 2.035190 0.032482 -0.001861 -368903.000000 0 1 0
11.954218 17.351189 -9.930554 23.293411 0.967520 2.011222 0.024041 0.004866 -82865.900000 0 1 0
12.338718 17.537289 -8.569354 23.091866 0.957678 1.950988 0.032297 0.018509 653226.000000 0 1 0
11.157618 17.640289 -7.773154 22.273171 1.006816 1.927291 0.030777 0.012445 479206.000000 0 1 0
11.322418 17.269189 -6.262754 21.578789 0.990465 1.865261 0.022026 0.006684 216010.000000 0 1 0
12.121318 18.159889 -5.503554 22.516594 0.982233 1.817720 0.001750 0.006123 84598.700000 0 1 0
12.947018 17.535089 -4.565454 22.269890 0.934794 1.777266 0.008926 0.000281 -444746.000000 0 1 0
13.944118 18.408089 -3.820754 23.407143 0.922513 1.734760 -0.005195 -0.003816 -68725.700000 0 1 0
15.136418 18.602089 -4.565854 24.413027 0.887761 1.758929 -0.010402 -0.002814 310000.000000 0 1 0
15.785518 19.860789 -4.356954 25.741340 0.899229 1.740874 -0.011388 -0.000551 1034680.000000 0 0 1
17.231418 19.999289 -5.008054 26.869573 0.859605 1.758277 -0.014460 0.000921 524481.000000 0 0 1
18.176618 19.221089 -4.383154 26.815140 0.813320 1.734991 -0.017272 -0.013058 -554061.000000 0 0 1
18.376818 17.984889 -5.053754 26.205040 0.774620 1.764867 -0.018889 -0.005721 -722580.000000 0 0 1
19.616618 17.328589 -4.468554 26.552960 0.723547 1.739889 -0.000677 -0.011895 -922477.000000 0 0 1
20.853018 17.828389 -4.890854 27.867907 0.707364 1.747211 0.001862 -0.016262 122777.000000 0 0 1
21.836718 17.007489 -4.199954 27.995295 0.661710 1.721388 0.009610 -0.020248 -128279.000000 0 0 1
23.280618 17.347089 -4.554454 29.387952 0.640377 1.726400 0.017152 -0.019746 -512269.000000 0 0 1
23.598218 18.527789 -3.900254 30.255030 0.665611 1.700069 0.020867 -0.020841 1649460.000000 0 0 1
25.026418 18.635989 -3.586154 31.408314 0.640070 1.685224 0.014431 -0.013882 1616670.000000 0 0 1
25.353918 20.085789 -3.117554 32.495834 0.669977 1.666881 0.015967 -0.009445 -342091.000000 0 0 1
25.387818 21.052889 -4.189954 33.246371 0.692325 1.697160 0.013966 -0.006385 187749.000000 0 0 1
25.335818 22.285289 -3.563854 33.929911 0.721427 1.676026 0.010435 -0.006310 -258151.000000 0 0 1
25.336818 23.463989 -4.607454 34.838797 0.747040 1.703436 0.003337 0.003184 -464766.000000 0 0 1
26.548018 23.744889 -5.248054 36.002209 0.729720 1.717088 0.006572 0.011792 -138034.000000 0 0 1
26.866818 22.822089 -6.314654 35.812686 0.704176 1.748048 0.008674 0.009089 78893.700000 0 0 1
27.969418 23.292989 -7.282254 37.119845 0.694425 1.768259 0.003045 0.013867 -8265.950000 0 0 1
27.400518 24.295289 -8.093354 37.504024 0.725403 1.788307 -0.003052 0.017521 404234.000000 0 0 1
28.343218 25.150989 -8.754054 38.891435 0.725795 1.797831 -0.010587 0.020816 -117186.000000 0 0 1
29.281418 24.521289 -9.770054 39.422697 0.697154 1.821234 -0.011898 0.013761 -332981.000000 0 0 1
28.587218 23.922089 -10.858154 38.825184 0.696787 1.854244 -0.008341 0.006642 -188818.000000 0 0 1
29.480518 23.394889 -11.781154 39.436244 0.670809 1.874168 -0.013607 -0.000947 -257032.000000 0 0 1
28.814918 23.031089 -13.111954 39.149124 0.674300 1.912320 -0.004779 -0.000942 47647.100000 0 0 1
28.689618 24.053889 -14.080854 39.999428 0.697731 1.930532 -0.006036 0.001346 101439.000000 0 0 1
28.471418 23.583089 -15.425754 40.059176 0.691765 1.966085 -0.005536 -0.003328 -275116.000000 0 0 1
28.635818 24.661289 -16.552754 41.257519 0.710963 1.983629 0.000465 -0.007846 -122454.000000 0 0 1
29.964418 25.043489 -16.881854 42.544561 0.696177 1.978829 -0.002800 -0.005975 90163.000000 0 0 1
30.078018 25.787289 -18.140354 43.574578 0.708744 2.000175 0.002252 -0.010065 -28444.800000 0 0 1
31.584918 25.894089 -18.407154 44.798819 0.686713 1.994221 -0.007000 -0.007864 -368409.000000 0 0 1
32.306118 24.726889 -18.562354 44.717617 0.653280 1.998851 -0.013258 -0.005459 -163505.000000 0 0 1
33.681418 25.054289 -18.711754 45.959602 0.639560 1.990111 -0.004872 -0.004971 200235.000000 0 0 1
34.605118 23.809489 -18.817354 46.027153 0.602650 1.991970 -0.006532 -0.012475 -281726.000000 0 0 1
34.504618 23.000789 -19.974554 46.028119 0.587957 2.019685 -0.013754 -0.007775 -256756.000000 0 0 1
-34.231669 23.441389 -20.952554 46.479193 -0.600442 2.038451 -0.008100 0.002667 -862767.000000 0 0 1
-34.415469 22.622789 -22.187654 46.781482 -0.581520 2.064946 -0.008953 0.007741 -97813.900000 0 0 1
-34.197169 21.292789 -21.837854 45.822714 -0.556906 2.067548 -0.020336 0.004769 267129.000000 0 0 1
-34.083069 20.584889 -23.035154 46.000125 -0.543328 2.095276 -0.018406 0.006014 -56100.600000 0 0 1
-33.632569 19.123089 -22.842454 44.929054 -0.517002 2.104136 -0.014602 0.005384 152297.000000 0 0 1
-34.634969 18.242189 -22.340354 45.071609 -0.484778 2.089395 -0.028114 0.007333 195497.000000 0 0 1
-34.358269 16.953689 -22.757554 44.562590 -0.458385 2.106780 -0.021932 0.003455 -772021.000000 0 0 1
34.103718 15.970789 -22.648454 43.944080 0.437968 2.112262 -0.031447 0.003661 -993734.000000 0 0 1
33.116718 16.177689 -23.633454 43.783271 0.454410 2.140975 -0.017291 0.006910 724941.000000 0 0 1
32.008618 15.253289 -23.513854 42.545456 0.444702 2.156368 -0.013974 0.008340 455144.000000 0 0 1
32.178318 13.841489 -24.151954 42.548183 0.406224 2.174430 -0.023025 0.001217 -540128.000000 0 0 1
32.238818 13.746089 -25.536644 43.363770 0.403042 2.200485 -0.022642 0.004938 471893.000000 0 0 1
32.939018 12.549489 -25.923264 43.754819 0.364013 2.204913 -0.007926 0.005802 -237114.000000 0 0 1
32.998418 12.341489 -27.419984 44.643739 0.357896 2.232162 -0.004035 0.012242 -127636.000000 0 0 1
31.757618 12.055789 -28.035354 44.043949 0.362814 2.260789 -0.008792 0.010947 -192281.000000 0 0 1
31.064918 13.094089 -28.605654 44.212755 0.398909 2.274440 -0.008976 0.014131 -641043.000000 0 0 1
31.394518 13.346589 -30.109954 45.501171 0.401976 2.293934 -0.002433 0.009562 119052.000000 0 0 1
32.711518 13.822689 -30.335624 46.705034 0.399805 2.277743 -0.009665 0.015820 187816.000000 0 0 1
33.174018 13.740889 -31.682834 47.886631 0.392693 2.293776 -0.008699 0.006630 -71603.100000 0 0 1
34.674718 14.099489 -31.729744 49.070442 0.386202 2.273936 0.001303 0.009993 404609.000000 0 0 1
-33.993969 13.090389 -31.275504 48.011513 -0.367578 2.280247 0.006289 0.009925 533290.000000 0 0 1
-33.761169 12.899689 -29.872994 46.889383 -0.364969 2.261520 -0.002115 0.014340 -97080.500000 0 0 1
-32.565469 11.956689 -29.600784 45.603493 -0.351878 2.277184 -0.001242 0.004229 204448.000000 0 0 1
-33.002169 10.677789 -29.983434 45.849369 -0.312918 2.283597 -0.006742 -0.000823 718608.000000 0 0 1
-31.890769 9.803989 -30.161784 44.976355 -0.298254 2.305833 0.001618 0.001537 164550.000000 0 0 1
-32.290969 8.408989 -30.684074 45.331337 -0.254755 2.314318 0.010889 0.001905 -844916.000000 0 0 1
-32.649769 8.389589 -32.048694 46.513561 -0.251516 2.330930 0.004152 -0.001852 170114.000000 0 0 1
-33.005469 7.139189 -32.605784 46.941092 -0.213021 2.338675 0.003141 -0.003328 194151.000000 0 0 1
-34.328369 6.495789 -32.061144 47.418869 -0.187014 2.313289 0.013079 0.007441 -21274.000000 0 0 1
-34.140069 5.777589 -30.902954 46.410316 -0.167644 2.299447 0.020897 0.004689 227223.000000 0 0 1
34.245018 5.313489 -30.360414 46.072868 0.153933 2.290238 0.014793 0.009599 -689390.000000 0 0 1
34.468518 4.496289 -29.062194 45.309011 0.129714 2.267147 0.013227 0.008867 -418561.000000 0 0 1
-34.499069 3.277889 -29.227504 45.334063 -0.094729 2.271445 0.038825 0.010114 159250.000000 0 0 1
34.699918 2.230089 -28.341924 44.858915 0.064180 2.254671 0.035815 0.011369 -578916.000000 0 0 1
-33.878369 1.111489 -28.233634 44.114820 -0.032796 2.265299 0.045214 0.010307 68442.800000 0 0 1
-32.778669 1.461789 -27.393304 42.743082 -0.044566 2.266444 0.048018 0.003426 6289.250000 0 0 1
-31.732269 0.540589 -27.385274 41.918759 -0.017034 2.282723 0.039457 0.001885 -204549.000000 0 0 1
-30.642069 0.872489 -26.385754 40.446330 -0.028466 2.281496 0.042442 -0.000094 84110.900000 0 0 1
-31.050069 0.262089 -25.130764 39.946599 -0.008441 2.251203 0.033312 0.006528 594111.000000 0 0 1
-29.963969 0.418689 -24.247854 38.548322 -0.013972 2.251095 0.030747 0.011682 64056.900000 0 0 1
-30.351369 0.090789 -22.765354 37.940416 -0.002991 2.214334 0.030523 0.012957 -540415.000000 0 0 1
-30.592469 -1.323411 -22.579154 38.045614 0.043232 2.206167 0.035740 0.006663 237859.000000 0 0 1
-30.994569 -1.571111 -21.246054 37.610191 0.050647 2.171110 0.018298 0.006022 174321.000000 0 0 1
-32.463369 -1.250411 -20.820854 38.586809 0.038499 2.140740 0.005959 0.008287 99854.600000 0 0 1
-33.305869 -2.362611 -21.070854 39.482195 0.070818 2.133742 0.004454 -0.000514 230058.000000 0 0 1
-34.616069 -2.135611 -20.568054 40.322176 0.061616 2.106089 -0.000398 0.001475 244085.000000 0 0 1
34.173018 -3.448811 -20.367154 39.931322 -0.100581 2.106045 -0.005186 -0.005478 -254620.000000 0 0 1
33.741518 -4.253111 -21.445354 40.205500 -0.125389 2.133404 0.002629 -0.004410 -440990.000000 0 0 1
34.775718 -4.808111 -22.211654 41.543063 -0.137390 2.134909 -0.006248 -0.004079 -846616.000000 0 0 1
34.365218 -5.716411 -23.407654 41.970988 -0.164834 2.162421 -0.008338 -0.004470 -949477.000000 0 0 1
34.107318 -7.062911 -23.041654 41.762563 -0.204193 2.155233 -0.006182 0.002432 163038.000000 0 0 1
33.701818 -7.957411 -24.066754 42.170388 -0.231866 2.178158 -0.003066 0.003339 -637395.000000 0 0 1
32.267118 -7.753511 -24.517254 41.259903 -0.235821 2.207086 -0.006162 0.003308 -1198430.000000 0 0 1
31.956918 -6.518711 -25.035754 41.116021 -0.201224 2.225476 -0.004760 -0.002568 -249985.000000 0 0 1
30.602218 -6.448611 -25.430824 40.308897 -0.207685 2.253507 -0.005174 0.001880 114568.000000 0 0 1
30.191418 -5.162611 -26.194874 40.303173 -0.169358 2.278309 -0.002708 -0.007271 -139378.000000 0 0 1
30.593118 -5.136311 -27.528944 41.474852 -0.166340 2.296618 -0.001801 -0.001128 314405.000000 0 0 1
29.991318 -4.104611 -28.316394 41.450515 -0.136015 2.322846 -0.000796 -0.002499 -75051.100000 0 0 1
29.788918 -4.539711 -29.749654 42.344191 -0.151232 2.349795 0.001733 -0.003576 133588.000000 0 0 1
29.108118 -3.539111 -30.501904 42.310448 -0.120991 2.375907 -0.012259 -0.001559 282725.000000 0 0 1
28.676418 -3.915311 -31.793124 42.993829 -0.135695 2.403096 -0.005426 -0.003084 -542622.000000 0 0 1
28.358918 -2.716411 -32.740454 43.399821 -0.095495 2.425523 -0.003817 -0.001951 271304.000000 0 0 1
27.255718 -1.846311 -32.418524 42.393912 -0.067637 2.441368 -0.019622 0.001261 1270910.000000 0 0 1
25.945918 -2.451911 -32.413864 41.591599 -0.094221 2.464403 -0.013963 -0.004036 383036.000000 0 0 1
25.271818 -2.735211 -33.752234 42.253514 -0.107812 2.496099 0.001841 -0.011883 -922397.000000 0 0 1
25.863318 -3.803411 -34.438089 43.236086 -0.146012 2.492302 0.007780 -0.015757 -51229.000000 0 0 1
24.975018 -4.299911 33.973442 42.384379 -0.170497 0.640904 0.014059 -0.011494 -170436.000000 0 0 1
25.671618 -5.475911 33.187583 42.313512 -0.210156 0.669188 0.000457 -0.018213 594057.000000 0 0 1
26.853518 -5.156611 32.424383 42.415124 -0.189718 0.700603 0.003151 -0.014708 457785.000000 0 0 1
26.789318 -4.301411 31.286423 41.412679 -0.159206 0.714411 0.008165 -0.016553 -721304.000000 0 0 1
27.105718 -2.820011 31.555153 41.694126 -0.103665 0.712355 0.001873 -0.016091 -100055.000000 0 0 1
28.432518 -2.774611 32.046453 42.931128 -0.097278 0.728067 -0.001412 -0.014615 92515.200000 0 0 1
28.880118 -1.463811 32.309033 43.359862 -0.050642 0.730056 -0.002115 -0.006812 1375720.000000 0 0 1
30.304118 -1.400811 33.047973 44.860566 -0.046192 0.742646 -0.009853 -0.005147 1764390.000000 0 0 1
31.366018 -1.722211 32.172673 44.965253 -0.054852 0.773456 -0.007509 -0.002919 -439072.000000 0 0 1
32.629518 -1.826011 32.739273 46.258835 -0.055904 0.784501 0.004024 -0.000028 -55309.700000 0 0 1
33.769618 -2.439111 31.911973 46.526449 -0.072103 0.814972 0.009853 0.004338 25523.200000 0 0 1
34.146718 -1.717611 30.757573 45.988878 -0.050259 0.838197 0.003339 0.004748 -54867.400000 0 0 1
-34.299669 -2.260211 30.155783 45.726875 0.065801 0.850675 0.002720 0.003967 -289408.000000 0 0 1
-34.080969 -1.703811 28.735093 44.610772 0.049951 0.870912 0.001582 0.005307 252863.000000 0 0 1
34.494418 -1.835211 27.725143 44.293526 -0.053153 0.894459 -0.008789 -0.001412 187542.000000 0 0 1
-34.525069 -1.429511 26.493873 43.542499 0.041381 0.916678 -0.006252 0.001067 171305.000000 0 0 1
-25.255492 15.315689 12.730446 32.163247 -0.545134 1.163850 0.007096 -0.003520 20412.000000 0 0 1
-26.533272 14.772689 13.040646 33.050042 -0.508019 1.165193 -0.001837 -0.005294 359318.000000 0 0 1
-27.465702 15.707089 13.501546 34.400133 -0.519486 1.167464 0.002749 -0.002386 -449695.000000 0 0 1
-28.716062 14.993789 14.028146 35.301767 -0.481202 1.162139 0.012437 -0.003230 -245165.000000 0 0 1
-29.646572 15.855789 14.633446 36.666920 -0.491120 1.160271 0.014797 -0.010539 -358187.000000 0 0 1
-30.690852 15.168889 15.269846 37.485887 -0.459035 1.151247 0.017089 -0.009610 48111.800000 0 0 1
-31.756362 15.997289 16.036846 39.007181 -0.466644 1.147108 0.012186 -0.011715 155289.000000 0 0 1
-31.260032 16.493289 17.275646 39.340388 -0.485495 1.116163 0.005506 -0.002002 719379.000000 0 0 1
-32.323152 16.765289 18.209646 40.711820 -0.478478 1.107073 -0.002874 -0.005759 503734.000000 0 0 1
-31.772712 17.064989 19.673646 41.082495 -0.492882 1.071416 -0.003573 0.004446 261765.000000 0 0 1
-31.064822 15.890489 20.063746 40.250276 -0.472826 1.048958 -0.011905 0.008118 857845.000000 0 0 1
-29.914802 16.055589 20.940546 39.889645 -0.492583 1.018126 -0.010657 0.010530 976042.000000 0 0 1
-30.148682 16.585489 22.400346 41.058458 -0.502938 0.993725 -0.014255 0.008199 -399112.000000 0 0 1
-30.825262 17.819289 22.425546 42.078842 -0.524142 1.008724 -0.008902 0.010467 35545.400000 0 0 1
-31.125732 18.560489 23.642446 43.269714 -0.537700 0.992740 -0.012638 0.001707 -395112.000000 0 0 1
-31.849552 17.840889 24.809346 44.138361 -0.510611 0.973896 -0.033804 0.008108 -1098240.000000 0 0 1
-33.142552 17.432689 24.642146 44.828147 -0.484224 0.988788 -0.013353 0.012558 -1101990.000000 0 0 1
-34.140845 18.409789 24.838646 46.059483 -0.494537 1.001222 -0.012492 0.012881 -1159980.000000 0 0 1
34.064452 17.939689 24.510046 45.639475 0.484731 1.003877 -0.014264 0.002843 -1034210.000000 0 0 1
33.608070 17.037589 25.435546 45.461509 0.469192 0.977018 -0.010838 0.010958 320731.000000 0 0 1
32.323626 16.508089 25.080346 44.117542 0.472181 0.966128 -0.010441 0.007896 640008.000000 0 0 1
31.751276 15.598689 26.233546 44.041589 0.456645 0.932717 -0.025972 -0.000295 -239987.000000 0 0 1
31.328786 16.302289 27.389646 44.692842 0.479804 0.911144 -0.000676 -0.007924 94685.400000 0 0 1
31.444116 15.530889 28.600446 45.254021 0.458772 0.886668 -0.004224 -0.003177 375303.000000 0 0 1
30.480566 14.256589 28.690846 44.220808 0.437498 0.864778 -0.004637 0.013749 306325.000000 0 0 1
30.959856 13.154589 27.891546 43.697760 0.401779 0.878530 -0.009644 0.002481 89182.500000 0 0 1
30.022246 12.115689 27.695546 42.604793 0.383569 0.863137 -0.006623 0.009653 -324956.000000 0 0 1
30.641876 10.824289 27.180346 42.365800 0.339569 0.874262 0.004594 0.008683 -52695.100000 0 0 1
31.481966 10.213089 28.145846 43.446634 0.313699 0.866070 0.001757 0.005538 93753.700000 0 0 1
31.850966 8.902289 27.795846 43.201202 0.272543 0.871859 -0.004531 0.004581 -494598.000000 0 0 1
32.817246 8.210589 28.739946 44.388849 0.245159 0.866551 0.006903 -0.005367 65821.900000 0 0 1
34.090060 8.835889 28.751946 45.462946 0.253612 0.886115 0.010824 -0.003134 238397.000000 0 0 1
-34.482138 8.085789 29.353346 46.000182 -0.230331 0.878750 0.007323 -0.003017 64976.200000 0 0 1
-33.165092 8.830689 29.647546 45.352854 -0.260227 0.858322 0.010331 -0.004769 -259661.000000 0 0 1
-32.566092 9.156489 28.416746 44.180347 -0.274090 0.872128 -0.001910 -0.007267 -296391.000000 0 0 1
-31.231812 9.480189 28.735646 43.486060 -0.294704 0.848910 0.008156 -0.005645 -244465.000000 0 0 1
-30.475192 10.270589 27.652846 42.413467 -0.325060 0.860600 -0.000305 -0.006086 -136548.000000 0 0 1
-30.098212 9.454589 26.522246 41.215545 -0.304364 0.871733 0.000475 -0.006567 415004.000000 0 0 1
-29.287172 10.122889 25.561146 40.169435 -0.332788 0.881061 -0.006457 -0.001599 77589.500000 0 0 1
-28.904822 9.098489 24.444046 38.933053 -0.304955 0.892011 -0.002918 0.003912 -424876.000000 0 0 1
-28.102642 9.683189 23.452646 37.862240 -0.331825 0.902792 -0.012550 0.005771 -87285.300000 0 0 1
-27.355862 8.627189 22.836546 36.664416 -0.305496 0.898412 -0.000494 0.008148 -182497.000000 0 0 1
-26.189582 9.120489 22.006246 35.402717 -0.335114 0.900016 -0.015220 0.009019 -1600500.000000 0 0 1
-25.048882 9.614389 22.654746 35.115815 -0.366485 0.869585 -0.002069 0.001595 491212.000000 0 0 1
-24.076982 10.354589 21.903946 34.157011 -0.406150 0.874641 0.001980 0.005968 782807.000000 0 0 1
-23.453982 9.548189 20.706546 32.711133 -0.386615 0.885358 0.000832 0.007261 -1850410.000000 0 0 1
-24.318382 9.387889 19.653246 32.646075 -0.368415 0.924781 -0.001537 0.006098 -362062.000000 0 0 1
-23.807382 8.644489 18.562946 31.402254 -0.348298 0.938332 -0.002202 -0.001124 -222381.000000 0 0 1
-23.637382 7.103989 18.727746 30.982591 -0.291953 0.921708 0.000605 0.001470 -517795.000000 0 0 1
-22.494482 6.698889 19.459346 30.488407 -0.289439 0.878568 0.014652 -0.006319 474404.000000 0 0 1
-22.433982 5.333989 19.913146 30.467497 -0.233429 0.858483 0.017974 -0.005634 -377467.000000 0 0 1
-22.477682 4.151589 18.852846 29.629574 -0.182640 0.881124 0.019493 -0.004806 94326.900000 0 0 1
-23.829082 3.958789 18.429246 30.383124 -0.164629 0.919067 0.018461 0.000855 852588.000000 0 0 1
-23.981182 2.950189 17.471146 29.816801 -0.122406 0.944745 0.027556 -0.001143 -150276.000000 0 0 1
-23.890082 1.475589 17.966946 29.928657 -0.061687 0.926888 0.020268 0.003126 -204800.000000 0 0 1
-22.556782 1.041689 18.131846 28.959581 -0.046148 0.894244 0.017129 0.002285 350200.000000 0 0 1
-22.534282 -0.184011 18.867946 29.390936 0.008166 0.873738 0.016513 -0.000117 319953.000000 0 0 1
-21.119282 -0.863911 18.865746 28.331727 0.040883 0.842113 0.018037 0.007436 448256.000000 0 0 1
-20.228382 -0.296911 19.813546 28.316995 0.014677 0.795812 0.009202 0.008356 -62117.700000 0 0 1
-19.422382 -1.372011 20.243746 28.087730 0.070524 0.765938 0.006688 0.011248 -548000.000000 0 0 1
-18.355482 -1.001611 21.242446 28.092142 0.054513 0.713355 0.006703 0.008450 182226.000000 0 0 1
-18.964382 -0.718911 22.555746 29.477556 0.037890 0.699470 0.010671 0.002069 832211.000000 0 0 1
-17.916582 -0.615411 23.537746 29.587297 0.034335 0.650905 0.005118 -0.001852 -406189.000000 0 0 1
-18.277282 -0.873311 25.026146 31.002092 0.047745 0.631335 0.006387 0.006260 607703.000000 0 0 1
-19.179182 0.060589 25.697546 32.065691 -0.003159 0.641159 0.012020 -0.002739 747239.000000 0 0 1
-20.516082 -0.010711 25.240146 32.526523 0.000522 0.682519 -0.000132 -0.000742 -769423.000000 0 0 1
-21.413082 1.126189 25.655646 33.436515 -0.052545 0.696185 0.002282 -0.003588 -809406.000000 0 0 1
-21.011882 2.344589 25.092246 32.811844 -0.111124 0.700172 0.000112 -0.002716 357094.000000 0 0 1
-22.094182 3.146989 24.645346 33.248300 -0.141484 0.735864 -0.000398 -0.004744 -410598.000000 0 0 1
-21.591682 4.421289 23.856246 32.478747 -0.201976 0.745839 0.000674 0.001940 344831.000000 0 0 1
-20.979882 4.142189 22.546146 31.074779 -0.194929 0.758971 0.008110 -0.003386 1345450.000000 0 0 1
-19.763182 3.381389 22.559546 30.181953 -0.169455 0.726579 0.005574 0.001207 -207091.000000 0 0 1
-19.320182 2.630889 21.299546 28.876663 -0.135341 0.741281 0.011771 0.001280 -78271.300000 0 0 1
-18.742282 3.436789 20.265846 27.817066 -0.181356 0.754608 0.014045 0.000846 457530.000000 0 0 1
-18.351482 2.563989 19.214946 26.693914 -0.138817 0.767246 0.009880 -0.005139 -74503.000000 0 0 1
-17.988382 3.276089 17.876546 25.571186 -0.180148 0.796673 0.003949 -0.003046 -567316.000000 0 0 1
-16.697382 3.797289 17.926846 24.791002 -0.223615 0.762489 0.006123 -0.006553 -461339.000000 0 1 0
-16.520782 4.617589 16.785446 24.000199 -0.272547 0.796256 0.007779 -0.007325 1477040.000000 0 1 0
-15.037282 5.193989 16.573446 22.973386 -0.332578 0.764947 0.003487 -0.003799 1121860.000000 0 1 0
-14.611682 6.146489 17.498046 23.610637 -0.398185 0.736076 -0.001638 -0.004506 65736.300000 0 1 0
-15.050782 7.559989 17.474446 24.270058 -0.465485 0.766994 -0.002815 -0.005887 -728692.000000 0 1 0
-14.586882 8.401289 16.277846 23.416384 -0.522547 0.802171 -0.007705 -0.007301 144911.000000 0 1 0
-15.241982 8.117989 15.012146 22.881964 -0.489392 0.855198 -0.006943 -0.003188 -19145.800000 0 1 0
-16.635082 8.226189 15.039046 23.886587 -0.459245 0.889755 0.006396 -0.003808 -1543920.000000 0 1 0
-17.307282 7.618789 13.796246 23.407784 -0.414680 0.940496 0.006862 -0.005823 -209198.000000 0 1 0
-17.144082 6.215589 13.758346 22.843931 -0.347811 0.924447 0.014016 -0.006590 195227.000000 0 1 0
-17.636282 5.655289 12.589746 22.394696 -0.310304 0.973783 0.018330 -0.007775 -130221.000000 0 1 0
-17.213182 4.189889 12.614046 21.747711 -0.238768 0.952047 0.003020 -0.007738 -715043.000000 0 1 0
-17.878282 3.541489 13.561846 22.717807 -0.195557 0.931078 0.004282 -0.004179 -505546.000000 0 1 0
-17.517882 2.197089 13.721846 22.360511 -0.124768 0.910103 0.003709 -0.008108 -489585.000000 0 1 0
-18.387182 1.347089 14.689346 23.572865 -0.073132 0.898037 0.011524 -0.006696 -137057.000000 0 1 0
-19.657782 1.126389 14.138846 24.240547 -0.057237 0.948045 0.017755 -0.004479 -446232.000000 0 1 0
-20.581982 0.710389 15.086946 25.529171 -0.034501 0.938537 0.007726 -0.001535 -1477860.000000 0 0 1
-21.875482 0.225189 14.549446 26.273062 -0.010294 0.983902 0.009973 -0.003243 -1394750.000000 0 0 1
-21.869582 -1.001611 13.854346 25.908005 0.045767 1.006583 0.009677 -0.003568 928789.000000 0 0 1
-23.197582 -1.409511 13.496446 26.875055 0.060687 1.044664 0.020462 -0.004637 670887.000000 0 0 1
-23.078782 -2.561611 12.505246 26.373722 0.110542 1.076792 0.023224 -0.007644 -155824.000000 0 0 1
-22.558682 -3.748411 13.025446 26.317427 0.164658 1.053035 0.019580 -0.002778 234584.000000 0 0 1
-22.646782 -4.731311 12.030446 26.076688 0.205955 1.091282 0.023371 -0.000479 -413721.000000 0 0 1
-22.426982 -6.167911 12.579046 26.443242 0.268387 1.075037 0.015455 -0.002710 7024.690000 0 0 1
-23.438682 -6.744711 13.390846 27.824049 0.280190 1.068695 0.021124 -0.004061 226726.000000 0 0 1
-23.436582 -8.131911 13.501646 28.243509 0.333978 1.072370 0.025718 -0.003259 92843.300000 0 0 1
-24.224482 -8.538911 14.817546 29.652963 0.338892 1.047545 0.021128 0.001560 560683.000000 0 0 1
-25.589192 -8.184811 14.815746 30.680681 0.309571 1.066831 0.019542 -0.002982 -210185.000000 0 0 1
-26.334052 -8.667911 15.864246 31.941967 0.317983 1.051052 0.008602 0.002711 1022870.000000 0 0 1
-27.840912 -8.094211 15.899346 33.066930 0.282931 1.069203 0.001346 -0.004117 2286410.000000 0 0 1
-28.845352 -8.557911 14.949246 33.597204 0.288410 1.109672 0.001700 -0.005262 1179180.000000 0 0 1
-29.097182 -9.942611 14.906746 34.171810 0.329265 1.119392 0.005197 -0.008041 -584503.000000 0 0 1
-29.510692 -10.655311 16.253846 35.335592 0.346499 1.092818 -0.002983 -0.005402 -215717.000000 0 0 1
-28.411762 -10.802111 17.167546 34.909002 0.363321 1.056664 -0.000737 0.002825 583020.000000 0 0 1
-28.778752 -11.410411 18.391646 36.009258 0.377475 1.034742 -0.004799 0.008740 238471.000000 0 0 1
-27.563452 -11.585611 19.356946 35.618277 0.397904 0.996248 -0.003658 0.013127 89193.300000 0 0 1
-26.693432 -12.594711 18.971646 35.086884 0.440857 0.999522 0.004081 0.007790 -133265.000000 0 0 1
-25.448252 -12.446411 19.642146 34.472316 0.454879 0.964540 -0.001486 0.010624 618369.000000 0 0 1
-24.311582 -13.328911 19.020846 33.622990 0.501501 0.969503 0.011427 0.018662 235958.000000 0 0 1
-23.879682 -12.854611 17.765946 32.420812 0.493822 0.990849 0.011342 0.013154 -664435.000000 0 0 1
-22.722182 -13.486911 17.383246 31.628651 0.535669 0.988906 0.009889 0.007666 -815667.000000 0 0 1
-22.404082 -13.323311 15.881546 30.523385 0.536500 1.023585 0.012807 0.001795 -201017.000000 0 0 1
-21.841482 -12.057311 15.508146 29.375699 0.504406 1.014642 0.016240 0.001026 -45410.500000 0 0 1
-21.373282 -12.316111 14.203946 28.464993 0.522765 1.048355 0.033066 -0.000453 -385932.000000 0 0 1
-20.157382 -11.498711 13.809046 27.004262 0.518406 1.034023 0.018079 -0.004133 -1044590.000000 0 0 1
-20.438782 -10.103811 13.702746 26.600678 0.459113 1.029640 0.008289 -0.003209 720753.000000 0 0 1
-19.334582 -9.186311 13.464446 25.288449 0.443549 1.009322 -0.000352 -0.005377 341841.000000 0 0 1
-18.768082 -9.253611 12.044646 24.144227 0.458073 1.048511 -0.002282 0.002478 -291835.000000 0 1 0
-18.152082 -10.511611 11.723946 24.030043 0.524899 1.061129 -0.007703 -0.001351 113083.000000 0 1 0
-17.825282 -10.587611 10.369046 23.180925 0.535971 1.107042 -0.010993 0.002273 -588657.000000 0 1 0
-17.053182 -11.837711 9.931746 23.012649 0.606799 1.124555 -0.033209 0.003184 -289446.000000 0 1 0
-15.678682 -11.881611 10.147746 22.135277 0.648487 1.094555 -0.023391 0.003451 -146952.000000 0 1 0
-15.158382 -11.918011 11.514646 22.458909 0.666290 1.032472 -0.012191 0.002044 230301.000000 0 1 0
-13.628082 -12.221511 11.492946 21.614295 0.731038 1.010156 -0.012042 0.006905 422623.000000 0 1 0
-13.406782 -13.592211 11.201446 22.135094 0.792266 1.040198 -0.007706 0.000316 1123020.000000 0 1 0
-11.994782 -13.832711 10.977046 21.347464 0.856440 1.030712 -0.007027 -0.001966 1152950.000000 0 1 0
-11.693282 -15.334111 10.749146 22.077408 0.919301 1.062277 -0.006225 -0.007268 -190956.000000 0 1 0
-12.251582 -16.006111 9.643146 22.344734 0.917492 1.124572 -0.000438 -0.003119 107664.000000 0 1 0
-12.130382 -17.415211 9.839546 23.393427 0.962397 1.136677 -0.003567 -0.000037 69875.400000 0 1 0
-12.514082 -18.172211 8.569146 23.669849 0.967736 1.200354 -0.002572 0.007534 -308854.000000 0 1 0
-11.627682 -17.967811 7.496446 22.676903 0.996435 1.233882 -0.007365 0.000845 -355304.000000 0 1 0
-11.951782 -18.703211 6.372646 23.092549 1.002177 1.291207 -0.012133 0.004418 -352255.000000 0 1 0
-11.137182 -18.346611 5.119946 22.064651 1.025214 1.336619 -0.002716 -0.001907 -233440.000000 0 1 0
-11.435582 -19.252811 4.076946 22.761036 1.034823 1.390705 -0.005412 0.001766 114281.000000 0 1 0
-10.754582 -18.887311 2.903846 21.927697 1.053175 1.437978 0.000657 -0.008790 -8039.760000 0 1 0
-11.128382 -19.779811 1.746946 22.762549 1.058321 1.493974 0.000005 -0.000547 -18378.800000 0 1 0
-10.787282 -21.142211 1.938746 23.814224 1.099002 1.489295 -0.009478 0.001167 -323144.000000 0 1 0
-11.281382 -22.069511 1.018846 24.806672 1.098249 1.529713 -0.003579 0.004625 -46210.800000 0 1 0
-10.349482 -22.372111 -0.189854 24.650744 1.137509 1.578498 0.000191 0.006224 -70140.100000 0 1 0
-10.315282 -21.404011 -1.106054 23.785712 1.121707 1.617314 -0.001497 -0.001563 -1015040.000000 0 1 0
-11.311382 -21.386511 -2.027854 24.278435 1.084295 1.654419 0.009554 0.000893 -495735.000000 0 1 0
-12.323482 -20.193611 -1.926954 23.735275 1.022862 1.652071 0.009513 -0.005892 660364.000000 0 1 0
-13.224482 -20.164711 -0.823854 24.128432 0.990338 1.604947 0.002913 -0.004912 -255990.000000 0 1 0
-14.065882 -19.086511 -0.837754 23.724371 0.935697 1.606116 0.009061 -0.006794 -333391.000000 0 1 0
25.126118 -20.408211 -4.320354 32.657042 -0.682154 1.703480 -0.006873 0.003589 -232294.000000 0 0 1
23.922718 -20.833711 -3.756854 31.944545 -0.716489 1.688675 -0.017497 0.003127 30276.700000 0 0 1
24.324018 -21.591511 -2.612754 32.629400 -0.725957 1.650956 -0.007957 -0.007514 879200.000000 0 0 1
23.055718 -22.020911 -1.779354 31.932003 -0.762446 1.626548 -0.005141 -0.007689 1140760.000000 0 0 1
22.204318 -22.885211 -2.553754 31.988847 -0.800498 1.650714 0.000295 -0.013178 714951.000000 0 0 1
21.022918 -23.350011 -1.867354 31.474960 -0.837794 1.630159 0.006803 -0.018185 468965.000000 0 0 1
19.988918 -23.897511 -2.822854 31.282845 -0.874225 1.661156 0.004332 -0.013564 -304962.000000 0 0 1
19.336818 -22.906811 -3.595954 30.192142 -0.869707 1.690182 0.005401 -0.017626 -28687.500000 0 0 1
18.318118 -23.420611 -4.462554 30.066474 -0.907043 1.719770 0.006191 -0.013788 551044.000000 0 0 1
17.429118 -22.316911 -5.099354 28.771898 -0.907759 1.748971 0.004669 -0.006776 296214.000000 0 0 1
16.415118 -21.750811 -4.278754 27.583721 -0.924300 1.726544 0.004531 -0.001580 354197.000000 0 0 1
16.949218 -20.885111 -3.327154 27.102285 -0.889055 1.693870 0.000578 -0.000584 -344695.000000 0 0 1
15.889618 -20.444811 -2.303454 25.995695 -0.910116 1.659522 0.011494 0.006920 178488.000000 0 0 1
15.356718 -21.491711 -1.464854 26.455023 -0.950378 1.626196 0.010161 -0.005007 179856.000000 0 0 1
14.665218 -20.880611 -0.382754 25.518916 -0.958504 1.585796 0.012502 0.002597 46103.800000 0 0 1
14.278518 -21.785011 0.803946 26.059722 -0.990614 1.539941 0.008491 -0.001905 156388.000000 0 0 1
13.193118 -22.666011 0.543246 26.231690 -1.043668 1.550085 0.004885 -0.002965 562047.000000 0 0 1
12.473518 -23.043911 1.778846 26.263564 -1.074662 1.503014 0.007879 -0.000440 448370.000000 0 0 1
11.523718 -24.247011 1.721046 26.901220 -1.127133 1.506776 0.008493 0.001174 -77502.800000 0 0 1
12.052618 -25.542981 1.788146 28.300300 -1.129916 1.507570 0.011923 -0.003863 -192636.000000 0 0 1
11.109418 -26.467511 1.325546 28.735090 -1.173391 1.524650 0.017450 -0.007560 77289.600000 0 0 1
11.472418 -27.845421 1.934546 30.178243 -1.179985 1.506648 0.017052 -0.001141 222475.000000 0 0 1
10.968818 -27.967441 3.251346 30.216949 -1.197032 1.462988 0.017221 -0.006883 76412.800000 0 0 1
11.606018 -29.032551 3.950546 31.515005 -1.190498 1.445111 0.014874 -0.010135 -20123.800000 0 0 1
11.241718 -29.170021 5.428946 31.729164 -1.202951 1.398848 0.013737 -0.009371 -22215.300000 0 0 1
11.863218 -30.299781 6.027846 33.093015 -1.197615 1.387625 0.014385 -0.015108 -72129.500000 0 0 1
11.489718 -30.376091 7.376446 33.303641 -1.209180 1.347453 0.009180 -0.014067 99635.900000 0 0 1
12.072718 -31.675451 7.976646 34.824009 -1.206655 1.339689 0.013694 -0.009712 214009.000000 0 0 1
11.608118 -31.952151 9.279546 35.239160 -1.222325 1.304323 0.010508 -0.002983 372872.000000 0 0 1
10.656718 -33.046861 9.382546 35.967942 -1.258852 1.306885 0.003936 -0.006822 633678.000000 0 0 1
10.464318 -33.540671 10.823246 36.764402 -1.268377 1.271974 -0.001176 0.001416 -394739.000000 0 0 1
11.616218 -34.152076 11.363546 37.821040 -1.242939 1.265626 0.002004 -0.000757 -439297.000000 0 0 1
11.609918 -34.450819 12.718646 38.515102 -1.245750 1.234254 -0.001239 0.006966 -178758.000000 0 0 1
10.572318 34.091584 13.356146 38.110323 1.270086 1.212734 -0.004333 0.005595 27491.300000 0 0 1
10.858518 32.801227 12.908346 36.884324 1.251111 1.213259 0.005340 0.002464 645302.000000 0 0 1
9.792818 31.922127 13.313346 35.946720 1.273138 1.191396 -0.010750 0.005550 560946.000000 0 0 1
9.592218 30.752617 12.295446 34.480605 1.268444 1.206181 -0.002711 0.002784 -47174.100000 0 0 1
9.266418 31.115257 10.938946 34.259105 1.281350 1.245805 -0.013924 0.003497 -252433.000000 0 0 1
10.268818 31.802947 10.260346 34.959273 1.258475 1.272916 -0.009852 -0.001883 -294263.000000 0 0 1
9.879118 31.983437 8.749746 34.599065 1.271211 1.315130 -0.003680 -0.003899 198515.000000 0 0 1
8.706618 32.760487 8.583546 34.967585 1.311035 1.322790 -0.004865 -0.007961 -61225.000000 0 0 1
8.327418 32.991727 7.211346 34.782230 1.323551 1.361953 0.001482 -0.005919 -158095.000000 0 0 1
8.923718 34.258173 6.510846 35.995087 1.315975 1.388914 -0.000136 -0.004969 -344450.000000 0 0 1
8.255618 -34.055341 6.855946 35.706099 -1.332967 1.377586 0.003349 -0.009758 -371452.000000 0 0 1
8.783818 -32.901131 6.225646 34.617894 -1.309905 1.389974 0.002341 -0.011297 -810296.000000 0 0 1
7.983018 -31.655441 6.271946 33.243539 -1.323763 1.380992 0.001638 -0.012229 -726999.000000 0 0 1
7.730818 -31.167931 7.616746 33.003338 -1.327665 1.337910 0.010873 -0.008579 10179.000000 0 0 1
7.083918 -29.908891 7.680446 31.681429 -1.338232 1.325929 0.007170 -0.003527 230081.000000 0 0 1
8.014318 -28.681931 7.363746 30.677471 -1.298325 1.328392 0.011796 -0.003739 180983.000000 0 0 1
8.800018 -28.258681 8.483246 30.788941 -1.268905 1.291656 0.009477 -0.006138 371340.000000 0 0 1
9.580618 -27.066271 8.392946 29.913422 -1.230590 1.286404 0.018476 -0.007041 433261.000000 0 0 1
8.897718 -25.822601 7.668346 28.368639 -1.238966 1.297081 0.006356 0.002732 76081.800000 0 0 1
8.764418 -26.055651 6.255346 28.192931 -1.246313 1.347058 0.009424 0.003788 -109614.000000 0 0 1
8.048018 -25.012711 5.588246 26.863262 -1.259500 1.361240 0.008653 0.008401 355347.000000 0 0 1
7.794018 -25.383661 4.107146 26.869046 -1.272886 1.417337 0.012456 0.002405 361679.000000 0 0 1
6.958118 -26.486441 3.737646 27.639048 -1.313896 1.435150 0.005174 -0.000438 -28922.700000 0 0 1
7.531318 -27.782541 3.873646 29.044715 -1.306077 1.437029 0.016404 -0.004369 1116690.000000 0 0 1
6.398018 -28.868361 3.523846 29.778086 -1.352694 1.452181 0.010786 -0.005090 1588810.000000 0 0 1
5.514718 -29.176911 4.638846 30.053671 -1.383990 1.415825 -0.000408 -0.005311 94197.400000 0 0 1
4.487618 -30.092281 4.306946 30.728389 -1.422759 1.430172 0.001239 -0.003790 139633.000000 0 0 1
4.761618 -31.619461 4.398646 32.277104 -1.421328 1.434093 0.007164 -0.005173 -460931.000000 0 0 1
5.689818 -32.079781 3.459146 32.763579 -1.395257 1.465020 0.004351 0.000487 -308362.000000 0 0 1
5.857818 -33.458851 3.726646 34.171577 -1.397478 1.461522 0.006632 0.000510 245677.000000 0 0 1
7.070518 -34.100327 2.983946 34.953233 -1.366349 1.485323 0.002549 0.001287 349267.000000 0 0 1
6.788318 -34.336365 1.626446 35.038730 -1.375613 1.524361 -0.000252 0.005217 -659970.000000 0 0 1
7.806218 34.391692 1.103446 35.283752 1.347598 1.539518 -0.001041 0.007433 -875847.000000 0 0 1
7.434118 33.783888 -0.284854 34.593329 1.354199 1.579031 0.000902 0.012938 672713.000000 0 0 1
6.340918 32.856997 -0.296354 33.464569 1.380155 1.579652 0.001228 0.014370 -266077.000000 0 0 1
5.098718 33.478525 -0.455854 33.867631 1.419660 1.584257 0.005581 0.010357 -604002.000000 0 0 1
3.894218 32.525627 -0.266854 32.759008 1.451636 1.578942 0.005728 0.011341 99825.900000 0 0 1
3.723318 31.473227 -1.186754 31.714910 1.453042 1.608224 0.013230 0.014756 153378.000000 0 0 1
2.558318 30.766897 -0.762154 30.882485 1.487836 1.595478 0.012799 0.006264 351210.000000 0 0 1
2.216618 29.587107 -1.676254 29.717338 1.496018 1.627233 0.004492 0.007163 -53366.300000 0 0 1
1.909818 30.107607 -2.976454 30.314596 1.507448 1.669140 0.008722 0.001778 -23125.900000 0 0 1
1.911618 29.116737 -4.019554 29.454974 1.505237 1.707688 0.006936 -0.008262 -89387.300000 0 0 1
1.758718 29.732667 -5.460554 30.281054 1.511714 1.752117 0.003437 -0.012046 -857379.000000 0 0 1
0.448618 30.179127 -5.591554 30.696033 1.555932 1.753978 0.009426 -0.007648 -662826.000000 0 0 1
0.228918 31.116907 -6.617554 31.813619 1.563440 1.780336 0.003069 -0.004381 1862.990000 0 0 1
0.180618 30.757807 -8.114654 31.810736 1.564924 1.828739 0.003518 -0.005036 -206349.000000 0 0 1
-0.998782 30.041317 -8.475654 31.230034 -1.537562 1.845638 -0.000119 -0.004260 242075.000000 0 0 1
-1.030182 29.638187 -9.810354 31.236621 -1.536052 1.890269 0.002274 0.001760 125367.000000 0 0 1
-1.279782 30.756397 -10.858254 32.641929 -1.529210 1.909906 -0.005392 -0.003651 116866.000000 0 0 1
-0.117082 31.544267 -11.063354 33.428316 -1.567085 1.908114 -0.003348 -0.005238 -24378.600000 0 0 1
-0.480282 32.864567 -11.395054 34.787321 -1.556183 1.904520 -0.005924 -0.010653 182100.000000 0 0 1
-0.749482 33.778243 -10.163154 35.282023 -1.548612 1.862991 -0.007015 -0.015908 328585.000000 0 0 1
0.453318 34.204678 -9.524454 35.508883 1.557544 1.842349 -0.013902 -0.014740 296115.000000 0 0 1
0.142718 -34.344529 -8.509254 35.383251 -1.566641 1.813665 -0.007795 -0.011300 323099.000000 0 0 1
1.359818 -34.002621 -7.592554 34.866520 -1.530826 1.790316 -0.004715 -0.008308 67903.200000 0 0 1
2.363918 -33.233561 -8.151954 34.300322 -1.499785 1.810757 -0.002879 -0.007076 -507344.000000 0 0 1
3.299618 -32.789101 -7.171554 33.726011 -1.470502 1.785074 0.003645 -0.008198 224153.000000 0 0 1
4.662318 -32.363041 -7.852354 33.626821 -1.427718 1.806487 0.009478 -0.006293 829814.000000 0 0 1
5.340918 -33.382481 -8.570354 34.876445 -1.412149 1.819074 0.008841 -0.004461 411808.000000 0 0 1
5.994318 -34.297720 -7.646954 35.647460 -1.397771 1.786993 0.012903 0.001824 -1014640.000000 0 0 1
6.275018 33.786981 -8.221954 35.334636 1.387166 1.805637 0.009352 0.001540 392170.000000 0 0 1
5.109118 32.979887 -8.370654 34.407033 1.417102 1.816546 -0.004708 0.000971 989041.000000 0 0 1
4.121218 33.337247 -9.403754 34.882475 1.447798 1.843757 0.000304 -0.004667 888523.000000 0 0 1
3.132118 32.222757 -9.698854 33.796213 1.473899 1.861870 -0.007530 -0.007084 -310053.000000 0 0 1
3.758618 31.185877 -10.425954 33.096626 1.450852 1.891269 -0.000672 -0.011408 292921.000000 0 0 1
2.820418 30.132057 -10.683454 32.094109 1.477466 1.910151 -0.004932 -0.011172 150098.000000 0 0 1
3.426118 28.965507 -11.441154 31.331117 1.453061 1.944611 -0.008140 -0.007707 -131077.000000 0 0 1
3.587518 29.299867 -12.846954 32.193116 1.448961 1.981287 -0.005503 -0.007175 -541960.000000 0 0 1
4.735718 28.770307 -13.408654 32.092828 1.407655 2.001828 0.000594 -0.017658 -644389.000000 0 0 1
4.803218 29.097927 -14.905054 33.044227 1.407201 2.038753 0.008593 -0.020039 -454082.000000 0 0 1
3.913318 28.390677 -15.741054 32.697483 1.433821 2.073065 0.009716 -0.009239 -5481.370000 0 0 1
3.693818 29.189607 -16.904254 33.932746 1.444920 2.092283 0.027952 -0.010852 -284408.000000 0 0 1
2.763018 28.563227 -17.922454 33.833513 1.474363 2.129073 0.022291 0.002738 -511125.000000 0 0 1
3.248518 27.365977 -18.483954 33.182919 1.452643 2.161604 0.024791 0.007864 -170281.000000 0 0 1
2.437018 26.740087 -19.449354 33.154920 1.479910 2.197676 0.018946 0.009549 25126.500000 0 0 1
3.240218 25.576817 -20.076154 32.676055 1.444782 2.232421 0.014173 0.013933 382757.000000 0 0 1
3.134218 24.353797 -19.373754 31.277358 1.442805 2.238797 0.013277 0.014007 294523.000000 0 0 1
3.944718 23.383797 -20.085454 31.077134 1.403675 2.273535 0.014060 0.011487 192502.000000 0 0 1
4.238518 22.208697 -19.148654 29.628740 1.382215 2.273504 0.016543 0.001204 -285390.000000 0 0 1
3.209118 21.297997 -18.767554 28.567888 1.421244 2.287557 0.018129 0.003264 -342187.000000 0 0 1
3.829218 20.237297 -18.071054 27.400257 1.383791 2.290978 0.011223 0.000548 390721.000000 0 0 1
2.900618 19.048297 -17.655054 26.133353 1.419680 2.312541 0.003180 0.000460 339428.000000 0 0 1
2.122918 19.180497 -16.488154 25.382228 1.460564 2.277847 0.001266 -0.009596 -278439.000000 0 0 1
1.263818 18.103797 -16.232154 24.348050 1.501100 2.300531 -0.000060 -0.000651 244050.000000 0 1 0
1.938218 16.963697 -15.284254 22.915762 1.457033 2.300939 -0.001475 -0.002865 1948870.000000 0 1 0
3.177818 16.421897 -15.864554 23.053445 1.379648 2.329752 -0.001365 -0.007235 991746.000000 0 1 0
2.940218 15.317497 -16.777154 22.907281 1.381151 2.392628 0.005082 -0.010045 -227295.000000 0 1 0
2.740418 15.644397 -18.276654 24.213491 1.397386 2.426165 -0.001995 -0.000309 321300.000000 0 1 0
3.908218 16.128297 -18.960754 25.197348 1.333058 2.422631 0.006401 0.006022 19405.100000 0 0 1
3.688618 16.653797 -20.249854 26.476621 1.352827 2.441558 0.000198 0.005828 -572079.000000 0 0 1
3.976718 15.701297 -21.422354 26.856327 1.322739 2.494210 -0.000045 0.013148 -102679.000000 0 0 1
3.181118 14.565997 -21.625154 26.266615 1.355779 2.537987 0.002270 0.011347 -353857.000000 0 0 1
1.894718 14.896797 -22.103054 26.721705 1.444286 2.544827 0.002249 0.011210 20783.900000 0 0 1
1.064118 13.725297 -22.708354 26.555329 1.493421 2.596605 0.004192 0.015284 239296.000000 0 0 1
0.706418 12.737197 -21.727854 25.195929 1.515392 2.610701 0.000395 0.012271 -185219.000000 0 0 1
-0.011382 11.698497 -22.301454 25.183523 -1.569823 2.658489 0.005761 0.010839 -399002.000000 0 0 1
-0.585882 10.765397 -21.222054 23.803626 -1.516427 2.671546 -0.001194 0.008998 -1122440.000000 0 1 0
-1.700682 11.336097 -20.613554 23.586395 -1.421883 2.634087 -0.001493 0.010893 -560373.000000 0 1 0
-2.113582 10.575497 -19.478254 22.264563 -1.373539 2.635932 -0.002417 0.009616 310995.000000 0 1 0
-3.184382 9.490897 -19.762654 22.153553 -1.247079 2.672715 -0.000817 0.001719 -420171.000000 0 1 0
-2.611882 8.480197 -20.529654 22.365204 -1.272018 2.733623 -0.001276 -0.001764 -699057.000000 0 1 0
-3.556282 7.683997 -21.165154 22.795936 -1.137335 2.761046 -0.007424 0.011442 -462364.000000 0 1 0
-2.935682 6.638297 -22.059354 23.222840 -1.154419 2.823709 -0.007535 0.011262 59123.500000 0 1 0
-2.281682 5.651997 -21.286254 22.141720 -1.187109 2.862712 -0.001474 0.010330 -229091.000000 0 1 0
-1.986082 4.567097 -22.141954 22.695132 -1.160598 2.920351 0.005410 0.008863 -331146.000000 0 1 0
-1.515082 3.354297 -21.319254 21.634634 -1.146543 2.970636 0.005052 0.006583 -150003.000000 0 1 0
-0.257482 3.597697 -20.727654 21.039139 -1.499350 2.969304 0.007668 -0.011918 -299955.000000 0 1 0
0.134918 2.461597 -19.983754 20.135245 1.516042 3.018848 0.006727 -0.008129 -665572.000000 0 1 0
1.642818 2.327597 -19.908254 20.111070 0.956188 2.999453 0.005174 -0.015039 -556264.000000 0 1 0
2.241718 1.855397 -21.111454 21.311060 0.691385 3.004618 0.005830 -0.018827 -331071.000000 0 1 0
3.634818 1.723497 -20.999454 21.381286 0.442765 2.952322 0.004845 -0.019044 187614.000000 0 1 0
4.339818 0.833497 -22.099354 22.536863 0.189748 2.944229 0.005002 -0.016028 -76175.500000 0 1 0
5.741418 0.845697 -22.037754 22.789069 0.146246 2.884101 -0.000561 -0.008972 -495167.000000 0 1 0
6.157818 0.318497 -23.236254 24.040459 0.051676 2.882207 -0.000858 -0.004278 432254.000000 0 1 0
7.705218 0.415697 -23.472854 24.708664 0.053898 2.823983 -0.012039 -0.002311 687453.000000 0 1 0
8.154818 1.753097 -23.524954 24.959925 0.211754 2.800857 0.000293 -0.015518 405921.000000 0 1 0
9.574218 1.779397 -23.687254 25.610894 0.183756 2.751542 -0.003761 -0.006007 344341.000000 0 0 1
12.878018 -21.409111 23.017253 33.970389 -1.029260 0.826345 0.016631 0.003916 -405708.000000 0 0 1
12.054018 -22.555711 22.882953 34.317474 -1.080000 0.840887 0.015877 0.011022 -90089.100000 0 0 1
10.750418 -22.178311 22.473453 33.354236 -1.119442 0.831482 0.017812 0.006820 167769.000000 0 0 1
10.526918 -21.936911 20.953153 32.110414 -1.123380 0.859872 0.013671 0.002437 -595656.000000 0 0 1
11.038618 -20.687911 20.522953 31.161392 -1.080648 0.851837 0.005029 0.000473 -86755.600000 0 0 1
10.714818 -20.454911 19.171753 30.012778 -1.088270 0.877877 0.008637 -0.004810 223733.000000 0 0 1
11.077218 -19.013511 18.661053 28.852266 -1.043271 0.867442 0.007212 -0.002173 479188.000000 0 0 1
10.150818 -18.051811 19.168653 28.219572 -1.058547 0.824032 0.014679 -0.000174 317919.000000 0 0 1
10.532818 -16.773911 18.666653 27.216692 -1.010094 0.815021 0.011174 0.001540 -215898.000000 0 0 1
9.654918 -15.588911 19.149653 26.513031 -1.016274 0.763713 0.014151 0.007875 -403591.000000 0 0 1
8.339418 -15.838711 18.762653 25.931599 -1.086158 0.761874 0.011426 0.004435 -767277.000000 0 0 1
7.526218 -14.702111 19.029653 25.197693 -1.097663 0.714816 0.007507 0.007041 429958.000000 0 0 1
6.066818 -14.908411 18.534553 24.547845 -1.184322 0.715084 0.000927 0.007765 -69660.400000 0 1 0
5.869518 -14.766511 17.124253 23.361103 -1.192457 0.748039 -0.002548 0.003128 99242.500000 0 1 0
4.512818 -14.954411 16.752553 22.905196 -1.277715 0.750443 -0.012446 0.005159 159036.000000 0 1 0
3.890418 -16.384411 16.845653 23.819327 -1.337667 0.785229 -0.025970 0.010106 -61684.900000 0 1 0
2.556018 -16.442911 16.346953 23.326496 -1.416583 0.794293 -0.014668 0.009127 246498.000000 0 1 0
1.893518 -17.655211 16.763553 24.419431 -1.463955 0.814153 -0.012901 0.009132 121510.000000 0 1 0
0.420618 -17.452111 16.359553 23.924633 -1.546700 0.817845 -0.000202 0.009753 -433675.000000 0 1 0
0.236718 -17.379711 14.981353 22.946707 -1.557177 0.859421 0.000802 0.003705 98378.000000 0 1 0
-1.150282 -17.427311 14.672853 22.810676 1.504887 0.872067 0.005175 0.004842 189993.000000 0 1 0
-1.479982 -18.197811 13.394353 22.644191 1.489647 0.937861 0.001563 0.004334 25852.300000 0 1 0
-2.841482 -18.574711 13.302153 23.022624 1.418997 0.954783 -0.004275 0.008182 2446.150000 0 1 0
-3.038582 -19.534411 12.280353 23.273016 1.416483 1.014947 0.001900 -0.009449 -791994.000000 0 1 0
-4.425982 -20.109511 12.225453 23.946680 1.354156 1.034997 0.000412 -0.006356 -790703.000000 0 1 0
-4.754982 -20.961211 13.340153 25.297073 1.347725 1.015330 -0.006586 0.000541 641879.000000 0 0 1
-6.100582 -21.438111 13.114453 25.861141 1.293558 1.038968 -0.004450 -0.006514 818128.000000 0 0 1
-6.566182 -22.420811 14.216053 27.347828 1.285902 1.024152 0.000288 -0.003066 -521165.000000 0 0 1
-7.949282 -22.307211 14.355953 27.692890 1.228471 1.025819 -0.002293 -0.011403 -718257.000000 0 0 1
-8.586082 -23.177911 15.265853 29.051379 1.216027 1.017520 0.005152 -0.008619 1124910.000000 0 0 1
-10.054382 -22.624511 15.453353 29.185017 1.152607 1.012790 0.004780 -0.009660 873792.000000 0 0 1
-10.106482 -21.410211 16.156453 28.663027 1.129766 0.971976 -0.003107 -0.007439 -211662.000000 0 0 1
-11.346082 -20.749511 15.989953 28.547406 1.070404 0.976267 -0.002435 0.001762 -177738.000000 0 0 1
-11.513882 -19.492511 16.950853 28.281777 1.037256 0.928100 -0.001601 0.009098 -465750.000000 0 0 1
-11.750982 -19.863311 18.319153 29.465710 1.036582 0.899871 -0.002921 0.004729 -60978.500000 0 0 1
-11.941882 -18.736311 19.111953 29.307416 1.003354 0.860419 -0.003554 -0.002548 -282593.000000 0 0 1
-12.335482 -19.137911 20.546453 30.668885 0.998257 0.836662 0.003432 0.003136 1152390.000000 0 0 1
-13.631682 -19.799411 20.596353 31.655161 0.967838 0.862359 0.008395 0.008200 1070960.000000 0 0 1
-13.892982 -20.449211 21.807253 32.965762 0.974037 0.847963 0.001552 0.013581 -78184.600000 0 0 1
-15.215982 -21.240511 21.859353 34.066358 0.949171 0.874123 0.000688 0.009790 -712867.000000 0 0 1
-15.371182 -22.312911 20.927753 34.236093 0.967565 0.913123 -0.001249 0.012363 -51902.800000 0 0 1
-16.686982 -22.486711 20.460853 34.680745 0.932382 0.939766 -0.002507 0.010718 79418.700000 0 0 1
-17.679182 -23.187211 21.445453 36.195410 0.919372 0.936649 -0.002016 0.004916 -693970.000000 0 0 1
-17.941882 -22.392611 22.605253 36.528586 0.895299 0.903535 -0.004505 0.007703 11709.200000 0 0 1
-19.001782 -23.050411 23.282453 37.874289 0.881379 0.908753 0.003241 0.004314 69680.400000 0 0 1
-19.689182 -22.277411 24.438503 38.486197 0.846994 0.882796 0.006056 0.007486 -358700.000000 0 0 1
-20.443182 -21.243311 23.872553 37.935481 0.804590 0.890152 0.006015 0.013986 -165444.000000 0 0 1
-20.665382 -20.199311 24.785143 38.070638 0.773993 0.861855 0.006628 0.012786 -290714.000000 0 0 1
-21.598682 -19.107611 24.267553 37.689760 0.724278 0.871242 0.005305 0.012888 -479542.000000 0 0 1
-21.169082 -18.421111 23.108653 36.352128 0.716099 0.881895 0.008010 0.017086 -501216.000000 0 0 1
-22.071982 -17.469911 22.609553 36.104876 0.669535 0.894102 0.005289 0.019715 -342297.000000 0 0 1
-21.760282 -16.943911 21.178453 34.772588 0.661594 0.915927 0.007906 0.022776 317210.000000 0 0 1
-20.694782 -15.979411 21.190653 33.655005 0.657525 0.889702 0.009213 0.022008 103205.000000 0 0 1
-20.627482 -15.325011 19.948953 32.531672 0.638968 0.910670 0.013079 0.022005 404526.000000 0 0 1
-19.442282 -14.328411 19.755753 31.202491 0.635111 0.885185 0.014344 0.011334 213130.000000 0 0 1
-19.354382 -14.117111 18.340853 30.170711 0.630187 0.917380 0.009112 0.010069 -167860.000000 0 0 1
-18.625882 -12.962811 18.005253 28.968036 0.608007 0.900069 0.014229 -0.001635 -639119.000000 0 0 1
-18.154082 -13.150111 16.541453 27.858855 0.626889 0.935074 0.004976 -0.012869 -118752.000000 0 0 1
-17.697182 -12.046911 15.851153 26.637893 0.597672 0.933456 0.004162 -0.008881 723291.000000 0 0 1
-16.402082 -11.566411 16.274053 25.839020 0.614194 0.889469 0.000361 -0.010447 491060.000000 0 0 1
-15.889382 -10.309811 15.502753 24.476520 0.575566 0.884893 -0.000494 -0.008392 -77926.800000 0 1 0
-16.552782 -9.120311 15.800853 24.634155 0.503598 0.874448 -0.000138 -0.003080 62625.500000 0 1 0
-16.130682 -8.040711 14.935153 23.407493 0.462425 0.878833 -0.009918 0.002873 -361758.000000 0 1 0
-16.499982 -6.687111 15.536953 23.629722 0.385050 0.853277 0.001104 0.012331 406195.000000 0 1 0
-15.802382 -6.322111 16.730653 23.866276 0.380570 0.793974 0.007228 0.009022 514390.000000 0 1 0
-14.427382 -5.964611 16.612753 22.797138 0.392024 0.754344 0.004029 0.003232 133805.000000 0 1 0
-13.696482 -5.935211 17.958453 23.352224 0.408912 0.693481 0.008231 0.002263 -269430.000000 0 1 0
-13.567982 -7.103111 18.814453 24.259595 0.482286 0.683215 0.001978 -0.003360 38720.900000 0 1 0
-12.971182 -8.223611 18.202453 23.816142 0.565039 0.700856 0.001687 -0.006611 -437897.000000 0 1 0
-12.886182 -9.476711 19.103053 24.915625 0.634102 0.697096 0.004042 -0.006773 -24656.400000 0 1 0
-14.074582 -10.196111 19.366753 26.021638 0.626937 0.731377 0.001586 -0.003958 140835.000000 0 0 1
-14.802082 -9.746411 20.505853 27.103213 0.582292 0.712723 0.003826 -0.005302 180883.000000 0 0 1
-16.182582 -10.445611 20.859153 28.391742 0.573195 0.745585 0.002926 -0.002100 1159160.000000 0 0 1
-17.227382 -10.359011 19.922653 28.302012 0.541383 0.789880 0.004325 0.003866 291038.000000 0 0 1
-17.657782 -9.064211 19.541253 27.853505 0.474252 0.793195 -0.000303 0.005063 -829390.000000 0 0 1
-18.755382 -8.997611 18.453953 27.807728 0.447305 0.845140 0.001733 0.000169 595264.000000 0 0 1
-20.059582 -9.365411 18.903853 29.111053 0.436802 0.864040 0.001767 0.003536 424744.000000 0 0 1
-20.937482 -9.525011 17.767453 29.065209 0.426943 0.913099 0.011328 0.007296 192216.000000 0 0 1
-22.355482 -9.846311 18.278753 30.509510 0.414878 0.928399 0.013558 0.011942 -330929.000000 0 0 1
-23.019082 -8.734711 18.821753 30.990832 0.362671 0.918097 0.008332 0.015294 358467.000000 0 0 1
-24.356482 -9.040211 19.173853 32.289321 0.355402 0.935005 0.000984 0.016969 -260822.000000 0 0 1
-25.135342 -7.887911 19.717653 32.905780 0.304085 0.928276 0.006513 0.012837 -553037.000000 0 0 1
-24.887082 -7.580911 21.075153 33.481325 0.295683 0.889938 0.005411 0.007943 54915.900000 0 0 1
-25.719922 -6.621911 21.663853 34.273701 0.251990 0.886557 0.003672 0.003397 -928483.000000 0 0 1
-25.643452 -6.500011 23.221253 35.200332 0.248248 0.850392 0.005217 0.002236 290105.000000 0 0 1
-24.442782 -6.016511 23.837153 34.667822 0.241349 0.812635 0.002961 -0.001609 873041.000000 0 0 1
-23.340282 -6.913611 23.745253 34.005938 0.287976 0.797821 0.003463 0.001497 101690.000000 0 0 1
-22.253782 -6.795311 24.857083 34.048225 0.296363 0.752394 0.005370 -0.001317 421919.000000 0 0 1
-21.481782 -5.599411 24.844373 33.317611 0.254985 0.729237 0.003714 -0.001655 501663.000000 0 0 1
-20.783482 -5.392411 26.087083 33.787085 0.253859 0.688654 0.004525 -0.003951 169319.000000 0 0 1
-20.144382 -3.992211 26.044463 33.166970 0.195645 0.667692 0.001255 -0.004388 25757.600000 0 0 1
-19.097882 -3.699911 26.944403 33.232804 0.191363 0.625318 0.006439 -0.006647 -22367.100000 0 0 1
-19.495682 -3.564011 28.319153 34.565275 0.180814 0.610616 0.002063 -0.007790 46929.200000 0 0 1
-20.305882 -2.349311 28.879593 35.381902 0.115184 0.615950 0.004996 -0.008390 1017810.000000 0 0 1
-21.692782 -2.408211 28.525593 35.917763 0.110562 0.653120 0.005991 -0.004541 370125.000000 0 0 1
-22.431182 -1.314311 29.078453 36.748357 0.058526 0.657887 0.004952 0.002867 284024.000000 0 0 1
-23.784882 -1.162211 28.374773 37.043206 0.048825 0.698214 0.004517 0.003844 -639823.000000 0 0 1
-23.629482 -0.393411 27.238733 36.061832 0.016648 0.714632 0.002089 -0.001930 806903.000000 0 0 1
-24.852782 -0.055411 26.554113 36.370108 0.002230 0.752316 -0.002556 0.004016 395396.000000 0 0 1
-25.661902 -1.157411 25.791873 36.401834 0.045072 0.783380 -0.000349 0.008055 -39196.000000 0 0 1
-26.505092 -1.876711 26.682603 37.656384 0.070688 0.783311 -0.003560 0.001716 155350.000000 0 0 1
-26.844552 -3.167511 26.197853 37.642935 0.117451 0.801045 -0.006728 0.002673 85523.800000 0 0 1
-25.770112 -4.284611 26.423623 37.157293 0.164756 0.779694 -0.003427 -0.004624 295529.000000 0 0 1
-25.378562 -4.562511 27.772693 37.897366 0.177878 0.748310 -0.001833 -0.005536 -482253.000000 0 0 1
-24.534882 -5.638511 27.807743 37.510316 0.225894 0.735738 0.000191 -0.011259 -604693.000000 0 0 1
-24.045282 -6.043911 29.201063 38.306742 0.246254 0.703944 -0.001209 -0.011706 19334.800000 0 0 1
-25.152582 -6.381211 30.023893 39.683830 0.248458 0.712733 0.001180 -0.010364 292216.000000 0 0 1
-24.839882 -6.853911 31.308443 40.548914 0.269225 0.688633 0.007880 -0.004702 -411859.000000 0 0 1
-26.065312 -7.489711 31.999573 41.946024 0.279806 0.703048 -0.009949 -0.007583 -142886.000000 0 0 1
-26.588712 -8.559411 31.306883 41.956454 0.311443 0.728497 -0.007713 -0.010737 849776.000000 0 0 1
-27.874032 -8.939411 31.861013 43.266602 0.310345 0.743080 -0.000670 -0.008729 831868.000000 0 0 1
-28.741002 -9.755211 30.909953 43.320140 0.327217 0.776281 -0.000184 -0.019386 -562950.000000 0 0 1
-28.352832 -11.106711 30.862983 43.356266 0.373359 0.778673 -0.001767 -0.012772 1040880.000000 0 0 1
-29.307152 -11.929911 30.131133 43.693445 0.386582 0.809856 -0.000229 -0.011597 334559.000000 0 0 1
-28.583992 -13.076511 29.469793 43.087219 0.429054 0.817624 0.000094 -0.008697 -407746.000000 0 0 1
-27.942112 -12.682811 28.292413 41.738183 0.426089 0.825956 -0.002643 -0.004055 386429.000000 0 0 1
-26.952632 -13.701811 27.963003 41.183899 0.470318 0.824425 -0.002765 0.000761 160617.000000 0 0 1
-25.696932 -13.036411 27.356333 39.732220 0.469482 0.811353 0.002108 -0.000757 -188992.000000 0 0 1
-24.814882 -12.506211 28.376903 39.716902 0.466827 0.774917 0.004785 -0.005199 523453.000000 0 0 1
-25.218912 -11.239611 29.005533 40.045516 0.419257 0.760757 0.002836 -0.005710 -745550.000000 0 0 1
-25.136542 -9.929511 28.103013 38.990002 0.376208 0.765877 -0.000800 -0.002455 583018.000000 0 0 1
-23.842682 -9.539511 27.616153 37.711108 0.380595 0.749091 0.002493 -0.006894 228270.000000 0 0 1
-23.220682 -10.306311 26.657933 36.824795 0.417721 0.761339 0.002518 -0.005724 -628648.000000 0 0 1
-23.790182 -10.231711 25.232533 36.157176 0.406167 0.798395 -0.002273 0.004773 -58155.600000 0 0 1
-25.048882 -10.874311 25.116373 37.101608 0.409573 0.827169 0.000678 0.000170 111144.000000 0 0 1
-25.648922 -10.663211 23.860453 36.618199 0.393999 0.861103 -0.003756 0.006172 -506288.000000 0 0 1
-26.847372 -11.570111 23.601553 37.572359 0.406907 0.891607 0.000511 0.006092 -716055.000000 0 0 1
-28.086782 -11.304011 24.166453 38.738423 0.382632 0.897154 -0.006711 0.003708 -568155.000000 0 0 1
-28.305142 -11.251311 25.622023 39.802778 0.378350 0.871441 0.000381 -0.002238 -1521790.000000 0 0 1
-29.733402 -10.938711 25.985103 40.975068 0.352525 0.883864 -0.011664 -0.002113 -1253940.000000 0 0 1
-30.117182 -9.620811 25.644503 40.709276 0.309200 0.889317 -0.005190 -0.004670 447269.000000 0 0 1
-31.464982 -9.267411 25.963593 41.833457 0.286432 0.901235 0.002038 -0.002505 277165.000000 0 0 1
-31.984022 -9.239711 27.429723 43.136291 0.281229 0.881642 0.001032 -0.007282 -692442.000000 0 0 1
-32.282442 -10.552211 27.798543 43.889226 0.315924 0.884884 0.003563 -0.018043 150924.000000 0 0 1
-32.902632 -10.537911 29.076453 45.156072 0.309953 0.871198 -0.002615 -0.017784 -980882.000000 0 0 1
-33.375192 -11.841011 29.703533 46.221346 0.340931 0.872862 -0.000929 -0.006422 415817.000000 0 0 1
-34.574074 -12.441911 29.194943 46.930933 0.345434 0.899396 -0.004551 -0.003910 526608.000000 0 0 1
33.864210 -11.751111 29.580133 46.474268 -0.334006 0.880865 -0.004778 -0.004708 -1419350.000000 0 0 1
32.587336 -12.246111 28.941723 45.271680 -0.359466 0.877222 -0.001752 0.000135 -603700.000000 0 0 1
32.482716 -11.799311 27.586283 44.219380 -0.348429 0.897136 0.001472 0.002627 24538.700000 0 0 1
31.418186 -12.476011 26.949323 43.232155 -0.378000 0.897760 0.000444 0.010024 -34463.200000 0 0 1
31.400516 -12.127611 25.453533 42.201347 -0.368574 0.923358 0.005294 0.006147 -38927.600000 0 0 1
31.049576 -10.748711 25.299813 41.469163 -0.333267 0.914625 0.004563 -0.001547 222890.000000 0 0 1
31.061646 -10.280211 23.921253 40.530666 -0.319614 0.939488 0.010512 -0.002851 -241612.000000 0 0 1
30.744106 -8.793211 23.802853 39.863472 -0.278576 0.930904 0.002050 0.005289 559992.000000 0 0 1
29.381396 -8.398511 23.968553 38.836747 -0.278420 0.905666 0.005671 0.000981 206589.000000 0 0 1
29.127556 -7.054511 23.696953 38.206364 -0.237618 0.901753 0.007729 -0.000480 -127638.000000 0 0 1
27.634616 -6.664511 23.535553 36.905419 -0.236647 0.879254 0.007147 0.003994 -27897.900000 0 0 1
26.965626 -7.069411 22.388553 35.754284 -0.256394 0.894155 -0.003231 0.004342 -137427.000000 0 0 1
26.444756 -8.366611 22.547353 35.745047 -0.306416 0.888235 -0.009143 -0.000215 -844061.000000 0 0 1
13.995718 -17.636411 26.576383 34.831412 -0.899989 0.702854 0.008909 0.005470 -307417.000000 0 0 1
13.461218 -18.931511 26.403313 35.167335 -0.952694 0.721538 0.006649 0.008207 165217.000000 0 0 1
14.373418 -19.991711 26.665133 36.294531 -0.947453 0.745591 0.003665 0.007494 -486131.000000 0 0 1
13.729818 -21.464011 26.527763 36.782250 -1.001719 0.765247 -0.004850 0.004517 841926.000000 0 0 1
12.786518 -21.869611 27.523053 37.407130 -1.041725 0.743993 -0.006868 0.002482 524708.000000 0 0 1
11.604818 -21.123811 27.662253 36.689065 -1.068436 0.716720 0.002401 0.001716 -456429.000000 0 0 1
10.789318 -21.309211 28.958713 37.537967 -1.102104 0.689677 -0.004602 0.006155 411869.000000 0 0 1
11.473018 -20.684611 30.077803 38.264311 -1.064379 0.666397 -0.008251 0.003397 583396.000000 0 0 1
10.738118 -19.657111 30.770913 38.059930 -1.070820 0.629222 -0.008823 0.013246 37598.200000 0 0 1
10.570418 -18.307511 30.120413 36.798614 -1.047174 0.611966 -0.014817 0.011746 -142715.000000 0 0 1
11.681618 -17.486111 30.338373 36.913970 -0.981836 0.606116 -0.020052 0.013987 -508615.000000 0 0 1
11.714918 -16.337411 29.554743 35.743995 -0.948712 0.597322 -0.012011 0.008332 228918.000000 0 0 1
12.384218 -15.147311 30.285733 36.056005 -0.885424 0.573580 -0.011600 0.007162 396546.000000 0 0 1
11.952018 -13.902411 29.681263 34.887034 -0.860693 0.553325 -0.006156 0.005371 497240.000000 0 0 1
12.653818 -12.823811 30.315883 35.265025 -0.792070 0.536195 -0.002690 0.008593 46746.400000 0 0 1
12.092918 -11.450811 29.901693 34.226759 -0.758132 0.508173 0.002113 0.001740 5068.270000 0 0 1
12.475318 -10.909411 28.595133 33.050423 -0.718535 0.525253 0.005498 0.000625 -353140.000000 0 0 1
13.815718 -10.858611 28.207553 33.233260 -0.666122 0.557133 0.004674 0.000103 -930904.000000 0 0 1
14.231618 -9.853711 27.154053 32.202130 -0.605595 0.567518 0.002038 0.001477 -141568.000000 0 0 1
14.429818 -8.534411 27.632093 32.320093 -0.534104 0.545340 0.001185 -0.000298 -884545.000000 0 0 1
15.683818 -8.258811 28.127303 33.246583 -0.484686 0.562319 0.003588 -0.001834 -1428390.000000 0 0 1
16.036318 -6.774511 28.240023 33.174635 -0.399707 0.552427 -0.003286 -0.005081 -1324630.000000 0 0 1
17.392318 -6.561611 28.203453 33.778429 -0.360760 0.582746 -0.008150 -0.004443 -1300390.000000 0 0 1
17.611618 -5.292211 27.663823 33.218424 -0.291911 0.586676 -0.011675 0.000397 -1667670.000000 0 0 1
19.054518 -5.132211 27.407263 33.772360 -0.263100 0.624032 -0.002432 -0.002858 -2686420.000000 0 0 1
19.542218 -6.157511 26.508343 33.503813 -0.305241 0.658021 -0.004393 0.004655 292011.000000 0 0 1
20.947318 -6.181711 26.328703 34.208249 -0.286962 0.692489 -0.001041 0.004995 172925.000000 0 0 1
21.877518 -6.350411 27.516363 35.722595 -0.282507 0.691518 0.007391 -0.001580 -1207060.000000 0 0 1
22.169218 -5.112911 28.138573 36.185569 -0.226668 0.679927 0.002121 -0.001437 108421.000000 0 0 1
22.976318 -5.253711 29.315323 37.615168 -0.224793 0.677171 0.004276 -0.010201 84069.400000 0 0 1
23.421318 -3.878311 29.794483 38.096072 -0.164100 0.672787 0.002807 -0.009687 -91414.100000 0 0 1
24.180218 -3.209911 28.768373 37.717447 -0.131978 0.703266 0.006548 -0.005842 373411.000000 0 0 1
24.502618 -1.867811 29.115253 38.099409 -0.076082 0.701009 0.007066 -0.007988 -484150.000000 0 0 1
25.530518 -1.232611 28.144473 38.018917 -0.048242 0.737316 0.006378 -0.001308 -1316310.000000 0 0 1
26.822218 -1.607211 28.354943 39.064272 -0.059849 0.758522 0.008129 -0.005751 -1322630.000000 0 0 1
27.663418 -1.009211 27.375883 38.932277 -0.036466 0.790955 0.007268 0.000542 -150637.000000 0 0 1
29.156618 -0.998211 27.716513 40.240650 -0.034223 0.811007 -0.000020 0.000820 -297919.000000 0 0 1
29.455718 -0.019311 28.662313 41.099488 -0.000656 0.799049 -0.008973 0.005335 -612647.000000 0 0 1
30.718818 -0.190611 29.218543 42.395818 -0.006205 0.810433 -0.009608 0.000629 -380576.000000 0 0 1
31.150018 0.885589 30.248633 43.429111 0.028422 0.800280 -0.005333 -0.004270 -228481.000000 0 0 1
31.302518 2.112389 29.596573 43.130812 0.067381 0.814538 -0.009879 0.000478 148153.000000 0 0 1
31.539018 3.146689 30.542733 44.016700 0.099442 0.803920 -0.008678 0.002736 -341470.000000 0 0 1
31.837818 4.493889 29.877793 43.892189 0.140223 0.822067 -0.009275 -0.000642 -67095.500000 0 0 1
31.879118 5.544789 30.792353 44.667571 0.172209 0.810181 -0.003745 0.000150 321279.000000 0 0 1
30.601518 6.072889 31.121793 44.066982 0.195905 0.786626 -0.006406 -0.000143 -44723.300000 0 0 1
30.522218 7.160089 32.290623 45.006189 0.230420 0.770632 -0.003602 -0.000074 -285124.000000 0 0 1
30.844018 6.654089 33.544689 46.052975 0.212477 0.754822 -0.006581 0.004580 127376.000000 0 0 1
30.793718 7.705189 34.452331 46.846410 0.245185 0.744493 0.002219 0.002753 -435623.000000 0 0 1
30.873218 7.145289 -33.446244 46.074526 0.227435 2.383162 0.008300 0.004874 -175459.000000 0 0 1
29.765818 6.340789 -33.058624 44.934198 0.209885 2.397513 0.003182 0.009895 -212334.000000 0 0 1
29.840618 4.951989 -33.359024 45.031202 0.164449 2.405054 -0.004874 0.005952 -225678.000000 0 0 1
30.775918 4.043289 -32.533024 44.965575 0.130630 2.379669 0.000300 0.001828 -67325.800000 0 0 1
30.687818 2.677189 -32.853324 45.036101 0.087019 2.388370 0.000226 -0.005890 12403.900000 0 0 1
31.146718 1.894989 -31.786434 44.543085 0.060766 2.365436 0.002575 0.007077 -133500.000000 0 0 1
30.999618 0.358589 -31.971394 44.533975 0.011567 2.371592 0.005226 0.004789 -169253.000000 0 0 1
32.001118 -0.054011 -32.895944 45.893547 -0.001688 2.369981 0.006921 0.003526 196343.000000 0 0 1
32.302418 -1.447411 -32.924254 46.147023 -0.044778 2.365226 0.002281 0.002686 130342.000000 0 0 1
33.142418 -2.025011 -31.764404 45.951038 -0.061024 2.334036 0.009484 0.003990 -246923.000000 0 0 1
32.546318 -1.835211 -30.514324 44.651482 -0.056328 2.323191 0.020856 0.003049 -217781.000000 0 0 1
33.509518 -1.787811 -29.483034 44.669155 -0.053302 2.291657 0.034986 -0.000120 -207906.000000 0 0 1
32.927618 -1.684611 -28.080724 43.308117 -0.051116 2.276269 0.026762 0.002270 -364002.000000 0 0 1
32.433818 -0.398611 -27.923604 42.799990 -0.012289 2.281571 0.020724 0.005435 648806.000000 0 0 1
31.557018 -0.192111 -26.788894 41.394772 -0.006088 2.274645 0.006170 0.007210 443711.000000 0 0 1
30.929818 1.235789 -26.750754 40.911901 0.039933 2.283474 -0.005268 0.008189 221903.000000 0 0 1
29.973618 1.474889 -27.775924 40.891259 0.049167 2.317554 -0.015289 0.001963 453765.000000 0 0 1
29.458718 2.818789 -27.773364 40.584743 0.095396 2.324481 -0.014377 0.006002 443117.000000 0 0 1
28.428018 3.118789 -28.915674 40.669341 0.109271 2.361708 -0.010048 0.006384 -104757.000000 0 0 1
27.965618 4.439789 -28.856134 40.428505 0.157445 2.365644 -0.010621 0.008606 5318.850000 0 0 1
27.215018 4.808289 -30.009964 40.796750 0.174873 2.397344 -0.010927 0.007709 -770436.000000 0 0 1
26.224718 5.880589 -29.617614 39.994002 0.220589 2.404687 -0.004135 0.004079 -569615.000000 0 0 1
25.227618 5.160689 -28.891664 38.701339 0.201781 2.413626 -0.000573 0.000836 160982.000000 0 0 1
24.450018 5.974489 -28.015524 37.661220 0.239659 2.409658 0.009171 -0.001599 523818.000000 0 0 1
23.124118 5.261189 -27.552024 36.352702 0.223711 2.430897 0.009494 0.000970 529822.000000 0 0 1
22.242218 5.113589 -28.657334 36.634790 0.225978 2.469056 0.019193 -0.002991 -200943.000000 0 0 1
21.069118 4.476089 -28.225324 35.505099 0.209335 2.489747 0.020784 -0.009484 -105459.000000 0 0 1
20.116318 4.049389 -29.405004 35.856911 0.198644 2.532321 0.002652 -0.001453 -16794.800000 0 0 1
20.500918 2.836589 -30.018924 36.461894 0.137491 2.537990 0.005166 0.002466 -140066.000000 0 0 1
19.687218 2.345489 -31.041264 36.832702 0.118579 2.573193 -0.001802 0.007218 -538808.000000 0 0 1
19.634918 2.988389 -32.449804 38.045371 0.151039 2.592357 0.003292 0.012002 413057.000000 0 0 1
20.843818 2.897089 -33.222564 39.326793 0.138106 2.576954 0.015054 0.012532 385303.000000 0 0 1
20.669618 3.188789 -34.582861 40.415044 0.153067 2.597684 0.019299 0.019163 -113164.000000 0 0 1
21.988918 3.060189 34.006857 40.612112 0.138281 0.578365 0.011348 0.020063 165634.000000 0 0 1
22.516918 1.724989 34.014728 40.828776 0.076459 0.586095 0.011454 0.007296 247163.000000 0 0 1
23.907418 1.522389 33.832522 41.455058 0.063593 0.616122 0.005090 0.004961 305200.000000 0 0 1
24.298918 -0.000411 33.789503 41.619322 -0.000017 0.623447 -0.005161 0.017282 -367373.000000 0 0 1
24.027518 -0.811911 32.640973 40.539042 -0.033778 0.634828 0.001071 0.010464 1439200.000000 0 0 1
22.690518 -0.896211 32.063343 39.290212 -0.039477 0.616228 0.005194 -0.001326 1213230.000000 0 0 1
21.644218 -1.796111 32.754123 39.300519 -0.082794 0.585516 0.008603 -0.005411 -361980.000000 0 0 1
21.863618 -3.157211 32.480433 39.280585 -0.143413 0.597255 -0.000234 -0.016925 -33799.800000 0 0 1
21.043918 -3.858411 33.387762 39.654464 -0.181336 0.569877 -0.002678 -0.013381 -522118.000000 0 0 1
21.076518 -5.403411 33.155083 39.656979 -0.250966 0.580759 -0.006838 -0.006578 -847422.000000 0 0 1
22.327718 -5.981111 33.084803 40.359694 -0.261733 0.609824 -0.001379 -0.006460 -757089.000000 0 0 1
22.111218 -7.290711 32.650993 40.101718 -0.318503 0.619439 0.000710 -0.005119 -437906.000000 0 0 1
23.457018 -7.970911 32.367363 40.760438 -0.327567 0.653291 0.002735 -0.011753 -358788.000000 0 0 1
24.106718 -7.467011 31.222463 40.146386 -0.300376 0.679773 0.000127 -0.008708 74797.400000 0 0 1
25.345118 -8.161811 31.062223 40.912735 -0.311541 0.708665 0.002884 -0.001571 339641.000000 0 0 1
25.890818 -7.952511 29.650943 40.159125 -0.298009 0.740196 0.001663 -0.006180 -68889.300000 0 0 1
25.063318 -8.578711 28.683233 39.044744 -0.329782 0.745683 -0.000786 -0.001994 182948.000000 0 0 1
25.471718 -8.220511 27.349243 38.267040 -0.312178 0.774609 0.002478 -0.000206 -29309.000000 0 0 1
25.052818 -9.199411 26.246453 37.431927 -0.351915 0.793748 0.001953 -0.000175 652008.000000 0 0 1
23.672018 -8.969711 25.939673 36.244818 -0.362200 0.773200 -0.008289 -0.005954 569003.000000 0 0 1
23.087418 -10.097711 25.311543 35.716479 -0.412300 0.783171 -0.001959 -0.008450 -406159.000000 0 0 1
21.807718 -9.835611 24.524713 34.260435 -0.423698 0.772982 -0.001501 0.010555 -56015.800000 0 0 1
20.690618 -9.918111 25.416353 34.241227 -0.446994 0.734340 -0.003889 0.004529 162173.000000 0 0 1
19.514518 -9.489311 24.748843 32.914567 -0.452603 0.719839 -0.005827 0.004306 691085.000000 0 0 1
18.266018 -9.298811 25.675343 32.853288 -0.470883 0.673706 -0.003319 0.001529 579533.000000 0 0 1
17.547718 -10.418811 26.209793 33.217876 -0.535805 0.661573 -0.002677 0.000720 141159.000000 0 0 1
18.299318 -11.132011 27.141483 34.575234 -0.546521 0.668104 0.000949 0.004526 -348077.000000 0 0 1
17.444018 -12.140011 27.930763 35.097025 -0.607997 0.650443 0.011916 -0.000709 -46173.800000 0 0 1
17.003618 -13.279211 27.274373 34.775737 -0.663025 0.669240 0.003646 -0.003045 138725.000000 0 0 1
16.057818 -14.032611 27.995773 35.192769 -0.718195 0.650968 0.004040 -0.001042 -56633.600000 0 0 1
16.681218 -15.307411 28.538713 36.428533 -0.742478 0.670652 0.011687 0.003402 -27679.300000 0 0 1
15.697218 -16.197811 29.030103 36.763006 -0.801092 0.660549 0.005658 0.000481 178002.000000 0 0 1
16.242418 -17.108911 29.970593 38.141414 -0.811373 0.666847 0.008720 0.000617 -122691.000000 0 0 1
16.737218 -18.369711 29.223283 38.361192 -0.831865 0.704720 0.007460 0.000225 227800.000000 0 0 1
17.908118 -18.224411 28.428873 38.223431 -0.794152 0.732126 0.011661 -0.000562 485566.000000 0 0 1
18.256518 -19.446411 27.799753 38.526480 -0.816947 0.764721 0.004068 0.000955 335944.000000 0 0 1
19.409818 -19.376311 26.739993 38.304174 -0.784534 0.798061 -0.003361 0.003057 293871.000000 0 0 1
20.670418 -18.976911 27.232413 39.102349 -0.742710 0.800373 -0.004037 -0.008223 -331515.000000 0 0 1
21.315618 -18.273711 26.215333 38.412599 -0.708712 0.819664 -0.006591 -0.002895 -814586.000000 0 0 1
22.767618 -17.991811 26.570493 39.345404 -0.668759 0.829406 -0.004085 -0.009744 -873974.000000 0 0 1
23.439618 -19.199711 26.860593 40.491185 -0.686287 0.845484 -0.005602 -0.011315 862397.000000 0 0 1
24.861518 -19.008411 27.020003 41.346044 -0.652762 0.858585 0.002012 -0.011180 949624.000000 0 0 1
25.572218 -20.365111 27.167703 42.506002 -0.672528 0.877404 -0.006818 -0.005842 -340551.000000 0 0 1
25.173118 -21.070711 28.303223 43.344356 -0.696917 0.859277 0.003959 -0.001680 -219382.000000 0 0 1
25.984018 -22.192211 28.505653 44.499839 -0.706853 0.875545 0.011710 -0.008489 46679.300000 0 0 1
25.361718 -23.168311 29.532263 45.300574 -0.740232 0.860685 0.016095 -0.008530 87306.800000 0 0 1
25.308218 -22.696511 30.895533 45.936603 -0.731047 0.833122 0.013440 -0.002244 -164900.000000 0 0 1
24.506418 -23.598611 31.622003 46.447929 -0.766529 0.821935 0.016487 -0.005476 -224162.000000 0 0 1
24.389518 -23.461711 33.116983 47.350133 -0.766011 0.796230 0.017257 -0.000323 -114198.000000 0 0 1
23.946918 -24.691711 33.675083 48.136750 -0.800710 0.795999 0.012183 -0.002828 133490.000000 0 0 1
23.645118 -24.573911 -34.302876 48.369991 -0.804658 2.359126 0.015303 -0.000841 -400245.000000 0 0 1
23.236018 -25.894081 -33.573014 48.348353 -0.839448 2.338380 0.009519 -0.002310 315911.000000 0 0 1
22.032318 -26.568401 -33.879824 48.364713 -0.878462 2.346904 0.007605 -0.005570 -79623.600000 0 0 1
21.782718 -26.907681 34.093825 48.589084 -0.890268 0.793048 0.009595 -0.009147 -321423.000000 0 0 1
20.476118 -27.699851 33.955791 48.368884 -0.934234 0.792570 0.009420 -0.013344 19263.000000 0 0 1
20.640218 -29.041051 34.380337 49.511704 -0.952908 0.803227 0.007599 -0.007938 296658.000000 0 0 1
19.433018 -29.780531 34.260583 49.379244 -0.992637 0.804009 -0.004891 -0.005003 96798.200000 0 0 1
19.656818 -31.276971 34.521433 50.560546 -1.009701 0.819243 -0.006506 -0.002234 -636085.000000 0 0 1
20.166118 -31.433061 -33.598734 50.235292 -1.000379 2.303427 -0.006621 -0.003398 -166705.000000 0 0 1
20.530818 -32.780281 -33.504974 51.172694 -1.011251 2.284639 -0.024140 0.007846 -369222.000000 0 0 1
21.329118 -33.050961 -32.215344 50.844132 -0.997704 2.257007 -0.016312 0.007362 -1079260.000000 0 0 1
22.034718 -34.276525 -32.355344 52.031503 -0.999463 2.241888 -0.030848 0.005991 923557.000000 0 0 1
22.907118 -34.593875 -31.238844 51.935899 -0.985911 2.216159 -0.021685 0.000428 733990.000000 0 0 1
24.040418 -33.616371 -30.827504 51.559065 -0.949981 2.211683 -0.009991 -0.002434 -905447.000000 0 0 1
24.487118 -33.897541 -29.482234 51.165070 -0.945203 2.184890 -0.008317 -0.004932 -415124.000000 0 0 1
25.425418 -32.942051 -29.109424 50.783749 -0.913474 2.181206 -0.002660 0.005224 -504779.000000 0 0 1
25.850618 -33.103501 -27.577884 50.245756 -0.907809 2.151796 -0.001782 -0.002688 -575036.000000 0 0 1
27.004218 -33.833121 -27.400714 51.231895 -0.897179 2.135111 -0.005755 -0.002672 -990235.000000 0 0 1
27.375518 -33.769401 -26.065624 50.687358 -0.889589 2.110921 -0.003048 0.002697 124639.000000 0 0 1
-25.834082 -30.496220 9.459946 41.072008 0.867974 1.338384 0.020534 -0.007735 -86175.600000 0 0 1
-25.907832 -31.839520 9.854346 42.214677 0.887757 1.335188 0.012442 -0.004137 -347678.000000 0 0 1
-24.736682 -32.193620 10.537346 41.944824 0.915640 1.316857 0.003679 -0.003888 -335764.000000 0 0 1
-24.812382 -33.434120 11.435146 43.177045 0.932353 1.302755 -0.006985 -0.000113 32192.300000 0 0 1
-24.673382 34.740389 10.816346 43.962071 -0.953243 1.322206 -0.005046 0.004237 79245.700000 0 0 1
-24.914582 33.654689 11.756546 43.492423 -0.933532 1.297079 -0.012204 0.007320 34877.800000 0 0 1
-24.641182 32.343689 11.011646 42.125507 -0.919751 1.306323 -0.009728 0.009072 899487.000000 0 0 1
-25.671002 31.989989 10.015746 42.221735 -0.894551 1.331295 -0.003345 0.008881 932062.000000 0 0 1
-25.580742 30.655189 9.485846 41.037741 -0.875389 1.337537 -0.000970 0.009473 -342383.000000 0 0 1
-24.799482 30.561689 8.168346 40.196430 -0.889109 1.366160 -0.001068 0.011967 1182340.000000 0 0 1
-23.360782 30.528989 8.357046 39.339363 -0.917638 1.356730 -0.008082 0.009007 1240630.000000 0 0 1
-22.741282 30.367189 7.099946 38.597167 -0.928014 1.385793 -0.012835 0.010230 261754.000000 0 0 1
-21.452082 29.475689 7.151546 37.150406 -0.941662 1.377085 0.016082 0.013117 168078.000000 0 0 1
-21.583782 28.051389 7.245046 36.127977 -0.914971 1.368889 0.006976 0.011231 50845.200000 0 0 1
-22.027082 27.417989 6.077646 35.691402 -0.893997 1.399679 -0.001740 0.010982 -943129.000000 0 0 1
-22.281382 25.877889 6.134546 34.695212 -0.859939 1.393049 -0.001627 0.013538 -950795.000000 0 0 1
-23.175282 25.485589 7.127546 35.176851 -0.832840 1.366763 0.003580 0.014650 54813.100000 0 0 1
-23.386382 24.083789 7.319046 34.358698 -0.800089 1.356133 0.007712 -0.005234 -253114.000000 0 0 1
-23.941682 23.260589 6.155046 33.943242 -0.770970 1.388454 0.002780 -0.011297 -658577.000000 0 0 1
-25.302122 23.596589 5.924846 35.101284 -0.750533 1.401192 0.010156 -0.008603 399072.000000 0 0 1
-25.909302 23.022189 4.777946 34.987739 -0.726463 1.433808 0.011954 -0.014898 151815.000000 0 0 1
-25.624782 23.825989 3.459346 35.160692 -0.749039 1.472250 0.008948 -0.016869 -408373.000000 0 0 1
-24.275582 23.803589 3.075746 34.137588 -0.775581 1.480575 0.001032 -0.009464 -60063.800000 0 0 1
-24.041582 24.836089 2.111146 34.630707 -0.801652 1.509797 0.007047 -0.003007 851285.000000 0 0 1
-22.509682 25.198289 1.966546 33.845337 -0.841694 1.512660 0.002995 0.003311 918961.000000 0 0 1
-22.306982 26.023189 0.855946 34.286155 -0.862139 1.545829 0.003668 -0.002743 -90592.300000 0 0 1
-21.050682 26.675289 0.906846 33.993008 -0.902709 1.544116 -0.007450 -0.000683 -378628.000000 0 0 1
-20.505482 27.239589 -0.441454 34.097872 -0.925517 1.583743 -0.006966 0.001497 70156.700000 0 0 1
-20.183682 26.361489 -1.485054 33.234236 -0.917354 1.615496 -0.008909 -0.001924 439225.000000 0 0 1
-19.150982 25.412889 -1.180854 31.842887 -0.924999 1.607889 -0.009097 0.000737 65174.700000 0 0 1
-18.735582 24.601089 -2.441554 31.019297 -0.919928 1.649589 -0.014851 -0.004568 21587.700000 0 0 1
-19.919382 23.947289 -2.908554 31.284406 -0.876963 1.663902 -0.009814 -0.009292 573476.000000 0 0 1
-19.702982 22.841889 -3.772654 30.400531 -0.859043 1.695215 -0.009371 -0.004432 -426063.000000 0 0 1
-21.065082 22.385589 -4.304554 31.038386 -0.815780 1.709930 -0.013206 -0.008809 -254481.000000 0 0 1
-21.487982 23.267189 -5.307454 32.113307 -0.825131 1.736831 -0.009435 -0.001012 -554317.000000 0 0 1
-22.624182 22.720789 -5.912254 32.604334 -0.787529 1.753138 0.001595 0.000332 -252708.000000 0 0 1
-22.883682 23.446589 -7.265154 33.558723 -0.797547 1.789015 -0.000997 0.006461 105636.000000 0 0 1
-21.975482 23.113389 -8.308254 32.957209 -0.810630 1.825638 -0.012535 0.007737 123066.000000 0 0 1
-22.030782 24.079589 -9.308554 33.938637 -0.829802 1.848633 -0.010064 0.006847 -114521.000000 0 0 1
-21.235982 23.672989 -10.576454 33.514753 -0.839610 1.891860 -0.016092 0.007167 -190094.000000 0 0 1
-21.704982 22.468389 -11.124354 33.161513 -0.802679 1.912890 -0.017284 0.002644 -346569.000000 0 0 1
-20.814182 22.077489 -12.123054 32.674365 -0.814843 1.950910 -0.018225 0.005929 -149899.000000 0 0 1
-21.413082 21.716689 -13.501254 33.352938 -0.792437 1.987556 -0.011232 0.001848 -164952.000000 0 0 1
-22.268182 20.605189 -13.608854 33.251265 -0.746629 1.992454 -0.011435 0.005231 -131917.000000 0 0 1
-22.964782 20.626289 -14.798054 34.231672 -0.731803 2.017829 -0.007578 -0.003099 -52638.700000 0 0 1
-23.954982 19.441889 -14.958954 34.287002 -0.681775 2.022264 -0.005957 -0.002356 486869.000000 0 0 1
-23.388282 18.343889 -15.678254 33.605321 -0.665106 2.056172 -0.018977 0.004839 557335.000000 0 0 1
-24.436282 17.388189 -15.797054 33.897314 -0.618451 2.055591 0.013607 0.006923 559258.000000 0 0 1
-24.160482 16.400289 -16.909454 33.743562 -0.596360 2.095685 0.022442 0.003813 170367.000000 0 0 1
-23.351782 15.285289 -16.576454 32.461124 -0.579579 2.106743 0.027266 0.012051 -12487.600000 0 0 1
-23.128482 14.481289 -17.721954 32.537702 -0.559407 2.146779 0.029419 -0.002376 318744.000000 0 0 1
-22.295582 13.168989 -17.483854 31.244205 -0.533520 2.164684 0.022899 0.003953 -405001.000000 0 0 1
-21.026682 13.328489 -16.966054 30.126681 -0.564963 2.168998 0.017548 0.006130 -1016410.000000 0 0 1
-20.366482 12.108689 -16.901654 29.104636 -0.536395 2.190410 0.017160 0.000495 -118911.000000 0 0 1
-19.081582 12.277689 -16.050754 27.793436 -0.571744 2.186461 0.013129 0.007937 229957.000000 0 0 1
-18.122182 13.163489 -16.617154 27.889437 -0.628208 2.209086 0.007868 0.009744 409064.000000 0 0 1
-17.021282 13.465189 -15.788354 26.838544 -0.669278 2.199716 0.012144 0.013424 -14108.900000 0 0 1
-16.260482 14.717589 -16.137254 27.229059 -0.735633 2.205139 0.006494 0.017453 -285658.000000 0 0 1
-15.681882 14.672489 -17.404854 27.642943 -0.752157 2.251874 0.012516 0.010276 -211813.000000 0 0 1
-14.834982 15.773789 -17.643554 27.931775 -0.816060 2.254497 0.011814 0.006282 -461893.000000 0 0 1
-14.066282 15.554189 -18.908754 28.237104 -0.835588 2.304523 0.012140 0.008546 -353267.000000 0 0 1
-13.199682 14.430489 -18.788554 27.119741 -0.829914 2.336161 0.010433 0.008881 -53916.500000 0 0 1
-12.258582 14.491789 -19.861254 27.472790 -0.868688 2.378848 0.014811 0.002128 674469.000000 0 0 1
-11.157082 13.383689 -19.699354 26.299584 -0.875881 2.417403 0.005798 0.002550 406272.000000 0 0 1
-11.646182 12.103889 -20.036254 26.145538 -0.804668 2.443914 0.006066 0.005123 -148161.000000 0 0 1
-10.662982 11.102589 -19.957354 25.204417 -0.805593 2.484579 -0.010522 0.018216 -195538.000000 0 0 1
-11.051582 9.776789 -20.650154 25.380148 -0.724270 2.521172 -0.007234 0.010259 -166053.000000 0 0 1
-10.829082 9.823889 -22.069754 26.473606 -0.736766 2.556482 0.003124 0.006017 -203382.000000 0 0 1
-11.179882 8.742689 -22.847054 26.896324 -0.663670 2.585736 -0.003495 0.013876 -511165.000000 0 0 1
-11.162082 8.947889 -24.375954 28.263827 -0.675736 2.610874 0.000380 0.001998 -638599.000000 0 0 1
-9.904282 9.171489 -24.952354 28.369543 -0.747002 2.645706 0.000022 0.002539 -609938.000000 0 0 1
-9.710382 8.530489 -26.228534 29.240327 -0.720804 2.683728 -0.009467 -0.003279 -304725.000000 0 0 1
-9.542582 9.551289 -27.366824 30.516078 -0.785854 2.683280 -0.004816 -0.003339 453207.000000 0 0 1
-8.298182 10.262989 -27.362514 30.379202 -0.890861 2.692172 -0.019784 -0.006117 625468.000000 0 0 1
-8.110882 11.242889 -26.339574 29.765115 -0.945837 2.657106 -0.017513 -0.003277 40920.100000 0 0 1
-6.589282 11.600889 -26.389654 29.570477 -1.054240 2.673504 -0.008315 -0.004658 467319.000000 0 0 1
-6.191582 12.359889 -27.511754 30.789595 -1.106396 2.675967 -0.019087 -0.006824 396065.000000 0 0 1
-4.795382 12.628389 -27.499184 30.637836 -1.207885 2.684992 -0.007650 -0.004777 205127.000000 0 0 1
-4.223382 12.927289 -28.880594 31.922413 -1.255025 2.701500 -0.007970 0.003511 -156532.000000 0 0 1
-2.814182 13.042689 -28.948174 31.875196 -1.358287 2.709694 -0.001164 0.005269 94829.500000 0 0 1
-2.450682 12.833089 -30.278754 32.977219 -1.382102 2.734237 -0.003754 0.009253 302075.000000 0 0 1
-0.906182 12.954789 -30.449734 33.103384 -1.500961 2.738462 0.000397 0.013609 350933.000000 0 0 1
-0.288882 11.758889 -29.951754 32.178603 -1.546234 2.767384 -0.001690 0.019136 561645.000000 0 0 1
1.113218 11.662289 -30.214484 32.406223 1.475630 2.771702 0.010976 0.016445 638891.000000 0 0 1
1.474518 10.885489 -31.493444 33.354236 1.436159 2.805988 0.005804 0.023185 -433887.000000 0 0 1
1.299018 11.535189 -32.693974 34.693572 1.458655 2.800423 0.014589 0.013156 336258.000000 0 0 1
1.420918 10.663589 -33.782804 35.454322 1.438327 2.833304 0.015948 0.008978 -89030.100000 0 0 1
1.621418 11.454389 34.270442 36.170363 1.430176 0.325556 0.010701 0.005783 -160775.000000 0 0 1
2.922318 11.999989 34.109196 36.276396 1.331919 0.347407 0.004566 0.000468 85429.000000 0 0 1
2.995918 12.832789 32.969243 35.505309 1.341446 0.380249 0.008314 0.002601 713107.000000 0 0 1
4.495218 13.189389 32.659473 35.507860 1.242322 0.403273 0.002871 0.003543 1022160.000000 0 0 1
5.152118 12.030589 32.106683 34.671580 1.166175 0.387059 0.000484 0.001554 -351220.000000 0 0 1
6.491218 12.238189 31.762023 34.651627 1.083120 0.411280 0.016224 0.008371 -611323.000000 0 0 1
7.150418 10.953489 31.238243 33.866432 0.992456 0.396559 0.010533 0.008940 -300009.000000 0 0 1
6.669618 10.604089 29.921323 32.437880 1.009350 0.396498 0.000312 0.002150 193720.000000 0 0 1
7.565418 9.674489 29.318363 31.786753 0.907130 0.396689 -0.002367 0.000964 269999.000000 0 0 1
6.933418 8.758189 28.240973 30.369898 0.901168 0.376655 -0.009884 0.000037 184659.000000 0 0 1
5.997518 7.812989 28.738653 30.379651 0.916104 0.330181 -0.012292 -0.006241 -50802.600000 0 0 1
5.692018 6.850189 27.739273 29.134025 0.877479 0.310679 -0.004690 0.003566 -710923.000000 0 0 1
4.895718 5.723889 28.298933 29.284135 0.863226 0.260128 0.005274 -0.012806 -551355.000000 0 0 1
5.683618 4.897389 29.124323 30.075141 0.711229 0.252122 0.002245 -0.012747 359046.000000 0 0 1
4.885118 3.982889 29.925973 30.582538 0.684007 0.207586 0.002218 -0.014409 -266463.000000 0 0 1
5.646618 2.881889 30.670893 31.319216 0.471913 0.203825 0.009120 -0.008133 -152933.000000 0 0 1
5.912818 1.667989 29.951963 30.575541 0.274952 0.202308 0.014487 -0.006281 -119640.000000 0 0 1
6.972318 1.731089 29.019173 29.895188 0.243359 0.242681 0.016627 -0.010694 -385529.000000 0 0 1
7.141618 0.498589 28.207913 29.102193 0.069701 0.248546 0.011854 -0.015059 -121598.000000 0 0 1
7.445518 -0.660611 28.950893 29.900274 -0.088494 0.252670 -0.003878 -0.003265 -31757.100000 0 0 1
7.537318 -1.862511 28.155123 29.206011 -0.242252 0.269072 0.002608 0.004349 -347973.000000 0 0 1
8.143318 -3.028411 28.949343 30.224979 -0.356041 0.291565 -0.004998 0.015265 327974.000000 0 0 1
9.535918 -2.885211 29.170023 30.824478 -0.293806 0.329122 -0.013053 0.005589 341309.000000 0 0 1
10.281718 -4.098211 28.919973 30.965689 -0.379292 0.365526 -0.011992 0.007778 627928.000000 0 0 1
11.782518 -4.022511 29.312513 31.847005 -0.328990 0.401651 -0.010665 -0.000371 504696.000000 0 0 1
12.687418 -5.046211 28.961413 32.018718 -0.378551 0.440555 -0.011515 0.002021 261672.000000 0 0 1
12.646618 -6.181311 29.791523 32.949665 -0.454625 0.441405 0.002289 0.000528 -856914.000000 0 0 1
11.858418 -7.377311 29.276483 32.437005 -0.556523 0.445108 -0.001896 0.003035 -141488.000000 0 0 1
10.461918 -7.121511 29.211863 31.835524 -0.597661 0.408829 0.001241 -0.000229 3399.100000 0 0 1
9.827518 -8.237211 28.602993 31.345861 -0.697591 0.421450 0.008216 -0.003525 -221090.000000 0 0 1
8.309918 -8.144711 28.458533 30.745393 -0.775358 0.388127 0.014835 -0.001163 -232385.000000 0 0 1
7.646118 -7.858011 29.682823 31.643032 -0.799064 0.353830 0.012455 0.005766 -270951.000000 0 0 1
6.256518 -7.975211 29.529763 31.221065 -0.905581 0.330660 0.010286 0.019389 140336.000000 0 0 1
5.407918 -7.306011 30.698903 32.016340 -0.933596 0.287869 0.011618 0.010896 361762.000000 0 0 1
5.620118 -7.947411 31.997823 33.445594 -0.955279 0.295308 0.010575 0.007018 28849.100000 0 0 1
5.057118 -7.354211 33.163303 34.343319 -0.968408 0.262899 0.002104 0.005312 -141701.000000 0 0 1
5.736318 -6.080011 33.693048 34.714455 -0.814476 0.243181 0.005803 0.010511 12953.500000 0 0 1
5.525618 -4.992511 32.826483 33.660594 -0.734757 0.223083 0.011747 0.008066 -341038.000000 0 0 1
6.182518 -3.875811 33.307872 34.097797 -0.559963 0.215669 0.006668 0.009295 -320004.000000 0 0 1
6.211018 -2.729911 32.298363 33.003233 -0.414111 0.207046 0.009309 0.007263 -167408.000000 0 0 1
4.966018 -2.133311 32.044593 32.497204 -0.405745 0.167094 0.013880 0.009364 -380274.000000 0 0 1
5.107418 -0.739511 31.766793 32.183252 -0.143792 0.161048 0.010000 0.005944 94603.100000 0 0 1
3.734918 -0.081011 31.503383 31.724113 -0.021687 0.118033 0.020484 0.002922 -33967.300000 0 0 1
2.881018 -0.021211 32.601213 32.728272 -0.007362 0.088145 0.011772 0.002881 -647862.000000 0 0 1
1.803518 0.847389 32.454913 32.516029 0.439241 0.061321 0.020010 -0.001174 105535.000000 0 0 1
0.783518 0.887289 33.653989 33.674800 0.847426 0.035159 0.013527 -0.003328 420939.000000 0 0 1
1.117918 1.933689 34.585240 34.657290 1.046615 0.064492 0.001884 0.001920 213026.000000 0 0 1
0.418318 1.749089 -33.560694 33.608845 1.336042 3.088057 -0.005501 0.004211 -62875.100000 0 0 1
0.717018 2.858189 -32.563524 32.696582 1.325004 3.051346 -0.004490 0.009308 -574175.000000 0 0 1
1.939618 2.726189 -31.933454 32.108250 0.952410 3.037200 -0.011592 0.009867 -816959.000000 0 0 1
2.306118 3.878889 -31.264074 31.588072 1.034408 2.998243 -0.007387 0.012417 -30621.100000 0 0 1
3.510818 3.571689 -30.355974 30.766345 0.793992 2.978081 -0.007578 0.012440 -189851.000000 0 0 1
3.073118 2.737689 -29.318234 29.605706 0.727737 3.002124 -0.010485 0.002697 34678.200000 0 0 1
3.972718 2.737889 -28.222144 28.631590 0.603422 2.972272 -0.007556 0.002885 -208153.000000 0 0 1
3.609418 1.964589 -26.914514 27.226431 0.498453 2.990078 -0.015345 0.000717 -217687.000000 0 0 1
3.908018 0.618689 -27.001494 27.289853 0.157010 2.996092 -0.003772 -0.004326 14499.500000 0 0 1
3.474018 -0.107611 -25.832154 26.064930 -0.030966 3.007847 0.006723 -0.007254 -81054.500000 0 0 1
3.871418 -1.584411 -25.717444 26.055425 -0.388462 2.980349 0.003363 -0.003271 496132.000000 0 0 1
5.199218 -1.807311 -25.252414 25.845360 -0.334546 2.926975 -0.000979 -0.004323 50943.700000 0 0 1
5.493718 -3.166911 -25.067154 25.856768 -0.522931 2.893824 0.001261 -0.013815 -537127.000000 0 0 1
6.890618 -3.462711 -24.519554 25.703687 -0.465666 2.836874 0.007805 -0.014780 -241641.000000 0 0 1
7.877218 -3.148211 -25.471854 26.847293 -0.380213 2.820110 -0.005706 0.007451 -262103.000000 0 0 1
9.025418 -3.965411 -25.237144 27.094208 -0.413971 2.769199 -0.001688 0.008257 432569.000000 0 0 1
-28.383082 -4.746911 17.659353 33.763667 0.165711 1.020396 0.010484 -0.003647 -158248.000000 0 0 1
-29.614852 -4.293711 18.175653 35.011852 0.143982 1.024965 -0.001474 0.001279 -24403.300000 0 0 1
-30.192872 -5.061411 19.205253 36.139578 0.166092 1.010522 -0.010384 -0.000454 -932549.000000 0 0 1
-31.656282 -4.869611 19.441453 37.467364 0.152631 1.025244 -0.011224 -0.002273 -791561.000000 0 0 1
-32.532512 -5.328211 18.411753 37.759063 0.162340 1.061444 -0.014044 0.002520 6375.300000 0 0 1
-33.871012 -5.159211 18.783453 39.072765 0.151158 1.069309 -0.017842 0.005237 -244178.000000 0 0 1
34.693050 -5.238011 17.630453 39.266746 -0.149850 1.105159 -0.010443 0.004086 244323.000000 0 0 1
33.362936 -5.268311 18.082553 38.312130 -0.156616 1.079261 -0.005394 0.001520 -857186.000000 0 0 1
32.415756 -5.284711 17.082453 37.020529 -0.161607 1.091188 -0.001778 0.001531 603632.000000 0 0 1
31.001716 -5.733011 17.627353 36.120595 -0.182860 1.060983 0.008062 0.001107 768316.000000 0 0 1
30.494516 -4.847611 18.648653 36.071971 -0.157648 1.027472 0.009309 -0.005606 111415.000000 0 0 1
29.391306 -5.335611 19.363953 35.598880 -0.179581 0.995661 0.004623 -0.007325 -13914.900000 0 0 1
29.016366 -4.583911 20.683153 35.927073 -0.156682 0.957338 0.008178 -0.004802 -137273.000000 0 0 1
28.302126 -3.355911 20.509653 35.112937 -0.118023 0.947019 0.015137 -0.010026 -18250.700000 0 0 1
28.953666 -2.183511 20.005053 35.260241 -0.075272 0.967507 0.010123 -0.004271 -74892.300000 0 0 1
28.146976 -0.878211 20.281553 34.703961 -0.031191 0.946636 0.031378 -0.003699 -69844.400000 0 0 1
28.500896 0.267989 19.551253 34.563338 0.009403 0.969558 0.017910 -0.003155 427996.000000 0 0 1
27.618406 1.384289 19.806353 34.014471 0.050080 0.949251 0.032786 0.000353 761452.000000 0 0 1
28.163576 2.652789 18.979053 34.065066 0.093915 0.979857 0.012428 0.002326 179267.000000 0 0 1
27.958686 2.494089 17.599653 33.130897 0.088971 1.010762 0.013450 0.005393 128643.000000 0 0 1
28.080466 3.727289 16.948953 33.010184 0.131965 1.031600 0.007516 0.011435 32673.900000 0 0 1
27.677316 3.562189 15.460853 31.902366 0.128001 1.064856 0.000866 0.011223 -318355.000000 0 0 1
27.430016 4.825389 14.904453 31.588492 0.174135 1.079429 -0.007595 0.019028 67317.600000 0 0 1
26.897666 4.778189 13.639753 30.534544 0.175809 1.107724 -0.004912 0.022176 -382662.000000 0 0 1
26.600026 6.161489 13.085153 30.277823 0.227620 1.123899 -0.010500 0.020604 -224584.000000 0 0 1
25.519236 6.754389 13.755053 29.766670 0.258745 1.090439 0.004510 0.013876 -61790.700000 0 0 1
25.011306 7.878889 13.111653 29.318215 0.305173 1.107143 0.005980 0.002515 -197972.000000 0 0 1
23.764406 8.520389 13.824553 28.783020 0.344259 1.069797 0.010452 -0.002009 1492480.000000 0 0 1
22.513306 7.845189 13.529553 27.412492 0.335310 1.054625 0.014036 -0.000772 1265120.000000 0 0 1
22.186106 6.622189 14.164453 27.142373 0.290065 1.021769 0.011107 0.000940 425437.000000 0 0 1
20.755506 5.979689 13.910653 25.691515 0.280505 0.998636 0.020620 0.002764 788398.000000 0 0 1
20.483606 5.870889 12.557953 24.733532 0.279131 1.038249 0.016636 0.002883 369027.000000 0 1 0
19.506906 4.912589 12.210153 23.531696 0.246708 1.025255 0.022301 -0.001043 -294702.000000 0 1 0
19.396906 4.763489 10.716153 22.666422 0.240814 1.078357 0.032747 -0.005183 -584928.000000 0 1 0
20.402706 3.989989 10.184053 23.149629 0.193124 1.115283 0.029468 -0.005880 255.173000 0 1 0
20.079306 3.862489 8.836253 22.275024 0.190040 1.162889 0.035698 -0.012685 269419.000000 0 1 0
21.249306 3.156789 8.100153 22.958893 0.147481 1.210223 0.031533 -0.007152 -556508.000000 0 1 0
21.398806 1.823989 8.559253 23.119183 0.085032 1.191547 0.015230 -0.004395 793697.000000 0 1 0
22.134306 1.001789 7.636053 23.435878 0.045229 1.238909 -0.000698 -0.003014 -1091420.000000 0 1 0
23.657106 1.033789 7.643153 24.882628 0.043671 1.258580 0.001427 0.000332 -741900.000000 0 1 0
24.352806 0.415589 8.733153 25.874695 0.017064 1.226518 -0.007509 0.018307 571474.000000 0 0 1
24.267606 1.095789 9.945253 26.249295 0.045124 1.182214 -0.005428 0.015171 -773814.000000 0 0 1
24.997076 0.434989 11.156553 27.377211 0.017400 1.151068 -0.008850 0.016485 -409514.000000 0 0 1
26.392086 0.530089 11.178353 28.666684 0.020082 1.170227 -0.003338 0.012563 -179990.000000 0 0 1
26.914556 -0.093311 12.360353 29.617230 -0.003467 1.140284 -0.007486 0.009447 -189483.000000 0 0 1
28.427496 0.115089 12.474053 31.044126 0.004048 1.157296 -0.014509 0.010268 -336700.000000 0 0 1
28.759706 1.371489 12.954853 31.572613 0.047652 1.147992 -0.011212 0.011878 994422.000000 0 0 1
30.190836 1.536689 12.857753 32.850720 0.050855 1.168644 -0.012829 0.016917 1070230.000000 0 0 1
30.786716 2.869089 13.335653 33.673330 0.092924 1.163607 -0.016898 0.015746 -1014070.000000 0 0 1
30.451816 3.928289 12.489653 33.147186 0.128292 1.184464 -0.018803 0.012843 121191.000000 0 0 1
31.114246 5.145589 12.758953 34.020057 0.163894 1.186354 -0.018340 0.006222 279511.000000 0 0 1
32.613376 5.201589 12.348253 35.258590 0.158160 1.212991 -0.023120 0.009037 -188029.000000 0 0 1
33.380516 4.270189 13.057653 36.097031 0.127234 1.200665 -0.025929 0.012582 358587.000000 0 0 1
34.735793 4.287889 12.566553 37.187088 0.122822 1.226082 -0.019324 0.013221 955364.000000 0 0 1
-33.941952 3.213989 13.242053 36.575098 -0.094409 1.200329 -0.009522 0.015970 -390226.000000 0 0 1
-34.119493 1.838589 12.875653 36.514417 -0.053835 1.210429 -0.002817 0.018047 -32428.700000 0 0 1
34.314662 1.155889 13.289753 36.816431 0.033672 1.201485 -0.010509 0.024267 -270961.000000 0 0 1
34.129332 0.859589 14.787453 37.205093 0.025181 1.162052 -0.014758 0.021510 -24368.500000 0 0 1
-34.633086 -0.197411 15.327253 37.873662 0.005700 1.154152 -0.012961 0.014013 463699.000000 0 0 1
34.578648 -0.620611 16.649853 38.383403 -0.017946 1.122115 -0.019263 0.011346 -945431.000000 0 0 1
-34.037802 -1.494211 17.404953 38.258816 0.043870 1.098507 -0.020605 0.006164 -249076.000000 0 0 1
-32.824152 -0.758711 17.637453 37.270368 0.023110 1.077843 -0.019682 0.005629 347796.000000 0 0 1
-31.890292 -1.431511 18.455053 36.873146 0.044859 1.046619 -0.017181 -0.000326 84322.200000 0 0 1
-32.101082 -1.074811 19.955853 37.813632 0.033470 1.014856 -0.019886 -0.004496 -310462.000000 0 0 1
-33.191302 -1.713311 20.566053 39.084018 0.051574 1.016669 -0.018930 -0.008815 -59373.200000 0 0 1
-33.065162 -1.493311 21.969453 39.726462 0.045132 0.984814 -0.015409 -0.004885 13883.300000 0 0 1
-33.569192 -2.731011 22.745053 40.640946 0.081176 0.976823 -0.013726 0.003781 -220848.000000 0 0 1
-32.788202 -3.926311 22.661353 40.050206 0.119180 0.969365 -0.007536 0.002595 70486.100000 0 0 1
-33.212282 -5.011111 23.487853 40.985926 0.149752 0.960548 -0.002566 0.002114 -198609.000000 0 0 1
-33.391602 -4.947511 25.034223 42.026054 0.147096 0.932680 -0.002599 -0.001446 270941.000000 0 0 1
-32.148222 -4.524511 25.555303 41.316496 0.139821 0.903932 -0.004790 -0.002921 -144865.000000 0 0 1
-32.199952 -4.498611 26.943273 42.225755 0.138810 0.878798 -0.002455 -0.007016 483232.000000 0 0 1
-31.070562 -3.570311 27.498253 41.644698 0.114408 0.849570 0.005646 -0.005755 127191.000000 0 0 1
-31.222402 -2.189311 27.332933 41.553829 0.070005 0.852940 0.009070 -0.002759 47628.800000 0 0 1
-30.518472 -1.643411 26.191983 40.250440 0.053798 0.862257 0.007547 -0.006095 142902.000000 0 0 1
-30.540722 -0.100411 26.194283 40.235385 0.003288 0.861861 0.001893 -0.004559 -703501.000000 0 0 1
-31.794572 0.424889 25.924993 41.026584 -0.013363 0.886785 0.002401 -0.005683 -692465.000000 0 0 1
-31.777002 1.742689 25.524273 40.795874 -0.054786 0.894821 -0.004384 -0.003310 4167.120000 0 0 1
-33.105862 2.341789 24.996053 41.548583 -0.070619 0.925281 -0.010210 -0.000441 66209.800000 0 0 1
-33.611532 1.701189 23.828153 41.236028 -0.050570 0.954707 -0.017373 0.004095 -141961.000000 0 0 1
-34.659701 2.440389 23.231053 41.796318 -0.070294 0.981452 -0.014732 0.008371 -228657.000000 0 0 1
-34.336184 3.781589 22.467553 41.207583 -0.109692 0.994135 -0.021885 0.011873 -274405.000000 0 0 1
-33.581822 3.613289 21.253753 39.906348 -0.107184 1.009138 -0.022594 0.000118 -52811.200000 0 0 1
-34.403266 3.285789 20.150353 40.005222 -0.095219 1.042928 -0.029684 -0.001516 -290723.000000 0 0 1
-33.746792 2.329389 19.128353 38.860853 -0.068916 1.056150 -0.029901 -0.000854 47680.300000 0 0 1
-32.653002 2.927289 18.444153 37.616144 -0.089409 1.058333 -0.020074 0.006903 227416.000000 0 0 1
-32.415782 2.342289 17.198953 36.770548 -0.072132 1.084067 -0.017319 0.005317 340955.000000 0 0 1
-31.342962 3.075089 16.302853 35.462945 -0.097798 1.093122 -0.013628 0.009094 396771.000000 0 0 1
-31.781032 4.366289 16.109053 35.897076 -0.136532 1.105423 -0.007227 0.000158 21297.000000 0 0 1
-31.127362 5.047489 15.075853 34.952412 -0.160757 1.124835 0.000775 0.001596 -467266.000000 0 0 1
-31.505742 6.574789 14.928353 35.478096 -0.205733 1.136495 0.004088 -0.008177 -150121.000000 0 0 1
-30.925692 7.198589 13.799753 34.621543 -0.228698 1.160819 0.003562 -0.005765 45953.300000 0 0 1
-31.359422 8.525789 13.624253 35.238085 -0.265457 1.173817 0.005924 -0.006162 -210628.000000 0 0 1
-30.714582 9.288389 12.454553 34.420569 -0.293666 1.200561 0.004877 -0.004343 99681.700000 0 0 1
-31.227242 10.588489 12.230253 35.168676 -0.326912 1.215616 0.007211 -0.002522 337200.000000 0 0 1
-30.305782 11.134589 11.326153 34.215511 -0.352098 1.233408 -0.006918 -0.000781 73092.900000 0 0 1
-30.704392 12.627289 10.972453 34.965738 -0.390170 1.251598 -0.001943 -0.005764 132647.000000 0 0 1
-29.679162 13.291089 10.236153 34.092294 -0.421044 1.265843 -0.007475 -0.000586 367044.000000 0 0 1
-29.859332 14.680489 10.179253 34.795310 -0.456949 1.273907 0.002845 -0.002347 -49128.800000 0 0 1
-28.989412 15.450989 9.146553 34.099538 -0.489688 1.299240 0.000531 -0.009586 -166989.000000 0 0 1
-27.715812 15.828089 9.612553 33.333103 -0.518887 1.278263 0.005930 -0.002484 -525164.000000 0 0 1
-27.054922 16.460589 8.574353 32.809134 -0.546583 1.306386 0.000336 -0.009672 -232416.000000 0 0 1
-25.560572 16.609189 8.975053 31.776714 -0.576233 1.284458 0.005499 -0.009589 -244809.000000 0 0 1
-25.302522 17.321689 10.163453 32.304091 -0.600304 1.250742 0.004939 -0.012005 171389.000000 0 0 1
-25.765122 18.688689 10.349253 33.469622 -0.627536 1.256431 0.002903 -0.013267 -147006.000000 0 0 1
-25.585382 19.147489 11.815653 34.071216 -0.642461 1.216647 0.009963 0.000567 17178.100000 0 0 1
-24.227582 19.201489 12.206353 33.236545 -0.670180 1.194738 -0.000748 0.009546 141906.000000 0 0 1
-23.958082 19.744689 13.502953 33.855164 -0.689285 1.160540 0.005741 0.004100 220580.000000 0 0 1
-24.454582 18.905789 14.778053 34.261440 -0.658121 1.124828 0.006261 0.009148 -107092.000000 0 0 1
-23.528282 17.900589 14.965653 33.135810 -0.650385 1.102187 0.002980 0.011213 -89107.900000 0 0 1
-24.034382 17.018989 15.942853 33.488387 -0.616148 1.074615 0.010158 0.014680 -63231.300000 0 0 1
-23.143082 15.802089 16.263353 32.400693 -0.599089 1.044951 0.004541 0.016697 -297324.000000 0 0 1
-21.983682 16.078489 16.995653 32.103774 -0.631479 1.012906 0.007933 0.019342 -620247.000000 0 0 1
-21.243882 14.940289 17.300353 31.206040 -0.612921 0.983165 -0.002665 0.013683 -614554.000000 0 0 1
-21.781482 14.013289 18.348153 31.740509 -0.571692 0.954438 0.001220 0.014615 -999077.000000 0 0 1
-21.724982 14.485189 19.664353 32.687647 -0.588062 0.925314 0.008770 0.013646 40097.000000 0 0 1
-22.136182 13.643189 20.683553 33.225841 -0.552340 0.898845 0.013053 0.008382 -564598.000000 0 0 1
-21.848782 14.083189 22.160453 34.158325 -0.572552 0.864846 0.015463 0.005012 -145971.000000 0 0 1
-20.498182 13.832589 22.470953 33.413466 -0.593626 0.833199 0.019226 0.000629 -101132.000000 0 0 1
-19.806982 15.053489 22.696353 33.675636 -0.649876 0.831227 0.019566 0.006034 -922226.000000 0 0 1
-18.309682 14.891189 22.943453 32.914951 -0.682796 0.799518 0.017094 0.003254 -264400.000000 0 0 1
-17.540982 14.359289 21.853853 31.487555 -0.685988 0.803701 0.010190 0.001132 107682.000000 0 0 1
-17.271782 15.256889 20.773153 31.025973 -0.723535 0.837206 0.015130 0.010758 -1436190.000000 0 0 1
-16.072682 14.711389 19.931053 29.529696 -0.741206 0.829900 0.012293 0.005587 973791.000000 0 0 1
-14.859282 14.518289 20.661653 29.299878 -0.773791 0.788121 0.020160 0.006264 444299.000000 0 0 1
-14.280782 15.747289 21.119553 29.965870 -0.834197 0.788674 0.009264 0.001564 -2081940.000000 0 0 1
-13.201082 15.533589 22.107153 30.071368 -0.866395 0.744899 -0.001087 0.001628 -273401.000000 0 0 1
-11.958782 15.014289 21.610053 28.903905 -0.898197 0.726277 0.003514 0.013846 502029.000000 0 0 1
-11.211682 14.432989 22.710553 29.151024 -0.910357 0.677623 0.009626 0.012364 792892.000000 0 0 1
-10.042282 13.614189 22.057053 27.797610 -0.935257 0.654278 0.002671 0.010414 -926078.000000 0 0 1
-9.480682 12.639389 22.904253 27.825209 -0.927237 0.603864 0.003665 0.011384 20424.300000 0 0 1
-8.364582 11.971689 22.349153 26.697794 -0.960945 0.578807 0.004090 0.020256 45214.000000 0 0 1
-7.074382 12.812589 22.426353 26.779668 -1.066309 0.578215 -0.003303 0.020046 -1136170.000000 0 0 1
-6.775082 13.710589 21.374853 26.282434 -1.111840 0.621037 -0.007856 0.017986 311077.000000 0 0 1
-5.986382 14.892589 21.791353 27.064535 -1.188592 0.634847 -0.006544 0.018356 684128.000000 0 0 1
-6.721082 16.003489 22.640253 28.528331 -1.173189 0.654083 -0.000666 0.000337 -377122.000000 0 0 1
-7.720082 16.727989 22.032053 28.719969 -1.138415 0.696436 -0.020161 0.006096 -1125570.000000 0 0 1
-7.227582 17.659089 21.096253 28.445267 -1.182312 0.735279 -0.007021 0.016627 -1125390.000000 0 0 1
-8.182482 18.086889 19.947953 28.142661 -1.145950 0.782979 -0.007417 0.022961 385334.000000 0 0 1
-9.290482 18.848789 20.357553 29.257817 -1.112849 0.801265 -0.011442 0.020779 -106297.000000 0 0 1
-10.312582 18.108089 21.039953 29.613035 -1.053104 0.780593 -0.004962 0.009953 -799852.000000 0 0 1
-11.635982 18.874589 21.112053 30.616416 -1.018340 0.809906 -0.007733 0.004945 19751.300000 0 0 1
-12.431382 18.889689 19.916653 30.133580 -0.988745 0.848718 -0.002439 0.008195 324327.000000 0 0 1
-13.602882 19.673489 20.125453 31.258893 -0.965844 0.871301 -0.006530 -0.000677 369864.000000 0 0 1
-14.553382 19.734489 18.908753 30.964365 -0.935370 0.913900 0.013891 0.004124 -407163.000000 0 0 1
-15.360882 18.603689 18.775453 30.570763 -0.880586 0.909471 0.015617 0.007212 -252358.000000 0 0 1
-15.987582 18.594989 17.506353 30.130529 -0.860652 0.950818 0.018174 0.007157 -1066590.000000 0 0 1
-16.654882 17.258089 17.232753 29.532939 -0.803183 0.947753 0.015487 0.001097 400391.000000 0 0 1
-17.859482 17.002089 17.946253 30.497543 -0.760809 0.941657 0.007528 0.012316 870300.000000 0 0 1
-18.995482 17.714189 17.384953 31.254718 -0.750509 0.980949 0.014376 0.013224 51989.300000 0 0 1
33.007676 -9.982411 11.954746 36.497550 -0.293682 1.237088 0.005238 -0.003886 139461.000000 0 0 1
31.622086 -10.221611 11.776546 35.257973 -0.312642 1.230241 -0.009364 -0.001429 181005.000000 0 0 1
31.270766 -11.388711 12.498346 35.549574 -0.349266 1.211543 0.011129 -0.001080 1710840.000000 0 0 1
29.718316 -11.702911 12.215346 34.195776 -0.375145 1.205509 -0.003383 0.000110 1326630.000000 0 0 1
28.820896 -10.710611 12.735346 33.279878 -0.355810 1.178107 -0.005677 -0.004420 336685.000000 0 0 1
27.454816 -11.055411 12.774946 32.236443 -0.382812 1.163325 -0.005230 0.002786 297249.000000 0 0 1
27.130316 -12.172911 13.819746 32.790535 -0.421758 1.135747 -0.011816 0.004235 -1191720.000000 0 0 1
27.453066 -11.734611 15.120746 33.466534 -0.403938 1.101995 -0.011893 -0.000411 419519.000000 0 0 1
26.780236 -12.473811 16.153846 33.670814 -0.435902 1.070417 -0.011547 0.001111 970649.000000 0 0 1
25.250496 -12.201711 16.405046 32.489919 -0.450139 1.041499 -0.014364 -0.001017 708535.000000 0 0 1
24.991786 -10.938011 16.976146 32.131277 -0.412548 1.014156 -0.021625 -0.005224 -41303.200000 0 0 1
24.495806 -10.019511 15.991946 30.922119 -0.388266 1.027257 -0.012844 -0.005348 -190192.000000 0 0 1
24.106506 -8.662711 16.640846 30.546423 -0.344981 0.994679 -0.007635 -0.007655 -469915.000000 0 0 1
25.169366 -7.804911 16.985846 31.351756 -0.300693 0.998239 -0.016521 -0.011990 -36937.700000 0 0 1
24.779286 -6.428811 17.265646 30.877907 -0.253846 0.977426 -0.009363 -0.009995 -290418.000000 0 0 1
26.015606 -5.539211 17.125246 31.634928 -0.209786 0.998767 -0.006658 -0.006932 -22949.300000 0 0 1
26.469056 -5.453211 15.775446 31.292381 -0.203179 1.042421 -0.007550 -0.004687 472051.000000 0 0 1
27.561836 -4.542811 15.626546 32.007513 -0.163354 1.060753 0.000186 -0.005532 318922.000000 0 0 1
27.809906 -3.845611 14.206546 31.464353 -0.137411 1.102337 -0.003874 0.002068 -104337.000000 0 0 1
28.249176 -4.641711 13.111646 31.487723 -0.162858 1.141309 -0.018005 0.007309 453715.000000 0 0 1
28.779126 -3.723811 12.170446 31.467834 -0.128678 1.173683 -0.018733 0.008085 -258653.000000 0 0 1
29.017626 -4.356511 10.808546 31.270217 -0.149020 1.217865 -0.010298 -0.002759 224954.000000 0 0 1
30.156606 -5.221111 10.733246 32.432753 -0.171434 1.233498 0.001124 -0.001642 494852.000000 0 0 1
30.356286 -5.739211 9.434546 32.302528 -0.186856 1.274408 -0.000034 -0.007422 281467.000000 0 0 1
31.671646 -6.555211 9.185346 33.621935 -0.204092 1.294083 0.004196 -0.004922 227191.000000 0 0 1
32.816346 -5.730711 9.149946 34.546709 -0.172886 1.302740 0.004704 0.002375 -827723.000000 0 0 1
33.909517 -6.515111 8.797946 35.632932 -0.189819 1.321311 0.014846 -0.010072 -378165.000000 0 0 1
-34.462506 -5.623111 8.494646 35.936648 0.161741 1.332159 0.006473 -0.000164 54060.700000 0 0 1
-34.551244 -5.029011 7.194546 35.648855 0.144537 1.367584 0.010322 -0.006731 -295000.000000 0 0 1
-33.389702 -4.297211 6.990746 34.383262 0.127995 1.366051 0.006372 0.017611 -603672.000000 0 0 1
-33.389122 -3.463311 5.708446 34.050174 0.103356 1.402353 0.011129 0.000371 -358038.000000 0 0 1
-32.892462 -4.109011 4.573046 33.462079 0.124279 1.433704 0.007845 -0.001056 -1040.350000 0 0 1
-32.712002 -3.169511 3.542146 33.055524 0.096590 1.463433 0.007572 0.004696 -45293.500000 0 0 1
-32.048842 -3.753511 2.225146 32.344526 0.116587 1.501947 -0.005777 0.007909 -26209.900000 0 0 1
-32.726782 -4.867011 1.679046 33.129281 0.147634 1.520093 0.003532 0.009681 -854200.000000 0 0 1
-33.837782 -4.534411 0.943746 34.153287 0.133211 1.543160 0.007980 0.004967 -1169680.000000 0 0 1
-33.754312 -4.739711 -0.589754 34.090559 0.139506 1.588097 0.015355 0.005917 -966301.000000 0 0 1
-33.566072 -6.127211 -0.914054 34.132966 0.180554 1.597579 0.016145 0.000066 353584.000000 0 0 1
-32.850232 -6.297011 -2.135054 33.516392 0.189391 1.634541 0.016951 0.001052 -898635.000000 0 0 1
-31.355812 -6.049311 -2.080454 32.001709 0.190583 1.635853 0.011629 -0.000208 -1430280.000000 0 0 1
-30.736202 -7.074711 -1.384254 31.570268 0.226235 1.614657 0.014928 0.001958 178139.000000 0 0 1
-29.795332 -6.607211 -0.413854 30.521932 0.218222 1.584356 0.008119 -0.006002 -89663.300000 0 0 1
-29.385322 -7.660111 0.589646 30.373049 0.255003 1.551382 0.002961 -0.000546 -157321.000000 0 0 1
-28.694202 -8.722111 -0.065054 29.990610 0.295093 1.572965 0.015234 0.003169 483341.000000 0 0 1
-28.473192 -9.753511 0.859746 30.109679 0.330023 1.542239 0.012426 0.005075 -119146.000000 0 0 1
-27.995042 -11.086511 0.192446 30.110964 0.377068 1.564405 0.016507 0.002288 185285.000000 0 0 1
-26.636112 -11.208311 -0.222654 28.899105 0.398303 1.578501 0.016536 0.003944 714760.000000 0 0 1
-26.109112 -12.472711 -0.588754 28.941335 0.445661 1.591141 0.008514 0.002039 -70450.300000 0 0 1
-26.776532 -13.294611 -1.733254 29.945509 0.460846 1.628709 0.007072 0.000950 -1148850.000000 0 0 1
-27.870522 -14.058511 -1.375554 31.245798 0.467179 1.614834 0.013028 0.000740 -159904.000000 0 0 1
-28.224762 -15.065411 -2.319654 32.077790 0.490294 1.643173 0.005643 -0.002770 238976.000000 0 0 1
-29.180772 -16.144311 -1.720254 33.393345 0.505336 1.622334 0.008972 -0.004986 386135.000000 0 0 1
-28.439382 -16.838811 -0.754454 33.059238 0.534587 1.593620 -0.001574 0.000479 606090.000000 0 0 1
-29.317572 -17.632111 0.039846 34.211299 0.541461 1.569632 0.007628 0.001590 -57357.800000 0 0 1
-29.356032 -19.116211 -0.381654 35.033581 0.577208 1.581690 0.000922 0.007358 316113.000000 0 0 1
-28.195722 -19.923211 -0.083954 34.524486 0.615144 1.573228 0.001612 0.002831 728457.000000 0 0 1
-28.407662 -21.285511 -0.093054 35.497562 0.643045 1.573418 0.000838 0.000771 314684.000000 0 0 1
-29.302822 -21.873811 1.070546 36.582305 0.641241 1.541528 0.001833 0.003078 314584.000000 0 0 1
-28.640872 -21.804311 2.333046 36.071743 0.650694 1.506073 -0.000715 0.001469 -163361.000000 0 0 1
-29.483302 -22.299111 3.328346 37.115944 0.647540 1.481001 0.001579 0.004734 -117102.000000 0 0 1
-28.820052 -22.600811 4.704746 36.925962 0.665035 1.443039 0.002883 0.005323 -419889.000000 0 0 1
-28.600542 -21.459911 5.474146 36.172988 0.643714 1.418880 -0.005012 0.004097 -398025.000000 0 0 1
-27.916242 -21.707311 6.642846 35.981263 0.660924 1.385112 -0.002444 0.005189 -291193.000000 0 0 1
-27.441982 -20.431711 7.324446 34.988065 0.639999 1.359895 0.004504 0.006902 -172715.000000 0 0 1
-26.682382 -20.596711 8.481446 34.757862 0.657384 1.324292 -0.004350 -0.003646 -345187.000000 0 0 1
-26.384802 -19.365411 9.074646 33.963600 0.633157 1.300323 0.005483 -0.004864 -343097.000000 0 0 1
-25.184722 -19.399911 9.998046 33.325481 0.656370 1.266091 0.008818 -0.003250 -404626.000000 0 0 1
-25.573232 -20.082011 11.192746 34.388296 0.665697 1.239276 0.017256 -0.010106 67109.500000 0 0 1
-24.487982 -20.500111 11.984246 34.110672 0.696986 1.211801 0.027165 -0.007298 -192081.000000 0 0 1
-23.864782 -19.417611 12.869746 33.349690 0.683010 1.174610 0.021973 -0.006583 -279955.000000 0 0 1
-22.961582 -18.500411 12.236346 31.925344 0.678214 1.177451 0.015565 -0.006184 277233.000000 0 0 1
-22.746182 -17.290511 12.967446 31.376826 0.649966 1.144742 0.014809 -0.006266 292830.000000 0 0 1
-22.015982 -17.441011 14.356546 31.543664 0.669965 1.098275 0.013231 -0.003321 -594566.000000 0 0 1
-22.826782 -17.813611 15.442646 32.815576 0.662664 1.080838 0.021248 -0.008009 -284244.000000 0 0 1
-22.093982 -17.813311 16.643346 32.900746 0.678541 1.040412 0.017638 -0.001537 -187501.000000 0 0 1
-22.878282 -18.482411 17.859646 34.409043 0.679514 1.025070 0.015106 0.014943 782140.000000 0 0 1
-23.807182 -17.595311 18.494846 34.906106 0.636473 1.012378 0.014316 0.014700 -8955.220000 0 0 1
-24.644682 -18.332511 19.328746 36.291070 0.639568 1.009123 0.005161 0.019453 -301541.000000 0 0 1
-25.642082 -17.448411 20.136046 36.978693 0.597491 0.994966 0.002892 0.024075 -122359.000000 0 0 1
-25.093902 -16.742511 21.237446 36.892339 0.588368 0.957385 0.008831 0.015742 261394.000000 0 0 1
-26.011232 -15.793911 21.782146 37.423171 0.545694 0.949549 0.005606 0.010295 82690.500000 0 0 1
-25.307192 -14.976011 22.878646 37.258117 0.534345 0.909604 0.001401 0.010962 145127.000000 0 0 1
-24.284082 -14.127311 22.428646 35.949155 0.526894 0.897074 0.001819 0.015244 495922.000000 0 0 1
-23.456982 -13.533311 23.457746 35.828011 0.523292 0.856968 0.001309 0.009460 223039.000000 0 0 1
-22.244782 -12.734211 22.962746 34.413343 0.519922 0.840268 0.002316 0.011287 -255562.000000 0 0 1
-22.617882 -11.607211 22.166546 33.729093 0.474142 0.853707 0.002100 0.014492 758246.000000 0 0 1
-21.487182 -10.948811 21.582546 32.363278 0.471259 0.840777 0.003081 0.012453 -17419.400000 0 0 1
-21.219882 -9.619911 22.254046 32.219073 0.425632 0.808325 0.004230 0.009373 -341901.000000 0 0 1
-20.742382 -9.752911 23.534546 32.851797 0.439519 0.772189 0.002737 0.004069 405387.000000 0 0 1
-19.326482 -9.793811 23.665646 32.085736 0.469038 0.741324 0.000590 0.008695 170244.000000 0 0 1
-18.862982 -9.755211 25.151246 32.917494 0.477283 0.701199 -0.000531 -0.007042 153507.000000 0 0 1
-19.214182 -10.959711 25.814346 33.995301 0.518368 0.708482 0.007594 -0.000854 481437.000000 0 0 1
-18.304982 -11.084111 26.909946 34.381319 0.544472 0.671819 0.004512 -0.007372 -454349.000000 0 0 1
-18.266882 -12.464511 27.675146 35.425368 0.598786 0.674172 0.009095 -0.013660 2928.630000 0 0 1
-19.447882 -12.864711 28.345246 36.703867 0.584415 0.688392 0.016446 -0.010716 -422112.000000 0 0 1
-20.474282 -13.342211 27.517746 36.802679 0.577539 0.726189 0.003183 -0.005787 -684697.000000 0 0 1
-21.704582 -13.682611 28.345246 38.232914 0.562474 0.735667 0.001672 -0.003758 -592103.000000 0 0 1
-21.677382 -14.904511 29.082046 39.215032 0.602328 0.735337 0.003573 -0.002733 -182305.000000 0 0 1
-20.931682 -14.786911 30.267646 39.660036 0.615033 0.702580 0.003148 -0.002094 -155827.000000 0 0 1
-21.310882 -15.819511 31.399846 41.113999 0.638568 0.701730 0.007220 -0.004246 -474115.000000 0 0 1
-20.954682 -17.160211 31.253246 41.356220 0.686172 0.714061 0.014412 -0.001772 -82808.200000 0 0 1
-21.049582 -17.880011 32.462546 42.621551 0.704159 0.704946 0.016203 -0.002086 99857.100000 0 0 1
-22.454282 -18.392011 32.913146 43.883209 0.686272 0.722709 0.007063 0.003857 193241.000000 0 0 1
-23.126682 -17.369911 33.610046 44.341768 0.644190 0.710590 0.007116 0.005777 -1533450.000000 0 0 1
-24.331582 -17.847311 34.036246 45.486464 0.632860 0.725343 0.001804 -0.000376 -1293290.000000 0 0 1
-25.184832 -16.763211 -34.624561 45.979791 0.587269 2.423464 -0.000969 -0.002407 120765.000000 0 0 1
-24.553082 -16.353011 -33.408161 44.568823 0.587560 2.418233 -0.000452 -0.001444 179562.000000 0 0 1
-25.414592 -15.407011 -32.813361 44.271821 0.544986 2.405622 0.005086 0.001134 -518409.000000 0 0 1
-24.881882 -14.769011 -31.560661 42.817135 0.535674 2.399570 0.003975 0.005940 -424195.000000 0 0 1
-24.943982 -15.655311 -30.458061 42.367257 0.560480 2.373023 0.009183 0.011163 9699.520000 0 0 1
-24.451482 -15.067011 -29.290661 41.022343 0.552246 2.366016 0.005195 0.023291 -295790.000000 0 0 1
-24.679182 -15.823911 -27.951461 40.506078 0.570153 2.332363 0.009232 0.019263 -501174.000000 0 0 1
-25.963112 -15.798511 -27.394861 40.916433 0.546645 2.304375 0.010899 0.020113 -311254.000000 0 0 1
-26.261772 -14.705711 -26.583161 40.157229 0.510463 2.294250 0.020383 0.020627 -474391.000000 0 0 1
-25.522012 -14.532411 -25.262061 38.739331 0.517621 2.281152 0.011440 0.018796 453375.000000 0 0 1
-24.145182 -14.112111 -25.354561 37.749109 0.528921 2.307243 0.005411 0.014455 1366210.000000 0 0 1
-23.339582 -14.474211 -24.238461 36.629795 0.555109 2.293899 -0.003094 0.016315 -22921.300000 0 0 1
-22.643882 -15.839011 -24.275161 36.781831 0.610379 2.291584 -0.008325 0.015821 -958347.000000 0 0 1
-21.756282 -15.864911 -25.354761 36.985066 0.630063 2.326142 -0.007411 0.017158 -165256.000000 0 0 1
-21.331982 -17.205111 -25.465661 37.410816 0.678716 2.319518 -0.003218 0.012016 -222460.000000 0 0 1
-20.560082 -17.532711 -26.773561 38.038618 0.706091 2.351602 -0.001750 0.013609 -182950.000000 0 0 1
-21.256682 -17.597811 -27.987061 39.304008 0.691507 2.363233 0.007704 0.011756 -304565.000000 0 0 1
-22.034082 -18.744711 -28.106561 40.334151 0.704909 2.341782 0.009816 -0.002019 -109957.000000 0 0 1
-22.863882 -18.783111 -29.435961 41.737730 0.687725 2.353586 0.008130 0.006502 345297.000000 0 0 1
-22.035982 -19.126211 -30.557861 42.251382 0.714825 2.379278 0.004163 0.006143 286818.000000 0 0 1
-22.716982 -18.932311 -31.751161 43.389283 0.694777 2.391718 0.002410 0.012343 -1024480.000000 0 0 1
-22.058482 -19.377111 -33.070861 44.223646 0.720777 2.415553 0.007958 0.002499 -816492.000000 0 0 1
-20.975782 -18.560311 -33.469461 43.642564 0.724379 2.444792 0.007242 0.006958 680469.000000 0 0 1
-19.695182 -19.040411 -33.026161 42.908796 0.768496 2.449140 0.009355 0.001501 476120.000000 0 0 1
-19.056282 -20.211911 -33.851961 43.790621 0.814819 2.454418 0.010347 0.000712 -409063.000000 0 0 1
-18.445382 -19.853711 34.252546 43.676525 0.822153 0.669338 0.004562 0.002092 342474.000000 0 0 1
-18.214382 -21.017411 33.470946 43.517807 0.856725 0.693314 0.003535 0.000014 460795.000000 0 0 1
-19.447382 -21.657511 32.704146 43.781384 0.839114 0.727277 0.007658 -0.000671 1087530.000000 0 0 1
-20.450682 -22.364211 33.500346 45.173682 0.830062 0.735359 0.008231 -0.000406 841087.000000 0 0 1
-21.538582 -22.714211 32.664946 45.242067 0.811958 0.764102 0.011554 0.001455 -223680.000000 0 0 1
-21.246782 -23.937711 31.740946 45.076906 0.844882 0.789570 0.012381 -0.001512 -729521.000000 0 0 1
-20.902482 -25.106661 32.410046 46.018141 0.876522 0.789376 0.006371 0.003882 -336401.000000 0 0 1
-20.976582 -26.329731 31.655846 46.210002 0.898078 0.816133 0.011171 0.005593 -386056.000000 0 0 1
-20.363582 -27.574231 32.290246 47.092183 0.934696 0.815257 -0.003008 0.001009 -317450.000000 0 0 1
-20.983182 -27.898041 33.522946 48.398167 0.925928 0.805641 -0.001045 0.000403 33660.700000 0 0 1
-20.590482 -29.180901 33.980646 49.296828 0.956312 0.810264 -0.009052 -0.008164 -47031.900000 0 0 1
-21.734682 -30.074501 34.612846 50.743681 0.945001 0.820150 -0.008862 -0.001626 -255089.000000 0 0 1
-22.657382 -30.604321 33.669346 50.829187 0.933511 0.846776 -0.013260 -0.000572 141782.000000 0 0 1
-23.759382 -29.824611 33.295146 50.621956 0.898110 0.853006 -0.008356 -0.001920 -715597.000000 0 0 1
-24.765782 -29.525071 34.422246 51.671702 0.872837 0.841732 -0.007024 -0.000325 -1951430.000000 0 0 1
-25.823712 -28.831831 33.864146 51.428776 0.840380 0.852016 0.003838 0.002653 -556655.000000 0 0 1
-26.671892 -28.419521 -34.430561 52.005024 0.817110 2.294363 -0.000352 0.005821 360134.000000 0 0 1
-27.812792 -27.390411 34.611746 52.170480 0.777747 0.845395 -0.004505 0.005162 276629.000000 0 0 1
-28.810152 -28.091391 33.909246 52.621175 0.772767 0.870554 -0.001872 0.004625 -95683.100000 0 0 1
-30.044792 -27.373821 33.924446 52.942267 0.738914 0.875280 -0.001550 0.006519 455812.000000 0 0 1
