# x y z rho theta phi s1 s2 stress_xx np intf bulk
-0.768146 -10.652175 -14.407109 17.933869 1.498809 2.503690 0.006237 -0.003921 226199.000000 1 0 0
2.113254 -13.572775 -13.106109 18.985683 -1.416338 2.332721 0.010659 0.003630 845925.000000 1 0 0
2.122154 -11.314875 -14.860109 18.797680 -1.385396 2.482468 0.008608 0.006231 619246.000000 1 0 0
-5.516646 -6.320775 -16.615809 18.613723 0.853225 2.674019 0.014194 -0.002648 682697.000000 1 0 0
4.437054 -14.084175 -11.493009 18.712046 -1.265601 2.232173 0.009537 -0.000730 427911.000000 1 0 0
14.019054 -10.686575 -7.882309 19.309779 -0.651320 1.991281 0.052909 -0.016544 -175505.000000 1 0 0
6.948754 10.740225 -10.770909 16.722742 0.996544 2.270626 0.031799 -0.020742 1210500.000000 1 0 0
5.690154 -4.223275 -12.676509 14.522664 -0.638495 2.631865 0.010811 0.002104 2390390.000000 1 0 0
13.771354 0.456725 -10.001709 17.026244 0.033153 2.198675 0.034529 -0.004078 1536920.000000 1 0 0
14.250554 4.992125 -10.421409 18.346808 0.336952 2.174898 0.041209 -0.006199 -835297.000000 1 0 0
4.086854 4.208025 -13.454809 14.677934 0.800005 2.730461 0.009586 0.002669 2335380.000000 1 0 0
10.400254 -5.042075 -13.642209 17.880091 -0.451416 2.438712 0.040117 -0.007426 -868742.000000 1 0 0
2.560054 -7.617675 -11.988909 14.433183 -1.246587 2.551069 0.002613 0.001832 1737390.000000 1 0 0
-5.668646 -2.081775 -15.087709 16.251347 0.351953 2.760873 0.017486 -0.003954 -309831.000000 1 0 0
10.741854 0.028525 -9.658709 14.445723 0.002656 2.303149 0.023050 -0.001113 2753880.000000 1 0 0
-1.711146 -9.626275 -16.844509 19.476413 1.394876 2.615682 0.018281 -0.012358 1093110.000000 1 0 0
8.574154 1.570725 -17.944209 19.949384 0.181184 2.689390 0.048410 -0.012245 -867953.000000 1 0 0
16.498454 -6.056375 -8.688409 19.605283 -0.351816 2.029924 0.082607 -0.019623 -736419.000000 1 0 0
10.068954 7.565625 -9.958109 16.055730 0.644385 2.239821 0.038054 -0.007362 749356.000000 1 0 0
13.897454 -2.308275 -10.552909 17.602024 -0.164591 2.213708 0.045228 -0.006666 -720526.000000 1 0 0
7.261654 -1.859475 -13.772409 15.680195 -0.250681 2.643157 0.024112 -0.005524 1606020.000000 1 0 0
-2.776546 6.611025 -13.802509 15.553910 -1.173179 2.662466 0.002212 0.002450 2416560.000000 1 0 0
11.369554 1.901825 -14.028209 18.156937 0.165739 2.453736 0.042145 -0.009064 -212504.000000 1 0 0
-2.283546 10.658425 -12.966509 16.939509 -1.359739 2.442552 0.006589 0.000777 -1100200.000000 1 0 0
2.776154 -1.148675 -15.315109 15.607019 -0.392316 2.947880 0.022392 -0.001297 288643.000000 1 0 0
-9.116346 0.393425 -15.219809 17.745566 -0.043129 2.601514 0.019882 0.000577 200813.000000 1 0 0
2.310654 -1.847175 -18.116209 18.356149 -0.674385 2.979729 0.031278 -0.009569 1503150.000000 1 0 0
1.081954 7.818425 -13.164909 15.349698 1.433284 2.601509 0.004763 0.004490 -1462320.000000 1 0 0
9.418954 -9.225575 -9.880009 16.475512 -0.775027 2.213895 0.022877 -0.003497 927983.000000 1 0 0
3.902654 7.172025 -13.489809 15.768437 1.072456 2.597301 0.004471 0.001766 634017.000000 1 0 0
-2.764946 9.089425 -15.521409 18.198261 -1.275497 2.592323 0.004709 0.003919 1833770.000000 1 0 0
5.530554 -7.761275 -15.208209 17.947536 -0.951675 2.581810 0.025321 -0.006849 677300.000000 1 0 0
4.185054 7.218625 -16.424009 18.422033 1.045394 2.671534 0.018861 0.004456 -46338.500000 1 0 0
-0.187246 5.076825 -13.437409 14.365694 -1.533931 2.780133 0.003434 0.002426 2073520.000000 1 0 0
8.835654 4.174225 -16.615709 19.276274 0.441349 2.609953 0.049165 -0.012666 549605.000000 1 0 0
5.284654 0.167525 -14.374409 15.315981 0.031690 2.789125 0.019422 0.000825 775170.000000 1 0 0
6.274254 7.893325 -11.668109 15.421271 0.899185 2.428931 0.010603 -0.007528 879925.000000 1 0 0
2.779254 -8.536675 -14.984209 17.467844 -1.256052 2.601803 0.010354 -0.005349 692701.000000 1 0 0
4.007954 11.472425 -13.817809 18.401415 1.234696 2.420235 0.030700 -0.010921 -936782.000000 1 0 0
0.547454 -4.644675 -13.769609 14.542174 -1.453471 2.814169 0.007167 0.000703 2525250.000000 1 0 0
8.561954 -0.138875 -11.654509 14.462155 -0.016219 2.507927 0.016361 -0.000020 358018.000000 1 0 0
-0.925546 -5.142675 -16.247709 17.067272 1.392729 2.830437 0.007144 -0.010347 831934.000000 1 0 0
4.424354 0.816225 -11.714309 12.548552 0.182433 2.774901 0.012166 0.000173 1652950.000000 1 0 0
-2.899946 -7.252775 -15.565909 17.415796 1.190428 2.676502 -0.001340 -0.006660 562314.000000 1 0 0
11.434754 -3.789475 -11.344209 16.547048 -0.320009 2.326187 0.032618 -0.008623 918199.000000 1 0 0
6.516054 -7.069975 -12.494609 15.765746 -0.826147 2.485720 0.019461 -0.001128 -1252730.000000 1 0 0
3.389754 -4.074275 -14.732109 15.656474 -0.876852 2.796250 0.018266 -0.002348 3250770.000000 1 0 0
-0.691246 -1.613975 -18.355509 18.439291 1.166144 3.046229 0.026895 -0.016530 1230260.000000 1 0 0
14.986954 2.847925 -8.432909 17.430818 0.187788 2.075780 0.033744 -0.006583 -589828.000000 1 0 0
6.973254 4.231325 -14.244109 16.414171 0.545400 2.621541 0.020917 -0.005199 3688940.000000 1 0 0
10.051254 -9.691775 -14.051709 19.809309 -0.767192 2.359370 0.046975 -0.015244 -1014730.000000 1 0 0
9.256754 -3.188375 -15.550009 18.375419 -0.331711 2.579684 0.048600 -0.016609 -151017.000000 1 0 0
-5.330446 -2.190775 -18.030109 18.928760 0.389947 2.832219 0.010175 0.000386 -272793.000000 1 0 0
4.988654 -9.122575 -11.099409 15.208712 -1.070377 2.388834 -0.000448 0.001342 1256620.000000 1 0 0
-2.586346 3.829325 -17.284609 17.891635 -0.976768 2.880359 0.006164 0.007620 1928560.000000 1 0 0
9.363254 9.486825 -14.486909 19.686059 0.791954 2.397787 0.080094 -0.023375 1002320.000000 1 0 0
9.780554 10.005425 -11.584809 18.165230 0.796763 2.262365 0.052265 -0.024751 1039940.000000 1 0 0
11.954954 -6.008275 -9.634609 16.487753 -0.465706 2.194874 0.028432 -0.004806 -180028.000000 1 0 0
8.158554 6.872925 -13.731409 17.388234 0.700077 2.481109 0.026695 -0.010709 -176929.000000 1 0 0
3.934854 -4.195575 -17.643909 18.557840 -0.817454 2.826450 0.037619 -0.011969 -1063000.000000 1 0 0
9.342054 -7.451175 -12.375309 17.202972 -0.673273 2.373692 0.031541 -0.007443 956823.000000 1 0 0
12.044754 -8.725775 -8.845609 17.304914 -0.626945 2.107332 0.040689 -0.010666 12619.400000 1 0 0
-3.028546 -2.609475 -13.782209 14.350287 0.711205 2.859279 0.009737 -0.004528 -469835.000000 1 0 0
-0.473046 6.024425 -17.765609 18.765242 -1.492436 2.813720 0.018724 0.006363 3083430.000000 1 0 0
1.041854 -8.562875 -17.373309 19.396911 -1.449720 2.680741 0.024172 -0.018301 2325610.000000 1 0 0
0.034354 8.418225 -15.999709 18.079225 1.566715 2.657242 0.010746 0.006545 131251.000000 1 0 0
1.770954 3.350025 -14.998009 15.469299 1.084501 2.894117 0.018294 0.002556 2622270.000000 1 0 0
-1.969746 -0.541375 -15.805409 15.936873 0.268222 3.013059 0.014094 -0.002500 1347880.000000 1 0 0
14.095354 -4.283375 -8.452009 16.984192 -0.295018 2.091672 0.043709 -0.008460 910741.000000 1 0 0
0.518054 0.644225 -14.641809 14.665128 0.893529 3.085192 0.010434 -0.000512 1295620.000000 1 0 0
8.935254 2.694725 -12.649209 15.719504 0.292909 2.505937 0.020990 0.000544 820493.000000 1 0 0
5.899654 0.842425 -17.144209 18.150468 0.141834 2.807049 0.041571 -0.004138 -1430050.000000 1 0 0
15.416754 1.447425 -12.381109 19.825822 0.093612 2.245280 0.060446 -0.015753 463695.000000 1 0 0
8.689654 -11.270775 -11.903109 18.553287 -0.913996 2.267331 0.035859 -0.010092 555189.000000 1 0 0
-4.597246 0.624125 -14.998009 15.699187 -0.134936 2.841593 0.012427 -0.002902 34866.100000 1 0 0
2.345954 5.118725 -17.292709 18.186331 1.141055 2.826808 0.029473 -0.000448 1808550.000000 1 0 0
5.839754 -11.652475 -12.429509 18.010430 -1.106221 2.332463 0.014258 -0.007927 847327.000000 1 0 0
12.809154 7.122325 -8.730509 17.059418 0.507464 2.108041 0.033362 -0.005369 586726.000000 1 0 0
-5.092946 3.497325 -15.689709 16.862276 -0.601744 2.766468 0.007249 0.002952 2149800.000000 1 0 0
-0.557546 -4.525675 -19.084609 19.621796 1.448218 2.907059 0.026134 -0.018894 -232587.000000 1 0 0
9.784454 4.403125 -10.311109 14.880928 0.422864 2.336310 0.015032 -0.001551 1743670.000000 1 0 0
13.585954 3.624425 -12.901509 19.083070 0.260706 2.313213 0.055583 -0.019053 86990.500000 1 0 0
-6.203146 5.744425 -17.184709 19.151805 -0.747023 2.684386 0.005481 0.009058 -1866820.000000 1 0 0
-10.136046 3.131825 -15.372509 18.677842 -0.299674 2.537529 0.019434 -0.007434 -1438870.000000 1 0 0
10.756954 13.580625 -8.361409 19.236907 0.900903 2.020451 0.076451 -0.015154 441006.000000 1 0 0
7.358454 13.284725 -12.277609 19.528708 1.064961 2.250671 0.070351 -0.031293 -443254.000000 1 0 0
5.319154 15.125825 -11.232609 19.576912 1.232643 2.181896 0.045866 -0.026778 -413540.000000 1 0 0
14.181554 9.188025 -10.232609 19.754558 0.574887 2.115293 0.086188 -0.016072 -879433.000000 1 0 0
8.365354 -17.446175 -2.114809 19.463314 -1.123687 1.679667 0.045365 0.000708 77484.500000 1 0 0
0.598754 -16.001275 0.050191 16.012552 -1.533395 1.567662 0.021079 -0.008049 2657730.000000 1 0 0
-9.175246 -11.613275 7.669491 16.669564 0.902143 1.092700 0.016899 -0.010597 689084.000000 1 0 0
2.030054 -16.000275 -2.542809 16.327761 -1.444594 1.727168 0.019612 -0.005661 2229560.000000 1 0 0
-1.280946 -11.116875 -9.439109 14.639758 1.456077 2.271504 0.000672 0.001311 -37974.800000 1 0 0
-4.768546 -12.625375 -12.903809 18.672102 1.209665 2.333771 0.005275 0.001295 390632.000000 1 0 0
-8.283846 -17.861275 -1.704609 19.762412 1.136536 1.657159 0.030160 -0.012383 -1190500.000000 1 0 0
-11.386346 -7.068875 -8.777309 16.020581 0.555588 2.150621 0.021911 -0.005862 2436920.000000 1 0 0
-13.574146 -11.477175 -4.772609 18.405455 0.701886 1.833098 0.031722 -0.002976 707015.000000 1 0 0
-5.679746 -13.389175 9.777291 17.524980 1.169600 0.978936 0.010520 -0.011840 -59655.000000 1 0 0
0.116554 -14.067475 -3.658609 14.535916 -1.562511 1.825227 0.015499 -0.006292 -441283.000000 1 0 0
-14.714346 -11.493875 2.009591 18.779233 0.663131 1.463580 0.011263 -0.005030 -120468.000000 1 0 0
-3.962846 -16.617675 -7.435909 18.631801 1.336697 1.981329 0.013797 -0.007518 94352.300000 1 0 0
0.519854 -15.322875 -9.223209 17.892130 -1.536883 2.112375 0.001331 0.005461 -468475.000000 1 0 0
4.540154 -14.283075 -2.636809 15.217490 -1.263027 1.744950 0.018467 0.001015 148337.000000 1 0 0
-3.564346 -17.946775 -2.325809 18.444530 1.374741 1.697230 0.012263 -0.018710 981768.000000 1 0 0
-0.989746 -13.405475 0.627191 13.456586 1.497099 1.524171 0.012645 -0.004615 2537280.000000 1 0 0
-8.561246 -11.431575 -10.564509 17.764703 0.927992 2.207678 0.018943 -0.002331 2449780.000000 1 0 0
-3.843146 -14.086675 -0.315009 14.604910 1.304457 1.592367 0.003678 -0.004069 3558570.000000 1 0 0
-1.646046 -15.015375 -7.266709 16.762339 1.461608 2.019185 0.004969 -0.000439 408656.000000 1 0 0
-14.089446 -7.988375 -1.784409 16.294500 0.515783 1.680526 0.013800 -0.001806 682309.000000 1 0 0
-10.684646 -7.351075 -11.567509 17.378355 0.602629 2.299131 0.027836 -0.008484 -1344160.000000 1 0 0
-9.600346 -14.558875 6.866491 18.742363 0.987831 1.195700 0.009177 -0.005602 -769838.000000 1 0 0
-2.464146 -14.332475 -12.316109 19.057240 1.400533 2.273482 0.010345 0.003427 436989.000000 1 0 0
2.306454 -17.813175 -4.740009 18.576776 -1.442032 1.828807 0.034060 -0.011519 889884.000000 1 0 0
-6.697446 -9.728875 -9.253009 15.004164 0.967892 2.235335 0.007037 -0.006343 23822.500000 1 0 0
-10.943146 -15.379375 0.410691 18.879785 0.952363 1.549042 0.023447 -0.009391 469030.000000 1 0 0
-12.607346 -10.978675 4.100191 17.213019 0.716455 1.330281 0.009678 -0.005868 681021.000000 1 0 0
-16.931946 -9.083275 -1.552909 19.277142 0.492387 1.651441 0.019729 0.000052 564726.000000 1 0 0
-1.439446 -19.120075 -3.871709 19.561171 1.495654 1.770040 0.015333 -0.014399 -770987.000000 1 0 0
3.255254 -14.283675 -8.731709 17.054700 -1.346723 2.108288 0.012667 -0.000614 682087.000000 1 0 0
-4.351046 -7.990375 -13.079709 15.932874 1.072158 2.533827 0.006308 -0.001323 1914700.000000 1 0 0
5.621654 -16.596475 1.376491 17.576709 -1.244200 1.492403 0.037212 -0.005922 4569270.000000 1 0 0
-2.861546 -13.737975 -3.162809 14.384845 1.365438 1.792478 0.006257 -0.005603 551611.000000 1 0 0
-0.434646 -13.912675 3.657291 14.391915 1.539566 1.313857 0.010702 -0.002841 -3123750.000000 1 0 0
1.074154 -16.209675 7.009991 17.693144 -1.504627 1.163424 0.031908 -0.012726 1673590.000000 1 0 0
-5.581346 -10.297675 -14.560909 18.687257 1.074115 2.464167 0.011210 -0.002822 -692959.000000 1 0 0
-0.323446 -17.297875 -5.841509 18.260458 1.552100 1.896420 0.015041 -0.007886 -379051.000000 1 0 0
-6.586946 -13.333375 -1.234709 14.922843 1.111945 1.653631 0.003061 -0.003985 2094060.000000 1 0 0
-1.781346 -17.669875 -0.072509 17.759587 1.470323 1.574879 0.007513 -0.010504 536955.000000 1 0 0
-9.463446 -9.794975 -4.853009 14.458562 0.802611 1.913091 0.012237 -0.001319 1800770.000000 1 0 0
-0.912646 -16.691675 4.802991 17.392920 1.516174 1.291014 0.023027 -0.008981 3126900.000000 1 0 0
-6.870246 -9.864575 -6.354409 13.597375 0.962453 2.057060 0.009675 -0.003781 2211070.000000 1 0 0
-6.027046 -14.556075 -8.486309 17.894749 1.178231 2.064891 0.010295 -0.010170 -581404.000000 1 0 0
-5.752646 -12.251575 -10.294609 17.005087 1.131810 2.221045 0.009244 -0.003468 181663.000000 1 0 0
-10.848846 -12.160675 -8.927909 18.581900 0.842349 2.071978 0.043601 -0.015880 -661802.000000 1 0 0
3.928054 -16.973575 6.816991 18.708373 -1.343378 1.197827 0.042469 -0.017769 896986.000000 1 0 0
-6.752046 -14.236675 -4.070409 16.273944 1.127943 1.823599 0.016954 -0.014386 207583.000000 1 0 0
-2.872946 -12.259475 -7.104009 14.457368 1.340605 2.084466 0.006795 -0.004200 2528260.000000 1 0 0
-7.119946 -12.771275 4.483391 15.293786 1.062216 1.273275 0.004435 -0.001897 1737880.000000 1 0 0
2.587954 -16.386375 2.368091 16.757644 -1.414157 1.429008 0.027493 -0.010282 3271840.000000 1 0 0
-6.238046 -11.969775 7.287291 15.339274 1.090372 1.075748 0.007496 -0.005542 1609020.000000 1 0 0
-11.164846 -12.836775 -1.006109 17.042559 0.854945 1.629866 0.024753 -0.000209 422004.000000 1 0 0
-14.128546 -8.652975 4.619991 17.199828 0.549521 1.298850 0.002137 -0.002733 342711.000000 1 0 0
-8.171446 -15.389875 4.395591 17.970587 1.082687 1.323690 0.005993 -0.002585 1454940.000000 1 0 0
-16.508546 -9.175175 1.207691 18.925497 0.507273 1.506940 0.014972 -0.000301 53430.900000 1 0 0
-6.633346 -16.987675 2.388891 18.392639 1.198524 1.440545 0.005408 -0.006103 3234880.000000 1 0 0
-11.653846 -14.908475 -4.655909 19.487232 0.907319 1.812051 0.060982 -0.009593 -52179.800000 1 0 0
-9.968146 -9.907875 -12.682809 18.931021 0.782366 2.304936 0.020081 -0.000657 -1333460.000000 1 0 0
-4.405446 -15.921575 -4.455009 17.109985 1.300853 1.834207 0.005515 -0.013705 -226106.000000 1 0 0
-11.712346 -8.259175 0.093691 14.331845 0.614186 1.564259 -0.002368 0.003117 1262970.000000 1 0 0
-9.652246 -11.120675 3.513691 15.138734 0.855970 1.336561 0.005250 -0.001124 1900340.000000 1 0 0
-14.091946 -12.927075 -0.487409 19.129291 0.742312 1.596279 0.020853 0.002281 667155.000000 1 0 0
5.548254 -14.904275 -7.148809 17.436341 -1.214431 1.993245 0.018632 -0.011501 312099.000000 1 0 0
-7.475346 -10.493475 -1.204709 12.940059 0.951810 1.664031 0.003078 -0.000102 631531.000000 1 0 0
-11.540146 -8.134175 -5.988109 15.336140 0.613980 1.971925 0.015619 -0.006548 1083380.000000 1 0 0
-14.477646 -6.703575 -9.042709 18.338776 0.433636 2.086437 0.037943 -0.013949 2431440.000000 1 0 0
-3.873946 -16.395775 1.520291 16.915678 1.338774 1.480800 0.005293 -0.010012 921360.000000 1 0 0
-7.997646 -15.543075 0.121891 17.480399 1.095579 1.563823 0.019803 -0.009615 1437380.000000 1 0 0
0.924354 -18.584475 3.535791 18.940405 -1.521099 1.383015 0.030778 -0.016054 547353.000000 1 0 0
-14.063646 -8.743075 -4.519909 17.165578 0.556208 1.837250 0.021776 -0.007305 -351094.000000 1 0 0
-3.278046 -14.468375 11.122491 18.541555 1.347992 0.927460 0.005050 -0.016493 -30865.800000 1 0 0
-10.788046 -12.120675 -3.845709 16.675796 0.843504 1.803507 0.031103 -0.008969 601033.000000 1 0 0
-9.967746 -10.704275 0.531291 14.636247 0.821012 1.534489 0.002041 0.002529 1482380.000000 1 0 0
-0.034246 -13.186575 -11.108709 17.242109 1.568199 2.270875 0.007366 0.001378 1332120.000000 1 0 0
-5.896146 -12.559075 -6.264909 15.223139 1.131867 1.994938 0.005358 -0.008962 3368980.000000 1 0 0
1.525454 -15.788775 9.870791 18.682744 -1.474479 1.014155 0.027654 -0.016828 798755.000000 1 0 0
-9.032046 -15.594275 -5.358709 18.800931 1.045819 1.859827 0.049096 -0.020261 -534589.000000 1 0 0
-3.322546 -15.497175 5.959691 16.932798 1.359597 1.211131 0.005871 -0.001208 276260.000000 1 0 0
-17.473946 -5.451075 -6.518309 19.430423 0.302388 1.912900 0.022211 -0.008341 955598.000000 1 0 0
18.915354 5.668925 -2.925409 19.962098 0.291181 1.717874 0.029516 -0.001581 -718119.000000 1 0 0
12.878854 -12.533475 -5.806109 18.885544 -0.771808 1.883294 0.048388 -0.007427 -1140220.000000 1 0 0
11.097954 -13.557775 -1.617509 17.595289 -0.884836 1.662855 0.039516 -0.004006 2358390.000000 1 0 0
18.653154 -2.851075 4.518591 19.403259 -0.151673 1.335760 0.053787 -0.011727 -636763.000000 1 0 0
8.916554 -16.833175 4.929891 19.676497 -1.083671 1.317551 0.062296 -0.024532 -654372.000000 1 0 0
18.128154 -1.109375 6.765391 19.381208 -0.061120 1.214218 0.076938 -0.014480 -389515.000000 1 0 0
17.955854 -4.209575 -4.862909 19.073047 -0.230281 1.828605 0.088664 -0.022277 586399.000000 1 0 0
5.433654 -11.847275 14.778291 19.704832 -1.140779 0.722760 0.007489 0.002075 836087.000000 1 0 0
16.016854 -8.957375 -0.769909 18.367552 -0.509915 1.612725 0.059847 -0.014081 226749.000000 1 0 0
13.893854 -12.640375 -1.378709 18.833988 -0.738193 1.644065 0.052657 -0.003206 749685.000000 1 0 0
11.117754 -2.185975 13.890291 17.925489 -0.194144 0.684254 0.042298 -0.003607 -1643180.000000 1 0 0
16.946754 -6.175875 -1.359909 18.088208 -0.349470 1.646049 0.070326 -0.017035 -1409740.000000 1 0 0
17.819454 3.732225 -0.946209 18.230682 0.206462 1.622722 0.023765 -0.000694 1664630.000000 1 0 0
9.711954 -11.159975 9.581491 17.625892 -0.854664 0.996072 0.025367 -0.008257 228945.000000 1 0 0
9.083354 -11.102375 4.242791 14.958988 -0.885089 1.283221 0.007799 -0.004694 -2562730.000000 1 0 0
14.127254 -10.131675 6.858591 18.688778 -0.622158 1.195025 0.048129 -0.011294 -544291.000000 1 0 0
16.241854 -0.509375 -4.650909 16.902315 -0.031352 1.849557 0.035929 -0.004335 80510.500000 1 0 0
15.727654 -0.437075 -1.674709 15.822604 -0.027783 1.676838 0.027014 0.001556 2369230.000000 1 0 0
12.865754 -5.179275 -0.199409 13.870555 -0.382714 1.585173 0.011166 -0.003489 1393380.000000 1 0 0
14.316454 -7.485075 1.081391 16.191251 -0.481745 1.503958 0.034791 -0.007566 1636870.000000 1 0 0
15.543454 2.421625 3.655691 16.150149 0.154555 1.342461 0.025420 -0.006828 1833570.000000 1 0 0
15.890854 -7.025675 5.102591 18.108446 -0.416282 1.285148 0.052856 -0.015086 -1175390.000000 1 0 0
13.695054 -12.050875 3.294791 18.537361 -0.721623 1.392109 0.033270 -0.008978 1300580.000000 1 0 0
14.057654 -0.912875 9.216591 16.834386 -0.064847 0.991439 0.052254 -0.013163 2071060.000000 1 0 0
14.133254 -2.772175 -1.533809 14.484005 -0.193687 1.676892 0.006726 0.001331 806079.000000 1 0 0
15.047554 1.908625 9.115191 17.696284 0.126166 1.029683 0.057827 -0.004057 -1703210.000000 1 0 0
14.381354 -10.221575 -2.958109 17.890063 -0.617906 1.736908 0.061468 -0.014912 171248.000000 1 0 0
7.422754 -12.647775 6.123291 15.892079 -1.040078 1.175258 0.013595 -0.008647 1131520.000000 1 0 0
12.409354 -4.664575 7.077491 15.028014 -0.359552 1.080425 0.020656 -0.009197 1986770.000000 1 0 0
14.921954 -9.033375 -5.698109 18.350341 -0.544362 1.886534 0.071865 -0.015974 125240.000000 1 0 0
14.241654 -4.519875 4.759891 15.681535 -0.307315 1.262396 0.022610 -0.005651 397406.000000 1 0 0
17.083154 -4.294175 1.007691 17.643399 -0.246267 1.513651 0.039141 -0.009536 -2971010.000000 1 0 0
10.186454 -14.410675 1.141091 17.684272 -0.955475 1.506226 0.038174 -0.008566 1189740.000000 1 0 0
16.368654 -2.657375 8.598691 18.679721 -0.160941 1.092438 0.075720 -0.016424 678784.000000 1 0 0
15.986654 -2.644075 3.218491 16.520379 -0.163909 1.374723 0.016430 -0.001381 1942530.000000 1 0 0
7.794754 -15.198875 2.740191 17.299498 -1.096921 1.411729 0.026654 -0.008100 2775080.000000 1 0 0
16.712354 -6.994375 7.940291 19.780604 -0.396365 1.157732 0.071557 -0.014662 -611771.000000 1 0 0
10.286354 -8.628375 5.169991 14.387034 -0.697966 1.203224 0.009121 -0.007373 1444130.000000 1 0 0
10.948354 -11.874575 2.172091 16.296931 -0.825959 1.437116 0.023196 -0.005319 -211463.000000 1 0 0
12.386554 -7.393675 12.025691 18.780586 -0.538145 0.875874 0.050631 -0.019590 -135115.000000 1 0 0
15.160154 -9.809175 4.283291 18.557930 -0.574289 1.337890 0.042890 -0.012098 22563.800000 1 0 0
7.359754 -10.273875 7.795691 14.848949 -0.949177 1.018082 0.007876 -0.002107 475148.000000 1 0 0
15.203254 -3.316475 -4.265309 16.134770 -0.214778 1.838331 0.046431 -0.004904 720596.000000 1 0 0
11.786354 -9.126975 9.879691 17.883739 -0.658915 0.985508 0.037850 -0.013488 -606135.000000 1 0 0
16.929754 -6.683375 2.476691 18.368943 -0.375990 1.435554 0.053847 -0.011866 324401.000000 1 0 0
17.646654 3.950125 2.090391 18.203781 0.220215 1.455710 0.030018 0.002968 808111.000000 1 0 0
14.714654 -4.977475 8.894391 17.899902 -0.326184 1.050778 0.063103 -0.018617 536040.000000 1 0 0
12.847454 -12.617875 6.146791 19.027635 -0.776383 1.241851 0.035250 -0.010662 768738.000000 1 0 0
18.242154 0.810425 -0.844909 18.279684 0.044397 1.617034 0.042602 0.001420 1046510.000000 1 0 0
11.766254 -2.156875 11.020691 16.265070 -0.181297 0.826345 0.033272 -0.005448 1272430.000000 1 0 0
5.909254 -12.488475 10.525791 17.368753 -1.128837 0.919750 0.010616 -0.004786 -1303000.000000 1 0 0
10.828954 -5.067175 11.029991 16.266629 -0.437663 0.825656 0.031419 -0.009723 234643.000000 1 0 0
17.750554 1.309925 5.230191 18.551361 0.073663 1.284991 0.046540 -0.004922 -1643150.000000 1 0 0
12.313054 -7.772775 7.245191 16.264075 -0.563090 1.109095 0.028998 -0.009387 300625.000000 1 0 0
10.703554 -7.844975 14.331091 19.531766 -0.632488 0.746997 0.055186 -0.017243 169203.000000 1 0 0
14.150254 -0.285275 3.706891 14.630520 -0.020158 1.314637 0.007202 -0.001221 934393.000000 1 0 0
11.702854 -7.729075 2.612491 14.266061 -0.583682 1.386631 0.011266 -0.003394 1314480.000000 1 0 0
9.319454 6.074625 3.506491 11.663995 0.577655 1.265448 0.005243 0.001805 1178600.000000 1 0 0
-3.980446 14.679225 -9.939409 18.169079 -1.306002 2.149633 -0.002111 -0.003739 -349485.000000 1 0 0
8.862354 -6.358575 9.176591 14.254214 -0.622362 0.871367 0.005922 -0.007321 -26825.300000 1 0 0
5.898354 -10.570875 -8.444609 14.759587 -1.061846 2.179914 0.001261 -0.000860 510243.000000 1 0 0
5.404654 1.079125 0.586491 5.542452 0.197074 1.464780 0.001217 0.003304 2457180.000000 1 0 0
-0.443246 9.993525 10.947991 14.829886 -1.526472 0.740341 -0.000848 0.001274 1786120.000000 1 0 0
-6.248446 -5.217175 1.088991 8.212666 0.695695 1.437806 0.004325 -0.002972 4128090.000000 1 0 0
-1.087846 3.960325 -10.852409 11.603549 -1.302722 2.779807 0.009398 0.000696 1584170.000000 1 0 0
10.932354 5.705225 1.201791 12.389926 0.480987 1.473646 0.007339 0.003672 2362970.000000 1 0 0
-10.195446 -1.802775 -13.504909 17.017040 0.175013 2.487517 0.021052 -0.006316 -214339.000000 1 0 0
7.431454 10.844725 -6.066909 14.479018 0.970032 2.003155 0.006013 -0.003154 -106546.000000 1 0 0
-12.528746 -2.932375 -9.506609 15.998247 0.229913 2.207102 0.021286 -0.004812 54406.200000 1 0 0
-3.927746 -8.573275 2.567691 9.773498 1.141195 1.304956 0.003168 0.000281 -846542.000000 1 0 0
8.081054 -6.698775 -5.918709 12.050234 -0.692145 2.084228 0.002534 -0.002930 1221040.000000 1 0 0
14.446154 3.084025 -4.234209 15.366558 0.210327 1.849955 0.023915 -0.001906 318530.000000 1 0 0
-2.555946 -4.864175 9.796991 11.232724 1.086986 0.511149 0.000626 -0.003439 2636470.000000 1 0 0
3.447454 -1.924475 -4.480509 5.971893 -0.509140 2.419261 0.001432 0.000712 -2003720.000000 1 0 0
-4.039446 8.446125 -3.497909 9.994474 -1.124691 1.928351 0.001006 -0.001416 -131816.000000 1 0 0
5.779454 0.148825 11.769491 13.112786 0.025745 0.456596 0.001186 -0.001800 2292950.000000 1 0 0
7.097754 4.669425 12.299691 14.948714 0.581890 0.604489 0.004662 0.004221 1005510.000000 1 0 0
1.205654 -14.496175 12.482691 19.167949 -1.487817 0.861596 0.002882 -0.010443 86329.200000 1 0 0
3.020154 8.719125 -9.061009 12.932376 1.237348 2.347098 0.001934 0.000125 178745.000000 1 0 0
-4.492946 -8.905775 -4.559309 10.967528 1.103557 1.999519 0.006770 -0.002935 984834.000000 1 0 0
5.731654 -6.649775 -3.963309 9.632195 -0.859416 1.994857 0.002556 -0.003742 4286730.000000 1 0 0
-3.107946 3.516425 8.622491 9.816920 -0.846983 0.498440 0.002413 -0.000634 1678370.000000 1 0 0
-3.812946 3.194225 -11.100409 12.163910 -0.697328 2.720320 0.002049 -0.000519 307799.000000 1 0 0
3.050154 -6.189975 8.492891 10.942963 -1.112960 0.682330 -0.002443 0.001533 -146311.000000 1 0 0
-5.119046 -8.719075 10.555991 14.616971 1.039910 0.763857 0.006466 -0.007876 1414080.000000 1 0 0
-13.324046 -2.504175 6.621891 15.088092 0.185777 1.116442 0.008224 -0.004357 -626148.000000 1 0 0
3.934754 -5.944175 -8.325909 10.960669 -0.986065 2.433520 0.002018 -0.000340 1317750.000000 1 0 0
2.915454 -0.514075 12.423891 12.771735 -0.174533 0.233923 -0.002017 -0.000200 620343.000000 1 0 0
1.442254 -1.518675 -7.471809 7.759794 -0.811202 2.868301 0.004359 -0.000127 273314.000000 1 0 0
3.573354 -3.534175 3.373791 6.053241 -0.779886 0.979602 0.001387 -0.002186 2328250.000000 1 0 0
1.428354 0.421225 -11.848209 11.941427 0.286774 3.016561 0.011166 -0.000907 2307300.000000 1 0 0
4.014054 3.443525 -10.586909 11.834405 0.709044 2.678303 0.002582 0.003088 906749.000000 1 0 0
2.878654 3.286225 3.409291 5.541588 0.851414 0.908132 -0.004298 0.002583 712018.000000 1 0 0
-5.351046 0.890325 2.568991 6.002173 -0.164873 1.128506 0.002172 -0.005864 1985090.000000 1 0 0
-9.492446 -9.269375 5.696191 14.438644 0.773509 1.165262 0.008885 -0.005204 -1462000.000000 1 0 0
-3.058646 3.847525 -0.528809 4.943521 -0.899133 1.677971 0.000164 -0.006071 1111710.000000 1 0 0
-15.732146 -6.352775 5.017191 17.692664 0.383785 1.283277 0.008539 -0.007460 481604.000000 1 0 0
0.999954 6.737425 -8.022209 10.523718 1.423454 2.437653 0.002991 -0.000805 264347.000000 1 0 0
-1.623246 6.566225 -9.451709 11.622609 -1.328444 2.520456 0.004442 -0.000141 1329060.000000 1 0 0
2.046054 -0.342375 5.318891 5.709130 -0.165798 0.371878 0.001028 0.000277 3212700.000000 1 0 0
-3.446946 -0.609575 -6.359309 7.259051 0.175035 2.638410 0.005712 -0.005703 -416274.000000 1 0 0
1.917554 -1.114275 -2.396509 3.265253 -0.526400 2.394905 0.003736 0.000558 963762.000000 1 0 0
2.435854 -8.615775 -7.664809 11.786189 -1.295267 2.278804 0.000609 0.000535 1505020.000000 1 0 0
-2.551446 14.065225 -5.606109 15.354768 -1.391347 1.944542 0.005882 0.006374 3479240.000000 1 0 0
6.891454 -5.193575 -8.193709 11.899673 -0.645817 2.330306 0.006012 -0.001680 3588680.000000 1 0 0
-14.200546 -5.056775 -2.145509 15.225954 0.342096 1.712178 0.003889 -0.001015 -412356.000000 1 0 0
-2.742246 6.907825 -6.768509 10.052396 -1.192899 2.309490 0.005251 -0.000738 -2786760.000000 1 0 0
-5.755646 -1.009675 -8.098809 9.986871 0.173656 2.516563 0.008963 -0.009117 -21016.900000 1 0 0
-5.744846 -10.513675 3.546691 12.494784 1.070709 1.282986 0.002708 -0.001245 -2451520.000000 1 0 0
8.123154 -7.551675 6.626091 12.919695 -0.748956 1.032275 0.005230 -0.004363 968283.000000 1 0 0
8.852954 -5.904375 13.118191 16.891518 -0.588191 0.681523 0.028909 -0.008112 1038930.000000 1 0 0
-4.751146 9.515325 -0.770909 10.663447 -1.107697 1.643154 0.000640 -0.001417 1230800.000000 1 0 0
2.843554 6.611625 12.100691 14.079280 1.164627 0.536568 -0.000200 -0.000179 -251877.000000 1 0 0
5.980254 -2.779875 10.864091 12.709037 -0.435128 0.545569 0.000432 -0.001332 -326858.000000 1 0 0
-9.658446 -6.430975 -1.074109 11.653185 0.587430 1.663100 0.003261 -0.001503 -1345640.000000 1 0 0
0.833354 -13.405875 6.292191 14.832519 -1.508713 1.132700 0.011917 -0.005502 1073580.000000 1 0 0
-0.518346 -3.148075 8.652491 9.221966 1.407606 0.353265 -0.001827 -0.000670 1340580.000000 1 0 0
4.246754 0.762725 3.465191 5.533916 0.177707 0.894161 -0.002188 0.003118 1891560.000000 1 0 0
-10.153646 5.588725 8.217891 14.207889 -0.503162 0.954026 -0.002632 -0.010938 -581812.000000 1 0 0
9.404354 7.976025 -0.068809 12.331407 0.703402 1.576376 0.006260 0.003410 1327960.000000 1 0 0
4.281654 2.830725 8.136191 9.619937 0.584159 0.562802 -0.004789 -0.000845 3596690.000000 1 0 0
1.288654 2.582425 -9.722209 10.141543 1.107942 2.853023 0.008075 0.000435 1405180.000000 1 0 0
-1.447346 -10.135375 3.031591 10.677602 1.428954 1.282916 0.005982 -0.000666 -1962320.000000 1 0 0
-9.850146 9.569525 8.987991 16.412957 -0.770949 0.991284 0.009747 -0.013265 1016310.000000 1 0 0
9.801554 -1.995775 -7.631909 12.581718 -0.200872 2.222557 0.015087 0.001027 1413950.000000 1 0 0
-5.234846 -1.807375 6.651691 8.655357 0.332445 0.694294 0.002694 -0.004078 1030340.000000 1 0 0
3.058654 -7.902075 -4.896109 9.786217 -1.201486 2.094749 0.001037 -0.002750 3908730.000000 1 0 0
-5.143046 4.875025 -13.063609 14.861853 -0.758651 2.644563 0.001097 -0.001339 2406460.000000 1 0 0
-5.646346 9.676725 5.356591 12.418265 -1.042599 1.124810 0.000264 -0.003067 1344290.000000 1 0 0
-0.482546 -1.856075 -9.369309 9.563567 1.316445 2.939694 0.007329 -0.003371 888517.000000 1 0 0
-16.716046 0.346725 6.358091 17.887753 -0.020739 1.207407 0.022964 -0.010763 -195799.000000 1 0 0
-5.984146 -2.814375 4.010591 7.734051 0.439611 1.025627 -0.000337 -0.003919 1411310.000000 1 0 0
0.952154 -5.756275 -5.135809 7.772891 -1.406869 2.292592 0.004118 -0.002303 931778.000000 1 0 0
-7.057846 1.462925 -8.499609 11.144357 -0.204382 2.438247 0.003763 -0.005310 713688.000000 1 0 0
8.057054 1.910425 4.835991 9.589195 0.232813 1.042206 0.000677 0.001904 672493.000000 1 0 0
0.442154 -8.051575 -0.530209 8.081119 -1.515936 1.636454 0.003266 -0.000011 564266.000000 1 0 0
5.439354 5.532525 -3.447609 8.490078 0.793890 1.988951 0.002695 0.003241 -661541.000000 1 0 0
-0.698446 -0.341775 -1.155609 1.392863 0.455080 2.549302 0.001372 -0.002351 -17931.400000 1 0 0
9.117654 6.340825 -6.395509 12.815624 0.607662 2.093287 0.007944 -0.002472 528758.000000 1 0 0
-14.992046 -6.988275 2.454991 16.721973 0.436188 1.423451 -0.004211 -0.002277 741528.000000 1 0 0
-6.417146 6.834225 8.942791 12.956076 -0.816862 0.808977 0.003106 -0.003162 -623920.000000 1 0 0
-9.561246 -3.092975 -9.664309 13.942122 0.312866 2.336679 0.009042 -0.005659 1944560.000000 1 0 0
14.922854 3.453525 -1.242309 15.367555 0.227422 1.651724 0.014344 0.000488 533193.000000 1 0 0
12.116854 1.663825 -5.826809 13.547626 0.136462 2.015398 0.018175 -0.000693 919803.000000 1 0 0
1.689054 -9.483675 12.757591 15.985904 -1.394543 0.646740 -0.001924 -0.000318 911618.000000 1 0 0
-3.609446 6.387825 7.900391 10.781864 -1.056471 0.748445 0.002515 -0.000482 1087990.000000 1 0 0
-4.047646 12.998825 -12.447809 18.447245 -1.268927 2.311461 0.004325 -0.003430 -204715.000000 1 0 0
-10.160646 7.794625 6.406991 14.319373 -0.654380 1.106901 0.000739 -0.011736 1084060.000000 1 0 0
8.202254 -9.356975 -7.089809 14.321150 -0.851065 2.088699 0.005732 -0.001552 -859936.000000 1 0 0
5.857354 -3.857375 -0.296609 7.019681 -0.582364 1.613063 0.005852 -0.000327 -1466550.000000 1 0 0
-1.628546 -4.426475 4.193491 6.311197 1.218256 0.844035 0.000447 -0.000907 828795.000000 1 0 0
9.844754 -2.067275 -2.609209 10.392343 -0.206980 1.824582 0.004327 0.000773 -2486690.000000 1 0 0
13.612854 7.023225 1.371091 15.379057 0.476307 1.481525 0.012779 0.000191 495241.000000 1 0 0
5.409054 -3.762875 -3.242709 7.343858 -0.607809 2.028126 0.004172 -0.002297 -2697730.000000 1 0 0
-12.332146 -5.859275 1.932291 13.789368 0.443548 1.430205 -0.000797 0.001224 543030.000000 1 0 0
3.677154 -5.743575 -0.247709 6.824330 -1.001327 1.607102 0.005373 -0.001879 926575.000000 1 0 0
-5.204546 3.752925 -8.682709 10.796350 -0.624738 2.505169 0.001688 -0.003475 2819100.000000 1 0 0
-1.669746 -9.213575 7.262091 11.849725 1.391515 0.911135 0.002642 -0.003603 1779720.000000 1 0 0
-7.387546 -7.390175 2.653091 10.780974 0.785576 1.322152 0.005652 -0.002985 -4632850.000000 1 0 0
-5.805746 13.078325 -8.546809 16.667250 -1.153009 2.109228 0.000178 -0.002449 2375600.000000 1 0 0
9.268654 -14.066575 -4.120909 17.342387 -0.988181 1.810712 0.034128 -0.000021 947734.000000 1 0 0
-6.531746 -5.105775 -6.737409 10.682945 0.663474 2.253212 0.009689 -0.004414 -71185.600000 1 0 0
3.427954 0.336225 -6.178509 7.073746 0.097771 2.633024 0.002571 -0.000468 1139100.000000 1 0 0
-3.584846 5.811025 4.990691 8.457312 -1.018040 0.939609 0.001637 -0.001263 559935.000000 1 0 0
-2.670846 -10.768775 -2.872809 11.460932 1.327684 1.824159 0.009551 -0.001560 1048350.000000 1 0 0
-12.576146 -0.397075 1.781491 12.707904 0.031563 1.430145 0.005575 -0.006664 747047.000000 1 0 0
8.485454 -12.059475 -5.955409 15.902854 -0.957636 1.954640 0.022988 -0.007078 -1809910.000000 1 0 0
6.192554 3.998025 1.044391 7.444642 0.573289 1.430044 -0.001356 0.003317 -649082.000000 1 0 0
3.433854 -4.851375 -10.979209 12.484799 -0.954848 2.645410 0.004669 0.002299 188806.000000 1 0 0
-7.648346 4.213325 8.624991 12.273540 -0.503519 0.791568 0.000288 -0.002936 1517430.000000 1 0 0
8.206954 8.743925 4.107891 12.676163 0.817066 1.240774 0.006839 0.000162 1359260.000000 1 0 0
0.242154 10.553525 -6.451509 12.371641 1.547855 2.119376 0.003859 0.002923 1456490.000000 1 0 0
5.436054 8.104325 3.259291 10.288525 0.979965 1.248454 0.002622 0.000982 3246240.000000 1 0 0
8.059054 6.675225 -3.805909 11.135166 0.691754 1.919619 0.004518 0.000690 49330.100000 1 0 0
10.475454 2.483525 -8.280509 13.581969 0.232783 2.226440 0.012586 -0.001341 1716430.000000 1 0 0
3.403554 -12.565675 -0.277609 13.021422 -1.306282 1.592117 0.007046 0.000569 -2606730.000000 1 0 0
0.635554 2.221025 5.260491 5.745403 1.292091 0.413798 0.001712 -0.000046 229106.000000 1 0 0
-4.786546 13.340825 1.399391 14.242434 -1.226313 1.472382 -0.004068 0.000524 1572730.000000 1 0 0
8.152254 4.056825 -8.105809 12.191030 0.461752 2.298155 0.009755 0.000354 1488850.000000 1 0 0
-13.850546 -0.538575 -3.454609 14.285027 0.038865 1.815052 0.006881 -0.004459 209523.000000 1 0 0
-8.585746 0.093625 -0.476609 8.599474 -0.010904 1.626248 0.000312 -0.005426 -389455.000000 1 0 0
1.768654 -3.816675 -1.196509 4.373417 -1.136853 1.847916 0.004540 -0.000620 -1225630.000000 1 0 0
8.083154 -5.730575 -0.207909 9.910605 -0.616709 1.591776 0.006540 -0.002844 2230050.000000 1 0 0
-2.342246 -1.164775 7.400691 7.849398 0.461477 0.339757 0.002551 -0.002061 1948350.000000 1 0 0
-5.864746 8.866025 -11.735509 15.834261 -0.986389 2.405573 0.000040 -0.000395 -502187.000000 1 0 0
-6.213546 9.278625 -8.884109 14.269843 -0.980723 2.242831 -0.004267 0.004245 424963.000000 1 0 0
-1.542946 14.006025 -8.386309 16.397549 -1.461076 2.107652 0.016799 -0.000342 38363.900000 1 0 0
-1.429046 7.276125 9.751691 12.250700 -1.376863 0.650120 0.001446 -0.002310 1341400.000000 1 0 0
10.009554 2.375325 -4.129409 11.085367 0.232996 1.952508 0.007443 -0.001161 -1620050.000000 1 0 0
-3.039646 -7.648775 -6.922309 10.754606 1.192531 2.270067 0.009817 -0.003882 1504700.000000 1 0 0
-5.602346 -4.998875 -1.588409 7.674508 0.728535 1.779275 0.002496 -0.000752 568197.000000 1 0 0
5.621154 7.341925 -8.767609 12.742535 0.917371 2.329606 -0.001036 0.000863 -214793.000000 1 0 0
-9.470646 5.300625 -7.420309 13.147271 -0.510252 2.170502 -0.004643 0.000929 314490.000000 1 0 0
-0.411746 6.167125 -5.257709 8.114584 -1.504131 2.275664 0.004013 0.000935 -415332.000000 1 0 0
-8.236346 2.850425 -6.317109 10.764208 -0.333177 2.197975 0.000022 -0.000834 977166.000000 1 0 0
3.664454 1.394825 -1.982809 4.393779 0.363703 2.038991 -0.000318 0.002262 3333150.000000 1 0 0
-6.813246 12.465925 -3.416709 14.611417 -1.070606 1.806820 0.006824 0.003651 625791.000000 1 0 0
-6.577346 3.234125 -2.345209 7.695521 -0.456991 1.880472 0.000547 -0.004108 -1667250.000000 1 0 0
12.134554 4.020625 -0.833009 12.810415 0.319953 1.635868 0.009314 0.000273 273875.000000 1 0 0
2.247054 12.412825 -5.524609 13.771303 1.391709 1.983588 0.009141 -0.002719 1028490.000000 1 0 0
-9.193546 -1.426875 -4.276609 10.239465 0.153975 2.001664 0.003673 -0.001203 -142160.000000 1 0 0
-1.094146 5.737325 3.516391 6.817555 -1.382353 1.028873 -0.000199 -0.001244 2038930.000000 1 0 0
11.568354 2.578725 11.994791 16.862730 0.219326 0.779422 0.044261 0.004309 -365962.000000 1 0 0
-7.077346 -2.287875 -5.699609 9.370631 0.312664 2.224640 0.008689 -0.004257 87614.600000 1 0 0
7.518154 -7.303175 10.843591 15.081196 -0.770894 0.768414 0.006126 0.000250 -986230.000000 1 0 0
-5.548946 -1.945775 -10.834309 12.327168 0.337260 2.644341 0.011285 -0.003779 167842.000000 1 0 0
0.792854 -6.122175 4.405191 7.583888 -1.442008 0.951009 0.000579 -0.000103 -358489.000000 1 0 0
-4.765646 -9.390575 7.449591 12.899251 1.101173 0.955107 0.002988 -0.005882 2348960.000000 1 0 0
-8.785246 9.426225 1.690291 12.995820 -0.820580 1.440363 0.002734 -0.007691 1329280.000000 1 0 0
-8.152646 7.320725 -9.081609 14.231453 -0.731685 2.262872 -0.007102 0.002032 -1859190.000000 1 0 0
-1.323546 -10.582875 -0.091009 10.665706 1.446377 1.579329 0.005760 -0.000881 6716.720000 1 0 0
-3.897846 10.404525 7.662291 13.496594 -1.212350 0.967062 0.003005 0.000430 2170650.000000 1 0 0
-7.388546 12.139525 1.907291 14.338634 -1.024051 1.437383 -0.000313 -0.006272 158144.000000 1 0 0
-8.149146 -8.261675 -2.847909 11.948825 0.792255 1.811455 0.008067 -0.002647 95631.300000 1 0 0
5.337154 4.541225 -8.035409 10.661882 0.704999 2.424406 0.002099 0.003070 422721.000000 1 0 0
-8.998246 -0.105375 -10.228009 13.623204 0.011710 2.420036 0.010910 -0.006951 -1357500.000000 1 0 0
-15.280946 -2.299375 -1.481909 15.523868 0.149353 1.666402 0.007313 -0.005992 -527855.000000 1 0 0
-7.121946 -5.748675 8.708991 12.633919 0.679102 0.810227 0.008239 -0.007695 -2649680.000000 1 0 0
8.117254 3.456825 -1.037609 8.883473 0.402600 1.687866 0.003810 0.004588 238686.000000 1 0 0
11.896654 7.158525 -5.920309 15.093870 0.541688 1.973854 0.014024 -0.002617 154015.000000 1 0 0
3.763754 13.337625 -9.478509 16.789885 1.295757 2.170668 0.011494 -0.012283 951272.000000 1 0 0
-9.730946 5.448825 -0.442709 11.161406 -0.510449 1.610471 -0.000549 -0.004665 187144.000000 1 0 0
11.264454 -1.300575 -5.151609 12.454658 -0.114949 1.997233 0.017278 -0.002152 -1046050.000000 1 0 0
10.595654 1.770225 -1.258909 10.816027 0.165542 1.687454 0.006059 0.001286 -482056.000000 1 0 0
14.660854 5.129725 4.758391 16.244908 0.336579 1.273521 0.020293 -0.009985 2088190.000000 1 0 0
0.903354 -0.826875 10.330591 10.402927 -0.741225 0.117995 -0.000211 -0.000252 1848720.000000 1 0 0
-7.940546 1.362925 -12.586809 14.944483 -0.169985 2.572217 0.009812 -0.005556 509606.000000 1 0 0
3.225054 -11.515675 -7.708709 14.227998 -1.297734 2.143372 0.002628 0.000264 955675.000000 1 0 0
2.850654 5.013025 -6.729709 8.862597 1.053748 2.433092 0.001837 0.003765 -2008760.000000 1 0 0
6.501154 8.115225 0.557491 10.413102 0.895381 1.517233 0.005341 0.000694 415661.000000 1 0 0
-9.034946 -5.326375 6.745691 12.470159 0.532686 0.999234 0.004087 -0.003653 -725214.000000 1 0 0
-0.268946 -6.942075 -11.779509 13.675583 1.532074 2.608724 -0.001554 0.000628 1438500.000000 1 0 0
6.449154 -13.456675 -4.656809 15.632004 -1.123883 1.873291 0.017041 -0.001251 2574050.000000 1 0 0
-3.232246 -0.410475 10.036291 10.551921 0.126318 0.313908 0.003007 -0.000982 -1253790.000000 1 0 0
8.629054 8.450925 6.990991 13.955382 0.774969 1.046097 -0.001719 -0.000136 -881851.000000 1 0 0
-7.923046 5.739025 -2.597409 10.122134 -0.626879 1.830306 -0.001943 -0.004044 23380.800000 1 0 0
-5.421646 5.856025 -6.444709 10.257755 -0.823896 2.250133 0.000127 -0.000627 -1037210.000000 1 0 0
3.346254 -13.711175 2.561891 14.344233 -1.331423 1.391232 0.018084 -0.004775 -1737340.000000 1 0 0
-11.244746 -6.965275 6.519191 14.746498 0.554580 1.112876 0.011350 -0.005718 -1463500.000000 1 0 0
-12.899846 -3.757575 -6.686609 15.007869 0.283445 2.032574 0.009193 -0.006443 136308.000000 1 0 0
6.004854 0.307325 -7.304509 9.460897 0.051135 2.452894 0.006547 0.002975 -793897.000000 1 0 0
-1.477146 2.192825 -2.447109 3.602608 -0.977991 2.317551 0.002790 -0.003978 1710380.000000 1 0 0
7.578754 0.940025 -5.012709 9.135010 0.123404 2.151648 0.006334 0.003149 -64306.400000 1 0 0
3.675454 -4.522275 10.845091 12.311618 -0.888332 0.493073 -0.001756 0.000762 -671371.000000 1 0 0
6.041854 -2.572275 2.085491 6.889839 -0.402499 1.263282 0.004669 -0.001678 -73585.400000 1 0 0
-6.349046 7.760125 1.160291 10.093374 -0.885078 1.455586 -0.002101 -0.004841 1417400.000000 1 0 0
5.996854 -3.464975 7.924491 10.524537 -0.523935 0.718257 0.004030 -0.004201 787560.000000 1 0 0
6.795154 -2.331675 -7.844609 10.637139 -0.330549 2.400118 0.007228 -0.000731 273471.000000 1 0 0
12.092854 -8.192675 -5.874609 15.743827 -0.595452 1.953185 0.031560 -0.009258 99986.700000 1 0 0
5.631354 -9.601375 9.962691 14.938332 -1.040351 0.840727 0.000210 0.000679 1438460.000000 1 0 0
-6.695846 7.623225 -4.467809 11.086443 -0.850073 1.985586 -0.001365 -0.000880 1305080.000000 1 0 0
-1.381046 -7.545575 9.792891 12.439602 1.389773 0.664484 -0.000759 -0.005190 88335.800000 1 0 0
10.110254 -9.330375 0.789491 13.780292 -0.745304 1.513474 0.007158 -0.003054 1335560.000000 1 0 0
11.092254 6.133625 9.797591 16.020370 0.505117 0.912752 0.007021 -0.000090 1230100.000000 1 0 0
-15.272446 -4.279875 -4.941709 16.612808 0.273227 1.872831 0.005915 -0.003948 2169190.000000 1 0 0
-4.711946 -4.540375 7.766191 10.155351 0.766857 0.700160 0.004012 -0.006001 -991983.000000 1 0 0
2.954054 10.899725 -11.061509 15.807828 1.306133 2.345842 0.002794 -0.002399 -1617520.000000 1 0 0
9.908354 -1.389775 1.553691 10.125261 -0.139354 1.416741 0.001068 0.000658 -148925.000000 1 0 0
-1.674246 -2.628675 0.637991 3.181205 1.003674 1.368877 0.001238 -0.001779 170938.000000 1 0 0
1.626554 3.031725 0.913791 3.559783 1.078368 1.311192 -0.002685 0.000271 -1212630.000000 1 0 0
-8.944246 -2.281175 4.300891 10.183366 0.249720 1.134766 0.001178 -0.003989 2581910.000000 1 0 0
9.930454 4.845025 -2.759909 11.388823 0.453917 1.815568 0.006039 0.001524 2316490.000000 1 0 0
2.600354 8.522125 2.521291 9.259880 1.274640 1.295033 -0.001544 -0.000729 439375.000000 1 0 0
-8.093646 -0.017875 2.461891 8.459807 0.002208 1.275514 -0.001536 -0.006263 -265692.000000 1 0 0
6.845554 2.128225 13.760291 15.515688 0.301419 0.480285 0.011104 0.001394 -1332190.000000 1 0 0
6.892954 4.392925 3.888991 9.051788 0.567400 1.126705 -0.001025 0.002491 -1126210.000000 1 0 0
-0.289446 3.370325 7.792691 8.495229 -1.485126 0.409545 -0.001460 -0.000101 1591600.000000 1 0 0
2.750054 -10.267075 9.304091 14.125924 -1.309088 0.851768 0.000408 -0.003762 2396780.000000 1 0 0
1.419254 -4.538475 6.803891 8.300902 -1.267715 0.609985 -0.000904 -0.000856 -224360.000000 1 0 0
-0.220846 10.821425 -2.009609 11.008658 -1.550391 1.754374 0.006106 -0.002555 2592130.000000 1 0 0
8.804854 5.551625 8.083191 13.178922 0.562558 0.910511 -0.000989 -0.000549 -481784.000000 1 0 0
2.623554 11.433525 -2.894709 12.082544 1.345239 1.812727 0.007273 -0.004527 2897990.000000 1 0 0
1.439954 2.402825 -6.654109 7.219709 1.030910 2.743131 0.002639 0.002179 2834710.000000 1 0 0
-13.531946 -2.127575 3.636091 14.172554 0.155949 1.311336 0.002319 -0.004619 12031.500000 1 0 0
-0.910246 -10.651875 -5.294009 11.929690 1.485549 2.030595 0.008107 -0.003455 -1406470.000000 1 0 0
-5.632346 2.937425 0.463191 6.369170 -0.480721 1.498008 0.002196 -0.006181 -283132.000000 1 0 0
3.802554 7.347925 -5.056509 9.696376 1.093247 2.119386 0.003565 0.000141 -2329100.000000 1 0 0
3.027754 9.821225 -6.565409 12.195423 1.271754 2.139275 0.004831 -0.000272 1406970.000000 1 0 0
-12.175846 1.756825 -2.533209 12.560048 -0.143299 1.773877 0.004879 -0.004528 457950.000000 1 0 0
-2.514146 9.674625 -5.690809 11.502374 -1.316550 2.088344 0.002671 0.002750 953169.000000 1 0 0
-1.246146 3.415425 1.716591 4.020534 -1.220947 1.129672 -0.000984 -0.003392 -762750.000000 1 0 0
12.898054 3.740625 9.630791 16.525865 0.282271 0.948662 0.036025 -0.000303 76201.300000 1 0 0
-2.561846 -9.481375 11.692591 15.270108 1.306900 0.698640 -0.000800 -0.007436 1181610.000000 1 0 0
-0.426146 -8.978375 -7.589109 11.763817 1.523368 2.271981 0.007321 -0.003141 3637040.000000 1 0 0
2.284554 7.686325 -0.452709 8.031421 1.281889 1.627193 0.004576 -0.000251 1556280.000000 1 0 0
-11.934846 -1.310475 -5.489109 13.201826 0.109364 1.999601 0.004180 -0.000553 -458214.000000 1 0 0
-6.230046 -7.158975 -10.944109 14.485783 0.854667 2.427224 0.006236 -0.002967 2423810.000000 1 0 0
-4.709046 -2.203275 -1.420809 5.389641 0.437624 1.837568 0.000827 -0.001561 -1709140.000000 1 0 0
-10.449046 3.677225 4.498791 11.955905 -0.338384 1.185016 0.001434 -0.010177 3789760.000000 1 0 0
6.754654 9.351825 -3.543909 12.068193 0.945272 1.868847 0.002022 -0.000425 736869.000000 1 0 0
1.177554 -2.805475 -11.559509 11.953224 -1.173394 2.884220 0.008528 -0.001336 -1447190.000000 1 0 0
1.264854 8.801925 7.559891 11.671577 1.428071 0.866211 -0.006364 0.002600 1173170.000000 1 0 0
10.394554 0.398625 10.466191 14.756247 0.038331 0.782332 0.019054 -0.000849 172743.000000 1 0 0
-5.222746 -0.821775 -3.921909 6.582838 0.156066 2.209030 0.005315 -0.004499 798708.000000 1 0 0
11.730354 5.610425 5.412691 14.084577 0.446123 1.176348 0.000648 0.000696 3601280.000000 1 0 0
9.971954 -3.452575 3.701591 11.183109 -0.333311 1.233435 0.007969 -0.005568 -1844840.000000 1 0 0
7.263954 -1.689675 -3.395509 8.194481 -0.228547 1.998042 0.004263 0.001974 -1377080.000000 1 0 0
2.447854 9.281725 10.419091 14.166858 1.312939 0.744458 -0.002039 0.003095 2427700.000000 1 0 0
2.358854 -10.917475 6.421791 12.883899 -1.358005 1.049003 0.004312 -0.002486 749438.000000 1 0 0
5.801254 -7.559775 -1.125309 9.595367 -0.916262 1.688343 0.005664 -0.004122 667034.000000 1 0 0
-0.242146 -5.584575 -2.389509 6.079133 1.527464 1.974761 0.002755 0.000149 393940.000000 1 0 0
7.797954 -5.125275 2.703891 9.715326 -0.581461 1.288760 0.006152 -0.005496 1390700.000000 1 0 0
-2.749646 -12.454275 4.759291 13.613242 1.353503 1.213644 0.007561 -0.001785 292488.000000 1 0 0
4.866454 -10.323175 -1.124009 11.467943 -1.130281 1.668967 0.008034 -0.003289 984254.000000 1 0 0
0.967154 0.229025 1.152591 1.521942 0.232520 0.711603 -0.000981 -0.000857 -1757230.000000 1 0 0
-1.551746 8.488725 2.411991 8.960138 -1.389992 1.298243 -0.002841 -0.000852 -313726.000000 1 0 0
-7.518346 0.677625 -3.112209 8.165203 -0.089887 1.961842 -0.000668 -0.001588 267227.000000 1 0 0
4.404054 -6.415575 12.873191 15.042418 -0.969214 0.543715 0.006979 -0.003685 -1114080.000000 1 0 0
-5.053046 13.096325 8.362791 16.339623 -1.202559 1.033505 0.008386 -0.007489 1391890.000000 1 0 0
0.705654 6.147525 8.261891 10.322251 1.456510 0.642840 -0.003352 0.002501 505736.000000 1 0 0
7.938754 -0.562075 -0.718209 7.990968 -0.070683 1.660795 0.003110 0.001571 5031300.000000 1 0 0
2.378854 -9.312775 -2.383409 9.902897 -1.320704 1.813861 0.004513 -0.001751 1323040.000000 1 0 0
-7.092146 12.199225 4.753291 14.890044 -1.044195 1.245884 0.002274 -0.005549 95088.900000 1 0 0
-14.991246 0.274325 0.171591 14.994737 -0.018297 1.559353 0.007419 -0.008062 825805.000000 1 0 0
6.895454 -0.489875 3.869591 7.922184 -0.070924 1.060484 0.001555 0.000145 741143.000000 1 0 0
-4.251846 -4.960675 5.080491 8.276344 0.862189 0.909859 -0.000236 -0.003086 -778545.000000 1 0 0
2.985954 5.169225 6.880591 9.109300 1.046980 0.714628 -0.004916 0.000010 -679779.000000 1 0 0
2.015154 -7.243375 1.816391 7.734766 -1.299451 1.333748 0.002762 -0.001416 1348140.000000 1 0 0
-2.493046 6.430825 -1.789709 7.125577 -1.200963 1.824682 0.001818 -0.001392 1635930.000000 1 0 0
2.686054 -3.863375 -6.543809 8.059900 -0.963258 2.518191 0.002171 -0.002275 -786133.000000 1 0 0
-5.114646 0.874225 -12.089309 13.155807 -0.169290 2.736164 0.006605 -0.000174 419569.000000 1 0 0
-7.482246 6.376125 -11.877409 15.417905 -0.705751 2.450209 -0.001735 -0.002344 1695520.000000 1 0 0
-1.039146 11.247425 -9.078609 14.491568 -1.478668 2.247819 0.006169 0.003727 553908.000000 1 0 0
4.637354 6.011625 -0.574009 7.614078 0.913741 1.646256 0.001853 0.002799 1164150.000000 1 0 0
-2.636346 13.393125 3.544991 14.102946 -1.376438 1.316706 -0.001961 0.002220 16142.700000 1 0 0
1.447354 -7.922075 10.224191 13.014922 -1.390090 0.667172 -0.001692 -0.001136 -720161.000000 1 0 0
12.930554 -0.228375 -1.096609 12.978981 -0.017660 1.655388 0.010466 0.000056 -382393.000000 1 0 0
-1.052146 3.128125 -5.362109 6.296379 -1.246333 2.589860 0.004117 -0.003416 574584.000000 1 0 0
6.575654 1.025625 7.337891 9.906351 0.154726 0.736646 -0.000646 -0.000513 1250370.000000 1 0 0
5.462354 -6.160975 6.780591 10.666365 -0.845431 0.881883 0.000911 -0.000950 965354.000000 1 0 0
12.212254 -4.922475 2.709191 13.442828 -0.383156 1.367872 0.009105 -0.004031 -1832900.000000 1 0 0
4.414254 -9.330975 13.895291 17.309877 -1.128919 0.638924 0.004023 0.000699 353469.000000 1 0 0
-2.713346 -4.276375 -1.419509 5.259718 1.005397 1.844068 0.002557 -0.002729 2904120.000000 1 0 0
-9.269546 -5.082075 -7.556109 12.994104 0.501503 2.191371 0.014237 -0.004832 644882.000000 1 0 0
-10.584246 -3.077675 7.846491 13.530180 0.282976 0.952160 0.002634 -0.003401 1060150.000000 1 0 0
12.040454 -0.631675 1.636891 12.167620 -0.052415 1.435859 0.005012 0.000146 -535645.000000 1 0 0
-7.607346 4.700425 4.390891 9.962210 -0.553463 1.114357 0.002192 -0.007119 1960370.000000 1 0 0
-0.994446 10.677425 6.891991 12.747387 -1.477929 0.999576 -0.004847 0.003948 920211.000000 1 0 0
7.356954 -10.079775 1.889791 12.621329 -0.940301 1.420501 0.006355 -0.004225 3054020.000000 1 0 0
-4.361746 -1.674375 1.590591 4.935416 0.366531 1.242658 -0.001055 -0.002181 590872.000000 1 0 0
6.701354 -15.153075 -0.991209 16.598383 -1.154411 1.630549 0.037004 -0.003139 -107515.000000 1 0 0
-10.422246 1.710925 2.368091 10.823970 -0.162710 1.350230 -0.001199 -0.005705 1073090.000000 1 0 0
-2.979146 8.274725 -11.390309 14.390466 -1.225215 2.484085 0.002711 0.004247 875877.000000 1 0 0
-1.303346 -5.280275 -6.895409 8.782179 1.328801 2.473749 0.003484 -0.004726 -494317.000000 1 0 0
12.829754 -0.522375 6.401491 14.347633 -0.040693 1.108315 0.012911 -0.007307 2764590.000000 1 0 0
5.925454 -13.351875 3.807691 15.095764 -1.153117 1.315806 0.013957 -0.006496 670643.000000 1 0 0
-5.574546 3.530525 -4.929309 8.236398 -0.564567 2.212397 0.002864 -0.002280 1477460.000000 1 0 0
-4.324846 8.094825 3.311191 9.756765 -1.080108 1.224545 -0.001271 -0.001505 527276.000000 1 0 0
14.031954 6.120825 -4.065209 15.839387 0.411324 1.830353 0.028217 0.000264 1140340.000000 1 0 0
-6.709746 -8.464675 5.413291 12.082017 0.900537 1.106219 0.008706 -0.005236 922506.000000 1 0 0
1.685954 11.421525 2.584491 11.831030 1.424243 1.350570 -0.000075 -0.002796 2517390.000000 1 0 0
-7.349646 7.276125 6.000691 11.956905 -0.780371 1.045049 0.001433 -0.007946 -1508180.000000 1 0 0
-17.255446 -3.886275 5.253891 18.451474 0.221524 1.282060 0.013918 -0.011307 362570.000000 1 0 0
7.532354 -13.043875 -8.510709 17.300613 -1.047113 2.085103 0.026180 -0.008102 -904608.000000 1 0 0
-2.357946 12.810125 -2.852009 13.333910 -1.388765 1.786353 0.001207 0.002367 738627.000000 1 0 0
-5.624446 13.961125 -5.805209 16.132199 -1.187823 1.938906 0.012137 0.005146 3365780.000000 1 0 0
-5.625046 2.406825 7.445791 9.637103 -0.404305 0.687843 0.004842 -0.004019 955538.000000 1 0 0
-7.341146 5.158825 1.499891 9.097009 -0.612554 1.405163 0.003450 -0.005989 2061740.000000 1 0 0
10.797554 -5.706075 -5.064309 13.220957 -0.486155 1.963894 0.011438 -0.002819 2957930.000000 1 0 0
-9.582746 -0.631075 6.837691 11.789033 0.065760 0.952062 -0.000733 -0.003996 1820380.000000 1 0 0
-11.312446 -4.482875 -2.513709 12.425229 0.377294 1.774509 0.004424 -0.000798 1033350.000000 1 0 0
6.517654 -4.303075 13.462091 15.563553 -0.583525 0.525695 0.015330 -0.008881 -708058.000000 1 0 0
0.255154 10.253625 -11.733809 15.584743 1.545917 2.423259 0.001443 0.006097 -1620640.000000 1 0 0
-11.791646 -3.088475 1.490991 12.280254 0.256166 1.449082 -0.001302 -0.002760 2884580.000000 1 0 0
5.250654 6.032225 5.450691 9.678179 0.854558 0.972550 -0.002727 0.001378 -5872320.000000 1 0 0
-7.175446 -0.001275 8.149891 10.858533 0.000178 0.721900 0.001909 -0.004834 487246.000000 1 0 0
1.822754 2.044725 9.603491 9.986510 0.842729 0.277854 -0.003137 0.000187 2408990.000000 1 0 0
10.421754 -4.993675 -2.055409 11.737737 -0.446836 1.746815 0.006894 -0.000861 1388670.000000 1 0 0
-9.683146 -2.272275 -1.598009 10.073737 0.230492 1.730100 0.001852 -0.003011 -959255.000000 1 0 0
-2.000346 -5.298475 -9.874909 11.383718 1.209807 2.620868 0.011345 -0.004339 810242.000000 1 0 0
7.622254 -1.627875 6.502891 10.150681 -0.210408 0.875470 0.002715 -0.004628 1456050.000000 1 0 0
1.537754 -11.979975 -2.508409 12.335988 -1.443134 1.775565 0.008467 -0.000505 -3851800.000000 1 0 0
-0.823346 -1.451575 4.806091 5.087581 1.054837 0.334206 0.004536 -0.001847 2203950.000000 1 0 0
7.677854 1.532825 9.940691 12.653709 0.197052 0.667139 0.003191 -0.000867 1581720.000000 1 0 0
-3.820046 10.695625 -8.055709 13.924209 -1.227758 2.187734 0.001876 0.004974 2199840.000000 1 0 0
-9.513246 12.687225 6.271291 17.052760 -0.927405 1.194199 0.009647 -0.011513 313521.000000 1 0 0
-2.633646 -2.562275 -10.994309 11.592073 0.771663 2.819053 0.010770 -0.004714 -427070.000000 1 0 0
1.261154 -11.937975 11.141291 16.377855 -1.465544 0.822671 -0.000581 -0.003039 2053370.000000 1 0 0
1.344754 3.434225 -1.914509 4.155432 1.197574 2.049608 0.001539 0.000781 3735020.000000 1 0 0
-1.964646 -9.458275 -12.047809 15.442425 1.365992 2.465743 0.001185 0.000048 1544580.000000 1 0 0
1.264354 -2.667275 1.473191 3.298976 -1.128144 1.107879 0.005526 -0.002018 4592020.000000 1 0 0
-1.104446 -2.353975 -6.619609 7.111977 1.132105 2.767307 0.004593 -0.005608 -254242.000000 1 0 0
1.854154 5.894025 4.074591 7.401332 1.266016 0.987808 -0.006119 0.001121 -2429430.000000 1 0 0
-10.977746 8.616725 3.634591 14.421134 -0.665482 1.316017 0.004619 -0.011585 1873140.000000 1 0 0
-16.328446 -1.386075 3.963391 16.859650 0.084684 1.333494 0.017138 -0.007922 -563515.000000 1 0 0
-12.369546 0.291725 6.862391 14.148610 -0.023580 1.064408 -0.000100 -0.001809 225822.000000 1 0 0
-5.064346 3.051625 4.643991 7.518422 -0.542307 0.905005 0.002579 -0.003856 1364770.000000 1 0 0
5.194554 -6.046275 3.922491 8.884074 -0.861024 1.113505 0.001777 -0.003058 863962.000000 1 0 0
9.934254 3.428725 6.316791 12.261624 0.332340 1.029593 -0.001418 0.003328 1040620.000000 1 0 0
-12.103746 5.841325 3.195991 13.814344 -0.449635 1.337328 0.005454 -0.009566 764936.000000 1 0 0
-4.894646 12.261825 -1.326909 13.269160 -1.190999 1.670963 -0.003573 0.002557 1757860.000000 1 0 0
-1.691846 -12.140375 10.376891 16.060228 1.432331 0.868302 0.007296 -0.009424 1635390.000000 1 0 0
5.210354 6.431325 13.816591 16.106146 0.889895 0.539733 0.003967 -0.002835 1114520.000000 1 0 0
12.962254 -3.718875 -5.863209 14.704669 -0.279396 1.980929 0.014086 -0.003045 1448690.000000 1 0 0
3.503954 -2.550375 6.371091 7.705382 -0.629178 0.597337 -0.000807 -0.000282 281220.000000 1 0 0
7.243954 -11.933975 -0.629809 13.974666 -1.025244 1.615879 0.013580 -0.001338 -514822.000000 1 0 0
-6.129946 -6.553975 -4.103909 9.867770 0.818816 1.999718 0.007059 -0.002781 456297.000000 1 0 0
0.327854 -8.935875 5.120891 10.304410 -1.534123 1.050703 0.002810 -0.001027 1405690.000000 1 0 0
-10.260946 2.576625 -0.342009 10.585035 -0.246023 1.603113 0.000453 -0.004153 -1307260.000000 1 0 0
-1.853746 8.905725 -0.425309 9.106547 -1.365575 1.617517 0.002270 -0.002402 113247.000000 1 0 0
-3.554346 2.281225 -6.602709 7.837928 -0.570598 2.572527 0.005684 -0.003808 546259.000000 1 0 0
-12.767746 3.050325 6.408391 14.607782 -0.234513 1.116648 0.003171 -0.008445 583716.000000 1 0 0
11.359754 1.550225 7.947491 13.950263 0.135629 0.964653 0.011824 -0.001050 -1646200.000000 1 0 0
6.048054 2.689225 -3.243109 7.370797 0.418390 2.026389 0.001514 0.003941 1267780.000000 1 0 0
10.476354 -2.418275 6.445191 12.535651 -0.226858 1.030781 0.011685 -0.007850 3578450.000000 1 0 0
-0.967646 10.953825 4.083991 11.730371 -1.482686 1.215194 -0.000652 0.001189 2193730.000000 1 0 0
-1.573746 -12.187675 7.463191 14.377598 1.442381 1.025017 0.002188 -0.004749 172457.000000 1 0 0
8.036754 8.652425 -7.843509 14.176548 0.822272 2.157085 0.006387 -0.004577 1514460.000000 1 0 0
-4.681546 -5.995075 -8.674009 11.536733 0.907812 2.421675 0.009064 -0.006039 561404.000000 1 0 0
-8.599346 -5.266875 -11.629309 15.392516 0.549541 2.427239 0.012026 -0.003000 1068750.000000 1 0 0
6.057454 -0.734975 -9.981009 11.698439 -0.120744 2.592870 0.010039 0.002162 620044.000000 1 0 0
-11.058246 -5.375475 -5.331909 13.401857 0.452470 1.979967 0.007453 -0.006051 -1680280.000000 1 0 0
3.833754 8.927325 -2.747609 10.096740 1.165171 1.846400 0.007685 -0.002933 1575320.000000 1 0 0
11.688754 -10.437875 -3.960209 16.163523 -0.728926 1.818325 0.025956 -0.007505 528761.000000 1 0 0
3.952154 -11.289575 3.952191 12.597374 -1.234058 1.251676 0.008987 -0.003920 680136.000000 1 0 0
-1.028146 0.939425 3.202291 3.492030 -0.740337 0.410231 0.001278 -0.003246 -1113630.000000 1 0 0
-10.606846 -5.014675 4.506791 12.568345 0.441633 1.204047 0.004306 -0.003301 3563540.000000 1 0 0
4.612454 -8.609975 2.834891 10.170694 -1.078990 1.288323 0.001934 -0.002124 6414230.000000 1 0 0
-3.621346 -5.710475 2.652591 7.263601 1.005638 1.196960 0.001123 -0.000551 848959.000000 1 0 0
9.975554 5.083325 12.309791 16.639797 0.471281 0.738053 0.024619 0.004949 685596.000000 1 0 0
1.640454 -12.354675 -5.218909 13.511702 -1.438788 1.967360 0.007641 -0.002300 2174610.000000 1 0 0
9.827854 -10.755775 -1.730009 14.671958 -0.830448 1.688984 0.013673 -0.003035 -562814.000000 1 0 0
9.603154 -4.561375 -9.229109 14.078465 -0.443438 2.285704 0.019926 -0.003212 1046150.000000 1 0 0
-7.541246 -3.051275 -13.072209 15.396860 0.384475 2.584920 0.014232 -0.005313 1826580.000000 1 0 0
0.439654 6.221825 -2.431609 6.694559 1.500250 1.942520 0.003388 -0.002057 1248310.000000 1 0 0
-5.934946 -9.487475 1.069591 11.241876 1.011797 1.475509 0.004600 -0.001241 2146790.000000 1 0 0
-8.980146 -4.017575 0.628291 9.857924 0.420676 1.507018 -0.000291 -0.001789 3568110.000000 1 0 0
1.943454 3.771525 12.056691 12.781441 1.094986 0.338371 -0.002561 -0.003071 282791.000000 1 0 0
6.682954 4.278825 9.544991 12.412779 0.569497 0.693576 -0.004334 -0.000082 1328420.000000 1 0 0
-8.348646 9.909325 -3.622609 13.454289 -0.870670 1.843414 -0.001015 0.001386 2362970.000000 1 0 0
16.517854 2.123025 -5.968709 17.691021 0.127828 1.914935 0.051206 -0.006191 -337744.000000 1 0 0
-10.940946 2.664325 -5.137009 12.377067 -0.238869 1.998786 0.000676 -0.000486 938099.000000 1 0 0
-13.650446 3.983125 1.462891 14.294754 -0.283912 1.468279 0.006874 -0.006945 283666.000000 1 0 0
-17.475246 10.520625 3.334991 20.668573 -0.541911 1.408732 0.038899 -0.024570 -244626.000000 1 0 0
-14.274546 2.897425 -1.142809 14.610398 -0.200258 1.649095 0.008681 -0.005381 1182700.000000 1 0 0
-14.394946 5.170425 5.097591 16.122444 -0.344832 1.249096 0.005639 -0.010963 231686.000000 1 0 0
-17.611346 7.569525 3.154491 19.426992 -0.405937 1.407697 0.037120 -0.012597 -2636170.000000 1 0 0
-15.304046 12.591825 -3.162509 20.069114 -0.688476 1.729037 0.047918 -0.007095 -138794.000000 1 0 0
-8.597446 12.555825 -9.650809 18.019515 -0.970387 2.135985 0.014476 -0.009648 367190.000000 1 0 0
-12.287446 8.761925 -9.907909 18.053235 -0.619450 2.151744 0.008897 -0.002522 -2080180.000000 1 0 0
-13.990946 -3.439475 -12.134109 18.836484 0.241056 2.270749 0.031874 -0.003565 -1473930.000000 1 0 0
-14.614746 5.809825 -7.600509 17.467472 -0.378377 2.020972 0.031384 -0.005184 -291384.000000 1 0 0
-11.007446 13.706625 -8.589909 19.565837 -0.894183 2.025311 0.020961 -0.002420 185849.000000 1 0 0
-10.872946 13.631325 3.837491 17.853860 -0.897494 1.354167 0.009441 -0.007683 -1004640.000000 1 0 0
-15.163046 3.267725 3.004691 15.799498 -0.212260 1.379455 0.007539 -0.008239 334044.000000 1 0 0
-11.126746 9.368725 -12.580809 19.231594 -0.699832 2.283886 0.012592 -0.010530 -667322.000000 1 0 0
-13.043546 11.551025 -9.068309 19.641652 -0.724788 2.050693 0.021304 -0.017405 -357558.000000 1 0 0
-8.923346 14.619225 -3.406109 17.462801 -1.022776 1.767104 0.013240 -0.004119 2175410.000000 1 0 0
-16.623046 8.268425 -3.982209 18.988167 -0.461571 1.782085 0.036161 -0.011027 -203934.000000 1 0 0
-16.963646 6.634225 0.373391 18.218607 -0.372797 1.550300 0.026150 -0.003871 -520124.000000 1 0 0
-10.459046 2.728525 -12.497309 16.523293 -0.255189 2.428504 0.005173 -0.008974 -139268.000000 1 0 0
-16.904246 0.919225 2.311291 17.086268 -0.054325 1.435108 0.028327 -0.010161 124328.000000 1 0 0
-12.754846 1.199525 -6.911809 14.556718 -0.093769 2.065555 0.007459 -0.003427 1036190.000000 1 0 0
-12.335646 9.144225 -5.378209 16.269915 -0.637900 1.907695 0.010805 0.001709 -894539.000000 1 0 0
-9.608946 13.919325 1.190891 16.955756 -0.966589 1.500503 0.014548 -0.007290 514474.000000 1 0 0
-12.199046 11.160425 2.805691 16.770322 -0.740965 1.402705 0.009161 -0.010507 -1709380.000000 1 0 0
-12.581046 6.904925 -3.597309 14.795314 -0.501949 1.816396 0.004500 0.001351 299119.000000 1 0 0
-15.886746 3.737725 -9.222009 18.745792 -0.231071 2.085125 0.044757 -0.016843 -123566.000000 1 0 0
-15.066946 5.871125 -4.668809 16.830946 -0.371569 1.851877 0.020222 -0.003545 2006900.000000 1 0 0
-17.765746 5.317725 7.547591 20.021640 -0.290837 1.184272 0.015542 -0.018232 -1161510.000000 1 0 0
-15.859646 10.039925 -1.847509 18.861117 -0.564366 1.668907 0.028633 -0.007116 -1353840.000000 1 0 0
-8.794046 10.073225 -8.296009 15.736228 -0.853093 2.126089 -0.001243 0.000163 -60322.900000 1 0 0
-16.994946 4.179125 -1.264809 17.546880 -0.241120 1.642941 0.018502 -0.006303 923936.000000 1 0 0
-10.202046 5.498125 -4.534409 12.444757 -0.494300 1.943745 -0.004994 0.000615 607281.000000 1 0 0
-18.193146 2.865825 6.042991 19.383530 -0.156238 1.253753 0.037474 -0.016488 -2061670.000000 1 0 0
-10.410446 10.273925 -5.710009 15.701437 -0.778798 1.942992 -0.000310 0.002337 -57987.900000 1 0 0
-15.373746 0.448525 -5.848909 16.454876 -0.029166 1.934193 0.011014 -0.004077 505134.000000 1 0 0
-16.406046 -4.109375 -8.828609 19.078512 0.245430 2.051893 0.028837 -0.015936 -224661.000000 1 0 0
-10.028746 9.587925 -1.084109 13.916872 -0.762930 1.648774 0.004033 -0.004768 1561690.000000 1 0 0
-17.403946 -3.004575 -3.215009 17.951631 0.170953 1.750861 0.028808 -0.003867 -1065080.000000 1 0 0
-11.931046 4.957025 -11.446809 17.261268 -0.393773 2.295816 0.016634 -0.010834 -309384.000000 1 0 0
-16.349646 7.208025 5.860591 18.804602 -0.415233 1.253860 0.025510 -0.013957 -449244.000000 1 0 0
-11.992046 5.989825 -8.742709 16.003816 -0.463234 2.148724 0.006476 -0.005920 141456.000000 1 0 0
-14.611746 8.228025 0.152291 16.769815 -0.512853 1.561715 0.021179 -0.006918 1468470.000000 1 0 0
-14.899246 11.925125 3.855791 19.469547 -0.674975 1.371436 0.019469 -0.019481 1799070.000000 1 0 0
-17.216546 4.089925 -4.097109 18.163789 -0.233235 1.798319 0.023851 -0.008605 -43025.900000 1 0 0
-13.832846 13.362225 -0.749809 19.247309 -0.768095 1.609763 0.028369 -0.012546 -814455.000000 1 0 0
-10.072046 6.748525 -13.085809 17.838920 -0.590324 2.394333 -0.001902 -0.008995 2293210.000000 1 0 0
-15.963946 -1.080175 -8.286809 18.019033 0.067560 2.048670 0.018108 -0.010614 -207273.000000 1 0 0
-11.445046 11.862625 -0.005109 16.483658 -0.803312 1.571106 0.016793 -0.010120 336909.000000 1 0 0
-11.998446 7.366525 -0.852409 14.105141 -0.550619 1.631266 0.003862 -0.003405 1497840.000000 1 0 0
-11.558846 0.171425 -11.650109 16.412231 -0.014830 2.360072 0.015125 -0.008161 504804.000000 1 0 0
-19.061546 -1.188475 -4.666109 19.660304 0.062269 1.810419 0.033404 -0.014156 -30705.500000 1 0 0
-17.932546 1.439125 -5.022909 18.678246 -0.080081 1.843065 0.014670 -0.004852 -1183400.000000 1 0 0
-13.418546 -0.056775 -9.463409 16.420009 0.004231 2.185032 0.011593 -0.004001 309045.000000 1 0 0
-6.141546 11.230425 -13.331709 18.481761 -1.070362 2.376537 -0.003173 -0.003096 -873533.000000 1 0 0
16.404254 5.899325 6.977691 18.777374 0.345221 1.190063 0.046100 -0.013378 495279.000000 1 0 0
14.805854 10.091825 -5.655209 18.789349 0.598277 1.876516 0.055952 -0.008429 944857.000000 1 0 0
2.393154 16.874825 4.292991 17.576026 1.429918 1.324047 0.014483 -0.007288 3221570.000000 1 0 0
-4.036446 18.266225 -5.993709 19.643636 -1.353313 1.880863 0.003986 -0.001131 74556.900000 1 0 0
5.393154 14.497725 5.679291 16.478001 1.214658 1.218921 0.007814 -0.006709 -1405600.000000 1 0 0
9.770154 5.955925 15.062691 18.915962 0.547451 0.649650 0.034694 0.000023 -1323590.000000 1 0 0
4.663854 12.759025 -1.205809 13.638117 1.220351 1.659327 0.008006 -0.006969 529876.000000 1 0 0
3.622354 13.775825 12.892191 19.212064 1.313667 0.835177 0.014224 -0.004153 1367600.000000 1 0 0
-0.682146 12.463625 9.145391 15.474025 -1.516120 0.938479 -0.002054 -0.000018 -111596.000000 1 0 0
-7.705146 13.844425 8.323491 17.897427 -1.062937 1.087087 0.017737 -0.019093 2103070.000000 1 0 0
11.387554 12.766825 -4.311309 17.642438 0.842439 1.817668 0.039684 -0.001853 1959260.000000 1 0 0
-5.841346 16.101325 0.846891 17.149088 -1.222776 1.521392 0.002603 0.001476 647644.000000 1 0 0
3.246254 10.649125 6.704191 12.995700 1.274907 1.028764 -0.001848 0.004159 1911210.000000 1 0 0
-1.217146 15.597025 2.410991 15.829135 -1.492917 1.417888 -0.001694 -0.000364 -2215580.000000 1 0 0
9.958254 8.864025 9.441491 16.336448 0.727329 0.954594 0.008430 -0.001818 489380.000000 1 0 0
7.315454 12.269225 6.221791 15.580772 1.033143 1.160016 0.006249 -0.003230 993759.000000 1 0 0
11.787654 14.033225 -1.679609 18.403839 0.872147 1.662188 0.029517 0.000002 797884.000000 1 0 0
9.674054 15.972725 -1.235509 18.714747 1.026225 1.636862 0.019378 -0.000535 -161396.000000 1 0 0
10.094854 13.774925 2.900991 17.322540 0.938367 1.402534 0.019583 -0.006087 2485740.000000 1 0 0
-5.998046 14.584125 6.143891 16.923967 -1.180610 1.199280 -0.004005 -0.003935 -561204.000000 1 0 0
-1.042446 18.284825 -6.247509 19.350785 -1.513846 1.899541 0.025309 -0.002939 311675.000000 1 0 0
-3.543546 15.778625 5.312691 17.021939 -1.349883 1.253385 -0.005639 0.000206 1893150.000000 1 0 0
7.240754 12.279225 10.588891 17.757604 1.038003 0.931910 0.005592 0.003434 2731000.000000 1 0 0
1.474854 14.609825 6.094491 15.898585 1.470188 1.177391 0.001602 -0.000899 544737.000000 1 0 0
17.498254 7.680125 -1.454509 19.164781 0.413592 1.646764 0.034538 -0.000449 557546.000000 1 0 0
2.081554 16.262025 -3.406409 16.744849 1.443488 1.775656 0.011550 -0.006575 2488490.000000 1 0 0
6.720054 11.213425 0.538491 13.083960 1.030902 1.529628 0.011150 -0.002241 2266820.000000 1 0 0
12.721454 9.318425 3.173391 16.085362 0.632205 1.372209 0.015516 0.000976 -1316450.000000 1 0 0
6.038954 14.339925 -3.472309 15.942376 1.172209 1.790360 0.010095 -0.005954 -20556.500000 1 0 0
3.151154 16.495025 1.480891 16.858490 1.382034 1.482840 0.015221 -0.014009 -613401.000000 1 0 0
2.590654 18.977925 -2.602509 19.329930 1.435126 1.705843 0.018861 -0.016759 -511639.000000 1 0 0
4.066354 11.974625 10.647891 16.531923 1.243434 0.870976 0.003509 0.000669 3660910.000000 1 0 0
8.092154 11.579525 3.325691 14.513049 0.960854 1.339590 0.009438 0.001085 906042.000000 1 0 0
0.757054 12.579825 0.102591 12.603002 1.510689 1.562656 0.005030 -0.004670 -1844440.000000 1 0 0
11.993254 9.840225 -4.681409 16.204437 0.687105 1.863871 0.029135 0.002303 1000770.000000 1 0 0
-1.323946 16.521025 9.836391 19.273082 -1.490830 1.035182 -0.002792 -0.003014 -436796.000000 1 0 0
8.150054 14.657525 -8.063609 18.608821 1.063334 2.018972 0.043913 -0.015930 -75346.000000 1 0 0
14.534354 7.556325 -1.434309 16.443928 0.479436 1.658132 0.021242 0.000497 -393148.000000 1 0 0
12.524454 8.295225 5.953891 16.159256 0.584989 1.193454 0.012706 -0.002896 238119.000000 1 0 0
-2.936446 14.146225 10.253891 17.716678 -1.366125 0.953576 0.008349 -0.011309 2074990.000000 1 0 0
-4.663846 17.177825 -3.180909 18.081684 -1.305683 1.747635 0.011045 0.001499 -462575.000000 1 0 0
-7.116246 16.484025 -1.777609 18.042282 -1.163260 1.669481 0.011429 0.003844 198258.000000 1 0 0
8.381054 11.336825 -1.881309 14.223396 0.934193 1.703454 0.010345 -0.000859 220028.000000 1 0 0
8.553154 12.961125 -4.261109 16.102927 0.987487 1.838603 0.026769 -0.000909 1301660.000000 1 0 0
2.472754 14.865725 -7.282109 16.737186 1.405966 2.020930 0.009294 -0.008702 197241.000000 1 0 0
11.392454 11.310725 9.640091 18.725701 0.781798 1.030016 0.020063 -0.006813 -926035.000000 1 0 0
8.618954 15.820025 1.399891 18.069844 1.071944 1.493247 0.014048 -0.003043 -96816.100000 1 0 0
6.081454 9.931525 7.706291 13.964462 1.021354 0.986215 -0.000331 0.003595 3416090.000000 1 0 0
14.495854 11.417225 2.414091 18.609424 0.667146 1.440706 0.033140 -0.002750 2748470.000000 1 0 0
12.118154 12.682325 0.982591 17.568623 0.808143 1.514838 0.024162 0.001864 2569860.000000 1 0 0
5.114054 15.907725 8.248091 18.634384 1.259749 1.112270 0.012881 0.000250 -1926210.000000 1 0 0
11.528454 14.968925 5.118091 19.574699 0.914518 1.306257 0.030472 -0.008870 320382.000000 1 0 0
6.015154 16.877125 1.705291 17.997985 1.228424 1.475905 0.009970 -0.015402 368539.000000 1 0 0
-0.698346 16.199925 -4.286709 16.772034 -1.527715 1.829251 0.006998 0.001167 2192150.000000 1 0 0
16.064954 6.488425 2.554091 17.513018 0.383853 1.424435 0.014650 -0.004601 -705980.000000 1 0 0
7.703554 16.765025 -3.274309 18.738514 1.140069 1.746435 0.022856 -0.007513 613884.000000 1 0 0
14.904854 8.246825 7.389091 18.567808 0.505372 1.161513 0.040713 -0.008004 25987.300000 1 0 0
2.181054 12.983725 8.523191 15.683715 1.404366 0.996264 0.000216 0.000903 1391600.000000 1 0 0
15.933054 7.408525 -5.966209 18.556511 0.435240 1.898126 0.038250 0.000727 -2257580.000000 1 0 0
-3.048146 17.045925 0.586891 17.326257 -1.393847 1.536917 -0.000976 0.002092 459899.000000 1 0 0
-2.838746 18.613925 4.527091 19.365723 -1.419456 1.334845 -0.004661 -0.002108 339261.000000 1 0 0
-0.984846 19.118625 0.742991 19.158387 -1.519329 1.532005 0.001053 -0.006100 642599.000000 1 0 0
7.021454 16.697625 -6.199009 19.145214 1.172738 1.900528 0.029811 -0.011197 655108.000000 1 0 0
11.064554 10.042325 0.696091 14.958516 0.737005 1.524245 0.009459 0.002029 -2061670.000000 1 0 0
9.157454 8.757225 14.267591 19.081722 0.763061 0.726190 0.025367 -0.003071 668953.000000 1 0 0
6.316454 12.313925 -8.344309 16.160379 1.096841 2.113372 0.027051 -0.014873 1702500.000000 1 0 0
6.467954 9.009825 13.283091 17.304679 0.948172 0.695706 0.005251 -0.000930 -588524.000000 1 0 0
16.710554 9.423525 2.701591 19.373798 0.513472 1.430895 0.034178 -0.004212 -1195410.000000 1 0 0
2.599554 14.789125 -0.859109 15.040411 1.396799 1.627947 0.010057 -0.008214 1460380.000000 1 0 0
9.199054 12.916225 8.301291 17.898685 0.951923 1.088524 0.017203 -0.005570 504566.000000 1 0 0
7.250854 9.325325 10.525491 15.821585 0.909899 0.842952 -0.001477 0.000606 1784900.000000 1 0 0
4.354054 15.917125 -5.322309 17.338963 1.303783 1.882790 0.021215 -0.007904 1864780.000000 1 0 0
0.160754 16.394925 -8.177409 18.321829 1.560992 2.033446 0.020719 -0.004155 1294400.000000 1 0 0
-2.496246 15.668225 -2.033509 15.995614 -1.412805 1.698270 -0.000217 0.003988 -651471.000000 1 0 0
13.318454 10.557625 7.533491 18.590271 0.670278 1.153557 0.030700 -0.009224 2495760.000000 1 0 0
-1.016846 15.927725 6.985391 17.421886 -1.507042 1.158237 -0.002316 -0.004902 935426.000000 1 0 0
13.311654 13.360425 6.658991 20.001082 0.787227 1.231386 0.037322 -0.008593 466947.000000 1 0 0
5.366154 17.296525 4.504991 18.661735 1.269967 1.326985 0.018291 -0.012494 928074.000000 1 0 0
10.804754 9.512325 -1.948509 14.526656 0.721871 1.705335 0.008180 0.002371 1649520.000000 1 0 0
3.185954 12.731825 4.650791 13.924063 1.325596 1.230240 0.001264 0.001612 1917880.000000 1 0 0
-0.216346 18.063625 3.473191 18.395772 -1.558820 1.380852 0.003249 -0.004727 2076310.000000 1 0 0
-7.817946 15.973825 -5.735009 18.686190 -1.115647 1.882743 0.030259 -0.011255 -65365.900000 1 0 0
-12.533046 -9.095175 8.278091 17.559221 0.627764 1.079875 0.020089 -0.010081 -443824.000000 1 0 0
-13.343746 -11.681775 6.851791 19.012271 0.719085 1.202113 0.025016 -0.008143 -2348380.000000 1 0 0
-6.425846 -12.236675 12.274491 18.484881 1.087247 0.844602 0.018959 -0.015500 -1599700.000000 1 0 0
-1.771246 -10.702775 14.407391 18.034956 1.406789 0.645400 0.005784 -0.008158 1308780.000000 1 0 0
-8.826246 2.832625 11.007291 14.390512 -0.310548 0.699911 0.002995 -0.005444 1530090.000000 1 0 0
0.731554 10.085025 15.057791 18.137805 1.498384 0.591351 0.016521 -0.010872 -1112420.000000 1 0 0
1.013454 -6.833075 16.533391 17.918455 -1.423554 0.395765 0.019564 -0.014713 1207960.000000 1 0 0
6.063054 2.298625 17.789091 18.933993 0.362378 0.349535 0.033071 -0.008310 1169530.000000 1 0 0
-5.191546 -3.030975 17.557491 18.558137 0.528444 0.329882 0.027602 -0.013386 -450651.000000 1 0 0
-4.275546 8.155725 12.867891 15.823361 -1.087946 0.621130 0.003942 -0.003655 870020.000000 1 0 0
0.000454 -4.955975 18.526591 19.178015 -1.570705 0.261386 0.032172 -0.019927 -660946.000000 1 0 0
-11.666546 2.145125 11.251591 16.349561 -0.181839 0.811806 0.019612 -0.008775 1442220.000000 1 0 0
-3.433446 -6.132775 14.315491 15.947814 1.060421 0.456398 0.014387 -0.011854 266118.000000 1 0 0
-7.388946 -2.314475 14.533891 16.467766 0.303554 0.489504 0.011735 -0.006257 228120.000000 1 0 0
-6.076046 -1.125775 10.575391 12.248453 0.183203 0.528813 0.007484 -0.005548 600446.000000 1 0 0
-3.941346 2.361925 11.088191 12.002536 -0.539882 0.392853 0.003102 -0.000992 632320.000000 1 0 0
-6.409346 6.275225 13.475791 16.188116 -0.774825 0.587282 -0.005124 -0.001387 209123.000000 1 0 0
-8.966346 5.445925 12.473091 16.298204 -0.545824 0.699282 0.009319 -0.009406 -735493.000000 1 0 0
-12.290046 -2.129975 15.746091 20.087842 0.171604 0.669935 0.019725 -0.004199 1425540.000000 1 0 0
-3.483146 -7.636575 16.915591 18.883506 1.142870 0.460599 0.031206 -0.014645 -610272.000000 1 0 0
-0.578846 -5.422575 14.345091 15.346694 1.464452 0.363284 0.012002 -0.007783 1425690.000000 1 0 0
-14.272946 -2.165275 13.688291 19.894087 0.150557 0.811987 0.042002 -0.008906 -951866.000000 1 0 0
-6.450546 1.488925 12.133891 13.822364 -0.226849 0.499453 0.005682 -0.004342 1873770.000000 1 0 0
2.227654 -2.302475 14.556691 14.905069 -0.801913 0.216632 0.003032 -0.000512 -194811.000000 1 0 0
-12.539646 4.083125 9.162891 16.058431 -0.314790 0.963564 0.006398 -0.010360 -1624620.000000 1 0 0
-9.036846 -3.055575 12.485891 15.713007 0.326056 0.652413 0.005550 -0.003734 -339922.000000 1 0 0
-7.181346 -7.272875 15.298591 18.398732 0.791730 0.588989 0.024554 -0.010968 837639.000000 1 0 0
-3.279246 6.026625 19.410491 20.587395 -1.072474 0.339763 0.042567 -0.014898 -742826.000000 1 0 0
0.584854 5.518125 16.233891 17.156077 1.465203 0.329367 0.013062 -0.006451 573372.000000 1 0 0
3.434754 1.424625 16.752691 17.160413 0.393172 0.218422 0.018041 -0.006131 679020.000000 1 0 0
-11.681546 11.378725 7.687491 18.028628 -0.772267 1.130282 0.006845 -0.021231 -512335.000000 1 0 0
0.656354 -9.555375 15.518391 18.236131 -1.502214 0.552968 0.002169 -0.001902 236906.000000 1 0 0
-2.549246 -3.582575 18.810291 19.317364 0.952349 0.229631 0.037054 -0.020488 2264700.000000 1 0 0
-12.799246 2.552325 13.858291 19.036473 -0.196830 0.755416 0.031961 -0.020537 -276875.000000 1 0 0
-5.350746 -0.602875 15.702191 16.599782 0.112198 0.330354 0.017605 -0.001899 385541.000000 1 0 0
-4.508746 -5.933575 11.621791 13.805873 0.921008 0.570186 0.005780 -0.007181 -911503.000000 1 0 0
2.465454 1.788825 13.995791 14.323426 0.627673 0.214298 -0.001747 -0.000858 507427.000000 1 0 0
0.122754 3.349325 14.269291 14.657616 1.534162 0.230698 0.005092 -0.002104 525193.000000 1 0 0
-12.961646 7.188825 12.163791 19.173974 -0.506386 0.883576 0.024463 -0.013530 -191576.000000 1 0 0
0.919554 1.376425 18.211991 18.287065 0.981820 0.090643 0.018679 -0.006254 795066.000000 1 0 0
-1.981246 6.396725 12.468191 14.152711 -1.270439 0.492876 0.002195 -0.002132 1567010.000000 1 0 0
-13.452146 -2.574375 10.910391 17.510690 0.189087 0.898134 0.027881 -0.007475 -764393.000000 1 0 0
-2.505146 3.599725 13.458091 14.154646 -0.962809 0.315022 0.002685 -0.001225 -76018.800000 1 0 0
3.529854 6.124525 16.276891 17.745616 1.047950 0.409715 0.010909 -0.008521 2261650.000000 1 0 0
-3.619646 12.303225 12.320691 17.783999 -1.284666 0.805437 0.015161 -0.011931 844518.000000 1 0 0
3.783754 -1.565575 17.085391 17.569246 -0.392314 0.235233 0.028979 -0.007350 24875.900000 1 0 0
-15.856846 0.601825 9.139191 18.311924 -0.037935 1.048255 0.034713 -0.009583 715153.000000 1 0 0
-4.634646 4.592525 15.155291 16.500124 -0.780833 0.406537 0.010887 -0.003458 -690077.000000 1 0 0
-8.028246 -8.068675 10.432891 15.440255 0.787910 0.828890 0.014672 -0.013595 3768510.000000 1 0 0
-2.588546 -0.488975 14.691091 14.925409 0.186700 0.177429 0.014716 -0.002353 2300470.000000 1 0 0
-1.810546 1.027025 17.180391 17.306031 -0.515988 0.120571 0.018220 -0.006159 1058150.000000 1 0 0
-0.662846 -2.552975 14.420591 14.659826 1.316769 0.180907 0.008840 -0.003579 105078.000000 1 0 0
5.195554 -8.329575 16.504991 19.203915 -1.013098 0.536584 0.014053 -0.003038 336365.000000 1 0 0
-4.459446 9.945525 10.557591 15.174415 -1.149284 0.801334 0.004457 -0.006663 -927720.000000 1 0 0
-6.168846 2.066125 15.098791 16.440712 -0.323186 0.406834 0.007940 -0.003582 -264972.000000 1 0 0
-4.848546 6.890825 17.157691 19.114869 -0.957643 0.456480 0.014560 -0.005295 -422233.000000 1 0 0
-3.976646 9.214825 15.525191 18.486705 -1.163392 0.573876 0.011535 -0.011628 -824032.000000 1 0 0
-4.639746 -9.807675 18.455491 21.408477 1.128921 0.531467 0.052406 -0.014962 -53846.400000 1 0 0
-6.819446 -4.081575 11.065791 13.624090 0.539331 0.622844 0.008592 -0.004850 350223.000000 1 0 0
-2.425646 -0.793075 19.466791 19.633356 0.315998 0.130352 0.032445 -0.011367 983745.000000 1 0 0
-5.727346 -4.597075 15.196991 16.878511 0.676357 0.450165 0.013899 -0.009585 -189699.000000 1 0 0
-12.982846 0.126825 9.783391 16.256848 -0.009768 0.925042 0.013929 -0.002549 1323650.000000 1 0 0
-14.426146 8.775625 10.304691 19.781606 -0.546510 1.022865 0.021963 -0.018966 -2580980.000000 1 0 0
-8.388846 10.573825 12.775391 18.584648 -0.900118 0.812871 0.021988 -0.016780 -2696600.000000 1 0 0
-10.472246 7.208625 10.750791 16.649676 -0.602868 0.868849 0.017011 -0.013751 -640419.000000 1 0 0
-9.888346 -6.499075 14.810591 18.957082 0.581452 0.674099 0.025310 -0.012118 -391594.000000 1 0 0
-0.748846 -13.454175 14.503491 19.797142 1.515195 0.748655 0.002748 -0.010089 1351620.000000 1 0 0
3.883654 -5.793675 16.831891 18.219824 -0.980264 0.392847 0.020443 -0.013876 2284990.000000 1 0 0
-7.280746 9.399325 10.326191 15.747597 -0.911734 0.855646 0.010246 -0.007646 703434.000000 1 0 0
-10.303246 -6.660375 11.821891 17.037446 0.573865 0.803937 0.022235 -0.014925 1604100.000000 1 0 0
-10.925146 -3.916575 10.680091 15.772213 0.344220 0.826919 0.012369 -0.001881 -1480790.000000 1 0 0
-10.218046 -10.147275 9.916191 17.484464 0.781923 0.967763 0.025596 -0.014418 2095110.000000 1 0 0
-9.811046 -3.593575 15.215791 18.457809 0.351103 0.601734 0.016781 -0.013004 1886450.000000 1 0 0
5.635854 -3.418975 16.012491 17.316239 -0.545293 0.390524 0.025383 -0.011910 -301074.000000 1 0 0
-11.364746 0.571725 15.365491 19.120215 -0.050265 0.637434 0.028787 -0.010333 -187738.000000 1 0 0
-3.176546 3.202625 18.694891 19.231386 -0.789486 0.236759 0.027906 -0.011310 1331720.000000 1 0 0
0.533654 7.380425 13.871391 15.721672 1.498615 0.490048 0.005957 -0.006211 969878.000000 1 0 0
-13.161746 -7.370675 12.073891 19.321937 0.510494 0.895819 0.026621 -0.017990 1779410.000000 1 0 0
-1.478246 -1.190575 12.107291 12.255170 0.678023 0.155505 0.003065 -0.002376 880926.000000 1 0 0
1.990054 -4.960675 13.115891 14.163164 -1.189285 0.386971 0.003141 -0.005000 227644.000000 1 0 0
-14.598246 -4.085375 8.647191 17.452019 0.272873 1.052405 0.019115 -0.008755 -1312390.000000 1 0 0
8.070254 0.912225 16.115291 18.046157 0.112558 0.466820 0.043143 -0.005964 924903.000000 1 0 0
-1.177846 11.415825 13.347891 17.603255 -1.467984 0.710152 0.009548 -0.005180 -547414.000000 1 0 0
2.764154 -12.431375 -13.975209 18.907303 -1.352003 2.402594 0.009556 0.005272 -776713.000000 1 0 0
0.793054 -10.908775 -14.087509 17.835027 -1.498225 2.481408 0.007255 0.004908 -1042040.000000 1 0 0
3.191154 -14.532375 -12.366609 19.347000 -1.354638 2.264254 0.013708 0.003107 -511961.000000 1 0 0
-5.155646 -10.293175 -16.145409 19.829381 1.106445 2.522175 0.010082 -0.007588 -180539.000000 1 0 0
-1.177246 -12.150675 -14.984209 19.327476 1.474211 2.457955 0.015908 -0.002936 483079.000000 1 0 0
5.734854 -14.929275 -11.904109 19.936891 -1.204041 2.210664 0.025480 -0.006747 150429.000000 1 0 0
1.785854 -12.137875 -16.232809 20.347515 -1.424714 2.494398 0.015709 0.005717 -622201.000000 1 0 0
1.205354 -14.582575 -13.971709 20.231486 -1.488327 2.333104 0.020612 0.008691 -585056.000000 1 0 0
-1.225946 -10.839275 -15.934909 19.310985 1.458173 2.541305 0.015610 -0.008679 -564279.000000 1 0 0
-5.940246 -5.654575 -15.209409 17.279666 0.760765 2.647061 0.017806 -0.002364 250867.000000 1 0 0
-6.412846 -7.647875 -16.729609 19.480616 0.873009 2.603685 0.017207 0.003130 449862.000000 1 0 0
4.790854 -12.532375 -11.622609 17.750993 -1.205660 2.284659 0.007182 -0.000785 -325246.000000 1 0 0
-1.938746 -15.538675 -13.275609 20.529270 1.446669 2.274003 0.017083 0.008288 17513.500000 1 0 0
15.723954 -7.430375 -8.702709 19.447117 -0.441449 2.034771 0.055631 -0.013672 290867.000000 1 0 0
19.288754 -3.532175 -4.233009 20.061173 -0.181114 1.783399 0.098294 -0.029756 1130440.000000 1 0 0
14.784654 -11.733975 -8.815409 20.832273 -0.670863 2.007728 0.056291 -0.017025 -56235.100000 1 0 0
17.823654 -3.717375 -6.388509 19.295455 -0.205617 1.908254 0.086945 -0.017809 390953.000000 1 0 0
9.398454 -9.215475 -15.447809 20.295091 -0.775568 2.435896 0.072310 -0.020490 150104.000000 1 0 0
1.272954 1.884925 -15.403409 15.570432 0.976817 2.994990 0.015919 0.000342 324961.000000 1 0 0
4.787554 -4.402375 -14.000609 15.437572 -0.743509 2.706706 0.013530 -0.000944 303527.000000 1 0 0
13.067454 -5.445275 -8.656909 16.593717 -0.394824 2.119636 0.035333 -0.007797 -1029480.000000 1 0 0
2.936254 0.887325 -12.233009 12.611718 0.293471 2.895910 0.011224 -0.000257 -1426050.000000 1 0 0
0.758154 6.297625 -12.920709 14.393735 1.450986 2.685231 0.010787 0.003270 118620.000000 1 0 0
3.018554 -1.205775 -16.865609 17.175981 -0.380036 2.951199 0.031585 -0.003605 -352931.000000 1 0 0
13.411754 4.339925 -11.494109 18.188586 0.312957 2.254851 0.038059 -0.012071 -68542.900000 1 0 0
-3.905246 9.436425 -16.612209 19.500322 -1.178409 2.590388 0.006074 0.005664 292314.000000 1 0 0
-0.142046 -5.042375 -17.659409 18.365741 1.542633 2.863354 0.017314 -0.014474 489527.000000 1 0 0
-0.571146 -8.688475 -17.466409 19.516435 1.505155 2.679136 0.017313 -0.015345 -496489.000000 1 0 0
5.490454 -10.117075 -12.205509 16.777209 -1.073581 2.385475 0.007527 -0.003256 418466.000000 1 0 0
1.640254 -9.888375 -18.040109 20.637730 -1.406416 2.634443 0.041068 -0.016817 -466306.000000 1 0 0
10.914754 9.020925 -14.723509 20.427694 0.690685 2.375698 0.088017 -0.032938 986042.000000 1 0 0
10.909854 -3.727475 -12.858809 17.270436 -0.329227 2.410666 0.034044 -0.011300 397145.000000 1 0 0
5.020054 7.232925 -12.380609 15.191959 0.964071 2.523430 0.004321 -0.002960 -1025960.000000 1 0 0
9.623654 -5.914875 -12.595309 16.918696 -0.551099 2.410523 0.028143 -0.006538 -1647240.000000 1 0 0
-3.298346 0.293825 -15.813209 16.156206 -0.088848 2.935168 0.014003 -0.000124 -2841240.000000 1 0 0
-0.709546 10.740825 -12.895709 16.797860 -1.504832 2.446040 0.003670 0.005062 -1761800.000000 1 0 0
6.653854 -5.473875 -12.400409 15.099908 -0.688407 2.534349 0.017471 -0.001201 309419.000000 1 0 0
17.895854 -6.188575 -7.958909 20.540309 -0.332938 1.968690 0.083810 -0.026843 -49647.300000 1 0 0
13.587054 4.841225 -13.951909 20.067418 0.342287 2.339567 0.077205 -0.024434 400868.000000 1 0 0
14.262754 0.729125 -11.491609 18.330708 0.051076 2.248370 0.035733 -0.003674 429137.000000 1 0 0
15.284854 6.023125 -11.079909 19.815882 0.375374 2.164148 0.072869 -0.021890 188789.000000 1 0 0
8.402954 1.457225 -11.776009 14.539860 0.171710 2.514799 0.012862 0.002771 851796.000000 1 0 0
9.901654 1.198225 -9.001409 13.435173 0.120427 2.304989 0.013701 -0.000463 308173.000000 1 0 0
-0.153446 -5.927775 -13.042309 14.327033 1.544916 2.714874 0.002998 -0.001174 162655.000000 1 0 0
10.498054 -5.844275 -9.044209 15.038697 -0.507973 2.216043 0.019296 -0.003731 -1583990.000000 1 0 0
10.289654 8.491225 -11.233409 17.440395 0.689931 2.270646 0.054552 -0.022382 958007.000000 1 0 0
8.405254 8.162325 -14.655609 18.763228 0.770736 2.467192 0.049784 -0.015815 1271200.000000 1 0 0
8.562354 10.543625 -10.621209 17.242158 0.888728 2.234454 0.060688 -0.022655 2085000.000000 1 0 0
7.000654 1.701025 -17.854109 19.252840 0.238362 2.758062 0.047912 -0.008561 -2225500.000000 1 0 0
12.273554 2.735125 -13.057209 18.127652 0.219264 2.375020 0.042317 -0.009703 -761697.000000 1 0 0
2.659654 -0.859475 -19.324509 19.525601 -0.312560 2.997950 0.041214 -0.014648 -195950.000000 1 0 0
10.495254 -2.157375 -15.378909 18.743411 -0.202733 2.533076 0.059217 -0.018615 570752.000000 1 0 0
8.322454 -0.836775 -13.088809 15.533202 -0.100207 2.572953 0.020745 -0.001791 988884.000000 1 0 0
0.534054 4.306525 -14.624709 15.254949 1.447416 2.853143 0.010150 0.004309 -756.540000 1 0 0
4.015454 -7.861375 -15.728209 18.036120 -1.098560 2.630150 0.029842 -0.011595 -900625.000000 1 0 0
11.597254 -5.918475 -14.174909 19.247148 -0.471881 2.398631 0.060613 -0.017049 -1524840.000000 1 0 0
-5.954046 4.159825 -16.880609 18.376881 -0.609823 2.735265 0.011695 0.003654 142381.000000 1 0 0
11.358154 7.723025 -9.034109 16.439827 0.597145 2.152593 0.045421 -0.010782 -763583.000000 1 0 0
9.571154 6.138625 -13.551309 17.689762 0.570283 2.443475 0.038417 -0.005591 -647684.000000 1 0 0
12.180454 0.605025 -10.147709 15.865230 0.049631 2.264799 0.020804 -0.000336 -10610.800000 1 0 0
5.506254 -7.274875 -13.732509 16.487099 -0.922902 2.555168 0.019674 -0.004570 -300711.000000 1 0 0
8.548054 -10.295275 -10.654309 17.104859 -0.877857 2.243218 0.019980 -0.004107 -186384.000000 1 0 0
10.228254 4.430725 -15.853809 19.380190 0.408783 2.528795 0.064732 -0.018539 -148174.000000 1 0 0
9.960554 -0.453275 -10.966009 14.821317 -0.045476 2.403690 0.018530 -0.000621 -342228.000000 1 0 0
-1.637046 5.451525 -14.013209 15.125114 -1.279072 2.755762 0.003305 0.001987 1024050.000000 1 0 0
1.310354 -0.707275 -14.956309 15.030251 -0.494946 3.042360 0.013393 -0.000551 -1514610.000000 1 0 0
11.409854 -10.450175 -14.353409 21.104769 -0.741525 2.318699 0.086809 -0.020946 -388287.000000 1 0 0
9.287954 -7.890875 -10.853409 16.319574 -0.704251 2.298363 0.026078 -0.002878 -40301.500000 1 0 0
14.017654 -1.056675 -9.619709 17.033790 -0.075239 2.170918 0.026073 0.000075 746063.000000 1 0 0
3.992454 11.127325 -12.270309 17.038707 1.226306 2.374805 0.020427 -0.010428 -758678.000000 1 0 0
-1.522346 2.640925 -17.249909 17.517174 -1.047878 2.966685 0.007710 0.005182 -164374.000000 1 0 0
6.115754 -0.684475 -17.682109 18.722391 -0.111456 2.806672 0.037141 -0.002711 191586.000000 1 0 0
6.322154 -6.734275 -16.164209 18.617243 -0.816952 2.622437 0.031569 -0.008399 50091.600000 1 0 0
-1.758446 -5.445975 -19.665809 20.481572 1.258475 2.858409 0.030529 -0.025751 32072.900000 1 0 0
0.026154 -4.406875 -15.271909 15.895044 -1.564861 2.860659 0.006443 -0.003698 -841341.000000 1 0 0
0.465754 0.865125 -13.048309 13.085249 1.076929 3.066435 0.010972 -0.002387 470039.000000 1 0 0
15.760654 0.507225 -13.666009 20.866607 0.032172 2.284876 0.069270 -0.017340 671708.000000 1 0 0
-0.273146 6.898325 -16.432409 17.823736 -1.531221 2.743855 0.015279 0.010561 -186788.000000 1 0 0
-4.959146 -0.613175 -18.186809 18.860783 0.123021 2.873455 0.013777 -0.002974 -190635.000000 1 0 0
10.356554 -8.390175 -13.205009 18.762343 -0.680888 2.351534 0.031082 -0.013461 544927.000000 1 0 0
4.067054 8.480425 -17.411509 19.789370 1.123617 2.646325 0.036954 -0.008693 -286077.000000 1 0 0
9.164754 0.584125 -16.838609 19.180007 0.063650 2.642308 0.043104 -0.012922 -198402.000000 1 0 0
3.321354 4.758225 -18.508809 19.397116 0.961398 2.837784 0.036111 -0.003119 -745344.000000 1 0 0
1.430254 -8.297275 -15.823009 17.923672 -1.400097 2.652585 0.010868 -0.014247 398273.000000 1 0 0
4.463154 7.728225 -14.916909 17.382732 1.047075 2.602442 0.009822 0.001877 1002870.000000 1 0 0
-5.720546 -0.474475 -15.064809 16.121359 0.082753 2.777543 0.014613 -0.003194 -573814.000000 1 0 0
2.864654 3.266425 -13.811009 14.478251 0.850835 2.836817 0.012039 0.000395 -236590.000000 1 0 0
-2.539746 -10.229475 -18.049509 20.901608 1.327440 2.613057 0.029856 -0.009614 -498219.000000 1 0 0
6.117354 -9.257375 -15.252609 18.861683 -0.986860 2.512660 0.024705 -0.012569 -283194.000000 1 0 0
-1.871646 5.257225 -17.490909 18.359558 -1.228774 2.832753 0.009385 0.006674 808182.000000 1 0 0
9.866554 -12.333175 -11.695509 19.653016 -0.896055 2.208186 0.057509 -0.012502 -229508.000000 1 0 0
10.852854 3.603325 -9.391309 14.797469 0.320565 2.258360 0.009545 -0.002835 -943755.000000 1 0 0
4.792554 -0.553275 -10.959909 11.974736 -0.114936 2.726931 0.012071 -0.000849 690178.000000 1 0 0
6.218354 9.465425 -11.465309 16.115691 0.989548 2.362338 0.019078 -0.014477 138934.000000 1 0 0
10.941554 -9.671975 -9.510609 17.427461 -0.723886 2.148051 0.039271 -0.008280 584231.000000 1 0 0
3.126254 -2.506175 -14.573209 15.113993 -0.675749 2.873280 0.019112 -0.001002 -45644.300000 1 0 0
9.397554 -4.597275 -14.803409 18.127048 -0.454970 2.526374 0.048280 -0.011420 359357.000000 1 0 0
-3.939946 -6.634275 -16.582409 18.289698 1.034891 2.706078 0.001503 -0.006804 -630510.000000 1 0 0
5.952754 -7.816675 -11.184909 14.887507 -0.919947 2.420818 0.007504 0.001973 892435.000000 1 0 0
5.445854 6.357225 -16.905009 18.864012 0.862460 2.681815 0.028020 -0.004430 -951556.000000 1 0 0
9.110454 1.072725 -19.358309 21.421840 0.117207 2.699064 0.068440 -0.022273 444368.000000 1 0 0
13.177354 5.731825 -9.465109 17.207114 0.410289 2.153244 0.025718 -0.007654 1074480.000000 1 0 0
-1.749446 -0.993775 -17.310109 17.426647 0.516596 3.025879 0.017611 -0.006856 539547.000000 1 0 0
-0.698646 -0.525275 -19.542109 19.561647 0.644682 3.096894 0.028208 -0.017704 35126.700000 1 0 0
2.776754 6.490625 -16.587509 18.027313 1.166548 2.739214 0.019582 0.007720 -786995.000000 1 0 0
7.688954 3.647625 -15.586509 17.758503 0.442957 2.641822 0.034364 -0.006633 706679.000000 1 0 0
3.123454 -10.077775 -14.898409 18.255961 -1.270250 2.525400 0.014059 -0.002003 225553.000000 1 0 0
8.934554 -10.591375 -13.342809 19.236269 -0.870048 2.337309 0.044136 -0.012198 289732.000000 1 0 0
3.775054 0.016025 -14.836109 15.308867 0.004245 2.892428 0.021068 -0.001303 -1867900.000000 1 0 0
-1.171846 -3.051175 -18.874009 19.154924 1.204103 2.970120 0.029729 -0.012268 245538.000000 1 0 0
9.167754 10.163825 -13.043709 18.907390 0.836878 2.332111 0.072878 -0.031543 321074.000000 1 0 0
4.590154 2.017225 -10.674609 11.793472 0.414061 2.702478 0.005695 0.003397 -334842.000000 1 0 0
-0.492146 6.995225 -19.016409 20.268182 -1.500558 2.788303 0.029398 0.002209 -41731.700000 1 0 0
0.764254 -1.717975 -17.747709 17.847036 -1.152227 3.036040 0.024926 -0.006765 -2152440.000000 1 0 0
-4.592646 -2.421175 -14.041009 14.970117 0.485159 2.787426 0.011860 -0.004917 -3122540.000000 1 0 0
9.996654 6.030825 -10.450609 15.669052 0.542831 2.300916 0.023227 -0.003027 198421.000000 1 0 0
8.359454 5.599525 -17.155909 19.888699 0.590199 2.611175 0.070889 -0.022988 -369485.000000 1 0 0
11.529354 0.355925 -13.666709 17.883837 0.030861 2.440586 0.038319 0.002100 571891.000000 1 0 0
6.626554 12.025825 -11.679409 18.026100 1.067165 2.275642 0.047637 -0.026470 -754759.000000 1 0 0
-0.912046 0.552525 -15.264409 15.301611 -0.544680 3.071847 0.011661 -0.002627 -1642700.000000 1 0 0
-4.262046 -2.999175 -18.948709 19.652319 0.613201 2.873195 0.013860 -0.008656 208705.000000 1 0 0
5.734854 -12.055775 -14.000309 19.345255 -1.126782 2.379956 0.021097 -0.007019 -7358.150000 1 0 0
2.145054 -4.858375 -14.048709 15.019031 -1.155019 2.780168 0.009598 0.000512 1175110.000000 1 0 0
11.968254 1.987325 -15.490009 19.675593 0.164548 2.477166 0.071778 -0.014372 272225.000000 1 0 0
9.830254 2.255525 -13.926309 17.194865 0.225543 2.514797 0.030764 -0.006499 -566395.000000 1 0 0
-2.214546 -4.171475 -16.353209 17.021541 1.082752 2.860439 0.001829 -0.009982 -550746.000000 1 0 0
-2.859246 10.136425 -14.318809 17.775002 -1.295863 2.507414 0.004017 0.000544 -72452.900000 1 0 0
3.511254 5.655625 -13.684109 15.217419 1.015192 2.688825 0.007441 0.002750 -481742.000000 1 0 0
-5.098146 -2.562275 -16.494309 17.453325 0.465717 2.808552 0.013647 -0.005819 367381.000000 1 0 0
-4.276446 6.129525 -13.507909 15.437703 -0.961629 2.636221 0.000600 0.003001 135572.000000 1 0 0
5.904254 -1.230975 -14.294509 15.514783 -0.205545 2.742329 0.020488 0.003501 -1211760.000000 1 0 0
6.739754 -2.993075 -12.736909 14.717732 -0.417930 2.616769 0.016414 -0.003172 1675260.000000 1 0 0
2.811954 -3.322775 -18.332109 18.841819 -0.868473 2.908462 0.039209 -0.015615 -562733.000000 1 0 0
7.334454 -12.072775 -12.011009 18.542126 -1.024866 2.275448 0.028238 -0.008920 -1095700.000000 1 0 0
-6.087546 -5.376875 -17.793309 19.559418 0.723488 2.713370 0.032813 -0.005524 373733.000000 1 0 0
0.571354 8.704625 -11.985009 14.823541 1.505252 2.512415 0.002469 0.005561 -41691.600000 1 0 0
0.499254 8.482525 -14.459709 16.771573 1.512007 2.610306 0.005175 0.007378 277911.000000 1 0 0
7.897554 -2.533175 -15.073709 17.204797 -0.310387 2.638580 0.034275 -0.012464 -251813.000000 1 0 0
14.350554 1.410425 -8.855109 16.921603 0.097969 2.121518 0.028454 -0.002364 497265.000000 1 0 0
2.850754 10.687325 -14.620309 18.333007 1.310124 2.493912 0.019135 -0.000439 243322.000000 1 0 0
6.061454 0.959625 -15.570909 16.736646 0.157013 2.766158 0.028424 -0.001629 754477.000000 1 0 0
16.765954 -5.717175 -10.252409 20.466929 -0.328634 2.095464 0.098637 -0.021709 393774.000000 1 0 0
4.873454 -4.226775 -11.304909 13.016034 -0.714456 2.623039 0.007785 0.002971 -854060.000000 1 0 0
9.101154 -3.379275 -17.130809 19.690483 -0.355524 2.626008 0.057035 -0.017486 325311.000000 1 0 0
13.415254 -9.482275 -8.713709 18.596002 -0.615294 2.058479 0.065160 -0.018676 -1130510.000000 1 0 0
2.422954 -7.813875 -13.595909 15.867454 -1.270114 2.599910 0.004280 -0.001492 398727.000000 1 0 0
-6.858646 -2.430975 -18.417109 19.802539 0.340624 2.765312 0.024657 -0.007401 -566309.000000 1 0 0
-1.493546 -6.570275 -15.752409 17.132938 1.347276 2.737406 -0.001219 -0.006085 -766632.000000 1 0 0
1.459754 -7.356375 -18.273909 19.753047 -1.374907 2.752144 0.039175 -0.020845 -536047.000000 1 0 0
5.405454 10.942725 -14.436009 18.903982 1.111979 2.439743 0.043257 -0.021729 -77841.500000 1 0 0
5.367154 -3.532175 -17.629709 18.764041 -0.582055 2.792103 0.033228 -0.008700 -901463.000000 1 0 0
3.791654 13.051925 -14.129409 19.605346 1.288073 2.375596 0.040787 -0.011099 106921.000000 1 0 0
9.108054 10.620825 -15.534009 20.906076 0.861926 2.408395 0.093137 -0.032653 63267.600000 1 0 0
2.534654 3.877625 -16.321909 16.966589 0.991851 2.865042 0.022587 0.000562 492222.000000 1 0 0
16.751754 1.563425 -11.470309 20.362553 0.093059 2.169176 0.079266 -0.016348 452083.000000 1 0 0
10.072054 -3.756875 -10.513009 15.036081 -0.357016 2.345054 0.024237 -0.002950 -438347.000000 1 0 0
14.658154 -2.076475 -11.978709 19.043705 -0.140724 2.251077 0.065612 -0.010896 344247.000000 1 0 0
-2.748146 -8.781775 -15.935209 18.401162 1.267513 2.617922 0.005573 -0.006246 -344484.000000 1 0 0
13.898654 8.245125 -8.980009 18.487705 0.535428 2.077993 0.059783 -0.008706 -44742.700000 1 0 0
-8.369446 -0.108075 -16.513409 18.513562 0.012912 2.672465 0.019404 -0.003763 -494145.000000 1 0 0
-3.530246 3.850225 -15.929909 16.764512 -0.828726 2.824725 0.005585 0.002317 690380.000000 1 0 0
15.153154 3.907025 -9.648709 18.384246 0.252340 2.123318 0.040663 -0.007400 512539.000000 1 0 0
5.450054 0.913625 -12.988909 14.115578 0.166092 2.739343 0.011971 0.001344 860058.000000 1 0 0
7.867354 -7.713975 -12.942209 16.997101 -0.775555 2.436322 0.035801 -0.006596 -2914020.000000 1 0 0
3.262354 -6.168975 -11.825509 13.731055 -1.084350 2.608469 0.005358 0.001753 -631639.000000 1 0 0
-3.457546 3.596125 -18.609609 19.266662 -0.805042 2.879681 0.013945 0.008616 -668845.000000 1 0 0
0.876954 5.151225 -17.936909 18.682528 1.402171 2.858120 0.025829 -0.000583 228542.000000 1 0 0
6.283954 7.214825 -10.215409 13.996298 0.854249 2.388921 0.004955 -0.001637 201112.000000 1 0 0
9.728654 3.738525 -11.743509 15.701378 0.366881 2.415732 0.021631 -0.002163 -78024.200000 1 0 0
4.524154 1.404425 -17.691009 18.314261 0.300996 2.879960 0.035478 0.000562 -1325760.000000 1 0 0
2.634854 8.047225 -13.129209 15.622945 1.254374 2.568780 0.005675 0.000642 -2268990.000000 1 0 0
14.447654 -3.619775 -9.865609 17.865266 -0.245491 2.155825 0.052251 -0.004850 341564.000000 1 0 0
-1.305546 9.285525 -16.187809 18.707501 -1.431112 2.616567 0.011966 0.005715 -412445.000000 1 0 0
-5.353846 1.924625 -15.564509 16.571716 -0.345099 2.791151 0.011757 -0.001767 644277.000000 1 0 0
4.463754 4.147825 -11.946309 13.410587 0.748728 2.669925 0.004292 0.003022 565985.000000 1 0 0
9.160054 3.038025 -17.702709 20.162393 0.320244 2.642477 0.054346 -0.011324 871389.000000 1 0 0
-4.307246 14.179225 -13.496409 20.043848 -1.275883 2.309519 0.011767 -0.006211 -305622.000000 1 0 0
15.506154 -4.947775 -8.021509 18.145686 -0.308872 2.028692 0.059609 -0.010059 1322410.000000 1 0 0
1.055254 9.111325 -17.033009 19.345625 1.455492 2.647624 0.016545 0.009199 -453601.000000 1 0 0
0.431854 -3.374075 -12.808809 13.252791 -1.443496 2.882017 0.007337 -0.001660 -359519.000000 1 0 0
7.650354 3.541125 -12.969509 15.468537 0.433506 2.565219 0.018766 -0.000797 -873422.000000 1 0 0
-2.967646 7.548625 -15.072209 17.116078 -1.196220 2.647897 0.003258 0.005284 243709.000000 1 0 0
12.158954 -5.188175 -10.959409 17.171662 -0.403306 2.262989 0.042443 -0.009732 -849127.000000 1 0 0
0.676054 -4.382275 -20.128409 20.611022 -1.417733 2.924764 0.046593 -0.017852 -521544.000000 1 0 0
3.357754 -4.578075 -16.235109 17.199187 -0.937977 2.805184 0.027475 -0.011196 349818.000000 1 0 0
-5.734146 4.074225 -14.341909 15.974044 -0.617752 2.685603 0.003199 0.001865 542323.000000 1 0 0
12.277754 -7.568675 -9.902909 17.495591 -0.552430 2.172470 0.033051 -0.004970 288489.000000 1 0 0
-2.130246 -1.897175 -14.906309 15.176800 0.727592 2.952511 0.010956 -0.002312 555211.000000 1 0 0
7.100854 5.806625 -14.273109 16.966457 0.685462 2.570396 0.023812 -0.005161 -77252.000000 1 0 0
4.094454 -5.570475 -18.504409 19.753680 -0.936946 2.784044 0.051199 -0.016078 242471.000000 1 0 0
7.675054 7.454125 -12.357009 16.345217 0.770796 2.427979 0.019558 -0.011814 216108.000000 1 0 0
12.369054 -2.555575 -10.923609 16.698793 -0.203744 2.283862 0.030142 -0.005089 -939538.000000 1 0 0
7.413854 -0.778375 -10.799109 13.122189 -0.104606 2.537408 0.012815 0.000111 -1283070.000000 1 0 0
5.407454 3.815225 -14.301809 15.758751 0.614441 2.708202 0.014837 -0.000259 999101.000000 1 0 0
14.960354 2.838825 -12.940109 19.982931 0.187527 2.275172 0.061601 -0.023790 -260353.000000 1 0 0
-6.249146 6.670625 -15.898109 18.338455 -0.818009 2.619801 0.000821 0.008690 502731.000000 1 0 0
-11.047346 3.897125 -16.441909 20.188308 -0.339137 2.522538 0.039159 -0.022101 -104602.000000 1 0 0
-5.069646 6.376525 -18.109109 19.857019 -0.899082 2.718870 0.006453 0.019973 -313267.000000 1 0 0
-10.095446 1.563725 -15.736509 18.761689 -0.153673 2.565794 0.038122 -0.009697 128110.000000 1 0 0
-7.626746 5.880225 -17.876309 20.305337 -0.656807 2.647448 0.006155 0.004456 -613442.000000 1 0 0
-8.678546 3.732325 -15.427609 18.090288 -0.406152 2.592142 0.004455 -0.002178 -1784300.000000 1 0 0
8.946654 13.272325 -12.075409 20.050255 0.977677 2.217122 0.095170 -0.038584 -780808.000000 1 0 0
13.547654 8.568125 -11.632809 19.805907 0.563934 2.198565 0.061119 -0.022555 687617.000000 1 0 0
8.392654 15.798725 -9.172209 20.103875 1.082483 2.044562 0.061833 -0.021254 -330997.000000 1 0 0
7.162954 13.291525 -13.906209 20.526938 1.076506 2.315102 0.085343 -0.030890 46577.900000 1 0 0
4.739754 15.991125 -12.414009 20.791560 1.282646 2.210639 0.066625 -0.024897 -4170.920000 1 0 0
11.047654 10.968925 -11.536709 19.376884 0.781822 2.208541 0.098118 -0.030685 -407893.000000 1 0 0
15.762754 9.303125 -10.389909 21.046681 0.533180 2.087090 0.099625 -0.003796 -349573.000000 1 0 0
13.524754 10.660725 -10.020209 19.924222 0.667528 2.097765 0.119377 -0.019423 173880.000000 1 0 0
10.685854 12.015425 -8.091409 18.000801 0.843899 2.037005 0.058519 -0.005679 512539.000000 1 0 0
5.477354 16.098025 -9.944509 19.698758 1.242834 2.099980 0.048032 -0.028483 -455817.000000 1 0 0
6.738854 14.605125 -11.714909 19.898767 1.138500 2.200277 0.057420 -0.014022 -930414.000000 1 0 0
10.827054 13.889325 -9.938009 20.221337 0.908666 2.084563 0.089892 -0.018104 -322666.000000 1 0 0
8.221454 -18.796175 -1.290209 20.556097 -1.158469 1.633603 0.069543 -0.003056 208407.000000 1 0 0
7.493154 -17.633675 -3.391009 19.457461 -1.168981 1.745969 0.055112 -0.000420 -197988.000000 1 0 0
4.542754 -17.632975 5.470191 19.012664 -1.318651 1.278958 0.050080 -0.026117 258821.000000 1 0 0
9.933754 -17.341575 -2.511309 20.142402 -1.050595 1.695799 0.065588 -0.004791 240433.000000 1 0 0
-9.720646 -12.307175 -10.007309 18.603863 0.902284 2.138759 0.034493 -0.007777 -1662590.000000 1 0 0
-5.188346 -6.971475 -12.184609 14.966131 0.931002 2.522052 0.002983 -0.001285 715986.000000 1 0 0
-10.831446 -9.473875 -5.641809 15.456537 0.718640 1.944441 0.016122 -0.005042 -651114.000000 1 0 0
-4.587246 -11.380775 -13.866109 18.515772 1.187646 2.417168 0.005074 -0.004325 725615.000000 1 0 0
-2.716246 -15.507375 7.425391 17.406697 1.397397 1.130086 0.000742 -0.001714 -12735.900000 1 0 0
-4.741846 -11.987775 -11.469509 17.255187 1.194126 2.297887 0.005127 -0.000412 116205.000000 1 0 0
-14.396446 -12.756175 -4.310209 19.711812 0.725062 1.791239 0.051492 -0.008194 -115789.000000 1 0 0
-3.286546 -12.213575 -3.243509 13.057302 1.307933 1.821830 0.009791 -0.004219 1010850.000000 1 0 0
-2.469846 -17.189175 -1.443109 17.425568 1.428087 1.653707 0.003943 -0.014759 -613135.000000 1 0 0
-5.863246 -12.057975 3.811091 13.939039 1.118205 1.293859 0.001051 -0.001670 101974.000000 1 0 0
-8.778946 -10.620375 -11.910109 18.212988 0.880037 2.283570 0.014480 -0.001466 -131112.000000 1 0 0
-10.187146 -12.134775 -7.466109 17.514950 0.872430 2.011162 0.037428 -0.008813 118631.000000 1 0 0
-11.033646 -14.850575 6.219391 19.518241 0.931805 1.246497 0.034430 -0.014143 -872843.000000 1 0 0
-9.447046 -15.754275 0.766891 18.385646 1.030634 1.529073 0.019656 -0.002686 -1302760.000000 1 0 0
-14.830646 -7.826175 -7.962609 18.563410 0.485564 2.014117 0.028703 -0.012954 -124673.000000 1 0 0
-2.511246 -16.559675 5.049991 17.493759 1.420295 1.277955 0.015644 -0.003757 1017870.000000 1 0 0
4.364854 -15.426275 6.918091 17.460868 -1.295055 1.163416 0.033210 -0.014831 -659424.000000 1 0 0
4.162554 -14.594075 -9.988909 18.168439 -1.292952 2.152915 0.013049 -0.003681 -545753.000000 1 0 0
-7.621946 -14.020875 -0.257409 15.960741 1.072869 1.586925 0.002346 -0.001350 564890.000000 1 0 0
2.837954 -14.873475 9.567091 17.910988 -1.382256 1.007298 0.022246 -0.013555 549537.000000 1 0 0
2.149154 -17.232175 10.211691 20.145604 -1.446719 1.039218 0.057263 -0.019454 -199280.000000 1 0 0
-8.203246 -17.007975 -5.524909 19.674579 1.121394 1.855439 0.047759 -0.018588 348513.000000 1 0 0
-6.563546 -9.151275 -7.762809 13.677981 0.948602 2.174312 0.011388 -0.006674 296314.000000 1 0 0
-6.123746 -12.896875 -4.694509 15.028907 1.127492 1.888478 0.005523 -0.009784 370654.000000 1 0 0
2.173854 -19.422775 -4.958309 20.163200 -1.459337 1.819254 0.032809 -0.014199 266773.000000 1 0 0
-5.472246 -12.879175 8.338691 16.289640 1.169018 1.033399 0.010302 -0.007327 937588.000000 1 0 0
2.130154 -17.569975 3.324591 18.008178 -1.450147 1.385116 0.028061 -0.008444 161692.000000 1 0 0
-17.461446 -10.266975 -2.524009 20.412826 0.531534 1.694762 0.041750 -0.011462 557216.000000 1 0 0
-3.451346 -15.308275 2.575591 15.902476 1.349048 1.408118 0.003478 -0.004254 -183235.000000 1 0 0
-9.973746 -10.172375 -14.248709 20.148908 0.795257 2.356284 0.024543 -0.007646 -507735.000000 1 0 0
6.143154 -14.648675 -5.709009 16.879419 -1.173707 1.915824 0.020205 -0.006501 462280.000000 1 0 0
-7.248546 -12.386375 -10.795809 17.958652 1.041328 2.215733 0.011735 -0.003884 -496882.000000 1 0 0
-7.290646 -14.159475 3.848591 16.384624 1.095304 1.333690 0.003963 -0.000672 1208760.000000 1 0 0
3.240854 -15.094275 -3.107409 15.747897 -1.359300 1.769422 0.017975 -0.003780 -207874.000000 1 0 0
-7.605146 -11.376675 7.883091 15.792723 0.981535 1.048168 0.011394 -0.012085 -637182.000000 1 0 0
-12.658046 -12.297275 -0.889809 17.670338 0.770943 1.621174 0.021774 0.003063 -540177.000000 1 0 0
-1.871546 -13.636275 4.184491 14.386127 1.434401 1.275660 0.002040 -0.001234 -3529000.000000 1 0 0
-3.238746 -13.964875 5.299891 15.283849 1.342904 1.216677 0.002957 -0.000286 601485.000000 1 0 0
-14.524346 -10.270175 -4.436509 18.333459 0.615476 1.815212 0.033345 -0.007273 966472.000000 1 0 0
-6.333946 -8.695175 -10.463609 15.007066 0.941235 2.342344 0.006147 -0.002820 470423.000000 1 0 0
0.800954 -19.421675 2.180691 19.560123 -1.529579 1.459077 0.039895 -0.017781 149671.000000 1 0 0
6.371554 -14.062975 -8.204509 17.483648 -1.145390 2.059257 0.023578 -0.009640 -2086480.000000 1 0 0
-3.945346 -16.743475 -5.789809 18.150250 1.339383 1.895463 0.010513 -0.012503 -189929.000000 1 0 0
-3.593746 -13.628975 -13.160109 19.283475 1.312980 2.321913 0.011624 0.002002 -1844350.000000 1 0 0
-8.293746 -14.570475 -4.360309 17.323315 1.053320 1.825235 0.021260 -0.015433 -478381.000000 1 0 0
-4.458446 -14.345875 10.096091 18.100081 1.269477 0.979072 0.008474 -0.007238 -1498200.000000 1 0 0
-0.230646 -12.188275 -9.905909 15.707777 1.551875 2.253170 0.005206 0.002475 185608.000000 1 0 0
2.344954 -17.192575 6.878491 18.665398 -1.435239 1.193385 0.032424 -0.015773 -532122.000000 1 0 0
-2.917646 -19.034775 -3.317009 19.540672 1.418700 1.741371 0.013473 -0.017643 -773946.000000 1 0 0
0.636654 -15.423175 -3.048209 15.734396 -1.529541 1.765758 0.012407 -0.006312 -336312.000000 1 0 0
5.944054 -18.003675 0.689891 18.972086 -1.251906 1.534425 0.041687 -0.006211 -122263.000000 1 0 0
-7.218246 -16.600475 3.833991 18.503468 1.160636 1.362080 0.005288 -0.004624 1290280.000000 1 0 0
-5.262546 -13.559575 -9.496109 17.370450 1.200586 2.149193 0.008761 -0.004905 327662.000000 1 0 0
5.614554 -15.353475 -2.160409 16.489990 -1.220216 1.702187 0.031089 -0.002126 -314848.000000 1 0 0
-8.827146 -10.152875 -0.469109 13.461777 0.855134 1.605651 0.001383 0.002246 -882274.000000 1 0 0
-7.422346 -18.198075 -3.031409 19.885939 1.183529 1.723833 0.031339 -0.023441 292903.000000 1 0 0
7.902854 -16.198975 -1.227109 18.065649 -1.116907 1.638774 0.035431 0.000390 231535.000000 1 0 0
-8.140046 -10.314075 -9.473909 16.198624 0.902665 2.195502 0.017171 -0.004230 -1670290.000000 1 0 0
-9.202746 -15.027275 -6.864409 18.911098 1.021307 1.942264 0.049399 -0.019956 -266570.000000 1 0 0
-11.358246 -10.425275 -12.088109 19.591286 0.742595 2.235740 0.031954 0.002770 -549836.000000 1 0 0
6.649454 -16.351375 2.570191 17.837841 -1.184562 1.426207 0.038178 -0.004456 87294.000000 1 0 0
-2.120446 -11.319475 -6.017509 12.993737 1.385615 2.052295 0.010433 -0.004782 -579095.000000 1 0 0
-12.599946 -15.124775 -3.390109 19.975242 0.876215 1.741337 0.054679 -0.016554 -509170.000000 1 0 0
-0.367746 -19.604275 -2.776509 19.803329 1.552040 1.711464 0.031165 -0.016910 26814.200000 1 0 0
-5.919646 -15.480075 -4.643109 17.211432 1.205550 1.843949 0.012114 -0.016103 -2039710.000000 1 0 0
1.865754 -16.055375 -0.940709 16.190770 -1.455108 1.628931 0.021946 -0.006990 1004850.000000 1 0 0
-13.229346 -11.855675 5.273391 18.530549 0.730692 1.282230 0.018028 -0.009023 231476.000000 1 0 0
2.030554 -15.303875 -8.840809 17.790212 -1.438884 2.090874 0.013277 0.002898 -2309320.000000 1 0 0
-11.819046 -16.689675 0.119291 20.451145 0.954611 1.564963 0.069088 -0.020174 348226.000000 1 0 0
-7.658246 -16.536275 -1.099109 18.256647 1.137087 1.631036 0.024977 -0.010185 696009.000000 1 0 0
-3.194446 -14.358175 -1.761409 14.814325 1.351879 1.689977 0.006171 -0.006336 449246.000000 1 0 0
-1.741246 -10.590375 -13.190309 17.005065 1.407837 2.458571 0.001198 0.000597 -603933.000000 1 0 0
1.421754 -19.524375 4.707491 20.134127 -1.498105 1.334805 0.051999 -0.020192 112887.000000 1 0 0
-17.378846 -9.325475 2.565691 19.888980 0.492497 1.441435 0.028062 -0.008741 -284924.000000 1 0 0
-2.692746 -15.910875 -8.022909 18.021484 1.403146 2.032178 0.004045 -0.000145 -1784530.000000 1 0 0
-10.382046 -12.168375 0.215891 15.996963 0.864448 1.557300 0.005995 0.005621 24244.400000 1 0 0
-7.007646 -11.467875 -6.561609 14.955733 1.022279 2.024987 0.005469 -0.003741 328572.000000 1 0 0
-2.374346 -13.698475 -6.676509 15.422759 1.399172 2.018503 0.003851 -0.002427 835731.000000 1 0 0
-14.224846 -14.512375 -0.814009 20.337597 0.795403 1.610832 0.051392 -0.006209 77400.400000 1 0 0
-9.538746 -11.312375 -4.401709 15.438022 0.870255 1.859929 0.014222 -0.002573 629178.000000 1 0 0
9.628754 -15.284175 -5.088309 18.767253 -1.008622 1.845360 0.042704 -0.004208 99936.600000 1 0 0
-5.598646 -10.908875 -9.403809 15.452508 1.096629 2.225043 0.006407 -0.003925 374661.000000 1 0 0
-10.445146 -15.948975 -4.749909 19.647710 0.990977 1.814969 0.058986 -0.014165 -1437800.000000 1 0 0
2.126554 -17.482575 -3.150009 17.890925 -1.449752 1.747786 0.028037 -0.006697 662802.000000 1 0 0
-0.392646 -14.642075 -8.147809 16.761006 1.543987 2.078437 0.002880 0.003352 -470454.000000 1 0 0
-0.552646 -18.314175 -7.075909 19.641357 1.540630 1.939338 0.015852 -0.006772 -32970.200000 1 0 0
-1.757446 -10.106375 -10.600609 14.751282 1.398623 2.372616 0.002672 -0.001314 381520.000000 1 0 0
-5.020146 -17.270375 2.262491 18.126957 1.287912 1.445656 0.007165 -0.007858 1230110.000000 1 0 0
0.281354 -12.887075 -2.601209 13.149986 -1.548967 1.769920 0.009612 -0.004843 -2220390.000000 1 0 0
2.569754 -14.996675 3.139191 15.535714 -1.401090 1.367333 0.023063 -0.004115 -931739.000000 1 0 0
-9.437346 -12.970675 6.889191 17.457458 0.941792 1.165134 0.008910 -0.007651 -579576.000000 1 0 0
-1.055946 -17.712275 -4.519209 18.310187 1.511250 1.820187 0.008257 -0.015387 -239904.000000 1 0 0
-9.838646 -17.788775 -2.057509 20.432151 1.065590 1.671667 0.055088 -0.011493 -617077.000000 1 0 0
1.316654 -16.099475 1.440491 16.217327 -1.489195 1.481855 0.019202 -0.013826 275032.000000 1 0 0
-0.499346 -17.969975 3.963491 18.408656 1.543016 1.353791 0.028488 -0.017028 471832.000000 1 0 0
-17.461846 -9.258075 -0.098209 19.764555 0.487506 1.575765 0.029334 -0.001611 1012600.000000 1 0 0
-14.869646 -7.319775 -10.471109 19.604326 0.457439 2.134266 0.057342 -0.021017 651112.000000 1 0 0
2.878654 -12.727975 -8.740909 15.706415 -1.348371 2.160986 0.002786 0.002007 623792.000000 1 0 0
-11.826446 -14.688175 1.591291 18.924574 0.892912 1.486611 0.033672 -0.007307 542046.000000 1 0 0
-2.251246 -15.617175 10.633891 19.027451 1.427631 0.977773 0.011042 -0.007901 -26114.500000 1 0 0
-7.005346 -15.849075 1.344091 17.380294 1.154612 1.493385 0.011919 -0.008334 -1242220.000000 1 0 0
-12.485346 -15.145175 -6.041109 20.536679 0.881367 1.869375 0.054105 -0.009922 436020.000000 1 0 0
0.928054 -13.777075 -5.004109 14.687075 -1.503536 1.918474 0.009965 -0.003425 415474.000000 1 0 0
5.884554 -16.402675 -7.589409 19.007231 -1.226343 1.981539 0.045121 -0.020330 301673.000000 1 0 0
-6.630146 -12.849975 6.020091 15.662764 1.094458 1.176285 0.007832 -0.002860 14691.400000 1 0 0
-2.615346 -13.503775 0.555891 13.765936 1.379490 1.530404 0.009592 -0.004299 1462320.000000 1 0 0
-4.353646 -15.533075 0.263491 16.133818 1.297526 1.554464 0.002409 -0.007520 -212763.000000 1 0 0
-17.560646 -7.732775 -2.113409 19.303849 0.414797 1.680497 0.019885 0.000489 285705.000000 1 0 0
1.274354 -12.802975 -11.965409 17.570178 -1.471587 2.319933 0.007271 0.003102 116566.000000 1 0 0
1.245254 -17.073975 -5.705009 18.044900 -1.497992 1.892472 0.025139 -0.009312 -739944.000000 1 0 0
-12.857746 -6.555175 -9.127909 17.076611 0.471475 2.134744 0.027790 -0.002108 913249.000000 1 0 0
-11.870746 -13.413075 -9.045609 20.066096 0.846323 2.038447 0.067167 -0.017472 798488.000000 1 0 0
-4.356846 -9.690975 3.631491 11.228750 1.148294 1.241465 0.003832 -0.000772 -3415460.000000 1 0 0
-7.046046 -14.240675 9.709291 18.620255 1.111331 1.022262 0.011317 -0.012466 -574237.000000 1 0 0
-5.282046 -15.903075 -8.039009 18.585840 1.250120 2.018098 0.012236 -0.012576 185201.000000 1 0 0
-0.375446 -13.459675 2.120591 13.630873 1.542909 1.414589 0.011096 -0.004358 732070.000000 1 0 0
-11.052646 -13.413575 -4.704509 18.006037 0.881598 1.835138 0.048651 -0.008594 -901212.000000 1 0 0
-9.799846 -10.486675 6.706391 15.842443 0.819242 1.133692 0.017613 -0.006938 -269981.000000 1 0 0
-15.465946 -8.041075 -4.748709 18.066671 0.479457 1.836765 0.027032 -0.008520 -536300.000000 1 0 0
-14.417146 -7.231075 5.415991 17.013979 0.464895 1.246833 0.004859 -0.003716 -60472.200000 1 0 0
-1.720846 -19.266675 -0.028509 19.343394 1.481716 1.572270 0.021656 -0.015413 -469010.000000 1 0 0
-15.258146 -12.242775 -1.341409 19.608567 0.676188 1.639259 0.036979 0.005222 299146.000000 1 0 0
-4.409346 -12.019675 -6.730609 14.464301 1.219195 2.054799 0.010880 -0.005608 953338.000000 1 0 0
-7.240746 -18.406575 1.969991 19.877406 1.196011 1.471526 0.019616 -0.006163 -13286.800000 1 0 0
-2.463346 -11.826575 -8.618809 14.839805 1.365443 2.190495 0.005838 -0.000146 83406.000000 1 0 0
-1.476446 -20.254375 -4.991909 20.912646 1.498030 1.811826 0.031091 -0.012468 29397.900000 1 0 0
-5.434146 -8.831175 -13.900809 17.342205 1.019176 2.500695 0.008162 -0.000516 637150.000000 1 0 0
-8.089346 -19.060675 -0.719509 20.718700 1.169434 1.605531 0.027227 -0.008756 339121.000000 1 0 0
-16.908146 -7.017075 5.920491 19.239983 0.393380 1.258002 0.018650 -0.010793 208378.000000 1 0 0
-3.645846 -14.559775 -4.285209 15.609044 1.325436 1.848901 0.002044 -0.009441 -2441340.000000 1 0 0
-2.982046 -14.937875 -10.929709 18.748099 1.373757 2.193184 0.010607 -0.002191 -150973.000000 1 0 0
-0.129346 -16.813375 6.210191 17.924084 1.563103 1.216989 0.035142 -0.010283 -1009020.000000 1 0 0
-11.151646 -11.577375 3.836891 16.526238 0.804127 1.336489 0.010073 -0.004637 -739851.000000 1 0 0
-0.299146 -14.657075 -0.108309 14.660527 1.550390 1.578184 0.007166 -0.003806 916780.000000 1 0 0
-7.308246 -9.526775 -2.419609 12.248445 0.916424 1.769648 0.005140 -0.000128 -240604.000000 1 0 0
-11.005746 -14.434875 -0.864709 18.172500 0.919380 1.618398 0.027432 -0.010180 23158.400000 1 0 0
0.241354 -14.626375 -10.578609 18.052591 -1.554297 2.196896 0.003351 0.004122 -3014.520000 1 0 0
-1.427946 -14.102075 -3.799109 14.674494 1.469882 1.832671 0.009714 -0.006680 -2442580.000000 1 0 0
-11.356546 -8.049375 -7.546809 15.834073 0.616599 2.067600 0.019549 -0.005847 612708.000000 1 0 0
-0.250246 -17.339475 -0.089109 17.341509 1.556365 1.575935 0.016324 -0.012113 -1588400.000000 1 0 0
-12.746546 -9.467375 4.560491 16.519797 0.638839 1.291102 0.004609 -0.003533 -474000.000000 1 0 0
4.005254 -16.777375 1.674391 17.329915 -1.336453 1.474027 0.034069 -0.013333 2838180.000000 1 0 0
-3.690246 -18.105975 -8.040509 20.151775 1.369736 1.981220 0.026370 -0.013528 283113.000000 1 0 0
-13.329246 -11.133175 2.682991 17.573127 0.695865 1.417521 0.005104 -0.005534 -728228.000000 1 0 0
-8.542346 -12.004975 4.257091 15.336685 0.952349 1.289527 0.011223 -0.006654 358639.000000 1 0 0
-8.311446 -9.390175 -5.891109 13.854987 0.846262 2.009977 0.010438 -0.006208 -1008850.000000 1 0 0
3.826754 -17.431275 -5.151609 18.575049 -1.354691 1.851821 0.024279 -0.005928 239553.000000 1 0 0
-2.560046 -13.076575 11.329391 17.490161 1.377468 0.866158 0.003845 -0.010979 68994.200000 1 0 0
0.050454 -16.814575 -9.482309 19.304058 -1.567796 2.084272 0.008378 0.001056 -250418.000000 1 0 0
-7.106146 -10.716275 -14.454709 19.346174 0.985255 2.414577 0.012610 -0.000811 -1960220.000000 1 0 0
-4.596646 -18.641275 -1.319109 19.244904 1.329035 1.639393 0.023517 -0.025149 -948364.000000 1 0 0
-2.537146 -17.224975 1.269991 17.457083 1.424553 1.497983 0.012781 -0.011420 -90308.100000 1 0 0
4.002554 -14.588475 -7.353609 16.820214 -1.303021 2.023267 0.014172 -0.008318 -721416.000000 1 0 0
-0.945546 -15.891575 -6.164109 17.071393 1.511367 1.940220 0.010188 -0.004053 -54236.700000 1 0 0
-9.599846 -15.091975 8.413491 19.766425 1.004262 1.131121 0.021908 -0.011565 -549335.000000 1 0 0
-7.380746 -12.004475 -1.656209 14.188934 1.019542 1.687788 -0.000564 -0.004255 936292.000000 1 0 0
-7.380546 -15.033575 -9.198809 19.107561 1.114425 2.073073 0.030764 -0.014413 -515775.000000 1 0 0
-5.123146 -13.139875 -0.533209 14.113371 1.199033 1.608586 0.003475 -0.003862 1544340.000000 1 0 0
-6.383946 -13.794475 -7.182109 16.811454 1.137357 2.012207 0.008221 -0.012749 634084.000000 1 0 0
5.787054 -15.435375 0.312591 16.487526 -1.212094 1.551836 0.029085 -0.001775 298026.000000 1 0 0
-14.324946 -12.766675 1.087791 19.219140 0.727943 1.514167 0.004740 -0.004971 957399.000000 1 0 0
0.724454 -15.256775 11.166191 18.920302 -1.523348 0.939527 0.017399 -0.014432 220365.000000 1 0 0
-9.286546 -10.873075 1.968791 14.433982 0.863935 1.433970 0.003667 0.002591 200790.000000 1 0 0
-9.466346 -8.871275 -3.540209 13.447836 0.752959 1.837191 0.009113 -0.001857 -67572.800000 1 0 0
-12.213146 -7.358775 -12.014509 18.645667 0.542277 2.270981 0.042767 -0.015831 -720341.000000 1 0 0
-13.168846 -8.364675 -0.549509 15.610517 0.565891 1.606005 0.007000 -0.000645 -612198.000000 1 0 0
-11.214146 -9.701075 0.618691 14.840845 0.713181 1.529096 -0.002383 0.002518 419405.000000 1 0 0
-15.659346 -12.148375 3.122691 20.063632 0.659804 1.414522 0.028514 -0.006811 -636973.000000 1 0 0
-10.446346 -12.411275 -2.346409 16.391202 0.871151 1.714440 0.025096 -0.005634 602279.000000 1 0 0
-3.440046 -8.901675 -12.142109 15.443592 1.202026 2.475469 0.003408 0.000804 -766295.000000 1 0 0
-0.330846 -15.484975 3.920191 15.976915 1.549434 1.322899 0.018303 -0.009175 -510164.000000 1 0 0
-15.717846 -7.745775 1.242191 17.566751 0.457872 1.500025 0.004713 -0.003201 810030.000000 1 0 0
-6.146846 -13.392475 -13.305309 19.853799 1.140502 2.305227 0.015195 0.000870 227511.000000 1 0 0
-15.379246 -10.305675 1.169891 18.549846 0.590378 1.507687 0.013202 -0.002497 141565.000000 1 0 0
-9.853846 -8.338375 -12.502409 17.970448 0.702287 2.340219 0.018643 -0.002787 538700.000000 1 0 0
-13.303746 -11.511675 -6.331909 18.697630 0.713307 1.916276 0.044324 -0.009658 30993.800000 1 0 0
-12.191946 -11.375475 -3.892609 17.123007 0.750768 1.800133 0.025528 -0.000700 215240.000000 1 0 0
-11.710846 -10.799475 -9.014509 18.303932 0.744933 2.085745 0.040856 -0.020187 622923.000000 1 0 0
-13.111946 -8.375575 -5.740109 16.583794 0.568443 1.924237 0.013700 -0.010288 -210540.000000 1 0 0
-13.442846 -8.177975 -3.187209 16.054522 0.546538 1.770648 0.013200 -0.003938 -30013.100000 1 0 0
-4.414446 -16.865175 -3.162809 17.717923 1.314791 1.750267 0.006166 -0.019460 533796.000000 1 0 0
-15.324846 -8.998975 -1.603309 17.843852 0.530966 1.660770 0.024205 -0.001302 -448799.000000 1 0 0
-9.549846 -15.426675 3.580891 18.493367 1.016489 1.375934 0.017724 -0.010418 -699908.000000 1 0 0
4.591454 -17.704875 8.108291 20.007210 -1.317053 1.153524 0.051662 -0.006983 286716.000000 1 0 0
-8.490246 -15.273175 5.968091 18.465434 1.063440 1.241684 0.010055 -0.001803 -366517.000000 1 0 0
0.648554 -15.965175 8.527991 18.111711 -1.530196 1.080537 0.028366 -0.014305 311715.000000 1 0 0
-10.671046 -7.757075 -10.043109 16.580333 0.628570 2.221472 0.021043 -0.009248 1095400.000000 1 0 0
-4.884346 -15.939375 5.978991 17.710698 1.273448 1.226439 0.008470 -0.002685 449391.000000 1 0 0
-1.304646 -13.248175 -12.043509 17.951667 1.472635 2.306198 0.004963 0.003418 -883628.000000 1 0 0
-6.445546 -14.268375 -2.505909 15.855950 1.146499 1.729504 0.009610 -0.010237 274258.000000 1 0 0
-17.804946 -6.837475 -7.213909 20.391362 0.366656 1.932398 0.057081 -0.023278 231561.000000 1 0 0
-17.321446 -4.173875 -10.181909 20.521330 0.236458 2.089969 0.049336 -0.017574 966815.000000 1 0 0
-15.279646 -5.295375 -8.902009 18.459532 0.333611 2.074011 0.025329 -0.020038 301099.000000 1 0 0
-16.081446 -5.431875 -5.680609 17.899371 0.325741 1.893744 0.012682 -0.005584 724607.000000 1 0 0
-15.265046 -4.413775 -12.229309 20.051409 0.281466 2.226728 0.055481 -0.015788 -821123.000000 1 0 0
-18.710446 -5.144675 -5.531709 20.177915 0.268332 1.848499 0.041260 -0.011847 31119.500000 1 0 0
-17.461846 -4.313375 -7.620409 19.534377 0.242169 1.971539 0.030306 -0.015744 1178120.000000 1 0 0
12.243254 -7.970075 8.859191 17.085217 -0.577062 1.025666 0.041411 -0.014484 314117.000000 1 0 0
16.008654 -3.517075 1.869491 16.496722 -0.216263 1.457227 0.023682 -0.004313 -598922.000000 1 0 0
12.018454 -2.108775 12.571891 17.519778 -0.173693 0.770471 0.052702 -0.006780 395654.000000 1 0 0
9.585954 -10.042975 5.265291 14.848406 -0.808677 1.208307 0.006600 -0.006205 -564.103000 1 0 0
16.998854 -2.084575 7.268691 18.604848 -0.122021 1.169417 0.065687 -0.016489 -227330.000000 1 0 0
5.294754 -12.822675 9.070691 16.575067 -1.179201 0.991722 0.012008 -0.004171 -105616.000000 1 0 0
15.204754 -9.078975 -2.176809 17.842389 -0.538295 1.693103 0.053727 -0.016768 965073.000000 1 0 0
11.159054 -8.584075 6.487191 15.501435 -0.655706 1.139015 0.018863 -0.007462 -1374280.000000 1 0 0
19.891754 -3.281175 3.614391 20.481988 -0.163479 1.393401 0.096110 -0.018959 84728.300000 1 0 0
13.681654 -8.581575 6.974791 17.592010 -0.560203 1.163122 0.040201 -0.010145 -764681.000000 1 0 0
8.316554 -11.056575 8.814891 16.404732 -0.925900 1.003518 0.011708 -0.004358 -1477730.000000 1 0 0
16.787354 0.105125 -0.558609 16.796975 0.006262 1.604059 0.029142 0.003375 1307150.000000 1 0 0
12.413054 -12.401075 2.421891 17.712598 -0.784915 1.433634 0.023457 -0.006183 -1820470.000000 1 0 0
10.369154 -11.532675 3.579191 15.916424 -0.838473 1.343983 0.016427 -0.008441 -2483430.000000 1 0 0
16.492154 2.885525 2.439291 16.919443 0.173210 1.426121 0.019023 -0.003186 32991.400000 1 0 0
18.286954 -3.335475 0.681391 18.601139 -0.180413 1.534156 0.064022 -0.011457 -448631.000000 1 0 0
13.526554 -11.647475 -0.175809 17.851114 -0.710893 1.580645 0.050592 -0.005158 -534021.000000 1 0 0
16.980954 -7.661575 -0.780509 18.645689 -0.423840 1.612669 0.073426 -0.016094 372031.000000 1 0 0
10.269054 -5.806475 9.757991 15.309704 -0.514616 0.879712 0.022008 -0.009147 -87403.300000 1 0 0
11.327954 -13.211975 6.133791 18.452702 -0.862022 1.231943 0.034893 -0.014290 568552.000000 1 0 0
13.127954 -1.710875 10.316991 16.784236 -0.129593 0.908812 0.048695 -0.008909 512659.000000 1 0 0
15.548954 -2.017975 -1.418809 15.743418 -0.129061 1.661040 0.020220 -0.001103 111665.000000 1 0 0
10.576554 -12.387275 8.993691 18.606304 -0.864086 1.066298 0.045784 -0.022813 201554.000000 1 0 0
14.548154 1.207625 3.273791 14.960778 0.082819 1.350186 0.010839 -0.001474 855175.000000 1 0 0
15.011054 -5.732775 5.428491 16.960689 -0.364809 1.245000 0.044528 -0.009578 -631428.000000 1 0 0
14.320754 -3.393675 -2.973709 15.014792 -0.232684 1.770166 0.018657 -0.003604 530699.000000 1 0 0
14.155354 0.641225 9.559691 17.093067 0.045268 0.977288 0.051865 -0.006020 482778.000000 1 0 0
15.348854 -3.406475 4.480791 16.348361 -0.218397 1.293161 0.023075 -0.004244 -303671.000000 1 0 0
18.697454 4.982625 -4.384209 19.840430 0.260434 1.793609 0.038626 -0.004742 627879.000000 1 0 0
18.175954 -5.792375 -4.866209 19.687481 -0.308508 1.820558 0.099681 -0.025401 571378.000000 1 0 0
17.313154 0.032825 6.039791 18.336452 0.001896 1.235142 0.053513 -0.007449 510898.000000 1 0 0
17.022354 -6.713375 4.065191 18.744485 -0.375657 1.352185 0.060856 -0.014686 -243486.000000 1 0 0
9.776554 -6.585875 14.229691 18.478065 -0.592815 0.691821 0.042410 -0.012440 -676344.000000 1 0 0
8.655854 -12.423975 5.139491 15.990414 -0.962285 1.243577 0.015677 -0.008318 -1404240.000000 1 0 0
16.922454 -10.257575 -0.617209 19.798188 -0.544931 1.601976 0.070906 -0.012631 4965.050000 1 0 0
14.938854 -8.759475 0.370591 17.321522 -0.530326 1.549400 0.047638 -0.012160 -232455.000000 1 0 0
9.972454 -12.889475 1.492191 16.365056 -0.912305 1.479488 0.024055 -0.006793 -200960.000000 1 0 0
17.110754 -8.323775 8.735491 20.937334 -0.452761 1.140411 0.083485 -0.021722 423985.000000 1 0 0
19.068254 -0.094575 -1.883609 19.161296 -0.004960 1.669258 0.064617 -0.003952 -898114.000000 1 0 0
13.487654 -1.129675 7.741191 15.592275 -0.083561 1.051262 0.027016 -0.010001 89395.200000 1 0 0
12.830154 -9.848775 -2.992709 16.448937 -0.654687 1.753755 0.030718 -0.007871 -993594.000000 1 0 0
8.750254 -15.131775 1.421891 17.537370 -1.046508 1.489629 0.037360 -0.007359 738091.000000 1 0 0
11.425154 -8.389375 11.250791 18.096852 -0.633371 0.899887 0.047064 -0.015439 186227.000000 1 0 0
13.847854 -3.921975 -0.449309 14.399543 -0.275991 1.602004 0.010453 -0.002559 -278879.000000 1 0 0
7.262654 -13.343375 10.759891 18.616312 -1.072348 0.954543 0.030579 -0.003974 38727.800000 1 0 0
15.423554 -6.737175 1.943991 16.942687 -0.411832 1.455804 0.037777 -0.011256 -1440280.000000 1 0 0
15.928654 -6.205675 -2.581809 17.288672 -0.371502 1.720692 0.077291 -0.013985 -57687.400000 1 0 0
11.253454 -8.604175 3.857091 14.681594 -0.652768 1.304960 0.015294 -0.008917 924319.000000 1 0 0
10.788154 -14.549975 -0.351709 18.116560 -0.932786 1.590211 0.047954 -0.012864 1027580.000000 1 0 0
13.481954 -12.765675 4.714191 19.155917 -0.758116 1.322146 0.030922 -0.012308 189224.000000 1 0 0
12.901954 -11.078775 6.571391 18.231370 -0.709517 1.202052 0.031649 -0.009102 -810965.000000 1 0 0
10.979954 -10.515975 1.365191 15.264628 -0.763817 1.481242 0.016346 -0.004528 299028.000000 1 0 0
13.965654 -7.686175 11.896791 19.890964 -0.503122 0.929668 0.069693 -0.024388 9387.200000 1 0 0
15.285954 -1.797575 -4.829809 16.131297 -0.117059 1.874866 0.034346 -0.002828 -196652.000000 1 0 0
12.912354 -11.511575 -7.062809 18.684981 -0.728108 1.958425 0.053761 -0.009797 262133.000000 1 0 0
17.650554 -5.435775 1.880291 18.564084 -0.298749 1.469336 0.079762 -0.009495 45971.500000 1 0 0
10.520554 -9.868275 9.227191 17.123258 -0.753417 1.001703 0.021740 -0.008297 -790884.000000 1 0 0
16.536754 1.888125 9.703791 19.266365 0.113685 1.042961 0.082567 -0.012207 175460.000000 1 0 0
18.147054 3.966925 0.585191 18.584793 0.215213 1.539303 0.015228 0.005553 545124.000000 1 0 0
13.215454 -4.015975 5.841691 14.996721 -0.295017 1.170674 0.019123 -0.009148 -2011840.000000 1 0 0
12.151454 -6.203475 6.793991 15.241367 -0.472023 1.108773 0.020102 -0.008410 -240443.000000 1 0 0
16.558154 -10.182875 3.551691 19.760514 -0.551359 1.390077 0.041420 -0.012352 510029.000000 1 0 0
16.270754 -8.097075 -5.474809 18.980875 -0.461763 1.863392 0.082647 -0.019910 1972460.000000 1 0 0
14.039754 -0.474875 5.306791 15.016732 -0.033811 1.209602 0.015279 -0.004644 1342700.000000 1 0 0
18.198654 -4.195975 5.286291 19.409846 -0.226605 1.294961 0.066377 -0.013108 -75295.000000 1 0 0
13.709554 -13.613375 7.118891 20.590155 -0.781878 1.217766 0.056736 -0.013588 281586.000000 1 0 0
15.000654 -13.576575 -0.663909 20.243117 -0.735607 1.603599 0.058207 -0.005038 603769.000000 1 0 0
17.907854 -5.917275 8.088791 20.521548 -0.319134 1.165642 0.085985 -0.015793 224245.000000 1 0 0
14.378954 3.331525 9.284991 17.437444 0.227677 1.009275 0.042184 -0.004017 -1448950.000000 1 0 0
18.956554 3.705625 3.006691 19.547962 0.193046 1.416372 0.059516 -0.002411 417880.000000 1 0 0
14.811354 -10.677175 8.211891 20.020326 -0.624601 1.148147 0.046553 -0.019073 -588134.000000 1 0 0
14.776154 -4.778175 10.480791 18.735332 -0.312758 0.977119 0.073697 -0.022970 115201.000000 1 0 0
17.706754 -8.020475 1.979591 19.539088 -0.425314 1.469308 0.097542 -0.020659 100507.000000 1 0 0
18.455754 -5.868775 -1.835009 19.453140 -0.307880 1.665266 0.085288 -0.020117 222314.000000 1 0 0
14.334454 -13.035875 -5.414609 20.117868 -0.737989 1.843301 0.072130 -0.013110 -1123440.000000 1 0 0
15.589054 -1.427275 9.313491 18.215292 -0.091302 1.034099 0.087919 -0.016384 536849.000000 1 0 0
12.939054 -10.189175 10.164091 19.353221 -0.667057 1.017860 0.040284 -0.023541 -1636430.000000 1 0 0
16.470354 2.166025 4.921391 17.325829 0.130760 1.282781 0.035775 -0.005933 -1548220.000000 1 0 0
15.104554 2.416625 -0.019109 15.296667 0.158649 1.572046 0.011660 0.001318 -1271210.000000 1 0 0
15.127954 -10.019375 -6.939609 19.426813 -0.584979 1.936084 0.073365 -0.015080 915932.000000 1 0 0
16.249154 -0.105275 -3.137909 16.549700 -0.006479 1.761556 0.038042 -0.000229 -157668.000000 1 0 0
12.090254 2.513025 13.546291 18.330072 0.204937 0.739182 0.063671 0.001462 69841.800000 1 0 0
17.523954 -3.111275 9.692591 20.266113 -0.175713 1.072117 0.075881 -0.016399 808272.000000 1 0 0
7.942954 -18.025075 4.578591 20.222694 -1.155735 1.342407 0.069122 -0.020777 -936767.000000 1 0 0
6.865854 -11.233175 6.577291 14.716825 -1.022173 1.107473 0.011989 -0.007209 59937.500000 1 0 0
18.069454 2.224425 -1.469809 18.265092 0.122488 1.651354 0.035846 0.003009 72089.700000 1 0 0
17.466554 -2.224975 3.639491 17.979904 -0.126702 1.366968 0.021708 -0.003286 -721362.000000 1 0 0
12.656654 -13.493575 -1.942109 18.602130 -0.817392 1.675389 0.043760 -0.000470 -575960.000000 1 0 0
14.990954 -8.182575 4.431391 17.644276 -0.499639 1.316926 0.037520 -0.009824 -431241.000000 1 0 0
11.454754 -3.548675 14.633191 18.919164 -0.300423 0.686517 0.071314 -0.014800 226885.000000 1 0 0
12.030154 -13.790475 -6.351909 19.371333 -0.853468 1.904879 0.036194 -0.015386 -216596.000000 1 0 0
10.602454 -12.067675 -1.207209 16.108947 -0.849941 1.645807 0.027651 -0.004216 -589219.000000 1 0 0
13.183254 -7.996775 2.112791 15.563113 -0.545248 1.434619 0.027274 -0.004312 -885301.000000 1 0 0
8.687254 -7.782275 9.888691 15.291122 -0.730505 0.867553 0.009734 -0.001663 -1115090.000000 1 0 0
15.496854 -3.832675 8.141991 17.920210 -0.242454 1.099157 0.067911 -0.021331 -1620580.000000 1 0 0
10.426454 -17.363675 5.072691 20.879185 -1.030028 1.325386 0.066920 -0.020594 -31392.000000 1 0 0
15.344854 -6.422075 8.506991 18.683589 -0.396366 1.098066 0.067389 -0.011490 -261983.000000 1 0 0
16.573254 -4.965775 -0.385209 17.305492 -0.291113 1.593057 0.048819 -0.009610 -259885.000000 1 0 0
13.970154 -10.495975 3.494291 17.819674 -0.644342 1.373426 0.038287 -0.009557 -355441.000000 1 0 0
14.911454 -10.067575 -4.446709 18.533234 -0.593858 1.813092 0.070531 -0.019293 144187.000000 1 0 0
13.637454 -6.554975 -0.008209 15.131025 -0.448056 1.571339 0.027457 -0.006400 -88106.300000 1 0 0
17.756254 -0.957475 -5.002209 18.472234 -0.053871 1.845016 0.063089 -0.008381 274953.000000 1 0 0
14.299754 0.288325 -1.611809 14.393194 0.020160 1.683016 0.014217 0.001832 -2222940.000000 1 0 0
4.923254 -12.934875 11.711491 18.130318 -1.207109 0.868514 0.008648 -0.003482 -334558.000000 1 0 0
12.093854 -7.533875 13.575491 19.680309 -0.557124 0.809583 0.059644 -0.018097 621379.000000 1 0 0
12.090154 -5.881375 11.588191 17.749608 -0.452757 0.859429 0.045831 -0.014364 256428.000000 1 0 0
13.212154 -4.786175 8.449691 16.397127 -0.347551 1.029421 0.041478 -0.015852 -1911650.000000 1 0 0
15.177754 -1.264775 3.048091 15.532377 -0.083139 1.373273 0.012684 0.001021 -521495.000000 1 0 0
15.252754 -10.360275 5.778691 19.322916 -0.596657 1.267090 0.050156 -0.013946 -212127.000000 1 0 0
13.676354 -8.093875 -5.771409 16.907473 -0.534380 1.919152 0.054834 -0.013338 -2227460.000000 1 0 0
9.593154 -2.131175 13.499691 16.697670 -0.218606 0.629236 0.026412 -0.008469 -1586870.000000 1 0 0
10.034454 -9.199275 13.680291 19.299412 -0.742003 0.782937 0.057609 -0.011938 -158342.000000 1 0 0
20.340054 6.434925 -2.777709 21.513757 0.306404 1.700271 0.082719 -0.004942 -165222.000000 1 0 0
11.270654 -3.614375 10.488691 15.814677 -0.310328 0.845676 0.031329 -0.007118 1011380.000000 1 0 0
10.195454 -14.209875 -2.824409 17.715674 -0.948428 1.730909 0.035547 0.000671 1153070.000000 1 0 0
14.951054 -12.705475 2.512791 19.780729 -0.704381 1.443420 0.045431 -0.007352 384481.000000 1 0 0
11.454154 -0.915275 14.861091 18.785298 -0.079738 0.658187 0.069315 0.005347 308786.000000 1 0 0
19.084954 -1.850775 5.685791 19.999727 -0.096673 1.282527 0.087823 -0.015645 963573.000000 1 0 0
19.017854 -0.537075 7.957091 20.622380 -0.028233 1.174670 0.092864 -0.020492 269717.000000 1 0 0
18.842354 0.856325 0.612691 18.871752 0.045416 1.538325 0.047369 -0.004404 -477354.000000 1 0 0
18.576154 0.814825 3.960991 19.011231 0.043836 1.360909 0.041558 -0.010539 -212251.000000 1 0 0
16.678354 -3.835575 -3.979909 17.570396 -0.226043 1.799292 0.068286 -0.012994 -713484.000000 1 0 0
10.873754 -8.221575 15.868191 20.919664 -0.647390 0.709742 0.075092 -0.015709 141324.000000 1 0 0
16.539254 -7.555975 6.462291 19.297692 -0.428537 1.229325 0.056309 -0.013041 294506.000000 1 0 0
18.596354 2.321925 6.128891 19.717481 0.124216 1.254724 0.041985 -0.007702 122281.000000 1 0 0
15.259254 1.768225 7.533491 17.109207 0.115364 1.114844 0.045100 -0.008914 -108739.000000 1 0 0
8.790454 -15.582175 3.936591 18.318652 -1.057166 1.354212 0.039163 -0.019233 378119.000000 1 0 0
11.249554 -15.028175 2.177591 18.898159 -0.928215 1.455312 0.042133 -0.007789 -141325.000000 1 0 0
8.461754 -16.117475 6.310791 19.266561 -1.087345 1.237085 0.057158 -0.015875 79754.800000 1 0 0
14.644354 -11.760975 -2.531309 18.952181 -0.676632 1.704760 0.061017 -0.008656 945851.000000 1 0 0
13.629854 -4.929975 3.349791 14.876111 -0.347063 1.343669 0.015894 -0.004150 -2774750.000000 1 0 0
-1.043946 10.231125 -5.623709 11.721427 -1.469112 2.071201 0.003400 0.002866 -2090780.000000 1 0 0
8.270354 -1.700175 -7.929209 11.582820 -0.202750 2.324805 0.006956 0.001321 -2427400.000000 1 0 0
2.995854 -10.249975 7.719291 13.176668 -1.286438 0.944892 0.001600 -0.002671 658247.000000 1 0 0
-6.218246 1.267725 8.326091 10.468882 -0.201116 0.651264 0.002834 -0.004313 -286280.000000 1 0 0
7.311054 -6.365875 -7.269109 12.116758 -0.716400 2.214200 0.002570 -0.001385 -72474.200000 1 0 0
-11.344646 -4.433775 -4.076909 12.844475 0.372572 1.893789 0.006761 -0.003625 203621.000000 1 0 0
2.072554 -3.265975 2.802191 4.776437 -1.005331 0.943856 0.003101 -0.001767 1774310.000000 1 0 0
-3.604746 -4.162675 8.819691 10.397548 0.857104 0.558129 0.000562 -0.005422 -1848210.000000 1 0 0
-4.787046 -0.965175 -2.390009 5.436866 0.198955 2.025942 0.001019 -0.002620 -14234.900000 1 0 0
5.039354 -5.240375 -3.605509 8.115190 -0.804951 2.031179 0.005883 -0.003491 388846.000000 1 0 0
2.658554 14.298125 -8.755609 16.975423 1.386958 2.112716 0.017356 -0.011401 559586.000000 1 0 0
5.448554 -5.493475 13.664091 15.702624 -0.789503 0.515231 0.009916 -0.009296 -95493.100000 1 0 0
-4.703646 -0.884775 9.812091 10.917154 0.185931 0.453824 0.006736 -0.003056 -3705410.000000 1 0 0
-1.049546 11.924225 -2.745309 12.281100 -1.483005 1.796241 0.000691 -0.000454 -611780.000000 1 0 0
3.143954 9.390525 -10.470909 14.412021 1.247726 2.384069 0.003161 -0.000386 -47528.200000 1 0 0
-10.610946 2.718025 1.196991 11.018739 -0.250761 1.461949 0.000148 -0.006082 -147269.000000 1 0 0
5.654054 -9.062375 -0.625809 10.699841 -1.012985 1.629317 0.004726 -0.003777 373874.000000 1 0 0
-7.038246 5.445825 9.443591 12.975952 -0.658527 0.755722 -0.000109 -0.003494 199419.000000 1 0 0
-5.415746 -1.817575 5.088391 7.650203 0.323798 0.843126 0.003874 -0.006082 640595.000000 1 0 0
6.693354 -3.848775 -7.333509 10.648681 -0.521845 2.330460 0.004890 -0.000556 392529.000000 1 0 0
6.177954 4.633625 11.018891 13.455615 0.643518 0.611293 -0.002337 0.003578 184759.000000 1 0 0
3.775254 -9.835075 3.370891 11.060929 -1.204284 1.261113 0.001524 -0.001555 1099830.000000 1 0 0
-6.647746 6.647325 -5.718209 11.003516 -0.785367 2.117262 -0.003519 -0.000884 368880.000000 1 0 0
-11.037446 8.456525 5.235291 14.857533 -0.653768 1.210698 0.002036 -0.011418 350526.000000 1 0 0
-9.157746 -5.447575 5.119591 11.821615 0.536631 1.122900 0.003791 -0.003483 -537856.000000 1 0 0
3.453254 9.838425 -8.073009 13.186851 1.233234 2.229638 0.004652 -0.001326 606632.000000 1 0 0
-8.115746 -8.558775 6.115591 13.286023 0.811961 1.092460 0.008740 -0.004661 -1716660.000000 1 0 0
-7.771846 -5.603275 -7.566409 12.208555 0.624662 2.239237 0.014075 -0.006897 -2008410.000000 1 0 0
9.188954 -1.556275 6.954991 11.628877 -0.167772 0.929694 0.005769 -0.006706 2033360.000000 1 0 0
-3.943346 -0.537775 -4.850009 6.273895 0.135539 2.454425 0.004892 -0.006501 87539.400000 1 0 0
9.041154 1.197725 -4.542809 10.188922 0.131708 2.032929 0.005623 0.001947 -3267520.000000 1 0 0
-1.950846 -10.628175 10.798791 15.276707 1.389263 0.785720 -0.002140 -0.005757 404296.000000 1 0 0
-12.878346 0.319825 -2.608409 13.143739 -0.024829 1.770575 0.007262 -0.005878 -1372040.000000 1 0 0
-9.729446 -4.980675 -6.009209 12.473164 0.473136 2.073471 0.011234 -0.006545 -2012670.000000 1 0 0
-5.661946 8.389825 -0.153509 10.122764 -0.977144 1.585962 -0.001023 -0.003282 603529.000000 1 0 0
6.280454 9.687625 0.304191 11.549317 0.995620 1.544455 0.008515 -0.001319 513243.000000 1 0 0
-0.547046 -11.990875 0.039291 12.003411 1.525206 1.567523 0.010447 -0.001195 -157597.000000 1 0 0
6.348054 4.730725 2.453191 8.288287 0.640438 1.270312 0.001035 0.002607 158265.000000 1 0 0
3.491754 -7.484675 -8.208209 11.644200 -1.134289 2.353104 0.000117 -0.000636 879311.000000 1 0 0
-6.610146 -9.810875 4.684291 12.723595 0.977901 1.193769 0.006483 -0.001598 -2661620.000000 1 0 0
-0.047646 6.609025 -9.188409 11.318495 -1.563587 2.518033 0.004941 0.000273 -1259610.000000 1 0 0
-17.211446 -2.630075 4.290091 17.931984 0.151637 1.329211 0.030110 -0.009156 172075.000000 1 0 0
-8.413746 0.967225 -9.205009 12.508350 -0.114455 2.397805 0.003720 -0.005935 875610.000000 1 0 0
-10.075946 -5.859975 -11.686309 16.505569 0.526766 2.357490 0.015825 -0.003252 -376442.000000 1 0 0
2.175054 9.489725 6.405091 11.653795 1.345487 0.988894 -0.004134 0.003247 205084.000000 1 0 0
-11.341446 1.747725 -1.184709 11.536311 -0.152898 1.673672 0.002038 -0.005528 -1948660.000000 1 0 0
-6.118146 -5.328975 -3.043209 8.665495 0.716567 1.929635 0.007938 -0.001979 408475.000000 1 0 0
-6.941946 -8.318475 1.435991 10.929305 0.875357 1.439026 0.002624 -0.000220 -391438.000000 1 0 0
0.006454 11.009425 -7.935809 13.571461 1.570210 2.195359 0.005765 0.003065 321916.000000 1 0 0
-2.952346 9.358825 -4.195209 10.672569 -1.265216 1.974779 0.003902 -0.000435 -473232.000000 1 0 0
3.434154 -4.891875 9.312091 11.065211 -0.958721 0.570623 0.000955 -0.001944 -1013640.000000 1 0 0
-8.945246 1.655725 -0.388809 9.105494 -0.183024 1.613510 -0.000684 -0.004226 -1110310.000000 1 0 0
2.430854 3.431825 -10.427509 11.243639 0.954504 2.758235 0.005446 0.003511 -1574610.000000 1 0 0
-13.725046 0.505825 1.139191 13.781527 -0.036838 1.488041 0.007693 -0.007619 -57986.600000 1 0 0
9.535054 -12.705975 -4.914309 16.628574 -0.927015 1.870811 0.035387 -0.006861 -1446460.000000 1 0 0
-4.746346 9.407025 -8.272409 13.395994 -1.103513 2.236393 -0.000191 0.001716 -590808.000000 1 0 0
-2.343046 7.235925 8.383791 11.319736 -1.257644 0.736782 0.003240 -0.000459 137512.000000 1 0 0
-10.727446 -1.146775 -4.475009 11.679849 0.106497 1.963989 0.002703 -0.001877 -2610630.000000 1 0 0
2.689454 -7.226975 9.599891 12.313417 -1.214534 0.676724 -0.002411 0.000641 -1705200.000000 1 0 0
-16.162246 -6.568375 3.474991 17.788684 0.386013 1.374184 0.014619 -0.002634 148350.000000 1 0 0
-10.924646 0.028125 6.226091 12.574295 -0.002574 1.052795 -0.002370 -0.003764 -158660.000000 1 0 0
-8.344846 10.007725 9.290991 16.003547 -0.875759 0.951382 0.010243 -0.011923 -33724.000000 1 0 0
0.111854 -6.150575 -3.814809 7.238429 -1.552612 2.125889 0.000274 -0.000669 531117.000000 1 0 0
4.938054 1.545425 -2.962009 5.962065 0.303306 2.090715 -0.000538 0.004198 1178440.000000 1 0 0
0.438954 5.346025 3.751591 6.545770 1.488872 0.960473 -0.001084 0.000886 -2888880.000000 1 0 0
6.029054 -11.340975 -1.515309 12.933034 -1.082176 1.688232 0.005697 -0.002489 -1434660.000000 1 0 0
6.307554 -13.601975 5.350191 15.919281 -1.136589 1.228042 0.018113 -0.009303 948881.000000 1 0 0
8.320454 -8.285275 -5.922209 13.150981 -0.783280 2.037925 0.006555 -0.003005 610745.000000 1 0 0
-13.152746 -1.443075 -4.523409 13.983505 0.109280 1.900203 0.006315 -0.000309 -2657530.000000 1 0 0
-6.787446 -1.337875 -6.971209 9.821256 0.194615 2.360022 0.008712 -0.006759 -894229.000000 1 0 0
-5.880546 12.853925 -4.666309 14.885518 -1.141731 1.889652 0.007028 0.004931 561936.000000 1 0 0
-4.286046 6.877525 -6.710109 10.521221 -1.013495 2.262395 0.003105 -0.000206 -3925880.000000 1 0 0
-9.368646 -3.605675 -8.175709 12.946607 0.367392 2.254275 0.010141 -0.003506 882380.000000 1 0 0
-2.247746 -6.357675 9.243691 11.441950 1.230964 0.630255 -0.000112 -0.005190 -557936.000000 1 0 0
7.608754 -5.877375 10.053691 13.910909 -0.657714 0.763067 0.005779 -0.003623 -236428.000000 1 0 0
9.747954 -4.988375 12.197891 16.391920 -0.472992 0.731549 0.030231 -0.006237 -627936.000000 1 0 0
-6.544046 2.854625 -9.113609 11.577188 -0.411333 2.477058 0.001554 -0.004492 1600830.000000 1 0 0
7.437954 5.515425 8.938991 12.870456 0.638055 0.803022 -0.006088 -0.000487 -16689.300000 1 0 0
12.668154 3.258025 11.115991 17.165725 0.251727 0.866407 0.041368 0.003428 -1093400.000000 1 0 0
-7.466946 -7.389175 -3.989309 11.236982 0.780163 1.933728 0.009550 -0.004875 -1258960.000000 1 0 0
2.326354 1.400225 -5.786809 6.392160 0.541813 2.702877 0.001478 0.002869 -270869.000000 1 0 0
12.828554 6.676925 -7.158309 16.136745 0.479892 2.030411 0.022722 -0.001688 399829.000000 1 0 0
0.807254 -7.793675 1.007091 7.899827 -1.467586 1.442966 0.003031 -0.000593 -160427.000000 1 0 0
-10.336246 -5.921975 -8.418009 14.586659 0.520279 2.185974 0.012077 -0.003587 432422.000000 1 0 0
-6.712946 0.210225 3.189291 7.435013 -0.031306 1.127460 0.002853 -0.007066 -268518.000000 1 0 0
10.759354 -7.969475 1.299291 13.452301 -0.637524 1.474060 0.005904 -0.003384 566005.000000 1 0 0
6.275954 1.067225 10.535891 12.309816 0.168439 0.543520 0.001679 -0.001122 -416222.000000 1 0 0
-12.833546 5.326225 1.876491 14.021048 -0.393390 1.436560 0.006198 -0.009582 34840.000000 1 0 0
2.114454 7.420325 3.583491 8.507265 1.293199 1.135998 -0.005142 0.000870 -322804.000000 1 0 0
10.086854 -9.467875 -0.820609 13.858524 -0.753755 1.630044 0.006363 -0.003522 850575.000000 1 0 0
6.830654 -11.726175 -9.054709 16.314067 -1.043334 2.159189 0.003878 -0.004142 -95685.800000 1 0 0
10.304254 3.559825 11.925591 16.157653 0.332635 0.740581 0.021743 0.003674 -713581.000000 1 0 0
-11.059346 -3.022175 -1.887909 11.619245 0.266756 1.734001 0.000474 -0.001256 -462395.000000 1 0 0
12.348454 0.935925 6.833791 14.144292 0.075648 1.066549 0.011973 -0.003153 -18910.800000 1 0 0
-9.558646 9.216525 3.108591 13.637279 -0.767178 1.340827 0.003045 -0.009250 759262.000000 1 0 0
-6.654946 7.726125 -8.913409 13.543639 -0.859746 2.289122 -0.001407 0.000695 -2107250.000000 1 0 0
8.456354 5.447125 12.004391 15.661626 0.572249 0.697447 0.009140 0.005442 -2081610.000000 1 0 0
1.322054 4.892125 -2.561809 5.678343 1.306860 2.038855 0.001595 -0.000024 526904.000000 1 0 0
1.428354 0.463325 9.534891 9.652410 0.313668 0.156204 -0.000437 -0.000183 635524.000000 1 0 0
2.524054 12.623025 -3.984109 13.475338 1.373443 1.870942 0.008248 -0.004040 347050.000000 1 0 0
2.029154 0.620025 13.039991 13.211483 0.296548 0.161299 -0.001197 -0.001181 -108642.000000 1 0 0
-12.250146 -1.711075 0.826191 12.396630 0.138780 1.504100 0.000126 -0.003328 71066.900000 1 0 0
3.198054 8.770925 -1.281209 9.423278 1.221157 1.707181 0.006097 -0.001185 299064.000000 1 0 0
3.587654 -2.898675 -5.758909 7.378252 -0.679575 2.466301 0.001939 -0.000428 -1808650.000000 1 0 0
-7.674946 -7.170075 9.176091 13.946878 0.751402 0.852728 0.006909 -0.009076 16581.000000 1 0 0
-7.136246 10.933025 -3.416909 13.495640 -0.992509 1.826769 0.005465 0.004047 163047.000000 1 0 0
0.353854 0.568525 2.564291 2.650287 1.014063 0.255440 0.000724 -0.001437 -2575050.000000 1 0 0
-7.074746 4.652125 -1.838209 8.664485 -0.581677 1.784575 0.000974 -0.003617 -1525770.000000 1 0 0
-6.847746 -3.831875 -5.846609 9.785587 0.510170 2.211140 0.007180 -0.003668 -69970.500000 1 0 0
2.947254 -6.208375 13.407991 15.066667 -1.127575 0.473647 0.001401 -0.005120 -1885710.000000 1 0 0
-5.518146 -0.594775 -11.666809 12.919679 0.107371 2.697559 0.011781 -0.005039 -814708.000000 1 0 0
11.843654 2.463925 -0.628909 12.113571 0.205112 1.622737 0.005359 0.001042 -1595490.000000 1 0 0
6.184054 -10.901075 10.729491 16.498422 -1.054777 0.862772 0.008316 -0.003595 112487.000000 1 0 0
-8.218446 6.481525 -10.464609 14.800711 -0.667785 2.356092 -0.001335 -0.000425 159161.000000 1 0 0
2.771854 7.862325 11.077091 13.863668 1.231853 0.645163 -0.001450 0.002594 569441.000000 1 0 0
-6.200646 -10.173075 -0.299009 11.917586 1.023410 1.595889 0.007150 -0.001641 252875.000000 1 0 0
11.305354 4.244825 6.137291 13.546067 0.359183 1.100592 0.001973 -0.000488 272138.000000 1 0 0
-7.929146 10.751425 1.417491 13.434053 -0.935345 1.465085 0.000972 -0.003789 660135.000000 1 0 0
4.193554 -2.867275 -3.495309 6.166388 -0.599725 2.173452 0.002733 -0.001115 -4723810.000000 1 0 0
6.374454 6.472225 6.379991 11.100795 0.793009 0.958519 -0.001730 0.000482 -5628040.000000 1 0 0
-0.346846 10.346925 -10.256409 14.573026 -1.537287 2.351520 0.002120 0.002408 61632.300000 1 0 0
14.008654 6.495625 -2.501009 15.642589 0.434177 1.731370 0.018364 0.000100 627359.000000 1 0 0
1.446554 9.531625 -6.309309 11.521796 1.420182 2.150287 0.003775 0.000290 295067.000000 1 0 0
0.670754 7.341125 7.193391 10.299850 1.479680 0.797640 -0.004877 0.002777 -117901.000000 1 0 0
12.276654 6.269325 1.829291 13.905646 0.472148 1.438864 0.008834 0.000870 -248121.000000 1 0 0
-6.877446 6.748425 -3.157509 10.139544 -0.775930 1.887468 -0.002460 -0.003420 -310483.000000 1 0 0
1.172354 9.934425 11.147291 14.977627 1.453330 0.731366 -0.000692 0.000647 689316.000000 1 0 0
-3.643746 13.483925 -10.968909 17.759788 -1.306871 2.236517 0.001572 -0.001695 20860.600000 1 0 0
-10.063746 -5.387775 -2.192209 11.623806 0.491538 1.760529 0.004795 -0.001172 -729914.000000 1 0 0
-4.039946 3.863125 -12.513009 13.704754 -0.763028 2.721476 0.005065 -0.001849 -268251.000000 1 0 0
-3.125446 8.430625 2.343491 9.291706 -1.215779 1.315830 -0.001509 -0.000966 -3124100.000000 1 0 0
7.091154 8.919425 7.033691 13.390796 0.899097 1.017772 0.001828 0.001398 -440041.000000 1 0 0
-1.356246 -2.362775 -8.165209 8.607714 1.049710 2.819554 0.006110 -0.005112 -1503710.000000 1 0 0
0.764654 -1.186475 4.842291 5.043828 -0.998314 0.283641 0.002979 -0.002088 -426806.000000 1 0 0
2.799754 -8.823975 -6.177409 11.129310 -1.263554 2.159229 0.001747 -0.002025 420464.000000 1 0 0
5.440854 3.868325 8.616191 10.899798 0.618055 0.659186 -0.004996 -0.001444 519494.000000 1 0 0
6.178254 -7.462875 -2.676909 10.051426 -0.879294 1.840371 0.003531 -0.002599 1021320.000000 1 0 0
1.663454 2.127925 -8.240909 8.672239 0.907298 2.824876 0.005110 0.002046 93117.700000 1 0 0
-5.455846 10.914125 -0.644609 12.218834 -1.107238 1.623576 -0.000583 -0.001012 463010.000000 1 0 0
-5.414846 3.410625 -3.353609 7.224930 -0.562091 2.053496 0.000465 -0.002736 -438883.000000 1 0 0
1.877154 13.761425 -6.301509 15.251542 1.435226 1.996731 0.005287 -0.004745 768975.000000 1 0 0
-5.399346 -2.496175 2.526491 6.462738 0.433044 1.169152 -0.004238 -0.005175 288633.000000 1 0 0
10.352854 -3.415175 -1.820509 11.052568 -0.318637 1.736264 0.002949 0.001460 391809.000000 1 0 0
2.414554 -3.365875 7.110291 8.228938 -0.948512 0.527518 -0.000195 -0.001826 -2326810.000000 1 0 0
-2.837946 9.818025 -11.717809 15.548460 -1.289411 2.424366 0.002559 0.003385 -2256130.000000 1 0 0
0.494854 -2.048775 9.281591 9.517893 -1.333799 0.223296 0.000480 -0.001990 530611.000000 1 0 0
9.453654 2.698425 4.994691 11.027240 0.278044 1.100735 0.001733 -0.000954 -263016.000000 1 0 0
13.528154 2.037025 -5.055709 14.584945 0.149454 1.924782 0.018652 -0.003929 -163537.000000 1 0 0
-6.433146 3.780025 7.713291 10.731673 -0.531241 0.768807 0.003736 -0.003644 -311701.000000 1 0 0
10.604654 0.062725 1.812591 10.758630 0.005915 1.401511 0.001292 0.002228 920211.000000 1 0 0
15.386054 6.715925 -4.665709 17.424212 0.411566 1.841876 0.030013 0.001575 -6777.360000 1 0 0
8.051354 -4.924575 -9.265409 13.225866 -0.548938 2.346967 0.011745 -0.001353 -160598.000000 1 0 0
4.507554 5.641825 -2.156609 7.536524 0.896694 1.861007 0.001525 0.000890 238114.000000 1 0 0
-1.710046 -10.415575 1.481591 10.658497 1.408067 1.431339 0.005838 0.000639 -1183720.000000 1 0 0
-2.741046 12.202825 -12.923109 17.984132 -1.349840 2.372560 0.011314 -0.002032 470160.000000 1 0 0
8.296654 4.161225 -9.693209 13.420453 0.464891 2.377877 0.011253 -0.000117 225361.000000 1 0 0
4.078554 7.565125 -9.025309 12.462822 1.076340 2.380639 0.001171 -0.000851 -2397220.000000 1 0 0
-1.714746 -5.015375 -2.445809 5.837492 1.241358 2.003121 0.003530 -0.001574 -968311.000000 1 0 0
-3.241546 -9.071075 7.082791 11.956502 1.227589 0.936787 0.003090 -0.002690 -1003300.000000 1 0 0
0.975054 7.218225 -1.277009 7.394881 1.436527 1.744355 0.003666 -0.001432 415015.000000 1 0 0
0.366354 -0.849475 -2.165409 2.354744 -1.163625 2.737843 0.003698 0.000482 -2053310.000000 1 0 0
4.189954 -6.758075 7.502691 10.932414 -1.015806 0.814435 0.000418 0.000875 -1012790.000000 1 0 0
-14.007046 3.960925 6.019791 15.751957 -0.275586 1.178662 0.003554 -0.010193 -468875.000000 1 0 0
4.327254 6.442525 12.494591 14.708707 0.979337 0.555818 0.001890 -0.001895 -3142340.000000 1 0 0
8.272754 10.022125 -7.152409 14.833692 0.880729 2.073930 0.015394 -0.005222 30996.400000 1 0 0
12.490154 5.340225 9.586691 16.626082 0.404033 0.956228 0.025133 -0.000556 778776.000000 1 0 0
7.555254 4.103725 0.305991 8.603259 0.497578 1.535222 0.002904 0.004693 -1840200.000000 1 0 0
-10.743146 -7.524375 -0.908909 13.147529 0.610987 1.639983 0.005960 0.000544 -2147190.000000 1 0 0
10.389054 6.724225 0.107191 12.375748 0.574433 1.562135 0.009583 0.002323 119435.000000 1 0 0
14.729654 3.729225 4.048791 15.724584 0.247968 1.310381 0.018243 -0.007096 44056.300000 1 0 0
2.203454 5.592325 8.262691 10.217699 1.195461 0.628918 -0.005860 0.002373 -41644.800000 1 0 0
4.176954 0.125125 11.695591 12.419721 0.029947 0.343163 -0.001232 0.000198 -941218.000000 1 0 0
-1.505646 -1.598675 -0.541209 2.261777 0.815357 1.812425 0.003314 -0.003593 -974974.000000 1 0 0
3.151054 -5.218375 -9.465709 11.258784 -1.027559 2.569445 0.001161 0.000087 116430.000000 1 0 0
-4.023546 -5.266575 -1.455609 6.785612 0.918409 1.786991 0.002167 -0.002761 571387.000000 1 0 0
-1.240346 -8.688675 8.703091 12.360232 1.429000 0.789613 -0.000315 -0.004107 -212063.000000 1 0 0
3.962254 8.700625 -5.917009 11.243279 1.143462 2.125005 0.004694 -0.000201 -217442.000000 1 0 0
-14.197046 -1.764475 -2.496909 14.522535 0.123651 1.743588 0.005134 -0.006316 -423204.000000 1 0 0
8.912054 -10.678375 -6.569009 15.381947 -0.875317 2.012035 0.007834 -0.004900 28542.500000 1 0 0
14.903754 6.113525 1.555791 16.183868 0.389269 1.474515 0.010576 -0.001487 -1098840.000000 1 0 0
-5.807346 0.499525 -8.554209 10.351293 -0.085805 2.543463 0.008174 -0.007931 -775306.000000 1 0 0
-8.160446 -4.512775 -12.972409 15.976276 0.505148 2.518332 0.013582 -0.003680 722419.000000 1 0 0
0.898354 -10.661175 12.022091 16.093426 -1.486731 0.727230 0.001771 -0.001246 -281459.000000 1 0 0
0.178454 11.661225 3.174391 12.086885 1.555494 1.305048 -0.000425 -0.000203 1206460.000000 1 0 0
5.138554 -13.307475 -3.745009 14.748516 -1.202295 1.827532 0.011703 0.001020 510149.000000 1 0 0
-7.477246 1.661025 -6.974109 10.358880 -0.218594 2.309391 0.002900 -0.003432 266215.000000 1 0 0
1.471154 2.844825 4.053491 5.166054 1.093536 0.668682 -0.001041 -0.000012 -1013580.000000 1 0 0
17.208854 5.410225 2.455491 18.205621 0.304602 1.435509 0.016100 -0.000910 -627079.000000 1 0 0
2.325054 -8.402375 -3.612609 9.436987 -1.300837 1.963637 0.002475 -0.002174 366193.000000 1 0 0
-0.457446 -9.387775 -0.642709 9.420862 1.522107 1.639071 0.006791 0.000374 -1050260.000000 1 0 0
0.783454 11.818425 -5.671409 13.132169 1.504602 2.017363 0.007320 0.000940 -865803.000000 1 0 0
5.973454 -5.056675 7.782991 11.037530 -0.702473 0.788177 0.001731 -0.001628 -1315430.000000 1 0 0
-6.214146 -1.901975 -9.379309 11.410721 0.297018 2.535664 0.009308 -0.007511 -358088.000000 1 0 0
2.090054 -1.254275 11.333391 11.592553 -0.540505 0.211848 -0.002730 -0.001872 -510168.000000 1 0 0
18.110754 2.163625 -5.743909 19.122583 0.118903 1.875880 0.062884 -0.010467 34007.300000 1 0 0
-8.869046 4.794725 7.753091 12.718482 -0.495608 0.915250 0.000635 -0.007770 -1230730.000000 1 0 0
11.480054 -7.103275 -4.903209 14.362786 -0.554092 1.919184 0.012756 -0.006365 -20398.000000 1 0 0
10.873454 0.418925 8.969191 14.101557 0.038508 0.881437 0.010393 -0.001455 -215559.000000 1 0 0
-8.428746 -7.252275 -1.656109 11.241972 0.710513 1.718649 0.004805 -0.001668 -1063150.000000 1 0 0
10.255554 -10.474375 -3.244309 15.013809 -0.795954 1.788603 0.019580 -0.004121 503555.000000 1 0 0
7.697454 -14.054975 -3.860009 16.483106 -1.069746 1.807171 0.028651 -0.001816 -1301510.000000 1 0 0
1.585254 -1.239375 -11.832209 12.002093 -0.663553 2.973140 0.010866 -0.002966 433791.000000 1 0 0
-11.852146 -2.582875 -6.384709 13.707994 0.214570 2.055296 0.007489 -0.003598 276856.000000 1 0 0
2.805954 -12.071475 -6.288109 13.897273 -1.342407 2.040330 0.006663 -0.001569 884869.000000 1 0 0
-5.623746 1.519425 1.125091 5.933043 -0.263880 1.380010 0.001759 -0.005008 63369.100000 1 0 0
0.265154 6.802525 -3.910809 7.851056 1.531837 2.092232 0.004442 -0.001724 1124850.000000 1 0 0
5.433354 -11.833675 3.689591 13.534042 -1.140365 1.294686 0.005112 -0.007101 -2155630.000000 1 0 0
-4.318646 -9.198975 1.195491 10.232352 1.131869 1.453694 0.007169 -0.000134 1194900.000000 1 0 0
7.166354 -6.313475 -4.693809 10.641825 -0.722212 2.027589 0.006414 -0.002818 1387270.000000 1 0 0
-6.757146 -6.007175 2.305091 9.330520 0.726710 1.321163 0.003157 -0.002189 -756315.000000 1 0 0
-6.384646 -0.805275 7.045291 9.541923 0.125464 0.740174 0.003987 -0.004485 -1205230.000000 1 0 0
4.211654 -5.022175 3.149891 7.272007 -0.872951 1.122808 0.000608 -0.001799 -412163.000000 1 0 0
-2.485946 10.642725 -8.891109 14.088979 -1.341329 2.253726 0.003068 0.003663 -1651090.000000 1 0 0
-2.269146 -4.844875 2.829991 6.052329 1.132780 1.084237 -0.000034 -0.000769 -464784.000000 1 0 0
15.194954 5.132625 6.250091 17.213196 0.325752 1.199205 0.034184 -0.011879 -40374.300000 1 0 0
6.782954 0.296825 0.162691 6.791395 0.043733 1.546839 0.001611 0.002985 3728870.000000 1 0 0
-9.659746 9.156625 0.378591 13.315322 -0.758666 1.542360 0.005618 -0.008643 -1600870.000000 1 0 0
7.188054 10.549925 -2.596909 13.027394 0.972706 1.771483 0.004741 0.000087 -50800.500000 1 0 0
1.611954 -4.334575 -5.389709 7.101823 -1.214761 2.432448 0.002989 -0.002408 318628.000000 1 0 0
0.926754 -8.156175 -7.935909 11.417561 -1.457655 2.339302 0.003423 -0.001267 548855.000000 1 0 0
-10.506546 0.271325 -10.458009 14.826701 -0.025819 2.353713 0.010073 -0.005798 -3248370.000000 1 0 0
5.786454 -2.522675 0.565191 6.337696 -0.411119 1.481498 0.003327 0.000952 360516.000000 1 0 0
-3.397546 5.206825 -1.285309 6.348729 -0.992653 1.774657 0.000996 -0.005782 1408810.000000 1 0 0
-0.380146 4.574025 -5.107009 6.866422 -1.487877 2.409483 0.003302 -0.000678 -975004.000000 1 0 0
4.056254 -9.708475 10.114591 14.594953 -1.175035 0.805127 -0.001596 -0.001714 -1014580.000000 1 0 0
7.252754 -13.554175 -0.901409 15.399047 -1.079469 1.629366 0.027595 -0.006321 511823.000000 1 0 0
12.929754 -0.027975 0.488991 12.939028 -0.002164 1.532995 0.002247 -0.000439 115084.000000 1 0 0
9.257954 2.423125 -0.657809 9.592391 0.255992 1.639426 0.003915 0.003522 -39912.600000 1 0 0
-0.748846 -5.744675 4.480591 7.323780 1.441173 0.912479 -0.001499 0.001338 -1101560.000000 1 0 0
11.463454 -3.798975 3.481891 12.568475 -0.320008 1.290091 0.008771 -0.006835 -3570530.000000 1 0 0
1.744054 -8.245775 11.777391 14.482454 -1.362359 0.621136 -0.003440 -0.000423 104109.000000 1 0 0
9.414754 -5.855575 -5.870709 12.545540 -0.556408 2.057768 0.004188 -0.004004 -794447.000000 1 0 0
3.176154 6.432425 -0.127609 7.174980 1.112143 1.588583 -0.000131 0.001507 -1373950.000000 1 0 0
6.287854 -1.342375 11.466891 13.146432 -0.210329 0.511025 0.001701 -0.001987 275576.000000 1 0 0
-4.800746 -7.452575 -4.006109 9.728152 0.998529 1.995231 0.008090 -0.000031 416119.000000 1 0 0
-3.443646 -8.686175 -5.732109 10.961998 1.193353 2.121054 0.010760 -0.005355 -704276.000000 1 0 0
9.722254 5.319325 2.178491 11.294391 0.500636 1.376697 0.005719 0.001547 296669.000000 1 0 0
8.811754 -1.484075 0.316891 8.941472 -0.166854 1.535348 0.001928 0.001726 1676270.000000 1 0 0
-4.005246 9.654825 9.032991 13.814940 -1.177559 0.858126 0.003239 -0.002176 373490.000000 1 0 0
-14.389546 -3.594575 -6.092509 16.034296 0.244795 1.960557 0.007502 -0.004647 72625.000000 1 0 0
10.643854 6.208525 -6.023409 13.715643 0.528047 2.025464 0.011451 -0.003355 -2431960.000000 1 0 0
-1.757246 4.486325 2.753491 5.549481 -1.197475 1.051613 -0.001432 -0.003547 417798.000000 1 0 0
6.924654 -3.795575 2.649091 8.329160 -0.501402 1.247124 0.003079 -0.003583 -962259.000000 1 0 0
8.375654 -11.229975 -1.534209 14.093180 -0.929969 1.679874 0.015195 -0.003215 -3154440.000000 1 0 0
4.578554 0.534925 1.870991 4.974929 0.116305 1.185230 0.000076 0.002590 -62982.900000 1 0 0
-10.860746 2.343925 3.773291 11.734032 -0.212556 1.243411 0.000710 -0.007358 178593.000000 1 0 0
-0.907446 -2.997675 4.314991 5.331853 1.276849 0.627862 0.001598 -0.002105 272520.000000 1 0 0
8.703654 -8.752775 -8.508309 14.991864 -0.788212 2.174297 0.008092 -0.001753 -460312.000000 1 0 0
12.125754 -4.722575 1.143791 13.063112 -0.371393 1.483125 0.006371 -0.002085 238736.000000 1 0 0
2.953654 4.869325 3.559491 6.715980 1.025550 1.012192 -0.005641 0.001042 -977505.000000 1 0 0
6.088654 7.510925 1.950691 9.863615 0.889601 1.371718 0.003123 0.000770 -124115.000000 1 0 0
-1.733946 -1.399375 -10.285409 10.523994 0.679023 2.928254 0.010698 -0.003340 1960560.000000 1 0 0
-0.834046 -8.486875 6.138091 10.507085 1.472836 0.946920 0.000553 -0.001530 -317268.000000 1 0 0
-4.249246 -0.191675 2.217091 4.796699 0.045077 1.090308 0.000688 -0.003685 439820.000000 1 0 0
-8.347346 6.311325 -7.918409 13.122965 -0.647386 2.218555 -0.007726 -0.000099 -788510.000000 1 0 0
6.308454 11.117725 -9.391409 15.861872 1.054675 2.204427 0.015406 -0.012848 -171468.000000 1 0 0
-11.223946 -5.645775 3.133291 12.948716 0.466054 1.326393 0.003253 -0.001436 1619000.000000 1 0 0
1.399854 -6.209975 2.931691 7.008437 -1.349082 1.139214 0.004375 -0.000455 760481.000000 1 0 0
10.111854 2.191725 7.265291 12.642694 0.213446 0.958604 0.005748 -0.000028 -1907150.000000 1 0 0
-4.142046 -2.572175 -10.503109 11.579634 0.555712 2.706979 0.012538 -0.004474 -2131410.000000 1 0 0
-8.282046 11.810425 5.765291 15.534381 -0.959233 1.190570 0.010913 -0.008517 109192.000000 1 0 0
6.861654 5.996425 -2.993909 9.591815 0.718209 1.888232 0.004800 0.002339 -3180820.000000 1 0 0
3.892254 -9.881575 -2.302009 10.867125 -1.195568 1.784246 0.002755 -0.002807 -331007.000000 1 0 0
8.458354 -12.952675 -7.263509 17.090176 -0.992301 2.009770 0.024360 -0.006954 59719.900000 1 0 0
-1.197246 9.404925 3.681491 10.170516 -1.444178 1.200409 -0.003195 -0.000340 -96222.200000 1 0 0
0.521954 -13.170875 4.708991 13.997106 -1.531188 1.227677 0.010439 -0.004913 -981366.000000 1 0 0
-10.987146 -6.925375 -5.038009 13.930532 0.562413 1.940836 0.012299 -0.005311 425405.000000 1 0 0
3.682254 10.366325 -3.388809 11.511026 1.229485 1.869621 0.011067 -0.004226 -265878.000000 1 0 0
11.568054 -8.162175 -7.409809 15.979557 -0.614460 2.052969 0.033552 -0.008940 206827.000000 1 0 0
11.778054 -4.767175 -5.938509 14.025491 -0.384595 2.008000 0.011994 -0.003718 -281868.000000 1 0 0
1.297054 -10.424275 -2.535109 10.806231 -1.447006 1.807600 0.003493 -0.000483 -1216840.000000 1 0 0
2.407454 -12.125375 -3.836709 12.943759 -1.374798 1.871732 0.008990 -0.000190 -1475440.000000 1 0 0
-7.590346 -5.668575 7.226391 11.914983 0.641459 0.919150 0.007142 -0.004543 -2730610.000000 1 0 0
-7.197646 -0.867775 9.475091 11.930486 0.119985 0.653120 0.004852 -0.004767 -36624.200000 1 0 0
16.281854 2.593425 -7.485809 18.106959 0.157956 1.997005 0.053863 -0.009282 35041.100000 1 0 0
-1.987646 6.367725 -5.472909 8.628522 -1.268236 2.257875 0.003493 0.000574 -197492.000000 1 0 0
7.697754 1.135525 8.426791 11.469771 0.146458 0.745578 0.003650 -0.000373 -517645.000000 1 0 0
7.904954 8.291025 -3.702409 12.038988 0.809231 1.883398 0.004624 0.002562 -542134.000000 1 0 0
8.114154 0.560625 4.000091 9.063914 0.068983 1.113727 0.001563 0.000022 811961.000000 1 0 0
-7.021246 5.808025 5.410791 10.597533 -0.691112 1.034948 0.003704 -0.008257 176424.000000 1 0 0
-6.077346 -2.040675 -4.435709 7.795768 0.323954 2.176073 0.005674 -0.003705 -545780.000000 1 0 0
-15.057346 -1.992175 3.220091 15.526152 0.131542 1.361882 0.003546 -0.006537 -1532560.000000 1 0 0
1.003154 1.192525 -10.501809 10.616799 0.871432 2.994279 0.009169 -0.001086 553508.000000 1 0 0
1.480154 -9.320475 9.408191 13.325771 -1.413305 0.786941 0.001814 -0.003425 -632783.000000 1 0 0
-0.243446 -6.751875 -1.231809 6.867637 1.534756 1.751137 0.003293 -0.000106 720158.000000 1 0 0
-0.387246 -10.305075 -8.445209 13.329144 1.533236 2.256981 0.003732 -0.001621 -345292.000000 1 0 0
-4.283746 6.541025 3.770691 8.680645 -0.990981 1.121447 0.000840 -0.002326 -206002.000000 1 0 0
10.830454 -1.144675 -8.545409 13.843158 -0.105299 2.236105 0.020651 -0.001071 718701.000000 1 0 0
2.916554 -1.062275 6.416291 7.127658 -0.349289 0.450576 0.001143 0.001956 499712.000000 1 0 0
1.872354 -12.361875 6.843991 14.253486 -1.420477 1.069956 0.008721 -0.004326 -612505.000000 1 0 0
2.873254 -4.959575 -1.330709 5.884196 -1.045710 1.798919 0.008548 -0.001571 -1558450.000000 1 0 0
-1.065446 9.502425 -1.696309 9.711268 -1.459139 1.746371 0.003918 -0.002774 290953.000000 1 0 0
4.523554 -2.557875 2.566891 5.796050 -0.514633 1.112000 0.003645 -0.001210 -659540.000000 1 0 0
17.845754 6.797225 -2.739909 19.291976 0.363922 1.713301 0.030101 0.002715 -646190.000000 1 0 0
-7.113246 3.594225 -5.405209 9.629797 -0.467868 2.166753 -0.000118 -0.002674 47936.700000 1 0 0
-13.893346 -5.850275 2.197991 15.234235 0.398550 1.426011 -0.004910 0.001507 -318810.000000 1 0 0
6.665754 -6.073275 3.287091 9.598016 -0.738923 1.221245 0.002813 -0.005027 172112.000000 1 0 0
-4.616846 2.001525 3.489791 6.123725 -0.409071 0.964436 0.002883 -0.005979 703304.000000 1 0 0
7.036054 -12.125375 -5.372209 15.013041 -1.045007 1.936746 0.015240 -0.004919 -1491920.000000 1 0 0
2.924054 -12.308775 3.235491 13.058500 -1.337561 1.320420 0.009965 -0.004560 19586.400000 1 0 0
3.330654 11.352225 -6.135409 13.327022 1.285413 2.049212 0.006633 -0.001532 335903.000000 1 0 0
-5.489046 -8.342575 6.482191 11.905754 0.988849 0.995053 0.007340 -0.003619 338491.000000 1 0 0
-3.966246 6.606025 6.316791 9.963560 -1.030084 0.884095 0.004254 -0.001279 427034.000000 1 0 0
4.231154 4.297225 -6.967809 9.215160 0.793145 2.428167 0.003059 0.004070 -2268950.000000 1 0 0
-0.368046 -2.688875 1.583791 3.142276 1.434765 1.042542 0.002137 -0.001497 1015870.000000 1 0 0
-13.367546 -0.929375 6.787691 15.020911 0.069413 1.101922 0.000019 -0.000525 -320457.000000 1 0 0
-0.474446 -9.294775 -6.028309 11.088663 1.519796 2.145572 0.006286 -0.002091 312874.000000 1 0 0
1.999254 -1.675375 -3.888009 4.681935 -0.697486 2.550671 0.005419 0.001258 -1062260.000000 1 0 0
11.351254 -2.020075 1.219391 11.593903 -0.176117 1.465426 0.004769 -0.000312 468270.000000 1 0 0
0.519354 -4.247275 -2.068709 4.752750 -1.449121 2.021130 0.003503 -0.001188 -1611490.000000 1 0 0
1.127254 -7.458975 -11.259609 13.553073 -1.420804 2.551302 -0.000014 0.000105 -1118180.000000 1 0 0
-4.393046 4.142925 -9.969609 11.655719 -0.756105 2.597004 0.000946 -0.001556 -390950.000000 1 0 0
-1.074346 5.869925 -2.142009 6.340224 -1.389774 1.915422 0.002200 -0.002167 -2475600.000000 1 0 0
-11.223146 1.741725 -3.817309 11.981838 -0.153962 1.895039 0.004647 -0.002389 225636.000000 1 0 0
-1.934846 -11.150375 4.181291 12.064729 1.398984 1.216883 0.007069 -0.000944 105480.000000 1 0 0
-3.536046 -5.597175 -9.689709 11.735520 1.007354 2.542191 0.008098 -0.003839 -1899460.000000 1 0 0
-12.914646 -3.869875 -8.274709 15.818812 0.291136 2.121272 0.014537 -0.005414 -7985.240000 1 0 0
11.443854 4.392625 0.522691 12.269074 0.366499 1.528181 0.009339 0.003942 195478.000000 1 0 0
-8.950746 -2.325875 -3.002809 9.723292 0.254230 1.884755 0.002172 -0.003238 -364647.000000 1 0 0
-2.489946 -6.264875 -6.422109 9.310852 1.192494 2.331932 0.005804 -0.004878 -144621.000000 1 0 0
-0.131646 2.750225 -1.848509 3.316331 -1.522966 2.162042 0.001733 -0.002614 -806680.000000 1 0 0
8.147254 5.966925 -5.234409 11.374576 0.632132 2.049000 0.007236 0.001403 -595105.000000 1 0 0
-9.831046 -0.808575 -0.910309 9.906155 0.082062 1.662819 0.000442 -0.004348 -383627.000000 1 0 0
6.210554 0.498225 -8.886609 10.853158 0.080051 2.530121 0.007959 0.002005 567795.000000 1 0 0
-4.131946 2.571525 7.888391 9.268896 -0.556693 0.552795 0.002662 -0.001629 -2204980.000000 1 0 0
-10.164346 -3.308375 1.488391 10.792339 0.314673 1.432444 -0.001660 -0.002256 1912150.000000 1 0 0
-1.888946 -8.308675 -7.841409 11.579719 1.347250 2.314703 0.008596 -0.005854 1153590.000000 1 0 0
-9.493446 -9.733275 4.164791 14.219973 0.797871 1.273555 0.004886 -0.003555 -154054.000000 1 0 0
-1.063846 -10.692875 7.340091 13.013312 1.471632 0.971520 0.004075 -0.004586 -94046.100000 1 0 0
9.382754 3.771625 -3.864309 10.825623 0.382207 1.935807 0.005225 0.000479 -729233.000000 1 0 0
12.775954 -0.743875 3.032591 13.151995 -0.058159 1.338122 0.004744 -0.000785 -900271.000000 1 0 0
6.450854 11.830225 -6.831309 15.107433 1.071580 2.040007 0.009910 -0.004929 129273.000000 1 0 0
-12.020946 -0.134575 -6.511809 13.672048 0.011195 2.067223 0.003803 -0.002104 210107.000000 1 0 0
-7.640146 -6.545875 -11.465009 15.253417 0.708413 2.421334 0.011992 -0.003060 -756023.000000 1 0 0
4.172754 6.078825 6.530291 9.849299 0.969228 0.845949 -0.005589 0.001373 -4902030.000000 1 0 0
-4.362146 -1.400675 -7.424509 8.724307 0.310698 2.588710 0.008683 -0.008647 -927610.000000 1 0 0
9.750954 9.223225 0.864391 13.449765 0.757592 1.506484 0.011719 0.001140 -2238520.000000 1 0 0
-8.866446 3.828525 4.830591 10.798429 -0.407616 1.107005 0.001570 -0.008132 451084.000000 1 0 0
-6.984646 7.852425 -12.146609 16.061941 -0.843819 2.428337 -0.000901 -0.003857 -987376.000000 1 0 0
11.190154 -3.595575 7.346991 13.860952 -0.310896 1.012137 0.016003 -0.009183 1016420.000000 1 0 0
11.953454 6.859325 6.396091 15.193597 0.520959 1.136279 0.007877 -0.002062 205586.000000 1 0 0
-10.028146 -0.766575 -14.642809 17.764098 0.076294 2.539747 0.020925 -0.005164 150882.000000 1 0 0
1.804354 -13.084475 12.108991 17.918896 -1.433760 0.828792 0.001784 -0.002333 164618.000000 1 0 0
2.967354 2.980125 13.010491 13.673303 0.787545 0.312639 -0.005310 -0.000880 -743506.000000 1 0 0
-2.546546 -1.484375 11.001591 11.389613 0.527749 0.261776 0.004587 -0.001804 -837064.000000 1 0 0
2.574654 -10.119275 -8.253909 13.309980 -1.321652 2.239704 -0.001743 0.001456 -881859.000000 1 0 0
14.010854 3.599725 -7.437609 16.265918 0.251485 2.045698 0.026556 -0.004563 -2718070.000000 1 0 0
7.322254 -1.563775 4.969991 8.986747 -0.210404 0.984793 0.001345 -0.002476 473978.000000 1 0 0
-1.200046 8.804825 10.160591 13.498247 -1.435337 0.718591 0.002285 -0.000594 481828.000000 1 0 0
-12.299446 -4.520075 0.996891 13.141584 0.352181 1.494866 -0.000008 -0.000402 266041.000000 1 0 0
-4.858946 4.873625 -5.348109 8.715724 -0.786906 2.231428 0.001883 -0.001824 -99412.400000 1 0 0
-11.213146 0.390725 1.943391 11.387013 -0.034831 1.399289 -0.001174 -0.005563 -1779410.000000 1 0 0
-1.625046 2.388625 -3.996309 4.931205 -0.973396 2.515652 0.003498 -0.004185 1189830.000000 1 0 0
3.177954 -9.981275 13.144091 16.807510 -1.262553 0.672869 -0.001297 0.001292 -1178570.000000 1 0 0
8.931354 4.649425 -1.544909 10.186903 0.479971 1.723040 0.006307 0.000988 -1318440.000000 1 0 0
4.096254 2.314825 3.844191 6.075815 0.514368 0.885757 -0.004627 0.004451 426029.000000 1 0 0
-5.539346 -3.205275 7.440291 9.814075 0.524564 0.710364 0.002873 -0.005846 193133.000000 1 0 0
1.830554 -5.871375 7.582691 9.763257 -1.268571 0.681457 -0.001884 -0.000173 -1259170.000000 1 0 0
-5.892046 -6.338775 -9.631309 12.948296 0.821907 2.409576 0.010337 -0.004948 -596089.000000 1 0 0
-11.700946 -5.717775 5.518591 14.144254 0.454534 1.169986 0.006034 -0.004036 -920932.000000 1 0 0
10.534754 6.160625 4.500091 13.007120 0.529161 1.217522 0.001965 0.000780 -1321110.000000 1 0 0
1.311354 -3.729775 0.323291 3.966786 -1.232705 1.489206 0.012032 -0.001057 -758929.000000 1 0 0
8.775654 4.352225 6.997391 12.038167 0.460397 0.950511 0.000184 0.003532 591017.000000 1 0 0
-7.857946 12.224025 3.381491 14.920073 -0.999479 1.342169 0.004482 -0.006094 -305686.000000 1 0 0
-6.342146 13.310725 -7.086409 16.358955 -1.126150 2.018817 0.007837 0.000003 721955.000000 1 0 0
4.347954 -7.024875 -0.935709 8.314393 -1.016569 1.683576 0.004779 -0.003621 -1495920.000000 1 0 0
-1.926546 -8.114175 11.158491 13.930662 1.337683 0.641829 0.000272 -0.005597 -479327.000000 1 0 0
11.633754 8.756625 -5.847409 15.691237 0.645221 1.952664 0.026108 -0.002440 351825.000000 1 0 0
-3.351846 -2.898475 -1.939909 4.837279 0.712989 1.983441 0.002189 -0.002394 -1779600.000000 1 0 0
-1.992846 5.958525 4.814991 7.915782 -1.248039 0.916908 -0.001854 -0.001303 142956.000000 1 0 0
0.447754 -11.350275 -5.549309 12.642154 -1.531368 2.025229 0.003191 -0.002397 -1325090.000000 1 0 0
-8.908146 6.281225 -1.523709 11.005932 -0.614147 1.709687 0.000770 -0.004306 -941882.000000 1 0 0
2.964054 -0.094975 3.986491 4.968576 -0.032031 0.639590 -0.001452 0.000748 807022.000000 1 0 0
-10.074446 4.004625 -0.964109 10.883978 -0.378352 1.659493 0.003995 -0.004860 -18865.400000 1 0 0
6.495654 5.592625 13.477791 15.972534 0.710834 0.566452 0.012213 -0.000364 -1013360.000000 1 0 0
-8.858446 -1.505975 5.678291 10.629347 0.168394 1.007225 0.000442 -0.005033 -26447.100000 1 0 0
12.910454 -1.744075 -1.530209 13.117285 -0.134277 1.687718 0.008152 0.000609 -1561500.000000 1 0 0
5.309954 -5.442275 5.373891 9.310890 -0.797704 0.955547 -0.000030 -0.003476 64173.300000 1 0 0
-9.000446 -1.165775 3.130291 9.600301 0.128807 1.238662 -0.001106 -0.004701 312729.000000 1 0 0
2.057954 5.567625 5.616991 8.172161 1.216743 0.812986 -0.003833 -0.000002 -1366400.000000 1 0 0
9.207554 3.013525 -7.494609 12.248655 0.316300 2.229221 0.012162 -0.000593 -786048.000000 1 0 0
2.269554 -2.370375 -1.516909 3.615324 -0.807124 2.003776 0.003596 0.000708 -357162.000000 1 0 0
-6.188946 0.428625 -3.955209 7.357339 -0.069146 2.138369 0.001452 -0.001290 -1307600.000000 1 0 0
-4.046146 4.243225 5.088591 7.763377 -0.809169 0.856003 0.002804 -0.004007 563316.000000 1 0 0
-6.421046 1.760625 -12.305309 13.991078 -0.267619 2.645630 0.004184 -0.002825 -1820330.000000 1 0 0
-0.068546 3.250625 6.202891 7.003365 -1.549713 0.482793 -0.000202 -0.000010 1026170.000000 1 0 0
-8.827146 9.426025 -2.186409 13.097665 -0.818196 1.738513 0.000111 -0.001064 1140220.000000 1 0 0
-1.393246 -3.874475 -6.188609 7.433140 1.225598 2.554528 0.003885 -0.004650 282464.000000 1 0 0
-3.485146 7.019425 -2.938509 8.369791 -1.109953 1.929526 0.001079 0.000715 1401040.000000 1 0 0
6.968254 -0.378475 -4.286609 8.189922 -0.054261 2.121633 0.004001 0.002730 136906.000000 1 0 0
-5.205146 -10.804675 6.919191 13.845929 1.121856 1.047512 0.005089 -0.005921 243868.000000 1 0 0
9.774554 8.382325 -1.547309 12.969173 0.708870 1.690388 0.005795 0.003067 -333107.000000 1 0 0
13.853254 4.566825 -4.365609 15.225869 0.318438 1.861601 0.016007 -0.004391 667570.000000 1 0 0
4.668454 1.056825 -6.869309 8.372500 0.222624 2.533013 0.003342 0.003748 -890571.000000 1 0 0
9.030354 -4.777775 3.612991 10.836427 -0.486640 1.230876 0.003990 -0.005983 -374724.000000 1 0 0
-8.812846 -3.248675 -0.733309 9.421140 0.353174 1.648712 0.000129 -0.001470 -19938.300000 1 0 0
-8.618746 -4.197675 -10.413509 14.154307 0.453226 2.397515 0.009102 -0.003684 296939.000000 1 0 0
10.524454 -1.193175 10.643691 15.015857 -0.112890 0.782958 0.024041 -0.002095 1179270.000000 1 0 0
2.265854 -11.615375 9.926691 15.446366 -1.378142 0.872837 -0.000755 -0.004479 400425.000000 1 0 0
-6.378946 -10.560875 2.102991 12.515814 1.027429 1.401969 0.004926 0.001480 -685577.000000 1 0 0
-3.762446 -1.237075 6.721491 7.801589 0.317661 0.532473 0.003782 -0.002165 -1680770.000000 1 0 0
4.691254 -7.570275 4.008291 9.766439 -1.016022 1.147887 0.000597 -0.000833 222476.000000 1 0 0
11.567954 -9.560175 -5.273509 15.906741 -0.690654 1.908718 0.025890 -0.008310 331787.000000 1 0 0
11.373454 1.130525 11.493791 16.209281 0.099075 0.782594 0.031473 0.004102 -152959.000000 1 0 0
-10.197646 -3.379575 4.359891 11.594057 0.320016 1.185272 0.004906 -0.001835 1113000.000000 1 0 0
2.143854 8.828925 8.927291 12.737447 1.332585 0.794180 -0.005598 0.003283 -84805.800000 1 0 0
6.581854 8.816525 4.104391 11.742996 0.929516 1.213739 0.004163 0.001155 423206.000000 1 0 0
-4.238646 3.627425 0.559091 5.606863 -0.707851 1.470915 0.001968 -0.006326 -1713240.000000 1 0 0
4.835654 7.016225 4.292891 9.541482 0.967349 1.104122 0.000172 0.001519 -1437330.000000 1 0 0
-8.202846 13.168625 0.968791 15.544707 -1.013703 1.508433 0.003043 -0.002655 810809.000000 1 0 0
8.827354 8.144625 -9.134509 15.089611 0.745193 2.221003 0.015824 -0.011249 -1191540.000000 1 0 0
7.064254 1.900825 6.082491 9.513860 0.262851 0.877170 -0.003107 0.000248 -498616.000000 1 0 0
11.541454 -6.265975 3.164291 13.508529 -0.497384 1.334356 0.008954 -0.003666 -97505.700000 1 0 0
11.427754 4.662525 -2.162909 12.530399 0.387384 1.744278 0.010434 0.000328 732265.000000 1 0 0
-4.071346 14.334725 -6.032309 16.076348 -1.294064 1.955440 -0.000326 0.006741 -133509.000000 1 0 0
7.156654 -3.065775 6.899791 10.403067 -0.404731 0.845649 0.004164 -0.006270 -313119.000000 1 0 0
-7.952146 -0.429575 0.914391 8.016063 0.053968 1.456478 0.001716 -0.005045 200039.000000 1 0 0
-3.175546 1.010325 10.704491 11.211199 -0.308031 0.301799 0.004052 -0.000686 22671.000000 1 0 0
7.034854 -1.289175 -1.840009 7.384902 -0.181244 1.822607 0.003839 0.002187 -1330720.000000 1 0 0
-7.804046 5.401625 2.976191 9.946778 -0.605443 1.266930 0.002957 -0.006821 755605.000000 1 0 0
9.436054 -2.231675 2.861591 10.109807 -0.232238 1.283823 0.001843 -0.002833 -1494150.000000 1 0 0
0.294354 3.590125 1.524391 3.911446 1.488989 1.170463 -0.001288 -0.000961 -4462500.000000 1 0 0
-7.556646 -3.008575 4.119991 9.117496 0.378899 1.101928 0.001133 -0.003219 -1602640.000000 1 0 0
-2.324446 8.406125 -6.652509 10.969132 -1.301019 2.222416 0.002220 0.000844 -500192.000000 1 0 0
4.502854 9.853725 7.338691 13.085411 1.142161 0.975408 -0.001250 0.004125 993122.000000 1 0 0
-11.905046 -3.134975 6.926091 14.125470 0.257486 1.058332 0.009133 -0.007564 -811123.000000 1 0 0
-4.785546 2.311725 -5.555609 7.688323 -0.450007 2.378358 0.004653 -0.003983 69991.800000 1 0 0
-2.771146 2.692825 -1.611809 4.186703 -0.771065 1.965986 0.001769 -0.004663 962584.000000 1 0 0
2.522754 5.159225 11.464391 12.822409 1.116004 0.464400 -0.004748 -0.003454 427918.000000 1 0 0
-0.660046 1.806525 4.506591 4.899853 -1.220497 0.403378 0.002961 -0.002589 -696054.000000 1 0 0
5.067554 1.514725 7.567591 9.232710 0.290453 0.609996 -0.003853 0.000159 941275.000000 1 0 0
3.346854 -8.179675 1.887191 9.037146 -1.182412 1.360422 0.002470 -0.001682 3171910.000000 1 0 0
5.092254 6.531625 -4.647709 9.497072 0.908600 2.082179 0.004585 -0.000055 -2920470.000000 1 0 0
-4.099746 2.809925 -7.962809 9.386688 -0.600853 2.583579 0.005020 -0.004826 446934.000000 1 0 0
-8.819046 -2.144675 -12.872909 15.750777 0.238556 2.527484 0.017383 -0.006203 -2120010.000000 1 0 0
-7.838546 8.184425 1.439891 11.423699 -0.806981 1.444416 0.003099 -0.004896 -2099800.000000 1 0 0
7.319554 0.800725 -6.581209 9.875695 0.108962 2.300172 0.006551 0.003065 -66144.900000 1 0 0
8.890054 8.865925 5.497291 13.706127 0.784039 1.158098 0.003769 0.001056 150848.000000 1 0 0
9.396554 -1.032275 -1.402409 9.556546 -0.109418 1.718077 0.003884 0.000810 1133010.000000 1 0 0
5.480154 0.155725 4.262591 6.944496 0.028409 0.909920 -0.001444 0.002226 -1368030.000000 1 0 0
-4.245746 -7.335375 -7.928209 11.605627 1.046108 2.322843 0.011977 -0.007385 -317559.000000 1 0 0
-2.218246 7.386025 -0.546209 7.731256 -1.279037 1.641505 0.001545 -0.003578 281384.000000 1 0 0
13.470454 -3.338175 -7.315609 15.688043 -0.242921 2.055920 0.029820 -0.006871 996425.000000 1 0 0
-4.722746 -5.048775 1.655191 7.108735 0.818751 1.335800 0.004455 -0.003201 1377550.000000 1 0 0
-8.855946 1.370425 2.543891 9.315429 -0.153529 1.294199 -0.001136 -0.006214 -339912.000000 1 0 0
-0.998446 11.229525 10.099491 15.136012 -1.482117 0.840287 0.000089 -0.003552 502332.000000 1 0 0
-8.574246 0.416725 7.521191 11.413136 -0.048564 0.851315 -0.000768 -0.004828 -459377.000000 1 0 0
-6.091946 12.989925 -2.103409 14.500837 -1.132276 1.716364 0.000160 0.003988 66902.600000 1 0 0
-12.970646 -0.689775 3.324791 13.407747 0.053130 1.320207 0.001622 -0.005898 379340.000000 1 0 0
-6.576546 12.661025 8.604391 16.660974 -1.091724 1.028108 0.012645 -0.013493 929344.000000 1 0 0
-8.048446 0.962125 -14.125409 16.285894 -0.118977 2.620629 0.007586 -0.001861 39467.600000 1 0 0
7.248154 2.860425 3.852091 8.692317 0.375879 1.111675 -0.001219 0.004942 -258980.000000 1 0 0
-1.558446 0.619125 -2.075109 2.667985 -0.378152 2.461924 0.002190 -0.004853 407647.000000 1 0 0
-6.278646 9.734225 -10.429209 15.586691 -0.997939 2.303807 -0.001898 0.001741 1116.610000 1 0 0
-10.028846 13.778525 5.211791 17.821006 -0.941616 1.274006 0.006355 -0.004682 909378.000000 1 0 0
-5.605146 8.383325 2.404791 10.367296 -0.981452 1.336705 -0.001415 -0.003844 -991672.000000 1 0 0
-2.514146 -10.769375 -1.222509 11.126315 1.341451 1.680894 0.008354 -0.001041 900208.000000 1 0 0
-2.201146 -12.304475 8.919191 15.355687 1.393779 0.951037 0.002845 -0.006142 411888.000000 1 0 0
-14.644746 -6.499975 -1.663509 16.108554 0.417722 1.674249 0.008071 0.000678 350346.000000 1 0 0
-2.639846 -9.174275 3.334691 10.112184 1.290621 1.234737 0.004553 0.001031 -151091.000000 1 0 0
4.680154 -2.664775 7.418191 9.167030 -0.517599 0.627964 0.001016 -0.000061 -1620860.000000 1 0 0
-15.107546 -1.249775 -0.242309 15.161088 0.082537 1.586779 0.006470 -0.007892 358891.000000 1 0 0
5.439454 8.810325 -2.771509 10.718711 1.017684 1.832335 0.005100 -0.000185 -50757.600000 1 0 0
-5.618646 -5.667775 8.436291 11.613090 0.789751 0.757659 0.005568 -0.005767 -4212820.000000 1 0 0
3.456154 3.637825 7.001591 8.614003 0.811002 0.621828 -0.004748 -0.000220 -105156.000000 1 0 0
3.379754 2.352125 9.363191 10.228616 0.608000 0.414316 -0.001693 -0.001705 -282960.000000 1 0 0
9.932854 -3.300775 5.264991 11.716520 -0.320828 1.104742 0.008286 -0.006708 -385262.000000 1 0 0
6.542054 9.943425 -5.056809 12.932188 0.988868 1.972541 0.002990 -0.001792 417881.000000 1 0 0
-4.562346 12.027025 -8.519509 15.428751 -1.208225 2.155778 -0.003907 0.001085 418199.000000 1 0 0
-3.319946 -7.178475 2.158591 8.198296 1.137608 1.304358 0.003870 -0.001493 965501.000000 1 0 0
-7.451446 -4.095975 1.206691 8.588199 0.502604 1.429824 0.001733 -0.003246 3254770.000000 1 0 0
-2.021946 -4.053975 -10.911209 11.814290 1.108144 2.748060 0.009917 -0.002824 -716687.000000 1 0 0
-5.258246 8.288925 -4.470709 10.786226 -1.005487 1.998171 0.001748 -0.001433 -1674130.000000 1 0 0
-11.102346 -3.272275 -10.148409 15.393507 0.286622 2.290638 0.018510 -0.002100 307675.000000 1 0 0
4.808654 -11.322775 -7.571109 14.444725 -1.169189 2.122505 0.005356 -0.002197 -1148720.000000 1 0 0
-9.341046 -3.874675 7.243491 12.439309 0.393200 0.949233 0.002178 -0.003837 -370885.000000 1 0 0
-5.804246 -9.598875 -5.155409 12.345279 1.026943 2.001601 0.006958 -0.004732 27358.600000 1 0 0
4.761754 4.294625 -9.476909 11.442461 0.733864 2.546726 0.000795 0.005448 168318.000000 1 0 0
-3.365946 -7.133675 -14.050109 16.112866 1.129930 2.630030 0.000998 -0.001955 571498.000000 1 0 0
0.632154 -0.894575 -8.734509 8.802927 -0.955619 3.016834 0.006272 -0.002691 621316.000000 1 0 0
-7.690046 2.245525 -2.922509 8.527616 -0.284105 1.920598 -0.000696 -0.003323 -623659.000000 1 0 0
-2.278546 7.494525 -12.555109 14.798325 -1.275648 2.583778 0.001599 0.003458 -89769.800000 1 0 0
-9.772146 8.860825 7.558991 15.203533 -0.736528 1.050443 0.005460 -0.013445 -488139.000000 1 0 0
-10.869646 -3.080775 -14.253009 18.187595 0.276186 2.471343 0.030469 0.000439 164108.000000 1 0 0
-3.166046 4.925425 7.929991 9.857404 -0.999502 0.636013 0.002112 -0.001097 -535723.000000 1 0 0
8.687454 -2.395175 -3.578209 9.695994 -0.269022 1.948772 0.003633 0.002866 -4084010.000000 1 0 0
1.844554 -8.431675 -1.164009 8.709216 -1.355424 1.704850 0.005740 0.000357 -881604.000000 1 0 0
-13.518946 -2.788475 5.069691 14.705076 0.203412 1.218815 0.012095 -0.007708 421176.000000 1 0 0
7.044154 2.788425 -1.989909 7.832954 0.376923 1.827655 0.002171 0.003562 -290740.000000 1 0 0
-11.093846 4.513425 8.839791 14.885776 -0.386389 0.934971 0.000531 -0.008514 -3559900.000000 1 0 0
-1.716246 -2.554575 7.792491 8.378202 0.979226 0.376136 0.000362 -0.001616 -639208.000000 1 0 0
3.148054 11.940425 -9.865309 15.805326 1.313015 2.244873 0.005121 -0.008998 337265.000000 1 0 0
3.646254 -5.073975 -6.999809 9.382841 -0.947683 2.412865 0.001206 -0.002438 192156.000000 1 0 0
8.386354 -13.832575 -9.637509 18.829568 -1.025775 2.108108 0.033624 -0.007794 242198.000000 1 0 0
-6.258646 -5.846875 -0.381209 8.573325 0.751396 1.615276 0.004860 -0.001566 -177028.000000 1 0 0
-1.157346 -4.029775 9.883191 10.735735 1.291125 0.401212 -0.002011 -0.000850 1626640.000000 1 0 0
2.827554 3.368225 1.837891 4.766325 0.872442 1.174939 -0.003511 0.002961 -1092800.000000 1 0 0
-9.067146 13.328125 7.647591 17.842021 -0.973413 1.127823 0.014347 -0.021657 233223.000000 1 0 0
4.034254 -11.112275 -0.020709 11.821941 -1.222548 1.572548 0.006262 0.000882 -224440.000000 1 0 0
-12.628446 -1.412675 -9.068109 15.611018 0.111401 2.190604 0.012659 -0.003690 322507.000000 1 0 0
-4.275146 0.861425 -13.457909 14.146881 -0.198834 2.828218 0.008346 -0.001911 372524.000000 1 0 0
3.945754 -3.007875 4.851091 6.938975 -0.651331 0.796647 0.000207 -0.001062 225215.000000 1 0 0
1.735254 -1.173875 1.069391 2.352167 -0.594770 1.098827 0.003080 -0.000712 339311.000000 1 0 0
8.130754 -8.978375 7.373891 14.180785 -0.834900 1.023955 0.011369 -0.004255 -1301200.000000 1 0 0
-0.112546 2.194525 -6.201809 6.579593 -1.519557 2.801077 0.002984 -0.000957 133725.000000 1 0 0
-3.824846 -9.750475 -3.336109 10.992307 1.196969 1.879155 0.008229 -0.001391 938555.000000 1 0 0
-9.465546 2.272225 -5.558309 11.209565 -0.235594 2.089614 -0.000047 -0.001064 -1919210.000000 1 0 0
8.993554 -7.676675 5.264491 12.943347 -0.706566 1.151921 0.008196 -0.006340 1228090.000000 1 0 0
-5.531746 -4.228975 4.594591 8.342344 0.652712 0.987527 0.001248 -0.003481 -1703700.000000 1 0 0
-0.114946 -12.461975 10.495191 16.293037 1.561573 0.870882 0.006219 -0.007729 2082.080000 1 0 0
-14.238446 -8.197675 3.111791 16.721796 0.522392 1.383613 -0.000813 -0.002060 -1451390.000000 1 0 0
10.858654 -1.352175 -3.596409 11.518373 -0.123887 1.888338 0.011718 0.000685 -668206.000000 1 0 0
-13.605746 2.984425 2.737691 14.195706 -0.215931 1.376727 0.005193 -0.007144 -1351770.000000 1 0 0
-6.237446 6.190325 1.071991 8.852967 -0.781607 1.449410 0.001778 -0.004973 -42679.800000 1 0 0
7.052654 -6.935875 -0.316609 9.896794 -0.777050 1.602793 0.003934 -0.003268 391361.000000 1 0 0
-6.906346 7.864625 10.012791 14.484679 -0.850183 0.807554 0.001316 -0.004543 154268.000000 1 0 0
-12.645546 -5.171975 -1.924209 13.797164 0.388237 1.710717 0.001430 -0.001344 -1945460.000000 1 0 0
-9.414746 -5.563075 0.290591 10.939364 0.533694 1.544229 0.001195 -0.001568 -586394.000000 1 0 0
-1.740646 1.924325 2.102491 3.339662 -0.835474 0.889820 0.001338 -0.004023 61720.200000 1 0 0
-7.083946 7.344125 7.589791 12.717051 -0.803429 0.931264 0.002400 -0.008115 -168494.000000 1 0 0
5.553954 7.352825 -0.449309 9.225634 0.923880 1.619518 0.003157 0.001410 -1471460.000000 1 0 0
0.042754 -4.124475 7.480291 8.542124 -1.560431 0.503924 -0.000217 -0.000206 -780488.000000 1 0 0
6.297154 0.748325 13.166791 14.614326 0.118281 0.448840 0.004702 0.002544 446637.000000 1 0 0
5.740854 6.063925 -7.906309 11.499492 0.812759 2.328886 -0.002588 0.001652 -578680.000000 1 0 0
9.989654 5.293525 9.072691 14.495804 0.487281 0.894532 0.003909 0.001292 -2783470.000000 1 0 0
-1.213146 -5.107775 -8.475409 9.969636 1.337607 2.587014 0.011017 -0.004419 942179.000000 1 0 0
9.893554 -3.560475 -7.980009 13.199998 -0.345448 2.219992 0.015045 -0.004618 339004.000000 1 0 0
8.464254 -5.548675 1.307491 10.204946 -0.580261 1.442320 0.006539 -0.004577 1184400.000000 1 0 0
15.913754 3.064725 -4.822909 16.908595 0.190254 1.860047 0.036417 -0.003611 -879541.000000 1 0 0
-6.845546 3.645925 1.226991 7.852374 -0.489385 1.413896 0.002115 -0.005920 336842.000000 1 0 0
-1.698446 3.962625 0.323991 4.323435 -1.165867 1.495788 0.002791 -0.003922 -232521.000000 1 0 0
-2.505746 10.206125 6.866091 12.553365 -1.330044 0.992077 -0.000482 0.001983 -260999.000000 1 0 0
5.473254 -5.816475 -8.685909 11.799699 -0.815790 2.398105 0.003293 -0.000759 -452969.000000 1 0 0
-1.241446 -0.875075 6.261991 6.443561 0.613996 0.237957 0.003553 -0.003164 734404.000000 1 0 0
-5.609646 5.030425 -7.843309 10.876157 -0.731014 2.376253 -0.001730 -0.001476 -179113.000000 1 0 0
6.759054 -1.236575 2.540591 7.325881 -0.180950 1.216643 0.000229 0.000884 -1357840.000000 1 0 0
8.848854 7.568825 3.275691 12.096259 0.707589 1.296570 0.006638 0.000280 63042.300000 1 0 0
-5.281746 -4.838475 -7.700409 10.516842 0.741626 2.392340 0.009348 -0.006964 871370.000000 1 0 0
-2.194646 7.896525 -10.069309 12.983164 -1.299712 2.458408 0.001786 0.003323 136529.000000 1 0 0
-2.896746 -2.245575 1.630691 4.011595 0.659439 1.152182 -0.000907 -0.000044 -551056.000000 1 0 0
6.051154 -2.155975 -9.237909 11.251829 -0.342269 2.533981 0.007199 0.001319 1046320.000000 1 0 0
1.149454 -7.564275 5.034691 9.159018 -1.419992 0.988794 -0.001046 0.000962 315453.000000 1 0 0
1.726654 11.813925 1.024891 11.983345 1.425670 1.485165 0.003025 -0.003096 -645245.000000 1 0 0
-1.130246 6.996525 2.545991 7.530663 -1.410636 1.225917 -0.000566 -0.001662 253991.000000 1 0 0
8.683054 7.843225 -6.677409 13.472171 0.734624 2.089373 0.008015 -0.003865 61258.500000 1 0 0
3.595554 -11.308975 5.500291 13.079531 -1.262965 1.136771 0.009926 -0.003910 161083.000000 1 0 0
8.076754 -7.125275 12.350791 16.387359 -0.722891 0.717156 0.016840 -0.006645 588732.000000 1 0 0
-8.712846 0.051425 -3.948109 9.565766 -0.005902 1.996249 0.001586 -0.002544 -941188.000000 1 0 0
-3.353246 -4.940375 11.135991 12.635737 0.974480 0.492171 0.002646 -0.005926 -53969.900000 1 0 0
-8.263746 0.128625 -11.606709 14.248569 -0.015564 2.522814 0.009886 -0.006035 -1667330.000000 1 0 0
1.402954 -4.937675 5.254491 7.345651 -1.293960 0.773714 0.000344 -0.001066 -1070130.000000 1 0 0
6.628354 3.683025 -7.760209 10.849912 0.507168 2.367753 0.004793 0.002816 -458168.000000 1 0 0
16.296754 4.253825 -1.298409 16.892753 0.255326 1.647734 0.021104 0.004097 864226.000000 1 0 0
7.872154 7.568725 -0.011009 10.920464 0.765750 1.571804 0.006932 0.000151 -1852930.000000 1 0 0
5.517454 -10.485675 13.979891 18.325639 -1.086417 0.703072 0.003784 -0.000365 -12705.500000 1 0 0
-5.098446 -9.347175 9.072891 13.988609 1.071451 0.865064 0.001754 -0.007303 624362.000000 1 0 0
-12.536246 -3.100775 2.930291 13.242313 0.242478 1.347667 0.002247 -0.003015 -924482.000000 1 0 0
-2.217446 -1.470175 -6.005109 6.568090 0.585462 2.724536 0.004039 -0.005192 -2522110.000000 1 0 0
-2.554346 12.999925 -4.431309 13.969940 -1.376779 1.893575 0.006758 0.004907 495081.000000 1 0 0
3.980454 -0.468275 -4.922709 6.347941 -0.117105 2.458273 0.002705 0.002431 -466707.000000 1 0 0
-8.852146 3.866225 -7.351209 12.138717 -0.411786 2.221316 -0.001599 -0.000565 -74569.400000 1 0 0
-4.575846 8.010625 -11.305009 14.591494 -1.051806 2.457143 0.001911 0.000787 -171717.000000 1 0 0
-10.109946 -6.321075 7.419491 14.043356 0.558767 1.014167 0.004446 -0.004759 -1381660.000000 1 0 0
8.162154 5.264425 4.189091 10.577496 0.572838 1.163598 -0.001462 0.002734 -2460170.000000 1 0 0
-6.731246 -7.497975 4.121391 10.886467 0.839230 1.182535 0.005492 -0.002561 -504621.000000 1 0 0
-4.000546 11.959425 7.954891 14.910148 -1.247987 1.008037 0.000631 -0.002273 241591.000000 1 0 0
-7.240146 10.099025 -7.955209 14.754503 -0.948808 2.140249 0.000446 -0.000318 -1385330.000000 1 0 0
13.092154 5.433025 4.562991 14.891043 0.393356 1.259361 0.005748 -0.003674 486695.000000 1 0 0
5.345654 4.015625 -3.819109 7.699796 0.644265 2.089784 0.001460 0.004407 716021.000000 1 0 0
-2.913446 -4.110075 5.114391 7.178989 0.954152 0.777868 -0.000314 -0.001162 -880171.000000 1 0 0
12.374954 -2.394475 -5.215509 13.640914 -0.191132 1.963127 0.014286 -0.004230 -2219120.000000 1 0 0
-5.199746 9.939025 6.867291 13.152234 -1.088789 1.021440 0.000548 -0.001081 18846.200000 1 0 0
1.768454 3.752025 -0.483209 4.175957 1.130344 1.686768 -0.000528 -0.000340 293726.000000 1 0 0
-0.027846 9.705525 7.726091 12.405260 -1.567927 0.898470 -0.003775 0.002899 -627677.000000 1 0 0
-5.555446 2.110225 5.865091 8.349570 -0.363014 0.791973 0.003754 -0.004915 923926.000000 1 0 0
8.909054 0.861025 10.730391 13.973329 0.096347 0.695210 0.016872 0.000923 -1208420.000000 1 0 0
0.397154 -2.897575 -10.189309 10.600740 -1.434581 2.862074 0.006466 -0.003060 -2043180.000000 1 0 0
1.189054 10.675325 -2.775209 11.094062 1.459870 1.823634 0.006942 -0.003566 589592.000000 1 0 0
2.328454 -4.332175 11.668791 12.662943 -1.077617 0.398894 -0.000524 -0.002932 -704434.000000 1 0 0
6.536054 -3.001475 9.344191 11.791640 -0.430493 0.655994 0.003904 -0.002014 559916.000000 1 0 0
-10.586246 -8.123975 5.690591 14.506908 0.654550 1.167701 0.007026 -0.004834 -1357340.000000 1 0 0
-2.988346 0.825625 -6.864909 7.532519 -0.269557 2.717396 0.008025 -0.004948 595316.000000 1 0 0
11.219354 2.648425 -5.068609 12.592810 0.231815 1.985043 0.010467 -0.001686 -2712070.000000 1 0 0
-2.125146 -4.052075 0.024791 4.575606 1.087774 1.565378 -0.001202 -0.001414 884319.000000 1 0 0
-1.261746 -6.541575 -10.569109 12.493609 1.380255 2.579162 0.007886 -0.001986 1043370.000000 1 0 0
0.318554 6.863125 -6.527309 9.476799 1.524414 2.330584 0.004787 0.001227 -2434910.000000 1 0 0
1.921154 3.857925 -6.277409 7.614478 1.108769 2.539945 0.000694 0.003385 -2414430.000000 1 0 0
1.531354 -14.795275 6.449791 16.212495 -1.467661 1.161648 0.020968 -0.009647 -702913.000000 1 0 0
-1.698946 5.362325 -10.491509 11.904314 -1.263972 2.649445 0.004137 0.002958 -673434.000000 1 0 0
13.687854 4.314025 -0.845509 14.376476 0.305317 1.629642 0.011366 -0.002256 -1974580.000000 1 0 0
-2.397746 3.275525 -6.176709 7.391210 -0.938903 2.560172 0.004559 -0.003359 -925436.000000 1 0 0
5.758654 7.895225 14.214591 17.249675 0.940620 0.602273 0.010739 -0.001036 863271.000000 1 0 0
15.912954 0.622225 -5.780309 16.941702 0.039082 1.918977 0.031692 -0.005097 154439.000000 1 0 0
6.191154 -8.161175 10.510291 14.676559 -0.921807 0.772558 -0.000006 0.005883 626577.000000 1 0 0
0.070154 -5.907775 -6.431609 8.733402 -1.558922 2.398586 0.005165 -0.003497 -1335480.000000 1 0 0
8.606954 5.491425 -7.631609 12.746641 0.567909 2.212692 0.010644 -0.001072 -389705.000000 1 0 0
-15.954846 -0.550875 5.304691 16.822613 0.034513 1.249991 0.015079 -0.012414 -221435.000000 1 0 0
-0.348846 4.059425 -12.272709 12.931357 -1.485072 2.821054 0.006087 0.001491 642567.000000 1 0 0
-11.400246 3.617525 5.787691 13.287191 -0.307270 1.120109 0.000568 -0.010647 -2896.510000 1 0 0
5.166454 -9.703575 -9.597209 14.593082 -1.081544 2.288498 -0.004819 0.001673 180137.000000 1 0 0
1.531754 11.128525 -11.646009 16.180849 1.434014 2.374224 0.003201 0.000675 -3874900.000000 1 0 0
5.952254 2.405225 1.220791 6.534889 0.384024 1.382881 -0.000213 0.003945 -170322.000000 1 0 0
5.684454 4.582725 4.866291 8.774690 0.678501 0.982935 -0.004072 0.000693 -910077.000000 1 0 0
0.325954 -1.669675 -6.340709 6.564956 -1.378001 2.879469 0.004993 -0.003050 -450291.000000 1 0 0
12.647554 6.719925 -4.614109 15.046861 0.488390 1.882467 0.015198 -0.001374 399656.000000 1 0 0
7.381554 3.178625 12.688991 15.020037 0.406619 0.564597 0.009458 0.003568 -292299.000000 1 0 0
-2.461346 -0.166275 8.670691 9.014808 0.067452 0.277192 0.001809 -0.002417 618309.000000 1 0 0
2.359954 -15.258675 13.341491 20.405684 -1.417349 0.858184 0.018016 -0.008981 673942.000000 1 0 0
18.859154 4.533925 -1.814809 19.481214 0.235932 1.664088 0.019270 -0.002316 198943.000000 1 0 0
-0.452646 -13.294275 7.282591 15.165051 1.536761 1.069889 0.003904 -0.006160 -856485.000000 1 0 0
4.422854 1.590425 -0.611509 4.739730 0.345195 1.700175 0.000272 0.002726 968593.000000 1 0 0
2.745154 -0.591275 -7.256209 7.780620 -0.212147 2.772348 0.002417 0.001761 343563.000000 1 0 0
7.250754 -11.457675 0.912391 13.589857 -1.006587 1.503608 0.007120 0.001194 373440.000000 1 0 0
-11.902146 -7.231675 1.326891 13.989955 0.545985 1.475808 -0.000289 0.001807 256997.000000 1 0 0
0.132554 -7.046675 10.047291 12.272785 -1.551988 0.611715 -0.001024 -0.003293 -406926.000000 1 0 0
-4.716246 -7.155575 10.589491 13.622869 0.988050 0.680383 0.005852 -0.006289 -1093300.000000 1 0 0
11.735854 0.699025 -1.659209 11.873158 0.059493 1.711000 0.006396 -0.000615 273375.000000 1 0 0
6.685354 -9.641675 -7.404609 13.873863 -0.964526 2.133777 -0.001088 -0.001053 -1488300.000000 1 0 0
-10.885046 4.870325 3.549891 12.442106 -0.420717 1.281464 0.000184 -0.009530 -162664.000000 1 0 0
6.035354 -9.097475 2.081991 11.114146 -0.985052 1.382355 0.004451 -0.002821 4096740.000000 1 0 0
11.585754 -1.401775 5.913991 13.083194 -0.120406 1.101757 0.012286 -0.009459 -333535.000000 1 0 0
-6.466446 3.586225 4.178791 8.493422 -0.506360 1.056407 0.001179 -0.006258 -1238770.000000 1 0 0
9.467754 6.309425 -3.197809 11.818342 0.587826 1.844792 0.008091 0.000826 -460946.000000 1 0 0
-2.218446 6.545825 10.922391 12.925477 -1.244035 0.564179 0.002477 -0.002969 -7249.770000 1 0 0
1.919954 9.913525 2.903691 10.506932 1.379494 1.290792 -0.002448 -0.001360 -7224.580000 1 0 0
2.936854 6.167125 -5.643009 8.860141 1.126360 2.261265 0.000667 0.001950 -1974170.000000 1 0 0
11.911954 0.089625 -5.621109 13.171923 0.007524 2.011692 0.018809 -0.002711 435049.000000 1 0 0
-2.755946 -12.473275 6.388091 14.282350 1.353342 1.107084 0.002424 -0.003722 667104.000000 1 0 0
10.720054 1.866725 -2.832309 11.243941 0.172405 1.825436 0.008413 -0.000803 419484.000000 1 0 0
-8.815846 5.410625 0.880391 10.381189 -0.550460 1.485888 -0.000116 -0.006663 1064650.000000 1 0 0
1.211954 -10.159575 5.609191 11.668283 -1.452066 1.069319 0.002388 -0.002020 -803137.000000 1 0 0
9.342054 -5.839175 -1.217009 11.083819 -0.558629 1.680819 0.008416 -0.003143 566696.000000 1 0 0
-7.829646 8.758625 -4.608409 12.619600 -0.841342 1.944621 -0.001886 -0.000726 -80468.500000 1 0 0
-7.509146 0.010125 -1.621709 7.682272 -0.001348 1.783494 -0.001834 -0.003542 -1739690.000000 1 0 0
4.143354 8.909525 2.690191 10.187451 1.135499 1.303558 0.002264 -0.002020 126573.000000 1 0 0
-1.367146 -10.464375 -3.767709 11.205706 1.440885 1.913709 0.009197 -0.000424 -17039.600000 1 0 0
3.134654 7.890425 -3.737809 9.276642 1.192643 1.985509 0.007332 -0.001616 -222317.000000 1 0 0
-4.304146 1.668525 -10.977709 11.908809 -0.369819 2.743531 0.004548 -0.002024 -536092.000000 1 0 0
1.334554 2.818525 10.928791 11.365016 1.128578 0.277961 -0.001974 -0.000616 557868.000000 1 0 0
2.101354 5.581525 -8.038909 10.009654 1.210725 2.503302 0.001278 0.002330 200989.000000 1 0 0
15.377454 6.343125 3.987591 17.105620 0.391231 1.335516 0.013829 -0.009836 -14318.900000 1 0 0
-4.403246 9.107625 4.539691 11.088111 -1.120462 1.148978 0.000253 0.000290 -85522.300000 1 0 0
-0.827846 -8.313175 -12.299009 14.868081 1.471541 2.544918 -0.002120 -0.002703 657396.000000 1 0 0
14.273354 -4.312875 -5.122309 15.766026 -0.293440 1.901697 0.034526 -0.003488 1444400.000000 1 0 0
-6.176746 -6.235775 -5.661909 10.444821 0.790154 2.143704 0.007971 -0.003680 692969.000000 1 0 0
-8.921746 2.550925 -12.195009 15.323936 -0.278492 2.491148 0.006506 -0.008224 -1393510.000000 1 0 0
10.523154 5.486425 13.778891 18.185035 0.480595 0.711007 0.027779 0.005353 597367.000000 1 0 0
-0.352346 10.975925 5.524391 12.292843 -1.538706 1.104704 -0.003609 0.004669 69983.300000 1 0 0
0.251654 11.269825 -0.602809 11.288741 1.548470 1.624221 0.005729 -0.004006 -1428.690000 1 0 0
-1.559546 -0.501775 3.703491 4.049668 0.311284 0.416483 0.001751 -0.002571 549358.000000 1 0 0
-4.852546 6.691325 8.832991 12.097221 -0.943357 0.752230 0.005735 -0.003454 -1806960.000000 1 0 0
3.440354 -8.801575 -11.347909 14.767491 -1.198177 2.447194 -0.001668 0.001355 116169.000000 1 0 0
6.591954 -3.788275 11.928691 14.145620 -0.521595 0.567443 0.007179 -0.003292 -769540.000000 1 0 0
-2.598946 -1.944975 -12.452309 12.868467 0.642458 2.886582 0.007185 -0.005546 794352.000000 1 0 0
-15.892546 -4.789175 5.352391 17.440106 0.292692 1.258861 -0.004617 -0.008164 1234430.000000 1 0 0
-8.861246 7.263225 5.632691 12.767275 -0.686615 1.113881 0.004427 -0.008188 -3698880.000000 1 0 0
-12.970846 1.525925 6.043491 14.390798 -0.117104 1.137400 0.002812 -0.005916 353518.000000 1 0 0
-3.523346 3.585825 10.154291 11.330567 -0.794187 0.459700 0.003542 -0.000570 595004.000000 1 0 0
2.069954 -12.501775 -1.071709 12.717218 -1.406712 1.655169 0.007440 -0.001486 -3011960.000000 1 0 0
10.331354 -5.130175 -3.670909 12.105005 -0.460895 1.878903 0.010925 -0.000245 583645.000000 1 0 0
3.323554 -13.566975 1.003291 14.004121 -1.330554 1.499092 0.015634 -0.000791 373046.000000 1 0 0
10.078754 -1.815675 -6.082209 11.910971 -0.178237 2.106724 0.014257 0.001453 -207939.000000 1 0 0
11.825354 -5.404475 -1.415409 13.078637 -0.428680 1.679232 0.012616 -0.003274 -421368.000000 1 0 0
1.515054 1.066325 5.911791 6.195298 0.613285 0.303694 -0.000256 -0.000813 471290.000000 1 0 0
-10.717646 11.705125 6.473591 17.140165 -0.829409 1.183501 0.005010 -0.014887 -1065890.000000 1 0 0
4.699754 -14.179275 3.249491 15.287208 -1.250740 1.356599 0.016822 -0.004957 -3334510.000000 1 0 0
5.309254 -3.503075 -1.729109 6.591626 -0.583237 1.836221 0.004992 0.000077 -1154780.000000 1 0 0
1.971554 -3.051775 -7.687909 8.503193 -0.997213 2.700112 0.003034 -0.000311 -429600.000000 1 0 0
-2.858646 14.737125 -8.843709 17.423143 -1.379200 2.103175 0.005630 -0.004101 -2450150.000000 1 0 0
-2.334146 6.225625 -8.098409 10.478114 -1.212091 2.454176 0.006686 -0.001798 -607626.000000 1 0 0
2.511354 -3.637775 -11.378109 12.206624 -0.966573 2.771036 0.007492 0.002524 -1780950.000000 1 0 0
14.620354 2.800325 -2.673309 15.124258 0.189244 1.748486 0.019399 0.001396 750338.000000 1 0 0
-3.415446 13.112525 2.174291 13.723379 -1.315986 1.411689 -0.002978 0.000081 -723931.000000 1 0 0
7.858654 -4.951375 13.919791 16.734251 -0.562225 0.588428 0.023248 -0.010927 -1914110.000000 1 0 0
-11.568346 7.289625 2.889991 13.975597 -0.562284 1.362505 0.004248 -0.009631 945518.000000 1 0 0
-2.273846 11.919025 4.117791 12.813654 -1.382287 1.243631 -0.003255 0.000795 523106.000000 1 0 0
1.801254 1.464425 0.754091 2.440843 0.682619 1.256711 -0.003024 0.000987 -1497700.000000 1 0 0
-6.776346 8.554925 5.301091 12.132896 -0.900892 1.118626 -0.001493 -0.005757 -1153440.000000 1 0 0
-1.113646 9.126525 0.989591 9.247322 -1.449374 1.463577 -0.000896 -0.001440 253325.000000 1 0 0
4.891654 13.020325 -8.435809 16.267145 1.211418 2.115985 0.016959 -0.018847 -1878410.000000 1 0 0
8.952554 6.884925 7.127991 13.355100 0.655579 1.007793 -0.003018 0.001561 -1453750.000000 1 0 0
7.187354 -13.745275 2.937491 15.786687 -1.089000 1.383632 0.025273 -0.008195 -740266.000000 1 0 0
4.238854 -13.407575 -1.357709 14.127078 -1.264586 1.667052 0.009042 0.005963 -2857880.000000 1 0 0
12.198254 -11.856675 -4.545909 17.608050 -0.771199 1.831926 0.037443 -0.005695 -1309410.000000 1 0 0
2.973254 -0.023575 -1.970909 3.567251 -0.007929 2.156158 0.002848 0.001819 475964.000000 1 0 0
-13.652046 -3.131575 -10.616409 17.575359 0.225484 2.219371 0.022852 -0.006566 17682.100000 1 0 0
-6.578046 13.677725 4.953691 15.965272 -1.122520 1.255310 0.004317 -0.005295 -51489.600000 1 0 0
7.338754 -4.352675 -0.469209 8.545364 -0.535337 1.625732 0.004113 0.001275 -1571970.000000 1 0 0
11.769854 2.092825 -7.344209 14.030210 0.175973 2.121699 0.020237 -0.001724 354129.000000 1 0 0
-7.456646 -4.543375 9.676991 13.034108 0.547234 0.734097 0.011112 -0.006051 354213.000000 1 0 0
1.045354 2.775725 8.416591 8.923924 1.210618 0.338815 -0.002493 -0.000527 -1309860.000000 1 0 0
1.643154 8.051225 -8.628509 11.915257 1.369474 2.380607 0.002632 0.000162 -955717.000000 1 0 0
-8.638646 -2.169075 -5.546509 10.492609 0.246004 2.127760 0.007191 -0.003413 -1290500.000000 1 0 0
6.678854 -0.550375 7.178191 9.820206 -0.082220 0.751067 0.001659 -0.001876 -55531.900000 1 0 0
-10.818146 6.482125 7.072591 14.459314 -0.539824 1.059696 0.000215 -0.010188 354867.000000 1 0 0
-6.004046 11.063625 4.671491 13.426660 -1.073588 1.215438 -0.001140 -0.002948 -793237.000000 1 0 0
5.978754 -1.307275 -6.971209 9.276434 -0.215265 2.421124 0.005499 0.002299 -720791.000000 1 0 0
4.441954 -5.833475 11.399791 13.554174 -0.920001 0.571568 0.002269 -0.002128 -1334430.000000 1 0 0
-8.941246 -7.252475 2.758091 11.838553 0.681488 1.335660 0.005981 -0.002370 -2604640.000000 1 0 0
-1.151146 12.806425 -9.429509 15.945071 -1.481149 2.203559 0.014594 0.002458 716687.000000 1 0 0
-4.755246 9.217325 -2.356009 10.635893 -1.094507 1.794164 -0.001141 -0.003187 236552.000000 1 0 0
-3.243946 9.630125 -0.222709 10.164256 -1.245881 1.592709 0.001004 -0.003272 -1189350.000000 1 0 0
-3.514746 10.641425 -6.484009 12.947422 -1.251788 2.095314 0.005819 0.003198 438833.000000 1 0 0
4.905654 -4.917875 0.347991 6.955001 -0.786642 1.520741 0.004281 -0.001769 -1213450.000000 1 0 0
-2.254846 2.914825 -10.935309 11.539563 -0.912375 2.816547 0.006113 0.000513 -1649600.000000 1 0 0
-3.659346 12.085425 -2.351009 12.844281 -1.276782 1.754873 0.001012 0.001710 -1097210.000000 1 0 0
-0.173746 0.374525 0.090091 0.422579 -1.136436 1.355953 -0.002721 -0.000928 -2076780.000000 1 0 0
-4.752646 -1.548275 0.046391 4.998694 0.314929 1.561516 0.000074 -0.001612 -20517.900000 1 0 0
2.486854 2.414625 -2.461609 4.251397 0.770663 2.188312 -0.001832 0.002144 2109720.000000 1 0 0
6.041754 -9.688175 8.435391 14.195751 -1.013189 0.934502 0.003110 0.000831 -751976.000000 1 0 0
-4.200246 -5.405375 6.591891 9.503324 0.910207 0.804265 0.003854 -0.004864 -15645.100000 1 0 0
-6.239546 5.376525 -12.005509 14.559230 -0.711239 2.540287 -0.001390 -0.000607 10198.300000 1 0 0
-12.908846 3.091825 8.002891 15.499805 -0.235084 1.028246 0.004021 -0.008817 629508.000000 1 0 0
4.678654 -7.582975 -4.767009 10.105231 -1.017974 2.062056 0.000636 -0.003707 2808000.000000 1 0 0
-5.861446 2.560025 -1.091509 6.488580 -0.411786 1.739820 -0.000004 -0.005773 -899878.000000 1 0 0
-6.993846 -2.764275 -14.559409 16.386930 0.376400 2.664812 0.014757 -0.003870 -593100.000000 1 0 0
2.634454 -6.143275 0.919491 6.747269 -1.165681 1.434095 0.003647 -0.000706 232011.000000 1 0 0
4.787054 -7.983975 13.027691 16.011886 -1.030684 0.620434 0.004806 -0.002116 57592.700000 1 0 0
-10.048346 -1.610275 8.009991 12.950760 0.158902 0.903969 0.006150 -0.003126 -115477.000000 1 0 0
-4.430346 13.232025 -0.165109 13.954989 -1.247708 1.582628 -0.002042 0.002831 387419.000000 1 0 0
6.815154 2.264325 -4.554709 8.504050 0.320774 2.136006 0.003518 0.003849 -1375680.000000 1 0 0
5.028054 4.731725 0.247491 6.908821 0.755045 1.534966 -0.002190 0.005556 -573969.000000 1 0 0
-5.827846 12.216425 1.832691 13.658828 -1.125677 1.436214 -0.002693 -0.001938 -1938320.000000 1 0 0
6.555154 -7.311175 6.484691 11.767521 -0.839866 0.987154 0.002118 -0.003145 -760853.000000 1 0 0
-0.279646 4.958125 7.915691 9.344484 -1.514455 0.560296 -0.003120 -0.000479 -1051670.000000 1 0 0
-5.783946 -3.371875 -1.578209 6.878540 0.527804 1.802298 0.001339 -0.002091 -764332.000000 1 0 0
2.301254 -6.559675 -5.151009 8.652052 -1.233393 2.208499 0.002277 -0.001542 -990580.000000 1 0 0
-14.393846 -4.861775 -3.708709 15.638867 0.325736 1.810224 0.006283 -0.003048 -3601.970000 1 0 0
-12.336946 -5.116075 -6.213409 14.730271 0.393110 2.006239 0.014185 -0.008899 -1493350.000000 1 0 0
-14.860546 -3.861575 -1.306809 15.409585 0.254231 1.655703 0.005455 -0.002318 401710.000000 1 0 0
11.990254 2.867925 8.635291 15.051892 0.234777 0.959779 0.017443 -0.000215 -1226480.000000 1 0 0
8.674354 -6.406975 7.601391 13.193745 -0.636172 0.956803 0.008541 -0.005200 -250509.000000 1 0 0
-9.009846 -1.605475 -9.686909 13.326330 0.176340 2.384593 0.010114 -0.007396 -143579.000000 1 0 0
-8.868346 5.123025 -3.732709 10.900736 -0.523843 1.920295 -0.003001 -0.002554 -588172.000000 1 0 0
-4.147546 -6.158975 4.132691 8.497896 0.978136 1.062924 0.001766 -0.002480 -1356510.000000 1 0 0
-0.181646 -9.364475 3.654491 10.053939 1.551401 1.198787 0.001891 -0.001453 -41729.500000 1 0 0
7.934454 -10.485675 3.347191 13.568664 -0.923024 1.321538 0.007348 -0.003945 -310139.000000 1 0 0
0.041554 6.589825 9.649291 11.684877 1.564491 0.599189 -0.002276 -0.003365 814519.000000 1 0 0
-0.031246 3.466925 -9.711209 10.311553 -1.561784 2.798680 0.009204 0.000176 64497.100000 1 0 0
4.441554 -3.127875 10.936191 12.211113 -0.613559 0.461033 0.002347 -0.001133 -2378230.000000 1 0 0
8.565954 -9.260575 1.237691 12.675397 -0.824344 1.472995 0.006501 -0.004084 258567.000000 1 0 0
-0.281746 -0.404875 11.309691 11.320443 0.962839 0.043586 0.002510 0.000122 -1149590.000000 1 0 0
10.732654 6.021425 11.306691 16.711933 0.511278 0.827710 0.018416 0.004521 -47349.200000 1 0 0
-6.434646 -2.880775 -11.845109 13.784416 0.420938 2.604719 0.011663 -0.005328 1264680.000000 1 0 0
-1.677646 2.820425 8.423191 9.039881 -1.034194 0.371507 0.002359 -0.000757 475094.000000 1 0 0
-1.623046 13.595225 -6.845409 15.307647 -1.451975 2.034416 0.014375 0.003449 877770.000000 1 0 0
7.738654 3.110125 9.729591 12.815015 0.382139 0.708661 0.001779 0.001137 -58872.100000 1 0 0
6.458854 8.369125 -7.936609 13.219259 0.913521 2.214775 0.006732 -0.002692 -162481.000000 1 0 0
6.559454 -2.982475 -3.962309 8.223229 -0.426742 2.073554 0.006050 0.000254 -2290790.000000 1 0 0
1.967954 8.264325 1.034391 8.558147 1.337024 1.449634 0.001591 0.001471 923614.000000 1 0 0
-17.621746 6.529325 6.516791 19.890364 -0.354843 1.236996 0.031293 -0.012713 -53228.600000 1 0 0
-14.854846 2.970525 -10.204609 18.265391 -0.197367 2.163596 0.044673 -0.009833 325618.000000 1 0 0
-18.227146 0.111025 -4.252109 18.716880 -0.006091 1.799978 0.035412 -0.010033 170263.000000 1 0 0
-13.049846 7.862325 0.214091 15.236813 -0.542244 1.556745 0.008863 -0.006537 -555732.000000 1 0 0
-12.839646 -4.373475 -12.673709 18.563585 0.328297 2.322273 0.042108 -0.003104 -1111080.000000 1 0 0
-17.437246 -0.521775 -8.525209 19.416719 0.029914 2.025354 0.034052 -0.020993 -673949.000000 1 0 0
-16.738746 -2.164475 -2.067009 17.004208 0.128596 1.692656 0.028090 -0.007815 -722384.000000 1 0 0
-15.255846 4.113725 1.676691 15.889457 -0.263385 1.465077 0.011169 -0.006929 -163951.000000 1 0 0
-13.121946 5.876325 4.435391 15.046240 -0.421043 1.271567 0.003678 -0.009927 -196925.000000 1 0 0
-9.989846 14.305625 2.707791 17.657295 -0.961202 1.416836 0.013945 -0.003963 219897.000000 1 0 0
-11.781346 2.379425 -6.480009 13.654753 -0.199285 2.065261 0.001264 0.002027 -15553.200000 1 0 0
-15.975346 10.739925 3.819191 19.625083 -0.591880 1.374939 0.023879 -0.013873 -533055.000000 1 0 0
-12.903546 1.136425 -8.517709 15.503042 -0.087844 2.152468 0.009860 -0.003518 615705.000000 1 0 0
-12.256346 14.410425 3.985091 19.332856 -0.866001 1.363177 0.024994 -0.013521 -281975.000000 1 0 0
-10.425246 11.106125 -0.934709 15.261240 -0.817010 1.632082 0.009652 -0.004478 -418758.000000 1 0 0
-16.755646 5.537725 8.773891 19.707847 -0.319198 1.109401 0.014554 -0.019566 -71266.600000 1 0 0
-11.796746 12.495825 -9.277309 19.528884 -0.814168 2.065824 0.016500 -0.008777 -1459770.000000 1 0 0
-17.250146 -0.416775 3.087391 17.529210 0.024156 1.393744 0.034036 -0.008796 975408.000000 1 0 0
-13.278646 14.859525 -0.601809 19.937154 -0.841522 1.600986 0.043182 -0.012612 -51657.500000 1 0 0
-16.690646 4.906525 -9.987609 20.060009 -0.285914 2.091956 0.080927 -0.030430 175329.000000 1 0 0
-11.698346 7.529925 -9.120009 16.635072 -0.571916 2.151054 0.001028 -0.002659 -666640.000000 1 0 0
-14.858546 13.514125 -1.948309 20.179293 -0.738049 1.667497 0.041608 -0.011912 199537.000000 1 0 0
-11.928846 10.707325 -5.490009 16.943564 -0.731487 1.900769 0.012511 -0.004540 176072.000000 1 0 0
-17.673846 2.744825 -0.766509 17.902134 -0.154074 1.613626 0.028753 -0.010776 403117.000000 1 0 0
-9.572746 15.344625 0.439291 18.091102 -1.013024 1.546512 0.019500 -0.006860 113655.000000 1 0 0
-8.180546 13.220625 -3.582909 15.954419 -1.016689 1.797300 0.006321 0.001576 -1457420.000000 1 0 0
-17.889846 11.621725 2.268691 21.453625 -0.576113 1.464850 0.063621 -0.016954 -109481.000000 1 0 0
-8.400946 15.813125 -7.232909 19.311804 -1.082451 1.954689 0.049467 -0.020032 326877.000000 1 0 0
-6.351746 15.364125 -5.471009 17.502370 -1.178780 1.888711 0.013777 0.002289 -79275.600000 1 0 0
-17.445346 5.293025 -0.231309 18.232106 -0.294579 1.583484 0.033537 -0.003939 644514.000000 1 0 0
-5.371446 12.196825 -12.325209 18.152844 -1.155957 2.317153 -0.006467 -0.003968 -1518600.000000 1 0 0
-11.116146 3.592525 -11.299909 16.253088 -0.312586 2.339560 0.004374 -0.009259 168870.000000 1 0 0
-11.872646 11.002225 1.252191 16.235044 -0.747365 1.493591 0.010701 -0.011219 282518.000000 1 0 0
-13.034046 0.245925 -10.989109 17.050142 -0.018866 2.271188 0.018648 -0.007891 1078070.000000 1 0 0
-14.218646 -2.159575 -13.062509 19.428401 0.150731 2.308163 0.044669 -0.005566 112242.000000 1 0 0
-18.771346 -2.360075 -3.628309 19.263904 0.125071 1.760276 0.036643 -0.009142 127216.000000 1 0 0
-18.270746 4.713225 -5.149309 19.558886 -0.252462 1.837209 0.054607 -0.014680 352709.000000 1 0 0
-8.370246 15.610025 -2.217909 17.850855 -1.078602 1.695365 0.019960 0.004442 -8075.280000 1 0 0
-15.976946 9.222325 -5.114109 19.143359 -0.523506 1.841229 0.033679 -0.006915 -100760.000000 1 0 0
-18.239646 1.784825 2.085491 18.445041 -0.097544 1.457489 0.045220 -0.012735 53369.900000 1 0 0
-15.794846 -2.644975 -8.641609 18.197539 0.165919 2.065622 0.014051 -0.008315 -199178.000000 1 0 0
-9.615046 10.705825 -7.057709 16.027322 -0.839025 2.026790 0.006178 -0.001025 765486.000000 1 0 0
-13.838846 11.918225 -7.697009 19.819225 -0.710969 1.969648 0.037472 -0.018983 329876.000000 1 0 0
-11.012946 6.629225 -3.800309 13.404251 -0.541851 1.858254 -0.002081 0.000411 -678937.000000 1 0 0
-13.092546 4.741625 -12.507709 18.717386 -0.347468 2.302637 0.046511 -0.023981 -599338.000000 1 0 0
-17.568546 9.088125 2.634791 19.954697 -0.477388 1.438371 0.024595 -0.024105 569855.000000 1 0 0
-13.318446 8.720925 -6.599109 17.233217 -0.579743 1.963762 0.013987 -0.003772 -297381.000000 1 0 0
-15.740346 6.934425 -3.700909 17.593790 -0.414968 1.782732 0.020565 -0.004030 -1228120.000000 1 0 0
-14.998646 -0.314375 -9.347209 17.675647 0.020957 2.128004 0.023386 -0.011378 272936.000000 1 0 0
-9.889746 5.917725 -6.010209 12.998044 -0.539220 2.051489 -0.003943 0.001460 162930.000000 1 0 0
-12.747246 12.205825 -0.862409 17.669697 -0.763704 1.619623 0.017591 -0.009398 -639931.000000 1 0 0
-10.749746 3.369125 -13.927709 17.913378 -0.303718 2.461482 0.015223 -0.009422 204073.000000 1 0 0
-10.983146 6.201025 -11.883809 17.329371 -0.513979 2.326445 0.002372 -0.008323 38930.500000 1 0 0
-5.766346 11.576825 -14.833909 19.680408 -1.108675 2.424531 0.005801 -0.010568 -252175.000000 1 0 0
-15.513846 13.356525 3.408291 20.753135 -0.710812 1.405819 0.018048 -0.020716 186281.000000 1 0 0
-15.046046 11.071425 -2.779109 18.886063 -0.634374 1.718484 0.031099 -0.004078 715655.000000 1 0 0
-18.082846 7.829325 -4.507009 20.213876 -0.408602 1.795652 0.041373 -0.012012 303925.000000 1 0 0
-3.975246 16.111525 -10.728509 19.760686 -1.328895 2.144709 0.012416 -0.006472 -225058.000000 1 0 0
-15.700146 4.438725 -4.497209 16.923999 -0.275528 1.839757 0.023149 -0.002238 142669.000000 1 0 0
-18.726946 -1.713575 -6.145709 19.783947 0.091249 1.886664 0.030359 -0.012315 441836.000000 1 0 0
-10.833646 8.727125 -5.770509 15.060855 -0.678121 1.963996 0.000474 0.003890 43515.600000 1 0 0
-11.259746 13.769825 -6.999509 19.114996 -0.885349 1.945696 0.020624 0.000719 188488.000000 1 0 0
-9.592046 10.615025 -4.383609 14.963359 -0.835980 1.868114 -0.006064 0.001262 -57368.600000 1 0 0
-11.042146 6.246025 -0.206409 12.687963 -0.514782 1.587065 0.002328 -0.005203 -1818120.000000 1 0 0
-14.824146 9.100325 -1.156309 17.432965 -0.550567 1.637174 0.024782 -0.006441 -598809.000000 1 0 0
-18.683946 3.699525 4.709491 19.620286 -0.195477 1.328398 0.040641 -0.016397 464265.000000 1 0 0
-14.753146 13.055825 0.497491 19.706785 -0.724439 1.545549 0.021820 -0.018198 -508038.000000 1 0 0
-16.967446 2.673825 -8.620309 19.218566 -0.156300 2.035928 0.056291 -0.024183 654599.000000 1 0 0
-9.153946 8.541325 -8.770509 15.286294 -0.750791 2.181873 -0.000778 0.003231 -2598270.000000 1 0 0
-17.618346 4.662625 -2.662109 18.418279 -0.258715 1.715841 0.024750 -0.007913 1135050.000000 1 0 0
-13.480346 5.850825 -4.366009 15.330163 -0.409491 1.859593 0.013808 -0.001206 -386489.000000 1 0 0
-12.134146 9.698425 3.426991 15.907269 -0.674294 1.353658 0.007555 -0.009847 794664.000000 1 0 0
-17.415646 2.495225 -3.942509 18.029815 -0.142306 1.791244 0.022651 -0.005076 978954.000000 1 0 0
-11.241346 1.363225 -12.590509 16.933610 -0.120680 2.409118 0.013339 -0.005615 -65569.900000 1 0 0
-11.140146 12.094425 3.531191 16.818064 -0.826447 1.359258 0.009055 -0.010979 51840.800000 1 0 0
-16.856346 12.867525 -3.523209 21.497037 -0.651999 1.735432 0.077214 -0.013566 545631.000000 1 0 0
-11.049146 4.121425 -4.552909 12.641153 -0.357024 1.939242 -0.002912 -0.000094 -1569.640000 1 0 0
-11.202546 15.143025 -9.300909 21.007502 -0.933867 2.029451 0.041905 -0.009967 164055.000000 1 0 0
-15.437946 6.908625 -0.043509 16.913343 -0.420781 1.573369 0.017645 -0.002208 -769940.000000 1 0 0
-12.819846 8.443325 -4.033909 15.871692 -0.582407 1.827773 0.008576 0.000200 633352.000000 1 0 0
-19.312046 1.906925 -5.714109 20.229743 -0.098424 1.857155 0.065003 -0.015989 741853.000000 1 0 0
-12.549546 10.020125 -8.951009 18.385172 -0.673792 2.079288 0.012210 -0.009585 578462.000000 1 0 0
-16.808146 10.818525 -0.799409 20.004832 -0.571897 1.610768 0.036030 -0.017735 543431.000000 1 0 0
-10.800646 6.290125 -14.459409 19.112669 -0.527366 2.428795 0.022343 -0.017720 324786.000000 1 0 0
-14.391646 12.858425 -4.460609 19.807968 -0.729193 1.797937 0.041591 -0.003745 422131.000000 1 0 0
-17.911846 7.732425 -0.262009 19.511362 -0.407526 1.584225 0.034257 -0.008120 -514172.000000 1 0 0
-12.772246 6.739725 -2.072109 14.589304 -0.485550 1.713308 0.002581 -0.000317 137966.000000 1 0 0
-13.604946 8.214325 -10.642509 19.126753 -0.543191 2.160867 0.024508 -0.012073 -1205380.000000 1 0 0
-14.888846 1.405025 -0.938809 14.984431 -0.094089 1.633490 0.006373 -0.005375 -922043.000000 1 0 0
-13.287846 2.885525 -2.432809 13.813459 -0.213835 1.747838 0.007372 -0.003754 250942.000000 1 0 0
-11.239746 9.135325 -11.022909 18.201389 -0.682479 2.221326 0.007637 -0.009414 -225247.000000 1 0 0
-15.027846 4.308525 -8.010409 17.566052 -0.279213 2.044310 0.013007 -0.011422 569334.000000 1 0 0
-18.477046 10.560125 4.602091 21.773762 -0.519220 1.357831 0.069084 -0.039732 810209.000000 1 0 0
-15.311446 6.238425 -6.223909 17.666221 -0.386900 1.930830 0.030008 -0.002481 780105.000000 1 0 0
-7.717446 11.357425 -13.151009 19.013130 -0.973957 2.334610 0.000416 -0.003741 -975239.000000 1 0 0
-16.816046 9.129325 -2.693309 19.322988 -0.497371 1.710635 0.037499 -0.011072 304794.000000 1 0 0
-20.626546 -0.759475 -4.469709 21.118936 0.036804 1.784054 0.066533 -0.022975 1360580.000000 1 0 0
-15.352946 4.369125 4.127891 16.487622 -0.277250 1.317741 0.012138 -0.011087 -481562.000000 1 0 0
-7.031146 12.690825 -9.477709 17.329772 -1.064861 2.149457 0.004776 -0.002801 -1175140.000000 1 0 0
-17.267046 1.647025 5.658491 18.245056 -0.095098 1.255458 0.028486 -0.017295 -185030.000000 1 0 0
-10.457946 14.192625 -3.035509 17.888922 -0.935759 1.741308 0.028668 -0.010554 1013420.000000 1 0 0
-10.029446 8.343425 -13.110609 18.495691 -0.693888 2.358658 -0.004539 -0.004045 43007.800000 1 0 0
-13.667746 11.641025 2.872791 18.181685 -0.705489 1.412127 0.021946 -0.017734 -1916550.000000 1 0 0
-17.213146 6.557125 1.960691 18.523838 -0.363966 1.464751 0.035228 -0.004903 925050.000000 1 0 0
-9.456846 13.376325 -8.603509 18.503469 -0.955399 2.054394 0.026502 -0.011611 -1203250.000000 1 0 0
-5.584846 9.725325 -13.084709 17.233167 -1.049520 2.432994 -0.001555 -0.001519 74105.800000 1 0 0
-15.883746 1.833425 3.098391 16.286646 -0.114919 1.379388 0.005537 -0.008435 -744851.000000 1 0 0
-18.540746 -4.790575 4.849291 19.754100 0.252851 1.322779 0.044921 -0.005589 487173.000000 1 0 0
-5.334846 14.462625 -9.180509 17.941846 -1.217410 2.107937 -0.001465 -0.001939 -1222850.000000 1 0 0
-15.383546 -0.825075 -6.819609 16.847590 0.053582 1.987537 0.009516 -0.006933 350103.000000 1 0 0
-9.061646 11.015625 -9.548209 17.164665 -0.882416 2.160688 0.004594 -0.007423 497372.000000 1 0 0
-16.804846 1.168925 -6.047209 17.897987 -0.069447 1.915450 0.016671 -0.005794 -645974.000000 1 0 0
-11.272746 8.692725 -1.433309 14.307083 -0.656886 1.671146 0.001925 -0.003733 -1387320.000000 1 0 0
-10.740246 10.897025 -12.889409 20.005871 -0.792644 2.270879 0.012762 -0.005605 -170389.000000 1 0 0
-13.996246 11.555725 -10.380009 20.908712 -0.690175 2.090294 0.044995 -0.025559 -32452.700000 1 0 0
-13.028246 5.852525 -7.558309 16.159061 -0.422204 2.057533 0.010760 -0.002435 -1233890.000000 1 0 0
-8.911746 15.301225 -4.828109 18.353674 -1.043403 1.836988 0.026989 -0.012945 123379.000000 1 0 0
-8.569546 6.137225 -12.993809 16.731459 -0.621494 2.460062 -0.003588 -0.002890 318349.000000 1 0 0
-16.554946 7.365925 4.291891 18.621047 -0.418636 1.338219 0.030933 -0.012900 -414581.000000 1 0 0
-12.561446 5.277325 -10.037809 16.923288 -0.397731 2.205745 0.013324 -0.009196 -173476.000000 1 0 0
-12.499946 8.982025 -13.300209 20.342590 -0.623077 2.283406 0.040766 -0.022109 -1065990.000000 1 0 0
-10.655446 5.185125 -8.481009 14.572287 -0.452884 2.191977 -0.004687 0.000199 -1606510.000000 1 0 0
-17.858246 -4.398475 -2.577409 18.571660 0.241493 1.710028 0.034430 -0.004996 736805.000000 1 0 0
-8.927946 13.117225 -11.139209 19.386897 -0.973191 2.182880 0.033681 -0.013089 199253.000000 1 0 0
-15.063846 6.287625 6.035091 17.403333 -0.395414 1.216663 0.016188 -0.014285 -632888.000000 1 0 0
-16.303946 -3.167475 -4.351309 17.169316 0.191886 1.827026 0.004347 -0.002870 149175.000000 1 0 0
-11.256546 -1.173175 -12.450809 16.825837 0.103847 2.403839 0.018601 -0.006126 745233.000000 1 0 0
-15.142546 6.869725 -8.679609 18.757010 -0.425902 2.051879 0.023802 -0.002411 -915248.000000 1 0 0
-14.870946 9.037425 1.495391 17.465860 -0.546079 1.485073 0.021893 -0.014236 -495380.000000 1 0 0
-19.236846 5.267125 8.154191 21.547382 -0.267254 1.182696 0.053585 -0.029118 -613786.000000 1 0 0
-16.347846 0.593425 0.890891 16.382854 -0.036284 1.516390 0.026116 -0.009574 -815988.000000 1 0 0
-17.413246 3.875825 6.915591 19.132918 -0.219009 1.200974 0.017614 -0.016679 43340.700000 1 0 0
-15.395946 4.026725 -1.381909 15.973707 -0.255814 1.657416 0.013059 -0.005473 -295187.000000 1 0 0
-10.843246 13.249925 0.476591 17.127861 -0.884958 1.542967 0.020282 -0.013644 -1256610.000000 1 0 0
-13.347646 3.389025 0.051491 13.771267 -0.248650 1.567057 0.007955 -0.004987 -971420.000000 1 0 0
-15.089546 0.097325 -4.275009 15.683735 -0.006450 1.846866 0.011205 -0.004170 212758.000000 1 0 0
-19.096746 7.172325 3.586391 20.712077 -0.359278 1.396765 0.055312 -0.013989 -10891.200000 1 0 0
-14.219446 1.420425 -6.310209 15.621427 -0.099563 1.986622 0.012516 -0.002324 -619802.000000 1 0 0
-14.317246 12.101625 5.384891 19.504612 -0.701729 1.291080 0.020241 -0.018439 479886.000000 1 0 0
17.739954 5.607025 6.098291 19.578914 0.306132 1.254054 0.048711 -0.012685 330666.000000 1 0 0
18.521354 7.454425 -0.217109 19.966376 0.382640 1.581670 0.039196 -0.003113 474263.000000 1 0 0
16.700654 5.331025 8.467391 19.468652 0.308987 1.120842 0.059450 -0.010002 429228.000000 1 0 0
11.670354 12.331925 10.846591 20.147508 0.812954 1.002308 0.022664 -0.007641 466711.000000 1 0 0
-2.311046 16.309425 -0.609209 16.483611 -1.430033 1.607763 -0.002526 0.002665 -34943.200000 1 0 0
15.105154 12.632825 3.313291 19.968271 0.696502 1.404098 0.047771 -0.010987 333544.000000 1 0 0
13.515554 11.799125 6.562591 19.103852 0.717698 1.220132 0.031453 -0.004288 674757.000000 1 0 0
-0.668446 15.898125 8.541491 18.059742 -1.528776 1.078152 -0.002644 -0.001480 -11577.300000 1 0 0
0.800754 12.984425 9.317491 16.001630 1.509204 0.949261 -0.002771 -0.000288 -1098030.000000 1 0 0
0.743954 15.538425 -3.981209 16.057589 1.522954 1.821343 0.008666 0.000533 1225100.000000 1 0 0
5.491454 10.247925 13.416691 17.753412 1.078874 0.714036 0.010742 -0.009394 -101710.000000 1 0 0
-1.362546 16.411825 -2.824209 16.708701 -1.487964 1.740638 -0.001024 0.001474 -280218.000000 1 0 0
8.636854 10.072925 3.384591 13.693595 0.862003 1.321042 0.010707 -0.000859 589526.000000 1 0 0
12.571754 13.517725 -5.086309 19.148066 0.821641 1.839654 0.056455 -0.009792 263806.000000 1 0 0
2.480254 11.625025 7.718791 14.172954 1.360593 0.994867 0.001576 0.002699 371268.000000 1 0 0
-0.370746 15.018225 -8.753509 17.387020 -1.546115 2.098384 0.016870 -0.001750 -1015600.000000 1 0 0
2.349154 15.897925 0.251391 16.072515 1.424093 1.555155 0.011467 -0.011676 -693395.000000 1 0 0
1.816954 13.319025 5.178891 14.405508 1.435215 1.203056 0.003259 0.002451 -281696.000000 1 0 0
17.558854 9.236525 -1.884709 19.929348 0.484256 1.665507 0.032198 -0.000565 455934.000000 1 0 0
-7.161646 14.854825 7.167491 17.981322 -1.121564 1.160798 0.011927 -0.015231 -1821930.000000 1 0 0
8.527154 15.920125 -0.197609 18.061058 1.079060 1.581738 0.013529 -0.006128 -1341060.000000 1 0 0
15.718754 10.454525 1.960391 18.979449 0.586916 1.467322 0.039123 -0.002524 518921.000000 1 0 0
14.109154 7.512725 8.593091 18.148016 0.489286 1.077536 0.035360 -0.010768 -902338.000000 1 0 0
4.046554 18.685325 -1.988909 19.221648 1.357526 1.674454 0.027062 -0.016090 -509191.000000 1 0 0
-0.470146 17.633125 -4.877309 18.301264 -1.544140 1.840557 0.015881 -0.002333 368508.000000 1 0 0
1.395354 13.734025 -0.866409 13.831888 1.469545 1.633476 0.005789 -0.005078 -260116.000000 1 0 0
10.258354 14.703625 4.200191 18.413909 0.961632 1.340672 0.018094 -0.010655 -242012.000000 1 0 0
-1.780946 15.395725 -5.139409 16.328308 -1.455630 1.890994 0.006856 0.002986 528536.000000 1 0 0
15.098354 8.686625 -6.344309 18.538285 0.522087 1.920083 0.053460 -0.006410 -9398.300000 1 0 0
-2.493946 18.567425 0.770791 18.750018 -1.437277 1.529676 0.000895 -0.001144 213202.000000 1 0 0
-3.667146 19.474125 3.395391 20.105178 -1.384667 1.401102 -0.003149 -0.006468 394789.000000 1 0 0
1.735154 17.646425 -2.730109 17.940473 1.472782 1.723566 0.012097 -0.011140 -475318.000000 1 0 0
2.859154 12.299625 3.163691 13.017853 1.342394 1.325311 0.001531 0.000437 124105.000000 1 0 0
-2.583946 16.207125 1.878391 16.518960 -1.412694 1.456839 -0.000141 -0.000843 -977114.000000 1 0 0
11.832054 12.811125 -2.740809 17.653172 0.825107 1.726686 0.024515 0.004880 514560.000000 1 0 0
7.283554 11.657725 4.733391 14.538147 1.012353 1.239167 0.002746 -0.000987 125044.000000 1 0 0
7.119054 15.790125 1.875591 17.422022 1.147232 1.462931 0.009505 -0.011204 -2286690.000000 1 0 0
5.636754 12.265325 10.361591 17.016867 1.140014 0.916122 0.003824 0.007754 959285.000000 1 0 0
-1.363546 14.231325 3.182791 14.646502 -1.475275 1.351741 -0.001959 -0.000219 -1374230.000000 1 0 0
4.666254 16.043225 1.544891 16.779323 1.287750 1.478595 0.014839 -0.015503 -1839550.000000 1 0 0
7.745354 13.126525 11.829791 19.293526 1.037722 0.910757 0.025522 -0.000016 556288.000000 1 0 0
0.646054 17.262725 -9.414109 19.673447 1.533389 2.069763 0.027727 -0.007021 191659.000000 1 0 0
9.867154 9.650125 15.444891 20.713047 0.774279 0.729271 0.034337 -0.003941 71326.500000 1 0 0
13.585654 7.448825 -0.135809 15.494304 0.501526 1.579562 0.011108 0.002259 591835.000000 1 0 0
12.368554 13.698025 -0.213909 18.457053 0.836357 1.582386 0.031037 -0.000602 616965.000000 1 0 0
9.443154 12.425025 3.341791 15.960012 0.920919 1.359850 0.013477 0.002234 -60077.200000 1 0 0
-0.646046 13.040825 0.704091 13.075788 -1.521297 1.516923 0.002910 -0.005364 -297265.000000 1 0 0
16.017454 7.332625 -0.997609 17.644304 0.429313 1.627366 0.025809 0.001830 -2581240.000000 1 0 0
-4.316346 18.447925 -2.259209 19.080378 -1.340956 1.689480 0.009763 0.000153 -167362.000000 1 0 0
11.610754 9.202125 -3.286409 15.175283 0.670183 1.789089 0.016803 0.002321 283064.000000 1 0 0
14.792354 9.827625 7.668891 19.344453 0.586412 1.163162 0.043586 -0.010526 1449230.000000 1 0 0
4.448454 13.740925 4.634491 15.168397 1.257707 1.260295 0.008545 -0.000395 224710.000000 1 0 0
2.234654 15.929025 5.553191 17.016623 1.431418 1.238368 0.006225 -0.002176 239456.000000 1 0 0
6.011554 18.296625 5.549991 20.042647 1.253347 1.290220 0.031123 -0.014216 -477353.000000 1 0 0
10.740854 17.058125 -0.760509 20.172356 1.008852 1.608506 0.033424 -0.010038 -1719020.000000 1 0 0
9.974954 13.612925 -4.554309 17.480079 0.938423 1.834381 0.037497 -0.003324 1239450.000000 1 0 0
16.621654 7.926425 2.153291 18.540342 0.444976 1.454393 0.019561 -0.003879 -240991.000000 1 0 0
4.031354 14.081425 -0.639009 14.661060 1.291966 1.614396 0.011220 -0.008229 472484.000000 1 0 0
5.517754 13.140125 -2.497209 14.468744 1.173239 1.744258 0.009368 -0.006781 -180926.000000 1 0 0
-6.174246 16.803425 -3.000509 18.151569 -1.218670 1.736862 0.006953 -0.000436 -2650850.000000 1 0 0
18.198954 9.910425 2.354491 20.855745 0.498657 1.457661 0.048232 -0.009581 204753.000000 1 0 0
7.979854 12.872625 9.327691 17.787310 1.015866 1.018784 0.016335 -0.002667 -262023.000000 1 0 0
-2.503346 15.630725 6.579391 17.142774 -1.411990 1.176889 -0.003119 -0.005557 -723406.000000 1 0 0
11.098654 15.926225 6.305591 20.410420 0.962168 1.256718 0.033710 -0.012126 -228116.000000 1 0 0
13.601654 12.054925 1.203491 18.214681 0.725185 1.504676 0.035023 0.000882 1282040.000000 1 0 0
17.460454 7.736725 -5.733909 19.939962 0.417101 1.862473 0.047934 0.005698 -1028830.000000 1 0 0
9.583654 9.258625 7.949091 15.516334 0.768150 1.032930 0.007335 -0.001822 -764872.000000 1 0 0
-2.003946 14.166625 -2.043009 14.452784 -1.430273 1.712629 -0.003177 0.002674 783391.000000 1 0 0
10.990454 11.615525 0.632991 16.003474 0.813042 1.531233 0.010063 0.004670 -56362.300000 1 0 0
11.849054 9.691825 -0.690309 15.323449 0.685585 1.615861 0.009086 0.003943 -18022.500000 1 0 0
-0.250146 16.427125 11.021791 19.783652 -1.555570 0.979887 0.001842 -0.001424 -92331.100000 1 0 0
1.840654 20.083825 -1.723709 20.241522 1.479403 1.656057 0.022154 -0.018887 -634647.000000 1 0 0
9.226154 14.426625 1.743891 17.213094 1.001822 1.469310 0.013443 -0.004830 -614485.000000 1 0 0
8.467354 11.696425 -5.260809 15.368102 0.944192 1.920181 0.019792 -0.003657 -1550580.000000 1 0 0
10.632054 10.039125 10.223791 17.842380 0.756722 0.960627 0.006408 -0.001649 103875.000000 1 0 0
-5.095046 15.860925 5.706191 17.609346 -1.259976 1.240796 -0.008318 -0.000858 661198.000000 1 0 0
14.453854 9.018025 -2.043409 17.158502 0.557821 1.690170 0.031378 0.003754 -427501.000000 1 0 0
12.230654 9.543825 6.916191 16.985500 0.662625 1.151430 0.013616 -0.003534 -1841050.000000 1 0 0
3.360954 12.999725 9.579991 16.494396 1.317796 0.951082 0.004911 0.001475 -348555.000000 1 0 0
8.499554 12.646725 -2.697309 15.474416 0.979058 1.745999 0.015386 0.000480 -900513.000000 1 0 0
9.440554 17.034825 2.034291 19.581820 1.064741 1.466722 0.016865 -0.005705 -537651.000000 1 0 0
9.566654 14.290225 -7.558209 18.784513 0.980866 1.984894 0.058397 -0.014482 -2103530.000000 1 0 0
6.463454 11.443225 7.316591 15.041814 1.056640 1.062812 0.001601 0.001276 -382656.000000 1 0 0
5.496254 16.916725 -5.770409 18.699787 1.256654 1.884498 0.035662 -0.007881 -1168780.000000 1 0 0
-4.257946 17.370725 -4.683309 18.487985 -1.330414 1.826903 0.006648 0.006610 151970.000000 1 0 0
-0.253446 18.492325 -0.529309 18.501635 -1.557092 1.599409 0.000667 -0.008486 -650815.000000 1 0 0
6.598054 15.673925 -2.751909 17.227282 1.172355 1.731225 0.018107 -0.005191 1357320.000000 1 0 0
-0.922646 20.723025 0.554991 20.750977 -1.526303 1.544048 0.006698 -0.006798 -43279.600000 1 0 0
-1.291546 18.927525 4.289591 19.450447 -1.502666 1.348429 0.004494 0.000120 -971823.000000 1 0 0
7.246154 13.832225 -4.371809 16.215731 1.088243 1.843777 0.019757 -0.000601 -1122650.000000 1 0 0
-0.936446 12.111725 7.595391 14.326925 -1.493633 1.012021 -0.001115 0.006398 487892.000000 1 0 0
7.697654 10.796725 10.878591 17.151295 0.951424 0.883729 -0.000330 0.001226 63906.900000 1 0 0
1.471454 16.115925 -7.280709 17.745336 1.479744 1.993567 0.016683 -0.006968 396903.000000 1 0 0
8.874554 7.239525 14.713091 18.645200 0.684278 0.661440 0.026220 -0.000091 -31015.800000 1 0 0
11.283154 11.264525 -4.934309 16.689713 0.784572 1.870932 0.035554 0.000175 -410024.000000 1 0 0
-3.358746 17.114125 4.438291 17.996469 -1.377004 1.321605 -0.006514 0.001382 -467752.000000 1 0 0
3.880854 15.326925 -6.697309 17.170603 1.322803 1.971477 0.026076 -0.013750 -512465.000000 1 0 0
-4.383646 13.962525 9.533191 17.465686 -1.266584 0.993424 0.019370 -0.011453 910208.000000 1 0 0
6.240154 17.759725 0.415491 18.828702 1.232906 1.548728 0.011677 -0.020091 -517213.000000 1 0 0
9.827454 10.730125 -2.177109 14.712384 0.829279 1.719320 0.010883 0.003067 -696094.000000 1 0 0
7.113554 18.150425 -2.736709 19.685786 1.197273 1.710268 0.030557 -0.009454 426651.000000 1 0 0
3.665454 10.357525 10.387891 15.120257 1.230658 0.813419 0.000030 0.003516 907053.000000 1 0 0
-0.079946 18.633425 1.985791 18.739111 -1.566506 1.464627 0.005556 -0.007471 640469.000000 1 0 0
-1.004246 17.208325 -7.431209 18.771197 -1.512504 1.977826 0.027049 -0.002103 219043.000000 1 0 0
10.107354 8.797025 12.982091 18.656928 0.716195 0.801218 0.023056 0.000424 -113189.000000 1 0 0
3.692254 11.421625 5.380191 13.154190 1.258131 1.149428 0.000985 0.001045 748304.000000 1 0 0
12.929054 13.842625 8.109191 20.604313 0.819509 1.166287 0.038296 -0.013670 -381641.000000 1 0 0
-0.663246 17.419725 6.700791 18.675849 -1.532740 1.203820 0.004639 -0.004796 -649831.000000 1 0 0
12.096254 13.625025 5.633191 19.070751 0.844764 1.270939 0.024887 -0.009092 -150349.000000 1 0 0
4.928354 14.607825 -4.542609 16.072104 1.245410 1.857341 0.016745 -0.007029 -804943.000000 1 0 0
3.790154 17.655125 4.501991 18.610122 1.359329 1.326462 0.017067 -0.006790 2917.380000 1 0 0
7.118354 11.625525 2.052791 13.785418 1.021379 1.421330 0.010439 -0.001323 540257.000000 1 0 0
6.476154 8.611925 11.722891 15.922689 0.926017 0.743302 -0.000001 -0.001042 234600.000000 1 0 0
-5.360046 14.798425 1.681991 15.828852 -1.223291 1.464334 -0.001456 0.000323 -48831.000000 1 0 0
6.733054 13.725625 5.946791 16.403998 1.114740 1.199825 0.008238 -0.004231 -824537.000000 1 0 0
5.836254 15.825225 4.905891 17.566086 1.217477 1.287750 0.007622 -0.009817 716107.000000 1 0 0
1.201054 18.010425 4.243391 18.542500 1.504208 1.339903 0.012846 -0.004870 1005970.000000 1 0 0
7.581854 17.890825 -7.132009 20.698592 1.169956 1.922572 0.043380 -0.012539 399229.000000 1 0 0
-2.535446 18.711225 -5.985509 19.808199 -1.436113 1.877768 0.015205 -0.000698 -3295580.000000 1 0 0
13.577554 10.035825 -4.647309 17.511860 0.636520 1.839395 0.036136 0.000295 -901135.000000 1 0 0
-1.711646 18.064125 9.686291 20.568583 -1.476325 1.080456 0.011230 -0.009392 -387123.000000 1 0 0
3.435554 11.827225 -1.530409 12.410820 1.288098 1.694423 0.008186 -0.005375 -314328.000000 1 0 0
4.303954 13.952825 -10.862209 18.198707 1.271592 2.210387 0.027541 -0.024569 -251651.000000 1 0 0
11.539354 13.480625 2.229991 17.884541 0.862832 1.445783 0.023790 -0.001303 463925.000000 1 0 0
15.830054 6.308825 -7.161009 18.484370 0.379243 1.968616 0.031941 -0.004567 -319975.000000 1 0 0
2.441454 16.121725 2.879291 16.557809 1.420500 1.396015 0.009726 -0.008633 29637.300000 1 0 0
13.574854 10.645225 3.531891 17.608854 0.665024 1.368852 0.026301 0.000540 354582.000000 1 0 0
-4.953746 19.593225 -6.062309 21.099423 -1.323156 1.862225 0.002020 -0.000500 326020.000000 1 0 0
5.562954 12.262325 0.029991 13.465214 1.144901 1.568569 0.010144 -0.006426 897691.000000 1 0 0
4.571854 15.439125 9.677291 18.786123 1.282902 1.029637 0.008695 0.004108 -528475.000000 1 0 0
7.808454 9.518025 13.897191 18.566009 0.883748 0.724956 0.008837 -0.003650 -2452210.000000 1 0 0
-4.968146 13.741925 6.951491 16.181663 -1.223885 1.126757 -0.001398 -0.001191 -2345240.000000 1 0 0
-4.613246 17.097525 0.575091 17.718299 -1.307253 1.538333 0.004858 0.000340 -1823900.000000 1 0 0
-0.655346 16.557625 3.503091 16.936826 -1.531237 1.362460 0.000106 -0.002615 -1853310.000000 1 0 0
7.898554 16.703825 -4.863509 19.106508 1.129096 1.828176 0.031997 -0.014744 423665.000000 1 0 0
3.096254 16.586225 -4.618909 17.493541 1.386244 1.838000 0.016495 -0.005782 164355.000000 1 0 0
9.607854 14.465325 8.216791 19.211251 0.984504 1.128842 0.026710 -0.003966 -42802.000000 1 0 0
12.752154 10.949525 8.958391 19.046320 0.709489 1.081112 0.024116 -0.011933 -913460.000000 1 0 0
3.636654 12.355825 12.155791 17.710306 1.284552 0.814313 0.008169 0.001287 660840.000000 1 0 0
-3.252846 19.198225 5.964591 20.364901 -1.402956 1.273553 0.007107 -0.005472 169487.000000 1 0 0
-2.657746 15.716925 10.226791 18.938654 -1.403280 1.000364 0.011466 -0.012411 294684.000000 1 0 0
2.048454 14.279125 7.575591 16.293531 1.428311 1.087224 0.002949 0.000129 -184917.000000 1 0 0
4.467354 17.297925 7.830991 19.506407 1.318059 1.157689 0.019050 -0.003319 -177621.000000 1 0 0
-1.828346 13.462825 9.395591 16.518706 -1.435815 0.965769 0.001009 -0.003174 -2314080.000000 1 0 0
5.949754 17.736525 3.090991 18.961491 1.247140 1.407051 0.015382 -0.016390 618805.000000 1 0 0
7.195354 15.263825 -6.909509 18.234550 1.130290 1.959430 0.027781 -0.011186 151163.000000 1 0 0
11.022654 7.657625 9.357691 16.361678 0.607172 0.961943 0.006232 -0.003901 266672.000000 1 0 0
9.140254 16.546525 -2.613409 19.083020 1.066115 1.708177 0.030409 -0.002253 -132609.000000 1 0 0
14.448354 11.207325 -6.810009 19.512440 0.659736 1.927309 0.071124 -0.009442 461625.000000 1 0 0
10.880354 6.441325 16.128091 20.493611 0.534527 0.664895 0.043389 -0.013204 108744.000000 1 0 0
8.618354 8.486525 10.195291 15.819011 0.777691 0.870432 0.001088 0.001972 -42801.800000 1 0 0
16.438254 9.391625 4.287191 19.411307 0.519070 1.348100 0.043413 -0.005312 12899.400000 1 0 0
-3.391146 14.350525 4.505791 15.418807 -1.338745 1.274242 -0.006687 0.003024 -1902050.000000 1 0 0
5.061654 14.557025 12.775691 20.018632 1.236161 0.878651 0.018380 0.003464 787127.000000 1 0 0
16.120654 10.636825 -4.875409 19.919517 0.583252 1.818064 0.060886 -0.007105 725456.000000 1 0 0
14.685054 14.114225 6.262791 21.309264 0.765580 1.272492 0.055038 -0.003383 -255829.000000 1 0 0
6.321054 9.478425 9.223691 14.658539 0.982640 0.890226 -0.000905 0.000300 361051.000000 1 0 0
10.438054 11.992025 8.584491 18.068070 0.854568 1.075697 0.019461 -0.008890 -1083930.000000 1 0 0
8.017154 11.582925 -0.331409 14.090733 0.965356 1.594318 0.009459 -0.001324 58226.200000 1 0 0
7.432854 13.429525 -8.679509 17.633302 1.065292 2.085438 0.041707 -0.017907 -615066.000000 1 0 0
2.817754 15.380525 -2.283609 15.802378 1.389603 1.715815 0.012515 -0.009629 548508.000000 1 0 0
12.173254 14.196425 -7.893609 20.298662 0.861972 1.970205 0.077954 -0.010788 150315.000000 1 0 0
-8.083846 14.599925 9.707991 19.306773 -1.065124 1.043929 0.038899 -0.025575 451975.000000 1 0 0
11.577554 9.614425 2.167191 15.204396 0.693026 1.427772 0.015967 0.003076 -2023540.000000 1 0 0
12.077154 8.687225 4.464591 15.532486 0.623569 1.279248 0.011354 -0.000020 364457.000000 1 0 0
14.126554 8.090025 6.042791 17.364428 0.520091 1.215361 0.021240 -0.005288 -1413850.000000 1 0 0
16.321854 7.511325 7.171591 19.345663 0.431304 1.191025 0.056370 -0.010947 404017.000000 1 0 0
13.631954 8.308225 2.360691 16.137833 0.547351 1.423986 0.015987 -0.000215 -2252550.000000 1 0 0
-4.354546 17.440125 -7.333809 19.414036 -1.326114 1.958170 0.002976 -0.003786 276293.000000 1 0 0
2.850354 19.577725 -4.090609 20.202597 1.426220 1.774685 0.030870 -0.019322 550141.000000 1 0 0
-0.092246 14.893425 6.156491 16.115986 -1.564603 1.178824 -0.000450 0.000539 -461668.000000 1 0 0
6.691154 16.035025 8.343491 19.274528 1.175480 1.123115 0.027582 -0.005625 -1291160.000000 1 0 0
12.756354 15.170525 -2.314509 19.955610 0.871630 1.687041 0.055723 -0.009438 86477.300000 1 0 0
12.607854 15.769425 4.181991 20.618482 0.896353 1.366552 0.038717 -0.010866 341217.000000 1 0 0
3.030754 18.072925 1.235091 18.366860 1.404646 1.503500 0.022027 -0.016874 -298982.000000 1 0 0
10.277454 14.512025 -1.410409 17.838559 0.954586 1.649944 0.020418 0.004034 -595512.000000 1 0 0
-6.432246 15.686025 -0.582809 16.963633 -1.181646 1.605159 0.005033 0.000673 -165352.000000 1 0 0
-3.921446 15.872625 -2.658209 16.564542 -1.328589 1.731969 0.002089 0.002870 -1782030.000000 1 0 0
-6.906546 16.902125 1.655191 18.333627 -1.182881 1.480392 0.009434 -0.004689 -831959.000000 1 0 0
-0.203246 19.530125 -6.615209 20.621059 -1.560390 1.897369 0.037280 -0.009742 -646687.000000 1 0 0
4.801354 14.816325 7.104991 17.118919 1.257416 1.142812 0.013613 -0.003398 -921462.000000 1 0 0
8.792854 12.442225 6.804291 16.685971 0.955591 1.150769 0.017138 -0.005033 -371673.000000 1 0 0
-7.841946 17.567125 -5.500809 20.008970 -1.150941 1.849300 0.047063 -0.012361 278224.000000 1 0 0
-7.727246 17.897325 -1.325509 19.539231 -1.163219 1.638687 0.027103 0.000712 173801.000000 1 0 0
-13.867246 -9.087375 9.120491 18.922585 0.580101 1.067872 0.030414 -0.018171 -777505.000000 1 0 0
-12.712646 -12.870575 7.693591 19.658443 0.791571 1.168684 0.033556 -0.011018 -79397.700000 1 0 0
-3.923146 -14.905475 12.523891 19.859811 1.313432 0.888451 0.011790 -0.019627 87901.300000 1 0 0
-2.078646 -14.255175 15.043091 20.828475 1.426000 0.763765 0.027082 -0.008093 392640.000000 1 0 0
-7.061246 -13.676975 12.566991 19.870835 1.094204 0.886105 0.021515 -0.019928 -192268.000000 1 0 0
-9.954446 -11.550475 9.075991 17.744804 0.859479 1.033898 0.022463 -0.011754 845644.000000 1 0 0
-10.724846 -10.506575 11.407691 18.855923 0.775118 0.921040 0.041578 -0.021285 529363.000000 1 0 0
-5.798046 -12.144475 10.781991 17.244041 1.125373 0.895333 0.016753 -0.013996 682242.000000 1 0 0
-12.556746 -10.351275 7.285391 17.829685 0.689419 1.149866 0.015283 -0.008211 -260670.000000 1 0 0
-7.538646 -11.118775 12.435491 18.305731 0.974981 0.823958 0.020011 -0.020559 -508181.000000 1 0 0
-14.851346 -11.556175 7.278291 20.176252 0.661258 1.201740 0.032735 -0.009256 -1441300.000000 1 0 0
-11.245146 -9.131975 9.256291 17.190846 0.682064 1.002208 0.022975 -0.010872 219724.000000 1 0 0
-5.312246 -11.879375 13.354691 18.646374 1.150288 0.772442 0.022081 -0.017661 -834535.000000 1 0 0
4.009354 -12.603875 14.622391 19.716666 -1.262813 0.735305 0.004860 0.000154 292726.000000 1 0 0
6.743254 -12.723675 14.395591 20.361641 -1.083456 0.785555 0.037989 0.002016 588753.000000 1 0 0
6.751654 -8.640775 16.193191 19.556770 -0.907518 0.595248 0.017071 0.000261 284077.000000 1 0 0
0.742354 -1.815275 14.574491 14.705853 -1.182599 0.133761 0.007344 -0.003332 -2321110.000000 1 0 0
-0.040146 -6.436275 15.406191 16.696646 1.564559 0.395739 0.019028 -0.012164 -78891.600000 1 0 0
-1.519146 -4.679475 18.238291 18.890224 1.256890 0.263484 0.034432 -0.024280 -1922950.000000 1 0 0
-5.106546 12.586325 12.926891 18.750918 -1.185367 0.810135 0.024577 -0.016307 920261.000000 1 0 0
-4.022546 8.727625 11.418491 14.924284 -1.138917 0.699608 0.004200 -0.002565 -512927.000000 1 0 0
-0.635446 -4.009875 15.042791 15.581029 1.413633 0.263610 0.010347 -0.008173 94241.300000 1 0 0
-4.358546 9.313425 13.972691 17.348571 -1.133087 0.634432 0.008206 -0.009679 455306.000000 1 0 0
-13.415846 -2.554075 16.851191 21.690340 0.188126 0.681072 0.036909 -0.002926 268711.000000 1 0 0
-0.240246 0.829825 17.265891 17.287491 -1.288988 0.049994 0.016505 -0.004714 -1141970.000000 1 0 0
-3.346146 -7.346975 15.344491 17.338631 1.143423 0.484327 0.018260 -0.014979 243899.000000 1 0 0
-7.394346 5.545325 12.479491 15.529478 -0.643464 0.637477 -0.002543 -0.002255 -1800640.000000 1 0 0
-9.838246 10.290025 13.253091 19.450453 -0.807839 0.821154 0.033040 -0.013831 -2206020.000000 1 0 0
-5.533646 2.246925 11.076991 12.584500 -0.385709 0.494494 0.005701 -0.001706 -1222460.000000 1 0 0
-7.203546 -7.334575 16.888591 19.771484 0.794411 0.546807 0.024007 -0.013739 -163147.000000 1 0 0
-4.787646 3.009425 18.539591 19.382844 -0.561171 0.296055 0.013455 -0.003909 705156.000000 1 0 0
0.964854 -8.435275 16.608391 18.652707 -1.456908 0.472571 0.018000 -0.010595 719742.000000 1 0 0
-15.143646 -3.503075 13.966791 20.896717 0.227325 0.838778 0.061314 -0.013093 268236.000000 1 0 0
-14.257146 2.676825 13.150691 19.579895 -0.185593 0.834373 0.037168 -0.012617 272554.000000 1 0 0
-5.470546 0.961325 16.037591 16.972193 -0.173951 0.333405 0.015689 -0.003124 562232.000000 1 0 0
4.442654 5.664525 15.053191 16.686000 0.905706 0.446081 0.003387 -0.004363 532432.000000 1 0 0
-1.052546 -12.036375 13.877291 18.400038 1.483571 0.716363 0.004674 -0.007942 -74581.100000 1 0 0
-5.928346 -4.132375 16.723391 18.217948 0.608746 0.407884 0.021943 -0.012829 -243439.000000 1 0 0
-13.018246 -1.457875 9.883391 16.409800 0.111522 0.924435 0.017678 0.000776 -546496.000000 1 0 0
-14.600146 10.361125 10.039391 20.525753 -0.617179 1.059725 0.016667 -0.015911 600815.000000 1 0 0
-3.652546 -3.381275 17.663491 18.351377 0.746851 0.274666 0.030568 -0.013995 -1470130.000000 1 0 0
-7.916346 9.406625 11.777091 17.025070 -0.871216 0.806887 0.008168 -0.007842 -134743.000000 1 0 0
-4.065946 10.679025 16.236491 19.854399 -1.207002 0.613257 0.006116 -0.013435 386483.000000 1 0 0
-12.447546 12.676525 8.160791 19.550811 -0.794512 1.140198 0.017693 -0.020806 -275844.000000 1 0 0
-12.564946 3.277125 10.507191 16.703846 -0.255131 0.890494 0.017519 -0.009616 798838.000000 1 0 0
-10.056546 -3.440975 13.641391 17.293408 0.329676 0.661909 0.009964 -0.007072 -1486140.000000 1 0 0
-4.272446 -6.455575 17.642391 19.266090 0.986155 0.413494 0.034602 -0.015892 -534130.000000 1 0 0
0.852654 -3.786175 17.882691 18.298983 -1.349290 0.213711 0.023542 -0.017557 -273444.000000 1 0 0
-5.870546 1.761725 13.591491 14.909581 -0.291545 0.423650 0.007567 -0.000830 -829916.000000 1 0 0
-10.457346 8.720525 10.173291 16.997044 -0.695081 0.929128 0.015501 -0.016345 -376368.000000 1 0 0
4.561154 2.395125 17.259091 18.011579 0.483536 0.290077 0.026601 -0.008633 -1512660.000000 1 0 0
0.485554 -5.395975 13.157491 14.229262 -1.481053 0.390606 0.006753 -0.005458 -1469220.000000 1 0 0
-4.365046 5.699725 20.541291 21.759714 -0.917238 0.336229 0.058791 -0.018205 -168327.000000 1 0 0
-10.854546 10.797625 8.926491 17.722644 -0.782769 1.042946 0.016340 -0.020310 264300.000000 1 0 0
0.765554 4.179125 13.028991 13.704225 1.389620 0.315220 0.004687 -0.002264 -2166760.000000 1 0 0
-3.167046 7.077925 13.311691 15.405464 -1.150062 0.527459 0.003258 0.000652 -421272.000000 1 0 0
0.840454 8.915925 13.976891 16.599806 1.476810 0.569833 0.008320 -0.006511 30323.000000 1 0 0
-4.191946 -6.643175 13.018891 15.205121 1.007883 0.542893 0.012437 -0.009801 -218125.000000 1 0 0
-5.002646 8.276625 16.326691 18.976033 -1.027125 0.534772 0.016552 -0.008196 485382.000000 1 0 0
1.596054 -10.804975 15.787091 19.197060 -1.424142 0.605232 0.004033 -0.003408 -492017.000000 1 0 0
-15.005146 -0.892875 14.278991 20.732612 0.059434 0.811072 0.051663 -0.010706 218183.000000 1 0 0
-13.567646 -5.295075 8.333891 16.780124 0.372092 1.051059 0.023576 -0.009485 -295329.000000 1 0 0
-14.179746 -1.871575 12.139091 18.759678 0.131231 0.867043 0.039444 -0.007725 621690.000000 1 0 0
9.444554 1.309025 16.846091 19.357271 0.137724 0.515042 0.065238 -0.007150 -136415.000000 1 0 0
5.062254 -6.742375 16.456591 18.490685 -0.926776 0.473465 0.019564 -0.020959 -504807.000000 1 0 0
-6.091546 -2.655275 11.125691 12.959106 0.411063 0.538414 0.006108 -0.005069 -62462.300000 1 0 0
0.476254 -6.358775 17.937491 19.037185 -1.496039 0.341557 0.032615 -0.021106 8996.990000 1 0 0
-8.394846 11.935225 12.019391 18.904730 -0.957814 0.881768 0.020295 -0.016788 121978.000000 1 0 0
-6.621946 -5.849475 14.845991 17.276284 0.723538 0.536842 0.017718 -0.010799 -1050980.000000 1 0 0
-4.315246 -8.963675 17.135191 19.813722 1.122127 0.526016 0.037475 -0.015987 -83677.900000 1 0 0
2.507954 -6.408375 16.198291 17.599481 -1.197764 0.401733 0.017080 -0.010901 -117146.000000 1 0 0
2.140354 5.275725 16.259591 17.227556 1.185387 0.336812 0.010235 -0.003477 -1152590.000000 1 0 0
0.921154 -8.955075 14.057091 16.692624 -1.468293 0.569605 0.002476 -0.002417 -474422.000000 1 0 0
-9.934446 -2.729875 11.249191 15.254171 0.268170 0.741509 0.002358 -0.003714 117231.000000 1 0 0
-1.140746 10.165625 12.372391 16.053576 -1.459048 0.690867 0.002013 -0.004903 -508709.000000 1 0 0
-12.306046 -3.593475 11.308091 17.094582 0.284109 0.847977 0.015349 -0.003336 -3033130.000000 1 0 0
-1.903246 6.598825 19.944991 21.094301 -1.289995 0.331622 0.046084 -0.017328 -779198.000000 1 0 0
0.195454 -13.388875 15.798591 20.709796 -1.556199 0.703078 -0.002110 -0.008978 -600466.000000 1 0 0
4.182354 -8.880675 15.395291 18.258518 -1.130658 0.567618 0.012047 -0.003912 -256905.000000 1 0 0
4.400854 -4.460975 16.128791 17.303344 -0.792182 0.370573 0.021269 -0.009326 115476.000000 1 0 0
8.027354 1.748525 14.735091 16.870645 0.214471 0.508623 0.018014 0.001177 -334525.000000 1 0 0
-6.276246 -0.054475 11.760991 13.330984 0.008679 0.490219 0.007355 -0.002432 281852.000000 1 0 0
-3.570746 -10.984875 18.638491 21.927404 1.256510 0.554794 0.047696 -0.009623 -412721.000000 1 0 0
3.287754 -1.592175 13.559791 14.043229 -0.450988 0.263151 0.000523 -0.001090 986879.000000 1 0 0
-2.466846 8.707425 15.660891 18.087789 -1.294727 0.523996 0.013083 -0.011550 -1224570.000000 1 0 0
-3.237446 4.035425 14.821391 15.698387 -0.894681 0.335837 0.012800 -0.002771 -2138850.000000 1 0 0
-4.633946 -8.953675 19.870291 22.281612 1.093210 0.469533 0.058641 -0.019850 76630.400000 1 0 0
-5.883146 -3.017875 19.007191 20.124420 0.473969 0.334776 0.025987 -0.018582 -591949.000000 1 0 0
-6.631546 -8.569575 11.089191 15.504360 0.912207 0.773842 0.014431 -0.013012 296891.000000 1 0 0
-11.643846 2.512325 12.793291 17.480252 -0.212506 0.749733 0.032077 -0.020560 -689395.000000 1 0 0
-11.571846 -7.623175 11.737891 18.160355 0.582515 0.868009 0.024524 -0.011373 1520110.000000 1 0 0
-11.127646 -7.386575 15.341391 20.340705 0.586018 0.716329 0.044317 -0.025253 464170.000000 1 0 0
0.049254 5.620625 17.730891 18.600494 1.562033 0.306987 0.021521 -0.010951 -416687.000000 1 0 0
-2.164146 -0.205275 13.180791 13.358852 0.094570 0.163455 0.010329 -0.001227 128168.000000 1 0 0
-6.098446 -10.522975 18.287491 21.962613 1.045560 0.586894 0.065317 -0.015813 781151.000000 1 0 0
0.415354 2.642525 19.131291 19.317395 1.414891 0.138921 0.034689 -0.013331 30676.400000 1 0 0
-0.538346 10.940225 14.725191 18.352373 -1.521628 0.639559 0.019670 -0.008201 -931148.000000 1 0 0
-12.790046 -2.304875 14.243791 19.281683 0.178295 0.739625 0.027546 -0.008710 -776344.000000 1 0 0
-13.644946 8.524625 11.665991 19.873327 -0.558417 0.943426 0.022403 -0.015373 241856.000000 1 0 0
-17.977646 -0.526075 6.919091 19.270348 0.029254 1.203542 0.052231 -0.016703 86350.500000 1 0 0
-2.050046 -7.894275 17.622791 19.418677 1.316721 0.433461 0.036562 -0.018929 -1001820.000000 1 0 0
5.689954 2.748925 14.613091 15.920886 0.450052 0.408150 0.014040 0.000738 -2488140.000000 1 0 0
-13.989046 -6.686175 10.882591 18.942785 0.445859 0.958806 0.029012 -0.020738 464064.000000 1 0 0
3.194654 7.701425 16.136091 18.162908 1.177585 0.476929 0.013949 -0.016146 -606142.000000 1 0 0
1.071354 2.155325 14.674791 14.870868 1.109493 0.162569 0.003945 -0.003534 -1652270.000000 1 0 0
-14.429746 0.814425 9.805091 17.464841 -0.056381 0.974697 0.020085 -0.005364 -1514620.000000 1 0 0
-9.578646 -5.154175 15.578391 19.000059 0.493653 0.609538 0.019106 -0.008578 -99890.600000 1 0 0
-2.643146 -0.049375 18.075791 18.268084 0.018678 0.145222 0.025954 -0.009273 693290.000000 1 0 0
6.755654 3.627525 17.252791 18.880059 0.492778 0.418228 0.036477 -0.017482 -941433.000000 1 0 0
-4.138246 -0.914775 14.770291 15.366307 0.217555 0.279430 0.017647 -0.002587 -1244010.000000 1 0 0
4.821554 -8.821175 17.963891 20.585478 -1.070576 0.510196 0.020382 -0.000759 -243372.000000 1 0 0
1.952754 6.816425 13.419891 15.177957 1.291791 0.486082 0.003812 -0.002329 -1082720.000000 1 0 0
-3.886346 -0.802375 20.248891 20.634076 0.203599 0.193524 0.037939 -0.011293 1053130.000000 1 0 0
-10.742246 1.618825 16.388991 19.662540 -0.149572 0.585360 0.035574 -0.007891 -269357.000000 1 0 0
-3.836246 7.074525 18.366091 20.051908 -1.073913 0.412984 0.024253 -0.012269 -643172.000000 1 0 0
-12.666246 1.244925 14.719191 19.458628 -0.097972 0.712951 0.045471 -0.017911 146259.000000 1 0 0
-16.031546 -4.758275 8.645691 18.825504 0.288525 1.093641 0.030286 -0.008524 -1804670.000000 1 0 0
-2.221246 0.715925 15.690891 15.863497 -0.311795 0.147652 0.021026 -0.003965 315093.000000 1 0 0
-13.868346 -8.754975 12.459591 20.596650 0.563111 0.921115 0.050529 -0.027105 420924.000000 1 0 0
5.990554 -3.171775 14.471191 15.980059 -0.486939 0.438056 0.014131 -0.008023 912054.000000 1 0 0
-15.714546 0.699025 7.559291 17.452176 -0.044453 1.122819 0.021757 -0.009779 284024.000000 1 0 0
-13.993946 5.962125 12.285791 19.552957 -0.402760 0.891386 0.034752 -0.022771 -138860.000000 1 0 0
0.565754 9.540625 16.570391 19.129074 1.511566 0.523167 0.018028 -0.015080 -383004.000000 1 0 0
-10.507446 -5.450275 10.833891 16.046342 0.478500 0.829611 0.020236 -0.010245 19588.600000 1 0 0
-3.217246 -10.992475 15.092791 18.946702 1.286071 0.649160 0.022910 -0.012866 46419.100000 1 0 0
-3.437246 2.723825 12.543991 13.288551 -0.670117 0.336337 0.004875 -0.001239 -1297480.000000 1 0 0
-12.356546 -7.707475 7.405691 16.338104 0.557705 1.100358 0.016346 -0.007924 6746.400000 1 0 0
-8.116346 -1.933975 13.142291 15.567117 0.233919 0.565662 0.008075 -0.004918 -530909.000000 1 0 0
-9.872146 6.441225 9.510091 15.145642 -0.578106 0.891932 0.003192 -0.009382 -713409.000000 1 0 0
-17.711646 -3.345575 6.713891 19.234646 0.186692 1.214237 0.036595 -0.015476 522001.000000 1 0 0
-1.399146 0.044825 20.373891 20.421926 -0.032027 0.068601 0.037284 -0.011359 -920890.000000 1 0 0
-2.728146 2.548725 20.150791 20.493735 -0.751410 0.183199 0.038252 -0.010178 -345185.000000 1 0 0
-3.694346 11.211625 11.155391 16.241659 -1.252490 0.813667 0.011112 -0.010970 -843179.000000 1 0 0
-4.197646 -4.829775 14.847891 16.168081 0.855307 0.406916 0.015797 -0.010915 -528323.000000 1 0 0
-0.077746 -14.351175 13.389891 19.627823 1.565379 0.820044 0.004395 -0.013139 -942729.000000 1 0 0
-12.196946 0.504325 8.443691 14.843037 -0.041325 0.965671 0.002778 -0.001916 -509194.000000 1 0 0
-7.746746 2.039625 15.362391 17.325565 -0.257445 0.480662 0.000074 -0.002482 -466165.000000 1 0 0
3.661954 -2.195175 18.511191 18.997182 -0.540018 0.226681 0.032912 -0.005323 -129884.000000 1 0 0
-2.073346 4.851825 12.570891 13.633278 -1.166951 0.397391 0.000213 0.000206 -381561.000000 1 0 0
-10.292846 -6.175475 13.338791 17.944428 0.540403 0.732748 0.011535 -0.012236 -115704.000000 1 0 0
2.366454 -3.858875 14.228191 14.930923 -1.020691 0.308024 0.004703 -0.003328 -426376.000000 1 0 0
6.781154 1.070925 17.061191 18.390628 0.156633 0.382562 0.028298 -0.001253 -556711.000000 1 0 0
-1.986846 -5.822075 13.818191 15.125691 1.241928 0.418849 0.008811 -0.009275 -3465040.000000 1 0 0
-12.617846 3.774825 14.881291 19.872397 -0.290691 0.724483 0.021218 -0.008785 106813.000000 1 0 0
-13.221046 -6.334075 13.322791 19.809425 0.446780 0.833150 0.024389 -0.020757 -498541.000000 1 0 0
-9.520246 6.879625 12.006491 16.796433 -0.625754 0.774424 0.017928 -0.007467 -140982.000000 1 0 0
-0.992146 -2.497275 12.854391 13.132255 1.192627 0.206077 0.004675 -0.002177 293045.000000 1 0 0
0.178954 6.788025 15.318691 16.756241 1.544439 0.417247 0.012556 -0.006007 257751.000000 1 0 0
-16.442446 -0.852075 9.597691 19.057695 0.051775 1.043021 0.049896 -0.012627 213335.000000 1 0 0
-1.247546 2.713425 13.814891 14.134011 -1.139849 0.212902 0.005264 0.000094 -2012900.000000 1 0 0
-11.111646 -3.165575 16.041891 19.769466 0.277536 0.624171 0.010769 -0.011259 -171527.000000 1 0 0
-5.310746 -1.523775 17.012591 17.887263 0.279417 0.314016 0.036098 -0.006447 473898.000000 1 0 0
-11.904346 6.628325 11.126991 17.591420 -0.508048 0.885989 0.028403 -0.013670 -1932320.000000 1 0 0
-2.811146 4.733725 18.604291 19.401813 -1.034908 0.287716 0.037616 -0.011570 121254.000000 1 0 0
5.191154 -2.002775 16.519291 17.431184 -0.368210 0.324889 0.026614 -0.006857 -694368.000000 1 0 0
-8.038946 -4.203575 12.087191 15.112739 0.481800 0.643832 0.014557 -0.007151 -1834390.000000 1 0 0
-11.679846 -0.738275 16.185191 19.973088 0.063125 0.626047 0.034702 -0.006745 317317.000000 1 0 0
2.085154 1.999025 17.352291 17.591077 0.764313 0.164955 0.013720 -0.007883 -2073410.000000 1 0 0
-8.852546 -7.242575 11.476191 16.202636 0.685701 0.783721 0.015781 -0.018497 -172037.000000 1 0 0
-7.190146 6.825225 14.759891 17.780222 -0.759367 0.591456 0.007862 -0.008082 -979216.000000 1 0 0
-5.610146 3.462125 15.697091 17.025238 -0.552912 0.397609 0.004681 -0.002475 234456.000000 1 0 0
-9.356546 4.238325 11.523991 15.437316 -0.425329 0.728007 0.004727 -0.009772 -307780.000000 1 0 0
-10.274046 0.309225 14.167391 17.503331 -0.030089 0.627648 0.011607 -0.003723 427467.000000 1 0 0
8.188054 -0.658475 15.714791 17.732244 -0.080246 0.481661 0.040919 -0.009320 90951.600000 1 0 0
-8.675646 -7.472675 14.709891 18.641046 0.711040 0.661433 0.028139 -0.009462 -1583190.000000 1 0 0
-0.127346 4.240625 15.606391 16.172772 -1.540775 0.265432 0.006583 -0.006489 161739.000000 1 0 0
-8.059746 3.026025 9.599691 12.894588 -0.359164 0.731049 -0.001193 -0.002731 -622382.000000 1 0 0
-2.071446 -9.639575 13.197591 16.473879 1.359126 0.641628 0.003036 -0.003040 647706.000000 1 0 0
-5.998046 10.319625 10.456491 15.868504 -1.044295 0.851379 0.017528 -0.009423 -2076690.000000 1 0 0
-8.463246 -2.789275 15.608591 17.973166 0.318364 0.518752 0.013328 -0.009183 -37193.500000 1 0 0
4.241954 5.920625 17.719891 19.158354 0.949102 0.389979 0.023095 -0.004034 110452.000000 1 0 0
-6.739146 -1.000575 15.049391 16.519728 0.147395 0.425106 0.007524 -0.002824 -488758.000000 1 0 0
-0.894246 -9.957275 15.507791 18.450978 1.481228 0.572617 0.000425 -0.007392 -646376.000000 1 0 0
-4.342446 5.826425 16.170091 17.727829 -0.930309 0.422345 0.013715 -0.005084 -21216.900000 1 0 0
3.791554 0.015625 17.374091 17.783002 0.004121 0.214864 0.027074 -0.006225 -430267.000000 1 0 0
1.364854 0.243825 19.297991 19.347732 0.176781 0.071722 0.022779 -0.000917 -384899.000000 1 0 0
-6.282646 6.569325 17.839191 20.021599 -0.807701 0.471259 0.012384 -0.003461 -69496.900000 1 0 0
-12.318146 0.711325 11.087591 16.588471 -0.057682 0.838752 0.021214 -0.004624 -423444.000000 1 0 0
-5.317746 5.203925 13.859791 15.730641 -0.774581 0.492677 0.000788 -0.000240 -1202350.000000 1 0 0
-8.780946 -9.410075 9.983191 16.288604 0.819969 0.911078 0.021879 -0.013699 285964.000000 1 0 0
6.950854 -3.884875 16.778891 18.572502 -0.509655 0.443101 0.038634 -0.016441 -743218.000000 1 0 0
-16.824546 1.821725 9.624091 19.468106 -0.107858 1.053707 0.050330 -0.015436 313669.000000 1 0 0
-4.172346 -9.464675 11.579791 15.526754 1.155591 0.729067 0.005553 -0.008969 174921.000000 1 0 0
-11.044846 -3.772275 9.117391 14.810317 0.329120 0.907636 0.006881 -0.002214 -138110.000000 1 0 0
3.757454 -5.506575 18.392791 19.563630 -0.972009 0.347719 0.028441 -0.016931 102798.000000 1 0 0
2.594054 -2.061375 16.093291 16.430837 -0.671472 0.203048 0.011163 -0.005413 137699.000000 1 0 0
-3.204346 -4.212475 20.110391 20.795206 0.920495 0.257347 0.041137 -0.022771 -936124.000000 1 0 0
-6.180046 -3.351775 14.327791 15.959729 0.496954 0.456169 0.008158 -0.006255 331241.000000 1 0 0
-9.527746 5.173725 13.930291 17.652150 -0.497466 0.661363 0.026426 -0.011182 56900.400000 1 0 0
-5.897846 -5.205275 11.705191 14.102871 0.723103 0.591713 0.007122 -0.006072 -1452610.000000 1 0 0
6.151454 2.047625 19.419391 20.473053 0.321332 0.322222 0.059746 -0.013424 23279.900000 1 0 0
-2.684646 11.777225 13.486691 18.105281 -1.346674 0.730406 0.019817 -0.018430 -2554920.000000 1 0 0
3.432854 1.254325 15.145891 15.580624 0.350318 0.236782 0.004875 -0.002051 -820536.000000 1 0 0
-5.743846 7.536325 12.804591 15.929392 -0.919561 0.637083 -0.002160 -0.004395 -423703.000000 1 0 0
-1.821646 -1.811475 15.186491 15.402251 0.782599 0.167578 0.014362 -0.004061 -336336.000000 1 0 0
-7.483846 10.660425 14.120591 19.210510 -0.958715 0.745063 0.035652 -0.018997 186649.000000 1 0 0
-10.168246 2.086125 10.648491 14.870625 -0.202353 0.772633 0.004301 -0.004934 -505996.000000 1 0 0
-13.692546 5.190725 9.117491 17.249872 -0.362353 1.013900 0.016625 -0.016215 125299.000000 1 0 0
0.393954 -4.946675 20.054791 20.659609 -1.491324 0.242567 0.043877 -0.022894 -55893.900000 1 0 0
-14.513146 -2.986675 7.513591 16.613418 0.202958 1.101498 0.015856 -0.006170 -422059.000000 1 0 0
-2.357046 2.505725 17.509391 17.844134 -0.815964 0.194001 0.020253 -0.006428 316327.000000 1 0 0
-6.186546 -8.347575 14.643891 17.955470 0.933003 0.617088 0.015541 -0.009754 -155666.000000 1 0 0
-7.965646 2.047125 12.132691 14.657572 -0.251551 0.595724 0.000205 -0.005942 682854.000000 1 0 0
-14.484546 -3.496375 10.161991 18.035874 0.236856 0.972262 0.021926 -0.006945 -244110.000000 1 0 0
-0.526646 6.999725 12.772391 14.574206 -1.495700 0.502524 0.004183 -0.003965 -775644.000000 1 0 0
-1.848446 -2.220475 19.279991 19.495264 0.876577 0.148746 0.033882 -0.013213 26655.200000 1 0 0
-12.706646 10.251925 7.153991 17.825274 -0.678883 1.157817 0.005786 -0.023421 158936.000000 1 0 0
-19.449146 2.292125 6.821091 20.737656 -0.117311 1.235633 0.060161 -0.020843 -304910.000000 1 0 0
-16.018046 8.582825 6.609291 19.337151 -0.491893 1.221973 0.021059 -0.012356 581912.000000 1 0 0
-12.360646 7.436625 13.632091 19.847490 -0.541623 0.813661 0.034087 -0.008938 245094.000000 1 0 0
-15.879446 8.194925 10.362891 20.656793 -0.476422 1.045268 0.029292 -0.016246 -1726440.000000 1 0 0
2.080554 10.931825 14.910391 18.605195 1.382725 0.641147 0.021342 -0.014467 -844688.000000 1 0 0
2.407054 14.736725 12.354291 19.380235 1.408889 0.879588 0.007455 -0.000477 737871.000000 1 0 0
-2.985146 13.644825 11.725791 18.236955 -1.355415 0.872428 0.003102 -0.012628 -23161.800000 1 0 0
8.853654 4.834525 15.703091 18.664054 0.499804 0.571011 0.035545 0.000092 -282214.000000 1 0 0
-0.307046 12.651825 12.804791 18.003490 -1.546532 0.779537 0.007253 -0.007557 -338557.000000 1 0 0
3.513454 13.617725 14.469491 20.178032 1.318297 0.771176 0.018283 -0.001951 -96166.600000 1 0 0
-2.921346 -4.205975 -13.610909 14.542397 0.963724 2.781734 0.003185 -0.005481 -152839.000000 1 0 0
5.533754 -11.568275 16.389991 20.810556 -1.124613 0.663923 0.009582 -0.003752 306475.000000 1 0 0
7.954154 -13.477975 7.371591 17.299270 -1.037644 1.130595 0.014211 -0.011078 -484652.000000 1 0 0
-0.119346 15.672625 1.292191 15.726258 -1.563182 1.488536 -0.001354 -0.001567 -2865790.000000 1 0 0
-13.624446 8.102425 9.072491 18.264307 -0.536512 1.050965 0.009310 -0.013201 839975.000000 1 0 0
-15.379546 -9.651875 4.966591 18.824350 0.560451 1.303797 0.011799 -0.007740 -293296.000000 1 0 0
9.466154 -11.231775 11.178791 18.458771 -0.870496 0.920266 0.033647 -0.009920 -59126.300000 1 0 0
-5.871446 -10.497675 -16.735609 20.609601 1.060834 2.518418 0.016928 0.000515 137720.000000 1 0 0
-2.033546 -12.541175 -14.854809 19.546911 1.410046 2.434043 0.016405 0.000124 113779.000000 1 0 0
5.531354 -15.829975 -12.127609 20.694513 -1.234636 2.196947 0.039620 -0.010355 175178.000000 1 0 0
0.869754 -12.172975 -16.481709 20.508157 -1.499468 2.504227 0.027155 -0.006071 243226.000000 1 0 0
0.398654 -14.136975 -14.202409 20.042989 -1.542604 2.358305 0.026750 0.005026 346762.000000 1 0 0
-6.405646 -6.153375 -14.548209 17.045430 0.765314 2.593454 0.012128 -0.006185 -40761.300000 1 0 0
-6.087946 -8.232075 -17.404709 20.192920 0.934024 2.609843 0.009214 -0.001724 105997.000000 1 0 0
-2.110446 -16.431775 -13.000909 21.058985 1.443059 2.236175 0.021420 -0.000834 214434.000000 1 0 0
16.179154 -8.073275 -9.233709 20.302812 -0.462841 2.042943 0.076450 -0.017090 118195.000000 1 0 0
19.066654 -2.811775 -3.654909 19.616364 -0.146415 1.758211 0.089768 -0.029253 193301.000000 1 0 0
15.704754 -11.778375 -8.583209 21.425240 -0.643493 1.982981 0.077182 -0.017351 -52114.700000 1 0 0
18.649154 -3.653275 -6.854309 20.201954 -0.193445 1.916958 0.193116 -0.017842 -190633.000000 1 0 0
8.703254 -9.792275 -15.741909 20.480307 -0.844210 2.447503 0.068489 -0.011035 209349.000000 1 0 0
-4.546646 10.120725 -16.460909 19.851010 -1.148574 2.548512 0.006914 0.013641 517652.000000 1 0 0
2.550654 -9.843875 -18.307809 20.942387 -1.317261 2.634580 0.047903 -0.010795 384957.000000 1 0 0
11.062854 8.105625 -14.930409 20.273259 0.632329 2.398616 0.101590 -0.060210 420213.000000 1 0 0
17.897854 -6.891675 -7.320009 20.528295 -0.367558 1.935403 0.050167 -0.031081 -15052.300000 1 0 0
13.085854 5.613425 -13.717509 19.771701 0.405228 2.337542 0.083658 -0.024846 5812.270000 1 0 0
16.061554 6.214125 -10.567409 20.205420 0.369158 2.121162 0.062931 -0.027356 210774.000000 1 0 0
3.409354 -0.302875 -19.149209 19.452702 -0.088604 2.964718 0.048689 -0.012836 217368.000000 1 0 0
10.428654 -1.611575 -14.604209 18.017684 -0.153321 2.515885 0.044384 -0.014978 113327.000000 1 0 0
12.326454 -6.120775 -13.600609 19.348951 -0.460889 2.350280 0.063964 -0.012635 390801.000000 1 0 0
10.103854 6.641625 -12.946609 17.714789 0.581515 2.390343 0.053614 -0.015272 351053.000000 1 0 0
10.667754 5.220625 -16.146109 20.043771 0.455119 2.507387 0.074531 -0.034944 450280.000000 1 0 0
11.761054 -10.300375 -15.223209 21.821233 -0.719285 2.342884 0.092193 -0.019581 446203.000000 1 0 0
-1.736746 1.983425 -17.901209 18.094296 -0.851610 2.995372 0.004690 0.001736 348857.000000 1 0 0
6.586254 -1.257675 -17.088309 18.356764 -0.188683 2.767665 0.040117 -0.000049 41375.700000 1 0 0
7.203554 -6.475275 -15.922009 18.636811 -0.732207 2.595059 0.036768 -0.008770 281649.000000 1 0 0
-2.027946 -5.175675 -20.535709 21.274762 1.197359 2.877239 0.036717 -0.025321 338545.000000 1 0 0
15.730954 -0.418875 -13.456509 20.705459 -0.026621 2.278251 0.052919 -0.010869 21621.000000 1 0 0
-4.018846 -0.585975 -18.319309 18.764103 0.144786 2.923424 0.016220 -0.011401 14868.100000 1 0 0
3.252754 8.582825 -17.889909 20.107067 1.208537 2.667555 0.041616 -0.015643 -47902.600000 1 0 0
9.459354 -0.200075 -17.286709 19.706591 -0.021148 2.640805 0.058061 -0.015298 2423.550000 1 0 0
4.159454 4.455325 -18.179509 19.174085 0.819729 2.818094 0.038079 -0.011232 430263.000000 1 0 0
-3.005946 -11.006975 -17.765609 21.114120 1.304202 2.570681 0.035286 -0.023856 169617.000000 1 0 0
5.690154 -9.801575 -15.903609 19.528786 -1.044813 2.522435 0.027757 -0.012663 -60200.600000 1 0 0
10.050254 -12.474175 -10.774209 19.305342 -0.892599 2.162884 0.036862 -0.006456 214621.000000 1 0 0
6.219754 6.907025 -16.942409 19.324533 0.837707 2.639818 0.051031 -0.016805 428423.000000 1 0 0
9.072454 1.669325 -20.096709 22.112751 0.181964 2.711265 0.095259 -0.022204 145144.000000 1 0 0
-1.242146 -0.782775 -20.277509 20.330593 0.562315 3.069313 0.036343 -0.016738 214396.000000 1 0 0
-1.006646 6.740325 -19.773209 20.914710 -1.422545 2.809681 0.027057 0.001111 96106.400000 1 0 0
8.355554 5.839425 -18.075109 20.751475 0.609965 2.628087 0.076039 -0.028310 159946.000000 1 0 0
12.354354 0.302125 -13.198709 18.081130 0.024450 2.389077 0.041789 -0.003449 -125831.000000 1 0 0
-3.966046 -2.621975 -19.768909 20.332585 0.584143 2.905576 0.004789 -0.016728 454321.000000 1 0 0
6.451154 -11.856675 -14.591609 19.877454 -1.072498 2.395105 0.036577 -0.004969 45632.900000 1 0 0
11.305854 1.857625 -16.158509 19.808345 0.162851 2.524808 0.059696 -0.008938 -68193.000000 1 0 0
-2.844346 -4.303675 -17.052109 17.815340 0.986789 2.847822 0.004387 -0.011044 387213.000000 1 0 0
-6.885646 -4.894475 -17.612209 19.533507 0.617953 2.694345 0.028922 -0.009666 95361.100000 1 0 0
3.228054 10.118525 -15.281109 18.609599 1.261979 2.534204 0.015430 -0.012946 263318.000000 1 0 0
17.167254 -6.396475 -10.781609 21.257295 -0.356663 2.102724 0.103735 -0.022429 -100220.000000 1 0 0
9.914854 -3.391975 -17.621009 20.501458 -0.329629 2.605088 0.063399 -0.022144 -197778.000000 1 0 0
-7.334546 -1.655875 -18.691509 20.147208 0.222041 2.759126 0.026475 -0.004112 601969.000000 1 0 0
1.307954 -7.379675 -19.211409 20.621556 -1.395381 2.769635 0.051803 -0.029124 275790.000000 1 0 0
5.696154 10.182925 -13.945509 18.182831 1.060778 2.444887 0.038846 -0.020069 373354.000000 1 0 0
5.857554 -3.851075 -18.378209 19.669781 -0.581598 2.777191 0.039108 -0.014890 331396.000000 1 0 0
4.594354 13.558325 -14.171609 20.143753 1.244081 2.351140 0.047540 -0.022313 21000.900000 1 0 0
9.849254 11.198625 -15.395309 21.434378 0.849420 2.372085 0.120519 -0.037861 174699.000000 1 0 0
17.322054 0.804725 -11.510009 20.813012 0.046423 2.156781 0.098188 -0.010978 118317.000000 1 0 0
15.280554 -2.711475 -12.313109 19.810605 -0.175618 2.241505 0.081702 -0.016448 271082.000000 1 0 0
-8.947946 0.077825 -17.243609 19.427142 -0.008697 2.662913 0.045089 -0.013389 527765.000000 1 0 0
-3.425346 4.302925 -19.243609 20.014111 -0.898468 2.863213 0.017774 0.008810 79957.300000 1 0 0
3.889454 1.522325 -16.994009 17.499762 0.373069 2.900591 0.029090 -0.003622 579662.000000 1 0 0
-4.994546 14.075825 -14.144009 20.570059 -1.229824 2.328977 0.012420 -0.009064 250610.000000 1 0 0
0.639654 9.301225 -17.865909 20.152237 1.502133 2.660624 0.019192 0.004090 335985.000000 1 0 0
1.349154 -4.986075 -19.836809 20.498296 -1.306540 2.886856 0.044202 -0.012444 419306.000000 1 0 0
3.643354 -6.360775 -18.231509 19.649972 -1.050628 2.759304 0.046217 -0.020243 -114925.000000 1 0 0
-6.550046 7.569225 -15.965509 18.843931 -0.857457 2.581582 -0.001075 0.005686 50830.700000 1 0 0
-11.631046 3.298525 -16.893209 20.773589 -0.276341 2.520436 0.053991 -0.025061 179658.000000 1 0 0
-4.489446 7.008425 -17.701109 19.560225 -1.001073 2.702069 0.002834 0.030434 344740.000000 1 0 0
-8.288046 6.228425 -17.289809 20.159922 -0.644457 2.601445 0.014750 -0.005484 273308.000000 1 0 0
-8.657546 4.681225 -15.468609 18.334253 -0.495683 2.574935 0.000910 -0.001929 534658.000000 1 0 0
9.422154 13.608725 -12.825809 20.939813 0.965215 2.230026 0.095792 -0.044632 490038.000000 1 0 0
13.533354 9.203125 -12.339209 20.496470 0.597199 2.216820 0.080170 -0.029901 149459.000000 1 0 0
8.585354 15.376725 -10.001209 20.252806 1.061577 2.087272 0.066158 -0.029814 80245.700000 1 0 0
7.512954 12.539525 -14.369309 20.497834 1.031008 2.347617 0.104185 -0.048044 115418.000000 1 0 0
4.769854 15.549125 -13.254409 20.981090 1.273149 2.254581 0.045882 -0.014182 195524.000000 1 0 0
11.288454 11.271625 -10.669009 19.191313 0.784652 2.160277 0.106944 -0.052214 115233.000000 1 0 0
16.105054 9.952525 -10.992909 21.892226 0.553532 2.096865 0.110364 -0.007501 282145.000000 1 0 0
13.882054 11.050425 -9.230909 20.000825 0.672311 2.050511 0.145584 -0.032396 180131.000000 1 0 0
10.359554 11.814625 -7.222109 17.293484 0.850924 2.001621 0.051298 -0.013530 9860.940000 1 0 0
5.642554 16.988425 -10.231609 20.618701 1.250119 2.090047 0.073207 -0.019344 -126124.000000 1 0 0
11.465254 13.400025 -10.443709 20.495946 0.863052 2.105458 0.118979 -0.048958 121167.000000 1 0 0
8.630454 -19.566875 -1.665909 21.450468 -1.155389 1.648538 0.073967 -0.010584 187067.000000 1 0 0
8.060554 -17.508575 -4.142609 19.715069 -1.139346 1.782498 0.061781 0.003686 228930.000000 1 0 0
3.950854 -18.167175 4.953591 19.240415 -1.356658 1.310406 0.057587 -0.037559 94453.300000 1 0 0
10.538954 -18.019175 -2.233609 20.994028 -1.041573 1.677391 0.069705 -0.010793 700889.000000 1 0 0
-3.347646 -15.056675 7.973691 17.363466 1.352019 1.093677 0.028614 -0.023835 236443.000000 1 0 0
-15.327146 -12.647975 -4.467009 20.367789 0.689920 1.791911 0.060406 -0.005532 143842.000000 1 0 0
-9.330446 -12.538675 -7.391909 17.289184 0.931060 2.012572 0.034374 -0.010635 161487.000000 1 0 0
-11.615846 -15.181775 6.893091 20.320651 0.917690 1.224713 0.034561 -0.008976 225551.000000 1 0 0
-15.720746 -8.117575 -8.121409 19.467772 0.476650 2.001128 0.108227 -0.015204 -6099.470000 1 0 0
5.273654 -15.220775 7.103491 17.605198 -1.237263 1.155470 0.045136 -0.016106 274371.000000 1 0 0
2.620754 -14.105475 9.051891 16.963770 -1.387094 1.007943 0.014184 -0.009928 422174.000000 1 0 0
3.045354 -17.461875 9.996191 20.349818 -1.398133 1.057309 0.045745 -0.014906 173393.000000 1 0 0
-8.674246 -17.775875 -5.223209 20.457423 1.116812 1.828976 0.048711 -0.009961 80221.100000 1 0 0
2.234554 -20.034175 -4.233609 20.598176 -1.459718 1.777805 0.048972 -0.008119 -3080.690000 1 0 0
-17.302946 -11.165575 -2.259509 20.716355 0.573063 1.680083 -0.028328 -0.005697 -315011.000000 1 0 0
-4.147846 -14.764175 2.923991 15.612021 1.296916 1.382393 0.002269 -0.000344 83343.100000 1 0 0
-10.883946 -10.273875 -14.501109 20.839744 0.756572 2.340384 0.048266 -0.008030 249565.000000 1 0 0
0.801654 -20.370375 2.231091 20.507866 -1.531463 1.461789 0.047296 -0.014587 215321.000000 1 0 0
5.334854 -18.706575 0.883191 19.472458 -1.292985 1.525425 0.035440 0.001431 163035.000000 1 0 0
-6.826646 -17.492875 -3.255509 19.057862 1.198721 1.742461 -0.013050 -0.052744 -206866.000000 1 0 0
-8.852246 -15.683575 -7.455109 19.491419 1.056944 1.963277 0.060058 -0.020002 -160449.000000 1 0 0
-11.482546 -11.366575 -12.116609 20.195546 0.780323 2.214253 0.009850 -0.000030 164007.000000 1 0 0
-13.522146 -14.967075 -3.555409 20.481765 0.836073 1.745269 0.064425 -0.013573 151799.000000 1 0 0
-0.204046 -20.530875 -2.645709 20.701648 1.560858 1.698949 0.046864 -0.013767 398311.000000 1 0 0
-12.609946 -16.381275 -0.307209 20.674895 0.914757 1.585656 0.085346 -0.028366 24221.000000 1 0 0
0.701054 -19.878475 5.215091 20.563132 -1.535544 1.314382 0.058251 -0.029757 125578.000000 1 0 0
-18.318446 -9.343975 2.426291 20.706574 0.471683 1.453352 0.058641 -0.003161 -60326.200000 1 0 0
-14.964746 -14.937175 -0.396009 21.147568 0.784476 1.589523 0.071727 -0.016428 40569.400000 1 0 0
10.448154 -15.730275 -4.909309 19.511709 -0.984499 1.825138 0.048556 -0.000089 58108.700000 1 0 0
-0.225646 -19.160275 -6.793609 20.330277 1.559020 1.911512 0.023962 -0.011853 166069.000000 1 0 0
-10.388146 -18.280075 -1.458109 21.076071 1.054029 1.640035 0.062848 0.032177 423802.000000 1 0 0
-14.726646 -6.719475 -11.193409 19.680392 0.428064 2.175793 0.059758 -0.021323 27331.800000 1 0 0
-12.238246 -15.301175 2.188991 19.715281 0.896163 1.459537 0.046683 -0.013140 336391.000000 1 0 0
-2.614046 -16.203275 9.980091 19.208893 1.410846 1.024465 0.015120 -0.020316 129812.000000 1 0 0
-12.409046 -14.443175 -6.676609 20.178375 0.861006 1.908032 0.048692 -0.009789 144311.000000 1 0 0
5.145254 -16.953875 -7.361109 19.185761 -1.276145 1.964570 0.035714 -0.018743 196341.000000 1 0 0
-17.572146 -7.781275 -3.062109 19.460345 0.416866 1.728804 0.015517 -0.001971 49633.100000 1 0 0
-11.958746 -13.962075 -9.815909 20.839942 0.862531 2.061236 0.049749 -0.016756 17605.000000 1 0 0
-7.835046 -13.758475 9.926791 18.687556 1.053128 1.010782 0.024941 -0.009556 501725.000000 1 0 0
-15.856746 -8.286275 -5.579209 18.741032 0.481541 1.873079 0.040988 -0.005000 363403.000000 1 0 0
-0.871746 -19.548975 -0.347609 19.571489 1.526233 1.588558 0.027142 -0.018658 231478.000000 1 0 0
-14.940446 -11.560775 -1.921409 18.988424 0.658554 1.672158 0.024507 0.005502 25725.500000 1 0 0
-6.623446 -18.981975 1.533791 20.162785 1.235072 1.494652 0.008987 -0.012279 -120756.000000 1 0 0
-2.269446 -20.756375 -5.138709 21.503112 1.461892 1.812107 0.037260 -0.012244 16421.600000 1 0 0
-8.428346 -19.819475 -1.179709 21.569430 1.168709 1.625517 0.015969 -0.000645 120323.000000 1 0 0
-17.710346 -7.199275 5.445391 19.878083 0.386098 1.293310 0.038017 -0.007681 -50437.600000 1 0 0
-2.453746 -15.668175 -10.629509 19.091858 1.415451 2.161272 0.010547 -0.003018 111131.000000 1 0 0
-3.152846 -18.663875 -7.490609 20.356568 1.403449 1.947621 0.013807 0.000234 134483.000000 1 0 0
4.495654 -17.511975 -4.481809 18.627044 -1.319504 1.813788 0.039844 -0.017585 738020.000000 1 0 0
0.458554 -17.513775 -8.985209 19.689504 -1.544620 2.044680 0.009837 0.004266 24490.300000 1 0 0
-7.600246 -9.936675 -14.679709 19.287174 0.917847 2.435823 0.006289 -0.008441 -15626.000000 1 0 0
-5.338346 -18.963075 -1.817909 19.783855 1.296385 1.662815 0.029943 -0.029357 76056.100000 1 0 0
-10.448146 -14.995575 8.830091 20.297821 0.962256 1.120729 0.030182 -0.030915 5956.660000 1 0 0
-7.308346 -15.679875 -9.891309 19.927578 1.134637 2.090200 0.026628 0.000381 268991.000000 1 0 0
-12.720846 -8.156275 -11.920809 19.247088 0.570146 2.238719 0.051110 -0.022845 398718.000000 1 0 0
-15.679346 -13.097975 3.103291 20.664686 0.695936 1.420052 0.046499 -0.008716 73409.600000 1 0 0
-6.248846 -14.140475 -12.728609 20.025448 1.154689 2.259610 0.006128 -0.001564 501936.000000 1 0 0
-14.028346 -11.921975 -6.789209 19.621960 0.704406 1.924101 0.059346 -0.009621 257378.000000 1 0 0
-11.805646 -10.345575 -8.185409 17.703251 0.719580 2.051460 0.037946 -0.012488 171715.000000 1 0 0
-10.157546 -14.712375 3.732691 18.263699 0.966537 1.364968 0.013567 -0.003778 557394.000000 1 0 0
4.962254 -18.548975 7.879091 20.754964 -1.309396 1.181406 0.064100 -0.021028 264293.000000 1 0 0
-5.108446 -16.858775 5.894691 18.575842 1.276577 1.247883 0.009877 0.020722 603176.000000 1 0 0
-18.600046 -7.212075 -6.853509 21.093750 0.369897 1.901710 0.066632 -0.026837 151613.000000 1 0 0
-17.053746 -4.967875 -10.629709 20.700259 0.283463 2.110062 0.063371 -0.009184 -141098.000000 1 0 0
-15.862246 -4.129675 -12.911309 20.865448 0.254692 2.237996 0.060272 -0.019251 319774.000000 1 0 0
-19.530746 -5.175875 -6.009909 21.079817 0.259057 1.859910 0.061360 -0.010843 -47974.300000 1 0 0
5.318054 -13.760875 8.923391 17.241528 -1.202015 1.026809 0.027011 -0.003861 365778.000000 1 0 0
19.821154 -3.135275 2.678391 20.245540 -0.156878 1.438112 0.079568 -0.016627 -33600.200000 1 0 0
18.047954 -2.567175 0.176391 18.230473 -0.141294 1.561121 0.057623 -0.013417 234757.000000 1 0 0
14.275454 -11.264575 0.265891 18.186532 -0.668051 1.556176 0.053021 -0.005734 26635.800000 1 0 0
11.379854 -13.972075 5.566391 18.860135 -0.887293 1.271194 0.044991 -0.000475 576925.000000 1 0 0
10.145354 -12.803875 8.256791 18.304153 -0.900728 1.102812 0.042058 -0.034543 -140967.000000 1 0 0
18.890954 4.058425 -4.488609 19.836496 0.211618 1.799054 0.076641 -0.001711 -25090.600000 1 0 0
18.946354 -6.002875 -4.351609 20.345401 -0.306830 1.786348 0.099909 -0.030429 -66369.800000 1 0 0
17.833554 -10.006375 -0.520809 20.455670 -0.511324 1.596259 0.089758 -0.018048 208511.000000 1 0 0
17.754454 -8.872075 8.302491 21.514314 -0.463415 1.174607 0.117050 -0.030470 4584.810000 1 0 0
19.575454 0.433825 -2.488609 19.737776 0.022158 1.697216 0.061005 -0.005552 85779.900000 1 0 0
7.535554 -13.408875 11.667491 19.305773 -1.058800 0.921843 0.035407 -0.005381 339915.000000 1 0 0
16.298854 -6.771775 -3.248809 17.946151 -0.393776 1.752831 0.081276 -0.016088 305482.000000 1 0 0
14.450854 -6.869475 11.893491 19.936700 -0.443749 0.931585 0.083477 -0.039996 377597.000000 1 0 0
17.052054 1.128325 9.459391 19.532684 0.066073 1.065250 0.137060 -0.033776 425938.000000 1 0 0
16.385554 -10.078175 2.623391 19.414896 -0.551423 1.435259 0.022993 -0.013299 333249.000000 1 0 0
16.109154 -7.186075 -5.690209 18.534374 -0.419595 1.882844 0.080794 -0.018191 215550.000000 1 0 0
18.594954 -4.392975 6.126891 20.065128 -0.231992 1.260490 0.136741 -0.015400 -77467.300000 1 0 0
14.191454 -13.224375 7.839191 20.922103 -0.750138 1.186740 0.084011 -0.031524 231106.000000 1 0 0
15.568654 -14.054875 -1.256509 21.011933 -0.734342 1.630632 0.074774 -0.010067 187779.000000 1 0 0
18.751854 -6.247875 8.373291 21.465787 -0.321619 1.170082 0.114789 -0.024872 421917.000000 1 0 0
19.781754 3.721025 2.536291 20.287844 0.185931 1.445453 0.069695 0.000173 351681.000000 1 0 0
15.733754 -10.469075 8.303491 20.642202 -0.587118 1.156814 0.076289 -0.036696 341592.000000 1 0 0
14.224954 -4.039475 10.710991 18.259026 -0.276687 0.943925 0.071486 -0.023460 -137202.000000 1 0 0
18.637254 -7.862575 2.087991 20.335364 -0.399220 1.467937 0.100604 -0.022303 58121.600000 1 0 0
19.093054 -6.293675 -1.273109 20.143879 -0.318415 1.634039 0.098168 -0.024893 76260.400000 1 0 0
14.845454 -13.323775 -6.161909 20.877730 -0.731431 1.870401 0.089608 -0.022693 507321.000000 1 0 0
13.763054 -9.777975 10.397191 19.827558 -0.617706 1.018809 0.047127 -0.018250 411551.000000 1 0 0
14.354954 2.131125 0.489891 14.520551 0.147383 1.537052 0.004838 -0.000086 -87877.900000 1 0 0
13.006254 2.764525 13.558991 18.990827 0.209437 0.775636 0.064397 -0.008239 260848.000000 1 0 0
18.381854 -3.051775 9.288991 20.820453 -0.164520 1.108340 0.099520 -0.022481 59482.900000 1 0 0
7.150454 -17.951475 5.097291 19.984164 -1.191738 1.312880 0.062420 -0.034512 364370.000000 1 0 0
12.347854 -3.835375 14.482591 19.414558 -0.301163 0.728813 0.074014 -0.008820 226780.000000 1 0 0
11.174754 -13.671575 -6.747709 18.902875 -0.885552 1.935816 0.037264 -0.016560 177537.000000 1 0 0
10.935154 -17.635875 4.317991 21.195441 -1.015763 1.365638 0.062141 -0.021013 621311.000000 1 0 0
18.097754 -0.670375 -5.840909 19.028776 -0.037025 1.882784 0.069415 -0.009040 228955.000000 1 0 0
4.362454 -13.644675 11.421391 18.320926 -1.261349 0.897704 0.013521 -0.010727 195552.000000 1 0 0
8.965154 -2.515575 14.099991 16.897096 -0.273560 0.583640 0.020588 -0.011683 366675.000000 1 0 0
9.161454 -9.320075 14.034991 19.177513 -0.793981 0.749769 0.046793 -0.014174 285721.000000 1 0 0
21.062554 5.819825 -2.732109 22.021943 0.269585 1.695180 0.097097 -0.003014 458239.000000 1 0 0
14.716254 -13.551275 2.149491 20.120276 -0.744209 1.463760 0.043033 -0.003694 345445.000000 1 0 0
11.531954 -1.138775 15.781091 19.578703 -0.098430 0.633377 0.080272 0.008182 75647.000000 1 0 0
19.660554 0.112525 7.697391 21.113974 0.005723 1.197632 0.117311 -0.025897 190724.000000 1 0 0
19.585554 1.443525 0.687191 19.650698 0.073571 1.535819 0.050317 -0.003376 242698.000000 1 0 0
18.130954 0.566325 3.159291 18.412858 0.031225 1.398362 0.041924 -0.003148 -84077.800000 1 0 0
10.058054 -8.350275 16.337991 20.924185 -0.692891 0.674821 0.044892 -0.008400 153560.000000 1 0 0
18.668154 3.178325 5.723991 19.782968 0.168637 1.277260 0.025501 -0.003005 -172126.000000 1 0 0
15.817254 2.503225 7.307691 17.602671 0.156957 1.142692 0.056235 -0.009892 26456.200000 1 0 0
11.507654 -15.916475 1.961191 19.738454 -0.944799 1.471273 0.032625 -0.004491 242589.000000 1 0 0
8.854954 -16.584375 7.038791 20.074767 -1.080372 1.212554 0.055895 -0.002094 228856.000000 1 0 0
6.122954 6.739725 7.256191 11.643315 0.833312 0.897960 -0.000429 0.001498 -1216120.000000 1 0 0
18.635054 2.520825 -6.451109 19.880559 0.134457 1.901272 0.074544 -0.009518 339133.000000 1 0 0
14.452754 4.251225 -6.905909 16.572465 0.286078 2.000619 0.035255 -0.011717 182001.000000 1 0 0
-10.799546 -3.823875 -13.665309 17.832354 0.340303 2.443891 0.030790 -0.008694 -331543.000000 1 0 0
7.862654 -14.098475 -10.384209 19.194273 -1.062064 2.142429 0.032109 -0.007855 123420.000000 1 0 0
1.940754 -15.748175 14.039491 21.186761 -1.448178 0.846439 0.011572 -0.012782 455845.000000 1 0 0
-9.432546 -7.910775 2.280791 12.520195 0.697878 1.387604 0.005441 0.001684 412335.000000 1 0 0
-13.932846 2.862725 -10.002409 17.388719 -0.202646 2.183674 0.028050 -0.005611 345670.000000 1 0 0
-13.136946 -5.153375 -13.127309 19.273371 0.373834 2.320076 0.054168 -0.004450 -159324.000000 1 0 0
-18.136646 -1.164575 -8.511309 20.068296 0.064123 2.008783 0.076981 -0.032947 355722.000000 1 0 0
-12.496746 14.817725 4.808991 19.971480 -0.870167 1.327614 0.033734 -0.024229 276969.000000 1 0 0
-16.929346 6.228325 9.402691 20.342207 -0.352533 1.090293 0.005651 -0.021734 72686.900000 1 0 0
-13.991346 15.417425 -0.313309 20.821933 -0.833852 1.585844 0.052329 -0.023789 354077.000000 1 0 0
-16.273646 5.341925 -10.721809 20.207050 -0.317174 2.130102 0.077975 -0.017327 7320.440000 1 0 0
-18.494046 2.890225 -0.309809 18.721087 -0.155025 1.587346 0.067008 -0.011110 -9235.120000 1 0 0
-10.112146 15.350525 -0.342609 18.385089 -0.988295 1.589433 0.022135 -0.008361 117617.000000 1 0 0
-18.737346 12.022125 2.422691 22.393951 -0.570457 1.462399 0.105338 -0.044039 194942.000000 1 0 0
-8.307246 16.608025 -7.744609 20.120035 -1.106993 1.965918 0.056471 -0.020366 221821.000000 1 0 0
-14.985546 -1.664175 -12.799809 19.778047 0.110599 2.274666 0.050611 -0.026432 91978.800000 1 0 0
-19.159346 4.846025 -4.840709 20.346915 -0.247737 1.811009 0.086273 -0.021148 19476.100000 1 0 0
-16.583246 9.575825 -5.754309 19.995313 -0.523666 1.862707 0.053705 0.001260 -81848.900000 1 0 0
-19.100346 1.434125 2.281991 19.289567 -0.074943 1.452217 0.063412 -0.017552 482179.000000 1 0 0
-13.254246 12.008925 -6.953709 19.189668 -0.736144 1.941603 0.025984 -0.010515 -141823.000000 1 0 0
-12.926546 5.037325 -13.395109 19.284687 -0.371586 2.338658 0.058824 -0.031817 -300848.000000 1 0 0
-14.029046 9.342225 -6.706209 18.140136 -0.587486 1.949471 0.029528 -0.011285 193034.000000 1 0 0
-6.481346 11.811925 -15.413609 20.472146 -1.068942 2.423263 0.011978 -0.013716 -24647.800000 1 0 0
-14.905446 14.036825 3.144591 20.714565 -0.755395 1.418401 0.024230 -0.022304 -10223.300000 1 0 0
-18.473246 8.527825 -5.019109 20.956528 -0.432484 1.812648 0.060666 -0.018741 200999.000000 1 0 0
-4.806946 16.214425 -11.176009 20.271100 -1.282589 2.154751 0.007436 -0.001492 -231577.000000 1 0 0
-19.209846 -2.505975 -6.349209 20.386528 0.129720 1.887506 0.025410 -0.015448 -23646.900000 1 0 0
-10.481446 14.003925 -6.507509 18.663287 -0.928278 1.926958 0.021018 -0.006329 64249.900000 1 0 0
-19.370446 3.224125 4.256491 20.092956 -0.164934 1.357339 0.063227 -0.014543 107155.000000 1 0 0
-14.899646 12.117325 0.511991 19.211745 -0.682776 1.544143 0.009528 -0.024390 129624.000000 1 0 0
-17.466746 2.974425 -7.870009 19.387404 -0.168673 1.988797 0.046691 -0.027800 269433.000000 1 0 0
-17.078746 13.778825 -3.373309 22.201774 -0.678863 1.723326 0.077109 0.026413 401366.000000 1 0 0
-10.511146 15.757225 -9.083609 21.006815 -0.982516 2.017963 0.038689 -0.010949 154865.000000 1 0 0
-19.250446 1.585825 -6.606109 20.414092 -0.082193 1.900334 0.070499 -0.028536 300650.000000 1 0 0
-17.593746 10.355625 -0.532809 20.422114 -0.531993 1.596889 0.056540 -0.015185 107776.000000 1 0 0
-11.728346 6.440525 -14.598009 19.802432 -0.502184 2.399688 0.035651 -0.023383 351590.000000 1 0 0
-14.307346 12.087625 -5.009409 19.388270 -0.701499 1.832134 0.036654 -0.013298 172541.000000 1 0 0
-18.804846 7.560325 0.012791 20.267730 -0.382265 1.570165 0.047652 -0.014498 -57090.900000 1 0 0
-14.410646 8.676125 -10.442009 19.798419 -0.541935 2.126353 0.038572 -0.006194 598392.000000 1 0 0
-18.158246 11.292425 5.116491 21.986797 -0.556360 1.335936 0.043730 -0.041809 141770.000000 1 0 0
-8.057446 12.102125 -13.633109 19.931019 -0.983403 2.324048 -0.003656 -0.001866 342998.000000 1 0 0
-20.961146 -0.210275 -5.168909 21.590078 0.010031 1.812556 0.076007 -0.023106 134611.000000 1 0 0
-10.844246 13.426825 -3.443909 17.599369 -0.891405 1.767751 0.019099 0.003148 549970.000000 1 0 0
-18.643946 -4.829775 3.905791 19.651428 0.253481 1.370710 0.047476 -0.009565 -52128.000000 1 0 0
-11.325046 11.400625 -13.443309 20.951216 -0.788724 2.267441 0.027479 -0.006651 173398.000000 1 0 0
-14.868546 11.219525 -10.211109 21.241896 -0.646427 2.072256 0.062680 -0.024760 268456.000000 1 0 0
-12.934946 9.532525 -13.940609 21.272574 -0.635103 2.285419 0.070119 -0.024461 244700.000000 1 0 0
-18.015746 -5.114875 -3.181209 18.996029 0.276632 1.739056 0.000624 -0.003013 -215798.000000 1 0 0
-9.492346 12.465825 -11.538709 19.458757 -0.919995 2.205555 0.025868 -0.015543 -46792.000000 1 0 0
-15.197046 7.709625 -8.239109 18.928059 -0.469479 2.021152 0.018613 -0.005205 45345.700000 1 0 0
-14.849246 8.450625 2.242191 17.231964 -0.517385 1.440308 0.026615 -0.013122 -180478.000000 1 0 0
-19.572146 6.086125 8.499791 22.189102 -0.301480 1.177688 0.063290 -0.022984 354782.000000 1 0 0
-19.121346 6.630325 4.366291 20.703902 -0.333777 1.358309 0.049359 -0.004150 -9591.370000 1 0 0
-14.752246 12.817225 5.833391 20.394569 -0.715326 1.280719 0.037660 -0.021014 -17013.600000 1 0 0
18.002454 6.235325 5.435791 19.812003 0.333428 1.292863 0.042091 -0.015537 140557.000000 1 0 0
18.658954 8.213525 0.337291 20.389516 0.414668 1.554253 0.059504 0.007149 46213.100000 1 0 0
15.905554 5.134025 8.948591 18.958433 0.312224 1.079226 0.029652 0.000088 -135682.000000 1 0 0
11.825954 13.230025 10.578791 20.659080 0.841377 1.033209 0.027969 -0.010024 135037.000000 1 0 0
15.716254 12.222225 3.913591 20.290383 0.660983 1.376701 0.056816 -0.014282 247652.000000 1 0 0
5.508754 10.525425 14.325091 18.610191 1.088623 0.692356 0.016023 -0.000171 211129.000000 1 0 0
12.318554 14.363625 -5.436709 19.688025 0.861894 1.850575 0.036377 0.030336 156889.000000 1 0 0
17.946654 9.329325 -2.747009 20.412368 0.479391 1.705782 0.048038 -0.003722 -90550.600000 1 0 0
14.337254 7.887925 9.435591 18.889325 0.502974 1.047752 0.039663 -0.009944 241555.000000 1 0 0
4.656054 19.343925 -2.300709 20.028968 1.334591 1.685920 0.026565 -0.013234 460457.000000 1 0 0
-4.504846 19.074525 3.192791 19.857620 -1.338875 1.409311 -0.001378 -0.014492 210385.000000 1 0 0
6.959054 13.220325 12.354491 19.386565 1.086260 0.879845 0.022900 0.010202 -246353.000000 1 0 0
0.044854 17.256425 -10.149709 20.020060 1.568197 2.102470 0.026285 0.001974 126268.000000 1 0 0
10.763854 9.384925 15.612691 21.158769 0.717067 0.740868 0.051242 -0.009844 176273.000000 1 0 0
-1.185446 12.348825 1.068191 12.451498 -1.475093 1.484903 -0.001379 -0.002701 393739.000000 1 0 0
-4.708146 19.248025 -2.588909 19.983882 -1.330903 1.700711 0.011216 0.009786 186404.000000 1 0 0
5.437254 18.747225 6.158091 20.468128 1.288511 1.265199 0.034184 -0.004074 83314.300000 1 0 0
11.319054 17.150025 -1.508609 20.603889 0.987422 1.644082 0.040288 -0.013831 317038.000000 1 0 0
18.479654 10.726325 2.752091 21.543576 0.525913 1.442701 0.047075 -0.006625 311649.000000 1 0 0
11.754454 16.528025 6.637591 21.340113 0.952604 1.254511 0.049450 0.000833 85968.200000 1 0 0
18.017654 6.970325 -5.801709 20.171295 0.369128 1.862539 0.045167 -0.001375 407801.000000 1 0 0
-0.169046 15.660725 11.577191 19.476094 -1.560003 0.934239 0.000599 0.023130 331618.000000 1 0 0
0.918754 20.118325 -1.950609 20.233536 1.525160 1.667351 0.014980 -0.016001 234340.000000 1 0 0
14.793954 9.673525 -1.445609 17.734936 0.579101 1.652399 0.041983 -0.004960 20358.300000 1 0 0
10.355454 16.788825 2.105391 19.837660 1.018111 1.464465 0.043831 -0.023522 240175.000000 1 0 0
0.130354 17.631225 -0.412309 17.636527 1.563403 1.594177 -0.000293 -0.007523 36667.400000 1 0 0
-0.300646 21.089225 1.172691 21.123944 -1.556541 1.515253 0.020553 -0.004909 289821.000000 1 0 0
5.469054 18.242825 0.142391 19.045511 1.279530 1.563320 0.011921 -0.008712 -134307.000000 1 0 0
7.002354 18.142025 -1.793209 19.528995 1.202439 1.662749 0.024360 -0.020404 90064.500000 1 0 0
10.306854 9.676025 12.681891 18.991763 0.753840 0.839604 0.025448 0.001718 57984.700000 1 0 0
13.038454 14.784225 8.171891 21.339035 0.848062 1.177803 0.053545 -0.012975 350003.000000 1 0 0
0.234354 17.594325 6.958391 18.921797 1.557477 1.194214 0.004384 -0.004500 191999.000000 1 0 0
7.347954 17.915325 -8.052509 20.971271 1.181571 1.964897 0.047460 -0.015752 114006.000000 1 0 0
-1.196746 18.527525 9.036191 20.648345 -1.506293 1.117843 0.029984 -0.016896 195460.000000 1 0 0
16.073754 6.675425 -8.002909 19.156551 0.393626 2.001779 0.069750 -0.003171 -144699.000000 1 0 0
-5.181546 19.845825 -6.949309 21.656364 -1.315408 1.897465 0.005346 -0.005200 245333.000000 1 0 0
3.653754 15.682525 9.654891 18.775208 1.341897 1.030680 0.014208 0.002137 210543.000000 1 0 0
8.953654 14.907425 7.688691 19.013554 1.029923 1.154496 0.019393 -0.000784 244523.000000 1 0 0
-2.586546 19.844425 6.166491 20.940799 -1.441186 1.271893 0.013732 -0.004221 173554.000000 1 0 0
4.871054 18.017525 8.301891 20.427427 1.306757 1.152276 0.029438 -0.007228 138561.000000 1 0 0
14.524454 12.104125 -6.505809 19.994879 0.694755 1.902203 0.045554 -0.006300 152124.000000 1 0 0
11.548354 7.034425 15.804691 20.799901 0.547104 0.707722 0.052963 -0.008409 282846.000000 1 0 0
17.182054 9.015225 4.742691 19.974744 0.483203 1.331072 0.052151 -0.009363 215395.000000 1 0 0
5.038454 15.158325 12.040591 20.003417 1.249896 0.924885 0.005033 -0.001189 433502.000000 1 0 0
16.270254 10.119525 -4.092809 19.592781 0.556414 1.781240 0.072828 -0.014917 296344.000000 1 0 0
15.361054 13.524025 5.950991 21.313741 0.721886 1.287826 0.071553 -0.012297 445031.000000 1 0 0
12.771154 14.133525 -8.629109 20.912208 0.835992 1.996141 0.124399 -0.036025 63782.200000 1 0 0
-8.095646 15.549425 9.678891 20.025110 -1.090774 1.066333 0.037666 -0.020160 197492.000000 1 0 0
-3.787846 17.688425 -8.054709 19.801679 -1.359840 1.989711 -0.007763 0.041684 144049.000000 1 0 0
2.059754 19.962925 -4.449909 20.556329 1.467981 1.788998 0.024339 -0.015074 43963.700000 1 0 0
7.026554 16.263525 9.202491 19.963982 1.162975 1.091726 0.029484 -0.010548 525980.000000 1 0 0
13.467654 15.316525 -1.702009 20.466326 0.849542 1.654054 0.073360 -0.017299 121099.000000 1 0 0
12.698054 16.703225 4.331491 21.424288 0.920789 1.367216 0.053521 -0.021090 323429.000000 1 0 0
2.492654 18.328225 0.494891 18.503569 1.435625 1.544047 0.018504 -0.021154 28482.400000 1 0 0
-7.066846 17.809925 1.425391 19.213680 -1.193058 1.496542 -0.007168 0.017634 308056.000000 1 0 0
0.041554 20.045725 -5.855809 20.883566 1.568723 1.855010 0.041800 -0.002685 218799.000000 1 0 0
-7.836246 18.158025 -6.244609 20.739232 -1.163384 1.876644 0.058851 -0.016104 183093.000000 1 0 0
-7.104046 18.483625 -0.912709 19.822838 -1.203860 1.616856 0.028239 -0.004795 107356.000000 1 0 0
-14.621746 -9.376975 8.621091 19.391914 0.570237 1.110101 0.033391 -0.013169 284658.000000 1 0 0
-13.339546 -13.456075 8.101791 20.607000 0.789747 1.166733 0.036753 -0.008597 -132788.000000 1 0 0
-4.031746 -15.848375 12.564091 20.622375 1.321686 0.915687 0.037582 -0.016329 191451.000000 1 0 0
-1.878346 -15.044775 15.531891 21.705139 1.446589 0.773334 0.022458 -0.002284 362377.000000 1 0 0
-7.640546 -13.783275 13.312491 20.629567 1.064631 0.869366 0.021539 -0.013541 172447.000000 1 0 0
-10.009546 -10.611975 12.023891 18.904470 0.814603 0.881448 0.043133 -0.020749 -51183.100000 1 0 0
-7.361346 -10.407575 13.039891 18.235838 0.955183 0.774073 0.024149 -0.015661 272919.000000 1 0 0
-15.461546 -12.160575 6.872291 20.836683 0.666458 1.234687 0.042240 -0.018468 231323.000000 1 0 0
-4.414846 -12.050975 13.094391 18.335210 1.219633 0.775364 0.019493 -0.028058 237829.000000 1 0 0
3.662954 -12.581475 13.737991 18.985340 -1.287489 0.761777 0.003616 -0.003428 374060.000000 1 0 0
6.962954 -13.381875 15.044491 21.304789 -1.091019 0.786743 0.052397 0.006378 337208.000000 1 0 0
7.171154 -9.132075 16.889691 20.495900 -0.905101 0.602269 0.033734 -0.000478 382092.000000 1 0 0
-5.190646 13.284525 13.565591 19.683665 -1.198308 0.810439 0.026378 -0.011516 431898.000000 1 0 0
-13.170346 -2.207475 17.700991 22.173318 0.166066 0.646327 0.040617 -0.007568 306410.000000 1 0 0
-10.221346 9.696025 12.618391 18.913292 -0.759029 0.840392 0.030926 -0.012284 286177.000000 1 0 0
-7.404946 -8.162475 17.308791 20.519587 0.834021 0.566983 0.035877 -0.007728 113187.000000 1 0 0
-4.870446 2.079225 18.365091 19.113372 -0.403484 0.280741 0.019118 -0.002018 608957.000000 1 0 0
-16.062246 -3.273575 14.044591 21.586166 0.201052 0.862384 0.086738 -0.024300 -114141.000000 1 0 0
-14.424846 3.515225 12.736591 19.561537 -0.239033 0.861758 0.035535 -0.003650 245975.000000 1 0 0
-14.825446 10.585125 9.144091 20.382667 -0.620049 1.105575 0.001933 -0.014808 -63632.700000 1 0 0
-4.004646 11.528525 15.815591 19.976912 -1.236468 0.657220 0.004225 -0.001347 149798.000000 1 0 0
-13.379946 12.529925 8.268891 20.109613 -0.752603 1.147036 0.024262 -0.036892 41695.100000 1 0 0
-4.107646 -6.384075 18.575291 20.066654 0.999060 0.387968 0.039438 -0.016433 331201.000000 1 0 0
0.380554 -2.970475 18.001491 18.248897 -1.443378 0.164852 0.017404 -0.014190 33119.000000 1 0 0
-4.607046 6.478025 21.029291 22.481565 -0.952606 0.361403 0.051648 -0.014271 408431.000000 1 0 0
2.326554 -10.649875 16.374291 19.671047 -1.355717 0.587362 0.011346 -0.011583 340020.000000 1 0 0
-14.806946 -0.137575 13.737891 20.198867 0.009291 0.822854 0.034176 -0.013357 -2268.770000 1 0 0
-13.977046 -6.149075 8.408091 17.431722 0.414457 1.067467 0.021505 -0.001779 80455.500000 1 0 0
10.152854 1.275425 16.213891 19.172831 0.124968 0.562977 0.065371 -0.003262 441748.000000 1 0 0
-7.618346 12.250325 11.571891 18.493737 -1.014437 0.894743 0.026070 -0.023100 83184.200000 1 0 0
-1.882146 7.534525 19.782191 21.251980 -1.326003 0.374092 0.055185 -0.029283 356215.000000 1 0 0
0.876854 -14.050875 15.794791 21.158246 -1.508471 0.727999 -0.005376 0.005634 418804.000000 1 0 0
-3.639446 -11.663175 17.976891 21.735773 1.268325 0.596931 0.041841 -0.009629 319620.000000 1 0 0
-1.948146 9.135725 16.331691 18.814380 -1.360698 0.519549 0.020021 -0.016894 335577.000000 1 0 0
-4.970046 -9.557075 20.522491 23.177827 1.091247 0.483364 0.084110 -0.024167 292779.000000 1 0 0
-6.804046 -2.797775 18.930291 20.309567 0.390118 0.370663 0.028230 -0.021148 162296.000000 1 0 0
-10.724146 -7.950575 15.990691 20.830774 0.637956 0.695634 0.050542 -0.021450 362538.000000 1 0 0
-0.651346 6.262125 17.735891 18.820210 -1.467156 0.341106 0.032218 -0.017361 47097.100000 1 0 0
-6.230046 -11.309575 18.803791 22.810141 1.067289 0.601724 0.082306 -0.022601 345684.000000 1 0 0
0.761254 3.479825 18.845291 19.178991 1.355427 0.186815 0.028086 -0.009058 20261.900000 1 0 0
-18.684146 -0.008675 7.287591 20.055083 0.000464 1.198904 0.068368 -0.021174 277173.000000 1 0 0
-1.754346 -8.796875 17.640691 19.790319 1.373951 0.470416 0.028007 -0.013088 324734.000000 1 0 0
6.029354 3.522125 15.048491 16.589622 0.528693 0.434448 0.012403 -0.000205 456434.000000 1 0 0
-14.825746 -7.060275 10.632591 19.562776 0.444441 0.996182 0.080177 0.001569 92138.400000 1 0 0
3.787954 8.154925 16.723391 18.987449 1.135951 0.493331 0.024372 -0.011810 298715.000000 1 0 0
6.206054 4.393225 17.134491 18.745835 0.616004 0.417655 0.038847 -0.037966 144343.000000 1 0 0
5.185854 -9.647175 18.259991 21.292918 -1.077561 0.540286 0.016743 0.007760 358644.000000 1 0 0
-4.515846 -0.352975 19.697191 20.211304 0.078005 0.226033 0.031290 -0.013817 567059.000000 1 0 0
-11.051646 1.460025 17.273091 20.557972 -0.131349 0.573119 0.040240 -0.009017 118095.000000 1 0 0
-16.663046 -4.166175 9.036991 19.408279 0.245002 1.086455 0.031759 -0.009439 381969.000000 1 0 0
-13.240846 -9.465475 12.396091 20.459186 0.620636 0.919908 0.050570 -0.029082 149067.000000 1 0 0
-14.811346 6.126925 12.740891 20.475485 -0.392230 0.899181 0.046207 -0.030086 438913.000000 1 0 0
1.380754 9.137225 16.845191 19.213429 1.420818 0.501754 0.026137 -0.025693 8637.820000 1 0 0
-3.980246 -10.444075 14.953091 18.668583 1.206688 0.641872 0.027709 -0.015004 756772.000000 1 0 0
-18.559346 -2.920975 6.654191 19.931374 0.156105 1.230406 0.096586 -0.019852 -202214.000000 1 0 0
-1.081446 -0.502875 21.082191 21.115899 0.435260 0.056511 0.043866 -0.011216 310520.000000 1 0 0
-1.798546 2.478925 20.333591 20.562947 -0.943138 0.149497 0.034454 -0.012436 188659.000000 1 0 0
-7.872646 1.823525 16.278891 18.174325 -0.227614 0.460775 0.001979 0.005956 466679.000000 1 0 0
3.244854 -3.048175 18.543691 19.070630 -0.754155 0.235623 0.038233 -0.007784 63769.900000 1 0 0
-11.732746 3.802425 15.225291 19.594011 -0.313406 0.680850 -0.003343 0.000519 139025.000000 1 0 0
-13.160646 -5.430975 13.034191 19.302544 0.391379 0.829482 0.012956 -0.014465 -20530.400000 1 0 0
-17.383146 -0.914175 9.480491 19.821432 0.052541 1.072084 0.062971 -0.029981 242437.000000 1 0 0
-7.728546 7.575025 14.535391 18.121507 -0.775367 0.639981 0.020617 -0.016001 -3885.630000 1 0 0
-9.846946 1.152025 14.068291 17.210645 -0.116464 0.613882 0.019135 -0.005796 -14763.700000 1 0 0
7.389754 -0.923475 15.273291 16.992195 -0.124322 0.453677 0.030524 -0.006699 195255.000000 1 0 0
3.977754 6.542325 18.387791 19.918218 1.024513 0.394563 0.029341 -0.004792 285229.000000 1 0 0
1.832054 0.574625 20.056091 20.147789 0.303933 0.095443 0.032816 -0.000608 199195.000000 1 0 0
-7.058246 6.821825 17.352091 19.936178 -0.768367 0.514819 0.015813 -0.015473 666902.000000 1 0 0
7.639454 -3.234175 16.847891 18.779579 -0.400474 0.457547 0.036318 -0.001035 461870.000000 1 0 0
-16.525246 2.697625 9.410591 19.207294 -0.161815 1.058765 0.043842 -0.014926 269625.000000 1 0 0
4.161154 -6.250775 18.823691 20.266197 -0.983462 0.379575 0.037795 -0.024999 139541.000000 1 0 0
-4.086846 -3.903175 20.278091 21.050845 0.762415 0.271793 0.043854 -0.025230 146576.000000 1 0 0
-9.543646 6.004625 14.390691 18.281922 -0.561596 0.664615 0.025720 -0.010623 -221741.000000 1 0 0
6.653954 2.753425 19.809091 21.077394 0.392348 0.348675 0.068664 -0.022300 146672.000000 1 0 0
-7.426246 11.498525 14.564191 19.987018 -0.997349 0.754400 0.032985 -0.019240 262948.000000 1 0 0
-14.237946 5.184125 9.895291 18.097266 -0.349186 0.992278 0.018739 -0.012151 262336.000000 1 0 0
0.999454 -5.658575 20.225191 21.025621 -1.395973 0.276815 0.049195 -0.024269 205452.000000 1 0 0
-6.264046 -8.344775 13.697091 17.218706 0.926876 0.651001 0.018224 -0.005723 376118.000000 1 0 0
-12.810046 10.230425 6.209891 17.530591 -0.673902 1.208704 -0.005779 -0.020375 70726.000000 1 0 0
-19.567246 2.463725 7.747991 21.189111 -0.125252 1.196455 0.055255 -0.024539 -64855.600000 1 0 0
-15.763146 9.290125 6.028591 19.264659 -0.532557 1.252514 0.016473 -0.017977 74827.400000 1 0 0
-12.557646 6.681725 14.174091 20.080956 -0.488984 0.787178 0.026531 -0.025426 89974.500000 1 0 0
-16.414346 8.886325 10.734791 21.532145 -0.496198 1.048874 0.031869 -0.020434 245866.000000 1 0 0
2.717254 10.284425 14.631191 18.089351 1.312488 0.628638 0.020726 -0.043345 222442.000000 1 0 0
2.246954 15.368725 13.045191 20.283578 1.425622 0.872204 0.010049 -0.003249 483524.000000 1 0 0
8.908654 4.781325 16.650091 19.479495 0.492579 0.545728 0.042984 -0.005003 57067.000000 1 0 0
0.030654 13.321525 13.387791 18.886422 1.568495 0.782918 0.006078 0.002857 253961.000000 1 0 0
3.512954 12.702625 14.724391 19.761205 1.300986 0.730087 0.011523 -0.004527 -28103.800000 1 0 0
-3.725446 -4.711875 -13.622109 14.887665 0.901782 2.726287 0.003049 -0.008573 79389.800000 1 0 0
4.966754 -12.187275 16.834691 21.368321 -1.183810 0.663512 -0.021845 0.013743 160332.000000 1 0 0
8.813554 -13.832775 7.176591 17.903292 -1.003507 1.158348 0.024136 -0.011641 145256.000000 1 0 0
-0.379346 15.433725 0.410291 15.443837 -1.546222 1.544227 -0.002072 -0.002005 -414134.000000 1 0 0
-14.216346 7.638525 8.491991 18.236377 -0.493045 1.086414 0.018516 -0.012309 45473.100000 1 0 0
-16.265946 -9.357975 4.792691 19.368081 0.522068 1.320746 0.035476 -0.008689 295588.000000 1 0 0
8.713554 -10.797075 11.562391 18.060779 -0.891784 0.876046 0.006422 0.001974 98144.200000 1 0 0
-26.398386 6.016625 31.286857 41.375621 -0.224089 0.713361 0.074009 -0.025093 -839703.000000 0 0 1
-25.224406 5.380325 30.926577 40.269985 -0.210149 0.695114 0.074270 -0.022347 -540936.000000 0 0 1
-24.191946 5.651725 31.869147 40.408350 -0.229504 0.662142 0.061471 -0.017887 130006.000000 0 0 1
-22.876346 5.025925 31.364587 39.144916 -0.216264 0.641427 0.064759 -0.017320 -664474.000000 0 0 1
-22.819046 3.597825 31.535827 39.091708 -0.156380 0.632226 0.054892 -0.016739 -114792.000000 0 0 1
-21.635846 3.090825 30.985967 37.918244 -0.141897 0.614298 0.051304 -0.013069 -140990.000000 0 0 1
-20.957046 1.878125 31.689227 38.038563 -0.089379 0.586141 0.039235 -0.008307 -78420.600000 0 0 1
-21.459046 0.594025 31.369827 38.011966 -0.027675 0.600131 0.047068 -0.000021 36476.500000 0 0 1
-21.303246 -0.358375 32.415461 38.790706 0.016821 0.581481 0.045518 0.002752 -276200.000000 0 0 1
-21.991446 -1.728075 32.251627 39.073999 0.078418 0.599888 0.061212 -0.021656 -790310.000000 0 0 1
-21.297246 -2.679875 31.474047 38.096851 0.125174 0.598541 0.072827 -0.030336 128932.000000 0 0 1
-21.824446 -3.993975 31.585887 38.599567 0.181002 0.612355 0.090141 -0.039701 -455579.000000 0 0 1
-23.298046 -4.331975 31.312547 39.268824 0.183838 0.647839 0.075316 -0.036573 -264613.000000 0 0 1
-24.219046 -3.714275 32.191646 40.455656 0.152176 0.650590 0.064786 -0.029430 94327.400000 0 0 1
-24.598246 -4.445575 33.391037 41.710888 0.178797 0.642608 0.050686 -0.032462 23903.600000 0 0 1
-25.738396 -3.835375 -33.574179 42.478237 0.147925 2.482234 0.066842 -0.027022 272408.000000 0 0 1
-26.015466 -4.643475 -32.423879 41.829107 0.176629 2.457751 0.061019 -0.022759 379427.000000 0 0 1
-26.964466 -4.077675 -31.534339 41.690819 0.150087 2.428566 0.081550 -0.015870 -5370.720000 0 0 1
-26.787086 -4.781775 -30.182819 40.637616 0.176650 2.407936 0.072527 -0.008008 -360559.000000 0 0 1
-27.074956 -6.149275 -30.060619 40.920748 0.223332 2.395882 0.067460 -0.015551 483618.000000 0 0 1
-26.960706 -6.524575 -28.736939 39.940723 0.237438 2.373864 0.056590 -0.009384 -156376.000000 0 0 1
-27.229656 -8.029475 -28.532929 40.249902 0.286753 2.358726 0.058390 -0.014346 231412.000000 0 0 1
-28.590386 -8.377675 -28.330709 41.112342 0.285045 2.331049 0.081073 -0.020521 71239.600000 0 0 1
-28.688236 -9.751675 -28.037159 41.281864 0.327666 2.317419 0.078118 -0.019404 -445532.000000 0 0 1
-30.123576 -10.159575 -27.746969 42.196458 0.325283 2.288380 0.113725 -0.018955 -449325.000000 0 0 1
-30.213566 -11.068375 -26.660749 41.787127 0.351155 2.262712 0.124450 -0.020826 -861482.000000 0 0 1
-31.543156 -11.114375 -26.264239 42.524231 0.338771 2.236522 0.122952 -0.022015 -864672.000000 0 0 1
-31.729306 -11.977875 -24.991409 42.128243 0.360962 2.205852 0.126703 -0.024459 42858.900000 0 0 1
-31.188946 -11.351275 -23.823909 40.855604 0.349050 2.193366 0.132942 -0.024848 265244.000000 0 0 1
-31.278686 -12.127275 -22.633309 40.468428 0.369873 2.164317 0.132136 -0.026502 -421555.000000 0 0 1
-30.702046 -11.285275 -21.468909 39.126552 0.352244 2.151610 0.141038 -0.035551 -6460.200000 0 0 1
-30.556216 -11.864475 -20.166809 38.485689 0.370365 2.122346 0.141713 -0.029847 422902.000000 0 0 1
-29.552276 -12.865675 -20.037209 37.951974 0.410607 2.126996 0.128508 -0.030960 283257.000000 0 0 1
-28.908026 -13.237275 -18.612509 36.841890 0.429412 2.100410 0.135090 -0.036691 382206.000000 0 0 1
-28.264266 -12.121275 -18.060809 35.664924 0.405131 2.101804 0.125813 -0.041357 56024.500000 0 0 1
-28.025726 -12.291675 -16.653809 34.840722 0.413321 2.069171 0.132762 -0.041133 1713.010000 0 0 1
-27.593366 -10.937575 -16.020209 33.729386 0.377385 2.065718 0.121777 -0.036739 -299427.000000 0 0 1
-26.283746 -10.616375 -16.423709 32.760966 0.383876 2.095919 0.109549 -0.044936 -62948.700000 0 0 1
-26.090456 -9.360275 -15.921009 31.965687 0.344460 2.092163 0.108345 -0.043164 12132.100000 0 0 1
-24.621646 -8.853075 -15.840509 30.586338 0.345170 2.115185 0.107458 -0.042489 130958.000000 0 0 1
-23.883746 -9.565175 -14.874009 29.718042 0.380928 2.094978 0.098372 -0.049342 -232576.000000 0 0 1
-22.657246 -8.915075 -14.701009 28.442029 0.374869 2.113994 0.122182 -0.058078 146122.000000 0 0 1
-21.634246 -9.386075 -13.602509 27.224387 0.409345 2.093984 0.121669 -0.049210 838294.000000 0 0 1
-20.707146 -10.425375 -13.965709 27.065021 0.466418 2.112978 0.110493 -0.031857 1218050.000000 0 0 1
-19.403846 -10.084375 -13.475409 25.686387 0.479291 2.123057 0.118691 -0.026221 419482.000000 0 0 1
-18.340646 -11.187275 -13.681809 25.470106 0.547719 2.137876 0.111923 -0.023429 -225957.000000 0 0 1
-17.665746 -10.980875 -14.900109 25.586548 0.556144 2.192402 0.126321 -0.029602 37475.300000 0 0 1
-18.248946 -11.539675 -16.044409 26.900022 0.563865 2.209862 0.113767 -0.032136 -274715.000000 0 0 1
-17.707346 -10.847075 -17.301509 27.028713 0.549614 2.265445 0.118875 -0.036620 544513.000000 0 0 1
-18.570046 -10.960175 -18.476809 28.396558 0.533188 2.279264 0.088249 -0.024796 753709.000000 0 0 1
-17.997146 -10.424475 -19.672909 28.628487 0.525007 2.328396 0.092124 -0.032283 -199021.000000 0 0 1
-18.788646 -10.844875 -20.925409 30.141288 0.523489 2.338165 0.101802 -0.027480 203609.000000 0 0 1
-20.058746 -10.212075 -20.907709 30.720873 0.470908 2.319337 0.084223 -0.033123 -299955.000000 0 0 1
-20.913046 -10.720275 -21.853409 32.091295 0.473686 2.319891 0.096415 -0.025052 56574.000000 0 0 1
-22.072146 -9.775675 -22.285509 32.854031 0.416931 2.316269 0.078159 -0.020737 502829.000000 0 0 1
-21.574346 -8.634075 -22.977809 32.679953 0.380680 2.350567 0.076221 -0.034117 362680.000000 0 0 1
-22.603046 -8.172875 -23.861209 33.868139 0.346956 2.352561 0.071592 -0.034980 445723.000000 0 0 1
-21.952746 -7.316375 -24.975609 34.047517 0.321701 2.394329 0.066188 -0.037895 298194.000000 0 0 1
-21.110446 -8.007675 -25.890399 34.352387 0.362555 2.424426 0.085612 -0.041632 77661.900000 0 0 1
-20.494446 -7.251375 -26.871959 34.564532 0.340075 2.461387 0.067938 -0.045120 2916.000000 0 0 1
-19.334146 -8.011875 -27.584689 34.625343 0.392850 2.492548 0.097202 -0.045932 108707.000000 0 0 1
-19.729946 -9.075075 -28.464369 35.802905 0.431109 2.489853 0.109969 -0.041895 35479.600000 0 0 1
-18.597946 -9.805275 -28.856259 35.703090 0.485189 2.511934 0.082036 -0.035286 -272187.000000 0 0 1
-18.896146 -10.989575 -29.718829 36.892328 0.526763 2.507409 0.088228 -0.031015 -383714.000000 0 0 1
-19.361346 -10.578575 -30.951269 38.009854 0.500057 2.522311 0.087217 -0.022975 124722.000000 0 0 1
-19.693746 -11.717375 -31.722999 39.134245 0.536720 2.516006 0.080577 -0.021667 -81290.200000 0 0 1
-19.996446 -11.400075 -33.197809 40.396956 0.518148 2.535342 0.073260 -0.013123 122961.000000 0 0 1
-18.978846 -10.756075 33.877307 40.293445 0.515605 0.572102 0.068096 -0.009736 181782.000000 0 0 1
-19.327746 -10.609275 32.495797 39.269521 0.502009 0.596144 0.059518 -0.012631 -616.303000 0 0 1
-18.882846 -11.827975 31.626917 38.687527 0.559596 0.613746 0.059063 -0.009163 -1214320.000000 0 0 1
-17.516146 -11.809675 31.430457 37.870271 0.593211 0.591777 0.059256 -0.011365 -624913.000000 0 0 1
-17.021846 -12.804575 30.503537 37.204384 0.644935 0.609576 0.074456 -0.010757 41639.700000 0 0 1
-17.323346 -14.302975 30.777447 38.104129 0.690185 0.630523 0.070468 0.001414 637429.000000 0 0 1
-18.653146 -14.694375 30.266997 38.470191 0.667239 0.665246 0.062073 -0.004878 1748650.000000 0 0 1
-19.054746 -15.946975 30.772307 39.551539 0.696841 0.679271 0.080592 -0.009471 -87469.000000 0 0 1
-19.355346 -16.227075 32.263234 40.973939 0.697707 0.664202 0.054792 -0.016216 31207.200000 0 0 1
-18.218346 -16.225075 33.151637 41.160566 0.727592 0.634409 0.071559 -0.011083 555508.000000 0 0 1
-18.537846 -15.592575 -33.462379 41.309937 0.699317 2.515003 0.060835 -0.014260 105186.000000 0 0 1
-17.247046 -15.248175 -32.697619 39.988769 0.723963 2.528148 0.072150 -0.023008 97305.800000 0 0 1
-16.671946 -14.032275 -33.177649 39.694016 0.699638 2.560448 0.067606 -0.018795 773072.000000 0 0 1
-15.417446 -13.623975 -32.566519 38.521273 0.723721 2.578141 0.062898 -0.019052 624268.000000 0 0 1
-15.487146 -12.967075 -31.145949 37.122322 0.697063 2.566255 0.083780 -0.020516 -348717.000000 0 0 1
-15.933946 -13.934675 -30.176069 36.860018 0.718562 2.529882 0.071317 -0.029042 -141430.000000 0 0 1
-15.943646 -13.370075 -28.889489 35.602827 0.697829 2.517405 0.060866 -0.021253 -30580.600000 0 0 1
-16.192146 -14.551375 -27.888979 35.379701 0.732079 2.478799 0.090631 -0.021561 308078.000000 0 0 1
-15.048346 -15.337875 -27.600239 34.978226 0.794926 2.480089 0.082507 -0.042086 -77932.500000 0 0 1
-14.592346 -16.191475 -28.669869 36.014744 0.837299 2.491552 0.076736 -0.043697 -1329970.000000 0 0 1
-13.323546 -16.836875 -28.182609 35.429601 0.901364 2.490552 0.089707 -0.037352 -409097.000000 0 0 1
-12.218946 -15.925375 -28.369299 34.752515 0.916338 2.525813 0.067542 -0.039725 -17954.800000 0 0 1
-11.040446 -16.541275 -27.923039 34.281209 0.982253 2.522713 0.089077 -0.048804 594921.000000 0 0 1
-9.695446 -15.797475 -28.228809 33.770216 1.020340 2.560582 0.072454 -0.051532 734888.000000 0 0 1
-9.566546 -14.513075 -27.570389 32.592552 0.988004 2.579067 0.064771 -0.035867 74950.000000 0 0 1
-8.248246 -14.037275 -27.812439 32.227479 1.039547 2.611982 0.076782 -0.037028 425718.000000 0 0 1
-7.932646 -12.507375 -27.727409 31.435179 1.005582 2.650993 0.052516 -0.036993 -39085.100000 0 0 1
-8.733246 -11.829675 -28.724519 32.269316 0.934858 2.668470 0.086325 -0.039133 552325.000000 0 0 1
-8.276246 -10.527075 -29.079029 32.014145 0.904535 2.710042 0.061364 -0.029179 -557460.000000 0 0 1
-7.275546 -10.518675 -30.217529 32.812728 0.965677 2.741202 0.066812 -0.024040 -224322.000000 0 0 1
-5.934446 -10.802375 -29.804499 32.252397 1.068441 2.749475 0.075784 -0.027362 1175130.000000 0 0 1
-4.904946 -10.574475 -30.780099 32.913409 1.136487 2.779575 0.084577 -0.024447 505508.000000 0 0 1
-4.661446 -9.146475 -31.236669 32.880337 1.099463 2.824066 0.075616 -0.019321 -413566.000000 0 0 1
-3.390446 -8.901775 -31.837449 33.231910 1.206887 2.850875 0.077982 -0.033222 496149.000000 0 0 1
-3.338346 -7.499675 -32.152029 33.183469 1.151998 2.891611 0.076397 -0.032830 719602.000000 0 0 1
-1.931946 -6.941875 -32.599429 33.386296 1.299362 2.924053 0.088968 -0.033967 718802.000000 0 0 1
-1.609846 -7.412275 -33.885459 34.724022 1.356931 2.921378 0.097554 -0.040088 -68170.600000 0 0 1
-0.352746 -6.866175 33.578266 34.274900 1.519467 0.201961 0.109586 -0.036032 184338.000000 0 0 1
0.154554 -7.317675 32.203245 33.024556 -1.549679 0.223488 0.098176 -0.036187 -550254.000000 0 0 1
-0.560346 -6.790275 31.121107 31.858204 1.488461 0.215530 0.090725 -0.031572 39116.200000 0 0 1
-0.149046 -7.451675 29.924547 30.838745 1.550797 0.244099 0.068366 -0.033877 620.238000 0 0 1
-0.629546 -6.728675 28.695967 29.481010 1.477506 0.231291 0.052591 -0.028312 174836.000000 0 0 1
0.248354 -5.609575 28.473297 29.021676 -1.526552 0.194706 0.076916 -0.032023 545964.000000 0 0 1
0.097954 -4.932975 27.178197 27.622423 -1.550942 0.179585 0.083615 -0.022902 592745.000000 0 0 1
-1.240746 -4.107175 26.933367 27.272965 1.277421 0.157973 0.057583 -0.008163 2827830.000000 0 0 1
-2.490546 -4.898375 26.941147 27.495860 1.100417 0.201209 0.031804 -0.004317 1365700.000000 0 0 1
-3.601646 -4.054975 26.700287 27.245551 0.844537 0.200400 0.025971 -0.006869 32056.100000 0 0 1
-4.964846 -4.647775 27.087387 27.928087 0.752425 0.245986 0.024014 -0.003059 92625.600000 0 0 1
-5.322446 -5.841275 26.371097 27.529688 0.831839 0.291148 0.023659 -0.001840 -753785.000000 0 0 1
-6.578746 -6.361975 26.663827 28.190678 0.768649 0.330629 0.024015 -0.007580 -146125.000000 0 0 1
-6.753246 -7.872275 26.455937 28.416468 0.861761 0.373634 0.037545 -0.013820 -14098.600000 0 0 1
-6.076446 -8.533675 27.485747 29.414505 0.952026 0.364146 0.033961 -0.019705 -98458.700000 0 0 1
-6.088446 -9.904575 27.429367 29.791609 1.019630 0.400906 0.034394 -0.022958 -102610.000000 0 0 1
-5.218746 -10.500875 28.552947 30.867045 1.109566 0.389681 0.028982 -0.026607 -184020.000000 0 0 1
-5.307546 -11.927875 28.537837 31.382358 1.152133 0.429055 0.055406 -0.035757 165234.000000 0 0 1
-4.763446 -12.515875 29.710997 32.589583 1.207132 0.423462 0.066732 -0.036021 -171614.000000 0 0 1
-5.055046 -14.009475 29.859297 33.367597 1.224506 0.462681 0.094324 -0.050093 787334.000000 0 0 1
-6.425846 -14.439975 29.824317 33.753434 1.152105 0.487314 0.118896 -0.052622 498520.000000 0 0 1
-6.463746 -15.862775 29.672787 34.261961 1.183859 0.523537 0.101334 -0.049049 119791.000000 0 0 1
-6.668646 -16.659275 30.971527 35.794382 1.190035 0.525123 0.111332 -0.043058 -177336.000000 0 0 1
-7.949746 -16.560975 31.532097 36.492979 1.123253 0.527518 0.115277 -0.042611 -466072.000000 0 0 1
-7.898246 -16.729275 32.919120 37.761348 1.129699 0.511998 0.105110 -0.034214 77869.700000 0 0 1
-9.282246 -16.924575 33.628288 38.774516 1.069146 0.521088 0.106776 -0.029717 942495.000000 0 0 1
-10.011246 -18.104975 33.239101 39.151667 1.065687 0.556739 0.114342 -0.034294 509071.000000 0 0 1
-10.642446 -18.107675 31.962380 38.245827 1.039447 0.581374 0.114645 -0.035138 -696044.000000 0 0 1
-11.160846 -19.473975 31.569497 38.735427 1.050379 0.618062 0.118707 -0.030640 -655092.000000 0 0 1
-12.264946 -19.828375 32.331738 39.861443 1.016845 0.624761 0.105654 -0.019369 -305550.000000 0 0 1
-12.640846 -21.240075 32.201329 40.593810 1.033957 0.654656 0.104903 -0.020821 -264.860000 0 0 1
-12.153546 -22.112775 33.381131 41.844754 1.068248 0.647262 0.105488 -0.019672 -260619.000000 0 0 1
-10.741346 -22.143775 33.383314 41.474920 1.119162 0.635283 0.093542 -0.017046 -241283.000000 0 0 1
-10.242046 -22.762775 -33.269429 41.592046 1.147986 2.497923 0.095824 -0.021427 -30158.700000 0 0 1
-10.377446 -24.298275 -33.061619 42.322195 1.167160 2.467364 0.099035 -0.013711 -437292.000000 0 0 1
-9.800646 -24.951775 33.691730 43.055504 1.196527 0.672096 0.097349 -0.011248 -167666.000000 0 0 1
-9.822746 -26.342905 33.843047 43.997578 1.213885 0.693204 0.118041 -0.021333 -752332.000000 0 0 1
-9.393946 -27.047265 32.551056 43.351725 1.236515 0.721434 0.100817 -0.020251 1285980.000000 0 0 1
-7.985146 -27.236735 32.249997 42.961199 1.285612 0.721710 0.119328 -0.028614 747155.000000 0 0 1
-7.354846 -28.107895 33.127057 44.063017 1.314870 0.719992 0.127373 -0.033742 -657466.000000 0 0 1
-5.846746 -27.761535 33.177651 43.653680 1.363224 0.707453 0.142738 -0.041944 -21039.300000 0 0 1
-5.505346 -26.530975 33.824137 43.339055 1.366194 0.675405 0.132796 -0.025457 10182.600000 0 0 1
-5.399546 -25.420855 32.966503 41.978153 1.361501 0.667575 0.134265 -0.023211 -15155.400000 0 0 1
-4.778746 -24.201575 33.701044 41.764974 1.375848 0.631875 0.125922 -0.023696 -287979.000000 0 0 1
-3.475046 -24.367175 -33.666159 41.704261 1.429140 2.510290 0.130818 -0.037945 -582185.000000 0 0 1
-3.077446 -23.125575 -33.151129 40.537146 1.438498 2.528368 0.108756 -0.031666 -39836.400000 0 0 1
34.823163 -15.636175 2.823591 38.276825 -0.422036 1.496962 0.194180 -0.066945 -272191.000000 0 0 1
35.837663 -16.026975 3.690291 39.431209 -0.420532 1.477071 0.182919 -0.061657 -292729.000000 0 0 1
35.367553 -16.228075 5.002791 39.233176 -0.430182 1.442934 0.167774 -0.065729 -76531.500000 0 0 1
36.455623 -16.428375 6.080191 40.445923 -0.423386 1.419895 0.141556 -0.046563 -63285.200000 0 0 1
-37.428716 -17.373075 5.795591 41.669189 0.434570 1.431258 0.136590 -0.041494 -681221.000000 0 0 1
-36.546866 -17.502475 6.849891 41.096606 0.446630 1.403337 0.129822 -0.031460 -576209.000000 0 0 1
-35.326519 -18.331375 6.369291 40.305956 0.478663 1.412108 0.101938 -0.023615 -102891.000000 0 0 1
-35.560982 -19.724075 6.278191 41.146546 0.506410 1.417617 0.095615 -0.030279 290256.000000 0 0 1
-34.582876 -20.409175 7.051491 40.770495 0.533147 1.396966 0.075730 -0.025917 252607.000000 0 0 1
-34.907802 -21.917675 7.041891 41.815396 0.560663 1.401586 0.096782 -0.026428 -221376.000000 0 0 1
-34.515767 -22.568875 5.837591 41.650567 0.579092 1.430177 0.109965 -0.029385 233252.000000 0 0 1
-34.890934 -23.894575 5.963691 42.707067 0.600476 1.430697 0.124958 -0.032249 157148.000000 0 0 1
-34.011536 -24.799875 5.056791 42.395630 0.630030 1.451235 0.128420 -0.027879 56724.000000 0 0 1
-34.325018 -24.609075 3.687391 42.395875 0.622007 1.483711 0.113085 -0.022619 -33565.600000 0 0 1
-33.624266 -25.482345 2.871791 42.286976 0.648510 1.502832 0.094901 -0.023322 -309896.000000 0 0 1
-33.955166 -25.309415 1.380591 42.372465 0.640536 1.538208 0.101506 -0.027477 -72005.800000 0 0 1
-35.202324 -25.878945 0.993291 43.702517 0.633928 1.548066 0.071974 -0.019795 572487.000000 0 0 1
-35.895128 -25.169385 -0.036409 43.840158 0.611526 1.571627 0.064315 -0.018255 28683.300000 0 0 1
-36.674336 -23.916975 0.434691 43.786043 0.577881 1.560869 0.064781 -0.014078 -924711.000000 0 0 1
36.814403 -24.123375 0.498291 44.016880 -0.580071 1.559476 0.060855 -0.010937 -242922.000000 0 0 1
36.184873 -22.900675 0.940191 42.833047 -0.564246 1.548844 0.082638 -0.020243 240388.000000 0 0 1
34.636683 -22.955775 0.950291 41.564052 -0.585292 1.547931 0.105012 -0.020228 209408.000000 0 0 1
34.161313 -22.910175 -0.380709 41.134126 -0.590753 1.580052 0.098020 -0.019922 766711.000000 0 0 1
32.722163 -22.892575 -0.430009 39.937386 -0.610461 1.581564 0.098131 -0.020959 1301290.000000 0 0 1
31.992753 -22.804775 -1.801809 39.329893 -0.619272 1.616625 0.112736 -0.020324 171182.000000 0 0 1
32.044573 -21.465675 -2.297809 38.638190 -0.590217 1.630301 0.139127 -0.031436 104023.000000 0 0 1
31.824593 -21.297175 -3.676409 38.469343 -0.589758 1.666510 0.136126 -0.043388 8514.080000 0 0 1
32.035843 -19.813975 -4.081809 37.888652 -0.553907 1.678738 0.147200 -0.045850 663748.000000 0 0 1
31.051773 -18.974575 -3.414709 36.550066 -0.548514 1.664358 0.154444 -0.055938 746699.000000 0 0 1
31.025153 -17.617875 -3.887509 35.889585 -0.516450 1.679328 0.153717 -0.048557 558805.000000 0 0 1
29.849363 -16.843675 -3.159609 34.419137 -0.513748 1.662724 0.147905 -0.039797 407500.000000 0 0 1
30.074603 -16.534575 -1.757409 34.365133 -0.502678 1.621958 0.148892 -0.040336 12370.100000 0 0 1
30.451843 -17.581375 -0.815109 35.172203 -0.523599 1.593973 0.138117 -0.031899 -15070.900000 0 0 1
29.499063 -18.785075 -0.571609 34.977142 -0.567041 1.587139 0.128706 -0.038964 469241.000000 0 0 1
28.396363 -18.570875 0.320491 33.931306 -0.579173 1.561351 0.111615 -0.019680 243173.000000 0 0 1
27.601163 -19.694075 0.389391 33.909179 -0.619745 1.559313 0.097467 -0.015091 14178.600000 0 0 1
26.472263 -19.724175 1.471791 33.045271 -0.640350 1.526243 0.099766 -0.009808 -189828.000000 0 0 1
25.820963 -20.980475 1.660691 33.311565 -0.682339 1.520922 0.093623 -0.010930 486359.000000 0 0 1
24.784763 -20.958675 2.649291 32.566382 -0.701950 1.489356 0.057869 -0.002378 1046340.000000 0 0 1
23.380563 -20.451075 2.147091 31.136910 -0.718662 1.501785 0.030439 -0.007276 -24711.500000 0 0 1
23.283963 -19.099275 1.730891 30.164900 -0.686983 1.513384 0.064984 -0.021085 154230.000000 0 0 1
23.335663 -18.180275 2.806691 29.714526 -0.661852 1.476200 0.095236 -0.029076 -374651.000000 0 0 1
23.341163 -16.728675 2.292491 28.808227 -0.621848 1.491134 0.081031 -0.015333 379495.000000 0 0 1
22.041063 -16.387675 1.814891 27.525591 -0.639332 1.504814 0.073808 -0.018368 353200.000000 0 0 1
22.017463 -15.003075 1.533791 26.687327 -0.598145 1.513292 0.091273 -0.024852 1413100.000000 0 0 1
20.594663 -14.485075 1.059491 25.200795 -0.612965 1.528742 0.079394 -0.019812 1545450.000000 0 0 1
19.448463 -14.400575 1.917891 24.275452 -0.637360 1.491709 0.068091 -0.018168 1119350.000000 0 1 0
18.482463 -13.439875 1.517291 22.902704 -0.628728 1.504498 0.081072 -0.021865 155971.000000 0 1 0
18.896663 -11.995875 1.859891 22.459832 -0.565626 1.487892 0.097639 -0.025027 -353484.000000 0 1 0
19.842663 -11.404175 0.974391 22.907115 -0.521631 1.528247 0.109868 -0.030133 525587.000000 0 1 0
20.412963 -10.271475 1.606291 22.907912 -0.466192 1.500619 0.134472 -0.027742 -314092.000000 0 1 0
21.483763 -9.600075 0.756691 23.543281 -0.420233 1.538650 0.160000 -0.033583 -40339.800000 0 1 0
20.888363 -8.916975 -0.373509 22.715097 -0.403468 1.587240 0.168589 -0.030598 310322.000000 0 1 0
21.873563 -8.482175 -1.223309 23.492478 -0.369929 1.622892 0.163240 -0.028379 -1190460.000000 0 1 0
21.359263 -7.738475 -2.486809 22.853584 -0.347591 1.679827 0.197323 -0.030219 -332382.000000 0 1 0
22.256763 -7.300575 -3.506509 23.684541 -0.316957 1.719393 0.206002 -0.035335 349624.000000 0 1 0
23.211963 -8.218975 -3.991709 24.945551 -0.340308 1.731504 0.184642 -0.031612 -624324.000000 0 1 0
22.697663 -9.475675 -4.799509 25.060080 -0.395478 1.763507 0.149609 -0.033752 -305849.000000 0 0 1
22.074863 -9.302675 -6.074509 24.713134 -0.398830 1.819142 0.139932 -0.035213 702901.000000 0 1 0
20.683763 -9.006275 -6.002009 23.344274 -0.410669 1.830825 0.145024 -0.033583 20141.300000 0 1 0
20.008363 -8.838575 -7.378409 23.084538 -0.415967 1.896131 0.137282 -0.031535 -378099.000000 0 1 0
19.859763 -9.997975 -8.173809 23.689256 -0.466387 1.923081 0.127373 -0.025956 394179.000000 0 1 0
20.996063 -10.329075 -8.939509 25.048738 -0.457189 1.935727 0.105408 -0.021113 -136706.000000 0 0 1
20.849663 -11.782075 -9.436309 25.740428 -0.514360 1.946143 0.091400 -0.016891 175187.000000 0 0 1
19.772963 -11.992275 -10.335009 25.329767 -0.545184 1.991079 0.118925 -0.027132 101646.000000 0 0 1
19.767863 -13.345775 -10.741109 26.158164 -0.593835 1.993932 0.120957 -0.020730 -550638.000000 0 0 1
18.612463 -13.656575 -11.650909 25.858644 -0.633009 2.038190 0.138129 -0.022652 -530678.000000 0 0 1
18.613763 -15.035375 -12.067909 26.798677 -0.679452 2.037917 0.125573 -0.021402 148685.000000 0 0 1
17.729863 -15.304275 -13.142809 26.857071 -0.712103 2.082153 0.130580 -0.022917 -272820.000000 0 0 1
17.544763 -16.771475 -13.575009 27.809745 -0.762868 2.080752 0.096722 -0.024731 239387.000000 0 0 1
16.702763 -17.466775 -12.614509 27.261628 -0.807754 2.051858 0.094166 -0.022107 572986.000000 0 0 1
16.649663 -18.889875 -12.727509 28.213970 -0.848349 2.038801 0.088441 -0.023601 -466225.000000 0 0 1
15.552563 -19.501975 -11.867409 27.623262 -0.897590 2.014864 0.087953 -0.029855 -201737.000000 0 0 1
14.233563 -19.257675 -12.301909 26.921911 -0.934301 2.045357 0.094895 -0.035851 -581154.000000 0 0 1
13.336463 -19.905975 -11.454409 26.557721 -0.980508 2.016732 0.098021 -0.033067 607041.000000 0 0 1
11.893363 -19.954475 -12.092009 26.188735 -1.033305 2.050736 0.092986 -0.042997 452026.000000 0 0 1
11.000563 -20.671475 -11.337909 26.016734 -1.081752 2.021715 0.098970 -0.049661 195329.000000 0 0 1
9.642463 -20.251475 -11.565909 25.236275 -1.126421 2.046883 0.080638 -0.042473 1499900.000000 0 0 1
8.526963 -20.781375 -10.600809 24.838514 -1.181427 2.011736 0.065504 -0.041225 402524.000000 0 1 0
8.328263 -22.165975 -10.748509 26.004247 -1.211392 1.996912 0.079615 -0.042017 -94403.500000 0 0 1
7.392463 -22.691175 -9.832409 25.811125 -1.255854 1.961606 0.081475 -0.043507 52476.500000 0 0 1
7.336163 -24.226075 -9.908809 27.182834 -1.276754 1.943918 0.083528 -0.037862 -813738.000000 0 0 1
8.405263 -24.738575 -9.233109 27.710933 -1.243270 1.910485 0.090497 -0.029933 -1254270.000000 0 0 1
8.824063 -25.945405 -9.815109 29.109525 -1.242967 1.914715 0.071610 -0.030340 843437.000000 0 0 1
10.364763 -26.163835 -9.603409 29.735501 -1.193615 1.899653 0.067294 -0.028890 677724.000000 0 0 1
10.666363 -26.614325 -8.332209 29.858320 -1.189622 1.853610 0.077700 -0.028988 -421566.000000 0 0 1
12.039063 -26.934955 -8.342009 30.659744 -1.150467 1.846354 0.113483 -0.021632 83124.800000 0 0 1
12.636663 -27.494745 -6.982709 31.054862 -1.139985 1.797586 0.093572 -0.018195 175903.000000 0 0 1
12.217663 -28.752075 -6.500409 31.909378 -1.168984 1.775947 0.093189 -0.025572 30132.500000 0 0 1
10.848963 -28.895425 -6.170609 31.475736 -1.211626 1.768118 0.089949 -0.019695 135791.000000 0 0 1
10.475663 -29.996355 -5.117609 32.182460 -1.234807 1.730493 0.093833 -0.010775 220067.000000 0 0 1
10.852263 -31.296565 -5.526509 33.582568 -1.237015 1.736113 0.108701 -0.020536 720744.000000 0 0 1
9.818863 -31.952895 -6.335709 34.022621 -1.272663 1.758110 0.107941 -0.028183 1045110.000000 0 0 1
9.977063 -33.484835 -6.440609 35.528262 -1.281214 1.753085 0.102966 -0.023338 46961.200000 0 0 1
9.493863 33.703823 -5.221709 35.402646 1.296226 1.718831 0.089900 -0.022288 -96789.200000 0 0 1
9.885463 32.376079 -5.014809 34.221063 1.274455 1.717868 0.098000 -0.016479 248629.000000 0 0 1
9.141863 31.616020 -3.801009 33.129957 1.289320 1.685780 0.078261 -0.012992 305261.000000 0 0 1
7.843263 31.246930 -4.194809 32.488211 1.324868 1.700276 0.079601 -0.014739 -805509.000000 0 0 1
7.487363 30.124210 -3.407809 31.227260 1.327183 1.680143 0.061296 -0.011821 296247.000000 0 0 1
6.099463 29.457100 -3.662009 30.304034 1.366619 1.691935 0.058542 -0.012251 412985.000000 0 0 1
5.917363 28.887870 -4.997009 29.908098 1.368752 1.738662 0.067370 -0.024258 95710.000000 0 0 1
5.745963 29.777940 -6.077709 30.930250 1.380179 1.768581 0.050680 -0.019045 -417320.000000 0 0 1
6.052463 29.111310 -7.446109 30.652002 1.365809 1.816175 0.070784 -0.022954 -215336.000000 0 0 1
5.277563 27.974150 -7.833809 29.525824 1.384329 1.839333 0.076424 -0.026946 -47166.600000 0 0 1
5.501563 26.768080 -7.122809 28.240604 1.368092 1.825769 0.068952 -0.027191 -535268.000000 0 0 1
4.537763 25.626910 -7.515909 27.089088 1.395543 1.851937 0.068729 -0.033319 -390868.000000 0 0 1
3.176163 25.816140 -7.228909 26.996633 1.448381 1.841875 0.064920 -0.027694 -578967.000000 0 0 1
2.470863 26.528290 -8.220309 27.882410 1.477924 1.870064 0.077335 -0.028287 -34383.000000 0 0 1
1.898163 25.555160 -9.336609 27.273458 1.496655 1.920195 0.088237 -0.035037 -119294.000000 0 0 1
2.954263 25.215690 -10.218409 27.367400 1.454168 1.953445 0.082123 -0.033098 169067.000000 0 0 1
2.619563 24.321490 -11.278109 26.936828 1.463504 2.002796 0.100382 -0.035693 -625327.000000 0 0 1
2.252363 22.873170 -10.988409 25.475482 1.472641 2.016766 0.114607 -0.037825 20402.100000 0 0 1
1.006863 22.547270 -10.413409 24.856231 1.526170 2.003080 0.131520 -0.037988 -82800.700000 0 1 0
0.759263 21.133370 -10.537409 23.626951 1.534885 2.033078 0.091109 -0.035439 -332466.000000 0 1 0
-0.386537 20.622670 -9.633209 22.764943 -1.552055 2.007726 0.082395 -0.021231 -734379.000000 0 1 0
-1.631337 21.076470 -10.035409 23.400604 -1.493549 2.014019 0.092436 -0.023825 -1536810.000000 0 1 0
-2.541837 20.222370 -9.401809 22.445472 -1.445758 2.003000 0.060961 -0.014838 257788.000000 0 1 0
-4.003337 20.550970 -9.869709 23.146927 -1.378405 2.011299 0.057186 -0.015447 847934.000000 0 1 0
-5.009037 19.708270 -9.303109 22.361892 -1.321907 1.999866 0.043232 -0.020329 -17646.100000 0 1 0
-5.977737 19.424570 -10.283709 22.777224 -1.272253 2.039232 0.049393 -0.012200 -894429.000000 0 1 0
-6.854237 18.270970 -9.762209 21.819937 -1.211900 2.034651 0.044721 -0.016627 45566.800000 0 1 0
-7.902037 18.684170 -8.890109 22.148915 -1.170683 1.983818 0.069098 -0.015147 -223116.000000 0 1 0
-9.098037 18.876070 -9.604709 23.050612 -1.121662 2.000585 0.075859 -0.022778 -321196.000000 0 1 0
-10.312837 19.061970 -8.650009 23.335294 -1.074877 1.950541 0.099603 -0.035700 265749.000000 0 1 0
-10.567737 17.857670 -7.867609 22.191726 -1.036446 1.933207 0.080698 -0.030592 -263862.000000 0 1 0
-11.621537 18.077770 -6.957709 22.589281 -0.999454 1.883896 0.101896 -0.027356 -213251.000000 0 1 0
-11.875637 17.011470 -5.835309 21.551606 -0.961349 1.844979 0.069471 -0.026942 -264288.000000 0 1 0
-12.845937 17.391470 -4.906709 22.171088 -0.934609 1.793955 0.078578 -0.016566 -206951.000000 0 1 0
-13.151837 16.163170 -4.171009 21.251264 -0.887762 1.768350 0.056817 -0.017823 -1062.550000 0 1 0
-14.370637 16.483870 -3.289809 22.114611 -0.853782 1.720112 0.048031 -0.018822 1176.970000 0 1 0
-15.625837 16.568270 -3.923909 23.109985 -0.814663 1.741416 0.093244 -0.035881 -23613.800000 0 1 0
-16.644637 16.930670 -3.048409 23.937091 -0.793917 1.698494 0.096104 -0.032535 -220325.000000 0 1 0
-18.049337 17.212870 -3.598409 25.199405 -0.761681 1.714084 0.116664 -0.042717 30758.500000 0 0 1
-18.111537 18.328770 -4.411309 26.142518 -0.791359 1.740348 0.099944 -0.037900 262655.000000 0 0 1
-19.441637 18.514170 -4.883009 27.287278 -0.760968 1.750714 0.090804 -0.039056 362588.000000 0 0 1
-19.536137 19.433970 -6.145509 28.233086 -0.782776 1.790223 0.081952 -0.021679 -150940.000000 0 0 1
-19.376237 20.864370 -5.856409 29.069882 -0.822362 1.773644 0.099430 -0.044185 124712.000000 0 0 1
-19.871437 21.716770 -6.919509 30.238580 -0.829741 1.801672 0.088905 -0.013423 46674.400000 0 0 1
-19.641837 23.187770 -6.535709 31.083596 -0.868001 1.782640 0.108856 -0.022479 664373.000000 0 0 1
-18.262237 23.487440 -6.282809 30.407940 -0.909906 1.778913 0.108145 -0.025328 706251.000000 0 0 1
-18.017737 23.868320 -4.919009 30.307296 -0.924179 1.733822 0.126048 -0.040183 -672815.000000 0 0 1
-16.549837 24.179760 -4.667909 29.670647 -0.970583 1.728777 0.129124 -0.037731 -858646.000000 0 0 1
-16.376437 25.015940 -3.542809 30.108744 -0.991166 1.688737 0.121804 -0.040602 1063340.000000 0 0 1
-15.066337 25.627990 -3.388709 29.921092 -1.039332 1.684295 0.145598 -0.040249 1046790.000000 0 0 1
-14.703837 26.745240 -4.405309 30.836949 -1.068127 1.714145 0.141322 -0.038547 45401.100000 0 0 1
-15.553937 27.880240 -4.229709 32.204397 -1.061920 1.702516 0.145184 -0.035111 397900.000000 0 0 1
-15.199637 28.911520 -5.142609 33.065864 -1.086778 1.726956 0.107148 -0.034523 -138412.000000 0 0 1
-15.843837 30.221020 -4.694109 34.443750 -1.087925 1.707505 0.098581 -0.026366 -1719330.000000 0 0 1
-17.152537 30.262000 -5.020909 35.145522 -1.055146 1.714147 0.116070 -0.029721 -1752580.000000 0 0 1
-17.702637 31.514210 -4.611109 36.438868 -1.058988 1.697680 0.128483 -0.026824 -131896.000000 0 0 1
13.226654 -8.544675 18.319657 24.157105 -0.573572 0.710011 0.131095 -0.023139 -226241.000000 0 1 0
13.859054 -9.593775 18.918357 25.338077 -0.605498 0.727803 0.129911 -0.022317 -276169.000000 0 0 1
14.130554 -10.602275 17.925457 25.167495 -0.643699 0.778103 0.135071 -0.028624 -99003.500000 0 0 1
14.788454 -11.819275 18.554657 26.507904 -0.674267 0.795445 0.167414 -0.041559 -484974.000000 0 0 1
16.136654 -11.690175 18.949257 27.497748 -0.626947 0.810522 0.148820 -0.029102 174960.000000 0 0 1
16.602354 -12.707075 19.787357 28.786237 -0.653271 0.812908 0.136435 -0.033870 82444.700000 0 0 1
17.143354 -14.004675 19.023657 29.187755 -0.684971 0.860882 0.119004 -0.031841 179548.000000 0 0 1
16.114354 -14.591375 18.199657 28.351511 -0.735840 0.873785 0.141926 -0.040914 777525.000000 0 0 1
16.561154 -15.707275 17.516757 28.771985 -0.758943 0.916233 0.147182 -0.038730 -704386.000000 0 0 1
15.806154 -15.946275 16.215257 27.695718 -0.789811 0.945326 0.134894 -0.043996 -581569.000000 0 0 1
14.463754 -16.306275 16.406457 27.281251 -0.845207 0.925566 0.190966 -0.047693 13966.700000 0 0 1
13.694154 -16.012275 15.235457 26.000807 -0.863275 0.944731 0.207232 -0.051573 -277552.000000 0 0 1
13.149554 -17.240175 14.494957 26.081377 -0.919199 0.981521 0.151242 -0.037141 -239471.000000 0 0 1
14.068254 -18.089475 13.802857 26.751893 -0.909799 1.028671 0.140010 -0.037355 606128.000000 0 0 1
13.391254 -19.321575 13.483057 27.100586 -0.964735 1.050060 0.120205 -0.033631 93260.400000 0 0 1
14.357554 -20.349575 12.870457 28.033787 -0.956358 1.093809 0.109479 -0.030828 -316107.000000 0 0 1
15.049654 -21.090375 13.827157 29.368117 -0.951015 1.080574 0.069006 -0.021734 -153474.000000 0 0 1
15.679154 -22.219175 13.291957 30.268858 -0.956283 1.116166 0.051374 -0.021088 -539485.000000 0 0 1
16.493754 -23.004875 14.320857 31.723101 -0.948773 1.102426 0.044081 -0.028468 -463020.000000 0 0 1
17.834054 -22.573975 14.311357 32.131803 -0.902166 1.109180 0.035605 -0.017128 -404480.000000 0 0 1
18.565254 -23.281275 15.302157 33.478985 -0.897623 1.096101 0.042809 -0.032543 -34774.600000 0 0 1
19.949554 -22.604375 15.402157 33.855117 -0.847705 1.098488 0.021389 -0.014317 476005.000000 0 0 1
20.898954 -22.942875 14.384157 34.205932 -0.831985 1.136782 0.012700 -0.013186 808441.000000 0 0 1
22.152554 -22.252975 14.501657 34.586538 -0.787660 1.138137 0.019100 -0.011388 936145.000000 0 0 1
23.374654 -23.041075 13.955457 35.665395 -0.778212 1.168765 0.019328 -0.018843 -130734.000000 0 0 1
23.838254 -23.929475 14.948257 36.936872 -0.787308 1.154148 0.018050 -0.017899 -594859.000000 0 0 1
24.968354 -24.533275 14.451157 37.869991 -0.776609 1.179271 0.026039 -0.026513 -925650.000000 0 0 1
25.473254 -25.784955 15.201457 39.304388 -0.791479 1.173678 0.029875 -0.019531 -169683.000000 0 0 1
26.014254 -25.550915 16.511657 40.027809 -0.776413 1.145594 0.024299 -0.009866 -29157.600000 0 0 1
26.459854 -26.730745 17.029857 41.287682 -0.790491 1.145634 0.056445 -0.001133 -155260.000000 0 0 1
26.804554 -26.555425 18.501757 42.023681 -0.780729 1.114897 0.036815 0.003742 -10914.400000 0 0 1
25.690954 -26.423855 19.353757 41.627073 -0.799460 1.087239 0.042810 0.003502 -326412.000000 0 0 1
26.067154 -26.009585 20.587957 42.188376 -0.784293 1.060999 0.054509 -0.004072 -48574.200000 0 0 1
24.937454 -25.613455 21.589357 41.761538 -0.798770 1.027492 0.060059 -0.015404 299877.000000 0 0 1
24.184554 -26.786455 21.948357 42.239049 -0.836401 1.024387 0.071987 -0.013242 490441.000000 0 0 1
23.130854 -26.458495 22.852227 41.920313 -0.852402 0.994246 0.089792 -0.018201 -27496.700000 0 0 1
22.381854 -27.705505 23.297087 42.559331 -0.891288 0.991539 0.122511 -0.023180 -360656.000000 0 0 1
23.255254 -28.529915 24.027187 43.955303 -0.886905 0.992465 0.116275 -0.015842 363677.000000 0 0 1
23.341054 -29.740135 23.319827 44.419532 -0.905372 1.018092 0.129547 -0.018263 -758475.000000 0 0 1
24.544554 -30.613425 23.589237 45.782847 -0.894984 1.029507 0.117939 -0.007634 -719494.000000 0 0 1
24.514054 -31.125465 24.890577 46.789681 -0.903669 1.009874 0.117630 -0.012753 767493.000000 0 0 1
25.728554 -31.803835 25.242097 48.068762 -0.890606 1.017935 0.116551 -0.013588 93446.000000 0 0 1
25.702254 -32.129035 26.830457 49.119794 -0.896074 0.992946 0.118079 -0.029892 485302.000000 0 0 1
24.859254 -33.181915 27.287097 49.634743 -0.927820 0.988722 0.089353 -0.017891 1404280.000000 0 0 1
23.451154 -33.185195 26.968497 48.770008 -0.955604 0.984868 0.100759 -0.022235 971606.000000 0 0 1
22.652754 33.349293 27.461737 48.779808 0.974128 0.972817 0.108846 -0.033075 118042.000000 0 0 1
22.214154 33.465781 28.790277 49.419705 0.984790 0.948913 0.094056 -0.017583 22861.400000 0 0 1
21.544754 32.275791 29.153737 48.537033 0.982203 0.926483 0.091005 -0.033712 466269.000000 0 0 1
21.053554 32.211431 30.651247 49.196823 0.991891 0.898182 0.081765 -0.034522 -77641.900000 0 0 1
22.212754 32.297814 31.413707 50.233219 0.968341 0.895207 0.068608 -0.023573 -164874.000000 0 0 1
21.970954 32.569389 32.749578 51.147070 0.977329 0.875905 0.056390 -0.021843 389085.000000 0 0 1
23.219354 32.206243 33.611380 52.020240 0.946143 0.868305 0.023679 -0.008600 445481.000000 0 0 1
23.391354 30.836890 33.856557 51.423105 0.921845 0.852116 0.029024 -0.005607 248638.000000 0 0 1
24.523554 30.587930 -33.144459 51.337913 0.894996 2.272623 0.017242 0.003109 305616.000000 0 0 1
24.791054 29.069690 -33.008569 50.489691 0.864671 2.283350 0.036151 -0.012003 -188606.000000 0 0 1
25.259154 28.505670 33.623101 50.804636 0.845709 0.847564 0.043077 -0.018396 81592.800000 0 0 1
24.758154 27.210400 33.375146 49.671647 0.832550 0.834004 0.053451 -0.027742 -171027.000000 0 0 1
25.244154 26.511560 32.063728 48.664287 0.809881 0.851473 0.110274 -0.043828 1272210.000000 0 0 1
26.682354 26.300070 32.144886 49.365326 0.778183 0.861680 0.104220 -0.047664 1548090.000000 0 0 1
27.181054 25.715110 30.953907 48.561518 0.757692 0.879656 0.140125 -0.067199 -204443.000000 0 0 1
28.495454 24.947110 31.183967 49.059036 0.719100 0.881957 0.121182 -0.047139 -200911.000000 0 0 1
28.392854 24.013790 32.192372 49.185009 0.702032 0.857254 0.143961 -0.050255 621663.000000 0 0 1
29.631854 23.914130 32.889738 50.315677 0.679020 0.858375 0.142413 -0.047608 -190308.000000 0 0 1
29.456754 23.216710 -33.594779 50.352013 0.667481 2.301238 0.148540 -0.054845 -67720.600000 0 0 1
28.643054 23.911420 -32.628009 49.565790 0.695607 2.289324 0.140152 -0.052837 2001770.000000 0 0 1
27.205454 24.020690 -32.810139 48.924794 0.723307 2.305846 0.129093 -0.051879 1023080.000000 0 0 1
26.325554 22.793270 -32.980379 47.961165 0.713609 2.329040 0.127887 -0.052865 -955771.000000 0 0 1
26.142854 21.971870 -31.851149 46.698047 0.698926 2.321380 0.107290 -0.058212 63839.000000 0 0 1
25.639254 20.726470 -32.151689 46.050939 0.679835 2.343644 0.124367 -0.050536 -410997.000000 0 0 1
25.369154 19.953070 -30.844229 44.643986 0.666460 2.333520 0.119059 -0.058567 -377304.000000 0 0 1
24.190254 20.248770 -30.141289 43.631163 0.696935 2.333419 0.098831 -0.044139 -14471.700000 0 0 1
24.151454 19.384370 -28.974589 42.409590 0.676335 2.322944 0.098794 -0.037012 -483952.000000 0 0 1
22.936054 19.584370 -28.092519 41.216499 0.706736 2.320722 0.090006 -0.029451 -744232.000000 0 0 1
22.931854 18.840670 -26.870869 40.036039 0.687770 2.306578 0.093398 -0.024936 460042.000000 0 0 1
23.944254 19.175970 -25.903579 40.150225 0.675264 2.272037 0.073381 -0.017249 279292.000000 0 0 1
24.009154 18.174770 -24.743009 38.974071 0.647962 2.258621 0.105634 -0.007987 -343031.000000 0 0 1
24.729054 17.058370 -25.059189 39.121312 0.603855 2.266012 0.108764 -0.027471 -202227.000000 0 0 1
24.618754 16.179970 -23.952609 37.968434 0.581435 2.253452 0.115648 -0.020214 -98889.900000 0 0 1
25.779354 15.181970 -23.837009 38.252716 0.532232 2.243554 0.114453 -0.014281 -106004.000000 0 0 1
27.018654 15.729770 -23.417409 39.061597 0.527215 2.213672 0.123116 -0.023780 193290.000000 0 0 1
28.073054 14.790870 -23.340109 39.390696 0.484912 2.204990 0.109269 -0.026709 87739.300000 0 0 1
28.132854 13.969970 -21.989309 38.342499 0.460901 2.181565 0.091577 -0.022974 -564706.000000 0 0 1
27.003654 13.146770 -21.842409 37.136582 0.453074 2.199583 0.091041 -0.012402 -101480.000000 0 0 1
26.765754 12.852770 -20.455809 36.056059 0.447678 2.174060 0.066977 -0.022351 897704.000000 0 0 1
25.286454 12.318970 -20.304309 34.690442 0.453336 2.196046 0.088038 -0.007515 960656.000000 0 0 1
24.302654 13.324270 -20.293909 34.351098 0.501509 2.202820 0.110812 -0.013656 -18846.200000 0 0 1
23.094354 12.890170 -20.897709 33.707861 0.509081 2.239495 0.132549 -0.022948 749243.000000 0 0 1
21.887354 13.878070 -20.875209 33.278093 0.565094 2.248872 0.131671 -0.033518 -254326.000000 0 0 1
22.089654 15.144270 -21.490309 34.338537 0.600984 2.247000 0.126322 -0.029604 -500312.000000 0 0 1
20.980954 15.955870 -21.423609 33.967061 0.650183 2.253273 0.101119 -0.023588 206586.000000 0 0 1
19.696854 15.661770 -22.286609 33.614730 0.671771 2.295617 0.104078 -0.016246 502868.000000 0 0 1
18.763254 14.756570 -21.721909 32.274718 0.666431 2.309097 0.090614 -0.017145 -37426.300000 0 0 1
17.681054 14.595970 -22.609109 32.199904 0.690106 2.349207 0.088661 -0.023025 350310.000000 0 0 1
16.424854 13.965870 -21.917409 30.744010 0.704662 2.364421 0.065928 -0.024126 428579.000000 0 0 1
15.229854 14.123770 -22.649609 30.731647 0.747735 2.399436 0.069686 -0.022311 356523.000000 0 0 1
14.158354 13.336170 -22.088609 29.431600 0.755504 2.419625 0.090837 -0.025802 449144.000000 0 0 1
12.821654 13.431570 -22.831709 29.429387 0.808626 2.458799 0.083484 -0.021896 -325743.000000 0 0 1
12.393154 14.754970 -22.775109 29.832952 0.872177 2.439390 0.076036 -0.020179 -76455.300000 0 0 1
11.551354 15.079570 -23.884109 30.516846 0.917117 2.469713 0.075371 -0.016821 -408267.000000 0 0 1
11.335154 16.655470 -23.951509 31.298006 0.973232 2.442261 0.072722 -0.022805 420480.000000 0 0 1
12.576654 17.350670 -24.051809 32.213468 0.943586 2.413791 0.065985 -0.022126 528785.000000 0 0 1
13.556754 17.080870 -25.045709 33.208873 0.899921 2.425212 0.067002 -0.031464 -42033.400000 0 0 1
13.109254 17.162370 -26.527019 34.206465 0.918498 2.458299 0.091517 -0.035055 -811382.000000 0 0 1
14.248354 17.155070 -27.327809 35.272102 0.877696 2.457149 0.081533 -0.035327 -388193.000000 0 0 1
13.951754 16.926170 -28.658699 36.089717 0.881430 2.488315 0.084250 -0.039971 216902.000000 0 0 1
15.105654 17.317070 -29.665729 37.524887 0.853498 2.482522 0.080976 -0.039182 444771.000000 0 0 1
16.322054 16.666570 -29.396749 37.528028 0.795841 2.470798 0.064881 -0.035410 -146663.000000 0 0 1
17.275154 16.986470 -30.403269 38.875826 0.776972 2.468762 0.067961 -0.035963 690415.000000 0 0 1
18.586554 16.131570 -30.220049 38.973567 0.714804 2.458142 0.084697 -0.033855 847598.000000 0 0 1
19.745354 16.718270 -30.821719 40.241247 0.702572 2.443273 0.101535 -0.036774 227673.000000 0 0 1
20.821054 15.820770 -30.821899 40.420323 0.649772 2.438018 0.123381 -0.035355 118645.000000 0 0 1
22.165954 16.402670 -31.332559 41.738548 0.637066 2.419897 0.136099 -0.040712 138512.000000 0 0 1
22.275554 16.712170 -32.702259 42.952703 0.643659 2.436197 0.142233 -0.043951 -110221.000000 0 0 1
23.255754 17.704170 -32.900619 44.008164 0.650682 2.415241 0.147774 -0.045356 -156015.000000 0 0 1
23.577254 17.935970 33.482053 44.706083 0.650334 0.724339 0.124212 -0.043939 -152440.000000 0 0 1
24.534254 18.942770 33.306082 45.497839 0.657492 0.749490 0.138323 -0.042233 -98307.400000 0 0 1
24.483354 19.243470 31.928941 44.600483 0.666135 0.772902 0.148939 -0.045718 -148985.000000 0 0 1
25.490254 20.302170 31.382127 45.241232 0.672584 0.804236 0.160268 -0.046235 458725.000000 0 0 1
26.842454 19.859470 31.450217 45.869730 0.636975 0.815311 0.138939 -0.038497 252452.000000 0 0 1
27.696954 20.974570 31.328267 46.781559 0.648149 0.837030 0.132141 -0.046349 665707.000000 0 0 1
29.228054 20.627670 31.303617 47.536264 0.614574 0.851945 0.141011 -0.042624 892816.000000 0 0 1
29.712454 20.140770 32.554720 48.459162 0.595709 0.834164 0.118852 -0.038231 303196.000000 0 0 1
31.091354 19.795170 32.605744 49.210321 0.566953 0.846539 0.099666 -0.027995 492629.000000 0 0 1
31.500554 19.103370 -33.894509 50.060577 0.545145 2.314570 0.091940 -0.019583 -100456.000000 0 0 1
31.584654 19.964670 -32.808749 49.725169 0.563689 2.291351 0.085349 -0.035548 61639.300000 0 0 1
30.797054 19.474370 -31.745719 48.327014 0.563864 2.287488 0.104033 -0.044023 121263.000000 0 0 1
31.446654 19.844970 -30.315829 47.976707 0.562951 2.254781 0.100713 -0.036558 404184.000000 0 0 1
32.652654 19.146670 -30.078209 48.347590 0.530340 2.242249 0.090363 -0.033101 -255203.000000 0 0 1
33.300954 19.734370 -28.971589 48.350304 0.534966 2.213300 0.106549 -0.038421 570008.000000 0 0 1
34.808154 19.316470 -28.868149 49.174217 0.506629 2.198217 0.072940 -0.025199 486485.000000 0 0 1
35.616254 20.010970 -29.793239 50.562769 0.511895 2.200905 0.084354 -0.028980 -219618.000000 0 0 1
36.907454 20.147370 -29.228729 51.209328 0.499681 2.178239 0.042923 -0.003448 550667.000000 0 0 1
-36.923554 20.905370 -30.120559 52.034905 -0.515180 2.188118 0.033592 -0.006561 525709.000000 0 0 1
-36.391454 20.202170 -31.240809 52.042807 -0.506777 2.214661 0.033308 -0.011273 -200382.000000 0 0 1
-35.362054 20.973670 -31.813399 51.985210 -0.535340 2.229346 0.030216 -0.003300 -247323.000000 0 0 1
-34.636254 20.096570 -32.862659 51.802476 -0.525747 2.258008 0.036381 -0.002295 -423788.000000 0 0 1
-33.811954 19.146570 -32.244549 50.493072 -0.515246 2.263466 0.027259 -0.000442 2850.730000 0 0 1
-33.006954 18.532270 -33.248969 50.382516 -0.511603 2.291523 0.023373 0.001466 159700.000000 0 0 1
-32.100954 17.368270 -32.726309 49.021825 -0.495947 2.301759 0.012062 0.005150 513242.000000 0 0 1
-32.840854 16.251570 -32.132239 48.735162 -0.459526 2.290715 0.021306 0.011246 329412.000000 0 0 1
-32.186754 15.011370 -32.314289 48.016056 -0.436395 2.309039 0.023571 0.015302 -600014.000000 0 0 1
-33.195554 13.880670 -32.431249 48.439691 -0.396053 2.304356 0.036056 0.009003 -579601.000000 0 0 1
-32.776354 12.660170 -32.930499 48.155862 -0.368605 2.323797 0.046950 0.003400 258646.000000 0 0 1
-33.928954 11.827070 -33.113579 48.862691 -0.335412 2.315408 0.062874 0.002932 413883.000000 0 0 1
-33.634854 10.343670 -33.239559 48.406231 -0.298349 2.327708 0.061385 0.006119 -113727.000000 0 0 1
-32.829954 9.990970 33.499930 47.956967 -0.295420 0.797439 0.042255 0.009669 113778.000000 0 0 1
-33.056254 8.592070 33.249589 47.666286 -0.254296 0.798825 0.074770 -0.004541 622946.000000 0 0 1
-32.025954 7.906070 32.245393 46.129525 -0.242025 0.796772 0.090591 -0.006215 715609.000000 0 0 1
-30.715054 7.788270 32.765828 45.581479 -0.248331 0.768663 0.050021 0.002853 -114927.000000 0 0 1
-29.951154 7.092570 31.797496 44.254457 -0.232521 0.769131 0.065932 -0.005725 -294030.000000 0 0 1
21.546754 -4.185475 -31.334359 38.257324 -0.191861 2.530536 0.071483 -0.044100 71887.700000 0 0 1
22.822054 -4.128175 -31.965539 39.492831 -0.178950 2.513928 0.058966 -0.043602 676037.000000 0 0 1
23.804754 -3.221675 -31.485969 39.603179 -0.134520 2.489864 0.066602 -0.038616 299549.000000 0 0 1
23.451654 -1.743975 -31.743029 39.504954 -0.074228 2.503982 0.065524 -0.034291 -509893.000000 0 0 1
24.433454 -0.760975 -31.423319 39.812030 -0.031135 2.480451 0.066555 -0.031804 358045.000000 0 0 1
24.145854 0.537225 -31.943359 40.046087 0.022245 2.494210 0.070212 -0.034808 -135846.000000 0 0 1
25.113154 1.556025 -31.332329 40.184656 0.061881 2.464997 0.068816 -0.029891 537196.000000 0 0 1
26.466954 1.546025 -31.763829 41.374276 0.058347 2.446071 0.073564 -0.033101 31208.400000 0 0 1
27.247854 2.481225 -31.086289 41.412068 0.090811 2.419853 0.081223 -0.033395 -462527.000000 0 0 1
28.747354 2.376925 -31.363659 42.611492 0.082496 2.397994 0.075996 -0.033236 -432443.000000 0 0 1
29.208154 2.787125 -32.621799 43.875575 0.095135 2.409096 0.084783 -0.035015 98740.100000 0 0 1
29.453254 1.705825 -33.554679 44.680203 0.057852 2.420366 0.068942 -0.025541 6995.680000 0 0 1
30.256454 2.118125 32.990661 44.814320 0.069892 0.743412 0.062371 -0.030920 344746.000000 0 0 1
29.578354 3.107825 32.196806 43.831176 0.104687 0.745772 0.058338 -0.016356 499058.000000 0 0 1
29.824054 4.442225 32.696877 44.478010 0.147861 0.744946 0.067702 -0.016140 527819.000000 0 0 1
28.960254 5.538625 31.901364 43.440416 0.188967 0.746057 0.071308 -0.008796 570017.000000 0 0 1
29.441654 6.852125 32.202328 44.167325 0.228665 0.753793 0.095044 -0.024760 526500.000000 0 0 1
28.868554 7.787625 31.248567 43.249434 0.263490 0.763356 0.088954 -0.026345 255771.000000 0 0 1
29.496954 9.184125 31.374727 44.031716 0.301845 0.777673 0.064003 -0.023774 474075.000000 0 0 1
30.849054 9.433625 31.015657 44.750737 0.296769 0.805049 0.042770 -0.013992 209201.000000 0 0 1
31.129454 10.805825 31.054917 45.279319 0.334112 0.815022 0.042680 -0.001280 -357938.000000 0 0 1
32.536954 11.185125 30.594597 46.041175 0.331111 0.843965 0.034786 0.006015 -615438.000000 0 0 1
33.561254 10.710825 31.463917 47.234073 0.308925 0.841792 0.041314 -0.014638 1432490.000000 0 0 1
34.915754 10.970425 31.019767 47.975891 0.304430 0.867717 0.061423 -0.019448 1198810.000000 0 0 1
35.367754 12.455425 31.101727 48.716867 0.338606 0.878355 0.062732 -0.010503 -1114370.000000 0 0 1
35.687054 12.801225 32.463576 49.913135 0.344411 0.862683 0.063452 -0.004517 28126.200000 0 0 1
35.723754 14.220325 32.678467 50.460742 0.378836 0.866363 0.089832 0.009078 257636.000000 0 0 1
34.501254 15.149425 32.353930 49.665063 0.413751 0.861312 0.091027 -0.003409 -408837.000000 0 0 1
34.211154 15.355725 31.016127 48.664171 0.421898 0.879741 0.077399 -0.015541 1609080.000000 0 0 1
33.127354 16.351025 30.749307 48.065555 0.458499 0.876640 0.079988 -0.016034 2241430.000000 0 0 1
31.659454 15.961125 31.146607 47.193111 0.466962 0.850001 0.085245 -0.015662 221413.000000 0 0 1
31.155754 14.843725 30.444947 46.020778 0.444619 0.847915 0.070152 -0.004802 -250126.000000 0 0 1
29.914854 14.341325 30.850207 45.302400 0.447036 0.821691 0.068997 -0.010688 -103316.000000 0 0 1
29.007154 13.934625 29.660507 43.764535 0.447833 0.826126 0.071829 -0.003956 -35462.100000 0 0 1
29.480154 12.794025 29.031677 43.308254 0.409459 0.836116 0.059351 0.002381 -52085.700000 0 0 1
28.706954 12.592225 27.884307 41.954594 0.413373 0.843797 0.072464 -0.005001 -251771.000000 0 0 1
28.369554 11.094325 27.653817 41.141819 0.372780 0.833676 0.060085 0.001955 476816.000000 0 0 1
29.497254 10.279425 27.403797 41.553853 0.335327 0.850674 0.058315 -0.000957 374039.000000 0 0 1
28.891254 9.061425 26.991557 40.563015 0.303922 0.842736 0.075510 -0.007239 548976.000000 0 0 1
29.924854 7.955025 26.641507 40.847880 0.259824 0.860296 0.061958 -0.011091 135599.000000 0 0 1
30.331954 8.078625 25.303667 40.318324 0.260298 0.892333 0.074658 -0.011801 -488068.000000 0 0 1
31.426454 7.256925 25.098127 40.868093 0.226940 0.909519 0.073557 -0.007782 -400050.000000 0 0 1
32.108454 7.337325 23.719997 40.588514 0.224659 0.946654 0.091134 -0.011743 -51397.800000 0 0 1
32.826654 8.480625 23.356927 41.171062 0.252818 0.967556 0.098702 -0.021215 621112.000000 0 0 1
32.005054 9.673425 23.050327 40.610544 0.293517 0.967215 0.106298 -0.024613 560082.000000 0 0 1
31.518954 9.809225 21.598057 39.447959 0.301715 0.991413 0.126562 -0.016735 298679.000000 0 0 1
32.605454 9.865325 20.675957 39.848909 0.293810 1.025281 0.131648 -0.027366 258303.000000 0 0 1
32.152954 9.607525 19.369857 38.746721 0.290362 1.047302 0.159145 -0.036470 -1009310.000000 0 0 1
32.733254 10.607325 18.336357 38.989785 0.313376 1.081181 0.182854 -0.060456 691613.000000 0 0 1
34.109954 10.422925 18.021157 39.961087 0.296558 1.102947 0.162958 -0.048374 503255.000000 0 0 1
35.019654 10.724925 19.078857 41.296526 0.297185 1.090551 0.134380 -0.029644 -1748140.000000 0 0 1
36.422554 10.319925 18.725857 42.234596 0.276102 1.111433 0.161256 -0.028721 -1088890.000000 0 0 1
36.408454 8.913225 18.444357 41.775776 0.240090 1.113517 0.132330 -0.018902 64527.700000 0 0 1
-37.224054 8.491025 17.942557 42.186053 -0.224269 1.131481 0.133920 -0.023886 -432337.000000 0 0 1
-37.098554 7.005325 17.732157 41.710990 -0.186633 1.131702 0.132440 -0.028259 -826169.000000 0 0 1
36.916454 6.447525 16.772457 41.057405 0.172908 1.149973 0.109953 -0.028530 126137.000000 0 0 1
37.409254 5.189125 16.308657 41.138202 0.137833 1.163165 0.121278 -0.024171 503286.000000 0 0 1
36.253654 4.109625 16.137957 39.895490 0.112876 1.154358 0.094572 -0.019817 495590.000000 0 0 1
35.814054 3.523025 17.322657 39.939112 0.098054 1.122172 0.082257 -0.013285 185020.000000 0 0 1
34.667754 2.709925 17.076257 38.740102 0.078010 1.114317 0.062219 -0.005255 395806.000000 0 0 1
34.201654 1.838425 18.271957 38.820064 0.053701 1.080731 0.060871 -0.006714 -242853.000000 0 0 1
34.958054 0.681125 18.438357 39.528503 0.019482 1.085515 0.066140 -0.007656 -306560.000000 0 0 1
34.441254 -0.080775 19.479757 39.568516 -0.002345 1.056061 0.062244 -0.000380 29209.100000 0 0 1
35.025354 -1.509975 19.468557 40.100875 -0.043084 1.063873 0.059220 -0.005148 201128.000000 0 0 1
34.519154 -2.262375 20.590157 40.257235 -0.065446 1.033908 0.057597 -0.002979 164516.000000 0 0 1
35.053654 -3.539575 20.583057 40.803793 -0.100635 1.042063 0.067804 -0.008817 -93115.400000 0 0 1
34.544654 -4.350875 21.789257 41.073532 -0.125290 1.011613 0.054756 -0.006235 -186766.000000 0 0 1
35.195054 -3.942375 22.943897 42.197827 -0.111550 0.995930 0.056950 -0.014407 197888.000000 0 0 1
34.615354 -4.604475 24.034177 42.391811 -0.132242 0.967994 0.052843 -0.014840 144197.000000 0 0 1
35.044054 -4.010075 25.442787 43.491400 -0.113934 0.945907 0.038781 -0.012502 407005.000000 0 0 1
34.130054 -4.398475 26.446787 43.400919 -0.128168 0.915543 0.046919 -0.013606 334805.000000 0 0 1
34.546854 -3.746775 27.653537 44.409927 -0.108033 0.898623 0.054459 -0.013416 100767.000000 0 0 1
33.647554 -4.149475 28.818757 44.496032 -0.122702 0.866274 0.060227 -0.022409 -159751.000000 0 0 1
33.794654 -5.485875 29.279417 45.049504 -0.160926 0.863293 0.064030 -0.026987 -33073.400000 0 0 1
32.998254 -5.807175 30.407347 45.246158 -0.174201 0.833833 0.062073 -0.028974 -92262.600000 0 0 1
33.129254 -7.279375 30.783137 45.805440 -0.216289 0.833835 0.074617 -0.028398 288810.000000 0 0 1
34.379254 -7.653675 31.352707 47.154047 -0.219053 0.843437 0.097988 -0.033616 99067.100000 0 0 1
34.627254 -9.021775 31.177247 47.460088 -0.254874 0.854076 0.089763 -0.025046 -66219.100000 0 0 1
35.979954 -9.358075 31.817820 48.933673 -0.254454 0.862918 0.100107 -0.027387 -143359.000000 0 0 1
35.818054 -9.619575 33.165667 49.753701 -0.262376 0.841162 0.095841 -0.038020 362857.000000 0 0 1
37.052154 -9.586475 33.874847 51.110351 -0.253177 0.846273 0.084912 -0.035046 347951.000000 0 0 1
36.835154 -9.829175 -32.420539 50.045306 -0.260766 2.275521 0.094671 -0.031393 39048.600000 0 0 1
36.218054 -8.782375 -31.665779 48.903979 -0.237894 2.275108 0.079190 -0.028139 139010.000000 0 0 1
37.066354 -7.722975 -31.390889 49.182790 -0.205417 2.263018 0.071772 -0.022404 -373610.000000 0 0 1
36.361354 -6.607675 -30.602589 47.982579 -0.179761 2.262416 0.077754 -0.019903 -152564.000000 0 0 1
36.503754 -6.779275 -29.223239 47.249131 -0.183622 2.237619 0.077107 -0.015307 322994.000000 0 0 1
35.957554 -5.693775 -28.465749 46.213241 -0.157043 2.234407 0.089683 -0.024022 -120480.000000 0 0 1
36.671454 -5.601575 -27.106459 45.944894 -0.151579 2.201827 0.090939 -0.030187 265620.000000 0 0 1
-36.904954 -5.030375 -27.153309 46.093193 0.135471 2.200736 0.082648 -0.026628 141711.000000 0 0 1
-36.458954 -4.695075 -25.850439 44.939339 0.128072 2.183681 0.093006 -0.028790 391960.000000 0 0 1
-34.924654 -4.567475 -25.639819 43.565968 0.130043 2.200034 0.116332 -0.023452 -716430.000000 0 0 1
-34.584254 -4.226675 -24.341509 42.502287 0.121611 2.180605 0.136275 -0.024915 167557.000000 0 0 1
-33.204754 -4.051975 -24.097409 41.226924 0.121430 2.195068 0.151894 -0.022768 548612.000000 0 0 1
-32.244954 -3.191475 -24.982309 40.915013 0.098655 2.227602 0.137533 -0.010082 -454221.000000 0 0 1
-31.887554 -3.787675 -26.249409 41.475222 0.118228 2.256081 0.136009 -0.009575 124991.000000 0 0 1
-30.927654 -3.004075 -26.930959 41.119591 0.096829 2.284903 0.127201 -0.003709 147897.000000 0 0 1
-30.519554 -3.717275 -28.231869 41.740864 0.121203 2.313606 0.117553 -0.009275 -627673.000000 0 0 1
-31.545854 -3.747475 -29.146979 43.113001 0.118240 2.313199 0.132590 -0.012920 -706260.000000 0 0 1
-31.223454 -4.495675 -30.247699 43.703987 0.143001 2.335196 0.101080 -0.002902 534003.000000 0 0 1
-32.500454 -4.828075 -31.141459 45.270081 0.147476 2.329393 0.093554 -0.012764 1151310.000000 0 0 1
-33.541654 -5.629275 -30.556399 45.721163 0.166280 2.302745 0.098391 -0.013729 889000.000000 0 0 1
-34.393954 -5.051375 -29.572539 45.639845 0.145826 2.275692 0.105333 -0.012557 312791.000000 0 0 1
-35.522354 -4.074275 -30.062859 46.714161 0.114197 2.269923 0.124481 -0.017250 14891.500000 0 0 1
-35.011454 -2.896075 -30.708009 46.660164 0.082530 2.289116 0.137309 -0.017859 121800.000000 0 0 1
-34.490954 -1.857775 -29.871719 45.666145 0.053811 2.283832 0.142638 -0.007225 -55656.400000 0 0 1
-34.089154 -0.641475 -30.679369 45.866170 0.018815 2.303509 0.132283 -0.009469 -459682.000000 0 0 1
-35.186654 0.062025 -31.164529 47.003535 -0.001763 2.295649 0.148882 -0.014436 -296549.000000 0 0 1
-34.841454 1.249225 -31.879919 47.242107 -0.035839 2.311517 0.146900 -0.013172 290874.000000 0 0 1
-36.066554 2.187325 -32.124239 48.348189 -0.060573 2.297534 0.132140 -0.017179 475433.000000 0 0 1
-36.754454 1.806525 -33.300889 49.629654 -0.049112 2.306336 0.133057 -0.022606 1532060.000000 0 0 1
36.818154 2.448225 -33.524279 49.854263 0.066397 2.308304 0.109601 -0.022451 1666790.000000 0 0 1
36.015354 1.873925 33.080933 48.938385 0.051984 0.828515 0.082333 -0.023105 -50498.500000 0 0 1
36.441854 2.235425 31.800247 48.417576 0.061265 0.854241 0.091458 -0.021942 536430.000000 0 0 1
-37.345454 1.414625 31.351917 48.781419 -0.037861 0.872776 0.074086 -0.019917 111642.000000 0 0 1
-37.090554 1.528725 29.806687 47.607613 -0.041193 0.894267 0.080683 -0.024605 -186642.000000 0 0 1
-36.607754 2.801425 29.444567 47.063342 -0.076377 0.894849 0.084801 -0.030050 162154.000000 0 0 1
-36.267154 2.917525 28.078207 45.958722 -0.080273 0.913544 0.073548 -0.028041 7729.880000 0 0 1
-35.538054 4.261325 27.855667 45.354717 -0.119339 0.909458 0.076956 -0.025458 -299387.000000 0 0 1
-34.910554 4.359625 26.586817 44.097755 -0.124237 0.923657 0.080990 -0.021791 457601.000000 0 0 1
-34.292054 5.609725 26.283437 43.568717 -0.162151 0.923209 0.087287 -0.022296 -218943.000000 0 0 1
-33.550654 5.721425 24.930347 42.188900 -0.168906 0.938595 0.082467 -0.018386 284272.000000 0 0 1
-32.370854 4.911725 24.907107 41.138318 -0.150584 0.920468 0.081112 -0.017075 637441.000000 0 0 1
-31.557654 5.100025 23.738087 39.816988 -0.160224 0.932062 0.082556 -0.015100 310937.000000 0 0 1
-32.107654 4.585425 22.387857 39.409944 -0.141855 0.966630 0.090017 -0.021364 -218732.000000 0 0 1
-32.258154 3.222825 22.261957 39.326452 -0.099577 0.969052 0.079627 -0.021247 -99283.500000 0 0 1
-32.846854 2.969625 20.988857 39.093051 -0.090163 1.004044 0.100866 -0.019039 -210230.000000 0 0 1
-32.595154 1.500825 20.617357 38.597564 -0.046012 1.007280 0.088485 -0.020102 100860.000000 0 0 1
-31.335354 1.130525 20.085057 37.236971 -0.036063 1.001090 0.108441 -0.020232 117525.000000 0 0 1
-31.141554 1.521325 18.759757 36.387351 -0.048813 1.029139 0.120319 -0.023370 35855.700000 0 0 1
-29.774454 0.996225 18.242357 34.932709 -0.033447 1.021351 0.131461 -0.024386 67676.200000 0 0 1
-29.846654 -0.367475 17.824857 34.766123 0.012311 1.032461 0.137629 -0.018165 -150899.000000 0 0 1
-28.636754 -0.900875 17.352957 33.496274 0.031448 1.026219 0.150539 -0.020171 -396503.000000 0 0 1
-28.343654 -0.717075 15.845457 32.480077 0.025294 1.061169 0.164510 -0.012458 -165966.000000 0 0 1
-28.022254 0.627125 15.568857 32.062896 -0.022376 1.063779 0.167564 -0.016192 156798.000000 0 0 1
-27.909254 0.818125 14.141257 31.298098 -0.029305 1.101987 0.182630 -0.019122 -76059.700000 0 0 1
-27.246754 2.169525 13.776857 30.608728 -0.079457 1.103924 0.172824 -0.021157 46058.200000 0 0 1
-25.841254 2.129625 13.689757 29.320900 -0.082226 1.085021 0.155422 -0.029886 -5295.300000 0 0 1
-25.314654 3.390925 13.351557 28.820031 -0.133158 1.089111 0.146703 -0.029094 1193390.000000 0 0 1
-23.778854 3.498525 12.970557 27.311333 -0.146080 1.075929 0.120543 -0.033262 897768.000000 0 0 1
-22.943554 3.459325 14.077357 27.139373 -0.149648 1.025460 0.102000 -0.020332 -307802.000000 0 0 1
-21.619654 3.846225 13.817957 25.944919 -0.176062 1.009141 0.074941 -0.026749 -312336.000000 0 0 1
-21.029054 4.486225 15.090157 26.268996 -0.210184 0.958867 0.079427 -0.028840 -479911.000000 0 0 1
-21.616354 5.746125 15.439057 27.178102 -0.259815 0.966638 0.065905 -0.016936 631892.000000 0 0 1
-21.052954 6.257225 16.650857 27.561400 -0.288899 0.922114 0.050415 -0.005565 -117984.000000 0 0 1
-21.065954 7.811725 16.716257 28.004120 -0.355103 0.931138 0.041377 -0.011451 327555.000000 0 0 1
-20.015754 8.427825 15.931057 26.934313 -0.398528 0.937906 0.040967 -0.015167 1001580.000000 0 0 1
-19.976754 9.797425 16.032757 27.424616 -0.455971 0.946395 0.042795 -0.009444 -191700.000000 0 0 1
-19.489554 10.508825 17.353457 28.132199 -0.494516 0.906057 0.052042 -0.007836 -354425.000000 0 0 1
-20.421254 10.401725 18.400457 29.390480 -0.471106 0.894295 0.056297 -0.009304 326272.000000 0 0 1
-19.941454 10.989925 19.599957 30.043275 -0.503695 0.860062 0.074199 -0.000568 -380837.000000 0 0 1
-12.839546 -33.595420 -20.133509 41.217282 1.205745 2.081135 0.174074 -0.047790 -424664.000000 0 0 1
-13.741846 -33.742820 -19.098009 41.135752 1.184054 2.053604 0.193878 -0.043121 -834941.000000 0 0 1
-14.788846 -32.829120 -19.196709 40.804101 1.147544 2.060609 0.158407 -0.063795 385821.000000 0 0 1
-16.108046 -33.331820 -18.469809 41.371647 1.120627 2.033575 0.140166 -0.050511 40685.600000 0 0 1
-16.673346 33.374925 -19.245009 41.979238 -1.107487 2.047037 0.125262 -0.063936 655350.000000 0 0 1
-17.624646 32.528225 -18.545809 41.384304 -1.074250 2.035476 0.137269 -0.061794 1796690.000000 0 0 1
-19.015346 33.190225 -18.130109 42.330548 -1.050527 2.013405 0.126104 -0.051733 278888.000000 0 0 1
-18.970146 -33.506620 -17.225009 42.181286 1.055630 1.991449 0.137665 -0.041824 382117.000000 0 0 1
-20.301246 -33.185520 -16.820009 42.383157 1.021782 1.978885 0.110860 -0.037879 583005.000000 0 0 1
-20.840946 33.878925 -15.555309 42.709416 -1.019305 1.943584 0.119424 -0.038335 -214735.000000 0 0 1
-20.812546 32.503125 -15.623509 41.637834 -1.001253 1.955435 0.123099 -0.048630 -19021.500000 0 0 1
-21.131446 31.930225 -14.394509 40.905735 -0.986170 1.930391 0.132574 -0.038072 -139676.000000 0 0 1
-21.234346 30.390725 -14.313409 39.741254 -0.960936 1.939241 0.127305 -0.041060 167992.000000 0 0 1
-20.027246 29.685325 -14.077209 38.476966 -0.977286 1.945354 0.143721 -0.047111 86881.600000 0 0 1
-20.202646 28.268525 -14.001809 37.460740 -0.950293 1.953870 0.147310 -0.047924 311114.000000 0 0 1
-18.967146 27.554425 -13.363509 36.021970 -0.967931 1.950863 0.132631 -0.047801 603827.000000 0 0 1
-17.786246 27.666025 -14.152909 35.805926 -0.999435 1.977155 0.165589 -0.058664 -420442.000000 0 0 1
-16.878846 26.710625 -13.696809 34.437705 -1.007240 1.979835 0.174163 -0.067979 -438299.000000 0 0 1
-15.416946 27.136325 -13.890809 34.161629 -1.054141 1.989548 0.134602 -0.064621 -224430.000000 0 0 1
-15.147546 27.196025 -15.249509 34.664383 -1.062613 2.026304 0.122890 -0.061561 -683399.000000 0 0 1
-13.912146 27.809625 -15.483109 34.736864 -1.106938 2.032781 0.136078 -0.065010 -466260.000000 0 0 1
-13.656946 28.177125 -16.919209 35.591041 -1.119478 2.066190 0.160981 -0.072826 -97836.600000 0 0 1
-13.469846 27.038325 -17.746109 35.034728 -1.108609 2.101951 0.131791 -0.077777 35833.800000 0 0 1
-13.830346 27.397225 -19.044009 36.118703 -1.103310 2.126171 0.118565 -0.072930 -83504.300000 0 0 1
-13.576746 26.367625 -20.135609 35.847209 -1.095298 2.167243 0.079218 -0.044300 472344.000000 0 0 1
-12.272146 26.567925 -20.686909 35.838644 -1.138077 2.186121 0.055573 -0.042601 210535.000000 0 0 1
-11.932346 25.508025 -21.536309 35.452120 -1.133249 2.223675 0.052107 -0.037580 488190.000000 0 0 1
-10.511146 25.577525 -22.164709 35.439643 -1.180884 2.246468 0.070429 -0.040327 210752.000000 0 0 1
-10.497046 26.276225 -23.371009 36.699210 -1.190731 2.261171 0.075035 -0.039390 -936638.000000 0 0 1
-9.283246 26.342325 -24.015509 36.835328 -1.231978 2.280975 0.071148 -0.047423 -1032030.000000 0 0 1
-9.394446 26.871825 -25.426749 38.168968 -1.234476 2.299848 0.085592 -0.041517 384437.000000 0 0 1
-10.258546 26.105525 -26.341439 38.478664 -1.196370 2.324814 0.087509 -0.040073 546943.000000 0 0 1
-10.596846 26.952325 -27.405879 39.872336 -1.196192 2.328618 0.108413 -0.033666 -228517.000000 0 0 1
-11.844646 26.357825 -28.061979 40.280333 -1.148459 2.341537 0.084045 -0.029759 82319.400000 0 0 1
-12.511446 27.147625 -29.111499 41.725402 -1.138942 2.342968 0.104927 -0.030835 274226.000000 0 0 1
-13.783146 26.553525 -29.295809 41.872535 -1.092009 2.345693 0.089691 -0.026362 -124768.000000 0 0 1
-14.328546 26.921025 -30.688399 43.264612 -1.081688 2.359328 0.092095 -0.035039 -349595.000000 0 0 1
-13.535046 26.509325 -31.780439 43.542371 -1.098723 2.388934 0.103712 -0.032963 64850.800000 0 0 1
-13.431846 25.085325 -31.949449 42.783820 -1.079195 2.413981 0.082892 -0.035465 -44369.200000 0 0 1
-12.481146 24.792225 -33.129799 43.220562 -1.104409 2.444215 0.078468 -0.021511 35534.000000 0 0 1
-13.069446 24.798325 33.412372 43.613690 -1.085760 0.698048 0.079041 -0.013011 -235012.000000 0 0 1
-12.216146 24.224025 32.471569 42.313596 -1.103716 0.696016 0.071022 -0.017463 -687365.000000 0 0 1
-12.716046 24.205025 31.024507 41.353369 -1.087077 0.722388 0.080388 -0.003565 85762.600000 0 0 1
-13.889046 23.396225 30.900827 41.172200 -1.035063 0.721938 0.099478 -0.022822 362165.000000 0 0 1
-14.205946 23.250325 29.518117 40.170957 -1.022328 0.745406 0.117736 -0.020446 -144807.000000 0 0 1
-15.484046 22.410225 29.395677 40.075924 -0.966179 0.747340 0.093395 -0.021402 3553.900000 0 0 1
-15.236646 21.007725 29.535917 39.317303 -0.943300 0.720889 0.062546 -0.017931 24142.600000 0 0 1
-16.456146 20.390425 29.865887 39.730912 -0.891770 0.720154 0.059584 -0.026509 104518.000000 0 0 1
-16.382046 18.855425 29.969097 39.013399 -0.855475 0.694811 0.061100 -0.029413 27979.800000 0 0 1
-15.899446 18.287925 28.783897 37.626498 -0.855149 0.699770 0.074493 -0.029987 61850.100000 0 0 1
-15.506246 16.903325 29.034147 37.001997 -0.828479 0.668642 0.070903 -0.038974 50240.500000 0 0 1
-14.947546 16.287625 27.737967 35.469856 -0.828275 0.672904 0.065024 -0.034142 -843046.000000 0 0 1
-13.670746 16.694125 27.426597 34.897011 -0.884639 0.666598 0.045623 -0.035476 -1022460.000000 0 0 1
-13.170746 16.011425 26.320777 33.505486 -0.882435 0.667186 0.033019 -0.027907 268083.000000 0 0 1
-11.960346 16.695525 25.614797 32.831513 -0.949161 0.675828 0.044486 -0.024420 266557.000000 0 0 1
-12.282046 17.561825 24.522757 32.567345 -0.960500 0.718208 0.042873 -0.018775 -149360.000000 0 0 1
-12.757946 18.851325 24.806947 33.667823 -0.975834 0.742449 0.050190 -0.022958 -76417.900000 0 0 1
-11.767146 19.824125 25.478377 34.359997 -1.035113 0.735474 0.057489 -0.022649 -202136.000000 0 0 1
-11.428546 19.675825 26.814537 35.167729 -1.044583 0.703666 0.068960 -0.028110 55496.600000 0 0 1
-12.403246 20.092325 27.777567 36.457308 -1.017744 0.704523 0.084545 -0.026914 79949.300000 0 0 1
-11.980046 19.872225 29.232977 37.322832 -1.028281 0.670926 0.077083 -0.025548 430414.000000 0 0 1
-10.727646 20.443925 29.607247 37.544980 -1.087557 0.662299 0.065514 -0.026918 329726.000000 0 0 1
-10.751146 20.572725 31.007717 38.733741 -1.089239 0.642609 0.055577 -0.027648 -321307.000000 0 0 1
-9.519746 21.115225 31.711367 39.269443 -1.147238 0.630839 0.047720 -0.020532 -27609.500000 0 0 1
-8.342946 20.332525 31.819505 38.671660 -1.181421 0.604455 0.056574 -0.024434 22279.200000 0 0 1
-7.377746 20.979525 32.584177 39.449971 -1.232640 0.598890 0.058668 -0.009798 356984.000000 0 0 1
-6.090646 20.134425 32.883871 39.036394 -1.277048 0.569093 0.066617 -0.008358 338069.000000 0 0 1
-6.349346 19.091425 33.851567 39.379250 -1.249728 0.536252 0.067578 -0.021935 -76977.300000 0 0 1
-5.192546 18.574625 -33.375579 38.547484 -1.298205 2.617604 0.063320 -0.022656 -82161.900000 0 0 1
-4.450046 17.556625 33.563487 38.138507 -1.322556 0.494846 0.058455 -0.023635 -269729.000000 0 0 1
-5.090646 16.305125 33.641192 37.729320 -1.268174 0.469829 0.061372 -0.020893 -21049.200000 0 0 1
-4.966346 15.483025 32.515315 36.354290 -1.260404 0.463706 0.047941 -0.012181 5986.820000 0 0 1
-5.666646 14.076525 32.545760 35.909413 -1.188085 0.436281 0.062021 -0.033514 176092.000000 0 0 1
-5.070446 13.106725 33.432580 36.266143 -1.201670 0.397924 0.067746 -0.028762 419544.000000 0 0 1
-5.704346 11.850025 33.196456 35.706685 -1.122157 0.377203 0.068633 -0.020661 925822.000000 0 0 1
-4.749646 10.702825 33.765761 35.738442 -1.153131 0.333806 0.099057 -0.043405 619749.000000 0 0 1
-4.706046 10.406425 -32.722619 34.658481 -1.146094 2.805785 0.098153 -0.051218 -243422.000000 0 0 1
-3.603646 9.626925 -32.333759 33.928394 -1.212613 2.833785 0.111626 -0.049508 -80763.300000 0 0 1
-3.612546 9.277325 -30.799389 32.368528 -1.199465 2.828945 0.104437 -0.044752 115323.000000 0 0 1
-4.588846 8.277525 -30.574049 32.005427 -1.064601 2.841391 0.114211 -0.036466 -317184.000000 0 0 1
-5.550346 8.795425 -29.682949 31.452238 -1.007859 2.804580 0.121754 -0.039597 -290911.000000 0 0 1
-6.587546 7.694325 -29.346799 31.045660 -0.862739 2.809244 0.116010 -0.036654 -349670.000000 0 0 1
-6.032446 6.665825 -28.550839 29.932825 -0.835236 2.836538 0.115596 -0.029379 163397.000000 0 0 1
-6.944546 5.632425 -28.182909 29.567335 -0.681447 2.834370 0.123219 -0.046727 -377213.000000 0 0 1
-6.697546 4.999125 -26.766179 28.040626 -0.641201 2.838943 0.106240 -0.041912 -256123.000000 0 0 1
-6.988346 5.766325 -25.659839 27.212402 -0.689880 2.802168 0.079305 -0.026224 338169.000000 0 0 1
-6.143046 6.901425 -25.457419 27.082224 -0.843471 2.793441 0.072296 -0.024478 74743.400000 0 0 1
-6.712246 7.864325 -24.361609 26.464879 -0.864271 2.740221 0.040749 -0.003505 56817.400000 0 0 1
-6.721046 7.337025 -23.050509 25.106381 -0.829187 2.734090 0.030443 0.001710 -879216.000000 0 0 1
-7.909046 7.599525 -22.432809 24.970717 -0.765443 2.686828 0.039180 -0.000893 -1007810.000000 0 1 0
-7.654346 7.616325 -20.921309 23.543546 -0.782908 2.665128 0.027060 0.002185 -160.400000 0 1 0
-7.127946 8.909425 -20.622209 23.568219 -0.896028 2.636234 0.009561 0.008961 57597.600000 0 1 0
-6.933346 9.129925 -19.230709 22.388546 -0.921301 2.604018 0.012129 0.006303 -384890.000000 0 1 0
-8.183646 9.481225 -18.392709 22.252133 -0.858722 2.543763 0.012555 0.010645 -584367.000000 0 1 0
-8.040646 9.542625 -16.984809 21.075991 -0.870612 2.507964 0.007524 0.007391 149560.000000 0 1 0
-9.155146 9.848125 -16.138209 21.005810 -0.821848 2.446936 0.010913 -0.000299 372389.000000 0 1 0
-9.735846 11.319225 -16.234109 22.055789 -0.860459 2.398009 0.035235 -0.010236 -218171.000000 0 1 0
-8.752346 12.244025 -15.895509 21.890338 -0.950189 2.383491 0.014389 -0.010554 218675.000000 0 1 0
-9.281046 13.600525 -15.912909 22.898313 -0.971978 2.339130 0.047019 -0.018780 148951.000000 0 1 0
-8.135946 14.617425 -15.810909 23.018418 -1.062906 2.327985 0.055106 -0.020160 108093.000000 0 1 0
-7.282446 14.665525 -14.684009 21.993903 -1.109897 2.301831 0.040033 -0.014800 123504.000000 0 1 0
-7.940646 14.991425 -13.470409 21.662147 -1.083688 2.241887 0.035431 -0.041584 -974919.000000 0 1 0
-7.120146 15.789125 -12.446309 21.328468 -1.147151 2.193894 0.012854 -0.032165 -654204.000000 0 1 0
-6.899246 17.187725 -12.713209 22.464264 -1.189079 2.172358 0.036364 -0.032134 363582.000000 0 1 0
-6.072246 17.408025 -13.881909 23.078538 -1.235174 2.216183 0.050785 -0.020045 10764.100000 0 1 0
-6.130146 18.889525 -14.380209 24.519039 -1.256993 2.197517 0.082644 -0.012118 421011.000000 0 1 0
-5.533546 19.824325 -13.444309 24.584008 -1.298595 2.149420 0.085251 -0.021585 123619.000000 0 1 0
-5.809446 21.155225 -13.833809 25.935834 -1.302792 2.133395 0.087807 -0.021561 -399443.000000 0 0 1
-5.492246 22.192425 -12.678609 26.142219 -1.328188 2.077143 0.109780 -0.017558 -448662.000000 0 0 1
-5.657646 23.571325 -12.941609 27.479111 -1.335230 2.061177 0.099880 -0.022499 126214.000000 0 0 1
-6.988446 24.063625 -12.945409 28.204256 -1.288156 2.047652 0.093208 -0.018335 83049.800000 0 0 1
-7.767646 24.142725 -11.615209 27.894813 -1.259517 2.000271 0.051570 -0.021415 -355259.000000 0 0 1
-8.154146 22.878425 -11.172609 26.734615 -1.228421 2.001938 0.062186 -0.019875 -340817.000000 0 0 1
-8.667646 22.796925 -9.852209 26.303876 -1.207465 1.954711 0.077835 -0.023863 493912.000000 0 0 1
-7.698046 23.128125 -8.629709 25.858112 -1.249487 1.911057 0.077312 -0.022875 500985.000000 0 0 1
-7.241646 24.471825 -8.565509 26.919874 -1.283089 1.894611 0.076625 -0.019051 -65267.300000 0 0 1
-6.412646 24.750325 -7.441709 26.628550 -1.317278 1.854032 0.075254 -0.021619 56241.600000 0 0 1
-6.536546 26.253125 -6.963509 27.936418 -1.326776 1.822715 0.066271 -0.026790 -101363.000000 0 0 1
-5.992046 27.242125 -7.854109 28.978009 -1.354289 1.845266 0.074135 -0.026241 -82007.600000 0 0 1
-6.425046 27.346725 -9.211409 29.563062 -1.340034 1.887657 0.077185 -0.027825 -133568.000000 0 0 1
-5.881046 28.598025 -9.913909 30.833737 -1.367979 1.898139 0.082243 -0.026359 88081.000000 0 0 1
-6.727646 29.736125 -9.787209 32.020116 -1.348297 1.881426 0.077619 -0.025682 41507.200000 0 0 1
-7.536246 29.809725 -10.948409 32.638664 -1.323173 1.912872 0.085259 -0.024690 -514763.000000 0 0 1
-8.754146 30.733125 -10.818909 33.737351 -1.293301 1.897244 0.093090 -0.030663 -706888.000000 0 0 1
-9.774246 30.043525 -10.163609 33.188074 -1.256260 1.882040 0.094069 -0.025261 -377691.000000 0 0 1
-10.877146 30.939325 -10.049709 34.300886 -1.232729 1.868146 0.090359 -0.035229 730351.000000 0 0 1
-12.096046 30.449125 -9.192809 34.028977 -1.192659 1.844342 0.103645 -0.029847 602380.000000 0 0 1
-12.885546 29.464225 -9.873309 33.640156 -1.158530 1.868680 0.123374 -0.037063 -27524.600000 0 0 1
-13.900846 29.133425 -8.938109 33.494474 -1.125600 1.840923 0.129642 -0.029085 248689.000000 0 0 1
-14.880146 28.001225 -9.317609 33.050040 -1.082337 1.856595 0.136219 -0.031749 556492.000000 0 0 1
-14.280846 26.688325 -9.222609 31.642784 -1.079467 1.866549 0.134647 -0.039365 160238.000000 0 0 1
-15.307746 25.792425 -9.540409 31.473730 -1.035172 1.878764 0.164489 -0.039857 -141155.000000 0 0 1
-15.284446 24.337925 -8.983209 30.110578 -1.010036 1.873750 0.148393 -0.034938 -249305.000000 0 0 1
-14.397846 23.406625 -9.538109 29.088547 -1.019334 1.904875 0.150990 -0.034545 -158400.000000 0 0 1
-14.377346 22.188025 -8.846009 27.879534 -0.995844 1.893671 0.128735 -0.027838 -268656.000000 0 0 1
-13.489346 21.160825 -9.513409 26.837435 -1.003282 1.933157 0.137964 -0.031673 -467417.000000 0 0 1
-13.955446 20.877125 -10.834409 27.349465 -0.981556 1.978113 0.132750 -0.022867 313100.000000 0 0 1
-13.397846 19.659125 -11.279109 26.328725 -0.972589 2.013513 0.118817 -0.020500 -35515.000000 0 0 1
-13.742946 19.356925 -12.777109 26.959481 -0.953407 2.064553 0.114304 -0.019871 -401529.000000 0 0 1
-15.077846 19.005025 -12.933109 27.491775 -0.900117 2.060581 0.133837 -0.020443 -898955.000000 0 0 1
-15.262046 18.749125 -14.326409 28.101703 -0.887569 2.105755 0.128756 -0.013869 726230.000000 0 0 1
-16.782546 18.738225 -14.713809 29.142256 -0.840400 2.100058 0.134575 -0.013595 424976.000000 0 0 1
-17.421146 19.973525 -14.609509 30.263439 -0.853548 2.074582 0.105586 -0.021485 -529173.000000 0 0 1
-18.764946 19.669725 -14.901209 31.001085 -0.808935 2.072212 0.085812 -0.015611 -580925.000000 0 0 1
-19.451546 20.890325 -15.528309 32.494564 -0.821048 2.069029 0.084792 -0.017932 -281388.000000 0 0 1
-19.845646 21.892325 -14.590409 32.954568 -0.834395 2.029452 0.103892 -0.041205 84872.600000 0 0 1
-20.298646 23.002725 -15.283109 34.274390 -0.847765 2.032981 0.108461 -0.031247 -159755.000000 0 0 1
-21.100546 24.025025 -14.452909 35.090190 -0.850115 1.995311 0.106233 -0.021880 -122807.000000 0 0 1
-22.394046 23.643625 -14.049809 35.467047 -0.812534 1.978102 0.142844 -0.025617 -144387.000000 0 0 1
-22.840846 24.511325 -13.042509 35.952974 -0.820661 1.942030 0.148195 -0.040953 25840.700000 0 0 1
-26.529966 -1.002375 3.363891 26.761158 0.037765 1.444762 0.236045 -0.044676 -111557.000000 0 0 1
-27.071606 -0.249875 4.393191 27.426892 0.009230 1.409925 0.242359 -0.044543 409906.000000 0 0 1
-28.379616 -0.561475 4.861691 28.798505 0.019782 1.401167 0.227009 -0.044293 441594.000000 0 0 1
-28.824486 0.384825 6.043591 29.453761 -0.013350 1.364139 0.235404 -0.037114 -345854.000000 0 0 1
-29.078096 1.750425 5.711091 29.685286 -0.060125 1.377201 0.255039 -0.047330 268544.000000 0 0 1
-29.260076 2.638625 6.800391 30.155591 -0.089935 1.343330 0.250008 -0.036426 43565.700000 0 0 1
-27.983116 3.029125 7.604691 29.155817 -0.107828 1.306915 0.250786 -0.035226 -147926.000000 0 0 1
-27.517296 2.103425 8.532691 28.886550 -0.076292 1.270936 0.236557 -0.044103 608733.000000 0 0 1
-26.362496 2.654925 9.165391 28.036301 -0.100370 1.237763 0.211881 -0.050241 59024.700000 0 0 1
-25.526256 1.654725 9.983491 27.459023 -0.064734 1.198691 0.192082 -0.044865 -988038.000000 0 0 1
-24.580046 0.959725 9.267191 26.286509 -0.039025 1.210506 0.185256 -0.047524 -344692.000000 0 0 1
-25.004046 -0.272075 8.680991 26.469528 0.010881 1.236651 0.168416 -0.045250 109106.000000 0 0 1
-23.885946 -1.109275 7.946991 25.197689 0.046407 1.249933 0.155612 -0.047418 -49663.600000 0 0 1
-23.034146 -1.714975 8.849291 24.735055 0.074316 1.204925 0.151873 -0.055769 5119.900000 0 1 0
-21.881646 -2.237075 8.219291 23.481219 0.101881 1.213186 0.163707 -0.044631 -247924.000000 0 1 0
-20.566146 -2.300575 8.981691 22.559472 0.111399 1.161315 0.109982 -0.033174 -270677.000000 0 1 0
-19.981346 -1.049675 9.286391 22.058854 0.052484 1.136268 0.096049 -0.038661 612443.000000 0 1 0
-20.425546 -0.576375 10.540691 22.992201 0.028211 1.094550 0.117363 -0.040880 -369193.000000 0 1 0
-19.841246 0.854725 10.713091 22.564926 -0.043052 1.076097 0.075918 -0.033732 -227349.000000 0 1 0
-20.282846 1.942025 9.915491 22.660147 -0.095456 1.117897 0.092821 -0.028183 -269637.000000 0 1 0
-21.646846 2.213525 9.968691 23.934503 -0.101902 1.141206 0.120932 -0.035094 -1135670.000000 0 1 0
-22.151846 3.520325 9.414791 24.325609 -0.157600 1.173386 0.120426 -0.040171 -542433.000000 0 1 0
-22.001546 4.706225 10.163691 24.688402 -0.210729 1.146501 0.094820 -0.038337 477315.000000 0 1 0
-22.564746 5.877325 9.602891 25.217577 -0.254804 1.180133 0.087635 -0.030944 -199148.000000 0 0 1
-22.708646 6.965525 10.691291 26.048125 -0.297624 1.147856 0.097706 -0.034651 465796.000000 0 0 1
-23.780246 6.748325 11.618791 27.313665 -0.276509 1.131410 0.103250 -0.029170 604646.000000 0 0 1
-23.759446 7.676925 12.671191 28.000099 -0.312522 1.101184 0.118707 -0.029349 7801.200000 0 0 1
-24.627446 7.187125 13.861391 29.159973 -0.283948 1.075427 0.130999 -0.027306 -59381.100000 0 0 1
-25.975116 7.147025 13.480991 30.125134 -0.268505 1.106829 0.159270 -0.023018 46309.000000 0 0 1
-26.866056 6.810325 14.549491 31.302606 -0.248262 1.087386 0.156435 -0.024555 262893.000000 0 0 1
-28.363766 6.736925 14.223991 32.437806 -0.233198 1.116867 0.162328 -0.014227 -148221.000000 0 0 1
-28.688746 5.708225 13.316491 32.139647 -0.196406 1.143587 0.178920 -0.006129 155415.000000 0 0 1
-30.020636 5.868325 12.852991 33.179439 -0.193042 1.173010 0.208988 -0.019015 110009.000000 0 0 1
-30.394176 4.621625 11.967091 32.990553 -0.150900 1.199587 0.237078 -0.025617 -52998.800000 0 0 1
-30.805006 3.434725 12.673391 33.486722 -0.111040 1.182664 0.221390 -0.025372 621128.000000 0 0 1
-31.393826 2.475625 11.755091 33.613735 -0.078694 1.213534 0.213964 -0.015598 -273663.000000 0 0 1
-32.717016 1.872125 12.205191 34.969625 -0.057159 1.214268 0.166421 -0.003719 -514765.000000 0 0 1
-32.692646 0.694425 13.000091 35.189397 -0.021238 1.192399 0.173354 -0.002826 -813473.000000 0 0 1
-33.938416 0.351725 13.503391 36.527816 -0.010363 1.192138 0.140918 0.002198 -663997.000000 0 0 1
-33.916576 -0.807075 14.481591 36.887694 0.023791 1.167355 0.121251 -0.009552 -58318.400000 0 0 1
-33.664216 -2.020875 13.782891 36.432560 0.059958 1.182824 0.138112 -0.015179 273482.000000 0 0 1
-33.558876 -3.164675 14.667091 36.760534 0.094024 1.160381 0.155319 -0.013755 73354.300000 0 0 1
-33.330766 -4.538975 13.931791 36.409299 0.135347 1.178140 0.143845 -0.018139 668834.000000 0 0 1
-34.567322 -5.029075 13.383191 37.407234 0.144473 1.204917 0.104728 -0.018257 816150.000000 0 0 1
-34.371789 -6.215075 12.607691 37.134901 0.178886 1.224400 0.120295 -0.021052 -61241.600000 0 0 1
-35.678370 -6.497275 11.791691 38.134035 0.180133 1.256427 0.120370 -0.006007 1194800.000000 0 0 1
-36.901646 -6.608575 12.534291 39.528637 0.177208 1.248133 0.095357 -0.016971 835066.000000 0 0 1
37.370833 -5.330375 12.777691 39.852998 -0.141679 1.244412 0.094683 -0.020805 -542624.000000 0 0 1
35.839313 -5.330375 12.600891 38.362113 -0.147647 1.236111 0.103893 -0.028239 -15383.400000 0 0 1
35.005853 -6.019175 13.491291 37.995462 -0.170283 1.207801 0.102704 -0.026622 -320207.000000 0 0 1
33.710843 -6.057575 12.955891 36.619261 -0.177795 1.209166 0.122494 -0.022798 -24655.200000 0 0 1
32.703703 -7.060775 13.558191 36.100018 -0.212638 1.185781 0.104932 -0.027452 -38614.100000 0 0 1
32.170113 -6.783375 14.806991 36.057972 -0.207815 1.147636 0.114191 -0.015597 -468051.000000 0 0 1
31.116213 -7.663675 14.993891 35.380325 -0.241486 1.133169 0.121360 -0.013722 -385418.000000 0 0 1
30.604263 -7.708375 16.453791 35.591673 -0.246740 1.090217 0.108542 -0.014575 25865.400000 0 0 1
31.516363 -8.350675 17.326791 36.921980 -0.259011 1.082320 0.090167 -0.010529 83650.400000 0 0 1
30.965893 -8.556075 18.614891 37.129599 -0.269580 1.045639 0.084162 -0.019286 -410784.000000 0 0 1
32.034783 -9.000075 19.640491 38.639068 -0.273887 1.037579 0.077074 -0.016960 311871.000000 0 0 1
32.959153 -8.005275 20.094291 39.422972 -0.238271 1.035948 0.076925 -0.019716 -34204.700000 0 0 1
34.117263 -8.099475 19.304691 40.028243 -0.233086 1.067544 0.064299 -0.003621 237859.000000 0 0 1
35.447343 -7.436975 19.860191 41.306778 -0.206804 1.069232 0.069731 -0.017364 986145.000000 0 0 1
35.898733 -8.025975 21.045791 42.379955 -0.219955 1.051122 0.076862 -0.016635 -683519.000000 0 0 1
37.163193 -7.615475 21.429391 43.569682 -0.202122 1.056592 0.057534 -0.013349 -698170.000000 0 0 1
-37.336656 -8.363575 22.722591 44.500465 0.220367 1.034897 0.060609 -0.011308 -363090.000000 0 0 1
36.768663 -7.953575 23.806691 44.519125 -0.213032 1.006582 0.065466 -0.014178 -151678.000000 0 0 1
37.172203 -8.553275 24.994391 45.603188 -0.226162 0.990724 0.068806 -0.018129 -417597.000000 0 0 1
36.454813 -8.026475 26.225891 45.619897 -0.216718 0.958341 0.082127 -0.019209 -280094.000000 0 0 1
37.291373 -7.531175 27.223791 46.781405 -0.199275 0.949689 0.059223 -0.027656 326444.000000 0 0 1
36.479883 -7.020375 28.295991 46.698294 -0.190121 0.919859 0.067683 -0.031826 408119.000000 0 0 1
37.403773 -6.274375 29.305491 47.929342 -0.166200 0.912928 0.078457 -0.030688 1086860.000000 0 0 1
-36.647516 -7.127875 30.140191 47.982060 0.192100 0.891616 0.076590 -0.033695 -161797.000000 0 0 1
-35.268333 -7.037175 29.929891 46.788626 0.196946 0.876710 0.068768 -0.037123 -316328.000000 0 0 1
-34.503836 -7.486875 31.167891 47.095705 0.213674 0.847580 0.067433 -0.034407 -240583.000000 0 0 1
-34.592181 -8.851675 31.351491 47.517230 0.250511 0.850254 0.069743 -0.032317 111406.000000 0 0 1
-33.837496 -9.292975 32.461491 47.802551 0.268027 0.824295 0.065495 -0.028598 -186227.000000 0 0 1
-33.863026 -10.874175 32.518691 48.191467 0.310721 0.830128 0.081042 -0.033394 -421505.000000 0 0 1
-35.177197 -11.337775 32.675491 49.332221 0.311792 0.846837 0.083911 -0.032622 -105518.000000 0 0 1
-35.226214 -12.763075 32.840791 49.822683 0.347606 0.851104 0.080302 -0.030639 1186280.000000 0 0 1
-36.768366 -13.095675 32.902591 51.048897 0.342158 0.870387 0.074907 -0.031123 1135750.000000 0 0 1
-37.178216 -14.464575 33.052391 51.806411 0.371040 0.878901 0.072511 -0.037518 344247.000000 0 0 1
36.283093 -14.594275 33.112191 51.243272 -0.382430 0.868233 0.067935 -0.034581 327874.000000 0 0 1
35.848883 -16.070575 33.311591 51.507940 -0.421428 0.867511 0.053408 -0.027349 -147894.000000 0 0 1
36.156133 -16.715275 -33.291275 51.913152 -0.433042 2.266972 0.057335 -0.032519 98088.900000 0 0 1
35.831043 -18.084975 -33.394275 52.212140 -0.467424 2.264759 0.050156 -0.037084 -383201.000000 0 0 1
36.394553 -18.928675 -32.213375 52.158985 -0.479595 2.236483 0.047042 -0.007028 -51180.800000 0 0 1
35.825673 -18.539875 -30.982075 50.863491 -0.477551 2.225749 0.049369 -0.012489 78173.300000 0 0 1
36.349763 -19.286375 -29.844775 50.832864 -0.487810 2.198288 0.047568 -0.011320 -835429.000000 0 0 1
35.399063 -19.088275 -28.658175 49.383670 -0.494538 2.189914 0.056895 -0.014926 226912.000000 0 0 1
34.165713 -19.779075 -28.651575 48.779304 -0.524772 2.198604 0.053180 -0.008932 -76059.500000 0 0 1
33.246223 -19.166875 -29.510775 48.410394 -0.522970 2.226347 0.047656 -0.010459 -1383820.000000 0 0 1
31.854383 -19.852275 -29.452075 47.709949 -0.557318 2.236122 0.056575 -0.013715 -310552.000000 0 0 1
30.963093 -19.239575 -30.337975 47.426439 -0.555986 2.264885 0.053928 -0.008747 -328955.000000 0 0 1
29.737663 -19.950075 -30.243275 46.872057 -0.590906 2.272121 0.055154 -0.008203 191066.000000 0 0 1
28.686063 -19.447675 -31.265375 46.675753 -0.595773 2.304792 0.047542 -0.003207 59837.500000 0 0 1
29.034863 -19.794675 -32.592375 47.928231 -0.598376 2.318592 0.026937 -0.006287 -169181.000000 0 0 1
27.994663 -19.526475 -33.504875 47.828454 -0.609051 2.346925 0.066017 -0.003647 -56411.500000 0 0 1
28.299363 -19.776975 32.867391 47.668103 -0.609953 0.809991 0.060789 -0.020425 91230.500000 0 0 1
29.153363 -18.704875 32.445091 47.460245 -0.570449 0.818076 0.037725 -0.017796 162989.000000 0 0 1
29.351163 -18.644175 30.998291 46.583152 -0.565908 0.842713 0.032831 -0.020950 -453844.000000 0 0 1
28.283663 -17.914275 30.167091 45.065954 -0.564602 0.837397 0.029917 -0.012533 -247772.000000 0 0 1
28.080663 -16.571775 30.480891 44.634427 -0.533145 0.819070 0.042255 -0.018917 171337.000000 0 0 1
27.050463 -15.876675 29.815891 43.275671 -0.530752 0.810721 0.041871 -0.016740 -48065.400000 0 0 1
26.791763 -14.496475 30.423891 43.052985 -0.495969 0.786028 0.056344 -0.017013 56612.600000 0 0 1
27.872463 -13.595775 30.231391 43.308848 -0.453828 0.798137 0.064255 -0.013819 194948.000000 0 0 1
27.624463 -12.322575 30.804391 43.172530 -0.419585 0.776289 0.084357 -0.019828 344962.000000 0 0 1
28.916963 -11.459275 30.856691 43.813709 -0.377297 0.789402 0.093070 -0.022308 282171.000000 0 0 1
29.471163 -10.960375 29.677991 43.237280 -0.356052 0.814272 0.087543 -0.020640 742414.000000 0 0 1
30.821603 -10.512975 29.906991 44.214499 -0.328716 0.827923 0.089355 -0.020258 1345160.000000 0 0 1
31.627393 -10.001375 28.630791 43.818280 -0.306275 0.858731 0.095656 -0.018750 352339.000000 0 0 1
31.257983 -8.677475 28.299791 43.049254 -0.270789 0.853457 0.078875 -0.018501 57314.200000 0 0 1
31.811453 -8.431075 27.033591 42.589513 -0.259076 0.883114 0.075409 -0.012531 47987.900000 0 0 1
31.808943 -6.928175 26.638991 42.064763 -0.214457 0.885006 0.068741 -0.012504 211424.000000 0 0 1
30.519773 -6.444375 26.319891 40.813272 -0.208097 0.869923 0.073006 -0.010957 -92745.700000 0 0 1
30.561693 -5.017775 26.348091 40.662231 -0.162733 0.865874 0.074626 -0.008567 722072.000000 0 0 1
29.127963 -4.408975 26.200491 39.425157 -0.150225 0.843888 0.069293 0.002377 671824.000000 0 0 1
28.572563 -4.625675 24.910891 38.188227 -0.160500 0.860157 0.075570 -0.006760 -916820.000000 0 0 1
27.309263 -4.099875 24.815791 37.127191 -0.149015 0.838742 0.086317 -0.007701 -1110090.000000 0 0 1
26.413663 -4.427975 23.630591 35.716850 -0.166095 0.847834 0.098046 -0.007327 -292946.000000 0 0 1
26.869963 -3.866575 22.414091 35.204215 -0.142918 0.880601 0.099917 -0.002567 -192642.000000 0 0 1
26.050263 -4.237675 21.365791 33.956901 -0.161260 0.890269 0.113964 -0.007136 -421185.000000 0 0 1
26.421463 -3.622175 20.043691 33.361106 -0.136243 0.926282 0.119344 -0.007612 8727.160000 0 0 1
26.161163 -2.236975 19.976591 32.992040 -0.085300 0.920406 0.112920 0.004732 116272.000000 0 0 1
26.628263 -1.606975 18.797291 32.634106 -0.060275 0.956968 0.110658 -0.006984 -221229.000000 0 0 1
25.520863 -0.614275 18.407391 31.472588 -0.024065 0.946076 0.113836 -0.008444 3236.770000 0 0 1
24.547463 -1.325075 17.656591 30.266962 -0.053928 0.947935 0.103894 -0.010302 -520907.000000 0 0 1
23.471063 -0.485775 17.327091 29.177986 -0.020694 0.934972 0.121284 -0.012715 -200726.000000 0 0 1
22.260863 -1.342175 16.903091 27.983244 -0.060220 0.922231 0.130821 -0.016178 -125934.000000 0 0 1
22.447963 -1.977975 15.648591 27.435412 -0.087887 0.963829 0.149196 -0.024406 403418.000000 0 0 1
21.362163 -2.821975 15.250591 26.398600 -0.131341 0.954883 0.168180 -0.034389 362717.000000 0 0 1
21.468363 -3.129775 13.731091 25.675454 -0.144766 1.006532 0.182767 -0.050936 -262213.000000 0 0 1
20.400963 -3.929875 13.294391 24.665442 -0.190301 1.001560 0.194090 -0.051128 390101.000000 0 1 0
20.338063 -4.115475 11.915991 23.928326 -0.199657 1.049521 0.167397 -0.051660 -289722.000000 0 1 0
19.213163 -5.074275 11.497891 22.958558 -0.258208 1.046261 0.159763 -0.051362 -333335.000000 0 1 0
19.439363 -6.398875 11.950091 23.698926 -0.318000 1.042288 0.169855 -0.057761 206708.000000 0 1 0
18.268763 -7.137175 11.800191 22.889549 -0.372443 1.029173 0.163030 -0.050391 -462399.000000 0 1 0
18.385363 -8.565675 12.353691 23.748811 -0.435994 1.023733 0.170240 -0.054405 -318730.000000 0 1 0
18.896663 -9.393375 11.354091 23.963196 -0.461318 1.077180 0.140398 -0.059695 425531.000000 0 1 0
18.615863 -10.749875 11.685591 24.467595 -0.523679 1.072881 0.156114 -0.055088 -135399.000000 0 1 0
19.139363 -11.613775 10.526491 24.738674 -0.545405 1.131274 0.136144 -0.054206 90142.200000 0 1 0
18.556063 -11.284575 9.288391 23.620824 -0.546379 1.166656 0.127046 -0.045599 864875.000000 0 1 0
19.359363 -11.888175 8.258091 24.172499 -0.550707 1.222144 0.134098 -0.050719 307134.000000 0 1 0
18.930463 -11.370975 6.868491 23.126557 -0.540913 1.269251 0.117586 -0.030978 -104623.000000 0 1 0
19.233463 -10.022475 6.678691 22.693193 -0.480381 1.272069 0.111822 -0.025789 571205.000000 0 1 0
19.594863 -9.711675 5.337391 22.511398 -0.460140 1.331419 0.089166 -0.025818 -270743.000000 0 1 0
20.180863 -8.298575 5.280391 22.450303 -0.390133 1.333368 0.122055 -0.024752 -175344.000000 0 1 0
20.628963 -7.879775 3.989391 22.440147 -0.364873 1.392067 0.118368 -0.029904 711528.000000 0 1 0
21.086263 -6.534375 4.036691 22.441555 -0.300503 1.389936 0.133942 -0.026727 -143830.000000 0 1 0
21.679563 -5.984075 2.696591 22.651362 -0.269318 1.451466 0.154692 -0.031805 -188020.000000 0 1 0
20.797563 -6.040075 1.601691 21.716043 -0.282647 1.496973 0.113307 -0.038818 424795.000000 0 1 0
21.325363 -5.394475 0.488691 22.002506 -0.247763 1.548584 0.126632 -0.033147 -87374.200000 0 1 0
-26.031396 -14.967775 0.094291 30.027932 0.521826 1.567656 0.117049 -0.022523 -1061240.000000 0 0 1
-25.167666 -14.119675 -0.613809 28.864396 0.511268 1.592063 0.098623 -0.014636 293818.000000 0 0 1
-23.809246 -14.535275 -0.547209 27.900785 0.548096 1.590410 0.111680 -0.005826 736485.000000 0 0 1
-23.055746 -14.325175 0.831591 27.156391 0.555954 1.540169 0.148244 -0.032881 -462387.000000 0 0 1
-23.620946 -15.139075 1.894091 28.119890 0.569964 1.503388 0.137620 -0.011117 81937.000000 0 0 1
-22.929046 -14.935575 3.112491 27.540881 0.577346 1.457541 0.137323 -0.004325 256297.000000 0 0 1
-23.662546 -15.567475 4.334991 28.654048 0.581905 1.418926 0.158913 -0.000607 63879.400000 0 0 1
-23.589746 -16.994175 4.238891 29.381053 0.624290 1.426018 0.196904 -0.018118 267729.000000 0 0 1
-24.096446 -17.664075 5.376191 30.357234 0.632569 1.392760 0.198896 -0.022525 -52512.300000 0 0 1
-24.257446 -19.205975 5.143991 31.364849 0.669694 1.406047 0.159718 -0.013568 -126424.000000 0 0 1
-24.660746 -19.856975 6.293691 32.280991 0.677907 1.374574 0.147474 -0.020664 56103.900000 0 0 1
-24.993146 -21.241975 6.022891 33.348974 0.704443 1.389198 0.139594 -0.028964 -267426.000000 0 0 1
-25.265056 -22.073775 7.290591 34.332598 0.718086 1.356815 0.125880 -0.025589 85755.000000 0 0 1
-24.195146 -22.186475 8.216991 33.840267 0.742118 1.325528 0.124550 -0.021444 24260.100000 0 0 1
-24.472046 -23.208075 9.109391 34.935322 0.758895 1.306997 0.102972 -0.018527 -282749.000000 0 0 1
-23.693846 -23.067075 10.401191 34.665156 0.771995 1.266054 0.114721 -0.026486 -320883.000000 0 0 1
-23.958746 -21.995875 11.255791 34.417043 0.742711 1.237625 0.102803 -0.029447 -226542.000000 0 0 1
-23.271146 -22.113475 12.466691 34.437921 0.759896 1.200379 0.093393 -0.031729 -859045.000000 0 0 1
-23.779346 -21.355575 13.645291 34.752148 0.731749 1.167289 0.074108 -0.028279 -1589680.000000 0 0 1
-24.881746 -21.996275 14.123091 36.088767 0.723923 1.168706 0.075649 -0.029473 -1211620.000000 0 0 1
-25.286826 -21.353175 15.270691 36.449631 0.701257 1.138504 0.080601 -0.022363 -1203660.000000 0 0 1
-26.643956 -21.759275 15.788991 37.850478 0.684822 1.140499 0.047793 -0.019552 -878345.000000 0 0 1
-27.763016 -21.406975 14.990791 38.128302 0.656844 1.166723 0.051462 -0.021516 390773.000000 0 0 1
-28.091846 -22.387875 13.957991 38.538218 0.672880 1.200185 0.053186 -0.021646 -350174.000000 0 0 1
-29.083416 -23.524975 14.364491 40.070040 0.680132 1.204152 0.048845 -0.015825 -164683.000000 0 0 1
-28.647226 -24.304475 15.468091 40.627981 0.703568 1.180216 0.040059 -0.004617 64430.400000 0 0 1
-29.690136 -25.142465 15.948591 42.047654 0.702650 1.181759 0.026235 -0.007682 218818.000000 0 0 1
-29.676886 -26.567805 15.377591 42.697027 0.730177 1.202361 0.049039 -0.007738 -39929.300000 0 0 1
-30.079066 -26.611125 14.051291 42.548101 0.724301 1.234233 0.064499 -0.021627 451661.000000 0 0 1
-31.338696 -27.268475 13.832291 43.783739 0.716060 1.249367 0.089405 -0.033043 607194.000000 0 0 1
-31.745686 -27.307885 12.335491 43.654020 0.710390 1.284320 0.143137 -0.043907 -19941.100000 0 0 1
-31.104036 -28.377065 11.677591 43.693077 0.739584 1.300244 0.122957 -0.040159 107039.000000 0 0 1
-31.686906 -28.686335 10.428691 43.996857 0.735739 1.331486 0.147265 -0.030688 17046.800000 0 0 1
-31.292106 -30.073835 9.894591 44.514428 0.765548 1.346646 0.123571 -0.035714 7774.540000 0 0 1
-31.724886 -31.135935 10.695391 45.719866 0.776029 1.334675 0.114353 -0.016846 45030.800000 0 0 1
-31.151206 -32.333655 10.191591 46.040541 0.804022 1.347586 0.108164 -0.028211 -83233.200000 0 0 1
-31.242656 -33.532245 11.098891 47.156127 0.820730 1.333202 0.099384 -0.025758 -466525.000000 0 0 1
-32.557956 33.881810 11.364691 48.344118 -0.805321 1.333496 0.090031 -0.020102 -608783.000000 0 0 1
-32.698136 32.493300 11.622691 47.540189 -0.782256 1.323812 0.097544 -0.029025 -1095060.000000 0 0 1
-33.977926 32.060488 12.352091 48.321305 -0.756371 1.312303 0.102479 -0.023156 405527.000000 0 0 1
-35.163179 31.986993 11.558891 48.920597 -0.738134 1.332262 0.066457 -0.022658 288316.000000 0 0 1
-35.674617 33.179246 11.071491 49.961170 -0.749172 1.347339 0.094537 -0.018612 -1641430.000000 0 0 1
-37.075256 32.912867 10.535991 50.683710 -0.725995 1.361392 0.068560 0.000623 -568351.000000 0 0 1
-37.091056 32.205683 9.329491 49.999918 -0.715015 1.383106 0.045865 -0.005137 788526.000000 0 0 1
36.431213 32.137764 8.856691 49.381273 0.722865 1.390467 0.029134 -0.004071 576794.000000 0 0 1
36.281903 31.500590 7.454391 48.623365 0.714976 1.416881 0.026448 -0.008138 -111259.000000 0 0 1
36.328783 30.090100 7.417091 47.751522 0.691744 1.414838 0.055460 -0.016641 -16685.700000 0 0 1
36.106213 29.641000 6.108091 47.112167 0.687379 1.440780 0.078229 -0.014029 67950.600000 0 0 1
36.234953 28.098930 5.834791 46.223008 0.659600 1.444227 0.093265 -0.015508 357114.000000 0 0 1
35.310433 27.275430 6.565091 45.098516 0.657713 1.424705 0.080998 -0.013302 458623.000000 0 0 1
35.833273 26.891790 7.841891 45.482822 0.643802 1.397516 0.061263 -0.008032 242571.000000 0 0 1
34.848343 25.855290 8.454791 44.208444 0.638321 1.378363 0.060512 -0.009558 185586.000000 0 0 1
34.870283 24.637020 7.757091 43.394606 0.615097 1.391073 0.064243 -0.017900 -56946.600000 0 0 1
33.687133 23.902540 7.955691 42.064800 0.617103 1.380521 0.056521 -0.023882 -512764.000000 0 0 1
33.724303 22.656670 6.955491 41.219318 0.591562 1.401242 0.069451 -0.022263 855985.000000 0 0 1
34.706733 21.579070 7.081591 41.477253 0.556262 1.399221 0.075813 -0.018050 -49856.300000 0 0 1
36.030263 21.996870 6.979491 42.787328 0.548112 1.406944 0.101220 -0.030693 -1148790.000000 0 0 1
36.973123 20.792070 6.955791 42.984939 0.512280 1.408262 0.086167 -0.030131 -397840.000000 0 0 1
36.866413 19.920570 5.827691 42.307487 0.495400 1.432611 0.110965 -0.039778 -304747.000000 0 0 1
-37.380506 18.712370 6.058691 42.239350 -0.464121 1.426863 0.114591 -0.040372 -395080.000000 0 0 1
36.971773 17.512070 5.266091 41.247016 0.442355 1.442775 0.114412 -0.039739 173422.000000 0 0 1
-37.334046 17.508770 3.956591 41.425145 -0.438522 1.475139 0.123155 -0.040881 -70411.800000 0 0 1
36.820183 16.539970 3.261291 40.496080 0.422196 1.490176 0.115420 -0.042597 -860449.000000 0 0 1
-37.333016 15.891270 2.014691 40.624445 -0.402432 1.521183 0.146835 -0.029957 485288.000000 0 0 1
-36.169166 15.169170 2.395091 39.294385 -0.397114 1.509806 0.151519 -0.039230 1663300.000000 0 0 1
-34.995555 15.977770 2.780091 38.570804 -0.428301 1.498656 0.156866 -0.047267 165783.000000 0 0 1
-33.634026 15.294670 2.708691 37.047424 -0.426787 1.497617 0.167309 -0.047788 -215489.000000 0 0 1
-33.361086 14.381670 3.776991 36.524788 -0.407019 1.467202 0.159794 -0.044379 17202.700000 0 0 1
-32.007646 14.018570 3.956991 35.166283 -0.412810 1.458035 0.174512 -0.051991 -176519.000000 0 0 1
-31.679926 13.329970 5.300291 34.776413 -0.398283 1.417789 0.184154 -0.040176 -140680.000000 0 0 1
-31.916116 11.944270 5.384291 34.500647 -0.358104 1.414092 0.196536 -0.040393 -11675.200000 0 0 1
-31.479656 11.338270 6.529291 34.090420 -0.345713 1.378077 0.182631 -0.026015 -234614.000000 0 0 1
-31.667436 9.817270 6.640391 33.812720 -0.300616 1.373124 0.206096 -0.029224 372363.000000 0 0 1
-32.996216 9.368170 6.890491 34.985593 -0.276637 1.372548 0.201415 -0.022935 304020.000000 0 0 1
-33.177066 7.930170 6.774991 34.777950 -0.234624 1.374736 0.224825 -0.025416 -1036490.000000 0 0 1
-34.597924 7.452970 6.749991 36.029508 -0.212174 1.382337 0.190500 -0.018398 -902304.000000 0 0 1
-35.364953 7.422170 7.942991 36.998102 -0.206871 1.354426 0.177387 -0.016422 -717425.000000 0 0 1
-36.626336 6.934470 7.668491 38.057602 -0.187115 1.367910 0.132138 -0.012850 -461252.000000 0 0 1
-37.274956 6.192970 8.923991 38.825414 -0.164639 1.338874 0.121332 -0.009336 276383.000000 0 0 1
36.958473 6.920770 9.970391 38.900315 0.185114 1.311598 0.127108 -0.009960 670331.000000 0 0 1
-37.065486 7.881670 10.610591 39.351691 -0.209521 1.297782 0.153998 -0.017937 242214.000000 0 0 1
36.999893 8.709670 11.623791 39.748748 0.231188 1.274028 0.139456 -0.027336 245969.000000 0 0 1
36.250803 7.976870 12.607791 39.200862 0.216595 1.243356 0.126240 -0.028535 626113.000000 0 0 1
35.995703 8.815770 13.746891 39.527022 0.240184 1.215589 0.140096 -0.034928 -238555.000000 0 0 1
35.226503 8.151570 14.894291 39.104917 0.227402 1.180048 0.135387 -0.037921 -304689.000000 0 0 1
33.905563 7.739270 14.622091 37.726503 0.224415 1.172790 0.131670 -0.039838 134703.000000 0 0 1
33.311133 7.229170 15.788391 37.565486 0.213706 1.137032 0.117348 -0.033013 -266466.000000 0 0 1
31.799483 6.974770 15.744091 36.162563 0.215917 1.120347 0.110288 -0.027733 -839815.000000 0 0 1
31.071393 8.187470 15.935191 35.866369 0.257648 1.110411 0.112684 -0.032443 371832.000000 0 0 1
29.659763 8.044170 15.865291 34.584934 0.264844 1.094226 0.123542 -0.028367 495869.000000 0 0 1
29.026463 7.470470 17.167091 34.540592 0.251901 1.050644 0.125534 -0.041951 -746621.000000 0 0 1
28.893863 8.465170 18.140091 35.150780 0.284999 1.028546 0.138865 -0.042591 329204.000000 0 0 1
28.121763 8.037570 19.288691 35.035549 0.278391 0.987778 0.131520 -0.031859 -5640.170000 0 0 1
28.846763 7.330370 20.457791 36.116357 0.248847 0.968615 0.138828 -0.028115 -354249.000000 0 0 1
28.138463 7.206570 21.674891 36.242360 0.250722 0.929725 0.099098 -0.009755 -165153.000000 0 0 1
28.442263 6.021170 22.356091 36.674400 0.208618 0.915262 0.093668 -0.013034 -965611.000000 0 0 1
27.607063 5.821270 23.606791 36.787467 0.207817 0.874074 0.095737 0.005937 234258.000000 0 0 1
26.314963 5.344770 23.224391 35.502341 0.200382 0.857718 0.062045 -0.004991 -521889.000000 0 0 1
25.364363 6.338270 23.315591 35.030578 0.244874 0.842528 0.078091 -0.007478 -1117030.000000 0 0 1
23.930263 5.834670 23.119591 33.781894 0.239154 0.817046 0.090600 -0.016657 -533593.000000 0 0 1
23.742163 5.446970 21.792291 32.684304 0.225519 0.840956 0.090165 -0.010437 1235120.000000 0 0 1
22.404963 5.212170 21.283791 31.339254 0.228569 0.824204 0.078430 -0.010390 393144.000000 0 0 1
21.561663 4.054170 21.798791 30.927801 0.185857 0.788615 0.103139 -0.013731 -277789.000000 0 0 1
20.355063 3.804770 21.125991 29.582298 0.184788 0.775397 0.105748 -0.020250 204924.000000 0 0 1
19.203263 4.461070 21.615991 29.256068 0.228259 0.739427 0.113974 -0.025717 904411.000000 0 0 1
17.885263 4.135570 20.773491 27.722256 0.227234 0.723726 0.155381 -0.034421 1022990.000000 0 0 1
17.188463 3.024970 21.309991 27.544681 0.174205 0.686212 0.158386 -0.033387 -467170.000000 0 0 1
16.035663 2.774770 20.563891 26.224329 0.171341 0.669466 0.182194 -0.038438 -671757.000000 0 0 1
15.165963 1.718370 21.226191 26.144032 0.112823 0.623407 0.194754 -0.031814 -654183.000000 0 0 1
15.539363 0.385970 20.898191 26.045252 0.024833 0.639524 0.163005 -0.030169 443381.000000 0 0 1
14.896263 -0.511630 21.775191 26.387864 -0.034333 0.600245 0.186098 -0.034451 -314765.000000 0 0 1
15.407963 -1.922630 21.572591 26.579664 -0.124140 0.623876 0.164933 -0.023973 -347385.000000 0 0 1
14.946863 -2.523030 20.361891 25.384661 -0.167224 0.639937 0.176803 -0.013339 245203.000000 0 0 1
14.966763 -3.914430 20.389491 25.594103 -0.255811 0.649067 0.118002 -0.003853 -324462.000000 0 0 1
14.449663 -4.543930 19.061191 24.346849 -0.304675 0.671480 0.118750 -0.010264 356274.000000 0 1 0
13.055463 -4.346330 18.852591 23.340006 -0.321372 0.630493 0.122053 -0.012582 262378.000000 0 1 0
12.689563 -4.934330 17.609391 22.259004 -0.370857 0.658170 0.117222 -0.015397 1157300.000000 0 1 0
11.130863 -5.123130 17.458491 21.329357 -0.431356 0.611967 0.098888 -0.013753 1151710.000000 0 1 0
10.421663 -6.024530 18.310591 21.913096 -0.524144 0.581572 0.093815 -0.005078 61344.800000 0 1 0
9.074963 -5.952630 17.878591 20.914894 -0.580540 0.545581 0.073042 -0.023136 601276.000000 0 1 0
7.985363 -6.746230 18.710591 21.432775 -0.701482 0.509498 0.063046 -0.026902 308481.000000 0 1 0
7.991163 -8.191430 18.747191 21.963957 -0.797773 0.548047 0.059288 -0.023619 -527404.000000 0 1 0
9.199463 -8.755530 19.161391 22.988004 -0.760678 0.585314 0.105472 -0.030846 -290884.000000 0 1 0
9.340363 -10.271130 18.810191 23.378661 -0.832823 0.635815 0.123016 -0.040667 114734.000000 0 1 0
9.274063 -10.576830 17.413591 22.385503 -0.850932 0.679486 0.097640 -0.029316 148769.000000 0 1 0
9.898263 -11.800630 17.068791 22.990740 -0.872846 0.734120 0.115535 -0.035917 267086.000000 0 1 0
9.868463 -12.017430 15.530891 21.977574 -0.883274 0.786016 0.109226 -0.032033 328811.000000 0 1 0
10.543063 -13.232830 15.158591 22.716665 -0.898049 0.840233 0.101392 -0.027413 137384.000000 0 1 0
10.100063 -13.581130 13.891191 21.895743 -0.931350 0.883533 0.074731 -0.014319 -636045.000000 0 1 0
10.864063 -14.712130 13.239391 22.577779 -0.934733 0.944201 0.098459 -0.024586 687161.000000 0 1 0
12.182863 -14.283630 12.810791 22.727970 -0.864607 0.971989 0.084217 -0.031206 918377.000000 0 1 0
12.220963 -13.742830 11.509891 21.695504 -0.843946 1.011583 0.044006 -0.025664 -945355.000000 0 1 0
13.564063 -13.277930 10.969891 21.923178 -0.774739 1.046760 0.076146 -0.039415 -118055.000000 0 1 0
14.460763 -14.324930 10.551191 22.926947 -0.780679 1.092566 0.088257 -0.036874 728918.000000 0 1 0
15.737863 -13.773230 10.216491 23.275714 -0.718924 1.116385 0.085300 -0.046524 1014200.000000 0 1 0
16.759163 -14.843230 9.667991 24.385673 -0.724846 1.163137 0.080219 -0.049591 103239.000000 0 1 0
17.182563 -15.846730 10.536091 25.639199 -0.744976 1.147315 0.075328 -0.036010 -186036.000000 0 0 1
16.308663 -16.877730 10.974091 25.908704 -0.802544 1.133416 0.114859 -0.033416 -214959.000000 0 0 1
16.755063 -17.593830 12.250491 27.209365 -0.809812 1.103773 0.094698 -0.029051 -65112.500000 0 0 1
17.883863 -18.423730 12.057091 28.366174 -0.800266 1.131777 0.111433 -0.038086 74676.900000 0 0 1
18.533563 -18.843830 13.240791 29.561824 -0.793699 1.106379 0.080008 -0.031549 -309481.000000 0 0 1
19.780063 -19.668530 12.944691 30.751699 -0.782571 1.136312 0.035065 -0.029917 -909356.000000 0 0 1
20.761863 -18.882830 12.390491 30.678013 -0.738037 1.155033 0.039637 -0.033965 -347205.000000 0 0 1
21.938563 -19.650130 12.063891 31.827121 -0.730428 1.182033 0.033564 -0.032829 755014.000000 0 0 1
22.779863 -18.984330 10.956291 31.612770 -0.694767 1.216876 0.057241 -0.032151 -601282.000000 0 0 1
22.356563 -19.029730 9.603391 30.889669 -0.705186 1.254664 0.049931 -0.034115 -3534.640000 0 0 1
21.194163 -18.304930 9.210291 29.480374 -0.712381 1.253056 0.060237 -0.035710 130221.000000 0 0 1
21.088363 -16.796930 9.515991 28.590383 -0.672605 1.231484 0.107755 -0.053716 -588257.000000 0 0 1
21.761463 -15.975630 8.632891 28.342703 -0.633263 1.261289 0.117047 -0.041323 -173008.000000 0 0 1
21.649363 -14.589030 8.962091 27.601699 -0.592978 1.240109 0.126954 -0.047627 -163858.000000 0 0 1
-35.746136 24.405325 7.918091 44.001162 -0.599048 1.389859 0.109110 -0.032744 -408083.000000 0 0 1
-34.773653 23.755125 8.650791 42.992430 -0.599318 1.368197 0.122211 -0.038369 -477825.000000 0 0 1
-33.962236 24.626925 9.360491 42.982993 -0.627391 1.351265 0.129764 -0.034257 555828.000000 0 0 1
-32.594136 24.015925 9.880191 41.674459 -0.635011 1.331437 0.147008 -0.046731 1451410.000000 0 0 1
-31.722086 23.572125 8.793191 40.487727 -0.639059 1.351870 0.148093 -0.043411 635627.000000 0 0 1
-30.667046 22.791025 9.331191 39.331535 -0.639120 1.331268 0.153812 -0.043645 349862.000000 0 0 1
-29.997556 21.813825 8.302791 38.008323 -0.628740 1.350574 0.150731 -0.050539 107319.000000 0 0 1
-30.778416 20.661325 8.021191 37.928099 -0.591198 1.357703 0.160370 -0.057128 259987.000000 0 0 1
-30.339256 20.004925 6.859291 36.982663 -0.582937 1.384243 0.165323 -0.062676 -88658.600000 0 0 1
-31.487746 19.280825 6.120191 37.425728 -0.549435 1.406530 0.149648 -0.054961 -189158.000000 0 0 1
-32.160156 18.242825 6.786191 37.591604 -0.515990 1.389277 0.148617 -0.055831 401626.000000 0 0 1
-33.071486 17.609525 5.890691 37.927810 -0.489284 1.414852 0.112491 -0.049842 169652.000000 0 0 1
-33.731096 16.285225 6.367891 37.994018 -0.449790 1.402399 0.114382 -0.029250 -181234.000000 0 0 1
-34.722198 16.515225 7.339591 39.144007 -0.443969 1.382178 0.087430 -0.026648 244004.000000 0 0 1
-35.351311 15.361525 7.923191 39.350585 -0.409922 1.368062 0.091084 -0.029415 885170.000000 0 0 1
-36.327316 15.879425 9.092191 40.675520 -0.412092 1.345362 0.083549 -0.027413 -418924.000000 0 0 1
37.419763 16.516625 8.682491 41.814151 0.415669 1.361630 0.095351 -0.027371 -1210340.000000 0 0 1
36.688003 16.950725 9.796691 41.584995 0.432808 1.332979 0.101374 -0.019917 162546.000000 0 0 1
35.741683 18.114625 9.371491 41.151335 0.469089 1.341048 0.085041 -0.019807 -1198390.000000 0 0 1
34.547073 17.775925 8.820491 39.840743 0.475214 1.347553 0.098661 -0.035089 -1537550.000000 0 0 1
33.719153 18.887125 8.994491 39.681301 0.510588 1.342141 0.081143 -0.026428 -22905.000000 0 0 1
32.270513 18.720625 8.462391 38.255194 0.525670 1.347742 0.062476 -0.026459 -26520.500000 0 0 1
31.436133 19.734925 8.915091 38.172982 0.560595 1.335075 0.065504 -0.021636 -30174.500000 0 0 1
30.177063 19.981825 8.311091 37.134926 0.584871 1.345077 0.040739 -0.020222 54383.100000 0 0 1
30.090083 20.307125 6.773391 36.927920 0.593666 1.386330 0.027130 -0.010842 -1060260.000000 0 0 1
30.277143 19.119725 5.892391 36.290351 0.563253 1.407706 0.049522 -0.015821 83635.400000 0 0 1
29.717963 19.118125 4.619291 35.637030 0.571664 1.440810 0.052300 -0.021724 -817240.000000 0 0 1
28.251963 19.537425 4.485591 34.641087 0.605027 1.440944 0.073926 -0.022835 -639322.000000 0 0 1
27.300463 18.669025 5.217091 33.482321 0.599795 1.414343 0.070635 -0.018420 1731270.000000 0 0 1
25.911763 18.761725 4.885691 32.361887 0.626693 1.419246 0.101943 -0.023220 1002270.000000 0 0 1
25.184663 20.077225 5.230391 32.630035 0.673032 1.409808 0.106939 -0.020225 -698957.000000 0 0 1
25.776763 21.110125 4.471291 33.616534 0.686195 1.437392 0.082921 -0.023145 53207.900000 0 0 1
25.153763 22.311525 4.856091 33.972011 0.725589 1.427361 0.093488 -0.017460 -310302.000000 0 0 1
26.002963 23.539825 4.626691 35.379142 0.735722 1.439646 0.068350 -0.020780 -341038.000000 0 0 1
27.136963 23.635525 5.453691 36.397741 0.716544 1.420394 0.064907 -0.022898 169119.000000 0 0 1
28.140163 24.480525 4.908891 37.619969 0.715962 1.439937 0.081076 -0.023803 429932.000000 0 0 1
29.563263 24.319925 5.558491 38.682581 0.688394 1.426602 0.067794 -0.028584 615977.000000 0 0 1
30.223293 23.045025 5.290491 38.373297 0.651448 1.432487 0.054621 -0.025696 387029.000000 0 0 1
30.586833 22.775125 3.914791 38.335183 0.640040 1.468498 0.058081 -0.026705 -360378.000000 0 0 1
31.577443 23.727425 3.201991 39.628000 0.644399 1.489907 0.096024 -0.035013 -335764.000000 0 0 1
30.971553 24.992725 2.972191 39.908737 0.678969 1.496253 0.073116 -0.035420 -7205.720000 0 0 1
31.743903 25.858325 2.163491 41.000110 0.683575 1.518004 0.137367 -0.029937 -860756.000000 0 0 1
31.364693 27.402725 2.250591 41.709932 0.718082 1.516812 0.121621 -0.023889 2140340.000000 0 0 1
29.996063 27.825825 1.891491 40.958736 0.747883 1.524599 0.150446 -0.020183 2234240.000000 0 0 1
28.993763 27.458125 2.865091 40.034931 0.758202 1.499170 0.114902 -0.020914 777864.000000 0 0 1
27.586863 28.049425 2.509291 39.422098 0.793712 1.507101 0.085469 -0.012636 537829.000000 0 0 1
27.402363 29.355625 3.008791 40.270275 0.819798 1.496012 0.074609 -0.023312 456687.000000 0 0 1
26.084463 29.849225 2.777591 39.737771 0.852604 1.500841 0.077792 -0.018111 465477.000000 0 0 1
25.900063 31.266425 3.392291 40.741996 0.878996 1.487437 0.088428 -0.024989 -31341.800000 0 0 1
26.038263 31.420525 4.834191 41.092699 0.878797 1.452882 0.097814 -0.046638 364348.000000 0 0 1
27.362763 31.453725 5.347291 42.031549 0.854841 1.443230 0.091700 -0.046712 260563.000000 0 0 1
27.278563 31.394525 6.889191 42.156816 0.855434 1.406642 0.127648 -0.066422 67063.100000 0 0 1
26.932863 30.152725 7.561891 41.130866 0.841743 1.385895 0.122839 -0.066699 535798.000000 0 0 1
27.772963 29.015725 7.320291 40.826908 0.807279 1.390521 0.092147 -0.061595 637391.000000 0 0 1
26.891663 27.768125 7.577691 39.391011 0.801432 1.377219 0.113881 -0.059350 266241.000000 0 0 1
25.612963 27.630025 7.011291 38.322322 0.823264 1.386804 0.094933 -0.064146 79560.600000 0 0 1
25.010263 26.412925 7.446891 37.129665 0.812668 1.368862 0.100006 -0.043772 795081.000000 0 0 1
23.547563 26.243825 6.868691 35.922208 0.839497 1.378401 0.104271 -0.027434 911872.000000 0 0 1
23.449263 25.906125 5.501891 35.373239 0.835136 1.414624 0.066893 -0.027370 100920.000000 0 0 1
23.659363 27.018525 4.662791 36.214745 0.851586 1.441684 0.064972 -0.017255 -218253.000000 0 0 1
23.524763 26.694425 3.185591 35.723309 0.848431 1.481504 0.063738 -0.007257 -82584.700000 0 0 1
24.601863 25.922625 2.706691 35.840763 0.811533 1.495204 0.049273 0.004909 323718.000000 0 0 1
24.321363 25.540125 1.366291 35.294382 0.809836 1.532075 0.070214 0.009056 317389.000000 0 0 1
25.581463 24.902225 0.678091 35.707028 0.771944 1.551805 0.080330 0.002556 -638896.000000 0 0 1
26.624863 25.852325 0.480191 37.114103 0.770678 1.557858 0.063223 0.002048 1222400.000000 0 0 1
27.745863 25.317125 -0.289409 37.561596 0.739659 1.578501 0.092675 0.002813 1165440.000000 0 0 1
28.537463 24.149125 0.349191 37.385679 0.702299 1.561456 0.087811 -0.007160 -854787.000000 0 0 1
27.816663 22.879625 0.189791 36.017773 0.688320 1.565527 0.083322 -0.014779 924830.000000 0 0 1
28.251163 21.940225 1.146591 35.788495 0.660317 1.538753 0.083993 -0.021420 577447.000000 0 0 1
27.012663 20.989125 1.390091 34.236818 0.660565 1.530183 0.075932 -0.025726 525973.000000 0 0 1
26.766363 20.139125 0.308891 33.498029 0.645038 1.561575 0.105332 -0.039621 397276.000000 0 0 1
25.698863 19.355725 0.809791 32.182781 0.645530 1.545631 0.083860 -0.025387 -122702.000000 0 0 1
24.913563 18.517425 -0.228809 31.042439 0.639178 1.578167 0.102997 -0.037053 -385459.000000 0 0 1
23.783563 17.884925 0.310891 29.759453 0.644771 1.560349 0.089753 -0.027347 -136146.000000 0 0 1
23.289863 16.850025 -0.527609 28.750990 0.626319 1.589148 0.118573 -0.055425 581501.000000 0 0 1
21.781863 16.531425 -0.241809 27.345860 0.649207 1.579639 0.105713 -0.035717 -524883.000000 0 0 1
21.275463 15.390525 -0.946309 26.275637 0.626254 1.606819 0.109475 -0.041500 473527.000000 0 0 1
19.877463 15.164225 -0.863109 25.016239 0.651697 1.605305 0.115637 -0.041612 586383.000000 0 0 1
18.901663 16.282725 -1.367609 24.985403 0.711101 1.625560 0.119727 -0.040583 -640846.000000 0 1 0
18.925363 17.460825 -0.605209 25.756864 0.745170 1.594295 0.109277 -0.032800 397705.000000 0 0 1
17.834763 18.279525 -1.066509 25.560854 0.797713 1.612533 0.083676 -0.037155 623552.000000 0 0 1
17.877663 19.738425 -0.707509 26.640511 0.834825 1.597357 0.086715 -0.028156 -289085.000000 0 0 1
17.425863 20.014425 0.584391 26.543915 0.854427 1.548779 0.087687 -0.024955 -46603.800000 0 0 1
17.415263 21.420025 0.809491 27.618185 0.888157 1.541482 0.097288 -0.023634 863871.000000 0 0 1
16.134363 22.204825 0.314891 27.449428 0.942430 1.559324 0.074872 -0.034812 267475.000000 0 0 1
14.964363 21.992925 1.039991 26.621467 0.973334 1.531720 0.056291 -0.028746 -127612.000000 0 0 1
13.964163 22.925925 0.615391 26.850970 1.023713 1.547876 0.047667 -0.026323 1299820.000000 0 0 1
12.660863 22.954025 1.532791 26.258983 1.066745 1.512391 0.045122 -0.029860 1029120.000000 0 0 1
12.832563 23.456825 2.832291 26.887157 1.070204 1.465261 0.040126 -0.013209 320214.000000 0 0 1
11.580163 23.556525 3.511991 26.482903 1.113899 1.437791 0.040489 -0.014552 534008.000000 0 0 1
11.747763 24.022125 4.968091 27.198426 1.115956 1.387104 0.056189 -0.017285 -177770.000000 0 0 1
12.332563 23.079025 5.834591 26.809997 1.080038 1.351413 0.069030 -0.024772 348074.000000 0 0 1
11.475663 22.708625 6.940091 26.373042 1.102883 1.304510 0.064777 -0.011700 -482130.000000 0 0 1
12.091563 21.531925 7.776491 25.890220 1.059118 1.265722 0.074673 -0.020713 547152.000000 0 0 1
13.328163 21.789425 8.436791 26.899785 1.021833 1.251775 0.098084 -0.019333 45041.800000 0 0 1
14.394963 21.728225 7.532091 27.130483 0.985683 1.289476 0.091148 -0.018498 -805037.000000 0 0 1
15.811563 21.796425 8.174691 28.140989 0.943213 1.276057 0.109196 -0.023773 -1493.880000 0 0 1
16.300863 20.518225 8.642491 27.593629 0.899444 1.252229 0.120901 -0.030196 450993.000000 0 0 1
17.572563 20.528525 9.276491 28.570415 0.862825 1.240114 0.108234 -0.035061 333161.000000 0 0 1
17.798063 21.393525 10.527991 29.753866 0.876883 1.209127 0.080134 -0.016956 -870100.000000 0 0 1
17.129463 20.851425 11.600391 29.372938 0.883082 1.164800 0.084116 -0.029718 -151734.000000 0 0 1
17.223563 21.609325 12.794691 30.451899 0.897861 1.137174 0.081422 -0.016268 862910.000000 0 0 1
18.407763 21.127625 13.768391 31.221641 0.854086 1.114096 0.062223 -0.000835 1000870.000000 0 0 1
19.722363 21.197925 13.248391 31.840909 0.821442 1.141665 0.071240 -0.007213 -313104.000000 0 0 1
20.570363 20.887225 14.331791 32.631522 0.793041 1.116087 0.058015 -0.003520 419220.000000 0 0 1
22.018763 21.442925 14.095191 33.812710 0.772150 1.140807 0.066175 -0.015389 488419.000000 0 0 1
22.602363 20.851225 12.943891 33.364423 0.745121 1.172385 0.075888 -0.012633 -523151.000000 0 0 1
23.967963 21.170525 12.970291 34.509170 0.723503 1.185482 0.097120 -0.022923 -332735.000000 0 0 1
24.729163 20.730025 11.719891 34.331054 0.697652 1.222413 0.106559 -0.029914 -82470.000000 0 0 1
24.531463 21.571125 10.633991 34.353863 0.721274 1.256084 0.117805 -0.036639 283936.000000 0 0 1
25.531463 21.354825 9.659891 34.658298 0.696553 1.288337 0.137378 -0.038958 -354675.000000 0 0 1
25.572963 22.417625 8.550591 35.066208 0.719744 1.324472 0.114777 -0.035020 44474.500000 0 0 1
26.139063 23.684925 8.914991 36.382734 0.736182 1.323242 0.105333 -0.041859 2156980.000000 0 0 1
27.605863 23.650525 8.893691 37.423639 0.708383 1.330852 0.089159 -0.039783 1328530.000000 0 0 1
28.280563 24.865725 9.539991 38.847213 0.721233 1.322681 0.091923 -0.049745 -927742.000000 0 0 1
29.431663 25.253225 8.898391 39.788560 0.709137 1.345247 0.087618 -0.041432 -918999.000000 0 0 1
30.009823 26.330925 9.551991 41.050550 0.720193 1.335955 0.094313 -0.043518 69194.600000 0 0 1
31.241193 26.906825 8.794391 42.158400 0.710996 1.360649 0.080628 -0.037713 15952.000000 0 0 1
30.958543 27.541125 7.588191 42.125118 0.727047 1.389673 0.097217 -0.037814 -225950.000000 0 0 1
32.162033 27.821325 6.922391 43.085287 0.713159 1.409430 0.064739 -0.020225 -340212.000000 0 0 1
32.027773 28.735025 5.666791 43.400374 0.731261 1.439852 0.074908 -0.014940 89261.600000 0 0 1
31.750623 30.090025 6.042291 44.159042 0.758552 1.433536 0.076588 -0.029805 77396.500000 0 0 1
31.615783 31.019125 5.055791 44.579198 0.775872 1.457140 0.076371 -0.032666 75265.300000 0 0 1
31.769403 32.525025 5.557591 45.804574 0.797150 1.449164 0.053765 -0.026870 701767.000000 0 0 1
30.586023 32.979725 6.237591 45.410072 0.823037 1.432999 0.066714 -0.042239 774204.000000 0 0 1
30.691923 -33.385620 6.341691 45.790946 -0.827412 1.431857 0.072581 -0.044432 391398.000000 0 0 1
29.350363 -32.810920 6.895791 44.559535 -0.841011 1.415417 0.129528 -0.047548 561536.000000 0 0 1
28.312063 -32.986520 5.975591 43.879278 -0.861508 1.434189 0.116891 -0.054717 -882317.000000 0 0 1
27.048063 -32.557120 6.368791 42.803332 -0.877562 1.421450 0.100682 -0.051726 12558.800000 0 0 1
25.916363 -32.934620 5.381891 42.252950 -0.904092 1.443076 0.129906 -0.049762 74057.000000 0 0 1
26.044763 -32.211520 4.202491 41.636193 -0.890861 1.469691 0.106304 -0.027309 556355.000000 0 0 1
24.903063 -32.384820 3.347091 40.989536 -0.915262 1.489048 0.117205 -0.032382 617974.000000 0 0 1
25.164263 -31.707020 2.004791 40.528933 -0.899940 1.521310 0.110490 -0.022727 91390.500000 0 0 1
25.146663 -30.277420 1.969491 39.407559 -0.877708 1.520798 0.112363 -0.016120 59835.900000 0 0 1
25.670363 -29.772120 0.738591 39.317835 -0.859246 1.552010 0.099940 -0.019522 -34075.900000 0 0 1
25.902163 -28.234620 0.672591 38.321902 -0.828456 1.553244 0.114552 -0.028019 -456061.000000 0 0 1
24.764463 -27.444820 0.847391 36.975868 -0.836692 1.547877 0.105850 -0.009855 -572197.000000 0 0 1
24.159263 -27.059920 -0.357209 36.277222 -0.841970 1.580643 0.088879 -0.020931 169822.000000 0 0 1
22.969963 -26.076820 -0.143809 34.751121 -0.848658 1.574935 0.072378 -0.015595 338479.000000 0 0 1
23.418763 -24.741120 0.027491 34.067025 -0.812849 1.569989 0.082452 -0.023409 -45173.500000 0 0 1
23.485863 -24.181920 1.312091 33.735331 -0.799999 1.531893 0.059148 -0.010324 397276.000000 0 0 1
22.101963 -23.702820 1.835191 32.460566 -0.820334 1.514230 0.036202 -0.011852 347066.000000 0 0 1
22.163463 -23.158420 3.114991 32.206128 -0.807348 1.473924 0.035299 -0.008063 430473.000000 0 0 1
20.861763 -22.969420 3.698191 31.248744 -0.833447 1.452171 0.030405 -0.005208 640702.000000 0 0 1
20.858463 -22.293520 5.098391 30.952707 -0.818642 1.405327 0.023701 -0.009452 -220306.000000 0 0 1
21.018763 -20.875420 5.149991 30.068155 -0.781977 1.398670 0.049849 -0.010541 -204525.000000 0 0 1
19.929863 -20.132120 4.690191 28.714100 -0.790447 1.406720 0.039491 -0.005119 -768189.000000 0 0 1
19.950363 -18.648320 5.078791 27.777165 -0.751678 1.386921 0.046967 -0.008299 42814.800000 0 0 1
19.676563 -18.285520 6.405391 27.614424 -0.748772 1.336706 0.067402 -0.021808 -890583.000000 0 0 1
18.325663 -18.279820 6.711691 26.740017 -0.784146 1.317085 0.053978 -0.011113 -783928.000000 0 0 1
19.575954 -26.052555 -11.697609 34.623513 -0.926398 1.915430 0.107269 -0.025891 -145802.000000 0 0 1
19.578754 -24.703275 -12.005309 33.729910 -0.900610 1.934700 0.130473 -0.031169 -175484.000000 0 0 1
18.497554 -24.338775 -12.842609 33.158228 -0.920924 1.968512 0.102780 -0.033004 46808.800000 0 0 1
18.550154 -22.888675 -13.294709 32.322576 -0.889715 1.994691 0.094922 -0.038739 34495.700000 0 0 1
18.502954 -21.852475 -12.333709 31.177081 -0.868209 1.977519 0.095529 -0.040565 414053.000000 0 0 1
19.693654 -21.646475 -11.548709 31.460810 -0.832601 1.946667 0.090145 -0.034522 107415.000000 0 0 1
19.704454 -22.344875 -10.111309 31.461048 -0.848109 1.897995 0.093709 -0.024250 28206.400000 0 0 1
18.832554 -21.735475 -9.176709 30.187878 -0.856833 1.879671 0.089252 -0.032392 303953.000000 0 0 1
17.464854 -22.090175 -9.343409 29.669787 -0.901803 1.891162 0.114062 -0.029268 -78296.100000 0 0 1
16.563054 -21.404275 -8.300609 28.308618 -0.912224 1.868388 0.095018 -0.031673 -704031.000000 0 0 1
16.459854 -19.987875 -8.359909 27.209006 -0.881894 1.883096 0.083340 -0.032664 -33077.200000 0 0 1
15.493754 -19.414075 -7.543809 25.959040 -0.897234 1.865655 0.079561 -0.039071 428758.000000 0 0 1
13.992554 -19.474575 -7.979809 25.273068 -0.947759 1.892037 0.087686 -0.031944 477058.000000 0 0 1
13.426254 -20.757775 -7.757209 25.909917 -0.996670 1.874851 0.082871 -0.038823 1732600.000000 0 0 1
12.011054 -20.786775 -8.168509 25.359021 -1.046844 1.898759 0.083271 -0.040382 2114810.000000 0 0 1
11.283354 -22.194575 -8.112309 26.186309 -1.100464 1.885771 0.087141 -0.035787 399111.000000 0 0 1
11.475854 -22.675075 -6.811209 26.310584 -1.102281 1.832656 0.086584 -0.036271 467798.000000 0 0 1
10.593554 -23.737975 -6.480809 26.790217 -1.151048 1.815130 0.072877 -0.034367 546197.000000 0 0 1
11.237354 -24.391975 -5.209409 27.356617 -1.139081 1.762392 0.080783 -0.027367 704948.000000 0 0 1
10.356554 -25.283365 -4.527209 27.694808 -1.182025 1.735001 0.079246 -0.022079 300482.000000 0 0 1
11.064754 -25.905575 -3.454509 28.380649 -1.167133 1.692819 0.073220 -0.022042 878195.000000 0 0 1
10.070754 -26.842235 -2.665009 28.792845 -1.211865 1.663487 0.078178 -0.017114 776917.000000 0 0 1
9.095954 -26.116155 -1.942109 27.722946 -1.235647 1.640908 0.052717 -0.012982 -448762.000000 0 0 1
8.214354 -26.981645 -1.270409 28.232937 -1.275269 1.615809 0.045902 -0.017170 -124109.000000 0 0 1
7.624354 -26.247745 -0.069009 27.332758 -1.288099 1.573321 0.058930 -0.021992 -232091.000000 0 0 1
6.448954 -25.504305 -0.294809 26.308658 -1.323130 1.582002 0.059113 -0.029515 -251546.000000 0 0 1
5.892354 -25.119375 0.947491 25.818609 -1.340388 1.534090 0.056734 -0.025022 -24045.500000 0 0 1
4.453154 -24.564475 0.947891 24.982844 -1.391460 1.532846 0.074015 -0.026204 374009.000000 0 1 0
3.479454 -25.569985 0.641791 25.813613 -1.435551 1.545931 0.082648 -0.027165 -854923.000000 0 0 1
2.224954 -24.979375 0.702091 25.088095 -1.481959 1.542808 0.091468 -0.028367 -923026.000000 0 0 1
1.126554 -25.797485 -0.005909 25.822072 -1.527155 1.571025 0.106347 -0.020555 -59874.500000 0 0 1
0.690154 -26.871135 0.774391 26.891149 -1.545118 1.541995 0.101765 -0.017725 -93464.200000 0 0 1
1.539754 -28.007425 0.719191 28.058937 -1.515875 1.545162 0.082837 -0.022015 -308645.000000 0 0 1
0.974554 -29.169675 1.576491 29.228497 -1.537399 1.516833 0.115275 -0.018309 -3987.310000 0 0 1
1.062854 -29.078095 3.016391 29.253442 -1.534261 1.467500 0.089582 -0.015763 -5756.940000 0 0 1
0.646854 -30.245845 3.739891 30.483050 -1.549413 1.447799 0.112228 -0.018726 49131.700000 0 0 1
0.780454 -30.160795 5.237391 30.622099 -1.544926 1.398918 0.097749 -0.018667 -797734.000000 0 0 1
2.066254 -30.293575 5.729491 30.899792 -1.502694 1.384295 0.048492 -0.004107 -884938.000000 0 0 1
2.069454 -30.557455 7.142391 31.449236 -1.503176 1.341689 0.058703 -0.006219 538175.000000 0 0 1
3.434154 -30.981745 7.787591 32.129558 -1.460403 1.325977 0.063977 -0.004785 629112.000000 0 0 1
3.783354 -32.257715 7.386691 33.308214 -1.454044 1.347169 0.060313 -0.008402 -916350.000000 0 0 1
5.097354 -32.535985 7.730591 33.828026 -1.415391 1.340233 0.050836 -0.013252 -467760.000000 0 0 1
5.398854 33.722557 7.462891 34.957878 1.412047 1.355658 0.050406 0.000656 -419151.000000 0 0 1
5.343154 33.329970 6.084291 34.299487 1.411838 1.392465 0.037729 0.002621 11211.100000 0 0 1
5.399354 31.918803 5.958591 32.916072 1.403224 1.388769 0.058132 -0.003995 -1065130.000000 0 0 1
5.689154 31.424020 4.602191 32.264775 1.391692 1.427670 0.057190 -0.004173 29179.300000 0 0 1
7.050254 31.654250 4.272591 32.710131 1.351646 1.439802 0.048900 -0.007314 85945.800000 0 0 1
7.853554 30.538070 4.631291 31.870063 1.319078 1.424962 0.054050 -0.011644 113794.000000 0 0 1
9.316354 30.548380 4.085291 32.197633 1.274786 1.443572 0.033216 -0.007908 646478.000000 0 0 1
10.300754 31.268030 4.800791 33.269248 1.252559 1.425990 0.030834 -0.017742 -839957.000000 0 0 1
11.479154 31.331130 4.061591 33.614093 1.219603 1.449670 0.036397 -0.020310 -644770.000000 0 0 1
12.595454 31.796840 5.038691 34.569827 1.193637 1.424521 0.038409 -0.026192 -272509.000000 0 0 1
12.959254 30.799970 5.902791 33.932630 1.172526 1.395951 0.042486 -0.028430 312678.000000 0 0 1
14.078354 31.230100 6.692591 34.904298 1.147282 1.377860 0.058316 -0.029509 644671.000000 0 0 1
14.929554 30.182400 7.438491 34.484780 1.111442 1.353384 0.051793 -0.027919 -196140.000000 0 0 1
14.382554 29.929110 8.671391 34.319128 1.122826 1.315358 0.054081 -0.020851 71351.500000 0 0 1
15.115054 28.904560 9.313191 33.921586 1.088974 1.292674 0.063951 -0.017409 92960.600000 0 0 1
14.769554 28.596320 10.744491 33.931303 1.094048 1.248596 0.060556 -0.011897 -238411.000000 0 0 1
15.402354 29.597350 11.487991 35.287527 1.090965 1.239199 0.070775 -0.018563 247318.000000 0 0 1
14.922054 29.518230 12.803291 35.467138 1.102743 1.201467 0.073972 -0.019757 -70450.100000 0 0 1
15.579654 30.511840 13.755191 36.917520 1.098697 1.188995 0.079336 -0.025804 -314954.000000 0 0 1
16.886354 30.312910 14.186691 37.487114 1.062543 1.182684 0.075081 -0.026324 -536727.000000 0 0 1
17.500154 31.415150 14.712791 38.854000 1.062548 1.182439 0.077387 -0.023472 51006.300000 0 0 1
18.815554 31.231420 15.537591 39.633867 1.028573 1.167961 0.069454 -0.019239 946236.000000 0 0 1
19.986154 30.872200 14.810891 39.647214 0.996263 1.187945 0.045390 -0.018770 332746.000000 0 0 1
20.113854 29.489890 14.899691 38.681023 0.972213 1.175378 0.035841 -0.017009 -952919.000000 0 0 1
21.435154 28.903950 14.443791 38.775344 0.932693 1.189096 0.051641 -0.028752 -875570.000000 0 0 1
22.518054 29.255910 15.233691 39.937907 0.914811 1.179449 0.065189 -0.027166 -710456.000000 0 0 1
23.736054 28.880600 14.661791 40.155416 0.882862 1.197028 0.073597 -0.028491 -4980.520000 0 0 1
25.000054 28.943550 15.559091 41.289431 0.858372 1.184425 0.111184 -0.035776 15821.400000 0 0 1
25.247754 27.788770 16.343791 40.948557 0.833272 1.160229 0.089500 -0.025940 -146268.000000 0 0 1
26.238654 27.989220 17.314091 42.090868 0.817669 1.146861 0.091726 -0.029198 -546316.000000 0 0 1
27.192654 26.782170 17.483991 41.981127 0.777793 1.141234 0.070944 -0.018936 -208065.000000 0 0 1
26.659654 25.598940 18.089591 41.149438 0.765104 1.115635 0.066164 -0.017990 92082.600000 0 0 1
26.307354 25.657290 19.454991 41.579684 0.772889 1.083887 0.078817 -0.014788 -14425.200000 0 0 1
25.741054 24.321290 20.025491 40.683502 0.757046 1.056151 0.077636 -0.012456 -486767.000000 0 0 1
26.675454 23.309800 20.156691 40.758053 0.718167 1.053485 0.074062 -0.010779 -663020.000000 0 0 1
26.127654 22.010170 20.237291 39.707051 0.700071 1.036001 0.075914 -0.010204 -799807.000000 0 0 1
27.045554 20.870870 20.531991 39.857470 0.657241 1.029631 0.056146 -0.009832 -951560.000000 0 0 1
26.385154 19.651970 20.478391 38.752301 0.640172 1.014031 0.039669 0.010099 74172.500000 0 0 1
27.240754 18.504170 20.489691 38.785184 0.596686 1.014215 0.049620 -0.005594 436475.000000 0 0 1
27.966454 18.112570 21.840091 39.839395 0.574724 0.990582 0.054307 0.000886 -129158.000000 0 0 1
27.054854 17.711270 22.785691 39.558083 0.579632 0.956962 0.046720 0.012385 2812.310000 0 0 1
27.708454 17.378870 24.019991 40.580088 0.560183 0.937363 0.073635 0.013746 218238.000000 0 0 1
26.751754 16.569770 24.895391 40.124732 0.554555 0.901480 0.043345 0.014973 137761.000000 0 0 1
26.375954 15.335170 24.264591 38.982417 0.526636 0.898928 0.052897 0.008675 -385505.000000 0 0 1
25.254754 14.818970 24.880791 38.424709 0.530642 0.866470 0.061443 0.004749 -789978.000000 0 0 1
24.742254 13.522570 24.207791 37.162565 0.500181 0.861365 0.060763 -0.002051 -558810.000000 0 0 1
23.541954 13.085770 24.763991 36.588472 0.507323 0.827355 0.040033 0.001445 -263992.000000 0 0 1
23.013954 12.019870 23.959491 35.329543 0.481317 0.825525 0.047715 -0.003708 -463047.000000 0 0 1
21.788954 11.407270 24.656591 34.825735 0.482297 0.784135 0.048013 -0.006804 -541924.000000 0 0 1
20.766554 12.372270 24.720591 34.574998 0.537310 0.774194 0.054123 -0.011153 327752.000000 0 0 1
19.526954 11.662070 24.900391 33.724402 0.538380 0.740177 0.076424 -0.011815 1052110.000000 0 0 1
18.189454 12.459570 24.884191 33.246355 0.600580 0.725031 0.066545 -0.021810 425801.000000 0 0 1
17.885654 13.223870 26.076191 34.274409 0.636654 0.706241 0.103617 -0.020117 -789472.000000 0 0 1
16.642254 13.788870 25.943691 33.766443 0.691906 0.694572 0.110227 -0.024264 -1151150.000000 0 0 1
16.040054 14.234270 27.289191 34.707316 0.725821 0.666054 0.106205 -0.018039 -41755.800000 0 0 1
15.598954 13.124170 28.101791 34.717170 0.699450 0.627583 0.111224 -0.018788 97660.900000 0 0 1
15.682754 13.297170 29.515091 35.970879 0.703265 0.608463 0.098549 -0.022773 -498385.000000 0 0 1
17.045354 12.915470 30.120091 36.940132 0.648419 0.617418 0.116609 -0.021995 191937.000000 0 0 1
17.945854 14.015970 29.885091 37.571529 0.663057 0.651098 0.133660 -0.037810 1676200.000000 0 0 1
19.327154 13.755170 30.290091 38.473799 0.618536 0.664393 0.145447 -0.026083 1373050.000000 0 0 1
20.177254 15.022270 29.895491 39.070841 0.639982 0.699505 0.158981 -0.028802 -168987.000000 0 0 1
20.171854 15.508370 28.561591 38.251507 0.655433 0.727741 0.139086 -0.033263 254001.000000 0 0 1
20.764854 14.603270 27.642091 37.530253 0.612916 0.742873 0.113049 -0.023468 -353751.000000 0 0 1
20.696854 15.116970 26.165491 36.626705 0.630838 0.775055 0.082988 -0.017006 120795.000000 0 0 1
21.809054 15.862970 25.687691 37.244143 0.628851 0.809707 0.095571 -0.011951 370835.000000 0 0 1
21.504454 16.424070 24.420591 36.449375 0.652244 0.836606 0.063147 -0.003386 228451.000000 0 0 1
22.716354 17.233170 23.885991 37.196176 0.648998 0.873480 0.062197 0.000216 -187415.000000 0 0 1
22.454854 17.939970 22.642491 36.588870 0.674091 0.903537 0.056171 -0.002648 162.794000 0 0 1
23.586354 18.586170 22.107691 37.289568 0.667384 0.936184 0.057730 0.002452 -53090.700000 0 0 1
24.013254 19.891570 22.750891 38.599404 0.691795 0.940468 0.076341 -0.008772 -263460.000000 0 0 1
22.979854 20.836070 22.601591 38.380300 0.736510 0.941117 0.067724 -0.006042 306210.000000 0 0 1
23.381054 22.098470 23.136591 39.627237 0.757204 0.947326 0.088043 -0.010152 779309.000000 0 0 1
22.284354 23.208350 22.873091 39.476553 0.805706 0.952792 0.073030 -0.016520 680310.000000 0 0 1
22.545754 23.934550 21.697691 39.394968 0.815269 0.987506 0.083493 -0.014731 390625.000000 0 0 1
21.672754 25.053830 21.581491 39.536862 0.857631 0.993384 0.066226 -0.014088 -17810.800000 0 0 1
22.221554 25.963180 20.434291 39.817640 0.862894 1.031891 0.065074 -0.018118 32488.200000 0 0 1
22.226154 25.407610 19.166291 38.818749 0.852089 1.054413 0.065296 -0.015925 158116.000000 0 0 1
22.439354 26.368270 18.134291 39.085327 0.865723 1.088328 0.062488 -0.022634 -201757.000000 0 0 1
22.558054 25.906180 16.668591 38.181644 0.854373 1.119024 0.050141 -0.015912 359555.000000 0 0 1
21.265754 25.565170 16.182791 36.982333 0.876949 1.117889 0.040575 -0.011602 255102.000000 0 0 1
21.487954 25.224370 14.845691 36.309717 0.865216 1.149589 0.048979 -0.013088 147259.000000 0 0 1
20.230354 24.814090 13.990491 34.939092 0.886809 1.158816 0.056769 -0.013787 2156720.000000 0 0 1
19.108554 25.769180 13.830691 34.935305 0.932740 1.163755 0.055309 -0.011713 1172920.000000 0 0 1
18.332454 25.929580 14.997391 35.118994 0.955382 1.129574 0.047785 -0.015798 -610277.000000 0 0 1
16.893554 26.473780 14.683491 34.667826 1.002815 1.133438 0.059168 -0.012429 352521.000000 0 0 1
16.005954 25.614030 13.970591 33.278319 1.012276 1.137560 0.071928 -0.013561 421449.000000 0 0 1
15.555754 24.461120 14.744291 32.522639 1.004370 1.100271 0.089433 -0.026908 -281518.000000 0 0 1
14.577554 24.694330 15.942191 32.809579 1.037525 1.063403 0.111957 -0.035049 -590843.000000 0 0 1
15.107954 25.496610 16.907591 34.120288 1.035875 1.052353 0.096887 -0.030406 338397.000000 0 0 1
14.071954 25.976120 17.787991 34.484654 1.074327 1.028828 0.107772 -0.030132 578672.000000 0 0 1
14.495954 27.210630 18.627691 36.021410 1.081308 1.027304 0.105393 -0.044449 -173885.000000 0 0 1
14.678154 28.329600 17.863591 36.566684 1.092757 1.060402 0.101533 -0.038895 169105.000000 0 0 1
15.413654 29.294120 18.567791 37.953776 1.086433 1.059600 0.076840 -0.028518 -82191.300000 0 0 1
15.378654 30.632260 17.768891 38.607925 1.105517 1.092531 0.076509 -0.033645 53545.000000 0 0 1
14.073254 31.171310 17.835991 38.572395 1.146711 1.090093 0.083455 -0.024900 160466.000000 0 0 1
13.922154 32.335740 16.998291 39.094352 1.164234 1.120978 0.071962 -0.017753 792449.000000 0 0 1
12.570654 33.118048 17.263791 39.406407 1.208024 1.117317 0.089052 -0.028210 674724.000000 0 0 1
12.353454 -33.498975 16.538991 39.348791 -1.217498 1.137001 0.096484 -0.026080 239457.000000 0 0 1
13.109754 -32.331175 16.989891 38.804986 -1.185572 1.117615 0.089473 -0.033854 290034.000000 0 0 1
13.081954 -31.747455 18.422991 38.967230 -1.179934 1.078351 0.097015 -0.037302 -12706.600000 0 0 1
13.711754 -32.704925 19.249391 40.350507 -1.173800 1.073496 0.093941 -0.035369 324504.000000 0 0 1
13.244654 -32.484475 20.539491 40.651355 -1.183650 1.041113 0.082054 -0.027668 246162.000000 0 0 1
14.317354 -32.980865 21.565091 41.925854 -1.161234 1.030532 0.085355 -0.026062 -68401.800000 0 0 1
15.522854 -32.308275 21.423391 41.758177 -1.122902 1.032080 0.083192 -0.022799 -1143170.000000 0 0 1
16.511354 -32.774915 22.279391 42.932402 -1.104129 1.025185 0.078318 -0.023018 308914.000000 0 0 1
17.884654 -32.116975 21.896491 42.788050 -1.062702 1.033584 0.115879 -0.025195 565875.000000 0 0 1
17.955354 -30.721265 22.248691 41.966595 -1.041882 1.012016 0.114212 -0.030673 254369.000000 0 0 1
19.196254 -30.167515 21.838391 41.898574 -1.004097 1.022516 0.116948 -0.029849 147484.000000 0 0 1
-4.989846 12.945425 18.406757 23.049757 -1.202894 0.645887 0.025909 -0.005295 75328.600000 0 1 0
-4.666446 14.025625 17.581357 22.969502 -1.249608 0.699100 0.027445 -0.015565 781896.000000 0 1 0
-5.887246 14.772125 17.465957 23.620648 -1.191551 0.738564 0.027674 -0.013308 774101.000000 0 1 0
-5.625946 16.285625 17.289757 24.409190 -1.238177 0.783667 0.052844 -0.023496 -120493.000000 0 1 0
-5.200346 16.861525 18.478557 25.550180 -1.271637 0.762334 0.045385 -0.015872 166841.000000 0 0 1
-4.995846 18.270525 18.320557 26.351725 -1.303883 0.802054 0.066261 -0.014157 -128459.000000 0 0 1
-4.145646 19.009625 19.397457 27.473871 -1.356077 0.786916 0.050319 -0.017598 -487834.000000 0 0 1
-4.807246 19.145925 20.581657 28.518076 -1.324797 0.764533 0.026293 -0.015545 8247.170000 0 0 1
-4.089946 19.929825 21.528957 29.621303 -1.368389 0.757135 0.017540 -0.007320 -232541.000000 0 0 1
-4.920846 20.249725 22.767957 30.864964 -1.332409 0.741193 0.014191 -0.003034 -110129.000000 0 0 1
-5.463646 19.153425 23.446537 30.764350 -1.292920 0.704194 0.019915 -0.011344 251647.000000 0 0 1
-6.175346 19.390625 24.691347 31.996779 -1.262481 0.689314 0.018699 -0.014278 515146.000000 0 0 1
-5.343446 20.109625 25.795537 33.141503 -1.311082 0.678770 0.009821 -0.009668 -641364.000000 0 0 1
-5.124246 21.471725 25.472527 33.706713 -1.336527 0.714058 0.024045 -0.016742 245068.000000 0 0 1
-4.105646 22.107125 26.232097 34.550025 -1.387172 0.708637 0.024001 -0.007543 1515440.000000 0 0 1
-2.587846 21.734925 25.967327 33.961832 -1.452290 0.700371 0.026606 -0.005552 518726.000000 0 0 1
-2.285646 20.439825 26.416077 33.478647 -1.459436 0.661547 0.030665 0.002624 -286719.000000 0 0 1
-0.934446 20.189625 26.094157 33.006048 -1.524546 0.659029 0.032259 0.000423 -111598.000000 0 0 1
-0.417646 18.865525 26.627217 32.635735 -1.548662 0.616527 0.031392 0.006205 -374782.000000 0 0 1
-0.827046 17.694225 25.977117 31.441696 -1.524089 0.598468 0.033210 0.005658 -327009.000000 0 0 1
-0.252346 16.503725 26.523797 31.240174 -1.555507 0.556653 0.033323 0.003770 -185506.000000 0 0 1
1.208454 16.242625 26.113937 30.776955 1.496533 0.557671 0.048277 0.004000 -416765.000000 0 0 1
1.461554 15.879925 24.752277 29.444582 1.479017 0.572333 0.042695 0.004433 -147893.000000 0 0 1
0.985854 14.608025 24.356567 28.418457 1.503411 0.541244 0.048405 0.001921 -185155.000000 0 0 1
0.995954 14.329825 22.828357 26.971647 1.501406 0.561639 0.057818 -0.012176 52267.000000 0 0 1
2.315854 14.201125 22.336057 26.569430 1.409144 0.572282 0.064253 -0.015255 -134944.000000 0 0 1
2.494154 13.463325 21.205857 25.242233 1.387618 0.573339 0.061618 -0.020218 -62299.500000 0 0 1
4.007054 13.349825 20.924157 25.141493 1.279195 0.587632 0.063114 -0.022395 72877.400000 0 0 1
4.480154 14.473525 20.235557 25.279092 1.270609 0.642691 0.066236 -0.012163 -686288.000000 0 0 1
5.876654 14.470525 20.149257 25.493602 1.185032 0.659391 0.072536 -0.012943 -248673.000000 0 0 1
6.392054 15.675825 19.276357 25.654782 1.183614 0.720653 0.082121 -0.023510 53347.200000 0 0 1
6.461554 15.426225 17.880357 24.483204 1.174131 0.752019 0.073339 -0.027341 193818.000000 0 1 0
7.078154 16.545625 17.211457 24.901652 1.166560 0.807679 0.072908 -0.017035 211164.000000 0 1 0
7.223454 16.235925 15.704857 23.715525 1.152187 0.847021 0.064835 -0.010279 93948.200000 0 1 0
8.221154 15.343125 15.246357 23.139799 1.078905 0.851467 0.053539 0.000116 120528.000000 0 1 0
8.046654 13.986625 15.650957 22.479475 1.048729 0.800660 0.046531 -0.006898 -955395.000000 0 1 0
8.991954 13.113025 14.922757 21.805856 0.969714 0.817089 0.040529 -0.012993 -736956.000000 0 1 0
10.324054 13.420525 15.282157 22.808791 0.915074 0.836572 0.044111 -0.010957 -30657.700000 0 1 0
11.165854 12.794225 14.308757 22.206059 0.853256 0.870607 0.045817 -0.007851 1021930.000000 0 1 0
12.622754 13.395225 14.201957 23.247830 0.815079 0.913607 0.046039 -0.006453 826895.000000 0 1 0
13.363654 13.278125 15.428757 24.350409 0.782188 0.884581 0.047390 -0.006297 300091.000000 0 1 0
14.663954 13.818225 15.389057 25.353461 0.755714 0.918541 0.049122 -0.005271 764558.000000 0 0 1
15.828654 13.063125 14.643357 25.211495 0.689969 0.951060 0.053906 -0.009685 -126094.000000 0 0 1
16.981454 13.816525 14.380657 26.192928 0.682993 0.989595 0.060728 -0.020085 13964.700000 0 0 1
17.792754 13.109725 13.463157 25.878632 0.635000 1.023662 0.074166 -0.023257 -86256.500000 0 0 1
19.238254 13.654925 13.337857 27.101031 0.617260 1.056235 0.078462 -0.027628 147967.000000 0 0 1
20.019254 13.264625 14.427757 28.015728 0.585177 1.029803 0.041385 -0.017712 488127.000000 0 0 1
21.410454 13.566125 14.308557 29.106393 0.564775 1.056876 0.071728 -0.037787 861704.000000 0 0 1
22.297154 13.378225 15.555357 30.300316 0.540417 1.031686 0.079011 -0.027573 147021.000000 0 0 1
22.722754 12.064925 15.918157 30.253491 0.488110 1.016718 0.083847 -0.028933 267213.000000 0 0 1
23.466354 12.006325 17.101957 31.421308 0.472916 0.995267 0.072502 -0.028202 -354738.000000 0 0 1
23.963054 10.532625 17.392157 31.426920 0.414118 0.984336 0.091355 -0.022650 271254.000000 0 0 1
22.952154 9.658525 17.972257 30.709779 0.398317 0.945634 0.054573 -0.017722 844348.000000 0 0 1
22.874854 8.367225 17.373957 29.918620 0.350665 0.951199 0.056963 -0.001764 -130799.000000 0 0 1
21.742754 7.439025 17.878057 29.115484 0.329654 0.909628 0.081673 -0.007649 -1942.430000 0 0 1
21.836754 6.098225 17.365057 28.558316 0.272326 0.917187 0.109021 -0.020431 772035.000000 0 0 1
20.859454 5.258625 18.017357 28.060562 0.246952 0.873577 0.110534 -0.022968 188010.000000 0 0 1
20.560654 3.903225 17.388457 27.209082 0.187607 0.877510 0.159554 -0.017703 84568.800000 0 0 1
19.460554 4.000925 16.441757 25.788602 0.202766 0.879471 0.151949 -0.025003 991233.000000 0 0 1
19.208454 2.767025 15.780757 25.013066 0.143068 0.888083 0.135187 -0.027233 -46144.000000 0 0 1
18.507154 1.673425 16.615157 24.927466 0.090175 0.841238 0.144469 -0.019660 -8192.550000 0 1 0
19.369954 1.175225 17.640557 26.225285 0.060598 0.833006 0.158961 -0.027428 421290.000000 0 0 1
18.583854 0.785425 18.763457 26.420520 0.042239 0.781035 0.157674 -0.016030 24159.500000 0 0 1
19.270654 -0.055675 19.857957 27.671279 -0.002889 0.770392 0.152660 -0.024483 -221723.000000 0 0 1
19.453054 -1.410975 19.395057 27.506007 -0.072406 0.788203 0.153667 -0.017107 -100078.000000 0 0 1
18.390054 -2.311875 19.621957 26.991852 -0.125057 0.756914 0.126459 -0.008240 -456728.000000 0 0 1
18.393354 -3.713475 18.903457 26.635429 -0.199214 0.781708 0.104069 -0.003440 -396090.000000 0 0 1
18.250454 -3.563675 17.522857 25.550526 -0.192839 0.815077 0.126788 -0.020344 369010.000000 0 0 1
17.888354 -4.826975 16.982457 25.133579 -0.263562 0.828899 0.127539 -0.022784 -288242.000000 0 0 1
17.487854 -4.796175 15.521857 23.869571 -0.267676 0.862846 0.103418 -0.026568 -746494.000000 0 1 0
16.138954 -4.521075 15.311857 22.701519 -0.273133 0.830528 0.101529 -0.030077 -389478.000000 0 1 0
15.732254 -4.517675 13.940657 21.500120 -0.279636 0.865317 0.095536 -0.030018 112822.000000 0 1 0
16.060054 -3.221975 13.165957 21.015445 -0.197992 0.893755 0.095049 -0.026682 -8626.390000 0 1 0
15.350254 -2.041975 13.598457 20.608688 -0.132249 0.850189 0.098607 -0.015078 270621.000000 0 1 0
15.801954 -0.897775 12.958157 20.455357 -0.056753 0.884748 0.101836 -0.019266 480031.000000 0 1 0
14.757754 0.300925 12.960457 19.643201 0.020388 0.850252 0.110551 -0.013986 408979.000000 0 1 0
15.295954 1.554425 12.585757 19.869166 0.101276 0.884816 0.114822 -0.010041 38729.900000 0 1 0
16.155854 2.180525 13.483257 21.155722 0.134157 0.879763 0.136442 -0.016061 -180790.000000 0 1 0
16.438454 3.680225 13.140057 21.364175 0.220247 0.908346 0.123022 -0.008481 -537122.000000 0 1 0
15.343454 4.475925 13.425657 20.873519 0.283839 0.872138 0.099444 0.000390 -243735.000000 0 1 0
15.306754 5.634025 12.686857 20.663865 0.352685 0.909724 0.100736 -0.009253 -335851.000000 0 1 0
14.128454 6.580425 12.897657 20.230294 0.435880 0.879493 0.070991 -0.007857 -334107.000000 0 1 0
14.368054 7.806125 12.185357 20.392634 0.497683 0.930370 0.056391 -0.010825 371639.000000 0 1 0
13.376054 8.808825 12.327557 20.210960 0.582364 0.914806 0.039419 -0.004490 -196097.000000 0 1 0
13.631754 9.689325 13.586457 21.547612 0.617931 0.888558 0.042553 -0.010250 83672.500000 0 1 0
13.206454 9.068725 14.778857 21.796028 0.601736 0.825686 0.050609 -0.012772 563251.000000 0 1 0
13.793954 9.728525 15.900557 23.189332 0.614257 0.815253 0.071400 -0.015970 772.022000 0 1 0
13.420754 9.096225 17.257957 23.679000 0.595652 0.754185 0.073927 -0.020869 228035.000000 0 1 0
12.042354 9.201925 17.581557 23.212171 0.652483 0.711431 0.056911 -0.030775 31636.800000 0 1 0
11.589054 8.571525 18.781557 23.675391 0.636826 0.654595 0.083252 -0.026338 -252317.000000 0 1 0
12.278454 8.720025 20.164857 25.167852 0.617532 0.641474 0.103863 -0.027542 562804.000000 0 0 1
13.603554 8.150825 20.263857 25.731626 0.539808 0.664042 0.118484 -0.025909 561553.000000 0 0 1
14.191854 8.456525 21.472357 27.092133 0.537378 0.655787 0.117141 -0.023996 -425469.000000 0 0 1
15.704754 8.265925 21.257857 27.692261 0.484491 0.695636 0.103286 -0.019540 -10523.100000 0 0 1
16.260454 9.154325 20.241157 27.530138 0.512755 0.744781 0.095261 -0.015765 -705108.000000 0 0 1
17.401154 8.672325 19.653357 27.645323 0.462348 0.780004 0.077863 -0.009903 -685512.000000 0 0 1
18.197554 9.756425 18.843857 27.954066 0.492139 0.831050 0.076181 -0.015658 177411.000000 0 0 1
19.335854 10.233425 19.529557 29.325789 0.486770 0.842028 0.055894 -0.016800 243154.000000 0 0 1
19.944454 11.309525 18.813357 29.658541 0.515840 0.883652 0.050828 -0.017953 480096.000000 0 0 1
20.902254 12.264325 19.589957 31.162226 0.530617 0.890988 0.043791 -0.013081 219951.000000 0 0 1
20.160154 13.162925 20.444257 31.585789 0.578424 0.866810 0.026710 -0.006022 878793.000000 0 0 1
21.017354 13.840525 21.360457 33.008461 0.582347 0.866995 0.032594 -0.003368 -134472.000000 0 0 1
22.191754 14.774625 21.023757 33.952347 0.587382 0.903055 0.017465 -0.006868 -284089.000000 0 0 1
23.302654 14.001525 20.676057 34.154879 0.541048 0.920576 -0.001555 -0.002958 -937389.000000 0 0 1
24.466254 14.748425 20.447257 35.131240 0.542481 0.949580 0.015096 -0.012093 -601560.000000 0 0 1
25.651054 13.795225 20.487257 35.609164 0.493431 0.957781 0.025916 -0.018886 -714115.000000 0 0 1
25.842054 13.011525 19.358757 34.811967 0.466445 0.981117 0.046387 -0.030963 120491.000000 0 0 1
26.979754 12.170025 19.342757 35.357587 0.423752 0.991947 0.085121 -0.038185 99523.300000 0 0 1
27.443054 11.552725 17.969157 34.777540 0.398453 1.027818 0.133065 -0.043316 -191942.000000 0 0 1
27.965854 12.569125 17.132857 35.122738 0.422393 1.061229 0.140639 -0.054020 -25567.800000 0 0 1
28.419654 12.046725 15.922457 34.732190 0.400928 1.094563 0.169952 -0.062849 -243631.000000 0 0 1
27.367354 11.608625 14.869257 33.238939 0.401174 1.107002 0.147937 -0.058802 144832.000000 0 0 1
26.782054 12.731625 14.191257 32.874983 0.443757 1.124449 0.162678 -0.054653 -109915.000000 0 0 1
25.882054 12.360125 13.194857 31.571470 0.445532 1.139624 0.154641 -0.046440 -187923.000000 0 0 1
25.461654 13.565425 12.307457 31.365429 0.489525 1.167569 0.132963 -0.048221 -14094.300000 0 0 1
24.731954 14.483625 13.088657 31.508061 0.529782 1.142407 0.120206 -0.043198 131005.000000 0 0 1
24.650654 15.730225 12.445157 31.780131 0.567983 1.168425 0.103574 -0.032580 -207066.000000 0 0 1
23.687554 16.653425 13.207257 31.825594 0.612767 1.142866 0.100038 -0.032192 -52470.700000 0 0 1
22.351254 16.497725 12.775257 30.577127 0.635849 1.139769 0.115250 -0.042754 -278169.000000 0 0 1
21.521754 17.495925 13.284357 30.753333 0.682582 1.124126 0.083610 -0.028153 -993341.000000 0 0 1
20.731154 18.179525 12.153257 30.132666 0.719915 1.155649 0.103178 -0.020856 470049.000000 0 0 1
19.665954 17.449425 11.513057 28.701615 0.725749 1.158047 0.107303 -0.023875 736849.000000 0 0 1
18.505854 17.383125 12.328257 28.224557 0.754125 1.118767 0.091551 -0.021687 138886.000000 0 0 1
17.148154 16.999925 11.648757 26.809517 0.781057 1.121312 0.086528 -0.012821 448827.000000 0 0 1
17.070054 15.625425 11.340657 25.771131 0.741243 1.115139 0.089429 -0.015477 592405.000000 0 0 1
15.851754 15.408825 10.637157 24.532817 0.771230 1.122325 0.085889 -0.018280 398144.000000 0 1 0
16.008454 14.127425 9.801857 23.493215 0.723061 1.140411 0.093232 -0.023363 -77049.700000 0 1 0
16.283854 13.031325 10.626457 23.407284 0.674900 1.099568 0.098332 -0.017676 280844.000000 0 1 0
16.292454 11.853125 9.826057 22.416335 0.628960 1.117041 0.076980 -0.017017 -83684.700000 0 1 0
16.695654 10.591125 10.676657 22.470154 0.565305 1.075664 0.079186 -0.022646 -645091.000000 0 1 0
17.163254 9.570225 9.843457 21.978630 0.508659 1.106420 0.065900 -0.024163 453186.000000 0 1 0
17.735654 8.490925 10.602057 22.339491 0.446503 1.076300 0.070717 -0.017666 943211.000000 0 1 0
19.118554 8.680925 11.322157 23.855164 0.426223 1.076263 0.081330 -0.020665 79362.600000 0 1 0
18.953454 9.450625 12.497657 24.591446 0.462545 1.037689 0.085297 -0.023963 -438976.000000 0 1 0
20.062854 9.483225 13.343757 25.894122 0.441550 1.029415 0.102313 -0.026797 -1204010.000000 0 0 1
19.814154 9.685125 14.831057 26.577484 0.454646 0.978785 0.070489 -0.015444 -44711.700000 0 0 1
19.376454 8.494225 15.504257 26.229389 0.413148 0.938371 0.085857 -0.016230 1461140.000000 0 0 1
18.074554 7.965825 15.132357 24.882366 0.415110 0.917061 0.101524 -0.024963 662864.000000 0 1 0
17.652954 6.647325 15.846557 24.635891 0.360134 0.872086 0.131144 -0.025511 -330269.000000 0 1 0
16.760354 6.777725 16.903657 24.750367 0.384285 0.818981 0.132925 -0.020476 -312931.000000 0 1 0
16.214654 5.518225 17.167157 24.250302 0.328028 0.784254 0.135763 -0.007143 584584.000000 0 1 0
14.805454 5.533725 17.919857 23.894453 0.357685 0.722796 0.120584 -0.011393 1339510.000000 0 1 0
14.217654 4.239725 18.062157 23.374313 0.289806 0.687657 0.130840 -0.006080 399396.000000 0 1 0
13.691854 3.667125 16.890757 22.050224 0.261691 0.698181 0.121382 -0.008099 -707762.000000 0 1 0
13.450254 2.119325 16.885757 21.691696 0.156283 0.678614 0.120108 -0.011720 744268.000000 0 1 0
14.682554 1.365125 16.797957 22.352010 0.092709 0.720435 0.137753 -0.015181 966160.000000 0 1 0
14.521754 -0.034475 16.698157 22.129415 -0.002374 0.715800 0.132082 -0.012864 -65392.000000 0 1 0
13.809654 -0.814175 17.833457 22.569928 -0.058889 0.659755 0.132084 -0.012771 -545684.000000 0 1 0
12.468754 -0.499675 18.014357 21.914301 -0.040053 0.605818 0.119409 0.004262 -992227.000000 0 1 0
11.983654 -1.371575 18.986257 22.493714 -0.113958 0.565969 0.110598 -0.008814 -65091.800000 0 1 0
-26.956736 14.321925 28.478207 41.746754 -0.488367 0.820076 0.093437 -0.006196 -41712.500000 0 0 1
-26.058736 14.319025 29.581667 41.942428 -0.502452 0.787961 0.080957 -0.007718 619562.000000 0 0 1
-25.429826 13.025625 29.662787 41.185239 -0.473375 0.766665 0.075721 0.001322 586237.000000 0 0 1
-24.153546 12.910425 30.579307 41.050784 -0.490877 0.730390 0.067825 -0.014572 361686.000000 0 0 1
-24.367146 13.127525 31.987306 42.299852 -0.494156 0.713305 0.072918 -0.022438 339853.000000 0 0 1
-23.169546 13.171125 32.769819 42.239406 -0.516911 0.682796 0.066021 -0.016954 238675.000000 0 0 1
-23.419746 13.407125 -33.558209 43.062616 -0.519932 2.464326 0.052349 -0.010553 153701.000000 0 0 1
-24.146946 12.351725 -32.940249 42.669662 -0.472824 2.452751 0.028905 -0.011424 199148.000000 0 0 1
-24.850446 12.753525 -31.778899 42.309520 -0.474161 2.420531 0.012781 -0.002915 84188.600000 0 0 1
-25.665866 11.682125 -31.017319 41.919957 -0.427138 2.403744 0.002644 -0.007710 177542.000000 0 0 1
-24.919046 10.607025 -30.389229 40.705934 -0.402429 2.413666 0.015923 -0.009439 255441.000000 0 0 1
-24.962746 9.410125 -31.096809 40.971949 -0.360494 2.432538 0.022017 -0.012283 -319121.000000 0 0 1
-24.262346 8.206825 -30.442149 39.783637 -0.326172 2.442137 0.024649 -0.005610 -195221.000000 0 0 1
-24.824546 7.579125 -29.311409 39.151755 -0.296319 2.416837 0.030660 -0.006721 469596.000000 0 0 1
-23.810846 7.035425 -28.458649 37.767026 -0.287297 2.424214 0.043012 -0.003464 350885.000000 0 0 1
-24.419446 6.174525 -27.310559 37.152398 -0.247662 2.396604 0.044945 -0.001788 104416.000000 0 0 1
-24.980646 4.969425 -27.839699 37.732965 -0.196367 2.400614 0.042394 -0.000387 330599.000000 0 0 1
-25.423156 4.042025 -26.827829 37.180737 -0.157670 2.376837 0.056238 0.003177 -12213.900000 0 0 1
-26.214506 2.767225 -27.388899 38.013282 -0.105171 2.375332 0.061087 0.005478 -133112.000000 0 0 1
-27.562046 2.979925 -27.636119 39.144621 -0.107699 2.354631 0.071217 0.000794 -642043.000000 0 0 1
-27.829396 3.637325 -28.869539 40.263577 -0.129964 2.370305 0.067310 -0.003127 -272127.000000 0 0 1
-29.221136 3.300925 -29.447009 41.616069 -0.112487 2.356875 0.095934 -0.014413 -51465.100000 0 0 1
-30.358896 3.497325 -28.621649 41.869949 -0.114694 2.323459 0.094578 -0.019324 328414.000000 0 0 1
-31.583426 3.676325 -29.288319 43.230010 -0.115879 2.315154 0.101450 -0.015507 94870.000000 0 0 1
-31.833546 5.047625 -29.956449 44.002749 -0.157254 2.319631 0.094453 -0.023909 -349127.000000 0 0 1
-30.857776 5.402125 -30.954869 44.040767 -0.173309 2.350219 0.090380 -0.026528 616940.000000 0 0 1
-31.102816 6.668225 -31.601609 44.838734 -0.211196 2.352915 0.090719 -0.024117 -304757.000000 0 0 1
-30.498026 7.973225 -30.902349 44.143596 -0.255711 2.346252 0.055856 -0.015394 -12598.900000 0 0 1
-29.092226 8.076725 -30.813719 43.140194 -0.270805 2.366376 0.029649 -0.012664 236393.000000 0 0 1
-28.519046 7.466025 -29.661009 41.819289 -0.256045 2.359253 0.029211 -0.015722 -384615.000000 0 0 1
-28.508386 8.249325 -28.311539 41.016127 -0.281671 2.332636 0.012421 -0.005621 407740.000000 0 0 1
-29.805986 8.620125 -27.835649 41.683650 -0.281527 2.302023 0.014004 -0.007645 772999.000000 0 0 1
-30.468846 7.690125 -26.977029 41.415561 -0.247230 2.280191 0.024176 -0.002123 -5004.520000 0 0 1
-31.788176 8.160625 -26.323579 42.071543 -0.251292 2.246807 0.024568 -0.003983 6636.480000 0 0 1
-31.741076 9.043325 -25.192309 41.520236 -0.277555 2.222759 0.019932 0.001436 -179401.000000 0 0 1
-31.599856 8.337225 -24.029009 40.564189 -0.257959 2.204794 0.025042 0.006020 -50339.500000 0 0 1
-31.077546 9.156225 -22.851409 39.646402 -0.286518 2.185089 0.036844 0.003967 -54145.000000 0 0 1
-32.000906 10.150525 -22.433709 40.377746 -0.307156 2.159876 0.041686 0.013265 543277.000000 0 0 1
-31.330566 10.931025 -21.474409 39.525206 -0.335689 2.145170 0.051988 0.004397 552192.000000 0 0 1
-32.368986 11.837725 -20.731109 40.220167 -0.350603 2.112318 0.058828 0.010873 291553.000000 0 0 1
-33.179846 11.200425 -19.791509 40.225060 -0.325556 2.085204 0.072869 0.006988 -145103.000000 0 0 1
-33.889276 11.970925 -18.854409 40.586633 -0.339555 2.053920 0.074468 0.003941 201580.000000 0 0 1
-33.077306 12.886025 -17.844409 39.731357 -0.371485 2.036584 0.092966 -0.003210 156812.000000 0 0 1
-32.505286 12.301225 -16.655009 38.539630 -0.361781 2.017675 0.128860 -0.007719 532473.000000 0 0 1
-33.405596 12.070125 -15.564909 38.779996 -0.346724 1.983802 0.112873 -0.015022 79096.900000 0 0 1
-33.894816 13.379325 -14.827509 39.341071 -0.375956 1.957240 0.094710 -0.004601 278104.000000 0 0 1
-34.877022 14.158025 -15.499409 40.707346 -0.385618 1.961406 0.082316 -0.003448 182351.000000 0 0 1
-35.674396 14.921925 -14.634809 41.346148 -0.396166 1.932596 0.059677 0.002131 118705.000000 0 0 1
-36.395466 16.044325 -15.414309 42.657370 -0.415205 1.940513 0.048048 -0.005011 619378.000000 0 0 1
-37.335616 15.655825 -16.443409 43.697125 -0.397056 1.956600 0.036726 -0.007047 -78407.500000 0 0 1
36.494383 16.535225 -16.532509 43.342560 0.425420 1.962148 0.027072 -0.006332 -872404.000000 0 0 1
35.874623 16.451225 -17.939709 43.352791 0.429962 1.997429 0.032900 -0.007646 371804.000000 0 0 1
34.898703 15.462525 -18.302409 42.331871 0.417075 2.017900 0.032303 -0.019103 1233720.000000 0 0 1
33.576753 15.980125 -18.481409 41.524995 0.444205 2.032046 0.040237 -0.020998 518412.000000 0 0 1
32.510463 14.945925 -18.878309 40.456167 0.430913 2.056280 0.044166 -0.029401 -118291.000000 0 0 1
32.653493 14.557325 -20.200109 41.063496 0.419366 2.085094 0.047215 -0.026539 224201.000000 0 0 1
32.037973 13.307525 -20.521309 40.306898 0.393683 2.104966 0.032855 -0.018304 352778.000000 0 0 1
32.841273 12.023625 -20.063309 40.319389 0.350957 2.091637 0.046742 -0.007717 298871.000000 0 0 1
32.694923 11.759825 -18.707809 39.461799 0.345275 2.064708 0.052234 -0.008535 -381432.000000 0 0 1
33.639313 10.821225 -18.326209 39.806434 0.311230 2.049223 0.066934 -0.002670 -377843.000000 0 0 1
33.657483 10.654025 -16.793309 39.094112 0.306564 2.014803 0.061560 -0.002433 -426843.000000 0 0 1
32.556883 9.991825 -16.248609 37.733334 0.297778 2.015972 0.063897 -0.012635 -266028.000000 0 0 1
32.677223 9.867125 -14.839309 37.220507 0.293251 1.980880 0.051655 -0.011510 210946.000000 0 0 1
32.004223 11.004025 -13.949509 36.605295 0.331168 1.961759 0.066788 -0.020265 -403250.000000 0 0 1
30.617903 10.947425 -13.791209 35.319959 0.343385 1.971933 0.054770 -0.016285 -368814.000000 0 0 1
30.160543 12.019625 -13.014309 34.978593 0.379231 1.952029 0.068955 -0.019485 -75386.900000 0 0 1
28.622063 12.090525 -13.005909 33.683185 0.399683 1.967223 0.072505 -0.008758 -90279.900000 0 0 1
27.950363 11.096425 -12.245609 32.470115 0.377922 1.957497 0.072423 -0.021234 1001470.000000 0 0 1
26.524963 10.935325 -12.392609 31.252708 0.391035 1.978529 0.072298 -0.011040 1203450.000000 0 0 1
25.998463 10.293225 -13.720909 31.146972 0.376981 2.026976 0.066346 -0.016322 -863637.000000 0 0 1
26.258863 8.887525 -13.890609 31.007499 0.326356 2.035296 0.074920 -0.015883 289262.000000 0 0 1
27.548263 8.623925 -14.400809 32.259296 0.303384 2.033543 0.082377 -0.022663 -286775.000000 0 0 1
28.510463 7.787725 -13.583009 32.526809 0.266648 2.001592 0.082040 -0.021010 -465689.000000 0 0 1
28.188863 6.414925 -13.416909 31.871252 0.223759 2.005313 0.080050 -0.025788 602820.000000 0 0 1
27.110063 6.122325 -12.518509 30.481985 0.222106 1.994002 0.105599 -0.030485 247897.000000 0 0 1
26.788063 4.603425 -12.521109 29.926075 0.170184 2.002481 0.111980 -0.026762 -201438.000000 0 0 1
26.010063 4.182225 -11.419709 28.712787 0.159428 1.979829 0.125499 -0.028247 282323.000000 0 0 1
25.556163 2.843125 -11.596209 28.207674 0.110794 1.994458 0.128206 -0.034644 -361602.000000 0 0 1
24.718763 2.406425 -10.374109 26.915242 0.097046 1.966477 0.140426 -0.032954 -379481.000000 0 0 1
25.389763 2.196725 -9.143909 27.075390 0.086305 1.915290 0.144273 -0.029801 409858.000000 0 0 1
24.794863 1.082625 -8.459909 26.220743 0.043636 1.899316 0.162803 -0.023632 35485.500000 0 0 1
25.754263 0.508725 -7.383209 26.796504 0.019750 1.849936 0.187327 -0.018374 -61026.000000 0 0 1
25.516863 -0.860475 -7.002109 26.474143 -0.033709 1.838470 0.159943 -0.030927 602984.000000 0 0 1
26.094963 -1.884375 -7.866509 27.319954 -0.072087 1.862871 0.127814 -0.034871 -159429.000000 0 0 1
26.746563 -3.028075 -7.025309 27.819109 -0.112734 1.826096 0.130068 -0.039285 963523.000000 0 0 1
28.052263 -2.748675 -6.452109 28.915642 -0.097672 1.795826 0.124225 -0.043872 1230040.000000 0 0 1
28.326963 -3.777575 -5.528509 29.107581 -0.132574 1.761891 0.142173 -0.058929 640083.000000 0 0 1
29.849263 -3.904075 -5.139709 30.539104 -0.130055 1.739900 0.148838 -0.050160 1109890.000000 0 0 1
30.699513 -4.155375 -6.274809 31.608550 -0.134539 1.770640 0.115893 -0.039955 1014540.000000 0 0 1
31.914723 -4.825875 -5.917109 32.815405 -0.150075 1.752103 0.134193 -0.033920 346619.000000 0 0 1
32.681913 -5.285975 -7.163209 33.872710 -0.160351 1.783879 0.145096 -0.040628 217900.000000 0 0 1
31.989973 -6.357975 -7.890109 33.556460 -0.196192 1.808148 0.157917 -0.050019 203797.000000 0 0 1
32.468903 -6.461675 -9.166409 34.351215 -0.196445 1.840913 0.146049 -0.032102 -999711.000000 0 0 1
31.379093 -7.129175 -10.028209 33.705156 -0.223403 1.872898 0.123794 -0.029079 847502.000000 0 0 1
30.191643 -6.369075 -10.306609 32.531932 -0.207907 1.893166 0.093445 -0.041036 899458.000000 0 0 1
29.335863 -6.280975 -9.159109 31.367703 -0.210921 1.867105 0.129145 -0.038477 -1435350.000000 0 0 1
28.182763 -5.299475 -9.458709 30.196353 -0.185869 1.889399 0.114012 -0.036835 43496.800000 0 0 1
27.128663 -5.915575 -10.196009 29.578995 -0.214696 1.922720 0.101269 -0.041476 917418.000000 0 0 1
25.976263 -5.081275 -10.305209 28.403924 -0.193173 1.942077 0.090313 -0.041725 1334600.000000 0 0 1
24.617363 -5.617075 -9.708009 27.052015 -0.224335 1.937847 0.109836 -0.039662 59997.400000 0 0 1
24.703063 -5.807175 -8.278009 26.692509 -0.230887 1.886121 0.121352 -0.046731 1348760.000000 0 0 1
23.449763 -6.305175 -7.767809 25.494812 -0.262668 1.880401 0.114301 -0.052281 754914.000000 0 0 1
22.409163 -5.223075 -7.346409 24.154105 -0.228989 1.879840 0.124521 -0.043302 -161032.000000 0 1 0
22.024863 -4.420375 -8.401109 23.983597 -0.198068 1.928672 0.148167 -0.042651 226492.000000 0 1 0
22.260963 -3.023975 -8.221209 23.922441 -0.135016 1.921609 0.165549 -0.041766 -217105.000000 0 1 0
22.406063 -2.250175 -9.522409 24.449360 -0.100091 1.970858 0.193064 -0.026373 -432179.000000 0 1 0
23.695363 -2.338175 -10.063909 25.849943 -0.098358 1.970690 0.154593 -0.036788 223848.000000 0 0 1
23.716863 -1.697675 -11.326109 26.337282 -0.071459 2.015334 0.175597 -0.030327 29408.100000 0 0 1
25.118563 -1.725975 -11.975009 27.880495 -0.068605 2.014749 0.134486 -0.031699 -151386.000000 0 0 1
26.080263 -0.854775 -11.435409 28.489986 -0.032763 1.983823 0.125505 -0.034978 1382760.000000 0 0 1
27.383863 -1.186975 -11.981909 29.914060 -0.043319 1.982907 0.101229 -0.032084 992650.000000 0 0 1
28.521663 -0.233775 -11.539509 30.768493 -0.008196 1.955240 0.084045 -0.019804 -468166.000000 0 0 1
29.781863 -0.602975 -12.053309 32.134175 -0.020244 1.955294 0.081483 -0.025184 1436780.000000 0 0 1
30.913503 0.327425 -11.928009 33.136524 0.010591 1.939027 0.078325 -0.017476 1269730.000000 0 0 1
30.699133 1.719525 -12.566709 33.216196 0.055954 1.958789 0.084181 -0.017863 -701404.000000 0 0 1
30.781593 1.497425 -13.940509 33.824348 0.048608 1.995603 0.082572 -0.024563 361347.000000 0 0 1
30.578493 2.661425 -14.652709 34.012193 0.086817 2.016184 0.092198 -0.027088 -166669.000000 0 0 1
30.830993 2.496825 -16.197209 34.916097 0.080808 2.053177 0.091975 -0.020718 343946.000000 0 0 1
29.778863 1.877125 -16.948009 34.315292 0.062952 2.087355 0.085383 -0.019647 471097.000000 0 0 1
30.133783 1.888225 -18.303909 35.307837 0.062580 2.115786 0.076534 -0.018911 148161.000000 0 0 1
29.081163 1.205225 -19.226909 34.883243 0.041420 2.154573 0.063688 -0.018791 11422.500000 0 0 1
28.838363 -0.156475 -19.031209 34.552316 -0.005426 2.154112 0.076056 -0.023419 183473.000000 0 0 1
28.342463 -0.772075 -20.191109 34.807645 -0.027234 2.189619 0.055007 -0.020953 -162935.000000 0 0 1
28.041663 -2.295975 -20.141609 34.601889 -0.081695 2.192100 0.063396 -0.027670 424295.000000 0 0 1
26.881963 -2.656875 -19.369109 33.239454 -0.098515 2.192861 0.076725 -0.028689 655281.000000 0 0 1
26.680363 -4.080675 -19.424109 33.253416 -0.151771 2.194596 0.083625 -0.033017 -299356.000000 0 0 1
27.536563 -4.916275 -18.455209 33.511592 -0.176675 2.154012 0.068786 -0.026449 -756204.000000 0 0 1
28.893063 -4.760475 -18.669309 34.727716 -0.163295 2.138374 0.073810 -0.032130 -828675.000000 0 0 1
29.699763 -4.828675 -17.498209 34.807748 -0.161173 2.097527 0.062322 -0.026270 4275.120000 0 0 1
31.174293 -4.717875 -17.930209 36.271025 -0.150199 2.087871 0.086848 -0.032937 -248115.000000 0 0 1
31.775013 -5.922975 -18.336309 37.161180 -0.184289 2.086821 0.069621 -0.029197 339491.000000 0 0 1
33.152103 -5.756675 -18.619109 38.456110 -0.171930 2.076205 0.088990 -0.031119 -63155.000000 0 0 1
33.919653 -6.854375 -19.305609 39.626151 -0.199392 2.079670 0.075456 -0.024108 -253793.000000 0 0 1
34.392593 -7.781275 -18.335809 39.744189 -0.222503 2.050308 0.080431 -0.028288 34655.300000 0 0 1
35.077663 -8.857675 -18.915909 40.825390 -0.247345 2.052553 0.070306 -0.021258 -218724.000000 0 0 1
35.972893 -9.675275 -17.945109 41.348360 -0.262742 2.019722 0.076903 -0.020778 -483749.000000 0 0 1
35.292123 -10.289375 -16.843109 40.436314 -0.283685 2.000426 0.072686 -0.018273 14652.900000 0 0 1
36.002203 -11.130175 -15.961309 40.924354 -0.299832 1.971449 0.087305 -0.024444 -242681.000000 0 0 1
37.140113 -10.515775 -15.072809 41.438618 -0.275916 1.943074 0.104916 -0.029994 360866.000000 0 0 1
-37.044156 -11.273575 -14.065509 41.197105 0.295423 1.919223 0.097531 -0.028891 508620.000000 0 0 1
-36.480026 -12.528975 -14.404809 41.173608 0.330826 1.928213 0.085475 -0.022529 266725.000000 0 0 1
-35.050668 -12.361775 -15.037809 40.093622 0.339063 1.955266 0.090123 -0.027340 218207.000000 0 0 1
-34.992151 -11.850275 -16.314809 40.386293 0.326533 1.986648 0.106345 -0.030355 182885.000000 0 0 1
-33.651566 -11.865375 -16.818209 39.447017 0.338985 2.011249 0.126262 -0.033328 555714.000000 0 0 1
-33.419916 -10.987075 -18.073009 39.550477 0.317627 2.045371 0.162635 -0.042864 113682.000000 0 0 1
-33.618316 -9.622875 -17.833809 39.253479 0.278785 2.042410 0.156631 -0.044989 135011.000000 0 0 1
-34.756631 -9.075075 -18.468409 40.391366 0.255401 2.045682 0.140907 -0.045435 28227.600000 0 0 1
-35.358461 -7.866675 -17.720209 40.325068 0.218918 2.025765 0.158582 -0.047560 321427.000000 0 0 1
-36.538976 -7.361175 -18.362109 41.550580 0.198800 2.028536 0.145437 -0.046167 627210.000000 0 0 1
-37.048976 -6.262275 -17.596709 41.490804 0.167444 2.008776 0.138743 -0.044470 18394.100000 0 0 1
25.133954 27.583125 -26.731649 45.903437 0.831824 2.192407 0.037482 0.014032 179469.000000 0 0 1
25.701554 26.638625 -25.817529 45.130157 0.803300 2.179822 0.032284 0.005156 505816.000000 0 0 1
26.953254 26.130825 -26.297289 45.834980 0.769906 2.181859 0.040710 0.001314 424838.000000 0 0 1
27.612254 25.125325 -25.290799 45.092605 0.738276 2.166225 0.050983 0.001724 -209141.000000 0 0 1
28.001054 25.704125 -24.081009 44.996179 0.742655 2.135516 0.051884 0.007238 311405.000000 0 0 1
28.494054 24.732825 -23.149209 44.266349 0.714851 2.121108 0.050773 0.008963 -67529.300000 0 0 1
28.935154 25.365225 -21.825309 44.237788 0.719749 2.086749 0.052567 0.008036 -377431.000000 0 0 1
27.964754 25.992025 -21.045409 43.594978 0.748853 2.074587 0.056300 0.000149 -482252.000000 0 0 1
28.529854 26.822225 -20.052809 43.994312 0.754558 2.044072 0.028911 0.005695 110052.000000 0 0 1
27.521554 27.755925 -19.338009 43.609471 0.789638 2.030225 0.041205 0.011114 296048.000000 0 0 1
26.653954 27.187025 -18.346609 42.263053 0.795299 2.019841 0.056371 0.010218 52865.800000 0 0 1
25.726254 28.149825 -17.960909 42.152664 0.830352 2.010965 0.045990 0.010869 -563244.000000 0 0 1
24.713554 27.686125 -16.920809 40.787192 0.842066 1.998581 0.059256 0.001195 -302709.000000 0 0 1
23.790054 26.743825 -17.402309 39.799990 0.843783 2.023328 0.082872 -0.002760 -166344.000000 0 0 1
22.626354 26.743025 -16.596909 38.763368 0.868591 2.013252 0.055266 0.011986 -201854.000000 0 0 1
21.586154 25.827625 -17.246109 37.821377 0.874617 2.044279 0.052291 -0.002256 -687106.000000 0 0 1
21.074954 26.204225 -18.492509 38.376920 0.893465 2.073579 0.044640 -0.001403 -103719.000000 0 0 1
20.188254 25.193625 -18.957509 37.438904 0.895249 2.101753 0.041896 0.001645 377753.000000 0 0 1
19.608954 25.634725 -20.358709 38.159235 0.917804 2.133553 0.024411 0.003572 591295.000000 0 0 1
18.597254 26.634325 -20.292509 38.301842 0.961250 2.129167 0.010529 0.014916 -219107.000000 0 0 1
17.780654 26.737025 -21.435109 38.606788 0.983935 2.159419 0.014934 0.004220 -199522.000000 0 0 1
16.742154 27.827725 -21.155409 38.758655 1.029175 2.148169 0.017130 0.010713 -476235.000000 0 0 1
15.786654 27.450725 -20.200009 37.560633 1.048894 2.138619 0.031026 0.012564 -314400.000000 0 0 1
14.983654 28.477725 -19.698209 37.729434 1.086446 2.120097 0.027405 0.001011 -148451.000000 0 0 1
14.604654 28.336525 -18.208209 36.712307 1.094904 2.089748 0.037068 0.001906 609158.000000 0 0 1
13.611354 27.333025 -17.909209 35.399195 1.108764 2.101246 0.032803 0.006001 363696.000000 0 0 1
13.171454 27.423025 -16.538009 34.626800 1.123027 2.068726 0.062058 0.002425 119245.000000 0 0 1
12.217154 26.299925 -16.096809 33.167035 1.135924 2.077532 0.066959 -0.004776 -54142.100000 0 0 1
12.825754 25.054725 -15.780909 32.268813 1.097666 2.081791 0.044143 -0.003221 -679328.000000 0 0 1
11.964054 23.965825 -15.827709 31.112951 1.107778 2.104491 0.079534 -0.002294 -260215.000000 0 0 1
12.692054 22.631325 -16.002209 30.485010 1.059686 2.123418 0.059310 0.003985 -65228.600000 0 0 1
13.125154 22.437925 -17.326409 31.239952 1.041514 2.158707 0.054805 0.008122 -712647.000000 0 0 1
14.051754 21.412725 -17.476709 31.006321 0.990051 2.169594 0.054748 0.009162 -348049.000000 0 0 1
13.543654 19.939925 -17.493309 29.783335 0.974151 2.198580 0.060085 0.004476 -37672.800000 0 0 1
13.254654 19.346525 -16.226809 28.518121 0.970128 2.176086 0.081434 -0.009640 -24773.200000 0 0 1
12.900154 17.944825 -16.365909 27.500431 0.947512 2.208205 0.068025 -0.012929 88792.000000 0 0 1
14.111054 17.015525 -16.612109 27.651620 0.878440 2.215253 0.107513 -0.016514 -2209.520000 0 0 1
14.740754 16.628825 -15.401209 27.037102 0.845514 2.176855 0.114468 -0.023615 -741733.000000 0 0 1
15.786054 15.800925 -15.702509 27.302702 0.785869 2.183555 0.131157 -0.031304 -1604540.000000 0 0 1
16.323354 14.990025 -14.518909 26.494367 0.742844 2.150768 0.191083 -0.032780 -1296260.000000 0 0 1
17.063554 15.626325 -13.489609 26.782765 0.741461 2.098635 0.146186 -0.028580 1853340.000000 0 0 1
18.370354 16.158025 -13.918609 28.147458 0.721413 2.088043 0.109813 -0.024968 1284150.000000 0 0 1
19.386854 15.078725 -14.507409 28.525129 0.661045 2.104335 0.111703 -0.028649 -759256.000000 0 0 1
20.009154 14.135125 -13.640109 28.039625 0.615030 2.078828 0.147528 -0.034590 651296.000000 0 0 1
21.033654 14.733425 -12.818109 28.701783 0.611041 2.033754 0.131835 -0.024029 -187094.000000 0 0 1
21.799554 13.645225 -12.051709 28.401698 0.559275 2.009019 0.134949 -0.031347 -504390.000000 0 0 1
21.117654 13.079325 -10.975609 27.156731 0.554530 1.986854 0.222138 -0.036257 452090.000000 0 0 1
21.820954 11.919525 -10.394609 26.949527 0.499954 1.966770 0.231163 -0.023062 162633.000000 0 0 1
21.868254 10.568525 -11.150809 26.725546 0.450184 2.001196 0.194892 -0.031689 173446.000000 0 0 1
22.750254 10.585325 -12.311409 27.949847 0.435491 2.026932 0.151701 -0.024062 860069.000000 0 0 1
22.627754 9.444725 -13.172509 27.834028 0.395412 2.063775 0.123147 -0.024020 -329186.000000 0 0 1
23.114754 8.064625 -12.536909 27.504620 0.335690 2.044079 0.125501 -0.007863 -514961.000000 0 0 1
22.319654 7.739225 -11.436609 26.246116 0.333772 2.021662 0.150586 -0.029492 271254.000000 0 0 1
22.772954 6.682325 -10.568409 25.979842 0.285421 1.989737 0.137178 -0.023933 -641700.000000 0 0 1
22.570854 5.309825 -11.176409 25.740043 0.231050 2.019950 0.144448 -0.025961 273472.000000 0 0 1
21.270954 4.718425 -11.235909 24.514540 0.218290 2.046919 0.132889 -0.045301 966140.000000 0 1 0
20.459254 5.230625 -12.291809 24.434179 0.250299 2.097930 0.083495 -0.042508 -182543.000000 0 1 0
19.488054 4.155125 -12.834309 23.701663 0.210068 2.143010 0.088399 -0.053588 235672.000000 0 1 0
20.207254 3.321325 -13.737809 24.659516 0.162906 2.161686 0.098133 -0.042429 650230.000000 0 1 0
19.762854 1.987225 -13.660709 24.106730 0.100217 2.173262 0.121335 -0.046488 200566.000000 0 1 0
20.744354 1.154025 -14.534209 25.355537 0.055574 2.181222 0.142285 -0.032949 806910.000000 0 0 1
21.922254 0.717425 -13.840909 25.935896 0.032714 2.133717 0.169442 -0.029366 901142.000000 0 0 1
23.006454 0.312525 -14.669109 27.286945 0.013583 2.138369 0.121844 -0.032779 211347.000000 0 0 1
23.034654 -1.165675 -15.171209 27.606515 -0.050562 2.152624 0.107618 -0.029327 -1004290.000000 0 0 1
21.975754 -1.442075 -16.018009 27.232150 -0.065527 2.199630 0.098867 -0.020040 -224775.000000 0 0 1
22.385054 -2.341875 -17.017509 28.216496 -0.104239 2.218184 0.095088 -0.028859 779394.000000 0 0 1
21.130354 -2.947875 -17.769509 27.765757 -0.138614 2.265268 0.077745 -0.023452 892659.000000 0 0 1
20.509754 -3.968475 -16.982309 26.922066 -0.191130 2.253374 0.103270 -0.026958 759205.000000 0 0 1
19.352554 -4.565475 -17.588209 26.546375 -0.231675 2.295010 0.092016 -0.028921 450497.000000 0 0 1
18.788354 -5.667775 -16.728709 25.787121 -0.292983 2.276702 0.105099 -0.034444 -432638.000000 0 0 1
19.754854 -6.668475 -16.504709 26.591883 -0.325551 2.240390 0.102020 -0.026039 -13790.300000 0 0 1
19.441054 -7.677475 -15.586109 26.073454 -0.376111 2.211521 0.116478 -0.019436 -21581.800000 0 0 1
20.622554 -8.616175 -15.173609 27.014193 -0.395759 2.167224 0.161069 -0.019458 3544.890000 0 0 1
21.098254 -9.338475 -16.269509 28.231903 -0.416698 2.184967 0.133764 -0.022747 385893.000000 0 0 1
22.109054 -10.228175 -15.805609 29.038649 -0.433302 2.146346 0.122520 -0.024834 -110088.000000 0 0 1
22.535954 -11.217475 -16.946509 30.346089 -0.461853 2.163302 0.111749 -0.020089 -216727.000000 0 0 1
23.449754 -10.647675 -17.843909 31.331598 -0.426228 2.176716 0.109162 -0.018397 -46343.200000 0 0 1
23.773454 -11.502975 -18.950709 32.505768 -0.450651 2.193207 0.107497 -0.019754 91739.100000 0 0 1
22.712554 -11.461775 -20.088409 32.415684 -0.467357 2.239173 0.106980 -0.019745 14471.800000 0 0 1
21.424654 -11.919275 -19.834509 31.535578 -0.507694 2.251007 0.100009 -0.023650 -490317.000000 0 0 1
21.259554 -13.359175 -19.731909 31.934064 -0.561029 2.236859 0.090919 -0.013962 -157163.000000 0 0 1
19.757054 -13.736575 -19.621209 31.048776 -0.607547 2.254860 0.090978 -0.007320 245281.000000 0 0 1
19.080154 -13.313975 -20.752009 31.176274 -0.609242 2.299140 0.091403 0.002261 78022.000000 0 0 1
17.675554 -13.553775 -20.804609 30.478874 -0.654172 2.322099 0.080280 0.004681 501543.000000 0 0 1
17.043354 -13.098475 -22.120509 30.844171 -0.655261 2.370529 0.068101 0.000686 -380878.000000 0 0 1
17.420154 -13.790375 -23.278609 32.179650 -0.669618 2.379504 0.058334 0.002984 268775.000000 0 0 1
16.822654 -13.190075 -24.398309 32.438515 -0.664949 2.422100 0.067120 -0.010747 -142014.000000 0 0 1
16.913854 -14.124475 -25.625579 33.797183 -0.695770 2.431370 0.061085 -0.012833 11743.300000 0 0 1
15.993554 -15.229475 -25.490749 33.726977 -0.760931 2.427667 0.062366 -0.009929 642096.000000 0 0 1
15.839154 -15.946475 -26.726719 34.921145 -0.788775 2.442373 0.064128 -0.005825 -119258.000000 0 0 1
16.917954 -17.021175 -26.987309 36.114435 -0.788439 2.414744 0.058559 -0.005171 -140318.000000 0 0 1
18.239954 -16.536775 -27.028179 36.560680 -0.736463 2.402781 0.063543 -0.004598 -224265.000000 0 0 1
19.098154 -17.692575 -27.180439 37.636989 -0.747212 2.377736 0.080297 -0.006754 509478.000000 0 0 1
20.562954 -17.169475 -27.263069 38.221733 -0.695704 2.364973 0.096536 -0.005722 -58849.700000 0 0 1
20.931854 -16.673275 -26.004419 37.314480 -0.672634 2.341861 0.101406 -0.005573 -384604.000000 0 0 1
22.323354 -16.466375 -26.016449 38.030636 -0.635537 2.324154 0.105566 -0.008975 -308696.000000 0 0 1
22.884054 -15.856975 -24.708009 37.223773 -0.605963 2.296644 0.119113 -0.009498 134251.000000 0 0 1
22.562754 -14.495475 -24.371709 36.237782 -0.571050 2.308445 0.124172 -0.013430 -264723.000000 0 0 1
21.183954 -14.204175 -24.314009 35.237615 -0.590663 2.332288 0.120704 -0.006375 -25859.700000 0 0 1
20.814954 -12.896375 -23.603209 34.010150 -0.554687 2.337833 0.123288 -0.003309 -4697.470000 0 0 1
21.283854 -11.753175 -24.281809 34.361982 -0.504539 2.355545 0.129884 -0.020569 211285.000000 0 0 1
20.821954 -10.634875 -23.525409 33.167743 -0.472213 2.359281 0.114569 -0.020029 77364.200000 0 0 1
21.467254 -9.333775 -24.066709 33.573335 -0.410135 2.370056 0.112496 -0.025731 -259185.000000 0 0 1
20.973554 -8.247075 -23.402209 32.489500 -0.374642 2.375032 0.111418 -0.031343 -163872.000000 0 0 1
20.986754 -7.122575 -24.301509 32.889790 -0.327186 2.402199 0.091402 -0.027696 -373578.000000 0 0 1
20.380754 -5.830175 -23.707909 31.803003 -0.278622 2.412023 0.094643 -0.036547 513986.000000 0 0 1
18.995654 -6.020175 -23.387109 30.725140 -0.306910 2.435914 0.096709 -0.031845 344984.000000 0 0 1
18.438454 -5.012775 -22.597709 29.593259 -0.265450 2.439682 0.096774 -0.032712 -16783.600000 0 0 1
18.946654 -4.989375 -21.132009 28.817206 -0.257492 2.393977 0.093076 -0.026916 -656258.000000 0 0 1
18.431454 -6.002475 -20.244109 28.028060 -0.314833 2.377890 0.095241 -0.023746 56462.100000 0 0 1
18.961854 -7.339675 -20.343709 28.762636 -0.369315 2.356463 0.100404 -0.018381 -265441.000000 0 0 1
18.507954 -8.372775 -19.320709 28.034577 -0.424838 2.331145 0.096863 -0.020573 819644.000000 0 0 1
17.127154 -8.774475 -19.401309 27.326573 -0.473450 2.360266 0.086011 -0.022498 723385.000000 0 0 1
16.867054 -9.950475 -18.653109 27.045294 -0.532986 2.331869 0.099661 -0.017668 1168890.000000 0 0 1
15.309054 -10.248075 -18.469109 26.086360 -0.589901 2.357457 0.101389 -0.017036 1496770.000000 0 0 1
14.582754 -9.708175 -17.374109 24.673164 -0.587354 2.352050 0.116371 -0.018341 150635.000000 0 1 0
14.604454 -8.284975 -17.315909 24.119942 -0.516021 2.371589 0.122957 -0.044289 9786.670000 0 1 0
13.328254 -7.502975 -16.809509 22.726561 -0.512722 2.403334 0.120022 -0.032109 554388.000000 0 1 0
12.194154 -7.523675 -17.647009 22.731476 -0.552819 2.459610 0.108939 -0.036839 -420697.000000 0 1 0
11.430954 -6.402675 -17.315609 21.713850 -0.510578 2.493846 0.102357 -0.036677 1180330.000000 0 1 0
9.899454 -6.581275 -17.746509 21.360032 -0.586717 2.551390 0.092084 -0.030682 1468700.000000 0 1 0
9.640954 -6.462975 -19.129909 22.375689 -0.590560 2.596235 0.081235 -0.036947 1164730.000000 0 1 0
8.212454 -6.254975 -19.288509 21.877287 -0.650912 2.650182 0.076109 -0.040042 1296710.000000 0 1 0
7.833154 -5.823375 -20.702509 22.888073 -0.639281 2.701027 0.083773 -0.047473 -173262.000000 0 1 0
8.062954 -6.759575 -21.710409 24.125607 -0.697691 2.690315 0.095707 -0.040613 -140477.000000 0 1 0
7.316254 -6.458175 -22.847709 24.844585 -0.723183 2.737922 0.098173 -0.042364 -374802.000000 0 1 0
7.250254 -7.614875 -23.828209 26.044885 -0.809922 2.726032 0.089548 -0.041621 -241644.000000 0 0 1
6.556854 -8.758175 -23.365709 25.800277 -0.928156 2.703678 0.095392 -0.037983 74954.500000 0 0 1
6.359654 -9.605375 -24.456209 27.033582 -0.985967 2.701378 0.077119 -0.025300 286791.000000 0 0 1
5.410054 -10.832775 -24.260409 27.114298 -1.107617 2.678658 0.088858 -0.028924 448607.000000 0 0 1
6.016254 -11.820175 -23.468909 26.957402 -1.099989 2.627201 0.072305 -0.030000 124751.000000 0 0 1
5.185454 -12.953275 -23.455709 27.291877 -1.190014 2.604968 0.094206 -0.033412 -129629.000000 0 0 1
5.983454 -14.036475 -22.684709 27.338990 -1.167843 2.549468 0.083338 -0.027616 126758.000000 0 0 1
7.131154 -14.591375 -23.308309 28.408429 -1.116210 2.533032 0.048456 -0.014888 577119.000000 0 0 1
8.334754 -13.820575 -23.179309 28.244588 -1.028124 2.533368 0.068321 -0.023443 602299.000000 0 0 1
9.018154 -13.713775 -21.769009 27.263244 -0.989098 2.495554 0.063593 -0.016310 -318649.000000 0 0 1
9.490554 -14.852075 -21.029109 27.438625 -1.002189 2.444023 0.061186 -0.010601 5585.300000 0 0 1
8.494654 -15.577775 -20.372709 27.016171 -1.071564 2.425069 0.074284 -0.013758 -423078.000000 0 0 1
8.849054 -15.831175 -18.892609 26.188977 -1.061097 2.376612 0.068487 -0.015438 -256236.000000 0 0 1
9.915754 -16.720975 -18.808909 27.049736 -1.035530 2.339697 0.073217 -0.015927 -824397.000000 0 0 1
10.243654 -17.087975 -17.495009 26.514273 -1.030770 2.291394 0.090123 -0.019674 -42031.900000 0 0 1
9.210854 -17.920875 -16.655409 26.141925 -1.096033 2.261546 0.074072 -0.028915 -136116.000000 0 0 1
9.061454 -19.246975 -17.121609 27.307608 -1.130781 2.248480 0.092455 -0.035446 140123.000000 0 0 1
8.452054 -19.533175 -18.403909 28.136915 -1.162420 2.283767 0.082477 -0.021279 246706.000000 0 0 1
6.901754 -19.379775 -18.471809 27.648103 -1.228669 2.302454 0.075482 -0.023243 175516.000000 0 0 1
6.481954 -18.051775 -18.176309 26.424619 -1.226059 2.329326 0.087287 -0.024541 1267470.000000 0 0 1
5.046054 -18.054775 -17.900009 25.920028 -1.298264 2.333095 0.078459 -0.019042 1754210.000000 0 0 1
4.548854 -16.615975 -17.517009 24.568848 -1.303580 2.364530 0.060554 -0.005703 69069.400000 0 1 0
5.178254 -16.147475 -16.312809 23.530044 -1.260472 2.336821 0.045538 -0.005952 360600.000000 0 1 0
4.958154 -14.789675 -16.092909 22.412039 -1.247327 2.371789 0.031695 0.003540 21468.100000 0 1 0
10.861354 29.520625 -18.335509 36.409164 1.218243 2.098552 0.070833 -0.019546 -1033080.000000 0 0 1
9.816354 29.210425 -19.154909 36.283885 1.246597 2.126943 0.108498 -0.027994 -920657.000000 0 0 1
8.900054 28.400525 -18.475009 35.030369 1.267113 2.126334 0.096805 -0.027304 400315.000000 0 0 1
7.773954 27.696825 -19.314309 34.649546 1.297157 2.162070 0.107151 -0.030656 768074.000000 0 0 1
6.915754 28.637725 -19.960909 35.586301 1.333842 2.166288 0.114881 -0.041756 -158052.000000 0 0 1
6.117454 27.974125 -20.919109 35.462431 1.355503 2.201725 0.115141 -0.045437 366296.000000 0 0 1
5.058054 28.883425 -21.587809 36.412493 1.397435 2.205412 0.104436 -0.044063 760124.000000 0 0 1
3.909754 29.260325 -20.815409 36.121103 1.437963 2.184950 0.096269 -0.037413 758414.000000 0 0 1
2.984754 29.997225 -21.617009 37.094977 1.471622 2.192902 0.111524 -0.045622 -100247.000000 0 0 1
1.577054 30.291225 -20.994909 36.889451 1.518780 2.176244 0.125848 -0.046678 464566.000000 0 0 1
0.821954 29.117125 -20.953609 35.882256 1.542575 2.194388 0.132327 -0.061855 -157101.000000 0 0 1
0.130554 28.858325 -22.174709 36.394199 1.566272 2.225964 0.158161 -0.081247 -624043.000000 0 0 1
-0.619846 27.515225 -22.366909 35.464777 -1.548273 2.253225 0.166359 -0.074178 209282.000000 0 0 1
-1.883946 27.473025 -21.756509 35.095043 -1.502329 2.239451 0.167378 -0.073784 -117388.000000 0 0 1
-2.433146 26.177325 -21.669309 34.069510 -1.478114 2.260142 0.168380 -0.076748 -96466.900000 0 0 1
-3.507946 25.976025 -20.576609 33.323511 -1.436563 2.236332 0.118782 -0.075407 -1175480.000000 0 0 1
-4.676546 26.508325 -21.012809 34.148199 -1.396175 2.233616 0.116688 -0.069356 -1258470.000000 0 0 1
-5.764946 26.394625 -20.099909 33.673687 -1.355760 2.210431 0.093143 -0.067611 -184961.000000 0 0 1
-7.058446 26.943725 -20.736009 34.724171 -1.314584 2.210757 0.083160 -0.079053 -267801.000000 0 0 1
-8.211246 26.470025 -20.092509 34.231501 -1.270000 2.198095 0.076309 -0.060572 -368264.000000 0 0 1
-8.648646 27.217725 -18.946509 34.272056 -1.263129 2.156549 0.083756 -0.075653 316849.000000 0 0 1
-9.907246 26.665025 -18.188309 33.763762 -1.215059 2.139682 0.099766 -0.063202 567937.000000 0 0 1
-9.622146 25.583325 -17.311709 32.354095 -1.211053 2.135387 0.105850 -0.071183 -728377.000000 0 0 1
-10.749546 25.214025 -16.575209 32.031818 -1.167798 2.114677 0.073494 -0.053628 -479526.000000 0 0 1
-10.507346 24.474725 -15.184109 30.658990 -1.165277 2.088928 0.078125 -0.033868 -275995.000000 0 0 1
-9.813546 23.258725 -15.210009 29.472332 -1.171529 2.113062 0.088812 -0.037012 -273755.000000 0 0 1
-10.027346 22.444325 -14.070209 28.324303 -1.150636 2.090651 0.108191 -0.032630 -514735.000000 0 0 1
-9.286746 21.114125 -14.131109 27.050659 -1.156427 2.120453 0.098802 -0.016879 -574148.000000 0 0 1
-9.971046 19.990925 -14.686309 26.734743 -1.108126 2.152364 0.090021 -0.017336 32881.500000 0 0 1
-10.480746 20.018125 -16.024809 27.701369 -1.088477 2.187666 0.102475 -0.009753 430144.000000 0 0 1
-9.388346 20.030925 -17.144509 27.987733 -1.132507 2.230107 0.095631 -0.020222 36712.500000 0 0 1
-8.761946 18.808625 -17.235109 26.973784 -1.134842 2.263939 0.089511 -0.020577 -180598.000000 0 0 1
-7.740646 18.814025 -18.238809 27.322871 -1.180476 2.301682 0.083027 -0.025403 683135.000000 0 0 1
-7.128046 17.353025 -18.319009 26.220652 -1.181043 2.344303 0.067478 -0.022789 230868.000000 0 0 1
-8.117546 16.538025 -18.917509 26.405927 -1.114502 2.369441 0.086089 -0.030726 6428.380000 0 0 1
-7.714946 15.619325 -19.959909 26.493049 -1.112012 2.424016 0.076758 -0.031070 189733.000000 0 0 1
-6.482846 14.669425 -19.755409 25.445933 -1.154674 2.459679 0.052437 -0.021796 105009.000000 0 0 1
-6.838046 13.654225 -18.831109 24.244739 -1.106508 2.460220 0.038070 -0.017052 941243.000000 0 1 0
-5.707846 12.792325 -18.551009 23.245709 -1.151113 2.494832 0.027352 -0.011398 890620.000000 0 1 0
-4.683446 13.313925 -17.542209 22.514981 -1.232545 2.464081 0.034414 0.000509 -326104.000000 0 1 0
-4.025646 14.498725 -17.899409 23.383919 -1.299963 2.442549 0.041870 -0.013304 -433786.000000 0 1 0
-3.409446 14.924925 -16.673809 22.636113 -1.346210 2.398829 0.041357 0.000375 68221.500000 0 1 0
-2.600546 16.205425 -16.668909 23.392972 -1.411679 2.363937 0.074346 -0.009645 266801.000000 0 1 0
-3.411346 17.347925 -16.869509 24.437023 -1.376631 2.332736 0.066432 -0.014454 276168.000000 0 1 0
-2.532246 18.468325 -16.913109 25.170311 -1.434533 2.307631 0.084622 -0.019557 263167.000000 0 0 1
-3.228346 19.760025 -17.275209 26.444539 -1.408850 2.282681 0.098729 -0.025805 120735.000000 0 0 1
-3.735746 19.694125 -18.620809 27.359621 -1.383335 2.319370 0.098600 -0.032697 -222524.000000 0 0 1
-4.231646 20.890425 -19.154209 28.656594 -1.370937 2.302859 0.120446 -0.030954 -2902.530000 0 0 1
-3.244846 22.103425 -19.303809 29.525031 -1.425035 2.283407 0.113449 -0.042873 -656435.000000 0 0 1
-2.305446 21.825525 -20.329209 29.915637 -1.465556 2.317947 0.133956 -0.036661 -648248.000000 0 0 1
-1.203646 22.686025 -20.299609 30.466024 -1.517789 2.300036 0.125870 -0.040502 75770.500000 0 0 1
-0.118746 22.150525 -19.327609 29.397556 -1.565436 2.288234 0.147034 -0.040557 -769708.000000 0 0 1
-0.455446 22.366625 -17.997509 28.712082 -1.550436 2.248271 0.141481 -0.035657 -677377.000000 0 0 1
0.510354 21.718325 -17.216609 27.719266 1.547302 2.240950 0.148100 -0.033456 66376.700000 0 0 1
0.311154 21.893225 -15.677409 26.929376 1.556585 2.192188 0.143435 -0.039038 -88715.900000 0 0 1
-0.886046 21.345325 -15.201109 26.219872 -1.529310 2.189225 0.128100 -0.024721 -417667.000000 0 0 1
-0.958746 21.419325 -13.756709 25.474570 -1.526065 2.141254 0.144429 -0.027515 388099.000000 0 0 1
-1.903946 20.331425 -13.171909 24.300021 -1.477423 2.143675 0.098271 -0.021835 129355.000000 0 1 0
-1.400446 19.030025 -13.389409 23.310499 -1.497337 2.182660 0.090471 -0.010651 389264.000000 0 1 0
-2.290246 17.988925 -12.914609 22.262834 -1.444163 2.189644 0.069074 -0.006419 409424.000000 0 1 0
-1.690346 16.588725 -13.151109 21.236637 -1.469250 2.238603 0.040090 0.003949 -358505.000000 0 1 0
-0.741846 16.255525 -12.157009 20.312196 -1.525191 2.212434 0.028951 -0.001075 -170584.000000 0 1 0
-0.452646 14.899925 -12.045209 19.165065 -1.540427 2.250417 0.012551 -0.000154 362057.000000 0 1 0
0.424854 14.228725 -13.198609 19.412377 1.540946 2.318432 0.025762 0.005388 262365.000000 0 1 0
-0.271446 14.017425 -14.423709 20.114802 -1.551434 2.370385 0.032481 -0.004196 363720.000000 0 1 0
0.478954 13.085625 -15.230609 20.085677 1.534211 2.431470 0.031319 -0.006401 -126709.000000 0 1 0
-0.092946 12.789225 -16.622509 20.973333 -1.563529 2.485783 0.034014 -0.002002 -104945.000000 0 1 0
-0.101546 13.935625 -17.484809 22.359126 -1.563510 2.468663 0.053195 -0.005935 42936.100000 0 1 0
-0.195546 13.617625 -18.837009 23.244588 -1.556438 2.515601 0.062479 -0.014158 -278914.000000 0 1 0
-0.832546 14.747825 -19.550009 24.502945 -1.514404 2.494539 0.074781 -0.015564 -84917.500000 0 1 0
0.081254 15.814825 -19.723509 25.281062 1.565659 2.465733 0.091375 -0.019825 164826.000000 0 0 1
-0.648346 16.991625 -19.922109 26.192100 -1.532658 2.435057 0.115056 -0.031711 340302.000000 0 0 1
0.311054 18.197725 -20.053709 27.081455 1.553705 2.404604 0.130202 -0.034833 606390.000000 0 0 1
0.998754 18.295425 -21.294409 28.092204 1.516260 2.431066 0.138674 -0.044881 125504.000000 0 0 1
2.057054 19.241725 -21.294909 28.774096 1.464295 2.403974 0.149404 -0.042535 348971.000000 0 0 1
2.808454 19.254225 -22.644409 29.856019 1.425956 2.431734 0.161025 -0.053480 -399218.000000 0 0 1
3.703254 18.222025 -22.858809 29.466616 1.370297 2.458703 0.134463 -0.045327 -541873.000000 0 0 1
4.181354 18.226025 -24.193909 30.578047 1.345282 2.483595 0.133022 -0.055023 341717.000000 0 0 1
5.163854 17.072525 -24.544209 30.340644 1.277079 2.513168 0.093668 -0.041758 471414.000000 0 0 1
6.521054 17.291825 -24.157909 30.416047 1.210170 2.488567 0.086170 -0.027698 993711.000000 0 0 1
7.432754 16.204025 -24.464509 30.270918 1.140733 2.511860 0.087235 -0.023649 707979.000000 0 0 1
7.952354 16.044825 -25.923289 31.507035 1.110648 2.537078 0.075096 -0.031599 -388429.000000 0 0 1
8.957954 16.999625 -26.299299 32.571235 1.085822 2.510595 0.050277 -0.026168 468567.000000 0 0 1
9.323854 16.988125 -27.712099 33.815545 1.068840 2.531348 0.063664 -0.027085 256501.000000 0 0 1
9.872954 15.633325 -28.306899 33.810599 1.007513 2.562975 0.060894 -0.033208 -1244370.000000 0 0 1
10.968854 15.171925 -27.636199 33.380572 0.944820 2.546172 0.077024 -0.031033 -1157630.000000 0 0 1
11.202254 13.776225 -27.650009 32.860278 0.888083 2.570742 0.062926 -0.022394 -149792.000000 0 0 1
10.363554 12.823025 -26.778899 31.447459 0.891076 2.589720 0.069793 -0.019649 1147630.000000 0 0 1
8.937854 12.844625 -27.006629 31.212620 0.962865 2.616439 0.091165 -0.027818 801412.000000 0 0 1
8.245454 11.927625 -26.205889 29.950031 0.965940 2.636205 0.105887 -0.020661 660806.000000 0 0 1
6.692654 12.019125 -26.226359 29.615416 1.062722 2.658504 0.087925 -0.026576 406985.000000 0 0 1
6.107854 12.959525 -25.255919 29.036470 1.130369 2.625593 0.100120 -0.017552 1564560.000000 0 0 1
4.652154 12.905225 -25.216399 28.706343 1.224810 2.643355 0.116038 -0.038085 1760210.000000 0 0 1
4.058554 13.856525 -26.330219 30.029245 1.285867 2.640003 0.126069 -0.023517 -472789.000000 0 0 1
4.315154 13.439725 -27.632039 31.028637 1.260119 2.669313 0.121596 -0.033104 -26577.600000 0 0 1
3.994454 14.442925 -28.546259 32.240388 1.300973 2.658191 0.107175 -0.040739 -112711.000000 0 0 1
3.698354 13.895225 -29.935419 33.209703 1.310667 2.693802 0.136921 -0.045581 393842.000000 0 0 1
4.832754 13.176325 -30.440179 33.519778 1.219256 2.709582 0.114719 -0.047431 419244.000000 0 0 1
4.761154 13.004425 -31.836869 34.718437 1.219835 2.731294 0.107437 -0.049662 54130.900000 0 0 1
5.955554 12.070525 -32.315389 35.006436 1.112445 2.746932 0.099474 -0.042447 1296890.000000 0 0 1
7.315754 12.498825 -32.208789 35.314968 1.041244 2.719036 0.101679 -0.035376 841334.000000 0 0 1
7.772954 12.713925 -30.857979 34.267734 1.022056 2.691707 0.093423 -0.031798 -942226.000000 0 0 1
7.868154 11.481225 -29.960699 33.035887 0.970000 2.706696 0.096706 -0.030760 268978.000000 0 0 1
9.014554 10.632825 -30.223799 33.283587 0.867578 2.709447 0.085271 -0.021638 622483.000000 0 0 1
8.922554 9.309625 -29.672039 32.352913 0.806625 2.731632 0.093731 -0.028738 -508086.000000 0 0 1
10.127354 8.433125 -29.944119 32.715916 0.694369 2.726991 0.078919 -0.023867 -1597160.000000 0 0 1
11.275454 8.723325 -29.260999 32.549014 0.658470 2.688237 0.080139 -0.024357 -1197380.000000 0 0 1
12.021354 7.550125 -29.340139 32.593881 0.560796 2.690963 0.059536 -0.013360 -880699.000000 0 0 1
13.163654 7.450525 -28.324279 32.110075 0.515038 2.651097 0.054791 0.005658 516399.000000 0 0 1
14.008554 6.271225 -28.228859 32.131547 0.420916 2.643594 0.066720 -0.000122 1052080.000000 0 0 1
14.906654 6.014425 -29.327719 33.443934 0.383496 2.640216 0.061678 0.000289 -380806.000000 0 0 1
15.819254 4.828825 -29.060199 33.437427 0.296266 2.624160 0.061331 -0.005809 -565491.000000 0 0 1
16.661154 5.012725 -27.973899 32.943292 0.292248 2.585176 0.041375 -0.006776 -272728.000000 0 0 1
17.449254 3.881725 -27.746539 33.006282 0.218894 2.569268 0.068919 -0.008023 -142132.000000 0 0 1
18.193954 3.984825 -26.397739 32.306956 0.215615 2.527144 0.084442 -0.005204 247483.000000 0 0 1
19.237454 4.944325 -26.304959 32.961748 0.251571 2.494840 0.115371 -0.004559 363911.000000 0 0 1
19.916854 5.078225 -25.079059 32.425741 0.249652 2.455032 0.126075 -0.005089 710999.000000 0 0 1
21.104654 6.121925 -25.174709 33.416319 0.282326 2.423962 0.125690 -0.005145 528930.000000 0 0 1
20.737654 7.517525 -25.297409 33.563706 0.347772 2.424490 0.132155 0.000377 307485.000000 0 0 1
21.663354 8.254525 -26.099329 34.908639 0.364052 2.415308 0.136919 -0.016130 -478513.000000 0 0 1
21.654754 8.137025 -27.644709 36.046768 0.359438 2.444812 0.171311 -0.025722 267619.000000 0 0 1
20.463254 8.598025 -28.261779 35.936040 0.397772 2.475831 0.143634 -0.012083 295166.000000 0 0 1
19.317354 7.783225 -28.151969 35.018168 0.383016 2.504661 0.133475 -0.008820 -1302880.000000 0 0 1
18.097354 8.471625 -28.663019 34.940683 0.437815 2.532791 0.096457 0.008657 -1132920.000000 0 0 1
17.833554 8.217425 -30.008169 35.861566 0.431786 2.562168 0.088949 0.009314 659263.000000 0 0 1
16.781654 9.022225 -30.565029 36.017294 0.493292 2.584169 0.065407 0.008221 264567.000000 0 0 1
16.507254 8.930125 -32.092889 37.177817 0.495893 2.612424 0.042885 0.014311 228406.000000 0 0 1
15.942954 7.634925 -32.463049 36.963758 0.446618 2.642966 0.042110 0.013474 996425.000000 0 0 1
14.571054 7.753325 -32.857279 36.769967 0.489000 2.676077 0.047083 0.009720 652022.000000 0 0 1
13.813054 6.436325 -33.158899 36.493004 0.436046 2.710805 0.057333 -0.004022 139083.000000 0 0 1
13.439854 5.595325 -32.057049 35.207836 0.394499 2.715310 0.053536 -0.004864 154249.000000 0 0 1
12.755154 4.465025 -32.547969 35.242030 0.336725 2.748048 0.059685 -0.025814 -9195.170000 0 0 1
12.732954 3.337725 -31.427409 34.072725 0.256365 2.744949 0.074069 -0.028337 231782.000000 0 0 1
14.008954 2.733325 -31.268299 34.371913 0.192692 2.713369 0.067716 -0.029623 270684.000000 0 0 1
14.132254 1.765925 -30.200069 33.389868 0.124313 2.700927 0.096096 -0.029461 210370.000000 0 0 1
13.238754 0.468825 -30.325749 33.092831 0.035398 2.729749 0.112205 -0.030353 308704.000000 0 0 1
13.689754 -0.432575 -31.315309 34.179600 -0.031588 2.729286 0.114923 -0.035282 -72615.900000 0 0 1
14.701154 -1.230975 -30.741849 34.098394 -0.083538 2.694165 0.123078 -0.035262 14224.400000 0 0 1
15.039254 -2.584275 -31.499699 35.001267 -0.170173 2.690471 0.130598 -0.044646 -236472.000000 0 0 1
14.095854 -3.599275 -31.316849 34.531043 -0.250001 2.706708 0.127040 -0.043062 -133788.000000 0 0 1
14.169654 -4.682775 -32.198209 35.488479 -0.319180 2.707581 0.127207 -0.046350 -277775.000000 0 0 1
13.110154 -5.748775 -31.898969 34.963821 -0.413248 2.719765 0.115841 -0.041402 -82534.000000 0 0 1
13.461954 -6.525075 -30.745439 34.191853 -0.451337 2.688742 0.125309 -0.037350 423164.000000 0 0 1
13.135654 -7.919875 -30.992949 34.580814 -0.542571 2.682031 0.123862 -0.039394 -19791.100000 0 0 1
13.467054 -8.772875 -29.800989 33.858881 -0.577381 2.646980 0.093404 -0.038807 239401.000000 0 0 1
14.857154 -8.834475 -29.485169 34.178329 -0.536460 2.611353 0.105435 -0.035711 509127.000000 0 0 1
15.165354 -9.188475 -28.181479 33.295822 -0.544736 2.579979 0.102694 -0.027873 -8182.310000 0 0 1
15.217254 -10.728875 -27.863369 33.511802 -0.614105 2.552508 0.077946 -0.026331 -651090.000000 0 0 1
13.934654 -11.252475 -27.878469 33.136110 -0.679308 2.570539 0.067274 -0.035312 -482094.000000 0 0 1
14.039154 -12.666175 -28.104209 33.872945 -0.734031 2.549357 0.067240 -0.037303 238757.000000 0 0 1
-10.437246 -3.212275 -17.601709 20.714125 0.298570 2.586296 0.049162 -0.001675 -80073.500000 0 1 0
-11.342946 -2.629975 -18.471409 21.835112 0.227834 2.579140 0.068136 -0.015615 29565.600000 0 1 0
-12.121346 -3.623975 -19.161909 22.961685 0.290516 2.558051 0.064603 -0.008898 84043.900000 0 1 0
-12.977146 -3.020675 -20.285209 24.269744 0.228696 2.560426 0.071401 -0.025423 -52140.600000 0 1 0
-13.835546 -1.990875 -19.839609 24.269239 0.142915 2.527818 0.064334 -0.018493 -149501.000000 0 1 0
-14.895646 -1.795875 -20.739009 25.597107 0.119985 2.515305 0.055870 -0.008482 -53325.200000 0 0 1
-15.737746 -0.547075 -20.476409 25.831362 0.034748 2.486015 0.057981 -0.011280 36850.600000 0 0 1
-15.049846 0.651525 -20.773309 25.660333 -0.043264 2.514181 0.064139 -0.013345 -347294.000000 0 0 1
-15.797346 1.749625 -20.413109 25.871071 -0.110305 2.480028 0.067993 -0.008610 -308681.000000 0 0 1
-15.319346 3.044725 -21.064609 26.223471 -0.196194 2.503567 0.094687 -0.022116 -486922.000000 0 0 1
-14.097246 3.513225 -20.599109 25.207109 -0.244238 2.527323 0.105548 -0.024054 -388890.000000 0 0 1
-13.759346 4.712625 -21.241409 25.743463 -0.329981 2.541208 0.113043 -0.033329 1171640.000000 0 0 1
-12.393046 5.361425 -20.696609 24.711982 -0.408303 2.563512 0.087491 -0.026657 1075100.000000 0 1 0
-12.428646 6.238025 -19.593509 24.026855 -0.465172 2.524361 0.093995 -0.035274 -118002.000000 0 1 0
-11.172546 6.641825 -19.117009 23.117085 -0.536349 2.544484 0.064239 -0.021269 -516817.000000 0 1 0
-11.192946 7.145325 -17.710209 22.135700 -0.568161 2.498216 0.066217 -0.020340 -370496.000000 0 1 0
-11.697746 8.465425 -17.571109 22.743011 -0.626442 2.453713 0.067506 -0.029526 -246263.000000 0 1 0
-12.930846 8.374925 -16.898409 22.867058 -0.574736 2.402359 0.100618 -0.029143 -618351.000000 0 1 0
-13.709246 9.675925 -16.954909 23.854473 -0.614605 2.361381 0.112512 -0.031577 -653728.000000 0 1 0
-13.099846 10.737725 -16.289709 23.500198 -0.686628 2.336679 0.080313 -0.012608 -431488.000000 0 1 0
-13.902346 11.858425 -16.206509 24.424340 -0.706222 2.296336 0.085437 -0.019964 -467841.000000 0 1 0
-13.318646 13.147225 -15.522809 24.314470 -0.778921 2.263238 0.088726 -0.016621 -402338.000000 0 1 0
-13.176746 13.044925 -14.150409 23.324467 -0.780371 2.222670 0.098900 -0.022368 272289.000000 0 1 0
-12.703546 14.282125 -13.631009 23.476873 -0.843829 2.190279 0.088705 -0.021890 -634751.000000 0 1 0
-13.074946 14.494825 -12.098709 22.965908 -0.836854 2.125641 0.076934 -0.026522 288760.000000 0 1 0
-14.389746 14.865125 -11.739609 23.787710 -0.801646 2.086924 0.073395 -0.026914 382152.000000 0 1 0
-15.387546 13.877625 -12.011709 23.950912 -0.733849 2.096144 0.072112 -0.024482 189502.000000 0 1 0
-16.725646 14.093825 -11.230309 24.586642 -0.700210 2.045151 0.039097 -0.015155 348055.000000 0 1 0
-17.728946 13.154825 -11.518109 24.900437 -0.638360 2.051684 0.037989 -0.019256 300558.000000 0 1 0
-18.921846 13.459725 -10.789309 25.604875 -0.618291 2.005760 0.104932 -0.024903 321674.000000 0 0 1
-20.195846 13.088425 -11.575009 26.705053 -0.575021 2.019102 0.091031 -0.040581 -248005.000000 0 0 1
-20.517246 11.688725 -11.497209 26.263463 -0.517844 2.023907 0.116721 -0.043867 621000.000000 0 0 1
-21.777646 11.342425 -12.051109 27.352252 -0.480171 2.027051 0.140342 -0.043665 -8415.750000 0 0 1
-22.466946 10.140125 -11.458409 27.182364 -0.423964 2.005937 0.140003 -0.046101 -202547.000000 0 0 1
-21.808246 8.903925 -11.756309 26.326607 -0.387626 2.033709 0.145055 -0.049147 794864.000000 0 0 1
-22.448046 7.731725 -11.174909 26.240673 -0.331702 2.010711 0.147217 -0.044526 343103.000000 0 0 1
-21.454546 6.550625 -11.234009 25.088068 -0.296336 2.035081 0.175827 -0.041631 50187.500000 0 0 1
-21.281146 5.994125 -12.532609 25.414228 -0.274551 2.086484 0.182093 -0.047415 52889.700000 0 0 1
-20.114546 5.230325 -12.608309 24.308860 -0.254393 2.116092 0.180441 -0.053033 -359004.000000 0 1 0
-20.251946 3.913725 -13.487709 24.645016 -0.190899 2.149906 0.192034 -0.065579 -523442.000000 0 1 0
-21.127346 3.042425 -12.857109 24.918393 -0.143021 2.112934 0.173961 -0.062942 -32554.900000 0 1 0
-20.937046 1.786125 -13.424809 24.935429 -0.085103 2.139313 0.151946 -0.062289 -93688.500000 0 1 0
-21.949546 0.666425 -13.094109 25.567212 -0.030352 2.108476 0.168815 -0.056925 348330.000000 0 0 1
-23.211746 0.724325 -13.751509 26.989142 -0.031195 2.105423 0.127916 -0.044975 795506.000000 0 0 1
-23.772546 -0.594875 -13.843809 27.516156 0.025018 2.097996 0.119229 -0.050007 162719.000000 0 0 1
-25.137516 -0.766375 -14.566909 29.063325 0.030478 2.095796 0.122270 -0.039401 36871.700000 0 0 1
-26.236616 -0.288675 -13.849209 29.668905 0.011002 2.056456 0.165333 -0.055973 -1091140.000000 0 0 1
-27.400616 -0.462875 -14.572609 31.038185 0.016891 2.059527 0.152943 -0.038594 -157458.000000 0 0 1
-28.643376 0.049125 -13.750109 31.772801 -0.001715 2.018352 0.160607 -0.035776 85879.600000 0 0 1
-28.923166 -0.822675 -12.668409 31.586625 0.028436 1.983480 0.199178 -0.045987 -613382.000000 0 0 1
-29.969056 -0.390475 -11.888709 32.243420 0.013029 1.948425 0.221505 -0.048968 -586085.000000 0 0 1
-30.112196 -1.071975 -10.490609 31.905271 0.035584 1.905834 0.221778 -0.063320 -213548.000000 0 0 1
-30.577836 -2.413075 -10.512009 32.424208 0.078753 1.900965 0.225788 -0.054296 357075.000000 0 0 1
-29.886186 -3.338375 -11.341409 32.139639 0.111242 1.931443 0.225777 -0.054013 -298246.000000 0 0 1
-30.110276 -4.739475 -10.875609 32.363099 0.156123 1.913516 0.225772 -0.054238 236010.000000 0 0 1
-31.387526 -5.295175 -11.191509 33.741154 0.167129 1.908888 0.191890 -0.047350 491977.000000 0 0 1
-31.640156 -6.620975 -10.795309 34.080426 0.206282 1.893108 0.187319 -0.046236 75915.100000 0 0 1
-30.745956 -7.710575 -11.469609 33.709326 0.245716 1.917979 0.171299 -0.054195 932059.000000 0 0 1
-29.374616 -7.697575 -11.040409 32.311164 0.256286 1.919511 0.157456 -0.047003 635270.000000 0 0 1
-28.653836 -8.750475 -11.660209 32.149239 0.296391 1.941949 0.150239 -0.050532 -790498.000000 0 0 1
-27.205846 -8.755475 -11.219409 30.703282 0.311356 1.944874 0.142318 -0.058927 -1343040.000000 0 0 1
-26.515516 -7.581775 -11.601609 29.919111 0.278506 1.969003 0.125597 -0.056352 -255357.000000 0 0 1
-25.136026 -7.603075 -11.415109 28.634441 0.293728 1.980840 0.143222 -0.063077 -735054.000000 0 0 1
-24.607346 -7.409775 -9.977009 27.567498 0.292484 1.941114 0.150863 -0.059098 -603571.000000 0 0 1
-24.887846 -6.092275 -9.451009 27.310112 0.240068 1.924167 0.154654 -0.048053 -3585.020000 0 0 1
-26.200746 -5.892575 -9.031509 28.333190 0.221220 1.895218 0.167727 -0.054460 -873199.000000 0 0 1
-26.377486 -4.484475 -8.474009 28.065835 0.168401 1.877516 0.198693 -0.064252 -375077.000000 0 0 1
-25.988276 -4.497075 -7.137709 27.323269 0.171346 1.835094 0.189181 -0.060150 371196.000000 0 0 1
-25.936946 -3.129475 -6.711209 26.973303 0.120077 1.822247 0.247392 -0.061419 -103590.000000 0 0 1
-25.607086 -2.999775 -5.205809 26.302508 0.116615 1.770032 0.223190 -0.053821 -236894.000000 0 0 1
-24.241346 -3.223275 -4.989009 24.958416 0.132191 1.772045 0.146993 -0.039979 -189533.000000 0 1 0
-23.890646 -2.778475 -3.681809 24.331843 0.115780 1.722696 0.110201 -0.035798 -229887.000000 0 1 0
-22.559746 -3.303275 -3.137909 23.015217 0.145390 1.707563 0.099983 -0.020786 -247595.000000 0 1 0
-22.546746 -4.675875 -2.895209 23.207796 0.204487 1.695874 0.130964 -0.015040 476492.000000 0 1 0
-21.224546 -5.039275 -2.538509 21.961777 0.233110 1.686643 0.095009 -0.011754 -134053.000000 0 1 0
-20.946646 -6.556375 -2.476609 22.088042 0.303344 1.683157 0.084989 -0.012946 -137138.000000 0 1 0
-21.580446 -7.194275 -1.369709 22.789237 0.321784 1.630936 0.096761 -0.004670 973055.000000 0 1 0
-22.691146 -8.022775 -1.755909 24.131643 0.339846 1.643624 0.120943 -0.018482 426380.000000 0 1 0
-23.236946 -8.819475 -0.600509 24.861605 0.362750 1.594953 0.137872 -0.022143 193719.000000 0 1 0
-22.245346 -9.795575 -0.283809 24.308213 0.414794 1.582472 0.113079 -0.010349 618376.000000 0 1 0
-22.430046 -10.322475 1.052091 24.713707 0.431310 1.528212 0.091411 -0.011808 313130.000000 0 1 0
-21.134546 -10.949075 1.645491 23.859147 0.477995 1.501775 0.097248 -0.008841 14645.900000 0 1 0
-20.609846 -12.121275 1.100891 23.935392 0.531646 1.524786 0.103622 -0.012555 219394.000000 0 1 0
-19.392746 -12.332075 1.804291 23.052421 0.566408 1.492447 0.079597 -0.021455 -17738.100000 0 1 0
-18.657446 -13.559975 1.257091 23.098776 0.628478 1.516347 0.070409 -0.017032 -778906.000000 0 1 0
-19.477946 -14.661775 1.293191 24.413733 0.645251 1.517802 0.091890 -0.018119 -107037.000000 0 1 0
-19.025846 -15.796775 0.560391 24.735297 0.692933 1.548139 0.093636 -0.020403 -337062.000000 0 1 0
-17.948646 -16.686075 1.211191 24.536625 0.748960 1.521414 0.100578 -0.016136 -1150900.000000 0 1 0
-16.712746 -16.050475 1.144091 23.200055 0.765187 1.521462 0.102546 -0.012322 -861562.000000 0 1 0
-15.692446 -16.804175 1.738691 23.057671 0.819595 1.495318 0.105988 -0.009862 -28427.900000 0 1 0
-15.584446 -16.626575 3.254891 23.019823 0.817740 1.428926 0.110200 -0.021122 -291787.000000 0 1 0
-14.962246 -15.354975 3.621591 21.743044 0.798351 1.403453 0.061561 -0.017988 589152.000000 0 1 0
-14.125446 -15.384675 4.772391 21.424102 0.828043 1.346154 0.029676 -0.010630 69248.700000 0 1 0
-14.831246 -15.670475 6.145591 22.434302 0.812905 1.293312 0.076659 -0.018380 -636121.000000 0 1 0
-15.488046 -14.570375 6.740791 22.307255 0.754878 1.263818 0.057898 -0.015546 237509.000000 0 1 0
-15.846946 -14.794075 8.113091 23.147626 0.751050 1.212698 0.069500 -0.014769 -190189.000000 0 1 0
-16.817746 -15.882175 8.585891 24.673824 0.756795 1.215385 0.069989 -0.004453 -321296.000000 0 1 0
-16.191246 -17.163575 8.497491 25.078917 0.814541 1.225123 0.076784 -0.011752 117501.000000 0 0 1
-17.031046 -18.260675 8.767991 26.464815 0.820226 1.233107 0.082747 -0.017460 -54311.500000 0 0 1
-16.866546 -18.687975 10.271691 27.188755 0.836583 1.183386 0.107101 -0.022296 101776.000000 0 0 1
-15.526146 -19.071975 10.478091 26.731850 0.887528 1.168024 0.064355 -0.010907 -18088.600000 0 0 1
-15.278746 -19.596975 11.730391 27.478784 0.908589 1.129747 0.069534 -0.020081 700075.000000 0 0 1
-13.845046 -20.247475 11.857491 27.244185 0.971032 1.120502 0.058673 -0.017246 939352.000000 0 0 1
-12.799346 -19.285875 11.920691 26.035958 0.984875 1.095215 0.063539 -0.020632 -541950.000000 0 0 1
-11.619746 -20.024775 12.113991 26.129655 1.045012 1.088730 0.064190 -0.024859 -944041.000000 0 0 1
-10.439946 -19.258575 12.616891 25.279856 1.074044 1.048249 0.064911 -0.024214 -828989.000000 0 0 1
-9.927346 -18.430175 11.620291 23.942738 1.076712 1.064048 0.055357 -0.027424 -816363.000000 0 1 0
-8.839246 -17.713375 12.086291 23.194274 1.107937 1.022669 0.051657 -0.019860 -376747.000000 0 1 0
-7.868946 -17.091475 11.045291 21.818278 1.139326 1.039977 0.026388 -0.015917 284125.000000 0 1 0
-6.920046 -18.003675 10.530391 21.975179 1.203838 1.071059 0.024812 -0.013811 20637.800000 0 1 0
-6.117346 -17.311175 9.583991 20.711146 1.231118 1.089706 0.019875 -0.007555 552312.000000 0 1 0
-4.939146 -18.084075 8.902691 20.752996 1.304178 1.127429 0.019148 -0.010085 772756.000000 0 1 0
-3.679846 -18.058175 9.551291 20.757314 1.369771 1.092642 0.033823 -0.017034 -326798.000000 0 1 0
-2.712646 -18.592075 8.684291 20.698807 1.425915 1.137841 0.044184 -0.017172 -389224.000000 0 1 0
-1.372046 -18.852575 9.373691 21.099009 1.498147 1.110435 0.049861 -0.025147 -153248.000000 0 1 0
-0.458446 -19.411975 8.418491 21.163788 1.547184 1.161703 0.058092 -0.021018 -141895.000000 0 1 0
0.718854 -19.815675 9.073791 21.806224 -1.534535 1.141633 0.065978 -0.022947 -570758.000000 0 1 0
1.822854 -20.353075 8.185091 22.012864 -1.481473 1.189814 0.080577 -0.035676 -257855.000000 0 1 0
1.664154 -21.676475 7.694391 23.061713 -1.494174 1.230630 0.084815 -0.033124 -213620.000000 0 1 0
1.977854 -22.609475 8.704091 24.307642 -1.483539 1.204585 0.092740 -0.037918 -109696.000000 0 1 0
1.900954 -24.088375 8.288891 25.545433 -1.492044 1.240338 0.096576 -0.035432 85351.700000 0 0 1
2.065754 -24.979775 9.346391 26.750916 -1.488287 1.213881 0.103372 -0.041245 -2705.200000 0 0 1
1.621554 -26.222075 8.920791 27.745399 -1.509036 1.243459 0.108204 -0.037375 -987090.000000 0 0 1
1.568654 -27.274555 10.032591 29.103520 -1.513346 1.218855 0.121016 -0.042618 183618.000000 0 0 1
0.622754 -27.043285 11.053691 29.221758 -1.547772 1.182870 0.110486 -0.045341 890942.000000 0 0 1
-0.756546 -27.225195 10.646891 29.242775 1.543015 1.198145 0.094957 -0.032787 553890.000000 0 0 1
-1.629046 -27.424105 11.887991 29.934255 1.511464 1.162401 0.091658 -0.042048 -254132.000000 0 0 1
-1.232546 -28.553015 12.567391 31.220717 1.527656 1.156513 0.090011 -0.046424 -227016.000000 0 0 1
-1.653046 -28.419005 13.883191 31.671997 1.512695 1.117042 0.089698 -0.053739 -491580.000000 0 0 1
-1.013246 -29.462575 14.815691 32.993555 1.536419 1.105097 0.074059 -0.029329 119555.000000 0 0 1
-1.097746 -29.001115 16.152691 33.214141 1.532963 1.062923 0.080727 -0.024577 22521.200000 0 0 1
-0.680246 -29.968235 17.093991 34.507425 1.548101 1.052534 0.073628 -0.016521 -111234.000000 0 0 1
-1.101046 -29.720225 18.576891 35.065723 1.533766 1.012463 0.066610 -0.006760 -39751.300000 0 0 1
-2.478146 -29.969495 18.736191 35.431013 1.488295 1.013601 0.060427 -0.004698 -56689.500000 0 0 1
-2.918746 -29.721105 20.080191 35.987181 1.472906 0.978845 0.081262 -0.010804 1363130.000000 0 0 1
-4.463246 -29.990835 20.387991 36.538212 1.423060 0.978833 0.107908 -0.022508 1370270.000000 0 0 1
-5.239146 -28.951795 19.816491 35.473207 1.391773 0.978060 0.093996 -0.020425 316218.000000 0 0 1
-6.350646 -28.533205 20.646091 35.787366 1.351796 0.955856 0.105247 -0.029954 635274.000000 0 0 1
-6.110546 -27.514925 21.811991 35.639484 1.352262 0.912187 0.141412 -0.039467 -540432.000000 0 0 1
-5.412246 -28.057535 22.916091 36.628744 1.380239 0.894856 0.147511 -0.039067 27980.500000 0 0 1
-5.161646 -27.108445 23.957491 36.544107 1.382641 0.855849 0.159931 -0.036459 -211218.000000 0 0 1
-4.125746 -27.552775 24.996991 37.430292 1.422161 0.839510 0.180758 -0.034861 -201421.000000 0 0 1
-4.562746 -28.583705 25.864091 38.817497 1.412504 0.841561 0.174073 -0.035895 213861.000000 0 0 1
-3.981946 -29.856975 25.561991 39.505825 1.438211 0.867096 0.151457 -0.035694 110941.000000 0 0 1
-4.300546 -30.949415 26.583191 41.024712 1.432726 0.865867 0.156708 -0.027899 84492.600000 0 0 1
-3.581546 -30.764495 27.784391 41.608341 1.454900 0.839601 0.167243 -0.042081 88306.900000 0 0 1
-3.934646 -31.744675 28.754991 43.012270 1.447479 0.838566 0.150521 -0.052864 -370794.000000 0 0 1
-3.232346 -31.602955 30.125291 43.780452 1.468871 0.811930 0.187966 -0.058264 280340.000000 0 0 1
-1.837846 -31.860035 30.050291 43.834456 1.513175 0.815451 0.185614 -0.059364 -81.554200 0 0 1
-1.274146 -31.588255 31.287191 44.478418 1.530482 0.790593 0.185237 -0.071190 -255734.000000 0 0 1
-29.114996 2.766925 -9.815909 30.849488 -0.094750 1.894613 0.213676 -0.050571 -820831.000000 0 0 1
-29.886756 2.478325 -10.900409 31.908920 -0.082735 1.919426 0.196684 -0.067164 -883282.000000 0 0 1
-30.797436 3.506025 -11.060709 32.910690 -0.113353 1.913551 0.158187 -0.059656 -621857.000000 0 0 1
-31.686526 3.409525 -12.302309 34.161492 -0.107189 1.939195 0.148026 -0.052426 119227.000000 0 0 1
-32.757876 2.465925 -12.126509 35.017302 -0.075136 1.924421 0.170927 -0.055287 606154.000000 0 0 1
-33.574596 2.492225 -13.320209 36.206251 -0.074094 1.947544 0.165133 -0.049869 727505.000000 0 0 1
-34.976555 1.867325 -12.980409 37.354214 -0.053337 1.925695 0.150419 -0.041541 544082.000000 0 0 1
-34.872720 0.474125 -12.785009 37.145495 -0.013595 1.922169 0.176616 -0.039396 -910787.000000 0 0 1
-36.088386 -0.182375 -12.810709 38.295158 0.005054 1.911898 0.134788 -0.043730 -731572.000000 0 0 1
-36.066886 -1.642975 -12.312909 38.146131 0.045522 1.899464 0.166211 -0.046161 -115466.000000 0 0 1
-35.668195 -2.528175 -13.321009 38.158368 0.070762 1.927405 0.147619 -0.032700 146698.000000 0 0 1
-35.204607 -3.777475 -12.829909 37.659530 0.106892 1.918438 0.171604 -0.043084 52943.900000 0 0 1
-35.162314 -4.957175 -13.841509 38.112324 0.140057 1.942471 0.149798 -0.043094 -25897.800000 0 0 1
-34.952900 -6.189675 -13.153409 37.855375 0.175269 1.925662 0.160109 -0.050766 146768.000000 0 0 1
-35.145505 -7.318875 -14.039909 38.547263 0.205311 1.943598 0.156653 -0.041700 -471689.000000 0 0 1
-34.660363 -8.637075 -13.387009 38.146452 0.244218 1.929368 0.142510 -0.041528 -577769.000000 0 0 1
-33.287156 -8.872875 -13.469509 36.989056 0.260499 1.943515 0.142251 -0.043192 -416322.000000 0 0 1
-32.806886 -9.356075 -14.683209 37.140604 0.277811 1.977236 0.137117 -0.046736 -461081.000000 0 0 1
-31.491906 -10.114575 -14.352909 36.056216 0.310773 1.980209 0.126436 -0.039723 -114483.000000 0 0 1
-31.712846 -11.271675 -13.565709 36.287514 0.341503 1.953942 0.113292 -0.033868 463678.000000 0 0 1
-30.582016 -12.145475 -13.501109 35.567572 0.378042 1.960150 0.119590 -0.031681 136952.000000 0 0 1
-30.925696 -13.599675 -13.759109 36.478252 0.414300 1.957553 0.135354 -0.029523 -149860.000000 0 0 1
-31.090676 -13.749875 -15.124109 37.207900 0.416391 1.989390 0.132987 -0.035846 -101287.000000 0 0 1
-31.351886 -15.077475 -15.562609 38.111229 0.448260 1.991439 0.143281 -0.040765 -158355.000000 0 0 1
-30.347826 -16.235775 -15.352609 37.686781 0.491246 1.990373 0.126839 -0.027141 152544.000000 0 0 1
-29.038686 -15.888075 -15.777509 36.668869 0.500641 2.015588 0.132938 -0.038705 -124334.000000 0 0 1
-28.174556 -17.021475 -15.660809 36.452669 0.543461 2.014869 0.136914 -0.038952 283559.000000 0 0 1
-26.722246 -16.676775 -16.035409 35.345828 0.557936 2.041678 0.142038 -0.055323 -133504.000000 0 0 1
-26.506336 -16.545875 -17.389309 35.759472 0.558041 2.078630 0.137244 -0.047672 -481309.000000 0 0 1
-25.174536 -16.528575 -17.844409 35.005342 0.580972 2.105705 0.111382 -0.032547 -376729.000000 0 0 1
-24.984846 -15.933275 -19.299609 35.363635 0.567692 2.148077 0.113621 -0.022207 136506.000000 0 0 1
-25.607406 -16.786975 -20.304909 36.740047 0.580268 2.156354 0.106939 -0.035032 623184.000000 0 0 1
-26.921526 -16.288975 -20.546209 37.579861 0.544127 2.149256 0.122869 -0.034276 -295467.000000 0 0 1
-27.669556 -17.161875 -21.533909 39.036438 0.555172 2.155121 0.127728 -0.041748 -571272.000000 0 0 1
-27.105046 -17.341975 -22.840309 39.460199 0.569176 2.188076 0.118702 -0.021312 -215273.000000 0 0 1
-27.800316 -18.221275 -23.633909 40.785218 0.580186 2.188878 0.094669 -0.022996 -694354.000000 0 0 1
-27.077476 -18.531775 -25.012409 41.258174 0.600178 2.222122 0.089944 -0.022916 213500.000000 0 0 1
-25.785666 -19.070175 -24.893509 40.598755 0.636789 2.230850 0.100338 -0.024051 -283441.000000 0 0 1
-25.709766 -20.406775 -24.391609 40.894732 0.670910 2.209866 0.085101 -0.020835 -617802.000000 0 0 1
-24.329946 -21.032975 -24.092309 40.184221 0.712846 2.213731 0.077992 -0.008144 328956.000000 0 0 1
-23.593546 -21.060875 -25.315179 40.510173 0.728742 2.245812 0.079302 -0.013542 1087380.000000 0 0 1
-22.164046 -21.267275 -25.141269 39.694147 0.764753 2.256703 0.084188 -0.023217 1801970.000000 0 0 1
-21.342746 -21.035875 -26.442249 39.965151 0.778157 2.293790 0.081979 -0.027155 74610.100000 0 0 1
-21.747646 -22.029975 -27.381739 41.328434 0.791847 2.295001 0.107160 -0.023012 -125215.000000 0 0 1
-22.085346 -21.403575 -28.645859 42.029284 0.769723 2.320701 0.103042 -0.022036 330612.000000 0 0 1
-21.010946 -21.415375 -29.803849 42.288858 0.794930 2.352893 0.102483 -0.027001 595592.000000 0 0 1
-20.776146 -22.718975 -30.408219 43.271929 0.830036 2.350015 0.098609 -0.025936 259445.000000 0 0 1
-19.971346 -22.717975 -31.606699 43.748651 0.849650 2.378152 0.099847 -0.026995 283889.000000 0 0 1
-19.821946 -24.102475 -32.272689 44.892820 0.882544 2.372991 0.105843 -0.028968 -421515.000000 0 0 1
-19.097046 -24.143475 -33.437109 45.449365 0.901579 2.397496 0.119541 -0.029592 -296261.000000 0 0 1
-19.875946 -24.093875 33.194278 45.578812 0.881033 0.754983 0.121229 -0.021656 -348072.000000 0 0 1
-19.073346 -24.157675 31.915513 44.339438 0.902469 0.767283 0.124712 -0.021239 -637239.000000 0 0 1
-18.310246 -22.996575 31.742137 43.262811 0.898367 0.747038 0.112918 -0.023189 -281487.000000 0 0 1
-17.882446 -22.918575 30.394147 42.057664 0.908208 0.763127 0.117797 -0.020337 -154001.000000 0 0 1
-17.096746 -21.626875 30.047087 40.778032 0.901855 0.742405 0.088746 -0.012651 181331.000000 0 0 1
-17.864246 -20.409175 30.066117 40.492433 0.851794 0.733984 0.092193 -0.021098 191771.000000 0 0 1
-17.087246 -19.280075 29.747457 39.352338 0.845622 0.713729 0.084260 -0.020797 -31694.300000 0 0 1
-16.105346 -18.809675 30.844527 39.554657 0.862698 0.676458 0.085923 -0.024429 30532.000000 0 0 1
-15.424746 -17.663175 30.427217 38.415180 0.852946 0.656616 0.091848 -0.025487 -139940.000000 0 0 1
-14.658446 -17.122275 31.499237 38.732987 0.862769 0.621097 0.083609 -0.020683 -8789.940000 0 0 1
-14.035046 -15.743775 31.238807 37.692334 0.842716 0.593865 0.076418 -0.015801 -1123420.000000 0 0 1
-12.850046 -15.897275 30.549857 36.757867 0.891004 0.589694 0.080004 -0.023165 -759166.000000 0 0 1
-12.306546 -14.620575 30.231027 35.764889 0.871124 0.563724 0.076405 -0.020827 999416.000000 0 0 1
-10.736046 -14.504775 30.158327 35.145069 0.933614 0.539219 0.122061 -0.035628 1039620.000000 0 0 1
-10.504946 -13.137375 29.784517 34.206169 0.896285 0.514101 0.121577 -0.029964 831443.000000 0 0 1
-9.120946 -12.770875 29.970547 33.830764 0.950604 0.482374 0.115293 -0.034181 944318.000000 0 0 1
-8.890946 -11.283675 29.639277 32.937167 0.903448 0.451317 0.085019 -0.027327 22838.300000 0 0 1
-9.572146 -10.462875 30.608107 33.733573 0.829828 0.433863 0.075976 -0.025378 461879.000000 0 0 1
-9.329646 -9.097775 30.324587 33.005945 0.772816 0.405865 0.058232 -0.018885 -38437.300000 0 0 1
-10.069946 -8.204075 31.329157 33.914993 0.683646 0.393023 0.040997 -0.024914 851495.000000 0 0 1
-11.507846 -8.165075 31.193987 34.236878 0.617088 0.424797 0.064243 -0.033078 1141960.000000 0 0 1
-12.214846 -7.603675 32.297725 35.357621 0.556796 0.419092 0.048316 -0.033360 -163394.000000 0 0 1
-11.954346 -6.132975 32.674151 35.328741 0.474020 0.390128 0.037060 -0.024046 -569586.000000 0 0 1
-12.344746 -5.164275 31.729717 34.435991 0.396214 0.399099 0.053310 -0.028333 313288.000000 0 0 1
-12.647846 -3.931375 32.420097 35.021228 0.301366 0.387843 0.041107 -0.029004 -328807.000000 0 0 1
-12.328946 -2.681875 31.586967 34.013701 0.214190 0.380028 0.041526 -0.012382 1291020.000000 0 0 1
-10.902846 -2.401575 31.656137 33.567107 0.216808 0.339053 0.045479 -0.020645 1410460.000000 0 0 1
-10.638446 -1.185075 30.982757 32.779753 0.110938 0.332652 0.038682 -0.014879 113203.000000 0 0 1
-9.166846 -0.728975 31.162767 32.491238 0.079356 0.286945 0.050403 -0.015339 220883.000000 0 0 1
-8.835146 -0.506075 32.525756 33.708170 0.057217 0.265650 0.062631 -0.042124 -868217.000000 0 0 1
-7.528846 -0.065475 32.614543 33.472321 0.008696 0.226877 0.093176 -0.044980 -832218.000000 0 0 1
-7.172046 0.651525 -33.914709 34.670884 -0.090594 2.932357 0.135074 -0.058900 -540833.000000 0 0 1
-7.796146 1.898925 -33.740689 34.681694 -0.238920 2.908114 0.102439 -0.044274 334977.000000 0 0 1
-7.151146 2.914225 33.304111 34.187650 -0.386971 0.227842 0.124695 -0.045469 221860.000000 0 0 1
-7.853346 4.265525 33.497774 34.669448 -0.497567 0.260721 0.130374 -0.050840 368009.000000 0 0 1
-9.083446 4.312325 32.777213 34.284848 -0.443241 0.297657 0.080335 -0.026668 318597.000000 0 0 1
-9.822046 5.436225 33.162920 35.011490 -0.505505 0.326405 0.077399 -0.020250 -357018.000000 0 0 1
-11.161846 5.535625 32.412459 34.724595 -0.460396 0.366980 0.050260 -0.007764 -239390.000000 0 0 1
-11.752246 6.806425 32.446110 35.173751 -0.524955 0.396412 0.062235 -0.008979 774852.000000 0 0 1
-12.951546 6.812725 31.639147 34.859596 -0.484243 0.433225 0.036781 -0.005918 1198290.000000 0 0 1
-13.824346 8.153525 31.722937 35.551895 -0.532882 0.468383 0.064489 -0.013644 497790.000000 0 0 1
-14.642546 8.217125 32.885928 36.924376 -0.511387 0.472069 0.064472 -0.012402 -91764.100000 0 0 1
-15.321846 9.393725 32.958489 37.540153 -0.549992 0.499227 0.079219 -0.007181 -406424.000000 0 0 1
-16.202946 9.540725 -33.649149 38.546415 -0.532163 2.632017 0.087660 -0.011151 -40273.500000 0 0 1
-15.367546 9.743625 -32.522219 37.266532 -0.565073 2.631486 0.092620 -0.015848 264294.000000 0 0 1
-16.091446 10.156925 -31.351119 36.674111 -0.563046 2.596071 0.091488 -0.012766 -293748.000000 0 0 1
-15.175446 10.715025 -30.180679 35.439798 -0.614793 2.589834 0.106200 -0.019397 527479.000000 0 0 1
-14.391546 11.837925 -30.518169 35.757680 -0.688347 2.593408 0.109819 -0.018195 70396.000000 0 0 1
-13.248046 11.487325 -31.303239 35.879829 -0.714336 2.630983 0.122069 -0.022256 -609223.000000 0 0 1
-12.346946 12.766925 -31.305559 35.992769 -0.802120 2.625540 0.109231 -0.019859 -97570.500000 0 0 1
-12.655546 13.741025 -32.269299 37.286542 -0.826497 2.616826 0.095709 -0.015774 -129376.000000 0 0 1
-11.861946 14.907325 -32.128259 37.351829 -0.898675 2.606364 0.088501 -0.028066 -316065.000000 0 0 1
-12.270946 15.883325 -30.993449 36.924924 -0.913008 2.566908 0.097507 -0.024997 -145201.000000 0 0 1
-13.378846 16.689325 -31.297069 37.908226 -0.895056 2.542063 0.093894 -0.024058 185138.000000 0 0 1
-13.806046 17.557625 -30.206169 37.567136 -0.904448 2.504886 0.077579 -0.014005 484713.000000 0 0 1
-15.226046 18.172125 -30.410379 38.559691 -0.873381 2.479418 0.066794 -0.022714 -11070.700000 0 0 1
-15.196946 19.183625 -31.388479 39.801950 -0.900840 2.479352 0.067112 -0.030226 33392.200000 0 0 1
-16.466346 19.635625 -31.805209 40.844456 -0.872961 2.463373 0.058980 -0.027295 181675.000000 0 0 1
-17.156846 20.610125 -30.812579 40.847884 -0.876581 2.425422 0.056575 -0.037755 -491661.000000 0 0 1
-16.511346 21.873025 -30.983399 41.364535 -0.924184 2.417398 0.064235 -0.035665 582119.000000 0 0 1
-17.255546 23.034725 -30.565859 41.983617 -0.927865 2.386259 0.044499 -0.033485 193049.000000 0 0 1
-18.604746 23.276125 -31.279209 43.200734 -0.896479 2.380443 0.045750 -0.035156 -404897.000000 0 0 1
-19.707846 22.705325 -30.636099 42.924370 -0.855954 2.365595 0.051469 -0.034487 432968.000000 0 0 1
-20.848546 22.710725 -31.524209 44.093249 -0.828123 2.367340 0.071246 -0.038024 -381662.000000 0 0 1
-22.062546 21.948925 -31.007799 43.931706 -0.782817 2.354374 0.082312 -0.042437 -891132.000000 0 0 1
-22.908946 22.678625 -30.101329 44.104760 -0.780346 2.321969 0.096030 -0.039096 459296.000000 0 0 1
-23.891146 23.417525 -30.787859 45.464927 -0.775387 2.314717 0.093543 -0.031130 61112.500000 0 0 1
-25.171356 22.606925 -31.253879 46.059474 -0.731776 2.316590 0.086528 -0.036838 29000.800000 0 0 1
-24.907446 21.729525 -32.315969 46.226345 -0.717362 2.344908 0.101304 -0.033778 -100678.000000 0 0 1
-26.046356 21.588425 -33.118899 47.342731 -0.692084 2.345572 0.109124 -0.028750 -275678.000000 0 0 1
-25.963526 20.587825 33.599839 47.190173 -0.670428 0.778441 0.117752 -0.021672 -344308.000000 0 0 1
-25.662626 19.245025 -33.805979 46.602420 -0.643453 2.382430 0.107362 -0.029397 314301.000000 0 0 1
-25.333326 18.411025 32.943641 45.453567 -0.628455 0.760088 0.100965 -0.037260 -179415.000000 0 0 1
-24.932146 16.968725 33.408130 45.007252 -0.597584 0.734325 0.083113 -0.026628 1276600.000000 0 0 1
-26.094086 16.115725 33.752563 45.605410 -0.553261 0.737577 0.068664 -0.016727 1744670.000000 0 0 1
-26.569806 15.511725 32.553772 44.791922 -0.528430 0.757177 0.084275 -0.015277 -436597.000000 0 0 1
-27.494686 14.295125 32.755773 45.091562 -0.479459 0.757686 0.045024 -0.007868 679524.000000 0 0 1
-28.784106 14.599525 33.331279 46.396606 -0.469397 0.769298 0.049956 -0.004262 690787.000000 0 0 1
-29.713746 13.535625 33.232668 46.588948 -0.427447 0.776577 0.035353 0.004839 -72082.500000 0 0 1
-29.583476 12.333425 -33.612479 46.444527 -0.394992 2.379963 0.017533 0.008820 -524407.000000 0 0 1
-28.473116 11.484425 -33.779259 45.647000 -0.383385 2.403882 0.017021 0.000713 -525379.000000 0 0 1
-28.831326 10.097425 -33.900949 45.634172 -0.336874 2.408166 0.027538 0.006190 -1143910.000000 0 0 1
-27.778346 8.984825 -33.629999 44.534710 -0.312827 2.426666 0.025297 -0.002612 420758.000000 0 0 1
-26.735206 8.827325 33.233938 43.556717 -0.318906 0.702849 0.040028 -0.005940 657015.000000 0 0 1
-25.892046 9.943525 33.044682 43.141891 -0.366671 0.698273 0.024364 -0.005844 -1248360.000000 0 0 1
-24.596946 9.790025 32.239415 41.716115 -0.378797 0.687510 0.033706 -0.005606 -84501.900000 0 0 1
-24.832046 9.644825 30.879437 40.782261 -0.370469 0.711814 0.033728 -0.004924 630087.000000 0 0 1
-23.627746 9.232625 30.232177 39.465127 -0.372510 0.698126 0.065778 -0.015759 662821.000000 0 0 1
-23.909346 9.079125 28.704937 38.445556 -0.362912 0.727802 0.091329 -0.020436 -93084.900000 0 0 1
-23.870246 10.293025 27.994227 38.202248 -0.407117 0.748383 0.073591 -0.009131 103722.000000 0 0 1
-24.114546 10.036525 26.616527 37.291858 -0.394395 0.775979 0.076297 -0.007729 -901765.000000 0 0 1
-24.395446 11.338025 25.773197 37.255151 -0.435060 0.806814 0.081901 0.002107 -634667.000000 0 0 1
-25.598186 11.962425 26.059557 38.437836 -0.437160 0.825804 0.088287 0.001199 -715881.000000 0 0 1
-26.631856 11.465225 25.220027 38.428595 -0.406527 0.854915 0.105303 0.001419 -458258.000000 0 0 1
-27.920986 12.267525 25.403617 39.691528 -0.413975 0.876264 0.107128 0.000130 -315723.000000 0 0 1
-27.805456 13.578425 24.910717 39.724814 -0.454274 0.892995 0.130603 -0.001486 -235420.000000 0 0 1
-28.973256 14.304525 25.175167 40.961665 -0.458607 0.908914 0.121205 -0.012060 -325600.000000 0 0 1
-29.031226 15.721525 24.508147 41.117243 -0.496324 0.932217 0.135357 -0.011279 -246059.000000 0 0 1
-28.088416 16.664325 24.923747 41.083476 -0.535464 0.918943 0.150556 -0.012927 -119401.000000 0 0 1
-28.113896 17.764225 24.099397 41.069938 -0.563522 0.943708 0.127784 -0.030279 3172.430000 0 0 1
-23.445246 -8.817875 31.820065 40.496309 0.359739 0.666885 0.083995 -0.019331 -776245.000000 0 0 1
-22.472146 -8.283975 31.029617 39.197688 0.353177 0.657343 0.079016 -0.024584 -764790.000000 0 0 1
-22.809246 -8.455675 29.633607 38.339416 0.355007 0.687353 0.079333 -0.028258 -67061.300000 0 0 1
-21.662546 -8.258675 28.624297 36.835065 0.364232 0.680761 0.102358 -0.029521 -495652.000000 0 0 1
-21.269046 -6.892375 28.439837 36.175979 0.313378 0.666238 0.104643 -0.033998 -992614.000000 0 0 1
-20.011946 -6.485175 28.806077 35.669673 0.313386 0.630761 0.094663 -0.032035 -505246.000000 0 0 1
-18.819846 -6.920275 27.847347 34.315471 0.352366 0.624065 0.098831 -0.034655 -42619.000000 0 0 1
-18.378446 -8.254575 27.832357 34.359066 0.422142 0.626569 0.095677 -0.037483 124113.000000 0 0 1
-17.950946 -8.852675 29.066077 35.290837 0.458160 0.603040 0.098831 -0.032881 -1037550.000000 0 0 1
-16.597246 -8.396575 29.609507 34.967041 0.468358 0.560888 0.099895 -0.033302 -295922.000000 0 0 1
-15.548046 -9.148075 28.961117 34.120013 0.531828 0.557082 0.085449 -0.028133 396408.000000 0 0 1
-14.273346 -8.754075 29.455257 33.881771 0.550153 0.516902 0.079836 -0.037460 291885.000000 0 0 1
-13.126446 -9.725275 29.126867 33.395493 0.637646 0.511156 0.076597 -0.037385 -233893.000000 0 0 1
-12.803246 -9.487475 27.788157 32.033061 0.637730 0.520675 0.085672 -0.037734 374528.000000 0 0 1
-11.626746 -10.232175 27.439807 31.509072 0.721686 0.513859 0.104835 -0.039709 386495.000000 0 0 1
-11.114746 -9.841675 26.028847 29.964930 0.724724 0.518338 0.091869 -0.036707 -29199.000000 0 0 1
-11.964246 -10.278575 25.001607 29.561337 0.709758 0.562820 0.084857 -0.033623 -146515.000000 0 0 1
-11.333146 -10.160875 23.742737 28.202857 0.730913 0.570084 0.077034 -0.033850 -79047.900000 0 0 1
-12.245246 -10.594575 22.595657 27.798467 0.713252 0.621788 0.088258 -0.040377 -636108.000000 0 0 1
-12.522746 -11.953875 22.608457 28.475544 0.762161 0.653500 0.089940 -0.034948 331890.000000 0 0 1
-13.709446 -12.404175 21.978057 28.720158 0.735455 0.699369 0.086643 -0.033169 608941.000000 0 0 1
-15.049746 -12.084175 22.706157 29.800868 0.676536 0.704509 0.087662 -0.037412 302309.000000 0 0 1
-16.197746 -12.812875 22.236057 30.347635 0.669246 0.748499 0.069420 -0.025120 -119046.000000 0 0 1
-17.226546 -12.735575 23.134637 31.530306 0.636617 0.747005 0.073650 -0.024292 -848442.000000 0 0 1
-18.515146 -13.429675 22.660057 32.196972 0.627527 0.790071 0.091589 -0.027011 -518566.000000 0 0 1
-18.418246 -14.852075 22.721057 32.803389 0.678618 0.805649 0.083599 -0.027765 671810.000000 0 0 1
-19.688246 -15.512575 22.661957 33.790994 0.667326 0.835711 0.071237 -0.017836 1098710.000000 0 0 1
-20.631846 -15.393875 23.939267 35.152994 0.641015 0.821666 0.071469 -0.014560 134864.000000 0 0 1
-20.284646 -16.344075 24.965767 36.081646 0.678229 0.806645 0.070500 -0.012216 314180.000000 0 0 1
-21.230746 -16.314075 26.012147 37.329953 0.655184 0.799846 0.073398 -0.010948 -318335.000000 0 0 1
-20.817246 -17.202675 27.174377 38.311050 0.690613 0.782279 0.072457 -0.009480 -211509.000000 0 0 1
-20.937346 -18.625975 26.958167 38.884986 0.727042 0.804766 0.077269 -0.004991 161666.000000 0 0 1
-20.734746 -19.426975 28.146937 39.994839 0.752847 0.790114 0.070592 -0.010802 -324841.000000 0 0 1
-20.769746 -20.990475 28.012377 40.702281 0.790684 0.811755 0.084684 -0.006605 622499.000000 0 0 1
-22.052846 -21.527275 27.658377 41.409388 0.773339 0.839379 0.088108 -0.005224 588965.000000 0 0 1
-21.939546 -22.897175 27.282127 41.832269 0.806753 0.860341 0.097480 0.005398 218784.000000 0 0 1
-23.323746 -23.457375 26.893527 42.632234 0.788255 0.888179 0.095800 0.012229 -155272.000000 0 0 1
-24.180046 -23.710275 27.939087 43.902669 0.775589 0.880991 0.098300 0.006137 -22421.100000 0 0 1
-25.366636 -24.387075 27.527527 44.676172 0.765713 0.906942 0.083171 0.007793 602005.000000 0 0 1
-26.134756 -25.164345 28.636987 46.220631 0.766484 0.902600 0.060422 -0.003810 -70198.000000 0 0 1
-26.834656 -24.343075 29.561257 46.760581 0.736752 0.886429 0.044764 0.001197 207191.000000 0 0 1
-27.657496 -25.195215 30.328847 48.161965 0.738844 0.889596 0.043832 0.003597 226648.000000 0 0 1
-28.889516 -24.520875 30.994497 48.954431 0.703786 0.885207 0.018329 0.004343 266940.000000 0 0 1
-29.971356 -24.260875 30.126407 48.933349 0.680488 0.907570 0.033626 0.002465 162945.000000 0 0 1
-30.878336 -23.320375 30.681977 49.383147 0.646843 0.900390 0.031107 -0.004383 -220186.000000 0 0 1
-32.102776 -23.167775 29.754947 49.524649 0.625125 0.926281 0.034522 -0.011086 -501059.000000 0 0 1
-33.048836 -24.179075 29.912757 50.711204 0.631632 0.939905 0.036307 -0.011142 -452659.000000 0 0 1
-34.115174 -24.100075 29.009377 50.854721 0.615030 0.963759 0.033215 -0.015191 -702562.000000 0 0 1
-35.312283 -24.897775 29.459047 52.294282 0.614123 0.972383 0.035815 -0.017115 -767938.000000 0 0 1
-35.047718 -26.281775 29.447227 52.784594 0.643428 0.978973 0.034058 -0.018567 154517.000000 0 0 1
-35.929475 -26.976625 30.331107 54.209238 0.644027 0.976991 0.031764 -0.017989 361547.000000 0 0 1
-35.472167 -28.461295 30.637667 54.835997 0.676176 0.977961 0.035151 -0.022929 20959.000000 0 0 1
-34.301677 -28.683185 31.375877 54.623949 0.696430 0.958928 0.051577 -0.020944 -266284.000000 0 0 1
-34.098986 -30.042345 31.676157 55.395507 0.722237 0.962076 0.053334 -0.029573 22210.800000 0 0 1
-33.215236 -30.295925 32.909851 55.714928 0.739465 0.938892 0.049466 -0.022156 -176107.000000 0 0 1
-33.891946 -30.086655 -33.718119 56.487010 0.725991 2.210451 0.051558 -0.014458 -383813.000000 0 0 1
-33.008106 -30.177645 -32.652899 55.375419 0.740632 2.201439 0.050257 -0.022174 -187644.000000 0 0 1
-33.641126 -29.661855 -31.328249 54.708410 0.722620 2.180519 0.055220 -0.026761 61769.000000 0 0 1
-33.616036 -28.247045 -31.114899 53.815149 0.698827 2.187294 0.049621 -0.015934 -16608.700000 0 0 1
-32.340126 -27.733695 -30.771929 52.554288 0.708868 2.196326 0.044067 -0.008831 -64985.300000 0 0 1
-32.262796 -26.223795 -30.547489 51.591903 0.682508 2.204457 0.031403 0.004527 -138522.000000 0 0 1
-32.837766 -25.806065 -29.326809 51.032671 0.666063 2.182994 0.036970 -0.008715 -127333.000000 0 0 1
-32.951016 -24.384975 -29.242539 50.353972 0.637094 2.190433 0.040040 0.000777 697197.000000 0 0 1
-31.630836 -23.595075 -28.879459 48.900516 0.640905 2.202568 0.045519 -0.004326 748692.000000 0 0 1
-31.764426 -22.169375 -28.705289 48.212587 0.609336 2.208547 0.045113 0.003479 277280.000000 0 0 1
-30.525856 -21.723775 -28.169549 46.875086 0.618503 2.215485 0.053016 0.001631 284661.000000 0 0 1
-30.427786 -20.168575 -28.232509 46.148630 0.585345 2.229097 0.070368 -0.004443 122773.000000 0 0 1
-29.902046 -19.689875 -29.485189 46.381029 0.582313 2.259733 0.081665 -0.001531 391919.000000 0 0 1
-29.705436 -18.296475 -29.547789 45.719205 0.552051 2.273507 0.081498 -0.005351 -221221.000000 0 0 1
-29.361876 -17.870075 -31.008739 46.292561 0.546730 2.304793 0.108483 -0.009923 616693.000000 0 0 1
-30.408156 -17.899275 -31.997969 47.633076 0.532020 2.307378 0.104927 -0.023184 714177.000000 0 0 1
-31.399986 -16.884275 -31.882199 47.827946 0.493363 2.300437 0.083880 -0.020967 -384211.000000 0 0 1
-31.875676 -16.440275 -33.284419 48.930500 0.476178 2.318885 0.092374 -0.033852 391357.000000 0 0 1
-32.849786 -17.246875 33.852907 50.225317 0.483465 0.831158 0.094121 -0.035329 680578.000000 0 0 1
-34.173538 -16.793275 -33.745899 50.878585 0.456753 2.295967 0.085243 -0.026840 19983.000000 0 0 1
-35.243815 -17.491775 33.240116 51.507223 0.460689 0.869317 0.086478 -0.036175 -261998.000000 0 0 1
-35.356853 -18.850575 33.465842 52.205496 0.489816 0.874943 0.053297 -0.029827 -342754.000000 0 0 1
-36.290876 -19.414275 32.617701 52.515295 0.491225 0.900640 0.062397 -0.033741 -1111660.000000 0 0 1
-36.515366 -20.866775 33.063454 53.497535 0.519164 0.904553 0.039549 -0.030417 -270560.000000 0 0 1
-35.455455 -21.775075 32.870246 53.025430 0.550761 0.902186 0.051244 -0.022839 -219731.000000 0 0 1
-35.759287 -23.112275 33.273561 54.037336 0.573790 0.907457 0.045192 -0.017769 -257930.000000 0 0 1
-34.481018 -24.030675 33.320950 53.634873 0.608659 0.900453 0.040470 -0.013183 1139190.000000 0 0 1
-33.527026 -23.682575 -33.484749 52.973146 0.614990 2.255067 0.025384 -0.009563 89720.000000 0 0 1
-32.701386 -22.629375 -33.862489 52.231574 0.605337 2.276165 0.037818 -0.014649 -860639.000000 0 0 1
-31.327276 -22.727175 -33.126139 50.943731 0.627620 2.278709 0.050798 -0.013114 689400.000000 0 0 1
-30.401826 -23.743275 -33.672149 51.203786 0.663036 2.288439 0.046095 -0.011886 1283170.000000 0 0 1
-29.111346 -23.610875 -33.067239 49.983859 0.681445 2.293691 0.063527 -0.012573 386950.000000 0 0 1
-28.838886 -24.016775 -31.576759 49.046697 0.694418 2.270264 0.059616 -0.003473 -746525.000000 0 0 1
-28.791226 -25.406865 -31.304149 49.541833 0.723035 2.254764 0.050895 -0.006860 59196.600000 0 0 1
-28.236446 -25.584175 -30.030529 48.514735 0.736158 2.238263 0.045693 -0.005151 -16362.500000 0 0 1
-27.997316 -27.090615 -29.613459 48.935754 0.768940 2.220750 0.044659 -0.016511 -207134.000000 0 0 1
-29.221256 -27.757775 -29.540369 49.970083 0.759719 2.203294 0.034886 -0.006353 21086.800000 0 0 1
-28.937496 -28.988135 -28.902239 50.130131 0.786272 2.185289 0.040842 -0.010306 196789.000000 0 0 1
-29.565876 -30.201975 -29.624619 51.613160 0.796041 2.182147 0.039503 -0.001864 59032.500000 0 0 1
-28.892976 -30.520255 -30.853049 52.136365 0.812780 2.204057 0.049252 -0.019052 497814.000000 0 0 1
-29.362056 -31.741745 -31.408349 53.442989 0.824324 2.199007 0.059513 -0.012728 -135551.000000 0 0 1
-28.917756 -32.091275 -32.860679 54.276244 0.837369 2.221107 0.054850 -0.024585 -135865.000000 0 0 1
-27.524316 -32.223945 -33.029389 53.729983 0.863894 2.232839 0.044282 -0.020397 -148178.000000 0 0 1
-27.255926 -32.959815 33.631651 54.408849 0.879841 0.904437 0.062919 -0.026547 443553.000000 0 0 1
-25.716456 -33.119825 33.397822 53.606655 0.910570 0.898203 0.075923 -0.028315 595061.000000 0 0 1
-25.420686 -33.837515 32.230912 53.197936 0.926491 0.919940 0.076584 -0.016188 61437.600000 0 0 1
-24.295146 33.123355 32.460788 52.355645 -0.937956 0.902047 0.074977 -0.009227 61064.900000 0 0 1
-24.135946 32.172263 31.305207 50.966797 -0.927161 0.909390 0.071551 -0.018712 263625.000000 0 0 1
-25.361676 31.455840 31.252687 51.082433 -0.892248 0.912451 0.086565 -0.031702 275544.000000 0 0 1
-25.370646 30.518760 30.180257 49.858924 -0.877251 0.920637 0.077792 -0.021906 -653382.000000 0 0 1
-26.770796 30.249600 29.656917 50.112339 -0.846332 0.937496 0.082653 -0.020014 -653961.000000 0 0 1
-27.467866 29.353530 30.493237 50.457417 -0.818572 0.921864 0.098112 -0.017778 715393.000000 0 0 1
-28.698666 28.880260 29.908217 50.519148 -0.788552 0.937236 0.097904 -0.020892 656842.000000 0 0 1
-29.194926 27.630750 30.519477 50.470194 -0.757879 0.921403 0.083859 -0.023149 -10403.600000 0 0 1
-28.514166 26.452580 30.047197 49.149066 -0.747910 0.913033 0.078828 -0.006411 463509.000000 0 0 1
-28.989766 25.243370 30.698287 49.193690 -0.716428 0.896908 0.074188 -0.008387 451392.000000 0 0 1
-29.881056 24.363880 29.763617 48.706766 -0.684038 0.913375 0.059834 -0.003905 167225.000000 0 0 1
-29.196866 23.835810 28.656937 47.347892 -0.684651 0.920726 0.064053 -0.013938 -152234.000000 0 0 1
-30.120466 23.257710 27.762767 47.105571 -0.657531 0.940513 0.069131 -0.001231 -15406.800000 0 0 1
-29.531446 22.848710 26.397887 45.727653 -0.658502 0.955397 0.082180 -0.010030 -578426.000000 0 0 1
-28.498156 21.951270 26.613177 44.746668 -0.656348 0.933839 0.081270 -0.017550 -522817.000000 0 0 1
-27.706756 21.690470 25.516067 43.465049 -0.664201 0.943389 0.084435 -0.009652 -655569.000000 0 0 1
-26.290116 21.191970 25.811507 42.502984 -0.678438 0.918155 0.093831 -0.022887 -517980.000000 0 0 1
-26.259106 19.918870 26.502147 42.292621 -0.648951 0.893565 0.121749 -0.032343 185097.000000 0 0 1
-24.991946 19.623870 27.040517 41.723892 -0.665656 0.865733 0.108386 -0.031214 -257112.000000 0 0 1
-24.909246 18.217070 27.666897 41.446223 -0.631450 0.839900 0.130774 -0.030268 -981678.000000 0 0 1
-23.652346 17.825770 28.061817 40.800210 -0.645838 0.812362 0.117697 -0.022802 -784021.000000 0 0 1
-23.789446 16.856070 29.062617 41.166741 -0.616443 0.787000 0.119764 -0.016970 471783.000000 0 0 1
-22.483246 16.051170 29.296227 40.266678 -0.620005 0.756045 0.100481 -0.020560 75704.600000 0 0 1
-21.482846 16.518470 30.158387 40.545047 -0.655497 0.732022 0.129753 -0.016586 -58643.200000 0 0 1
-20.381546 15.615370 29.981927 39.473575 -0.653759 0.708184 0.108844 -0.017202 442755.000000 0 0 1
-19.204846 16.094770 30.888517 39.773964 -0.697520 0.681543 0.096540 -0.024484 113121.000000 0 0 1
-19.547346 16.113370 32.294344 41.044660 -0.689398 0.665173 0.093250 -0.020230 631199.000000 0 0 1
-18.438446 16.630370 33.036812 41.327672 -0.733886 0.644522 0.095181 -0.023633 -299605.000000 0 0 1
-18.620646 16.474870 -33.286919 41.547187 -0.724333 2.500067 0.081933 -0.029620 -303770.000000 0 0 1
-19.637346 17.229870 -32.706059 41.859050 -0.720189 2.467603 0.092784 -0.028589 11757.700000 0 0 1
-20.940246 16.702370 -32.938389 42.454688 -0.673288 2.458855 0.086949 -0.021674 -1078760.000000 0 0 1
-21.936446 17.537370 -32.192799 42.721696 -0.674413 2.424237 0.081491 -0.034649 -993626.000000 0 0 1
-22.066246 17.380370 -30.795029 41.681294 -0.667162 2.402116 0.079675 -0.030624 354354.000000 0 0 1
-23.083946 18.193170 -30.219769 42.155597 -0.667462 2.370088 0.078216 -0.026472 -241675.000000 0 0 1
-23.312946 17.946370 -28.702729 41.102461 -0.656055 2.343846 0.074007 -0.033275 42013.000000 0 0 1
-23.974346 16.743470 -28.314459 40.704074 -0.609645 2.340075 0.059562 -0.034364 -451237.000000 0 0 1
-25.354406 16.806370 -28.534079 41.707237 -0.585361 2.324236 0.060882 -0.031799 -848448.000000 0 0 1
-26.190676 15.861770 -27.715019 41.299752 -0.544546 2.306447 0.057677 -0.032732 -233198.000000 0 0 1
-25.897146 14.511370 -28.027649 40.826353 -0.510752 2.327473 0.037039 -0.021713 -155116.000000 0 0 1
-26.622206 13.629870 -27.220579 40.441008 -0.473181 2.309180 0.017131 -0.011366 -107161.000000 0 0 1
-26.123866 12.137370 -27.314089 39.696745 -0.434936 2.329621 0.031578 -0.015621 -249300.000000 0 0 1
-24.976346 11.915470 -26.551179 38.350507 -0.445136 2.335508 0.030609 -0.022599 -725876.000000 0 0 1
-24.283146 10.846870 -27.122579 37.986314 -0.420092 2.366004 0.026286 -0.012510 203222.000000 0 0 1
-23.133146 10.306670 -26.201579 36.440261 -0.419136 2.373199 0.053967 -0.016489 308663.000000 0 0 1
-23.626646 9.670070 -24.996409 35.728827 -0.388486 2.345654 0.053054 0.000683 -82445.200000 0 0 1
-22.662346 8.784570 -24.464309 34.485547 -0.369796 2.359454 0.077818 0.011441 -120177.000000 0 0 1
-23.134846 7.753570 -23.397309 33.804925 -0.323382 2.335228 0.075313 0.017499 81549.900000 0 0 1
-23.882746 6.704470 -23.990509 34.509129 -0.273680 2.339485 0.069581 -0.011680 169314.000000 0 0 1
-23.944046 5.625370 -23.185609 33.801399 -0.230753 2.326686 0.072577 0.000810 -210678.000000 0 0 1
35.005003 24.284725 -10.364109 43.846469 0.606519 1.809427 0.065235 0.001355 82788.100000 0 0 1
35.853813 23.881625 -9.296509 44.070999 0.587599 1.783337 0.077589 -0.014113 -791114.000000 0 0 1
36.934233 23.194725 -9.773109 44.695039 0.560754 1.791239 0.069850 -0.014425 -600975.000000 0 0 1
-36.945826 22.726325 -8.665409 44.233123 -0.551467 1.767975 0.111731 -0.018122 9302.890000 0 0 1
-37.430346 21.796925 -7.779209 44.007418 -0.527328 1.748501 0.063510 -0.018389 -1118890.000000 0 0 1
-36.435646 21.413925 -6.912909 42.824068 -0.531340 1.732932 0.149087 -0.023191 -1002480.000000 0 0 1
-36.844536 20.478825 -5.755809 42.544464 -0.507298 1.706502 0.100509 -0.014573 -257769.000000 0 0 1
-36.970276 19.137825 -6.176909 42.085768 -0.477671 1.718098 0.071201 -0.007082 314177.000000 0 0 1
37.384313 18.305625 -5.160409 41.944160 0.455342 1.694139 0.078221 -0.021764 -300318.000000 0 0 1
36.757133 17.026125 -5.704409 40.908630 0.433782 1.710695 0.078498 -0.012200 778731.000000 0 0 1
35.597503 17.317325 -6.531209 40.121424 0.452770 1.734310 0.069216 -0.015711 710467.000000 0 0 1
35.113343 16.201525 -7.237409 39.342297 0.432299 1.755810 0.075780 -0.012031 224774.000000 0 0 1
33.880913 16.460425 -8.137609 38.536768 0.452249 1.783563 0.055195 -0.017837 -11233.000000 0 0 1
33.508073 15.321425 -8.884609 37.900835 0.428863 1.807415 0.073892 -0.026031 222860.000000 0 0 1
32.913943 15.693025 -10.139909 37.847278 0.444907 1.842026 0.062381 -0.021415 -186186.000000 0 0 1
32.307183 14.481225 -10.982209 37.068435 0.421386 1.871580 0.056430 -0.021034 440248.000000 0 0 1
31.074693 13.906825 -10.553509 35.642852 0.420797 1.871393 0.064805 -0.016517 634804.000000 0 0 1
31.066103 13.324425 -9.213909 35.036255 0.405174 1.836908 0.072040 -0.021064 217242.000000 0 0 1
29.864113 12.311525 -9.146309 33.572218 0.391023 1.846721 0.077809 -0.013446 772014.000000 0 0 1
30.320113 11.162825 -9.820509 33.769221 0.352766 1.865872 0.084067 -0.016251 7884.820000 0 0 1
29.420563 10.117725 -9.699909 32.588742 0.331230 1.873022 0.103236 -0.014230 -769856.000000 0 0 1
30.056193 8.786625 -10.074709 32.894973 0.284414 1.882067 0.109313 -0.015829 -159145.000000 0 0 1
31.117223 8.396925 -9.209509 33.520217 0.263570 1.849121 0.099249 -0.025011 230640.000000 0 0 1
31.146203 7.007325 -9.148709 33.209749 0.221297 1.849888 0.099724 -0.023198 -200283.000000 0 0 1
32.271043 6.577425 -8.191109 33.937840 0.201064 1.814559 0.135293 -0.031772 -18795.900000 0 0 1
33.563553 6.918725 -8.623409 35.337572 0.203291 1.817315 0.128200 -0.021220 -838638.000000 0 0 1
34.517503 6.614725 -7.684809 35.975949 0.189338 1.786065 0.133837 -0.020382 841555.000000 0 0 1
35.997413 7.010125 -8.145209 37.567273 0.192332 1.789349 0.146112 -0.022996 1481230.000000 0 0 1
36.403473 6.205325 -9.262609 38.072494 0.168837 1.816551 0.157605 -0.030121 654476.000000 0 0 1
-37.061546 5.972125 -9.311309 38.677188 -0.159767 1.813929 0.158708 -0.034173 99477.200000 0 0 1
-36.612796 5.326425 -10.679909 38.508805 -0.144466 1.851817 0.148687 -0.041510 -294290.000000 0 0 1
-35.265485 4.920725 -10.794409 37.207354 -0.138639 1.865143 0.153281 -0.038761 599903.000000 0 0 1
-34.434046 5.925525 -11.426409 36.761096 -0.170414 1.886861 0.123045 -0.030444 334144.000000 0 0 1
-33.676646 6.925425 -10.464509 35.938613 -0.202817 1.866254 0.131255 -0.033847 -178391.000000 0 0 1
-34.575924 7.769025 -9.719309 36.746662 -0.221024 1.838477 0.150029 -0.032284 403589.000000 0 0 1
-34.610791 9.003425 -10.482809 37.267382 -0.254493 1.855931 0.141263 -0.031268 -484817.000000 0 0 1
-35.695996 9.925425 -9.981809 38.371274 -0.271204 1.833961 0.138792 -0.029413 -185041.000000 0 0 1
-35.302087 10.490425 -8.743309 37.851444 -0.288851 1.803892 0.128402 -0.024949 588638.000000 0 0 1
-36.372456 11.255625 -8.179309 38.942852 -0.300108 1.782406 0.124006 -0.024123 476572.000000 0 0 1
-35.801767 12.152225 -7.087309 38.466518 -0.327228 1.756101 0.133203 -0.027106 233818.000000 0 0 1
-34.977992 13.139425 -7.689109 38.147435 -0.359339 1.773750 0.134842 -0.027749 -439041.000000 0 0 1
-34.425003 13.894125 -6.715809 37.725715 -0.383611 1.749767 0.145759 -0.027126 -390473.000000 0 0 1
-33.472146 14.998625 -7.196609 37.378262 -0.421267 1.764541 0.119455 -0.021620 -345069.000000 0 0 1
-34.079904 15.968525 -8.001209 38.476655 -0.438182 1.780275 0.103405 -0.020145 -467131.000000 0 0 1
-33.330466 17.123825 -8.212009 38.361210 -0.474594 1.786537 0.097332 -0.010415 -287420.000000 0 0 1
-34.012036 18.056325 -9.229709 39.598446 -0.488046 1.806043 0.068962 -0.013465 285032.000000 0 0 1
-33.514266 18.023925 -10.541609 39.486623 -0.493427 1.841040 0.067089 -0.014000 27435.900000 0 0 1
-34.558860 18.416325 -11.418109 40.790305 -0.489618 1.854509 0.057429 -0.016691 265667.000000 0 0 1
-34.124886 18.557425 -12.892509 40.928018 -0.498078 1.891258 0.041942 -0.003613 374084.000000 0 0 1
-33.229966 19.668725 -13.139909 40.789050 -0.534440 1.898789 0.047897 -0.015477 363700.000000 0 0 1
-32.941966 19.620025 -14.500109 40.992336 -0.537173 1.932349 0.033444 -0.012710 -175588.000000 0 0 1
-32.163176 20.890225 -14.978509 41.173136 -0.576029 1.943133 0.033216 -0.011863 -108196.000000 0 0 1
-30.841686 20.943125 -14.466509 39.988798 -0.596528 1.940956 0.041871 -0.012881 140550.000000 0 0 1
-30.373616 22.276925 -14.282509 40.284091 -0.632812 1.933223 0.031661 -0.017725 46267.700000 0 0 1
-29.555516 22.751025 -15.493809 40.388065 -0.656036 1.964513 0.040873 -0.027103 -1007120.000000 0 0 1
-30.408986 23.016325 -16.619409 41.601230 -0.647898 1.981760 0.055285 -0.017631 392970.000000 0 0 1
-29.864056 23.692925 -17.776409 42.062064 -0.670679 2.007134 0.067262 -0.020835 -21083.300000 0 0 1
-29.321036 25.153225 -17.666909 42.479731 -0.709037 1.999718 0.076730 -0.026121 463553.000000 0 0 1
-30.339496 26.132325 -17.436309 43.673885 -0.711035 1.981483 0.102192 -0.033564 433464.000000 0 0 1
-29.844036 27.498925 -17.570509 44.221942 -0.744525 1.979397 0.105127 -0.033971 176505.000000 0 0 1
-30.808496 28.574725 -17.018809 45.335617 -0.747800 1.955620 0.111941 -0.035885 -208508.000000 0 0 1
-30.727796 28.804525 -15.612809 44.918347 -0.753103 1.925787 0.093755 -0.035586 749722.000000 0 0 1
-29.535026 29.480525 -15.170909 44.402428 -0.784475 1.919488 0.086528 -0.031493 502788.000000 0 0 1
-29.573976 29.822625 -13.682509 44.172616 -0.789584 1.885727 0.077757 -0.025051 -66313.300000 0 0 1
-30.462206 30.909625 -13.498109 45.448320 -0.792688 1.872345 0.060244 -0.015166 135363.000000 0 0 1
-30.354966 31.609125 -12.257909 45.506231 -0.805636 1.843533 0.047374 -0.019609 343723.000000 0 0 1
-29.262666 32.741125 -12.313509 45.606001 -0.841440 1.844187 0.052904 -0.031230 366832.000000 0 0 1
-29.507566 33.722725 -13.245209 46.726376 -0.851963 1.858200 0.051264 -0.025232 -56392.600000 0 0 1
-28.539306 -33.016420 -13.271909 45.614904 0.858003 1.866022 0.094323 -0.027016 359542.000000 0 0 1
-28.811956 -32.187820 -14.534609 45.578936 0.840684 1.895353 0.078635 -0.024654 130715.000000 0 0 1
-28.263146 -32.827320 -15.696909 46.074193 0.859971 1.918445 0.089233 -0.027414 -59381.500000 0 0 1
-28.510116 -32.071020 -16.890009 46.115609 0.844110 1.945776 0.096407 -0.014971 -328163.000000 0 0 1
-27.538526 -32.458020 -17.991809 46.212537 0.867211 1.970698 0.087236 -0.020398 -196248.000000 0 0 1
-27.731306 -33.748720 -18.550209 47.456418 0.882963 1.972394 0.090454 -0.018265 -204930.000000 0 0 1
-27.420056 32.912925 -17.726709 46.361151 -0.876190 1.963147 0.087977 -0.031516 -406658.000000 0 0 1
-27.765966 31.515025 -18.329109 45.826869 -0.848556 1.982274 0.100602 -0.043276 142876.000000 0 0 1
-29.125586 31.227425 -18.578809 46.568487 -0.820210 1.981175 0.119157 -0.030753 -170947.000000 0 0 1
-29.567336 31.790425 -19.784509 47.710431 -0.821614 1.998386 0.113424 -0.033312 429796.000000 0 0 1
-31.115766 31.637225 -20.028809 48.685296 -0.793708 1.994779 0.103286 -0.040755 850473.000000 0 0 1
-31.441516 30.316825 -20.282909 48.156777 -0.767189 2.005548 0.112740 -0.051201 1423140.000000 0 0 1
-32.879756 30.169025 -20.447609 49.085162 -0.742430 2.000470 0.125524 -0.049352 1239530.000000 0 0 1
-33.248516 28.819625 -21.085109 48.791561 -0.714164 2.017668 0.132693 -0.052805 -159435.000000 0 0 1
-34.643465 28.702425 -21.302909 49.777633 -0.691884 2.013032 0.131507 -0.056143 220864.000000 0 0 1
-34.867266 27.328825 -21.547109 49.263260 -0.664782 2.023487 0.126524 -0.042087 378896.000000 0 0 1
-36.411586 27.093025 -21.634209 50.277973 -0.639700 2.015613 0.114798 -0.035712 595470.000000 0 0 1
-37.044066 27.691525 -22.728309 51.533090 -0.641918 2.027557 0.115460 -0.036163 461493.000000 0 0 1
36.665003 26.943525 -23.150409 51.051125 0.633739 2.041457 0.114327 -0.031005 1087540.000000 0 0 1
35.935443 27.593725 -24.386009 51.453349 0.654840 2.064561 0.103474 -0.025754 326722.000000 0 0 1
36.738013 27.542925 -25.588719 52.564977 0.643317 2.079221 0.120275 -0.032714 -227829.000000 0 0 1
36.106033 27.920625 -26.794209 52.925764 0.658244 2.101639 0.135378 -0.026218 -136983.000000 0 0 1
36.994643 27.940325 -28.082349 54.202248 0.646855 2.115428 0.148597 -0.027401 404545.000000 0 0 1
37.430573 26.607725 -28.444889 54.019723 0.617974 2.125351 0.099223 -0.008246 -161291.000000 0 0 1
-36.744436 26.617325 -29.672759 54.213542 -0.626909 2.149968 0.071470 -0.013033 -726201.000000 0 0 1
-36.238506 25.172825 -30.052799 53.386057 -0.607122 2.168727 0.052619 -0.006839 1204260.000000 0 0 1
-35.159877 24.656825 -29.220659 51.942496 -0.611583 2.168273 0.038664 0.004451 1298410.000000 0 0 1
-33.920656 25.387625 -29.296979 51.511701 -0.642503 2.175775 0.033443 0.004374 865702.000000 0 0 1
-32.783326 24.757725 -28.370649 49.925796 -0.646816 2.175182 0.036188 0.001379 310942.000000 0 0 1
-32.253386 23.538625 -28.844219 49.257859 -0.630449 2.196387 0.032404 0.003202 -20311.200000 0 0 1
-32.993306 22.457725 -28.344729 48.952337 -0.597638 2.188331 0.019749 0.009738 -122746.000000 0 0 1
-32.625756 21.139625 -29.047029 48.528894 -0.574928 2.212488 0.031393 -0.002290 410230.000000 0 0 1
-31.256966 20.826425 -28.795729 47.327919 -0.587747 2.224877 0.060316 -0.011595 407272.000000 0 0 1
-30.931916 19.508025 -29.255749 46.832097 -0.562671 2.245536 0.047212 -0.010876 -1291240.000000 0 0 1
-29.474286 19.162525 -29.306469 45.769040 -0.576476 2.265701 0.057007 -0.015087 -1480230.000000 0 0 1
-28.907186 19.793625 -30.459439 46.424028 -0.600404 2.286454 0.053951 -0.020974 1303870.000000 0 0 1
-27.656156 19.127825 -30.861539 45.641770 -0.605086 2.313346 0.067529 -0.024275 1264950.000000 0 0 1
-27.696426 17.739725 -31.511659 45.549692 -0.569672 2.334787 0.077039 -0.021244 -296641.000000 0 0 1
-28.225906 16.768825 -30.575979 44.864080 -0.536065 2.320640 0.048840 -0.011896 189978.000000 0 0 1
-28.121086 15.560725 -31.165439 44.768473 -0.505409 2.340813 0.032263 -0.004576 -26591.000000 0 0 1
-28.608096 14.316625 -30.404349 44.134038 -0.463999 2.330780 0.019504 0.005167 -408802.000000 0 0 1
-29.964486 14.008525 -30.222409 44.805169 -0.437315 2.311124 0.020259 0.003302 -357472.000000 0 0 1
-30.267446 12.681425 -29.845429 44.358612 -0.396760 2.308812 0.021377 0.014963 -65764.800000 0 0 1
-29.882436 12.190225 -28.432499 43.011260 -0.387332 2.293011 -0.008605 -0.004663 -344755.000000 0 0 1
-30.646526 12.798125 -27.407319 43.059989 -0.395590 2.260737 -0.000134 -0.003097 212219.000000 0 0 1
-30.905766 11.954125 -26.321999 42.319205 -0.369069 2.242074 0.011479 0.007104 33679.400000 0 0 1
-30.697946 12.685825 -24.973009 41.556530 -0.391874 2.215474 0.019282 -0.007273 1045040.000000 0 0 1
-29.284046 12.761525 -24.706409 40.383394 -0.410969 2.229126 0.026709 -0.012519 621998.000000 0 0 1
-28.983106 13.659025 -23.622309 39.807070 -0.440405 2.206097 0.034858 -0.005496 299012.000000 0 0 1
-27.512386 13.938125 -23.222509 38.606834 -0.468924 2.216190 0.065680 -0.003840 -318584.000000 0 0 1
-26.888456 14.942425 -24.004009 39.018682 -0.507223 2.233427 0.067197 -0.015388 866713.000000 0 0 1
-25.479676 15.045025 -23.703509 37.913361 -0.533384 2.246187 0.068723 -0.022642 1168510.000000 0 0 1
-25.107326 15.720425 -22.359109 37.113869 -0.559411 2.217359 0.076652 -0.019106 -1228730.000000 0 0 1
-25.468156 17.056825 -22.368609 37.946237 -0.590121 2.201213 0.081204 -0.018602 7278.980000 0 0 1
-25.881076 17.511325 -21.050709 37.677698 -0.594853 2.163620 0.086911 -0.014536 547357.000000 0 0 1
-27.411776 17.350025 -20.780809 38.526236 -0.564289 2.140513 0.085130 -0.010809 246865.000000 0 0 1
-28.012176 16.089225 -20.680109 38.356382 -0.521357 2.140232 0.082215 -0.010031 -38871.200000 0 0 1
-29.145276 16.169325 -19.855309 38.795972 -0.506509 2.108061 0.075887 -0.008086 -516959.000000 0 0 1
-30.160776 14.946725 -19.905409 39.106295 -0.460096 2.104828 0.072190 -0.008704 585196.000000 0 0 1
-30.920916 14.940125 -21.091509 40.300895 -0.450095 2.121575 0.053165 -0.002622 891484.000000 0 0 1
-31.988906 15.936525 -21.147109 41.526656 -0.462198 2.105100 0.054211 -0.004618 207032.000000 0 0 1
-32.428426 16.163125 -22.618809 42.713697 -0.462386 2.128860 0.038647 0.011277 236889.000000 0 0 1
-33.368956 15.183125 -23.076909 43.319259 -0.427010 2.132604 0.050991 0.003401 358425.000000 0 0 1
-33.703196 15.349725 -24.461509 44.383385 -0.427367 2.154528 0.034731 0.006788 185136.000000 0 0 1
-35.008063 14.633025 -24.921709 45.395831 -0.395918 2.151948 0.039218 -0.001504 278756.000000 0 0 1
-35.072172 13.184525 -25.014209 45.051077 -0.359582 2.159449 0.047738 -0.004109 -113938.000000 0 0 1
-34.890321 12.465125 -23.814809 44.043830 -0.343133 2.142074 0.044341 -0.000408 -175592.000000 0 0 1
-34.793404 10.920125 -24.126909 43.725711 -0.304120 2.155292 0.049527 -0.009362 -177678.000000 0 0 1
-35.949409 10.364625 -24.699709 44.831474 -0.280699 2.154293 0.063211 -0.010009 -204389.000000 0 0 1
-35.666134 9.178125 -25.461629 44.772822 -0.251870 2.175703 0.061548 -0.006232 -307715.000000 0 0 1
-36.908646 8.591025 -26.144809 46.039167 -0.228692 2.174727 0.086147 -0.006746 -172689.000000 0 0 1
37.103833 8.057325 -25.140809 45.537624 0.213836 2.155664 0.087860 -0.002987 79630.900000 0 0 1
36.119233 7.283325 -25.841229 45.004610 0.198978 2.182412 0.095387 -0.008883 549589.000000 0 0 1
35.114043 6.475325 -24.956409 43.563152 0.182360 2.180810 0.098282 -0.012134 553506.000000 0 0 1
35.764883 5.388125 -24.292509 43.569309 0.149530 2.162240 0.092307 -0.015967 349311.000000 0 0 1
34.851133 4.622025 -23.542809 42.311091 0.131853 2.160869 0.104431 -0.014541 355317.000000 0 0 1
35.632553 3.541925 -22.751709 42.424808 0.099076 2.136824 0.098706 -0.010849 389203.000000 0 0 1
36.147963 2.457925 -23.536209 43.204973 0.067892 2.146896 0.102144 -0.015628 107759.000000 0 0 1
37.232053 1.846125 -22.893409 43.746338 0.049544 2.121541 0.104756 -0.011325 -217002.000000 0 0 1
-37.314726 0.497525 -23.525709 44.114570 -0.013332 2.133277 0.130361 -0.017804 904709.000000 0 0 1
36.476223 -0.461575 -23.479509 43.382199 -0.012653 2.142689 0.105934 -0.028406 723590.000000 0 0 1
37.042553 -1.632275 -23.973509 44.153643 -0.044036 2.144750 0.111812 -0.028687 204414.000000 0 0 1
-23.903846 28.835125 27.212257 46.296493 -0.878631 0.942481 0.054839 -0.017022 -547371.000000 0 0 1
-25.084866 29.425525 26.669287 46.971937 -0.864860 0.967001 0.050014 -0.014717 791267.000000 0 0 1
-25.353656 28.962325 25.356267 46.092998 -0.851739 0.988299 0.039911 -0.009151 -446795.000000 0 0 1
-25.623136 27.469925 25.119257 45.189810 -0.820168 0.981398 0.045270 -0.010671 201344.000000 0 0 1
-26.909876 26.976425 25.548527 45.875878 -0.786633 0.980141 0.044911 -0.007464 828822.000000 0 0 1
-27.003456 26.502325 26.850207 46.394973 -0.776033 0.953625 0.059141 -0.009848 -280815.000000 0 0 1
-26.130676 25.279225 27.309287 45.471404 -0.768838 0.926568 0.065284 -0.011758 -133841.000000 0 0 1
-24.771046 25.384225 27.580917 44.929618 -0.797623 0.909843 0.062313 -0.011251 -641316.000000 0 0 1
-24.532246 25.626125 28.968077 45.800424 -0.807203 0.886039 0.067282 -0.018517 523412.000000 0 0 1
-23.063046 25.477725 29.468657 45.270524 -0.835103 0.861967 0.078600 -0.016499 356567.000000 0 0 1
-22.095346 26.383925 28.927677 44.956939 -0.873631 0.871796 0.090947 -0.029177 739099.000000 0 0 1
-20.822746 26.353425 29.542017 44.730533 -0.902100 0.849386 0.114932 -0.040081 844570.000000 0 0 1
-19.870746 25.109325 29.581037 43.593148 -0.901340 0.824981 0.099937 -0.027122 184170.000000 0 0 1
-19.148846 24.852325 28.346547 42.282894 -0.914301 0.836046 0.101288 -0.028667 556463.000000 0 0 1
-19.840146 23.995825 27.413157 41.483879 -0.879916 0.848893 0.091875 -0.028323 101338.000000 0 0 1
-19.795446 22.465825 27.714147 40.800085 -0.848502 0.824033 0.063792 -0.011269 672930.000000 0 0 1
-20.776446 21.969325 28.646067 41.652240 -0.813297 0.812420 0.065485 -0.012806 597211.000000 0 0 1
-20.581446 20.565725 28.722347 40.884205 -0.785016 0.791851 0.084220 -0.017495 197411.000000 0 0 1
-20.981146 19.942325 30.043497 41.719498 -0.760019 0.766805 0.100147 -0.018971 294176.000000 0 0 1
-19.986946 20.192225 31.036017 42.076577 -0.790507 0.741275 0.090936 -0.027584 333279.000000 0 0 1
-20.519346 20.039825 32.329251 43.218267 -0.773576 0.725684 0.084401 -0.026053 -471360.000000 0 0 1
-19.640546 20.533325 33.482899 43.914383 -0.807617 0.703692 0.088179 -0.025320 -499245.000000 0 0 1
-19.716046 21.937525 33.584493 44.697826 -0.838680 0.720664 0.053822 -0.025618 59789.700000 0 0 1
-18.905446 22.659925 32.700321 44.047691 -0.875481 0.734174 0.072012 -0.017206 -770806.000000 0 0 1
-17.450246 22.903625 33.090720 43.864369 -0.919723 0.716076 0.077665 -0.019244 -257348.000000 0 0 1
-16.645246 21.732725 33.062326 42.924270 -0.917192 0.691567 0.097273 -0.036700 809722.000000 0 0 1
-15.298146 22.001125 33.504548 42.902652 -0.963208 0.674621 0.074160 -0.033656 906238.000000 0 0 1
-14.227646 20.899025 33.179286 41.714029 -0.973086 0.651131 0.067107 -0.039086 1255050.000000 0 0 1
-12.881046 21.022525 33.681241 41.740795 -1.021072 0.631887 0.060044 -0.030749 1147880.000000 0 0 1
-12.723346 20.990925 -32.728059 40.910002 -1.025878 2.498094 0.070762 -0.034913 -1313640.000000 0 0 1
-11.295046 20.663425 -32.368229 40.028208 -1.070552 2.512625 0.062590 -0.025594 -762517.000000 0 0 1
-10.436746 21.774025 -32.413809 40.418917 -1.123828 2.501343 0.075781 -0.031177 -470904.000000 0 0 1
-9.201146 21.479725 -31.824559 39.482176 -1.166080 2.508242 0.074664 -0.033901 -682419.000000 0 0 1
-8.176446 22.587825 -31.820899 39.870211 -1.223485 2.494952 0.084838 -0.029508 -422468.000000 0 0 1
-8.340346 23.693025 -30.922129 39.838409 -1.232326 2.459395 0.090458 -0.027990 -43220.100000 0 0 1
-7.952546 23.442525 -29.558289 38.554992 -1.243743 2.444408 0.080754 -0.031721 57908.500000 0 0 1
-7.321946 24.643325 -28.831949 38.628819 -1.281987 2.413409 0.095451 -0.031282 111017.000000 0 0 1
-6.133046 25.135725 -29.408159 39.169615 -1.331475 2.420054 0.106518 -0.023736 -204171.000000 0 0 1
-5.665846 26.239325 -28.715729 39.308995 -1.358132 2.389869 0.126209 -0.030588 566929.000000 0 0 1
-4.239146 26.664725 -29.238419 39.797777 -1.413136 2.395983 0.091020 -0.028509 -152152.000000 0 0 1
-3.209646 25.957225 -28.549429 38.718849 -1.447769 2.399939 0.107982 -0.027989 -256159.000000 0 0 1
-1.970046 26.006525 -29.198989 39.151007 -1.495189 2.412538 0.126911 -0.028891 -354276.000000 0 0 1
-1.258246 27.324025 -28.942259 39.822605 -1.524780 2.384418 0.130806 -0.037988 -1564860.000000 0 0 1
-0.711246 27.385925 -27.666549 38.934980 -1.544831 2.361123 0.139849 -0.052517 175754.000000 0 0 1
-0.004446 28.599325 -27.423249 39.622670 -1.570641 2.335205 0.148072 -0.047469 -724334.000000 0 0 1
0.599454 28.675425 -26.004959 38.715594 1.549895 2.307287 0.154862 -0.065679 216625.000000 0 0 1
1.753754 27.937425 -25.665859 37.977779 1.508104 2.312863 0.185755 -0.074729 1195280.000000 0 0 1
2.976654 28.216225 -26.388479 38.747486 1.465691 2.319974 0.174286 -0.075673 649685.000000 0 0 1
4.256954 28.157425 -25.514729 38.235633 1.420749 2.301377 0.173233 -0.077413 184822.000000 0 0 1
4.640854 26.811525 -25.074659 37.001810 1.399403 2.315373 0.165748 -0.070575 -486737.000000 0 0 1
5.904854 26.937925 -24.522709 36.903690 1.355007 2.297628 0.128014 -0.062355 -626804.000000 0 0 1
6.575554 25.590725 -24.061709 35.736381 1.319287 2.309475 0.123249 -0.059146 763433.000000 0 0 1
7.811054 25.939925 -23.409809 35.803791 1.278311 2.283440 0.118986 -0.058341 12609.700000 0 0 1
8.513654 24.791325 -23.014509 34.882083 1.240002 2.291323 0.098987 -0.034870 657583.000000 0 0 1
9.959754 25.162225 -22.544209 35.221806 1.193897 2.265378 0.079657 -0.017552 -153985.000000 0 0 1
9.956654 25.771525 -21.253709 34.857232 1.202118 2.226524 0.096403 -0.021645 -723341.000000 0 0 1
11.177454 26.238325 -20.802709 35.300678 1.168081 2.200989 0.112844 -0.025188 -344059.000000 0 0 1
12.180154 25.179725 -20.258809 34.536851 1.120250 2.197632 0.072167 -0.001652 90746.100000 0 0 1
12.584854 24.226425 -21.230209 34.583522 1.091696 2.231765 0.069721 -0.007506 -267146.000000 0 0 1
12.809454 22.943525 -20.616509 33.399520 1.061600 2.236064 0.042077 0.006543 -164267.000000 0 0 1
12.835254 21.844525 -21.718109 33.370695 1.039564 2.279452 0.048731 -0.002079 -269543.000000 0 0 1
11.614254 21.768825 -22.380109 33.311288 1.080688 2.307497 0.062773 -0.019206 -330909.000000 0 0 1
11.867654 21.075725 -23.616909 33.805115 1.057954 2.344262 0.061586 -0.030331 139244.000000 0 0 1
10.843554 21.366525 -24.746109 34.445333 1.101165 2.372320 0.072831 -0.034507 -311177.000000 0 0 1
9.582054 20.810725 -24.559809 33.586995 1.139296 2.390919 0.062599 -0.037084 -693652.000000 0 0 1
8.999254 20.519325 -25.807459 34.176808 1.157484 2.426628 0.058290 -0.037604 778505.000000 0 0 1
7.536654 19.919925 -25.689719 33.370140 1.209094 2.449389 0.071981 -0.043892 1922480.000000 0 0 1
6.371354 20.683225 -25.294119 33.289374 1.271976 2.433841 0.107457 -0.046110 815662.000000 0 0 1
6.474354 21.478125 -24.124109 32.942370 1.278019 2.392508 0.115905 -0.049058 -1051350.000000 0 0 1
5.144954 21.869925 -23.459509 32.482499 1.339745 2.377803 0.147978 -0.054400 -324052.000000 0 0 1
4.589254 23.008925 -24.061409 33.606893 1.373924 2.368804 0.150829 -0.058328 -667430.000000 0 0 1
3.198454 22.891725 -23.939009 33.276679 1.431974 2.373724 0.183854 -0.054979 -467680.000000 0 0 1
2.465354 24.108125 -24.553109 34.498331 1.468888 2.362738 0.172430 -0.051266 -950370.000000 0 0 1
1.091354 23.999325 -24.402309 34.243705 1.525353 2.364004 0.181493 -0.070302 -1002150.000000 0 0 1
0.525654 25.052925 -25.209279 35.544804 1.549818 2.359195 0.170915 -0.052047 893027.000000 0 0 1
-1.018746 24.813125 -25.375439 35.505520 -1.529763 2.366977 0.174812 -0.047909 876201.000000 0 0 1
-1.335046 23.545825 -26.049689 35.139358 -1.514157 2.405839 0.184619 -0.050379 -79204.000000 0 0 1
-2.670646 23.593025 -26.509079 35.587841 -1.458080 2.411168 0.171892 -0.040087 271877.000000 0 0 1
-3.213946 22.205425 -27.047109 35.141947 -1.427058 2.449094 0.155301 -0.036690 -168173.000000 0 0 1
-2.488746 21.697725 -28.161159 35.637564 -1.456595 2.481948 0.176717 -0.046200 -186172.000000 0 0 1
-2.987246 20.539625 -28.689809 35.410521 -1.426371 2.515299 0.137664 -0.038678 -581904.000000 0 0 1
-4.161946 20.596725 -29.665479 36.353645 -1.371413 2.525296 0.120856 -0.035658 -290393.000000 0 0 1
-3.920046 20.939525 -31.014399 37.626100 -1.385731 2.539724 0.113166 -0.035776 -214015.000000 0 0 1
-3.590246 22.276725 -31.292879 38.579614 -1.411005 2.516869 0.133759 -0.036170 -161718.000000 0 0 1
-3.111846 22.436325 -32.709559 39.786775 -1.432979 2.535924 0.100106 -0.030361 1475010.000000 0 0 1
-1.872746 21.661625 -32.943479 39.471584 -1.484556 2.558225 0.090356 -0.028196 1743160.000000 0 0 1
-1.327246 21.881725 33.604331 40.122594 -1.510215 0.578029 0.081934 -0.014729 -85580.600000 0 0 1
-0.215946 20.967925 33.131470 39.209627 -1.560498 0.564263 0.085313 -0.012823 -141399.000000 0 0 1
-0.755746 19.691725 32.802480 38.266668 -1.532436 0.540974 0.074860 -0.003135 790058.000000 0 0 1
0.244054 18.857025 32.168794 37.289118 1.557855 0.530240 0.078741 -0.010227 645021.000000 0 0 1
-0.278746 17.433125 31.852853 36.312475 -1.554808 0.500823 0.059300 -0.001363 525882.000000 0 0 1
-1.287246 17.432825 30.835867 35.445890 -1.497090 0.515712 0.049071 -0.000531 258497.000000 0 0 1
-1.701746 16.131325 30.517037 34.560167 -1.465692 0.488555 0.040730 0.006565 116544.000000 0 0 1
-2.575346 16.171425 29.187107 33.466919 -1.412870 0.511282 0.048174 0.003519 2079760.000000 0 0 1
-3.935346 16.702125 29.397267 34.038908 -1.339397 0.528356 0.039092 -0.000487 1655270.000000 0 0 1
-4.008346 18.090425 29.304097 34.670743 -1.352746 0.563836 0.033482 -0.000332 -426456.000000 0 0 1
-5.477146 18.463625 29.558257 35.278820 -1.282420 0.577469 0.042580 -0.010260 189822.000000 0 0 1
-6.334846 17.999725 28.523907 34.318125 -1.232393 0.589603 0.031393 -0.009575 29583.200000 0 0 1
-7.660346 18.447525 28.757347 35.013956 -1.177212 0.607091 0.041963 -0.012950 476892.000000 0 0 1
-8.803246 17.896825 27.837477 34.244980 -1.113659 0.621695 0.044317 -0.022423 435712.000000 0 0 1
-9.268246 16.595025 28.110697 33.933856 -1.061454 0.594557 0.053984 -0.029749 349080.000000 0 0 1
-10.219246 16.496325 29.191807 35.053150 -1.016172 0.586673 0.055461 -0.029763 -435042.000000 0 0 1
-10.871046 15.141725 29.274567 34.705213 -0.948123 0.566991 0.059059 -0.033719 376726.000000 0 0 1
-10.029446 13.917225 29.382287 34.023488 -0.946345 0.528453 0.065777 -0.022943 1133770.000000 0 0 1
-8.951346 13.802325 30.299357 34.477265 -0.995449 0.497410 0.051877 -0.024206 297402.000000 0 0 1
-9.497346 13.571825 31.728017 35.791914 -0.960215 0.481162 0.099347 -0.034054 -212820.000000 0 0 1
-9.993846 12.271925 31.988346 35.689374 -0.887356 0.459445 0.101054 -0.020779 332174.000000 0 0 1
-10.424846 12.110125 33.322324 36.955512 -0.860044 0.447140 0.088573 -0.011636 -582447.000000 0 0 1
-10.788846 10.585325 33.586741 36.830931 -0.775877 0.422866 0.075719 -0.022391 -183815.000000 0 0 1
-9.727346 9.633225 33.482362 36.173041 -0.780537 0.388135 0.077466 -0.025114 329139.000000 0 0 1
-9.563946 8.776125 -33.242179 35.686578 -0.742468 2.769322 0.111614 -0.039042 -162286.000000 0 0 1
-8.657746 9.320525 -32.134829 34.561192 -0.822247 2.764652 0.105416 -0.045223 -183441.000000 0 0 1
-9.316246 10.300025 -31.291649 34.235219 -0.835507 2.723880 0.097419 -0.034118 599047.000000 0 0 1
-8.387446 11.037725 -30.534829 33.534406 -0.920996 2.715414 0.095771 -0.035418 -142739.000000 0 0 1
-7.518446 12.039625 -31.287089 34.356390 -1.012575 2.715682 0.070662 -0.035213 -234658.000000 0 0 1
-8.193346 13.242725 -31.550049 35.183892 -1.016736 2.683095 0.077118 -0.027147 -9460.740000 0 0 1
-7.299646 14.176225 -32.058719 35.805190 -1.095283 2.680047 0.053940 -0.026523 -180398.000000 0 0 1
-7.912546 15.618525 -32.219429 36.669310 -1.101872 2.643820 0.050159 -0.022854 164831.000000 0 0 1
-8.872046 15.747225 -33.253089 37.847803 -1.057721 2.643719 0.060499 -0.025295 216658.000000 0 0 1
-9.306546 17.116825 -33.275929 38.560147 -1.072797 2.611899 0.077019 -0.031132 -560887.000000 0 0 1
-9.727246 17.643925 33.167933 38.807721 -1.066949 0.545875 0.049153 -0.027435 782535.000000 0 0 1
-10.923346 17.152225 32.553930 38.383287 -1.003723 0.558355 0.052343 -0.031814 787554.000000 0 0 1
-12.189746 17.532425 33.070464 39.365359 -0.963253 0.573346 0.070206 -0.041073 216791.000000 0 0 1
-13.313546 17.148625 32.043804 38.705700 -0.910636 0.595473 0.079064 -0.041661 -16890.400000 0 0 1
-13.351546 15.787425 31.680267 37.830489 -0.868800 0.578238 0.075422 -0.031899 781076.000000 0 0 1
-14.146446 14.980025 32.591833 38.558406 -0.814010 0.563747 0.080974 -0.028097 260696.000000 0 0 1
-13.684346 13.491625 32.491287 37.748762 -0.778307 0.534105 0.066243 -0.021363 -288262.000000 0 0 1
-14.070146 12.819525 31.327707 36.656984 -0.738922 0.545982 0.060545 -0.028074 -420207.000000 0 0 1
-13.001546 12.193025 30.682277 35.483971 -0.753318 0.526283 0.065028 -0.015225 -776474.000000 0 0 1
-13.338346 11.399925 29.370077 34.212150 -0.707201 0.538519 0.075728 -0.018430 -815268.000000 0 0 1
-14.209346 10.343825 29.557507 34.388173 -0.629245 0.536456 0.060099 -0.014262 -132687.000000 0 0 1
-14.564546 9.826225 28.302327 33.312196 -0.593521 0.555554 0.057166 -0.012223 -251884.000000 0 0 1
-15.342946 8.505025 28.301527 33.297416 -0.506160 0.554884 0.065071 -0.009130 -320608.000000 0 0 1
-14.637146 7.350525 28.529647 32.897067 -0.465392 0.521165 0.034142 -0.009078 -382179.000000 0 0 1
-15.481646 6.261525 28.269807 32.833977 -0.384335 0.533579 0.047213 -0.006184 -225762.000000 0 0 1
-14.818046 4.845525 28.379547 32.379813 -0.316041 0.502341 0.045812 -0.004418 413051.000000 0 0 1
-13.806546 4.714325 27.376837 31.021554 -0.329043 0.489623 0.048438 -0.010232 444733.000000 0 0 1
-14.412946 4.532425 26.092967 30.151597 -0.304678 0.524863 0.045830 -0.010445 55232.700000 0 0 1
-13.382946 4.365525 24.941037 28.639420 -0.315317 0.513839 0.035817 -0.004051 21567.800000 0 0 1
-12.621046 3.186825 25.076317 28.253643 -0.247331 0.478812 0.030992 -0.004564 286685.000000 0 0 1
-11.805846 2.902325 23.926657 26.838152 -0.241058 0.470114 0.027728 -0.005109 115025.000000 0 0 1
-10.901846 1.689625 24.270677 26.660286 -0.153762 0.426623 0.029593 0.001211 494101.000000 0 0 1
-9.524046 2.041925 24.387757 26.260990 -0.211200 0.379989 0.033322 -0.008626 350646.000000 0 0 1
-8.643846 1.009125 24.712167 26.199726 -0.116219 0.338595 0.030433 0.000986 -451968.000000 0 0 1
-7.206846 1.389425 24.369657 25.450920 -0.190456 0.292535 0.052358 -0.014591 -1321490.000000 0 0 1
-6.951346 1.383625 22.981897 24.050015 -0.196476 0.299149 0.057551 -0.015499 641615.000000 0 1 0
-5.571146 1.565625 22.652157 23.379672 -0.273958 0.250121 0.056816 -0.017811 608382.000000 0 1 0
-4.901746 2.948225 22.952937 23.654946 -0.541496 0.244233 0.078396 -0.025893 -577173.000000 0 1 0
-4.709646 2.999925 24.362417 24.994153 -0.567164 0.225311 0.082494 -0.029449 -98037.000000 0 1 0
-4.200546 4.259625 24.776327 25.488338 -0.792381 0.236921 0.076650 -0.034221 -5539.880000 0 0 1
4.852954 -23.859275 13.002691 27.602285 -1.370135 1.080290 0.140915 -0.033817 379076.000000 0 0 1
3.955754 -24.826575 13.524791 28.546923 -1.412789 1.077225 0.154084 -0.049782 -974881.000000 0 0 1
2.662554 -24.641275 13.063191 28.016577 -1.463161 1.085731 0.137480 -0.049636 -631519.000000 0 0 1
1.703754 -25.636645 13.751391 29.141741 -1.504436 1.079375 0.105716 -0.052730 -171029.000000 0 0 1
1.620554 -25.513165 15.124691 29.703603 -1.507363 1.036556 0.141365 -0.050328 -211928.000000 0 0 1
2.163254 -26.639985 15.734391 31.015150 -1.489771 1.038732 0.139290 -0.044271 -164094.000000 0 0 1
2.064454 -26.801905 17.242191 31.935830 -1.493922 1.000477 0.118132 -0.034118 -59694.500000 0 0 1
2.926754 -25.988595 18.013791 31.756411 -1.458652 0.967635 0.136541 -0.044299 140881.000000 0 0 1
3.200054 -26.771525 19.216491 33.109340 -1.451829 0.951583 0.113004 -0.036639 438971.000000 0 0 1
4.141154 -26.001805 20.204491 33.188318 -1.412859 0.916270 0.101493 -0.034002 603426.000000 0 0 1
3.379654 -24.956275 20.807491 32.667865 -1.436192 0.880273 0.098248 -0.026390 1283600.000000 0 0 1
4.269354 -24.189475 21.672291 32.757385 -1.396099 0.847846 0.090482 -0.024151 636849.000000 0 0 1
3.489254 -23.083475 22.406691 32.358639 -1.420774 0.805919 0.098184 -0.033934 -80806.600000 0 0 1
2.978154 -22.074975 21.561191 31.000950 -1.436695 0.801679 0.124328 -0.035790 166420.000000 0 0 1
3.957754 -21.238975 20.977191 30.113127 -1.386565 0.800131 0.115057 -0.020825 -285811.000000 0 0 1
3.351854 -20.211675 20.074791 28.683514 -1.406454 0.795578 0.084677 -0.016200 -47167.400000 0 0 1
2.643554 -19.208375 20.795191 28.432200 -1.434030 0.750430 0.047774 -0.012285 -175726.000000 0 0 1
1.831254 -18.528075 19.894691 27.247785 -1.472280 0.752270 0.035559 -0.019279 -300090.000000 0 0 1
1.240354 -17.237475 20.508591 26.819234 -1.498963 0.700225 0.053052 -0.021862 -405709.000000 0 0 1
2.218454 -16.304075 20.792891 26.515820 -1.435559 0.669440 0.014981 -0.005063 -119113.000000 0 0 1
1.603354 -15.152475 21.386791 26.259533 -1.465374 0.619034 0.020854 0.001207 143735.000000 0 0 1
2.588654 -13.990775 21.406191 25.703462 -1.387840 0.586625 0.000586 0.026034 60017.200000 0 0 1
3.217754 -13.553475 20.139291 24.487582 -1.337700 0.605129 -0.012317 0.024955 17659.200000 0 1 0
2.457254 -13.077675 19.046891 23.234624 -1.385065 0.609799 -0.006182 0.015855 -501427.000000 0 1 0
1.633654 -11.823275 19.306691 22.698171 -1.433493 0.553702 0.004742 0.004195 -659236.000000 0 1 0
2.337154 -10.608375 19.282291 22.131576 -1.353948 0.513039 0.009860 0.010894 -266391.000000 0 1 0
1.831154 -9.599375 20.163091 22.406503 -1.382303 0.451309 0.016075 -0.004943 643087.000000 0 1 0
0.336954 -9.152875 20.087191 22.076773 -1.533999 0.427804 0.032616 -0.013746 478138.000000 0 1 0
0.018554 -8.091275 20.900191 22.411762 -1.568503 0.369371 0.050186 -0.028758 -38333.300000 0 1 0
-1.366146 -7.782975 20.846791 22.294164 1.397036 0.362316 0.052913 -0.031091 408668.000000 0 1 0
-1.999646 -7.034075 22.088291 23.267346 1.293823 0.319713 0.054681 -0.028019 56834.100000 0 1 0
-2.193346 -7.897575 23.200491 24.605797 1.299899 0.339602 0.046462 -0.020226 8617.490000 0 1 0
-2.338746 -7.120975 24.407791 25.532691 1.253465 0.297942 0.034987 -0.012095 -176815.000000 0 0 1
-2.492546 -8.107875 25.603591 26.972102 1.272544 0.319916 0.025071 -0.013800 272520.000000 0 0 1
-1.408846 -8.987675 25.886291 27.438353 1.415309 0.337955 0.024241 -0.013947 340479.000000 0 0 1
-1.702046 -9.813075 27.060891 28.835486 1.399058 0.352658 0.028962 -0.027420 273711.000000 0 0 1
-0.521846 -10.822575 27.233291 29.309599 1.522615 0.378664 0.030488 -0.030265 60160.800000 0 0 1
0.672754 -10.173175 27.537091 29.363881 -1.504762 0.354593 0.033806 -0.026229 -691871.000000 0 0 1
1.712754 -11.065675 27.798491 29.968964 -1.417234 0.382924 0.048265 -0.036758 -278088.000000 0 0 1
2.846154 -10.550075 28.678091 30.689373 -1.307294 0.364048 0.083979 -0.040599 103736.000000 0 0 1
2.302754 -10.261075 29.995491 31.785560 -1.350037 0.337205 0.076964 -0.052824 837384.000000 0 0 1
3.368654 -10.027375 30.923191 32.682409 -1.246696 0.329599 0.128475 -0.042652 359644.000000 0 0 1
2.847354 -9.473275 32.298291 33.779135 -1.278819 0.297197 0.124954 -0.054854 -529649.000000 0 0 1
2.051454 -10.352475 33.040591 34.685197 -1.375170 0.309175 0.122929 -0.056276 -129373.000000 0 0 1
2.141154 -10.164975 -33.374475 34.953781 -1.363191 2.839841 0.108818 -0.060321 489554.000000 0 0 1
3.500154 -10.432175 -32.605175 34.411899 -1.247083 2.816112 0.103745 -0.041422 1213840.000000 0 0 1
4.508854 -9.414075 -32.827475 34.447027 -1.124132 2.833733 0.085659 -0.048103 782928.000000 0 0 1
4.808954 -8.650675 -31.640175 33.152087 -1.063431 2.838422 0.111402 -0.045568 -365744.000000 0 0 1
3.680454 -7.745175 -31.092475 32.253302 -1.127190 2.872487 0.096947 -0.033409 -16664.300000 0 0 1
3.635654 -6.624275 -31.981175 32.861749 -1.068846 2.909572 0.136328 -0.041885 -274447.000000 0 0 1
2.705154 -5.690175 -31.575975 32.198418 -1.127015 2.944645 0.104891 -0.019356 -337793.000000 0 0 1
2.894554 -4.362575 -32.372075 32.792709 -0.984991 2.981252 0.107532 -0.022097 31865.700000 0 0 1
2.358054 -4.447475 -33.673975 34.048158 -1.083281 2.993201 0.102094 -0.035520 -168523.000000 0 0 1
2.618654 -3.338675 33.398291 33.666749 -0.905678 0.126369 0.117746 -0.030321 208866.000000 0 0 1
1.833554 -3.347275 32.050891 32.277326 -1.069663 0.118520 0.129662 -0.033799 594945.000000 0 0 1
0.447454 -3.055475 32.103391 32.251572 -1.425386 0.095896 0.124928 -0.035048 33015.700000 0 0 1
-0.141746 -3.452375 30.854191 31.047063 1.529762 0.111523 0.113688 -0.031722 1383510.000000 0 0 1
-1.721446 -3.452875 30.856291 31.096566 1.108306 0.124392 0.093752 -0.024999 1342830.000000 0 0 1
-2.423246 -2.307575 30.343191 30.527140 0.760953 0.109834 0.088745 -0.025461 216771.000000 0 0 1
-3.799446 -2.634075 30.377391 30.727187 0.606201 0.151034 0.065524 -0.023877 566843.000000 0 0 1
-4.853346 -1.587475 29.871091 30.304408 0.316120 0.169310 0.054320 -0.020965 396070.000000 0 0 1
-4.742046 -1.417175 28.454191 28.881419 0.290404 0.172216 0.048049 -0.018967 191396.000000 0 0 1
-5.770146 -0.623075 27.865691 28.463653 0.107566 0.205338 0.033240 -0.017924 288632.000000 0 0 1
-5.959546 0.867525 28.250091 28.884883 -0.144554 0.210036 0.069535 -0.024223 317547.000000 0 0 1
-6.907546 1.147625 29.289991 30.115358 -0.164637 0.234661 0.062450 -0.021415 136268.000000 0 0 1
-7.118446 2.547525 29.354391 30.312414 -0.343675 0.252083 0.081434 -0.029269 161267.000000 0 0 1
-8.572546 3.003325 29.675291 31.034359 -0.336980 0.297038 0.065227 -0.027287 299389.000000 0 0 1
-9.548246 2.596525 28.739591 30.395313 -0.265517 0.331586 0.047084 -0.017620 760878.000000 0 0 1
-10.850946 3.015725 29.207291 31.303410 -0.271081 0.368028 0.034989 -0.008079 701853.000000 0 0 1
-11.943746 2.272925 28.400491 30.893481 -0.188054 0.404489 0.026078 -0.000960 -394433.000000 0 0 1
-12.010746 0.876325 28.492191 30.932684 -0.072833 0.399892 0.025907 0.002515 -158675.000000 0 0 1
-12.704046 0.319225 27.428191 30.229131 -0.025123 0.433876 0.031087 0.001794 -1070490.000000 0 0 1
-12.852546 -1.248075 27.542091 30.418948 0.096804 0.438415 0.031225 -0.005163 423602.000000 0 0 1
-11.683446 -2.025675 27.844991 30.264663 0.171673 0.402589 0.043881 -0.011086 990507.000000 0 0 1
-10.495346 -1.906175 27.057891 29.084622 0.179663 0.375523 0.019054 -0.009023 144812.000000 0 0 1
-10.459646 -2.536275 25.629391 27.797528 0.237890 0.397575 0.020933 -0.003596 -448687.000000 0 0 1
-11.268146 -1.848775 24.674291 27.188412 0.162622 0.433432 0.007389 -0.005569 487722.000000 0 0 1
-11.181746 -2.522475 23.394491 26.051805 0.221875 0.455596 0.003113 -0.002095 79822.900000 0 0 1
-9.922146 -2.128475 22.577691 24.753414 0.211315 0.422409 0.017015 -0.005739 144075.000000 0 1 0
-8.682646 -2.454675 23.143891 24.840561 0.275520 0.371738 0.027602 -0.006472 -616557.000000 0 1 0
-7.664746 -1.986575 22.284791 23.649666 0.253603 0.341397 0.025250 -0.007292 278762.000000 0 1 0
-6.220746 -2.238075 22.821391 23.759683 0.345357 0.281970 0.037252 -0.001605 390993.000000 0 1 0
-5.702746 -3.534275 22.640091 23.613262 0.554815 0.288094 0.042638 -0.006334 66328.600000 0 1 0
-6.276646 -4.518375 23.527791 24.766287 0.623938 0.317584 0.037816 -0.006285 -106383.000000 0 1 0
-5.840846 -5.984075 23.252091 24.710006 0.797510 0.345226 0.042415 -0.007665 -272383.000000 0 1 0
-6.409546 -6.609575 22.128191 23.967178 0.800761 0.394287 0.033000 -0.016273 -888.806000 0 1 0
-6.150446 -5.970175 20.850491 22.543601 0.770526 0.390034 0.036307 -0.018678 436812.000000 0 1 0
-7.393646 -6.088075 19.883791 22.070247 0.688859 0.448884 0.043018 -0.015049 46880.000000 0 1 0
-8.407646 -5.251975 20.250591 22.546800 0.558359 0.455234 0.040324 -0.009851 -1045530.000000 0 1 0
-9.449246 -5.090375 19.321591 22.102580 0.494132 0.507056 0.048841 -0.000757 -63920.000000 0 1 0
-9.991746 -3.655275 19.305491 22.043094 0.350707 0.503692 0.026132 -0.005696 -238893.000000 0 1 0
-9.097646 -2.718975 18.767691 21.032979 0.290416 0.468386 0.023333 -0.009205 -128178.000000 0 1 0
-9.659346 -1.398975 18.703091 21.096581 0.143831 0.480971 0.018478 -0.012513 -378715.000000 0 1 0
-8.720946 -0.330375 18.130291 20.121419 0.037865 0.448625 0.015526 -0.009573 -667057.000000 0 1 0
-7.675346 0.156225 18.917091 20.415476 -0.020351 0.385514 0.019586 -0.002953 171602.000000 0 1 0
-8.087346 0.817725 20.132391 21.711449 -0.100769 0.383740 0.039792 -0.002173 -491555.000000 0 1 0
-8.086646 2.360625 19.884091 21.594987 -0.284024 0.400738 0.043764 -0.012938 659411.000000 0 1 0
-9.108346 2.836925 18.971291 21.234877 -0.301941 0.465934 0.033406 -0.020269 677603.000000 0 1 0
-8.726546 4.070725 18.474691 20.833569 -0.436471 0.480476 0.030036 -0.023857 152202.000000 0 1 0
-9.660546 4.664525 17.387291 20.430414 -0.449828 0.552816 0.034972 -0.009968 448750.000000 0 1 0
-10.859446 5.240225 17.909191 21.589966 -0.449590 0.592558 0.037419 0.001197 270416.000000 0 1 0
-11.528446 6.040825 16.973791 21.389395 -0.482657 0.654157 0.037455 0.012554 -245654.000000 0 1 0
-11.205046 7.534425 16.996991 21.707564 -0.591971 0.671324 0.032445 0.011091 318823.000000 0 1 0
-9.857546 7.755125 16.566691 20.779038 -0.666591 0.648022 0.022738 -0.000107 578544.000000 0 1 0
-9.560746 9.037625 16.273891 20.926683 -0.757278 0.679858 0.001241 -0.007174 202889.000000 0 1 0
-8.428446 9.663625 17.137991 21.404091 -0.853564 0.642354 0.011727 0.005678 134819.000000 0 1 0
-8.907646 10.056825 18.433791 22.809878 -0.845921 0.629793 0.048631 0.023905 -26950.300000 0 1 0
-8.654146 11.377925 18.815291 23.629782 -0.920540 0.649720 0.073545 0.020047 19809.000000 0 1 0
-9.370246 12.509725 18.038091 23.867708 -0.927912 0.713993 0.074962 0.006943 68225.000000 0 1 0
-8.811446 12.686825 16.719091 22.762362 -0.963747 0.745858 0.048270 -0.005210 90043.300000 0 1 0
-9.545646 13.660225 15.958991 23.074022 -0.960882 0.807035 0.055162 -0.021215 -142797.000000 0 1 0
-9.024046 14.089125 14.601691 22.206896 -1.001130 0.853261 0.046372 -0.020316 485716.000000 0 1 0
-7.866946 14.943625 14.651891 22.357967 -1.086220 0.856174 0.048941 -0.010644 447455.000000 0 1 0
-7.570646 15.361225 13.341191 21.708738 -1.112892 0.908976 0.043883 -0.024776 533230.000000 0 1 0
-6.464846 16.490325 13.330591 22.168214 -1.197172 0.925622 0.020247 -0.016447 567605.000000 0 1 0
-5.127346 16.081425 13.436791 21.574273 -1.262149 0.898460 0.023540 -0.021417 -390261.000000 0 1 0
-4.272646 17.205025 13.364891 22.201097 -1.327383 0.924802 0.023366 -0.023328 534305.000000 0 1 0
-2.742746 16.901725 13.382191 21.731866 -1.409923 0.907412 0.021176 -0.026413 608076.000000 0 1 0
-2.052946 16.427525 14.530791 22.027757 -1.446471 0.850432 0.031326 -0.023658 215773.000000 0 1 0
-2.491746 15.128025 14.974291 21.431177 -1.407551 0.797196 0.028330 -0.018938 -220886.000000 0 1 0
-1.555546 14.564825 16.084391 21.754574 -1.464398 0.738682 0.024312 -0.008833 1056800.000000 0 1 0
-0.275846 14.169125 15.477891 20.985836 -1.551331 0.741376 0.021717 -0.021266 537548.000000 0 1 0
0.631754 13.743525 16.428591 21.428537 1.524861 0.697160 0.028200 -0.004138 -321410.000000 0 1 0
1.505754 14.849325 17.014291 22.633070 1.469740 0.720092 0.028835 -0.008710 -774640.000000 0 1 0
0.856354 15.570925 17.990191 23.808277 1.515855 0.714185 0.024493 -0.012775 -699573.000000 0 1 0
1.612754 16.700325 18.289491 24.819495 1.474525 0.742323 0.056229 -0.014601 -438250.000000 0 1 0
0.797554 17.933125 18.833791 26.018162 1.526352 0.761400 0.064114 -0.017689 188909.000000 0 0 1
0.259754 18.735825 17.850891 25.879585 1.556933 0.809629 0.042523 -0.020042 -7593.280000 0 0 1
-0.787546 18.231825 17.019191 24.953408 -1.527627 0.820250 0.036046 -0.013220 -549189.000000 0 1 0
-1.459946 19.444425 16.397891 25.477597 -1.495854 0.871578 0.033278 -0.013659 -31010.000000 0 0 1
-2.256646 20.259025 17.277491 26.721382 -1.459864 0.867705 0.037939 -0.018898 520056.000000 0 0 1
-2.788246 21.432225 16.601591 27.253026 -1.441427 0.915789 0.064036 -0.029679 -431817.000000 0 0 1
-3.585746 22.353425 17.549091 28.644437 -1.411740 0.911384 0.058403 -0.024715 516085.000000 0 0 1
-4.821746 21.793925 18.035291 28.696622 -1.353061 0.891197 0.076419 -0.026015 726388.000000 0 0 1
-5.331546 22.598025 19.086991 30.056769 -1.339103 0.882747 0.083197 -0.016217 381642.000000 0 0 1
-6.659846 22.107825 19.735291 30.374186 -1.278199 0.863555 0.068381 -0.021610 -230486.000000 0 0 1
-7.846446 22.552825 19.182791 30.629661 -1.235981 0.894022 0.055513 -0.017059 -384940.000000 0 0 1
-8.959746 22.046325 19.913891 31.030317 -1.184780 0.874011 0.019997 -0.021199 506855.000000 0 0 1
-10.337146 22.489225 19.357091 31.421630 -1.139947 0.907086 0.039302 -0.023595 114748.000000 0 0 1
-10.766546 23.753925 19.813491 32.752739 -1.145240 0.921104 0.058544 -0.017061 20424.400000 0 0 1
-11.886246 24.211625 19.088691 33.043362 -1.114430 0.954905 0.038006 -0.014218 29698.500000 0 0 1
-12.399846 25.641025 19.459891 34.495010 -1.120359 0.971409 0.040855 -0.011580 -201552.000000 0 0 1
-13.097546 25.710725 20.667491 35.492707 -1.099642 0.949238 0.037763 -0.004814 -54314.100000 0 0 1
-13.690546 26.965925 20.839991 36.727339 -1.101009 0.967422 0.049747 -0.017419 -267688.000000 0 0 1
-14.674746 26.876225 22.030591 37.723025 -1.071020 0.947137 0.082857 -0.028809 -67277.700000 0 0 1
-15.967946 26.352825 21.802591 37.746519 -1.026029 0.955004 0.066683 -0.030537 58069.700000 0 0 1
-16.764146 26.657325 22.921591 38.949312 -1.009415 0.941597 0.052246 -0.019041 -12704.100000 0 0 1
-18.129946 25.936025 22.961791 39.097521 -0.960725 0.943083 0.065980 -0.021993 -232697.000000 0 0 1
-18.150646 24.503825 23.022091 38.208639 -0.933256 0.924121 0.085413 -0.019015 445426.000000 0 0 1
-19.401946 23.826025 23.272891 38.545330 -0.887386 0.922562 0.080458 -0.011946 525549.000000 0 0 1
28.176254 23.829525 23.345947 43.666702 0.702010 1.006715 0.109506 -0.031580 -37058.800000 0 0 1
28.047054 23.049225 24.446537 43.766851 0.687896 0.978144 0.116195 -0.040682 256436.000000 0 0 1
27.681254 21.693725 24.106657 42.638017 0.664721 0.969903 0.119365 -0.025301 -260355.000000 0 0 1
27.410554 20.908925 25.410777 42.827903 0.651646 0.935616 0.139939 -0.029728 475681.000000 0 0 1
26.192554 21.271125 26.070887 42.640378 0.682079 0.912951 0.131919 -0.028886 527878.000000 0 0 1
26.002154 20.543525 27.281107 42.923272 0.668657 0.882039 0.141867 -0.029548 -223414.000000 0 0 1
24.657854 20.914325 27.906457 42.710527 0.703437 0.858748 0.148908 -0.035818 -305718.000000 0 0 1
24.670654 22.141125 28.609837 43.788051 0.731414 0.858768 0.150325 -0.046057 455434.000000 0 0 1
23.421754 22.374125 29.271097 43.657499 0.762526 0.835953 0.180063 -0.056158 404175.000000 0 0 1
23.205354 23.786225 29.897457 44.700458 0.797759 0.838149 0.171061 -0.062028 -199180.000000 0 0 1
22.784754 24.824025 29.006227 44.460527 0.828206 0.860044 0.136590 -0.052498 115559.000000 0 0 1
22.478154 26.044025 29.646697 45.414594 0.858756 0.859520 0.135827 -0.054387 -757766.000000 0 0 1
21.044154 26.160925 30.139537 45.118091 0.893371 0.839259 0.130621 -0.046684 -1740350.000000 0 0 1
20.100854 26.181825 29.101067 44.004596 0.916037 0.848221 0.116704 -0.045731 -361103.000000 0 0 1
18.854454 26.574625 29.617527 44.032932 0.953729 0.833050 0.103176 -0.042645 -368571.000000 0 0 1
17.918254 25.511425 30.200867 43.404943 0.958487 0.801273 0.096673 -0.038742 -755153.000000 0 0 1
18.305054 24.799025 31.322277 43.944872 0.934931 0.777367 0.101303 -0.044221 -355452.000000 0 0 1
17.121854 24.317125 31.897074 43.610823 0.957319 0.750420 0.078225 -0.042615 85477.100000 0 0 1
17.324854 23.759025 33.331437 44.448021 0.940747 0.722890 0.089120 -0.040449 41433.500000 0 0 1
17.718754 24.811725 -33.607869 45.376919 0.950651 2.404816 0.081606 -0.038118 78915.700000 0 0 1
17.782654 24.407525 -32.254729 44.185038 0.941150 2.389107 0.061623 -0.030771 -121231.000000 0 0 1
18.173154 25.580625 -31.255369 44.289164 0.953107 2.354223 0.043424 -0.003060 176784.000000 0 0 1
17.262654 26.686425 -31.215969 44.548863 0.996624 2.347193 0.057653 -0.016853 674939.000000 0 0 1
17.856754 27.804825 -30.546129 45.000422 0.999911 2.316919 0.061695 -0.015638 463831.000000 0 0 1
17.216854 27.943025 -29.076179 43.848112 1.018593 2.295764 0.071742 -0.014832 294324.000000 0 0 1
17.631454 26.967925 -28.085309 42.742505 0.991759 2.287737 0.039282 -0.004053 272685.000000 0 0 1
17.190454 27.424825 -26.814139 42.031307 1.010889 2.262638 0.042361 -0.004251 -302422.000000 0 0 1
17.871754 26.827025 -25.562459 41.140347 0.983127 2.241258 0.028905 -0.001190 -866172.000000 0 0 1
19.253554 26.889125 -25.642849 41.848299 0.949389 2.230341 0.033659 0.006233 -1203190.000000 0 0 1
19.832554 26.345925 -24.500209 41.081604 0.925522 2.209779 0.027193 0.009657 273488.000000 0 0 1
21.376654 26.239425 -24.466709 41.762287 0.887170 2.196733 0.023164 0.017672 496122.000000 0 0 1
22.001254 26.001125 -23.214209 41.219088 0.868533 2.169038 0.032232 0.012795 -88007.200000 0 0 1
23.407754 25.969625 -23.376909 42.057393 0.837235 2.160162 0.045226 0.014462 656875.000000 0 0 1
24.149054 25.948525 -21.970709 41.703895 0.821302 2.125659 0.062480 0.006290 567249.000000 0 0 1
23.792654 24.748325 -21.272509 40.386751 0.805084 2.125534 0.076978 -0.001559 244850.000000 0 0 1
24.546654 24.771125 -20.058709 40.230569 0.789950 2.092772 0.090442 -0.008343 174645.000000 0 0 1
24.167754 23.782625 -18.929709 38.833330 0.777367 2.079975 0.101001 -0.020498 -719929.000000 0 0 1
24.447554 22.422625 -19.254309 38.356035 0.742222 2.096693 0.090233 -0.015873 129865.000000 0 0 1
24.248154 21.566525 -18.159809 37.186915 0.726933 2.080981 0.094564 -0.015565 -1125870.000000 0 0 1
24.279654 20.051225 -18.528009 36.535467 0.690302 2.102641 0.115185 -0.027148 -159310.000000 0 0 1
23.380254 19.578825 -19.469209 36.180337 0.697139 2.138996 0.108291 -0.032444 903981.000000 0 0 1
21.978654 19.832125 -19.174109 35.270680 0.734104 2.145549 0.113267 -0.041051 811256.000000 0 0 1
21.007854 19.419125 -20.352509 35.109215 0.746120 2.189146 0.088256 -0.019055 287305.000000 0 0 1
21.158154 20.085625 -21.621209 36.312209 0.759399 2.208591 0.079200 -0.014911 -128388.000000 0 0 1
21.221154 21.475225 -21.614709 37.131097 0.791349 2.192128 0.075240 -0.015915 -72411.900000 0 0 1
20.995754 22.120325 -22.979509 38.186232 0.811475 2.216518 0.055132 0.000109 -311643.000000 0 0 1
19.630354 22.043525 -23.264009 37.583000 0.843240 2.238270 0.061581 -0.006511 -698020.000000 0 0 1
19.285354 22.437025 -24.589109 38.470369 0.860794 2.264215 0.051157 0.000796 -221983.000000 0 0 1
17.804054 22.602325 -24.909209 38.056775 0.903595 2.284354 0.045275 -0.010732 -167269.000000 0 0 1
17.106954 23.673825 -24.280309 37.981986 0.945056 2.264330 0.039963 -0.005952 1260090.000000 0 0 1
15.674354 23.518425 -24.279609 37.259913 0.982929 2.280525 0.042750 -0.010874 1273090.000000 0 0 1
14.844954 24.582925 -23.528409 37.125179 1.027534 2.257199 0.035471 -0.010269 618.103000 0 0 1
15.039654 25.895825 -24.076009 38.424461 1.044633 2.247954 0.025645 -0.011437 301321.000000 0 0 1
14.078254 26.834825 -23.584809 38.399848 1.087642 2.232156 0.049346 -0.015280 246769.000000 0 0 1
14.182854 28.262425 -24.190809 39.813481 1.105688 2.223836 0.047937 -0.016264 42388.200000 0 0 1
13.966054 28.220425 -25.596589 40.578670 1.111244 2.253366 0.050207 -0.028300 -290977.000000 0 0 1
13.495054 29.403325 -26.166739 41.609737 1.140513 2.250884 0.082763 -0.036020 -172026.000000 0 0 1
14.366054 30.693425 -26.097909 42.773481 1.133034 2.227036 0.088790 -0.029615 1499170.000000 0 0 1
15.667254 30.549425 -26.760949 43.530204 1.096922 2.232887 0.064958 -0.023689 902270.000000 0 0 1
16.276654 31.785125 -26.942569 44.733943 1.097528 2.217156 0.072777 -0.020588 367988.000000 0 0 1
17.704254 31.529725 -27.544539 45.456197 1.059159 2.221766 0.061881 -0.009679 15619.000000 0 0 1
18.543054 30.952225 -26.632599 44.846186 1.031049 2.206651 0.031465 -0.002978 -822704.000000 0 0 1
19.851854 30.925725 -27.125939 45.676177 1.000122 2.206663 0.029872 0.001524 115486.000000 0 0 1
20.946054 30.038825 -26.392399 45.140081 0.961885 2.195279 0.022328 0.008994 579650.000000 0 0 1
21.456854 30.473425 -25.126609 44.948556 0.957313 2.163985 0.037389 0.001806 317720.000000 0 0 1
22.023854 31.766225 -24.971609 46.018740 0.964574 2.144373 0.035487 -0.003491 -269700.000000 0 0 1
23.423254 32.026525 -25.576059 47.206800 0.939325 2.143359 0.019881 0.006051 -317827.000000 0 0 1
23.471154 31.941925 -26.976949 47.947236 0.937090 2.168370 0.010571 0.015933 706197.000000 0 0 1
24.826854 32.164825 -27.384929 48.998806 0.913449 2.163843 0.009348 0.025717 186973.000000 0 0 1
25.124154 31.519425 -28.796479 49.537203 0.897826 2.191134 0.009691 0.018850 26962.700000 0 0 1
24.226154 31.875125 -29.853499 49.941581 0.920905 2.211511 0.026328 0.000089 -427220.000000 0 0 1
23.057354 31.115825 -29.805269 48.869113 0.933069 2.226731 0.015880 -0.000427 -484771.000000 0 0 1
21.934754 31.799025 -30.642569 49.307996 0.966953 2.241391 0.029428 -0.001011 -548172.000000 0 0 1
21.525154 33.088725 -30.186059 49.692999 0.994050 2.223644 0.051180 -0.002645 826387.000000 0 0 1
20.494154 33.604325 -31.079049 50.151454 1.023154 2.239162 0.066748 -0.015309 1857470.000000 0 0 1
19.000154 33.181125 -30.722829 49.049823 1.050753 2.247671 0.063078 -0.018976 743624.000000 0 0 1
18.528454 31.816225 -30.949869 48.098547 1.043449 2.269816 0.078587 -0.020560 299161.000000 0 0 1
18.502954 31.334325 -32.303809 48.659381 1.037391 2.296787 0.092227 -0.022512 52328.000000 0 0 1
17.673454 32.151925 -33.381939 49.602935 1.068194 2.309031 0.108159 -0.034136 -224940.000000 0 0 1
18.328854 33.358525 -33.718879 50.849788 1.068375 2.295759 0.102078 -0.032301 16938.800000 0 0 1
18.000254 -33.869720 32.831113 50.488108 -1.082302 0.862851 0.094220 -0.032457 -211925.000000 0 0 1
16.548154 -33.462220 32.564430 49.537902 -1.111532 0.853481 0.101245 -0.036121 -791197.000000 0 0 1
15.653754 33.273325 32.523110 49.090803 1.131059 0.846633 0.112928 -0.035998 334190.000000 0 0 1
14.252654 33.543325 32.304579 48.701937 1.169008 0.845560 0.097264 -0.036244 1487530.000000 0 0 1
13.810154 -33.768720 30.904987 47.813858 -1.182587 0.867991 0.090999 -0.046291 -444549.000000 0 0 1
14.286054 -32.404120 30.683047 46.856886 -1.155560 0.856846 0.095868 -0.032349 327269.000000 0 0 1
13.528454 -31.870320 29.640327 45.577246 -1.169362 0.862775 0.077221 -0.029987 -65251.000000 0 0 1
13.961854 -30.397520 29.310947 44.475546 -1.140228 0.851261 0.078801 -0.027357 45660.200000 0 0 1
13.903954 -29.485220 30.444807 44.604758 -1.130161 0.819555 0.074162 -0.032097 306094.000000 0 0 1
14.403354 -28.233020 30.093817 43.705810 -1.099054 0.811303 0.091002 -0.039102 -430362.000000 0 0 1
13.773154 -27.275320 31.201957 43.671558 -1.103182 0.774932 0.089931 -0.035131 1537720.000000 0 0 1
12.368554 -26.930320 31.118707 42.972052 -1.140252 0.760979 0.065452 -0.032094 1043030.000000 0 0 1
12.141454 -26.142120 29.971177 41.582410 -1.135999 0.765890 0.062272 -0.035518 -758104.000000 0 0 1
12.261154 -24.621420 30.167017 40.824002 -1.108760 0.739281 0.064690 -0.026266 -290058.000000 0 0 1
11.287554 -24.057520 30.999367 40.830551 -1.132099 0.708683 0.068280 -0.029591 -124207.000000 0 0 1
11.756954 -22.888120 31.581967 40.737117 -1.096272 0.683665 0.070624 -0.024752 -83824.300000 0 0 1
10.882254 -22.493620 32.764175 41.205310 -1.120198 0.651551 0.062715 -0.014965 -391712.000000 0 0 1
11.093754 -23.245520 -33.866079 42.548054 -1.125520 2.491370 0.069136 -0.021215 248355.000000 0 0 1
12.335854 -23.258420 -33.178949 42.355283 -1.083139 2.470831 0.081948 -0.013067 174167.000000 0 0 1
12.763154 -21.970020 -32.493619 41.248214 -1.044513 2.477957 0.082073 -0.011582 -198628.000000 0 0 1
13.259754 -20.973620 -33.372829 41.586771 -1.007028 2.502248 0.064616 -0.012153 -44447.700000 0 0 1
14.195454 -20.154920 -32.738199 40.981964 -0.957179 2.496167 0.064864 -0.011044 -239641.000000 0 0 1
14.427354 -18.915820 -33.613089 41.180050 -0.919208 2.525681 0.051700 -0.010110 -604187.000000 0 0 1
15.125554 -19.104420 33.032103 41.047303 -0.901118 0.635571 0.077355 -0.002934 -24758.100000 0 0 1
14.961054 -18.188120 31.947353 39.689725 -0.882442 0.635243 0.054074 -0.001200 -112855.000000 0 0 1
15.836254 -16.882820 31.948312 39.452645 -0.817374 0.627004 0.066200 -0.010934 -288404.000000 0 0 1
15.485854 -15.996320 32.960723 39.775661 -0.801611 0.594077 0.049955 -0.008076 21320.100000 0 0 1
16.022554 -14.730620 32.839578 39.397351 -0.743413 0.585297 0.071968 -0.019315 -665416.000000 0 0 1
17.442554 -14.435420 33.367156 40.323581 -0.691344 0.596183 0.072432 -0.014754 -201538.000000 0 0 1
18.397654 -15.292320 32.771997 40.575024 -0.693484 0.630574 0.091692 -0.022763 -1354800.000000 0 0 1
19.624154 -14.859220 33.238654 41.360754 -0.648087 0.637430 0.102910 -0.022032 -929145.000000 0 0 1
20.763354 -15.562020 32.458091 41.555036 -0.643177 0.674392 0.136752 -0.034419 -268472.000000 0 0 1
21.047054 -15.046420 31.209797 40.539175 -0.620652 0.692163 0.096348 -0.022249 -86890.300000 0 0 1
22.018254 -15.795720 30.548437 40.835222 -0.622303 0.725617 0.101937 -0.024779 -367300.000000 0 0 1
22.297754 -15.216520 29.161397 39.738136 -0.598832 0.746840 0.086433 -0.011953 229869.000000 0 0 1
23.203054 -14.099520 29.127427 39.819408 -0.546031 0.750294 0.070794 -0.018467 468397.000000 0 0 1
23.367054 -13.618320 27.808737 38.791800 -0.527676 0.771492 0.066072 -0.018618 91219.900000 0 0 1
24.230354 -12.366320 27.774137 38.877225 -0.471905 0.775021 0.044159 -0.013322 -546140.000000 0 0 1
23.463454 -11.358620 28.232717 38.427051 -0.450846 0.745558 0.048681 -0.017647 -612166.000000 0 0 1
24.153754 -10.179020 28.522407 38.736856 -0.398840 0.743193 0.048419 -0.013925 -88346.300000 0 0 1
23.254154 -8.918820 28.549027 37.885987 -0.366234 0.717349 0.052406 -0.014099 242625.000000 0 0 1
22.371654 -8.790720 29.651897 38.170705 -0.374405 0.681191 0.061429 -0.022111 -189264.000000 0 0 1
21.660054 -7.561920 29.476927 37.352776 -0.335889 0.661373 0.075588 -0.032470 590789.000000 0 0 1
20.319254 -7.402120 30.275647 37.205891 -0.349349 0.620251 0.066189 -0.017135 328162.000000 0 0 1
20.513554 -7.111120 31.655277 38.385291 -0.333691 0.601174 0.071569 -0.020610 130627.000000 0 0 1
20.844854 -8.270920 32.431421 39.429851 -0.377732 0.604987 0.075439 -0.032017 -569194.000000 0 0 1
20.906954 -7.936820 -33.866259 40.583461 -0.362820 2.557992 0.087885 -0.042181 969343.000000 0 0 1
19.634054 -7.457920 -33.363729 39.424042 -0.363013 2.579757 0.073104 -0.045152 1146840.000000 0 0 1
19.765854 -7.110820 -32.011499 38.288233 -0.345337 2.560870 0.078804 -0.049550 988038.000000 0 0 1
18.402654 -6.481420 -31.501269 37.053966 -0.338634 2.587058 0.090736 -0.049207 1027000.000000 0 0 1
18.561354 -5.844520 -30.245849 35.965173 -0.305048 2.569881 0.091220 -0.045978 -39670.200000 0 0 1
17.309454 -5.546820 -29.677289 34.801234 -0.310111 2.592054 0.106407 -0.042192 -93077.900000 0 0 1
17.262354 -4.497120 -28.504279 33.625985 -0.254851 2.582404 0.094776 -0.041438 -67500.800000 0 0 1
17.984754 -4.869820 -27.302399 33.054312 -0.264434 2.542745 0.091586 -0.040163 467536.000000 0 0 1
17.514954 -6.055820 -26.551119 32.379137 -0.332885 2.532220 0.093140 -0.037562 -55273.700000 0 0 1
16.036554 -6.021720 -26.124909 31.240087 -0.359209 2.561227 0.089341 -0.037053 -112774.000000 0 0 1
15.862154 -4.993620 -25.174019 30.170771 -0.304991 2.557811 0.102757 -0.044225 -487401.000000 0 0 1
14.506954 -4.919320 -24.811209 29.159004 -0.326932 2.588480 0.080409 -0.039067 -156735.000000 0 0 1
14.192854 -3.644220 -23.942609 28.070732 -0.251335 2.592385 0.098948 -0.037097 95326.800000 0 0 1
14.319854 -2.403920 -24.595109 28.561450 -0.166322 2.608284 0.091897 -0.043139 45009.200000 0 0 1
13.992154 -1.419920 -23.605909 27.477909 -0.101133 2.604279 0.093107 -0.038743 -72974.500000 0 0 1
14.285754 -0.000920 -24.106109 28.021193 -0.000064 2.606618 0.084781 -0.040231 -411126.000000 0 0 1
13.530854 0.560080 -25.132229 28.548671 0.041369 2.647352 0.079749 -0.032784 -39009.300000 0 0 1
14.168154 1.744080 -25.584139 29.297211 0.122482 2.632654 0.086935 -0.019704 282779.000000 0 0 1
13.371654 2.478080 -26.711659 29.974235 0.183244 2.670679 0.079275 -0.013689 -1652.630000 0 0 1
12.177454 3.147080 -26.420519 29.261550 0.252902 2.697286 0.085834 -0.025727 20267.500000 0 0 1
11.619954 3.788080 -27.580869 30.167486 0.315134 2.724469 0.092071 -0.026650 326381.000000 0 0 1
10.363554 4.607080 -27.155319 29.428554 0.418309 2.745963 0.094827 -0.030231 -60453.000000 0 0 1
10.637054 5.675080 -26.290269 28.922858 0.490103 2.711624 0.083363 -0.035515 -342379.000000 0 0 1
9.713754 6.723080 -26.348819 28.875891 0.605418 2.720114 0.080252 -0.038912 -311007.000000 0 0 1
8.477754 5.590425 -31.190669 32.802180 0.582971 2.826836 0.076422 -0.040979 -172841.000000 0 0 1
8.291854 4.714825 -30.122699 31.596858 0.517018 2.834925 0.078085 -0.021841 491554.000000 0 0 1
7.884054 3.459625 -30.633369 31.820286 0.413512 2.867604 0.066849 -0.017212 -209839.000000 0 0 1
7.567654 2.491625 -29.522499 30.578678 0.318068 2.878001 0.079040 -0.020820 180569.000000 0 0 1
8.764354 2.090725 -28.857559 30.231502 0.234172 2.838951 0.109858 -0.029933 820005.000000 0 0 1
8.427154 1.059125 -28.000419 29.260248 0.125025 2.847081 0.086542 -0.022322 128231.000000 0 0 1
9.641754 0.412425 -27.294339 28.950206 0.042749 2.801737 0.094673 -0.030683 203364.000000 0 0 1
10.330154 -0.573775 -28.047559 29.894930 -0.055487 2.788202 0.123511 -0.026749 775052.000000 0 0 1
11.510554 -1.029675 -27.376669 29.715906 -0.089217 2.742155 0.115612 -0.031576 477266.000000 0 0 1
12.110254 -2.302975 -27.954049 30.551445 -0.187923 2.726262 0.100379 -0.034097 462651.000000 0 0 1
11.367054 -3.493475 -27.542509 30.000068 -0.298171 2.734010 0.099574 -0.030097 618150.000000 0 0 1
12.055354 -4.635075 -27.960979 30.799867 -0.367058 2.708871 0.109914 -0.033583 160575.000000 0 0 1
11.325954 -5.814575 -27.318009 30.139013 -0.474298 2.705479 0.072293 -0.032445 80206.100000 0 0 1
11.572854 -5.803575 -25.892319 28.948655 -0.464832 2.677934 0.095518 -0.031665 160269.000000 0 0 1
11.102254 -6.980175 -25.172129 28.383428 -0.561268 2.661301 0.091653 -0.033463 -67214.900000 0 0 1
10.986954 -6.699775 -23.692809 26.961998 -0.547590 2.644030 0.097801 -0.036445 857267.000000 0 0 1
12.215154 -6.653175 -22.901409 26.794575 -0.498739 2.595775 0.081507 -0.034838 1153630.000000 0 0 1
11.899454 -6.546275 -21.510809 25.439450 -0.502945 2.578426 0.090417 -0.046791 -117253.000000 0 0 1
13.205454 -6.369775 -20.742609 25.401061 -0.449436 2.526299 0.097355 -0.041791 95383.400000 0 0 1
13.854654 -5.119475 -20.830909 25.535999 -0.353951 2.524815 0.088731 -0.042414 -893606.000000 0 0 1
15.150154 -5.183675 -20.354609 25.898026 -0.329667 2.475031 0.087940 -0.031109 -561710.000000 0 0 1
15.726554 -3.812675 -19.817009 25.584660 -0.237847 2.456825 0.099116 -0.032898 -213719.000000 0 0 1
16.306654 -2.914075 -20.718509 26.526504 -0.176838 2.467141 0.085587 -0.026428 196854.000000 0 0 1
16.792354 -1.722375 -20.063709 26.220262 -0.102212 2.442146 0.094102 -0.017422 81769.500000 0 0 1
17.958954 -1.102275 -20.851209 27.541096 -0.061301 2.429650 0.068334 -0.017266 359364.000000 0 0 1
19.219954 -1.753675 -20.740509 28.331091 -0.090990 2.392161 0.096336 -0.026003 129941.000000 0 0 1
20.180954 -1.044375 -21.496309 29.503439 -0.051704 2.387077 0.093541 -0.012831 -179151.000000 0 0 1
21.453454 -1.871075 -21.700209 30.572057 -0.086995 2.360018 0.072237 -0.019079 -1004410.000000 0 0 1
22.350954 -1.823875 -20.604509 30.453858 -0.081421 2.313906 0.066084 -0.021436 574702.000000 0 0 1
23.599654 -2.463375 -20.878809 31.605958 -0.104005 2.292410 0.058391 -0.020951 1458210.000000 0 0 1
24.633054 -1.648775 -21.823309 32.950913 -0.066834 2.294677 0.076964 -0.026966 -277948.000000 0 0 1
24.221554 -1.636275 -23.175309 33.562718 -0.067452 2.332987 0.080281 -0.030277 476765.000000 0 0 1
25.153754 -0.921975 -23.988209 34.770613 -0.036637 2.332146 0.080203 -0.021950 348957.000000 0 0 1
26.437554 -1.656475 -24.413009 36.023370 -0.062574 2.315426 0.084546 -0.028239 -728896.000000 0 0 1
27.424054 -1.900075 -23.434309 36.122789 -0.069174 2.276724 0.081123 -0.028763 -287913.000000 0 0 1
28.370754 -2.855975 -23.738509 37.102198 -0.100328 2.265053 0.063185 -0.024353 253638.000000 0 0 1
29.631754 -2.289575 -24.470009 38.497589 -0.077114 2.259613 0.069771 -0.024179 -204608.000000 0 0 1
29.225354 -1.790875 -25.725599 38.976082 -0.061202 2.291662 0.073853 -0.028969 448338.000000 0 0 1
30.215054 -0.917375 -26.277509 40.053696 -0.030352 2.286379 0.084273 -0.036280 -266140.000000 0 0 1
29.924754 -0.511175 -27.750839 40.814964 -0.017080 2.318447 0.093741 -0.045904 -248336.000000 0 0 1
28.711554 0.173025 -27.934869 40.059209 0.006026 2.342475 0.090360 -0.032428 44751.700000 0 0 1
28.409154 1.397625 -27.279069 39.410417 0.049157 2.335300 0.074810 -0.028926 -105094.000000 0 0 1
26.947254 1.921525 -27.497119 38.547871 0.071186 2.365026 0.096433 -0.028271 716220.000000 0 0 1
25.968654 1.396525 -26.607409 37.205853 0.053726 2.367621 0.108983 -0.025695 561742.000000 0 0 1
24.665954 1.628025 -27.120469 36.695771 0.065907 2.402474 0.086284 -0.019957 -245243.000000 0 0 1
23.521554 1.414725 -26.152519 35.202545 0.060074 2.408212 0.084261 -0.019546 -570324.000000 0 0 1
23.357954 2.450625 -25.180759 34.433562 0.104534 2.391001 0.099384 -0.017652 -284357.000000 0 0 1
22.358754 2.088025 -24.298309 33.085972 0.093117 2.395577 0.096914 -0.016187 -679921.000000 0 0 1
22.610354 2.582525 -22.881009 32.271320 0.113726 2.358904 0.088812 -0.003848 -351104.000000 0 0 1
22.150854 3.893825 -22.612809 31.892967 0.174009 2.358906 0.103738 -0.008234 430521.000000 0 0 1
22.228854 4.135225 -21.189109 30.987100 0.183927 2.323760 0.087403 -0.014051 -126536.000000 0 0 1
21.979754 5.568725 -20.651209 30.669084 0.248136 2.309535 0.105449 -0.006961 -90975.000000 0 0 1
23.020754 6.413725 -21.079309 31.865785 0.271716 2.293617 0.090300 0.004943 231290.000000 0 0 1
22.913054 7.738525 -20.611609 31.776269 0.325706 2.276603 0.078192 0.001131 -322330.000000 0 0 1
23.374954 8.142725 -19.177609 31.312508 0.335206 2.229963 0.073504 -0.012806 59202.800000 0 0 1
24.762654 8.421325 -19.048609 32.356719 0.327812 2.200254 0.047159 0.000850 327066.000000 0 0 1
25.205154 8.862125 -17.788209 32.097624 0.338099 2.158187 0.070539 -0.015394 -51687.400000 0 0 1
24.869354 10.320225 -17.338309 32.025127 0.393351 2.142894 0.070482 -0.022431 -29648.400000 0 0 1
23.503954 10.553525 -17.059009 30.900203 0.422031 2.155639 0.085251 -0.034889 -21624.700000 0 0 1
23.203354 11.934225 -16.919709 31.098198 0.475047 2.146081 0.077464 -0.030140 425725.000000 0 0 1
21.658754 12.155625 -16.813909 29.992806 0.511427 2.165904 0.075964 -0.037295 436006.000000 0 0 1
20.869554 11.925225 -17.922109 29.982516 0.519138 2.211490 0.094238 -0.038965 -179245.000000 0 0 1
20.355554 10.610925 -17.921709 29.122637 0.480526 2.233674 0.105030 -0.041387 -253751.000000 0 0 1
19.561254 10.192925 -19.176109 29.227753 0.480367 2.286426 0.126957 -0.026262 125607.000000 0 0 1
20.365654 10.145325 -20.327709 30.510707 0.462173 2.299963 0.131512 -0.019422 32313.100000 0 0 1
19.598554 9.678325 -21.398309 30.588575 0.458698 2.345567 0.104029 -0.017194 -2099.100000 0 0 1
20.245554 9.953325 -22.785109 32.064191 0.456929 2.361160 0.127206 -0.013206 -96421.800000 0 0 1
20.235954 11.309425 -23.061609 32.699155 0.509634 2.353595 0.115523 -0.019096 324374.000000 0 0 1
20.785054 11.708225 -24.327009 34.072047 0.512997 2.365973 0.140930 -0.015980 130665.000000 0 0 1
20.801154 13.269325 -24.612509 34.850231 0.567831 2.354965 0.155138 -0.018491 18402.500000 0 0 1
21.521554 13.554325 -25.814589 36.239344 0.562045 2.363617 0.143773 -0.017814 137885.000000 0 0 1
21.520554 14.904525 -26.291619 37.101595 0.605723 2.358363 0.146780 -0.009358 -345793.000000 0 0 1
20.216854 15.428225 -26.916899 37.030673 0.651856 2.384566 0.135044 -0.026550 65879.100000 0 0 1
19.105254 15.359325 -26.036259 35.760403 0.677134 2.386306 0.104465 -0.020210 -11974.800000 0 0 1
17.946554 15.863125 -26.711569 35.877924 0.723854 2.410601 0.100717 -0.025875 715867.000000 0 0 1
16.626254 15.296825 -26.108229 34.526292 0.743777 2.428258 0.095306 -0.024180 19115.700000 0 0 1
16.500554 13.901325 -26.308279 34.024119 0.700110 2.454707 0.102755 -0.020361 -85373.800000 0 0 1
15.237854 13.473725 -25.865319 32.905139 0.724032 2.475201 0.062391 -0.019436 -138832.000000 0 0 1
15.152154 11.937425 -25.870649 32.270426 0.667280 2.500902 0.059808 -0.018353 -333681.000000 0 0 1
13.857154 11.486125 -25.601209 31.294947 0.692113 2.528830 0.057927 -0.019241 -351574.000000 0 0 1
13.818654 10.089225 -25.271239 30.518571 0.630654 2.546437 0.069324 -0.021610 -1327760.000000 0 0 1
12.446754 9.532825 -25.112119 29.604306 0.653592 2.583485 0.102313 -0.031824 -1406710.000000 0 0 1
11.778954 10.057525 -23.998809 28.562920 0.706728 2.568464 0.124033 -0.040095 67834.300000 0 0 1
10.605554 9.258925 -23.816309 27.666262 0.717711 2.607720 0.122660 -0.039078 419328.000000 0 0 1
9.648554 9.836825 -22.726309 26.577111 0.795060 2.596556 0.120355 -0.039441 13732.100000 0 0 1
8.997254 11.032625 -23.024509 27.070231 0.886667 2.587821 0.115279 -0.039887 14044.300000 0 0 1
8.269054 11.628425 -21.947609 26.178141 0.952655 2.565127 0.115591 -0.030216 161817.000000 0 0 1
9.122754 12.551925 -21.073209 26.169746 0.942309 2.506895 0.107109 -0.035030 730211.000000 0 0 1
10.112454 11.758825 -20.347409 25.584150 0.860532 2.490320 0.127160 -0.040388 567003.000000 0 0 1
10.861854 12.555125 -19.416309 25.546117 0.857582 2.434185 0.143467 -0.045633 551458.000000 0 0 1
11.915054 11.637225 -18.658809 25.010891 0.773602 2.412873 0.166287 -0.050242 818700.000000 0 0 1
13.008454 11.075425 -19.398009 25.848940 0.705307 2.419520 0.153171 -0.050706 452360.000000 0 0 1
12.702254 10.126125 -20.422209 26.095063 0.673026 2.469641 0.153030 -0.048000 -979376.000000 0 0 1
13.950754 9.568425 -21.102509 27.046149 0.601181 2.465847 0.153569 -0.046127 -112902.000000 0 0 1
14.678354 8.668925 -20.290009 26.500732 0.533473 2.442831 0.169810 -0.055985 -217729.000000 0 0 1
15.676554 8.025325 -21.010109 27.415048 0.473147 2.443970 0.135237 -0.046084 -164113.000000 0 0 1
16.404754 6.844425 -20.260609 26.952818 0.395264 2.421442 0.185395 -0.048612 360634.000000 0 0 1
17.096354 7.239425 -19.089709 26.629149 0.400556 2.370103 0.154835 -0.038964 -128193.000000 0 0 1
17.522254 6.106625 -18.442009 26.161574 0.335344 2.353117 0.148795 -0.051568 -241468.000000 0 0 1
18.353554 6.415025 -17.199109 25.957944 0.336252 2.295049 0.178451 -0.042739 -830798.000000 0 0 1
19.661054 6.861525 -17.441009 27.162960 0.335775 2.268015 0.142931 -0.040417 -217020.000000 0 0 1
20.386654 7.136525 -16.249909 27.029710 0.336727 2.215782 0.131022 -0.055191 293473.000000 0 0 1
21.105954 5.887125 -15.643309 26.922717 0.272018 2.190808 0.108106 -0.053925 -322129.000000 0 0 1
22.347554 5.540325 -16.232509 28.170956 0.243017 2.184886 0.087473 -0.040043 514704.000000 0 0 1
22.976454 4.465625 -15.562609 28.107900 0.191963 2.157566 0.123014 -0.046280 -47493.200000 0 0 1
24.271554 3.937025 -16.181909 29.435738 0.160807 2.152845 0.054733 0.002870 -129900.000000 0 0 1
25.060454 3.083025 -15.418709 29.584929 0.122408 2.119015 0.064315 -0.005648 421676.000000 0 0 1
26.190954 2.551725 -16.098909 30.848862 0.097121 2.119831 0.060477 -0.015109 303208.000000 0 0 1
26.891954 1.288325 -15.522709 31.077186 0.047871 2.093805 0.082893 -0.033388 -31514.500000 0 0 1
26.171454 0.079925 -15.486809 30.410404 0.003054 2.105121 0.099639 -0.033492 -159867.000000 0 0 1
27.091254 -0.948075 -15.723809 31.338045 -0.034981 2.096415 0.087412 -0.025593 -319686.000000 0 0 1
26.506554 -2.346975 -15.863509 30.979939 -0.088313 2.108375 0.070874 -0.027314 -525835.000000 0 0 1
26.139854 -2.952175 -14.673909 30.121934 -0.112461 2.079620 0.083496 -0.031726 243996.000000 0 0 1
25.847654 -4.284875 -14.966109 30.173594 -0.164280 2.089783 0.073644 -0.026270 -1048980.000000 0 0 1
25.210754 -5.017675 -13.766609 29.159539 -0.196462 2.062483 0.080962 -0.025659 -642943.000000 0 0 1
23.939554 -4.657275 -13.367009 27.811318 -0.192143 2.072172 0.098839 -0.025337 112068.000000 0 0 1
22.868354 -5.053475 -14.257709 27.418634 -0.217486 2.117648 0.110891 -0.030209 -278871.000000 0 0 1
21.520254 -5.158875 -13.551109 25.949333 -0.235282 2.120241 0.132688 -0.037757 -717911.000000 0 0 1
21.407654 -6.238175 -12.683409 25.652901 -0.283548 2.087968 0.151445 -0.035341 396615.000000 0 0 1
21.189354 -5.828675 -11.337409 24.728506 -0.268437 2.047075 0.164695 -0.032943 -667967.000000 0 1 0
20.682854 -6.903475 -10.388509 24.152837 -0.322150 2.015417 0.148780 -0.037544 457585.000000 0 1 0
19.355754 -7.438775 -10.490309 23.238485 -0.366915 2.039152 0.142212 -0.030595 1171900.000000 0 1 0
19.283554 -8.292475 -11.626409 23.995708 -0.406122 2.076611 0.140908 -0.035571 -148208.000000 0 1 0
17.949654 -9.125675 -11.687009 23.282058 -0.470348 2.096677 0.155518 -0.030188 1402760.000000 0 1 0
16.835554 -8.227975 -11.969009 22.234942 -0.454588 2.139212 0.131783 -0.027526 970743.000000 0 1 0
15.649554 -8.954475 -12.331509 21.843930 -0.519718 2.170658 0.136053 -0.021698 519027.000000 0 1 0
14.460254 -7.974675 -12.424809 20.665679 -0.503986 2.215835 0.094030 -0.017127 -362149.000000 0 1 0
14.510954 -7.037475 -13.496109 21.029475 -0.451557 2.267602 0.089900 -0.021372 281630.000000 0 1 0
15.430254 -5.988375 -13.239109 21.194985 -0.370200 2.245459 0.084711 -0.025306 -220584.000000 0 1 0
15.502954 -4.906175 -14.302709 21.655937 -0.306495 2.292217 0.084929 -0.024609 1021520.000000 0 1 0
14.254354 -4.151575 -14.326809 20.632005 -0.283410 2.338378 0.083344 -0.022318 1328600.000000 0 1 0
14.029954 -3.209375 -15.392909 21.073238 -0.224882 2.389774 0.080327 -0.022581 -790872.000000 0 1 0
14.979354 -2.051975 -15.496509 21.650253 -0.136140 2.368516 0.090233 -0.029914 -246314.000000 0 1 0
16.215154 -2.461075 -16.093909 22.978295 -0.150627 2.346749 0.091432 -0.031947 398814.000000 0 1 0
17.297054 -1.573375 -15.948209 23.579842 -0.090712 2.313591 0.105969 -0.025593 -255779.000000 0 1 0
18.321754 -2.079475 -14.954409 23.741214 -0.113014 2.252211 0.115906 -0.029630 -777022.000000 0 1 0
17.912254 -2.097575 -13.590709 22.582206 -0.116572 2.216590 0.109706 -0.022076 639091.000000 0 1 0
18.985654 -2.552175 -12.761009 23.017646 -0.133625 2.158440 0.109307 -0.023189 304313.000000 0 1 0
18.557754 -2.857675 -11.296109 21.912522 -0.152788 2.112398 0.109295 -0.024286 -145063.000000 0 1 0
18.356754 -1.653475 -10.537609 21.230770 -0.089832 2.090170 0.110912 -0.019515 649910.000000 0 1 0
17.778954 -1.954675 -9.294309 20.156789 -0.109503 2.050032 0.097942 -0.018542 -632267.000000 0 1 0
17.734954 -0.641775 -8.422309 19.643721 -0.036171 2.013909 0.094726 -0.017771 235947.000000 0 1 0
18.985054 -0.094075 -7.979609 20.594060 -0.004955 1.968683 0.117428 -0.020224 1826280.000000 0 1 0
19.910554 0.515025 -8.913009 21.820567 0.025861 1.991572 0.113788 -0.013608 346069.000000 0 1 0
19.335054 1.788925 -9.563309 21.644895 0.092260 2.028431 0.107291 -0.021088 -608372.000000 0 1 0
19.200954 2.814125 -8.618809 21.233931 0.145526 1.988757 0.088755 -0.016969 358071.000000 0 1 0
18.599754 3.902725 -9.287409 21.152732 0.206826 2.025353 0.081993 -0.025220 -602786.000000 0 1 0
18.698354 5.278225 -8.536409 21.221649 0.275124 1.984769 0.088522 -0.017165 -45674.000000 0 1 0
18.001754 6.300625 -9.245409 21.195250 0.336675 2.022170 0.070701 -0.026777 346124.000000 0 1 0
18.800554 7.457125 -9.377209 22.293533 0.377610 2.004930 0.113000 -0.011708 65916.300000 0 1 0
-27.247906 -29.458015 5.877391 40.555724 0.824353 1.425363 0.084148 -0.002639 60868.600000 0 0 1
-27.156726 -28.300505 6.526691 39.761841 0.806020 1.405906 0.096890 -0.009197 -679739.000000 0 0 1
-25.868106 -27.783195 6.402391 38.497473 0.821078 1.403713 0.083981 -0.004831 -754003.000000 0 0 1
-25.517746 -26.451135 7.101691 37.433299 0.803357 1.379924 0.092196 -0.005225 -4265.350000 0 0 1
-26.315786 -25.329095 6.690091 37.132747 0.766295 1.389640 0.112298 -0.016269 1165360.000000 0 0 1
-27.700386 -25.280185 7.085191 38.165417 0.739749 1.384069 0.077294 -0.020523 805794.000000 0 0 1
-27.990666 -24.895975 8.535991 38.420698 0.726949 1.346755 0.074205 -0.019742 -192721.000000 0 0 1
-27.496836 -25.915775 9.440091 38.946356 0.755806 1.325971 0.074325 -0.019549 11872.900000 0 0 1
-28.084526 -25.699585 10.672091 39.536094 0.741084 1.297473 0.059455 -0.023616 22849.100000 0 0 1
-27.545376 -26.655545 11.777791 40.099653 0.768982 1.272687 0.046403 -0.012045 164123.000000 0 0 1
-26.297106 -26.264195 12.306791 39.151026 0.784772 1.251033 0.064018 -0.008220 -207689.000000 0 0 1
-26.330686 -25.623915 13.532391 39.153743 0.771795 1.217895 0.063027 -0.009301 136441.000000 0 0 1
-24.886246 -25.293795 14.050091 38.164202 0.793520 1.193780 0.068751 -0.016564 691347.000000 0 0 1
-24.214846 -26.477595 14.497691 38.698899 0.830005 1.186801 0.061030 -0.014841 300379.000000 0 0 1
-23.060946 -26.030875 15.232891 37.966493 0.845822 1.157949 0.080365 -0.023047 169248.000000 0 0 1
-22.173346 -27.133635 15.752091 38.419003 0.885661 1.148334 0.079357 -0.027781 -561219.000000 0 0 1
-22.845646 -27.870185 16.730291 39.731264 0.884148 1.136154 0.089435 -0.019822 -50421.700000 0 0 1
-22.256046 -29.119305 16.956091 40.382849 0.918202 1.137479 0.090171 -0.019752 -410204.000000 0 0 1
-23.090246 -30.034435 17.835591 41.872844 0.915376 1.130789 0.104785 -0.029664 -263136.000000 0 0 1
-24.280146 -30.507555 17.245591 42.633869 0.898577 1.154359 0.096487 -0.031233 62311.200000 0 0 1
-24.795646 -31.501975 18.072991 43.975351 0.903962 1.147268 0.093085 -0.025610 194474.000000 0 0 1
-25.898166 -32.408045 17.407491 44.989078 0.896588 1.173500 0.078239 -0.029386 382748.000000 0 0 1
-25.336936 -33.322015 16.510591 44.999073 0.920694 1.195112 0.086078 -0.033443 -51665.600000 0 0 1
-26.190046 33.399162 16.231191 45.440886 -0.905793 1.205535 0.079248 -0.038890 -786890.000000 0 0 1
-25.652916 32.613171 14.979391 44.114319 -0.904291 1.224349 0.085417 -0.042394 322744.000000 0 0 1
-24.423046 31.938861 15.116791 42.954550 -0.917965 1.211169 0.074043 -0.040822 134473.000000 0 0 1
-23.297046 32.789419 15.056691 42.948833 -0.953055 1.212614 0.075214 -0.041411 -646359.000000 0 0 1
-21.946246 32.045897 14.996691 41.635057 -0.970319 1.202321 0.074225 -0.040957 29488.300000 0 0 1
-21.815446 31.208460 13.847691 40.517159 -0.960726 1.221993 0.049382 -0.021455 144718.000000 0 0 1
-20.566246 30.529820 13.879791 39.340678 -0.977978 1.210224 0.049013 -0.021574 189990.000000 0 0 1
-20.271446 29.597430 12.676291 38.047703 -0.970273 1.231134 0.041775 -0.023625 -21876.100000 0 0 1
-20.010546 30.203930 11.432191 37.992030 -0.985674 1.265149 0.024249 -0.013003 -39589.700000 0 0 1
-20.100446 29.299090 10.322791 37.000333 -0.969499 1.288052 0.038880 -0.026466 130772.000000 0 0 1
-19.900946 29.986780 8.968691 37.090323 -0.984880 1.326569 0.033608 -0.020704 -531245.000000 0 0 1
-18.570346 30.247460 8.644791 36.530795 -1.020185 1.331886 0.035267 -0.025912 -813015.000000 0 0 1
-18.325246 30.856840 7.378891 36.638876 -1.034889 1.368014 0.057543 -0.029016 -82807.500000 0 0 1
-17.719446 29.830580 6.427791 35.286807 -1.034798 1.387615 0.069056 -0.035868 -618171.000000 0 0 1
-18.555146 28.775210 6.010991 34.762597 -0.998063 1.397007 0.053526 -0.025435 -91800.400000 0 0 1
-18.356246 27.580740 6.761191 33.813646 -0.983570 1.369485 0.035609 -0.026696 -308295.000000 0 0 1
-19.454946 26.538700 6.476091 33.537103 -0.938213 1.376473 0.043876 -0.022456 -85667.800000 0 0 1
-19.400946 26.077600 5.169891 32.911483 -0.931166 1.413058 0.052817 -0.033273 467450.000000 0 0 1
-20.609146 25.462500 4.740491 33.099064 -0.890355 1.427081 0.060597 -0.033244 -400213.000000 0 0 1
-20.528446 24.877040 3.297091 32.421521 -0.880879 1.468926 0.080116 -0.045821 -1113060.000000 0 0 1
-20.287346 25.728250 2.190291 32.837732 -0.903092 1.504046 0.093448 -0.044756 1794730.000000 0 0 1
-18.997046 26.427080 2.157591 32.617993 -0.947533 1.504601 0.102734 -0.043112 1400460.000000 0 0 1
-17.665746 25.647980 2.341591 31.231082 -0.967642 1.495750 0.096611 -0.049139 -878296.000000 0 0 1
-17.474246 24.524700 1.536791 30.152477 -0.951720 1.519807 0.149964 -0.058855 156346.000000 0 0 1
-17.137946 24.770730 0.161991 30.121827 -0.965553 1.565418 0.144666 -0.055301 -177196.000000 0 0 1
-16.610046 23.535780 -0.634909 28.813706 -0.956231 1.592833 0.151729 -0.054443 760257.000000 0 0 1
-17.598546 22.452270 -0.706709 28.536164 -0.905999 1.595564 0.156072 -0.066561 941313.000000 0 0 1
-17.327546 21.426570 -1.648509 27.605422 -0.890776 1.630549 0.153700 -0.058337 366219.000000 0 0 1
-16.132446 20.452870 -1.321109 26.082964 -0.902946 1.621468 0.150048 -0.052271 598907.000000 0 0 1
-16.476346 19.402270 -0.438709 25.458015 -0.866769 1.588030 0.146840 -0.052968 756438.000000 0 0 1
-15.302646 18.887070 0.214391 24.309223 -0.889856 1.561977 0.140409 -0.048499 772380.000000 0 1 0
-15.689046 17.823270 1.238891 23.777089 -0.848997 1.518668 0.107407 -0.044616 137793.000000 0 1 0
-16.215146 16.708270 0.557391 23.289653 -0.800375 1.546861 0.082715 -0.044506 -43902.400000 0 1 0
-16.876846 15.928170 1.507391 23.255252 -0.756488 1.505931 0.093935 -0.060697 -15914.900000 0 1 0
-17.469646 14.620970 0.891191 22.798147 -0.696861 1.531696 0.075290 -0.057081 165027.000000 0 1 0
-18.529946 14.750170 -0.068409 23.683984 -0.672308 1.573685 0.130296 -0.067778 719836.000000 0 1 0
-19.332746 13.581070 -0.172309 23.626896 -0.612395 1.578089 0.128948 -0.056783 -216384.000000 0 1 0
-20.421846 13.701270 -1.293509 24.626200 -0.590936 1.623346 0.111709 -0.053169 176184.000000 0 1 0
-21.148746 12.473270 -1.419109 24.594019 -0.532877 1.628530 0.108307 -0.055974 661616.000000 0 1 0
-22.115746 12.167870 -0.436009 25.245858 -0.502989 1.588068 0.142544 -0.061749 451562.000000 0 0 1
-23.565946 12.803270 -0.515109 26.824296 -0.497681 1.590001 0.170146 -0.062134 414873.000000 0 0 1
-23.534146 14.206970 -0.323409 27.491791 -0.543117 1.582560 0.189786 -0.066965 -1132120.000000 0 0 1
-24.739546 14.832470 -0.151209 28.845626 -0.540085 1.576038 0.169994 -0.056570 -1187930.000000 0 0 1
-24.793846 16.112870 0.628091 29.576238 -0.576286 1.549558 0.187500 -0.064680 -232917.000000 0 0 1
-24.703746 15.953270 2.004591 29.475418 -0.573405 1.502735 0.197096 -0.067160 -48608.900000 0 0 1
-24.719246 17.164070 2.786991 30.222735 -0.606931 1.478450 0.176136 -0.064385 71831.100000 0 0 1
-26.057696 17.942670 2.918891 31.772045 -0.603017 1.478797 0.172419 -0.060654 -246683.000000 0 0 1
-26.979546 17.261870 3.769091 32.250180 -0.569181 1.453658 0.176589 -0.059355 796835.000000 0 0 1
-28.207436 17.962170 3.993191 33.678547 -0.567032 1.451949 0.166760 -0.061581 1080900.000000 0 0 1
-29.284526 18.019570 2.860091 34.503166 -0.551613 1.487808 0.144727 -0.062168 -494959.000000 0 0 1
-30.478136 18.690270 3.154391 35.891407 -0.550095 1.482796 0.123049 -0.057857 -87385.200000 0 0 1
-31.163756 18.825870 1.923191 36.459453 -0.543425 1.518023 0.116939 -0.050010 834199.000000 0 0 1
-32.513566 19.652270 1.969491 38.042378 -0.543673 1.519002 0.114197 -0.053322 1457780.000000 0 0 1
-33.712586 18.975070 2.372091 38.758464 -0.512654 1.509556 0.115670 -0.045405 1727820.000000 0 0 1
-34.921323 19.782870 2.410691 40.207862 -0.515422 1.510805 0.121640 -0.045630 1328990.000000 0 0 1
-35.277593 20.285070 3.845191 40.875153 -0.521844 1.476585 0.102666 -0.048715 -665623.000000 0 0 1
-34.273072 21.173870 4.256591 40.510428 -0.553404 1.465528 0.111459 -0.055170 222655.000000 0 0 1
-34.404052 21.651170 5.585391 41.031799 -0.561700 1.434249 0.098015 -0.052102 -1069330.000000 0 0 1
-33.203396 22.477170 5.934091 40.532729 -0.595091 1.423866 0.114570 -0.051168 -1074660.000000 0 0 1
-33.213646 23.768590 5.306591 41.185580 -0.621137 1.441591 0.088386 -0.047476 104823.000000 0 0 1
-32.134716 24.476340 5.826691 40.812761 -0.650934 1.427540 0.090483 -0.049972 -459893.000000 0 0 1
-32.373666 25.987470 5.640491 41.895321 -0.676406 1.435753 0.082807 -0.041104 -9904.640000 0 0 1
-33.396456 26.494770 6.490491 43.121022 -0.670667 1.419704 0.093069 -0.027881 385343.000000 0 0 1
-33.641776 27.886020 6.445591 44.169501 -0.692122 1.424345 0.082164 -0.018633 436958.000000 0 0 1
-34.835688 28.350400 7.368591 45.514464 -0.683118 1.408185 0.079980 -0.015637 13240.500000 0 0 1
-34.444374 28.511190 8.699691 45.552030 -0.691432 1.378632 0.100160 -0.026839 -186273.000000 0 0 1
-35.367451 29.142440 9.539991 46.809719 -0.689199 1.365555 0.096953 -0.020356 -257027.000000 0 0 1
-36.545036 28.192540 9.947991 47.215691 -0.657086 1.358513 0.082969 -0.018302 -135345.000000 0 0 1
-36.095066 27.117350 10.716691 46.400990 -0.644317 1.337734 0.107540 -0.026234 -687287.000000 0 0 1
-37.102506 26.632860 11.497291 47.096633 -0.622585 1.324183 0.085455 -0.022620 -670770.000000 0 0 1
-36.668406 25.362540 12.165191 46.214957 -0.605115 1.304427 0.118681 -0.025525 388798.000000 0 0 1
-35.566078 25.597190 13.044991 45.720168 -0.623831 1.281453 0.144957 -0.041463 121060.000000 0 0 1
-35.158320 24.463910 13.791291 44.997667 -0.607916 1.259294 0.152181 -0.039918 -96333.100000 0 0 1
-33.882196 24.758150 14.594691 44.429429 -0.631043 1.236090 0.154535 -0.037378 -212393.000000 0 0 1
-34.025869 25.799820 15.542491 45.441825 -0.648755 1.221719 0.141643 -0.041370 513092.000000 0 0 1
-32.760446 26.087790 16.157891 44.887604 -0.672493 1.202568 0.161441 -0.034283 549370.000000 0 0 1
-32.845016 27.170920 17.240691 45.981468 -0.691135 1.186455 0.137380 -0.038512 -439222.000000 0 0 1
-33.096656 28.386300 16.623191 46.663702 -0.708935 1.206562 0.156884 -0.042388 73080.900000 0 0 1
-33.195826 29.480740 17.515591 47.727066 -0.726194 1.195020 0.126288 -0.040945 -22049.700000 0 0 1
-33.217896 30.862140 16.793891 48.352198 -0.748652 1.216080 0.108124 -0.033469 -45528.100000 0 0 1
-31.983246 31.057090 16.145991 47.414806 -0.770708 1.223320 0.100738 -0.025190 -232383.000000 0 0 1
-31.765036 32.312231 15.582591 47.915706 -0.793938 1.239564 0.084977 -0.012110 -978379.000000 0 0 1
-30.358196 32.498512 15.020191 46.940169 -0.819436 1.245082 0.100402 -0.022345 -325433.000000 0 0 1
-29.916376 31.756000 13.885891 45.784834 -0.815218 1.262657 0.098036 -0.021281 -40740.300000 0 0 1
-29.569576 30.447840 14.136091 44.735443 -0.800031 1.249293 0.106173 -0.027587 -819804.000000 0 0 1
-30.523226 29.355840 13.697191 44.508939 -0.765905 1.257979 0.131439 -0.027598 -242709.000000 0 0 1
-30.471916 29.012180 12.324991 43.842327 -0.760863 1.285834 0.141180 -0.034726 559069.000000 0 0 1
-31.688706 28.319900 12.011691 44.164143 -0.729318 1.295348 0.141114 -0.029577 708720.000000 0 0 1
-31.773366 28.078470 10.518691 43.687414 -0.723742 1.327636 0.125036 -0.025427 -115761.000000 0 0 1
-30.775346 27.203550 10.060891 42.289201 -0.723871 1.330586 0.099106 -0.013021 -242726.000000 0 0 1
-30.615656 27.371040 8.681091 41.974439 -0.729502 1.362474 0.093877 -0.020164 167921.000000 0 0 1
-29.501976 26.478280 8.076891 40.456174 -0.731437 1.369800 0.097204 -0.027819 323396.000000 0 0 1
-29.032916 26.900720 6.799491 40.159582 -0.747297 1.400665 0.097997 -0.039819 -216578.000000 0 0 1
-28.190806 25.932340 6.215791 38.805204 -0.743694 1.409924 0.093104 -0.037365 -136159.000000 0 0 1
-27.821316 26.319370 4.756391 38.592203 -0.757664 1.447235 0.068517 -0.033019 -362792.000000 0 0 1
-26.941086 27.407850 4.622791 38.708946 -0.793986 1.451086 0.043132 -0.019855 198225.000000 0 0 1
-27.042046 27.955630 3.302291 39.034531 -0.802008 1.486096 0.034952 -0.015921 348424.000000 0 0 1
-25.994076 29.125610 3.103891 39.161553 -0.842151 1.491454 0.035273 -0.011596 1125590.000000 0 0 1
-24.639346 28.675960 3.028491 37.928614 -0.860966 1.490864 0.038075 -0.010857 413631.000000 0 0 1
-23.734446 29.750010 3.200591 38.192025 -0.897401 1.486895 0.036700 -0.015537 942758.000000 0 0 1
-22.235846 29.275080 3.171191 36.898775 -0.921212 1.484747 0.039100 -0.015449 586251.000000 0 0 1
-21.313746 30.274630 2.901091 37.138192 -0.957382 1.492601 0.048559 -0.022413 -759028.000000 0 0 1
-20.022946 29.842150 3.212391 36.080351 -0.979826 1.481644 0.073625 -0.037647 -216279.000000 0 0 1
-18.795146 30.645320 2.768691 36.056328 -1.020646 1.493933 0.084413 -0.031613 109066.000000 0 0 1
-18.769546 31.933387 3.384891 37.195356 -1.039417 1.479667 0.087400 -0.030757 -559144.000000 0 0 1
-17.634246 32.626048 3.008191 37.208532 -1.075279 1.489861 0.113058 -0.034803 -604634.000000 0 0 1
-17.297246 33.852310 3.889391 38.213884 -1.098418 1.468840 0.113631 -0.035881 -682346.000000 0 0 1
-18.321746 -33.020635 3.824891 37.956271 1.064231 1.469854 0.109963 -0.034547 -562160.000000 0 0 1
-18.220346 -31.999695 4.751491 37.128670 1.053187 1.442471 0.081043 -0.037068 399667.000000 0 0 1
-19.409546 -30.967235 4.801391 36.861273 1.010920 1.440169 0.081817 -0.021754 416050.000000 0 0 1
-19.402646 -30.030795 3.731391 35.947664 0.997174 1.466808 0.099670 -0.022481 294759.000000 0 0 1
-20.295646 -28.963405 4.013691 35.593563 0.959578 1.457791 0.096947 -0.022821 36226.400000 0 0 1
-20.463146 -28.025425 2.830091 34.816292 0.940112 1.489420 0.095300 -0.028645 151522.000000 0 0 1
-19.394546 -27.116075 2.647791 33.443097 0.949914 1.491540 0.103998 -0.026878 19305.500000 0 0 1
-19.732046 -26.133315 1.701391 32.790220 0.924069 1.518886 0.096828 -0.022733 251373.000000 0 0 1
-18.614246 -25.067325 1.569391 31.262180 0.932067 1.520574 0.087377 -0.021030 307262.000000 0 0 1
-17.468646 -25.515225 0.892091 30.935030 0.970456 1.541955 0.121478 -0.026931 -542530.000000 0 0 1
-16.404246 -24.609375 1.087491 29.595662 0.982850 1.534043 0.107749 -0.018684 121460.000000 0 0 1
-15.077846 -24.972375 0.401091 29.173992 1.027601 1.557048 0.095952 -0.017939 -211618.000000 0 0 1
-15.192046 -24.905875 -1.004509 29.190921 1.023072 1.605215 0.082724 -0.012469 -13224.700000 0 0 1
-14.963746 -23.641675 -1.648309 28.027832 1.006508 1.629640 0.086170 -0.011043 -142555.000000 0 0 1
-15.132046 -23.635575 -3.140409 28.239713 1.001325 1.682232 0.069782 -0.000116 205763.000000 0 0 1
-14.047646 -24.233275 -3.827709 28.270821 1.045449 1.706608 0.084670 0.000832 -186488.000000 0 0 1
-14.309646 -24.290975 -5.207709 28.669455 1.038435 1.753457 0.077267 0.002716 556872.000000 0 0 1
-13.115246 -24.750175 -6.114509 28.669985 1.083512 1.785719 0.095126 -0.000280 543028.000000 0 0 1
-12.682346 -26.070425 -5.926709 29.591127 1.118035 1.772447 0.073261 0.001442 -775141.000000 0 0 1
-11.637146 -26.430945 -6.754209 29.658681 1.156051 1.800543 0.070882 -0.000644 -552744.000000 0 0 1
23.806454 12.480225 27.960187 38.784989 0.482849 0.765693 0.077759 -0.004864 103809.000000 0 0 1
25.027654 11.934625 28.458517 39.732933 0.444963 0.772390 0.061573 -0.008580 647703.000000 0 0 1
24.975254 11.395325 29.815717 40.528925 0.428051 0.744148 0.087620 -0.013691 -104858.000000 0 0 1
24.916454 12.275725 31.068527 41.674651 0.457771 0.729509 0.126259 -0.046001 -5450.660000 0 0 1
23.667654 12.901625 31.254247 41.272724 0.499086 0.711686 0.137667 -0.042172 -72924.700000 0 0 1
23.565554 13.678425 32.442678 42.366993 0.525914 0.698584 0.134670 -0.038826 -480755.000000 0 0 1
22.225554 14.334625 32.793023 42.128839 0.572825 0.678686 0.120814 -0.040896 -204062.000000 0 0 1
21.159754 13.424125 33.012850 41.446238 0.565343 0.649275 0.137918 -0.028489 174602.000000 0 0 1
20.285454 13.913025 -33.831079 41.828385 0.601174 2.512916 0.142276 -0.028088 213629.000000 0 0 1
19.127454 13.005825 -33.330029 40.569716 0.597146 2.534920 0.130554 -0.021252 589945.000000 0 0 1
17.966154 13.008725 33.686812 40.333745 0.626697 0.582297 0.097781 -0.007027 293810.000000 0 0 1
16.899654 12.329325 -33.515669 39.508362 0.630291 2.583598 0.079775 -0.005862 439786.000000 0 0 1
15.565254 12.298025 33.528723 38.957591 0.668672 0.534258 0.072018 -0.002185 419935.000000 0 0 1
15.514654 11.252225 32.636159 37.847536 0.627481 0.530990 0.066001 0.008183 -656458.000000 0 0 1
14.210054 10.865425 32.325263 36.944631 0.652798 0.505433 0.083370 0.003662 -630026.000000 0 0 1
14.145954 9.763925 31.215627 35.635062 0.604137 0.503331 0.090160 0.002615 -142614.000000 0 0 1
14.525754 8.449325 31.639647 35.825353 0.526839 0.488232 0.065058 -0.000709 100177.000000 0 0 1
15.041554 7.679725 30.575137 34.929437 0.472066 0.504658 0.066476 -0.024442 -133010.000000 0 0 1
15.497154 6.281425 30.974497 35.199966 0.385091 0.495022 0.103547 -0.026100 -872914.000000 0 0 1
14.508654 5.413225 31.316337 34.935899 0.357107 0.459230 0.102148 -0.019015 -728113.000000 0 0 1
15.039154 4.062525 31.483967 35.127204 0.263833 0.459477 0.094995 -0.027349 385619.000000 0 0 1
13.985654 3.064025 32.007244 35.063521 0.215676 0.420620 0.073632 -0.026873 -26023.300000 0 0 1
14.630854 1.851125 32.275821 35.485451 0.125853 0.428594 0.066597 -0.038227 -474646.000000 0 0 1
13.780954 1.039525 32.976542 35.755387 0.075289 0.396853 0.082763 -0.039529 -524686.000000 0 0 1
14.385654 -0.322275 33.430129 36.395391 -0.022399 0.406459 0.083999 -0.047154 -257953.000000 0 0 1
14.659854 -1.267475 32.388618 35.574435 -0.086244 0.426434 0.077369 -0.043236 14120.100000 0 0 1
15.121054 -2.527875 32.785970 36.193318 -0.165644 0.437398 0.106337 -0.054353 -388069.000000 0 0 1
15.506954 -3.587775 31.679027 35.452765 -0.227365 0.465592 0.115138 -0.055749 -1042010.000000 0 0 1
15.881254 -4.841675 32.219335 36.245574 -0.295916 0.475819 0.123425 -0.054203 766479.000000 0 0 1
17.072354 -5.023375 33.038403 37.526466 -0.286164 0.494086 0.090088 -0.048051 667155.000000 0 0 1
18.349454 -4.623775 32.270831 37.409736 -0.246845 0.530346 0.100621 -0.046011 -1289020.000000 0 0 1
18.579454 -3.233875 32.105713 37.234808 -0.172330 0.531101 0.107186 -0.045872 464768.000000 0 0 1
19.667754 -2.995975 31.197037 37.000697 -0.151167 0.567686 0.118629 -0.051950 520897.000000 0 0 1
19.790554 -1.481875 30.930877 36.750254 -0.074738 0.570464 0.127483 -0.051718 -64902.000000 0 0 1
19.986254 -0.689275 32.118483 37.835465 -0.034474 0.556898 0.105509 -0.043417 111094.000000 0 0 1
19.744654 0.677425 32.049031 37.649047 0.034296 0.552419 0.100568 -0.034329 -82462.500000 0 0 1
20.879454 1.537825 31.423497 37.759141 0.073520 0.587716 0.123355 -0.027850 -44225.600000 0 0 1
21.129254 1.427025 30.034737 36.750065 0.067435 0.614138 0.134698 -0.035389 -511847.000000 0 0 1
21.901954 2.449525 29.499097 36.822446 0.111378 0.641637 0.110525 -0.024699 -368095.000000 0 0 1
21.277654 3.884525 29.256047 36.383299 0.180575 0.636625 0.107168 -0.018153 -455991.000000 0 0 1
21.142454 4.544525 30.485297 37.376590 0.211726 0.616987 0.116593 -0.019110 163433.000000 0 0 1
20.480854 5.773025 30.435167 37.136137 0.274746 0.610159 0.124467 -0.019970 -195967.000000 0 0 1
19.989354 6.283125 31.805175 38.087021 0.304545 0.582544 0.131247 -0.020766 348929.000000 0 0 1
18.954354 5.506125 32.412510 37.949385 0.282713 0.546981 0.107211 -0.012369 420465.000000 0 0 1
18.693054 5.876925 33.754819 39.030198 0.304607 0.525968 0.090133 -0.012791 115838.000000 0 0 1
17.622554 4.975725 -33.425779 38.112924 0.275186 2.640420 0.088733 -0.008816 157965.000000 0 0 1
18.099754 3.670425 -33.431209 38.193178 0.200076 2.636891 0.073226 -0.005857 184148.000000 0 0 1
17.077554 2.866325 -32.906339 37.184484 0.166292 2.657179 0.054402 -0.006052 -1670.790000 0 0 1
17.371254 1.376325 -33.147629 37.448899 0.079065 2.657597 0.073537 -0.033215 -535824.000000 0 0 1
18.356554 0.861225 -32.304659 37.165788 0.046882 2.624387 0.057669 -0.032093 -146069.000000 0 0 1
18.560554 -0.540775 -32.495369 37.426403 -0.029127 2.622455 0.082210 -0.039513 400856.000000 0 0 1
19.612254 -1.173275 -31.494019 37.119945 -0.059752 2.583826 0.098987 -0.037631 215526.000000 0 0 1
19.161254 -1.280675 -30.151069 35.747458 -0.066737 2.574463 0.102093 -0.041047 392540.000000 0 0 1
18.926054 -0.050775 -29.462779 35.017902 -0.002683 2.570597 0.081344 -0.032092 -90747.400000 0 0 1
18.382754 -0.320475 -28.036799 33.527458 -0.017432 2.561175 0.085661 -0.030775 789237.000000 0 0 1
17.094954 -0.973675 -27.915279 32.748256 -0.056895 2.591393 0.105461 -0.033438 1030390.000000 0 0 1
16.678554 -1.090675 -26.559519 31.381074 -0.065301 2.579900 0.099902 -0.030707 -288448.000000 0 0 1
17.469254 -2.089875 -25.640829 31.096536 -0.119066 2.540213 0.106539 -0.029754 615747.000000 0 0 1
18.784854 -1.545275 -25.359199 31.596639 -0.082077 2.502423 0.112609 -0.024235 894129.000000 0 0 1
19.810154 -2.525575 -25.294589 32.227891 -0.126805 2.473277 0.097419 -0.024551 490506.000000 0 0 1
20.496454 -2.827475 -26.652439 33.740951 -0.137084 2.481465 0.108160 -0.039297 186154.000000 0 0 1
21.751254 -2.179775 -26.896609 34.659718 -0.099880 2.459126 0.098159 -0.028439 378272.000000 0 0 1
22.294454 -2.332275 -28.196739 36.021359 -0.104233 2.469914 0.094845 -0.034558 -822570.000000 0 0 1
23.694654 -1.794875 -28.245439 36.911557 -0.075606 2.442178 0.074424 -0.035908 -1155110.000000 0 0 1
24.665154 -2.627175 -27.694369 37.178622 -0.106114 2.411182 0.078574 -0.033274 73047.700000 0 0 1
25.981154 -2.143575 -27.990559 38.250316 -0.082319 2.391716 0.070125 -0.035013 541818.000000 0 0 1
27.116454 -3.095075 -27.611089 38.823367 -0.113648 2.361997 0.083126 -0.032604 -537356.000000 0 0 1
27.206654 -4.123575 -28.552769 39.654338 -0.150420 2.374658 0.096796 -0.037523 889408.000000 0 0 1
28.334454 -5.005675 -28.344149 40.389217 -0.174860 2.348683 0.090418 -0.038724 618239.000000 0 0 1
28.111154 -6.188875 -27.296929 39.669403 -0.216700 2.329678 0.084382 -0.027753 -173331.000000 0 0 1
28.031854 -5.759475 -25.938879 38.623592 -0.202642 2.307137 0.070324 -0.022533 303548.000000 0 0 1
28.109354 -6.905275 -25.059869 38.285972 -0.240887 2.284376 0.062489 -0.020366 -175144.000000 0 0 1
28.191254 -6.571875 -23.551109 37.317437 -0.229027 2.253769 0.045667 -0.020164 -952030.000000 0 0 1
29.457754 -6.211975 -23.144209 37.973706 -0.207832 2.226201 0.050745 -0.021096 -514822.000000 0 0 1
29.516654 -5.708075 -21.787909 37.128533 -0.191027 2.197927 0.057572 -0.026937 -567827.000000 0 0 1
30.969654 -5.290475 -21.542609 38.094522 -0.169194 2.171841 0.056749 -0.026080 -429035.000000 0 0 1
31.448154 -4.129275 -22.247009 38.742312 -0.130557 2.182460 0.072290 -0.036293 115315.000000 0 0 1
32.716254 -3.791075 -21.738909 39.462713 -0.115363 2.154205 0.087702 -0.034121 380079.000000 0 0 1
33.481654 -2.667075 -22.529609 40.444008 -0.079490 2.161634 0.102212 -0.034323 411478.000000 0 0 1
32.859854 -1.437375 -22.168909 39.664803 -0.043715 2.163863 0.092615 -0.033583 298344.000000 0 0 1
33.403654 -0.327275 -22.847609 40.471280 -0.009797 2.170671 0.101382 -0.029891 -420008.000000 0 0 1
32.583454 0.950325 -22.585709 39.657267 0.029158 2.176721 0.090675 -0.022733 410596.000000 0 0 1
31.388754 0.868025 -23.381209 39.149563 0.027647 2.210837 0.069527 -0.026006 478637.000000 0 0 1
30.456654 1.824725 -22.946309 38.176832 0.059841 2.215615 0.057860 -0.017000 259247.000000 0 0 1
28.992654 1.538325 -23.412209 37.297077 0.053009 2.249420 0.058879 -0.015592 500042.000000 0 0 1
28.038954 2.475125 -22.942709 36.313594 0.088046 2.254662 0.052156 -0.012135 645798.000000 0 0 1
27.024154 2.701725 -23.931109 36.198097 0.099643 2.293100 0.085165 -0.016614 348747.000000 0 0 1
26.007954 3.809225 -23.576909 35.309978 0.145430 2.301928 0.083501 -0.006042 144130.000000 0 0 1
26.655954 5.081025 -23.516609 35.908044 0.188355 2.284862 0.059201 0.002653 -241.917000 0 0 1
25.642254 6.021825 -23.333009 35.188306 0.230660 2.295735 0.083881 0.001307 -176767.000000 0 0 1
25.989354 7.459125 -22.752909 35.338081 0.279494 2.270334 0.086122 0.005081 -162261.000000 0 0 1
26.861654 8.243725 -23.535709 36.652927 0.297771 2.268062 0.076760 0.001809 23198.300000 0 0 1
26.979954 9.569425 -22.989909 36.715497 0.340844 2.247419 0.087309 0.001857 130841.000000 0 0 1
27.955254 10.497625 -23.787109 38.177519 0.359222 2.243453 0.111721 0.000609 29314.900000 0 0 1
27.671154 10.732025 -25.158599 38.907894 0.369981 2.273941 0.150178 -0.007109 351693.000000 0 0 1
26.451354 11.421825 -25.399199 38.409003 0.407620 2.293323 0.156996 -0.010917 297644.000000 0 0 1
26.093154 11.618925 -26.906569 39.240484 0.418927 2.326339 0.166095 -0.018493 -423608.000000 0 0 1
25.758354 10.463425 -27.671109 39.225838 0.385852 2.353827 0.161112 -0.020697 -106921.000000 0 0 1
26.740554 9.586225 -28.171069 40.007025 0.344218 2.352026 0.146573 -0.031757 -437486.000000 0 0 1
27.594654 10.178825 -29.298219 41.514564 0.353385 2.354254 0.140936 -0.033353 -853357.000000 0 0 1
28.607854 11.099725 -28.918589 42.165128 0.370115 2.326556 0.129874 -0.034596 721499.000000 0 0 1
29.527154 11.452325 -29.939439 43.581861 0.369995 2.328108 0.135348 -0.039026 654596.000000 0 0 1
30.489654 10.380125 -30.531829 44.379709 0.328140 2.329482 0.103118 -0.039400 -914864.000000 0 0 1
29.829554 9.566525 -31.425199 44.371881 0.310343 2.357775 0.099004 -0.041724 -72402.900000 0 0 1
30.431154 8.291425 -31.678439 44.702644 0.266008 2.358376 0.085036 -0.040076 -235516.000000 0 0 1
29.454554 7.407225 -32.477409 44.465940 0.246371 2.389687 0.088676 -0.041312 1294950.000000 0 0 1
28.187254 7.227325 -31.782659 43.091681 0.250997 2.400245 0.109492 -0.046813 931562.000000 0 0 1
27.269154 6.447225 -32.507509 42.917498 0.232166 2.430182 0.086915 -0.036199 -1514410.000000 0 0 1
25.943954 6.367625 -31.855779 41.574344 0.240680 2.443760 0.112668 -0.031898 -1716950.000000 0 0 1
25.376454 7.680425 -31.747719 41.362677 0.293895 2.445799 0.122707 -0.025950 106903.000000 0 0 1
24.328154 7.763225 -30.803789 40.012500 0.308890 2.449409 0.129105 -0.027300 1004050.000000 0 0 1
22.860554 7.472025 -31.305079 39.477133 0.315906 2.486502 0.149684 -0.027756 683230.000000 0 0 1
22.343154 8.559425 -32.046259 39.993037 0.365844 2.500255 0.155128 -0.024942 15430.700000 0 0 1
21.049054 8.341325 -32.573519 39.669567 0.377296 2.534169 0.139384 -0.015573 139068.000000 0 0 1
20.642454 9.480625 -33.507629 40.481531 0.430543 2.545840 0.147883 -0.015331 159655.000000 0 0 1
21.565954 9.494125 33.230069 40.736548 0.414705 0.616804 0.130936 -0.020199 264309.000000 0 0 1
21.432154 10.518925 32.209477 40.092836 0.456261 0.637859 0.127000 -0.024348 -27786.600000 0 0 1
20.190854 10.414225 31.280787 38.660243 0.476199 0.628143 0.114572 -0.021437 165452.000000 0 0 1
20.085954 9.286725 30.377997 37.583395 0.433076 0.629567 0.108264 -0.019570 -477180.000000 0 0 1
20.982754 9.186425 29.308477 37.197490 0.412669 0.663380 0.131170 -0.023040 -890491.000000 0 0 1
20.554154 9.958325 28.048327 36.171124 0.451164 0.683394 0.128380 -0.022625 -9671.910000 0 0 1
19.421754 9.447025 27.395357 34.884903 0.452720 0.667605 0.105888 -0.012239 957580.000000 0 0 1
18.151954 9.880925 27.967967 34.775470 0.498491 0.636394 0.096693 -0.025449 1039020.000000 0 0 1
16.948554 9.141925 27.261427 33.376844 0.494663 0.614994 0.120462 -0.023814 22590.700000 0 0 1
16.770554 9.545025 25.894177 32.293458 0.517430 0.640429 0.123271 -0.021750 387648.000000 0 0 1
15.529454 9.178325 25.312447 31.082561 0.533796 0.619168 0.135000 -0.028007 314749.000000 0 0 1
15.333754 7.611025 25.085697 30.370116 0.460729 0.598823 0.139120 -0.029467 -196509.000000 0 0 1
15.340154 6.832825 26.301937 31.205765 0.419039 0.568229 0.122741 -0.029316 -76692.700000 0 0 1
15.233754 5.426225 26.055387 30.665851 0.342185 0.555466 0.129437 -0.034085 -160706.000000 0 0 1
15.730754 4.548425 27.180707 31.732250 0.281466 0.542222 0.109960 -0.035371 -701262.000000 0 0 1
17.073554 4.734825 27.517597 32.728321 0.270521 0.572058 0.120586 -0.029950 -349242.000000 0 0 1
17.469154 4.068925 28.692627 33.837766 0.228840 0.558696 0.122811 -0.033318 -769309.000000 0 0 1
17.956154 2.575825 28.592277 33.861138 0.142479 0.565356 0.132280 -0.035536 -1149440.000000 0 0 1
17.162454 1.475725 28.349367 33.172492 0.085775 0.546007 0.130799 -0.046454 -559912.000000 0 0 1
16.294154 1.155425 29.413917 33.645401 0.070792 0.506943 0.107302 -0.043752 46559.100000 0 0 1
15.936554 -0.344075 29.494907 33.526731 -0.021587 0.495475 0.111171 -0.045056 151980.000000 0 0 1
15.256254 -1.021075 28.408637 32.262154 -0.066829 0.493762 0.116817 -0.045117 330060.000000 0 0 1
16.027354 -1.224075 27.276447 31.660370 -0.076226 0.532515 0.149057 -0.041125 -761229.000000 0 0 1
17.211554 -2.240075 27.324527 32.371057 -0.129422 0.565905 0.138966 -0.029907 1088070.000000 0 0 1
18.497554 -1.889875 27.836817 33.475656 -0.101816 0.588897 0.143823 -0.039997 609557.000000 0 0 1
19.151054 -0.813575 27.220277 33.292166 -0.042456 0.613534 0.143268 -0.035666 -494664.000000 0 0 1
20.676054 -0.709775 27.508517 34.419784 -0.034315 0.644822 0.143701 -0.022314 371969.000000 0 0 1
21.499854 -1.517375 26.705457 34.318036 -0.070459 0.679041 0.126800 -0.022776 -26513.800000 0 0 1
22.849554 -1.140675 26.947097 35.348965 -0.049880 0.703912 0.107455 -0.017299 601927.000000 0 0 1
23.958654 -1.719875 26.031477 35.420515 -0.071662 0.745238 0.094603 -0.012375 113391.000000 0 0 1
24.108954 -1.202875 24.756467 34.577034 -0.049852 0.772769 0.102366 0.002327 -366107.000000 0 0 1
23.209054 -1.690775 23.844747 33.318027 -0.072721 0.773212 0.120559 -0.000098 -453841.000000 0 0 1
23.482854 -1.061075 22.408957 32.476633 -0.045154 0.809304 0.114151 -0.018364 122145.000000 0 0 1
22.892254 0.224725 22.305757 31.963301 0.009816 0.798398 0.116774 -0.017252 104490.000000 0 0 1
22.828954 0.648825 20.965357 31.002070 0.028414 0.828127 0.088151 -0.011318 -95558.900000 0 0 1
-31.463686 -26.741020 -10.066409 42.501508 0.704437 1.809917 0.045888 0.024670 131853.000000 0 0 1
-31.412336 -25.713420 -9.150709 41.613102 0.685966 1.792508 0.056803 0.021768 -206637.000000 0 0 1
-31.780686 -26.258320 -7.889509 41.973273 0.690535 1.759886 0.058442 0.006916 -257744.000000 0 0 1
-31.856586 -25.153620 -6.748709 41.147195 0.668361 1.735555 0.091680 -0.003892 994260.000000 0 0 1
-30.687216 -24.389620 -6.381409 39.714999 0.671551 1.732176 0.126080 -0.012072 113801.000000 0 0 1
-29.605096 -25.064520 -5.764209 39.216297 0.702534 1.718316 0.118296 -0.012495 1002770.000000 0 0 1
-28.417806 -24.106420 -5.294009 37.639310 0.703498 1.711915 0.098382 -0.013775 541098.000000 0 0 1
-28.754556 -23.132720 -4.276009 37.151466 0.677472 1.686149 0.123632 -0.021984 155629.000000 0 0 1
-29.401766 -21.953220 -4.729609 36.996985 0.641362 1.698985 0.150162 -0.027474 -213382.000000 0 0 1
-29.577806 -20.889720 -3.624409 36.391803 0.614917 1.670556 0.130139 -0.031221 1102220.000000 0 0 1
-28.350716 -20.162620 -3.314009 34.946773 0.618194 1.665769 0.137954 -0.038134 1227760.000000 0 0 1
-28.587956 -19.001420 -2.557909 34.421912 0.586616 1.645175 0.150451 -0.031187 -179197.000000 0 0 1
-27.565826 -17.858120 -2.787709 32.962987 0.574852 1.655468 0.138719 -0.023912 51168.800000 0 0 1
-27.685886 -17.289720 -4.055109 32.892044 0.558237 1.694396 0.139069 -0.029678 710995.000000 0 0 1
-26.728136 -16.234920 -4.337609 31.571834 0.545850 1.708621 0.121284 -0.029342 520167.000000 0 0 1
-27.231306 -15.365920 -5.502409 31.747945 0.513736 1.744991 0.116016 -0.040318 446329.000000 0 0 1
-28.300426 -14.507720 -5.084009 32.206135 0.473703 1.729318 0.106367 -0.025787 350025.000000 0 0 1
-28.759136 -13.685620 -6.146009 32.436977 0.444158 1.761424 0.135696 -0.042958 -478230.000000 0 0 1
-30.037326 -12.976320 -5.708309 33.214614 0.407790 1.743515 0.123096 -0.038783 -442536.000000 0 0 1
-31.175416 -13.594620 -6.265509 34.582898 0.411208 1.752976 0.124866 -0.030672 825140.000000 0 0 1
-32.381766 -12.810620 -6.121309 35.357618 0.376718 1.744799 0.101338 -0.030858 678899.000000 0 0 1
-33.581346 -13.360220 -6.901809 36.794527 0.378649 1.759491 0.074203 -0.026648 -210790.000000 0 0 1
-34.289043 -14.412420 -6.238609 37.714407 0.397901 1.736977 0.076674 -0.024898 358068.000000 0 0 1
-34.393947 -15.543720 -7.125209 38.409886 0.424459 1.757382 0.088709 -0.031516 -1076250.000000 0 0 1
-35.288239 -16.655520 -6.675409 39.588220 0.440986 1.740227 0.091760 -0.031691 -371948.000000 0 0 1
-36.672086 -16.414320 -6.629309 40.721241 0.420854 1.734321 0.087063 -0.044070 111635.000000 0 0 1
-37.212126 -15.547620 -5.609809 40.717818 0.395765 1.709009 0.088656 -0.046426 -533131.000000 0 0 1
36.137213 -15.655320 -5.424309 39.754375 -0.408811 1.707669 0.120932 -0.046799 -1154720.000000 0 0 1
35.531173 -15.109720 -6.546009 39.161436 -0.402084 1.738739 0.137837 -0.052875 568199.000000 0 0 1
34.098913 -15.164220 -6.519009 37.883860 -0.418448 1.743736 0.157486 -0.056568 952697.000000 0 0 1
33.264243 -14.423420 -5.453209 36.664456 -0.409133 1.720083 0.173495 -0.061607 -943000.000000 0 0 1
33.334813 -15.012920 -4.185809 36.798349 -0.423160 1.684793 0.161391 -0.065602 175632.000000 0 0 1
32.682203 -14.100320 -3.350809 35.751550 -0.407310 1.664659 0.182615 -0.050429 -1112700.000000 0 0 1
32.653023 -14.580520 -1.861609 35.808896 -0.419964 1.622807 0.176169 -0.056260 -89891.200000 0 0 1
33.839743 -14.710120 -1.078809 36.914491 -0.410057 1.600025 0.202192 -0.050603 -222563.000000 0 0 1
34.841473 -15.538520 -1.583809 38.182224 -0.419504 1.612288 0.164719 -0.051186 -1036730.000000 0 0 1
34.601623 -17.069520 -1.902209 38.629771 -0.458286 1.620058 0.147366 -0.042764 -1030010.000000 0 0 1
34.637273 -17.907820 -0.766009 39.000224 -0.477163 1.590439 0.148390 -0.041039 186616.000000 0 0 1
34.356353 -19.260220 -1.121809 39.402709 -0.510946 1.599271 0.136624 -0.035774 123701.000000 0 0 1
35.530683 -20.042720 -1.792309 40.833227 -0.513601 1.614704 0.110764 -0.042771 156517.000000 0 0 1
35.953013 -19.418420 -2.955809 40.968658 -0.495215 1.643007 0.072503 -0.043493 26147.900000 0 0 1
36.817373 -20.183920 -3.789009 42.157634 -0.501473 1.660795 0.086994 -0.035473 14421.900000 0 0 1
36.944663 -19.623220 -5.178009 42.151994 -0.488257 1.693949 0.118192 -0.036778 -164377.000000 0 0 1
35.816393 -19.827120 -5.998709 41.375272 -0.505585 1.716292 0.104414 -0.041148 174053.000000 0 0 1
35.794333 -18.824020 -6.968109 41.038184 -0.484147 1.741419 0.111095 -0.043590 104677.000000 0 0 1
34.499203 -18.970120 -7.803709 40.136745 -0.502744 1.766471 0.131043 -0.047843 58311.700000 0 0 1
34.514663 -20.080820 -8.678209 40.863340 -0.526934 1.784798 0.140662 -0.046262 13926.800000 0 0 1
33.275093 -20.333920 -9.292809 40.088108 -0.548531 1.804734 0.134877 -0.046893 -363863.000000 0 0 1
33.208493 -21.685620 -10.081709 40.923232 -0.578491 1.819716 0.119754 -0.031337 -119074.000000 0 0 1
33.009703 -22.807020 -9.233309 41.171041 -0.604605 1.796987 0.106703 -0.022525 57190.500000 0 0 1
32.844193 -24.018620 -9.885609 41.873146 -0.631419 1.809131 0.082128 -0.012242 82655.200000 0 0 1
31.941253 -25.086420 -9.172709 41.637851 -0.665770 1.792916 0.082645 -0.015784 -548064.000000 0 0 1
30.589653 -24.781920 -9.162509 40.420564 -0.680894 1.799463 0.084649 -0.024959 -1077120.000000 0 0 1
29.854793 -25.855420 -8.617309 40.423624 -0.713732 1.785620 0.066984 -0.022938 285315.000000 0 0 1
28.373063 -25.408320 -8.417109 39.005911 -0.730328 1.788298 0.074797 -0.032749 111500.000000 0 0 1
27.791963 -24.944220 -9.597709 38.558051 -0.731451 1.822357 0.072828 -0.036378 -880468.000000 0 0 1
26.630563 -24.257920 -9.245509 37.190227 -0.738808 1.822031 0.074910 -0.032902 -769023.000000 0 0 1
25.920763 -23.658020 -10.446009 36.615665 -0.739790 1.860103 0.108281 -0.038545 -676339.000000 0 0 1
25.228963 -24.548420 -11.281409 36.964789 -0.771727 1.880938 0.085035 -0.031002 39502.600000 0 0 1
24.782263 -23.857920 -12.417509 36.572605 -0.766397 1.917214 0.090774 -0.013567 51050.700000 0 0 1
23.802263 -24.723120 -13.275209 36.796896 -0.804373 1.939889 0.095223 -0.030898 117285.000000 0 0 1
24.431363 -25.782220 -13.995009 38.176886 -0.812294 1.946130 0.092177 -0.028195 284233.000000 0 0 1
23.825163 -27.042220 -13.734009 38.568679 -0.848558 1.934879 0.098092 -0.012280 -134610.000000 0 0 1
24.629463 -28.206920 -14.344209 40.099839 -0.853003 1.936613 0.086659 -0.015638 -167773.000000 0 0 1
24.580663 -28.224720 -15.765609 40.612784 -0.854298 1.969467 0.094174 -0.005816 328780.000000 0 0 1
24.842363 -29.551320 -16.283409 41.899557 -0.871755 1.969940 0.081515 -0.008836 -175140.000000 0 0 1
24.791263 -29.661720 -17.839609 42.575532 -0.874604 2.003152 0.092374 -0.013168 61734.900000 0 0 1
23.476263 -29.752120 -18.351309 42.108124 -0.902761 2.021739 0.094175 -0.010396 24578.400000 0 0 1
23.456063 -29.745820 -19.780109 42.734686 -0.903076 2.052013 0.089959 -0.008295 129827.000000 0 0 1
22.000063 -29.766720 -20.306309 42.218557 -0.934319 2.072569 0.073003 -0.002021 102777.000000 0 0 1
21.833063 -29.650420 -21.710309 42.745380 -0.936089 2.103540 0.057761 -0.002627 -651332.000000 0 0 1
20.483263 -29.754920 -22.026809 42.309569 -0.967899 2.118362 0.064271 -0.015169 -806775.000000 0 0 1
20.279463 -29.987520 -23.529409 43.175699 -0.976179 2.147148 0.064380 -0.014701 -258151.000000 0 0 1
20.660363 -28.836420 -24.283309 42.989170 -0.949104 2.171072 0.073780 -0.020404 426536.000000 0 0 1
20.614663 -29.159320 -25.683069 43.986933 -0.955410 2.194296 0.075607 -0.016266 -226593.000000 0 0 1
21.063763 -27.985720 -26.579579 43.969951 -0.925594 2.219927 0.087328 -0.019024 78022.200000 0 0 1
20.205063 -26.867520 -26.556879 42.841288 -0.926000 2.239399 0.088065 -0.024205 189372.000000 0 0 1
19.182263 -26.913220 -27.539829 43.020027 -0.951568 2.265507 0.117021 -0.031422 223547.000000 0 0 1
18.361063 -25.586920 -27.722039 41.956293 -0.948359 2.292595 0.109569 -0.024314 -367778.000000 0 0 1
17.394363 -25.412820 -26.753529 40.793707 -0.970568 2.286071 0.087705 -0.009916 -726330.000000 0 0 1
16.884763 -24.101320 -26.843099 39.831153 -0.959685 2.310301 0.076317 -0.009066 272015.000000 0 0 1
15.766563 -23.850020 -25.788339 38.502550 -0.986677 2.304712 0.080834 -0.006383 832233.000000 0 0 1
14.475963 -24.412320 -26.106689 38.562599 -1.035556 2.314468 0.116323 -0.014073 857267.000000 0 0 1
13.400463 -24.120620 -25.221579 37.383215 -1.063694 2.311323 0.086650 -0.016031 326431.000000 0 0 1
13.560763 -24.451620 -23.685509 36.643953 -1.064432 2.273612 0.077367 -0.013709 -1159990.000000 0 0 1
14.446163 -23.679720 -22.971109 36.015171 -1.023009 2.262458 0.061093 -0.016957 -666278.000000 0 0 1
14.767363 -24.152020 -21.675609 35.654271 -1.022012 2.224258 0.065387 -0.026868 166726.000000 0 0 1
16.126163 -23.597620 -21.207209 35.589977 -0.971311 2.209152 0.060865 -0.040943 -45277.000000 0 0 1
16.034563 -22.268220 -20.726009 34.388199 -0.946731 2.217686 0.049741 -0.042690 411427.000000 0 0 1
17.297763 -21.723320 -20.327609 34.414051 -0.898330 2.202695 0.068039 -0.036527 93908.300000 0 0 1
17.220463 -20.356920 -19.697809 33.150448 -0.868672 2.207060 0.084586 -0.019042 98931.800000 0 0 1
16.462963 -20.235120 -18.491009 31.975094 -0.887827 2.187432 0.079461 -0.031011 693762.000000 0 0 1
15.077563 -20.058620 -18.803609 31.356926 -0.926224 2.213877 0.070782 -0.030693 143929.000000 0 0 1
14.173763 -19.928220 -17.544409 30.097106 -0.952566 2.193122 0.078050 -0.032014 -100696.000000 0 0 1
14.277663 -18.693020 -16.857709 28.938953 -0.918524 2.192630 0.101813 -0.032440 476184.000000 0 0 1
13.436363 -18.680920 -15.680609 27.845899 -0.947263 2.168954 0.109755 -0.038335 356223.000000 0 0 1
13.527063 -17.367420 -14.882809 26.572668 -0.909069 2.165278 0.113599 -0.034947 -39326.200000 0 0 1
12.733663 -16.316020 -15.425709 25.813004 -0.908097 2.211294 0.110311 -0.048134 241268.000000 0 0 1
12.706963 -15.193020 -14.578909 24.593481 -0.874269 2.205322 0.099917 -0.041102 -279416.000000 0 1 0
11.298063 -14.731320 -14.196209 23.370715 -0.916540 2.223625 0.099725 -0.033211 -79108.800000 0 1 0
10.506663 -14.256720 -15.288209 23.396011 -0.935692 2.282934 0.112656 -0.024548 298520.000000 0 1 0
9.149063 -13.996120 -14.958109 22.435279 -0.991834 2.300599 0.109811 -0.020489 274734.000000 0 1 0
8.527663 -13.378220 -16.223509 22.691409 -1.003309 2.367367 0.089263 -0.013123 -349133.000000 0 1 0
9.052963 -12.130020 -16.655709 22.505691 -0.929650 2.403966 0.081826 -0.013295 625511.000000 0 1 0
10.228563 -12.300520 -17.474009 23.691080 -0.877108 2.400272 0.105596 -0.014096 583204.000000 0 1 0
10.526063 -10.999020 -18.268009 23.780172 -0.807367 2.446826 0.108192 -0.018226 136408.000000 0 1 0
9.576663 -10.755420 -19.289609 24.072402 -0.843309 2.500289 0.105842 -0.025822 272036.000000 0 1 0
9.830563 -9.511720 -19.872609 24.125367 -0.768915 2.538742 0.102424 -0.039888 38833.100000 0 1 0
9.567363 -9.512320 -21.429509 25.322766 -0.782513 2.579712 0.096332 -0.040453 114656.000000 0 0 1
10.418863 -10.357820 -22.218809 26.636678 -0.782460 2.557374 0.090282 -0.019968 -157310.000000 0 0 1
10.231763 -10.330620 -23.608309 27.726574 -0.790206 2.589576 0.084622 -0.018335 52880.400000 0 0 1
11.265363 -11.183420 -24.400009 29.109066 -0.781748 2.564820 0.095554 -0.019966 18152.200000 0 0 1
11.396163 -12.540420 -24.052809 29.422309 -0.833165 2.527857 0.084575 -0.017018 132524.000000 0 0 1
12.542563 -13.111220 -24.681409 30.633183 -0.807561 2.507667 0.063488 -0.021963 388802.000000 0 0 1
12.609463 -14.625320 -24.423309 31.135133 -0.859281 2.472572 0.057960 -0.015902 124873.000000 0 0 1
11.590463 -15.295520 -25.133599 31.622611 -0.922342 2.489472 0.055037 -0.018124 -238573.000000 0 0 1
11.337763 -16.547020 -24.506409 31.668798 -0.970083 2.455669 0.054052 -0.017455 75381.900000 0 0 1
10.079563 -17.294220 -24.973509 32.005683 -1.043099 2.465915 0.049136 -0.024732 -89821.500000 0 0 1
10.182463 -17.875820 -26.236559 33.340433 -1.053013 2.476613 0.045630 -0.025708 -136205.000000 0 0 1
9.004463 -18.521720 -26.676869 33.701480 -1.118284 2.484160 0.044242 -0.027545 20296.700000 0 0 1
9.267363 -19.283520 -27.962809 35.208760 -1.122801 2.488487 0.051625 -0.017298 -367715.000000 0 0 1
10.108763 -20.361820 -27.690229 35.826520 -1.109987 2.454191 0.041354 -0.019540 -426638.000000 0 0 1
10.063663 -21.366120 -28.669549 37.144736 -1.130608 2.452516 0.049105 -0.019559 -210728.000000 0 0 1
11.118263 -22.473820 -28.570129 38.012374 -1.111381 2.421282 0.044916 -0.005188 -176502.000000 0 0 1
10.993763 -23.460620 -29.574609 39.318202 -1.132579 2.422170 0.056192 -0.006840 -18749.200000 0 0 1
11.653963 -24.671320 -29.271959 40.016702 -1.129497 2.391306 0.087667 -0.019417 36309.000000 0 0 1
10.800263 -25.699420 -28.475139 39.848957 -1.172953 2.366815 0.083768 -0.019286 221772.000000 0 0 1
10.360063 -25.117420 -27.269479 38.494677 -1.179590 2.358020 0.086729 -0.019741 -302317.000000 0 0 1
9.881863 -26.047120 -26.292049 38.306337 -1.208188 2.327272 0.082735 -0.016734 -2485.400000 0 0 1
9.101363 -25.523220 -25.097169 36.934231 -1.228261 2.317890 0.062139 -0.007394 -190384.000000 0 0 1
9.793763 -24.546520 -24.340909 35.929504 -1.191163 2.315104 0.068290 -0.009009 78083.000000 0 0 1
9.326963 -23.297320 -24.828709 35.301871 -1.189993 2.350861 0.045755 0.000398 168477.000000 0 0 1
10.392563 -22.201220 -24.581109 34.714988 -1.132986 2.357577 0.050189 -0.001551 -110968.000000 0 0 1
10.635863 -21.770420 -23.257609 33.585549 -1.116353 2.335729 0.052513 -0.016989 -301265.000000 0 0 1
11.719363 -20.874920 -23.337709 33.432834 -1.059236 2.343464 0.056589 -0.023311 -267802.000000 0 0 1
12.280863 -20.742420 -21.867709 32.546340 -1.036232 2.307560 0.047421 -0.023411 67380.800000 0 0 1
11.375963 -20.059520 -21.002009 31.191044 -1.054911 2.309506 0.051993 -0.027007 20959.800000 0 0 1
11.193563 -18.648820 -21.182809 30.360924 -1.030208 2.342978 0.064698 -0.023490 -266378.000000 0 0 1
12.354063 -17.723820 -20.756009 29.959448 -0.962065 2.336166 0.060133 -0.019450 228366.000000 0 0 1
13.504863 -17.919820 -21.567309 31.123143 -0.924978 2.336392 0.058499 -0.017830 -506926.000000 0 0 1
14.325763 -16.805520 -21.417309 30.762869 -0.864885 2.340896 0.065663 -0.014243 393969.000000 0 0 1
15.540663 -16.671720 -22.409109 31.962894 -0.820496 2.347732 0.051114 -0.002214 123627.000000 0 0 1
16.713263 -17.276920 -21.974409 32.568386 -0.801980 2.311376 0.057408 0.001249 -688621.000000 0 0 1
17.773463 -17.004820 -22.829109 33.559322 -0.763301 2.318915 0.056159 0.004447 1021470.000000 0 0 1
19.225063 -17.271120 -22.226909 34.087096 -0.731911 2.281098 0.068272 -0.004137 1478150.000000 0 0 1
19.684563 -18.637620 -22.119809 34.987552 -0.758085 2.255211 0.079378 -0.015841 687102.000000 0 0 1
21.087263 -18.765620 -21.883909 35.717315 -0.727209 2.230266 0.067913 -0.023565 824459.000000 0 0 1
21.572363 -20.245420 -21.768909 36.730495 -0.753677 2.205161 0.095898 -0.037883 -114546.000000 0 0 1
21.033363 -20.857520 -20.623309 36.093758 -0.781201 2.178985 0.086013 -0.038761 143978.000000 0 0 1
21.490863 -22.166820 -20.437609 37.025949 -0.800880 2.155534 0.103957 -0.042521 -104975.000000 0 0 1
-16.632946 12.878125 29.230777 36.013044 -0.658844 0.623788 0.096112 -0.020210 -407397.000000 0 0 1
-17.652346 13.623825 28.618157 36.279648 -0.657299 0.661908 0.108804 -0.022618 -239290.000000 0 0 1
-17.626446 13.412325 27.240307 35.108637 -0.650454 0.682678 0.096246 -0.026025 -186602.000000 0 0 1
-18.861146 13.999725 26.568237 35.462746 -0.638524 0.723962 0.106494 -0.017942 -221594.000000 0 0 1
-19.025046 15.386525 26.804137 36.292689 -0.680054 0.739872 0.105322 -0.016036 477670.000000 0 0 1
-20.161646 15.842925 26.043727 36.548132 -0.666019 0.777617 0.108759 -0.019869 215450.000000 0 0 1
-20.338346 17.374825 26.208997 37.449224 -0.706979 0.795603 0.097599 -0.007576 458641.000000 0 0 1
-19.333246 18.278525 25.716487 37.002927 -0.757363 0.802397 0.068941 -0.009617 339840.000000 0 0 1
-18.139846 18.346825 26.474297 36.966856 -0.791071 0.772507 0.046523 0.000289 187284.000000 0 0 1
-17.091346 19.318325 25.821847 36.497666 -0.846487 0.784852 0.058986 -0.006527 334566.000000 0 0 1
-17.379946 20.708825 25.879397 37.425408 -0.872575 0.807243 0.073848 -0.012717 499523.000000 0 0 1
-16.257346 21.401825 25.306387 36.915480 -0.921164 0.815475 0.110560 -0.028871 682075.000000 0 0 1
-16.358546 22.961425 25.240047 37.840310 -0.951773 0.840601 0.105628 -0.023934 -158285.000000 0 0 1
-15.977746 23.658425 26.422327 38.899214 -0.976805 0.824055 0.105821 -0.022206 40959.300000 0 0 1
-16.168746 25.022025 26.242487 39.701363 -0.997111 0.848650 0.098003 -0.021863 -378223.000000 0 0 1
-15.550946 25.905425 27.299527 40.720844 -1.030159 0.836040 0.083767 -0.016064 201791.000000 0 0 1
-14.130246 25.941125 27.252047 40.190545 -1.072028 0.825661 0.091853 -0.022845 147265.000000 0 0 1
-13.674646 26.907025 28.144977 41.268919 -1.100596 0.820317 0.098684 -0.014812 1337230.000000 0 0 1
-12.117846 27.071025 28.392137 41.058447 -1.149914 0.807225 0.104545 -0.016485 1573430.000000 0 0 1
-11.332346 27.562525 27.347537 40.447530 -1.180715 0.828307 0.091114 -0.012758 -962017.000000 0 0 1
-9.990046 27.747725 27.598717 40.390921 -1.225213 0.818537 0.074055 -0.007889 -1057010.000000 0 0 1
-9.195346 28.218625 26.420907 39.735495 -1.255786 0.843410 0.079353 -0.010227 7061.890000 0 0 1
-7.802546 27.912825 26.426147 39.221764 -1.298221 0.831508 0.068798 -0.008836 655845.000000 0 0 1
-7.319446 28.161225 25.080087 38.414056 -1.316511 0.859405 0.084575 -0.016005 -155445.000000 0 0 1
-5.814546 27.894325 24.880437 37.827748 -1.365290 0.852995 0.081278 -0.018841 -12529.100000 0 0 1
-5.019146 28.614025 25.869787 38.899874 -1.397154 0.843255 0.101950 -0.023749 -174028.000000 0 0 1
-3.655746 28.337225 25.808557 38.502525 -1.442496 0.836172 0.092563 -0.019900 -401942.000000 0 0 1
-2.842746 29.208625 24.846517 38.452236 -1.473776 0.868247 0.094066 -0.022957 -585959.000000 0 0 1
-3.146446 28.872325 23.488657 37.352755 -1.462247 0.890744 0.089921 -0.025219 -195548.000000 0 0 1
-2.652846 29.844325 22.568157 37.510573 -1.482140 0.925234 0.090318 -0.026818 -725843.000000 0 0 1
-3.120546 29.673025 21.126157 36.558730 -1.466017 0.954681 0.067119 -0.018587 164974.000000 0 0 1
-4.519446 29.718325 20.932857 36.630435 -1.419877 0.962511 0.067573 -0.011531 -100127.000000 0 0 1
-5.156546 28.523225 21.333457 35.990009 -1.391944 0.936314 0.079948 -0.016983 -1221860.000000 0 0 1
-6.674946 28.489025 21.122657 36.088033 -1.340649 0.945535 0.084227 -0.019955 -309638.000000 0 0 1
-7.038346 28.417925 19.735957 35.307574 -1.328009 0.977650 0.077760 -0.020610 405375.000000 0 0 1
-7.780846 27.263825 19.345957 34.323808 -1.292796 0.972022 0.059007 -0.019408 -460552.000000 0 0 1
-6.915146 25.986225 19.160157 33.018401 -1.310715 0.951715 0.055744 -0.021209 49746.300000 0 0 1
-6.162346 25.999025 17.960757 32.194916 -1.338069 0.978973 0.060366 -0.025373 68598.800000 0 0 1
-4.819546 26.366525 18.195757 32.396099 -1.390002 0.974399 0.081175 -0.026567 -306033.000000 0 0 1
-3.999946 26.702425 16.916357 31.861924 -1.422105 1.011102 0.075222 -0.028675 -19411.100000 0 0 1
-3.363246 25.559425 16.410657 30.559864 -1.439963 1.003919 0.083850 -0.033172 -309928.000000 0 0 1
-2.679846 25.881525 15.225257 30.147029 -1.467621 1.041376 0.091967 -0.042677 -230458.000000 0 0 1
-1.907246 24.680025 14.682057 28.780272 -1.493671 1.035445 0.095462 -0.042899 224438.000000 0 0 1
-0.716246 24.441625 15.427057 28.911938 -1.541500 1.007959 0.088388 -0.046533 184946.000000 0 0 1
-0.082746 23.253725 15.018557 27.682118 -1.567238 0.997343 0.066822 -0.040206 248817.000000 0 0 1
1.285854 22.882625 15.674757 27.766274 1.514662 0.970939 0.054538 -0.039173 610216.000000 0 0 1
2.264654 23.899925 15.463157 28.555986 1.476323 0.998572 0.062928 -0.045331 13231.300000 0 0 1
3.489154 23.430025 15.966257 28.566793 1.422965 0.977726 0.070077 -0.043769 -679351.000000 0 0 1
4.704954 24.308925 15.757457 29.348900 1.379612 1.004037 0.067774 -0.045593 -1148720.000000 0 0 1
5.883654 23.690025 16.104857 29.243822 1.327362 0.987582 0.074875 -0.040457 -723869.000000 0 0 1
6.972754 24.590825 15.928057 30.116955 1.294498 1.013524 0.090997 -0.042735 -89349.300000 0 0 1
8.353854 23.907425 15.918957 29.912624 1.234634 1.009621 0.124031 -0.038487 -48847.000000 0 0 1
8.810554 23.260725 14.725957 28.905727 1.208721 1.036253 0.101496 -0.026604 -8277.240000 0 0 1
9.410554 24.137725 13.843857 29.374150 1.199054 1.080039 0.117040 -0.029367 -590989.000000 0 0 1
9.998754 23.474925 12.577757 28.447270 1.168135 1.112810 0.103734 -0.017558 -254486.000000 0 0 1
11.223454 22.818125 12.745257 28.444232 1.113677 1.106181 0.108152 -0.017440 -42176.300000 0 0 1
11.597154 21.939525 11.627857 27.405179 1.084534 1.132614 0.101267 -0.016529 402355.000000 0 0 1
12.921554 21.153025 11.832957 27.466997 1.022429 1.125410 0.111702 -0.021151 386545.000000 0 0 1
12.885854 20.105825 12.826857 27.107522 1.000844 1.077894 0.099599 -0.013866 327186.000000 0 0 1
14.181154 19.515825 12.767357 27.294285 0.942408 1.084034 0.078580 -0.012722 216175.000000 0 0 1
14.487954 18.805725 14.095957 27.608914 0.914366 1.034962 0.080912 -0.010749 -816048.000000 0 0 1
15.713154 18.162625 14.154557 27.877153 0.857580 1.038228 0.071561 -0.005356 -490655.000000 0 0 1
15.928054 17.864725 15.516157 28.523718 0.842646 0.995631 0.063480 -0.002437 405074.000000 0 0 1
16.998154 16.737025 15.716657 28.567089 0.777658 0.988233 0.042555 -0.005289 126871.000000 0 0 1
17.353154 16.550225 17.034257 29.414416 0.761720 0.953157 0.045301 -0.009922 -482395.000000 0 0 1
18.427454 15.668325 16.958657 29.540879 0.704651 0.959323 0.037250 -0.011032 -474035.000000 0 0 1
18.847554 15.264325 18.428857 30.460675 0.680739 0.921024 0.044216 -0.014318 120187.000000 0 0 1
19.590354 16.276725 19.114057 31.844324 0.693273 0.927002 0.054978 -0.012037 377411.000000 0 0 1
18.727554 17.199325 19.718557 32.177004 0.742887 0.911178 0.048920 -0.004327 -343437.000000 0 0 1
19.415654 18.082625 20.721757 33.665119 0.749864 0.907743 0.049598 0.000235 -333743.000000 0 0 1
18.533254 19.004825 21.281757 34.023200 0.797960 0.895015 0.044335 0.004940 133847.000000 0 0 1
19.247854 19.926325 22.115457 35.449003 0.802716 0.897116 0.058372 0.002821 208906.000000 0 0 1
18.390654 21.124525 22.558657 35.963242 0.854473 0.892754 0.063434 -0.002618 124496.000000 0 0 1
17.483154 20.723125 23.574767 35.928794 0.869998 0.855088 0.070936 -0.005297 -158641.000000 0 0 1
16.935854 21.845425 24.183207 36.727010 0.911325 0.852028 0.073728 -0.017816 -90739.800000 0 0 1
16.204454 21.524325 25.524947 37.113392 0.925478 0.812403 0.096076 -0.017217 88601.500000 0 0 1
15.189154 20.577825 25.267227 35.952609 0.934934 0.791481 0.092242 -0.025291 -362156.000000 0 0 1
14.429554 20.295725 26.427847 36.311976 0.952749 0.755688 0.091987 -0.031991 -155912.000000 0 0 1
13.273654 19.320025 26.152527 35.119908 0.968821 0.730765 0.098889 -0.030779 -168446.000000 0 0 1
13.660654 17.962625 25.950567 34.390425 0.920606 0.715772 0.089464 -0.037689 357836.000000 0 0 1
14.399954 17.616025 24.766727 33.631441 0.885514 0.743039 0.097212 -0.030505 466103.000000 0 0 1
13.495154 17.526325 23.481557 32.259492 0.914622 0.755548 0.113687 -0.029824 -153321.000000 0 0 1
13.299554 18.778425 22.748457 32.357375 0.954564 0.791136 0.111816 -0.023953 692965.000000 0 0 1
14.424154 19.245625 21.952857 32.563450 0.927630 0.830974 0.094974 -0.015595 1106420.000000 0 0 1
15.032854 18.211025 20.910157 31.541446 0.880710 0.846054 0.090798 -0.012360 409788.000000 0 0 1
14.053154 17.946025 19.888257 30.250517 0.906459 0.853364 0.086195 -0.015758 669083.000000 0 0 1
14.543754 17.042125 18.928457 29.329871 0.864332 0.869296 0.059043 -0.014501 436852.000000 0 0 1
13.327354 16.298525 18.271257 27.876498 0.885354 0.856037 0.053469 -0.005164 435670.000000 0 0 1
12.800254 17.082925 17.273057 27.459632 0.927743 0.890486 0.073937 -0.007551 -192862.000000 0 0 1
11.834254 16.324125 16.553157 26.087040 0.943518 0.883389 0.064048 -0.007303 316546.000000 0 0 1
11.251854 17.007325 15.264057 25.472432 0.986317 0.928247 0.067016 -0.006096 172586.000000 0 0 1
10.517954 18.203025 15.581857 26.168144 1.046850 0.932969 0.075790 -0.009675 375938.000000 0 0 1
10.216654 18.862225 14.326357 25.795505 1.074389 0.981974 0.084572 -0.005765 -93784.200000 0 0 1
9.220454 20.045725 14.417357 26.357315 1.139681 0.992024 0.093033 -0.008387 1161020.000000 0 0 1
7.840854 19.624125 14.509657 25.634263 1.190676 0.969119 0.074309 -0.010610 146506.000000 0 0 1
6.999654 20.654225 14.759757 26.333299 1.244047 0.975809 0.070897 -0.017860 -821933.000000 0 0 1
5.808654 20.204725 15.615857 26.188287 1.290856 0.931923 0.064484 -0.027072 -848344.000000 0 0 1
4.753154 19.687625 14.877757 25.130514 1.333901 0.937234 0.055221 -0.020727 -1049060.000000 0 0 1
3.749654 19.347725 15.804157 25.261943 1.379366 0.894881 0.046311 -0.021914 -410545.000000 0 0 1
2.552754 18.728025 15.107257 24.196791 1.435325 0.896498 0.029607 -0.016984 -348394.000000 0 1 0
1.791854 19.531525 14.233657 24.234030 1.479311 0.943026 0.034218 -0.026711 -82793.600000 0 1 0
0.822154 18.782225 13.535957 23.166141 1.527051 0.946780 0.019982 -0.027525 66364.700000 0 1 0
-0.011046 19.575525 12.483457 23.217192 -1.570232 1.003111 0.032001 -0.040308 68509.900000 0 1 0
-1.121346 20.242125 13.052557 24.111622 -1.515456 0.998768 0.052274 -0.039507 -297964.000000 0 1 0
-2.160646 20.310725 12.115157 23.748073 -1.464815 1.035433 0.046129 -0.045780 -5764.240000 0 1 0
-3.343946 21.207625 12.529557 24.858301 -1.414407 1.042527 0.048297 -0.034331 456671.000000 0 1 0
-4.200446 20.647325 13.545857 25.048873 -1.370097 0.999436 0.053910 -0.035718 403398.000000 0 0 1
-5.264846 21.516925 13.903357 26.153394 -1.330827 1.010298 0.074012 -0.024969 213918.000000 0 0 1
-6.048846 20.998425 15.153657 26.592400 -1.290328 0.964474 0.059975 -0.022610 -707617.000000 0 0 1
-6.978646 20.011425 14.752857 25.822576 -1.235251 0.962688 0.055068 -0.022949 -149044.000000 0 0 1
-7.523346 19.229025 15.764057 25.978099 -1.197856 0.918741 0.051395 -0.010069 695660.000000 0 0 1
-8.765846 19.906125 16.475457 27.286161 -1.155989 0.922533 0.036244 0.002753 600057.000000 0 0 1
-9.979246 19.877525 15.759757 27.259334 -1.105521 0.954347 0.024152 -0.010631 334973.000000 0 0 1
-11.157046 19.818725 16.556157 28.131262 -1.058061 0.941554 0.006775 0.008320 264216.000000 0 0 1
-12.429846 19.590125 15.756157 28.045152 -1.005398 0.974219 0.019916 -0.004322 -575729.000000 0 0 1
-13.127546 20.687925 15.247957 28.858671 -1.005358 1.014121 0.011282 0.004021 -175786.000000 0 0 1
-14.223446 20.257225 14.484657 28.678683 -0.958634 1.041337 0.008453 -0.007440 -425385.000000 0 0 1
-15.236246 21.353925 14.166457 29.813115 -0.951060 1.075633 0.008257 -0.010948 -345132.000000 0 0 1
-16.333846 21.436525 15.059057 30.872226 -0.919683 1.061244 0.004305 -0.017711 -804488.000000 0 0 1
-17.298046 22.194525 14.460857 31.637568 -0.908753 1.096088 0.026646 -0.022203 -249738.000000 0 0 1
-18.651946 22.213625 15.243657 32.767504 -0.872334 1.086928 0.086279 -0.028423 60678.000000 0 0 1
-19.499746 21.091925 14.964757 32.389093 -0.824602 1.090513 0.071836 -0.028783 396253.000000 0 0 1
-20.619746 20.987925 15.832557 33.411627 -0.794247 1.077123 0.100353 -0.028293 726406.000000 0 0 1
-21.788646 22.012325 15.664457 34.708252 -0.790505 1.102555 0.092601 -0.030532 -447393.000000 0 0 1
-22.549346 21.775325 14.456757 34.520075 -0.767937 1.138681 0.112439 -0.030587 524246.000000 0 0 1
-23.520946 22.817525 14.362457 35.779247 -0.770219 1.157731 0.123232 -0.040329 80583.100000 0 0 1
-22.984046 24.136225 13.708857 36.038264 -0.809845 1.180571 0.113120 -0.035732 473813.000000 0 0 1
-21.990846 24.838025 14.505457 36.206810 -0.846123 1.158594 0.067203 -0.036281 733324.000000 0 0 1
-21.605646 26.080325 13.893057 36.606070 -0.878961 1.181509 0.056455 -0.025388 5993.100000 0 0 1
-20.132046 26.415125 14.228857 36.131959 -0.919570 1.166032 0.034175 -0.019540 276768.000000 0 0 1
-19.192846 25.678325 13.446857 34.764345 -0.928940 1.173637 0.027149 -0.010279 189061.000000 0 0 1
-17.863346 26.090125 13.721357 34.468383 -0.970427 1.161368 -0.000154 -0.010486 -4569.480000 0 0 1
-16.920746 25.728225 12.568257 33.259800 -0.989046 1.183289 0.000251 -0.015190 -719921.000000 0 0 1
-15.602346 26.103425 12.821457 33.003208 -1.032060 1.171803 -0.000155 -0.012307 -721480.000000 0 0 1
-14.736646 25.568725 11.849957 31.801728 -1.047945 1.188966 -0.000418 -0.017737 -22464.500000 0 0 1
-13.347146 26.235225 12.056057 31.808519 -1.100174 1.182060 0.006729 -0.011927 -143395.000000 0 0 1
-12.285746 25.358025 11.615357 30.477623 -1.119632 1.179799 0.021604 -0.012908 1195240.000000 0 0 1
-10.940646 25.745725 11.903157 30.401073 -1.168968 1.168495 0.046721 -0.017085 575026.000000 0 0 1
-10.470746 26.897825 11.080457 30.917730 -1.199567 1.204259 0.057179 -0.024926 -870736.000000 0 0 1
-9.183046 27.339625 11.492557 31.046132 -1.246749 1.191597 0.078421 -0.032337 510317.000000 0 0 1
-8.852446 28.580425 10.839857 31.823089 -1.270430 1.223211 0.080288 -0.042136 -149941.000000 0 0 1
-7.831546 29.428025 11.630557 32.597724 -1.310699 1.205966 0.072622 -0.036649 348740.000000 0 0 1
-6.507946 28.905825 11.541857 31.798028 -1.349346 1.199339 0.095071 -0.039700 58874.900000 0 0 1
-5.667046 29.622325 12.408757 32.612495 -1.381770 1.180469 0.132808 -0.042902 -894530.000000 0 0 1
-4.188346 29.309625 12.207357 32.025239 -1.428857 1.179725 0.115692 -0.055005 -778313.000000 0 0 1
-3.766746 29.838325 10.989957 32.020200 -1.445222 1.220454 0.126092 -0.051206 274143.000000 0 0 1
-2.598946 29.158025 10.528157 31.109276 -1.481898 1.225554 0.135376 -0.043773 353721.000000 0 0 1
-2.082746 29.853325 9.238457 31.319450 -1.501143 1.271367 0.131610 -0.038233 73869.300000 0 0 1
-2.928746 29.631725 8.123457 30.864336 -1.472278 1.304460 0.136107 -0.037023 152186.000000 0 0 1
-2.458346 30.284325 6.982957 31.176041 -1.489798 1.344895 0.135389 -0.029055 -118753.000000 0 0 1
12.019354 -33.539420 -26.939709 44.666603 -1.226689 2.218214 0.144921 -0.040745 131459.000000 0 0 1
12.739954 -33.551420 -25.716879 44.151580 -1.207899 2.192558 0.129057 -0.034875 367591.000000 0 0 1
13.633154 -32.446920 -25.600819 43.520885 -1.173026 2.199680 0.130885 -0.025177 226704.000000 0 0 1
14.343454 -32.495120 -24.235509 43.000318 -1.155114 2.169549 0.104001 -0.022144 -290785.000000 0 0 1
13.537654 -31.875620 -23.229209 41.700352 -1.169178 2.161627 0.113851 -0.021320 320262.000000 0 0 1
13.881654 -32.099720 -21.880009 41.253207 -1.162629 2.129849 0.078849 -0.016944 972337.000000 0 0 1
15.359954 -31.828620 -21.368209 41.298784 -1.121179 2.114612 0.047557 -0.016724 1727860.000000 0 0 1
16.403754 -32.624320 -21.965309 42.613427 -1.104905 2.112335 0.066571 -0.012412 632987.000000 0 0 1
17.668954 -32.340620 -21.399309 42.614998 -1.070768 2.096885 0.050351 -0.016148 106828.000000 0 0 1
18.757954 -33.368420 -21.736009 44.020068 -1.058675 2.087222 0.024468 -0.003581 -235795.000000 0 0 1
20.083854 -32.967620 -21.518609 44.195878 -1.023640 2.079324 0.031610 0.005215 -114517.000000 0 0 1
20.933254 33.722125 -21.420709 45.102435 1.015254 2.065686 0.026037 0.008893 571095.000000 0 0 1
22.458654 -33.853120 -21.132109 45.792913 -0.985049 2.050449 0.048029 0.012344 672056.000000 0 0 1
23.173754 -33.349020 -22.248609 46.305298 -0.963511 2.071994 0.051472 0.003441 -236836.000000 0 0 1
24.543654 -33.347520 -21.931509 46.855513 -0.936318 2.057898 0.040937 0.007616 192984.000000 0 0 1
25.501954 -32.787020 -23.032409 47.495581 -0.909735 2.077089 0.060648 -0.003010 259921.000000 0 0 1
25.462354 -31.355820 -23.116609 46.539193 -0.888754 2.090603 0.071023 -0.009699 -346359.000000 0 0 1
24.318854 -30.806920 -23.714309 45.856749 -0.902555 2.114301 0.057191 -0.006240 -387576.000000 0 0 1
24.273054 -29.289720 -23.666709 44.801584 -0.878785 2.127342 0.066569 -0.021014 -333320.000000 0 0 1
25.122454 -28.502920 -24.450909 45.181867 -0.848353 2.142620 0.063431 -0.023356 -379210.000000 0 0 1
25.314754 -27.158620 -23.966309 44.190625 -0.820523 2.144015 0.089771 -0.018693 92368.400000 0 0 1
25.951154 -26.354320 -25.099259 44.698830 -0.793106 2.167017 0.090215 -0.021402 399270.000000 0 0 1
25.072154 -26.225320 -26.204059 44.755257 -0.807874 2.196289 0.076614 -0.016442 612.737000 0 0 1
25.812154 -25.808020 -27.325069 45.595839 -0.785318 2.213409 0.069744 -0.011465 -67153.500000 0 0 1
24.813354 -25.461020 -28.465479 45.543930 -0.798280 2.245943 0.064928 -0.009170 615849.000000 0 0 1
24.021054 -24.333220 -28.044319 44.222171 -0.791854 2.257729 0.080460 -0.006967 -541299.000000 0 0 1
22.734754 -24.751520 -27.691459 43.546799 -0.827843 2.259972 0.078371 -0.011827 -909584.000000 0 0 1
21.761354 -23.596320 -27.388079 42.195375 -0.825832 2.277168 0.084899 -0.012165 -32171.000000 0 0 1
21.232254 -22.977220 -28.549739 42.353853 -0.824848 2.310510 0.088992 -0.007883 109423.000000 0 0 1
20.767154 -21.658120 -28.329769 41.266508 -0.806396 2.327471 0.080341 0.003399 -246810.000000 0 0 1
19.929754 -21.081220 -29.508439 41.380683 -0.813468 2.364702 0.100091 -0.003313 -500312.000000 0 0 1
18.670454 -21.652920 -29.422999 41.026183 -0.859227 2.370538 0.094904 -0.011171 -1053000.000000 0 0 1
17.699554 -21.073920 -30.239129 40.887519 -0.872207 2.403226 0.079491 -0.014532 -497993.000000 0 0 1
16.380354 -21.824120 -30.109929 40.635157 -0.926936 2.405328 0.087571 -0.019335 -712559.000000 0 0 1
16.502354 -23.071520 -30.664699 41.772556 -0.949896 2.395118 0.095301 -0.010715 465177.000000 0 0 1
15.499754 -24.059320 -30.323009 41.696260 -0.998487 2.385082 0.106965 -0.024014 225844.000000 0 0 1
15.821154 -25.497020 -30.669329 42.907047 -1.015432 2.367113 0.129301 -0.025115 -495965.000000 0 0 1
14.877654 -26.394420 -30.193709 42.774642 -1.057521 2.354459 0.129910 -0.028420 -474514.000000 0 0 1
15.184554 -27.709420 -30.480679 43.902784 -1.069496 2.338211 0.165866 -0.034567 -203816.000000 0 0 1
14.304154 -28.726520 -29.762819 43.768106 -1.108796 2.318575 0.152571 -0.042157 -361654.000000 0 0 1
14.566754 -29.039320 -28.371619 43.132600 -1.105852 2.288660 0.176482 -0.046031 -164954.000000 0 0 1
14.385254 -27.970220 -27.422429 41.728388 -1.095769 2.287847 0.150672 -0.036714 -508095.000000 0 0 1
15.454954 -27.832620 -26.352759 41.327693 -1.063907 2.262245 0.116578 -0.022953 -559758.000000 0 0 1
15.617854 -28.914120 -25.507319 41.600084 -1.075550 2.230845 0.103903 -0.026341 73299.900000 0 0 1
16.435654 -28.646320 -24.345009 41.029524 -1.049906 2.206015 0.108639 -0.031692 -728556.000000 0 0 1
15.920454 -27.677520 -23.240009 39.491822 -1.048802 2.199970 0.089515 -0.023686 552167.000000 0 0 1
14.850254 -28.172020 -22.442809 38.959882 -1.085683 2.184683 0.084949 -0.020751 418984.000000 0 0 1
13.613654 -28.481820 -23.070909 39.100032 -1.124922 2.201915 0.090385 -0.014743 -410351.000000 0 0 1
12.392654 -28.213120 -22.154209 37.952167 -1.156917 2.194124 0.067090 -0.011966 9714.380000 0 0 1
12.174554 -26.816820 -22.017409 36.771291 -1.144630 2.212756 0.054427 -0.016236 -194877.000000 0 0 1
11.027054 -26.605020 -21.235809 35.782434 -1.177876 2.206160 0.054468 -0.017264 -352345.000000 0 0 1
10.643954 -25.144720 -21.170509 34.550559 -1.170360 2.230319 0.061490 -0.024599 -170916.000000 0 0 1
11.152154 -24.459420 -20.050609 33.535961 -1.143009 2.211655 0.054583 -0.029039 -53687.600000 0 0 1
10.736454 -23.120420 -20.045709 32.429241 -1.136056 2.237167 0.060440 -0.036208 -318879.000000 0 0 1
11.147554 -22.294520 -18.779909 31.208950 -1.107138 2.216484 0.061994 -0.038233 149034.000000 0 0 1
10.449154 -22.593920 -17.574009 30.471557 -1.137616 2.185522 0.080226 -0.042276 405424.000000 0 0 1
10.896054 -21.677020 -16.564709 29.376977 -1.105027 2.169857 0.078666 -0.043265 56268.700000 0 0 1
10.035454 -21.935920 -15.284909 28.557369 -1.141732 2.135582 0.074731 -0.034512 388744.000000 0 0 1
10.214954 -23.239120 -14.812109 29.390484 -1.156659 2.098993 0.083730 -0.025857 120185.000000 0 0 1
9.548754 -23.331020 -13.567209 28.628383 -1.182322 2.064519 0.077568 -0.027666 149642.000000 0 0 1
9.546654 -24.844920 -13.138009 29.681912 -1.203941 2.029322 0.095469 -0.025645 86237.000000 0 0 1
10.844554 -25.316020 -12.859609 30.395308 -1.166077 2.007637 0.091422 -0.032392 -226470.000000 0 0 1
11.117554 -26.630920 -13.299809 31.775632 -1.175323 2.002649 0.093555 -0.043667 325019.000000 0 0 1
12.387454 -27.245620 -12.565109 32.460049 -1.144075 1.968275 0.101915 -0.040739 984099.000000 0 0 1
13.691354 -26.966920 -13.000309 32.919234 -1.101000 1.976772 0.096800 -0.037513 -87890.400000 0 0 1
13.998654 -27.388620 -14.319909 33.928728 -1.098299 2.006511 0.085597 -0.029999 -265677.000000 0 0 1
15.404854 -26.949620 -14.832509 34.403413 -1.051508 2.016546 0.058787 -0.025007 469514.000000 0 0 1
16.528654 -27.756820 -14.538509 35.426059 -1.033706 1.993678 0.079743 -0.024704 -138831.000000 0 0 1
17.588754 -27.195220 -15.275309 35.808928 -0.996703 2.011502 0.092142 -0.024881 409771.000000 0 0 1
18.948854 -27.968920 -15.238309 37.061106 -0.975333 1.994530 0.087343 -0.020196 645990.000000 0 0 1
19.034054 -29.136520 -16.029409 38.316758 -0.992125 2.002413 0.073466 -0.007876 -611428.000000 0 0 1
20.371554 -29.500720 -16.206809 39.344038 -0.966445 1.995362 0.075511 -0.001316 -185478.000000 0 0 1
20.453954 -30.686620 -17.265609 40.720193 -0.982879 2.008660 0.069128 -0.000181 -296702.000000 0 0 1
20.021454 -31.889020 -16.682409 41.183382 -1.010152 1.987859 0.051330 0.010883 -52178.300000 0 0 1
20.157354 -32.910420 -17.657509 42.440573 -1.021242 1.999896 0.047057 0.004026 -133865.000000 0 0 1
20.092754 33.421625 -17.221709 42.629932 1.029502 1.986662 0.022632 0.010234 -491695.000000 0 0 1
21.151854 32.961625 -16.433009 42.472502 1.000270 1.968074 0.045849 0.011586 -169183.000000 0 0 1
20.977854 31.568425 -16.222009 41.228502 0.984281 1.975195 0.035612 -0.001371 -329061.000000 0 0 1
21.823754 31.050025 -15.036309 40.822431 0.958155 1.948013 0.054650 0.001612 -155586.000000 0 0 1
23.216754 31.252725 -15.271009 41.820500 0.931873 1.944597 0.048671 0.006134 926257.000000 0 0 1
24.139654 31.000025 -14.175809 41.769343 0.909180 1.917057 0.044057 0.007431 762186.000000 0 0 1
23.893854 29.814825 -13.161209 40.411106 0.895197 1.902530 0.052357 0.003849 -956985.000000 0 0 1
23.984354 28.611525 -13.888809 39.834252 0.873148 1.926943 0.060499 0.004406 43538.900000 0 0 1
23.935554 27.477025 -13.059509 38.709798 0.854173 1.914918 0.036400 0.003789 184784.000000 0 0 1
22.520354 27.050225 -12.589509 37.381503 0.876527 1.914296 0.055917 0.000141 -459502.000000 0 0 1
21.772654 26.367325 -13.577509 36.791753 0.880554 1.948769 0.059695 0.001543 622453.000000 0 0 1
20.378854 26.351025 -13.262309 35.854750 0.912511 1.949687 0.062015 0.000891 1021370.000000 0 0 1
19.482354 27.649525 -13.443509 36.397614 0.956978 1.949107 0.052473 -0.008387 -62743.400000 0 0 1
19.379854 28.286325 -14.707209 37.309475 0.970119 1.975988 0.045299 -0.006127 -412609.000000 0 0 1
18.675154 27.575725 -15.629309 36.789364 0.975515 2.009573 0.037804 0.003469 -712737.000000 0 0 1
18.727554 28.201625 -17.038809 37.899525 0.984601 2.037090 0.031053 0.013954 -61385.200000 0 0 1
18.001354 29.407325 -17.116609 38.494387 1.021499 2.031582 0.028650 0.008506 114454.000000 0 0 1
18.359054 30.018625 -18.346009 39.683104 1.021899 2.051398 0.027777 0.009478 497091.000000 0 0 1
17.373354 31.190325 -18.830709 40.364160 1.062586 2.056149 0.022925 0.007327 530432.000000 0 0 1
17.302154 32.311225 -17.964809 40.818062 1.079166 2.026528 0.026565 -0.004043 -201794.000000 0 0 1
16.394954 33.257725 -18.452309 41.416887 1.112791 2.032558 0.031104 -0.004491 -391633.000000 0 0 1
16.334054 -33.260320 -17.669709 41.052026 -1.114296 2.015757 0.038510 -0.004641 -7023.330000 0 0 1
15.280254 -32.444720 -18.158509 40.197978 -1.130647 2.039496 0.036920 -0.009280 242643.000000 0 0 1
14.976054 -31.393920 -17.203909 38.805088 -1.125687 2.030120 0.051182 -0.012129 813971.000000 0 0 1
13.868754 -30.400720 -17.759909 37.841253 -1.142800 2.059324 0.059076 -0.015482 625118.000000 0 0 1
12.550154 -30.886020 -17.767709 37.777560 -1.184838 2.060455 0.072115 -0.010619 -106068.000000 0 0 1
11.604054 -29.847520 -17.958109 36.715422 -1.200001 2.081873 0.058205 -0.006252 -196310.000000 0 0 1
10.234354 -30.320820 -18.431209 36.929711 -1.245269 2.093343 0.066230 -0.008077 -1314810.000000 0 0 1
9.568654 -30.961520 -17.343709 36.755667 -1.271058 2.062201 0.075779 -0.008632 307709.000000 0 0 1
8.527254 -31.894020 -17.634309 37.428751 -1.309545 2.061383 0.098824 -0.006237 256524.000000 0 0 1
7.232554 -31.287520 -18.215309 36.919049 -1.343623 2.086774 0.096533 -0.002637 -871286.000000 0 0 1
7.353754 -30.809120 -19.559409 37.227007 -1.336493 2.123992 0.080507 0.002313 -59698.900000 0 0 1
7.179354 -31.887720 -20.476009 38.569894 -1.349344 2.130436 0.083905 -0.013515 -1228720.000000 0 0 1
7.420654 -31.527720 -21.973709 39.139585 -1.339635 2.166896 0.083668 -0.005804 -213185.000000 0 0 1
8.735254 -31.291420 -22.432409 39.480002 -1.298568 2.175109 0.072659 0.001652 -145476.000000 0 0 1
9.682254 -32.296020 -22.253509 40.397990 -1.279526 2.154187 0.075876 -0.002568 -841237.000000 0 0 1
9.533054 -33.512120 -23.192709 41.855024 -1.293651 2.158102 0.098054 -0.023020 439951.000000 0 0 1
8.312254 33.491625 -23.134109 41.544789 1.327523 2.161382 0.098679 -0.033610 472434.000000 0 0 1
8.215554 32.423825 -24.063009 41.204710 1.322639 2.194428 0.110462 -0.050566 13885.300000 0 0 1
6.922254 31.560625 -23.834209 40.150469 1.354883 2.206349 0.114413 -0.058524 589868.000000 0 0 1
5.695754 32.234325 -23.948109 40.558664 1.395903 2.202420 0.120824 -0.057485 -66896.000000 0 0 1
5.368754 32.971525 -22.772709 40.429460 1.409383 2.169135 0.095919 -0.052549 -815651.000000 0 0 1
4.074954 33.825725 -22.841709 41.018637 1.450905 2.161399 0.098805 -0.045672 1400980.000000 0 0 1
2.840254 33.047525 -22.732209 40.211432 1.485062 2.171614 0.094603 -0.052415 1102940.000000 0 0 1
1.763954 33.871925 -23.089009 41.030735 1.518766 2.168475 0.089693 -0.047530 248315.000000 0 0 1
0.300154 33.460725 -22.758309 40.467899 1.561826 2.168057 0.077160 -0.049580 588186.000000 0 0 1
0.078754 33.594225 -21.333009 39.795420 1.568452 2.136567 0.066657 -0.039553 -154667.000000 0 0 1
-1.206746 33.216925 -20.894609 39.260731 -1.534483 2.131995 0.071035 -0.054218 76428.700000 0 0 1
-1.457946 33.465425 -19.377509 38.698167 -1.527258 2.095243 0.082409 -0.043303 396859.000000 0 0 1
-0.624346 32.756025 -18.448409 37.599080 -1.551738 2.083645 0.086437 -0.050068 175398.000000 0 0 1
-1.202546 32.692225 -17.136509 36.930849 -1.534029 2.053320 0.057701 -0.035650 230194.000000 0 0 1
-0.383146 31.769425 -16.243609 35.683301 -1.558737 2.043411 0.045408 -0.024518 936677.000000 0 0 1
0.822454 32.312125 -15.673509 35.922260 1.545348 2.022298 0.046884 -0.016189 422443.000000 0 0 1
1.529854 31.280525 -15.007809 34.728174 1.521928 2.017673 0.059194 -0.004601 34601.900000 0 0 1
2.652954 31.857125 -14.137609 34.954064 1.487711 1.987187 0.072301 -0.014017 -80967.600000 0 0 1
3.844154 32.278925 -14.776709 35.707949 1.452263 1.997444 0.076699 -0.017278 -94967.100000 0 0 1
4.707654 32.989625 -13.930509 36.118367 1.429052 1.966752 0.086685 -0.027169 289583.000000 0 0 1
6.100254 33.104125 -14.611709 36.696025 1.388566 1.980331 0.089338 -0.036709 239507.000000 0 0 1
7.026754 32.051125 -14.496109 35.871814 1.354975 1.986800 0.086834 -0.022416 402738.000000 0 0 1
8.195054 32.384825 -15.281709 36.735085 1.322947 1.999836 0.087419 -0.012283 958202.000000 0 0 1
9.229254 31.220125 -15.343509 35.990257 1.283364 2.011221 0.068902 -0.018470 95839.000000 0 0 1
9.709154 30.970625 -14.069209 35.374990 1.267005 1.979823 0.065893 -0.023027 -366944.000000 0 0 1
10.585354 29.863425 -13.999909 34.639159 1.230155 1.986861 0.071922 -0.016296 -4793.520000 0 0 1
9.891054 28.503425 -13.842909 33.194944 1.236785 2.000959 0.064820 -0.022097 -290247.000000 0 0 1
9.389454 27.977725 -15.041709 33.123526 1.247003 2.042169 0.078699 -0.023045 52014.300000 0 0 1
8.635654 26.822925 -14.626709 31.748771 1.259325 2.049582 0.062614 -0.021900 189333.000000 0 0 1
7.830854 26.079625 -15.709609 31.436618 1.279094 2.094076 0.078833 -0.013321 175014.000000 0 0 1
8.641154 25.285925 -16.573209 31.443899 1.241501 2.125948 0.083669 -0.011161 -396727.000000 0 0 1
7.932954 24.490025 -17.457509 31.103982 1.257536 2.166707 0.081113 -0.002876 23904.500000 0 0 1
8.816154 23.424825 -18.235309 30.967297 1.210834 2.200440 0.087834 0.005743 482443.000000 0 0 1
8.225554 22.727025 -19.344609 30.957896 1.223535 2.245759 0.107088 -0.007168 678419.000000 0 0 1
9.231854 21.924525 -20.014809 31.088656 1.172255 2.270247 0.086133 -0.006814 886775.000000 0 0 1
8.543554 20.973725 -21.099409 30.952779 1.183974 2.320831 0.081783 -0.015663 650694.000000 0 0 1
7.787954 19.911525 -20.474809 29.603021 1.197962 2.334562 0.095955 -0.011268 93361.300000 0 0 1
7.207754 19.129525 -21.490909 29.660573 1.210460 2.381194 0.092183 -0.007766 36542.700000 0 0 1
26.164754 -12.407575 -9.549109 30.491438 -0.442803 1.889329 0.082371 -0.004024 -256271.000000 0 0 1
26.411754 -11.644975 -8.443209 30.074474 -0.415262 1.855365 0.104396 -0.013761 384377.000000 0 0 1
25.400354 -11.756575 -7.454609 28.964914 -0.433489 1.831093 0.095958 -0.006369 -116097.000000 0 0 1
25.861854 -11.123575 -6.092409 28.804286 -0.406195 1.783916 0.076993 -0.015413 -195263.000000 0 0 1
25.721954 -9.721375 -5.909109 28.125462 -0.361346 1.782472 0.085107 -0.023393 364862.000000 0 0 1
26.431854 -8.815575 -6.777709 28.675680 -0.321919 1.809412 0.054845 -0.031547 -1008080.000000 0 0 1
26.621254 -7.416575 -6.035709 28.286508 -0.271706 1.785827 0.092903 -0.034426 553513.000000 0 0 1
27.590554 -7.331375 -4.941609 28.972526 -0.259719 1.742196 0.139278 -0.044016 286487.000000 0 0 1
28.890654 -7.622975 -5.329409 30.350984 -0.257977 1.747304 0.136050 -0.046520 -1351210.000000 0 0 1
29.825154 -7.843875 -4.126409 31.114200 -0.257172 1.703810 0.151283 -0.059341 -285457.000000 0 0 1
30.195854 -6.662075 -3.449109 31.113811 -0.217150 1.681879 0.158944 -0.045522 282700.000000 0 0 1
30.808054 -6.992775 -2.196809 31.667982 -0.223197 1.640222 0.161421 -0.037559 206458.000000 0 0 1
31.483254 -5.711575 -1.603309 32.037291 -0.179464 1.620862 0.155162 -0.047499 466403.000000 0 0 1
30.504354 -4.664175 -1.387909 30.890071 -0.151727 1.615742 0.207714 -0.039474 745969.000000 0 0 1
31.070954 -3.428775 -0.891209 31.272271 -0.109908 1.599299 0.185620 -0.017001 190958.000000 0 0 1
31.786654 -3.315375 0.532191 31.963516 -0.103925 1.554146 0.175756 -0.031664 -50447.300000 0 0 1
30.973954 -3.486275 1.665291 31.213990 -0.112083 1.517420 0.228885 -0.048949 -202598.000000 0 0 1
31.630554 -3.260375 2.854291 31.925993 -0.102714 1.481273 0.181397 -0.039617 -399621.000000 0 0 1
30.799954 -3.843475 4.054391 31.302517 -0.124147 1.440909 0.198493 -0.046076 80492.600000 0 0 1
30.864254 -5.242775 4.053491 31.567700 -0.168260 1.442035 0.181042 -0.045447 199364.000000 0 0 1
30.740154 -5.739875 5.368691 31.728947 -0.184597 1.400774 0.167236 -0.053374 50264.100000 0 0 1
31.538154 -7.056375 5.545991 32.790328 -0.220116 1.400844 0.129541 -0.038600 820406.000000 0 0 1
32.964554 -7.005375 5.478391 34.143080 -0.209397 1.409646 0.148529 -0.045814 666898.000000 0 0 1
33.544954 -8.290575 5.364191 34.968159 -0.242293 1.416786 0.147038 -0.042342 -496006.000000 0 0 1
35.033454 -8.400075 5.633191 36.464188 -0.235330 1.415690 0.189530 -0.046711 -949719.000000 0 0 1
35.931954 -7.928275 4.677491 37.092342 -0.217167 1.444356 0.189390 -0.042736 -844269.000000 0 0 1
37.211254 -8.095075 5.230791 38.439158 -0.214206 1.434293 0.190180 -0.034700 -1196820.000000 0 0 1
-36.645554 -7.763475 4.200191 37.693630 0.208766 1.459135 0.173419 -0.029365 -959851.000000 0 0 1
-36.414054 -8.776875 3.297191 37.601706 0.236519 1.482996 0.217142 -0.043957 1073260.000000 0 0 1
-35.265654 -8.383275 2.483291 36.333351 0.233386 1.502396 0.221690 -0.050281 659681.000000 0 0 1
-34.898954 -9.400675 1.425991 36.171026 0.263123 1.531363 0.223260 -0.046310 -95443.300000 0 0 1
-34.324754 -10.531575 2.064091 35.963360 0.297703 1.513370 0.222126 -0.040322 194318.000000 0 0 1
-33.945354 -11.507175 1.090991 35.859342 0.326834 1.540367 0.225081 -0.052132 -336784.000000 0 0 1
-33.488254 -12.822975 1.781491 35.903559 0.365687 1.521157 0.164301 -0.041392 1158150.000000 0 0 1
-32.189354 -12.812175 2.429591 34.730523 0.378803 1.500784 0.170265 -0.033194 1056490.000000 0 0 1
-31.157654 -13.173575 1.535991 33.862985 0.400009 1.525422 0.174058 -0.026234 -90647.800000 0 0 1
-29.865854 -13.600175 2.305191 32.897536 0.427315 1.500667 0.163000 -0.021551 423968.000000 0 0 1
-29.174254 -12.465675 2.858191 31.854347 0.403803 1.480949 0.140489 -0.023958 427230.000000 0 0 1
-27.821954 -12.802075 3.116191 30.784166 0.431257 1.469396 0.133613 -0.011618 95311.800000 0 0 1
-26.963654 -11.641575 3.638791 29.594014 0.407575 1.447527 0.148289 -0.016198 -451308.000000 0 0 1
-25.674054 -12.059875 3.989991 28.644679 0.439140 1.431049 0.137255 -0.006198 144341.000000 0 0 1
-24.855654 -10.987475 4.460991 27.539582 0.416224 1.408095 0.128168 -0.006095 -276950.000000 0 0 1
-23.446454 -11.332675 4.899591 26.498523 0.450233 1.384826 0.116574 -0.000364 -485159.000000 0 0 1
-23.374354 -12.171875 6.032891 27.035361 0.480099 1.345753 0.120719 -0.000751 -85930.000000 0 0 1
-22.037554 -12.556775 6.284291 26.130800 0.517910 1.327922 0.104481 -0.001943 154960.000000 0 0 1
-21.600854 -12.312875 7.761391 26.046938 0.518082 1.268224 0.113847 -0.016184 -508574.000000 0 0 1
-21.321054 -10.961275 8.100191 25.305137 0.474868 1.244961 0.100804 -0.011245 502535.000000 0 0 1
-22.419754 -10.070275 8.337191 25.953122 0.422163 1.243757 0.108133 -0.015788 156495.000000 0 0 1
-22.992354 -10.271875 9.811191 27.026269 0.420149 1.199285 0.116917 -0.011220 -97280.400000 0 0 1
-23.513754 -11.574275 10.172991 28.113168 0.457416 1.200536 0.105028 -0.013277 1087240.000000 0 0 1
-24.845254 -11.946975 9.775291 29.250182 0.448215 1.230044 0.110202 -0.017097 697803.000000 0 0 1
-25.908454 -11.488275 10.812591 30.333819 0.417367 1.206327 0.117940 -0.020412 -242208.000000 0 0 1
-25.909854 -12.306775 11.948691 31.073276 0.443436 1.176095 0.103800 -0.023020 77403.700000 0 0 1
-26.881554 -11.831575 12.846991 32.056969 0.414622 1.158456 0.084098 -0.028960 -67612.700000 0 0 1
-27.050054 -12.682975 14.121691 33.045203 0.438435 1.129243 0.084168 -0.028320 -469309.000000 0 0 1
-27.608654 -13.971675 13.941591 33.938377 0.468485 1.147474 0.098974 -0.022690 379017.000000 0 0 1
-27.812954 -14.538175 15.209791 34.874872 0.481652 1.119509 0.065967 -0.010131 -173009.000000 0 0 1
-27.918454 -16.084175 15.027791 35.552430 0.522670 1.134381 0.073631 -0.020139 -297462.000000 0 0 1
-28.891254 -16.800675 15.729891 36.937741 0.526716 1.130897 0.081326 -0.019989 -260246.000000 0 0 1
-28.678454 -18.206275 15.589991 37.376062 0.565645 1.140531 0.063673 -0.021625 168914.000000 0 0 1
-29.754054 -19.081075 16.314691 38.930198 0.570230 1.138369 0.051488 -0.010809 171678.000000 0 0 1
-29.669954 -18.987375 17.724391 39.433242 0.569280 1.104615 0.051873 -0.005027 -381590.000000 0 0 1
-30.117554 -20.058475 18.504991 40.642886 0.587545 1.098079 0.064316 -0.006155 -424281.000000 0 0 1
-29.187754 -21.279175 18.545491 40.603738 0.629954 1.096465 0.037559 -0.003908 202882.000000 0 0 1
-28.010854 -20.942275 19.279791 39.936164 0.641994 1.066987 0.054291 -0.002585 801569.000000 0 0 1
-27.040254 -21.995275 19.369891 39.876812 0.682875 1.063583 0.060408 0.001939 1242330.000000 0 0 1
-25.645254 -21.552075 19.941691 38.985151 0.698890 1.033843 0.065310 0.006953 851128.000000 0 0 1
-24.702354 -20.961675 19.055091 37.585830 0.703663 1.039124 0.073360 -0.001130 355970.000000 0 0 1
-23.422154 -21.052775 19.669091 37.130712 0.732174 1.012519 0.073804 0.002923 -8634.780000 0 0 1
-22.267254 -20.759275 18.716491 35.736328 0.750365 1.019563 0.062595 -0.009337 -526880.000000 0 0 1
-22.059454 -21.752975 17.762091 35.711389 0.778403 1.050222 0.061658 -0.017883 211744.000000 0 0 1
-21.002754 -21.484875 16.865091 34.454997 0.796745 1.059301 0.058903 -0.015688 58420.000000 0 0 1
-20.759554 -22.537275 15.755691 34.454748 0.826434 1.095855 0.062869 -0.014230 -411108.000000 0 0 1
-20.671154 -23.923475 16.070991 35.466971 0.858200 1.100528 0.063804 -0.021635 496344.000000 0 0 1
-19.662754 -24.454675 16.929991 35.655008 0.893591 1.076028 0.065719 -0.026364 -335221.000000 0 0 1
-18.230154 -24.552175 16.421191 34.710277 0.932108 1.077998 0.064071 -0.033590 -192532.000000 0 0 1
-17.593554 -23.295475 16.074691 33.325786 0.923953 1.067461 0.068392 -0.033677 1004740.000000 0 0 1
-16.406854 -23.519075 15.261091 32.484345 0.961684 1.081734 0.067275 -0.032209 868305.000000 0 0 1
-15.505754 -22.278575 15.050591 31.036810 0.962764 1.064516 0.062464 -0.021617 -123536.000000 0 0 1
-16.096254 -21.245575 14.261491 30.230018 0.922431 1.079504 0.079240 -0.022982 699711.000000 0 0 1
-17.193254 -20.492675 14.823091 30.582376 0.872726 1.064783 0.064899 -0.022404 246563.000000 0 0 1
-16.753454 -19.477675 15.921091 30.224811 0.860447 1.016017 0.083227 -0.026629 23588.400000 0 0 1
-15.913054 -18.430775 15.401291 28.811777 0.858577 1.006823 0.085464 -0.031115 434898.000000 0 0 1
-15.756954 -17.419075 16.400291 28.647431 0.835456 0.961260 0.084431 -0.031002 -568646.000000 0 0 1
-15.211254 -16.123875 15.852091 27.251612 0.814514 0.949987 0.083905 -0.028208 -301408.000000 0 0 1
-15.984254 -15.381275 14.945891 26.748078 0.766176 0.977900 0.077329 -0.023502 -143451.000000 0 0 1
-15.954654 -15.839375 13.607591 26.279332 0.781772 1.026512 0.097406 -0.029252 -293710.000000 0 0 1
-16.876254 -15.114875 12.618691 25.932581 0.730395 1.062607 0.083216 -0.021884 1344420.000000 0 0 1
-18.278654 -15.404175 12.885191 27.155588 0.700265 1.076406 0.083014 -0.021878 1361020.000000 0 0 1
-19.184654 -14.532575 12.240591 27.001458 0.648290 1.100298 0.114638 -0.023782 438187.000000 0 0 1
-20.669454 -15.021775 12.284291 28.351082 0.628462 1.122654 0.092043 -0.027376 463050.000000 0 0 1
-21.032354 -16.086175 11.365491 28.814915 0.652925 1.165348 0.106932 -0.033117 58965.700000 0 0 1
-20.981454 -15.804675 9.990691 28.103791 0.645590 1.207355 0.134052 -0.023310 -507973.000000 0 0 1
-21.691854 -16.884475 9.197091 28.986350 0.661417 1.247925 0.124763 -0.013909 -16685.000000 0 0 1
-21.078554 -18.158475 9.210191 29.306369 0.711114 1.251106 0.131955 -0.003478 -187766.000000 0 0 1
-22.029254 -19.113475 8.851691 30.478933 0.714647 1.276131 0.145006 -0.015848 66112.200000 0 0 1
-21.396154 -20.516375 8.838391 30.932737 0.764410 1.281029 0.139879 -0.009826 -261422.000000 0 0 1
-20.372554 -20.605975 7.900791 30.034474 0.791094 1.304606 0.153939 -0.011495 -740748.000000 0 0 1
-19.833754 -21.885075 8.038691 30.609718 0.834529 1.305061 0.129338 -0.012784 -336872.000000 0 0 1
-18.538954 -22.216675 7.284291 29.838471 0.875393 1.324180 0.106930 -0.017046 -62040.100000 0 0 1
-17.394854 -21.657875 7.893291 28.878167 0.894128 1.293942 0.086266 -0.019600 -1058090.000000 0 0 1
-16.215054 -22.080675 7.324491 28.357227 0.937383 1.309541 0.096759 -0.016963 -1240130.000000 0 0 1
-15.047654 -21.495975 8.133191 27.471032 0.960056 1.270227 0.046156 -0.013246 214188.000000 0 0 1
-13.831654 -21.988675 7.526691 27.045657 1.009300 1.288777 0.048454 -0.001332 557131.000000 0 0 1
-12.679454 -21.644075 8.285291 26.417429 1.040871 1.251783 0.042858 0.000091 756391.000000 0 0 1
-11.326954 -22.197075 7.762291 26.101019 1.098950 1.268834 0.031974 0.004833 340156.000000 0 0 1
-11.229354 -23.591675 7.806891 27.269269 1.126542 1.280445 0.027524 0.008644 428954.000000 0 0 1
-10.011554 -24.085075 7.201791 27.058970 1.176851 1.301398 0.055229 -0.004127 915855.000000 0 0 1
-9.956154 -25.612205 7.257991 28.421620 1.200046 1.312567 0.055659 -0.005388 -192803.000000 0 0 1
-10.742254 -26.182745 6.251291 28.982940 1.181460 1.353399 0.057605 -0.013061 -339156.000000 0 0 1
-10.771154 -27.592665 6.256191 30.273963 1.198625 1.362644 0.092334 -0.018927 -599225.000000 0 0 1
-9.734454 -28.314605 5.434991 30.430504 1.239659 1.391229 0.116218 -0.030261 -571625.000000 0 0 1
-8.435454 -28.162095 5.970691 29.998494 1.279769 1.370425 0.108563 -0.032615 -234905.000000 0 0 1
-7.481454 -29.126575 5.603591 30.589700 1.319372 1.386570 0.131855 -0.025828 59243.200000 0 0 1
-7.532454 -30.504195 6.224891 32.031126 1.328708 1.375213 0.150846 -0.032434 -431269.000000 0 0 1
-7.437454 -30.382405 7.622491 32.194854 1.330723 1.331765 0.147578 -0.030530 128789.000000 0 0 1
-7.381454 -31.590765 8.296991 33.485853 1.341256 1.320412 0.171669 -0.038962 -80996.500000 0 0 1
-7.596454 -31.663905 9.830591 34.013960 1.335337 1.277597 0.136879 -0.035640 301334.000000 0 0 1
-6.591454 -30.951805 10.577591 33.366854 1.360972 1.248222 0.131234 -0.027711 539613.000000 0 0 1
-6.824454 -31.058575 11.962191 33.975024 1.354505 1.210996 0.104924 -0.020625 -396917.000000 0 0 1
-5.895454 -30.300895 12.918991 33.463427 1.378633 1.174436 0.100009 -0.027686 -189100.000000 0 0 1
-5.976454 -28.872525 12.803491 32.144519 1.366684 1.161122 0.094676 -0.024362 -363809.000000 0 0 1
-5.115454 -28.269905 13.691591 31.824755 1.391783 1.126062 0.075558 -0.029789 -1083250.000000 0 0 1
-5.693454 -27.627935 15.004991 31.951024 1.367565 1.081931 0.082619 -0.024189 -279059.000000 0 0 1
-6.385454 -28.563465 15.839891 33.279839 1.350859 1.074740 0.079438 -0.019257 336775.000000 0 0 1
-5.629454 -29.523995 16.577591 34.324533 1.382384 1.066757 0.058350 -0.016862 -51755.900000 0 0 1
-6.548454 -30.683015 17.020791 35.693655 1.360528 1.073720 0.046409 -0.011622 -105279.000000 0 0 1
-6.976454 -31.333655 15.873191 35.810990 1.351719 1.111576 0.057551 -0.012370 -15513.600000 0 0 1
-7.681454 -32.537765 16.127891 37.118994 1.338963 1.121323 0.064143 -0.018939 -289641.000000 0 0 1
-6.802454 -33.807745 15.907291 37.977347 1.372238 1.138604 0.061780 -0.028636 128267.000000 0 0 1
-6.606454 33.684063 14.543791 37.279796 -1.377125 1.170029 0.068657 -0.033380 -437369.000000 0 0 1
-5.558454 32.804841 14.360091 36.239015 -1.402950 1.163356 0.089034 -0.040218 -276439.000000 0 0 1
-4.419454 33.456488 13.502991 36.348300 -1.439461 1.190184 0.109078 -0.043175 -146894.000000 0 0 1
-4.754454 33.756107 12.162291 36.193935 -1.430870 1.228096 0.118114 -0.039545 166462.000000 0 0 1
-3.686454 -33.692885 11.296791 35.726991 1.461816 1.249078 0.140332 -0.044840 -235680.000000 0 0 1
-4.230454 -33.401995 9.832691 35.075231 1.444814 1.286657 0.135250 -0.046129 -496823.000000 0 0 1
-4.300454 33.281730 8.913591 34.722033 -1.442295 1.311177 0.141441 -0.046046 536562.000000 0 0 1
-5.159454 32.187163 9.237091 33.881518 -1.411853 1.294672 0.152382 -0.050907 280057.000000 0 0 1
-6.671454 32.357113 9.528591 34.384373 -1.367464 1.290001 0.153629 -0.046109 -278834.000000 0 0 1
-7.472454 32.574290 8.426891 34.466425 -1.345300 1.323797 0.150290 -0.039734 121653.000000 0 0 1
-8.861454 32.623772 8.812791 34.935672 -1.305570 1.315784 0.122497 -0.043792 993211.000000 0 0 1
-9.739454 32.907745 7.552391 35.139938 -1.283048 1.354183 0.135493 -0.058207 -99937.200000 0 0 1
-9.795454 -33.571225 7.077891 35.680171 1.286897 1.371101 0.149986 -0.051247 91982.300000 0 0 1
-10.596954 -33.642005 5.907691 35.762840 1.265643 1.404845 0.134218 -0.046437 113551.000000 0 0 1
-11.050454 -32.263415 5.349091 34.520331 1.240812 1.415215 0.120997 -0.046448 263793.000000 0 0 1
-12.156454 -31.741925 6.054491 34.525151 1.205050 1.394520 0.129523 -0.048823 -18724.200000 0 0 1
-12.906254 -30.750465 5.385191 33.781101 1.173416 1.410699 0.121536 -0.043715 173605.000000 0 0 1
-13.876654 -29.960715 6.295091 33.613005 1.137051 1.382402 0.091360 -0.034762 -543504.000000 0 0 1
-15.055154 -30.632505 6.578891 34.760463 1.113991 1.380384 0.100291 -0.030139 -1036850.000000 0 0 1
-15.901354 -29.800705 7.260691 34.549279 1.080639 1.359063 0.081537 -0.027996 -501572.000000 0 0 1
34.378993 -12.422075 -11.843009 38.424991 -0.346730 1.884108 0.113216 -0.032007 -377250.000000 0 0 1
33.554863 -12.972475 -10.890509 37.587459 -0.368906 1.864749 0.127984 -0.035319 -371547.000000 0 0 1
33.630973 -14.350875 -10.907809 38.157178 -0.403323 1.860705 0.126895 -0.033553 388384.000000 0 0 1
34.802293 -15.089475 -10.176209 39.274000 -0.409113 1.832895 0.106037 -0.039898 -223049.000000 0 0 1
36.049153 -15.029875 -10.776409 40.516287 -0.395013 1.840014 0.116045 -0.039830 -476122.000000 0 0 1
37.039953 -15.139475 -9.743009 41.183589 -0.388013 1.809636 0.095389 -0.038796 -146287.000000 0 0 1
-36.394896 -15.249775 -10.207809 40.759581 0.396785 1.823931 0.077647 -0.041892 -493957.000000 0 0 1
-35.791502 -14.115675 -10.805409 39.962992 0.375658 1.844590 0.085329 -0.038483 328595.000000 0 0 1
-34.385170 -14.261575 -10.940409 38.799806 0.393165 1.856644 0.086868 -0.030017 185309.000000 0 0 1
-33.705516 -12.940975 -11.155109 37.788451 0.366587 1.870460 0.082415 -0.036858 -428849.000000 0 0 1
-33.933866 -12.063775 -10.028209 37.384581 0.341574 1.842367 0.093645 -0.030393 361565.000000 0 0 1
-33.516346 -10.727975 -10.324209 36.674571 0.309777 1.856162 0.095568 -0.024248 -147230.000000 0 0 1
-33.920006 -9.684775 -9.234509 36.464199 0.278118 1.826833 0.101461 -0.030395 -161462.000000 0 0 1
-33.110006 -9.632175 -8.080209 35.416677 0.283101 1.800970 0.110842 -0.023695 95900.400000 0 0 1
-33.740546 -8.842975 -7.119009 35.599198 0.256322 1.772130 0.149546 -0.039728 -197922.000000 0 0 1
-33.082736 -8.769775 -5.734309 34.702430 0.259126 1.736800 0.127887 -0.033507 -320273.000000 0 0 1
-31.890646 -7.995875 -5.695709 33.367475 0.245664 1.742333 0.134122 -0.056011 452459.000000 0 0 1
-31.205646 -7.898075 -4.469409 32.498423 0.247892 1.708761 0.145997 -0.050838 251442.000000 0 0 1
-30.364416 -9.151775 -3.934409 31.956725 0.292739 1.694226 0.140756 -0.041459 194860.000000 0 0 1
-31.129656 -10.362675 -3.741109 33.021756 0.321349 1.684332 0.153111 -0.045431 534615.000000 0 0 1
-31.943136 -10.326775 -2.569509 33.669104 0.312681 1.647187 0.137863 -0.043749 -181222.000000 0 0 1
-32.579586 -11.642275 -2.224209 34.668704 0.343207 1.634997 0.146152 -0.040829 -287159.000000 0 0 1
-33.776446 -11.842075 -2.948009 35.913420 0.337211 1.652975 0.163147 -0.055254 -57219.900000 0 0 1
-34.395770 -13.022875 -2.511709 36.864250 0.361939 1.638983 0.165546 -0.057388 -143495.000000 0 0 1
-35.938172 -12.997675 -2.668009 38.309398 0.347031 1.640496 0.140953 -0.050997 -146373.000000 0 0 1
-36.486346 -12.074675 -1.748709 38.472187 0.319592 1.616266 0.173023 -0.065229 -92058.000000 0 0 1
36.992823 -12.257075 -1.722809 39.008626 -0.319952 1.614976 0.218307 -0.057231 -179161.000000 0 0 1
36.273773 -11.479075 -0.625509 38.051899 -0.306485 1.587235 0.214554 -0.057186 -102934.000000 0 0 1
36.450213 -12.137775 0.617991 38.422981 -0.321447 1.554712 0.243306 -0.052346 175806.000000 0 0 1
35.855943 -11.465075 1.724091 37.683804 -0.309480 1.525029 0.244684 -0.045626 60230.600000 0 0 1
35.909083 -12.168575 3.129491 38.043793 -0.326727 1.488443 0.239841 -0.049961 468342.000000 0 0 1
34.805863 -12.064375 4.039391 37.058250 -0.333660 1.461578 0.216981 -0.056480 238635.000000 0 0 1
35.234053 -12.466575 5.303591 37.748934 -0.340075 1.429834 0.230881 -0.053135 30646.900000 0 0 1
34.227293 -12.360375 6.482891 36.963689 -0.346552 1.394499 0.189905 -0.047346 911.869000 0 0 1
34.066243 -11.029275 6.863491 36.459036 -0.313110 1.381414 0.176080 -0.048748 33625.100000 0 0 1
33.410443 -11.032675 8.103991 36.106125 -0.318943 1.344419 0.132273 -0.037738 -352952.000000 0 0 1
32.765483 -9.688575 8.642791 35.244052 -0.287502 1.323043 0.126693 -0.045530 -542351.000000 0 0 1
31.496493 -9.452275 8.108991 33.869312 -0.291554 1.329028 0.139828 -0.040092 -544632.000000 0 0 1
30.712623 -8.701075 8.970291 33.157805 -0.276072 1.296849 0.146605 -0.026840 786832.000000 0 0 1
29.166863 -9.031675 8.846691 31.789007 -0.300291 1.288779 0.122848 -0.025943 1171060.000000 0 0 1
28.606363 -8.408975 7.662291 30.785476 -0.285901 1.319259 0.152818 -0.031347 -335404.000000 0 0 1
27.632863 -9.223175 7.113391 29.987371 -0.322149 1.331300 0.167784 -0.048165 -522184.000000 0 0 1
26.852263 -8.531675 5.982591 28.803210 -0.307639 1.361567 0.179132 -0.045211 -324399.000000 0 0 1
25.620363 -7.939075 6.308791 27.554178 -0.300490 1.339788 0.190597 -0.046920 38549.600000 0 0 1
24.912663 -7.406275 5.224191 26.510108 -0.288968 1.372434 0.204531 -0.049435 -320804.000000 0 0 1
25.414463 -6.086975 4.552191 26.526753 -0.235080 1.398335 0.212822 -0.046410 -580329.000000 0 0 1
26.531363 -6.339375 3.744391 27.534004 -0.234541 1.434382 0.206075 -0.037610 188282.000000 0 0 1
27.167863 -5.118275 3.356591 27.848810 -0.186212 1.449974 0.211744 -0.040749 -57044.600000 0 0 1
27.877963 -5.131875 2.031191 28.419055 -0.182046 1.499262 0.201846 -0.055306 72763.900000 0 0 1
26.937463 -5.169675 0.952091 27.445563 -0.189609 1.536099 0.227704 -0.062981 482153.000000 0 0 1
27.626063 -5.023775 -0.260309 28.080339 -0.179883 1.580067 0.206053 -0.064859 -476133.000000 0 0 1
26.815963 -5.433475 -1.487709 27.401310 -0.199914 1.625116 0.233058 -0.059197 189353.000000 0 0 1
25.669163 -4.609875 -1.660409 26.132620 -0.177694 1.634377 0.262354 -0.051540 99077.300000 0 0 1
24.952063 -4.910575 -2.840909 25.588864 -0.194317 1.682047 0.253652 -0.053432 484568.000000 0 0 1
23.601463 -4.108875 -2.912509 24.132853 -0.172367 1.691778 0.204809 -0.042281 362912.000000 0 1 0
23.704163 -2.687075 -2.868509 24.027818 -0.112877 1.690465 0.188898 -0.047506 164495.000000 0 1 0
24.110763 -2.075675 -4.092209 24.543502 -0.085877 1.738312 0.186282 -0.048870 -330315.000000 0 1 0
22.929563 -1.585575 -4.947409 23.510758 -0.069040 1.782813 0.170085 -0.030342 -182011.000000 0 1 0
22.334363 -0.435075 -4.407609 22.769279 -0.019478 1.765603 0.136809 -0.015183 88538.000000 0 1 0
21.582663 0.237625 -5.382609 22.245006 0.011010 1.815191 0.146934 -0.011053 -703232.000000 0 1 0
21.430963 1.706525 -4.909209 22.052182 0.079461 1.795295 0.133724 -0.001047 361908.000000 0 1 0
22.529263 2.641625 -5.015109 23.231384 0.116720 1.788386 0.158578 -0.008001 968303.000000 0 1 0
23.611063 2.387625 -4.129109 24.088017 0.100781 1.743065 0.186893 0.007737 222010.000000 0 1 0
24.612163 3.604825 -4.175009 25.222689 0.145431 1.737088 0.164733 -0.000720 436946.000000 0 0 1
23.968163 4.880125 -3.802309 24.753707 0.200863 1.725013 0.143520 -0.001733 440478.000000 0 1 0
24.880163 5.873725 -3.515109 25.804634 0.231836 1.707441 0.133714 -0.004241 -405003.000000 0 0 1
24.227563 7.281525 -3.607709 25.554079 0.291959 1.712449 0.110834 -0.007551 -340064.000000 0 0 1
23.258663 7.571725 -2.627509 24.600817 0.314724 1.677806 0.137394 -0.015726 321923.000000 0 1 0
22.736363 8.882225 -2.771009 24.566534 0.372430 1.683833 0.131784 -0.012188 532441.000000 0 1 0
21.566963 9.318525 -1.817209 23.564190 0.407847 1.647990 0.102683 -0.006709 572658.000000 0 1 0
22.182963 9.752125 -0.592509 24.239201 0.414190 1.595243 0.079133 -0.010060 1369130.000000 0 1 0
21.233563 10.132225 0.432991 23.531121 0.445225 1.552394 0.059798 -0.011723 408585.000000 0 1 0
21.929863 10.666725 1.716991 24.446799 0.452710 1.500505 0.088515 -0.019317 -12611.600000 0 1 0
22.683663 11.894725 1.598291 25.662961 0.482956 1.508476 0.092690 -0.025540 287413.000000 0 0 1
22.030363 13.068225 1.329291 25.649218 0.535398 1.518947 0.096773 -0.021211 -930021.000000 0 0 1
20.996363 13.545925 2.379991 25.099874 0.572962 1.475833 0.095990 -0.016199 911127.000000 0 0 1
19.659563 12.970425 2.212591 23.656413 0.583200 1.477129 0.112577 -0.015516 2088080.000000 0 1 0
18.645863 13.734025 2.889691 23.337565 0.634852 1.446656 0.101527 -0.020670 354501.000000 0 1 0
18.620163 13.612125 4.419891 23.484800 0.631257 1.381465 0.097532 -0.014933 -593597.000000 0 1 0
18.219063 12.353525 4.961791 22.564645 0.595845 1.349092 0.078553 -0.010744 420076.000000 0 1 0
18.625163 12.301325 6.291191 23.190480 0.583699 1.296070 0.105775 -0.020904 15957.400000 0 1 0
18.476463 10.924025 6.890591 22.543164 0.533953 1.260163 0.049801 -0.018758 139297.000000 0 1 0
19.549263 10.135325 6.415491 22.935933 0.478299 1.287301 0.046338 -0.024742 444640.000000 0 1 0
19.497063 8.813725 6.901791 22.482258 0.424561 1.258769 0.047280 -0.022810 691594.000000 0 1 0
20.508863 7.797925 6.201291 22.800814 0.363341 1.295350 0.071953 -0.026389 867949.000000 0 1 0
19.954963 7.358325 4.971591 21.841754 0.353277 1.341165 0.040757 -0.026445 741195.000000 0 1 0
20.960563 6.687625 4.235991 22.405650 0.308848 1.380592 0.059625 -0.029847 -80508.400000 0 1 0
20.747163 6.639125 2.754391 21.956990 0.309704 1.445020 0.072166 -0.013072 -409481.000000 0 1 0
21.632463 5.732925 2.145691 22.481856 0.259060 1.475210 0.069216 -0.014464 342360.000000 0 1 0
21.511363 5.769825 0.715491 22.283212 0.262054 1.538682 0.087292 -0.000777 410282.000000 0 1 0
22.540063 4.764325 0.072791 23.038197 0.208305 1.567637 0.128458 -0.014415 516813.000000 0 1 0
22.191663 3.412325 0.302191 22.454514 0.152571 1.557338 0.107084 -0.009257 1489050.000000 0 1 0
23.338963 2.551325 0.077491 23.478127 0.108884 1.567496 0.140516 -0.012943 894941.000000 0 1 0
22.967763 1.114825 0.358591 22.997599 0.048501 1.555203 0.168132 -0.019160 -181419.000000 0 1 0
21.894063 0.695025 -0.455909 21.909836 0.031734 1.591606 0.099079 -0.018161 495765.000000 0 1 0
22.041863 -0.642075 -0.985709 22.073233 -0.029122 1.615467 0.142218 -0.026114 -1466880.000000 0 1 0
21.893763 -1.866875 -0.028609 21.973231 -0.085064 1.572098 0.169569 -0.021677 529307.000000 0 1 0
22.925963 -1.994775 0.953891 23.032343 -0.086791 1.529369 0.173584 -0.021865 1143610.000000 0 1 0
24.267963 -2.188475 0.503491 24.371642 -0.089936 1.550136 0.200213 -0.037999 -149310.000000 0 1 0
25.296263 -2.029275 1.625791 25.429551 -0.080049 1.506820 0.207212 -0.034831 -463786.000000 0 0 1
25.384963 -0.677575 2.083391 25.479324 -0.026686 1.488937 0.199424 -0.036786 797856.000000 0 0 1
26.281363 -0.590975 3.211391 26.483435 -0.022483 1.449237 0.208010 -0.039709 154539.000000 0 0 1
26.398563 0.901025 3.759491 26.680138 0.034118 1.429416 0.196361 -0.029388 89791.200000 0 0 1
26.869463 1.930325 2.913191 27.095772 0.071718 1.463074 0.225901 -0.023828 306624.000000 0 0 1
28.245963 1.874525 2.581591 28.425567 0.066267 1.479852 0.221095 -0.028055 32912.700000 0 0 1
28.593463 3.179825 1.812291 28.826755 0.110753 1.507886 0.228359 -0.031194 68303.300000 0 0 1
28.128263 3.056925 0.435791 28.297241 0.108253 1.555395 0.244323 -0.023536 211222.000000 0 0 1
28.397763 4.146525 -0.436309 28.702212 0.144991 1.585998 0.217059 -0.020495 -636574.000000 0 0 1
29.631863 3.798025 -1.248709 29.900361 0.127479 1.612571 0.198633 -0.020359 -997671.000000 0 0 1
30.824733 4.066825 -0.580909 31.097278 0.131176 1.589478 0.191858 -0.026768 -418662.000000 0 0 1
31.947873 3.854825 -1.429909 32.211347 0.120079 1.615202 0.150378 -0.020290 527854.000000 0 0 1
33.301933 4.136525 -0.708909 33.565341 0.123580 1.591918 0.105789 -0.025177 236355.000000 0 0 1
33.602173 3.317625 0.439491 33.768414 0.098414 1.557781 0.124933 -0.029302 130513.000000 0 0 1
32.991033 3.890025 1.584891 33.257366 0.117370 1.523123 0.120701 -0.014183 -34850.300000 0 0 1
33.163753 3.063225 2.850791 33.426709 0.092105 1.485408 0.136658 -0.012986 371260.000000 0 0 1
32.241213 1.940325 2.786891 32.419553 0.060109 1.484727 0.172340 -0.021506 729448.000000 0 0 1
32.377013 0.919525 3.821991 32.614783 0.028393 1.453341 0.165339 -0.026031 94027.900000 0 0 1
33.605373 -0.010075 3.605191 33.798204 -0.000300 1.463925 0.156169 -0.021865 -63444.500000 0 0 1
34.831833 0.620425 3.802391 35.044253 0.017810 1.462080 0.137171 -0.027532 -236897.000000 0 0 1
35.917993 -0.273775 3.946391 36.135179 -0.007622 1.461366 0.114421 -0.023198 -229235.000000 0 0 1
37.192043 0.247725 4.632291 37.480229 0.006661 1.446887 0.131702 -0.041842 661745.000000 0 0 1
-36.836676 1.196925 3.929591 37.065010 -0.032481 1.464578 0.129588 -0.046595 871755.000000 0 0 1
-36.002410 0.624925 2.937891 36.127486 -0.017356 1.489386 0.160547 -0.038339 -538543.000000 0 0 1
-35.541189 1.588225 1.870691 35.625806 -0.044657 1.518263 0.194795 -0.041018 -343089.000000 0 0 1
-34.648723 2.570025 2.351491 34.823390 -0.074038 1.503219 0.203014 -0.065706 229457.000000 0 0 1
-34.136205 3.316225 1.261491 34.320099 -0.096843 1.534031 0.228021 -0.035974 -13891.800000 0 0 1
-33.076696 4.375925 1.691591 33.407753 -0.131532 1.520140 0.246647 -0.035175 267408.000000 0 0 1
-31.919096 3.788825 2.281091 32.224016 -0.118148 1.499949 0.231733 -0.049635 601722.000000 0 0 1
-31.293166 4.693125 3.229691 31.807523 -0.148863 1.469082 0.256512 -0.042045 217214.000000 0 0 1
-31.881356 4.503525 4.669891 32.534758 -0.140330 1.426763 0.250689 -0.039032 717699.000000 0 0 1
-33.153516 5.184525 4.889191 33.910752 -0.155123 1.426114 0.237348 -0.012711 1639720.000000 0 0 1
-34.265452 4.324225 5.161291 34.920753 -0.125534 1.422453 0.219148 -0.010657 247062.000000 0 0 1
-34.207784 3.365925 6.367891 34.957860 -0.098081 1.387615 0.179362 -0.009939 -1033990.000000 0 0 1
-34.538924 3.979025 7.613191 35.591158 -0.114698 1.355224 0.172972 -0.010942 328196.000000 0 0 1
-34.478223 3.184625 8.756891 35.715162 -0.092105 1.323084 0.150553 -0.014380 -205905.000000 0 0 1
-35.495960 2.037225 8.989991 36.673333 -0.057330 1.323135 0.133038 -0.009509 -338830.000000 0 0 1
-35.440409 0.978525 8.084291 36.363936 -0.027603 1.346607 0.136611 -0.018407 -58482.700000 0 0 1
-36.391106 -0.018175 8.324591 37.331109 0.000499 1.345912 0.125421 -0.011910 -529805.000000 0 0 1
-36.132886 -0.920475 9.548891 37.384676 0.025469 1.312512 0.130606 -0.011608 -599767.000000 0 0 1
-35.022556 -1.776575 9.353191 36.293496 0.050683 1.310145 0.136844 -0.021406 347934.000000 0 0 1
-34.707008 -2.466675 10.560791 36.361947 0.070952 1.276115 0.121912 -0.010963 -462492.000000 0 0 1
-33.458786 -3.327675 10.373291 35.187625 0.099130 1.271551 0.139172 -0.004869 -510813.000000 0 0 1
-33.589206 -4.507575 9.543791 35.208478 0.133400 1.296297 0.142154 -0.026610 -107346.000000 0 0 1
-32.428366 -5.287175 9.646191 34.243278 0.161620 1.285235 0.162332 -0.026982 -249951.000000 0 0 1
-32.433436 -6.547175 8.755191 34.226402 0.199188 1.312119 0.161318 -0.019870 612870.000000 0 0 1
-33.286066 -7.669275 9.152191 35.363011 0.226453 1.309010 0.171238 -0.028366 560718.000000 0 0 1
-33.523966 -8.455675 7.970891 35.480837 0.247074 1.344209 0.185441 -0.035195 -241703.000000 0 0 1
-34.387341 -9.694175 8.134591 36.642022 0.274780 1.346929 0.192421 -0.035767 1095470.000000 0 0 1
-35.732748 -9.274375 8.491791 37.880784 0.253945 1.344704 0.181566 -0.040110 1142220.000000 0 0 1
-36.718316 -10.276875 8.450191 39.054508 0.272901 1.352702 0.181642 -0.040926 106130.000000 0 0 1
8.126054 -24.052675 10.562391 27.497782 -1.244992 1.176544 0.151228 -0.042323 -146525.000000 0 0 1
7.469454 -24.701575 9.496091 27.497933 -1.277150 1.218197 0.136886 -0.048118 -842790.000000 0 0 1
6.119254 -24.840175 9.850791 27.413822 -1.329261 1.203239 0.144690 -0.050347 -248235.000000 0 0 1
5.504654 -25.813165 8.839491 27.834463 -1.360694 1.247627 0.117316 -0.036553 -346151.000000 0 0 1
5.200154 -25.231115 7.583991 26.854565 -1.367541 1.284491 0.111050 -0.028279 -196312.000000 0 0 1
4.989354 -26.299095 6.673491 27.587525 -1.383309 1.326470 0.085766 -0.017544 -1014380.000000 0 0 1
4.434254 -25.864455 5.292991 26.770289 -1.401005 1.371766 0.070958 -0.013627 819636.000000 0 0 1
3.031254 -25.585395 5.233191 26.290440 -1.452870 1.370405 0.080245 -0.024689 530981.000000 0 0 1
2.267254 -26.795165 5.296991 27.407653 -1.486383 1.376306 0.074329 -0.021359 -400441.000000 0 0 1
0.730654 -26.564655 5.172991 27.073503 -1.543298 1.378542 0.090877 -0.027635 35603.300000 0 0 1
0.116154 -26.099995 6.382591 26.869326 -1.566346 1.330962 0.095288 -0.034209 825717.000000 0 0 1
-1.326846 -26.054785 6.358291 26.852192 1.519915 1.331737 0.101825 -0.033616 1259910.000000 0 0 1
-1.977546 -27.436415 6.500391 28.265219 1.498843 1.338741 0.113856 -0.029075 -838568.000000 0 0 1
-1.846246 -28.111035 7.748491 29.217769 1.505214 1.302387 0.100472 -0.034166 121957.000000 0 0 1
-2.121046 -29.534475 7.586091 30.566858 1.499103 1.319995 0.124729 -0.031204 -109990.000000 0 0 1
-2.035546 -30.276155 8.930391 31.631328 1.503665 1.284577 0.113009 -0.032990 -76501.100000 0 0 1
-0.761946 -30.710225 9.351991 32.111652 1.545991 1.275280 0.104954 -0.023353 -85319.800000 0 0 1
-0.730846 -31.120015 10.698491 32.915759 1.547316 1.239757 0.105512 -0.015461 -433853.000000 0 0 1
0.671954 -31.240625 11.282891 33.222459 -1.549291 1.224287 0.085861 -0.021973 -303571.000000 0 0 1
1.477954 -32.317885 10.747891 34.090280 -1.525096 1.250047 0.095250 -0.017387 632381.000000 0 0 1
2.815154 -32.176855 11.219591 34.192898 -1.483528 1.236477 0.101010 -0.014906 483306.000000 0 0 1
3.301054 -32.756245 12.635891 35.263781 -1.470359 1.204323 0.104665 -0.015817 -72233.500000 0 0 1
2.658454 -32.206965 13.758591 35.123422 -1.488440 1.168295 0.102698 -0.026981 67383.300000 0 0 1
3.438054 -32.438995 14.891191 35.858837 -1.465205 1.142554 0.106890 -0.022293 -287790.000000 0 0 1
2.949154 -31.582865 16.059991 35.554158 -1.477688 1.102121 0.117177 -0.026767 -225189.000000 0 0 1
3.354354 -30.205765 16.025391 34.357722 -1.460199 1.085548 0.138760 -0.036817 34025.500000 0 0 1
4.648954 -30.025905 16.549491 34.598459 -1.417185 1.072044 0.123606 -0.022757 238270.000000 0 0 1
5.454854 -28.825215 15.900291 33.368664 -1.383769 1.074123 0.138556 -0.028932 174315.000000 0 0 1
5.710354 -28.831895 14.477991 32.764288 -1.375270 1.113099 0.121887 -0.025421 593847.000000 0 0 1
4.545654 -28.845635 13.627991 32.225080 -1.414496 1.134153 0.118816 -0.018410 218620.000000 0 0 1
4.863254 -28.724935 12.094491 31.544411 -1.403082 1.177309 0.099535 -0.016452 -40726.100000 0 0 1
5.279854 -29.966565 11.588191 32.560068 -1.396395 1.206917 0.089911 -0.013083 -1194000.000000 0 0 1
6.640454 -30.102165 11.447791 32.882942 -1.353676 1.215213 0.091202 -0.014398 -1104920.000000 0 0 1
7.105354 -31.485465 10.712791 34.008594 -1.348843 1.250337 0.073258 -0.008703 58694.400000 0 0 1
7.051754 -32.588865 11.622091 35.310542 -1.357696 1.235404 0.069911 -0.016821 197164.000000 0 0 1
7.347154 -33.799885 10.941891 36.278615 -1.356754 1.264418 0.075022 -0.012219 23453.900000 0 0 1
7.185854 32.677535 11.882491 35.505653 1.354340 1.229547 0.071896 -0.011597 402163.000000 0 0 1
5.822054 32.538555 12.247391 35.251276 1.393742 1.215966 0.071259 -0.015555 49467.400000 0 0 1
5.686854 31.252780 12.807091 34.250521 1.390802 1.187560 0.075012 -0.015404 416016.000000 0 0 1
4.322654 31.082120 13.530191 34.173815 1.432611 1.163724 0.094596 -0.023757 338032.000000 0 0 1
4.325054 31.411340 14.907591 35.037332 1.433966 1.131307 0.105969 -0.019890 -246610.000000 0 0 1
3.097054 31.209330 15.561991 35.011278 1.471885 1.110197 0.118786 -0.029864 -42406.200000 0 0 1
3.183654 31.352990 17.079491 35.844869 1.469601 1.074146 0.117247 -0.030622 38843.300000 0 0 1
3.613254 32.684776 17.481491 37.241814 1.460695 1.082180 0.121281 -0.027945 305006.000000 0 0 1
4.468454 32.671922 18.602291 37.861152 1.434872 1.057181 0.121919 -0.024689 -34147.600000 0 0 1
4.556254 -33.701165 19.268291 39.087018 -1.436415 1.055309 0.117932 -0.026119 -396962.000000 0 0 1
3.338954 -33.149175 19.663491 38.686810 -1.470410 1.037617 0.107982 -0.025342 -728572.000000 0 0 1
3.374754 -31.844175 20.232691 37.878783 -1.465213 1.007302 0.100209 -0.025599 -890723.000000 0 0 1
2.019054 -31.304075 20.591491 37.523742 -1.506387 0.989917 0.104109 -0.017609 -626986.000000 0 0 1
1.287554 -32.037775 21.568991 38.643217 -1.530629 0.978633 0.114967 -0.011239 -159329.000000 0 0 1
0.383054 -31.277155 22.331091 38.432861 -1.558550 0.950788 0.094042 -0.008053 -23935.900000 0 0 1
-0.703746 -32.173035 22.988391 39.548269 1.548926 0.950502 0.112242 -0.008895 9008.410000 0 0 1
-1.702746 -32.618485 22.050091 39.409027 1.518642 0.976991 0.105780 -0.012557 322150.000000 0 0 1
-2.347846 -33.826685 22.435191 40.658268 1.501499 0.986277 0.111786 -0.017101 -354713.000000 0 0 1
-3.564346 -33.592475 23.353591 41.067617 1.465086 0.965918 0.120365 -0.022146 -265035.000000 0 0 1
-4.556546 -32.910895 22.591591 40.177968 1.433220 0.973646 0.096178 -0.020437 -650464.000000 0 0 1
-5.737346 -32.752875 23.329491 40.619369 1.397385 0.958994 0.088432 -0.025126 -360744.000000 0 0 1
-6.915746 -32.211695 22.507191 39.899805 1.359310 0.971462 0.066770 -0.015875 -157775.000000 0 0 1
-7.523146 -33.218405 21.715791 40.393511 1.348078 1.003201 0.047070 -0.004711 470046.000000 0 0 1
-8.481246 -32.617465 20.801091 39.604494 1.316408 1.017822 0.054297 -0.019429 625444.000000 0 0 1
-9.794946 -33.390595 20.595091 40.435511 1.285457 1.036388 0.047495 -0.028613 60249.300000 0 0 1
-10.577046 -33.435445 21.771691 41.277226 1.264415 1.015200 0.067220 -0.032812 -721471.000000 0 0 1
-11.906046 -33.785375 21.559591 41.809346 1.231983 1.029013 0.064479 -0.029820 -222802.000000 0 0 1
-12.657646 33.720462 22.883491 42.672470 -1.211701 1.004798 0.067922 -0.029063 -96758.500000 0 0 1
-12.980146 -33.010015 23.772591 42.699899 1.196150 0.980344 0.066658 -0.026689 769520.000000 0 0 1
-11.816846 -32.385575 24.349891 42.206404 1.220927 0.955838 0.061089 -0.026360 335700.000000 0 0 1
-12.237946 -31.118685 25.165491 41.850231 1.196108 0.925641 0.062093 -0.029693 169213.000000 0 0 1
-12.938946 -31.362625 26.373791 42.972170 1.179510 0.910006 0.050632 -0.026794 201706.000000 0 0 1
-13.650446 -30.177505 26.666391 42.521911 1.145999 0.892945 0.074549 -0.026438 -179791.000000 0 0 1
-14.243746 -30.049415 28.124591 43.552775 1.128155 0.868780 0.074144 -0.027075 -103083.000000 0 0 1
-13.443046 -29.723715 29.235091 43.805311 1.146059 0.840102 0.055229 -0.016962 37033.300000 0 0 1
-14.270546 -29.184885 30.241691 44.384297 1.116011 0.821177 0.075688 -0.018780 179251.000000 0 0 1
-13.498146 -28.648055 31.481791 44.654386 1.130476 0.788359 0.064529 -0.015383 -235055.000000 0 0 1
-14.371546 -28.322315 32.561091 45.485377 1.101224 0.772944 0.073870 -0.018715 305150.000000 0 0 1
-13.876146 -27.908985 33.842891 46.008696 1.109397 0.744280 0.070447 -0.014010 -461838.000000 0 0 1
-13.221546 -29.032315 -33.118275 45.983744 1.143454 2.374911 0.071990 -0.009173 675735.000000 0 0 1
-11.892546 -29.369565 -33.541475 46.141462 1.186049 2.384633 0.068783 -0.013960 497755.000000 0 0 1
-11.463246 -30.601775 -33.073575 46.494473 1.212382 2.362205 0.069715 -0.013764 -1381940.000000 0 0 1
-10.029146 -30.945385 -33.281375 46.538699 1.257386 2.367611 0.068250 -0.025294 -1380430.000000 0 0 1
-9.210246 -30.207765 -32.425175 45.262895 1.274853 2.369388 0.108661 -0.034403 102428.000000 0 0 1
-7.864146 -30.677655 -32.388075 45.298462 1.319852 2.367410 0.137532 -0.046574 886920.000000 0 0 1
-6.923146 -29.941825 -31.381275 43.922969 1.343570 2.366651 0.161199 -0.042605 277374.000000 0 0 1
-7.094246 -30.451255 -30.070175 43.379980 1.341908 2.336689 0.168358 -0.048065 293068.000000 0 0 1
-6.362546 -29.654105 -29.125575 42.049340 1.359442 2.335956 0.153722 -0.040938 298837.000000 0 0 1
-6.959146 -29.860755 -27.753275 41.356241 1.341830 2.306459 0.161403 -0.043692 -231288.000000 0 0 1
-6.702746 -31.119155 -27.203475 41.873114 1.358648 2.277939 0.138683 -0.038756 -166658.000000 0 0 1
-7.494246 -31.509045 -26.093875 41.591753 1.337291 2.248982 0.153881 -0.039576 -136744.000000 0 0 1
-7.013946 -32.769445 -25.432875 42.069741 1.359939 2.219986 0.134022 -0.041353 918729.000000 0 0 1
-5.870246 -32.542085 -24.568475 41.195352 1.392326 2.209792 0.092827 -0.046054 595879.000000 0 0 1
-5.487546 -33.704515 -23.892775 41.676998 1.409399 2.181305 0.103585 -0.054966 -321028.000000 0 0 1
-4.349646 -33.480735 -22.890975 40.790633 1.441605 2.166610 0.122594 -0.063671 -268818.000000 0 0 1
-4.681446 -32.767125 -21.721275 39.590582 1.428886 2.151542 0.133777 -0.051404 50530.200000 0 0 1
-4.845546 -31.380285 -21.964975 38.609088 1.417593 2.175972 0.095432 -0.030338 -474310.000000 0 0 1
-5.194746 -30.581175 -20.712675 37.298908 1.402535 2.159539 0.143569 -0.041898 -158000.000000 0 0 1
-6.532746 -30.762085 -20.282675 37.421512 1.361541 2.143618 0.138946 -0.050913 566465.000000 0 0 1
-7.456946 -29.682335 -20.377275 36.767926 1.324665 2.158214 0.138053 -0.041423 396842.000000 0 0 1
-7.735746 -29.079715 -21.833175 37.177400 1.310799 2.198478 0.170098 -0.058680 -1285020.000000 0 0 1
-6.686746 -28.388945 -22.439375 36.799053 1.339472 2.226581 0.168612 -0.035211 -733640.000000 0 0 1
-6.983146 -27.612535 -23.592675 36.984195 1.323092 2.262581 0.212244 -0.046287 -1686410.000000 0 0 1
-5.761646 -27.265515 -24.397875 37.038644 1.362544 2.289905 0.191543 -0.044920 -160534.000000 0 0 1
-4.827346 -26.342575 -23.814575 35.838087 1.389555 2.297627 0.170195 -0.041606 458240.000000 0 0 1
-4.059846 -26.815725 -22.737875 35.391756 1.420539 2.268504 0.124199 -0.031693 -750958.000000 0 0 1
-2.511346 -26.863205 -22.932375 35.409497 1.477581 2.275271 0.111216 -0.031901 729327.000000 0 0 1
-1.881746 -25.588595 -23.189975 34.584564 1.497390 2.305719 0.102783 -0.033814 291103.000000 0 0 1
-1.946846 -24.591675 -22.137175 33.145063 1.491794 2.302163 0.116154 -0.040092 -960068.000000 0 0 1
-1.526346 -23.198175 -22.688475 32.484642 1.505095 2.344007 0.127666 -0.042970 155706.000000 0 0 1
-2.388346 -22.551275 -23.616775 32.741659 1.465282 2.376483 0.178140 -0.054092 187545.000000 0 0 1
-3.684246 -22.293775 -23.087575 32.305142 1.407018 2.366951 0.166740 -0.055517 172443.000000 0 0 1
-4.750346 -21.832475 -24.132775 32.887894 1.356554 2.394679 0.150723 -0.063020 295720.000000 0 0 1
-4.412346 -20.558875 -24.708675 32.444641 1.359383 2.436519 0.159411 -0.049858 -4874.430000 0 0 1
-5.174946 -20.292475 -25.840275 33.260854 1.321100 2.460520 0.202511 -0.058111 -218412.000000 0 0 1
-4.570046 -20.895475 -27.153575 34.566209 1.355477 2.474385 0.169871 -0.048889 171777.000000 0 0 1
-5.392046 -20.850375 -28.289375 35.554198 1.317734 2.490908 0.176090 -0.050957 -289843.000000 0 0 1
-4.700146 -21.454075 -29.348675 36.656697 1.355124 2.499152 0.176325 -0.049385 285100.000000 0 0 1
-5.591746 -21.825975 -30.568175 37.974388 1.319994 2.506418 0.166978 -0.047056 -50320.400000 0 0 1
-5.902046 -20.752375 -31.380275 38.081713 1.293709 2.539275 0.150864 -0.046870 -755856.000000 0 0 1
-6.945446 -21.178275 -32.179975 39.144723 1.253897 2.535846 0.141983 -0.040123 -482920.000000 0 0 1
-7.108046 -20.436775 -33.481675 39.864880 1.236077 2.567857 0.119986 -0.029478 -295088.000000 0 0 1
-6.117646 -20.943375 33.541091 40.013190 1.286599 0.576729 0.115164 -0.022457 -771945.000000 0 0 1
-6.113846 -20.256975 32.348391 38.654140 1.277676 0.579261 0.104462 -0.022139 -100474.000000 0 0 1
-4.922546 -20.524375 31.438791 37.866595 1.335404 0.591238 0.107005 -0.025920 -1442620.000000 0 0 1
-4.998146 -21.827375 30.873891 38.139388 1.345692 0.627494 0.098129 -0.020682 -497318.000000 0 0 1
-4.035646 -22.196675 29.939791 37.488264 1.390948 0.645757 0.114068 -0.022877 -18663.700000 0 0 1
-2.573946 -22.285375 30.462291 37.831393 1.455807 0.634763 0.104834 -0.026863 -391955.000000 0 0 1
-2.021946 -20.998975 30.537691 37.115978 1.474804 0.604539 0.116126 -0.020926 -624063.000000 0 0 1
-0.942146 -20.811175 31.400491 37.682668 1.525556 0.585769 0.116435 -0.025143 -402612.000000 0 0 1
-1.339246 -20.604875 32.899191 38.842132 1.505891 0.560485 0.104591 -0.025482 -1833.820000 0 0 1
-2.081946 -19.372675 32.968891 38.295990 1.463739 0.533767 0.095040 -0.022267 114353.000000 0 0 1
-2.412846 -19.024975 -33.555075 38.648603 1.444645 2.622378 0.101640 -0.028004 116561.000000 0 0 1
-3.334046 -17.786375 -33.492975 38.069021 1.385497 2.646229 0.113420 -0.038698 201319.000000 0 0 1
-2.718546 -16.577375 -33.840575 37.780741 1.408252 2.680821 0.100904 -0.039625 86653.500000 0 0 1
-3.749346 -15.600475 -33.878275 37.485596 1.334934 2.699288 0.116104 -0.044461 462750.000000 0 0 1
-3.336446 -14.092775 33.719191 36.697712 1.338328 0.405675 0.108549 -0.043701 -184968.000000 0 0 1
-2.544546 -13.533975 -33.105275 35.855298 1.384954 2.747388 0.108724 -0.048906 -168512.000000 0 0 1
-2.577646 -12.105675 -33.097675 35.336210 1.361001 2.783738 0.098543 -0.047276 208688.000000 0 0 1
-1.774346 -11.311475 33.637191 35.532498 1.415202 0.328089 0.092260 -0.045822 177984.000000 0 0 1
-2.433446 -11.421975 32.364891 34.407403 1.360885 0.346293 0.087053 -0.038798 299261.000000 0 0 1
-1.695246 -10.871175 31.295491 33.173243 1.416103 0.338073 0.081947 -0.033818 -70058.800000 0 0 1
-0.593346 -11.722875 30.644491 32.815586 1.520225 0.365795 0.067461 -0.039151 113988.000000 0 0 1
-1.071246 -12.930775 30.022991 32.706765 1.488140 0.407929 0.075192 -0.042039 -64493.800000 0 0 1
0.067154 -13.648575 29.691291 32.678141 -1.565876 0.430881 0.064711 -0.044466 -555917.000000 0 0 1
-0.116246 -15.115675 30.231591 33.800092 1.563106 0.463656 0.091054 -0.037672 -137291.000000 0 0 1
-1.063146 -15.860075 29.528791 33.535381 1.503864 0.493825 0.077869 -0.043677 -233477.000000 0 0 1
-1.689346 -16.754975 30.412091 34.763175 1.470309 0.505698 0.107163 -0.040115 -137739.000000 0 0 1
-2.414446 -17.856375 29.647691 34.693879 1.436397 0.546111 0.109200 -0.022464 -313863.000000 0 0 1
-3.532046 -17.569975 28.845791 33.959668 1.372413 0.555924 0.110964 -0.026585 10288.100000 0 0 1
-3.995046 -18.812375 28.323691 34.235907 1.361542 0.596495 0.124292 -0.032361 337122.000000 0 0 1
-5.063846 -18.709375 27.197191 33.397162 1.306471 0.619177 0.107610 -0.042453 247302.000000 0 0 1
-5.545846 -19.992075 26.790091 33.884339 1.300198 0.658953 0.120289 -0.037910 20144.200000 0 0 1
-4.693246 -20.689275 25.872491 33.458309 1.347727 0.686805 0.134987 -0.041497 135644.000000 0 0 1
-30.525716 -33.005820 -0.271209 44.958614 0.824416 1.576829 0.047005 -0.020439 5756.400000 0 0 1
-29.649246 -31.928020 0.017991 43.571510 0.822388 1.570383 0.063102 -0.030871 -29707.700000 0 0 1
-29.878586 -31.455720 1.297991 43.403651 0.811106 1.540887 0.052559 -0.017059 -88791.800000 0 0 1
-29.003666 -30.251620 1.715691 41.944209 0.806456 1.529881 0.067172 -0.016338 637352.000000 0 0 1
-27.599696 -30.524020 1.748891 41.188804 0.835668 1.528323 0.084944 -0.009720 -167663.000000 0 0 1
-26.967456 -29.379120 2.144691 39.937151 0.828173 1.517069 0.089396 -0.011998 -2239760.000000 0 0 1
-25.550356 -29.655020 2.394591 39.217023 0.859614 1.509698 0.067707 -0.004567 -2026680.000000 0 0 1
-25.292846 -30.475820 3.549191 39.763053 0.878069 1.481419 0.056111 0.002421 -864942.000000 0 0 1
-23.950146 -30.717620 3.765591 39.132612 0.908564 1.474421 0.056443 0.007497 -787265.000000 0 0 1
-23.571846 -31.302620 5.142491 39.521274 0.925358 1.440307 0.055528 0.004079 8643.350000 0 0 1
-23.987746 -30.503420 6.244691 39.304792 0.904406 1.411242 0.040562 0.016048 190928.000000 0 0 1
-23.370846 -31.089820 7.371191 39.586712 0.926195 1.383500 0.035520 0.001690 -401644.000000 0 0 1
-23.844546 -30.511520 8.715891 39.692341 0.907442 1.349406 0.041338 0.003660 -138648.000000 0 0 1
-23.320146 -29.185420 8.948891 38.414848 0.896645 1.335682 0.052581 0.002964 180658.000000 0 0 1
-23.830646 -28.671720 10.143491 38.637515 0.877345 1.305154 0.047408 -0.003423 -57638.000000 0 0 1
-23.038646 -27.465520 10.687291 37.407916 0.872828 1.281064 0.054760 -0.010689 1154740.000000 0 0 1
-21.744046 -27.846020 11.215991 37.067544 0.907831 1.263395 0.037662 -0.011966 772029.000000 0 0 1
-21.072846 -26.684620 11.763091 35.979217 0.902367 1.237731 0.055389 -0.020052 708381.000000 0 0 1
-19.686346 -27.078920 12.349291 35.683681 0.942179 1.217410 0.062423 -0.018459 290320.000000 0 0 1
-19.731146 -27.848920 13.556991 36.724276 0.954384 1.192695 0.077428 -0.027904 573827.000000 0 0 1
-18.425846 -27.904520 14.166891 36.316316 0.987202 1.170059 0.089272 -0.031992 655935.000000 0 0 1
-18.399146 -28.986220 15.249991 37.567163 1.005213 1.152790 0.095849 -0.038043 -272952.000000 0 0 1
-18.228446 -30.280920 14.697491 38.278278 1.028924 1.176710 0.096623 -0.034403 17846.600000 0 0 1
-18.362746 -31.295620 15.634891 39.510202 1.040175 1.163947 0.102382 -0.031893 95088.500000 0 0 1
-18.150346 -32.678220 15.096991 40.314020 1.063797 1.186955 0.087020 -0.035174 177965.000000 0 0 1
-18.518746 -33.688020 16.027991 41.650007 1.068173 1.175777 0.086035 -0.033786 44125.300000 0 0 1
-17.974046 32.907525 15.570791 40.600752 -1.070876 1.177202 0.068367 -0.030310 -121139.000000 0 0 1
-17.874946 31.676425 16.396791 39.896922 -1.057042 1.147269 0.079699 -0.034802 -158704.000000 0 0 1
-19.157646 31.279325 16.832291 40.357621 -1.021258 1.140568 0.078410 -0.039482 117138.000000 0 0 1
-19.116346 30.232225 17.832591 39.967780 -1.006953 1.108310 0.054833 -0.023486 196427.000000 0 0 1
-19.906246 30.512225 19.159091 41.162183 -0.992734 1.086649 0.057650 -0.029942 10141.800000 0 0 1
-19.256246 31.411725 19.984291 41.915049 -1.020853 1.073808 0.066834 -0.026715 -72542.500000 0 0 1
-19.964746 31.555525 21.173591 42.926253 -1.006689 1.054969 0.069076 -0.020050 -175841.000000 0 0 1
-19.425046 32.713725 22.040391 43.969297 -1.034956 1.045733 0.063025 -0.014834 -456432.000000 0 0 1
-18.188046 32.492525 22.626591 43.572145 -1.060490 1.024776 0.049472 -0.016885 -691376.000000 0 0 1
-18.063946 33.329825 23.765391 44.743460 -1.074135 1.010842 0.050977 -0.018476 90666.300000 0 0 1
-18.691146 32.740525 25.096891 45.289677 -1.052058 0.983465 0.047066 -0.017617 598494.000000 0 0 1
-20.100646 32.864225 25.249791 46.061320 -1.021871 0.990612 0.038554 -0.020784 -134324.000000 0 0 1
-20.685846 31.725525 25.775991 45.812824 -0.992999 0.973224 0.040110 -0.014935 -939396.000000 0 0 1
-22.174346 31.836025 25.509791 46.432570 -0.962412 0.989157 0.096237 -0.026810 -887890.000000 0 0 1
-22.397246 31.535425 24.149191 45.599376 -0.953241 1.012674 0.081415 -0.014154 420715.000000 0 0 1
-23.773446 31.691425 23.819891 46.226728 -0.927197 1.029457 0.065569 -0.023931 269711.000000 0 0 1
-24.158346 31.339525 22.334091 45.437904 -0.914079 1.056951 0.055571 -0.028213 -181004.000000 0 0 1
-23.934846 32.331125 21.351391 45.541853 -0.933530 1.082831 0.061453 -0.027798 70026.000000 0 0 1
-23.863346 31.737525 20.104791 44.507667 -0.926082 1.102109 0.036317 -0.016933 -177906.000000 0 0 1
-23.423646 32.818525 19.116891 44.622621 -0.950913 1.128061 0.055092 -0.019440 -1095270.000000 0 0 1
-22.187146 33.320925 19.431891 44.498898 -0.983351 1.118889 0.068634 -0.026610 -1068830.000000 0 0 1
-21.624546 -33.753420 18.337891 44.081658 1.001013 1.141756 0.085880 -0.023992 292136.000000 0 0 1
-20.335446 -33.018820 18.786191 43.089370 1.018786 1.119667 0.084868 -0.030128 -31933.300000 0 0 1
-20.618546 -31.828020 19.483291 42.635031 0.995961 1.096201 0.101485 -0.033643 144929.000000 0 0 1
-19.496246 -31.228420 20.079691 41.934613 1.012693 1.071471 0.077903 -0.036338 -307111.000000 0 0 1
-19.861146 -30.056420 20.969291 41.684105 0.986869 1.043669 0.069825 -0.020576 -235216.000000 0 0 1
-20.430446 -29.021020 20.215891 40.844889 0.957399 1.053027 0.106869 -0.027803 566541.000000 0 0 1
-21.183846 -28.163920 21.137891 41.094673 0.925913 1.030523 0.111604 -0.024272 10585.300000 0 0 1
-22.081046 -27.246420 20.324891 40.534444 0.889734 1.045554 0.105245 -0.026999 -406283.000000 0 0 1
-21.378346 -26.037220 19.884291 39.119758 0.883340 1.037595 0.082930 -0.008198 779726.000000 0 0 1
-22.142446 -24.862120 19.598491 38.633065 0.843194 1.038749 0.079053 0.005944 -136133.000000 0 0 1
-23.370446 -24.840620 18.662491 38.878306 0.815883 1.070115 0.070810 -0.011077 -25130.500000 0 0 1
-24.587546 -25.291420 19.204291 40.162272 0.799509 1.072229 0.081502 -0.009689 350823.000000 0 0 1
-25.511416 -25.703320 18.157691 40.511661 0.789145 1.106036 0.072167 -0.010184 597877.000000 0 0 1
-26.944346 -25.925220 18.723191 41.817134 0.766124 1.106560 0.054901 -0.004273 63362.900000 0 0 1
-27.267436 -27.198420 19.211891 43.039097 0.784131 1.108078 0.050337 -0.001627 3383.780000 0 0 1
-27.419136 -28.240620 18.224691 43.376041 0.800156 1.137179 0.059096 -0.005211 -1213860.000000 0 0 1
-28.232276 -29.378420 18.891691 44.911568 0.805290 1.136643 0.068471 -0.011263 972751.000000 0 0 1
-29.626696 -29.019620 18.956691 45.598635 0.775047 1.142052 0.037545 -0.010153 1002990.000000 0 0 1
-30.372236 -29.177520 17.763491 45.709320 0.765338 1.171664 0.041379 -0.006948 -544713.000000 0 0 1
-31.856526 -28.759520 17.855291 46.483972 0.734350 1.176545 0.031624 -0.009978 176473.000000 0 0 1
-32.021656 -27.355420 17.692291 45.680659 0.706973 1.173091 0.038885 -0.008595 -605075.000000 0 0 1
-33.353576 -26.980320 17.847291 46.464228 0.680155 1.176555 0.054926 0.005204 -728159.000000 0 0 1
-33.726756 -25.735820 17.104991 45.742837 0.651813 1.187545 0.069972 -0.016733 -547045.000000 0 0 1
-33.721736 -25.930020 15.702491 45.344124 0.655513 1.217176 0.088530 -0.033023 35820.200000 0 0 1
-34.300288 -24.935820 14.929691 44.957764 0.628609 1.232286 0.106979 -0.043098 -428288.000000 0 0 1
-33.496766 -23.645020 14.734491 43.568630 0.614668 1.225803 0.098672 -0.037681 -296390.000000 0 0 1
-33.220516 -22.967720 15.926791 43.414070 0.604912 1.195167 0.076136 -0.027148 35091.000000 0 0 1
-32.846126 -21.663920 15.634391 42.339433 0.583065 1.192580 0.077036 -0.030406 -757889.000000 0 0 1
-33.782276 -20.558920 16.049191 42.678892 0.546698 1.185272 0.099273 -0.035913 -630482.000000 0 0 1
-33.987646 -20.401820 17.452991 43.312829 0.540619 1.156056 0.095683 -0.028840 163250.000000 0 0 1
-34.485573 -19.132020 17.795391 43.266209 0.506508 1.146917 0.086557 -0.020458 -258173.000000 0 0 1
-35.126894 -19.006220 19.155291 44.295149 0.495964 1.123592 0.085165 -0.019616 466579.000000 0 0 1
-36.394486 -19.643020 19.368491 45.667770 0.494920 1.132809 0.084752 -0.012959 896705.000000 0 0 1
-36.985596 -19.267520 20.589291 46.509037 0.480264 1.112195 0.091706 -0.009159 458231.000000 0 0 1
36.459083 -19.809120 20.946891 46.480514 -0.497704 1.103292 0.094098 0.000388 363672.000000 0 0 1
36.251493 -21.274420 20.985791 46.980582 -0.530699 1.107733 0.097621 -0.008255 -45238.700000 0 0 1
37.010883 -22.013120 21.892491 48.308012 -0.536568 1.100461 0.086913 -0.001612 -208284.000000 0 0 1
36.257503 -23.372920 22.259191 48.542471 -0.572596 1.094433 0.088398 0.007138 974039.000000 0 0 1
35.222433 -22.969220 23.204591 48.027678 -0.577863 1.066547 0.086815 -0.012910 652260.000000 0 0 1
34.934463 -24.033720 24.071691 48.759437 -0.602604 1.054477 0.080516 -0.029235 -520482.000000 0 0 1
33.875133 -23.740520 25.154691 48.413793 -0.611279 1.024441 0.075320 -0.030652 -1021900.000000 0 0 1
32.581013 -23.887620 24.730091 47.367902 -0.632647 1.021502 0.078995 -0.025703 -1288830.000000 0 0 1
31.698433 -23.742020 25.804191 47.268704 -0.642859 0.993328 0.041762 -0.019353 -537385.000000 0 0 1
30.336193 -24.415920 25.643491 46.626284 -0.677688 0.988457 0.048209 -0.016988 -78853.100000 0 0 1
29.379263 -23.675920 24.902691 45.208785 -0.678311 0.987429 0.063161 -0.016344 649544.000000 0 0 1
28.102663 -24.326520 24.834891 44.702472 -0.713499 0.981760 0.061388 -0.006946 1178690.000000 0 0 1
26.858663 -23.399120 24.673591 43.332351 -0.716671 0.965016 0.055099 -0.000444 -78073.400000 0 0 1
26.777763 -22.666420 23.447491 42.197156 -0.702438 0.981633 0.053728 0.000914 -431964.000000 0 0 1
27.868963 -21.865520 23.082691 42.279909 -0.665269 0.993274 0.051282 0.005079 -410726.000000 0 0 1
27.653263 -21.067820 21.775491 41.021068 -0.651046 1.011209 0.056648 0.004883 223560.000000 0 0 1
26.813863 -19.927620 21.792091 39.887197 -0.639124 0.992805 0.048035 0.001935 26048.300000 0 0 1
26.751263 -19.298920 20.565691 38.871918 -0.624958 1.013300 0.034982 0.005000 210448.000000 0 0 1
25.960763 -17.962320 20.430191 37.603176 -0.605271 0.996421 0.045816 0.014093 -107683.000000 0 0 1
26.625963 -16.846420 20.926691 37.824201 -0.564122 0.984521 0.052718 -0.010413 -56979.300000 0 0 1
26.803363 -16.834020 22.368091 38.757399 -0.560794 0.955585 0.048582 -0.001161 59734.300000 0 0 1
26.816063 -15.494720 23.091691 38.631771 -0.523947 0.930119 0.072005 0.002226 899974.000000 0 0 1
25.481463 -14.954320 23.116991 37.514423 -0.530710 0.906867 0.048419 -0.000264 524978.000000 0 0 1
25.451063 -13.651620 23.588191 37.289758 -0.492332 0.885936 0.045955 -0.000391 -270406.000000 0 0 1
24.064063 -13.167720 23.163591 35.902924 -0.500687 0.869547 0.037166 -0.006083 870603.000000 0 0 1
22.960963 -13.886420 23.804591 35.870559 -0.543930 0.845142 0.055734 -0.008041 228916.000000 0 0 1
21.849463 -13.067420 23.907991 34.924898 -0.538996 0.816804 0.053718 -0.014003 -240863.000000 0 0 1
20.519163 -13.777920 24.265391 34.636344 -0.591318 0.794592 0.066407 -0.002652 131640.000000 0 0 1
20.139263 -14.797920 23.389191 34.228973 -0.633689 0.818502 0.073766 -0.007287 -353563.000000 0 0 1
18.868363 -15.261520 23.757291 33.960830 -0.680109 0.796029 0.089447 -0.006490 -223558.000000 0 0 1
18.567763 -16.580220 22.939691 33.851070 -0.728910 0.826213 0.099715 -0.009399 72444.000000 0 0 1
19.265163 -17.793120 23.249591 35.046899 -0.745697 0.845463 0.084017 -0.000477 343029.000000 0 0 1
18.866263 -18.793720 22.303291 34.735811 -0.783472 0.873583 0.106420 -0.011994 162321.000000 0 0 1
19.414763 -20.162920 22.696591 36.036254 -0.804299 0.889466 0.095387 -0.012882 -218615.000000 0 0 1
18.743463 -20.656920 23.884391 36.721790 -0.833924 0.862666 0.115060 -0.021259 422958.000000 0 0 1
18.915163 -22.016920 24.220991 37.804557 -0.861032 0.875400 0.104104 -0.023352 -193818.000000 0 0 1
18.472263 -23.092920 23.136391 37.547304 -0.896110 0.906896 0.103496 -0.023684 -6637.020000 0 0 1
19.310363 -23.123320 22.018391 37.314710 -0.875014 0.939647 0.088495 -0.009352 379034.000000 0 0 1
20.281963 -24.190220 22.022791 38.490623 -0.873054 0.961659 0.071082 -0.012681 436748.000000 0 0 1
21.241863 -24.324520 20.829391 38.428668 -0.852947 0.997949 0.048608 -0.002032 -602123.000000 0 0 1
20.583663 -24.691820 19.680591 37.692158 -0.875887 1.021438 0.053516 -0.021582 164200.000000 0 0 1
21.452863 -25.012820 18.596891 37.837955 -0.861864 1.056999 0.053171 -0.007427 296669.000000 0 0 1
20.664563 -25.833620 17.548991 37.448193 -0.896110 1.083068 0.051236 -0.021620 191834.000000 0 0 1
20.352863 -27.136720 18.007391 38.404514 -0.927288 1.082766 0.079169 -0.037211 -349109.000000 0 0 1
19.653363 -27.844120 17.040691 38.104263 -0.956165 1.107150 0.074770 -0.040377 -424674.000000 0 0 1
18.777763 -28.926320 17.686491 38.757558 -0.995013 1.096923 0.070066 -0.031728 -316722.000000 0 0 1
17.758563 -28.480120 18.536491 38.341691 -1.013246 1.066199 0.087496 -0.039993 -217302.000000 0 0 1
16.947963 -29.597220 18.846691 38.966994 -1.050752 1.065967 0.103101 -0.037861 -1581450.000000 0 0 1
15.831363 -29.320820 19.743091 38.731540 -1.075713 1.035911 0.100493 -0.035521 -1466060.000000 0 0 1
14.826263 -28.678620 18.979991 37.450252 -1.093657 1.039321 0.086272 -0.040700 107747.000000 0 0 1
13.676463 -28.431920 19.801491 37.249413 -1.122444 1.010317 0.059578 -0.036445 150857.000000 0 0 1
12.616063 -27.578820 19.116591 35.849692 -1.141760 1.008367 0.071116 -0.043440 -331640.000000 0 0 1
12.055163 -28.305120 18.036791 35.662762 -1.168163 1.040534 0.097372 -0.049917 -24171.100000 0 0 1
11.274163 -27.518920 17.157691 34.333425 -1.181966 1.047501 0.119124 -0.047750 26264.800000 0 0 1
11.069263 -28.177020 15.801091 34.148902 -1.196471 1.089745 0.126995 -0.041630 -263546.000000 0 0 1
10.139963 -29.226520 15.903191 34.783901 -1.236847 1.095952 0.145740 -0.038795 -122523.000000 0 0 1
10.167863 -30.059820 14.761391 34.998241 -1.244623 1.135394 0.123386 -0.023430 -165852.000000 0 0 1
8.962163 -30.987620 14.528791 35.378506 -1.289261 1.147611 0.116470 -0.020477 -79241.700000 0 0 1
8.806363 -32.100920 15.361091 36.660390 -1.303050 1.138441 0.111749 -0.029316 -45589.100000 0 0 1
7.689963 -32.873520 14.962491 36.928038 -1.341003 1.153621 0.093693 -0.028884 167872.000000 0 0 1
7.354163 33.725325 15.920091 38.012242 1.356097 1.138657 0.112197 -0.033023 -194773.000000 0 0 1
8.399963 32.807225 16.001891 37.455760 1.320141 1.129379 0.107763 -0.028463 -436567.000000 0 0 1
8.129463 31.777925 16.915891 36.906261 1.320347 1.094661 0.101942 -0.040251 643452.000000 0 0 1
9.438763 31.021525 17.374391 36.787155 1.275431 1.078904 0.109906 -0.038937 474281.000000 0 0 1
9.904263 30.130325 16.395691 35.703636 1.253209 1.093684 0.093087 -0.034874 -223710.000000 0 0 1
10.999963 29.373325 16.891491 35.624625 1.212474 1.076796 0.104624 -0.037740 164832.000000 0 0 1
11.819863 28.643825 15.806591 34.785431 1.179433 1.099095 0.093132 -0.031034 -256437.000000 0 0 1
11.153863 27.626525 15.140691 33.419666 1.187072 1.100616 0.120594 -0.038785 -594260.000000 0 0 1
12.009063 26.947225 14.291891 32.781530 1.151565 1.119676 0.102066 -0.031743 -272380.000000 0 0 1
-9.480046 -9.072975 19.109157 23.180812 0.763461 0.601739 0.057762 -0.026791 96853.300000 0 1 0
-9.562146 -9.148675 17.718357 22.114996 0.763304 0.641512 0.050954 -0.027573 -25134.200000 0 1 0
-9.585146 -10.517075 17.401057 22.478449 0.831725 0.685470 0.065234 -0.031896 87021.600000 0 1 0
-9.749046 -10.839575 15.890657 21.565094 0.838316 0.742369 0.056767 -0.028117 349875.000000 0 1 0
-11.113646 -10.698075 15.509657 21.874903 0.766348 0.782694 0.061466 -0.027431 464510.000000 0 1 0
-11.540446 -11.306575 14.313357 21.584548 0.775162 0.845804 0.068242 -0.035565 6359.480000 0 1 0
-11.578646 -12.878675 14.279657 22.446245 0.838503 0.881271 0.054324 -0.031716 60408.600000 0 1 0
-10.249846 -13.391775 14.151057 22.014799 0.917522 0.872652 0.057515 -0.027997 560653.000000 0 1 0
-10.129646 -14.803875 14.139357 22.840443 0.970715 0.903265 0.062530 -0.028374 -213179.000000 0 1 0
-10.179146 -15.470675 15.530657 24.169363 0.988843 0.872941 0.091949 -0.033263 196563.000000 0 1 0
-11.344646 -15.205975 16.279957 24.999193 0.929818 0.861606 0.101688 -0.028917 -12023.600000 0 1 0
-10.984246 -15.372575 17.671957 25.870210 0.950382 0.818796 0.128010 -0.032085 24781.000000 0 0 1
-12.029746 -14.750475 18.616757 26.624706 0.886646 0.796478 0.089472 -0.028942 -343596.000000 0 0 1
-12.295546 -13.349775 18.384557 25.833871 0.826483 0.778959 0.086152 -0.028559 236579.000000 0 0 1
-13.453646 -13.157375 17.587757 25.757451 0.774265 0.819178 0.094099 -0.038973 87744.200000 0 0 1
-14.813946 -13.148775 18.316357 26.978366 0.725919 0.824495 0.063495 -0.027332 -330837.000000 0 0 1
-15.330046 -14.437475 18.606257 28.100601 0.755422 0.847139 0.077401 -0.027436 -432821.000000 0 0 1
-16.446846 -14.311175 19.429357 29.202883 0.716075 0.842870 0.083510 -0.029737 -235354.000000 0 0 1
-17.067146 -15.690775 19.912257 30.561182 0.743406 0.861165 0.067491 -0.022758 82045.400000 0 0 1
-18.086746 -16.191775 19.066557 30.868067 0.730173 0.905008 0.062240 -0.022128 39023.300000 0 0 1
-18.428646 -17.520675 19.512557 32.051972 0.760147 0.916276 0.048438 -0.018780 -147588.000000 0 0 1
-19.665146 -18.225375 18.909157 32.809122 0.747418 0.956555 0.061138 -0.019607 -176833.000000 0 0 1
-19.675546 -18.381875 17.520757 32.124716 0.751419 0.993932 0.064053 -0.023641 42035.200000 0 0 1
-19.935846 -17.211275 16.760857 31.218460 0.712184 1.004051 0.063776 -0.025922 -448097.000000 0 0 1
-19.647846 -17.413575 15.215057 30.344166 0.725185 1.045561 0.080979 -0.036422 182743.000000 0 0 1
-20.496546 -18.378175 14.563157 31.144040 0.730960 1.084215 0.087912 -0.035086 506131.000000 0 0 1
-19.974746 -18.547675 13.237657 30.302513 0.748370 1.118702 0.112201 -0.042306 118188.000000 0 0 1
-20.379946 -19.821575 12.515357 31.062376 0.771510 1.156102 0.115581 -0.034804 -351789.000000 0 0 1
-19.836346 -21.030675 13.022657 31.707404 0.814615 1.147560 0.095352 -0.028403 -3848.260000 0 0 1
-19.496946 -21.911875 11.970457 31.678905 0.843651 1.183303 0.090797 -0.021097 -481542.000000 0 0 1
-18.676346 -23.105675 12.500057 32.232430 0.891014 1.172542 0.066274 -0.021751 -268057.000000 0 0 1
-18.319846 -24.159975 11.694457 32.497407 0.922022 1.202680 0.069682 -0.034145 -74178.300000 0 0 1
-17.309846 -23.939075 10.751857 31.437438 0.944748 1.221743 0.059218 -0.028858 -488096.000000 0 0 1
-17.450946 -25.033595 9.668057 32.010744 0.962019 1.263980 0.054138 -0.023062 -790334.000000 0 0 1
-18.714846 -25.040345 9.104757 32.560112 0.928969 1.287388 0.050938 -0.017852 -855706.000000 0 0 1
-18.835946 -26.210805 8.291857 33.324976 0.947674 1.319337 0.072985 -0.014021 306840.000000 0 0 1
-20.099346 -26.206035 7.409557 33.847326 0.916520 1.350098 0.060918 -0.017628 108279.000000 0 0 1
-19.934646 -25.208965 6.451457 32.779617 0.901705 1.372690 0.074050 -0.018277 39200.200000 0 0 1
-21.025746 -25.052345 5.556857 33.175000 0.872563 1.402502 0.090144 -0.015142 137430.000000 0 0 1
-21.074146 -23.704275 4.781457 32.076075 0.844067 1.421173 0.102756 -0.015516 -284217.000000 0 0 1
-22.202046 -23.608175 3.956157 32.648552 0.816083 1.449324 0.102512 -0.021802 -44554.200000 0 0 1
-22.163846 -22.433375 3.235357 31.701102 0.791442 1.468560 0.109814 -0.026041 185556.000000 0 0 1
-22.848146 -22.573075 1.870957 32.172689 0.779342 1.512610 0.100070 -0.021670 167473.000000 0 0 1
-22.005646 -23.250775 0.946357 32.027216 0.812904 1.541243 0.096338 -0.029769 510851.000000 0 0 1
-22.588146 -23.308475 -0.370343 32.459921 0.801091 1.582206 0.094841 -0.027001 -31732.200000 0 0 1
-21.725846 -24.119775 -1.360443 32.490409 0.837568 1.612681 0.095651 -0.021348 -552382.000000 0 0 1
-20.370046 -23.755275 -1.412743 31.324873 0.861967 1.615911 0.097910 -0.023755 -140607.000000 0 0 1
-19.618946 -24.328175 -2.482343 31.351637 0.892148 1.650057 0.086678 -0.012048 364878.000000 0 0 1
-19.338146 -25.839985 -2.474143 32.369586 0.928332 1.647305 0.100085 -0.012080 -249146.000000 0 0 1
-20.471146 -26.655585 -2.749843 33.721649 0.915883 1.652432 0.142868 -0.021246 -25742.400000 0 0 1
-20.009946 -27.865725 -3.244943 34.459051 0.948036 1.665104 0.139633 -0.014326 -494539.000000 0 0 1
-21.059646 -28.778325 -3.860343 35.869247 0.939053 1.678628 0.137194 -0.016161 -314939.000000 0 0 1
-21.632846 -28.233145 -5.057443 35.925871 0.916994 1.712040 0.121972 -0.019553 -215288.000000 0 0 1
-22.296746 -29.173705 -5.812743 37.175770 0.918221 1.727799 0.120163 -0.035758 -549427.000000 0 0 1
-22.867146 -28.654875 -7.131543 37.347920 0.897264 1.762925 0.113062 -0.010749 -87291.900000 0 0 1
-21.987846 -28.399555 -8.236643 36.848912 0.911966 1.796226 0.133931 -0.017837 271861.000000 0 0 1
-22.628246 -28.450395 -9.507043 37.574543 0.898892 1.826595 0.130958 -0.013772 -74229.700000 0 0 1
-23.635346 -27.357695 -9.920143 37.489762 0.858266 1.838595 0.108696 -0.001683 -142033.000000 0 0 1
-23.203246 -26.056065 -10.396843 36.406091 0.843248 1.860408 0.092760 0.003164 136949.000000 0 0 1
-22.643146 -25.194765 -9.402843 35.155393 0.838687 1.841558 0.072360 0.004882 -3220.590000 0 0 1
-22.336346 -23.756475 -9.983443 34.102075 0.816199 1.867900 0.044971 -0.000575 -495491.000000 0 0 1
-23.388946 -22.873175 -10.155543 34.254342 0.774250 1.871795 0.067920 -0.009227 -377525.000000 0 0 1
-22.901646 -21.597075 -10.506543 33.185937 0.756090 1.892935 0.066162 -0.007075 -97082.400000 0 0 1
-24.022846 -20.558575 -10.528443 33.325669 0.707847 1.892229 0.083198 -0.002279 -334110.000000 0 0 1
-24.757546 -20.654975 -11.743643 34.314387 0.695303 1.920093 0.088690 -0.004488 1686490.000000 0 0 1
-26.018206 -19.876075 -11.737443 34.781790 0.652357 1.915013 0.097538 -0.010258 1593070.000000 0 0 1
-25.914626 -18.349575 -11.730343 33.850785 0.616127 1.924667 0.107194 -0.019908 -1309320.000000 0 0 1
-25.323566 -17.871375 -12.962143 33.595925 0.614555 1.966898 0.121214 -0.008317 640510.000000 0 0 1
-24.928746 -16.514475 -12.863943 32.552285 0.585090 1.977058 0.107330 -0.026303 50678.600000 0 0 1
-23.737246 -16.163475 -11.926443 31.095896 0.597814 1.964420 0.077521 -0.024403 -480516.000000 0 0 1
-24.116046 -16.226175 -10.560643 30.925711 0.592262 1.919292 0.119951 -0.028202 390329.000000 0 0 1
-22.986246 -16.466275 -9.742743 29.906968 0.621617 1.902621 0.090737 -0.021562 -137009.000000 0 0 1
-23.393246 -16.851175 -8.296643 30.000672 0.624249 1.850997 0.063874 -0.025065 -295344.000000 0 0 1
-24.113446 -18.067775 -8.294343 31.252182 0.643042 1.839416 0.089350 -0.015703 48235.600000 0 0 1
-24.774246 -18.141775 -7.059843 31.507596 0.632066 1.796783 0.100423 -0.009571 -291693.000000 0 0 1
-25.490096 -19.465075 -6.830743 32.791663 0.652169 1.780640 0.123439 -0.013273 66956.700000 0 0 1
-26.716066 -19.655875 -7.523543 34.010370 0.634307 1.793855 0.116564 -0.022233 255841.000000 0 0 1
-27.339456 -20.869475 -7.229643 35.146103 0.651988 1.777978 0.125463 -0.010282 -339773.000000 0 0 1
-26.744666 -21.988175 -8.088943 35.555421 0.688103 1.800308 0.097904 -0.005514 -81777.100000 0 0 1
-27.331756 -23.303875 -8.039343 36.806609 0.706019 1.790993 0.108740 0.001052 -334809.000000 0 0 1
-26.622106 -24.207375 -8.842343 37.052942 0.737927 1.811762 0.085190 0.012111 148062.000000 0 0 1
-27.088626 -25.686975 -8.735843 38.339656 0.758846 1.800669 0.091525 0.000179 154951.000000 0 0 1
-26.806126 -26.195775 -7.461843 38.216045 0.773883 1.767313 0.115108 -0.022107 38817.600000 0 0 1
-27.342776 -27.489845 -7.394443 39.471467 0.788080 1.759246 0.106923 -0.026223 -195649.000000 0 0 1
-27.159656 -28.315665 -6.114143 39.709023 0.806233 1.725385 0.123650 -0.030185 -174427.000000 0 0 1
-28.025386 -27.835945 -5.104943 39.828664 0.782007 1.699322 0.087946 -0.022899 101849.000000 0 0 1
-27.617306 -28.100605 -3.766343 39.579602 0.794072 1.666099 0.096642 -0.035128 -271788.000000 0 0 1
-28.004546 -29.410185 -3.134243 40.731278 0.809875 1.647822 0.076470 -0.016438 -479004.000000 0 0 1
-27.305076 -30.538545 -3.593343 41.122767 0.841240 1.658289 0.099933 -0.021578 -128916.000000 0 0 1
-27.402836 -31.686485 -2.737443 41.981452 0.857766 1.636049 0.088577 -0.031340 84084.700000 0 0 1
-26.495506 -31.697295 -1.448543 41.337980 0.874550 1.605845 0.096015 -0.028396 1149770.000000 0 0 1
-25.115246 -31.789565 -1.892543 40.557782 0.902154 1.617476 0.120710 -0.036548 401832.000000 0 0 1
-24.254546 -32.016905 -0.823943 40.175167 0.922478 1.591307 0.143085 -0.016147 -313102.000000 0 0 1
-23.127546 -30.967585 -0.714043 38.657270 0.929327 1.589268 0.145478 -0.017993 -168146.000000 0 0 1
-23.493946 -29.610965 -0.487043 37.802274 0.900080 1.583681 0.116465 -0.017663 -188491.000000 0 0 1
-23.949646 -28.859065 -1.613043 37.537089 0.878098 1.613782 0.145114 -0.025356 -92046.400000 0 0 1
-24.372946 -27.381485 -1.371843 36.683350 0.843464 1.608202 0.077837 -0.017882 -28359.200000 0 0 1
-25.518206 -27.364115 -0.556043 37.420352 0.820290 1.585656 0.100365 -0.022796 -270631.000000 0 0 1
-26.053266 -26.063595 -0.335543 36.853714 0.785596 1.579901 0.110664 -0.040082 196207.000000 0 0 1
-25.491046 -25.379605 0.949557 35.983599 0.783207 1.544405 0.120787 -0.026672 -68360.800000 0 0 1
-25.829826 -25.965375 2.197757 36.690744 0.788015 1.510861 0.094431 -0.024237 -200444.000000 0 0 1
-25.327236 -25.179605 3.206457 35.857534 0.782475 1.481255 0.103616 -0.017613 -185845.000000 0 0 1
-26.265586 -24.055775 3.683957 35.806882 0.741512 1.467730 0.114911 -0.024772 -307412.000000 0 0 1
-26.374286 -22.981575 2.786457 35.093020 0.716766 1.491311 0.109584 -0.027969 672151.000000 0 0 1
-27.410076 -22.043275 3.161157 35.315876 0.677299 1.481165 0.113093 -0.027137 630400.000000 0 0 1
-27.423606 -20.833575 2.209157 34.510467 0.649677 1.506738 0.105521 -0.021344 -478088.000000 0 0 1
-26.295986 -20.056075 2.371257 33.156415 0.651583 1.499218 0.115755 -0.019894 -638679.000000 0 0 1
-26.185056 -19.104375 1.321257 32.440407 0.630311 1.530056 0.091853 -0.019726 -200229.000000 0 0 1
-24.998046 -18.140575 1.563857 30.926176 0.627754 1.520207 0.108622 -0.019009 -274566.000000 0 0 1
-23.848046 -18.867975 1.194757 30.432831 0.669337 1.531527 0.116059 -0.022883 -8454.880000 0 0 1
-22.683546 -18.070175 1.348857 29.032635 0.672677 1.524320 0.120346 -0.018163 -405783.000000 0 0 1
-21.336846 -18.752875 1.266457 28.434753 0.721033 1.526243 0.111199 -0.020871 -609161.000000 0 0 1
-20.887046 -19.119075 -0.026643 28.316222 0.741234 1.571737 0.065805 -0.015799 257249.000000 0 0 1
-19.890646 -20.133775 0.090757 28.302207 0.791473 1.567590 0.101383 -0.012935 119848.000000 0 0 1
-19.456046 -20.665775 -1.285843 28.412415 0.815540 1.616068 0.103036 -0.008680 488051.000000 0 0 1
-18.642646 -19.704975 -2.028643 27.202016 0.813094 1.645443 0.095599 -0.014869 532781.000000 0 0 1
-18.500746 -20.195375 -3.339243 27.591326 0.829163 1.692119 0.081487 -0.004960 489144.000000 0 0 1
-17.705246 -19.224075 -4.345343 26.493825 0.826503 1.735554 0.100744 -0.001554 1221320.000000 0 0 1
-16.274346 -19.301575 -4.250643 25.602208 0.870286 1.737595 0.138885 -0.011602 657441.000000 0 0 1
-15.761646 -18.632975 -5.367843 24.988616 0.868687 1.787295 0.145732 -0.004989 -774933.000000 0 1 0
-14.339546 -18.073575 -5.355243 23.684495 0.900094 1.798876 0.172392 -0.022179 -759291.000000 0 1 0
-13.479046 -19.173475 -5.400643 24.051481 0.958057 1.797273 0.135808 -0.022252 -575384.000000 0 1 0
-12.169846 -18.734075 -5.709943 23.058060 0.994695 1.821033 0.120445 -0.035964 -57888.000000 0 1 0
-11.165646 -19.894675 -5.809743 23.541938 1.059366 1.820155 0.106589 -0.032640 -85380.700000 0 1 0
-11.353546 -20.838775 -6.864243 24.703752 1.071933 1.852364 0.099741 -0.019984 -975512.000000 0 1 0
-10.231846 -21.607875 -7.156043 24.955958 1.128553 1.861626 0.091061 -0.011383 -527354.000000 0 1 0
-10.465046 -22.906375 -8.004243 26.425122 1.142251 1.878533 0.091676 0.001664 -183787.000000 0 0 1
-10.763846 -22.579575 -9.382043 26.715544 1.125956 1.929631 0.094447 -0.014803 46895.400000 0 0 1
-11.065246 -23.697475 -10.190743 28.068865 1.133947 1.942349 0.099422 -0.008893 90739.500000 0 0 1
-11.820646 -23.296775 -11.504143 28.544924 1.101251 1.985609 0.122199 -0.015984 -9801.970000 0 0 1
-11.078846 -22.625775 -12.495343 28.121168 1.115458 2.031233 0.117224 -0.012776 -224696.000000 0 0 1
-11.946846 -22.113575 -13.486743 28.524192 1.075470 2.063282 0.125022 -0.020134 -295706.000000 0 0 1
-11.415446 -20.896975 -14.251643 27.750771 1.070819 2.110123 0.103585 -0.021963 -254621.000000 0 0 1
-11.461646 -19.707675 -13.459443 26.474863 1.044029 2.104105 0.104954 -0.018184 -146793.000000 0 0 1
-11.172146 -18.560175 -14.193243 25.898746 1.028950 2.150801 0.090539 -0.004157 72582.300000 0 0 1
-10.375546 -17.506175 -13.387843 24.358826 1.035777 2.152693 0.102046 -0.004284 -166002.000000 0 1 0
-11.208146 -16.884275 -12.437043 23.777748 0.984766 2.121226 0.096394 -0.018723 163145.000000 0 1 0
-10.527246 -15.942775 -11.608443 22.355109 0.987204 2.116798 0.082714 -0.022197 97011.000000 0 1 0
-10.233646 -14.550375 -12.296443 21.625064 0.957842 2.175624 0.078220 -0.009671 89099.800000 0 1 0
-11.382546 -13.808875 -12.669143 21.926115 0.881418 2.186840 0.074874 -0.008450 115011.000000 0 1 0
-11.687246 -13.903375 -14.038443 22.955901 0.871782 2.228801 0.091316 -0.010212 69968.100000 0 1 0
-12.976446 -13.190975 -14.530443 23.527085 0.793596 2.236490 0.100429 -0.011485 38336.100000 0 1 0
-12.888546 -11.763275 -14.432343 22.644685 0.739783 2.261837 0.073251 -0.002101 371476.000000 0 1 0
-14.047046 -11.139475 -14.982843 23.364352 0.670465 2.266948 0.102404 -0.020871 315121.000000 0 1 0
-14.103646 -9.629375 -14.784043 22.587731 0.599060 2.284339 0.079665 -0.014893 561547.000000 0 1 0
-13.188546 -9.084175 -15.770743 22.476127 0.603165 2.348530 0.063465 0.024180 687948.000000 0 1 0
-13.050046 -7.664175 -15.629843 21.756269 0.531022 2.372305 0.066117 -0.019936 1043680.000000 0 1 0
-11.604146 -7.078975 -15.345543 20.500092 0.547768 2.416684 0.029512 -0.021080 1317580.000000 0 1 0
-10.614146 -7.197875 -16.372843 20.797583 0.595904 2.477129 0.034201 -0.000511 608391.000000 0 1 0
-9.423746 -6.554775 -15.919343 19.626449 0.607739 2.516855 0.013179 0.003441 -7360.250000 0 1 0
11.907754 22.188925 16.067557 29.871549 1.078258 1.002866 0.131454 -0.020605 -667760.000000 0 0 1
12.917154 22.091125 17.001557 30.723340 1.041687 0.984384 0.125528 -0.022290 -315963.000000 0 0 1
13.419554 20.741125 17.288657 30.152552 0.996531 0.960179 0.100124 -0.013473 155636.000000 0 0 1
14.686754 20.813625 18.137957 31.271285 0.956301 0.952044 0.102679 -0.014967 313728.000000 0 0 1
15.920254 21.263325 17.564157 31.844672 0.928116 0.986566 0.086073 -0.008111 206041.000000 0 0 1
16.932954 21.043425 18.506357 32.741960 0.893216 0.970098 0.085000 -0.013275 -536175.000000 0 0 1
18.307854 21.412525 17.957157 33.408581 0.863403 1.003325 0.056924 -0.000997 -954362.000000 0 0 1
18.731554 22.726625 18.241857 34.642979 0.881465 1.016239 0.058387 0.000793 134829.000000 0 0 1
19.983954 23.124225 17.705157 35.320827 0.858116 1.045734 0.047198 0.000063 1266570.000000 0 0 1
21.283554 22.592425 18.447557 36.107059 0.815220 1.034550 0.051377 -0.000693 424116.000000 0 0 1
21.473954 21.205525 18.215757 35.250799 0.779109 1.027749 0.056045 0.003142 1046610.000000 0 0 1
22.773954 20.817525 18.725257 36.092349 0.740547 1.025332 0.070805 -0.004043 980035.000000 0 0 1
22.893754 19.279725 18.546857 35.211045 0.699913 1.016042 0.071443 -0.008381 34753.500000 0 0 1
23.035954 19.007325 17.135857 34.432125 0.689869 1.049885 0.051990 -0.001055 8249.930000 0 0 1
22.688454 17.666725 16.786557 33.296661 0.661596 1.042397 0.043608 0.000284 -356776.000000 0 0 1
23.608654 16.528725 17.211057 33.567660 0.610802 1.032438 0.060075 -0.007969 -392078.000000 0 0 1
24.924454 16.660225 16.731757 34.332830 0.589222 1.061756 0.083092 -0.023770 -474412.000000 0 0 1
25.657854 15.543925 17.040457 34.500961 0.544685 1.054213 0.072448 -0.023917 -1550350.000000 0 0 1
26.893254 15.443125 16.162657 34.970970 0.521261 1.090352 0.175186 -0.040444 -867394.000000 0 0 1
27.809354 16.499625 16.456957 36.282631 0.535487 1.100022 0.150127 -0.038404 480672.000000 0 0 1
28.865754 16.137825 17.334857 37.338432 0.509776 1.087994 0.159591 -0.050228 -800919.000000 0 0 1
30.131354 15.596825 16.713757 37.822072 0.477650 1.113075 0.159885 -0.057064 -1421580.000000 0 0 1
30.873954 16.598425 16.077557 38.564189 0.493288 1.140760 0.196847 -0.048913 -239975.000000 0 0 1
31.788054 16.104725 15.105857 38.704386 0.468936 1.169852 0.183825 -0.032853 38294.300000 0 0 1
31.303354 15.368725 13.799157 37.503526 0.456390 1.194001 0.149575 -0.041283 -472251.000000 0 0 1
31.268754 16.281725 12.700857 37.471874 0.480072 1.225002 0.152524 -0.034200 42287.100000 0 0 1
30.426454 15.904625 11.634657 36.250400 0.481661 1.244061 0.141548 -0.027087 1077490.000000 0 0 1
28.912954 16.346825 11.755757 35.233159 0.514575 1.230617 0.135883 -0.032843 762472.000000 0 0 1
28.660154 17.793425 11.702457 35.706553 0.555604 1.236886 0.125813 -0.022475 -120571.000000 0 0 1
29.005554 18.490425 12.869657 36.726640 0.567523 1.212779 0.127008 -0.031266 -752506.000000 0 0 1
28.163854 18.462125 14.144257 36.525509 0.580250 1.173157 0.128379 -0.030509 -575639.000000 0 0 1
26.988454 19.237625 14.043557 35.995616 0.619271 1.170006 0.130185 -0.026176 69408.200000 0 0 1
26.304954 19.279625 15.284357 36.017581 0.632485 1.132543 0.111379 -0.026555 1078.230000 0 0 1
26.952354 20.158625 16.416657 37.447379 0.642179 1.116987 0.117567 -0.035039 -118241.000000 0 0 1
27.064554 21.561425 16.263157 38.234480 0.672705 1.131444 0.094247 -0.028085 151307.000000 0 0 1
25.814454 22.172025 16.477757 37.808746 0.709638 1.119849 0.066580 -0.019524 -102584.000000 0 0 1
25.660554 23.661425 16.087057 38.433326 0.744888 1.138926 0.066465 -0.012682 -252857.000000 0 0 1
25.699954 23.940425 14.676257 38.066050 0.749967 1.174996 0.096421 -0.025160 284688.000000 0 0 1
25.751454 25.331725 14.487257 38.919331 0.777182 1.189377 0.094110 -0.030729 -362640.000000 0 0 1
25.364554 25.822925 13.066457 38.482677 0.794353 1.224367 0.097914 -0.033432 543505.000000 0 0 1
23.952254 25.988325 12.869457 37.612850 0.826145 1.221586 0.089540 -0.025342 684919.000000 0 0 1
23.647154 26.006125 11.480857 36.977244 0.832871 1.255094 0.089266 -0.048959 -182260.000000 0 0 1
23.120454 24.707925 10.824557 35.527567 0.818577 1.261193 0.105742 -0.043440 433938.000000 0 0 1
21.765454 24.353025 11.170057 34.519198 0.841446 1.241275 0.099312 -0.037282 858572.000000 0 0 1
21.382454 23.009825 10.680257 33.177241 0.822041 1.243045 0.097098 -0.025762 164005.000000 0 0 1
21.379554 22.783025 9.133757 32.551146 0.817167 1.286380 0.114601 -0.024632 594838.000000 0 0 1
20.161854 23.264025 8.502557 31.937575 0.856713 1.301323 0.122538 -0.025755 1037450.000000 0 0 1
20.321454 23.504125 7.135857 31.879866 0.857892 1.345048 0.111414 -0.033386 822696.000000 0 0 1
18.933454 23.552325 6.389057 30.887016 0.893689 1.362440 0.100497 -0.032404 294551.000000 0 0 1
18.457354 22.325025 5.815657 29.544924 0.879952 1.372661 0.112947 -0.018804 634635.000000 0 0 1
17.771754 22.370725 4.544157 28.929811 0.899467 1.413068 0.122141 -0.030014 138724.000000 0 0 1
16.392454 23.054425 4.481957 28.641003 0.952704 1.413663 0.077165 -0.008105 -278389.000000 0 0 1
16.536054 24.501325 4.491157 29.898604 0.977112 1.420013 0.073786 -0.013910 45991.700000 0 0 1
15.550854 25.111625 5.303657 30.009192 1.016329 1.393129 0.057315 -0.020806 -66757.500000 0 0 1
15.408954 26.670125 5.121057 31.224296 1.046890 1.406043 0.045620 -0.026195 -372954.000000 0 0 1
14.856354 26.979825 3.856257 31.040183 1.067457 1.446240 0.045294 -0.020744 334067.000000 0 0 1
14.782054 28.370125 3.683057 32.201522 1.090456 1.456170 0.046105 -0.022192 -77553.300000 0 0 1
13.892554 28.720625 2.420057 31.995844 1.120263 1.495087 0.057422 -0.023932 -55117.400000 0 0 1
14.413154 28.338225 1.155357 31.813973 1.100283 1.534472 0.078835 -0.028416 -88709.700000 0 0 1
14.091454 27.031925 0.755757 30.493692 1.090263 1.546010 0.058980 -0.020864 350445.000000 0 0 1
15.111754 26.421725 -0.293243 30.439426 1.051262 1.580430 0.059031 -0.021529 605913.000000 0 0 1
15.160854 27.123025 -1.503843 31.109027 1.061095 1.619156 0.063872 -0.012380 -136624.000000 0 0 1
16.264954 26.618125 -2.232743 31.273926 1.022293 1.642250 0.073605 -0.007500 164619.000000 0 0 1
16.469654 27.268725 -3.623143 32.061816 1.027458 1.684043 0.085730 -0.020154 352863.000000 0 0 1
15.522854 26.711825 -4.549643 31.227870 1.044373 1.717008 0.095936 -0.021729 250711.000000 0 0 1
15.676854 27.342625 -5.771743 32.042096 1.050204 1.751915 0.097112 -0.019884 90564.700000 0 0 1
14.448154 27.134025 -6.664843 31.455121 1.081509 1.784299 0.112827 -0.033836 151597.000000 0 0 1
14.289254 25.797025 -7.083343 30.328914 1.064955 1.806524 0.086865 -0.025372 -185648.000000 0 0 1
13.010154 25.753125 -7.676943 29.856708 1.103007 1.830844 0.066289 -0.037341 282785.000000 0 0 1
12.536054 24.319325 -8.048843 28.519574 1.094844 1.856905 0.078853 -0.023837 204339.000000 0 0 1
13.212354 23.841025 -9.193843 28.766083 1.064745 1.896111 0.076976 -0.028406 535850.000000 0 0 1
12.395854 22.785725 -9.699043 27.693283 1.072557 1.928614 0.085216 -0.013987 682739.000000 0 0 1
12.944254 22.235225 -11.077643 28.012018 1.043605 1.977365 0.085620 -0.016195 579777.000000 0 0 1
11.967554 21.300725 -11.547543 27.023860 1.058910 2.012311 0.087785 -0.014723 281342.000000 0 0 1
12.157454 20.870225 -12.858143 27.362416 1.043324 2.059996 0.085575 -0.017940 -625111.000000 0 0 1
13.335054 19.929525 -13.176943 27.361313 0.981104 2.073265 0.116733 -0.008785 349080.000000 0 0 1
14.613454 20.525825 -13.011843 28.357902 0.952092 2.047490 0.096354 -0.012093 -438570.000000 0 0 1
15.577754 19.846425 -13.764943 28.740575 0.905322 2.070240 0.072087 -0.012361 177308.000000 0 0 1
16.978354 20.520925 -13.670843 29.937682 0.879589 2.045015 0.096620 -0.011374 128834.000000 0 0 1
17.088054 21.691625 -14.491343 31.185369 0.903556 2.054074 0.090705 -0.014352 108939.000000 0 0 1
16.204954 22.786825 -14.243743 31.380315 0.952623 2.041941 0.080212 -0.006652 -54866.600000 0 0 1
16.802854 24.173825 -14.610643 32.866101 0.963377 2.031469 0.086525 -0.009642 195261.000000 0 0 1
17.119454 24.485025 -15.987843 33.885148 0.960621 2.062155 0.069089 -0.010742 -225491.000000 0 0 1
16.007954 24.436925 -16.856343 33.727647 0.990864 2.094139 0.050562 -0.004132 -108741.000000 0 0 1
16.350254 24.412725 -18.382243 34.658604 0.980667 2.129845 0.036126 0.007568 2476.750000 0 0 1
16.659454 23.106625 -18.864043 34.165855 0.946127 2.155715 0.037774 0.013371 -73002.800000 0 0 1
16.760654 23.128225 -20.296643 35.039806 0.943695 2.188599 0.030454 0.012842 42925.900000 0 0 1
17.255254 21.776625 -20.896543 34.765366 0.900722 2.215640 0.045585 0.009799 -291257.000000 0 0 1
16.218954 20.845925 -20.878943 33.668046 0.909590 2.239719 0.059153 0.009047 -457835.000000 0 0 1
16.532154 19.590125 -21.479643 33.443388 0.869853 2.268251 0.063731 -0.000109 -449350.000000 0 0 1
15.442754 18.537125 -21.438743 32.275739 0.876212 2.297269 0.062673 -0.006922 -1074920.000000 0 0 1
15.211554 17.903725 -20.182443 30.972016 0.866517 2.280534 0.062890 -0.007246 204783.000000 0 0 1
14.330654 16.805125 -20.386543 30.056464 0.864705 2.316209 0.058684 -0.010026 844895.000000 0 0 1
12.810854 17.070725 -20.612843 29.671820 0.927002 2.338791 0.067090 -0.011547 -170905.000000 0 0 1
11.947654 17.153925 -19.490643 28.581266 0.962425 2.321205 0.068535 -0.009127 14221.800000 0 0 1
10.652654 17.428625 -19.993343 28.582683 1.022171 2.345482 0.073679 -0.009858 607158.000000 0 0 1
9.450554 16.895725 -19.146843 27.228296 1.060806 2.350680 0.082404 -0.014765 187875.000000 0 0 1
9.424854 15.473225 -19.052643 26.291667 1.023707 2.381344 0.099152 -0.027243 1259930.000000 0 0 1
8.194254 14.945325 -18.425143 25.099690 1.069273 2.395105 0.111929 -0.028975 1661640.000000 0 0 1
8.017154 15.207025 -16.901143 24.107613 1.085626 2.347694 0.109601 -0.032428 -22415.400000 0 1 0
7.752654 16.565025 -16.693743 24.762568 1.133064 2.310613 0.102700 -0.024629 -442294.000000 0 1 0
7.143454 16.771125 -15.453343 23.897811 1.168132 2.273971 0.099432 -0.031132 -33152.900000 0 1 0
6.569954 18.167125 -15.085443 24.510800 1.223790 2.233767 0.096878 -0.022670 149132.000000 0 1 0
7.526154 19.183525 -14.789843 25.365135 1.196925 2.193308 0.077514 -0.022725 232588.000000 0 0 1
8.088754 19.806725 -15.995743 26.713257 1.183083 2.212791 0.097085 -0.010667 41913.700000 0 0 1
9.273554 20.754625 -15.723443 27.640187 1.150591 2.175917 0.066180 0.001521 -185047.000000 0 0 1
9.056754 21.902725 -14.938943 28.016534 1.178707 2.133197 0.071868 -0.005179 -193688.000000 0 0 1
8.871154 21.682025 -13.527843 27.051989 1.182429 2.094474 0.058002 -0.012476 -681066.000000 0 0 1
8.665354 22.968525 -12.632543 27.608380 1.210036 2.046048 0.075038 -0.019142 274973.000000 0 0 1
7.449354 23.599025 -13.080843 27.991344 1.265032 2.057050 0.073644 -0.018877 683161.000000 0 0 1
6.843654 24.555425 -12.181243 28.252207 1.298991 2.016575 0.054290 -0.019533 775095.000000 0 0 1
6.108554 23.890125 -10.945543 26.978833 1.320466 1.988550 0.043164 -0.023879 -338837.000000 0 0 1
7.072054 23.673525 -9.912943 26.621724 1.280503 1.952350 0.038153 -0.019076 287077.000000 0 0 1
6.661454 22.895725 -8.843943 25.432352 1.287665 1.925960 0.059636 -0.034109 404844.000000 0 0 1
7.833054 22.958525 -7.798243 25.480644 1.241998 1.881833 0.055067 -0.031020 653270.000000 0 0 1
7.787454 24.171325 -7.079543 26.363181 1.259119 1.842672 0.052983 -0.030560 334656.000000 0 0 1
8.726854 24.120025 -6.009643 26.344817 1.223640 1.800937 0.061082 -0.029641 123718.000000 0 0 1
8.913054 25.376325 -5.235543 27.400937 1.233022 1.763050 0.050647 -0.021425 29480.500000 0 0 1
9.514754 26.280425 -6.160843 28.620749 1.223430 1.787752 0.058621 -0.027343 161940.000000 0 0 1
9.684454 27.583725 -5.565943 29.759541 1.233148 1.758935 0.063495 -0.026234 141518.000000 0 0 1
9.936154 28.755225 -6.539443 31.118394 1.238098 1.782522 0.067490 -0.024546 -364380.000000 0 0 1
11.185554 28.877625 -7.137643 31.780179 1.201248 1.797323 0.076656 -0.027004 -676033.000000 0 0 1
11.336554 30.090725 -7.768043 33.080382 1.210496 1.807833 0.072136 -0.025692 41845.700000 0 0 1
12.672054 30.197925 -8.525543 33.840516 1.173480 1.825473 0.096726 -0.033188 1285420.000000 0 0 1
13.861554 30.400325 -7.691843 34.285375 1.142991 1.797070 0.095235 -0.028945 705439.000000 0 0 1
14.912154 30.829425 -8.541343 35.295614 1.120275 1.815217 0.095617 -0.025634 -16025.700000 0 0 1
16.161754 31.148125 -7.709143 35.928246 1.092169 1.787048 0.093822 -0.028371 402869.000000 0 0 1
17.106854 30.097025 -7.377243 35.396315 1.053944 1.780754 0.080858 -0.018406 280075.000000 0 0 1
18.162354 30.649125 -6.635843 36.239128 1.035843 1.754948 0.079034 -0.014003 257694.000000 0 0 1
19.308854 29.641025 -6.311443 35.934058 0.993421 1.747352 0.071950 -0.013032 248264.000000 0 0 1
18.928554 28.726425 -5.331143 34.812624 0.988173 1.724539 0.081102 -0.012930 512388.000000 0 0 1
20.018454 27.834325 -5.025143 34.651699 0.947300 1.716328 0.069914 -0.009553 404239.000000 0 0 1
20.137454 26.543925 -5.793843 33.818126 0.921784 1.742969 0.065211 -0.008066 -56283.600000 0 0 1
20.498654 26.791425 -7.152043 34.483721 0.917688 1.779716 0.059989 -0.005283 241725.000000 0 0 1
20.506954 25.656825 -7.975443 33.799638 0.896495 1.809005 0.061505 -0.009137 -760771.000000 0 0 1
21.080954 25.993425 -9.389643 34.759606 0.889377 1.844325 0.060735 -0.003707 90602.600000 0 0 1
22.477354 26.098525 -9.552643 35.743775 0.859807 1.841338 0.067095 -0.000715 523814.000000 0 0 1
23.232954 24.864925 -9.384843 35.300283 0.819315 1.839890 0.076836 -0.000213 -1257430.000000 0 0 1
24.721854 25.017525 -9.282543 36.375985 0.791342 1.828834 0.030003 0.009564 -1203290.000000 0 0 1
25.336954 25.053325 -10.539543 37.157938 0.779770 1.858386 0.040044 0.007684 -26058.500000 0 0 1
26.743254 25.147025 -10.381743 38.149117 0.754646 1.846408 0.039037 0.017961 401418.000000 0 0 1
27.558254 25.168525 -11.684043 39.107914 0.740106 1.874194 0.030022 0.017687 -57026.200000 0 0 1
27.675754 26.440825 -12.275143 40.196315 0.762582 1.881134 0.037261 0.018458 270895.000000 0 0 1
28.690654 26.574925 -13.282743 41.301472 0.747134 1.898220 0.044611 0.015669 494422.000000 0 0 1
28.344254 27.569125 -14.475243 42.106841 0.771536 1.921729 0.054250 0.011727 -637.785000 0 0 1
28.618854 28.931425 -14.196043 43.099812 0.790829 1.906439 0.056405 0.015798 134997.000000 0 0 1
28.414254 29.734625 -15.335343 43.894083 0.808101 1.927697 0.061125 0.012944 -227999.000000 0 0 1
28.737354 31.207425 -14.984443 44.991915 0.826581 1.910330 0.074101 0.000864 668199.000000 0 0 1
30.062654 31.462125 -14.494443 45.866299 0.808141 1.892323 0.064804 -0.001268 625529.000000 0 0 1
30.347954 32.850125 -14.658843 47.063900 0.824970 1.887533 0.059428 -0.015753 -59598.400000 0 0 1
16.524954 -32.176120 -28.405679 45.991949 -1.096345 2.236513 0.089100 -0.030031 -98581.500000 0 0 1
17.516454 -32.905720 -27.727299 46.458752 -1.081626 2.210323 0.071856 -0.026032 -54678.600000 0 0 1
17.729754 -32.402520 -26.423609 45.414475 -1.070127 2.191776 0.090210 -0.032990 -520137.000000 0 0 1
18.998254 -32.929820 -25.740529 45.911671 -1.047512 2.165971 0.033275 -0.020813 648044.000000 0 0 1
20.311754 -32.562820 -26.163289 46.448060 -1.013081 2.169147 0.061877 -0.026967 883087.000000 0 0 1
20.743854 -32.973620 -27.446729 47.653856 -1.009251 2.184575 0.065028 -0.019972 -359247.000000 0 0 1
22.219754 -32.556120 -27.674839 48.161345 -0.971908 2.182945 0.077421 -0.022724 96319.700000 0 0 1
22.469454 -31.196820 -27.980039 47.549979 -0.946610 2.199917 0.082365 -0.026804 733672.000000 0 0 1
23.859054 -30.896320 -27.806849 47.927632 -0.913219 2.189751 0.049389 -0.014322 463991.000000 0 0 1
24.423554 -29.652020 -28.463689 47.811441 -0.881787 2.208475 0.039250 -0.009778 -230554.000000 0 0 1
24.874154 -29.957820 -29.736439 48.994391 -0.877847 2.222995 0.038549 -0.014173 -57906.500000 0 0 1
25.566954 -28.812420 -30.240909 48.972822 -0.845009 2.236362 0.036241 -0.019465 161676.000000 0 0 1
25.868854 -28.872820 -31.755739 50.112516 -0.840218 2.257109 0.043711 -0.022840 -49539.800000 0 0 1
26.805154 -29.841320 -32.117979 51.386625 -0.838945 2.245961 0.047152 -0.028559 -421071.000000 0 0 1
26.803654 -30.043820 -33.526499 52.393636 -0.842334 2.265160 0.046453 -0.032009 81196.000000 0 0 1
28.062354 -30.770720 33.768953 53.615997 -0.831400 0.889462 0.037630 -0.031644 1511260.000000 0 0 1
29.280254 -30.023320 -33.787349 53.854600 -0.797927 2.248982 0.046321 -0.033873 1389730.000000 0 0 1
30.513054 -30.736420 33.871037 54.982008 -0.789045 0.907093 0.042497 -0.026689 410915.000000 0 0 1
31.741154 -29.865520 33.895657 55.212007 -0.754962 0.909782 0.048294 -0.035506 -563214.000000 0 0 1
31.820654 -28.936120 32.825146 54.104928 -0.737957 0.918901 0.055803 -0.030977 294833.000000 0 0 1
33.125454 -28.385220 32.684622 54.509641 -0.708487 0.927780 0.058217 -0.030376 345340.000000 0 0 1
33.253154 -27.385220 31.454187 53.339371 -0.688929 0.940110 0.049580 -0.027887 1069400.000000 0 0 1
34.562154 -26.770220 31.245037 53.734901 -0.659031 0.950266 0.037624 -0.024288 1442720.000000 0 0 1
34.425054 -25.777620 30.252817 52.581394 -0.642735 0.957762 0.035559 -0.022096 -421151.000000 0 0 1
35.217054 -25.989420 28.961007 52.482672 -0.635763 0.986251 0.036751 -0.010733 -198502.000000 0 0 1
34.811754 -27.060120 28.066527 52.266990 -0.660762 1.003939 0.043620 -0.013600 -245187.000000 0 0 1
33.620754 -26.816020 27.393517 50.988811 -0.673278 1.003628 0.038924 -0.014773 -773486.000000 0 0 1
33.158054 -28.008520 26.507947 50.858677 -0.701408 1.022531 0.016542 -0.008132 154585.000000 0 0 1
31.802254 -27.731320 26.191177 49.662735 -0.717124 1.015281 0.021615 0.001344 342973.000000 0 0 1
31.231554 -28.806020 25.450227 49.526870 -0.745020 1.031110 0.029142 0.005694 362292.000000 0 0 1
29.886654 -28.458820 24.731517 48.111999 -0.760931 1.030908 0.026794 0.004573 209566.000000 0 0 1
28.832554 -28.324120 25.643567 47.866110 -0.776503 1.005418 0.039336 0.002520 -1433570.000000 0 0 1
27.696854 -27.948320 24.992747 46.613965 -0.789917 1.004910 0.057712 0.004679 -602964.000000 0 0 1
26.408354 -27.923020 25.859147 46.322691 -0.813269 0.978534 0.078659 -0.002110 261043.000000 0 0 1
26.238054 -26.792820 26.669747 46.017020 -0.795859 0.952604 0.085434 -0.016716 -217837.000000 0 0 1
25.066354 -26.825320 27.439197 45.834806 -0.819282 0.928976 0.110150 -0.027780 -257947.000000 0 0 1
24.762554 -25.454520 28.002977 45.224810 -0.799177 0.903079 0.110399 -0.026199 55293.500000 0 0 1
23.564454 -25.444220 28.781617 45.067431 -0.823735 0.878074 0.124814 -0.021753 571307.000000 0 0 1
23.621054 -24.351020 29.749427 45.121556 -0.800613 0.850886 0.118410 -0.018933 -176843.000000 0 0 1
23.199054 -22.921320 29.283997 43.830760 -0.779376 0.839124 0.114163 -0.014524 -443282.000000 0 0 1
24.102954 -22.355120 28.362777 43.418325 -0.747794 0.858935 0.117916 -0.018316 133221.000000 0 0 1
23.845654 -20.987520 28.035507 42.368395 -0.721734 0.847702 0.121179 -0.012156 -3628.850000 0 0 1
24.473854 -19.886620 28.974447 42.824827 -0.682356 0.827687 0.110278 -0.011019 49250.600000 0 0 1
23.942154 -19.793220 30.305867 43.398663 -0.690817 0.797758 0.128689 -0.012099 56497.500000 0 0 1
24.581754 -18.829520 31.093497 43.881876 -0.653660 0.783323 0.100193 -0.015454 -341533.000000 0 0 1
23.901854 -18.633820 32.437614 44.392755 -0.662176 0.751455 0.120279 -0.016055 -89878.700000 0 0 1
24.065354 -19.670620 33.383091 45.612557 -0.685251 0.749714 0.094858 -0.007661 87532.200000 0 0 1
23.500254 -19.209820 -33.241019 45.013825 -0.685279 2.401584 0.107877 -0.010573 -66105.300000 0 0 1
23.440254 -20.395120 -32.176659 44.729675 -0.716042 2.373674 0.079239 -0.001650 -467313.000000 0 0 1
24.674654 -20.797220 -31.678069 45.220161 -0.700333 2.346936 0.062795 0.005486 -744311.000000 0 0 1
24.556254 -21.848720 -30.731799 44.997996 -0.727118 2.322603 0.071171 -0.000968 232750.000000 0 0 1
25.820754 -22.308220 -29.943679 45.398149 -0.712546 2.291055 0.064500 0.004115 75370.900000 0 0 1
26.737754 -23.047920 -30.697169 46.780661 -0.711419 2.286560 0.055517 0.002064 -924452.000000 0 0 1
27.747254 -23.454020 -29.838409 47.014166 -0.701744 2.258376 0.057139 -0.009767 175833.000000 0 0 1
29.007754 -24.090720 -30.566649 48.540010 -0.693059 2.251990 0.055349 -0.011420 1000130.000000 0 0 1
29.912354 -23.187820 -31.239429 49.074696 -0.659430 2.260838 0.050751 -0.006902 568095.000000 0 0 1
29.676254 -23.113620 -32.659019 49.814968 -0.661717 2.285782 0.045250 -0.006323 149961.000000 0 0 1
30.063254 -24.413720 -33.455279 51.176993 -0.682063 2.283282 0.039554 -0.013098 -312737.000000 0 0 1
29.096154 -25.380320 -33.205039 50.924664 -0.717294 2.281071 0.043778 -0.024318 -238494.000000 0 0 1
29.385254 -26.635220 -33.830599 52.129047 -0.736348 2.277037 0.050113 -0.030109 -56494.000000 0 0 1
29.153754 -26.686020 32.434986 51.128401 -0.741234 0.883586 0.046914 -0.031361 -269029.000000 0 0 1
30.042254 -25.943120 31.648307 50.766110 -0.712311 0.897695 0.021816 -0.030579 -162318.000000 0 0 1
29.840354 -26.078120 30.249287 49.855135 -0.718219 0.918839 0.025882 -0.026532 96577.500000 0 0 1
30.843154 -25.212520 29.388057 49.503831 -0.685287 0.935207 0.032006 -0.028526 -19644.700000 0 0 1
30.718654 -23.788420 29.418827 48.733890 -0.658933 0.922709 0.025939 -0.026026 90647.800000 0 0 1
30.987654 -23.077720 30.666557 49.328021 -0.640126 0.899902 0.026553 -0.015199 -1380400.000000 0 0 1
31.560554 -21.661520 30.402077 48.883293 -0.601505 0.899589 0.024408 -0.016014 461279.000000 0 0 1
32.885054 -21.552220 29.917387 49.406225 -0.580148 0.920354 0.027714 -0.017712 742648.000000 0 0 1
33.906754 -22.174220 30.701847 50.832740 -0.579166 0.922314 0.022736 -0.016203 -15330.000000 0 0 1
35.404654 -21.809120 30.432287 51.529131 -0.552098 0.939014 0.018097 -0.023119 696290.000000 0 0 1
35.745554 -22.180520 29.118497 51.162555 -0.555365 0.965341 0.031311 -0.024642 -180278.000000 0 0 1
37.097454 -21.861320 28.914797 51.867176 -0.532510 0.979452 0.030308 -0.028770 -215247.000000 0 0 1
-37.234354 -22.037720 27.481117 51.256902 0.534417 1.004933 0.056780 -0.024090 -177889.000000 0 0 1
-36.990454 -23.417520 27.209317 51.546298 0.564381 1.014715 0.043945 -0.018141 185895.000000 0 0 1
-36.692754 -23.629720 25.820387 50.709114 0.572138 1.036557 0.048388 -0.009352 -162301.000000 0 0 1
-36.563554 -25.113320 25.485957 51.157661 0.601839 1.049293 0.041548 -0.022543 853903.000000 0 0 1
37.038554 -25.803020 25.656017 51.921880 -0.608476 1.053966 0.049233 -0.022785 946912.000000 0 0 1
36.970154 -27.236520 25.445297 52.498414 -0.634945 1.064791 0.049326 -0.019099 -77110.100000 0 0 1
-36.865054 -28.047720 26.281667 53.258171 0.650391 1.054714 0.049226 -0.025070 -874862.000000 0 0 1
-36.666854 -29.371520 25.731537 53.565440 0.675373 1.069713 0.054915 -0.021595 470637.000000 0 0 1
-35.602554 -29.971420 26.470637 53.539915 0.699734 1.053641 0.063413 -0.030563 679159.000000 0 0 1
-34.171554 -29.432820 26.195877 52.155632 0.711032 1.044582 0.064468 -0.028941 -1140130.000000 0 0 1
-33.683654 -29.627620 24.910517 51.311970 0.721421 1.063894 0.065644 -0.029683 -797229.000000 0 0 1
-32.480954 -28.944320 24.793307 50.074885 0.727885 1.052818 0.047232 -0.027196 -570959.000000 0 0 1
-31.952054 -29.080420 23.341207 49.106176 0.738382 1.075467 0.049632 -0.023232 -236954.000000 0 0 1
-31.533554 -30.409820 22.980647 49.469509 0.767259 1.087679 0.063213 -0.028995 475424.000000 0 0 1
-31.290154 -30.405920 21.595557 48.682253 0.771067 1.111182 0.049269 -0.016973 -987926.000000 0 0 1
-31.424254 -31.765120 20.912757 49.334065 0.790792 1.133048 0.063085 -0.017120 256961.000000 0 0 1
-30.414054 -32.769020 21.181457 49.471987 0.822653 1.128351 0.089451 -0.033130 1474700.000000 0 0 1
-29.111454 -32.342720 20.712857 48.192849 0.837930 1.126535 0.098533 -0.029322 239000.000000 0 0 1
-28.024654 -33.421020 20.653957 48.259007 0.872997 1.128538 0.094694 -0.025116 -156847.000000 0 0 1
-28.203954 33.385025 19.610057 47.901746 -0.869324 1.149021 0.087080 -0.023246 307422.000000 0 0 1
-29.276854 32.479725 19.872757 48.031169 -0.837215 1.144230 0.090941 -0.023767 220395.000000 0 0 1
-29.043854 31.434825 20.999457 47.672538 -0.824912 1.114648 0.092099 -0.019708 84949.700000 0 0 1
-28.173454 30.364325 20.658557 46.287274 -0.822807 1.108157 0.072073 -0.017241 102265.000000 0 0 1
-27.926554 29.394925 21.672457 45.974443 -0.811009 1.079916 0.063477 -0.018127 -290450.000000 0 0 1
-27.002854 28.208625 21.366157 44.512845 -0.807234 1.070142 0.043367 -0.010786 -936759.000000 0 0 1
-25.697454 28.634425 21.167757 43.913135 -0.839402 1.067818 0.049622 -0.005344 -999879.000000 0 0 1
-24.909554 27.646425 20.623357 42.545665 -0.837427 1.064737 0.035674 -0.008023 -233173.000000 0 0 1
-23.389754 27.876425 20.818157 41.923399 -0.872693 1.051147 0.028673 -0.004551 -97868.000000 0 0 1
-23.033654 27.617125 22.188257 42.256048 -0.875644 1.017975 0.038287 -0.007908 167765.000000 0 0 1
-21.759654 28.140525 22.461757 42.070206 -0.912581 1.007577 0.058836 -0.020422 -293027.000000 0 0 1
-21.301054 28.191525 23.934197 42.677193 -0.923731 0.975421 0.053537 -0.016156 -752400.000000 0 0 1
-21.035654 26.911525 24.468577 42.017142 -0.907339 0.949183 0.069336 -0.025608 423621.000000 0 0 1
-20.686154 27.085225 25.868957 42.787023 -0.918557 0.921535 0.075122 -0.023832 -47009.900000 0 0 1
-19.213454 27.421725 26.175957 42.500454 -0.959624 0.907271 0.095917 -0.027428 -542078.000000 0 0 1
-18.911854 28.828425 25.923077 43.136322 -0.990205 0.926098 0.055722 -0.020957 598614.000000 0 0 1
-17.542954 29.157025 26.180797 42.933920 -1.029149 0.914997 0.062599 -0.011795 566864.000000 0 0 1
-17.318854 29.839425 27.550317 44.151489 -1.044912 0.896951 0.048199 -0.008591 -310889.000000 0 0 1
-17.333554 28.798125 28.541817 44.095572 -1.028982 0.866797 0.068906 -0.014316 255071.000000 0 0 1
-17.275754 29.220025 29.871437 45.216859 -1.036850 0.849144 0.054058 -0.009189 -453071.000000 0 0 1
-17.237254 28.099725 30.895237 45.180009 -1.020559 0.817804 0.057502 -0.002257 872851.000000 0 0 1
-15.896054 27.556025 30.955027 44.387304 -1.047563 0.799054 0.060546 -0.002617 1168840.000000 0 0 1
-15.620454 26.472825 31.874952 44.281166 -1.037721 0.767238 0.080527 -0.008005 -365190.000000 0 0 1
-16.154954 26.498725 33.316961 45.532240 -1.023311 0.749951 0.065406 -0.013668 233270.000000 0 0 1
-17.540854 26.196625 33.431761 45.952447 -0.980776 0.756082 0.054206 -0.021001 157979.000000 0 0 1
-18.121754 26.932925 -33.343539 46.535707 -0.978527 2.369590 0.060264 -0.021583 641992.000000 0 0 1
-19.470554 26.340325 -32.791049 46.348334 -0.934248 2.356739 0.047028 -0.022149 1118180.000000 0 0 1
-20.480654 26.431225 -33.821199 47.559861 -0.911570 2.361899 0.040165 -0.016469 111639.000000 0 0 1
-21.747554 26.159525 -33.274539 47.586466 -0.877233 2.345135 0.068210 -0.019400 371061.000000 0 0 1
-22.931254 26.074625 33.514177 48.258974 -0.849453 0.803120 0.078413 -0.030009 287516.000000 0 0 1
-22.974154 25.077725 32.560810 47.084078 -0.829147 0.807169 0.086175 -0.023145 -60931.900000 0 0 1
-22.979454 23.721325 33.013181 46.697181 -0.801282 0.785601 0.081394 -0.023639 -147873.000000 0 0 1
-23.050054 22.742925 31.922430 45.470729 -0.778691 0.792533 0.085817 -0.021259 179328.000000 0 0 1
-24.390254 22.631325 31.470717 45.798116 -0.748009 0.813221 0.087967 -0.021411 115850.000000 0 0 1
-24.482154 22.022425 30.169277 44.660367 -0.732555 0.829117 0.108565 -0.025714 450432.000000 0 0 1
-25.956454 21.793725 29.720487 45.077836 -0.698441 0.850889 0.099826 -0.017656 615638.000000 0 0 1
-26.571154 20.742725 30.443447 45.421255 -0.662829 0.836255 0.105205 -0.027590 459724.000000 0 0 1
-27.890254 20.462425 29.983677 45.777702 -0.632972 0.856634 0.087584 -0.021559 494081.000000 0 0 1
-28.589054 19.155225 30.453917 45.953213 -0.590320 0.846357 0.105866 -0.023738 -69934.400000 0 0 1
-29.123754 19.151125 31.778467 47.168100 -0.581684 0.831554 0.085023 -0.017020 129107.000000 0 0 1
-29.385254 17.899625 32.353405 47.229573 -0.547110 0.816159 0.074949 -0.008824 502822.000000 0 0 1
-30.352654 16.801625 31.677887 46.979429 -0.505562 0.830790 0.050751 -0.006082 1417320.000000 0 0 1
-31.749954 17.131225 31.707617 48.030318 -0.494798 0.849767 0.053314 -0.008815 930728.000000 0 0 1
-32.618454 16.128225 31.187437 47.924309 -0.459199 0.862205 0.058146 0.004913 689413.000000 0 0 1
-34.113454 16.559525 31.203117 49.107842 -0.451920 0.882270 0.044253 0.006284 69268.200000 0 0 1
-34.617354 16.674025 32.493219 50.320906 -0.448874 0.868830 0.044253 0.004998 -265273.000000 0 0 1
-36.019454 16.632725 32.510994 51.293405 -0.432599 0.884309 0.060694 -0.001440 -404874.000000 0 0 1
-36.468854 16.916025 -33.881849 52.574793 -0.434311 2.271101 0.055461 0.002217 -521370.000000 0 0 1
37.009954 16.986525 -33.806049 52.925681 0.430290 2.263663 0.063209 -0.006074 -525890.000000 0 0 1
36.724754 17.441325 -32.470079 52.030889 0.443383 2.244716 0.060574 -0.012133 -292698.000000 0 0 1
35.244254 17.611425 -32.146399 50.849884 0.463405 2.255163 0.080025 -0.021613 -701695.000000 0 0 1
34.573654 16.432325 -32.023229 49.908377 0.443681 2.267431 0.087368 -0.025302 -272518.000000 0 0 1
33.274954 16.642525 -31.492749 48.744122 0.463769 2.273238 0.084927 -0.032576 -192601.000000 0 0 1
32.384854 15.410925 -31.576059 47.784128 0.444157 2.292689 0.080125 -0.036331 -293285.000000 0 0 1
32.080654 15.136425 -32.914169 48.390312 0.440854 2.318806 0.087273 -0.036205 225292.000000 0 0 1
31.230554 13.986125 -33.145479 47.640130 0.421052 2.340256 0.084474 -0.035565 651096.000000 0 0 1
31.962954 12.627325 -33.587679 48.054261 0.376242 2.344729 0.072849 -0.028500 10138.700000 0 0 1
32.700854 12.042525 -32.575869 47.702783 0.352851 2.322511 0.071509 -0.024367 -49106.300000 0 0 1
33.420254 10.931125 -33.120019 48.304643 0.316113 2.326291 0.071504 -0.021615 77708.800000 0 0 1
17.686954 -20.972875 9.953791 29.185061 -0.870190 1.222754 0.027600 -0.023438 -7842.680000 0 0 1
17.655654 -22.266475 10.541591 30.309127 -0.900384 1.215570 0.027739 -0.023459 513417.000000 0 0 1
18.967654 -22.782575 10.758791 31.536792 -0.876520 1.222656 0.024028 -0.026753 191146.000000 0 0 1
18.873654 -24.183475 11.483991 32.755722 -0.908099 1.212590 0.033104 -0.029770 201531.000000 0 0 1
18.113454 -25.171165 10.757391 32.823867 -0.947029 1.236896 0.031614 -0.029301 890890.000000 0 0 1
16.760554 -25.204455 11.242691 32.288989 -0.983960 1.215157 0.034586 -0.027933 326639.000000 0 0 1
15.845054 -26.129165 10.444791 32.293849 -1.025675 1.241445 0.057727 -0.022989 -223304.000000 0 0 1
15.754554 -25.585685 9.167291 31.414527 -1.018872 1.274670 0.064277 -0.029247 361466.000000 0 0 1
14.850654 -26.351225 8.365091 31.383176 -1.057597 1.300988 0.073190 -0.023723 151369.000000 0 0 1
14.709354 -25.797575 6.986691 30.507275 -1.052589 1.339728 0.082779 -0.026949 -447063.000000 0 0 1
13.857854 -24.703875 6.964891 29.169012 -1.059578 1.329690 0.087956 -0.035436 -178841.000000 0 0 1
13.489954 -24.326875 5.632991 28.381443 -1.064483 1.370995 0.092235 -0.017697 112738.000000 0 0 1
12.770054 -22.972175 5.641091 26.881537 -1.063441 1.359375 0.103606 -0.018786 344308.000000 0 0 1
11.988254 -22.646575 4.469291 26.010770 -1.083935 1.398115 0.099743 -0.015973 339797.000000 0 0 1
11.213054 -21.504575 4.737891 24.710867 -1.090155 1.377869 0.102105 -0.020421 44355.100000 0 1 0
10.530954 -20.886275 3.483791 23.648980 -1.103791 1.422946 0.092776 -0.015496 -532823.000000 0 1 0
11.350454 -20.100675 2.740691 23.246104 -1.056752 1.452623 0.081607 -0.015715 -415565.000000 0 1 0
10.575454 -19.444075 1.745491 22.202681 -1.072656 1.492099 0.065205 -0.006917 291504.000000 0 1 0
11.489354 -19.033075 0.585191 22.239731 -1.027696 1.544480 0.062378 -0.002799 -8277.040000 0 1 0
12.111754 -17.820975 0.866891 21.564629 -0.973869 1.530586 0.058654 -0.005869 -87696.800000 0 1 0
12.937754 -17.407175 -0.245509 21.689986 -0.931634 1.582116 0.076476 -0.014070 -98360.200000 0 1 0
14.187254 -16.666775 0.236491 21.888707 -0.865589 1.559992 0.073152 0.000959 -1021800.000000 0 1 0
15.122254 -17.512975 0.775191 23.151410 -0.858523 1.537307 0.072606 -0.007514 58994.700000 0 1 0
16.409854 -16.866375 0.620291 23.540235 -0.799116 1.544443 0.070826 -0.013727 777422.000000 0 1 0
17.567354 -17.549375 1.356691 24.868315 -0.784886 1.516214 0.053537 -0.007559 -218527.000000 0 1 0
17.975254 -18.762375 0.768291 25.994745 -0.806820 1.541236 0.052743 -0.018112 671309.000000 0 0 1
19.306254 -19.160275 1.127091 27.223481 -0.781603 1.529383 0.042693 -0.012470 865645.000000 0 0 1
19.627254 -20.423875 0.370791 28.328453 -0.805286 1.557707 0.030371 -0.010113 51286.100000 0 0 1
18.899054 -21.542975 0.862591 28.670858 -0.850681 1.540706 0.041797 -0.005637 48792.200000 0 0 1
18.639054 -22.527875 -0.067909 29.239085 -0.879583 1.573119 0.038081 -0.010563 -533133.000000 0 0 1
17.610654 -23.448475 0.570091 29.330720 -0.926632 1.551358 0.045757 -0.012990 -457693.000000 0 0 1
18.003054 -24.188675 1.713491 30.201623 -0.930969 1.514031 0.040073 -0.008054 453869.000000 0 0 1
16.915054 -24.987595 2.221291 30.256125 -0.975716 1.497314 0.053242 -0.007863 378709.000000 0 0 1
17.303154 -25.849115 3.432691 31.294716 -0.980910 1.460886 0.057755 -0.015148 262036.000000 0 0 1
18.257854 -26.866875 3.217191 32.642435 -0.973915 1.472078 0.048539 -0.013073 315837.000000 0 0 1
19.605054 -26.464035 3.455691 33.115632 -0.933197 1.466254 0.049225 -0.001756 456519.000000 0 0 1
20.584254 -27.688055 3.561291 34.684618 -0.931510 1.467939 0.071658 -0.007216 106284.000000 0 0 1
20.952554 -28.233945 2.345291 35.237275 -0.932367 1.504190 0.072261 -0.012082 -721918.000000 0 0 1
21.725054 -29.371625 2.384791 36.610894 -0.933945 1.505611 0.111075 -0.016552 -406551.000000 0 0 1
21.087154 -30.677065 2.851291 37.334706 -0.968583 1.494351 0.112376 -0.022401 -133994.000000 0 0 1
21.041254 -30.732625 4.272191 37.489735 -0.970443 1.456592 0.120530 -0.020717 279826.000000 0 0 1
19.995654 -31.592495 4.759491 37.690379 -1.006519 1.444180 0.113861 -0.038557 89490.300000 0 0 1
20.047954 -31.911655 6.248491 38.201019 -1.009876 1.406489 0.114894 -0.043177 -29748.600000 0 0 1
21.089354 -32.765925 6.686991 39.535839 -0.998907 1.400842 0.110413 -0.052023 221055.000000 0 0 1
20.837954 -33.168385 8.027691 39.985071 -1.009865 1.368655 0.104857 -0.047822 -389446.000000 0 0 1
21.984654 33.767701 8.493391 41.179125 0.993679 1.363050 0.107873 -0.049792 -335464.000000 0 0 1
23.145954 -33.322525 8.863991 41.529462 -0.963701 1.355703 0.115462 -0.051397 55824.300000 0 0 1
24.200354 33.614065 9.252391 42.440185 0.946808 1.351021 0.131774 -0.056500 -70206.400000 0 0 1
25.135654 -33.615885 10.325391 43.225485 -0.928749 1.329591 0.110384 -0.051134 -114515.000000 0 0 1
25.878554 -32.529765 9.775291 42.701774 -0.898784 1.339828 0.104543 -0.045906 100237.000000 0 0 1
26.782654 -31.870025 10.624091 42.963710 -0.871919 1.320924 0.087053 -0.035218 -201204.000000 0 0 1
27.507854 -30.803715 9.830591 42.452225 -0.841860 1.337107 0.082324 -0.036361 -582207.000000 0 0 1
26.712754 -29.701465 9.509391 41.063083 -0.838327 1.337095 0.081232 -0.037473 -130864.000000 0 0 1
26.960154 -29.142185 8.254091 40.549314 -0.824272 1.365807 0.077361 -0.028092 -171302.000000 0 0 1
26.448354 -27.677815 8.246791 39.161032 -0.808109 1.358621 0.065449 -0.017067 -127966.000000 0 0 1
27.200454 -26.748245 9.000191 39.196132 -0.777016 1.339110 0.060460 -0.034448 -120930.000000 0 0 1
26.528854 -25.539615 9.052691 37.921013 -0.766402 1.329744 0.052092 -0.028968 -149084.000000 0 0 1
27.266854 -24.474975 9.928391 37.961542 -0.731493 1.306181 0.063715 -0.048787 -84463.200000 0 0 1
28.525354 -24.142275 9.406991 38.536175 -0.702368 1.324196 0.090781 -0.039758 -1025280.000000 0 0 1
29.319654 -23.617875 10.396291 39.058021 -0.678104 1.301373 0.067535 -0.040517 -1110870.000000 0 0 1
30.731854 -23.353175 9.926791 39.854220 -0.649808 1.319069 0.086136 -0.044654 -666277.000000 0 0 1
30.796154 -22.382975 8.898091 39.097017 -0.628494 1.341194 0.100163 -0.040427 157914.000000 0 0 1
32.179854 -22.238675 8.606491 40.052133 -0.604711 1.354225 0.110615 -0.050598 390094.000000 0 0 1
32.376454 -21.412875 7.365791 39.509504 -0.584328 1.383268 0.116053 -0.038224 -39109.500000 0 0 1
31.924654 -20.068875 7.453391 38.438215 -0.561207 1.375654 0.104639 -0.027477 -167697.000000 0 0 1
32.246854 -19.379675 6.286291 38.143792 -0.541139 1.405236 0.099863 -0.032917 -36025.800000 0 0 1
31.843654 -17.953875 6.253191 37.087226 -0.513387 1.401379 0.112772 -0.031589 196243.000000 0 0 1
32.631854 -17.228075 7.208291 37.597925 -0.485759 1.377882 0.118412 -0.023914 447825.000000 0 0 1
32.251954 -15.876575 7.248791 36.671504 -0.457442 1.371818 0.119444 -0.022851 -113770.000000 0 0 1
32.811054 -15.185275 8.506391 37.141844 -0.433455 1.339721 0.122991 -0.045509 -610662.000000 0 0 1
34.201754 -15.154575 8.535891 38.370335 -0.417096 1.346459 0.109189 -0.038643 -899159.000000 0 0 1
34.671454 -14.702675 9.743991 38.900177 -0.401072 1.317613 0.098557 -0.038268 965467.000000 0 0 1
36.234254 -14.869075 9.874091 40.391933 -0.389405 1.323837 0.091488 -0.040991 1354030.000000 0 0 1
37.062054 -14.066275 9.023191 40.655552 -0.362739 1.346990 0.130663 -0.037325 -61753.000000 0 0 1
-36.493654 -14.518375 8.935791 40.279254 0.378637 1.347089 0.133636 -0.043140 -427893.000000 0 0 1
-35.662454 -13.621375 8.029091 39.010496 0.364852 1.363496 0.145716 -0.048542 -578877.000000 0 0 1
-35.998154 -13.594175 6.685191 39.055863 0.361079 1.398779 0.184578 -0.055456 2571.440000 0 0 1
-35.138354 -12.818875 5.875091 37.862173 0.349808 1.414996 0.181748 -0.042460 795864.000000 0 0 1
-33.897654 -13.553275 5.227691 36.879140 0.380359 1.428565 0.153149 -0.031645 1389040.000000 0 0 1
-32.975154 -14.046375 6.235091 36.380459 0.402691 1.398560 0.152210 -0.026203 -118407.000000 0 0 1
-32.094954 -14.982675 5.793991 35.890625 0.436756 1.408652 0.145676 -0.012881 -595191.000000 0 0 1
-31.537454 -15.818475 6.954591 35.961111 0.464909 1.376178 0.114548 -0.013441 455657.000000 0 0 1
-32.552454 -16.644575 7.539491 37.330256 0.472659 1.367430 0.098058 -0.020779 519437.000000 0 0 1
-32.294054 -16.741275 8.941391 37.458306 0.478260 1.329767 0.080817 -0.023856 205576.000000 0 0 1
-33.222154 -17.756175 9.665991 38.889904 0.490840 1.319616 0.038113 -0.016038 225825.000000 0 0 1
-34.561054 -17.295375 9.776291 39.864424 0.463991 1.323031 0.069659 -0.012359 933436.000000 0 0 1
-35.483554 -17.991475 10.650091 41.184951 0.469261 1.309232 0.080045 -0.015747 706020.000000 0 0 1
-35.889254 -19.490275 10.350091 42.131149 0.497505 1.322592 0.089968 -0.019702 -284516.000000 0 0 1
-35.012854 -20.577875 10.706891 41.999838 0.531344 1.313024 0.087241 -0.008698 -58597.600000 0 0 1
-34.843854 -20.885675 12.092591 42.385567 0.539984 1.281477 0.095216 -0.035231 -11931.900000 0 0 1
-36.009154 -21.643375 12.788591 43.916317 0.541193 1.275312 0.114959 -0.065577 48613.800000 0 0 1
-36.010554 -22.913575 12.257991 44.407772 0.566685 1.291132 0.151938 -0.072798 382012.000000 0 0 1
-37.333654 -23.264075 11.876791 45.563989 0.557260 1.307089 0.137304 -0.049750 127592.000000 0 0 1
37.189454 -24.743875 12.250091 46.318243 -0.587088 1.303135 0.144212 -0.048434 -301314.000000 0 0 1
37.210054 -24.975375 13.670591 46.853416 -0.591134 1.274716 0.163803 -0.052101 98867.700000 0 0 1
36.454854 -26.083955 14.080591 46.985021 -0.621062 1.266436 0.152897 -0.054121 -42468.500000 0 0 1
34.976854 -25.792435 14.433091 45.792403 -0.635398 1.250144 0.160256 -0.042449 -443852.000000 0 0 1
34.239654 -25.633075 13.238491 44.773498 -0.642628 1.270632 0.130447 -0.043019 -527699.000000 0 0 1
33.026254 -24.955975 13.407591 43.512040 -0.647101 1.257564 0.118845 -0.031778 -447113.000000 0 0 1
33.084754 -23.410875 13.486491 42.714816 -0.615811 1.249567 0.143145 -0.036119 -250899.000000 0 0 1
33.813454 -22.959475 14.621191 43.408138 -0.596495 1.227248 0.152409 -0.042881 -266306.000000 0 0 1
34.930854 -22.208675 14.245091 43.775706 -0.566321 1.239350 0.137920 -0.053231 -496812.000000 0 0 1
35.945354 -21.989875 15.373291 44.854890 -0.549021 1.220971 0.113803 -0.039085 -314332.000000 0 0 1
35.980854 -20.715175 15.998891 44.493875 -0.522381 1.202984 0.122930 -0.020313 222981.000000 0 0 1
35.049154 -20.452875 17.045291 44.014830 -0.528235 1.173136 0.108773 -0.019211 200167.000000 0 0 1
35.262154 -19.029575 17.679091 43.796056 -0.494870 1.155273 0.097315 -0.004899 -163393.000000 0 0 1
34.856854 -17.976475 16.866691 42.692379 -0.476147 1.164647 0.088219 -0.010930 52560.100000 0 0 1
34.603454 -16.766975 17.540891 42.263618 -0.451208 1.142815 0.084455 -0.004070 68346.800000 0 0 1
35.826554 -15.933975 18.002191 43.145248 -0.418482 1.140383 0.066541 -0.009870 45112.400000 0 0 1
36.489454 -16.288675 19.215991 44.340225 -0.419851 1.122561 0.059740 -0.003434 628552.000000 0 0 1
-37.238254 -15.455375 19.369391 44.729515 0.393405 1.122941 0.065924 -0.007374 205634.000000 0 0 1
-36.658154 -15.354675 20.805591 44.860438 0.396659 1.088534 0.060057 -0.006546 -190657.000000 0 0 1
-35.698254 -16.346675 21.098791 44.572840 0.429414 1.077700 0.071833 -0.008007 155322.000000 0 0 1
-35.225654 -16.141175 22.426691 44.769864 0.429670 1.046120 0.058980 -0.006731 345301.000000 0 0 1
-34.240354 -17.292875 22.851391 44.650100 0.467674 1.033531 0.066888 -0.002482 -451208.000000 0 0 1
-34.844554 -18.566275 22.932891 45.659249 0.489567 1.044584 0.064356 -0.010641 748167.000000 0 0 1
-33.985254 -19.606975 23.484891 45.727137 0.523280 1.031436 0.049807 -0.009000 1451320.000000 0 0 1
-32.668054 -19.993675 22.669091 44.506589 0.549215 1.036376 0.055661 -0.005591 1225780.000000 0 0 1
-31.521854 -19.185275 22.881791 43.419793 0.546744 1.015742 0.065547 0.004656 570906.000000 0 0 1
-30.372254 -19.789475 22.300091 42.560442 0.577474 1.019299 0.062970 -0.003258 895057.000000 0 0 1
-29.037654 -18.975875 22.250391 41.211031 0.578826 1.000462 0.075027 0.004581 612282.000000 0 0 1
-28.398054 -18.881875 23.507191 41.419352 0.586779 0.967280 0.071763 0.006895 721304.000000 0 0 1
-27.397054 -17.848075 23.564991 40.304605 0.577401 0.946320 0.072840 0.004921 473461.000000 0 0 1
-27.065154 -17.364075 24.988091 40.723928 0.570423 0.910188 0.065434 -0.006122 294529.000000 0 0 1
-25.889154 -16.518275 25.012191 39.606962 0.567920 0.887297 0.068744 -0.008107 930634.000000 0 0 1
-25.590554 -15.965475 26.313791 40.027346 0.557795 0.853439 0.063864 -0.012291 99405.800000 0 0 1
-24.637254 -16.936375 27.063691 40.327143 0.602239 0.835100 0.060868 -0.005602 -817360.000000 0 0 1
-25.182954 -18.201475 27.359491 41.400684 0.625845 0.848850 0.070278 -0.007436 -832163.000000 0 0 1
-24.391754 -18.926775 28.198891 41.813370 0.659903 0.830646 0.066675 -0.012220 -791057.000000 0 0 1
-25.072654 -20.182275 28.805791 43.194164 0.677753 0.840768 0.068710 -0.007726 469801.000000 0 0 1
-26.123354 -19.959675 29.769991 44.351670 0.652436 0.834935 0.061234 -0.016369 621837.000000 0 0 1
-26.602454 -21.200875 30.291291 45.549204 0.672880 0.843271 0.054263 -0.012947 -463966.000000 0 0 1
-27.856954 -20.909675 31.134691 46.718234 0.643891 0.841379 0.066363 -0.020623 -821934.000000 0 0 1
-27.660754 -20.056975 32.265691 46.994408 0.627378 0.814014 0.073900 -0.025639 437557.000000 0 0 1
-28.692354 -20.099475 33.260291 48.306180 0.611073 0.811335 0.077438 -0.023932 253981.000000 0 0 1
-30.001654 -19.369475 32.934791 48.579587 0.573285 0.825819 0.077681 -0.031171 -469289.000000 0 0 1
-30.737154 -19.790975 31.835191 48.476125 0.572059 0.854337 0.081052 -0.031875 -461804.000000 0 0 1
-32.027754 -19.259875 31.885891 49.126672 0.541411 0.864455 0.079241 -0.041506 -425889.000000 0 0 1
-33.068354 -19.910275 30.951591 49.476621 0.541958 0.894921 0.068662 -0.015189 -300580.000000 0 0 1
-33.208054 -19.097875 29.764591 48.512210 0.521908 0.910250 0.059782 -0.033538 189378.000000 0 0 1
-34.157254 -19.667475 28.888391 48.867849 0.522429 0.938308 0.053183 -0.028335 -5891.680000 0 0 1
-34.353454 -18.872775 27.550891 47.910260 0.502360 0.958129 0.058966 -0.019797 1177530.000000 0 0 1
-35.541554 -19.394175 26.857791 48.586799 0.499517 0.985100 0.040195 -0.019486 1300540.000000 0 0 1
-36.155754 -18.338375 26.184291 48.261285 0.469395 0.997323 0.050618 -0.013129 -112885.000000 0 0 1
-37.424754 -18.739075 25.380591 48.948335 0.464218 1.025680 0.042280 -0.014556 442675.000000 0 0 1
36.276954 -18.805075 26.180591 48.529080 -0.478240 1.000974 0.040967 -0.018258 799913.000000 0 0 1
35.177654 -19.420675 25.479591 47.579823 -0.504434 1.005682 0.078601 -0.008944 1232280.000000 0 0 1
33.985654 -19.892175 26.380191 47.398711 -0.529549 0.980558 0.070795 -0.019046 753588.000000 0 0 1
33.196554 -18.865475 26.983991 46.755247 -0.516782 0.955583 0.061675 -0.023471 569093.000000 0 0 1
31.981954 -19.328675 27.546691 46.424813 -0.543621 0.935568 0.048707 -0.021378 -46405.300000 0 0 1
-30.143266 -5.499475 33.910927 45.703519 0.180460 0.734783 0.083263 -0.031406 -84616.800000 0 0 1
-31.188646 -5.565375 32.973177 45.726748 0.176584 0.765420 0.085568 -0.026012 153747.000000 0 0 1
-31.184326 -4.399975 32.115336 44.980182 0.140170 0.775618 0.090988 -0.029832 268924.000000 0 0 1
-32.103896 -4.635075 30.842527 44.759418 0.143387 0.810587 0.089221 -0.032871 253614.000000 0 0 1
-31.861116 -5.591075 29.842007 44.010637 0.173714 0.825672 0.074631 -0.034330 1014340.000000 0 0 1
-30.528426 -5.456475 29.252997 42.632098 0.176867 0.814581 0.077447 -0.035753 1453440.000000 0 0 1
-30.162006 -6.407575 28.063267 41.693532 0.209327 0.832425 0.081289 -0.035397 -74104.100000 0 0 1
-30.795186 -6.069975 26.877407 41.322912 0.194613 0.862654 0.080724 -0.033660 -367339.000000 0 0 1
-30.480576 -6.940675 25.885337 40.586810 0.223891 0.879188 0.092599 -0.030554 -65978.700000 0 0 1
-31.000876 -6.550175 24.471127 40.034924 0.208227 0.913164 0.099250 -0.032544 113820.000000 0 0 1
-30.409476 -5.389575 23.880287 39.039107 0.175412 0.912586 0.094429 -0.028348 50755.500000 0 0 1
-31.039756 -4.983675 22.659957 38.752769 0.159199 0.946248 0.101368 -0.024450 80353.800000 0 0 1
-30.474466 -3.685475 22.064557 37.803710 0.120352 0.947566 0.103349 -0.019786 825498.000000 0 0 1
-29.135016 -3.888275 21.592157 36.471757 0.132673 0.937228 0.110854 -0.021222 361986.000000 0 0 1
-28.533026 -2.712375 21.158557 35.625484 0.094776 0.934878 0.125128 -0.017432 1031610.000000 0 0 1
-27.150826 -2.921575 20.403857 34.088419 0.107193 0.929098 0.129166 -0.015414 827358.000000 0 0 1
-27.259496 -3.574975 19.169657 33.516210 0.130402 0.961913 0.132834 -0.011755 -17786.800000 0 0 1
-25.998666 -3.500975 18.535357 32.120817 0.133855 0.955683 0.137412 -0.015311 -48067.000000 0 0 1
-25.953036 -4.119775 17.141357 31.374492 0.157426 0.992800 0.128057 -0.019104 -170347.000000 0 0 1
-26.700816 -3.480375 16.133657 31.390149 0.129616 1.030988 0.142044 -0.016694 -122788.000000 0 0 1
-26.664806 -4.133075 14.898857 30.823207 0.153777 1.066302 0.139668 -0.020142 -575863.000000 0 0 1
-27.967256 -4.221375 14.117557 31.611593 0.149809 1.107841 0.171289 -0.022900 -408475.000000 0 0 1
-28.381816 -2.950575 13.604857 31.612110 0.103588 1.125895 0.169757 -0.022870 512781.000000 0 0 1
-29.576526 -3.101775 12.829657 32.388146 0.104491 1.163507 0.179991 -0.025805 338056.000000 0 0 1
-29.985156 -1.837475 12.070457 32.375636 0.061203 1.188744 0.175761 -0.013133 -47062.100000 0 0 1
-29.147966 -1.573075 10.945057 31.174874 0.053916 1.212066 0.190233 -0.018701 368283.000000 0 0 1
-29.461766 -0.401675 10.246957 31.195466 0.013633 1.236107 0.195027 -0.018918 -878483.000000 0 0 1
-30.776776 -0.367575 9.516357 32.216550 0.011943 1.270936 0.189053 -0.012055 -733396.000000 0 0 1
-30.713886 -1.245075 8.389857 31.863501 0.040516 1.304349 0.194844 -0.020260 142219.000000 0 0 1
-31.971466 -1.328575 7.747457 32.923591 0.041531 1.333252 0.171411 -0.023055 17079.500000 0 0 1
-31.997776 -2.067775 6.392457 32.695517 0.064533 1.374014 0.190168 -0.023190 -238666.000000 0 0 1
-31.619866 -1.258075 5.221857 32.072830 0.039767 1.407256 0.207357 -0.042034 287713.000000 0 0 1
-32.529986 -0.272375 4.762257 32.877853 0.008373 1.425438 0.209868 -0.032166 -246402.000000 0 0 1
-32.170336 0.340825 3.379657 32.349169 -0.010594 1.466131 0.189151 -0.027673 -209700.000000 0 0 1
-32.567986 -0.623475 2.390457 32.661548 0.019141 1.497542 0.165252 -0.045510 506686.000000 0 0 1
-32.319776 -0.200175 1.057757 32.337700 0.006193 1.538081 0.176116 -0.053169 -217090.000000 0 0 1
-33.070956 -1.108175 -0.001643 33.089517 0.033496 1.570846 0.167406 -0.057643 418374.000000 0 0 1
-34.448387 -0.772075 -0.008143 34.457038 0.022409 1.571033 0.160352 -0.048125 94840.300000 0 0 1
-35.190312 -1.461775 -0.968543 35.233973 0.041515 1.598289 0.149403 -0.047429 1303810.000000 0 0 1
-36.766456 -1.384175 -0.749443 36.800134 0.037630 1.591163 0.142770 -0.045921 1292920.000000 0 0 1
-37.197966 -2.165175 0.328557 37.262375 0.058141 1.561979 0.130363 -0.042654 167577.000000 0 0 1
36.279893 -2.371275 0.307057 36.358601 -0.065268 1.562351 0.123206 -0.038195 108291.000000 0 0 1
35.676173 -3.563575 1.113157 35.870984 -0.099556 1.539759 0.143618 -0.045240 -351689.000000 0 0 1
35.594803 -3.411275 2.501057 35.845252 -0.095545 1.500966 0.145483 -0.033641 68228.700000 0 0 1
35.065253 -4.578675 3.063457 35.495366 -0.129841 1.484383 0.132562 -0.023857 -110754.000000 0 0 1
34.985753 -4.503575 4.581557 35.570715 -0.128022 1.441636 0.132207 -0.004143 353156.000000 0 0 1
34.108393 -3.430175 4.922957 34.632125 -0.100230 1.428163 0.153253 -0.018000 257656.000000 0 0 1
34.128543 -3.278375 6.336957 34.866348 -0.095766 1.388031 0.152901 -0.030048 -132018.000000 0 0 1
33.542893 -2.004175 6.967757 34.317518 -0.059679 1.366337 0.171313 -0.028681 977370.000000 0 0 1
32.097133 -2.018475 6.973057 32.907806 -0.062804 1.357281 0.178158 -0.034968 1150000.000000 0 0 1
31.595743 -0.731275 7.418057 32.463107 -0.023141 1.340252 0.187643 -0.028712 890346.000000 0 0 1
30.124813 -0.728975 7.978557 31.171993 -0.024194 1.311963 0.181238 -0.028310 276210.000000 0 0 1
29.168463 -0.614275 6.960857 29.993834 -0.021056 1.336585 0.206676 -0.038199 -953803.000000 0 0 1
27.898963 -0.558675 7.510857 28.897703 -0.020022 1.307865 0.204220 -0.027803 -857778.000000 0 0 1
27.092363 -1.802075 7.074457 28.058716 -0.066418 1.315915 0.220319 -0.044168 -558155.000000 0 0 1
27.584063 -2.929875 7.755357 28.802956 -0.105819 1.298176 0.193201 -0.047714 575851.000000 0 0 1
26.924963 -4.163475 7.439357 28.242383 -0.153417 1.304240 0.197286 -0.061762 -28890.200000 0 0 1
27.298263 -5.266575 8.468457 29.062807 -0.190586 1.275122 0.175997 -0.035682 -446431.000000 0 0 1
26.591763 -5.229875 9.651357 28.768423 -0.194194 1.228677 0.165801 -0.031543 115210.000000 0 0 1
26.946463 -6.199575 10.635457 29.625319 -0.226135 1.203601 0.144538 -0.027018 330708.000000 0 0 1
25.942663 -6.118775 11.844157 29.167537 -0.231625 1.152643 0.124207 -0.022329 754305.000000 0 0 1
24.632863 -6.595075 11.629057 28.026914 -0.261599 1.142936 0.150066 -0.032497 -330614.000000 0 0 1
23.752663 -6.330575 12.649457 27.645505 -0.260466 1.095548 0.157445 -0.036255 89565.400000 0 0 1
22.608563 -7.372075 12.771657 26.992774 -0.315203 1.077932 0.149143 -0.037619 -52402.100000 0 0 1
23.067063 -8.544175 13.365857 27.995329 -0.354737 1.073067 0.126913 -0.032854 99816.700000 0 0 1
22.197963 -9.633075 13.271257 27.598405 -0.409437 1.069149 0.183192 -0.058155 -221586.000000 0 0 1
22.823363 -10.718175 14.182157 28.929548 -0.439045 1.058442 0.127078 -0.045261 62431.900000 0 0 1
22.838163 -10.371475 15.517757 29.494914 -0.426282 1.016769 0.117724 -0.027418 378117.000000 0 0 1
23.058763 -11.504075 16.370857 30.529580 -0.462769 1.004833 0.104695 -0.027692 -198002.000000 0 0 1
22.700963 -11.135975 17.842257 30.946564 -0.456060 0.956296 0.110828 -0.025700 435311.000000 0 0 1
21.287863 -11.088075 18.062657 30.039609 -0.480199 0.925676 0.089815 -0.028932 538920.000000 0 0 1
20.897563 -11.541775 19.341257 30.724663 -0.504609 0.889883 0.093736 -0.024859 42948.700000 0 0 1
21.273863 -10.809775 20.634357 31.546873 -0.470126 0.857823 0.086518 -0.026586 248216.000000 0 0 1
20.426863 -9.659875 20.926957 30.797848 -0.441734 0.823723 0.094814 -0.022968 526454.000000 0 0 1
20.724763 -8.522275 20.152657 30.137594 -0.390135 0.838353 0.108494 -0.021463 -80133.200000 0 0 1
21.768863 -7.507775 20.776957 31.015029 -0.332112 0.836723 0.114531 -0.015976 1922340.000000 0 0 1
23.143663 -7.915975 20.965657 32.215688 -0.329563 0.862171 0.118107 -0.024940 1162220.000000 0 0 1
23.933163 -7.949875 19.806857 32.067248 -0.320703 0.905025 0.117101 -0.030731 139483.000000 0 0 1
25.380863 -8.498375 20.018157 33.423602 -0.323101 0.928641 0.133456 -0.026471 578104.000000 0 0 1
25.365763 -9.889575 20.263057 33.938431 -0.371751 0.930973 0.112961 -0.030125 -253073.000000 0 0 1
26.469463 -10.564975 19.723857 34.659511 -0.379763 0.965416 0.113890 -0.031136 -257086.000000 0 0 1
26.360663 -12.122975 19.791357 35.121915 -0.431047 0.972174 0.095421 -0.026721 265878.000000 0 0 1
25.318663 -12.752375 19.039857 34.149289 -0.466583 0.979368 0.100152 -0.033138 417634.000000 0 0 1
25.452663 -14.155875 19.165357 34.864563 -0.507564 0.988781 0.077898 -0.018617 97562.700000 0 0 1
24.451763 -14.977175 18.330157 34.032325 -0.549574 1.002010 0.076923 -0.015361 -386107.000000 0 0 1
24.734163 -14.871475 16.899257 33.444349 -0.541340 1.041073 0.090477 -0.016382 753963.000000 0 0 1
23.681063 -15.268675 15.986957 32.396110 -0.572685 1.054706 0.071832 -0.013914 291507.000000 0 0 1
23.206863 -16.716875 16.051457 32.797281 -0.624248 1.059378 0.054085 -0.009779 -795301.000000 0 0 1
24.199663 -17.635875 15.723057 33.821033 -0.629772 1.087286 0.094546 -0.011418 -147785.000000 0 0 1
23.866063 -18.948975 16.110557 34.470316 -0.671054 1.084477 0.060277 -0.001998 165276.000000 0 0 1
25.065663 -19.918475 15.899957 35.746912 -0.671471 1.109854 0.043512 0.001577 275452.000000 0 0 1
25.488263 -20.031475 14.541457 35.529783 -0.666090 1.149137 0.051962 -0.014456 -240410.000000 0 0 1
26.427863 -21.033375 14.362357 36.703026 -0.672223 1.168739 0.058969 -0.024660 -242217.000000 0 0 1
27.094663 -20.971575 12.922857 36.618683 -0.658692 1.210124 0.059047 -0.045405 313657.000000 0 0 1
26.087763 -21.110775 11.921757 35.614105 -0.680338 1.229458 0.061948 -0.043171 455563.000000 0 0 1
26.526163 -20.794875 10.602657 35.333843 -0.664870 1.266029 0.087143 -0.040122 -171838.000000 0 0 1
25.484163 -20.990275 9.480357 34.349838 -0.689002 1.291172 0.047410 -0.038228 50775.700000 0 0 1
24.964463 -22.302475 9.249757 34.730142 -0.729139 1.301210 0.033785 -0.034493 -1449540.000000 0 0 1
23.604363 -22.357675 9.309257 33.818543 -0.758281 1.291925 0.011146 -0.016153 -1406110.000000 0 0 1
22.974963 -23.460375 8.425857 33.900342 -0.795851 1.319616 0.015704 -0.013634 -306874.000000 0 0 1
23.306463 -24.802975 8.699957 35.129304 -0.816495 1.320537 0.016425 -0.016995 56368.900000 0 0 1
22.803963 -25.665645 7.673857 35.180025 -0.844370 1.350897 0.032145 -0.007751 71547.600000 0 0 1
21.315263 -26.064065 7.603257 34.517900 -0.885294 1.348705 0.029867 -0.001314 -201146.000000 0 0 1
20.488663 -25.041225 7.153457 33.136388 -0.885058 1.353204 0.020881 -0.005545 -671541.000000 0 0 1
19.151263 -25.363685 7.448357 32.642999 -0.924061 1.340592 0.039531 -0.014378 62654.500000 0 0 1
18.147263 -24.188175 7.496357 31.154234 -0.927133 1.327791 0.045020 -0.017552 -64129.000000 0 0 1
17.902663 -23.778675 6.167157 30.396785 -0.925450 1.366489 0.060478 -0.020591 98690.600000 0 0 1
16.973063 -22.712475 6.043057 28.990687 -0.929025 1.360808 0.071483 -0.019633 -15744.600000 0 0 1
16.816663 -22.135075 4.639757 28.183134 -0.921098 1.405415 0.081239 -0.015845 -296266.000000 0 0 1
16.255163 -20.852575 4.818357 26.875207 -0.908664 1.390535 0.115492 -0.015827 -60759.700000 0 0 1
15.909463 -20.267675 3.586657 26.014491 -0.905289 1.432484 0.107503 -0.010575 84616.500000 0 0 1
14.964963 -19.044075 3.678057 24.498061 -0.904770 1.420090 0.113710 -0.010458 -9358.000000 0 1 0
15.589963 -17.856875 4.085957 24.054313 -0.853071 1.400105 0.076293 -0.011097 -64320.000000 0 1 0
14.692163 -16.853975 4.520957 22.811295 -0.853820 1.371286 0.056093 -0.001481 139808.000000 0 1 0
15.399263 -15.479375 4.769757 22.349473 -0.787993 1.355725 0.033645 -0.006546 -300543.000000 0 1 0
16.299163 -15.533775 5.843157 23.261628 -0.761359 1.316884 0.067726 -0.017677 -224661.000000 0 1 0
17.321863 -14.591475 5.802957 23.380171 -0.700050 1.319975 0.071017 -0.023264 32523.700000 0 1 0
18.664563 -14.992575 5.141957 24.486383 -0.676728 1.359229 0.085932 -0.038171 -609035.000000 0 1 0
19.539963 -13.925075 5.132357 24.536890 -0.619163 1.360071 0.109233 -0.037174 -646346.000000 0 1 0
20.854663 -14.400575 4.983757 25.828886 -0.604336 1.376626 0.119567 -0.031952 -161971.000000 0 0 1
21.857263 -13.211875 4.973857 26.019855 -0.543694 1.378456 0.118028 -0.035071 -107940.000000 0 0 1
22.123463 -12.563775 6.193757 26.185085 -0.516477 1.331996 0.143508 -0.045516 332418.000000 0 0 1
23.004663 -11.467775 5.997357 26.394936 -0.462445 1.341578 0.143774 -0.045824 -28557.700000 0 0 1
23.339263 -10.713275 7.315057 26.702163 -0.430333 1.293299 0.160845 -0.050270 -325862.000000 0 0 1
24.042463 -11.433275 8.282457 27.881157 -0.443893 1.269181 0.154247 -0.029920 250089.000000 0 0 1
24.098663 -10.864375 9.572857 28.114405 -0.423543 1.223351 0.176503 -0.044682 -200369.000000 0 0 1
24.679263 -11.788275 10.620857 29.339939 -0.445616 1.200391 0.143355 -0.039418 -12936.800000 0 0 1
23.758863 -12.762275 11.103057 29.165684 -0.492931 1.180255 0.146275 -0.041678 565395.000000 0 0 1
24.422763 -13.757075 11.822257 30.421937 -0.512989 1.171674 0.142373 -0.045741 25034.100000 0 0 1
23.440463 -14.889475 12.269357 30.359330 -0.565903 1.154760 0.105804 -0.043925 278506.000000 0 0 1
22.342963 -14.415875 13.047357 29.618558 -0.573000 1.114626 0.094604 -0.036352 -415055.000000 0 0 1
21.324963 -15.366575 13.058457 29.349770 -0.624412 1.109705 0.063538 -0.037475 -116520.000000 0 0 1
20.058363 -14.674375 13.671757 28.365334 -0.631610 1.067874 0.056646 -0.038216 -599233.000000 0 0 1
20.182663 -14.257475 14.985457 28.899471 -0.615023 1.025657 0.068912 -0.037449 78191.900000 0 0 1
19.578363 -13.042175 15.349357 28.089382 -0.587647 0.992680 0.092176 -0.043379 82332.000000 0 0 1
18.040563 -12.884575 15.284857 26.927700 -0.620193 0.967177 0.120386 -0.052186 -2587.930000 0 0 1
17.494563 -12.730075 13.908657 25.720911 -0.629049 0.999464 0.141168 -0.072677 1509130.000000 0 0 1
16.057363 -12.945175 13.887957 24.865474 -0.678500 0.978191 0.197230 -0.071130 1187690.000000 0 1 0
15.387163 -11.567175 13.691857 23.622686 -0.644615 0.952551 0.158409 -0.066317 -489217.000000 0 1 0
15.626963 -10.638775 14.730557 23.966118 -0.597721 0.908866 0.131324 -0.045577 -8245.760000 0 1 0
15.158563 -9.389575 14.356457 22.892226 -0.554579 0.892930 0.121387 -0.046346 -666114.000000 0 1 0
15.569663 -8.216575 15.275757 23.308266 -0.485585 0.856111 0.126935 -0.041609 518026.000000 0 1 0
16.973863 -8.148375 15.519457 24.400033 -0.447564 0.881438 0.117326 -0.042433 651523.000000 0 1 0
17.524763 -8.969375 16.539557 25.712331 -0.473052 0.872056 0.122104 -0.035254 250688.000000 0 0 1
19.084163 -9.012375 16.471957 26.772253 -0.441197 0.908078 0.105564 -0.025839 664148.000000 0 0 1
19.710563 -7.709775 16.672657 26.942985 -0.372853 0.903566 0.090513 -0.027738 -628087.000000 0 0 1
21.025963 -7.725475 16.259857 27.679542 -0.352114 0.942914 0.093221 -0.017388 -1363700.000000 0 0 1
21.645263 -6.389975 16.500457 27.957365 -0.287060 0.939489 0.080274 0.000247 -444890.000000 0 0 1
21.863063 -6.070375 17.891457 28.895453 -0.270832 0.903100 0.105633 -0.009831 398932.000000 0 0 1
22.304063 -4.713175 18.119757 29.120626 -0.208251 0.899207 0.129976 -0.016623 191416.000000 0 0 1
-5.470946 -32.822220 -6.562609 33.916031 1.405631 1.765520 0.061674 -0.022050 -17836.400000 0 0 1
-6.065646 -31.541320 -6.569409 32.784204 1.380808 1.772546 0.050117 -0.026705 133205.000000 0 0 1
-5.761446 -30.903120 -5.322109 31.882941 1.386477 1.738508 0.046272 -0.024847 -505133.000000 0 0 1
-6.552146 -29.583120 -5.120209 30.729597 1.352832 1.738199 0.038878 -0.019405 1355740.000000 0 0 1
-7.940646 -29.679020 -4.732009 31.085205 1.309369 1.723618 0.031398 -0.016165 817801.000000 0 0 1
-8.796946 -30.040720 -5.764709 31.828650 1.285927 1.752918 0.033083 -0.024230 -484937.000000 0 0 1
-10.310246 -29.986820 -5.422509 32.170081 1.239632 1.740162 0.065063 -0.011224 399520.000000 0 0 1
-11.154246 -30.478820 -6.439409 33.088391 1.219968 1.766659 0.055046 -0.014884 -683597.000000 0 0 1
-12.480646 -30.244020 -6.091109 33.280157 1.179420 1.754859 0.060393 -0.009121 -606488.000000 0 0 1
-13.586046 -30.768420 -6.993309 34.353786 1.154985 1.775797 0.067562 -0.016100 -53264.400000 0 0 1
-13.708546 -30.051520 -8.229909 34.040409 1.142825 1.814985 0.086978 -0.027347 172357.000000 0 0 1
-14.859446 -30.517020 -8.925209 35.096310 1.117665 1.827927 0.091829 -0.027666 398642.000000 0 0 1
-15.206546 -29.691620 -10.162409 34.872709 1.097476 1.866501 0.120848 -0.028406 -261451.000000 0 0 1
-15.691446 -28.329720 -10.025809 33.901494 1.064974 1.871020 0.126873 -0.028495 -3238.110000 0 0 1
-14.708846 -27.381620 -9.718209 32.566038 1.077849 1.873828 0.108422 -0.021329 -424922.000000 0 0 1
-15.221546 -25.945120 -9.525009 31.552662 1.040227 1.877457 0.104826 -0.003828 -126170.000000 0 0 1
-15.663646 -25.306220 -10.667509 31.615665 1.016549 1.914963 0.118519 -0.022193 26928.800000 0 0 1
-16.137646 -24.025220 -10.307009 30.722454 0.979320 1.912919 0.078102 -0.002835 -232204.000000 0 0 1
-16.785946 -23.318820 -11.508709 30.951344 0.946875 1.951778 0.097699 -0.007906 235828.000000 0 0 1
-18.064146 -23.857320 -11.860009 32.189204 0.922720 1.948134 0.105888 -0.025638 292598.000000 0 0 1
-18.516746 -23.263020 -13.089809 32.486629 0.898515 1.985511 0.118326 -0.034073 -1457440.000000 0 0 1
-19.925846 -23.628520 -13.447509 33.707295 0.870207 1.981167 0.098073 -0.014554 -1117880.000000 0 0 1
-20.366446 -24.966820 -13.667809 34.999188 0.886531 1.971990 0.139429 -0.028000 87298.700000 0 0 1
-20.306046 -25.694120 -12.475309 35.045065 0.901998 1.934758 0.150328 -0.026770 -1701540.000000 0 0 1
-20.251846 -27.266520 -12.683509 36.255644 0.931960 1.928192 0.156409 -0.038074 799139.000000 0 0 1
-19.108546 -27.768120 -13.393409 36.271040 0.968070 1.949008 0.151201 -0.045433 1251360.000000 0 0 1
-17.792946 -27.365120 -12.972109 35.124269 0.994277 1.949074 0.147994 -0.045741 40420.600000 0 0 1
-16.718346 -28.383220 -13.380609 35.554900 1.038488 1.956635 0.136206 -0.044460 -365122.000000 0 0 1
-16.425746 -28.371220 -14.755909 35.950912 1.045993 1.993739 0.157124 -0.046576 -493338.000000 0 0 1
-15.797346 -29.514720 -15.250609 36.786626 1.079359 1.998266 0.157301 -0.047370 -193095.000000 0 0 1
-16.594846 -30.837320 -15.439509 38.271499 1.077103 1.986048 0.158205 -0.051287 -177669.000000 0 0 1
-16.904046 -31.374320 -14.174809 38.353877 1.076603 1.949353 0.156550 -0.050330 -229846.000000 0 0 1
-17.294246 -32.706320 -14.230909 39.639791 1.084396 1.937999 0.125965 -0.045493 -1043440.000000 0 0 1
-17.804346 -33.261120 -12.887509 39.867088 1.079317 1.899971 0.146697 -0.040867 778481.000000 0 0 1
-19.154946 -32.918020 -12.517909 40.089974 1.043793 1.888352 0.176614 -0.044891 1078770.000000 0 0 1
-19.541846 -31.507120 -12.534009 39.136731 1.015630 1.896802 0.183963 -0.045457 -463901.000000 0 0 1
-18.814646 -30.601320 -11.448409 37.702755 1.019543 1.879317 0.171911 -0.046313 -23733.000000 0 0 1
-19.223646 -30.917820 -10.119209 37.787015 1.014526 1.841901 0.174788 -0.048754 158687.000000 0 0 1
-18.887446 -29.929120 -9.189909 36.564221 1.007842 1.824857 0.161584 -0.039494 -252158.000000 0 0 1
-19.062746 -30.325220 -7.718009 36.641164 1.009605 1.783024 0.169840 -0.036851 372943.000000 0 0 1
-17.978146 -31.089920 -7.175009 36.623457 1.046513 1.767985 0.154970 -0.031136 504226.000000 0 0 1
-18.293946 -31.482920 -5.865609 36.881541 1.044408 1.730514 0.169031 -0.033563 -86069.000000 0 0 1
-17.331246 -32.531520 -5.222609 37.228316 1.081291 1.711547 0.148571 -0.027113 -29724.100000 0 0 1
-16.133246 -31.960220 -4.771009 36.117859 1.103323 1.703279 0.145029 -0.023818 -109337.000000 0 0 1
-16.157946 -31.686820 -3.363009 35.727350 1.099239 1.665066 0.126351 -0.026726 -823330.000000 0 0 1
-14.841946 -31.215520 -2.789109 34.676666 1.126967 1.651315 0.122283 -0.020871 -703431.000000 0 0 1
-13.743346 -32.070920 -2.923809 35.013884 1.165940 1.654398 0.071317 -0.015586 288790.000000 0 0 1
-12.572946 -31.393320 -2.412009 33.903352 1.189861 1.642000 0.066602 -0.013185 772064.000000 0 0 1
-11.317446 -32.279820 -2.268309 34.281432 1.233583 1.637012 0.058875 -0.020391 -290234.000000 0 0 1
-11.384546 -33.235820 -1.230109 35.153104 1.240784 1.605796 0.072453 -0.019676 200798.000000 0 0 1
-10.144946 -33.750720 -0.759109 35.250635 1.278803 1.592333 0.088268 -0.026657 139922.000000 0 0 1
-9.202046 -32.866820 0.089491 34.130829 1.297806 1.568174 0.089673 -0.038377 -535868.000000 0 0 1
-9.699646 -32.634420 1.356291 34.072393 1.281891 1.530980 0.107324 -0.032964 7852.480000 0 0 1
-8.735546 -32.101220 2.261191 33.345330 1.305105 1.502933 0.079875 -0.034708 560046.000000 0 0 1
-7.590346 -33.036320 2.702891 34.004667 1.344958 1.491226 0.107766 -0.039430 -598009.000000 0 0 1
-8.078946 33.822225 3.647091 34.964461 -1.336325 1.466298 0.130965 -0.051359 -486650.000000 0 0 1
-7.241746 32.828625 4.113591 33.868616 -1.353681 1.449038 0.134948 -0.040203 -438395.000000 0 0 1
-6.139046 33.245525 5.105791 34.190963 -1.388195 1.420904 0.135731 -0.034826 -360586.000000 0 0 1
-5.009146 33.847425 4.550491 34.517339 -1.423871 1.438579 0.151427 -0.037504 -622432.000000 0 0 1
-4.137646 -33.681320 5.611691 34.395385 1.448562 1.406911 0.137481 -0.040595 -243707.000000 0 0 1
-2.936046 -32.754720 5.313991 33.312618 1.481398 1.410593 0.171555 -0.038317 -22883.800000 0 0 1
-3.225446 -31.424220 4.963691 31.976918 1.468512 1.414939 0.156135 -0.030739 23716.600000 0 0 1
-3.782946 -31.262820 3.688891 31.706190 1.450377 1.454186 0.140439 -0.038459 -222626.000000 0 0 1
-3.920146 -29.782720 3.325691 30.223139 1.439924 1.460535 0.130014 -0.043459 38305.700000 0 0 1
-2.707946 -29.063120 3.201591 29.364061 1.477890 1.461548 0.111390 -0.025274 -28478.100000 0 0 1
-2.822046 -28.017520 2.277791 28.251260 1.470411 1.490083 0.108400 -0.027945 203725.000000 0 0 1
-3.347146 -26.667220 2.830591 27.025104 1.445934 1.465865 0.137409 -0.031224 -210024.000000 0 0 1
-3.325946 -25.573420 1.973691 25.864206 1.441467 1.494412 0.120237 -0.027307 -331117.000000 0 0 1
-3.384546 -24.272620 2.583091 24.643205 1.432251 1.465784 0.102330 -0.026537 -91071.700000 0 1 0
-4.511746 -23.945120 3.571791 24.626861 1.384560 1.425247 0.082337 -0.029276 -323103.000000 0 1 0
-4.497046 -24.750020 4.727091 25.595552 1.391059 1.385046 0.112633 -0.027521 190702.000000 0 0 1
-5.545946 -24.391120 5.628491 25.639114 1.347222 1.349466 0.083182 -0.021114 306373.000000 0 0 1
-6.080146 -25.572620 6.471491 27.070413 1.337370 1.329397 0.103913 -0.031944 -203246.000000 0 0 1
-5.258246 -25.891120 7.569991 27.482794 1.370431 1.291744 0.101724 -0.034615 365350.000000 0 0 1
-5.840646 -26.919820 8.443591 28.811179 1.357143 1.273364 0.098179 -0.036042 747417.000000 0 0 1
-4.900746 -27.193720 9.666991 29.273989 1.392494 1.234255 0.090401 -0.031036 184575.000000 0 0 1
-4.796246 -26.019720 10.478091 28.457340 1.388511 1.193720 0.078860 -0.036704 -93938.900000 0 0 1
-5.879346 -25.591420 11.290991 28.582756 1.344976 1.164698 0.080084 -0.035829 -182709.000000 0 0 1
-5.519346 -24.403920 12.169391 27.822806 1.348372 1.118103 0.066460 -0.036761 -206039.000000 0 0 1
-4.846346 -24.873620 13.280791 28.610548 1.378368 1.088074 0.084833 -0.041706 -559542.000000 0 0 1
-3.902346 -23.931420 13.729191 27.864527 1.409155 1.055593 0.067487 -0.040427 -214000.000000 0 0 1
-2.873046 -24.550420 14.687091 28.752185 1.454300 1.034662 0.075410 -0.041374 -260230.000000 0 0 1
-3.393846 -24.937320 15.944691 29.792974 1.435532 1.006072 0.084031 -0.041848 -397921.000000 0 0 1
-2.548346 -25.819020 16.589891 30.795135 1.472415 1.001882 0.098988 -0.036277 -123554.000000 0 0 1
-3.157046 -26.245720 17.941991 31.948706 1.451083 0.974493 0.127874 -0.026118 226738.000000 0 0 1
-2.923446 -25.281420 18.916491 31.710099 1.455672 0.931607 0.133519 -0.028343 -2472.380000 0 0 1
-3.732946 -25.586220 20.035191 32.710830 1.425922 0.911584 0.181120 -0.033595 -96002.000000 0 0 1
-3.405646 -24.683420 21.265291 32.757934 1.433689 0.864311 0.171172 -0.041467 171755.000000 0 0 1
-2.234446 -25.188620 21.920791 33.466108 1.482319 0.856594 0.119207 -0.040691 789569.000000 0 0 1
-1.625046 -24.333620 22.911891 33.462226 1.504113 0.816592 0.105554 -0.040915 136844.000000 0 0 1
-0.765846 -23.178220 22.474991 32.294607 1.537767 0.801073 0.103252 -0.034511 -370158.000000 0 0 1
-1.565946 -22.128020 21.932491 31.195122 1.500147 0.791085 0.136898 -0.029825 86734.200000 0 0 1
-0.815946 -20.987020 21.480991 30.042532 1.531937 0.774145 0.141950 -0.032415 -457461.000000 0 0 1
-1.669846 -19.779920 21.101291 28.970642 1.486575 0.754859 0.112173 -0.008313 -974817.000000 0 0 1
-2.313446 -19.157320 22.207591 29.419926 1.450618 0.715373 0.108331 -0.027881 -105993.000000 0 0 1
-3.510346 -19.739820 22.648791 30.248153 1.394805 0.724598 0.146729 -0.038345 -441767.000000 0 0 1
-4.766446 -19.565620 21.746591 29.638602 1.331838 0.747008 0.149330 -0.035317 -496673.000000 0 0 1
-4.736446 -20.220220 20.481591 29.168249 1.340702 0.792331 0.139094 -0.031731 -537321.000000 0 0 1
-5.437246 -21.426320 20.501591 30.149064 1.322277 0.823023 0.147105 -0.031741 -11707.200000 0 0 1
-5.621146 -21.951120 19.050191 29.603357 1.320108 0.871715 0.121015 -0.035038 48246.000000 0 0 1
-6.479146 -23.051320 18.918491 30.516421 1.296791 0.902124 0.107957 -0.037856 -223637.000000 0 0 1
-6.428846 -23.555720 17.571491 30.082541 1.304364 0.947014 0.104023 -0.042608 106444.000000 0 0 1
-7.039046 -24.945220 17.378791 31.206322 1.295767 0.980148 0.092154 -0.044777 1348870.000000 0 0 1
-8.486946 -24.958120 17.447591 31.612567 1.243015 0.986132 0.100329 -0.041691 904707.000000 0 0 1
-8.953546 -26.247420 17.027291 32.542613 1.242053 1.020159 0.097846 -0.037436 -155043.000000 0 0 1
-10.458646 -26.429720 17.243191 33.245165 1.193989 1.025504 0.085804 -0.036220 -629418.000000 0 0 1
-11.185046 -25.683920 16.283091 32.402284 1.160076 1.044275 0.103433 -0.038968 1162580.000000 0 0 1
-12.628746 -25.843420 16.355891 33.089012 1.116259 1.053767 0.081698 -0.034436 1584810.000000 0 0 1
-13.348346 -25.047420 17.465991 33.325852 1.081159 1.019141 0.088321 -0.027313 -570268.000000 0 0 1
-13.472346 -23.668920 17.198091 32.210188 1.053332 1.007551 0.077139 -0.034503 -162119.000000 0 0 1
-13.850046 -22.877320 18.295291 32.402364 1.026412 0.970814 0.077590 -0.022413 214887.000000 0 0 1
-12.688446 -22.262220 19.151391 31.990293 1.052762 0.928966 0.072693 -0.033062 267225.000000 0 0 1
-11.932046 -23.068020 19.991691 32.774608 1.093440 0.914767 0.080436 -0.033647 -95259.200000 0 0 1
-10.553446 -22.879620 19.704391 31.986173 1.138618 0.907105 0.124654 -0.042722 873164.000000 0 0 1
-9.578946 -23.814520 20.536891 32.873263 1.188368 0.896012 0.124861 -0.043344 590678.000000 0 0 1
-9.575046 -23.530820 21.929891 33.560410 1.184343 0.858669 0.118484 -0.045936 200344.000000 0 0 1
-8.576346 -24.313720 22.556291 34.256342 1.231685 0.852031 0.135269 -0.046201 194892.000000 0 0 1
-8.308846 -23.904020 24.068491 34.924652 1.236268 0.810474 0.140243 -0.048744 223368.000000 0 0 1
-7.153946 -24.522820 24.602891 35.466179 1.286947 0.804183 0.152262 -0.048723 62036.700000 0 0 1
-6.840246 -23.823320 25.809491 35.783646 1.291194 0.765169 0.134068 -0.036393 335039.000000 0 0 1
-5.712846 -24.444620 26.697691 36.646183 1.341211 0.754629 0.139139 -0.024140 544164.000000 0 0 1
-4.439246 -24.249120 26.118291 35.915064 1.389733 0.756528 0.153586 -0.032125 -391814.000000 0 0 1
-3.359546 -24.581720 26.930291 36.616773 1.434969 0.744446 0.146165 -0.027743 39402.600000 0 0 1
-2.043746 -23.886320 26.505991 35.739344 1.485443 0.735273 0.134750 -0.027991 -50679.800000 0 0 1
-2.045646 -22.475320 26.733891 34.986077 1.480029 0.701106 0.140829 -0.031964 203603.000000 0 0 1
-0.765846 -21.926220 26.503291 34.405960 1.535882 0.691468 0.129013 -0.036399 445566.000000 0 0 1
0.254254 -21.708120 27.651791 35.155777 -1.559084 0.665594 0.113184 -0.023005 19859.000000 0 0 1
0.766554 -22.878320 28.129491 36.266698 -1.537303 0.683086 0.114396 -0.020386 317751.000000 0 0 1
1.724154 -22.592920 29.165991 36.933288 -1.494630 0.660486 0.096535 -0.029466 443897.000000 0 0 1
2.501554 -23.727320 29.836991 38.203266 -1.465755 0.674521 0.126855 -0.044913 -392642.000000 0 0 1
3.557954 -24.328120 29.130891 38.119880 -1.425577 0.701009 0.106482 -0.043398 110250.000000 0 0 1
4.141654 -25.388020 29.872891 39.422005 -1.409087 0.710904 0.096083 -0.043631 -749057.000000 0 0 1
5.305454 -25.031820 30.870191 40.096241 -1.361939 0.692108 0.070826 -0.044394 1573020.000000 0 0 1
6.597954 -24.633520 30.302691 39.605510 -1.309095 0.699579 0.078187 -0.039515 1354380.000000 0 0 1
7.157154 -25.634920 29.463691 39.704950 -1.298534 0.734649 0.073981 -0.037694 -1205040.000000 0 0 1
8.422154 -25.038520 28.797191 39.078618 -1.246317 0.742317 0.070419 -0.026817 49604.100000 0 0 1
8.154654 -24.224920 27.690691 37.684473 -1.246088 0.745419 0.070709 -0.034355 240979.000000 0 0 1
9.318954 -24.130620 26.881291 37.305945 -1.202253 0.766182 0.064864 -0.019900 142253.000000 0 0 1
9.226754 -22.966820 25.869091 35.802482 -1.188788 0.763312 0.070920 -0.012483 -165963.000000 0 0 1
8.369054 -23.255420 24.803391 35.015194 -1.225351 0.783623 0.059475 -0.011914 -149466.000000 0 0 1
8.206954 -22.104520 24.083991 33.704637 -1.215291 0.774801 0.066211 -0.013966 53242.500000 0 0 1
7.533254 -22.237620 22.683891 32.646908 -1.244168 0.802620 0.058874 -0.009868 199726.000000 0 0 1
8.226554 -23.039620 21.692591 32.696617 -1.227845 0.845375 0.052201 -0.010450 447648.000000 0 0 1
7.623454 -22.875820 20.377191 31.569766 -1.249117 0.869164 0.064009 -0.003433 163963.000000 0 0 1
8.362754 -23.563920 19.202691 31.526772 -1.229766 0.915882 0.101780 -0.018756 882590.000000 0 0 1
9.719254 -23.155120 18.974091 31.474428 -1.173385 0.923739 0.098499 -0.022782 212028.000000 0 0 1
10.396754 -24.129420 18.282591 32.008976 -1.163960 0.962865 0.108591 -0.033380 250933.000000 0 0 1
11.910554 -23.862120 18.028491 32.191436 -1.107836 0.976362 0.100888 -0.030155 500738.000000 0 0 1
12.077254 -22.738720 17.151391 30.936704 -1.082555 0.983151 0.108785 -0.024694 473669.000000 0 0 1
13.348954 -22.652420 16.490891 31.036691 -1.038285 1.010620 0.103988 -0.025257 379400.000000 0 0 1
-12.736546 22.198225 11.007991 27.859588 -1.049891 1.164594 0.036856 -0.015707 -145560.000000 0 0 1
-13.789346 21.240025 10.953691 27.591087 -0.994973 1.162549 0.014535 -0.025861 170825.000000 0 0 1
-13.451346 19.970225 10.372891 26.217274 -0.978030 1.164020 0.055230 -0.031110 -135838.000000 0 0 1
-14.417946 19.548925 9.252891 25.993338 -0.935323 1.206843 0.046612 -0.025299 -975207.000000 0 0 1
-14.588646 20.490525 8.133491 26.435656 -0.952082 1.258052 0.052084 -0.022113 -230953.000000 0 0 1
-15.321846 20.030325 7.036191 26.181690 -0.917807 1.298707 0.059911 -0.018079 803530.000000 0 0 1
-16.872446 19.938125 7.316591 27.124542 -0.868489 1.297673 0.043404 -0.024079 294801.000000 0 0 1
-17.142146 18.901025 8.273891 26.824600 -0.834159 1.257239 0.031160 -0.023442 7667.710000 0 0 1
-18.523446 18.893525 8.602691 27.822466 -0.795289 1.256445 0.046395 -0.016759 10249.900000 0 0 1
-18.887646 17.755625 9.543891 27.624106 -0.754515 1.218034 0.045594 -0.015580 -268193.000000 0 0 1
-18.901146 16.438025 8.976691 26.609077 -0.715811 1.226691 0.053579 -0.015430 69722.500000 0 0 1
-19.288746 15.389825 9.872891 26.577743 -0.673438 1.190202 0.061850 -0.023777 -764834.000000 0 0 1
-18.280846 14.908625 10.900391 25.986053 -0.684141 1.137934 0.044312 -0.015619 -333544.000000 0 0 1
-17.187246 14.215225 10.326291 24.578575 -0.691036 1.137204 0.021057 0.000078 -299384.000000 0 1 0
-16.466546 13.320725 11.094991 23.909991 -0.680179 1.088255 0.020838 -0.010621 114626.000000 0 1 0
-17.231946 12.202225 11.952691 24.263163 -0.616153 1.055690 0.028807 -0.010350 34698.900000 0 1 0
-18.135846 11.460725 11.125891 24.166973 -0.563573 1.092378 0.025708 -0.009376 -84389.100000 0 1 0
-18.874546 10.653925 12.008391 24.778137 -0.513877 1.064849 0.036629 -0.007888 -305116.000000 0 1 0
-19.935946 9.868625 11.211191 24.910289 -0.459653 1.103961 0.052090 -0.012865 -115517.000000 0 1 0
-19.411246 8.797125 10.369591 23.700512 -0.425510 1.117951 0.039774 -0.015221 462521.000000 0 1 0
-18.944546 9.144625 9.072991 22.909368 -0.449716 1.163598 0.056022 -0.018470 -350925.000000 0 1 0
-20.051446 9.505625 8.068491 23.611818 -0.442683 1.222056 0.071492 -0.020570 -35421.700000 0 1 0
-20.766146 8.354825 7.622991 23.646266 -0.382513 1.242558 0.071805 -0.020778 370992.000000 0 1 0
-21.532846 8.685825 6.491991 24.109188 -0.383413 1.298157 0.085410 -0.023111 -118277.000000 0 1 0
-21.683146 7.480525 5.581891 23.606664 -0.332207 1.332082 0.086224 -0.027089 -223671.000000 0 1 0
-22.495046 6.509625 6.217891 24.229413 -0.281686 1.311267 0.118227 -0.031327 497854.000000 0 1 0
-22.052046 5.242325 5.843191 23.407639 -0.233393 1.318501 0.112768 -0.033226 18475.200000 0 1 0
-23.154346 4.157925 6.025191 24.284048 -0.177681 1.320064 0.133566 -0.032900 658101.000000 0 1 0
-24.316846 4.324525 5.201691 25.240208 -0.176001 1.363221 0.176670 -0.040057 615414.000000 0 0 1
-25.048956 3.141525 5.121791 25.759505 -0.124764 1.370631 0.196389 -0.041166 -225081.000000 0 0 1
-26.189256 3.180325 4.069591 26.693691 -0.120845 1.417744 0.208377 -0.042146 169943.000000 0 0 1
-25.777856 3.044825 2.682391 26.095287 -0.117573 1.467822 0.208913 -0.030623 761762.000000 0 0 1
-26.934886 2.971325 1.834591 27.160312 -0.109871 1.503198 0.212790 -0.031485 473823.000000 0 0 1
-26.673846 2.721325 0.354991 26.814654 -0.101670 1.557557 0.238111 -0.032171 -207086.000000 0 0 1
-26.014256 3.821425 -0.310209 26.295266 -0.145854 1.582594 0.214805 -0.032139 464780.000000 0 0 1
-26.172516 3.920125 -1.741209 26.521685 -0.148675 1.636496 0.231540 -0.032296 -847124.000000 0 0 1
-27.480466 4.463825 -2.274909 27.933438 -0.161030 1.652327 0.237203 -0.048606 396279.000000 0 0 1
-28.596056 3.558325 -2.022909 28.887510 -0.123798 1.640881 0.240224 -0.047296 1019810.000000 0 0 1
-29.821946 4.222125 -1.738109 30.169451 -0.140643 1.628440 0.214337 -0.027050 465191.000000 0 0 1
-30.950786 3.143325 -1.630409 31.152686 -0.101212 1.623156 0.221721 -0.028036 60233.100000 0 0 1
-31.418506 2.678425 -2.920409 31.667416 -0.085044 1.663149 0.209280 -0.032761 758458.000000 0 0 1
-32.361106 1.614725 -2.842409 32.525802 -0.049856 1.658297 0.221415 -0.042258 37557.600000 0 0 1
-32.829906 1.148925 -4.264709 33.125677 -0.034982 1.699898 0.219395 -0.058568 67152.100000 0 0 1
-31.796376 0.564325 -5.068709 32.202791 -0.017746 1.728853 0.243406 -0.062202 561041.000000 0 0 1
-32.205576 -0.054675 -6.301309 32.816285 0.001698 1.764014 0.256291 -0.058678 -286388.000000 0 0 1
-32.786196 0.823225 -7.447909 33.631587 -0.025104 1.794103 0.236026 -0.061494 -436253.000000 0 0 1
-34.141910 1.116525 -7.278909 34.927054 -0.032691 1.780738 0.238079 -0.058644 -284971.000000 0 0 1
-34.544269 1.954425 -8.381409 35.600201 -0.056517 1.808459 0.186748 -0.046525 -1051530.000000 0 0 1
-36.013539 2.239625 -8.564809 37.085669 -0.062108 1.803847 0.170649 -0.040888 -887056.000000 0 0 1
-36.570036 2.864325 -7.445409 37.430014 -0.078165 1.771047 0.167908 -0.032234 -832067.000000 0 0 1
36.934533 2.786325 -7.311409 37.754205 0.075297 1.765686 0.161318 -0.019116 -1041890.000000 0 0 1
36.406513 3.521825 -6.100509 37.081716 0.096436 1.736063 0.179815 -0.027880 -868760.000000 0 0 1
35.023623 3.627525 -6.130509 35.740680 0.103206 1.743176 0.155675 -0.035007 -359652.000000 0 0 1
34.442003 3.974225 -4.857809 35.009203 0.114881 1.710004 0.165024 -0.030248 778685.000000 0 0 1
33.028323 3.323925 -4.665209 33.521378 0.100301 1.710421 0.151745 -0.025501 363381.000000 0 0 1
33.051683 1.958725 -4.439409 33.405968 0.059193 1.704083 0.147030 -0.032995 -898747.000000 0 0 1
31.838843 1.336125 -4.491709 32.181867 0.041941 1.710826 0.112604 -0.031822 -1525620.000000 0 0 1
32.013753 -0.068875 -3.846009 32.244021 -0.002151 1.690359 0.163816 -0.029758 -141711.000000 0 0 1
32.885273 -0.970775 -4.488809 33.204412 -0.029511 1.706399 0.108449 -0.030712 164872.000000 0 0 1
33.113403 -2.084175 -3.609109 33.374644 -0.062858 1.679147 0.122972 -0.024315 -764260.000000 0 0 1
34.431573 -2.805975 -3.770909 34.750920 -0.081315 1.679523 0.106252 -0.026821 -672557.000000 0 0 1
34.400343 -4.055375 -3.039809 34.771685 -0.117346 1.658330 0.088022 -0.030267 -469542.000000 0 0 1
35.558913 -4.819175 -3.153709 36.022307 -0.134706 1.658457 0.125080 -0.028763 -311821.000000 0 0 1
35.393173 -6.197775 -2.514309 36.019590 -0.173354 1.640657 0.130891 -0.035275 -41186.100000 0 0 1
35.282603 -6.172475 -1.161909 35.837293 -0.173191 1.603224 0.130943 -0.038730 -137610.000000 0 0 1
35.275143 -7.451875 -0.571609 36.058187 -0.208189 1.586649 0.167205 -0.043945 -53984.700000 0 0 1
34.429323 -7.635875 0.696991 35.272803 -0.218251 1.551035 0.162591 -0.035754 369944.000000 0 0 1
33.017533 -7.583175 0.477591 33.880527 -0.225756 1.556700 0.141353 -0.031150 834576.000000 0 0 1
32.189703 -7.558075 1.639491 33.105730 -0.230620 1.521253 0.187764 -0.051181 -263388.000000 0 0 1
32.011473 -9.002175 2.259291 33.329836 -0.274137 1.502958 0.166011 -0.043543 -448658.000000 0 0 1
30.884553 -9.695475 1.794391 32.420328 -0.304184 1.515420 0.153956 -0.043385 608114.000000 0 0 1
29.601463 -9.282475 2.280691 31.106470 -0.303870 1.497412 0.146306 -0.042387 -378333.000000 0 0 1
28.472463 -10.218175 1.793891 30.303635 -0.344563 1.511564 0.139237 -0.040115 -250497.000000 0 0 1
27.178963 -9.927475 2.326191 29.028640 -0.350207 1.490576 0.152863 -0.044685 688575.000000 0 0 1
26.444563 -8.914475 1.738991 27.960809 -0.325137 1.508562 0.167488 -0.048551 -853452.000000 0 0 1
25.765263 -9.294675 0.390991 27.393295 -0.346214 1.556523 0.141659 -0.043214 -829321.000000 0 0 1
26.658963 -9.393075 -0.730909 28.274801 -0.338760 1.596649 0.138968 -0.051331 467222.000000 0 0 1
26.176163 -9.621775 -2.086109 27.966442 -0.352248 1.645459 0.137234 -0.047074 -350463.000000 0 0 1
25.474963 -11.005875 -2.278909 27.844145 -0.407808 1.652733 0.123365 -0.033042 -385440.000000 0 0 1
24.157263 -11.029975 -1.830209 26.619229 -0.428321 1.639606 0.118644 -0.016958 -385726.000000 0 0 1
23.595263 -12.353875 -1.762109 26.691940 -0.482329 1.636861 0.098562 -0.011189 -31681.900000 0 0 1
22.073763 -12.378475 -1.541609 25.354570 -0.511080 1.631636 0.104921 -0.019038 187095.000000 0 0 1
21.327863 -11.814575 -2.651109 24.525299 -0.505871 1.679105 0.115740 -0.018620 827093.000000 0 1 0
19.934263 -11.817475 -2.374709 23.295209 -0.535125 1.672914 0.130631 -0.029682 388743.000000 0 1 0
19.008363 -11.247475 -3.472909 22.358100 -0.534303 1.726759 0.125422 -0.026506 98645.800000 0 1 0
18.741563 -12.153975 -4.540909 22.794410 -0.575323 1.771350 0.111956 -0.024544 351819.000000 0 1 0
17.849763 -11.583575 -5.476809 21.972453 -0.575636 1.822710 0.101927 -0.025486 -364876.000000 0 1 0
17.884563 -12.393075 -6.743409 22.779804 -0.605977 1.871326 0.110540 -0.028431 -280746.000000 0 1 0
17.095463 -13.548475 -6.818209 22.853971 -0.670163 1.873747 0.093502 -0.027830 165777.000000 0 1 0
17.722863 -14.483275 -7.664809 24.137407 -0.685146 1.893940 0.111604 -0.029420 177381.000000 0 1 0
16.724063 -15.571075 -8.221609 24.284717 -0.749712 1.916173 0.100683 -0.029690 128863.000000 0 1 0
15.920163 -14.958675 -9.197409 23.702444 -0.754271 1.969296 0.123426 -0.019675 12598.000000 0 1 0
15.181563 -15.976075 -9.826909 24.130540 -0.810892 1.990226 0.109564 -0.024156 24101.800000 0 1 0
14.419163 -15.674775 -11.169909 24.049484 -0.827097 2.053816 0.113093 -0.036243 1435740.000000 0 1 0
13.160663 -14.927475 -11.053109 22.764089 -0.848218 2.077789 0.086750 -0.033955 1262950.000000 0 1 0
13.239763 -13.516175 -10.872609 21.821822 -0.795729 2.092370 0.077745 -0.025554 -269591.000000 0 1 0
13.481163 -12.638675 -12.168109 22.125567 -0.753155 2.153109 0.093253 -0.019602 675806.000000 0 1 0
14.787563 -12.679175 -12.766209 23.289688 -0.708787 2.150945 0.121579 -0.024354 627977.000000 0 1 0
14.729363 -12.107475 -14.058309 23.689262 -0.688010 2.206130 0.136672 -0.022526 250585.000000 0 1 0
16.045263 -11.702675 -14.796309 24.765577 -0.630156 2.211120 0.142850 -0.033068 872354.000000 0 1 0
16.990963 -12.775975 -15.006909 26.021638 -0.644734 2.185491 0.143563 -0.029179 -76706.400000 0 0 1
17.845763 -12.505575 -16.029909 27.052146 -0.611235 2.205024 0.126843 -0.019957 -513214.000000 0 0 1
19.076163 -13.432275 -16.203809 28.405799 -0.613499 2.177838 0.112669 -0.018525 -346117.000000 0 0 1
19.956063 -13.269475 -15.146509 28.350311 -0.586802 2.134431 0.106555 -0.023118 -276511.000000 0 0 1
21.045963 -14.168075 -15.319709 29.637145 -0.592510 2.114033 0.082973 -0.013892 73701.600000 0 0 1
22.029663 -14.091775 -14.137509 29.727989 -0.569081 2.066399 0.067615 -0.007837 58378.500000 0 0 1
22.706463 -12.858275 -14.049609 29.636298 -0.515258 2.064701 0.070246 -0.016941 27151.200000 0 0 1
23.863463 -12.850475 -13.237509 30.163408 -0.493971 2.025126 0.064392 -0.007197 448786.000000 0 0 1
24.604463 -11.498375 -13.162209 30.180059 -0.437171 2.022082 0.078486 -0.018566 -50405.300000 0 0 1
23.801663 -10.504275 -12.528409 28.875941 -0.415617 2.019580 0.071514 -0.012828 513410.000000 0 0 1
24.389563 -9.184975 -12.503709 28.906007 -0.360168 2.018131 0.092256 -0.025560 1073830.000000 0 0 1
25.620063 -8.881275 -11.542209 29.470108 -0.333690 1.973229 0.103560 -0.017358 1011500.000000 0 0 1
26.843863 -9.485375 -11.931609 30.869541 -0.339659 1.967649 0.095031 -0.010719 -19243.800000 0 0 1
27.843263 -9.098075 -11.001409 31.289826 -0.315823 1.930073 0.108767 -0.016400 -40547.800000 0 0 1
29.068963 -10.024275 -11.283709 32.753821 -0.332075 1.922503 0.134527 -0.019439 -168409.000000 0 0 1
29.524063 -9.857875 -12.585809 33.574552 -0.322254 1.955044 0.126804 -0.018206 -287670.000000 0 0 1
30.773453 -10.485575 -12.697109 34.902281 -0.328397 1.943130 0.111825 -0.019036 -160007.000000 0 0 1
31.699743 -9.951275 -13.801209 35.977422 -0.304181 1.964496 0.087171 -0.013940 -75269.400000 0 0 1
31.417323 -10.614675 -14.997609 36.395711 -0.325820 1.995522 0.080907 -0.008186 23829.100000 0 0 1
32.010223 -9.963975 -16.085709 37.184475 -0.301768 2.018162 0.052224 -0.017149 -174047.000000 0 0 1
31.657463 -10.551275 -17.513709 37.686262 -0.321716 2.054119 0.025247 -0.003702 893261.000000 0 0 1
30.424903 -10.153775 -18.157909 36.857611 -0.322110 2.085929 0.037630 -0.005070 970183.000000 0 0 1
30.414273 -8.845375 -18.643109 36.753696 -0.283023 2.102781 0.032477 -0.009460 -1434160.000000 0 0 1
29.024263 -8.529575 -19.087509 35.770022 -0.285830 2.133669 0.004809 -0.014156 -1229820.000000 0 0 1
28.581463 -9.237375 -20.207209 36.201663 -0.312598 2.162992 0.023017 -0.008786 -576317.000000 0 0 1
27.219863 -9.028275 -20.375009 35.179137 -0.320262 2.188517 0.073405 -0.006679 -736085.000000 0 0 1
26.663263 -9.726075 -21.642909 35.692319 -0.349776 2.222289 0.096058 -0.015217 -178914.000000 0 0 1
26.671363 -11.128975 -21.695109 36.137147 -0.395299 2.214741 0.099749 -0.018800 352039.000000 0 0 1
26.056463 -11.427775 -22.988609 36.578811 -0.413314 2.250378 0.113080 -0.022487 -799298.000000 0 0 1
26.234763 -12.889275 -23.415809 37.452587 -0.456668 2.246200 0.123105 -0.016586 625210.000000 0 0 1
27.446263 -13.403875 -23.952309 38.815903 -0.454299 2.235816 0.118371 -0.014111 165265.000000 0 0 1
28.666263 -12.972375 -23.429309 39.229704 -0.424957 2.210844 0.083836 -0.012388 -750364.000000 0 0 1
29.973873 -13.384575 -24.136609 40.745009 -0.419974 2.204809 0.073825 -0.008867 271596.000000 0 0 1
30.313383 -12.715975 -25.354359 41.514343 -0.397189 2.227788 0.064454 -0.010272 -100275.000000 0 0 1
31.616853 -13.103675 -25.691869 42.794904 -0.392903 2.214733 0.029906 -0.007663 -27830.600000 0 0 1
32.361333 -12.681575 -26.975149 43.997010 -0.373482 2.230792 0.054365 -0.018459 136799.000000 0 0 1
32.008713 -13.482975 -28.062249 44.652414 -0.398672 2.250368 0.061279 -0.024013 243741.000000 0 0 1
32.828023 -13.196675 -29.186399 45.865861 -0.382224 2.260544 0.050950 -0.024667 233250.000000 0 0 1
32.444063 -14.014675 -30.457289 46.654847 -0.407755 2.282100 0.062950 -0.025441 -72941.000000 0 0 1
32.899903 -15.320375 -30.265519 47.255890 -0.435805 2.265894 0.071689 -0.024361 -155465.000000 0 0 1
32.865603 -16.153475 -31.434239 48.261724 -0.456825 2.280130 0.055560 -0.022314 558117.000000 0 0 1
31.507663 -16.613675 -32.072699 47.931253 -0.485240 2.303847 0.046496 -0.020959 594745.000000 0 0 1
30.830433 -15.620175 -32.869219 47.695817 -0.468952 2.331101 0.050135 -0.024461 218276.000000 0 0 1
29.602963 -16.219175 -33.271019 47.395756 -0.501222 2.348974 0.033122 -0.021902 210387.000000 0 0 1
28.782363 -15.305675 33.611151 46.823046 -0.488742 0.770111 0.047028 -0.022324 -391954.000000 0 0 1
28.126363 -14.238675 -33.624729 46.091805 -0.468627 2.388411 0.050199 -0.024821 -400106.000000 0 0 1
28.974363 -13.171175 -33.389119 46.128373 -0.426656 2.380134 0.057528 -0.028025 -488221.000000 0 0 1
28.195963 -11.865675 -33.010169 45.005309 -0.398332 2.394213 0.069878 -0.023518 276779.000000 0 0 1
27.503863 -11.247175 33.783776 44.992277 -0.388181 0.721404 0.071035 -0.028451 -64732.200000 0 0 1
26.883963 -10.056475 -33.571669 44.169413 -0.357955 2.434211 0.042555 -0.021021 109157.000000 0 0 1
21.189254 -29.254020 9.531691 37.358203 -0.943934 1.312801 0.054293 -0.020065 -56748.300000 0 0 1
21.559654 -29.192320 8.173891 37.199768 -0.934671 1.349259 0.051391 -0.022827 940905.000000 0 0 1
22.803654 -29.910320 7.988791 38.450678 -0.919406 1.361504 0.078819 -0.021301 880700.000000 0 0 1
23.400854 -29.746020 6.547991 38.409658 -0.904225 1.399482 0.081716 -0.019470 15987.500000 0 0 1
23.868854 -28.457620 6.252691 37.665030 -0.872869 1.404016 0.071797 -0.013927 213426.000000 0 0 1
24.427354 -28.295920 4.933391 37.705345 -0.858642 1.439579 0.084893 -0.010855 199091.000000 0 0 1
24.440454 -26.887520 4.437091 36.605496 -0.833037 1.449284 0.086607 -0.016638 -18186.300000 0 0 1
25.293454 -26.086620 5.216591 36.708083 -0.800834 1.428203 0.076361 -0.013057 -9853.800000 0 0 1
25.438454 -24.794620 4.632491 35.823848 -0.772582 1.441120 0.058845 -0.002916 -64557.600000 0 0 1
26.186054 -23.764020 5.492791 35.785595 -0.736947 1.416695 0.054981 -0.004433 -119273.000000 0 0 1
27.590154 -23.861620 5.380891 36.872042 -0.713058 1.424339 0.080367 -0.011970 154874.000000 0 0 1
28.406354 -23.082220 6.263891 37.134164 -0.682360 1.401303 0.083287 -0.015723 279192.000000 0 0 1
28.063854 -21.590720 6.609991 36.019871 -0.655766 1.386241 0.073231 -0.012557 -493950.000000 0 0 1
28.040854 -20.692320 5.538691 35.286523 -0.635734 1.413181 0.089735 -0.014571 118730.000000 0 0 1
27.713954 -19.337920 5.944791 34.312665 -0.609227 1.396664 0.092359 -0.026033 -136019.000000 0 0 1
27.762354 -18.303220 4.835091 33.602593 -0.582873 1.426405 0.095920 -0.019509 1323900.000000 0 0 1
29.083554 -17.909620 4.356291 34.432323 -0.551955 1.443939 0.126118 -0.018932 1248440.000000 0 0 1
28.938354 -17.137520 3.189291 33.783051 -0.534670 1.476250 0.117651 -0.017318 -264584.000000 0 0 1
29.961554 -16.025920 3.003391 34.110778 -0.491163 1.482634 0.124842 -0.026998 -120738.000000 0 0 1
29.633754 -14.765420 3.595591 33.303233 -0.462257 1.462620 0.120461 -0.028611 51230.500000 0 0 1
30.806854 -14.017520 3.793791 34.057980 -0.427015 1.459173 0.139639 -0.036472 117865.000000 0 0 1
30.521454 -12.789420 4.711291 33.426407 -0.396804 1.429380 0.148759 -0.037863 162575.000000 0 0 1
30.506854 -13.312220 6.025891 33.825948 -0.411460 1.391696 0.136849 -0.042845 110391.000000 0 0 1
30.095854 -12.351020 6.971191 33.270192 -0.389431 1.359699 0.129147 -0.041921 -223672.000000 0 0 1
30.103654 -12.676620 8.481991 33.747161 -0.398562 1.316732 0.137191 -0.034754 -80078.500000 0 0 1
28.791354 -13.097320 8.830091 32.839799 -0.426925 1.298562 0.111487 -0.019875 302683.000000 0 0 1
28.442054 -13.251320 10.222191 33.000623 -0.436002 1.255858 0.121442 -0.017183 -16756.600000 0 0 1
29.120554 -14.320220 11.106091 34.298989 -0.457031 1.241051 0.120323 -0.017986 -38697.500000 0 0 1
30.493154 -14.193220 11.420991 35.520684 -0.435632 1.243451 0.106734 -0.018366 136382.000000 0 0 1
30.943754 -15.428320 11.950691 36.583712 -0.462521 1.238021 0.115182 -0.024135 483692.000000 0 0 1
31.880154 -15.211520 13.206391 37.711316 -0.445199 1.213015 0.112123 -0.019812 -688273.000000 0 0 1
33.038954 -14.540620 12.950991 38.350102 -0.414595 1.226320 0.084627 -0.015876 -658985.000000 0 0 1
33.852454 -14.533420 14.149091 39.463980 -0.405521 1.204102 0.078139 -0.011927 508847.000000 0 0 1
35.383254 -14.567620 13.937591 40.724031 -0.390560 1.221491 0.080876 -0.003617 98867.100000 0 0 1
35.975154 -13.331420 13.598891 40.704648 -0.354884 1.230160 0.092564 -0.006800 440450.000000 0 0 1
37.332354 -13.394820 13.195291 41.800019 -0.344492 1.249627 0.094060 -0.007045 195439.000000 0 0 1
-36.882554 -11.975020 13.273991 40.986860 0.313942 1.240990 0.107534 -0.013096 258922.000000 0 0 1
-35.837254 -11.777320 12.319991 39.683702 0.317515 1.255125 0.127705 -0.019674 225202.000000 0 0 1
-35.162354 -10.547320 12.416691 38.753210 0.291421 1.244640 0.133422 -0.030323 339294.000000 0 0 1
-33.920554 -10.554220 11.455891 37.326036 0.301650 1.258847 0.146887 -0.018561 396978.000000 0 0 1
-32.872654 -11.421120 11.812491 36.750351 0.334388 1.243562 0.126239 -0.021899 73531.300000 0 0 1
-33.020654 -12.681920 11.200791 37.103267 0.366690 1.264131 0.115682 -0.018866 -193838.000000 0 0 1
-32.044154 -13.780020 11.713291 36.795624 0.406125 1.246825 0.079408 -0.016913 688714.000000 0 0 1
-30.688654 -13.616420 11.332091 35.434681 0.417599 1.245276 0.097117 -0.017091 163488.000000 0 0 1
-29.887554 -14.750820 11.521191 35.264577 0.458469 1.237979 0.102276 -0.009228 558322.000000 0 0 1
-28.463454 -14.636820 10.902991 33.812422 0.474968 1.242474 0.116013 -0.005633 503066.000000 0 0 1
-28.655554 -14.729220 9.507891 33.593015 0.474792 1.283843 0.112513 -0.003457 413151.000000 0 0 1
-27.365954 -14.599720 8.954391 32.283562 0.490087 1.289744 0.105280 -0.001999 -39168.800000 0 0 1
-27.360654 -14.596720 7.428491 31.888118 0.490082 1.335681 0.144785 -0.006172 -49991.200000 0 0 1
-27.760554 -15.764120 6.751091 32.630247 0.516452 1.362394 0.142065 0.005896 106055.000000 0 0 1
-27.668454 -15.609720 5.334591 32.212801 0.513657 1.404425 0.154040 -0.000270 -154156.000000 0 0 1
-28.129154 -16.811820 4.482591 33.075371 0.538701 1.434851 0.128447 0.001630 -211395.000000 0 0 1
-29.533754 -16.845120 4.484091 34.294427 0.518347 1.439668 0.085502 -0.005304 -248569.000000 0 0 1
-29.993354 -17.915320 3.646091 35.126257 0.538439 1.466809 0.091046 -0.007594 -317797.000000 0 0 1
-31.506654 -18.097720 3.751291 36.527645 0.521390 1.467918 0.102714 -0.019169 -70633.400000 0 0 1
-32.297154 -17.118420 3.065391 36.681645 0.487381 1.487131 0.126375 -0.023480 -467724.000000 0 0 1
-33.647654 -17.222820 3.344591 37.947021 0.473089 1.482543 0.131862 -0.027296 -979123.000000 0 0 1
-34.638654 -16.243820 2.745591 38.356698 0.438501 1.499155 0.143323 -0.035687 10386.100000 0 0 1
-35.003654 -16.637120 1.408591 38.781873 0.443690 1.534467 0.127292 -0.032780 -189616.000000 0 0 1
-36.002854 -15.782020 0.912291 39.320604 0.413128 1.547593 0.176131 -0.039338 146180.000000 0 0 1
-36.489354 -16.286820 -0.507609 39.962371 0.419810 1.583499 0.148560 -0.043690 370869.000000 0 0 1
-35.354454 -16.391620 -1.373009 38.993689 0.434136 1.606015 0.144494 -0.036253 763216.000000 0 0 1
-35.650154 -17.235020 -2.477309 39.675136 0.450319 1.633277 0.117770 -0.030684 359124.000000 0 0 1
-34.364454 -17.652620 -3.239209 38.768842 0.474538 1.654446 0.107126 -0.030300 297253.000000 0 0 1
-34.751654 -18.584920 -4.206509 39.632958 0.491093 1.677133 0.101022 -0.034364 169988.000000 0 0 1
-33.668454 -19.406720 -4.570009 39.128896 0.522891 1.687857 0.103279 -0.026513 -106070.000000 0 0 1
-34.104654 -20.514520 -5.560209 40.185680 0.541534 1.709605 0.109483 -0.026304 -139891.000000 0 0 1
-34.781554 -21.620020 -5.049509 41.263534 0.556147 1.693476 0.109340 -0.027093 -72285.600000 0 0 1
-35.164154 -22.581020 -6.015709 42.220953 0.570844 1.713764 0.103462 -0.025772 61336.100000 0 0 1
-35.637054 -23.919420 -5.339309 43.250971 0.591131 1.694562 0.089742 -0.019623 508929.000000 0 0 1
-34.642154 -24.751620 -4.721309 42.837043 0.620388 1.681236 0.091885 -0.017528 361915.000000 0 0 1
-35.314654 -25.935920 -4.247809 44.020911 0.633458 1.667442 0.071958 -0.006882 399453.000000 0 0 1
-34.340254 -27.022920 -3.766509 43.859752 0.666712 1.656778 0.067861 -0.010994 -624324.000000 0 0 1
-33.500054 -27.476620 -4.838809 43.596242 0.686935 1.682017 0.050085 -0.011022 978734.000000 0 0 1
-32.597454 -28.586020 -4.556609 43.594922 0.719928 1.675509 0.055761 -0.012881 385567.000000 0 0 1
-31.621854 -28.449520 -3.412109 42.672700 0.732638 1.650842 0.070315 -0.024623 -1597230.000000 0 0 1
-32.209454 -28.526720 -2.126009 43.078331 0.724837 1.620169 0.058105 -0.021721 -380121.000000 0 0 1
-31.247354 -28.354920 -1.122209 42.209690 0.736907 1.597386 0.070833 -0.026529 -269623.000000 0 0 1
-31.785354 -28.217920 0.299791 42.504701 0.726014 1.563743 0.058543 -0.019549 -104034.000000 0 0 1
-32.301654 -29.436120 0.830491 43.710087 0.739017 1.551795 0.055655 -0.011851 171116.000000 0 0 1
-33.369454 -29.155220 1.741291 44.346131 0.718099 1.531520 0.070337 -0.015229 261535.000000 0 0 1
-34.137854 -30.432520 2.193691 45.785845 0.728077 1.522866 0.048790 -0.016128 -1530030.000000 0 0 1
-35.004654 -30.169220 3.209191 46.322851 0.711341 1.501462 0.057340 -0.017298 -455552.000000 0 0 1
-35.530554 -31.357220 3.815291 47.542107 0.723086 1.490459 0.063805 -0.008067 266696.000000 0 0 1
-36.507254 -32.230220 2.998891 48.790983 0.723256 1.509294 0.041319 -0.003191 -249261.000000 0 0 1
-37.329054 -33.100920 3.799391 50.035632 0.725437 1.494789 0.051149 -0.003902 727641.000000 0 0 1
36.470954 -33.616120 3.010291 49.691406 -0.744688 1.510179 0.039732 0.001143 -249917.000000 0 0 1
35.363454 33.388425 3.774291 48.781207 0.756679 1.493347 0.044142 -0.001487 503742.000000 0 0 1
34.470754 -33.585720 4.571691 48.343912 -0.772394 1.476089 0.045899 -0.005398 776147.000000 0 0 1
33.828954 -32.402720 4.108191 47.023522 -0.763867 1.483320 0.041979 -0.008249 -477006.000000 0 0 1
32.858154 -32.463620 2.901891 46.281377 -0.779358 1.508054 0.051378 -0.008586 -763172.000000 0 0 1
33.437954 -32.911220 1.668191 46.947077 -0.777459 1.535255 0.057393 -0.005301 121650.000000 0 0 1
32.641954 -32.650320 0.466591 46.170968 -0.785526 1.560690 0.062901 -0.006466 -83077.500000 0 0 1
33.172754 -33.495420 -0.770309 47.148363 -0.790238 1.587135 0.078259 -0.008340 1558980.000000 0 0 1
34.435154 -33.147020 -1.393809 47.816812 -0.766340 1.599949 0.049825 0.002190 419787.000000 0 0 1
35.569154 -33.260720 -0.570609 48.700778 -0.751872 1.582513 0.044497 0.006698 -1200940.000000 0 0 1
36.835554 -33.000020 -1.370009 49.474602 -0.730531 1.598491 0.041711 0.007895 -677750.000000 0 0 1
37.262554 33.669525 -2.099309 50.264719 0.734787 1.612574 0.038916 -0.005453 103534.000000 0 0 1
-36.746754 -33.698020 -3.127409 49.956592 0.742147 1.633440 0.041225 -0.006682 -515337.000000 0 0 1
-36.221454 32.923625 -3.997009 49.111454 -0.737740 1.652273 0.046167 -0.010006 -317616.000000 0 0 1
-35.219154 32.203025 -3.333409 47.838638 -0.740693 1.640533 0.039605 -0.009940 -116851.000000 0 0 1
-34.403754 31.531525 -4.271509 46.862577 -0.741864 1.662073 0.055435 -0.016024 813541.000000 0 0 1
-33.047054 30.909225 -3.739109 45.403402 -0.751984 1.653243 0.062272 -0.019782 198259.000000 0 0 1
-32.030554 31.859025 -3.611409 45.321034 -0.782713 1.650566 0.041032 -0.024962 -133071.000000 0 0 1
-30.758354 31.299725 -3.306009 44.007713 -0.794122 1.645991 0.067707 -0.024909 598345.000000 0 0 1
-30.581554 31.070825 -1.772209 43.632194 -0.793334 1.611425 0.053821 -0.015028 -814308.000000 0 0 1
-31.471654 30.175825 -1.195809 43.617375 -0.764381 1.598216 0.027481 -0.006201 -546655.000000 0 0 1
-31.240654 29.955925 0.183391 43.282439 -0.764408 1.566559 0.029177 0.001730 -516041.000000 0 0 1
-32.331954 29.171525 0.886791 43.555936 -0.734057 1.550435 0.038687 -0.004270 -578341.000000 0 0 1
-32.483554 27.878325 0.443991 42.808637 -0.709252 1.560425 0.043781 -0.018559 864350.000000 0 0 1
-33.586454 27.674325 -0.486409 43.521888 -0.689189 1.581973 0.056489 -0.019988 619905.000000 0 0 1
-33.737254 26.184225 -0.927709 42.716233 -0.660011 1.592516 0.076890 -0.011943 65287.300000 0 0 1
-34.217154 25.428025 0.201491 42.631428 -0.639094 1.566070 0.096535 -0.022259 398537.000000 0 0 1
-34.786054 24.151925 -0.202409 42.348861 -0.606890 1.575576 0.102494 -0.014618 -106765.000000 0 0 1
-34.691554 23.139225 0.965291 41.711622 -0.588233 1.547652 0.108254 -0.034281 -229881.000000 0 0 1
-33.391754 22.667125 1.189391 40.376013 -0.596372 1.541334 0.112088 -0.039567 -49553.300000 0 0 1
-32.759654 23.346925 2.269991 40.291770 -0.619181 1.514428 0.106925 -0.045578 -514755.000000 0 0 1
-31.234354 23.092825 2.398191 38.918052 -0.636644 1.509136 0.095610 -0.054777 579823.000000 0 0 1
-30.407154 23.970125 1.584091 38.751403 -0.667569 1.529907 0.089547 -0.044958 306788.000000 0 0 1
-30.247654 25.245325 2.043991 39.451551 -0.695498 1.518963 0.048292 -0.042286 -727830.000000 0 0 1
-29.667254 26.225625 1.022491 39.610287 -0.723900 1.544980 0.024153 -0.021992 720778.000000 0 0 1
-28.346654 25.834325 0.613591 38.357811 -0.739062 1.554799 0.030633 -0.022223 461628.000000 0 0 1
-27.877454 26.846925 -0.383809 38.704743 -0.766569 1.580713 0.034047 -0.012334 371989.000000 0 0 1
-26.625154 26.375225 -1.128409 37.494328 -0.780683 1.600896 0.034808 -0.012863 -203973.000000 0 0 1
-27.047154 25.464125 -2.159909 37.210689 -0.755261 1.628874 0.057179 -0.022254 774545.000000 0 0 1
-25.941954 24.860025 -2.876009 36.045489 -0.764104 1.650670 0.059955 -0.009024 1323090.000000 0 0 1
-25.056954 23.755825 -2.186309 34.597256 -0.758749 1.634032 0.052712 -0.018203 462549.000000 0 0 1
-25.784854 22.599525 -1.868009 34.337832 -0.719659 1.625224 0.051485 -0.019319 -503396.000000 0 0 1
-24.916554 21.740825 -1.216309 33.090445 -0.717438 1.607562 0.063736 -0.042593 -1027640.000000 0 0 1
-25.488154 20.330625 -0.835409 32.614080 -0.673306 1.596414 0.103323 -0.050588 -682838.000000 0 0 1
-26.363954 20.264625 0.263091 33.253305 -0.655330 1.562885 0.089037 -0.050572 190597.000000 0 0 1
-27.623854 20.900025 0.148591 34.639723 -0.647708 1.566507 0.078307 -0.051066 -110028.000000 0 0 1
-28.603054 20.344725 -0.936209 35.112947 -0.618255 1.597462 0.099525 -0.055424 -984798.000000 0 0 1
-29.072954 19.069325 -0.515209 34.772708 -0.580521 1.585613 0.122313 -0.055797 -477214.000000 0 0 1
-29.854854 18.536025 -1.500709 35.173124 -0.555625 1.613476 0.149239 -0.047890 -654680.000000 0 0 1
-30.038654 17.058725 -1.289009 34.568517 -0.516476 1.608093 0.163030 -0.040913 184635.000000 0 0 1
-30.879254 16.695725 -0.185809 35.104274 -0.495658 1.576089 0.160398 -0.052223 416647.000000 0 0 1
-31.134754 15.307525 -0.187709 34.694790 -0.456949 1.576207 0.162956 -0.055062 7547.010000 0 0 1
-30.027054 14.407525 0.440091 33.307573 -0.447372 1.557583 0.197944 -0.055984 -348659.000000 0 0 1
-29.868154 14.571625 1.834191 33.283677 -0.453893 1.515661 0.202925 -0.052671 -295089.000000 0 0 1
-28.516754 14.489025 2.189291 32.061349 -0.470097 1.502459 0.239863 -0.054609 -193163.000000 0 0 1
-27.769254 13.153325 2.241291 30.808518 -0.442359 1.497983 0.238637 -0.058274 -451020.000000 0 0 1
-27.479954 12.594925 0.969791 30.244347 -0.429761 1.538726 0.219455 -0.065211 -84311.100000 0 0 1
-26.813154 11.403825 1.054291 29.156543 -0.402131 1.534629 0.235601 -0.048949 -305433.000000 0 0 1
-26.551954 10.806825 -0.354709 28.669139 -0.386532 1.583169 0.208445 -0.042382 -433982.000000 0 0 1
-27.735854 10.199125 -0.801509 29.562513 -0.352376 1.597912 0.215829 -0.042547 143006.000000 0 0 1
-27.644954 9.640325 -2.119609 29.354252 -0.335533 1.643067 0.217474 -0.042981 273.130000 0 0 1
-29.009054 9.096125 -2.617109 30.514160 -0.303852 1.656669 0.210863 -0.049393 130400.000000 0 0 1
-28.998154 8.694425 -3.945909 30.529595 -0.291298 1.700408 0.200656 -0.042351 49777.900000 0 0 1
-30.079154 7.811325 -4.177109 31.356348 -0.254080 1.704408 0.184148 -0.035525 160275.000000 0 0 1
-11.340846 18.634625 -19.828609 29.479446 -1.024085 2.308547 0.128710 -0.022591 53306.600000 0 0 1
-11.738146 17.652225 -20.798109 29.697583 -0.983971 2.346656 0.127723 -0.023824 6283.910000 0 0 1
-10.714446 16.753225 -21.277409 29.123839 -1.001806 2.389973 0.113005 -0.034222 -318902.000000 0 0 1
-11.125246 15.718025 -22.261709 29.434862 -0.954853 2.428442 0.111231 -0.022152 -472032.000000 0 0 1
-10.143446 14.728025 -22.348609 28.622797 -0.967683 2.466738 0.126661 -0.033190 -117613.000000 0 0 1
-10.385746 13.802925 -23.448209 29.123924 -0.925741 2.506671 0.112027 -0.030042 -346963.000000 0 0 1
-9.624146 12.485325 -23.344809 28.168912 -0.914093 2.547655 0.084314 -0.020417 1212820.000000 0 0 1
-8.176746 12.585825 -23.334109 27.744239 -0.994647 2.570005 0.069684 -0.019070 1390550.000000 0 0 1
-7.556746 11.462125 -22.642709 26.479747 -0.987925 2.596531 0.051616 -0.013495 308024.000000 0 0 1
-6.033446 11.608425 -22.515609 26.040558 -1.091476 2.615222 0.039459 -0.008794 -52237.300000 0 0 1
-5.303846 11.450525 -23.704809 26.854483 -1.137022 2.652402 0.023824 -0.014214 -204160.000000 0 0 1
-3.934746 11.231125 -23.413409 26.264198 -1.233816 2.671347 0.030108 -0.012608 4700.760000 0 0 1
-3.096246 10.891025 -24.636009 27.113356 -1.293811 2.710788 0.056812 -0.022461 -262253.000000 0 0 1
-3.432246 9.658725 -25.256219 27.257070 -1.229362 2.756047 0.049936 -0.020429 130252.000000 0 0 1
-2.875846 9.681125 -26.589689 28.443035 -1.282042 2.778605 0.052718 -0.019337 85770.900000 0 0 1
-2.489146 8.282725 -27.198369 28.540334 -1.278860 2.833719 0.064686 -0.004948 808662.000000 0 0 1
-1.379546 7.556825 -26.623579 27.709632 -1.390228 2.860691 0.065138 -0.014470 595585.000000 0 0 1
-1.686746 6.924325 -25.394159 26.375267 -1.331853 2.867984 0.079528 -0.029013 -151813.000000 0 0 1
-0.620246 5.880525 -24.973109 25.663621 -1.465710 2.909094 0.012012 -0.013599 -376109.000000 0 0 1
0.483754 6.567525 -24.465709 25.336482 1.497271 2.878659 0.045787 -0.001904 -169020.000000 0 0 1
1.311354 5.691525 -23.664509 24.374620 1.344344 2.899618 0.047123 0.006947 391084.000000 0 1 0
1.541254 6.246925 -22.217409 23.130344 1.328905 2.859701 0.047369 0.000896 -148715.000000 0 1 0
2.296954 7.404125 -22.207409 23.521609 1.269984 2.805735 0.053370 -0.007242 -220117.000000 0 1 0
2.242154 8.002925 -20.952809 22.540946 1.297633 2.763971 0.065681 -0.006863 341869.000000 0 1 0
2.896354 9.440425 -20.983209 23.190635 1.273110 2.701739 0.063124 -0.012801 165096.000000 0 1 0
2.916454 10.061325 -19.741909 22.349025 1.288661 2.653748 0.067268 -0.019730 -108726.000000 0 1 0
3.541554 11.318425 -19.757609 23.043708 1.267546 2.600987 0.081697 -0.021419 -14392.700000 0 1 0
4.625154 11.467825 -18.664609 22.389075 1.187435 2.556477 0.075513 -0.026973 38040.800000 0 1 0
5.790754 10.752725 -18.970909 22.562121 1.076795 2.569611 0.083497 -0.032178 -590569.000000 0 1 0
6.613254 10.420025 -17.886609 21.731149 1.005275 2.537620 0.075562 -0.035172 -298631.000000 0 1 0
7.835054 9.583625 -18.278809 22.075978 0.885448 2.546320 0.118566 -0.044050 -343611.000000 0 1 0
7.604554 8.253425 -18.645409 21.762342 0.826293 2.599777 0.112620 -0.035249 -214838.000000 0 1 0
7.115754 8.099725 -19.941509 22.669435 0.849977 2.645954 0.100671 -0.023805 220689.000000 0 1 0
6.535454 6.681625 -20.238409 22.292363 0.796457 2.708955 0.101824 -0.024274 267310.000000 0 1 0
7.637454 5.772825 -20.265009 22.412648 0.647239 2.700246 0.100840 -0.021699 400885.000000 0 1 0
7.382454 4.419425 -20.633409 22.355525 0.539418 2.746515 0.087762 -0.015409 -372306.000000 0 1 0
7.621654 4.170825 -22.153009 23.795823 0.500717 2.767835 0.104130 -0.022184 -720470.000000 0 1 0
6.767254 4.875625 -22.986609 24.453050 0.624335 2.793516 0.110805 -0.022472 -381703.000000 0 1 0
7.008754 4.695625 -24.341809 25.762282 0.590283 2.807970 0.106040 -0.021601 -388489.000000 0 0 1
5.938354 5.341025 -25.245539 26.478819 0.732490 2.835187 0.095292 -0.027108 -105822.000000 0 0 1
5.895854 6.753625 -25.307629 26.848624 0.853105 2.801142 0.084906 -0.035876 -32966.200000 0 0 1
5.168554 7.291425 -24.254009 25.848323 0.954153 2.788537 0.106241 -0.036762 -1041060.000000 0 0 1
5.018654 8.846125 -24.361009 26.398855 1.054747 2.746096 0.113677 -0.035602 158763.000000 0 0 1
4.019654 9.308125 -25.254189 27.213468 1.163143 2.759814 0.112343 -0.035981 101983.000000 0 0 1
2.736754 9.274425 -24.650109 26.478910 1.283854 2.767758 0.100694 -0.022288 -66312.400000 0 0 1
1.583754 9.715825 -25.587219 27.415530 1.409210 2.774323 0.091798 -0.011621 163013.000000 0 0 1
1.430754 11.113825 -25.598129 27.943306 1.442764 2.728974 0.104353 -0.031718 379005.000000 0 0 1
0.404154 11.445625 -26.547449 28.912501 1.535500 2.734308 0.109644 -0.032137 440037.000000 0 0 1
0.077154 12.945925 -26.716849 29.688263 1.564837 2.690366 0.105208 -0.033561 206396.000000 0 0 1
-0.315146 13.657625 -25.537419 28.961868 -1.547726 2.650377 0.102339 -0.031355 83483.700000 0 0 1
-0.399546 15.043825 -25.710539 29.791074 -1.544244 2.612030 0.108097 -0.038991 -142569.000000 0 0 1
-0.877946 15.760125 -24.460909 29.111654 -1.515147 2.568530 0.117176 -0.034526 -669460.000000 0 0 1
-2.166646 15.348225 -24.160709 28.705439 -1.430557 2.571178 0.104877 -0.032356 -992626.000000 0 0 1
-2.424246 15.661525 -22.819909 27.783243 -1.417225 2.534579 0.100431 -0.039019 713958.000000 0 0 1
-3.744046 14.981025 -22.234209 27.070446 -1.325894 2.534563 0.081379 -0.031668 1347480.000000 0 0 1
-5.033646 15.434625 -22.570509 27.802754 -1.255546 2.518039 0.077954 -0.033123 -150146.000000 0 0 1
-5.442746 15.321025 -23.897709 28.904286 -1.229455 2.544169 0.078683 -0.036112 159671.000000 0 0 1
-6.961546 15.365625 -24.262109 29.550220 -1.145401 2.534038 0.053278 -0.032042 596964.000000 0 0 1
-7.435146 16.622225 -24.744509 30.722475 -1.150189 2.507181 0.068822 -0.033749 -288383.000000 0 0 1
-8.769346 16.442825 -25.149029 31.300824 -1.080847 2.503884 0.085198 -0.027241 -221030.000000 0 0 1
-9.575846 17.710725 -25.484999 32.478482 -1.075136 2.472965 0.098987 -0.026824 74840.100000 0 0 1
-9.829446 18.504825 -24.401609 32.163412 -1.082515 2.432075 0.101483 -0.031571 -536325.000000 0 0 1
-11.030846 19.186225 -24.581409 33.076222 -1.049010 2.408599 0.097129 -0.027012 -235921.000000 0 0 1
-11.389646 20.204425 -23.451409 32.983502 -1.057480 2.361722 0.085577 -0.028077 295256.000000 0 0 1
-10.474846 21.287125 -23.228309 33.202687 -1.113509 2.345622 0.098848 -0.031781 340561.000000 0 0 1
-10.911046 22.547025 -23.797909 34.550828 -1.120092 2.330601 0.090341 -0.033425 19525.500000 0 0 1
-10.782446 22.970225 -25.288449 35.824545 -1.131919 2.354485 0.089664 -0.028970 121548.000000 0 0 1
-11.631746 22.198925 -26.153399 36.222784 -1.088151 2.377507 0.088926 -0.031429 430542.000000 0 0 1
-11.635246 22.797825 -27.430089 37.517057 -1.098890 2.390783 0.099272 -0.025929 -262480.000000 0 0 1
-12.213346 21.996025 -28.607679 38.097116 -1.063930 2.420242 0.099489 -0.027780 -592554.000000 0 0 1
-11.474546 20.985625 -29.177179 37.727568 -1.070428 2.454928 0.096128 -0.028841 -507567.000000 0 0 1
-11.258146 19.839025 -28.381589 36.412187 -1.054636 2.464589 0.098144 -0.024060 171476.000000 0 0 1
-10.211646 18.870725 -29.000369 36.074969 -1.074783 2.504606 0.079740 -0.027403 721927.000000 0 0 1
-8.859046 19.372425 -29.051299 36.024318 -1.141887 2.508896 0.075451 -0.030530 1095750.000000 0 0 1
-7.848646 18.495725 -29.541039 35.726266 -1.169477 2.544319 0.073075 -0.029686 595060.000000 0 0 1
-7.524146 17.190625 -28.770439 34.349214 -1.158227 2.563647 0.090593 -0.034423 -664807.000000 0 0 1
-8.577346 16.231725 -28.860969 34.205194 -1.084664 2.575047 0.065779 -0.029591 716105.000000 0 0 1
-8.162546 14.930225 -28.415349 33.120550 -1.070480 2.602037 0.051587 -0.027130 589247.000000 0 0 1
-9.518646 14.179025 -28.512909 33.236055 -0.979580 2.601947 0.057975 -0.020445 791633.000000 0 0 1
-10.366046 14.335625 -27.402439 32.616847 -0.944737 2.568322 0.078826 -0.012952 605227.000000 0 0 1
-11.727146 13.891725 -27.506899 32.971737 -0.869690 2.557580 0.120674 -0.024154 1242530.000000 0 0 1
-12.550246 14.365125 -26.273679 32.468010 -0.852725 2.513615 0.117391 -0.022446 42694.600000 0 0 1
-12.826546 15.748225 -26.168709 33.125944 -0.887291 2.481567 0.100198 -0.018502 -146557.000000 0 0 1
-13.878646 16.048025 -25.263439 32.990866 -0.857761 2.443035 0.098151 -0.020875 513088.000000 0 0 1
-14.897246 17.066425 -25.841549 34.365338 -0.853158 2.421835 0.078558 -0.014884 191668.000000 0 0 1
-14.428946 18.406525 -26.153799 35.085835 -0.905947 2.411966 0.079492 -0.008245 -189229.000000 0 0 1
-15.495346 19.279625 -26.434479 36.202090 -0.893794 2.389399 0.079514 -0.010831 -225258.000000 0 0 1
-15.071546 20.732525 -26.571029 36.918947 -0.942210 2.374184 0.082572 -0.016063 527451.000000 0 0 1
-16.091546 21.684625 -27.010349 38.193190 -0.932389 2.356331 0.062977 -0.018948 951370.000000 0 0 1
-15.596746 23.044425 -27.142069 38.871531 -0.975803 2.343747 0.072235 -0.027064 45995.200000 0 0 1
-15.086546 23.727625 -25.830079 38.181108 -1.004453 2.313816 0.050377 -0.023410 71470.800000 0 0 1
-14.493646 24.961425 -26.073929 38.897150 -1.044732 2.305450 0.070107 -0.029769 -45113.000000 0 0 1
-14.093546 25.535725 -24.842909 38.312810 -1.066484 2.276307 0.066984 -0.029866 -2632.370000 0 0 1
-13.800646 27.066125 -25.082199 39.397330 -1.099271 2.260939 0.086524 -0.040572 565112.000000 0 0 1
-14.982046 27.864825 -25.186009 40.438165 -1.077470 2.243148 0.090762 -0.039543 353082.000000 0 0 1
-15.530646 28.379125 -23.977409 40.267752 -1.070062 2.208621 0.092651 -0.039470 813093.000000 0 0 1
-16.932046 29.004225 -24.319009 41.465087 -1.042390 2.197519 0.081894 -0.036699 1092800.000000 0 0 1
-17.979546 28.163125 -24.765309 41.590218 -1.002614 2.208634 0.068022 -0.032835 698199.000000 0 0 1
-19.203946 28.856025 -25.076459 42.781895 -0.983596 2.197091 0.065022 -0.025098 307624.000000 0 0 1
-20.426046 27.993725 -25.256629 42.880873 -0.940437 2.200611 0.062181 -0.007571 -591439.000000 0 0 1
-20.729546 27.465925 -23.987909 41.946524 -0.924271 2.179578 0.065356 -0.010452 189.543000 0 0 1
-21.778446 26.499625 -24.062509 41.899107 -0.882880 2.182541 0.060428 -0.015011 56977.200000 0 0 1
-22.329746 26.096025 -22.693609 41.165762 -0.863016 2.154687 0.063011 -0.016132 15258.100000 0 0 1
-23.134946 27.154825 -22.205709 42.020278 -0.865163 2.127573 0.072248 -0.015659 -62784.200000 0 0 1
-23.250446 27.024225 -20.814609 41.281229 -0.860321 2.099269 0.069637 -0.013798 -234121.000000 0 0 1
-24.249246 28.039225 -20.219409 42.226160 -0.857754 2.070125 0.048032 -0.013615 410898.000000 0 0 1
-25.612236 27.706925 -20.396009 42.891229 -0.824664 2.066361 0.084722 -0.019129 302751.000000 0 0 1
-26.529776 28.776525 -20.485909 44.176802 -0.826000 2.052992 0.082571 -0.022784 -73980.400000 0 0 1
-28.001936 28.427025 -20.643709 44.926238 -0.792931 2.048231 0.078524 -0.025823 -372258.000000 0 0 1
-28.403536 27.742325 -21.813609 45.301556 -0.773622 2.073185 0.077196 -0.029268 742794.000000 0 0 1
-29.815336 27.455625 -21.831509 46.036728 -0.744219 2.064873 0.082488 -0.029864 793807.000000 0 0 1
-30.405326 26.925125 -23.147709 46.746792 -0.724768 2.088829 0.069472 -0.027989 -130036.000000 0 0 1
-29.953116 25.672625 -23.652909 45.997097 -0.708598 2.110901 0.080177 -0.018645 -92257.300000 0 0 1
-30.151296 25.582225 -25.058019 46.812981 -0.703600 2.135635 0.082683 -0.010933 -282375.000000 0 0 1
-30.356136 24.133825 -25.547149 46.439135 -0.671699 2.153306 0.062228 -0.011993 -580596.000000 0 0 1
-29.280476 23.262425 -25.576339 45.306024 -0.671359 2.170653 0.078007 -0.018179 -467412.000000 0 0 1
-29.719826 22.024725 -26.125139 45.286636 -0.637767 2.185705 0.064340 -0.011952 -588078.000000 0 0 1
-28.673286 20.946425 -26.163089 44.106884 -0.630917 2.205793 0.071371 -0.016592 -604598.000000 0 0 1
-28.484786 20.359125 -24.911009 42.970168 -0.620548 2.189191 0.066307 -0.012737 279484.000000 0 0 1
-27.602376 19.241625 -24.941909 41.883530 -0.608777 2.208692 0.074797 -0.019376 8109.110000 0 0 1
-28.333366 17.894925 -24.859209 41.725151 -0.563321 2.209039 0.069095 -0.015241 -37181.300000 0 0 1
-29.118696 17.657025 -25.988809 42.837917 -0.545098 2.222671 0.066293 -0.021031 122789.000000 0 0 1
-29.826886 16.415625 -25.909259 42.783239 -0.503122 2.221308 0.043811 -0.011047 103203.000000 0 0 1
-30.606186 16.014025 -27.162579 43.943069 -0.482057 2.237159 0.027060 -0.003992 -100985.000000 0 0 1
-31.776156 16.764025 -27.400259 45.183302 -0.485457 2.222352 0.029489 -0.000024 -259579.000000 0 0 1
-32.361536 16.225925 -28.543369 46.100689 -0.464763 2.238460 0.026835 0.003071 323379.000000 0 0 1
-33.763736 16.780225 -28.948419 47.535005 -0.461236 2.225585 0.029321 0.003142 914871.000000 0 0 1
-34.811510 16.458725 -28.019319 47.621561 -0.441648 2.199844 0.023713 0.005708 518025.000000 0 0 1
-36.071286 16.625225 -28.651209 48.973743 -0.431881 2.195716 0.045427 -0.003877 448670.000000 0 0 1
-37.310356 16.253425 -27.811619 49.292216 -0.410838 2.170284 0.054158 -0.004847 204456.000000 0 0 1
37.040243 17.265025 -26.963089 48.959870 0.436174 2.154021 0.057800 -0.015942 418545.000000 0 0 1
35.820763 16.839125 -26.354919 47.552759 0.439438 2.158228 0.060007 -0.017928 428985.000000 0 0 1
35.269453 17.861725 -25.365019 46.971903 0.468783 2.141238 0.060954 -0.007784 228104.000000 0 0 1
34.545733 18.984425 -25.897379 47.164502 0.502494 2.152067 0.061625 -0.020623 233971.000000 0 0 1
34.177993 19.941225 -24.923909 46.765253 0.528163 2.132889 0.069596 -0.011978 -189616.000000 0 0 1
33.627633 21.276825 -25.476559 47.250143 0.564130 2.140265 0.086047 -0.019185 414563.000000 0 0 1
32.371713 21.124425 -26.118389 46.651252 0.578171 2.165019 0.092709 -0.027216 628636.000000 0 0 1
31.265683 21.691525 -25.395189 45.749107 0.606540 2.159276 0.083183 -0.018892 572063.000000 0 0 1
29.894613 21.695425 -26.102359 45.229553 0.627787 2.185980 0.059868 -0.022622 278572.000000 0 0 1
29.453463 20.336125 -26.176519 44.342695 0.604287 2.202255 0.078489 -0.039281 1809580.000000 0 0 1
28.045163 20.179525 -26.599149 43.603430 0.623718 2.226887 0.103908 -0.043978 1838510.000000 0 0 1
27.768063 18.670625 -26.755809 42.843096 0.591946 2.245296 0.117938 -0.032888 -83029.800000 0 0 1
28.611263 18.054825 -27.727229 43.742203 0.562930 2.257354 0.107098 -0.043850 80358.100000 0 0 1
29.656763 17.369325 -27.085759 43.759060 0.529822 2.238233 0.093446 -0.035328 -488222.000000 0 0 1
30.559863 16.514925 -27.958149 44.590426 0.495452 2.248491 0.081575 -0.030496 -173906.000000 0 0 1
29.968423 15.328025 -28.503039 44.107572 0.472783 2.273413 0.097001 -0.043973 77594.000000 0 0 1
29.438763 14.395625 -27.560879 42.819117 0.454811 2.270065 0.105793 -0.034089 -105953.000000 0 0 1
30.441403 13.636525 -26.631289 42.683245 0.421156 2.244556 0.083626 -0.021074 -11101.500000 0 0 1
30.892453 14.552525 -25.681569 42.727773 0.440237 2.215612 0.078660 -0.026334 -465877.000000 0 0 1
31.790443 13.922225 -24.834209 42.675503 0.412778 2.191898 0.050066 -0.015373 -534510.000000 0 0 1
-16.006846 -30.968320 -23.911609 42.273171 1.093738 2.172012 0.138598 -0.016681 8599.220000 0 0 1
-15.213546 -29.845220 -24.239009 41.348744 1.099381 2.197168 0.142535 -0.030111 169511.000000 0 0 1
-15.223046 -29.685020 -25.682609 42.101519 1.096946 2.226877 0.111241 -0.022469 -296489.000000 0 0 1
-14.355346 -28.491920 -26.033509 41.177773 1.104082 2.255215 0.122769 -0.029832 -352344.000000 0 0 1
-14.872046 -27.234320 -25.613319 40.235904 1.070970 2.260850 0.130467 -0.027011 -268499.000000 0 0 1
-14.154446 -26.135920 -26.151059 39.589298 1.074448 2.292359 0.122472 -0.029648 -283134.000000 0 0 1
-14.490846 -24.779420 -25.580349 38.449428 1.041633 2.298690 0.077387 -0.026607 -271723.000000 0 0 1
-14.043146 -24.548820 -24.260609 37.261664 1.051182 2.279813 0.102122 -0.039994 128357.000000 0 0 1
-14.272446 -23.161220 -23.901809 36.213827 1.018534 2.291640 0.079823 -0.030931 -250072.000000 0 0 1
-13.626246 -22.757020 -22.550509 34.814967 1.031281 2.275390 0.081535 -0.031450 803399.000000 0 0 1
-12.197646 -22.751820 -22.689509 34.369196 1.078674 2.291841 0.109853 -0.043693 276212.000000 0 0 1
-11.603446 -22.207620 -21.503709 33.018598 1.089312 2.280041 0.093483 -0.036842 -161518.000000 0 0 1
-10.183546 -21.738020 -21.837109 32.451586 1.132692 2.308937 0.092563 -0.042094 -440526.000000 0 0 1
-10.026446 -20.772920 -22.829909 32.453791 1.121109 2.351049 0.106069 -0.045570 295619.000000 0 0 1
-8.621546 -20.522320 -22.867809 31.912902 1.173078 2.369668 0.140565 -0.049799 456942.000000 0 0 1
-8.189846 -19.380120 -23.816509 31.778746 1.170969 2.418024 0.162772 -0.038277 -278237.000000 0 0 1
-8.744046 -18.163420 -23.326509 30.830085 1.122131 2.428917 0.102422 -0.030357 -1199.130000 0 0 1
-8.670146 -17.024520 -24.153009 30.795674 1.099757 2.472361 0.098865 -0.029023 250136.000000 0 0 1
-7.267046 -16.606720 -24.698809 30.636975 1.158305 2.508458 0.116099 -0.032578 365137.000000 0 0 1
-6.858046 -17.309320 -25.855179 31.861193 1.193565 2.517501 0.125381 -0.047573 -321924.000000 0 0 1
-5.837746 -16.539920 -26.440799 31.729545 1.231497 2.555879 0.122271 -0.046459 -108253.000000 0 0 1
-5.351246 -17.024220 -27.837319 33.066240 1.266244 2.571526 0.138829 -0.047528 374922.000000 0 0 1
-6.383546 -16.903120 -28.817589 34.013505 1.209700 2.581563 0.143275 -0.050134 362661.000000 0 0 1
-5.989446 -17.588020 -29.984499 35.274382 1.242573 2.586850 0.143131 -0.050934 -210056.000000 0 0 1
-7.002246 -17.418120 -31.125969 36.348979 1.188559 2.598877 0.124473 -0.044021 -41240.400000 0 0 1
-6.999546 -16.215220 -31.890159 36.454207 1.163294 2.635820 0.096525 -0.044020 -177242.000000 0 0 1
-7.178046 -14.987820 -31.166949 35.320501 1.124150 2.651744 0.080586 -0.037000 -151539.000000 0 0 1
-7.925746 -13.902020 -31.973449 35.754510 1.052641 2.677548 0.050402 -0.034374 -77578.800000 0 0 1
-7.218346 -13.585020 -33.145149 36.541184 1.082388 2.707050 0.092261 -0.042180 -136122.000000 0 0 1
-7.917446 -12.863020 33.699136 36.929325 1.019043 0.421367 0.092089 -0.040409 -349706.000000 0 0 1
-8.128746 -11.328820 -33.866279 36.624357 0.948403 2.751024 0.055669 -0.029777 -540344.000000 0 0 1
-6.930846 -10.633420 -33.866749 36.167152 0.993158 2.783010 0.051517 -0.028213 -463979.000000 0 0 1
-6.389146 -10.317920 32.663414 34.845076 1.016358 0.355738 0.042493 -0.029297 335528.000000 0 0 1
-5.123646 -9.416220 32.801660 34.508924 1.072471 0.315869 0.049251 -0.025258 270063.000000 0 0 1
-4.901046 -8.650120 31.592987 33.120412 1.055308 0.304881 0.035639 -0.019022 247460.000000 0 0 1
-3.773646 -7.795420 31.745907 32.906103 1.119962 0.266334 0.041101 -0.030964 -507931.000000 0 0 1
-3.860946 -6.629320 30.702267 31.646232 1.043415 0.244860 0.035447 -0.026618 469889.000000 0 0 1
-4.977346 -5.742320 30.932737 31.852511 0.856639 0.240899 0.036030 -0.020873 -163257.000000 0 0 1
-6.126346 -6.194520 30.310317 31.537589 0.790931 0.279891 0.027180 -0.019270 -1183110.000000 0 0 1
-7.277646 -5.177420 30.398777 31.683678 0.618345 0.285766 0.022444 -0.011661 -505198.000000 0 0 1
-8.420746 -5.639220 29.756157 31.434673 0.590087 0.328265 0.041800 -0.015407 -838763.000000 0 0 1
-9.469446 -4.698820 29.742517 31.565276 0.460610 0.341497 0.041653 -0.019840 -320975.000000 0 0 1
-10.668146 -5.251920 28.971407 31.316680 0.457468 0.389468 0.055073 -0.028327 -563344.000000 0 0 1
-10.397246 -5.581020 27.624677 30.039529 0.492636 0.403708 0.036784 -0.017323 -540291.000000 0 0 1
-11.464346 -6.219420 27.040337 30.021530 0.497068 0.449422 0.049952 -0.031112 -714460.000000 0 0 1
-11.303746 -6.307820 25.531957 28.625934 0.508987 0.469229 0.028515 -0.029453 -888815.000000 0 0 1
-10.148646 -6.934320 25.131817 27.976562 0.599413 0.454873 0.036592 -0.024024 -924787.000000 0 0 1
-9.626946 -6.429020 23.910197 26.565164 0.588797 0.450893 0.032884 -0.014499 151009.000000 0 0 1
-10.435046 -6.571420 22.519157 25.674621 0.562004 0.501010 0.035604 -0.020761 367646.000000 0 0 1
-11.569046 -5.754720 22.380157 25.842428 0.461585 0.523602 0.009511 -0.015954 -210163.000000 0 0 1
-12.312846 -5.954220 21.222057 25.247468 0.450424 0.572477 0.013461 -0.017464 -570203.000000 0 0 1
-13.452146 -4.973720 20.873557 25.325945 0.354146 0.602014 0.025992 -0.017000 64508.600000 0 0 1
-13.072346 -3.644220 20.588657 24.658860 0.271871 0.582773 0.007620 -0.009254 322781.000000 0 1 0
-14.285446 -2.907820 20.659857 25.285551 0.200808 0.614500 0.033325 -0.007783 398405.000000 0 0 1
-14.088946 -1.427920 20.270857 24.727414 0.101005 0.609782 0.025141 -0.000503 16491.000000 0 1 0
-13.198746 -0.724920 21.152557 24.943197 0.054868 0.558541 0.015157 -0.000918 212150.000000 0 1 0
-13.166946 0.699080 20.995257 24.792297 -0.053044 0.560770 0.036474 -0.011559 -92215.900000 0 1 0
-12.469246 1.277080 19.708657 23.356888 -0.102063 0.566462 0.042740 -0.012016 112363.000000 0 1 0
-13.048846 1.122080 18.373957 22.563992 -0.085780 0.619267 0.052265 -0.013663 423246.000000 0 1 0
-14.350546 1.685080 18.174257 23.218124 -0.116887 0.671705 0.069469 -0.021077 435293.000000 0 1 0
-15.191246 0.785080 17.256757 23.004042 -0.051634 0.722489 0.067125 -0.020062 -194257.000000 0 1 0
-15.623046 -0.404920 17.918757 23.776572 0.025912 0.717228 0.064548 -0.015845 -136655.000000 0 1 0
-16.649746 -1.049920 17.238757 23.989396 0.062976 0.769011 0.082501 -0.014480 -414376.000000 0 1 0
-16.726746 -2.531920 17.458757 24.310550 0.150229 0.769648 0.074306 -0.011529 -213267.000000 0 1 0
-17.354346 -2.857420 18.680757 25.657530 0.163187 0.755278 0.095245 -0.016327 136213.000000 0 0 1
-17.346146 -4.276320 18.823457 25.951844 0.241709 0.759294 0.107758 -0.013884 -110017.000000 0 0 1
-18.020046 -4.815320 20.114557 27.431820 0.261119 0.747698 0.112264 -0.009236 245559.000000 0 0 1
-17.313846 -4.524820 21.356157 27.862676 0.255624 0.697455 0.090805 -0.007785 170372.000000 0 0 1
-18.101446 -4.618920 22.498357 29.243338 0.249837 0.692974 0.088443 -0.016879 -1019920.000000 0 0 1
-18.147046 -6.011320 23.127607 30.005624 0.319880 0.690738 0.114333 -0.012896 -65755.000000 0 0 1
-16.997346 -6.528520 23.757197 29.932186 0.366717 0.653928 0.046095 -0.027206 511709.000000 0 0 1
-15.916246 -6.792020 22.846777 28.660664 0.403339 0.648240 0.082864 -0.023685 -340493.000000 0 0 1
-14.587646 -7.309520 23.413607 28.538141 0.464508 0.608630 0.096683 -0.024635 -530194.000000 0 0 1
-14.670446 -8.585220 23.987157 29.399178 0.529470 0.616491 0.092624 -0.032194 -86440.900000 0 0 1
-15.114146 -8.560720 25.316497 30.702579 0.515351 0.601350 0.082862 -0.027482 -335287.000000 0 0 1
-16.364046 -9.409620 25.568067 31.781268 0.521848 0.635961 0.085216 -0.017490 -655334.000000 0 0 1
-16.333046 -10.813120 25.506037 32.159756 0.584792 0.654908 0.087756 -0.026008 -427675.000000 0 0 1
-15.608346 -11.419020 26.536817 32.836217 0.631619 0.629780 0.072852 -0.024675 -162540.000000 0 0 1
-15.573046 -12.969020 26.381637 33.267191 0.694415 0.655041 0.058726 -0.022891 -148548.000000 0 0 1
-16.789846 -13.575020 26.751057 34.377306 0.679918 0.679065 0.079835 -0.018789 -144389.000000 0 0 1
-16.935746 -15.005420 26.633897 34.947769 0.725038 0.704237 0.082504 -0.018271 234558.000000 0 0 1
-15.999446 -15.972220 27.478767 35.583377 0.784547 0.688443 0.077299 -0.013626 726161.000000 0 0 1
-14.686746 -16.056020 26.930317 34.622800 0.829908 0.679606 0.095663 -0.024556 472704.000000 0 0 1
-13.825946 -16.859920 27.727277 35.273440 0.883950 0.666376 0.108015 -0.021856 -254681.000000 0 0 1
-12.483546 -17.076820 27.039727 34.330796 0.939552 0.663855 0.092733 -0.031990 -428430.000000 0 0 1
-11.465346 -17.734720 27.760177 34.879821 0.996891 0.650335 0.095887 -0.028827 189000.000000 0 0 1
-10.467846 -18.176820 26.859257 34.079206 1.048294 0.663012 0.090961 -0.029933 201600.000000 0 0 1
-9.272646 -18.932320 27.526797 34.671880 1.115359 0.653562 0.103930 -0.026285 186964.000000 0 0 1
-9.489246 -20.263120 27.938537 35.793878 1.132828 0.675268 0.103558 -0.014426 -300654.000000 0 0 1
-8.349446 -20.900520 28.470997 36.292460 1.190734 0.668926 0.111635 -0.012450 -108466.000000 0 0 1
-8.603346 -22.176620 29.318897 37.754705 1.200724 0.681605 0.106919 -0.017753 -73092.900000 0 0 1
-9.046846 -23.215420 28.520677 37.871231 1.199208 0.718041 0.121027 -0.025918 21136.400000 0 0 1
-8.926946 -24.368120 29.322367 39.157335 1.219642 0.724494 0.102725 -0.023097 -209752.000000 0 0 1
-9.282846 -25.624520 28.560007 39.477351 1.223238 0.762005 0.101989 -0.020920 16744.600000 0 0 1
-10.581946 -25.570520 27.993297 39.363101 1.178421 0.779655 0.081750 -0.022415 250368.000000 0 0 1
-10.892946 -26.747520 27.278787 39.726796 1.184055 0.813912 0.083440 -0.019250 -249873.000000 0 0 1
-12.193746 -26.691820 26.455947 39.510224 1.142273 0.837130 0.083478 -0.025713 -316173.000000 0 0 1
-12.269546 -26.085520 25.180127 38.275774 1.131142 0.852822 0.083656 -0.031443 113270.000000 0 0 1
-12.316746 -24.709820 25.137157 37.338373 1.108385 0.832234 0.082422 -0.015985 -249140.000000 0 0 1
-12.680846 -24.293120 23.713057 36.239048 1.089709 0.857472 0.079852 -0.041426 -538712.000000 0 0 1
-13.998446 -24.452320 23.273617 36.544954 1.050859 0.880392 0.058520 -0.025629 -245279.000000 0 0 1
-14.095746 -24.001420 21.941057 35.442463 1.039776 0.903249 0.066434 -0.032045 -127060.000000 0 0 1
-15.512546 -24.167920 21.353457 35.786835 1.000161 0.931433 0.053448 -0.027560 -208521.000000 0 0 1
-15.801446 -25.528120 21.152257 36.725857 1.016536 0.957031 0.067578 -0.019849 816647.000000 0 0 1
-17.052646 -25.803420 20.488357 37.099622 0.986819 0.985733 0.062858 -0.020688 839517.000000 0 0 1
-17.185646 -27.264720 20.047057 37.955182 1.008377 1.014344 0.068345 -0.025223 465188.000000 0 0 1
-16.324446 -27.549020 18.919357 37.193791 1.035865 1.037157 0.061795 -0.027484 372693.000000 0 0 1
-16.216746 -28.941620 18.788157 38.126042 1.060060 1.055502 0.090864 -0.020999 77674.700000 0 0 1
-15.208146 -29.407620 17.720457 37.551437 1.093523 1.079354 0.088282 -0.033535 53721.400000 0 0 1
-15.535046 -28.880120 16.441257 36.683973 1.077279 1.106061 0.077801 -0.039594 -428970.000000 0 0 1
-14.411946 -28.954120 15.616257 35.915355 1.108949 1.120972 0.072775 -0.037759 -213523.000000 0 0 1
-14.731246 -28.433420 14.161257 35.014428 1.092777 1.154429 0.069005 -0.032636 -232030.000000 0 0 1
-14.861846 -27.037520 13.974157 33.870031 1.068203 1.145510 0.059759 -0.032544 -125564.000000 0 0 1
-15.229746 -26.683020 12.629357 33.217907 1.052150 1.180787 0.063648 -0.032392 214993.000000 0 0 1
-14.107546 -26.688920 11.522657 32.312427 1.084538 1.206169 0.056115 -0.027251 464021.000000 0 0 1
-14.504646 -26.221820 10.279957 31.680374 1.065537 1.240324 0.035339 -0.022613 -127935.000000 0 0 1
-13.438946 -26.386320 9.373557 31.059728 1.099725 1.264225 0.046752 -0.017692 349663.000000 0 0 1
-13.899746 -25.634020 8.054557 30.251972 1.073932 1.301297 0.055686 -0.019971 245108.000000 0 0 1
-14.891446 -26.374420 7.375057 31.173011 1.056800 1.331947 0.048027 -0.019648 -61923.700000 0 0 1
-15.278646 -25.682820 6.215257 30.523330 1.034137 1.365739 0.052002 -0.017151 -120141.000000 0 0 1
-16.245046 -26.366620 5.269757 31.414495 1.018607 1.402250 0.062346 -0.021807 -56741.800000 0 0 1
-15.538546 -27.404820 4.588457 31.835899 1.054995 1.426164 0.063821 -0.021524 451111.000000 0 0 1
-16.331046 -27.977620 3.542957 32.588384 1.042435 1.461863 0.100329 -0.017328 -156852.000000 0 0 1
-15.722746 -29.180420 2.862457 33.270036 1.076584 1.484653 0.100683 -0.024524 -596174.000000 0 0 1
-14.555746 -28.885720 2.156557 32.417669 1.104027 1.504223 0.066499 -0.012457 -689261.000000 0 0 1
-13.931646 -30.062120 1.773357 33.180816 1.136831 1.517326 0.070052 -0.018586 220955.000000 0 0 1
-12.443546 -29.907720 1.329457 32.420379 1.176518 1.529778 0.057513 -0.019441 371204.000000 0 0 1
-12.150846 -29.329620 0.052857 31.747007 1.178036 1.569131 0.055043 -0.009575 78811.300000 0 0 1
-12.635346 -27.983220 -0.155843 30.704020 1.146668 1.575872 0.046051 -0.012314 -293844.000000 0 0 1
-12.372646 -27.488020 -1.590843 30.186162 1.147851 1.623522 0.050922 -0.004410 -1842690.000000 0 0 1
-11.057246 -27.357920 -1.839143 29.565197 1.186700 1.633043 0.044066 -0.004540 -2082330.000000 0 0 1
-10.711746 -26.310820 -2.787543 28.544196 1.184164 1.668609 0.060823 -0.003195 96549.500000 0 0 1
-9.284946 -26.440020 -3.322343 28.219192 1.233079 1.688803 0.042533 -0.001489 -114833.000000 0 0 1
-8.840246 -25.380820 -4.162843 27.196787 1.235633 1.724464 0.041329 -0.006415 1080830.000000 0 0 1
-7.543746 -25.802220 -4.708143 27.291560 1.286356 1.744176 0.045522 0.002455 1900360.000000 0 0 1
-6.721846 -24.780420 -5.560743 26.271168 1.305914 1.784077 0.045276 -0.004262 -10196.700000 0 0 1
-7.204146 -24.680920 -6.853643 26.608644 1.286795 1.831305 0.055389 -0.006715 -165771.000000 0 0 1
-6.567146 -23.615920 -7.523843 25.640735 1.299568 1.868612 0.059487 -0.008965 -165280.000000 0 0 1
-6.744646 -23.502420 -9.099743 26.089448 1.291330 1.927076 0.069391 -0.014475 -142473.000000 0 0 1
-6.039746 -24.519320 -9.752943 27.070195 1.329279 1.939368 0.051383 -0.018189 -259868.000000 0 0 1
-6.227746 -24.440920 -11.174743 27.586559 1.321297 1.987862 0.042704 -0.009389 276939.000000 0 0 1
-7.513846 -25.082020 -11.766543 28.705698 1.279733 1.993144 0.056213 -0.011176 331241.000000 0 0 1
-7.582646 -24.914720 -13.177243 29.186975 1.275359 2.039216 0.071017 -0.012353 -504142.000000 0 0 1
-8.732146 -25.530320 -13.649143 30.238166 1.241239 2.039116 0.093172 -0.012468 -1120410.000000 0 0 1
-8.996446 -25.351220 -15.188043 30.891698 1.229788 2.084785 0.097416 -0.017135 902181.000000 0 0 1
-8.073046 -25.949220 -16.170343 31.623030 1.269179 2.107548 0.093335 -0.025755 1939460.000000 0 0 1
-6.657146 -25.757620 -15.972743 31.030647 1.317877 2.111502 0.096338 -0.024000 864133.000000 0 0 1
-5.732746 -26.590820 -16.918043 32.033673 1.358455 2.127197 0.080497 -0.014224 4506.190000 0 0 1
-5.782146 -26.292920 -18.328243 32.568010 1.354329 2.168527 0.128731 -0.021666 498177.000000 0 0 1
-4.713546 -26.954920 -19.016843 33.323048 1.397679 2.178132 0.116527 -0.024341 468035.000000 0 0 1
-26.289126 14.023325 -4.504309 30.134043 -0.490030 1.720834 0.159033 -0.053690 -144583.000000 0 0 1
-26.040926 12.638625 -4.308609 29.264804 -0.451849 1.718562 0.169816 -0.046067 -85313.200000 0 0 1
-24.675346 12.312025 -4.354509 27.918101 -0.462816 1.727410 0.165438 -0.039273 -455396.000000 0 0 1
-24.476146 10.827525 -4.095909 27.075699 -0.416491 1.722656 0.172933 -0.045072 -35157.300000 0 0 1
-24.852346 9.879025 -5.100609 27.225915 -0.378357 1.759254 0.153767 -0.038705 424477.000000 0 0 1
-26.237206 9.868125 -5.439209 28.554436 -0.359745 1.762453 0.161553 -0.049150 174242.000000 0 0 1
-26.502336 9.132725 -6.813009 28.847834 -0.331857 1.809219 0.162629 -0.047239 -46415.300000 0 0 1
-26.325446 10.060925 -7.878709 29.263037 -0.365046 1.843398 0.182828 -0.036164 48695.100000 0 0 1
-26.581476 9.459425 -9.142109 29.658620 -0.341890 1.884144 0.170683 -0.041649 37948.600000 0 0 1
-27.027546 10.393425 -10.290009 30.731023 -0.367116 1.912233 0.159563 -0.037874 196156.000000 0 0 1
-25.981366 11.252425 -10.731209 30.278825 -0.408708 1.933083 0.160225 -0.047509 406795.000000 0 0 1
-26.354726 12.072825 -11.827509 31.308380 -0.429561 1.958188 0.167052 -0.050669 -185497.000000 0 0 1
-25.361666 13.200425 -12.223309 31.094607 -0.479903 1.974798 0.149099 -0.040891 -167273.000000 0 0 1
-25.266466 14.304725 -11.319109 31.163146 -0.515161 1.942519 0.145428 -0.039290 71039.600000 0 0 1
-24.339646 15.239125 -11.793009 31.043910 -0.559392 1.960465 0.124284 -0.038811 -379451.000000 0 0 1
-24.386346 16.613525 -11.051609 31.509382 -0.598040 1.929158 0.127184 -0.036616 -304753.000000 0 0 1
-23.603646 16.750225 -9.866309 30.578525 -0.617170 1.899329 0.112937 -0.025268 200422.000000 0 0 1
-23.587346 18.096725 -9.398409 31.179872 -0.654432 1.876984 0.062463 -0.002469 827565.000000 0 0 1
-22.354946 18.285625 -8.408009 30.079932 -0.685601 1.854093 0.073840 -0.004967 632186.000000 0 0 1
-22.426546 17.592925 -7.172809 29.392348 -0.665199 1.817322 0.106708 -0.021664 -138077.000000 0 0 1
-23.450446 18.136025 -6.391309 30.326352 -0.658295 1.783139 0.127343 -0.032358 -289140.000000 0 0 1
-23.686046 17.379425 -5.125409 29.821854 -0.633014 1.743521 0.144872 -0.020381 625674.000000 0 0 1
-22.561746 17.475625 -4.237009 28.851033 -0.659041 1.718188 0.111872 -0.035081 936138.000000 0 0 1
-22.998146 17.022825 -2.923509 28.761749 -0.637188 1.672618 0.129201 -0.033129 178400.000000 0 0 1
-21.857746 16.936325 -1.883009 27.715445 -0.659212 1.638789 0.129632 -0.053982 -382583.000000 0 0 1
-21.390446 18.177025 -1.529109 28.112161 -0.704362 1.625216 0.113537 -0.048935 338226.000000 0 0 1
-20.358046 18.019825 -0.548609 27.193107 -0.724547 1.590972 0.162333 -0.067427 360906.000000 0 0 1
-20.052646 19.388725 0.088291 27.893351 -0.768567 1.567631 0.142008 -0.064995 -72049.200000 0 0 1
-21.119946 19.784225 0.925791 28.953838 -0.752755 1.538816 0.127365 -0.055710 281352.000000 0 0 1
-21.273846 21.158025 0.765791 30.013746 -0.782669 1.545279 0.144628 -0.055692 -35740.500000 0 0 1
-22.410346 21.676425 1.640791 31.221518 -0.768753 1.518219 0.099249 -0.054455 -423275.000000 0 0 1
-21.975946 21.508625 2.941891 30.890417 -0.774652 1.475415 0.140781 -0.049627 474782.000000 0 0 1
-23.001946 21.456025 3.912791 31.697957 -0.750640 1.447041 0.104065 -0.036874 -219166.000000 0 0 1
-22.380646 21.271825 5.267391 31.322983 -0.760003 1.401830 0.108105 -0.039236 -89100.400000 0 0 1
-21.469946 22.309225 5.680991 31.479100 -0.804567 1.389333 0.100448 -0.039408 560531.000000 0 0 1
-20.545946 21.715025 6.594391 30.613138 -0.813054 1.353684 0.085275 -0.030888 -181037.000000 0 0 1
-20.918946 21.538825 8.108691 31.101031 -0.799997 1.307027 0.088163 -0.030071 -619855.000000 0 0 1
-21.994246 20.612225 8.195891 31.237530 -0.752973 1.305316 0.090635 -0.029027 631347.000000 0 0 1
-22.361046 20.244025 9.531791 31.633716 -0.735750 1.264722 0.105106 -0.029904 28677.300000 0 0 1
-23.140146 21.242125 10.436591 33.100101 -0.742659 1.250019 0.123336 -0.031036 234841.000000 0 0 1
-24.534546 21.405525 10.160991 34.108447 -0.717392 1.268302 0.144988 -0.032900 950142.000000 0 0 1
-25.051766 22.535525 10.872191 35.406855 -0.732571 1.258689 0.148252 -0.029923 1007730.000000 0 0 1
-26.612296 22.705925 10.703691 36.583361 -0.706356 1.273869 0.145077 -0.033627 803440.000000 0 0 1
-27.402666 23.448125 11.560591 37.873050 -0.707787 1.260600 0.131669 -0.027190 -1436.310000 0 0 1
-27.206526 24.873825 11.512091 38.619043 -0.740638 1.268101 0.117238 -0.028132 -408041.000000 0 0 1
-27.947516 25.604925 12.620491 39.949376 -0.741682 1.249378 0.121956 -0.027698 -137975.000000 0 0 1
-27.332416 25.316725 13.838791 39.743045 -0.747132 1.215139 0.095774 -0.026153 216092.000000 0 0 1
-27.904816 26.006925 14.942591 40.967303 -0.750209 1.197438 0.092833 -0.024468 79083.800000 0 0 1
-26.908706 26.001425 16.106991 40.738038 -0.768252 1.164315 0.074354 -0.028425 214082.000000 0 0 1
-26.445966 24.723925 16.649291 39.847967 -0.751757 1.139751 0.075603 -0.026311 -304501.000000 0 0 1
-25.482586 24.971625 17.599091 39.782813 -0.775271 1.112546 0.059410 -0.016017 -752626.000000 0 0 1
-24.865046 23.663225 18.040691 38.777381 -0.760638 1.086893 0.066725 -0.014265 -212605.000000 0 0 1
-23.740346 23.799925 18.890091 38.560031 -0.786651 1.058835 0.065774 -0.027215 449442.000000 0 0 1
-23.174246 22.535225 19.187691 37.590551 -0.771419 1.035101 0.078958 -0.032322 -729853.000000 0 0 1
-21.786446 22.486825 19.795691 37.042893 -0.801216 1.007000 0.079982 -0.033583 -442474.000000 0 0 1
-20.708946 22.720725 18.870391 36.071920 -0.831688 1.020274 0.085213 -0.039722 349807.000000 0 0 1
-19.414346 22.516225 19.353491 35.474707 -0.859240 0.993742 0.071005 -0.038230 -60436.700000 0 0 1
-18.979246 21.003225 19.318091 34.271502 -0.835977 0.971964 0.078503 -0.024527 -563184.000000 0 0 1
-19.537546 20.198425 20.344191 34.692624 -0.802028 0.944173 0.080609 -0.019386 357241.000000 0 0 1
-18.824146 20.281225 21.602791 35.104945 -0.822641 0.907932 0.068986 -0.015313 228743.000000 0 0 1
-19.749046 19.927425 22.778091 36.138186 -0.789894 0.888850 0.075726 -0.018897 -240293.000000 0 0 1
-20.820546 20.813025 22.980891 37.347001 -0.785218 0.907986 0.063261 -0.014399 -91419.000000 0 0 1
-21.403146 20.561525 24.236291 38.317995 -0.765345 0.886014 0.063974 -0.012274 -677837.000000 0 0 1
-22.566246 21.428525 24.617591 39.679251 -0.759544 0.901525 0.066791 -0.015692 -790505.000000 0 0 1
-22.052746 22.710525 24.865591 40.254058 -0.800092 0.904961 0.075421 -0.024789 521181.000000 0 0 1
-23.086946 23.628925 25.204491 41.552371 -0.796999 0.919055 0.069977 -0.034460 371149.000000 0 0 1
-23.905646 24.161825 23.969791 41.591160 -0.790728 0.956579 0.050256 -0.032486 286005.000000 0 0 1
-24.902846 23.263725 23.503591 41.397723 -0.751381 0.967025 0.047522 -0.027898 102998.000000 0 0 1
-25.280266 23.623625 22.157491 41.086761 -0.751536 1.001208 0.039967 -0.023618 -47516.800000 0 0 1
-26.320046 22.650125 21.553591 40.869674 -0.710596 1.015290 0.045069 -0.022551 146527.000000 0 0 1
-27.627766 22.914125 22.037491 42.118898 -0.692405 1.020170 0.076891 -0.025141 819453.000000 0 0 1
-28.564986 21.931325 21.484891 41.934973 -0.654777 1.032891 0.092289 -0.025828 470853.000000 0 0 1
-30.008386 22.113225 21.965791 43.266545 -0.635065 1.038300 0.089086 -0.019338 -1010150.000000 0 0 1
-30.526356 23.388225 21.628091 44.120764 -0.653767 1.058475 0.101056 -0.018909 117154.000000 0 0 1
-31.914596 23.541425 21.815291 45.261982 -0.635543 1.067885 0.114241 -0.020252 573564.000000 0 0 1
-32.915496 22.745525 20.884891 45.132776 -0.604679 1.089709 0.118006 -0.028747 -485001.000000 0 0 1
-33.023866 21.378725 21.210491 44.693518 -0.574526 1.076314 0.109047 -0.028322 494574.000000 0 0 1
-33.757236 20.562025 20.281591 44.426240 -0.547094 1.096713 0.111874 -0.028375 -98783.700000 0 0 1
-35.277190 20.505925 20.439991 45.637335 -0.526541 1.106405 0.144063 -0.028826 -478093.000000 0 0 1
-35.964142 19.791325 19.453391 45.426319 -0.503079 1.128251 0.125631 -0.022016 -978285.000000 0 0 1
-37.336146 19.912025 19.573091 46.621695 -0.489945 1.137541 0.154115 -0.029524 -501148.000000 0 0 1
36.741063 19.195625 18.433091 45.366911 0.481451 1.152383 0.132405 -0.029506 95043.000000 0 0 1
36.833613 17.736625 18.537291 44.888017 0.448766 1.145086 0.151464 -0.044112 -51729.600000 0 0 1
35.887503 17.033825 17.789491 43.526200 0.443159 1.149759 0.180824 -0.058524 -164772.000000 0 0 1
36.265503 15.536625 17.589991 43.197005 0.404758 1.151406 0.181946 -0.063941 471461.000000 0 0 1
35.199823 14.836825 16.948691 41.790155 0.398905 1.153198 0.213543 -0.056932 518679.000000 0 0 1
35.629473 13.547625 16.631291 41.588428 0.363354 1.159387 0.183881 -0.046969 -10187.200000 0 0 1
34.612043 12.873225 15.712391 40.132190 0.356076 1.168518 0.177300 -0.052031 -182987.000000 0 0 1
34.581303 13.280525 14.341291 39.722934 0.366671 1.201421 0.166738 -0.045677 151503.000000 0 0 1
34.037533 12.289625 13.488791 38.620409 0.346495 1.214009 0.172129 -0.040749 -224522.000000 0 0 1
34.091653 12.498725 11.948991 38.226134 0.351405 1.252881 0.177479 -0.040117 -419782.000000 0 0 1
35.387133 12.459725 11.419191 39.215964 0.338542 1.275329 0.165160 -0.035453 -255653.000000 0 0 1
35.320483 12.191725 9.993891 38.678838 0.332369 1.309450 0.149063 -0.028924 -996102.000000 0 0 1
36.670013 12.225525 9.327791 39.763815 0.321804 1.334010 0.114533 -0.014935 -1086480.000000 0 0 1
-37.379326 11.112125 9.607891 40.162232 -0.288960 1.329227 0.163277 -0.027138 593381.000000 0 0 1
-36.002206 11.330325 9.297891 38.871401 -0.304899 1.329258 0.162934 -0.029366 197659.000000 0 0 1
-35.550060 11.178125 7.844591 38.082737 -0.304645 1.363323 0.155217 -0.045939 -815132.000000 0 0 1
-35.993813 12.132525 6.890791 38.603571 -0.325112 1.391333 0.143902 -0.049502 -14379.100000 0 0 1
-35.606331 11.903925 5.578891 37.955741 -0.322639 1.423278 0.157062 -0.057127 151968.000000 0 0 1
-36.611466 12.698825 4.693691 39.034476 -0.333869 1.450260 0.163120 -0.058259 -536302.000000 0 0 1
37.000943 12.108925 4.606891 39.203562 0.316275 1.453012 0.180242 -0.062032 -616738.000000 0 0 1
35.945803 13.022525 4.443291 38.489346 0.347574 1.455096 0.137083 -0.055643 126565.000000 0 0 1
35.453163 13.570325 5.795691 38.401439 0.365563 1.419294 0.152656 -0.046344 -1032630.000000 0 0 1
34.624283 14.746725 5.654991 38.056350 0.402639 1.421649 0.128556 -0.031842 525966.000000 0 0 1
33.996683 15.207825 6.853091 37.868420 0.420634 1.388823 0.103872 -0.025327 868021.000000 0 0 1
32.754103 14.416625 7.400691 36.543680 0.414630 1.366870 0.164807 -0.040512 240656.000000 0 0 1
33.152273 13.124825 7.846791 36.508990 0.376963 1.354179 0.193630 -0.033102 -85728.600000 0 0 1
32.098853 12.194225 7.883591 35.230477 0.363056 1.345114 0.200273 -0.024598 -314589.000000 0 0 1
31.879853 11.278425 6.608791 34.455827 0.340038 1.377796 0.199401 -0.031936 -389518.000000 0 0 1
31.467043 11.994225 5.509491 34.123170 0.364167 1.408628 0.193774 -0.047869 142013.000000 0 0 1
31.512553 11.114425 4.378891 33.700833 0.339077 1.440494 0.189820 -0.052399 -204437.000000 0 0 1
30.718943 11.703525 3.191091 33.027398 0.364009 1.474026 0.154601 -0.063202 330774.000000 0 0 1
29.326663 11.493525 3.385791 31.679928 0.373516 1.463717 0.129439 -0.055565 553575.000000 0 0 1
28.547563 11.905225 2.260391 31.013015 0.395102 1.497846 0.150893 -0.053624 -135607.000000 0 0 1
27.160263 11.291225 2.119391 29.490057 0.393989 1.498866 0.176093 -0.036516 -326616.000000 0 0 1
27.106163 9.909325 1.662791 28.908540 0.350482 1.513246 0.131717 -0.027817 -7264.590000 0 0 1
25.783463 9.430025 1.706791 27.506826 0.350627 1.508707 0.136561 -0.030321 -354971.000000 0 0 1
25.820763 7.890225 1.492791 27.040634 0.296565 1.515563 0.142760 -0.024009 204549.000000 0 0 1
26.534963 7.146625 2.456991 27.590131 0.263086 1.481625 0.160671 -0.016897 16792.800000 0 0 1
27.931963 7.123925 2.433191 28.928624 0.249722 1.486587 0.195267 -0.033179 -475832.000000 0 0 1
28.602563 6.461325 3.710091 29.557065 0.222171 1.444941 0.208972 -0.033749 -476635.000000 0 0 1
29.990293 6.586425 3.704991 30.927748 0.216186 1.450713 0.239077 -0.033891 -136682.000000 0 0 1
30.607793 5.691725 4.671791 31.481079 0.183857 1.421846 0.226615 -0.032353 650687.000000 0 0 1
32.133783 5.845525 4.961691 33.035867 0.179944 1.420035 0.219035 -0.033992 593277.000000 0 0 1
32.352483 7.103725 5.589891 33.591561 0.216143 1.403611 0.218983 -0.042529 -691625.000000 0 0 1
33.652363 7.106225 6.093791 34.930134 0.208108 1.395442 0.167120 -0.025767 -293498.000000 0 0 1
33.985023 8.453925 6.875291 35.689218 0.243806 1.376941 0.155189 -0.031757 710262.000000 0 0 1
33.122853 8.500125 8.056591 35.132381 0.251203 1.339416 0.173144 -0.044206 1250670.000000 0 0 1
33.849393 9.077825 9.155891 36.221798 0.262017 1.315251 0.171342 -0.041555 335017.000000 0 0 1
33.178723 8.622225 10.478191 35.846379 0.254248 1.274157 0.176326 -0.031354 -41839.700000 0 0 1
32.037143 9.355525 10.813891 35.083395 0.284121 1.257460 0.180442 -0.037391 10635.200000 0 0 1
31.330903 8.844925 11.933891 34.673851 0.275146 1.219436 0.168341 -0.038650 504905.000000 0 0 1
29.875363 9.371625 12.153991 33.586964 0.303969 1.200527 0.166338 -0.043050 94041.900000 0 0 1
29.730163 10.752825 12.517891 34.002991 0.347043 1.193788 0.190328 -0.048442 144081.000000 0 0 1
29.814963 11.719725 11.489991 34.033863 0.374528 1.226425 0.193545 -0.054074 -114219.000000 0 0 1
28.666963 11.691125 10.450791 32.675621 0.387234 1.245242 0.158747 -0.041794 -50790.300000 0 0 1
28.774363 12.838025 9.639691 32.950000 0.419658 1.273899 0.134929 -0.019333 45623.500000 0 0 1
27.688663 12.893125 8.757591 31.774048 0.435789 1.291561 0.121656 -0.018172 -142260.000000 0 0 1
27.749863 14.147425 7.811491 32.112675 0.471472 1.325079 0.117969 -0.020812 14085.600000 0 0 1
27.369463 15.293425 8.534891 32.493395 0.509557 1.305013 0.111581 -0.006426 164106.000000 0 0 1
27.653563 16.499325 7.871991 33.149895 0.537948 1.331039 0.107815 -0.000105 -899145.000000 0 0 1
27.215863 17.743125 8.711991 33.636594 0.577738 1.308806 0.129653 -0.015021 309313.000000 0 0 1
25.853363 18.089225 8.847391 32.770303 0.610515 1.297422 0.134832 -0.025638 891101.000000 0 0 1
24.843163 17.071925 9.113291 31.491038 0.602076 1.277204 0.146899 -0.022637 -159466.000000 0 0 1
23.440963 17.696325 9.146391 30.761910 0.646650 1.268903 0.146435 -0.034453 -408086.000000 0 0 1
23.046163 18.180725 7.908991 30.400930 0.667925 1.307612 0.153946 -0.033702 -318906.000000 0 0 1
22.014363 19.112325 8.067291 30.248873 0.714952 1.300832 0.196674 -0.041334 71817.600000 0 0 1
21.210063 19.521025 6.801691 29.617566 0.743954 1.339078 0.169752 -0.034703 236470.000000 0 0 1
22.031663 20.237325 5.899491 30.491761 0.742973 1.376090 0.115631 -0.018552 -139742.000000 0 0 1
21.327663 20.675325 4.788491 30.087671 0.769869 1.410965 0.131264 -0.026828 -280040.000000 0 0 1
18.614754 17.286725 32.771825 41.464834 0.748424 0.659413 0.132479 -0.048382 710818.000000 0 0 1
17.202754 17.497025 32.564577 40.774163 0.793878 0.645736 0.120504 -0.042356 1357380.000000 0 0 1
16.636054 16.695425 31.517387 39.355320 0.787179 0.642097 0.123294 -0.051042 -235796.000000 0 0 1
16.374854 17.622525 30.278887 38.671699 0.822081 0.671366 0.120875 -0.049835 -232544.000000 0 0 1
17.459154 18.072725 29.460497 38.721653 0.802665 0.706209 0.123955 -0.036127 216067.000000 0 0 1
17.031754 18.373625 28.123847 37.664593 0.823280 0.727722 0.110072 -0.039200 109552.000000 0 0 1
18.201254 18.478425 27.091967 37.506167 0.792955 0.763625 0.106905 -0.026134 293829.000000 0 0 1
18.846554 19.740625 27.063827 38.436124 0.808564 0.789607 0.107093 -0.034315 184333.000000 0 0 1
19.700754 19.897125 25.941627 38.170451 0.790357 0.823544 0.098492 -0.016941 47053.500000 0 0 1
20.651454 21.125425 25.954707 39.324458 0.796743 0.849958 0.109123 -0.019753 238121.000000 0 0 1
19.942954 22.352325 25.903727 39.602411 0.842302 0.857811 0.084018 -0.024858 535683.000000 0 0 1
20.725854 23.365625 26.516967 40.971491 0.845197 0.866884 0.096528 -0.028838 391054.000000 0 0 1
20.043354 24.755725 26.302517 41.308648 0.890202 0.880544 0.103225 -0.031084 323276.000000 0 0 1
20.011954 25.159625 24.928027 40.680359 0.898867 0.911225 0.093280 -0.025875 123950.000000 0 0 1
19.102154 26.222525 24.829287 40.853478 0.941222 0.917554 0.096700 -0.032335 -215229.000000 0 0 1
19.183454 26.991025 23.519567 40.616381 0.952902 0.953214 0.077764 -0.031335 -432954.000000 0 0 1
20.323954 27.795025 23.387967 41.624795 0.939431 0.974145 0.084814 -0.034074 -183411.000000 0 0 1
20.184354 28.673225 22.267157 41.537794 0.957428 1.005022 0.077055 -0.031492 350237.000000 0 0 1
21.438354 29.603425 22.115057 42.720506 0.944023 1.026673 0.081777 -0.026817 280726.000000 0 0 1
22.547154 28.862725 21.631357 42.536416 0.907633 1.037311 0.078492 -0.032076 129947.000000 0 0 1
23.654154 29.734625 21.369657 43.592766 0.898800 1.058464 0.105831 -0.040530 280041.000000 0 0 1
23.875154 29.931925 19.882057 43.142083 0.897491 1.091843 0.114113 -0.040156 -553358.000000 0 0 1
23.062354 30.873025 19.266457 43.083782 0.929214 1.107180 0.095124 -0.024401 -89651.000000 0 0 1
23.115854 30.727525 17.848157 42.391983 0.925834 1.136219 0.092392 -0.013443 -365609.000000 0 0 1
22.602754 31.953125 17.051157 42.692256 0.955140 1.159937 0.104568 -0.021595 -422735.000000 0 0 1
23.362854 33.123925 17.248457 44.051409 0.956511 1.168478 0.112420 -0.020854 91768.800000 0 0 1
23.543154 -33.740620 16.184057 44.211234 -0.961569 1.196022 0.105636 -0.022307 250505.000000 0 0 1
24.551054 33.646725 15.043557 44.285043 0.940433 1.224200 0.084362 -0.018556 322907.000000 0 0 1
24.115454 32.512825 14.255257 42.916795 0.932615 1.232203 0.103930 -0.027554 527876.000000 0 0 1
23.078054 32.703825 13.287157 42.174463 0.956276 1.250285 0.079788 -0.032037 192893.000000 0 0 1
22.737454 31.571925 12.284857 40.800687 0.946655 1.264956 0.079052 -0.047917 -432786.000000 0 0 1
23.793854 31.176325 11.434857 40.851765 0.918899 1.287095 0.115797 -0.069063 80543.900000 0 0 1
23.429254 29.983325 10.798357 39.554194 0.907494 1.294285 0.115531 -0.066348 -639475.000000 0 0 1
24.616054 29.377325 10.038157 39.619969 0.873353 1.314643 0.127773 -0.067643 791701.000000 0 0 1
25.701254 28.674625 10.700857 39.966198 0.840026 1.299742 0.123938 -0.066000 999332.000000 0 0 1
26.542154 29.594625 11.364757 41.345925 0.839720 1.292342 0.115959 -0.063051 58286.300000 0 0 1
27.962254 29.001325 11.747257 41.963825 0.803637 1.287067 0.120737 -0.060968 1096860.000000 0 0 1
27.959254 28.083925 12.830857 41.654023 0.787623 1.257670 0.119940 -0.050903 201516.000000 0 0 1
29.296054 27.637825 12.995857 42.320214 0.756281 1.258669 0.108163 -0.037799 329364.000000 0 0 1
29.573954 26.600225 14.109657 42.205132 0.732510 1.229922 0.101556 -0.041080 296456.000000 0 0 1
30.810454 26.758225 14.796657 43.407693 0.715125 1.222947 0.086639 -0.046514 246400.000000 0 0 1
31.119954 25.746425 15.684957 43.328373 0.691184 1.200382 0.096104 -0.049100 -170908.000000 0 0 1
32.248254 26.135925 16.651757 44.724910 0.681087 1.189294 0.103758 -0.056944 286784.000000 0 0 1
33.519054 26.211925 15.990757 45.456533 0.663669 1.211323 0.107529 -0.048738 218858.000000 0 0 1
34.505054 26.653825 16.910857 46.765396 0.657722 1.200802 0.099993 -0.045558 767093.000000 0 0 1
35.944654 26.415225 16.328857 47.501725 0.633758 1.219886 0.112872 -0.052617 556915.000000 0 0 1
36.344454 27.312825 15.319457 47.974947 0.644460 1.245782 0.111984 -0.045559 -1189750.000000 0 0 1
-37.202254 27.656225 15.474357 48.870546 -0.639265 1.248611 0.130476 -0.044078 -496914.000000 0 0 1
-36.899954 28.880825 14.551957 49.065957 -0.664090 1.269687 0.099069 -0.033537 -28543.400000 0 0 1
37.184254 29.929625 15.007157 50.036647 0.677722 1.266184 0.097736 -0.032499 -101772.000000 0 0 1
37.222154 31.002225 14.056257 50.440114 0.694481 1.288385 0.084212 -0.014920 227927.000000 0 0 1
36.229654 32.072725 14.568857 50.532160 0.724612 1.278336 0.068352 -0.018595 -433328.000000 0 0 1
36.153654 33.151225 13.583257 50.897891 0.742103 1.300650 0.040623 -0.020856 273464.000000 0 0 1
35.062854 -33.753120 13.778357 50.581815 -0.766368 1.294912 0.040861 -0.009703 -274220.000000 0 0 1
33.736954 33.567125 13.215457 49.392128 0.782875 1.299934 0.065094 -0.008284 -832929.000000 0 0 1
33.119254 32.572825 13.987157 48.513035 0.777080 1.278327 0.064525 -0.027172 327890.000000 0 0 1
32.051354 31.841825 13.360757 47.113703 0.782119 1.283265 0.086214 -0.027323 18723.800000 0 0 1
31.401854 30.806225 14.269457 46.246269 0.775824 1.257124 0.110130 -0.035793 -493815.000000 0 0 1
30.598854 31.312825 15.287857 46.373500 0.796930 1.234844 0.105199 -0.030949 -252857.000000 0 0 1
30.168954 30.266725 16.052157 45.649887 0.787016 1.211478 0.100642 -0.036993 -183304.000000 0 0 1
29.050454 30.526025 17.084557 45.471411 0.810161 1.185622 0.093142 -0.034355 -28729.500000 0 0 1
28.784354 29.524225 18.017357 44.998268 0.798086 1.158842 0.087067 -0.037651 92092.500000 0 0 1
29.569454 29.690825 19.217357 46.099941 0.787446 1.140805 0.082225 -0.035305 259769.000000 0 0 1
29.389854 28.526625 20.296257 45.710720 0.770495 1.110721 0.090842 -0.037851 -147566.000000 0 0 1
28.211254 28.475025 21.055957 45.277536 0.790051 1.087114 0.104548 -0.045278 -146086.000000 0 0 1
28.355854 27.546825 22.094857 45.288683 0.770927 1.061152 0.091162 -0.038991 133571.000000 0 0 1
27.125154 27.502425 23.028017 44.971624 0.792304 1.033219 0.105097 -0.043619 80158.900000 0 0 1
25.958854 26.932325 22.464357 43.633240 0.803801 1.029969 0.112336 -0.037890 -5939.620000 0 0 1
24.818854 27.008425 23.288497 43.448644 0.827621 1.005104 0.102570 -0.039868 -112798.000000 0 0 1
24.601654 25.976625 24.443507 43.330261 0.812576 0.971428 0.119911 -0.041651 -1206940.000000 0 0 1
25.532954 25.971625 25.441437 44.426612 0.793915 0.961047 0.110197 -0.043272 -730503.000000 0 0 1
25.325854 24.913425 26.377147 44.247391 0.777189 0.932125 0.122997 -0.045160 -910465.000000 0 0 1
26.576854 24.525125 27.152777 45.222608 0.745270 0.926764 0.133957 -0.054528 -219990.000000 0 0 1
27.186554 25.627325 27.837837 46.591992 0.755884 0.930440 0.142883 -0.049497 -36488.300000 0 0 1
28.200254 26.219725 27.087417 47.079258 0.749021 0.957755 0.099940 -0.030136 -1005840.000000 0 0 1
28.632454 27.613325 27.603887 48.417846 0.767281 0.964147 0.069609 -0.025640 -103297.000000 0 0 1
29.338354 27.433525 28.812827 49.431937 0.751858 0.948529 0.083277 -0.027323 61886.800000 0 0 1
29.302954 28.618825 29.566317 50.516012 0.773587 0.945564 0.087063 -0.032330 -185533.000000 0 0 1
30.699054 29.081625 30.013487 51.855398 0.758349 0.953550 0.074864 -0.028612 171102.000000 0 0 1
31.566054 29.389025 28.923347 51.929670 0.749698 0.980061 0.049295 -0.022807 -784887.000000 0 0 1
32.844854 29.760325 29.288657 53.125200 0.736168 0.986858 0.076574 -0.027529 -348794.000000 0 0 1
33.699654 30.106025 28.036567 53.179776 0.729136 1.015490 0.071358 -0.021319 -44358.000000 0 0 1
33.123354 31.233025 27.461567 53.167623 0.756034 1.028027 0.048300 -0.017307 206139.000000 0 0 1
33.727854 31.505425 26.228277 53.085615 0.751342 1.054026 0.046700 -0.014620 225486.000000 0 0 1
33.281154 32.948825 25.900347 53.517178 0.780380 1.065618 0.039788 -0.020423 -297827.000000 0 0 1
34.036154 33.840725 26.637287 54.892619 0.782519 1.064134 0.060638 -0.020253 -267038.000000 0 0 1
33.970354 -32.590220 26.183287 53.867169 -0.764666 1.063208 0.053232 -0.013177 -17038.300000 0 0 1
35.023854 -31.599420 26.782697 54.244876 -0.734043 1.054415 0.046711 -0.015330 177945.000000 0 0 1
34.846554 -31.290720 28.150817 54.643024 -0.731685 1.029582 0.050389 -0.023779 52519.700000 0 0 1
35.852454 -30.416720 28.608787 55.036697 -0.703556 1.024164 0.052208 -0.030721 -247851.000000 0 0 1
35.698054 -29.890020 30.059477 55.419640 -0.697075 0.997508 0.048936 -0.022597 -255801.000000 0 0 1
35.931754 -30.928420 31.022577 56.657378 -0.710705 0.991366 0.066225 -0.029949 62991.000000 0 0 1
34.850154 -31.815720 31.187957 56.563787 -0.739912 0.986783 0.065169 -0.039656 -391290.000000 0 0 1
34.911454 -32.807120 32.433601 57.853740 -0.754333 0.975670 0.093420 -0.041206 -666739.000000 0 0 1
34.432954 -32.153820 33.591968 57.861186 -0.751183 0.951378 0.080917 -0.040250 166495.000000 0 0 1
34.530754 -32.946720 -33.068909 58.063862 -0.761927 2.176726 0.095876 -0.039262 -317397.000000 0 0 1
33.557554 33.666625 -32.925729 57.824344 0.787021 2.176584 0.088761 -0.033864 -607697.000000 0 0 1
33.729654 32.644025 -33.868199 57.882440 0.769043 2.195825 0.110112 -0.040105 -7486.660000 0 0 1
32.798054 31.598925 -33.645159 56.623327 0.766779 2.207058 0.119703 -0.033909 -40902.200000 0 0 1
33.148454 30.384125 33.358530 55.989344 0.741915 0.932533 0.103184 -0.029960 360604.000000 0 0 1
34.501254 30.006225 33.553627 56.714690 0.715828 0.937728 0.095426 -0.034959 98874.300000 0 0 1
34.958654 29.236125 32.467273 55.955182 0.696490 0.951777 0.082709 -0.033406 -389278.000000 0 0 1
36.377054 28.670825 32.424855 56.539168 0.667478 0.960032 0.085840 -0.026421 -370554.000000 0 0 1
36.512254 27.379925 33.024237 56.332986 0.643426 0.944396 0.081793 -0.012501 -238781.000000 0 0 1
-37.020254 27.056725 32.815966 56.386641 -0.631140 0.949633 0.070202 -0.016556 -480312.000000 0 0 1
-36.560354 25.795025 33.563571 55.933497 -0.614439 0.927218 0.074798 -0.016766 -92810.400000 0 0 1
-37.046054 24.620625 32.981803 55.374946 -0.586567 0.932773 0.061188 -0.012942 14569.800000 0 0 1
-36.852754 23.463025 33.779190 55.223842 -0.566947 0.912617 0.042393 -0.011442 -158020.000000 0 0 1
-37.208254 22.190725 33.066129 54.500012 -0.537763 0.918871 0.046196 -0.019404 -698119.000000 0 0 1
-36.214954 21.699225 32.222690 53.110084 -0.539815 0.918875 0.046913 -0.010272 -288625.000000 0 0 1
-36.612454 20.511325 31.607347 52.537707 -0.510662 0.925278 0.044253 -0.007471 -370621.000000 0 0 1
-35.539954 19.890425 30.728997 51.019493 -0.510232 0.924418 0.032094 -0.008299 -280509.000000 0 0 1
-35.209354 20.625325 29.544507 50.378374 -0.529906 0.944125 0.027088 -0.005062 336491.000000 0 0 1
-34.229854 20.024925 28.687587 48.945461 -0.529327 0.944543 0.058590 -0.012336 192262.000000 0 0 1
-34.779654 18.940525 27.715027 48.337259 -0.498677 0.960186 0.072487 -0.006944 -305417.000000 0 0 1
-35.471254 17.825125 28.309477 48.758296 -0.465664 0.951321 0.069385 -0.011662 564624.000000 0 0 1
-36.003354 16.961625 27.299197 48.261625 -0.440272 0.969575 0.072126 -0.017758 -15583.500000 0 0 1
-36.743654 15.768125 27.936107 48.776592 -0.405371 0.960957 0.058989 -0.036473 -499346.000000 0 0 1
-35.883654 14.892125 28.584537 48.233679 -0.393380 0.936481 0.071629 -0.022587 -73216.500000 0 0 1
-36.561654 13.981125 29.414067 48.963392 -0.365241 0.926375 0.078305 -0.031903 -124572.000000 0 0 1
-35.715454 12.706925 29.644497 48.123340 -0.341817 0.907128 0.085382 -0.017840 75405.400000 0 0 1
-34.449654 12.935425 30.218937 47.616048 -0.359198 0.883257 0.088656 -0.010483 -167938.000000 0 0 1
-33.806954 11.749625 30.517927 47.035175 -0.334491 0.864748 0.060442 -0.000935 322203.000000 0 0 1
-32.258754 11.896425 30.731077 46.114545 -0.353308 0.841416 0.063506 0.002755 -650652.000000 0 0 1
-31.735254 12.122525 29.405777 44.930855 -0.364884 0.857318 0.057036 0.002144 545398.000000 0 0 1
-30.346954 12.456725 29.445077 44.080837 -0.389505 0.839306 0.061778 0.002265 915011.000000 0 0 1
-29.327954 11.416725 30.016427 43.490877 -0.371229 0.809062 0.067718 0.002348 -894187.000000 0 0 1
-29.064954 10.420725 29.055147 42.397696 -0.344256 0.815781 0.076915 -0.005115 -123965.000000 0 0 1
-28.097554 9.545625 29.587837 41.905031 -0.327498 0.786865 0.057449 -0.001506 -310512.000000 0 0 1
-27.862154 8.369425 28.628147 40.815655 -0.291812 0.793435 0.046915 -0.009062 1138840.000000 0 0 1
-28.883454 7.295125 28.584447 41.286116 -0.247397 0.806055 0.062444 -0.016473 719651.000000 0 0 1
-30.067354 7.619425 27.897947 41.718064 -0.248187 0.838303 0.082015 -0.019927 -526053.000000 0 0 1
-30.869454 6.299425 27.881297 42.071043 -0.201303 0.846352 0.089887 -0.022115 -506893.000000 0 0 1
-31.461554 6.044325 29.143277 43.309281 -0.189805 0.832660 0.095170 -0.018263 -267371.000000 0 0 1
-32.003454 4.777425 29.027367 43.469908 -0.148184 0.839604 0.107759 -0.023453 -532342.000000 0 0 1
-32.745454 4.340325 30.298097 44.822738 -0.131779 0.828538 0.094924 -0.015504 50842.300000 0 0 1
-34.032154 4.932425 30.436897 45.922990 -0.143932 0.846269 0.099050 -0.022296 115875.000000 0 0 1
-34.626854 4.427925 31.634407 47.110097 -0.127185 0.834566 0.103628 -0.020380 24935.800000 0 0 1
-36.071854 4.886725 31.898210 48.399944 -0.134652 0.851235 0.092852 -0.021699 -57620.300000 0 0 1
-36.188754 6.310625 32.200841 48.850221 -0.172645 0.851075 0.086052 -0.010236 75625.500000 0 0 1
37.334354 6.683125 32.387707 49.874661 0.177131 0.864025 0.092043 -0.008258 264291.000000 0 0 1
36.987254 8.142425 32.867486 50.146064 0.216685 0.856038 0.074389 -0.003598 -189772.000000 0 0 1
37.186754 8.337725 -33.576589 50.791335 0.220565 2.293039 0.076017 -0.001077 171701.000000 0 0 1
37.143754 9.667725 -33.176369 50.732582 0.254629 2.283585 0.078595 -0.000834 -127395.000000 0 0 1
37.182154 9.954725 -31.625459 49.817455 0.261594 2.258581 0.082597 -0.007957 230661.000000 0 0 1
35.997154 9.429425 -31.045419 48.461606 0.256193 2.266100 0.090769 -0.016529 310716.000000 0 0 1
36.046754 9.509625 -29.622469 47.616091 0.257937 2.242232 0.090042 -0.012919 -925385.000000 0 0 1
34.753654 9.085625 -29.017849 46.177924 0.255706 2.250281 0.090094 -0.014997 -1102880.000000 0 0 1
34.628554 7.645325 -29.051089 45.842704 0.217295 2.257139 0.094395 -0.020789 668283.000000 0 0 1
33.308654 7.327025 -28.609319 44.515670 0.216525 2.268787 0.117335 -0.036674 245359.000000 0 0 1
36.516903 5.976325 -19.698609 41.919397 0.162221 2.059992 0.095885 -0.012601 -387073.000000 0 0 1
36.014533 6.772725 -18.643909 41.115833 0.185884 2.041427 0.098280 -0.014947 216443.000000 0 0 1
36.591193 8.073925 -18.621609 41.843374 0.217172 2.032005 0.072007 -0.005323 -877876.000000 0 0 1
-36.872976 8.145125 -18.007809 41.835877 -0.217406 2.015776 0.078220 -0.005136 585632.000000 0 0 1
-35.817611 7.549225 -18.806709 41.153181 -0.207728 2.045408 0.084526 -0.010964 529022.000000 0 0 1
-35.470202 8.322925 -19.946809 41.536508 -0.230476 2.071706 0.073187 -0.002082 -921918.000000 0 0 1
-34.308136 7.701125 -20.756309 40.831114 -0.220809 2.104059 0.061892 0.005087 -207024.000000 0 0 1
-34.542987 6.535325 -21.580509 41.251021 -0.186984 2.121340 0.056874 0.008315 40376.700000 0 0 1
-35.437636 6.849525 -22.622309 42.597076 -0.190930 2.130667 0.069617 0.005119 109682.000000 0 0 1
-35.567093 5.658625 -23.598909 43.057480 -0.157775 2.150862 0.091025 -0.004102 -254787.000000 0 0 1
-34.483572 5.666325 -24.468109 42.660430 -0.162864 2.181636 0.075549 -0.007184 -398524.000000 0 0 1
-34.149103 4.396525 -25.028309 42.566499 -0.128041 2.199357 0.076804 -0.009339 -747380.000000 0 0 1
-32.797796 4.444625 -25.721039 41.916845 -0.134695 2.231434 0.081831 -0.006754 -188511.000000 0 0 1
-31.763166 4.418625 -24.717809 40.489418 -0.138225 2.227457 0.081061 -0.007060 685739.000000 0 0 1
-30.548426 3.959125 -25.333839 39.883385 -0.128883 2.259061 0.077496 -0.007346 532316.000000 0 0 1
-29.236286 4.414125 -24.669609 38.507590 -0.149849 2.266131 0.058131 -0.008276 -114708.000000 0 0 1
-28.916056 5.790225 -24.825409 38.548228 -0.197629 2.270524 0.033654 -0.002279 205476.000000 0 0 1
-27.634286 6.066325 -24.291509 37.289830 -0.216094 2.280257 0.047649 -0.001789 -23766.900000 0 0 1
-27.284796 7.528025 -24.637109 37.524903 -0.269208 2.287037 0.045758 -0.003119 -150913.000000 0 0 1
-28.087276 8.419125 -23.902009 37.829654 -0.291226 2.254712 0.051814 -0.001163 -279412.000000 0 0 1
-27.866186 9.780525 -24.226909 38.198509 -0.337549 2.257818 0.036078 -0.007790 2298.720000 0 0 1
-26.521676 10.417325 -23.779109 37.112881 -0.374271 2.266237 0.060412 -0.006454 235811.000000 0 0 1
-26.352776 10.601725 -22.394509 36.171527 -0.382488 2.238418 0.063367 -0.007500 256660.000000 0 0 1
-25.000446 10.897125 -22.054109 35.073542 -0.411048 2.250800 0.081137 -0.007333 179917.000000 0 0 1
-24.825246 11.050525 -20.516009 34.048694 -0.418799 2.217488 0.102016 -0.028787 -608174.000000 0 0 1
-25.144946 12.273025 -19.855009 34.309136 -0.454075 2.187941 0.110037 -0.029843 483886.000000 0 0 1
-26.496626 12.708425 -19.890409 35.485259 -0.447215 2.165817 0.100984 -0.015763 297862.000000 0 0 1
-27.389106 11.930325 -18.841909 35.320154 -0.410803 2.133483 0.093294 -0.007722 -365975.000000 0 0 1
-27.016526 12.109325 -17.496409 34.389718 -0.421372 2.104550 0.097350 -0.020453 371171.000000 0 0 1
-27.950736 11.473025 -16.636909 34.491458 -0.389502 2.074130 0.118050 -0.021807 -322606.000000 0 0 1
-27.326836 11.099825 -15.244009 33.201534 -0.385829 2.047818 0.137458 -0.031175 -45090.300000 0 0 1
-26.547986 9.950825 -15.252409 32.193950 -0.358616 2.064359 0.155627 -0.032588 -85397.200000 0 0 1
-25.201766 10.190725 -15.575909 31.330318 -0.384264 2.091109 0.139105 -0.029052 -1002220.000000 0 0 1
-24.291846 8.965225 -15.444109 30.149453 -0.353556 2.108601 0.103635 -0.027093 -1348170.000000 0 0 1
-22.943046 9.225825 -15.567609 29.220706 -0.382331 2.132654 0.098840 -0.027383 -1120690.000000 0 0 1
-22.244846 8.126725 -15.101309 28.087833 -0.350267 2.138439 0.112679 -0.031326 -1745850.000000 0 0 1
-20.789246 8.409725 -14.952809 26.953714 -0.384399 2.158869 0.142321 -0.041587 -1537450.000000 0 0 1
-20.113546 8.744225 -16.138609 27.229963 -0.410094 2.205176 0.140125 -0.052812 -148113.000000 0 0 1
-18.727246 8.794725 -15.924909 26.108612 -0.439051 2.226792 0.143847 -0.051494 -574928.000000 0 0 1
-17.897946 9.221225 -17.173309 26.462993 -0.475743 2.277007 0.104713 -0.036599 -80065.400000 0 0 1
-17.817946 8.308025 -18.242809 26.819816 -0.436304 2.318830 0.147969 -0.049105 762698.000000 0 0 1
-16.949346 7.174525 -17.913809 25.683821 -0.400423 2.342663 0.152371 -0.047998 -41228.500000 0 0 1
-16.571246 6.319125 -19.204509 26.140977 -0.364309 2.395949 0.129229 -0.046869 413671.000000 0 0 1
-17.563446 5.502925 -19.867109 27.082445 -0.303629 2.394370 0.124562 -0.030792 994530.000000 0 0 1
-18.537046 6.291025 -20.632709 28.441303 -0.327179 2.382483 0.108397 -0.027559 704332.000000 0 0 1
-19.558846 5.389325 -21.397809 29.486598 -0.268872 2.382817 0.096333 -0.005888 -441018.000000 0 0 1
-20.551446 4.939425 -20.554009 29.482658 -0.235871 2.342219 0.081266 -0.010075 -138826.000000 0 0 1
-21.336446 3.898725 -21.163909 30.304373 -0.180732 2.343925 0.055455 0.007843 36450.300000 0 0 1
-22.183246 3.181125 -20.100709 30.104060 -0.142431 2.301921 0.073131 -0.001789 -286887.000000 0 0 1
-22.916946 2.075725 -20.529609 30.837637 -0.090330 2.299271 0.067999 0.009453 271421.000000 0 0 1
-23.301946 1.272025 -19.403409 30.349481 -0.054535 2.264426 0.082949 0.003068 -755729.000000 0 0 1
-23.939246 -0.049275 -19.765509 31.044569 0.002058 2.260984 0.081376 0.017905 -317776.000000 0 0 1
-23.056046 -1.081875 -20.210609 30.679315 0.046889 2.289979 0.060304 0.006040 4261.500000 0 0 1
-23.723646 -2.256475 -20.527409 31.452783 0.094830 2.281863 0.072747 -0.002348 -657594.000000 0 0 1
-24.136546 -2.298175 -22.005409 32.742823 0.094929 2.307795 0.070099 -0.009105 891707.000000 0 0 1
-23.064346 -2.263275 -22.994009 32.646759 0.097816 2.352272 0.043401 -0.006977 863564.000000 0 0 1
-22.209646 -3.395475 -23.059509 32.195319 0.151708 2.369193 0.038396 -0.017869 239035.000000 0 0 1
-21.287046 -3.408375 -24.309409 32.491579 0.158767 2.416105 0.044506 -0.013853 338742.000000 0 0 1
-22.011046 -3.597075 -25.500329 33.877601 0.161989 2.422979 0.049115 -0.017874 -344582.000000 0 0 1
-21.109146 -3.711075 -26.513299 34.092860 0.174026 2.461762 0.052184 -0.016679 -338454.000000 0 0 1
-21.777746 -3.727275 -27.939269 35.619735 0.169508 2.472486 0.054350 -0.024676 486926.000000 0 0 1
-22.755846 -4.747675 -28.140819 36.500337 0.205685 2.451166 0.076938 -0.025300 397142.000000 0 0 1
-23.194646 -4.967275 -29.453329 37.817509 0.210969 2.463591 0.046684 -0.021927 -434685.000000 0 0 1
-22.677746 -6.243275 -30.083949 38.187728 0.268649 2.478011 0.068319 -0.024342 15111.300000 0 0 1
-21.327146 -6.114875 -30.486369 37.704874 0.279227 2.512484 0.066093 -0.031118 92420.100000 0 0 1
-20.796946 -7.370275 -30.957669 38.015933 0.340582 2.522377 0.073049 -0.028199 26254.500000 0 0 1
-19.390646 -7.298975 -31.594459 37.782033 0.360013 2.561168 0.079769 -0.028601 -155245.000000 0 0 1
-19.244146 -6.655575 -32.865029 38.661918 0.332972 2.586899 0.077474 -0.039010 424502.000000 0 0 1
-19.812146 -7.461975 -33.914589 39.980014 0.360205 2.583541 0.076496 -0.036119 -602983.000000 0 0 1
-19.857346 -6.889775 32.507300 38.710564 0.333967 0.573969 0.078663 -0.033457 -448250.000000 0 0 1
-18.637546 -6.755375 31.830717 37.499170 0.347732 0.557013 0.085357 -0.038961 296427.000000 0 0 1
-17.826746 -5.649975 32.347961 37.364498 0.306923 0.524168 0.071041 -0.039276 951556.000000 0 0 1
-16.381046 -5.516675 31.738957 36.140473 0.324842 0.498688 0.061898 -0.037570 728889.000000 0 0 1
-16.479746 -5.291675 30.323707 34.915771 0.310702 0.518665 0.055366 -0.035909 -30742.200000 0 0 1
-15.263446 -4.909775 29.732367 33.780058 0.311216 0.494565 0.050505 -0.029423 -213140.000000 0 0 1
-15.339546 -4.943275 28.202307 32.482422 0.311749 0.519167 0.056180 -0.023055 71136.500000 0 0 1
-16.183446 -3.896875 27.765877 32.373345 0.236295 0.540061 0.047036 -0.028140 205400.000000 0 0 1
-16.780446 -4.055475 26.500947 31.628001 0.237132 0.577381 0.064333 -0.026918 -316587.000000 0 0 1
-15.863246 -3.627375 25.378987 30.147859 0.224800 0.570155 0.061203 -0.022861 -286683.000000 0 0 1
-15.681946 -2.253575 25.383207 29.921718 0.142728 0.557991 0.055062 -0.013129 -32913.700000 0 0 1
-14.829146 -1.766975 24.375167 28.586265 0.118596 0.549687 0.045014 -0.014181 -112824.000000 0 0 1
-14.786846 -0.212075 24.443887 28.569204 0.014341 0.544082 0.039644 -0.004249 -236560.000000 0 0 1
-15.811946 0.444925 23.746527 28.532668 -0.028131 0.587629 0.041682 -0.010889 -34115.500000 0 0 1
-15.942146 1.771025 24.158967 28.999039 -0.110637 0.586116 0.031477 -0.007229 -467642.000000 0 0 1
-16.701146 2.556925 23.132937 28.646098 -0.151919 0.630823 0.049184 -0.010134 -256815.000000 0 0 1
-15.899346 2.969725 22.021257 27.322962 -0.184655 0.633498 0.051530 -0.006283 591927.000000 0 0 1
-16.591546 3.894725 21.192057 27.194697 -0.230567 0.677294 0.064810 -0.011384 362946.000000 0 0 1
-15.600246 4.666025 20.244857 25.980641 -0.290630 0.677362 0.066967 -0.009479 382688.000000 0 0 1
-14.678846 5.502025 20.905157 26.129799 -0.358619 0.643417 0.069249 -0.008462 -212282.000000 0 0 1
-13.644046 5.801625 20.011657 24.905527 -0.402051 0.637640 0.062179 -0.004262 -45727.200000 0 1 0
-12.586446 6.785525 20.577057 25.057479 -0.494447 0.607296 0.054638 -0.001674 339779.000000 0 0 1
-13.063746 8.142525 20.670857 25.772980 -0.557370 0.640100 0.058542 -0.003518 964106.000000 0 0 1
-11.930946 9.043525 20.765957 25.599957 -0.648594 0.624644 0.052149 -0.000235 866080.000000 0 0 1
-12.314946 10.547825 20.773857 26.352754 -0.708259 0.662756 0.035788 0.003428 -121244.000000 0 0 1
-12.605446 11.030125 19.473557 25.686190 -0.718846 0.710351 0.033540 -0.003362 211000.000000 0 0 1
-12.996346 12.380925 19.696657 26.648651 -0.761152 0.739027 0.016434 0.003303 -240609.000000 0 0 1
-13.625046 12.972325 18.413457 26.324485 -0.760862 0.796126 0.025767 0.001100 -120567.000000 0 0 1
-12.665546 13.592225 17.549557 25.556831 -0.820675 0.813874 0.024328 -0.005167 493423.000000 0 0 1
-12.317146 14.940625 17.894657 26.365757 -0.881350 0.824794 0.031822 -0.005255 216959.000000 0 0 1
-13.325346 16.083125 17.356157 27.156361 -0.878900 0.877444 0.027615 -0.003744 650265.000000 0 0 1
-13.230746 16.466525 16.023057 26.512968 -0.893929 0.921849 0.018161 -0.017999 -7051.420000 0 0 1
-13.631446 15.420825 15.146757 25.554695 -0.846912 0.936366 0.041304 -0.014920 -203777.000000 0 0 1
-14.189146 15.903825 13.793957 25.387729 -0.842316 0.996396 0.034112 -0.021155 178308.000000 0 0 1
-15.334046 16.730325 13.869157 26.596809 -0.828917 1.022236 0.025490 -0.016099 28408.600000 0 0 1
-15.885046 17.087525 12.596757 26.514081 -0.821851 1.075722 0.021389 -0.009842 190740.000000 0 0 1
-17.070446 18.078325 12.656457 27.900033 -0.814065 1.099955 0.025801 -0.014981 -145139.000000 0 0 1
-18.241446 17.498525 13.163057 28.499382 -0.764614 1.090692 0.043934 -0.013076 -962835.000000 0 0 1
-19.277546 18.431325 13.168457 29.744677 -0.762961 1.112170 0.067003 -0.023811 1023760.000000 0 0 1
-20.696146 17.720325 13.369157 30.349213 -0.708090 1.114629 0.091882 -0.020588 1263280.000000 0 0 1
-21.095446 17.054525 12.211657 29.748937 -0.679870 1.147804 0.098564 -0.022765 101328.000000 0 0 1
-22.431246 16.585125 12.393557 30.525848 -0.636667 1.152721 0.144064 -0.033610 435292.000000 0 0 1
-23.083546 15.943425 11.165957 30.194726 -0.604446 1.192004 0.139264 -0.023970 127350.000000 0 0 1
-22.361146 14.787325 10.722557 28.873155 -0.584275 1.190315 0.113570 -0.021847 366731.000000 0 0 1
-22.934346 14.159825 9.541357 28.592348 -0.553121 1.230567 0.135817 -0.025411 291189.000000 0 0 1
-22.221246 12.803225 9.153957 27.230521 -0.522713 1.227954 0.131880 -0.023293 6044.160000 0 0 1
-22.553746 11.696425 9.993457 27.301044 -0.478418 1.196039 0.131714 -0.021974 151458.000000 0 0 1
-23.875146 11.203925 10.023857 28.213972 -0.438764 1.207583 0.180070 -0.019198 167424.000000 0 0 1
-24.637046 10.624725 8.792357 28.234276 -0.407152 1.254123 0.191252 -0.020316 -104438.000000 0 0 1
-25.103486 11.713525 7.995557 28.832631 -0.436580 1.289804 0.192353 -0.026751 627675.000000 0 0 1
-26.166886 11.289225 7.130257 29.376744 -0.407306 1.325630 0.241836 -0.035403 144185.000000 0 0 1
-26.675296 12.504025 6.243257 30.114785 -0.438336 1.361966 0.221246 -0.039074 -257856.000000 0 0 1
-25.974026 12.911925 5.095257 29.450458 -0.461332 1.396910 0.229436 -0.045298 12959.000000 0 0 1
-24.677146 13.443025 5.197357 28.577770 -0.498808 1.387911 0.212865 -0.043855 -531601.000000 0 0 1
-24.434846 14.882825 5.838657 29.200173 -0.547071 1.369487 0.202407 -0.045402 -806087.000000 0 0 1
-23.087846 15.262725 5.921057 28.302974 -0.584119 1.360037 0.152347 -0.047109 -32735.200000 0 0 1
-22.882346 16.619025 6.389957 28.993539 -0.628148 1.348580 0.148230 -0.045414 -468188.000000 0 0 1
-21.407946 17.007825 6.349357 28.069211 -0.671356 1.342618 0.113546 -0.031712 -570824.000000 0 0 1
-21.024946 17.513825 5.094657 27.834115 -0.694543 1.386722 0.144678 -0.053811 1482760.000000 0 0 1
-19.705946 18.117825 5.193857 27.268224 -0.743435 1.379152 0.113602 -0.038634 895128.000000 0 0 1
-19.298946 18.953525 3.940057 27.335133 -0.776368 1.426154 0.102113 -0.038811 68608.800000 0 0 1
-17.942546 19.364225 4.016157 26.702765 -0.823488 1.419821 0.084856 -0.036932 425065.000000 0 0 1
-17.613046 20.511025 3.172357 27.221047 -0.861267 1.453990 0.102629 -0.025263 47879.400000 0 0 1
-18.048246 21.868125 3.737957 28.599412 -0.880805 1.439721 0.113899 -0.051069 126477.000000 0 0 1
-17.256946 22.295425 4.869057 28.611115 -0.912103 1.399783 0.089162 -0.043938 343570.000000 0 0 1
-17.198646 23.677125 5.035157 29.694317 -0.942583 1.400407 0.063946 -0.045192 -258300.000000 0 0 1
-16.430146 24.162125 6.297257 29.890022 -0.973622 1.358525 0.040237 -0.033286 -263903.000000 0 0 1
-16.913946 23.611525 7.532357 30.005368 -0.949186 1.317048 0.041985 -0.026645 299654.000000 0 0 1
-15.982146 23.497125 8.599457 29.689974 -0.973500 1.276944 0.029243 -0.031508 31688.700000 0 0 1
-16.654246 22.734425 9.761857 29.824685 -0.938553 1.237343 0.006486 -0.013703 294705.000000 0 0 1
-17.833646 23.359125 10.210757 31.111850 -0.918739 1.236404 0.013591 -0.024676 -164470.000000 0 0 1
-18.692146 22.500425 10.932457 31.227937 -0.877587 1.213134 0.016959 -0.016274 564688.000000 0 0 1
-19.939546 23.227325 11.569457 32.725318 -0.861416 1.209452 0.042342 -0.021257 382052.000000 0 0 1
-20.940046 23.658025 10.690257 33.353699 -0.846267 1.244526 0.077595 -0.024370 79298.000000 0 0 1
-20.584946 24.855725 10.051957 33.802203 -0.879109 1.268853 0.028976 -0.024936 -218462.000000 0 0 1
-21.863046 25.544925 9.519157 34.944961 -0.862906 1.294905 0.055726 -0.025768 1000500.000000 0 0 1
-22.792846 25.929225 10.588957 36.110449 -0.849682 1.273184 0.096316 -0.033706 684916.000000 0 0 1
-23.835846 26.709025 10.077557 37.189740 -0.842181 1.296389 0.094137 -0.030968 85902.200000 0 0 1
-24.582846 27.591825 11.170757 38.605841 -0.843006 1.277244 0.097735 -0.030772 -154866.000000 0 0 1
-23.791646 28.654525 11.550557 38.994097 -0.877855 1.270071 0.097406 -0.034033 -153311.000000 0 0 1
-24.359046 29.339025 12.620457 40.167368 -0.877874 1.251186 0.095192 -0.028444 -107180.000000 0 0 1
9.753354 -31.995820 27.534787 43.324646 -1.274912 0.882081 0.069893 -0.046678 171998.000000 0 0 1
11.136454 -32.247020 27.346927 43.723510 -1.238272 0.895086 0.061451 -0.048469 277830.000000 0 0 1
11.480854 -32.071220 26.019107 42.864520 -1.227030 0.918506 0.075189 -0.042331 -358016.000000 0 0 1
12.985654 -32.208520 25.746367 43.230677 -1.187556 0.932836 0.027479 -0.027747 -434053.000000 0 0 1
13.431954 -33.483220 26.049367 44.498460 -1.189295 0.945424 0.048617 -0.039505 -359415.000000 0 0 1
14.829654 -33.448520 25.860927 44.805242 -1.153480 0.955519 0.056971 -0.031189 -344481.000000 0 0 1
15.470254 32.935825 25.605057 44.494003 1.131674 0.957615 0.085509 -0.030906 -61502.200000 0 0 1
15.513154 32.572625 24.249337 43.470268 1.126318 0.979019 0.067411 -0.032385 44091.800000 0 0 1
16.462154 31.565525 24.036017 42.954802 1.090079 0.976935 0.072389 -0.031715 -620386.000000 0 0 1
16.512254 31.013025 22.633557 41.794021 1.081543 0.998516 0.074363 -0.037547 241405.000000 0 0 1
15.380254 30.206825 22.329957 40.591028 1.099844 0.988288 0.074153 -0.035319 315904.000000 0 0 1
15.704854 28.774725 22.364957 39.683984 1.071194 0.972087 0.076877 -0.030451 191779.000000 0 0 1
15.490554 27.984425 23.679407 39.796981 1.065238 0.933524 0.078056 -0.033193 104687.000000 0 0 1
16.323754 28.421925 24.772557 41.084674 1.049461 0.923586 0.080303 -0.029782 106203.000000 0 0 1
15.810454 28.052325 25.978417 41.373682 1.057567 0.891948 0.084313 -0.030261 -148522.000000 0 0 1
16.638154 28.583025 27.187937 42.813566 1.043643 0.882748 0.095794 -0.037946 260230.000000 0 0 1
16.496054 29.992425 27.363177 43.822470 1.067947 0.896421 0.104618 -0.042997 460515.000000 0 0 1
17.290754 30.387025 28.498877 45.105737 1.053470 0.886892 0.119822 -0.043613 455826.000000 0 0 1
16.922454 31.841625 28.875827 46.196017 1.082301 0.895573 0.120552 -0.042576 302952.000000 0 0 1
17.748554 32.826825 28.251237 46.805385 1.075143 0.922801 0.107003 -0.034170 220610.000000 0 0 1
17.266654 -33.683420 28.553197 47.413028 -1.097107 0.924514 0.102370 -0.022201 -231789.000000 0 0 1
17.992954 -32.615820 27.774437 46.464583 -1.066677 0.930099 0.081101 -0.020434 -971955.000000 0 0 1
17.771354 -32.672520 26.398637 45.609239 -1.072630 0.953540 0.092759 -0.020499 -189999.000000 0 0 1
18.289554 -31.587820 25.586807 44.575586 -1.045956 0.959402 0.097420 -0.024316 901013.000000 0 0 1
19.824254 -31.246220 25.682787 45.043677 -1.005428 0.964077 0.126683 -0.023961 657948.000000 0 0 1
20.290054 -30.661920 26.879167 45.544805 -0.986216 0.939527 0.120034 -0.024662 192749.000000 0 0 1
21.074054 -29.479620 26.706037 45.015288 -0.950161 0.935686 0.132786 -0.024485 255988.000000 0 0 1
21.257654 -28.665020 28.035097 45.382132 -0.932700 0.904910 0.124436 -0.026270 693973.000000 0 0 1
20.058354 -27.916020 28.296547 44.523436 -0.947745 0.882085 0.136528 -0.030770 966046.000000 0 0 1
20.343354 -27.000520 29.365817 44.779810 -0.925095 0.855578 0.141820 -0.033558 159655.000000 0 0 1
19.029154 -26.289720 29.703237 43.994777 -0.944259 0.829623 0.143972 -0.038217 -120925.000000 0 0 1
18.498754 -25.453320 28.721527 42.602835 -0.942328 0.830957 0.130944 -0.034225 944835.000000 0 0 1
17.160554 -25.116720 29.148087 42.130099 -0.971413 0.806736 0.125322 -0.027287 926543.000000 0 0 1
16.158254 -24.540520 28.120757 40.670669 -0.988517 0.807335 0.116732 -0.028186 -410720.000000 0 0 1
15.734454 -25.506320 27.157007 40.443151 -1.018054 0.834584 0.101835 -0.022724 332755.000000 0 0 1
15.071454 -24.957820 26.008017 39.069918 -1.027531 0.842393 0.100101 -0.026255 1110020.000000 0 0 1
13.593154 -24.388020 26.259997 38.329321 -1.062312 0.816035 0.064764 -0.020966 1382130.000000 0 0 1
12.638854 -25.342820 26.739827 38.948909 -1.108177 0.814082 0.053948 -0.019758 568014.000000 0 0 1
12.155254 -26.211020 25.667157 38.646743 -1.136570 0.844443 0.050033 -0.028310 -413961.000000 0 0 1
11.405254 -27.497120 26.086027 39.580958 -1.177614 0.851235 0.059724 -0.030355 -177279.000000 0 0 1
10.082754 -27.324720 26.514397 39.386743 -1.217298 0.832295 0.047281 -0.040541 -388412.000000 0 0 1
9.463854 -28.554620 26.814287 40.298100 -1.250760 0.842769 0.047478 -0.040262 -1205050.000000 0 0 1
7.987154 -28.484120 27.110437 40.126245 -1.297410 0.828979 0.043128 -0.038908 -293010.000000 0 0 1
6.952754 -28.423920 26.093037 39.205951 -1.330898 0.842582 0.059188 -0.033671 943248.000000 0 0 1
7.120254 -27.266920 25.280397 37.858703 -1.315369 0.839605 0.063618 -0.034097 -1235180.000000 0 0 1
6.046954 -26.931220 24.247717 36.739734 -1.349926 0.849996 0.061109 -0.028777 -804320.000000 0 0 1
5.869654 -27.798320 23.112167 36.624742 -1.362702 0.887886 0.068511 -0.018425 96576.900000 0 0 1
5.089754 -28.967520 23.305317 37.525466 -1.396866 0.900710 0.077498 -0.022296 324259.000000 0 0 1
3.568254 -28.819820 23.668777 37.463655 -1.447611 0.886949 0.099273 -0.019709 -126534.000000 0 0 1
2.814454 -28.548620 22.500657 36.458530 -1.472529 0.905671 0.099509 -0.016411 360750.000000 0 0 1
1.571554 -27.869920 22.711557 35.986345 -1.514467 0.887805 0.123691 -0.018925 454840.000000 0 0 1
1.557554 -26.479820 23.328107 35.324318 -1.512044 0.849448 0.121857 -0.027132 -759127.000000 0 0 1
1.810154 -26.518420 24.715067 36.295148 -1.502642 0.821742 0.103096 -0.023803 140010.000000 0 0 1
1.666954 -25.205220 25.256697 35.720899 -1.504757 0.785469 0.109147 -0.024442 -158443.000000 0 0 1
2.865854 -24.899920 26.171967 36.237977 -1.456206 0.763783 0.107344 -0.024145 25851.000000 0 0 1
4.090354 -24.682120 25.497287 35.721838 -1.406568 0.775926 0.085547 -0.020157 185647.000000 0 0 1
4.986754 -23.755620 26.121647 35.658627 -1.363882 0.748739 0.068071 -0.021105 193526.000000 0 0 1
4.634054 -22.243020 26.319817 34.770090 -1.365397 0.712137 0.075547 -0.016197 -483002.000000 0 0 1
4.514454 -21.459620 25.136477 33.357729 -1.363450 0.717362 0.065237 -0.010095 494241.000000 0 0 1
3.912254 -20.151520 25.388287 32.648960 -1.379040 0.679934 0.085889 -0.022923 231779.000000 0 0 1
4.072254 -19.216420 24.169927 31.145456 -1.361970 0.682444 0.087418 -0.022114 36856.300000 0 0 1
5.386954 -18.744520 24.001227 30.926287 -1.290950 0.682373 0.075076 -0.012968 -206464.000000 0 0 1
5.401954 -17.807220 22.938467 29.537290 -1.276262 0.681556 0.080805 -0.011837 12541.200000 0 0 1
6.818054 -17.288820 22.653257 29.301181 -1.195160 0.687055 0.088844 -0.015205 -391816.000000 0 0 1
7.720154 -18.279120 22.222957 29.792396 -1.171174 0.728870 0.096228 -0.014574 -256792.000000 0 0 1
8.857654 -17.808820 21.526857 29.309004 -1.109251 0.745897 0.094444 -0.012329 833019.000000 0 0 1
10.097254 -17.610020 22.476857 30.286572 -1.050179 0.734540 0.102805 -0.008578 150792.000000 0 0 1
10.038954 -16.500320 23.416407 30.354066 -1.024216 0.689692 0.119769 -0.003928 972312.000000 0 0 1
11.242154 -16.641320 24.230147 31.470933 -0.976664 0.692078 0.128691 -0.011052 1140450.000000 0 0 1
11.341654 -15.775820 25.499317 32.058147 -0.947481 0.651115 0.141636 -0.021977 -79397.000000 0 0 1
11.592254 -14.390720 25.225587 31.269849 -0.892688 0.632239 0.161110 -0.026433 80433.400000 0 0 1
11.419954 -13.543820 26.359127 31.759314 -0.870272 0.591751 0.147231 -0.030074 -36257.400000 0 0 1
11.484354 -12.059120 26.068337 30.933331 -0.809806 0.568468 0.147301 -0.030076 891.354000 0 0 1
10.312954 -11.604420 25.451197 29.812464 -0.844254 0.547728 0.149691 -0.021287 -56034.900000 0 0 1
10.553454 -10.304620 25.013657 29.038658 -0.773469 0.532793 0.149210 -0.013296 400394.000000 0 0 1
9.228254 -9.705920 24.440907 27.869760 -0.810620 0.501279 0.145975 -0.011907 982645.000000 0 0 1
8.171454 -9.500720 25.374167 28.299907 -0.860475 0.458728 0.121739 -0.011987 -368065.000000 0 0 1
7.016554 -9.097820 24.736257 27.274251 -0.913843 0.434821 0.114971 -0.013700 -678637.000000 0 0 1
5.777754 -8.937920 25.619687 27.742337 -0.996934 0.393724 0.088196 -0.017948 -1029710.000000 0 0 1
5.461554 -7.693920 26.203517 27.850481 -0.953488 0.345624 0.099646 -0.014208 946293.000000 0 0 1
4.144554 -7.571120 26.782327 28.138803 -1.069939 0.311766 0.077154 -0.023803 1472450.000000 0 0 1
2.907654 -7.815820 25.880037 27.190400 -1.214639 0.311719 0.052330 -0.016594 -559858.000000 0 0 1
2.795754 -6.842820 24.873067 25.948216 -1.182926 0.288873 0.070881 -0.019049 -256846.000000 0 0 1
1.589654 -6.917520 24.151467 25.172852 -1.344917 0.285840 0.059239 -0.020481 39049.700000 0 0 1
1.382254 -5.679620 23.274997 23.997796 -1.332066 0.246056 0.050530 -0.025508 -63035.000000 0 1 0
1.047954 -4.527620 24.068737 24.513296 -1.343343 0.190738 0.055501 -0.020700 18456.600000 0 1 0
1.421454 -3.280920 23.479887 23.750581 -1.161960 0.151123 0.049274 -0.015834 -681949.000000 0 1 0
0.563754 -2.765920 22.276257 22.454393 -1.369729 0.126046 0.038854 -0.025912 1102060.000000 0 1 0
-0.532246 -1.872920 22.610557 22.694238 1.293916 0.085902 0.044941 -0.029020 1029830.000000 0 1 0
-1.641246 -2.490920 23.264777 23.455239 0.988196 0.127524 0.050248 -0.020851 -108778.000000 0 1 0
-2.559746 -1.463920 23.964077 24.144821 0.519502 0.122435 0.053160 -0.020877 161566.000000 0 1 0
-1.882846 -0.777920 25.025397 25.108182 0.391801 0.081227 0.062173 -0.030666 172474.000000 0 0 1
-2.560246 0.382080 25.310477 25.442506 -0.148143 0.101919 0.061959 -0.027798 -269343.000000 0 0 1
-1.884746 1.259080 26.436297 26.533288 -0.588951 0.085530 0.096429 -0.040307 27300.400000 0 0 1
-1.999946 0.819080 27.809807 27.893656 -0.388713 0.077557 0.113576 -0.035752 110783.000000 0 0 1
-1.341546 -0.394920 28.121827 28.156578 0.286290 0.049688 0.113203 -0.040325 -861953.000000 0 0 1
-0.027946 -0.255920 28.905857 28.907004 1.462031 0.008906 0.126565 -0.043145 -88113.600000 0 0 1
0.998654 0.533080 28.306447 28.329074 0.490320 0.039971 0.105705 -0.037424 797490.000000 0 0 1
1.698954 -0.154920 27.194567 27.248026 -0.090934 0.062651 0.099362 -0.037446 296646.000000 0 0 1
2.785554 -1.239920 27.468517 27.637224 -0.418792 0.110549 0.097818 -0.041982 -298863.000000 0 0 1
2.242754 -2.412920 28.045087 28.237901 -0.821932 0.116927 0.110583 -0.042526 220338.000000 0 0 1
3.181054 -3.449420 28.351437 28.737112 -0.825851 0.164018 0.131242 -0.036508 123356.000000 0 0 1
3.857354 -4.144420 27.148887 27.732968 -0.821258 0.205598 0.117553 -0.035111 -43144.500000 0 0 1
4.722754 -3.353320 26.368547 26.997212 -0.617429 0.216228 0.123532 -0.024064 -406031.000000 0 0 1
5.213054 -4.121320 25.321377 26.178873 -0.668969 0.256654 0.097788 -0.021682 -35252.200000 0 0 1
6.583254 -3.562520 24.814577 25.918990 -0.496022 0.292972 0.092276 -0.020437 -558678.000000 0 0 1
7.657754 -3.630720 25.716837 27.077279 -0.442733 0.318338 0.094560 -0.018832 154124.000000 0 0 1
8.379654 -4.885920 25.669547 27.441146 -0.527877 0.361294 0.128499 -0.011931 8070.600000 0 0 1
9.193354 -5.126420 24.381497 26.556644 -0.508676 0.407552 0.114100 -0.011368 -1007000.000000 0 0 1
8.428054 -5.564420 23.272337 25.369205 -0.583530 0.409435 0.109103 -0.013494 -412299.000000 0 0 1
9.135754 -5.644020 22.074457 24.547885 -0.553401 0.452766 0.097472 -0.012794 -151946.000000 0 1 0
9.411954 -4.241220 21.299157 23.669114 -0.423370 0.451322 0.103934 -0.023450 144006.000000 0 1 0
8.188654 -3.599420 21.037357 22.860015 -0.414140 0.402030 0.083683 -0.023593 -433882.000000 0 1 0
8.203254 -2.542920 20.097457 21.855608 -0.300596 0.403847 0.073957 -0.029406 454758.000000 0 1 0
6.834054 -1.796920 19.984157 21.196692 -0.257116 0.339876 0.082592 -0.024952 571658.000000 0 1 0
6.229154 -1.416920 21.205257 22.146624 -0.223660 0.292611 0.091571 -0.018571 1173150.000000 0 1 0
4.991454 -0.664920 21.040257 21.634444 -0.132432 0.234911 0.045494 -0.008926 1326470.000000 0 1 0
4.244354 -0.310920 22.373357 22.774511 -0.073124 0.187969 0.040121 -0.016516 1748400.000000 0 1 0
3.007854 0.480080 22.172057 22.380299 0.158274 0.136522 0.043396 -0.016921 1371750.000000 0 1 0
2.438754 0.744080 23.422397 23.560770 0.296135 0.108432 0.059849 -0.022488 -1704490.000000 0 1 0
1.027954 1.200080 23.339707 23.393136 0.862500 0.067599 0.064565 -0.033318 -1451210.000000 0 1 0
0.875354 2.576080 22.996017 23.156409 1.243236 0.117766 0.064959 -0.024948 -1119480.000000 0 1 0
-0.454746 2.879080 23.000307 23.184263 -1.414142 0.126056 0.058310 -0.021212 -1374740.000000 0 1 0
-0.915746 4.276080 22.566657 22.986463 -1.359828 0.191411 0.057940 -0.017631 -246386.000000 0 1 0
-0.739746 5.285080 23.591047 24.187121 -1.431731 0.222469 0.068099 -0.020655 -188646.000000 0 1 0
-1.590846 6.345080 23.349107 24.248127 -1.325139 0.273156 0.064293 -0.015718 -395302.000000 0 1 0
-1.148146 7.622080 24.073387 25.277309 -1.421286 0.309876 0.080698 -0.019436 -8393.730000 0 0 1
-0.166346 8.310080 23.343317 24.778934 -1.550782 0.342068 0.071866 -0.024427 -185218.000000 0 1 0
-0.092546 9.604080 23.921317 25.777439 -1.561161 0.381803 0.077010 -0.016585 -419164.000000 0 0 1
0.892054 10.597080 23.208667 25.529123 1.486815 0.429665 0.075008 -0.025141 533930.000000 0 0 1
2.269354 10.383080 23.446247 25.742666 1.355617 0.425595 0.072496 -0.025338 -222043.000000 0 0 1
2.772854 10.757080 24.729717 27.110190 1.318518 0.422193 0.081735 -0.025896 -1113380.000000 0 0 1
3.939954 11.764080 24.686067 27.628224 1.247624 0.465696 0.071988 -0.028855 1697210.000000 0 0 1
5.246854 11.242080 24.238457 27.228968 1.134129 0.473074 0.071401 -0.030106 1678000.000000 0 0 1
5.225054 10.769080 22.907197 25.845966 1.119066 0.481510 0.079340 -0.031649 -730933.000000 0 0 1
6.608054 10.276080 22.359857 25.479942 0.999321 0.500073 0.076051 -0.030074 66445.400000 0 0 1
7.480254 11.251080 21.943457 25.769291 0.984054 0.551890 0.075752 -0.030008 11975.200000 0 0 1
8.631954 10.577080 21.399857 25.383837 0.886315 0.567866 0.079092 -0.032666 121306.000000 0 0 1
9.580354 11.573080 20.730957 25.602578 0.879324 0.627119 0.070407 -0.032806 -798622.000000 0 0 1
9.067154 12.249080 19.599957 24.827638 0.933576 0.660898 0.070385 -0.029129 -42579.200000 0 1 0
9.940154 13.194080 19.068357 25.228807 0.925136 0.713896 0.085727 -0.027477 867174.000000 0 0 1
11.328554 12.806080 18.405657 25.121705 0.846542 0.748575 0.060334 -0.030325 1125710.000000 0 0 1
12.356554 12.588080 19.367057 26.195937 0.794679 0.738743 0.064541 -0.033504 -132106.000000 0 0 1
13.550054 12.210080 18.743957 26.153890 0.733428 0.771767 0.067015 -0.029825 -362553.000000 0 0 1
14.737854 11.919080 19.652957 27.303985 0.680047 0.767306 0.069208 -0.017992 -124549.000000 0 0 1
15.387654 13.047080 20.219357 28.562714 0.703269 0.784285 0.065754 -0.017801 52105.400000 0 0 1
16.443454 12.716080 21.091157 29.612883 0.658261 0.778128 0.066369 -0.019536 68066.100000 0 0 1
17.252354 13.908080 21.665557 30.991528 0.678483 0.796686 0.064094 -0.017707 -442494.000000 0 0 1
16.584354 14.710080 22.575557 31.639897 0.725578 0.776293 0.071496 -0.015837 -76902.900000 0 0 1
17.376954 15.798080 23.013087 32.880695 0.737842 0.795544 0.077727 -0.011798 -114216.000000 0 0 1
-21.390146 13.026925 -23.916109 34.629747 -0.547022 2.333147 0.044551 -0.005053 -63056.300000 0 0 1
-21.411546 13.123825 -25.349139 35.682880 -0.549874 2.360864 0.052978 -0.019965 -479306.000000 0 0 1
-22.398746 13.926925 -25.895459 36.962655 -0.556275 2.347012 0.055528 -0.031345 -427913.000000 0 0 1
-22.273246 13.918125 -27.456719 37.995830 -0.558514 2.378388 0.059355 -0.026905 1412180.000000 0 0 1
-20.958946 14.367325 -27.918279 37.750864 -0.600927 2.403183 0.084126 -0.024366 1217960.000000 0 0 1
-20.957246 14.564025 -29.285659 38.845422 -0.607322 2.424778 0.087771 -0.027629 -226015.000000 0 0 1
-19.574046 15.043225 -29.702799 38.622508 -0.655255 2.448156 0.079377 -0.025886 -219310.000000 0 0 1
-18.527646 14.096725 -29.810009 37.823642 -0.650408 2.478564 0.076175 -0.023442 -373711.000000 0 0 1
-17.284046 14.741925 -29.946339 37.587841 -0.706187 2.492616 0.076705 -0.013161 455907.000000 0 0 1
-16.235246 14.055225 -28.995419 36.081392 -0.713552 2.504135 0.102905 -0.008846 331908.000000 0 0 1
-16.607746 14.263525 -27.604959 35.232075 -0.709608 2.471104 0.099463 -0.012364 -114026.000000 0 0 1
-17.331946 13.207225 -27.042059 34.728952 -0.651147 2.463324 0.110077 -0.011505 -534292.000000 0 0 1
-18.006846 13.534425 -25.699369 34.174328 -0.644541 2.421899 0.091376 -0.019384 278144.000000 0 0 1
-17.125346 13.908825 -24.592309 33.038077 -0.682122 2.410376 0.148294 -0.033389 325861.000000 0 0 1
-17.833446 14.409125 -23.475709 32.814076 -0.679590 2.368015 0.121974 -0.031044 -80806.500000 0 0 1
-16.920546 14.931825 -22.333809 31.750012 -0.723044 2.351004 0.125538 -0.028188 276767.000000 0 0 1
-16.277046 16.158325 -22.683409 32.257878 -0.781738 2.350670 0.112497 -0.024991 -112755.000000 0 0 1
-16.108146 16.892425 -21.497809 31.732982 -0.809159 2.315100 0.117957 -0.021099 -338903.000000 0 0 1
-15.828946 18.422525 -21.797109 32.635240 -0.860976 2.302181 0.102115 -0.022736 481141.000000 0 0 1
-16.967146 19.274425 -21.949609 33.781250 -0.848976 2.278061 0.091964 -0.016415 214933.000000 0 0 1
-17.685146 19.087825 -23.138609 34.821038 -0.823524 2.297622 0.077464 -0.016362 -201805.000000 0 0 1
-18.890746 20.026525 -23.335009 36.089397 -0.814574 2.273901 0.064776 -0.011463 65476.300000 0 0 1
-18.582846 21.418425 -23.467909 36.807796 -0.856167 2.262149 0.063388 -0.008454 294937.000000 0 0 1
-19.793446 22.148525 -23.645409 37.966340 -0.841490 2.243112 0.072363 -0.015387 716834.000000 0 0 1
-19.431946 23.643625 -23.918909 38.842447 -0.882863 2.234188 0.068531 -0.019575 84344.200000 0 0 1
-18.942446 24.248125 -22.741109 38.261545 -0.907629 2.207265 0.073880 -0.021995 -345954.000000 0 0 1
-18.213546 25.396525 -23.054609 38.835959 -0.948642 2.206372 0.071285 -0.016903 -288776.000000 0 0 1
-17.014646 25.587925 -22.090009 37.844532 -0.983984 2.194079 0.059528 -0.022976 382797.000000 0 0 1
-15.945146 24.648725 -22.100609 36.745669 -0.996607 2.216109 0.071181 -0.036739 404720.000000 0 0 1
-16.287446 23.418025 -21.498509 35.719332 -0.963091 2.216641 0.094236 -0.022850 -833701.000000 0 0 1
-15.053446 22.534225 -21.363909 34.508175 -0.981853 2.238389 0.104250 -0.025623 -295429.000000 0 0 1
-14.086046 23.042625 -20.494309 33.902742 -1.022107 2.219938 0.121007 -0.035756 -424691.000000 0 0 1
-13.006646 22.122825 -20.429109 32.801535 -1.039300 2.243125 0.116518 -0.034242 -54774.800000 0 0 1
-12.160646 22.376125 -19.166309 31.873495 -1.072984 2.215954 0.110186 -0.043315 -165044.000000 0 0 1
-12.769946 22.108025 -17.926709 31.196204 -1.046998 2.182965 0.133355 -0.041617 391163.000000 0 0 1
-13.766146 23.039925 -17.466209 32.022076 -1.032224 2.147714 0.135727 -0.047486 191122.000000 0 0 1
-14.391246 22.644425 -16.090009 31.285241 -1.004660 2.110988 0.142860 -0.045989 -383076.000000 0 0 1
-13.558746 22.806825 -15.005109 30.481866 -1.034428 2.085485 0.133566 -0.045725 -438277.000000 0 0 1
-14.274846 22.962725 -13.763709 30.339704 -1.014608 2.041657 0.149113 -0.048201 -85069.000000 0 0 1
-13.434446 23.424925 -12.594009 29.796317 -1.050082 2.007186 0.191376 -0.048439 -366315.000000 0 0 1
-13.027346 24.780125 -12.683809 30.735083 -1.086787 1.996193 0.166659 -0.054029 29559.900000 0 0 1
-12.200846 25.182425 -11.637009 30.305695 -1.119627 1.964907 0.111808 -0.041432 -271413.000000 0 0 1
-11.737946 26.650825 -11.806009 31.423362 -1.155925 1.955957 0.134560 -0.042883 228854.000000 0 0 1
-11.023746 26.963925 -13.005709 31.901798 -1.182698 1.990708 0.121599 -0.049384 247389.000000 0 0 1
-10.772546 28.362025 -13.101809 33.047082 -1.207804 1.978453 0.100722 -0.035866 -352919.000000 0 0 1
-10.190546 28.691025 -14.477109 33.713630 -1.229512 2.014640 0.116020 -0.054856 1930020.000000 0 0 1
-8.754446 28.600625 -14.761009 33.354512 -1.273759 2.029236 0.108229 -0.060118 1521950.000000 0 0 1
-8.145146 27.316025 -14.755709 32.097345 -1.281008 2.048473 0.113009 -0.057572 801511.000000 0 0 1
-6.663646 27.425325 -15.289609 32.098672 -1.332441 2.067274 0.120641 -0.058969 1335900.000000 0 0 1
-5.812046 28.295425 -14.549709 32.343546 -1.368208 2.037392 0.112362 -0.049871 -78514.100000 0 0 1
-4.452946 27.976825 -14.824809 31.973527 -1.412955 2.052917 0.124729 -0.053705 1246390.000000 0 0 1
-3.432946 29.014925 -14.149509 32.463204 -1.453027 2.021793 0.105416 -0.039652 659729.000000 0 0 1
-3.615746 30.372525 -14.547409 33.870208 -1.452307 2.014740 0.090671 -0.028099 -156769.000000 0 0 1
-4.596346 31.109925 -13.857109 34.365292 -1.424112 1.985840 0.080342 -0.030042 -92321.100000 0 0 1
-4.718146 32.615225 -14.178509 35.875394 -1.427132 1.977099 0.074693 -0.033497 -655802.000000 0 0 1
-3.848446 33.426625 -13.498309 36.254022 -1.456170 1.952310 0.056054 -0.030894 -732829.000000 0 0 1
-3.868546 -32.989720 -13.901609 36.007527 1.454064 1.967169 0.061318 -0.033688 208263.000000 0 0 1
-2.921146 -32.093920 -13.086909 34.782466 1.480028 1.956542 0.049849 -0.027755 160914.000000 0 0 1
-3.258346 -32.216720 -11.704509 34.431517 1.470001 1.917645 0.048055 -0.033041 427064.000000 0 0 1
-2.249046 -31.575320 -10.946309 33.494487 1.499688 1.903722 0.040746 -0.035940 111303.000000 0 0 1
-2.539446 -31.818920 -9.469509 33.295105 1.491156 1.859189 0.037798 -0.036192 -190240.000000 0 0 1
-1.678246 -31.067320 -8.648709 32.292337 1.516829 1.841932 0.045558 -0.031653 -206838.000000 0 0 1
-1.885346 -31.400420 -7.257709 32.283358 1.510826 1.797547 0.041852 -0.041652 -61162.000000 0 0 1
-0.945146 -30.709920 -6.248909 31.353490 1.540029 1.771445 0.069339 -0.033938 20394.900000 0 0 1
-1.184046 -30.887120 -4.876909 31.292177 1.532480 1.727285 0.083474 -0.032086 -44817.200000 0 0 1
-0.076546 -30.351320 -4.164609 30.635803 1.568274 1.707158 0.079012 -0.019965 114397.000000 0 0 1
-0.156146 -30.349520 -2.642409 30.464734 1.565651 1.657642 0.088243 -0.012884 -285091.000000 0 0 1
-0.049446 -31.647920 -1.983409 31.710048 1.569234 1.633385 0.096213 -0.021583 1600890.000000 0 0 1
1.231354 -32.362120 -2.159909 32.457483 -1.532765 1.637391 0.082600 -0.020793 2201730.000000 0 0 1
2.558854 -31.808720 -1.557109 31.949444 -1.490524 1.619552 0.091757 -0.020688 -540840.000000 0 0 1
2.544354 -31.676020 -0.147809 31.778386 -1.490644 1.575448 0.075845 -0.015409 681516.000000 0 0 1
3.851254 -31.678020 0.458791 31.914567 -1.449815 1.556420 0.070106 -0.012892 914289.000000 0 0 1
4.579354 -30.324420 0.317291 30.669881 -1.420917 1.560451 0.048755 -0.013013 -639439.000000 0 0 1
4.803654 -29.907120 -0.987809 30.306545 -1.411537 1.603396 0.057285 -0.025711 -162426.000000 0 0 1
4.738154 -28.532320 -1.061709 28.942540 -1.406235 1.607488 0.080288 -0.016440 -466396.000000 0 0 1
4.213254 -27.884220 -2.364709 28.299701 -1.420833 1.654453 0.092262 -0.014752 -244694.000000 0 0 1
2.923454 -28.349120 -2.706909 28.627723 -1.468036 1.665493 0.101388 -0.016835 248963.000000 0 0 1
2.176254 -27.465520 -3.578209 27.782988 -1.491726 1.699946 0.101352 -0.024479 226199.000000 0 0 1
2.617454 -27.216720 -5.037809 27.802525 -1.474920 1.753003 0.084909 -0.029389 -235907.000000 0 0 1
2.227354 -28.306120 -5.819709 28.983901 -1.492270 1.772962 0.082858 -0.025954 -32008.100000 0 0 1
2.586654 -28.022620 -7.158809 29.038019 -1.478751 1.819897 0.092073 -0.041002 -34721.100000 0 0 1
1.768854 -28.823720 -8.192109 30.017433 -1.509505 1.847215 0.068469 -0.037118 -80709.400000 0 0 1
0.460454 -28.331820 -8.341909 29.537966 -1.554546 1.857105 0.073174 -0.037143 -440443.000000 0 0 1
-0.001746 -28.441520 -9.676209 30.042454 1.570735 1.898727 0.088084 -0.035158 518062.000000 0 0 1
-1.378446 -27.751420 -9.947809 29.512714 1.521166 1.914598 0.048644 -0.036708 -367608.000000 0 0 1
-1.456946 -26.382020 -9.554309 28.096592 1.515627 1.917769 0.055711 -0.026981 -621914.000000 0 0 1
-2.722346 -25.790420 -9.525609 27.627778 1.465629 1.922805 0.064703 -0.027352 294630.000000 0 0 1
-3.814146 -26.401920 -8.589509 28.024788 1.427324 1.882307 0.053945 -0.022459 -552243.000000 0 0 1
-3.493146 -26.285220 -7.213509 27.479984 1.438677 1.836409 0.060790 -0.020870 57256.900000 0 0 1
-2.709946 -27.384820 -6.685309 28.318995 1.472160 1.809117 0.078347 -0.021833 546032.000000 0 0 1
-2.297046 -27.177420 -5.227509 27.770765 1.486476 1.760164 0.080689 -0.011443 178405.000000 0 0 1
-3.409646 -27.248820 -4.366909 27.806362 1.446313 1.728496 0.082627 -0.014727 50309.300000 0 0 1
-2.980446 -27.180220 -3.018909 27.509293 1.461578 1.680759 0.081488 0.001971 231569.000000 0 0 1
-4.133646 -27.371820 -2.003309 27.754581 1.420911 1.643039 0.105239 -0.006266 132241.000000 0 0 1
-5.028046 -26.284720 -1.908409 26.829270 1.381788 1.641988 0.084857 0.003915 -91995.000000 0 0 1
-5.702346 -26.329320 -0.632109 26.947159 1.357513 1.594256 0.094844 -0.006774 490082.000000 0 0 1
-6.728646 -25.129620 -0.554709 26.020764 1.309176 1.592116 0.055684 -0.001994 361667.000000 0 0 1
-6.133346 -23.849920 -0.490909 24.630826 1.319086 1.590728 0.058501 -0.006273 94267.900000 0 1 0
-6.957046 -22.964520 0.252691 23.996531 1.276638 1.560266 0.065357 -0.016493 79860.800000 0 1 0
-6.210246 -21.634620 0.425091 22.512321 1.291261 1.551913 0.049391 -0.020419 -410493.000000 0 1 0
-5.264246 -21.744020 1.412391 22.416724 1.333266 1.507748 0.039903 -0.019604 -505777.000000 0 1 0
-4.378346 -20.615220 1.434191 21.123780 1.361522 1.502849 0.017888 -0.010653 201535.000000 0 1 0
-3.384446 -20.575220 2.637291 21.017836 1.407765 1.444986 0.023313 -0.001187 128260.000000 0 1 0
-3.974046 -20.536720 3.939991 21.285521 1.379650 1.384621 0.017311 0.006900 214032.000000 0 1 0
-3.014846 -20.223620 4.962291 21.040637 1.422811 1.332710 0.039063 -0.006303 448804.000000 0 1 0
-2.105246 -21.382520 5.439191 22.163687 1.472656 1.322854 0.050998 -0.020080 303406.000000 0 1 0
-1.061446 -21.581920 4.503491 22.072321 1.521654 1.365320 0.071400 -0.023739 -133796.000000 0 1 0
-0.167246 -22.604820 4.893191 23.128968 1.563398 1.357624 0.082686 -0.029969 -539919.000000 0 1 0
0.788054 -23.215820 3.841891 23.544754 -1.536865 1.406889 0.099310 -0.030489 420260.000000 0 1 0
1.931654 -22.467820 3.501791 22.820972 -1.485033 1.416741 0.053483 -0.029624 443289.000000 0 1 0
2.961354 -22.573020 4.499591 23.206834 -1.440351 1.375670 0.079324 -0.036069 56425.900000 0 1 0
4.103954 -21.514620 4.431391 22.346331 -1.382309 1.371168 0.082015 -0.035812 536158.000000 0 1 0
4.877054 -21.482320 3.214591 22.262285 -1.347554 1.425893 0.057950 -0.021959 -900355.000000 0 1 0
6.055154 -20.899420 3.649391 22.062835 -1.288789 1.404624 0.072747 -0.015734 -362910.000000 0 1 0
7.009254 -20.459720 2.503191 21.771443 -1.240740 1.455566 0.082146 -0.013960 7118.180000 0 1 0
7.703054 -21.503620 1.836591 22.915405 -1.226816 1.490564 0.077576 -0.014996 -43653.700000 0 1 0
7.243754 -21.535820 0.499091 22.726914 -1.246326 1.548834 0.070130 -0.021248 292573.000000 0 1 0
8.147854 -22.408820 -0.440809 23.848208 -1.222057 1.589281 0.067162 -0.016797 573482.000000 0 1 0
9.380154 -21.776020 -0.760009 23.722562 -1.164060 1.602839 0.072308 -0.016333 -273897.000000 0 1 0
10.078654 -22.613720 -1.674909 24.814611 -1.151534 1.638345 0.071397 -0.018236 965878.000000 0 1 0
11.525154 -22.107120 -2.026109 25.013177 -1.090229 1.651887 0.077091 -0.016117 916636.000000 0 0 1
11.477454 -20.997120 -2.897109 24.104029 -1.070552 1.691279 0.075854 -0.013696 184232.000000 0 1 0
12.758854 -20.821520 -3.493009 24.668303 -1.021038 1.712873 0.078533 -0.013134 244046.000000 0 1 0
12.916254 -19.599120 -4.402609 23.881752 -0.988105 1.756207 0.074505 -0.025184 -67726.500000 0 1 0
13.466454 -18.436120 -3.816509 23.147390 -0.939932 1.736431 0.108351 -0.019044 85558.800000 0 1 0
13.437654 -17.296320 -4.631609 22.387162 -0.910295 1.779188 0.108257 -0.027258 -529349.000000 0 1 0
13.845554 -16.080420 -3.729409 21.545017 -0.859940 1.744771 0.120969 -0.019091 737476.000000 0 1 0
15.203854 -15.999320 -3.298909 22.316322 -0.810886 1.719165 0.100230 -0.017252 544921.000000 0 1 0
16.099254 -15.612520 -4.326909 22.839853 -0.770051 1.761394 0.101003 -0.025962 -142518.000000 0 1 0
17.515754 -15.247120 -3.785109 23.528777 -0.716264 1.732370 0.100456 -0.026299 214728.000000 0 1 0
18.276354 -16.326820 -3.356209 24.735689 -0.729118 1.706899 0.103515 -0.019927 -1200080.000000 0 1 0
19.556054 -15.917020 -3.089409 25.403449 -0.683170 1.692712 0.069756 -0.010607 -1322540.000000 0 0 1
20.348554 -16.982220 -2.360009 26.608816 -0.695466 1.659606 0.065898 -0.018550 -1051060.000000 0 0 1
21.710254 -16.754720 -2.309109 27.520679 -0.657272 1.654800 0.061681 -0.013505 -699065.000000 0 0 1
22.400654 -17.675720 -1.483009 28.573059 -0.668042 1.622722 0.064611 -0.013360 1478020.000000 0 0 1
23.981154 -17.550320 -1.635109 29.762108 -0.631776 1.625763 0.080897 -0.015880 1131260.000000 0 0 1
24.532254 -16.357820 -1.129909 29.507397 -0.588087 1.609098 0.075901 -0.016700 -699702.000000 0 0 1
25.748954 -16.639720 -0.534809 30.662272 -0.573720 1.588239 0.117669 -0.027856 -823117.000000 0 0 1
26.410154 -15.371120 0.085391 30.557730 -0.527091 1.568002 0.102485 -0.026376 97828.500000 0 0 1
25.650254 -14.701020 1.084591 29.584318 -0.520430 1.534127 0.083737 -0.022543 732833.000000 0 0 1
26.490254 -13.715420 1.754791 29.881861 -0.477749 1.512038 0.081008 -0.023608 859482.000000 0 0 1
25.725754 -12.922120 2.873491 28.931861 -0.465488 1.471313 0.099504 -0.028506 199236.000000 0 0 1
25.260854 -13.633020 4.000691 28.982331 -0.494893 1.432315 0.104797 -0.023519 46924.100000 0 0 1
26.279554 -13.927920 4.910491 30.144898 -0.487351 1.407171 0.117075 -0.026340 -132025.000000 0 0 1
25.714454 -14.564120 6.188491 30.193446 -0.515331 1.364372 0.106835 -0.022384 320164.000000 0 0 1
25.226854 -15.888820 5.773191 30.367392 -0.562070 1.379521 0.109224 -0.030173 -291611.000000 0 0 1
24.373154 -16.300020 6.776291 30.094176 -0.589457 1.343679 0.093525 -0.025588 -592309.000000 0 0 1
23.689154 -17.645020 6.496591 30.244478 -0.640201 1.354307 0.082603 -0.023351 258595.000000 0 0 1
24.543754 -18.767220 6.793891 31.634813 -0.652807 1.354350 0.090172 -0.022978 85848.100000 0 0 1
23.968054 -19.958320 6.354591 31.830535 -0.694367 1.369808 0.052651 -0.012766 -43418.100000 0 0 1
1.476554 22.992825 -3.191109 23.260125 1.506666 1.708423 0.042047 -0.023385 86481.300000 0 1 0
2.435254 23.906325 -2.708309 24.182179 1.469280 1.683028 0.053101 -0.025364 19761.700000 0 1 0
3.253754 24.441625 -3.732309 24.938125 1.438451 1.721024 0.068498 -0.029807 822434.000000 0 1 0
4.347954 25.484025 -3.248709 26.055601 1.401809 1.695805 0.050501 -0.021571 902585.000000 0 0 1
5.312754 24.929925 -2.346009 25.597466 1.360830 1.662575 0.042407 -0.023997 30954.300000 0 0 1
6.007254 25.944725 -1.690809 26.684728 1.343265 1.634201 0.035620 -0.016607 26901.500000 0 0 1
7.376254 25.604925 -1.044709 26.666697 1.290311 1.609983 0.030078 -0.028796 781235.000000 0 0 1
8.441554 25.143225 -1.898209 26.590314 1.246882 1.642244 0.036593 -0.031510 70077.400000 0 0 1
9.319754 24.356225 -1.142409 26.103422 1.205341 1.614575 0.028500 -0.029675 288168.000000 0 0 1
10.558854 24.012625 -2.053909 26.311863 1.156523 1.648936 0.042244 -0.023118 -300120.000000 0 0 1
11.487254 25.056425 -2.167409 27.649216 1.140933 1.649266 0.040691 -0.021471 57673.100000 0 0 1
12.445454 25.016925 -3.213609 28.125845 1.109166 1.685305 0.064159 -0.020453 751979.000000 0 0 1
13.524754 23.892725 -3.179309 27.638547 1.055705 1.686083 0.058648 -0.020511 -534039.000000 0 0 1
13.059354 22.607525 -3.520009 26.344590 1.046969 1.704811 0.064694 -0.021617 -148139.000000 0 0 1
12.968154 22.360025 -4.889109 26.306789 1.045235 1.757733 0.086220 -0.027042 -176333.000000 0 0 1
12.098354 21.123125 -5.161709 24.883726 1.050652 1.779747 0.089607 -0.029625 652712.000000 0 1 0
10.729054 21.352825 -4.827309 24.379472 1.105178 1.770121 0.088690 -0.026802 -217480.000000 0 1 0
9.922554 20.253525 -4.826409 23.064184 1.115247 1.781614 0.068152 -0.017486 -251956.000000 0 1 0
8.429054 20.631825 -4.747709 22.787319 1.182944 1.780683 0.060965 -0.018252 68800.400000 0 1 0
7.936654 21.132625 -3.507709 22.844745 1.211531 1.724952 0.059764 -0.018191 -297935.000000 0 1 0
6.552854 21.334625 -3.594409 22.605882 1.272796 1.730477 0.052691 -0.019299 92861.600000 0 1 0
5.872454 21.999425 -2.329809 22.888609 1.309942 1.672762 0.045411 -0.024126 178993.000000 0 1 0
5.655654 21.165625 -1.205409 21.941357 1.309687 1.625762 0.042369 -0.025620 -128001.000000 0 1 0
4.882054 21.893725 -0.279009 22.433179 1.351397 1.583234 0.049574 -0.019089 228332.000000 0 1 0
4.310454 21.037125 0.880591 21.492233 1.368696 1.529812 0.028506 -0.018910 402199.000000 0 1 0
3.407754 21.717125 1.771791 22.054151 1.415150 1.490371 0.023013 -0.018422 619481.000000 0 1 0
3.111554 20.892225 2.912791 21.322551 1.422949 1.433762 0.029077 -0.017511 -16831.900000 0 1 0
2.254454 21.555525 3.988691 22.037080 1.466587 1.388794 0.026360 -0.009102 -819416.000000 0 1 0
0.910454 21.696925 3.728491 22.033773 1.528859 1.400761 0.026165 -0.009354 -1147710.000000 0 1 0
0.120554 22.243525 4.757991 22.747031 1.565377 1.360070 0.033849 -0.011564 1074320.000000 0 1 0
-1.368446 22.252325 4.240291 22.694023 -1.509377 1.382846 0.026014 -0.013392 602042.000000 0 1 0
-2.364446 22.595625 5.192591 23.304847 -1.466534 1.346099 0.046709 -0.019656 -280528.000000 0 1 0
-3.509946 22.819025 4.396191 23.502215 -1.418176 1.382634 0.055873 -0.022036 -1047000.000000 0 1 0
-4.785546 22.965025 5.171991 24.021726 -1.365352 1.353792 0.072648 -0.039138 -1064430.000000 0 1 0
-4.920946 24.169825 5.887391 25.358579 -1.369943 1.336493 0.102252 -0.035446 -1827520.000000 0 0 1
-6.155246 24.193325 6.416991 25.775605 -1.321663 1.319194 0.109830 -0.038499 -1645570.000000 0 0 1
-6.516746 25.601825 6.959291 27.319465 -1.321547 1.313220 0.129397 -0.048071 -254954.000000 0 0 1
-5.722246 26.132325 8.007591 27.924255 -1.355227 1.279952 0.118986 -0.048745 -90105.400000 0 0 1
-6.162546 27.395125 8.588191 29.363700 -1.349529 1.273981 0.140255 -0.042618 -84053.000000 0 0 1
-6.307546 28.610725 7.681491 30.288018 -1.353806 1.314381 0.154464 -0.043463 -94367.000000 0 0 1
-7.539746 28.556325 7.020591 30.357868 -1.312657 1.337423 0.136892 -0.047549 -538774.000000 0 0 1
-7.639546 29.581325 6.048291 31.144812 -1.318063 1.375355 0.152475 -0.046349 1215080.000000 0 0 1
-9.083546 29.599725 5.368691 31.424153 -1.273040 1.399108 0.139985 -0.048999 1393080.000000 0 0 1
-10.134446 30.141725 6.107091 32.380969 -1.246444 1.381059 0.129915 -0.043645 -473877.000000 0 0 1
-10.968746 29.201125 6.699691 31.904623 -1.211476 1.359230 0.109081 -0.046535 -278536.000000 0 0 1
-11.894546 29.742225 7.827191 32.974916 -1.190358 1.331141 0.077602 -0.045838 -78097.300000 0 0 1
-11.252346 30.188425 9.010591 33.453655 -1.214011 1.298083 0.082177 -0.033011 -392717.000000 0 0 1
-12.214246 30.711225 9.871291 34.493616 -1.192263 1.280561 0.086422 -0.026611 -285938.000000 0 0 1
-11.662746 31.193725 11.213291 35.139807 -1.213007 1.246011 0.073120 -0.032635 -107210.000000 0 0 1
-10.955346 32.409225 11.310091 36.031870 -1.244823 1.251508 0.068943 -0.029787 161140.000000 0 0 1
-10.312646 32.533325 12.552491 36.363896 -1.263829 1.218354 0.064838 -0.035140 128193.000000 0 0 1
-9.824446 -33.816720 12.842291 37.483526 1.288059 1.221101 0.069053 -0.033399 834001.000000 0 0 1
-10.906446 -32.967320 13.270991 37.174103 1.251304 1.205747 0.063931 -0.023400 681900.000000 0 0 1
-10.461746 -31.655620 13.296491 35.893217 1.251610 1.191307 0.067537 -0.016481 28216.000000 0 0 1
-11.402246 -30.681720 14.041691 35.616685 1.214984 1.165550 0.053569 -0.021520 -134457.000000 0 0 1
-11.408546 -30.778920 15.441691 36.275924 1.215835 1.131091 0.051939 -0.025373 216609.000000 0 0 1
-10.290746 -30.225320 16.123591 35.769255 1.242639 1.103172 0.070649 -0.023654 -94693.800000 0 0 1
-10.426246 -30.532420 17.651491 36.776492 1.241731 1.070180 0.071976 -0.031291 378151.000000 0 0 1
-11.384546 -29.674820 18.324191 36.687583 1.204470 1.047814 0.080923 -0.035698 791708.000000 0 0 1
-11.758046 -30.210420 19.567091 37.865448 1.199631 1.027742 0.073078 -0.039160 60419.500000 0 0 1
-12.159546 -29.141020 20.665991 37.737737 1.175495 0.991278 0.089560 -0.043425 778267.000000 0 0 1
-11.012746 -28.831320 21.498291 37.612526 1.205928 0.962375 0.081447 -0.038182 788917.000000 0 0 1
-11.078346 -27.815820 22.523391 37.466688 1.191778 0.925847 0.077855 -0.033937 -1088940.000000 0 0 1
-9.831746 -27.846720 23.337991 37.639937 1.231392 0.902012 0.102199 -0.039126 -835018.000000 0 0 1
-9.701146 -29.026920 24.136491 38.977487 1.248255 0.903020 0.089691 -0.024685 300686.000000 0 0 1
-8.394446 -29.157220 24.682591 39.113175 1.290474 0.887883 0.116273 -0.035031 342531.000000 0 0 1
-8.295046 -30.308920 25.683391 40.584171 1.303655 0.885577 0.105884 -0.038921 -172922.000000 0 0 1
-8.492946 -31.584520 25.123091 41.241747 1.308114 0.915787 0.119864 -0.028818 266932.000000 0 0 1
-8.696146 -32.553820 26.141191 42.646641 1.309760 0.910980 0.131914 -0.029501 -621581.000000 0 0 1
-8.740446 33.740025 25.724891 43.319219 -1.317316 0.934967 0.119864 -0.027950 -85925.000000 0 0 1
-7.420346 33.320625 25.403591 42.551945 -1.351677 0.931038 0.108875 -0.022960 308939.000000 0 0 1
-7.237546 32.107625 24.694691 41.147411 -1.349087 0.927106 0.087734 -0.015106 -484905.000000 0 0 1
-8.042646 31.815125 23.406791 40.308364 -1.323191 0.951216 0.085508 -0.019062 92547.000000 0 0 1
-9.266846 31.213425 23.812391 40.338348 -1.282198 0.939345 0.095319 -0.021283 267851.000000 0 0 1
-10.078546 30.762825 22.735491 39.557946 -1.254196 0.958511 0.081060 -0.022373 354583.000000 0 0 1
-10.617146 29.303525 22.900291 38.676139 -1.223192 0.937129 0.085909 -0.030448 100622.000000 0 0 1
-9.568046 28.368025 22.785591 37.622806 -1.245496 0.920236 0.074288 -0.020914 451783.000000 0 0 1
-10.184246 27.086225 22.815591 36.850151 -1.211155 0.903143 0.064811 -0.020236 87627.100000 0 0 1
-9.387346 25.872525 22.222391 35.374348 -1.222737 0.891551 0.067169 -0.019145 16494.800000 0 0 1
-8.181046 25.579725 22.895091 35.290750 -1.261252 0.864848 0.062209 -0.027334 164768.000000 0 0 1
-7.734246 24.244725 22.780191 34.154976 -1.261994 0.840668 0.062430 -0.031268 793749.000000 0 0 1
-6.320846 23.980025 23.446191 34.127974 -1.313070 0.813433 0.060356 -0.027764 1155570.000000 0 0 1
-5.317846 24.552625 22.611891 33.799534 -1.357501 0.837934 0.060129 -0.028916 21022.400000 0 0 1
-4.078146 24.729625 23.275091 34.204028 -1.407358 0.822381 0.086206 -0.021751 487770.000000 0 0 1
-2.997846 25.339125 22.326091 33.904464 -1.453035 0.851972 0.085875 -0.028323 176.095000 0 0 1
-2.497146 24.464325 21.327591 32.551576 -1.469076 0.856357 0.076531 -0.027648 210720.000000 0 0 1
-1.787546 25.185025 20.303991 32.399581 -1.499939 0.893518 0.091116 -0.028360 370792.000000 0 0 1
-1.038146 24.333825 19.249091 31.044167 -1.528160 0.901984 0.077608 -0.034723 123841.000000 0 0 1
-0.063946 23.419425 19.760491 30.642301 -1.568066 0.869935 0.074624 -0.027446 266132.000000 0 0 1
0.234154 22.296925 18.910891 29.237468 1.560295 0.867411 0.056808 -0.023409 254753.000000 0 0 1
1.527254 21.486225 19.319991 28.935315 1.499835 0.839687 0.056331 -0.020360 390722.000000 0 0 1
2.658954 22.244525 18.907991 29.315543 1.451828 0.869797 0.068552 -0.033404 -6232.240000 0 0 1
3.751654 21.357225 19.194091 28.958921 1.396908 0.846239 0.080629 -0.023936 466631.000000 0 0 1
5.204554 21.862625 19.108791 29.499283 1.337089 0.866141 0.082594 -0.033500 738965.000000 0 0 1
6.228354 20.852625 19.033391 28.911838 1.280547 0.852205 0.091921 -0.030625 158709.000000 0 0 1
7.456654 21.440825 18.738491 29.435382 1.236102 0.880718 0.102693 -0.032664 107552.000000 0 0 1
8.665254 20.500825 18.396491 28.875619 1.170894 0.880074 0.104751 -0.017117 359474.000000 0 0 1
9.036054 19.706925 19.463091 29.134603 1.140878 0.839224 0.112914 -0.024987 272141.000000 0 0 1
10.152854 18.870625 19.175791 28.755728 1.077194 0.840821 0.095077 -0.017473 344052.000000 0 0 1
10.543554 18.054625 20.429991 29.232184 1.042239 0.796956 0.102725 -0.021280 81632.300000 0 0 1
9.664954 16.973325 20.698391 28.459243 1.053166 0.756417 0.119382 -0.024719 200482.000000 0 0 1
10.197854 16.288725 21.769191 29.038190 1.011429 0.723226 0.118728 -0.037330 303507.000000 0 0 1
9.223754 15.180725 22.331291 28.534517 1.024810 0.671955 0.096902 -0.033420 725126.000000 0 0 1
8.171254 15.746025 23.135891 29.154351 1.092111 0.654150 0.102364 -0.024132 398092.000000 0 0 1
7.072954 14.894925 23.393191 28.620393 1.127465 0.613981 0.085146 -0.022260 68489.300000 0 0 1
7.239854 13.675425 24.284391 28.795215 1.083901 0.567313 0.090538 -0.023264 -790539.000000 0 0 1
7.489654 14.100725 25.636691 30.202075 1.082537 0.557012 0.095292 -0.031610 -63953.100000 0 0 1
7.846154 13.052025 26.450691 30.521412 1.029536 0.522394 0.097706 -0.036873 -885420.000000 0 0 1
8.758454 13.537925 27.582991 31.950076 0.996563 0.528994 0.066709 -0.027217 -294277.000000 0 0 1
10.102054 13.779125 27.251591 32.164655 0.938172 0.560005 0.098175 -0.027263 -184111.000000 0 0 1
10.387154 14.866225 26.456091 32.075261 0.960938 0.600925 0.091945 -0.025471 -226611.000000 0 0 1
11.837454 14.726725 25.869091 32.034538 0.893738 0.630831 0.113640 -0.029039 720730.000000 0 0 1
11.921454 13.917325 24.692991 30.749908 0.862488 0.638440 0.117021 -0.033736 -228478.000000 0 0 1
13.243654 13.622025 24.326291 30.866202 0.799481 0.663047 0.119332 -0.034447 -644419.000000 0 0 1
13.327854 12.575525 23.141791 29.518097 0.756363 0.669734 0.105190 -0.031140 -124175.000000 0 0 1
13.036254 11.243625 23.496491 29.128133 0.711700 0.632318 0.108542 -0.028404 1346190.000000 0 0 1
11.614354 11.083725 23.733891 28.653792 0.762025 0.594732 0.118245 -0.031617 674214.000000 0 0 1
11.194554 9.749425 24.378991 28.543030 0.716508 0.546952 0.105413 -0.030344 -166511.000000 0 0 1
11.035454 8.678225 23.473891 27.351717 0.666390 0.538997 0.113693 -0.025828 224578.000000 0 0 1
10.703354 7.547325 24.209791 27.525223 0.614165 0.495882 0.117993 -0.028051 -18854.900000 0 0 1
10.793254 6.177225 23.523991 26.608845 0.519820 0.486303 0.128019 -0.034331 90147.800000 0 0 1
12.145954 5.804725 23.343991 26.947374 0.445823 0.523088 0.133858 -0.028350 324593.000000 0 0 1
12.267454 4.582925 22.570791 26.094717 0.357529 0.525733 0.148954 -0.027734 47727.000000 0 0 1
12.166054 3.233025 23.284991 26.469910 0.259738 0.495612 0.157553 -0.032075 521298.000000 0 0 1
13.442254 2.894425 23.842791 27.523637 0.212085 0.523117 0.154700 -0.035877 811102.000000 0 0 1
13.317254 1.736425 24.643791 28.065653 0.129658 0.498969 0.157872 -0.028210 -668110.000000 0 0 1
14.608354 1.467725 25.395591 29.334183 0.100136 0.524182 0.146704 -0.020812 -707359.000000 0 0 1
15.543754 0.846125 24.590291 29.103379 0.054381 0.564364 0.162623 -0.029259 -407588.000000 0 0 1
16.823254 1.432725 24.558991 29.802997 0.084958 0.602283 0.151722 -0.032420 27189.400000 0 0 1
17.836654 0.593325 23.717291 29.681782 0.033252 0.645079 0.140829 -0.032054 -137533.000000 0 0 1
18.053454 -0.664875 24.292391 30.273578 -0.036811 0.639442 0.143774 -0.033529 553854.000000 0 0 1
18.980354 -1.370875 23.432891 30.186645 -0.072101 0.682074 0.129606 -0.020565 546914.000000 0 0 1
19.243254 -2.853175 23.763391 30.710621 -0.147196 0.686003 0.119234 -0.015531 -534498.000000 0 0 1
18.213854 -3.657775 23.334791 29.826771 -0.198188 0.672376 0.107836 -0.010736 -244233.000000 0 0 1
18.662054 -5.015175 23.313391 30.280992 -0.262534 0.692109 0.098753 -0.007218 79492.400000 0 0 1
17.545054 -5.972375 22.876991 29.442400 -0.328099 0.680897 0.106121 -0.011832 -105020.000000 0 0 1
17.547554 -6.130275 21.468191 28.396834 -0.336097 0.713606 0.101997 -0.008687 738956.000000 0 0 1
16.673954 -7.184975 20.933491 27.710209 -0.406866 0.714466 0.111166 -0.021883 484202.000000 0 0 1
17.006654 -8.642275 21.286891 28.584033 -0.470162 0.730692 0.114588 -0.021256 -43944.500000 0 0 1
16.944854 -9.061875 22.595491 29.661455 -0.491088 0.704741 0.105420 -0.012656 185586.000000 0 0 1
17.866754 -10.110775 22.750591 30.643728 -0.514968 0.734117 0.088296 -0.016223 -131698.000000 0 0 1
17.262054 -11.122075 23.767491 31.409755 -0.572363 0.712559 0.103338 -0.030855 188149.000000 0 0 1
16.171754 -11.823075 23.196491 30.649436 -0.631291 0.712343 0.120148 -0.024610 -119615.000000 0 0 1
15.578354 -12.589275 24.206691 31.418766 -0.679676 0.691244 0.135445 -0.019532 -308479.000000 0 0 1
14.471454 -13.474375 23.627591 30.809817 -0.749734 0.696823 0.164616 -0.024509 -604799.000000 0 0 1
14.893354 -14.527875 22.756091 30.833599 -0.772976 0.740652 0.151815 -0.034846 -728926.000000 0 0 1
13.884154 -15.054475 21.978391 30.040916 -0.825818 0.750108 0.171962 -0.028112 -863766.000000 0 0 1
14.239054 -16.015675 20.779491 29.850289 -0.844053 0.800813 0.145986 -0.034780 24974.900000 0 0 1
14.826254 -17.242375 21.292891 31.152922 -0.860598 0.818255 0.158108 -0.035022 271128.000000 0 0 1
15.534554 -17.911375 20.292891 31.208030 -0.856343 0.862888 0.132946 -0.022010 -95163.900000 0 0 1
-24.814546 -32.049820 25.597187 47.939218 0.911956 1.007530 0.077481 -0.029218 -487961.000000 0 0 1
-24.937646 -33.436220 25.904507 49.101023 0.929971 1.015052 0.080668 -0.023635 932298.000000 0 0 1
-26.247846 -33.723220 26.426127 50.244852 0.909408 1.016968 0.083954 -0.034590 771782.000000 0 0 1
-26.342486 -33.543620 27.954697 50.995746 0.905071 0.990613 0.065972 -0.031784 79289.600000 0 0 1
-27.676086 -33.457720 28.437157 51.904303 0.879691 0.990972 0.075973 -0.035680 460183.000000 0 0 1
-27.634476 -33.317720 29.814657 52.560903 0.878370 0.967645 0.055954 -0.031121 -278300.000000 0 0 1
-28.853116 -32.686620 30.487717 53.201676 0.847611 0.960562 0.036485 -0.033903 -585615.000000 0 0 1
-29.025746 -31.370020 30.043177 52.241406 0.824194 0.958090 0.020057 -0.023892 305285.000000 0 0 1
-29.814246 -30.621720 30.958387 52.773106 0.798758 0.943903 0.030610 -0.011488 -288979.000000 0 0 1
-29.830606 -29.107020 30.676137 51.750450 0.773122 0.936302 0.020527 -0.015240 -471394.000000 0 0 1
-30.500406 -28.961120 29.489947 51.368066 0.759517 0.959303 0.019254 -0.014037 -54819.100000 0 0 1
-31.275286 -27.775220 29.465407 51.164602 0.726195 0.957099 0.028225 -0.004811 -193867.000000 0 0 1
-31.863146 -27.372120 28.119927 50.549217 0.709726 0.980884 0.015743 -0.014894 -529573.000000 0 0 1
-30.999436 -27.058920 27.070637 49.254132 0.717630 0.988897 0.038936 -0.009254 -406549.000000 0 0 1
-30.313506 -25.835520 27.132967 48.193159 0.705815 0.972780 0.025065 -0.005379 -286706.000000 0 0 1
-29.248876 -25.800920 26.018747 46.884533 0.722846 0.982489 0.041917 0.006383 -200451.000000 0 0 1
-29.761086 -26.045320 24.736387 46.647291 0.718913 1.011859 0.033060 -0.003711 -159056.000000 0 0 1
-28.741996 -25.674920 23.875137 45.335703 0.729095 1.016165 0.047202 0.012507 -263770.000000 0 0 1
-29.021646 -25.980020 22.338757 44.902532 0.730154 1.050088 0.028220 0.016988 21373.600000 0 0 1
-29.998746 -25.148020 21.755757 44.784602 0.697664 1.063534 0.018418 0.015230 218887.000000 0 0 1
-30.392136 -25.592620 20.432057 44.678105 0.699878 1.095820 0.013213 0.018973 40943.200000 0 0 1
-31.170206 -24.460520 19.711757 44.254402 0.665367 1.109154 0.024591 0.004613 416054.000000 0 0 1
-32.496506 -24.226820 20.192757 45.284756 0.640628 1.108610 0.045588 -0.000388 374435.000000 0 0 1
-32.987336 -23.060920 19.578357 44.758043 0.610111 1.118061 0.075412 -0.008530 -62103.400000 0 0 1
-34.514751 -22.854520 19.762057 45.870862 0.584881 1.125396 0.098855 -0.008645 116339.000000 0 0 1
-35.262401 -23.801920 19.018157 46.601058 0.593746 1.150418 0.094872 -0.018643 -431222.000000 0 0 1
-36.450306 -23.228020 18.542257 47.031702 0.567361 1.165545 0.097855 -0.022593 -446236.000000 0 0 1
-37.262996 -24.351120 17.855557 47.961743 0.578827 1.189324 0.111081 -0.031633 -260690.000000 0 0 1
37.028003 -25.225320 18.820857 48.596444 -0.598031 1.173107 0.105985 -0.036753 8522.830000 0 0 1
36.599913 -26.433920 18.308657 48.718710 -0.625497 1.185533 0.112002 -0.032284 -306708.000000 0 0 1
36.110443 -27.466820 19.376457 49.333937 -0.650272 1.167164 0.094524 -0.023022 1201860.000000 0 0 1
34.778803 -27.387120 19.956357 48.557962 -0.667051 1.147267 0.084272 -0.014166 1123410.000000 0 0 1
34.456713 -26.147920 20.624057 47.920043 -0.649149 1.125877 0.074116 -0.014013 -341194.000000 0 0 1
33.150723 -26.332220 21.419957 47.446505 -0.671267 1.102401 0.062918 -0.006332 384303.000000 0 0 1
31.984903 -26.435520 20.572157 46.315056 -0.690692 1.110539 0.072292 -0.006732 1780920.000000 0 0 1
30.784183 -26.141920 21.392257 45.702238 -0.704029 1.083681 0.070533 -0.005311 1346980.000000 0 0 1
29.987463 -24.891120 20.941157 44.241924 -0.692798 1.077726 0.068340 0.004675 -517357.000000 0 0 1
30.739433 -23.732220 20.783257 44.046280 -0.657461 1.079408 0.072347 0.004820 -56716.000000 0 0 1
31.354213 -23.233320 21.993257 44.794834 -0.637713 1.057585 0.088704 -0.003569 -367737.000000 0 0 1
32.267273 -22.072420 21.584457 44.657109 -0.599941 1.066333 0.088291 -0.002598 -198215.000000 0 0 1
31.701073 -20.784220 21.383357 43.522291 -0.580324 1.057192 0.089428 -0.014297 -60581.200000 0 0 1
32.707963 -19.941920 20.852857 43.615739 -0.547519 1.072302 0.091670 -0.008807 -276337.000000 0 0 1
32.303853 -18.436620 20.728557 42.580758 -0.518616 1.062367 0.077721 0.005356 31050.000000 0 0 1
32.067683 -17.780220 21.944257 42.731989 -0.506260 1.031500 0.055153 -0.007387 1086660.000000 0 0 1
30.793973 -18.127120 22.543457 42.250073 -0.532038 1.007978 0.067923 -0.005692 552160.000000 0 0 1
30.597753 -17.851620 24.041157 42.812148 -0.528146 0.974539 0.059891 -0.002548 -120323.000000 0 0 1
30.566753 -16.473320 24.374777 42.424361 -0.494304 0.958746 0.068615 -0.008235 -24133.700000 0 0 1
30.547633 -16.327120 25.780367 43.178236 -0.490850 0.930954 0.065559 -0.011587 -123578.000000 0 0 1
30.224233 -14.874220 26.292447 42.732183 -0.457331 0.908050 0.069107 -0.012517 120670.000000 0 0 1
28.880363 -14.588020 25.934097 41.466409 -0.467734 0.895121 0.078098 -0.010965 114433.000000 0 0 1
28.430463 -13.307820 26.255217 40.923413 -0.437790 0.874254 0.068912 -0.021262 -45546.200000 0 0 1
28.843963 -12.145220 25.291237 40.238380 -0.398534 0.891128 0.087456 -0.027314 -133551.000000 0 0 1
28.312263 -12.219620 23.960157 39.051152 -0.407449 0.910237 0.091979 -0.016660 -143914.000000 0 0 1
28.448163 -11.083320 23.131507 38.304107 -0.371506 0.922422 0.102538 -0.007123 -98703.700000 0 0 1
29.608463 -11.166320 22.095357 38.594722 -0.360639 0.961248 0.113486 -0.018502 174775.000000 0 0 1
29.479063 -12.291820 21.204057 38.336876 -0.395048 0.984718 0.097744 -0.021112 84537.300000 0 0 1
30.101203 -13.446320 21.747757 39.494947 -0.420109 0.987658 0.084860 -0.020320 -293718.000000 0 0 1
29.943443 -14.727120 20.923957 39.386671 -0.457091 1.010727 0.094774 -0.014314 -114358.000000 0 0 1
30.516643 -14.650220 19.667257 39.149654 -0.447579 1.044469 0.091385 -0.013344 -86673.400000 0 0 1
29.856343 -15.588220 18.814357 38.579448 -0.481177 1.061368 0.098668 -0.022886 -281550.000000 0 0 1
30.298793 -15.717320 17.383457 38.304511 -0.478530 1.099746 0.118257 -0.024799 110518.000000 0 0 1
29.603963 -16.774320 16.645757 37.879462 -0.515517 1.115821 0.096960 -0.024822 2892150.000000 0 0 1
28.126063 -16.723820 16.505157 36.649444 -0.536441 1.103637 0.100374 -0.027234 2358580.000000 0 0 1
27.548863 -15.614020 15.517057 35.263530 -0.515631 1.115163 0.114141 -0.026327 -239984.000000 0 0 1
27.594063 -15.992120 14.137157 34.886092 -0.525246 1.153558 0.118702 -0.031823 187237.000000 0 0 1
26.586163 -16.923720 13.767057 34.391397 -0.566870 1.158946 0.109545 -0.038059 -240413.000000 0 0 1
26.600563 -17.385120 12.285957 34.070179 -0.578875 1.201877 0.109657 -0.029679 -179591.000000 0 0 1
25.962963 -16.426020 11.448557 32.786568 -0.564097 1.214096 0.132472 -0.033232 -157787.000000 0 0 1
25.972963 -16.735420 10.028357 32.484412 -0.572386 1.256957 0.106454 -0.027836 299179.000000 0 0 1
27.362663 -16.822420 9.305357 33.440975 -0.551227 1.288812 0.104509 -0.029197 297484.000000 0 0 1
28.144863 -17.867120 9.821557 34.753852 -0.565635 1.284289 0.104843 -0.038300 -1012640.000000 0 0 1
29.379763 -17.846020 9.165657 35.576118 -0.545862 1.310222 0.110595 -0.030079 -610137.000000 0 0 1
30.320143 -18.929920 9.690257 37.034497 -0.558121 1.306060 0.116866 -0.045213 -363557.000000 0 0 1
30.703803 -18.640120 11.044857 37.578803 -0.545620 1.272479 0.119456 -0.047392 137787.000000 0 0 1
30.711263 -19.710620 11.934457 38.394289 -0.570592 1.254720 0.111409 -0.042601 36104.700000 0 0 1
30.989003 -19.183820 13.383657 38.826016 -0.554311 1.218868 0.112108 -0.033097 133872.000000 0 0 1
30.980703 -20.200720 14.337857 39.666701 -0.577809 1.200965 0.111980 -0.033025 39349.900000 0 0 1
30.813963 -19.589020 15.611757 39.710917 -0.566270 1.166758 0.114790 -0.032096 33548.000000 0 0 1
30.526643 -20.517120 16.791157 40.432303 -0.591758 1.142534 0.105227 -0.018097 -346084.000000 0 0 1
29.326263 -21.218120 16.768857 39.892767 -0.626337 1.136967 0.057020 -0.004201 -522643.000000 0 0 1
29.080363 -21.930520 17.971457 40.615126 -0.646142 1.112432 0.072288 -0.010447 -555282.000000 0 0 1
27.850063 -22.817520 18.018557 40.260820 -0.686398 1.106777 0.049508 0.001856 104715.000000 0 0 1
26.708663 -22.047120 18.468957 39.249593 -0.690078 1.080881 0.049764 0.004810 -90656.500000 0 0 1
25.568663 -22.837020 18.306457 38.864024 -0.729026 1.080328 0.045054 -0.004418 437646.000000 0 0 1
24.317463 -22.347820 19.152457 38.178275 -0.743215 1.045281 0.024322 0.009015 671975.000000 0 0 1
23.664663 -21.141320 18.704857 36.835355 -0.729140 1.038171 0.026572 0.005970 239025.000000 0 0 1
22.444163 -20.829720 19.340857 36.217212 -0.748108 1.007443 0.034987 0.008867 202383.000000 0 0 1
22.436463 -20.479720 20.839257 36.838681 -0.739835 0.969527 0.027316 0.013508 -596850.000000 0 0 1
22.900163 -21.539820 21.657757 38.176429 -0.754797 0.967564 0.043388 0.012824 -227200.000000 0 0 1
23.298463 -21.085620 22.903947 38.884605 -0.735583 0.940946 0.043616 0.008152 68711.800000 0 0 1
23.556563 -22.220320 23.855987 40.221417 -0.756216 0.935872 0.057901 0.001566 38247.200000 0 0 1
22.362063 -22.824620 24.326427 40.159684 -0.795634 0.920098 0.083146 -0.009374 290598.000000 0 0 1
22.698963 -23.675720 25.398827 41.483527 -0.806457 0.911877 0.086389 -0.001218 361033.000000 0 0 1
21.447563 -24.289820 26.124167 41.622895 -0.847461 0.892279 0.114709 -0.011834 353602.000000 0 0 1
20.841663 -25.224520 25.270967 41.343356 -0.880255 0.913162 0.113374 -0.014166 177856.000000 0 0 1
19.677363 -25.790120 25.849147 41.478998 -0.919039 0.897986 0.122593 -0.020681 24044.800000 0 0 1
18.760363 -26.639320 24.986647 41.060165 -0.957233 0.916580 0.127065 -0.029263 -302473.000000 0 0 1
18.064063 -25.960020 23.971897 39.684819 -0.962867 0.922214 0.120288 -0.031780 520726.000000 0 0 1
17.340463 -26.806720 23.047827 39.376315 -0.996625 0.945519 0.107216 -0.037622 246306.000000 0 0 1
16.470763 -26.101820 21.974257 37.887452 -1.007880 0.952083 0.096140 -0.032276 169335.000000 0 0 1
15.235363 -25.651020 22.490457 37.361903 -1.034839 0.924840 0.087692 -0.035301 214564.000000 0 0 1
14.495063 -24.829820 21.572557 35.944430 -1.042391 0.927090 0.070167 -0.038096 491826.000000 0 0 1
13.041063 -24.537720 22.019957 35.454866 -1.082291 0.900689 0.083696 -0.029892 10664.300000 0 0 1
12.181363 -25.630420 22.069357 35.949417 -1.127128 0.909804 0.066497 -0.034560 342782.000000 0 0 1
10.843863 -25.138920 22.218257 35.259121 -1.163553 0.889060 0.067878 -0.030237 996563.000000 0 0 1
9.641563 -26.113120 22.117757 35.553480 -1.217100 0.899377 0.061970 -0.033282 268505.000000 0 0 1
9.408163 -26.719020 20.898057 35.201539 -1.232239 0.935186 0.082578 -0.037441 1201290.000000 0 0 1
8.027463 -27.140320 20.800057 35.123774 -1.283219 0.937019 0.083271 -0.034480 958439.000000 0 0 1
7.849963 -28.059320 19.558357 35.092402 -1.298007 0.979619 0.118608 -0.038990 -129117.000000 0 0 1
8.400163 -29.340120 19.649457 36.297473 -1.291953 0.998760 0.115899 -0.040814 132190.000000 0 0 1
8.189963 -30.053020 18.438957 36.197440 -1.304740 1.036310 0.114354 -0.042362 -20307.600000 0 0 1
8.907563 -31.428320 18.446457 37.514740 -1.294615 1.056741 0.111576 -0.031596 -9803.990000 0 0 1
8.379763 -32.339320 19.422957 38.643283 -1.317253 1.044167 0.119616 -0.028614 410654.000000 0 0 1
9.256163 -33.420520 19.768157 39.917261 -1.300608 1.052699 0.116379 -0.031810 75588.900000 0 0 1
8.742863 33.335325 20.821057 40.264103 1.314303 1.027323 0.129942 -0.036592 -408200.000000 0 0 1
7.654463 32.535325 20.478657 39.198388 1.339732 1.021091 0.121072 -0.037999 -331454.000000 0 0 1
7.634663 31.319825 21.211957 38.589722 1.331695 0.988816 0.122214 -0.054231 -58705.700000 0 0 1
6.706363 30.190425 20.702757 37.216142 1.352210 0.980889 0.120646 -0.048976 436781.000000 0 0 1
5.337663 30.463425 21.006157 37.386757 1.397342 0.974163 0.122638 -0.047085 132774.000000 0 0 1
4.572963 29.366625 20.536557 36.125626 1.416317 0.966144 0.121705 -0.043175 489642.000000 0 0 1
3.159263 29.230525 21.191557 36.242056 1.463133 0.946258 0.118106 -0.033907 580084.000000 0 0 1
3.081363 28.842925 22.530657 36.729275 1.464367 0.910406 0.109176 -0.038319 -39854.200000 0 0 1
1.728663 28.592825 22.859307 36.648136 1.510412 0.897264 0.098914 -0.024979 222249.000000 0 0 1
1.463263 27.904325 24.255637 37.001736 1.518406 0.855916 0.102975 -0.025061 -48620.200000 0 0 1
1.600263 28.869225 25.320627 38.433412 1.515422 0.851550 0.109735 -0.032693 312117.000000 0 0 1
1.184163 28.250325 26.527907 38.771291 1.528904 0.817269 0.101797 -0.031837 235540.000000 0 0 1
2.391863 27.742525 27.361857 39.038954 1.484793 0.794157 0.084890 -0.032705 390730.000000 0 0 1
3.024163 26.529425 26.879687 37.887644 1.457293 0.782068 0.087999 -0.032182 220513.000000 0 0 1
4.001263 26.012725 27.731167 38.232050 1.418173 0.759271 0.057349 -0.024160 -386493.000000 0 0 1
4.320563 24.651025 27.110747 36.896246 1.397290 0.745449 0.046380 -0.010635 81622.000000 0 0 1
3.240763 23.741925 26.986757 36.089703 1.435135 0.726101 0.056445 -0.007282 65534.500000 0 0 1
3.760163 22.487025 26.722117 35.126581 1.405114 0.706347 0.055690 -0.007306 -156695.000000 0 0 1
2.630963 21.494825 26.420097 34.160958 1.449002 0.686609 0.052553 -0.002012 -389979.000000 0 0 1
2.947663 20.158125 26.329777 33.291079 1.425598 0.658525 0.059173 0.005291 -81477.900000 0 0 1
3.552763 19.697125 25.129737 32.126353 1.392345 0.672582 0.063352 0.000135 -38892.900000 0 0 1
4.207263 18.303225 25.262037 31.478241 1.344857 0.639283 0.062986 -0.007280 -185028.000000 0 0 1
5.223563 18.267025 26.231727 32.389402 1.292273 0.626838 0.066044 -0.012991 619552.000000 0 0 1
6.466463 17.863625 25.607877 31.885540 1.223480 0.638285 0.096750 -0.016497 -156023.000000 0 0 1
7.609663 17.642525 26.584677 32.801078 1.163581 0.625822 0.072561 -0.026259 -380561.000000 0 0 1
8.228863 18.704025 27.277027 34.082121 1.156330 0.642947 0.072739 -0.023237 342833.000000 0 0 1
8.911363 19.622525 26.403027 34.081898 1.144505 0.684566 0.067544 -0.033904 -378254.000000 0 0 1
9.499863 20.851525 27.126817 35.509122 1.143299 0.701400 0.051149 -0.026376 71451.400000 0 0 1
10.627563 20.554325 27.928597 36.268884 1.093604 0.691888 0.063006 -0.047169 24885.500000 0 0 1
10.859963 21.693025 28.744297 37.613306 1.106653 0.700988 0.071772 -0.049475 726047.000000 0 0 1
12.039263 21.536825 29.782467 38.675238 1.061063 0.691852 0.080923 -0.051090 817400.000000 0 0 1
13.365963 21.490525 29.292637 38.711113 1.014396 0.712548 0.088052 -0.053354 41145.700000 0 0 1
14.274563 21.456825 30.377037 39.836201 0.983762 0.703553 0.097094 -0.049603 -387164.000000 0 0 1
15.729863 21.155025 30.061277 39.983047 0.931435 0.719932 0.082183 -0.052626 -339719.000000 0 0 1
16.288863 22.272525 29.380207 40.306191 0.939343 0.754045 0.077904 -0.051755 -413876.000000 0 0 1
17.564163 22.024325 28.847867 40.320840 0.897588 0.773517 0.121789 -0.033948 -114301.000000 0 0 1
-8.817146 16.990125 4.582091 19.682530 -1.092098 1.335841 0.031305 -0.011399 -179542.000000 0 1 0
-8.674946 18.304925 5.052391 20.877060 -1.128235 1.326363 0.041408 -0.013285 554542.000000 0 1 0
-7.312646 18.636225 5.329991 20.716961 -1.196869 1.310593 0.035521 -0.005174 490041.000000 0 1 0
-7.098546 20.094425 5.808791 22.088851 -1.231221 1.304693 0.042640 -0.006671 -142970.000000 0 1 0
-7.270246 21.129325 4.837691 22.862811 -1.239402 1.357588 0.051910 -0.017944 350310.000000 0 1 0
-8.598846 21.420525 4.381491 23.494180 -1.189058 1.383205 0.055043 -0.019350 614616.000000 0 1 0
-8.637046 22.536225 3.270291 24.355180 -1.204811 1.436115 0.100467 -0.034634 411146.000000 0 1 0
-7.930246 22.280825 2.021191 23.736242 -1.228855 1.485541 0.062121 -0.030075 121825.000000 0 1 0
-8.442146 21.187925 1.275691 22.843498 -1.191634 1.514922 0.078075 -0.029201 -1136630.000000 0 1 0
-7.992646 21.099425 -0.198309 22.563410 -1.208691 1.579585 0.050276 -0.014004 -264559.000000 0 1 0
-6.680946 20.801225 -0.547209 21.854643 -1.260023 1.595838 0.031025 -0.005294 -737707.000000 0 1 0
-5.689546 21.634625 -0.003809 22.370247 -1.313636 1.570967 0.032288 -0.014107 -903733.000000 0 1 0
-4.242646 21.442325 -0.483509 21.863374 -1.375456 1.592913 0.020992 -0.007473 -34658.000000 0 1 0
-4.148446 21.779625 -1.833709 22.246891 -1.382577 1.653315 0.015598 -0.006582 962353.000000 0 1 0
-2.790646 21.744725 -2.343409 22.047955 -1.443157 1.677284 0.013272 0.001090 1022660.000000 0 1 0
-2.690146 22.121425 -3.839509 22.612743 -1.449782 1.741417 0.021877 0.001829 -582859.000000 0 1 0
-1.452646 22.458025 -4.376109 22.926478 -1.506204 1.762851 0.035081 -0.000434 -759060.000000 0 1 0
-1.534846 22.851825 -5.766609 23.618117 -1.503732 1.817450 0.044700 -0.007790 -663238.000000 0 1 0
-0.266646 23.325125 -6.447009 24.201167 -1.559365 1.840445 0.051203 -0.019749 -565768.000000 0 1 0
0.726854 22.319825 -6.486709 23.254684 1.538242 1.853489 0.062781 -0.010011 -654393.000000 0 1 0
1.895554 22.798625 -7.082709 23.948595 1.487844 1.871033 0.066787 -0.016613 -856093.000000 0 1 0
3.011254 21.789125 -6.965509 23.072753 1.433466 1.877474 0.059559 -0.014234 -597129.000000 0 1 0
2.901854 20.671925 -7.852109 22.302575 1.431331 1.930580 0.064419 -0.025191 246581.000000 0 1 0
3.904754 19.676825 -7.597109 21.450889 1.374897 1.932815 0.058655 -0.028229 685678.000000 0 1 0
3.772454 18.557325 -8.679309 20.831134 1.370243 2.000554 0.051629 -0.028201 98265.700000 0 1 0
4.268254 18.923225 -9.961309 21.806745 1.348952 2.045190 0.060746 -0.030379 89763.500000 0 1 0
3.230454 18.759425 -10.895209 21.933022 1.400265 2.090645 0.059060 -0.029402 -448476.000000 0 1 0
3.687154 19.178225 -12.279309 23.069045 1.380857 2.132094 0.065236 -0.031306 43963.000000 0 1 0
3.966954 20.567325 -12.445509 24.364775 1.380260 2.106911 0.112052 -0.039371 63918.700000 0 1 0
4.435954 20.826225 -13.781609 25.364189 1.360934 2.145218 0.123918 -0.029202 109912.000000 0 0 1
4.663454 22.330425 -14.126109 26.831747 1.364917 2.125239 0.102617 -0.029279 246973.000000 0 0 1
3.533554 23.169725 -14.365509 27.489817 1.419455 2.120665 0.133475 -0.033938 -139761.000000 0 0 1
3.901454 24.420925 -14.895509 28.870038 1.412376 2.112913 0.108863 -0.033344 3438.270000 0 0 1
2.774154 25.207725 -15.605509 29.776790 1.461186 2.122434 0.119338 -0.033229 880291.000000 0 0 1
1.665454 25.598425 -14.767909 29.599734 1.505827 2.093149 0.135695 -0.038095 415416.000000 0 0 1
1.602354 26.970025 -14.599009 30.709622 1.511454 2.066202 0.103675 -0.032919 345240.000000 0 0 1
0.538554 27.384525 -13.483809 30.528927 1.551132 2.028259 0.119235 -0.029017 1048540.000000 0 0 1
-0.827946 27.081025 -13.675509 30.349414 -1.540233 2.038236 0.103082 -0.038175 -100818.000000 0 0 1
-1.232546 25.737325 -13.556409 29.115379 -1.522943 2.055120 0.096647 -0.039243 -423299.000000 0 0 1
-1.123546 24.981425 -12.199709 27.823854 -1.525851 2.024683 0.124306 -0.043103 -695002.000000 0 0 1
-2.033146 25.392525 -11.254709 27.849282 -1.490898 1.986823 0.116298 -0.038418 -694523.000000 0 0 1
-2.107146 24.435825 -10.221509 26.571204 -1.484777 1.965661 0.116925 -0.025416 391602.000000 0 0 1
-3.360846 24.491725 -9.290209 26.409238 -1.434424 1.930267 0.087196 -0.024576 161352.000000 0 0 1
-3.138546 24.856325 -7.932709 26.279559 -1.445194 1.877438 0.103128 -0.026892 -241353.000000 0 0 1
-2.763746 26.222925 -7.719309 27.474858 -1.465790 1.855590 0.105001 -0.026045 -195703.000000 0 0 1
-2.603546 26.530925 -6.231009 27.376886 -1.472977 1.800410 0.088544 -0.024330 -123231.000000 0 0 1
-1.373846 26.096525 -5.704209 26.747973 -1.518200 1.785704 0.074792 -0.021089 -197835.000000 0 0 1
-1.139646 26.718525 -4.460909 27.112324 -1.528168 1.736082 0.074765 -0.035385 -736404.000000 0 0 1
-1.901646 26.129025 -3.272809 26.401771 -1.498145 1.695078 0.062531 -0.022576 3682.930000 0 0 1
-3.247546 26.584525 -3.220109 26.975037 -1.449239 1.690455 0.055236 -0.023627 -62307.300000 0 0 1
-3.974946 25.968125 -2.211809 26.363532 -1.418905 1.654792 0.046793 -0.018437 250651.000000 0 0 1
-4.996046 24.868125 -2.702409 25.508570 -1.372534 1.676937 0.045985 -0.024699 -128970.000000 0 0 1
-6.189946 25.364625 -3.267909 26.312713 -1.331436 1.695313 0.050273 -0.025831 -534638.000000 0 0 1
-7.012746 24.305125 -3.648909 25.558409 -1.289896 1.714053 0.018860 -0.026329 111647.000000 0 0 1
-8.366446 24.909625 -4.121609 26.598393 -1.246763 1.726380 0.049071 -0.022194 107669.000000 0 0 1
-9.204746 25.360825 -3.075509 27.154328 -1.222630 1.684300 0.089108 -0.025816 -852267.000000 0 0 1
-10.445846 25.784525 -3.518109 28.041657 -1.185883 1.696588 0.115357 -0.028446 -321304.000000 0 0 1
-11.455646 26.200125 -2.413509 28.696749 -1.158607 1.655000 0.129783 -0.028963 52253.500000 0 0 1
-12.000946 25.104425 -1.628809 27.873067 -1.124870 1.629266 0.136641 -0.027275 357078.000000 0 0 1
-11.047946 24.438325 -0.799909 26.831487 -1.146219 1.600613 0.143342 -0.039329 -38738.900000 0 0 1
-11.488246 23.090125 -0.208509 25.791028 -1.109119 1.578881 0.112510 -0.034283 169891.000000 0 0 1
-12.443646 23.172725 0.847191 26.316102 -1.077992 1.538598 0.136694 -0.043099 286613.000000 0 0 1
-13.137746 21.979425 1.021391 25.626914 -1.032048 1.530930 0.141707 -0.041555 426562.000000 0 0 1
-14.028746 21.912925 2.325191 26.122567 -1.001338 1.481668 0.141126 -0.051108 382955.000000 0 0 1
-13.180146 21.792325 3.415191 25.696015 -1.026850 1.437494 0.136534 -0.043376 142532.000000 0 0 1
-13.304046 22.931125 4.249791 26.849485 -1.045082 1.411846 0.128214 -0.051590 10208.200000 0 0 1
-12.941246 22.576325 5.761691 26.652643 -1.050299 1.352899 0.110208 -0.051753 1038280.000000 0 0 1
-11.546846 22.323225 6.055391 25.851959 -1.093439 1.334366 0.105539 -0.042367 1279050.000000 0 0 1
-11.560446 21.887825 7.418491 25.840952 -1.084869 1.279616 0.080274 -0.042471 -279326.000000 0 0 1
-10.171446 21.759025 8.042091 25.329602 -1.133519 1.247707 0.071984 -0.034432 -530742.000000 0 0 1
-9.562146 22.986525 8.456991 26.293263 -1.176583 1.243334 0.083572 -0.043062 580996.000000 0 0 1
-8.409546 22.737025 9.265791 25.952797 -1.216538 1.205716 0.100084 -0.044048 207690.000000 0 0 1
-8.638346 22.461925 10.781191 26.370309 -1.203656 1.149616 0.081953 -0.041272 -434457.000000 0 0 1
-9.533246 21.406525 11.002491 25.887775 -1.151822 1.131826 0.085625 -0.037410 -162051.000000 0 0 1
-9.360946 20.789725 12.237991 25.876793 -1.147720 1.078180 0.074353 -0.027593 -291636.000000 0 0 1
-10.295946 19.614025 12.584891 25.477362 -1.087406 1.054154 0.067466 -0.024017 -237729.000000 0 0 1
-10.239846 18.447625 11.763491 24.156760 -1.064064 1.062185 0.080251 -0.040609 -197744.000000 0 1 0
-10.865246 17.412225 12.412791 23.985757 -1.012916 1.026862 0.069559 -0.036516 -400519.000000 0 1 0
-10.875046 16.062625 11.541791 22.571830 -0.975646 1.034058 0.061864 -0.044248 -360884.000000 0 1 0
-11.302446 14.925225 12.221191 22.357664 -0.922658 0.992471 0.054487 -0.034015 79738.100000 0 1 0
-11.536746 13.823925 11.308691 21.262265 -0.875341 1.009993 0.046759 -0.024271 -144532.000000 0 1 0
-12.052546 12.572125 11.997991 21.148853 -0.806495 0.967559 0.037138 -0.030168 -266822.000000 0 1 0
-13.228946 12.670025 12.745691 22.315626 -0.763821 0.962884 0.055094 -0.025578 -137114.000000 0 1 0
-13.550546 11.395025 13.317591 22.154506 -0.699203 0.925890 0.035949 -0.012986 205313.000000 0 1 0
-14.208846 11.445925 14.749791 23.461817 -0.678115 0.890952 0.038448 -0.008870 1314730.000000 0 1 0
-15.518746 12.075425 14.692791 24.546394 -0.661256 0.929079 0.059240 -0.014747 767815.000000 0 1 0
-16.085246 12.277925 15.973791 25.780702 -0.651961 0.902560 0.043922 -0.008142 436470.000000 0 0 1
-17.340546 13.221625 15.846991 26.956131 -0.651434 0.942360 0.043739 -0.008856 365177.000000 0 0 1
-18.311846 12.741125 14.949791 26.854352 -0.607892 0.980390 0.044111 -0.011026 -816260.000000 0 0 1
-19.115446 13.839525 14.666291 27.785478 -0.626650 1.014741 0.076302 -0.018671 -394724.000000 0 0 1
-20.343246 13.354025 13.853891 28.001927 -0.580886 1.053252 0.089526 -0.022688 30959.500000 0 0 1
-21.324446 12.632925 14.576291 28.753974 -0.534824 1.039175 0.102011 -0.016374 -221562.000000 0 0 1
-22.331246 12.098725 13.768691 28.890146 -0.496514 1.074027 0.097081 -0.020683 -518637.000000 0 0 1
-23.341846 11.388025 14.669091 29.828026 -0.453905 1.056653 0.115078 -0.021856 -580498.000000 0 0 1
-24.143746 12.245625 15.429091 31.159792 -0.469388 1.052777 0.144533 -0.029547 11380.100000 0 0 1
-25.015646 11.434225 16.201891 31.922176 -0.428728 1.038465 0.138608 -0.022991 -214602.000000 0 0 1
-25.932056 12.130225 17.212791 33.405000 -0.437532 1.029467 0.127253 -0.029480 -365768.000000 0 0 1
-26.953586 12.806525 16.544091 34.120519 -0.443556 1.064579 0.137796 -0.026461 -239441.000000 0 0 1
-27.983436 13.153025 17.434491 35.496989 -0.439385 1.057382 0.125163 -0.010474 105340.000000 0 0 1
-29.171856 13.991225 16.912491 36.507313 -0.447206 1.089123 0.118197 -0.011862 103277.000000 0 0 1
-28.889166 15.384725 16.678091 36.734621 -0.489342 1.099529 0.122893 -0.016365 -387461.000000 0 0 1
-30.021326 16.195725 16.507591 37.895674 -0.494726 1.120085 0.111098 -0.014243 -314924.000000 0 0 1
-29.770266 17.739225 16.518091 38.390053 -0.537378 1.126004 0.124629 -0.015593 171352.000000 0 0 1
-29.097696 18.247125 17.687691 38.632731 -0.560107 1.095230 0.108068 -0.015142 778185.000000 0 0 1
-29.951826 18.323425 18.836191 39.845475 -0.549024 1.078409 0.107466 -0.023166 -134247.000000 0 0 1
-29.026756 18.747625 20.047891 39.949267 -0.573469 1.045079 0.107050 -0.028014 788836.000000 0 0 1
-28.435316 17.653725 20.760791 39.385678 -0.555601 1.015594 0.112913 -0.020961 74252.100000 0 0 1
-27.374286 17.121025 19.980691 37.969844 -0.558917 1.016641 0.115813 -0.015553 -971696.000000 0 0 1
-26.968396 15.823325 20.609191 37.448775 -0.530609 0.988037 0.129101 -0.011811 120198.000000 0 0 1
-28.080736 14.958525 20.782291 38.002484 -0.489462 0.992179 0.106796 -0.009960 377988.000000 0 0 1
-27.690516 13.758125 21.420791 37.615169 -0.461127 0.964933 0.097641 0.002767 -108152.000000 0 0 1
-28.878086 12.812625 21.676791 38.314364 -0.417586 0.969440 0.105440 -0.009430 -219063.000000 0 0 1
-29.524786 12.346125 20.544191 38.028983 -0.396064 1.000092 0.121400 -0.018356 -3334.150000 0 0 1
-30.596286 11.468525 20.857591 38.764660 -0.358625 1.002666 0.144515 -0.025180 -31307.200000 0 0 1
-31.489566 11.196625 19.612691 38.750675 -0.341625 1.040110 0.143155 -0.027691 -666468.000000 0 0 1
-30.889476 10.641625 18.492891 37.541855 -0.331772 1.055728 0.157889 -0.032003 -17996.700000 0 0 1
-30.423136 9.297425 18.658291 36.880091 -0.296590 1.040351 0.157860 -0.032751 -389151.000000 0 0 1
-29.614096 8.831425 17.467291 35.497817 -0.289820 1.056334 0.161852 -0.040800 -311713.000000 0 0 1
-30.281096 8.711825 16.188191 35.424542 -0.280133 1.096203 0.172796 -0.032972 470259.000000 0 0 1
-30.742026 9.845125 15.428291 35.777518 -0.309929 1.124942 0.176482 -0.034378 -492167.000000 0 0 1
-29.641956 10.762325 14.917291 34.885509 -0.348277 1.128952 0.171932 -0.031459 -558585.000000 0 0 1
-28.926596 10.189925 13.869291 33.659170 -0.338694 1.146093 0.184111 -0.036926 221271.000000 0 0 1
-27.871086 11.054925 13.450091 32.862041 -0.377611 1.149121 0.144956 -0.020555 310016.000000 0 0 1
-27.519436 11.048925 11.865591 31.940419 -0.381795 1.190181 0.185944 -0.022607 198678.000000 0 0 1
-26.884386 9.890725 11.340291 30.809071 -0.352530 1.193850 0.182705 -0.022220 851380.000000 0 0 1
-27.867666 8.902725 11.067491 31.278661 -0.309217 1.209128 0.201668 -0.018035 255297.000000 0 0 1
-27.263436 7.720125 10.265691 30.137679 -0.275944 1.223213 0.212924 -0.026246 -27455.500000 0 0 1
-26.866486 8.027625 8.940091 29.430869 -0.290353 1.262154 0.213954 -0.018451 362914.000000 0 0 1
-26.519396 6.844625 8.241191 28.601477 -0.252586 1.278514 0.232678 -0.038521 45132.600000 0 0 1
-25.757766 7.088925 6.886891 27.588850 -0.268566 1.318502 0.220497 -0.036662 -181069.000000 0 0 1
-26.588616 7.679725 5.929391 28.303539 -0.281183 1.359740 0.229855 -0.041440 60503.200000 0 0 1
-25.959556 7.858925 4.646391 27.518179 -0.293966 1.401135 0.222313 -0.039678 8789.000000 0 0 1
-26.855196 8.476625 3.535791 28.382328 -0.305745 1.445895 0.223049 -0.041403 67673.300000 0 0 1
-27.607686 7.596025 2.689091 28.759609 -0.268498 1.477157 0.249392 -0.040616 921316.000000 0 0 1
-26.768296 6.630525 2.029691 27.651856 -0.242813 1.497329 0.234612 -0.032576 192804.000000 0 0 1
-25.625846 7.044125 1.102591 26.599236 -0.268258 1.529332 0.213757 -0.026962 572816.000000 0 0 1
-24.450546 7.608825 1.734391 25.665765 -0.301693 1.503169 0.173040 -0.030298 727637.000000 0 0 1
-23.375146 7.610225 0.811991 24.596184 -0.314747 1.537777 0.160635 -0.019912 -1125780.000000 0 1 0
-22.236546 8.360825 1.446191 23.800395 -0.359643 1.509996 0.119909 -0.025628 -980652.000000 0 1 0
-22.422946 9.780025 1.695091 24.521638 -0.411286 1.501615 0.125696 -0.033457 624496.000000 0 1 0
-21.546946 10.046525 2.788191 23.936949 -0.436295 1.454051 0.126329 -0.045863 125291.000000 0 1 0
-21.847746 11.422325 3.428791 24.890763 -0.481732 1.432603 0.131355 -0.060889 -47697.500000 0 1 0
-21.384446 12.515625 2.633491 24.917276 -0.529516 1.464909 0.163568 -0.054927 332458.000000 0 1 0
-21.515546 13.716525 3.336291 25.733103 -0.567550 1.440781 0.157896 -0.058638 -625575.000000 0 0 1
-20.243646 14.414625 3.834491 25.145376 -0.618772 1.417706 0.110381 -0.046490 -186005.000000 0 0 1
-19.486246 13.556225 4.703391 24.199316 -0.607822 1.375191 0.087594 -0.048027 126573.000000 0 1 0
-18.466446 14.343525 5.278291 23.970955 -0.660393 1.348782 0.071958 -0.040608 -511627.000000 0 1 0
-18.021446 13.735625 6.607491 23.602941 -0.651252 1.287061 0.043212 -0.024141 -181403.000000 0 1 0
-17.101546 12.664225 6.473991 22.243157 -0.637413 1.275466 0.045662 -0.031387 47821.800000 0 1 0
-16.799646 12.140825 7.704991 22.113223 -0.625788 1.214897 0.040353 -0.018217 -251711.000000 0 1 0
11.645654 -31.611920 -14.438409 36.652454 -1.217829 1.975697 0.090863 -0.021674 -368323.000000 0 0 1
12.880654 -31.901720 -13.856409 37.089500 -1.187052 1.953677 0.056703 -0.025590 -664479.000000 0 0 1
13.603554 -30.734620 -13.697409 36.294525 -1.154102 1.957779 0.056169 -0.036173 -1127090.000000 0 0 1
14.972154 -30.898220 -13.080509 36.741871 -1.119574 1.934792 0.105432 -0.031184 -759733.000000 0 0 1
15.887054 -31.513720 -14.009109 37.970622 -1.103849 1.948671 0.077829 -0.030025 592900.000000 0 0 1
17.169954 -30.961620 -13.624109 37.934754 -1.064462 1.938149 0.097330 -0.032432 807317.000000 0 0 1
18.357354 -31.883520 -14.012009 39.368613 -1.048389 1.934693 0.080540 -0.022658 74954.600000 0 0 1
18.510854 -32.964920 -13.077609 40.004519 -1.059143 1.903821 0.080008 -0.027409 -95432.500000 0 0 1
19.368354 33.796325 -13.603709 41.259976 1.050398 1.906790 0.051234 -0.009060 314065.000000 0 0 1
19.098654 32.434425 -12.927209 39.797780 1.038624 1.901620 0.049052 -0.018354 -131328.000000 0 0 1
19.606654 32.424725 -11.610509 39.630640 1.026941 1.868126 0.050803 -0.018555 -240891.000000 0 0 1
19.358154 31.212025 -10.886709 38.307298 1.015646 1.858962 0.048394 -0.021501 -207572.000000 0 0 1
20.284054 30.910925 -9.682709 38.218883 0.990068 1.826937 0.051902 -0.020185 564613.000000 0 0 1
21.567154 30.422625 -10.086209 38.631721 0.954110 1.834944 0.045704 -0.018347 -84021.700000 0 0 1
22.382854 30.270625 -9.009509 38.710130 0.934098 1.805693 0.040451 -0.016362 -602182.000000 0 0 1
23.644654 29.424825 -9.215109 38.856251 0.893888 1.810237 0.036985 -0.000205 56549.000000 0 0 1
24.687054 30.039425 -9.960409 40.137607 0.882890 1.821573 0.049387 -0.008677 479774.000000 0 0 1
25.866054 29.235025 -9.866709 40.262780 0.846464 1.818376 0.045941 0.007188 -13805.600000 0 0 1
27.015154 29.687825 -10.740409 41.551678 0.832498 1.832248 0.039560 0.012818 -516982.000000 0 0 1
27.549754 30.938125 -10.405009 42.713239 0.843266 1.816874 0.044310 -0.002882 40690.300000 0 0 1
28.671754 31.205325 -11.223509 43.838442 0.827686 1.829699 0.059830 0.002188 -100960.000000 0 0 1
29.161054 32.656725 -11.094109 45.165341 0.841886 1.818969 0.059997 -0.010900 -597827.000000 0 0 1
28.383454 33.699825 -11.570009 45.553966 0.870823 1.827594 0.063590 -0.005061 -579021.000000 0 0 1
28.859754 -32.842920 -11.129209 45.115431 -0.849863 1.820052 0.072337 -0.008991 43460.700000 0 0 1
27.827154 -31.712420 -11.255609 43.665969 -0.850561 1.831506 0.065766 -0.011004 -480078.000000 0 0 1
26.656454 -31.831620 -10.505609 42.827402 -0.873651 1.818627 0.059107 -0.010056 -914552.000000 0 0 1
25.656154 -30.900020 -10.809809 41.592084 -0.877853 1.833716 0.054741 -0.012136 -55710.400000 0 0 1
25.906554 -29.375620 -10.586309 40.572731 -0.848068 1.834773 0.062092 -0.020165 -617179.000000 0 0 1
26.796154 -28.871120 -11.561309 41.051666 -0.822655 1.856287 0.052778 -0.010132 -73216.100000 0 0 1
27.305254 -27.599020 -11.145609 40.391922 -0.790749 1.850360 0.055989 -0.016287 151346.000000 0 0 1
28.098454 -26.837120 -12.239909 40.737814 -0.762442 1.875967 0.063952 -0.019077 435590.000000 0 0 1
29.330854 -27.346820 -12.719309 42.070517 -0.750407 1.877936 0.052839 -0.008054 159768.000000 0 0 1
29.193254 -28.442520 -13.618409 42.973062 -0.772373 1.893262 0.056445 -0.007549 -108452.000000 0 0 1
30.525054 -29.164120 -13.913709 44.451278 -0.762602 1.889157 0.053742 -0.008943 47330.500000 0 0 1
31.146254 -29.904820 -12.915809 45.068897 -0.765067 1.861451 0.068924 -0.021212 178931.000000 0 0 1
32.262954 -30.606920 -13.442609 46.458428 -0.759064 1.864341 0.062392 -0.022588 373258.000000 0 0 1
33.011354 -31.554320 -12.430809 47.328106 -0.762835 1.836566 0.055982 -0.019905 103390.000000 0 0 1
34.013054 -32.340020 -13.029809 48.708733 -0.760189 1.841599 0.043589 -0.012291 59984.400000 0 0 1
34.867354 -32.978620 -12.069509 49.487320 -0.757567 1.817172 0.050081 -0.008545 261107.000000 0 0 1
34.296354 33.640725 -11.174209 49.323435 0.775748 1.799330 0.053406 -0.006463 27136.700000 0 0 1
33.318354 -33.756020 -10.224509 48.519297 -0.791923 1.783119 0.064633 -0.011113 -218255.000000 0 0 1
32.977854 32.896325 -9.578709 47.554797 0.784161 1.773608 0.073649 -0.005915 -155695.000000 0 0 1
32.128354 33.142425 -8.312809 46.901538 0.800933 1.748977 0.056930 -0.010754 293608.000000 0 0 1
31.008054 -33.806820 -8.535509 46.661069 -0.828552 1.754758 0.055505 -0.011573 76205.900000 0 0 1
30.216854 -33.521520 -7.381309 45.730015 -0.837199 1.732916 0.063176 -0.016490 229131.000000 0 0 1
29.272654 -32.380820 -7.674109 44.320399 -0.835769 1.744824 0.050767 -0.025059 -329835.000000 0 0 1
29.969454 -31.103920 -7.733709 43.879748 -0.803971 1.747970 0.042843 -0.025609 547042.000000 0 0 1
29.180954 -29.941020 -8.023109 42.571857 -0.798253 1.760391 0.044674 -0.018418 869462.000000 0 0 1
27.952554 -29.564720 -7.105409 41.302600 -0.813420 1.743689 0.051407 -0.022058 627235.000000 0 0 1
27.096554 -28.648620 -7.699209 40.177662 -0.813233 1.763618 0.053211 -0.033751 -398262.000000 0 0 1
26.102754 -28.161820 -6.855309 39.005604 -0.823325 1.747466 0.060761 -0.040184 -225380.000000 0 0 1
24.943554 -27.359620 -7.479809 37.771381 -0.831559 1.770142 0.095876 -0.049105 -270680.000000 0 0 1
24.078454 -28.133820 -8.282509 37.945800 -0.862913 1.790840 0.111738 -0.047709 144363.000000 0 0 1
23.173754 -27.232120 -8.923109 36.854214 -0.865739 1.815346 0.129021 -0.050881 -52673.900000 0 0 1
22.003554 -27.983020 -9.586509 36.866068 -0.904454 1.833856 0.107964 -0.040868 -404334.000000 0 0 1
22.371454 -28.690420 -10.809209 37.953408 -0.908523 1.859596 0.108194 -0.033578 -35682.000000 0 0 1
21.380454 -29.396720 -11.537009 38.136512 -0.941977 1.878130 0.102533 -0.028235 19247.300000 0 0 1
21.027354 -30.702920 -10.874009 38.769356 -0.970300 1.855090 0.092806 -0.034932 263997.000000 0 0 1
22.130954 -31.590120 -10.904609 40.082731 -0.959691 1.846322 0.070751 -0.026281 -67638.500000 0 0 1
21.764754 -32.899520 -10.509909 40.823291 -0.986343 1.831177 0.057541 -0.027973 -10335.500000 0 0 1
22.932454 -33.884420 -10.409309 42.218539 -0.975822 1.819923 0.045667 -0.020361 -604520.000000 0 0 1
23.877454 -33.602520 -9.461909 42.294088 -0.953001 1.796423 0.047706 -0.017458 -768363.000000 0 0 1
24.952654 33.282725 -9.572109 42.684892 0.927476 1.796970 0.040817 -0.010151 -463311.000000 0 0 1
26.192854 33.568625 -8.738209 43.465786 0.908197 1.773212 0.044334 -0.012119 -749510.000000 0 0 1
26.221454 33.241925 -7.359609 42.973877 0.902918 1.742902 0.045012 -0.022162 82952.300000 0 0 1
26.452354 31.856225 -7.126809 42.015920 0.877811 1.741242 0.045580 -0.011346 -337860.000000 0 0 1
26.371754 31.469225 -5.606109 41.439233 0.873300 1.706497 0.048867 -0.010568 -527211.000000 0 0 1
27.415054 31.869525 -4.730309 42.303991 0.860394 1.682848 0.045933 -0.005988 -7427.370000 0 0 1
28.431054 30.944225 -4.449209 42.257134 0.827700 1.676281 0.065210 -0.003648 63558.900000 0 0 1
27.976654 29.783825 -3.474609 41.010271 0.816675 1.655623 0.075045 0.000776 -543788.000000 0 0 1
27.620854 30.302925 -2.241409 41.063400 0.831669 1.625408 0.076402 -0.000921 -27452.000000 0 0 1
27.269254 29.280925 -1.323809 40.034202 0.820956 1.603869 0.072353 0.002534 -104877.000000 0 0 1
25.913154 28.553825 -1.402209 38.584695 0.833842 1.607145 0.050940 0.006592 -609677.000000 0 0 1
24.816654 29.350725 -1.084109 38.451355 0.868908 1.598994 0.052746 -0.003614 -331322.000000 0 0 1
23.619254 28.582225 -1.105509 37.094945 0.880187 1.600603 0.057739 0.004215 594090.000000 0 0 1
22.402454 29.299725 -0.470209 36.885837 0.918019 1.583544 0.075031 -0.004605 143216.000000 0 0 1
22.299054 29.144625 0.923591 36.708446 0.917690 1.545633 0.085565 -0.013225 -431062.000000 0 0 1
21.279454 29.944425 1.449291 36.763898 0.952971 1.531365 0.081609 -0.018669 -299598.000000 0 0 1
20.538354 29.069025 2.515291 35.681353 0.955696 1.500245 0.087555 -0.023973 -351268.000000 0 0 1
19.874654 28.013225 1.878291 34.398701 0.953740 1.516166 0.090252 -0.020308 -83144.200000 0 0 1
19.096754 27.206725 2.738691 33.352546 0.958788 1.488590 0.093263 -0.023064 -132720.000000 0 0 1
18.549854 25.934825 2.002991 31.948775 0.949909 1.508061 0.099810 -0.017583 61273.000000 0 0 1
19.539354 25.040325 1.534591 31.798730 0.908174 1.522518 0.105113 -0.025383 -143877.000000 0 0 1
20.203954 24.386725 2.586291 31.774220 0.878928 1.489310 0.113573 -0.014860 -475495.000000 0 0 1
21.415754 23.578425 2.066791 31.919403 0.833427 1.506001 0.102280 -0.014038 -592929.000000 0 0 1
21.099354 22.445325 1.348691 30.834953 0.816298 1.527043 0.099768 -0.008613 -69374.700000 0 0 1
22.198554 21.711525 0.891291 31.063814 0.774307 1.542100 0.077184 -0.013427 -300383.000000 0 0 1
21.791254 20.599025 -0.168209 29.986779 0.757281 1.576406 0.104436 -0.016323 -126213.000000 0 0 1
21.255654 21.166325 -1.373009 30.028342 0.783292 1.616536 0.073040 -0.001075 551377.000000 0 0 1
21.530854 20.369625 -2.526509 29.746976 0.757691 1.655832 0.115107 -0.005948 -63317.900000 0 0 1
21.480154 21.184225 -3.819809 30.409857 0.778462 1.696740 0.086733 -0.010822 -714396.000000 0 0 1
22.514454 22.101625 -3.845209 31.783142 0.776146 1.692076 0.095308 -0.009059 -284887.000000 0 0 1
22.494854 22.732125 -5.104109 32.385489 0.790644 1.729061 0.059627 -0.000988 -424049.000000 0 0 1
23.486354 23.889025 -5.244709 33.908721 0.793898 1.726091 0.061564 0.007959 -357778.000000 0 0 1
23.413154 25.018625 -4.414709 34.548474 0.818535 1.698930 0.052663 0.009066 -126544.000000 0 0 1
23.655554 24.831825 -2.990809 34.426004 0.809653 1.657782 0.057994 0.006238 216403.000000 0 0 1
22.413954 24.604625 -2.070809 33.347581 0.831956 1.632934 0.054935 0.001124 -329631.000000 0 0 1
21.418754 25.622825 -2.115909 33.462954 0.874531 1.634070 0.072015 -0.001861 365083.000000 0 0 1
20.218554 25.337225 -1.466309 32.448652 0.897289 1.616000 0.069133 0.004257 -202776.000000 0 0 1
19.323354 24.197425 -1.993909 31.030358 0.896928 1.635097 0.090602 -0.014926 -1019790.000000 0 0 1
18.819754 24.470625 -3.303409 31.046854 0.915198 1.677399 0.075037 -0.010581 572475.000000 0 0 1
17.857254 23.472825 -3.704309 29.725023 0.920442 1.695740 0.071330 -0.016181 507735.000000 0 0 1
17.401254 23.765525 -5.142809 29.900708 0.938781 1.743652 0.072405 -0.015279 -255220.000000 0 0 1
16.610854 22.763325 -5.695709 28.749444 0.940401 1.770231 0.075646 -0.022646 -55889.100000 0 0 1
16.283054 23.124025 -7.022409 29.140567 0.957283 1.814176 0.070086 -0.017738 20475.900000 0 0 1
15.517654 22.011125 -7.788609 28.034794 0.956728 1.852320 0.087700 -0.021950 -363849.000000 0 0 1
16.322054 20.873425 -7.979909 27.672880 0.907156 1.863316 0.084309 -0.022044 254500.000000 0 0 1
15.683754 19.969125 -8.869809 26.896461 0.905021 1.906863 0.116049 -0.030297 51152.700000 0 0 1
16.464854 18.668425 -9.249809 26.554858 0.848036 1.926583 0.110713 -0.033091 720162.000000 0 0 1
17.699354 18.876725 -9.956009 27.725800 0.817577 1.938087 0.116862 -0.028330 926449.000000 0 0 1
18.426654 17.668925 -10.137709 27.468266 0.764409 1.948804 0.122457 -0.030081 1743560.000000 0 0 1
19.974354 17.800625 -10.521609 28.749632 0.727917 1.945475 0.098957 -0.023694 1444240.000000 0 0 1
20.190854 18.038525 -11.897809 29.573922 0.729157 1.984832 0.106810 -0.021242 193916.000000 0 0 1
21.540254 18.466425 -11.963209 30.791391 0.708716 1.969826 0.099545 -0.016142 201897.000000 0 0 1
22.086154 18.895025 -13.342709 31.981996 0.707687 2.001152 0.111439 -0.023545 -73994.500000 0 0 1
22.316454 17.789825 -14.240409 31.895004 0.673008 2.033621 0.107041 -0.025954 220604.000000 0 0 1
22.200154 18.271125 -15.587609 32.705572 0.688620 2.067584 0.118909 -0.033729 -31295.500000 0 0 1
22.363154 17.130025 -16.645409 32.720301 0.653658 2.104491 0.099967 -0.029142 -222759.000000 0 0 1
23.630754 16.532325 -16.711709 33.331840 0.610465 2.095982 0.115124 -0.031906 -206467.000000 0 0 1
23.737654 15.817725 -17.947909 33.701693 0.587787 2.132409 0.103914 -0.033699 -640601.000000 0 0 1
24.562554 16.376025 -19.058509 35.138583 0.588030 2.144065 0.099779 -0.026175 -1309220.000000 0 0 1
25.915454 16.424825 -18.748309 35.956707 0.564892 2.119303 0.101359 -0.026118 -562610.000000 0 0 1
26.655754 16.939525 -19.854809 37.305364 0.566109 2.132022 0.094990 -0.034214 938700.000000 0 0 1
28.183354 17.104925 -19.522309 38.314494 0.545489 2.105433 0.072589 -0.032895 831845.000000 0 0 1
28.437254 18.181825 -18.662709 38.568807 0.568864 2.075880 0.072684 -0.036742 -523975.000000 0 0 1
29.749454 18.220625 -18.185909 39.341435 0.549538 2.051337 0.055460 -0.038200 -430817.000000 0 0 1
29.968354 19.250025 -17.079009 39.501371 0.570975 2.017910 0.065723 -0.040790 624635.000000 0 0 1
29.158754 19.081225 -15.860609 38.286878 0.579456 1.997923 0.057955 -0.036668 461245.000000 0 0 1
27.971854 19.846825 -15.864409 37.788895 0.617092 2.004040 0.060734 -0.034482 167203.000000 0 0 1
26.943054 19.412625 -14.768709 36.344091 0.624356 1.989261 0.064317 -0.028304 336249.000000 0 0 1
27.416354 19.557325 -13.418609 36.251959 0.619626 1.949965 0.059585 -0.025823 -366717.000000 0 0 1
26.327154 19.466825 -12.569309 35.072266 0.636695 1.937332 0.069198 -0.020169 -601367.000000 0 0 1
26.499954 19.790125 -11.114209 34.891579 0.641449 1.894981 0.063958 -0.016476 -271791.000000 0 0 1
26.637154 21.175625 -10.739809 35.683170 0.671664 1.876513 0.064858 -0.012728 104183.000000 0 0 1
27.063554 21.367625 -9.433009 35.749029 0.668327 1.837826 0.060371 -0.002374 243192.000000 0 0 1
25.935154 21.185425 -8.363209 34.516630 0.684938 1.815527 0.071394 -0.003825 -33562.100000 0 0 1
25.811354 19.813025 -7.917709 33.488388 0.654676 1.809488 0.084989 -0.016546 810966.000000 0 0 1
24.903554 19.724425 -6.792309 32.486542 0.669864 1.781431 0.096219 -0.019622 1452770.000000 0 0 1
23.358954 19.588525 -7.077309 31.295996 0.697831 1.798911 0.107593 -0.021585 609535.000000 0 0 1
22.750554 20.804025 -7.409309 31.706357 0.740736 1.806663 0.098567 -0.018306 444094.000000 0 0 1
21.427254 20.504325 -7.856509 30.680276 0.763391 1.829758 0.085869 -0.020927 257262.000000 0 0 1
20.557654 21.694925 -8.294509 31.017508 0.812308 1.841504 0.076154 -0.019146 -506860.000000 0 0 1
21.061254 22.352625 -9.439509 32.129747 0.815135 1.868989 0.101601 -0.016703 53447.200000 0 0 1
20.443254 22.049425 -10.690609 31.912269 0.823179 1.912402 0.109025 -0.012539 239744.000000 0 0 1
18.951954 22.459125 -10.800209 31.308679 0.869888 1.922991 0.092481 -0.013713 -123451.000000 0 0 1
18.725854 23.844425 -10.546209 32.100417 0.905062 1.905552 0.096714 -0.022028 939908.000000 0 0 1
17.333654 24.224825 -10.491809 31.581257 0.949722 1.909449 0.089513 -0.021446 1047870.000000 0 0 1
17.191954 25.619625 -9.913409 32.406854 0.979768 1.881685 0.075831 -0.023328 -106515.000000 0 0 1
17.663554 26.649425 -10.741709 33.727990 0.985467 1.894922 0.112966 -0.024183 34222.900000 0 0 1
17.315954 27.929625 -10.200009 34.408523 1.015811 1.871758 0.106090 -0.032029 182828.000000 0 0 1
20.706354 28.494625 33.453112 48.577850 0.942391 0.811171 0.061265 -0.017252 195275.000000 0 0 1
19.357754 28.875225 33.337513 48.165248 0.980218 0.806334 0.084151 -0.030641 -427794.000000 0 0 1
18.506554 27.809425 33.009158 46.962338 0.983617 0.791350 0.080849 -0.031042 679470.000000 0 0 1
16.989854 28.159725 33.206111 46.736186 1.027925 0.780586 0.104679 -0.038046 684297.000000 0 0 1
16.500854 28.998525 32.195679 46.365444 1.053465 0.803225 0.110836 -0.039131 -354729.000000 0 0 1
15.193654 29.439725 32.486871 46.399799 1.094357 0.795187 0.117296 -0.041485 398653.000000 0 0 1
14.209454 29.429825 31.289807 45.244616 1.120983 0.807136 0.118518 -0.049545 136786.000000 0 0 1
13.980854 28.163725 30.733237 43.968075 1.110022 0.796812 0.113510 -0.050957 -346536.000000 0 0 1
12.694754 28.119725 30.170677 43.152584 1.146734 0.796571 0.106688 -0.027303 -108057.000000 0 0 1
12.077454 26.675325 30.412027 42.217642 1.145652 0.766471 0.086127 -0.035647 27500.800000 0 0 1
12.271554 25.794925 29.330687 40.942135 1.126748 0.772177 0.091073 -0.036175 408350.000000 0 0 1
13.575754 25.240325 29.361417 41.030086 1.077322 0.773304 0.084823 -0.036076 166541.000000 0 0 1
13.892054 24.421025 28.106027 39.740715 1.053591 0.785217 0.086057 -0.032995 -215419.000000 0 0 1
13.555554 25.073225 26.864917 39.168144 1.075169 0.814975 0.079135 -0.031191 320658.000000 0 0 1
13.626054 24.324725 25.682697 37.907289 1.060176 0.826420 0.079402 -0.027275 190365.000000 0 0 1
12.371354 23.434225 25.451377 36.742155 1.085064 0.805567 0.086925 -0.025430 124405.000000 0 0 1
12.502054 22.921425 24.165137 35.575932 1.071468 0.824049 0.095545 -0.031019 -302145.000000 0 0 1
11.449154 22.065125 23.927687 34.503436 1.092159 0.804478 0.107740 -0.034769 -491156.000000 0 0 1
11.574554 21.769025 22.424457 33.327422 1.082113 0.832738 0.133796 -0.038139 193540.000000 0 0 1
11.180954 22.899825 21.647857 33.437187 1.116589 0.866604 0.127534 -0.043343 119002.000000 0 0 1
11.206554 22.508525 20.286457 32.307289 1.108846 0.891916 0.125773 -0.029365 -293262.000000 0 0 1
10.788354 23.699125 19.427157 32.487714 1.143609 0.929812 0.119766 -0.036069 778931.000000 0 0 1
9.407954 24.085225 19.389057 32.319394 1.198410 0.927395 0.119497 -0.042899 505326.000000 0 0 1
8.969454 24.948425 20.377357 33.438178 1.225666 0.915488 0.119325 -0.045272 -1037390.000000 0 0 1
7.541354 25.407325 20.191557 33.318211 1.282261 0.919747 0.107956 -0.046656 -823897.000000 0 0 1
7.457054 26.394425 19.128857 33.439296 1.295449 0.961797 0.113321 -0.055165 -9916.260000 0 0 1
6.108254 26.642025 18.790157 33.168936 1.345420 0.968546 0.097725 -0.059455 -264741.000000 0 0 1
5.929754 27.825625 17.761957 33.539746 1.360833 1.012692 0.104218 -0.051410 -119338.000000 0 0 1
6.446854 27.512625 16.496757 32.720781 1.340626 1.042378 0.101354 -0.040393 66110.200000 0 0 1
7.095854 28.639325 15.908857 33.520946 1.327921 1.076293 0.102307 -0.032382 367641.000000 0 0 1
7.988254 28.471325 14.623757 32.989132 1.297257 1.111530 0.099050 -0.035926 331095.000000 0 0 1
7.250554 28.366525 13.391557 32.195716 1.320552 1.141818 0.096856 -0.031564 128280.000000 0 0 1
7.024654 27.053425 12.963457 30.810466 1.316748 1.136526 0.080590 -0.033249 -245023.000000 0 0 1
6.279654 27.006625 11.625957 30.065840 1.342333 1.173764 0.082503 -0.030671 -925116.000000 0 0 1
6.931354 27.283025 10.408057 30.012244 1.322006 1.216646 0.075670 -0.028753 97865.600000 0 0 1
7.312954 28.704425 10.248257 31.344060 1.321336 1.237711 0.070297 -0.025003 -188372.000000 0 0 1
7.802154 29.075425 8.845657 31.376737 1.308631 1.285004 0.042169 -0.013711 222974.000000 0 0 1
6.791854 29.250625 7.823157 31.031116 1.342644 1.315939 0.076837 -0.031136 435229.000000 0 0 1
6.184954 28.055825 7.396357 29.666296 1.353815 1.318820 0.072393 -0.014590 -1573060.000000 0 0 1
4.701554 28.085125 7.299957 29.396739 1.404931 1.319845 0.089100 -0.025095 -1484770.000000 0 0 1
4.201954 28.994925 6.297457 29.966983 1.426878 1.359071 0.075780 -0.015577 545105.000000 0 0 1
2.769754 29.029625 6.278557 29.829699 1.475673 1.358730 0.096160 -0.010815 851763.000000 0 0 1
2.178054 30.063325 5.282057 30.601431 1.498474 1.397319 0.103006 -0.019743 -291930.000000 0 0 1
2.567454 29.757625 3.945257 30.127614 1.484731 1.439468 0.081519 -0.017566 66746.000000 0 0 1
1.775154 30.382425 2.968457 30.578664 1.512436 1.473567 0.057406 -0.022047 871434.000000 0 0 1
0.453754 29.651025 2.506657 29.760251 1.555494 1.486468 0.097804 -0.021111 598824.000000 0 0 1
0.658854 28.450425 1.844457 28.517763 1.547642 1.506074 0.097135 -0.018555 411258.000000 0 0 1
-0.522846 27.840525 1.293557 27.875464 -1.552019 1.524375 0.085621 -0.022430 670939.000000 0 0 1
-1.002246 28.274525 -0.119443 28.292535 -1.535364 1.575018 0.078338 -0.024254 25794.600000 0 0 1
-1.662446 29.530825 -0.191543 29.578202 -1.514560 1.577272 0.087108 -0.025591 93667.600000 0 0 1
-1.574046 30.050625 -1.453543 30.126906 -1.518464 1.619062 0.084344 -0.026099 3578.810000 0 0 1
-2.764546 30.959625 -1.890643 31.140257 -1.481737 1.631547 0.111113 -0.022779 50440.800000 0 0 1
-3.904146 30.358425 -2.498043 30.710203 -1.442897 1.652229 0.079818 -0.030576 260895.000000 0 0 1
-3.781546 29.679225 -3.753143 30.153649 -1.444065 1.695587 0.063850 -0.028210 -819665.000000 0 0 1
-5.046346 29.225425 -4.520943 30.000500 -1.399813 1.722068 0.072295 -0.025703 -417754.000000 0 0 1
-5.683246 30.345925 -5.030943 31.280742 -1.385659 1.732330 0.077490 -0.024663 -103550.000000 0 0 1
-6.713546 29.941125 -5.914743 31.249430 -1.350220 1.761220 0.073832 -0.029906 -1765.650000 0 0 1
-7.334246 31.094925 -6.770443 32.657686 -1.339164 1.779626 0.075482 -0.015136 29287.400000 0 0 1
-8.442846 31.663025 -6.104943 33.333154 -1.310212 1.754985 0.063454 -0.013843 97781.800000 0 0 1
-8.924446 32.774725 -6.851243 34.652098 -1.304945 1.769823 0.067472 -0.030414 -321635.000000 0 0 1
-10.070746 33.560825 -6.209543 35.585212 -1.279271 1.746192 0.065085 -0.027834 -255243.000000 0 0 1
-11.292346 32.876725 -6.365043 35.339919 -1.239946 1.751894 0.076130 -0.018264 -960940.000000 0 0 1
-12.303846 33.612725 -5.787643 36.258747 -1.219898 1.731103 0.080012 -0.016961 -560626.000000 0 0 1
-13.728446 33.103725 -6.075243 36.348802 -1.177674 1.738722 0.091738 -0.019070 -79712.300000 0 0 1
-14.067346 33.260625 -7.423443 36.868237 -1.170669 1.773533 0.082263 -0.018077 -408218.000000 0 0 1
-15.344146 32.779725 -7.707643 37.004877 -1.132994 1.780620 0.097817 -0.021423 -963368.000000 0 0 1
-15.808946 33.048225 -9.145543 37.759090 -1.124610 1.815437 0.127340 -0.031027 -105106.000000 0 0 1
-17.191546 32.888025 -9.331643 38.265533 -1.089131 1.817146 0.170538 -0.041260 -127516.000000 0 0 1
-17.952646 -33.752520 -9.067743 39.290635 1.081963 1.803682 0.161030 -0.045580 721819.000000 0 0 1
-19.519946 33.824125 -9.228443 40.128093 -1.047384 1.802848 0.170030 -0.047929 1732230.000000 0 0 1
-20.254846 32.956325 -8.320243 39.567721 -1.019713 1.782656 0.162113 -0.048820 487607.000000 0 0 1
-20.390746 33.372125 -6.982043 39.726945 -1.022320 1.747465 0.144145 -0.043692 -415541.000000 0 0 1
-20.927446 32.313025 -6.025543 38.966611 -0.996077 1.726053 0.137658 -0.043684 -846934.000000 0 0 1
-20.881246 32.606025 -4.676743 39.000657 -1.001192 1.691000 0.136855 -0.040880 224477.000000 0 0 1
-22.113646 32.550425 -3.981543 39.552448 -0.974053 1.671632 0.134504 -0.039759 303268.000000 0 0 1
-23.014146 33.836525 -4.153743 41.131678 -0.973512 1.671955 0.146372 -0.043513 88348.100000 0 0 1
-23.628846 -33.835620 -5.437343 41.626148 0.961184 1.701794 0.148251 -0.045719 -220957.000000 0 0 1
-24.416246 -32.749720 -5.643843 41.237727 0.930155 1.708088 0.150669 -0.050072 -716611.000000 0 0 1
-25.324096 -32.805720 -6.856643 42.006411 0.913400 1.734758 0.177876 -0.050796 -551564.000000 0 0 1
-24.713646 -32.457120 -8.102243 41.591769 0.920024 1.766854 0.201495 -0.050948 -111308.000000 0 0 1
-25.265836 -32.955920 -9.303043 42.555865 0.916721 1.791184 0.161175 -0.040257 -297153.000000 0 0 1
-26.418356 -32.076620 -9.848943 42.706448 0.881829 1.803511 0.147807 -0.031717 10616.000000 0 0 1
-27.622686 -32.308420 -9.134943 43.477510 0.863425 1.782481 0.153934 -0.019763 -417115.000000 0 0 1
-28.800036 -31.691820 -9.532843 43.871273 0.833166 1.789835 0.072473 -0.013512 -100000.000000 0 0 1
-28.906106 -30.171320 -9.280343 42.801825 0.806811 1.789353 0.048666 0.002537 -446039.000000 0 0 1
-27.942536 -29.359920 -9.942943 41.733108 0.810128 1.811361 0.068731 0.007426 -2228.500000 0 0 1
-28.242676 -29.059420 -11.303043 42.069673 0.799651 1.842813 0.063646 0.007812 -325850.000000 0 0 1
-27.179066 -28.161320 -11.911743 40.910282 0.803146 1.866243 0.106601 -0.002168 -299477.000000 0 0 1
-25.913586 -28.766420 -12.074943 40.556443 0.837524 1.873112 0.119074 -0.015609 -164736.000000 0 0 1
-25.173076 -28.042020 -13.052243 39.879815 0.839258 1.904230 0.110296 -0.021836 -1244980.000000 0 0 1
-23.781046 -28.569720 -13.203343 39.447373 0.876617 1.912091 0.128855 -0.036879 -1380160.000000 0 0 1
-23.637346 -29.859120 -13.815743 40.511305 0.901181 1.918813 0.143672 -0.040716 150673.000000 0 0 1
-24.149846 -31.017620 -13.102243 41.436415 0.909251 1.892519 0.144772 -0.042773 -35076.000000 0 0 1
-24.311646 -32.375920 -13.921343 42.814251 0.926708 1.901974 0.157433 -0.044399 154251.000000 0 0 1
-24.941146 -33.373420 -13.116843 43.679485 0.929003 1.875801 0.143861 -0.051502 192861.000000 0 0 1
-24.887746 33.217925 -13.887143 43.768518 -0.927791 1.893663 0.155886 -0.054259 -237097.000000 0 0 1
-24.985946 31.958825 -12.940743 42.580827 -0.907241 1.879591 0.117988 -0.046610 -184609.000000 0 0 1
-23.815846 31.580325 -12.266543 41.412311 -0.924654 1.871513 0.107038 -0.046799 25752.600000 0 0 1
-23.359646 32.451725 -11.232643 41.532635 -0.946887 1.844660 0.131308 -0.050396 65082.400000 0 0 1
-22.784246 31.622025 -10.005043 40.238976 -0.946432 1.822073 0.136872 -0.053204 57715.800000 0 0 1
-23.828846 31.059925 -9.255043 40.226716 -0.916384 1.802948 0.124133 -0.042110 145131.000000 0 0 1
-23.341546 30.359925 -8.118343 39.146651 -0.915354 1.779695 0.138948 -0.037634 -355068.000000 0 0 1
-24.364446 29.436625 -7.436643 38.928714 -0.879397 1.763010 0.114874 -0.035552 -255924.000000 0 0 1
-24.817546 28.447825 -8.324843 38.658664 -0.853448 1.787839 0.111661 -0.016978 -150560.000000 0 0 1
-25.285576 27.272125 -7.743543 37.988045 -0.823178 1.776077 0.099581 -0.017161 -79671.600000 0 0 1
-24.218746 26.282925 -7.167243 36.451463 -0.826249 1.768710 0.092854 -0.017582 127062.000000 0 0 1
-23.503146 26.791025 -6.063443 36.151379 -0.850678 1.739317 0.098641 -0.018874 260743.000000 0 0 1
-22.674546 25.795125 -5.421343 34.769447 -0.849692 1.727358 0.086100 -0.029987 1000540.000000 0 0 1
-21.295846 26.394925 -4.927843 34.270815 -0.891913 1.715088 0.092398 -0.044000 928761.000000 0 0 1
-20.414446 26.630825 -6.037243 34.093969 -0.916773 1.748812 0.111150 -0.033335 574692.000000 0 0 1
-19.287046 27.436425 -5.652343 34.010242 -0.958078 1.737766 0.111673 -0.033196 767927.000000 0 0 1
-18.156546 27.486825 -6.726743 33.621939 -0.987037 1.772226 0.131828 -0.033512 -282785.000000 0 0 1
-18.469246 28.012625 -7.982143 34.489633 -0.987898 1.804350 0.126565 -0.032298 79626.800000 0 0 1
-18.728346 29.378425 -8.054443 35.759150 -1.003268 1.797987 0.129943 -0.035714 -354167.000000 0 0 1
-18.652646 29.899625 -9.518443 36.503555 -1.013030 1.834599 0.135471 -0.040528 614999.000000 0 0 1
-17.376546 29.783025 -10.177743 35.952182 -1.042644 1.857812 0.134537 -0.037846 680329.000000 0 0 1
-17.349546 30.552025 -11.317243 36.912233 -1.054338 1.882414 0.140811 -0.040417 195022.000000 0 0 1
-15.924046 30.612425 -11.928743 36.510145 -1.091133 1.903632 0.128797 -0.040981 384291.000000 0 0 1
-15.888546 31.342025 -13.110843 37.505501 -1.101612 1.927910 0.125213 -0.045386 -51657.500000 0 0 1
-16.316946 30.603725 -14.284043 37.508193 -1.080967 1.961484 0.132946 -0.055441 171370.000000 0 0 1
-15.666646 31.259825 -15.520243 38.255697 -1.106209 1.988538 0.161651 -0.056531 288578.000000 0 0 1
-14.269446 31.129025 -15.676243 37.661358 -1.140982 2.000105 0.149265 -0.070623 -372290.000000 0 0 1
-13.831846 31.785525 -16.813943 38.527240 -1.160350 2.022409 0.134535 -0.073129 -329497.000000 0 0 1
-12.306846 31.951625 -16.765043 38.123896 -1.203138 2.026118 0.150427 -0.074978 -631216.000000 0 0 1
-11.609946 30.759225 -16.842043 36.940157 -1.209883 2.044211 0.147518 -0.088612 -239557.000000 0 0 1
-10.363146 30.874325 -17.511543 36.976653 -1.246957 2.064152 0.142595 -0.084060 359734.000000 0 0 1
-10.456446 30.932625 -19.107643 37.832084 -1.244816 2.100253 0.154291 -0.089968 -475684.000000 0 0 1
-10.960146 29.719125 -19.644643 37.272821 -1.217480 2.125922 0.120209 -0.087596 275316.000000 0 0 1
-10.691346 29.619425 -21.028143 37.865525 -1.224394 2.159565 0.115176 -0.089861 -1071700.000000 0 0 1
-11.976846 29.527425 -21.826343 38.622570 -1.185457 2.171374 0.108003 -0.075770 -520705.000000 0 0 1
-12.762546 30.720125 -21.869943 39.810841 -1.177046 2.152378 0.120237 -0.070967 3682.530000 0 0 1
-13.922846 30.422025 -21.117443 39.563767 -1.141593 2.133834 0.114246 -0.063018 -254195.000000 0 0 1
-15.127546 31.379325 -21.285843 40.823912 -1.121582 2.119294 0.163579 -0.068708 139115.000000 0 0 1
-15.795146 31.354625 -22.524043 41.712488 -1.104147 2.141213 0.129132 -0.054644 -157803.000000 0 0 1
-16.534446 32.524625 -22.739943 42.992373 -1.100478 2.128135 0.124407 -0.043762 152687.000000 0 0 1
-17.013346 32.748425 -24.197643 44.129799 -1.091658 2.151161 0.106537 -0.031616 424594.000000 0 0 1
-15.923346 33.075125 -25.048143 44.440143 -1.122115 2.169579 0.123986 -0.029601 236828.000000 0 0 1
-16.283346 32.840925 -26.405743 45.176730 -1.110494 2.195058 0.129095 -0.024348 225817.000000 0 0 1
-16.848646 -33.665420 -27.053843 46.358901 1.106770 2.193919 0.104496 -0.014725 -375463.000000 0 0 1
-18.119246 -33.303520 -26.610943 46.320338 1.072522 2.182787 0.096579 -0.009726 -779937.000000 0 0 1
-18.539746 -32.196820 -27.381843 46.153252 1.048342 2.205925 0.079428 -0.000199 -300391.000000 0 0 1
-19.997146 -31.764820 -27.223843 46.368386 1.008941 2.198294 0.071521 -0.012246 -153730.000000 0 0 1
-20.948846 -32.774720 -27.531343 47.655128 1.002067 2.186730 0.061578 -0.008551 -279708.000000 0 0 1
-22.229846 -32.259320 -27.220343 47.705102 0.967424 2.178028 0.052307 -0.005338 451716.000000 0 0 1
-23.394046 -33.288120 -27.221543 48.952964 0.958211 2.160453 0.024667 0.007476 111673.000000 0 0 1
-23.445746 33.515925 -26.185943 48.566694 -0.960379 2.140253 0.055642 -0.003657 -68540.500000 0 0 1
-24.545946 32.595425 -26.085843 48.429705 -0.925347 2.139610 0.042992 0.002458 681025.000000 0 0 1
-24.555246 31.466825 -27.142443 48.268347 -0.908150 2.167990 0.048227 -0.004188 412939.000000 0 0 1
-23.639646 30.425425 -26.765743 46.914223 -0.910257 2.177941 0.047428 -0.029739 107450.000000 0 0 1
-24.211346 29.417725 -25.957343 46.101794 -0.882176 2.168861 0.038233 -0.025103 55410.500000 0 0 1
32.501953 10.148325 -26.200459 42.963118 0.302646 2.226650 0.074966 -0.014368 -175285.000000 0 0 1
32.116173 8.807125 -26.004499 42.252195 0.267648 2.233765 0.054558 -0.009436 -806412.000000 0 0 1
30.758723 8.678225 -26.252819 41.359656 0.274991 2.258474 0.064312 -0.012305 -810304.000000 0 0 1
30.360513 7.224725 -25.981699 40.607956 0.233619 2.265058 0.055814 -0.014480 -301596.000000 0 0 1
30.497193 6.856925 -24.634409 39.798873 0.221160 2.238230 0.038984 0.002498 112261.000000 0 0 1
29.972803 5.566625 -24.349209 39.015897 0.183630 2.244755 0.046552 0.003355 57862.000000 0 0 1
29.809363 5.284125 -22.829309 37.916981 0.175441 2.216908 0.049920 -0.006035 -236587.000000 0 0 1
31.042213 5.121525 -22.161609 38.483580 0.163513 2.184466 0.079288 -0.010325 134788.000000 0 0 1
30.892453 4.963425 -20.745009 37.541106 0.159306 2.156270 0.076101 -0.013177 -440877.000000 0 0 1
32.204693 4.764525 -19.979109 38.196960 0.146880 2.121228 0.072995 -0.011978 -236529.000000 0 0 1
32.801113 3.500225 -20.083609 38.620149 0.106308 2.117682 0.100117 -0.012517 659673.000000 0 0 1
33.819013 3.251025 -19.097809 38.974621 0.095836 2.082893 0.108173 -0.015946 195891.000000 0 0 1
34.415663 1.866825 -19.161809 39.434728 0.054190 2.078203 0.124085 -0.027383 -20888.700000 0 0 1
33.491873 0.845625 -18.875509 38.453939 0.025243 2.083873 0.119534 -0.024634 20811.000000 0 0 1
34.173443 -0.334375 -18.989009 39.096272 -0.009784 2.077959 0.133867 -0.027362 -131588.000000 0 0 1
33.229033 -1.517275 -18.685009 38.152330 -0.045629 2.082596 0.107411 -0.027531 205156.000000 0 0 1
32.868553 -1.667975 -17.341409 37.200112 -0.050703 2.055748 0.106061 -0.024454 175130.000000 0 0 1
31.542463 -1.210275 -17.122909 35.910802 -0.038351 2.067827 0.093368 -0.035073 -96138.900000 0 0 1
31.041943 -1.455475 -15.718009 34.824940 -0.046853 2.039067 0.104926 -0.029371 -223273.000000 0 0 1
30.957693 -2.844075 -15.360409 34.675779 -0.091613 2.029708 0.096773 -0.032838 369728.000000 0 0 1
30.188983 -2.913675 -14.168109 33.475356 -0.096216 2.007815 0.095527 -0.037360 -43559.300000 0 0 1
29.958583 -4.375875 -13.732809 33.245376 -0.145038 1.996624 0.090305 -0.044848 -123172.000000 0 0 1
29.204063 -5.198675 -14.578709 33.052114 -0.176167 2.027601 0.070642 -0.043959 255311.000000 0 0 1
28.937063 -6.458275 -13.932109 32.759221 -0.219585 2.010077 0.074716 -0.029326 -217636.000000 0 0 1
28.398263 -7.580975 -14.860709 32.935895 -0.260869 2.038907 0.046325 -0.018129 866909.000000 0 0 1
27.015163 -7.299875 -15.167109 31.829992 -0.263911 2.067470 0.073018 -0.025446 769396.000000 0 0 1
26.593863 -8.056275 -16.247409 32.188746 -0.294149 2.099894 0.071601 -0.024965 -262763.000000 0 0 1
25.083463 -8.006575 -16.518109 31.082684 -0.308975 2.131078 0.065721 -0.023743 -280855.000000 0 0 1
24.604763 -6.773375 -17.018409 30.674080 -0.268633 2.158936 0.070358 -0.027693 170428.000000 0 0 1
23.363863 -6.728475 -17.706609 30.077674 -0.280399 2.200241 0.094172 -0.027837 223051.000000 0 0 1
23.316663 -7.276275 -19.160609 31.044160 -0.302487 2.235982 0.071494 -0.018375 -343884.000000 0 0 1
24.030363 -6.486975 -20.064909 31.970920 -0.263664 2.249261 0.064680 -0.019629 122468.000000 0 0 1
23.829663 -6.854475 -21.359109 32.726872 -0.280083 2.281870 0.080752 -0.026694 -30129.700000 0 0 1
24.214063 -5.724375 -22.351609 33.446730 -0.232145 2.302684 0.080672 -0.031336 -86058.900000 0 0 1
24.078563 -6.216475 -23.691709 34.347035 -0.252658 2.331974 0.093721 -0.038977 119234.000000 0 0 1
24.356463 -5.145075 -24.557609 34.968346 -0.208180 2.349393 0.089403 -0.036514 -100676.000000 0 0 1
24.434663 -5.505875 -26.042639 36.132900 -0.221629 2.375674 0.104410 -0.039446 -50282.300000 0 0 1
23.190063 -5.997675 -26.495259 35.717641 -0.253086 2.406543 0.099499 -0.036204 -104140.000000 0 0 1
23.097063 -6.061475 -27.887229 36.713939 -0.256647 2.433466 0.092399 -0.035483 246954.000000 0 0 1
21.726563 -6.648075 -28.301359 36.293351 -0.296942 2.465134 0.074529 -0.036898 329604.000000 0 0 1
21.629163 -8.079075 -28.080109 36.353606 -0.357479 2.453433 0.068486 -0.026673 489984.000000 0 0 1
20.269763 -8.505275 -28.043689 35.632169 -0.397291 2.476781 0.063507 -0.033432 351479.000000 0 0 1
20.191563 -10.041075 -28.079489 36.013610 -0.461478 2.464969 0.083592 -0.020737 369359.000000 0 0 1
18.988863 -10.572975 -27.518989 35.066500 -0.508048 2.473114 0.100333 -0.021608 654874.000000 0 0 1
19.192063 -11.959175 -27.129589 35.318150 -0.557254 2.446741 0.097597 -0.019779 -266655.000000 0 0 1
19.282363 -13.036475 -28.302879 36.644401 -0.594493 2.453354 0.088922 -0.013636 -290593.000000 0 0 1
18.003663 -13.364075 -28.780519 36.483539 -0.638553 2.479753 0.084126 -0.015129 -27565.300000 0 0 1
18.052363 -14.396175 -29.761659 37.668209 -0.673195 2.481769 0.067450 -0.016271 -1252990.000000 0 0 1
16.854663 -14.652675 -30.616339 37.896448 -0.715624 2.511367 0.061034 -0.017046 -334303.000000 0 0 1
15.831563 -15.372075 -29.861049 37.129790 -0.770674 2.505182 0.047556 -0.017681 597273.000000 0 0 1
14.753363 -15.678675 -30.708159 37.502981 -0.815795 2.530147 0.047550 -0.025751 -620072.000000 0 0 1
13.502763 -16.127775 -29.973049 36.617119 -0.873759 2.529684 0.058105 -0.025224 -496409.000000 0 0 1
13.712663 -17.425575 -29.458319 36.871131 -0.904077 2.496349 0.054543 -0.017930 -464467.000000 0 0 1
12.817063 -17.752075 -28.461489 35.909185 -0.945455 2.485852 0.057904 -0.019417 -661334.000000 0 0 1
13.082263 -19.067475 -27.726639 36.103749 -0.969458 2.446464 0.061059 -0.015367 597851.000000 0 0 1
14.272963 -19.120075 -26.906449 35.961809 -0.929545 2.416134 0.068326 -0.012223 630164.000000 0 0 1
14.231663 -20.200275 -26.022559 35.885441 -0.957038 2.382058 0.074656 -0.009415 -88941.800000 0 0 1
15.322163 -20.187275 -24.948109 35.562661 -0.921559 2.348332 0.066047 -0.008582 485762.000000 0 0 1
16.648663 -20.566575 -25.337729 36.635536 -0.890289 2.334521 0.064504 -0.005996 504412.000000 0 0 1
17.492163 -20.498675 -24.232909 36.240934 -0.864371 2.303203 0.063725 0.003021 78604.800000 0 0 1
18.984063 -20.884375 -24.480509 37.361037 -0.833027 2.285299 0.062705 0.001491 283164.000000 0 0 1
19.319563 -22.217975 -24.730109 38.450776 -0.855063 2.269418 0.079463 -0.009437 147001.000000 0 0 1
19.126863 -23.142675 -23.634909 38.210328 -0.880119 2.237689 0.079483 -0.030828 -333418.000000 0 0 1
19.908463 -24.493475 -23.682709 39.460713 -0.888295 2.214496 0.070154 -0.029339 218604.000000 0 0 1
21.298663 -24.460375 -23.378809 39.981392 -0.854383 2.195359 0.082826 -0.027383 432438.000000 0 0 1
21.725563 -25.780995 -23.056909 40.844593 -0.870557 2.170628 0.089112 -0.040796 -215930.000000 0 0 1
21.649363 -26.124395 -21.546509 40.192424 -0.878797 2.136587 0.100319 -0.043914 -189333.000000 0 0 1
20.323963 -26.085365 -21.029809 39.188807 -0.908909 2.137232 0.083635 -0.035585 532627.000000 0 0 1
20.376363 -26.216275 -19.614209 38.564315 -0.910088 2.104366 0.088173 -0.038187 647004.000000 0 0 1
18.993163 -26.708295 -19.051509 37.908221 -0.952637 2.097364 0.074782 -0.029165 -262429.000000 0 0 1
18.867263 -28.099365 -19.287209 38.955671 -0.979491 2.088754 0.069909 -0.025715 -17348.700000 0 0 1
17.706063 -28.730235 -18.818309 38.640132 -1.018487 2.079465 0.054882 -0.016486 -351804.000000 0 0 1
16.350263 -28.256725 -19.362109 37.956091 -1.046236 2.106119 0.052009 -0.018756 -931482.000000 0 0 1
15.730363 -27.144945 -18.715309 36.531563 -1.045590 2.108663 0.051387 -0.022741 -53018.400000 0 0 1
14.460463 -27.029165 -19.343809 36.247257 -1.079546 2.133722 0.057602 -0.009702 249006.000000 0 0 1
13.545263 -26.012285 -18.591609 34.724070 -1.090706 2.135789 0.056562 -0.020975 -174066.000000 0 0 1
13.010863 -26.506975 -17.352409 34.249210 -1.114498 2.102093 0.061506 -0.020640 -118761.000000 0 0 1
12.114763 -25.595005 -16.771409 32.911273 -1.128715 2.105510 0.075332 -0.034503 403503.000000 0 0 1
10.598663 -25.728485 -17.087109 32.653574 -1.180037 2.121497 0.089949 -0.024116 1325.260000 0 0 1
10.094063 -26.946835 -16.564809 33.202634 -1.212384 2.093126 0.096332 -0.016538 407323.000000 0 0 1
8.710163 -26.870415 -16.207709 32.566485 -1.257329 2.091719 0.084148 -0.014151 1008070.000000 0 0 1
7.727563 -27.466245 -17.264209 33.349104 -1.296538 2.114935 0.089212 -0.003807 101314.000000 0 0 1
7.687663 -26.902895 -18.516209 33.551690 -1.292458 2.155403 0.083856 -0.002211 -125986.000000 0 0 1
7.004663 -27.736645 -19.438009 34.586456 -1.323427 2.167613 0.080686 -0.000005 38741.700000 0 0 1
7.034463 -27.311315 -20.931809 35.121677 -1.318710 2.209282 0.073622 -0.009788 81339.200000 0 0 1
6.118363 -26.262405 -21.227709 34.318565 -1.341909 2.237691 0.079872 -0.016384 183598.000000 0 0 1
6.187463 -25.910435 -22.576409 34.918900 -1.336384 2.273834 0.055550 -0.009621 737806.000000 0 0 1
4.850963 -25.174775 -22.966609 34.420434 -1.380438 2.301290 0.045555 -0.013946 1665440.000000 0 0 1
3.679763 -25.980255 -23.229509 35.044605 -1.430095 2.295422 0.045338 -0.009651 982521.000000 0 0 1
2.614363 -25.257405 -23.848109 34.835380 -1.467655 2.324844 0.046604 -0.010811 48818.200000 0 0 1
1.541863 -26.214665 -24.288209 35.770142 -1.512047 2.317207 0.016904 -0.010126 -558717.000000 0 0 1
2.010963 -26.939985 -25.373749 37.062567 -1.496288 2.324878 0.013716 -0.009738 358122.000000 0 0 1
1.000163 -27.808115 -25.825829 37.963996 -1.534845 2.318929 0.036563 -0.014992 -18839.900000 0 0 1
1.588863 -28.554995 -27.041359 39.359209 -1.515211 2.328204 0.026845 -0.021021 -338029.000000 0 0 1
1.978963 -27.723505 -28.097289 39.521724 -1.499535 2.361620 0.020058 -0.020198 491771.000000 0 0 1
2.659963 -28.387735 -29.214979 40.822223 -1.477368 2.368370 0.033247 -0.026293 966313.000000 0 0 1
4.162463 -28.776015 -29.049499 41.100590 -1.427142 2.355747 0.030022 -0.027078 144307.000000 0 0 1
4.474763 -29.735365 -28.066769 41.133428 -1.421431 2.321748 0.033115 -0.036784 356711.000000 0 0 1
5.606763 -30.583025 -28.350989 42.077735 -1.389481 2.310104 0.068862 -0.038334 714393.000000 0 0 1
5.790363 -31.794805 -27.337019 42.329074 -1.390654 2.272895 0.096489 -0.050751 -418527.000000 0 0 1
4.784263 -32.751385 -27.440879 42.994700 -1.425744 2.263004 0.084432 -0.060872 -137726.000000 0 0 1
5.247363 33.803618 -26.910229 43.524474 1.416795 2.237346 0.104763 -0.067349 607373.000000 0 0 1
4.035063 32.847107 -26.661129 42.497411 1.448565 2.248953 0.132833 -0.065566 393828.000000 0 0 1
3.334763 32.409895 -27.811179 42.836709 1.468264 2.277377 0.114312 -0.065223 -512612.000000 0 0 1
2.139263 31.780540 -27.510209 42.087893 1.503584 2.283177 0.074104 -0.058079 -1004670.000000 0 0 1
1.083463 32.028177 -28.564449 42.929078 1.536981 2.298808 0.081252 -0.043148 -645281.000000 0 0 1
1.047663 31.035200 -29.561359 42.873712 1.537052 2.331593 0.106567 -0.049144 184939.000000 0 0 1
0.139163 31.425290 -30.573619 43.844206 1.566368 2.342454 0.096734 -0.042831 118939.000000 0 0 1
-0.028437 30.405170 -31.709539 43.931424 -1.569861 2.377191 0.092620 -0.045492 -288448.000000 0 0 1
1.068363 30.476220 -32.570039 44.617808 1.535755 2.389087 0.102436 -0.041419 -80458.500000 0 0 1
0.896663 29.492950 -33.589899 44.709276 1.540403 2.420820 0.117838 -0.046906 -390825.000000 0 0 1
2.184063 29.147210 33.515734 44.470602 1.496004 0.717183 0.105399 -0.035520 -590736.000000 0 0 1
2.721563 30.117360 32.669351 44.516837 1.480676 0.746802 0.101306 -0.039176 -145502.000000 0 0 1
3.789663 29.568390 31.911088 43.668854 1.443325 0.751374 0.074716 -0.041232 -349132.000000 0 0 1
3.455063 28.629720 30.702717 42.121909 1.450696 0.754080 0.087883 -0.040052 -577298.000000 0 0 1
3.045063 27.324480 31.134907 41.536515 1.459813 0.723370 0.095155 -0.042286 -202529.000000 0 0 1
4.104763 26.413580 31.397557 41.235093 1.416626 0.705283 0.079335 -0.032179 -347952.000000 0 0 1
3.634563 25.052130 31.784187 40.633162 1.426722 0.672570 0.077040 -0.041038 -373074.000000 0 0 1
3.056663 24.380630 30.673527 39.301700 1.446074 0.675390 0.091212 -0.029321 115589.000000 0 0 1
3.109063 23.013510 30.888797 38.644608 1.436512 0.644660 0.071329 -0.026737 234358.000000 0 0 1
2.128063 22.308370 29.877987 37.348175 1.475691 0.643526 0.066086 -0.010725 1809580.000000 0 0 1
0.755763 22.170970 30.360837 37.601909 1.536722 0.631017 0.059156 -0.020590 1303810.000000 0 0 1
-0.069037 21.722070 29.276707 36.455160 -1.567618 0.638336 0.063307 -0.011392 197738.000000 0 0 1
-1.481837 21.285070 29.705287 36.573955 -1.501290 0.622887 0.056385 -0.005892 -684463.000000 0 0 1
-2.319337 22.349970 30.012317 37.491862 -1.467393 0.642664 0.066897 -0.009686 -67042.900000 0 0 1
-3.622437 21.782770 30.188027 37.402248 -1.406006 0.631542 0.042500 -0.002979 600674.000000 0 0 1
-4.668837 22.917210 30.454457 38.398835 -1.369820 0.654900 0.032174 -0.010205 133181.000000 0 0 1
-4.616537 23.342620 31.800881 39.717583 -1.375543 0.642375 0.049339 -0.011598 100447.000000 0 0 1
-5.441437 24.480020 31.967864 40.630346 -1.352072 0.665193 0.046740 -0.017958 -18805.300000 0 0 1
-5.505037 25.061720 33.410792 42.126907 -1.354571 0.654917 0.083542 -0.017636 299671.000000 0 0 1
-6.699237 25.756630 33.763880 42.991667 -1.316337 0.667521 0.087663 -0.012476 282919.000000 0 0 1
-6.624937 26.300420 -32.762069 42.531812 -1.324035 2.450101 0.099428 -0.016761 152357.000000 0 0 1
-8.003437 26.695370 -32.178779 42.569609 -1.279517 2.427839 0.115836 -0.014977 78349.500000 0 0 1
-8.542337 27.890870 -32.649269 43.781810 -1.273591 2.412421 0.113182 -0.023168 1117520.000000 0 0 1
-9.900337 28.290380 -32.335229 44.090014 -1.234162 2.394093 0.103992 -0.023857 1358780.000000 0 0 1
-10.240837 28.786290 -30.940289 43.483637 -1.229005 2.362482 0.100181 -0.027756 -94019.300000 0 0 1
-9.468237 29.930160 -30.624959 43.856015 -1.264413 2.343826 0.115976 -0.027398 206038.000000 0 0 1
-9.346237 30.096720 -29.219269 42.975928 -1.269698 2.318421 0.122643 -0.033326 -85702.800000 0 0 1
-8.591837 31.333970 -28.660219 43.324883 -1.303172 2.293638 0.105822 -0.035304 -270469.000000 0 0 1
-7.229437 31.290510 -28.974059 43.253403 -1.343738 2.304827 0.089787 -0.032637 -338250.000000 0 0 1
-6.498737 32.399626 -28.464949 43.614478 -1.372843 2.281872 0.096755 -0.031305 1194060.000000 0 0 1
-4.915337 32.374017 -28.588049 43.468541 -1.420117 2.288521 0.109678 -0.033205 1042910.000000 0 0 1
-4.343737 33.557685 -28.124549 43.999733 -1.442071 2.264251 0.120919 -0.037789 -332322.000000 0 0 1
-4.407437 -33.131995 -28.992769 44.246302 1.438546 2.285321 0.125547 -0.038159 -330121.000000 0 0 1
-3.411137 -33.168345 -30.186429 44.977722 1.468313 2.306544 0.125407 -0.048710 -20175.900000 0 0 1
-3.758237 33.768451 -31.279899 46.182948 -1.459958 2.314888 0.125783 -0.036597 -134527.000000 0 0 1
-4.583237 -33.546305 -32.336439 46.818863 1.435013 2.333213 0.149843 -0.043742 136321.000000 0 0 1
-4.032837 -32.408745 -33.261709 46.614716 1.446996 2.365342 0.126053 -0.054810 -122864.000000 0 0 1
-4.082237 -31.052685 -32.711019 45.287356 1.440084 2.377917 0.112729 -0.050451 182817.000000 0 0 1
-3.279937 -30.231825 -33.527919 45.264142 1.462726 2.404933 0.098991 -0.069910 -32436.000000 0 0 1
34.115763 18.543925 12.703557 40.855144 0.497885 1.254613 0.114419 -0.034969 -463534.000000 0 0 1
35.408093 18.233225 13.101257 41.926441 0.475532 1.252992 0.116357 -0.033641 -674554.000000 0 0 1
35.413493 16.926125 13.632757 41.550707 0.445858 1.236506 0.127029 -0.017734 413252.000000 0 0 1
36.792873 16.387925 14.144357 42.688903 0.419031 1.233077 0.109566 -0.035553 1130230.000000 0 0 1
-37.139756 15.752525 13.220557 42.453347 -0.401144 1.254116 0.095592 -0.011080 752714.000000 0 0 1
37.273883 14.565325 12.602257 41.956024 0.372520 1.265718 0.132858 -0.032577 -353660.000000 0 0 1
-36.424376 13.604825 12.283957 40.776488 -0.357463 1.264792 0.142742 -0.018919 568147.000000 0 0 1
-35.684114 13.029225 13.363257 40.270254 -0.350087 1.232544 0.135248 -0.024276 257729.000000 0 0 1
-36.405626 11.936525 13.935757 40.768315 -0.316831 1.221935 0.144316 -0.027152 -111440.000000 0 0 1
-35.722929 11.302425 15.126357 40.406424 -0.306426 1.187095 0.181463 -0.042145 -175026.000000 0 0 1
-35.689973 12.060325 16.285357 41.041911 -0.325872 1.162770 0.170908 -0.032632 162548.000000 0 0 1
-34.848647 11.436225 17.233157 40.524032 -0.317095 1.131550 0.161754 -0.030261 -41361.100000 0 0 1
-34.750813 12.286125 18.513257 41.246922 -0.339833 1.105330 0.153141 -0.032810 725690.000000 0 0 1
-36.015316 12.562025 19.160257 42.685160 -0.335602 1.105291 0.161865 -0.041942 1064280.000000 0 0 1
-35.742151 13.292525 20.354257 43.226015 -0.356051 1.080509 0.156567 -0.041258 47090.600000 0 0 1
-37.072596 13.523225 21.083057 44.740924 -0.349778 1.080117 0.176043 -0.059318 -159518.000000 0 0 1
37.231433 12.386125 21.645957 44.812310 0.321162 1.066678 0.150030 -0.054415 -107703.000000 0 0 1
36.156853 12.598225 22.515457 44.418229 0.335278 1.039215 0.156861 -0.060264 312349.000000 0 0 1
35.498433 11.306625 23.217427 43.897921 0.308351 1.013497 0.144199 -0.050207 364387.000000 0 0 1
36.389523 10.827025 24.207507 45.026939 0.289190 1.003181 0.129207 -0.040089 56635.000000 0 0 1
36.157673 11.439825 25.445937 45.669931 0.306422 0.979822 0.121267 -0.034064 -1817800.000000 0 0 1
37.321693 11.320425 26.461537 47.130391 0.294500 0.974655 0.100895 -0.032417 783154.000000 0 0 1
-36.402226 12.142625 26.256147 46.496781 -0.321962 0.970742 0.128765 -0.039147 410668.000000 0 0 1
-35.707091 11.907625 25.076157 45.228327 -0.321883 0.983113 0.126580 -0.044761 -1686350.000000 0 0 1
-34.916216 13.209725 24.619337 44.718572 -0.361684 0.987786 0.137056 -0.043817 263681.000000 0 0 1
-33.608086 13.356725 25.109587 44.027229 -0.378285 0.963902 0.124242 -0.038813 -309512.000000 0 0 1
-33.573726 13.853925 26.459797 44.936034 -0.391357 0.941183 0.099664 -0.036225 -710919.000000 0 0 1
-32.234256 14.325125 27.023117 44.435406 -0.418193 0.917076 0.089991 -0.024418 -416723.000000 0 0 1
-31.707006 15.585725 26.615457 44.233829 -0.456869 0.925170 0.109738 -0.025476 58607.800000 0 0 1
-31.696576 16.639325 27.549807 45.172247 -0.483413 0.914883 0.115253 -0.021209 -19281.700000 0 0 1
-31.121956 17.982525 27.002077 44.956196 -0.523942 0.926506 0.108220 -0.013817 -10430.900000 0 0 1
-31.965666 18.627825 26.082757 45.267095 -0.527635 0.956729 0.080080 -0.032085 27500.000000 0 0 1
-31.387666 19.841425 25.713867 45.167142 -0.563718 0.965136 0.093723 -0.033721 170374.000000 0 0 1
-32.373766 20.788825 24.909047 45.833357 -0.570837 0.996231 0.099690 -0.011862 -71347.300000 0 0 1
-33.450426 21.205625 25.696047 47.211189 -0.565004 0.995267 0.064868 -0.016909 138447.000000 0 0 1
-34.327983 22.120625 25.029317 47.897799 -0.572422 1.020949 0.066782 -0.007431 -155248.000000 0 0 1
-33.924846 23.646925 24.985647 48.315161 -0.608736 1.027292 0.079067 -0.012917 -549922.000000 0 0 1
-34.958875 24.449025 24.513337 49.201438 -0.610300 1.049247 0.091294 -0.010669 -24004.500000 0 0 1
-34.577875 25.800925 24.531897 49.629942 -0.641045 1.053771 0.091737 -0.009218 202983.000000 0 0 1
-35.569147 26.578025 23.645957 50.305933 -0.641720 1.081457 0.112640 -0.013592 48840.700000 0 0 1
-35.404426 26.337325 22.238657 49.413419 -0.639585 1.103972 0.114238 -0.025432 942531.000000 0 0 1
-36.518506 26.769725 21.398257 50.080983 -0.632562 1.129322 0.120657 -0.034252 1033430.000000 0 0 1
-36.226616 26.464625 19.862757 49.063970 -0.630923 1.153999 0.145275 -0.053655 174312.000000 0 0 1
-36.278746 25.114725 19.521757 48.249309 -0.605520 1.154253 0.146964 -0.056355 -9014.140000 0 0 1
-35.876209 24.940925 18.198457 47.332187 -0.607493 1.176148 0.147823 -0.061494 -261938.000000 0 0 1
-36.148406 23.570625 17.593657 46.602772 -0.577816 1.183676 0.145102 -0.045183 -361256.000000 0 0 1
37.404393 23.359225 17.221357 47.342551 0.558243 1.198494 0.150524 -0.054272 -785059.000000 0 0 1
37.435903 22.337525 16.264757 46.529068 0.537980 1.213694 0.128791 -0.046468 -294825.000000 0 0 1
36.193063 22.225325 15.400457 45.178280 0.550706 1.222942 0.126584 -0.043412 -22413.600000 0 0 1
35.011063 21.754425 16.029757 44.226493 0.555976 1.199904 0.146197 -0.053111 -74296.200000 0 0 1
33.926073 21.722825 15.147157 43.038308 0.569525 1.211147 0.144171 -0.049102 -725215.000000 0 0 1
32.781903 20.847325 15.656557 41.885462 0.566428 1.187700 0.128466 -0.051009 266344.000000 0 0 1
31.999393 21.292525 16.785057 41.941279 0.587128 1.159057 0.127030 -0.049035 493630.000000 0 0 1
31.009093 22.270425 16.501157 41.591151 0.622830 1.162826 0.117223 -0.036453 63407.500000 0 0 1
30.249443 22.781325 17.753557 41.823515 0.645492 1.132401 0.107039 -0.029224 220003.000000 0 0 1
31.031583 23.569825 18.629457 43.192042 0.649581 1.124844 0.078067 -0.029202 39401.000000 0 0 1
30.248673 24.099025 19.678657 43.393488 0.672724 1.100115 0.072537 -0.013065 485551.000000 0 0 1
31.259813 24.661025 20.707757 44.879319 0.667939 1.091213 0.074652 -0.019697 149778.000000 0 0 1
32.069813 25.592525 20.084757 45.682028 0.673536 1.115571 0.089016 -0.032950 -207094.000000 0 0 1
33.044343 26.065725 20.996557 47.034095 0.667881 1.108045 0.094547 -0.033425 387419.000000 0 0 1
34.094043 27.118925 20.500557 48.146783 0.671939 1.130958 0.108035 -0.042393 187409.000000 0 0 1
35.073033 27.636125 21.351857 49.495200 0.667356 1.124761 0.106190 -0.030866 -203169.000000 0 0 1
34.664913 28.530925 22.371757 50.161394 0.688638 1.108510 0.069420 -0.022051 284069.000000 0 0 1
35.678653 28.708225 23.604217 51.519778 0.677560 1.094874 0.057617 -0.017708 715596.000000 0 0 1
36.777403 29.556525 23.368827 52.652328 0.676969 1.110925 0.089975 -0.024596 -388126.000000 0 0 1
-37.348096 29.726425 24.527127 53.666755 -0.672254 1.096147 0.088071 -0.008401 265493.000000 0 0 1
-36.094856 30.667025 24.419367 53.287996 -0.704275 1.094768 0.100163 -0.024938 195033.000000 0 0 1
-34.956129 30.017625 23.931117 51.920007 -0.709536 1.091762 0.105612 -0.030233 -605200.000000 0 0 1
-33.892256 30.892425 24.172287 51.839429 -0.739127 1.085702 0.104660 -0.029850 164234.000000 0 0 1
-32.432966 30.599225 23.722017 50.506870 -0.756314 1.081869 0.111502 -0.033117 22036.000000 0 0 1
-32.201106 30.482025 22.328757 49.645125 -0.757980 1.104291 0.098418 -0.028751 157122.000000 0 0 1
-32.614486 29.220025 21.652357 48.850170 -0.730557 1.111586 0.110787 -0.030429 -157833.000000 0 0 1
-32.189616 27.844125 22.219857 48.012381 -0.713140 1.089652 0.101462 -0.019469 -270418.000000 0 0 1
-30.816026 27.656425 21.929857 46.855351 -0.731415 1.083733 0.076435 -0.022281 284381.000000 0 0 1
-30.175336 26.590825 22.620257 46.144327 -0.722337 1.058469 0.070505 -0.024477 -39548.600000 0 0 1
-29.820996 26.779725 24.134807 46.786049 -0.731718 1.028791 0.083060 -0.011557 -558715.000000 0 0 1
-30.966706 26.810325 24.963447 47.967740 -0.713584 1.023452 0.066585 -0.007436 -57997.400000 0 0 1
-30.704946 27.112825 26.319557 48.688993 -0.723350 0.999688 0.075991 -0.012555 -1094210.000000 0 0 1
-31.901136 27.380725 27.176477 50.059440 -0.709293 0.996929 0.071181 -0.011236 -750166.000000 0 0 1
-32.755396 26.291025 27.425927 50.162889 -0.676353 0.992334 0.055023 -0.008942 556099.000000 0 0 1
-33.697116 26.557125 28.498197 51.506541 -0.667450 0.984484 0.043540 -0.005053 569839.000000 0 0 1
-34.091678 25.280725 29.302737 51.575265 -0.638072 0.966534 0.032333 0.001412 -358964.000000 0 0 1
-33.213516 24.814525 30.265747 51.331411 -0.641656 0.940215 0.024405 0.002032 -276822.000000 0 0 1
-33.789026 23.657025 30.882697 51.527605 -0.610819 0.928117 0.009318 -0.005252 90283.200000 0 0 1
-32.875796 23.019225 31.946175 51.295816 -0.610852 0.898501 0.025048 -0.010929 -494217.000000 0 0 1
-31.771016 22.343125 31.353227 49.916305 -0.612907 0.891667 0.041468 -0.008883 259299.000000 0 0 1
-31.058046 21.513925 32.284742 49.696637 -0.605810 0.863690 0.043251 -0.011023 161076.000000 0 0 1
-30.116786 22.221625 33.286698 50.088179 -0.635679 0.843889 0.042917 -0.007052 -804667.000000 0 0 1
-30.792806 23.002825 -33.609399 51.057992 -0.641591 2.289300 0.042549 -0.012071 56132.700000 0 0 1
-31.055466 22.505325 -32.318499 50.153933 -0.627099 2.271017 0.035585 -0.005895 -166152.000000 0 0 1
-29.934036 22.734125 -31.281689 48.902259 -0.649537 2.264875 0.056728 -0.018048 -209877.000000 0 0 1
-29.838226 24.086825 -30.879219 49.234348 -0.679144 2.248735 0.054847 -0.010821 129902.000000 0 0 1
-29.004706 24.323225 -29.758969 48.150685 -0.697836 2.237041 0.067157 -0.009815 -144451.000000 0 0 1
-29.424576 25.580525 -28.964629 48.570759 -0.715626 2.209729 0.055364 -0.010932 -508139.000000 0 0 1
-29.323406 26.880625 -29.613539 49.592255 -0.741963 2.210728 0.064217 -0.010469 434217.000000 0 0 1
-30.201316 27.134025 -30.721169 50.913309 -0.731952 2.218556 0.045046 -0.001346 46737.800000 0 0 1
-29.808246 28.402325 -31.410299 51.786392 -0.761251 2.222492 0.057543 -0.003537 102894.000000 0 0 1
-30.220296 29.478625 -30.602879 52.142035 -0.772975 2.198038 0.057441 -0.010401 472358.000000 0 0 1
-29.475516 30.620525 -31.050859 52.636284 -0.804449 2.201748 0.069217 -0.024275 182973.000000 0 0 1
-29.861446 31.925925 -30.311759 53.195614 -0.818798 2.177079 0.060329 -0.017741 -323057.000000 0 0 1
-29.436376 31.943625 -28.978179 52.217145 -0.826223 2.159105 0.054863 -0.012202 60739.200000 0 0 1
-29.703156 33.207825 -28.392549 52.831562 -0.841049 2.138167 0.037296 -0.017532 -597367.000000 0 0 1
-28.932006 33.392625 -27.080929 51.821859 -0.856847 2.120667 0.028402 -0.013589 387434.000000 0 0 1
-27.554146 33.732025 -27.213019 51.357851 -0.885863 2.129244 0.023993 -0.008985 403641.000000 0 0 1
-27.323776 -32.635520 -27.376749 50.607828 0.873757 2.142373 0.027803 0.002171 -372113.000000 0 0 1
-27.651516 -31.667820 -26.185309 49.529057 0.853001 2.127848 0.033451 0.000243 153004.000000 0 0 1
-29.033336 -31.339620 -26.180019 50.104887 0.823580 2.120582 0.041890 -0.016517 66623.800000 0 0 1
-29.303836 -30.420520 -25.137569 49.153028 0.804093 2.107626 0.041642 -0.015188 254836.000000 0 0 1
-30.806306 -30.066020 -24.992409 49.775642 0.773237 2.096823 0.028176 -0.020171 115891.000000 0 0 1
-31.366616 -29.390620 -26.072849 50.273915 0.752887 2.116028 0.031786 -0.017202 1115240.000000 0 0 1
-32.809956 -29.412920 -25.926709 51.125407 0.730858 2.102636 0.027087 -0.014262 1128790.000000 0 0 1
-33.461706 -28.605420 -27.051769 51.669662 0.707315 2.121811 0.039793 -0.015198 613343.000000 0 0 1
-34.860668 -28.841520 -27.274689 52.829992 0.691189 2.113290 0.049472 -0.013646 528780.000000 0 0 1
-35.346698 -28.029720 -28.247969 53.225952 0.670454 2.130244 0.059310 -0.018607 294597.000000 0 0 1
-36.882486 -28.229420 -28.420259 54.451161 0.653277 2.119920 0.043247 -0.019745 665657.000000 0 0 1
37.157603 -27.769020 -27.358349 53.854295 -0.641791 2.103666 0.040092 -0.006343 61109.400000 0 0 1
35.813103 -27.838720 -27.822259 53.213257 -0.660766 2.120981 0.043405 -0.010289 405452.000000 0 0 1
34.842473 -27.213520 -26.765599 51.681436 -0.663075 2.115186 0.048589 0.000801 32718.900000 0 0 1
34.687843 -27.997820 -25.602769 51.406479 -0.679077 2.092140 0.033532 0.000913 -237730.000000 0 0 1
33.898283 -27.352920 -24.668409 50.058028 -0.678941 2.086097 0.041959 0.008332 -386756.000000 0 0 1
33.600143 -28.093220 -23.358409 49.636819 -0.696371 2.060751 0.035350 0.004458 -74858.400000 0 0 1
32.800713 -29.237220 -23.448209 49.804822 -0.728021 2.060996 0.045837 0.001816 -43504.500000 0 0 1
32.280363 -29.789320 -22.230109 49.230104 -0.745287 2.039304 0.053982 -0.008538 463477.000000 0 0 1
33.325323 -30.169220 -21.133609 49.672813 -0.735732 2.010262 0.038303 -0.004512 -1031980.000000 0 0 1
34.374033 -31.062920 -21.458609 51.058310 -0.734841 2.004546 0.023480 -0.011007 73209.400000 0 0 1
35.508013 -31.035720 -20.634709 51.476461 -0.718291 1.983249 0.017194 -0.010176 618003.000000 0 0 1
36.296293 -29.653520 -20.611109 51.201269 -0.685012 1.985098 0.004567 0.001870 -815264.000000 0 0 1
35.504803 -28.560320 -20.137409 49.817649 -0.677422 1.986925 0.003046 0.012148 -249226.000000 0 0 1
36.143413 -27.330920 -20.346609 49.672024 -0.647444 1.992833 -0.008108 0.016646 -366338.000000 0 0 1
35.230743 -26.196420 -19.957209 48.226008 -0.639371 1.997450 0.003849 0.019006 -323688.000000 0 0 1
34.133593 -26.052420 -20.792209 47.708979 -0.651926 2.021738 0.017725 0.019133 180820.000000 0 0 1
33.023953 -25.294620 -20.294309 46.284535 -0.653630 2.024690 0.034046 0.017178 1090560.000000 0 0 1
31.814603 -25.141120 -21.276109 45.792113 -0.668760 2.054006 0.059509 0.005626 387136.000000 0 0 1
31.042983 -26.283420 -21.481409 45.999303 -0.702562 2.056685 0.087644 -0.000806 -397273.000000 0 0 1
29.873993 -25.969320 -22.198109 45.383004 -0.715590 2.081886 0.101912 -0.012080 -59146.400000 0 0 1
29.076363 -27.214220 -22.575609 45.778890 -0.752329 2.086497 0.103757 -0.013614 150758.000000 0 0 1
28.428263 -27.892520 -21.465409 45.242928 -0.775886 2.065133 0.097980 -0.015950 301535.000000 0 0 1
27.975063 -29.220320 -21.821009 45.962894 -0.807167 2.065479 0.093937 -0.014523 320027.000000 0 0 1
27.411063 -30.106720 -20.637209 45.647293 -0.832230 2.039916 0.099380 -0.019474 381844.000000 0 0 1
28.403463 -30.441720 -19.668209 46.046644 -0.820022 2.012120 0.098064 -0.023424 143187.000000 0 0 1
29.063163 -31.663220 -19.994709 47.402693 -0.828188 2.006232 0.102345 -0.015122 368607.000000 0 0 1
30.048073 -32.100720 -18.852809 47.841104 -0.818414 1.975854 0.078587 -0.026351 38062.400000 0 0 1
29.469063 -32.559020 -17.631409 47.322109 -0.835172 1.952587 0.090232 -0.024465 -190614.000000 0 0 1
28.861763 -31.534720 -16.890509 45.964434 -0.829626 1.947083 0.076608 -0.013485 -125352.000000 0 0 1
28.212363 -32.032320 -15.602409 45.447135 -0.848721 1.921234 0.087415 -0.010489 266381.000000 0 0 1
26.974063 -32.715820 -15.819609 45.256877 -0.881296 1.927889 0.085892 -0.005514 237424.000000 0 0 1
26.556263 -33.207020 -14.571509 44.947415 -0.896227 1.900952 0.075629 -0.005879 -463327.000000 0 0 1
25.032263 -33.368920 -14.545809 44.177817 -0.927188 1.906312 0.058631 0.000021 -554531.000000 0 0 1
24.360463 -32.182520 -14.665209 42.944325 -0.922864 1.919302 0.053128 0.004311 -188673.000000 0 0 1
22.960563 -32.409320 -14.676209 42.343152 -0.954418 1.924742 0.057346 -0.002801 243097.000000 0 0 1
-0.396746 -7.106575 -29.188629 30.043916 1.515026 2.902411 0.122412 -0.030098 163508.000000 0 0 1
-0.047746 -8.451575 -29.050259 30.254734 1.565147 2.858474 0.119351 -0.025602 -23006.100000 0 0 1
-0.256746 -9.079375 -30.261079 31.594839 1.542526 2.849994 0.112505 -0.040386 -68614.300000 0 0 1
0.105954 -10.594275 -30.124369 31.933172 -1.560796 2.803402 0.139725 -0.030414 264088.000000 0 0 1
1.447054 -10.856875 -29.758879 31.710512 -1.438293 2.788925 0.089903 -0.036516 -26910.500000 0 0 1
1.632354 -12.202875 -29.518679 31.983232 -1.437818 2.746452 0.104060 -0.041082 30962.500000 0 0 1
3.044854 -12.473575 -28.959329 31.678130 -1.331374 2.724262 0.093727 -0.036390 -154567.000000 0 0 1
4.086754 -12.137575 -29.903739 32.530845 -1.246016 2.736949 0.109763 -0.042355 1169680.000000 0 0 1
5.418654 -12.314075 -29.390409 32.323279 -1.156258 2.712310 0.099187 -0.041520 1149890.000000 0 0 1
5.868854 -13.811775 -29.138479 32.775898 -1.168996 2.666000 0.089158 -0.043986 -1044740.000000 0 0 1
5.277854 -14.441775 -28.028609 31.969102 -1.220418 2.639839 0.086856 -0.039189 -241340.000000 0 0 1
5.999754 -15.520375 -27.475199 32.121109 -1.201918 2.597047 0.088060 -0.035526 -247857.000000 0 0 1
5.567354 -16.865375 -28.036609 33.188669 -1.251954 2.576921 0.042319 -0.031815 -424896.000000 0 0 1
6.042154 -17.136575 -29.359389 34.527432 -1.231818 2.587391 0.066330 -0.046129 136570.000000 0 0 1
5.640654 -18.432275 -29.672449 35.383894 -1.273825 2.565479 0.046051 -0.033187 -97760.800000 0 0 1
6.199354 -18.927475 -31.033359 36.874797 -1.254276 2.571012 0.071573 -0.045180 -74050.000000 0 0 1
7.588654 -19.157875 -31.048209 37.263965 -1.193647 2.555660 0.066530 -0.033276 -292461.000000 0 0 1
7.885354 -19.734075 -32.270489 38.639319 -1.190652 2.559242 0.069453 -0.027610 -240702.000000 0 0 1
9.388754 -19.618875 -32.570499 39.164861 -1.124450 2.552825 0.070542 -0.024962 -169912.000000 0 0 1
9.709054 -18.287975 -32.897189 38.870822 -1.082737 2.579836 0.076226 -0.032200 -131505.000000 0 0 1
10.612054 -18.250275 33.858087 39.900605 -1.044111 0.557537 0.067195 -0.025475 -318817.000000 0 0 1
10.843054 -16.830475 33.432547 38.968859 -0.998473 0.539570 0.068601 -0.017712 -38315.400000 0 0 1
9.747954 -16.219975 32.761795 37.834448 -1.029653 0.523799 0.082718 -0.018650 165548.000000 0 0 1
9.993354 -14.909275 32.249971 36.908187 -0.980298 0.507856 0.094267 -0.012266 -434875.000000 0 0 1
9.060254 -14.520775 31.144747 35.537817 -1.012952 0.502496 0.127144 -0.030479 -314541.000000 0 0 1
9.317554 -15.213775 29.960547 34.869904 -1.021279 0.537074 0.140407 -0.026787 440588.000000 0 0 1
8.174754 -15.109675 29.100987 33.793437 -1.074868 0.533282 0.148282 -0.034829 414295.000000 0 0 1
8.273654 -15.840175 27.735627 32.994386 -1.089452 0.572376 0.126888 -0.031747 -383319.000000 0 0 1
7.728854 -17.153375 27.790217 33.559941 -1.147466 0.595127 0.121957 -0.024285 274901.000000 0 0 1
7.918854 -17.948075 26.680397 33.116239 -1.155277 0.634009 0.101948 -0.015507 -56655.700000 0 0 1
7.454854 -19.401175 26.888797 33.985112 -1.203943 0.658038 0.104460 -0.020767 -382412.000000 0 0 1
8.225154 -20.066475 27.851537 35.299075 -1.181789 0.661591 0.105901 -0.022871 12644.200000 0 0 1
7.660754 -21.194175 28.481847 36.319359 -1.223953 0.669381 0.094755 -0.027095 -368176.000000 0 0 1
8.184854 -21.329575 29.957297 37.674690 -1.204392 0.651530 0.095721 -0.026540 200525.000000 0 0 1
7.545754 -20.476275 30.939537 37.861210 -1.217726 0.614290 0.124082 -0.029749 445590.000000 0 0 1
7.646154 -19.078675 30.819377 37.044481 -1.189627 0.588173 0.111667 -0.029851 -431168.000000 0 0 1
7.126754 -18.288075 32.030210 37.565658 -1.199206 0.549767 0.114637 -0.026664 -621110.000000 0 0 1
5.773054 -18.533875 32.273372 37.661695 -1.268835 0.541516 0.123512 -0.036604 -458383.000000 0 0 1
5.272654 -17.530175 33.135783 37.856150 -1.278628 0.504724 0.129623 -0.029745 -91980.600000 0 0 1
3.817854 -17.650875 33.597848 38.143739 -1.357780 0.493200 0.120573 -0.038757 -244474.000000 0 0 1
3.639754 -18.613875 -33.219339 38.252433 -1.377693 2.622812 0.121598 -0.040675 559366.000000 0 0 1
2.274354 -18.917375 -32.900329 38.019355 -1.451145 2.616659 0.121423 -0.054334 601416.000000 0 0 1
1.917654 -19.664775 -31.607149 37.274557 -1.473586 2.582912 0.075067 -0.026043 13894.900000 0 0 1
0.683854 -20.372175 -31.807109 37.778106 -1.537241 2.571675 0.090033 -0.029421 527567.000000 0 0 1
0.216354 -20.959175 -30.606839 37.095989 -1.560474 2.541125 0.084088 -0.035332 -27967.600000 0 0 1
-0.520346 -20.023675 -29.656079 35.786888 1.544816 2.547552 0.084714 -0.029611 -529728.000000 0 0 1
-1.680546 -19.470075 -30.268879 36.029336 1.484695 2.568296 0.101979 -0.030921 -32267.600000 0 0 1
-2.226846 -18.385175 -29.581959 34.900799 1.450262 2.582245 0.134384 -0.039534 -72850.600000 0 0 1
-1.584946 -17.038675 -29.913519 34.462256 1.478043 2.621973 0.114928 -0.039715 -279055.000000 0 0 1
-2.452646 -16.051175 -29.429289 33.611586 1.419168 2.637410 0.122503 -0.036745 -116018.000000 0 0 1
-2.238046 -14.778175 -29.998869 33.516196 1.420496 2.679353 0.119450 -0.034099 -538995.000000 0 0 1
-3.342946 -13.843775 -29.631299 32.876120 1.333856 2.693561 0.127689 -0.022497 -532280.000000 0 0 1
-3.181546 -13.423075 -28.306879 31.489372 1.338070 2.688127 0.117311 -0.029952 -844015.000000 0 0 1
-4.266746 -12.712075 -27.883719 30.940325 1.246967 2.693349 0.105175 -0.030457 -1126430.000000 0 0 1
-4.276446 -12.569875 -26.395799 29.547046 1.242866 2.675538 0.099791 -0.024583 -359833.000000 0 0 1
-4.533546 -13.783275 -25.664479 29.482150 1.253026 2.627032 0.102877 -0.021881 131392.000000 0 0 1
-4.635946 -13.583575 -24.219809 28.153235 1.241901 2.606625 0.089232 -0.014149 183558.000000 0 0 1
-5.806846 -12.675475 -23.736609 27.528416 1.141213 2.610508 0.073302 -0.013406 -744145.000000 0 0 1
-7.072746 -13.155175 -24.000309 28.268307 1.077492 2.584921 0.059208 -0.007292 -1336650.000000 0 0 1
-8.032646 -12.157175 -23.925209 28.013138 0.986913 2.594559 0.030792 -0.010544 508894.000000 0 0 1
-9.500346 -12.691075 -24.110009 28.855025 0.928202 2.559942 0.052950 -0.013810 679108.000000 0 0 1
-9.917746 -13.585275 -23.036609 28.523792 0.940195 2.510915 0.041906 -0.015351 171388.000000 0 0 1
-11.161046 -14.181575 -23.377009 29.532534 0.904026 2.484167 0.054436 -0.012611 50263.600000 0 0 1
-11.739646 -14.970775 -22.177009 29.219225 0.905782 2.432552 0.058122 -0.007615 -193376.000000 0 0 1
-10.974846 -16.084875 -21.770009 29.207939 0.972043 2.411849 0.060664 -0.010456 -479855.000000 0 0 1
-11.703546 -17.248175 -21.466609 29.921360 0.974620 2.370909 0.064056 -0.012424 60125.100000 0 0 1
-12.373046 -18.106875 -22.585809 31.481263 0.971343 2.370912 0.062339 -0.014951 275987.000000 0 0 1
-13.520346 -17.433375 -23.044209 31.902317 0.911147 2.377971 0.056008 -0.012938 -387724.000000 0 0 1
-14.070646 -18.017675 -24.245709 33.323776 0.907789 2.385584 0.051706 -0.015788 966690.000000 0 0 1
-15.358646 -17.345075 -24.858609 33.980730 0.846064 2.391389 0.058959 -0.021924 1072710.000000 0 0 1
-16.478446 -17.365675 -23.957009 33.868039 0.811607 2.356557 0.075513 -0.019275 1329350.000000 0 0 1
-17.666946 -17.013275 -24.721509 34.824208 0.766552 2.360145 0.084732 -0.020813 1199710.000000 0 0 1
-18.454146 -15.706075 -24.316909 34.329992 0.705125 2.357924 0.090457 -0.018484 263447.000000 0 0 1
-19.130246 -15.779575 -23.050209 33.856660 0.689711 2.319675 0.096823 -0.016232 198080.000000 0 0 1
-19.802546 -14.560975 -22.854209 33.563040 0.634032 2.319833 0.096419 -0.018247 200150.000000 0 0 1
-20.618646 -14.565375 -21.526809 33.176531 0.615020 2.276877 0.092881 -0.022213 712668.000000 0 0 1
-19.742946 -14.548475 -20.359409 31.873932 0.635061 2.263666 0.096765 -0.015449 772845.000000 0 0 1
-20.421646 -14.287275 -19.136909 31.422780 0.610467 2.225613 0.091183 -0.020021 -89841.700000 0 0 1
-21.052946 -12.905075 -18.880109 31.084176 0.549910 2.223563 0.093847 -0.025367 698732.000000 0 0 1
-22.417746 -12.804075 -19.334209 32.253857 0.518942 2.213596 0.093012 -0.028274 846613.000000 0 0 1
-23.140246 -11.915275 -18.479209 31.920619 0.475509 2.188189 0.096001 -0.025621 189119.000000 0 0 1
-24.603846 -11.774875 -18.942809 33.208838 0.446364 2.177807 0.109736 -0.033073 -101147.000000 0 0 1
-24.659346 -11.026675 -20.118309 33.681111 0.420490 2.210948 0.097412 -0.036815 -632030.000000 0 0 1
-25.973556 -10.781775 -20.482309 34.790764 0.393460 2.200281 0.098064 -0.039302 -948186.000000 0 0 1
-26.354896 -9.611675 -21.391809 35.278525 0.349712 2.222283 0.100405 -0.026629 -137612.000000 0 0 1
-25.932466 -9.603175 -22.757409 35.813592 0.354657 2.259375 0.082402 -0.023096 390621.000000 0 0 1
-26.940286 -8.996975 -23.540109 36.889853 0.322314 2.262849 0.070924 -0.026873 -140606.000000 0 0 1
-26.885836 -9.635675 -24.946009 37.920941 0.344132 2.288747 0.070537 -0.014595 695479.000000 0 0 1
-25.710286 -9.365075 -25.724449 37.556233 0.349316 2.325343 0.058844 -0.026601 74167.800000 0 0 1
-24.700946 -10.302875 -25.646109 37.067625 0.395164 2.334877 0.067640 -0.011472 -171734.000000 0 0 1
-23.637046 -10.157475 -26.795899 37.147065 0.405868 2.376541 0.077250 -0.021704 301409.000000 0 0 1
-24.226746 -10.423975 -28.040699 38.495133 0.406324 2.386812 0.087102 -0.011671 -57232.900000 0 0 1
-23.358146 -10.338475 -29.144519 38.754226 0.416689 2.421940 0.090076 -0.009519 350137.000000 0 0 1
-24.070146 -10.826675 -30.479529 40.318612 0.422685 2.427926 0.084266 -0.010955 609905.000000 0 0 1
-25.048586 -9.959575 -31.046629 41.115908 0.378445 2.426603 0.071856 -0.014062 395831.000000 0 0 1
-24.526446 -8.898975 -31.858599 41.178982 0.348060 2.455396 0.067884 -0.013468 -99719.800000 0 0 1
-25.672396 -8.015675 -32.471509 42.163038 0.302638 2.449859 0.076589 -0.023533 19255.500000 0 0 1
-26.545876 -8.615075 -33.433989 43.551517 0.313812 2.446022 0.089458 -0.034127 1731900.000000 0 0 1
-27.603156 -9.457875 -32.873509 43.955127 0.330101 2.415671 0.094985 -0.032824 859978.000000 0 0 1
-28.696826 -8.776275 -31.989359 43.861713 0.296794 2.388128 0.084840 -0.019592 -49178.200000 0 0 1
-30.065926 -9.107675 -32.157079 44.955393 0.294137 2.367865 0.091021 -0.019212 399777.000000 0 0 1
-30.868456 -8.500775 -31.166349 44.681831 0.268726 2.342723 0.095579 -0.014714 928781.000000 0 0 1
-32.381986 -8.889475 -31.374239 45.956051 0.267919 2.322249 0.083049 -0.020367 762886.000000 0 0 1
-32.671966 -10.231075 -31.056209 46.223591 0.303473 2.307526 0.081959 -0.020587 633856.000000 0 0 1
-34.032217 -10.632475 -31.247299 47.409229 0.302815 2.290414 0.063190 -0.019907 540855.000000 0 0 1
-34.232151 -12.157775 -31.076649 47.805959 0.341261 2.278457 0.070103 -0.023028 -182565.000000 0 0 1
-35.555318 -12.577875 -31.323969 49.026264 0.340016 2.263893 0.058910 -0.018769 -212538.000000 0 0 1
-35.689722 -13.986575 -31.241309 49.450985 0.373499 2.254622 0.058922 -0.023448 699841.000000 0 0 1
-37.107076 -14.498275 -30.808589 50.361733 0.372476 2.229062 0.055410 -0.024994 655780.000000 0 0 1
-37.241726 -14.327375 -29.439629 49.587413 0.367259 2.206435 0.050974 -0.020427 49937.000000 0 0 1
37.216093 -15.550475 -28.846259 49.587917 -0.395793 2.191637 0.040578 -0.014431 -63893.000000 0 0 1
37.293893 -15.550475 -27.303369 48.766030 -0.395050 2.165043 0.049863 -0.011450 1387160.000000 0 0 1
-36.187696 -15.538375 -26.884339 47.683939 0.405577 2.169779 0.051726 -0.019244 1220160.000000 0 0 1
-36.005870 -15.676175 -25.456679 46.799654 0.410628 2.145934 0.068047 -0.025843 -13210.400000 0 0 1
-34.624606 -15.295775 -24.872709 45.293219 0.415981 2.152141 0.081506 -0.032618 -884353.000000 0 0 1
-33.658546 -16.167575 -25.254769 45.078726 0.447797 2.165468 0.077517 -0.028904 -856840.000000 0 0 1
-32.455576 -15.800575 -24.600009 43.682754 0.453062 2.168991 0.094103 -0.017077 726579.000000 0 0 1
-31.197326 -16.686975 -24.935109 43.283806 0.491164 2.184726 0.080390 -0.022700 571189.000000 0 0 1
-30.952726 -17.868975 -24.155809 43.137855 0.523560 2.165143 0.087708 -0.034174 -80977.500000 0 0 1
-31.772326 -18.979575 -24.482109 44.374301 0.538477 2.155219 0.070649 -0.034651 -269530.000000 0 0 1
-31.572386 -20.251275 -23.613509 44.322990 0.570323 2.132655 0.069288 -0.033031 231369.000000 0 0 1
-30.382746 -20.956175 -23.969609 44.009256 0.603806 2.146767 0.070646 -0.023718 166234.000000 0 0 1
-30.312836 -22.175775 -23.268109 44.181873 0.631597 2.125444 0.074066 -0.028471 -842333.000000 0 0 1
-29.013226 -22.976375 -23.336009 43.752147 0.669799 2.133374 0.071855 -0.026909 272156.000000 0 0 1
-27.845346 -22.430375 -22.708209 42.357381 0.678106 2.136618 0.085113 -0.031756 336322.000000 0 0 1
-27.869876 -22.119175 -21.333609 41.486271 0.670862 2.110909 0.112735 -0.038146 -730602.000000 0 0 1
-27.803096 -23.309075 -20.356109 41.601638 0.697699 2.082095 0.105941 -0.028201 -14633.800000 0 0 1
-27.867376 -22.879075 -18.983609 40.748253 0.687414 2.055420 0.115714 -0.029705 15975.100000 0 0 1
-27.979486 -24.012475 -18.210209 41.122527 0.709245 2.029547 0.110622 -0.003484 -1686.370000 0 0 1
-28.040336 -23.673675 -16.707009 40.321551 0.701159 1.998019 0.104204 -0.000542 -443101.000000 0 0 1
-29.173176 -22.955375 -16.377209 40.573838 0.666681 1.986288 0.111586 -0.006713 -822698.000000 0 0 1
-28.880296 -21.713175 -15.807909 39.438857 0.644674 1.983209 0.115731 -0.016661 336103.000000 0 0 1
-30.145236 -21.005675 -15.239909 39.777235 0.608586 1.963980 0.111172 -0.001434 567822.000000 0 0 1
-31.078276 -20.584175 -16.205509 40.647091 0.584997 1.980882 0.111535 -0.004889 -641867.000000 0 0 1
-32.267536 -20.087675 -15.668509 41.112172 0.556825 1.961799 0.119392 -0.008539 -326449.000000 0 0 1
-33.063176 -19.293575 -16.715109 41.770928 0.528226 1.982489 0.116674 -0.031785 -268819.000000 0 0 1
-34.006656 -20.118875 -17.369309 43.161495 0.534232 1.984962 0.055561 -0.021980 -451063.000000 0 0 1
-34.623155 -19.428175 -18.430609 43.771042 0.511350 2.005419 0.056693 -0.017396 66397.700000 0 0 1
-36.011712 -20.062975 -18.736609 45.281639 0.508296 1.997398 0.032287 -0.015409 634049.000000 0 0 1
-37.039346 -19.856975 -17.749909 45.620958 0.492113 1.970422 0.026857 -0.004277 379358.000000 0 0 1
-36.983556 -20.563375 -16.527909 45.429148 0.507449 1.943159 0.054025 -0.013360 -668675.000000 0 0 1
37.303903 -21.972075 -16.655209 46.386951 -0.532294 1.938046 0.030655 0.020555 -574555.000000 0 0 1
35.919813 -22.092575 -16.571009 45.309085 -0.551414 1.945216 0.031592 0.001835 -565984.000000 0 0 1
35.463043 -23.456675 -16.811809 45.721766 -0.584375 1.947329 0.026072 0.004942 224115.000000 0 0 1
34.068983 -23.810175 -16.238309 44.624015 -0.609975 1.943239 0.025712 -0.001294 265421.000000 0 0 1
33.067353 -23.485075 -17.176909 44.045939 -0.617552 1.971403 0.021456 -0.000435 1483940.000000 0 0 1
31.711233 -23.832775 -16.747609 43.059097 -0.644496 1.970282 0.042672 -0.004285 1537280.000000 0 0 1
30.543473 -23.517475 -17.659709 42.400951 -0.656158 2.000381 0.065859 -0.016183 -263464.000000 0 0 1
30.111323 -22.151075 -17.668109 41.346390 -0.634247 2.012322 0.060812 -0.019631 -164957.000000 0 0 1
28.954063 -22.061175 -18.447809 40.808759 -0.651097 2.039864 0.081455 -0.039352 -647101.000000 0 0 1
34.887673 28.834925 -18.817409 49.017318 0.690696 1.964805 0.080407 -0.016303 -336070.000000 0 0 1
33.933773 29.363525 -19.661209 48.992659 0.713320 1.983742 0.065712 -0.045635 -364372.000000 0 0 1
34.201103 28.947125 -21.005509 49.486189 0.702389 2.009175 0.074706 -0.032065 -148570.000000 0 0 1
33.150503 29.549125 -21.975609 49.548300 0.728023 2.030317 0.080081 -0.027958 -21959.300000 0 0 1
31.871243 29.004725 -21.657909 48.229817 0.738345 2.036505 0.067925 -0.020219 478274.000000 0 0 1
30.857733 29.111725 -22.662809 48.096727 0.756291 2.061438 0.096808 -0.007167 421868.000000 0 0 1
30.090363 30.408125 -22.511709 48.341091 0.790651 2.055205 0.078851 -0.007381 -1511200.000000 0 0 1
30.860203 31.537625 -22.718509 49.629674 0.796254 2.046271 0.101822 -0.031240 -791292.000000 0 0 1
30.153363 32.770925 -22.696909 49.983082 0.826973 2.042149 0.087796 -0.021786 -316366.000000 0 0 1
30.983943 -33.694020 -22.515609 51.012198 -0.827275 2.027929 0.080270 -0.018515 306191.000000 0 0 1
31.581753 -33.472520 -21.246909 50.687748 -0.814454 2.003330 0.084796 -0.032720 -9426.250000 0 0 1
32.747963 33.552925 -21.014009 51.379144 0.797539 1.992153 0.076784 -0.037146 -658737.000000 0 0 1
33.023903 33.382225 -19.503809 50.846334 0.790794 1.964470 0.066722 -0.039778 -444541.000000 0 0 1
33.345323 -33.168120 -18.825309 50.659915 -0.782734 1.951530 0.066385 -0.031397 230935.000000 0 0 1
33.434113 -33.430220 -17.483209 50.409147 -0.785340 1.924981 0.046891 -0.038604 -430474.000000 0 0 1
33.485753 -32.092520 -16.706509 49.298407 -0.764156 1.916528 0.047441 -0.017695 608720.000000 0 0 1
34.673913 -31.312220 -16.886609 49.677891 -0.734497 1.917630 0.047620 -0.013928 603117.000000 0 0 1
35.788693 -31.689520 -16.078609 50.433896 -0.724725 1.895265 0.049540 -0.012852 414635.000000 0 0 1
37.059203 -30.866020 -16.411609 50.945427 -0.694473 1.898786 0.022503 0.002801 197134.000000 0 0 1
-37.276836 -31.083820 -17.707809 51.665586 0.695052 1.920627 0.023942 -0.003998 -768302.000000 0 0 1
-36.042226 -30.473920 -17.916309 50.484611 0.701879 1.933589 0.019827 0.000858 -37930.000000 0 0 1
-35.147226 -31.214520 -18.964209 50.688410 0.726206 1.954258 0.036349 -0.012385 -1208740.000000 0 0 1
-34.790449 -32.510320 -18.541209 51.098656 0.751531 1.942122 0.031412 -0.011119 -270174.000000 0 0 1
-33.799346 -33.126020 -19.298809 51.109421 0.775338 1.957997 0.061453 -0.016052 1294670.000000 0 0 1
-32.374526 -32.419320 -19.405309 49.756288 0.786089 1.971436 0.068780 -0.019412 -618922.000000 0 0 1
-32.443396 -31.282320 -20.276909 49.419738 0.767180 1.993579 0.069195 -0.020882 133651.000000 0 0 1
-31.185056 -30.644120 -20.546209 48.308555 0.776650 2.010103 0.091793 -0.022321 984775.000000 0 0 1
-30.184796 -31.572120 -21.330909 48.609961 0.807859 2.025079 0.092138 -0.024728 -417247.000000 0 0 1
-30.738116 -32.090020 -22.507109 49.811355 0.806912 2.039631 0.079972 -0.016574 -177332.000000 0 0 1
-30.066316 -33.292720 -22.919209 50.375377 0.836277 2.043133 0.076939 -0.018883 348407.000000 0 0 1
-30.810826 33.688325 -24.017209 51.585236 -0.829982 2.055090 0.059846 -0.029838 -453030.000000 0 0 1
-31.945776 32.967825 -23.587309 51.611735 -0.801142 2.045432 0.077140 -0.039987 -54698.600000 0 0 1
-32.605096 32.253625 -24.626309 52.056159 -0.779979 2.063571 0.074539 -0.034980 450496.000000 0 0 1
-33.380536 33.017925 -25.731439 53.540176 -0.779937 2.072136 0.060076 -0.041810 -700534.000000 0 0 1
-32.567456 33.836625 -26.520169 53.933994 -0.804509 2.084855 0.049977 -0.038637 -209738.000000 0 0 1
-33.350686 -32.938020 -27.157539 54.172994 0.779173 2.095910 0.048489 -0.039771 446943.000000 0 0 1
-32.618566 -32.279520 -28.365859 53.949607 0.780174 2.124433 0.043749 -0.036495 -520.757000 0 0 1
-32.292536 -33.134120 -29.493719 54.868545 0.798260 2.138307 0.043801 -0.037026 166424.000000 0 0 1
-33.380596 -33.618920 -30.288909 56.230898 0.788955 2.139633 0.054114 -0.030920 139020.000000 0 0 1
-32.944466 33.238825 -31.466009 56.393856 -0.789846 2.162732 0.062791 -0.027351 -593836.000000 0 0 1
-32.395176 -33.776920 -32.435429 56.941942 0.806276 2.176843 0.056922 -0.033997 -348083.000000 0 0 1
-32.656576 33.457325 -33.721989 57.645616 -0.797509 2.195661 0.062701 -0.044690 -169365.000000 0 0 1
-31.675396 -33.868420 32.943199 56.882817 0.818845 0.953121 0.063928 -0.045711 1756780.000000 0 0 1
-30.349386 33.322325 33.072171 55.903766 -0.832056 0.937765 0.063897 -0.039584 1113110.000000 0 0 1
-30.275496 31.938625 32.831051 54.905002 -0.812124 0.929842 0.075880 -0.037630 -1090530.000000 0 0 1
-28.878106 31.352825 32.934470 53.866724 -0.826462 0.912959 0.083139 -0.026164 -617384.000000 0 0 1
-28.150776 31.406425 -33.678649 53.972966 -0.840008 2.244636 0.088129 -0.031447 154170.000000 0 0 1
-26.840956 30.886225 -33.754519 53.044918 -0.855359 2.260539 0.083606 -0.023528 -191654.000000 0 0 1
-26.558446 29.415925 33.802637 52.089020 -0.836404 0.864606 0.094720 -0.023846 -711738.000000 0 0 1
-26.736896 28.561525 -32.930669 51.137572 -0.818382 2.270462 0.092815 -0.019341 240109.000000 0 0 1
-26.403486 27.244925 -33.311009 50.488150 -0.801081 2.291321 0.088834 -0.015526 -318321.000000 0 0 1
-26.120146 26.286825 -32.122199 49.041766 -0.788579 2.284975 0.091865 -0.019991 1124500.000000 0 0 1
-24.925046 26.456825 -31.290149 47.961390 -0.815201 2.281547 0.081066 -0.020355 1194320.000000 0 0 1
-24.937646 27.668025 -30.490069 48.135746 -0.837254 2.256759 0.069274 -0.025156 -258134.000000 0 0 1
-23.694646 27.822725 -29.591129 47.023134 -0.865357 2.251434 0.089151 -0.024803 330661.000000 0 0 1
-22.511046 28.088825 -30.373079 47.098335 -0.895188 2.271671 0.090978 -0.029195 1249090.000000 0 0 1
-21.297346 28.011325 -29.590979 45.976486 -0.920728 2.270004 0.071116 -0.028211 855376.000000 0 0 1
-20.956846 29.251625 -28.711749 46.034894 -0.949126 2.244258 0.057349 -0.013705 -704521.000000 0 0 1
-20.575946 30.318825 -29.528049 47.058542 -0.974542 2.249102 0.054800 -0.001398 -61447.200000 0 0 1
-20.451746 31.513625 -28.852329 47.369181 -0.995138 2.225715 0.062927 -0.008981 -22155.800000 0 0 1
-19.963046 32.626525 -29.785119 48.478517 -1.021698 2.232419 0.059832 0.000737 -282405.000000 0 0 1
-18.662046 32.567025 -30.291099 48.233119 -1.050440 2.249796 0.061275 -0.002397 -596796.000000 0 0 1
-18.409646 33.699625 -31.170439 49.458832 -1.070809 2.252646 0.062405 -0.004596 336208.000000 0 0 1
-16.879846 -33.822520 -31.232869 49.034520 1.107892 2.261340 0.046378 -0.004500 -542732.000000 0 0 1
-16.310246 -33.351820 -30.064779 47.772993 1.115958 2.251482 0.066549 -0.015283 81566.300000 0 0 1
-14.910346 -33.107020 -30.113659 47.172297 1.147636 2.263183 0.083190 -0.012167 730940.000000 0 0 1
-13.998546 33.423325 -30.197159 47.169337 -1.174167 2.265537 0.097020 -0.019915 -680438.000000 0 0 1
-13.934246 32.653125 -29.023879 45.856028 -1.167457 2.256134 0.106568 -0.025503 72628.200000 0 0 1
-13.321146 31.378425 -29.317499 44.961920 -1.169322 2.281084 0.103254 -0.027820 244595.000000 0 0 1
-13.163946 30.515125 -28.012459 43.464470 -1.163525 2.271154 0.091382 -0.040462 253167.000000 0 0 1
-12.067546 30.991925 -27.238659 42.989180 -1.199481 2.257015 0.105925 -0.036888 63720.200000 0 0 1
-12.030746 30.485725 -25.942259 41.798553 -1.194923 2.240367 0.082343 -0.046608 -125588.000000 0 0 1
-10.792246 30.762925 -25.068339 41.124831 -1.233391 2.226311 0.098424 -0.047363 72711.300000 0 0 1
-9.615446 30.218525 -25.639069 40.779626 -1.262730 2.250706 0.119301 -0.046258 -318066.000000 0 0 1
-8.482346 30.799625 -25.034109 40.586620 -1.302054 2.235476 0.132668 -0.049405 37668.700000 0 0 1
-7.180046 30.059125 -25.418859 40.015278 -1.336326 2.259101 0.106440 -0.048655 -282427.000000 0 0 1
-6.970846 28.791525 -24.796909 38.631998 -1.333253 2.267737 0.104223 -0.063412 -235957.000000 0 0 1
-5.815446 28.274125 -25.416679 38.461060 -1.367944 2.292736 0.097731 -0.066305 -616612.000000 0 0 1
-5.275346 27.073025 -24.727609 37.043658 -1.378352 2.301678 0.113049 -0.050605 -385851.000000 0 0 1
-6.117746 25.945225 -24.800809 36.409637 -1.339231 2.320143 0.116170 -0.048565 8989.670000 0 0 1
-5.479346 24.835325 -24.229409 35.126640 -1.353648 2.331972 0.122023 -0.054013 -203690.000000 0 0 1
-6.317446 23.542325 -24.213909 34.357889 -1.308628 2.352875 0.110337 -0.048176 -76162.600000 0 0 1
-6.345346 22.879725 -25.469469 34.820096 -1.300261 2.391255 0.117350 -0.046776 496730.000000 0 0 1
-7.244746 21.763025 -25.397679 34.222181 -1.249443 2.407055 0.100671 -0.042579 -74001.700000 0 0 1
-7.122146 20.924825 -26.652139 34.625276 -1.242728 2.449216 0.093059 -0.032160 1228170.000000 0 0 1
-5.879646 20.188025 -26.904429 34.146374 -1.287392 2.478211 0.112848 -0.039931 863467.000000 0 0 1
-5.595346 19.134725 -26.040179 32.795373 -1.286310 2.488190 0.101341 -0.036380 -414099.000000 0 0 1
-4.461946 18.171425 -26.356149 32.322689 -1.330013 2.524228 0.111339 -0.037483 -199706.000000 0 0 1
-4.628746 17.594225 -27.648059 33.096785 -1.313542 2.559602 0.114304 -0.044111 -326335.000000 0 0 1
-3.583946 16.714725 -27.994129 32.800883 -1.359576 2.593378 0.104550 -0.042279 -76784.200000 0 0 1
-3.261746 16.390725 -29.475469 33.883597 -1.374363 2.625804 0.100931 -0.043455 -66054.700000 0 0 1
-2.438246 17.374525 -30.050049 34.796905 -1.431372 2.613131 0.109502 -0.047285 -1391.550000 0 0 1
-2.212146 17.402625 -31.462929 36.023060 -1.444359 2.632959 0.103808 -0.043627 -108259.000000 0 0 1
-1.198146 18.530825 -31.761429 36.791512 -1.506229 2.612532 0.111601 -0.036468 1420190.000000 0 0 1
0.155554 18.378925 -31.227479 36.234852 1.562333 2.609619 0.122686 -0.041937 1921510.000000 0 0 1
1.084454 19.418625 -31.625339 37.127094 1.515008 2.590233 0.116574 -0.025238 778984.000000 0 0 1
0.858954 20.772325 -30.851199 37.202470 1.529469 2.548611 0.116768 -0.028969 424085.000000 0 0 1
1.729254 21.008225 -29.693309 36.414673 1.488668 2.524253 0.134061 -0.050220 470502.000000 0 0 1
1.341554 22.140125 -28.915869 36.443276 1.510277 2.487251 0.137131 -0.055307 -430893.000000 0 0 1
2.305654 22.318125 -27.790019 35.716941 1.467853 2.462372 0.147893 -0.053729 190208.000000 0 0 1
3.409554 23.135925 -28.196979 36.632850 1.424479 2.449196 0.123480 -0.057877 -19026.300000 0 0 1
4.618054 22.752225 -27.560709 36.035855 1.370545 2.441548 0.120135 -0.063030 251513.000000 0 0 1
5.426054 24.069825 -27.284309 36.786303 1.349073 2.406394 0.131381 -0.060641 -328267.000000 0 0 1
6.095354 24.537825 -28.412529 38.033275 1.327318 2.414401 0.111128 -0.062075 -256355.000000 0 0 1
6.462854 25.903225 -28.257939 38.874885 1.326288 2.384585 0.115235 -0.060885 -555.293000 0 0 1
7.459954 26.443125 -29.308859 40.173362 1.295829 2.388474 0.110663 -0.052723 -870615.000000 0 0 1
8.779254 26.103625 -29.125839 40.084773 1.246357 2.384165 0.091262 -0.048818 -1267230.000000 0 0 1
9.568354 26.678625 -30.131349 41.366661 1.226434 2.386776 0.096466 -0.043091 301741.000000 0 0 1
11.067754 26.771425 -29.723779 41.505511 1.178778 2.369053 0.093550 -0.041533 604203.000000 0 0 1
11.899454 27.485425 -30.610969 42.826125 1.162222 2.367096 0.092621 -0.035219 463481.000000 0 0 1
13.223254 27.774525 -30.172949 43.089274 1.126457 2.346534 0.087411 -0.039438 686650.000000 0 0 1
13.975054 28.785125 -31.065249 44.597480 1.118819 2.341402 0.096455 -0.036484 29297.100000 0 0 1
13.434454 30.087625 -30.893119 45.167849 1.150848 2.323977 0.098748 -0.031950 502930.000000 0 0 1
14.141554 31.017025 -31.738209 46.576317 1.143023 2.320503 0.132663 -0.035449 109824.000000 0 0 1
13.694654 32.471225 -31.649149 47.366577 1.171684 2.302549 0.142679 -0.042515 -259710.000000 0 0 1
12.575854 32.782025 -32.427009 47.794604 1.204490 2.316469 0.123706 -0.041522 -223641.000000 0 0 1
12.009554 -33.769020 -32.076849 48.098860 -1.229107 2.300829 0.122922 -0.039138 -848995.000000 0 0 1
10.794654 -33.432320 -32.894439 48.127837 -1.258482 2.323316 0.083309 -0.031796 -696527.000000 0 0 1
11.028954 -33.050720 33.632118 48.426308 -1.248718 0.803070 0.071825 -0.018349 -271933.000000 0 0 1
9.788254 -33.065920 32.984624 47.719497 -1.282993 0.807622 0.077836 -0.030186 34988.200000 0 0 1
9.743854 -32.306920 31.716687 46.310129 -1.277870 0.816363 0.087057 -0.031898 119412.000000 0 0 1
9.832354 -30.896720 31.945202 45.516793 -1.262697 0.792828 0.067949 -0.038078 -97150.700000 0 0 1
10.200754 -30.110020 30.829997 44.284957 -1.244149 0.800744 0.087066 -0.036802 -413594.000000 0 0 1
9.604254 -28.697220 30.792107 43.173209 -1.247838 0.776711 0.073862 -0.049309 -54424.000000 0 0 1
8.200954 -28.600620 30.796567 42.821486 -1.291548 0.768168 0.059339 -0.043169 278963.000000 0 0 1
7.477654 -28.715120 32.070722 43.692158 -1.316046 0.746580 0.053861 -0.035984 962153.000000 0 0 1
5.917154 -28.649920 31.896971 43.281028 -1.367127 0.742215 0.059920 -0.035171 587923.000000 0 0 1
5.301454 -29.748020 31.237167 43.460450 -1.394436 0.768795 0.074388 -0.039008 -43229.300000 0 0 1
5.477454 -29.857120 29.836197 42.563468 -1.389358 0.794024 0.075681 -0.044027 -1109660.000000 0 0 1
4.672254 -28.944520 28.951347 41.204317 -1.410756 0.791711 0.061825 -0.044492 -88632.700000 0 0 1
3.284054 -29.272020 29.100927 41.406523 -1.459073 0.791456 0.104307 -0.050576 536141.000000 0 0 1
2.557554 -28.371120 28.277677 40.138368 -1.480893 0.789071 0.111425 -0.046867 -261684.000000 0 0 1
1.266254 -28.903020 27.636287 40.009403 -1.527014 0.808278 0.108317 -0.040495 -122254.000000 0 0 1
1.485254 -30.042520 26.852117 40.321151 -1.521398 0.842022 0.122667 -0.049678 107712.000000 0 0 1
1.268954 -31.233220 27.609987 41.706542 -1.530190 0.847304 0.156860 -0.062341 -623019.000000 0 0 1
1.661654 -32.580520 26.985887 42.337802 -1.519839 0.879684 0.164240 -0.057599 1309420.000000 0 0 1
3.079754 -32.855420 26.803167 42.513213 -1.477333 0.888642 0.131744 -0.047605 1409180.000000 0 0 1
3.661854 -32.169920 25.723387 41.352214 -1.457456 0.899431 0.119233 -0.051220 -345375.000000 0 0 1
5.202554 -32.113520 25.722557 41.472819 -1.410187 0.901764 0.123765 -0.033533 50190.900000 0 0 1
5.802054 -31.744620 24.503127 40.518983 -1.390019 0.921367 0.117005 -0.046761 -277920.000000 0 0 1
7.195154 -31.751420 24.642637 40.831146 -1.347951 0.922881 0.098811 -0.043710 -440765.000000 0 0 1
7.971154 -31.120920 23.453327 39.775740 -1.320052 0.940185 0.092688 -0.030080 -265441.000000 0 0 1
9.367554 -31.076620 23.625637 40.145711 -1.278024 0.941598 0.081281 -0.020514 47590.300000 0 0 1
10.037154 -30.709920 22.429957 39.331242 -1.254903 0.963945 0.071981 -0.024699 521689.000000 0 0 1
11.074754 -29.552120 22.630557 38.834522 -1.212242 0.948696 0.050305 -0.024184 586956.000000 0 0 1
12.219854 -29.860520 23.417167 39.866517 -1.182357 0.942967 0.055521 -0.018963 164191.000000 0 0 1
13.245254 -28.914820 23.218577 39.377734 -1.141245 0.940187 0.061232 -0.016900 49920.300000 0 0 1
14.518354 -29.220320 24.029097 40.521688 -1.109665 0.936025 0.072420 -0.021189 -55973.200000 0 0 1
14.322254 -28.992320 25.423107 41.134122 -1.111959 0.904531 0.059518 -0.020791 -218558.000000 0 0 1
15.574154 -28.766620 25.996367 41.783775 -1.074582 0.899292 0.072253 -0.029727 -330464.000000 0 0 1
-10.923346 -13.571075 25.570187 30.940718 0.893075 0.598068 0.107430 -0.046408 -1025900.000000 0 0 1
-9.570446 -13.703575 25.365387 30.377364 0.961151 0.582646 0.120963 -0.046808 -1565260.000000 0 0 1
-8.918446 -14.197475 26.502097 31.360295 1.009920 0.564073 0.135476 -0.047623 -105599.000000 0 0 1
-7.387346 -14.180775 26.307337 30.785439 1.090537 0.546135 0.139815 -0.042797 68618.100000 0 0 1
-6.813246 -15.159075 25.432197 30.381154 1.148400 0.578828 0.128713 -0.045338 149802.000000 0 0 1
-6.996746 -14.855075 24.065677 29.133907 1.130616 0.598757 0.131682 -0.041488 -195877.000000 0 0 1
-6.332446 -16.025575 23.199517 28.898729 1.194481 0.638842 0.124628 -0.038319 332879.000000 0 0 1
-7.013646 -17.260575 23.093387 29.671926 1.184837 0.678857 0.156186 -0.038629 -240589.000000 0 0 1
-7.351546 -17.944075 24.323317 31.107215 1.181963 0.673058 0.162124 -0.038319 -149839.000000 0 0 1
-7.943646 -19.359075 24.112037 31.925940 1.181415 0.714762 0.146033 -0.038216 -348498.000000 0 0 1
-9.242846 -19.207175 23.613407 31.810985 1.122287 0.734295 0.134072 -0.038929 -484971.000000 0 0 1
-9.850446 -20.462175 23.340837 32.565727 1.122141 0.771694 0.112262 -0.038251 73522.200000 0 0 1
-11.388346 -20.587175 23.253757 33.079653 1.065517 0.791242 0.085040 -0.036275 255994.000000 0 0 1
-11.984146 -20.309175 24.511557 34.013215 1.037699 0.766060 0.085187 -0.036263 136158.000000 0 0 1
-13.379946 -20.528775 24.586617 34.712466 0.993181 0.783718 0.074795 -0.028179 104076.000000 0 0 1
-13.936146 -20.389175 26.006957 35.864975 0.971225 0.759566 0.070157 -0.026065 -604026.000000 0 0 1
-13.771346 -21.528075 26.839257 37.060136 1.001701 0.760911 0.075237 -0.019684 -348543.000000 0 0 1
-12.759246 -21.371475 27.788607 37.306099 1.032569 0.730440 0.087717 -0.020468 -467192.000000 0 0 1
-12.408246 -22.704275 28.529597 38.514758 1.070632 0.736618 0.082030 -0.014244 -1026220.000000 0 0 1
-13.374446 -23.396275 29.246927 39.769891 1.051484 0.744534 0.089561 -0.010123 -798027.000000 0 0 1
-12.948046 -24.504175 30.043947 40.874751 1.084686 0.745093 0.081196 -0.000121 -662092.000000 0 0 1
-14.051146 -25.067505 30.910677 42.205266 1.059903 0.748972 0.084058 -0.021343 -277295.000000 0 0 1
-14.235846 -24.288575 32.116411 42.708993 1.040651 0.719732 0.101194 -0.015757 -474424.000000 0 0 1
-15.479646 -24.479475 32.720767 43.697971 1.006928 0.724556 0.107518 -0.021972 -697176.000000 0 0 1
-15.558446 -24.002175 -33.646179 44.161465 0.995681 2.437022 0.109021 -0.031140 -5687.630000 0 0 1
-15.314146 -22.624475 -33.366409 43.124322 0.975753 2.455498 0.119218 -0.033965 12875.900000 0 0 1
-16.363946 -21.757675 -33.766379 43.374456 0.925953 2.463045 0.119984 -0.036915 79572.200000 0 0 1
-16.287146 -20.283875 -33.267379 42.230619 0.894253 2.477952 0.102038 -0.038589 67689.900000 0 0 1
-16.430446 -20.220575 -31.863289 41.159450 0.888443 2.456156 0.092991 -0.036100 91418.400000 0 0 1
-16.578146 -18.823475 -31.551559 40.307059 0.848738 2.469917 0.076537 -0.038357 -375715.000000 0 0 1
-16.784746 -18.612675 -30.066759 39.142935 0.836993 2.446708 0.085046 -0.032989 -554481.000000 0 0 1
-17.960846 -19.203875 -29.607199 39.597563 0.818832 2.415392 0.082654 -0.028217 -301837.000000 0 0 1
-18.075846 -19.133175 -28.184119 38.563702 0.813806 2.390357 0.080467 -0.025415 108931.000000 0 0 1
-17.191546 -20.124675 -27.345719 38.057064 0.863839 2.372505 0.065355 -0.018347 569743.000000 0 0 1
-15.803846 -19.849875 -27.459009 37.386846 0.898396 2.395662 0.056966 -0.024258 50460.600000 0 0 1
-15.007346 -20.934675 -27.048419 37.351010 0.948841 2.380624 0.057153 -0.021147 1178480.000000 0 0 1
-13.481846 -20.786675 -27.431809 36.964174 0.995419 2.407022 0.113474 -0.028639 431915.000000 0 0 1
-12.801346 -19.802775 -26.684679 35.610341 0.996926 2.417879 0.102233 -0.035546 445701.000000 0 0 1
-11.386946 -19.994775 -26.655819 35.213438 1.053108 2.429473 0.086335 -0.045246 617389.000000 0 0 1
-10.884346 -21.175675 -25.727999 35.054359 1.096010 2.394910 0.126682 -0.055030 -887876.000000 0 0 1
-10.996746 -22.473375 -26.252599 36.265410 1.115727 2.380238 0.139635 -0.055886 124337.000000 0 0 1
-10.546246 -23.396675 -25.293609 36.033239 1.147312 2.348931 0.187126 -0.056493 -27797.400000 0 0 1
-10.606646 -24.873175 -25.745389 37.336320 1.167716 2.331669 0.184072 -0.048286 219866.000000 0 0 1
-9.421646 -25.116405 -26.514879 37.717900 1.211921 2.350373 0.187920 -0.044049 508364.000000 0 0 1
-9.344646 -26.389835 -27.111729 38.971677 1.230473 2.340159 0.181236 -0.039519 -223076.000000 0 0 1
-9.407746 -27.737445 -26.338579 39.390256 1.243801 2.303198 0.196941 -0.029212 -220508.000000 0 0 1
-10.589046 -27.933975 -25.572919 39.324407 1.208459 2.278784 0.172046 -0.033487 340501.000000 0 0 1
-10.463546 -29.121605 -24.833309 39.676780 1.225856 2.247069 0.183283 -0.036112 -288101.000000 0 0 1
-11.421246 -29.205855 -23.638909 39.271170 1.198020 2.216725 0.180246 -0.041176 -127817.000000 0 0 1
-11.205246 -28.272085 -22.559709 37.865667 1.193453 2.209036 0.168519 -0.050195 -39240.100000 0 0 1
-11.809846 -27.031475 -22.841209 37.308094 1.158896 2.229677 0.157334 -0.045389 -221323.000000 0 0 1
-11.725246 -25.925105 -21.756409 35.818065 1.146053 2.223598 0.165502 -0.052038 238885.000000 0 0 1
-12.466446 -26.230615 -20.551509 35.578391 1.127133 2.186631 0.123200 -0.044931 320189.000000 0 0 1
-12.521846 -25.136905 -19.690309 34.298234 1.108633 2.182290 0.108400 -0.037050 157496.000000 0 0 1
-13.273146 -25.433655 -18.349709 34.055235 1.089804 2.139834 0.119499 -0.035768 -318387.000000 0 0 1
-14.634446 -25.719735 -18.436009 34.864856 1.053485 2.127965 0.135467 -0.042938 -623658.000000 0 0 1
-15.148846 -26.121215 -17.197509 34.749960 1.045254 2.088508 0.121550 -0.042489 232595.000000 0 0 1
-16.680546 -26.294225 -17.026709 35.489938 1.005480 2.071179 0.131898 -0.047014 -465781.000000 0 0 1
-17.402646 -25.095325 -17.108309 35.004594 0.964472 2.081447 0.119634 -0.036864 458732.000000 0 0 1
-18.806246 -25.196755 -16.857009 35.675062 0.929619 2.062939 0.126719 -0.031066 1064350.000000 0 0 1
-19.706646 -25.940135 -17.938909 37.189339 0.921118 2.074151 0.115925 -0.021525 -500469.000000 0 0 1
-19.645446 -27.381075 -18.016109 38.213178 0.948433 2.061746 0.115439 -0.032152 150637.000000 0 0 1
-19.972546 -28.057685 -16.810809 38.324138 0.952169 2.024890 0.120665 -0.034532 694800.000000 0 0 1
-21.457546 -28.547575 -16.577609 39.372673 0.926245 2.005392 0.125831 -0.028212 1109590.000000 0 0 1
-21.905646 -29.624185 -17.357409 40.727500 0.934081 2.011067 0.109257 -0.018218 -327942.000000 0 0 1
-23.298146 -29.806145 -17.342809 41.617098 0.907341 2.000634 0.116027 -0.016577 -167617.000000 0 0 1
-23.745746 -30.866335 -18.418209 43.079246 0.915052 2.012569 0.090769 -0.016503 199475.000000 0 0 1
-23.115146 -32.114015 -18.216509 43.559856 0.946916 2.002253 0.089407 -0.021615 -26982.900000 0 0 1
-23.390446 -32.876295 -19.380209 44.761101 0.952415 2.018581 0.072691 0.000138 291249.000000 0 0 1
-22.895146 33.459736 -19.327109 44.914126 -0.970713 2.015635 0.058735 -0.007701 492069.000000 0 0 1
-23.670746 32.794715 -18.309209 44.396224 -0.945598 1.995888 0.071114 -0.012100 209957.000000 0 0 1
-22.985746 31.653040 -17.911509 43.024198 -0.942716 2.000182 0.066497 -0.012681 228422.000000 0 0 1
-23.901746 30.373760 -17.719109 42.518532 -0.904082 2.000651 0.086582 -0.031689 384146.000000 0 0 1
-24.464546 30.327810 -16.398309 42.275224 -0.892001 1.969142 0.088373 -0.038696 339510.000000 0 0 1
-25.182326 29.122240 -16.099609 41.730706 -0.857823 1.966869 0.092729 -0.031521 140797.000000 0 0 1
-24.269946 27.936610 -15.738209 40.214123 -0.855517 1.972906 0.085118 -0.038336 267242.000000 0 0 1
-23.318046 27.520970 -16.713809 39.755332 -0.867882 2.004701 0.067082 -0.024678 141485.000000 0 0 1
-22.817146 26.237950 -16.531009 38.500992 -0.855019 2.014587 0.071664 -0.025004 27572.100000 0 0 1
-21.920746 25.748360 -17.706609 38.170946 -0.865522 2.053162 0.074022 -0.018101 -397768.000000 0 0 1
-21.816946 24.311100 -17.810109 37.204955 -0.839416 2.069973 0.093061 -0.031519 -201941.000000 0 0 1
-21.096446 23.800210 -18.889609 36.990909 -0.845547 2.106743 0.091921 -0.022211 1634330.000000 0 0 1
-19.542846 24.165730 -18.989109 36.421032 -0.890772 2.119261 0.081224 -0.032591 978956.000000 0 0 1
-18.706446 23.741860 -17.905209 35.131233 -0.903471 2.105593 0.095432 -0.035896 404093.000000 0 0 1
-17.362046 24.154890 -18.035809 34.787781 -0.947577 2.115836 0.113186 -0.050475 47147.200000 0 0 1
-17.095646 25.606180 -17.471309 35.400342 -0.982122 2.086946 0.126453 -0.051796 -299858.000000 0 0 1
-17.948646 26.597820 -18.017009 36.799599 -0.977173 2.082425 0.093497 -0.045068 60264.900000 0 0 1
-17.653746 27.863580 -17.431709 37.308153 -1.006052 2.056958 0.112415 -0.055814 243675.000000 0 0 1
-18.762446 28.952500 -17.690109 38.771337 -0.995799 2.044593 0.091865 -0.044599 515355.000000 0 0 1
-18.973246 29.392220 -19.066609 39.842467 -0.997577 2.069799 0.057893 -0.044486 32407.600000 0 0 1
-19.696446 28.513420 -19.895109 39.959735 -0.966286 2.091948 0.054144 -0.025196 -471653.000000 0 0 1
-20.134546 29.308050 -21.151509 41.373277 -0.968851 2.107419 0.064600 -0.028858 -469553.000000 0 0 1
-21.154146 30.246640 -21.029909 42.480751 -0.960481 2.088684 0.066703 -0.022888 -161109.000000 0 0 1
-21.690446 30.341010 -22.379209 43.495762 -0.950148 2.111238 0.064462 -0.017846 -160368.000000 0 0 1
-22.453546 31.622930 -22.588509 44.882203 -0.953364 2.098192 0.056392 -0.012267 -496874.000000 0 0 1
-21.655646 32.774474 -22.449909 45.245237 -0.986903 2.089993 0.027335 -0.010063 -234474.000000 0 0 1
-22.139246 33.876650 -23.183709 46.639661 -0.991947 2.091028 0.048640 0.003365 -186759.000000 0 0 1
-21.152546 -32.652105 -23.436309 45.418616 0.995958 2.112979 0.053745 -0.004101 732543.000000 0 0 1
-20.820746 -31.831765 -22.293509 44.088153 0.991553 2.100940 0.070099 -0.009575 162115.000000 0 0 1
-19.860146 -32.501365 -21.500509 43.738267 1.022287 2.084690 0.082488 -0.025455 -498966.000000 0 0 1
-19.532146 -31.596635 -20.248209 42.306524 1.017122 2.069864 0.100827 -0.025996 32867.900000 0 0 1
-18.579446 -30.591535 -20.540109 41.266619 1.024998 2.091789 0.117145 -0.033400 61511.000000 0 0 1
-18.116746 -30.005905 -19.317109 40.021513 1.027607 2.074495 0.111792 -0.028028 -303556.000000 0 0 1
-16.983046 -29.024965 -19.662109 38.954729 1.041391 2.099880 0.133325 -0.036460 -685151.000000 0 0 1
-15.797646 -29.733985 -19.759609 39.039949 1.082424 2.101497 0.142463 -0.039644 -366316.000000 0 0 1
-14.690946 -28.888395 -20.122009 38.147850 1.100339 2.126421 0.139197 -0.045700 300946.000000 0 0 1
-13.305846 -29.560675 -20.197109 38.194269 1.147843 2.127982 0.181200 -0.049378 178745.000000 0 0 1
-12.600246 -29.975245 -19.037209 37.678864 1.172867 2.100467 0.166701 -0.041590 171816.000000 0 0 1
-12.077146 -28.858595 -18.304309 36.245326 1.174449 2.100192 0.124486 -0.035456 -323935.000000 0 0 1
-11.202346 -29.527915 -17.168509 35.946460 1.208190 2.068732 0.113979 -0.016025 46981.200000 0 0 1
-11.873146 -30.374955 -16.260009 36.441698 1.198171 2.033303 0.140487 -0.032889 -72874.900000 0 0 1
-12.188146 -31.656255 -16.702009 37.810401 1.203274 2.028323 0.150186 -0.034102 -55084.600000 0 0 1
-13.168746 -32.402565 -15.777809 38.370318 1.184776 1.994565 0.151112 -0.042408 -111976.000000 0 0 1
-12.504546 -32.830145 -14.602109 38.044758 1.206875 1.964719 0.134843 -0.038499 -60181.100000 0 0 1
-13.412346 -33.262115 -13.636909 38.369579 1.187507 1.934148 0.137770 -0.036623 -344821.000000 0 0 1
-12.793646 -33.832865 -12.344209 38.219362 1.209273 1.899676 0.113071 -0.032035 65882.100000 0 0 1
-11.973946 -32.859455 -11.698909 36.877956 1.221352 1.893607 0.083644 -0.016847 199920.000000 0 0 1
-11.770346 -33.228555 -10.314709 36.729703 1.230364 1.855452 0.096415 -0.022590 -351881.000000 0 0 1
-10.580746 -32.612655 -9.569609 35.596557 1.257074 1.842980 0.084707 -0.022805 -159496.000000 0 0 1
-9.360946 -33.192095 -9.938809 35.890422 1.295912 1.851385 0.064785 -0.024937 -521311.000000 0 0 1
-8.201946 -32.482885 -9.591909 34.848449 1.323466 1.849642 0.060281 -0.031898 -335922.000000 0 0 1
-6.954246 -32.895385 -10.348409 35.178935 1.362459 1.869378 0.067487 -0.045680 -530138.000000 0 0 1
-6.516646 33.623558 -9.970609 35.671044 -1.379358 1.854086 0.065604 -0.029143 532554.000000 0 0 1
-5.217146 33.310813 -10.502809 35.314839 -1.415438 1.872770 0.076645 -0.020782 977732.000000 0 0 1
-4.485746 32.236173 -9.576209 33.926340 -1.432532 1.856950 0.080432 -0.025636 -121396.000000 0 0 1
-3.674346 32.810069 -8.627209 34.123748 -1.459273 1.826391 0.110113 -0.033071 -576385.000000 0 0 1
-3.132646 31.869512 -7.798309 32.958958 -1.472815 1.809668 0.085092 -0.031125 -172003.000000 0 0 1
-2.859046 32.316859 -6.338409 33.056451 -1.482557 1.763736 0.091915 -0.033220 -313976.000000 0 0 1
-1.792546 33.213930 -6.139209 33.824078 -1.516879 1.753312 0.068042 -0.029250 -13265.400000 0 0 1
-1.605346 33.544092 -4.744009 33.915909 -1.522975 1.711132 0.071711 -0.026311 -369614.000000 0 0 1
-0.548146 32.729563 -4.008509 32.978674 -1.554050 1.692646 0.077224 -0.031673 65621.000000 0 0 1
0.738654 32.983870 -4.594209 33.310480 1.548406 1.709158 0.074819 -0.025437 831670.000000 0 0 1
1.802154 32.218347 -4.009909 32.516904 1.514919 1.694429 0.072667 -0.025095 401300.000000 0 0 1
3.177654 32.562294 -4.584309 33.036591 1.473517 1.710010 0.070318 -0.012890 -17802.500000 0 0 1
3.885754 33.630409 -3.939709 34.082617 1.455764 1.686648 0.072304 -0.017952 -219299.000000 0 0 1
5.245154 33.499613 -4.272709 34.175894 1.415484 1.696145 0.085861 -0.016731 490822.000000 0 0 1
6.141454 -33.095605 -3.709409 33.864380 -1.387316 1.680554 0.085397 -0.014987 686153.000000 0 0 1
5.776954 -31.875235 -4.406509 32.692830 -1.391506 1.705993 0.080178 -0.020109 241088.000000 0 0 1
6.490754 -30.759595 -3.851109 31.671969 -1.362832 1.692692 0.066860 -0.026129 229530.000000 0 0 1
6.289154 -29.455725 -4.686809 30.482115 -1.360443 1.725165 0.063105 -0.024402 -134179.000000 0 0 1
6.850254 -29.329075 -5.987209 30.707772 -1.341344 1.767027 0.080303 -0.025000 -306236.000000 0 0 1
6.601254 -28.140575 -6.716609 29.674591 -1.340381 1.799117 0.075916 -0.027262 231346.000000 0 0 1
7.206054 -26.796075 -6.191509 28.430470 -1.308090 1.790333 0.074703 -0.027096 274437.000000 0 0 1
6.617954 -26.499505 -4.955209 27.759236 -1.326064 1.750265 0.067562 -0.031160 -348525.000000 0 0 1
7.015454 -25.254405 -4.404809 26.578260 -1.299837 1.737294 0.056458 -0.035026 -506328.000000 0 0 1
6.019954 -24.754075 -3.371309 25.697661 -1.332237 1.702367 0.056898 -0.030279 -116665.000000 0 0 1
4.793154 -24.417475 -4.001509 25.203164 -1.376961 1.730241 0.069715 -0.031914 -470838.000000 0 0 1
3.869854 -24.034975 -3.036209 24.533128 -1.411157 1.694874 0.070120 -0.025977 380981.000000 0 1 0
2.518354 -23.431775 -3.541109 23.831274 -1.463731 1.719939 0.086548 -0.025426 720310.000000 0 1 0
1.797054 -24.296675 -4.370609 24.751970 -1.496968 1.748303 0.096131 -0.030913 25934.700000 0 1 0
0.551954 -23.699275 -4.746809 24.176279 -1.547511 1.768422 0.072215 -0.020260 689444.000000 0 1 0
-15.599546 23.017825 18.048557 33.149910 -0.975183 0.995060 0.010088 -0.010825 -59932.300000 0 0 1
-15.582246 22.403325 19.341357 33.448520 -0.963075 0.954223 0.023783 -0.013493 348666.000000 0 0 1
-15.496946 23.402425 20.369557 34.680653 -0.985897 0.943020 0.038510 -0.010099 -1219320.000000 0 0 1
-15.497946 22.739325 21.726057 35.061158 -0.972562 0.902485 0.063378 -0.022906 65477.800000 0 0 1
-14.356646 21.938025 22.072957 34.272521 -0.991321 0.871025 0.058829 -0.024687 504633.000000 0 0 1
-13.077846 22.514525 22.030457 34.106817 -1.044567 0.868562 0.057744 -0.029477 -788446.000000 0 0 1
-12.820946 23.507625 23.150387 35.396688 -1.071495 0.857901 0.071553 -0.020195 -1018340.000000 0 0 1
-12.460746 23.040825 24.391447 35.792353 -1.075035 0.821026 0.068754 -0.013577 65166.000000 0 0 1
-12.223246 24.070525 25.342297 37.027422 -1.100921 0.816989 0.094870 -0.022063 199153.000000 0 0 1
-11.392446 23.586525 26.568197 37.309263 -1.120836 0.778301 0.099135 -0.018557 794926.000000 0 0 1
-9.986346 23.394125 26.429687 36.681611 -1.167339 0.766250 0.066668 -0.013078 309721.000000 0 0 1
-9.451246 22.587325 27.387167 36.736497 -1.174502 0.729507 0.057224 -0.004633 -925424.000000 0 0 1
-7.938446 22.460925 27.522267 36.400375 -1.231066 0.713465 0.044798 -0.017200 24159.000000 0 0 1
-7.187846 23.562625 28.075707 37.351142 -1.274710 0.720207 0.040111 -0.012380 294237.000000 0 0 1
-7.076646 24.725425 27.263417 37.479588 -1.292039 0.756241 0.040652 -0.008670 -107793.000000 0 0 1
-5.990446 25.665225 27.922307 38.395891 -1.341494 0.756531 0.043904 -0.013994 443758.000000 0 0 1
-4.725246 25.047525 27.871447 37.769353 -1.384337 0.740786 0.033155 -0.017373 -227366.000000 0 0 1
-3.723246 25.852125 28.503127 38.660357 -1.427759 0.741776 0.046858 -0.012182 -39094.200000 0 0 1
-2.328846 25.263325 28.372457 38.061207 -1.478873 0.729597 0.050194 -0.020814 -661933.000000 0 0 1
-1.746446 25.322425 27.077757 37.114421 -1.501937 0.753096 0.051894 -0.025445 -1194330.000000 0 0 1
-0.543946 24.683225 27.041167 36.616693 -1.548763 0.739964 0.074473 -0.020033 -923532.000000 0 0 1
0.139954 24.624625 25.658117 35.563053 1.565113 0.764856 0.073402 -0.028364 -97875.100000 0 0 1
-0.386646 23.641525 24.799337 34.264827 -1.554443 0.761568 0.061751 -0.015940 -256477.000000 0 0 1
0.178554 23.569525 23.506447 33.288248 1.563221 0.786752 0.067543 -0.015266 -80983.700000 0 0 1
-0.236346 22.333625 22.621657 31.789716 -1.560214 0.779019 0.047312 -0.009619 -54925.500000 0 0 1
0.418154 21.170625 23.004937 31.266554 1.551047 0.743996 0.054529 -0.008611 -367189.000000 0 0 1
-0.010746 20.055525 22.293057 29.986741 -1.570261 0.732611 0.047754 -0.008482 -92607.700000 0 0 1
0.765354 18.744425 22.614757 29.383099 1.529988 0.692501 0.047109 -0.001581 1290860.000000 0 0 1
2.152354 18.810325 22.203457 29.179693 1.456868 0.706064 0.067584 -0.009393 989259.000000 0 0 1
2.805854 17.553925 22.071057 28.339807 1.412295 0.678045 0.053471 -0.010931 -285558.000000 0 0 1
4.203454 17.664525 21.481257 28.127369 1.337181 0.701750 0.074359 -0.016693 -99494.500000 0 0 1
5.150554 18.406925 22.245157 29.328998 1.297958 0.709835 0.077149 -0.015916 133566.000000 0 0 1
6.326654 18.722725 21.507857 29.208816 1.244930 0.743139 0.100575 -0.025103 1947620.000000 0 0 1
7.628754 19.120125 22.396757 30.420254 1.191160 0.743292 0.110471 -0.033310 1184460.000000 0 0 1
7.571054 20.289525 23.163087 31.709846 1.213648 0.751787 0.088739 -0.026486 -2428.360000 0 0 1
7.275054 21.486625 22.484857 31.940105 1.244327 0.789825 0.102145 -0.037474 -678095.000000 0 0 1
5.953654 22.130125 22.853077 32.364357 1.307989 0.786795 0.083776 -0.029749 -563063.000000 0 0 1
5.823654 23.386825 22.266857 32.812673 1.326746 0.824934 0.085857 -0.037333 559046.000000 0 0 1
4.722854 24.114025 22.845177 33.551359 1.377389 0.821803 0.067020 -0.033667 175100.000000 0 0 1
4.517054 25.534625 22.285457 34.191556 1.395709 0.860864 0.088420 -0.040017 -191362.000000 0 0 1
4.220454 25.603825 20.885357 33.310152 1.407429 0.893104 0.093856 -0.040291 880197.000000 0 0 1
2.969854 24.971425 20.473157 32.427493 1.452422 0.887501 0.093421 -0.042018 713700.000000 0 0 1
2.552854 25.330625 19.026157 31.782893 1.470354 0.929008 0.097348 -0.049811 -241095.000000 0 0 1
1.761254 26.537725 19.126657 32.759455 1.504526 0.947332 0.096410 -0.050430 344443.000000 0 0 1
1.473354 26.990425 17.862657 32.399512 1.516262 0.986845 0.102977 -0.048780 -65609.900000 0 0 1
0.340054 28.035725 17.763957 33.191501 1.558668 1.006057 0.095095 -0.034510 -277819.000000 0 0 1
0.621154 29.192625 18.451557 34.540631 1.549522 1.007237 0.099653 -0.031437 -114291.000000 0 0 1
-0.357346 30.209625 18.476757 35.413835 -1.558968 1.021909 0.078148 -0.025935 -474835.000000 0 0 1
0.057654 31.514625 19.163657 36.883881 1.568967 1.024452 0.078123 -0.014062 -186529.000000 0 0 1
0.197254 31.313725 20.525457 37.441724 1.564497 0.990589 0.093599 -0.011854 96574.400000 0 0 1
0.678554 32.535225 21.103557 38.786099 1.549943 0.995479 0.100337 -0.017564 3074.960000 0 0 1
1.252454 32.465825 22.525257 39.534614 1.532238 0.964582 0.114110 -0.033383 -269056.000000 0 0 1
0.255454 32.113725 23.427177 39.751594 1.562842 0.940556 0.124913 -0.023495 320938.000000 0 0 1
0.831254 32.021225 24.762707 40.487548 1.544843 0.912699 0.129659 -0.024315 333976.000000 0 0 1
-0.330346 32.008925 25.745397 41.079264 -1.560476 0.893453 0.140079 -0.029606 -66358.600000 0 0 1
-1.216346 33.097425 25.891057 42.038862 -1.534062 0.907289 0.140796 -0.023964 259517.000000 0 0 1
-2.151746 32.989425 26.939397 42.645789 -1.505663 0.887051 0.147574 -0.028360 -23018.900000 0 0 1
-1.577846 33.210525 28.353667 43.696213 -1.523322 0.864683 0.167423 -0.041846 -167261.000000 0 0 1
-0.505846 32.315425 28.647407 43.188153 -1.555144 0.845555 0.164218 -0.044452 374327.000000 0 0 1
0.141054 32.775225 29.817347 44.309248 1.566493 0.832624 0.146421 -0.052461 78188.200000 0 0 1
1.440154 32.002225 30.272847 44.075637 1.525825 0.813666 0.123994 -0.043426 1155010.000000 0 0 1
2.688954 32.320725 29.674007 43.959146 1.487792 0.829783 0.099689 -0.045548 465055.000000 0 0 1
2.736154 31.761625 28.377387 42.679779 1.484862 0.843449 0.099494 -0.041998 -834210.000000 0 0 1
4.182554 31.616125 27.855987 42.344175 1.439268 0.852840 0.076845 -0.035845 58157.900000 0 0 1
4.701754 30.422025 28.520337 41.964458 1.417459 0.823537 0.077957 -0.038528 686062.000000 0 0 1
6.070954 30.294625 28.103897 41.766612 1.373019 0.832702 0.073867 -0.048266 648472.000000 0 0 1
6.848654 29.111425 28.771727 41.499295 1.339741 0.804729 0.061817 -0.031716 138620.000000 0 0 1
6.999254 29.243125 30.179257 42.602083 1.335869 0.783570 0.072491 -0.039689 205265.000000 0 0 1
7.692454 28.126825 30.725677 42.359880 1.303833 0.759256 0.058091 -0.035770 81056.700000 0 0 1
7.826754 28.141125 32.242510 43.505867 1.299527 0.736078 0.085102 -0.039550 -182730.000000 0 0 1
6.543154 28.060025 32.840456 43.688367 1.341706 0.720163 0.088896 -0.044485 98987.100000 0 0 1
6.583754 27.928825 -33.595139 44.181426 1.339290 2.434711 0.108100 -0.043447 -55562.600000 0 0 1
6.864954 26.550125 -32.942169 42.862842 1.317772 2.447366 0.095619 -0.040519 238348.000000 0 0 1
8.130454 25.920625 -33.005259 42.747283 1.266848 2.452938 0.080563 -0.039758 324840.000000 0 0 1
7.893254 24.541025 -32.884579 41.784697 1.259611 2.476728 0.084526 -0.041883 73960.100000 0 0 1
9.217454 23.909625 -33.325489 42.038314 1.202841 2.486089 0.079128 -0.038993 -466178.000000 0 0 1
9.578254 23.915725 33.150976 41.984427 1.189859 0.660637 0.054069 -0.033132 21367.600000 0 0 1
10.816354 23.274125 32.907874 41.732561 1.135755 0.662362 0.065853 -0.045859 -156580.000000 0 0 1
10.915754 21.748525 33.144925 41.118586 1.105624 0.633296 0.060382 -0.046567 -1170680.000000 0 0 1
10.167554 21.036925 32.211708 39.793537 1.120582 0.627546 0.042539 -0.040132 -135752.000000 0 0 1
9.653754 19.806825 32.584993 39.335570 1.117283 0.594578 0.035657 -0.038774 -344363.000000 0 0 1
8.423054 19.781425 33.496757 39.803083 1.168243 0.570628 0.062369 -0.041204 -847179.000000 0 0 1
8.582054 20.257625 -33.007889 39.667918 1.170073 2.553689 0.064614 -0.040293 -220470.000000 0 0 1
7.379654 20.450525 -32.301919 38.937093 1.224485 2.549174 0.083587 -0.037147 -312685.000000 0 0 1
7.654654 20.854225 -30.873849 38.035339 1.219009 2.517879 0.097249 -0.047613 -70918.300000 0 0 1
8.109254 22.160725 -30.769139 38.776251 1.220002 2.487343 0.112807 -0.050684 -63795.500000 0 0 1
8.273454 22.614125 -29.409099 38.009786 1.220069 2.455495 0.087451 -0.047260 188421.000000 0 0 1
9.755454 22.916825 -29.020779 38.243370 1.168342 2.432334 0.082178 -0.049013 589665.000000 0 0 1
10.497754 21.704825 -28.900549 37.637003 1.120306 2.446315 0.081770 -0.044692 190045.000000 0 0 1
11.896754 21.997825 -28.963979 38.266815 1.075032 2.429346 0.088164 -0.044837 802150.000000 0 0 1
12.735854 20.662425 -28.896229 37.737645 1.018421 2.442946 0.089645 -0.054745 117466.000000 0 0 1
12.592254 19.676925 -29.960829 37.992072 1.001518 2.479337 0.078630 -0.044096 376864.000000 0 0 1
11.254454 19.195425 -30.130729 37.456480 1.040504 2.505494 0.087049 -0.039729 302834.000000 0 0 1
11.139954 18.118425 -31.224619 37.780322 1.019536 2.543620 0.080311 -0.042057 -454439.000000 0 0 1
11.890354 16.940925 -30.977219 37.255383 0.958815 2.552568 0.100119 -0.033393 162509.000000 0 0 1
12.068254 16.095425 -32.116079 37.896543 0.927427 2.581992 0.080125 -0.026023 642492.000000 0 0 1
13.102354 16.513625 -33.265729 39.382486 0.900076 2.576770 0.065305 -0.012840 507584.000000 0 0 1
12.737754 17.820725 -33.723509 40.213228 0.950225 2.565536 0.067175 -0.024922 69020.000000 0 0 1
13.275454 18.189025 32.811301 39.795224 0.940309 0.601472 0.074924 -0.029594 1585.790000 0 0 1
12.853454 17.330425 31.577527 38.245198 0.932648 0.599425 0.080234 -0.043587 -834299.000000 0 0 1
13.113454 17.910225 30.323187 37.579709 0.938800 0.631906 0.073771 -0.035161 278518.000000 0 0 1
12.338154 17.315425 29.261417 36.170216 0.951695 0.628361 0.069661 -0.038293 1449370.000000 0 0 1
10.767954 17.472425 29.247227 35.730027 1.018490 0.611894 0.044466 -0.033385 221734.000000 0 0 1
10.128554 16.771925 30.227477 36.022014 1.027515 0.575098 0.052275 -0.026882 -1578140.000000 0 0 1
8.781454 17.058225 30.080067 35.677829 1.095384 0.567769 0.060627 -0.023927 -908325.000000 0 0 1
8.054354 16.178825 31.160927 36.022638 1.108884 0.525571 0.071912 -0.024390 -318080.000000 0 0 1
8.438254 16.314825 32.493833 37.325954 1.093473 0.514492 0.082321 -0.024211 -5089.630000 0 0 1
7.891454 15.328425 33.350964 37.543608 1.095359 0.477109 0.094043 -0.030782 -133257.000000 0 0 1
8.046454 15.501325 -32.940499 37.284219 1.092000 2.654072 0.095887 -0.031496 -33339.900000 0 0 1
7.099554 16.435325 -32.465429 37.074623 1.163038 2.637634 0.088777 -0.030869 235522.000000 0 0 1
7.193454 16.551325 -31.077849 35.937791 1.160810 2.615484 0.090574 -0.037679 -262360.000000 0 0 1
6.053154 17.399325 -30.501199 35.632855 1.235997 2.598250 0.103106 -0.042492 -668680.000000 0 0 1
5.982554 17.601225 -29.113909 34.542926 1.243153 2.573322 0.095047 -0.045579 -22634.000000 0 0 1
5.104554 18.604125 -28.682679 34.566834 1.303009 2.549500 0.111596 -0.051669 841095.000000 0 0 1
3.542154 18.528325 -28.797859 34.426187 1.381900 2.561680 0.137268 -0.056375 67354.400000 0 0 1
2.954654 17.680825 -27.826829 33.100966 1.405216 2.569307 0.146542 -0.052743 108882.000000 0 0 1
1.601354 17.326625 -28.080169 33.034409 1.478637 2.586835 0.145712 -0.048480 1124250.000000 0 0 1
0.525654 18.446125 -27.731599 33.310320 1.542307 2.554442 0.151437 -0.055459 58724.800000 0 0 1
0.319954 18.677725 -26.360909 32.308781 1.553668 2.525090 0.159615 -0.057220 -283089.000000 0 0 1
-0.353346 19.890725 -26.168209 32.871583 -1.553034 2.491576 0.168938 -0.053198 -171525.000000 0 0 1
-0.857746 20.121125 -24.722309 31.887113 -1.528193 2.457998 0.144952 -0.056316 341974.000000 0 0 1
-1.980746 19.383725 -24.263109 31.118332 -1.468964 2.464990 0.136490 -0.045825 -8442.070000 0 0 1
-2.379046 19.791025 -23.017109 30.448840 -1.451162 2.427866 0.137525 -0.046896 214463.000000 0 0 1
-3.499546 19.048525 -22.247209 29.496295 -1.389105 2.425288 0.108998 -0.043114 434155.000000 0 0 1
-4.827646 19.312525 -22.664409 30.165464 -1.325841 2.420881 0.104431 -0.035874 -93781.600000 0 0 1
-5.709346 18.552625 -21.867209 29.239893 -1.272256 2.415622 0.086534 -0.040428 -979131.000000 0 0 1
-7.165546 18.918625 -21.886709 29.804151 -1.208737 2.395506 0.115093 -0.032848 -838144.000000 0 0 1
-7.554546 19.991025 -21.042109 29.991375 -1.209488 2.348444 0.068550 -0.030343 -155249.000000 0 0 1
-7.247746 21.298025 -21.506909 31.123670 -1.242788 2.333688 0.062825 -0.035048 -187727.000000 0 0 1
-7.763346 22.476925 -20.675709 31.511373 -1.238233 2.286482 0.062851 -0.039819 -302677.000000 0 0 1
-7.122346 22.528925 -19.455109 30.606887 -1.264597 2.259640 0.072473 -0.040113 -181290.000000 0 0 1
-7.769346 23.323625 -18.456009 30.740502 -1.249246 2.214774 0.088353 -0.047624 -147626.000000 0 0 1
-7.007546 23.491225 -17.128309 29.905222 -1.280895 2.180657 0.109278 -0.046289 374899.000000 0 0 1
-5.710546 24.063625 -17.254209 30.155864 -1.337796 2.179943 0.115114 -0.051539 -192812.000000 0 0 1
-5.009346 23.919125 -16.045209 29.234685 -1.364352 2.151774 0.111136 -0.043240 -176249.000000 0 0 1
-3.478546 23.973725 -16.153809 29.116753 -1.426704 2.158912 0.114767 -0.043436 -54425.700000 0 0 1
-3.037046 25.274425 -16.440809 30.303802 -1.451207 2.144246 0.089867 -0.048967 -1260410.000000 0 0 1
-1.864246 25.333925 -17.148909 30.649115 -1.497342 2.164607 0.097528 -0.051704 -808916.000000 0 0 1
-1.341646 26.751525 -17.298109 31.885242 -1.520686 2.144220 0.086871 -0.065118 242385.000000 0 0 1
-2.072246 27.530125 -18.261609 33.101183 -1.495666 2.155186 0.090120 -0.069657 -252707.000000 0 0 1
-1.381446 28.691525 -18.478009 34.154777 -1.522685 2.142432 0.099085 -0.072081 -1019690.000000 0 0 1
-2.119046 29.759025 -19.317209 35.542151 -1.499709 2.145399 0.140208 -0.074029 601573.000000 0 0 1
-3.295046 30.233725 -18.662609 35.682327 -1.462239 2.121188 0.111883 -0.062250 -225298.000000 0 0 1
-4.461346 29.487025 -18.793309 35.250202 -1.420637 2.133105 0.069924 -0.063750 -1063690.000000 0 0 1
-5.634446 30.066525 -17.990609 35.488095 -1.385546 2.102436 0.107304 -0.053722 -36808.000000 0 0 1
-6.259046 31.168725 -18.577009 36.820787 -1.372620 2.099628 0.149381 -0.056993 25041.700000 0 0 1
-6.038246 32.285725 -17.734609 37.327534 -1.385907 2.065883 0.144106 -0.080632 -76144.400000 0 0 1
-6.764546 33.547625 -18.227609 38.774321 -1.371824 2.060195 0.143589 -0.050564 -341094.000000 0 0 1
-8.152646 33.460825 -18.065309 38.890202 -1.331805 2.053890 0.148168 -0.071607 -188719.000000 0 0 1
-8.742046 -33.006320 -17.957209 38.578515 1.311882 2.054964 0.199821 -0.058877 326520.000000 0 0 1
30.193254 -19.917675 -26.224909 44.677648 -0.583145 2.198121 0.102149 -0.009043 72381.000000 0 0 1
29.617454 -21.027675 -25.618189 44.448266 -0.617390 2.185063 0.110101 -0.015041 -114521.000000 0 0 1
28.273454 -21.274475 -26.008009 43.913643 -0.645070 2.204649 0.098696 -0.022645 286378.000000 0 0 1
27.882654 -22.680175 -25.476329 44.055375 -0.682868 2.187415 0.105537 -0.016884 505886.000000 0 0 1
28.388654 -23.765975 -26.346179 45.440713 -0.696995 2.189270 0.097777 -0.001765 487099.000000 0 0 1
29.778954 -24.071675 -26.445159 46.535772 -0.679809 2.175205 0.095045 -0.003296 514669.000000 0 0 1
30.164254 -25.443595 -27.023669 47.828208 -0.700709 2.171248 0.088701 -0.003960 -8269.180000 0 0 1
29.696954 -26.503625 -26.236109 47.672682 -0.728639 2.153566 0.093350 -0.007526 -283409.000000 0 0 1
30.009754 -27.808615 -26.682039 48.845016 -0.747347 2.148688 0.073929 0.000650 635525.000000 0 0 1
28.935554 -28.477405 -27.632419 49.109871 -0.777418 2.168403 0.073662 -0.003247 286683.000000 0 0 1
28.749254 -28.015925 -28.959079 49.497878 -0.772480 2.195747 0.056508 -0.004399 463279.000000 0 0 1
29.820354 -28.188095 -29.911609 50.779194 -0.757267 2.200682 0.032348 -0.004302 11726.100000 0 0 1
30.049254 -29.619355 -30.522969 52.076055 -0.778194 2.197062 0.045210 -0.000435 -851871.000000 0 0 1
30.663754 -30.632675 -29.754479 52.573336 -0.784891 2.172395 0.057442 -0.005237 702940.000000 0 0 1
31.941554 -30.408605 -29.128959 52.853026 -0.760817 2.154516 0.060183 -0.010327 1009580.000000 0 0 1
33.132154 -30.037875 -30.075959 53.894127 -0.736454 2.162838 0.050399 -0.015215 -281383.000000 0 0 1
32.966054 -28.702855 -30.622149 53.369754 -0.716378 2.181902 0.058399 -0.022352 -290822.000000 0 0 1
34.276654 -28.338165 -30.975009 54.197710 -0.690839 2.179152 0.061391 -0.021916 -48918.400000 0 0 1
34.326154 -26.914015 -31.682259 53.911173 -0.664950 2.198979 0.046596 -0.010783 -166106.000000 0 0 1
34.165754 -25.778795 -30.829309 52.747429 -0.646389 2.195023 0.042114 -0.006623 117257.000000 0 0 1
32.816454 -25.484255 -30.499739 51.542225 -0.660290 2.204015 0.058337 -0.007652 142338.000000 0 0 1
32.680054 -24.192975 -29.704149 50.354964 -0.637263 2.201725 0.060294 -0.006441 50785.600000 0 0 1
33.360954 -24.194375 -28.416319 50.058049 -0.627459 2.174466 0.061007 0.002934 363321.000000 0 0 1
33.490554 -22.856375 -27.863549 49.197647 -0.598865 2.172878 0.056248 -0.000338 23539.700000 0 0 1
34.458954 -22.781575 -26.651259 49.160037 -0.584154 2.143769 0.049055 0.000672 -197999.000000 0 0 1
34.005654 -23.556675 -25.564779 48.629820 -0.605829 2.124336 0.052244 -0.003798 -14791.200000 0 0 1
33.157054 -22.960775 -24.618709 47.251119 -0.605665 2.118840 0.075939 -0.002829 -14284.500000 0 0 1
33.790254 -21.852475 -23.685509 46.693846 -0.574058 2.102788 0.072960 -0.001157 -226341.000000 0 0 1
34.155854 -20.702475 -24.387109 46.796858 -0.544906 2.118967 0.079482 -0.008944 -20605.600000 0 0 1
34.354854 -19.643575 -23.453509 46.002099 -0.519414 2.105790 0.059569 -0.012086 61231.700000 0 0 1
34.483954 -18.308375 -24.232009 45.951387 -0.488080 2.126263 0.038941 -0.009843 1287490.000000 0 0 1
33.229154 -18.072375 -24.941409 45.308513 -0.498126 2.153735 0.053579 -0.011376 1281230.000000 0 0 1
33.256154 -16.831575 -25.605429 45.220700 -0.468531 2.172724 0.052243 -0.013761 671531.000000 0 0 1
32.179754 -16.627075 -26.769339 45.039912 -0.476913 2.207250 0.054815 -0.012774 1118680.000000 0 0 1
30.842054 -16.363675 -26.327429 43.727974 -0.487799 2.216891 0.079430 -0.014692 768446.000000 0 0 1
30.026154 -16.376975 -27.550479 43.918153 -0.499323 2.248896 0.078260 -0.014565 494113.000000 0 0 1
28.588654 -15.813175 -27.308339 42.580665 -0.505241 2.267029 0.083110 -0.008847 681735.000000 0 0 1
27.749154 -16.780075 -26.629369 41.960812 -0.543872 2.258319 0.092194 -0.002428 380684.000000 0 0 1
27.946354 -16.901675 -25.209629 41.257614 -0.543934 2.228157 0.115958 -0.006825 -208461.000000 0 0 1
26.885654 -17.874775 -24.599309 40.589062 -0.586740 2.221891 0.118242 -0.014836 410679.000000 0 0 1
26.918154 -17.846875 -23.237609 39.787994 -0.585463 2.194488 0.127011 -0.010570 186955.000000 0 0 1
25.949654 -18.741675 -22.683409 39.232282 -0.625492 2.187295 0.128524 -0.015077 363861.000000 0 0 1
25.751354 -18.447675 -21.183409 38.107555 -0.621633 2.160223 0.122709 -0.029627 2507.180000 0 0 1
25.075854 -17.249775 -20.764209 36.844342 -0.602561 2.169492 0.117378 -0.024214 309751.000000 0 0 1
25.636054 -15.968175 -21.166209 36.880866 -0.557073 2.182066 0.126423 -0.022062 136118.000000 0 0 1
26.962554 -15.487275 -20.549609 37.270920 -0.521383 2.154787 0.112043 -0.012681 -7405.370000 0 0 1
26.795354 -14.342775 -19.735109 36.237836 -0.491465 2.146708 0.103960 -0.019217 -340694.000000 0 0 1
27.995754 -13.753575 -19.362309 36.712697 -0.456642 2.126335 0.083232 -0.011025 -688945.000000 0 0 1
27.787654 -12.550875 -18.376709 35.600304 -0.424243 2.113199 0.082885 -0.011545 -103046.000000 0 0 1
27.861454 -13.010175 -17.049409 35.159744 -0.436868 2.077060 0.073041 -0.002185 193028.000000 0 0 1
27.567954 -11.976475 -16.087609 34.091630 -0.409835 2.062233 0.059250 -0.006973 72255.200000 0 0 1
28.161854 -12.390775 -14.730809 34.111847 -0.414494 2.017326 0.070196 -0.006030 -240397.000000 0 0 1
27.783754 -13.627075 -14.242609 34.065908 -0.455994 2.002138 0.097910 -0.011935 165950.000000 0 0 1
28.170654 -13.742675 -12.856809 33.878377 -0.453870 1.960051 0.109999 -0.016421 -55275.400000 0 0 1
27.629854 -14.978875 -12.066309 33.665581 -0.496778 1.937368 0.110613 -0.028108 575758.000000 0 0 1
26.289254 -14.821975 -11.582209 32.325894 -0.513379 1.937237 0.092585 -0.022570 592769.000000 0 0 1
25.896354 -16.011475 -10.937509 32.351470 -0.553760 1.915676 0.069815 -0.018411 -713277.000000 0 0 1
24.402654 -16.007575 -10.650909 31.067247 -0.580565 1.920728 0.074517 -0.017196 -813314.000000 0 0 1
24.163054 -15.333375 -9.418909 30.127752 -0.565458 1.888759 0.062118 -0.014107 -420773.000000 0 0 1
22.822054 -15.384575 -9.065509 28.977832 -0.593138 1.888981 0.075088 -0.017920 -841040.000000 0 0 1
22.521654 -15.091575 -7.572209 28.148160 -0.590370 1.843164 0.064817 -0.016895 -274412.000000 0 0 1
22.810754 -13.784475 -7.094109 27.580222 -0.543573 1.830938 0.088678 -0.014610 286817.000000 0 0 1
22.523254 -13.474975 -5.723109 26.863096 -0.539146 1.785489 0.095290 -0.014818 -164750.000000 0 0 1
23.319454 -14.318675 -4.657609 27.758147 -0.550667 1.739386 0.085862 -0.014131 -46198.600000 0 0 1
24.700354 -14.064175 -4.796209 28.825547 -0.517609 1.737961 0.094620 -0.017140 -76504.900000 0 0 1
25.426254 -14.734375 -3.812509 29.633283 -0.525205 1.699810 0.097116 -0.028580 -80098.500000 0 0 1
26.961854 -14.583375 -3.946309 30.906145 -0.495821 1.698833 0.108950 -0.031300 44330.800000 0 0 1
27.506954 -13.378075 -3.482809 30.785311 -0.452670 1.684171 0.112312 -0.032524 922129.000000 0 0 1
28.892454 -13.229075 -3.847509 32.009150 -0.429382 1.691288 0.134494 -0.046557 808914.000000 0 0 1
29.510354 -11.917975 -3.267509 31.993371 -0.383827 1.673106 0.149617 -0.046345 -894118.000000 0 0 1
29.651154 -11.887175 -1.870109 31.999894 -0.381283 1.629271 0.162426 -0.051643 215950.000000 0 0 1
30.266254 -10.759275 -1.297009 32.147945 -0.341555 1.611152 0.156804 -0.040675 230119.000000 0 0 1
31.794454 -10.640875 -1.547009 33.563504 -0.322959 1.616905 0.176730 -0.040696 -379540.000000 0 0 1
32.004054 -10.191375 -2.838309 33.707264 -0.308287 1.655101 0.181180 -0.043768 -53501.300000 0 0 1
33.314154 -10.396775 -3.312709 35.055668 -0.302505 1.665436 0.208370 -0.052543 -114620.000000 0 0 1
33.345454 -10.395575 -4.894709 35.269611 -0.302205 1.710025 0.203202 -0.052048 -324220.000000 0 0 1
32.435454 -11.294675 -5.452609 34.775844 -0.335088 1.728239 0.174981 -0.053208 176465.000000 0 0 1
32.522254 -11.262575 -6.853009 35.092825 -0.333378 1.767342 0.165415 -0.042437 547945.000000 0 0 1
31.113754 -11.612175 -7.454609 34.036444 -0.357206 1.791605 0.166589 -0.032056 507371.000000 0 0 1
30.960754 -12.980075 -7.501609 34.399488 -0.396984 1.790636 0.145110 -0.033277 655935.000000 0 0 1
29.647854 -13.243575 -8.006809 33.443931 -0.420103 1.812554 0.136469 -0.028030 643925.000000 0 0 1
29.257454 -14.749575 -8.084109 33.747613 -0.466947 1.812695 0.145903 -0.031579 185266.000000 0 0 1
29.910454 -15.383975 -9.180709 34.865275 -0.475049 1.837258 0.155170 -0.034236 259703.000000 0 0 1
29.810154 -16.771375 -9.081709 35.389289 -0.512470 1.830323 0.150474 -0.032067 81983.200000 0 0 1
30.347354 -17.353975 -10.442209 36.485094 -0.519460 1.861060 0.134170 -0.036003 105520.000000 0 0 1
31.704054 -17.178975 -10.800209 37.641848 -0.496568 1.861807 0.152009 -0.036541 295386.000000 0 0 1
31.995354 -17.845475 -11.991209 38.548058 -0.508775 1.887117 0.136027 -0.024385 109786.000000 0 0 1
31.540554 -17.109375 -13.309209 38.271038 -0.497033 1.925979 0.118811 -0.027756 229449.000000 0 0 1
32.327454 -15.950175 -13.531409 38.504174 -0.458349 1.929891 0.106228 -0.023598 480112.000000 0 0 1
31.662454 -15.261075 -14.548809 38.040495 -0.449138 1.963249 0.093057 -0.028637 -259557.000000 0 0 1
32.487654 -14.078075 -15.088609 38.487738 -0.408910 1.973641 0.080433 -0.025539 -21099.400000 0 0 1
33.527854 -14.229375 -15.998309 39.781126 -0.401366 1.984669 0.048785 -0.026622 -24837.100000 0 0 1
34.773154 -14.603975 -15.453709 40.758624 -0.397610 1.959676 0.067375 -0.030800 -854738.000000 0 0 1
35.736354 -15.098875 -16.483609 42.151778 -0.399758 1.972573 0.061284 -0.020630 -341466.000000 0 0 1
37.099654 -15.097075 -16.065009 43.155423 -0.386469 1.952238 0.065842 -0.026970 191722.000000 0 0 1
-37.011954 -15.552075 -17.166809 43.662926 0.397790 1.974869 0.064008 -0.023763 -1044680.000000 0 0 1
-35.552754 -15.644375 -16.772209 42.309003 0.414534 1.978412 0.082453 -0.029844 -866717.000000 0 0 1
-35.061254 -16.618775 -15.852509 41.913926 0.442626 1.958664 0.078178 -0.031964 151223.000000 0 0 1
-35.531654 -16.520775 -14.492009 41.778616 0.435224 1.925035 0.071773 -0.028756 -658839.000000 0 0 1
-34.855654 -17.429175 -13.466109 41.231406 0.463679 1.903499 0.069111 -0.020072 60568.700000 0 0 1
-33.486154 -17.105775 -13.278609 39.877957 0.472275 1.910260 0.121525 -0.024642 100114.000000 0 0 1
-32.972254 -17.635775 -12.109209 39.304237 0.491151 1.883980 0.126478 -0.006882 352484.000000 0 0 1
-31.439754 -17.905775 -12.023609 38.126658 0.517711 1.891632 0.160606 -0.014824 226337.000000 0 0 1
-30.711954 -16.722475 -12.001009 36.971468 0.498606 1.901387 0.148147 -0.028411 306087.000000 0 0 1
-29.366654 -16.801175 -11.524609 35.742082 0.519665 1.899100 0.144966 -0.019983 575333.000000 0 0 1
-29.191254 -16.566075 -9.983909 35.017746 0.516181 1.859917 0.153335 -0.024922 46517.300000 0 0 1
-29.944854 -17.543875 -9.268809 35.922035 0.529967 1.831774 0.151152 -0.025580 40995.100000 0 0 1
-30.245554 -17.135275 -7.929409 35.655108 0.515452 1.795063 0.157888 -0.025086 -346782.000000 0 0 1
-30.699954 -18.232275 -6.991809 36.383903 0.535912 1.764167 0.152928 -0.032013 804805.000000 0 0 1
-31.944554 -18.875775 -7.338909 37.823392 0.533695 1.766066 0.128255 -0.027707 597599.000000 0 0 1
-32.016454 -19.554775 -8.620709 38.493625 0.548303 1.796664 0.123433 -0.018461 323785.000000 0 0 1
-33.414054 -20.228175 -8.943609 40.070765 0.544365 1.795888 0.103276 -0.017629 1490330.000000 0 0 1
-34.461754 -19.366775 -9.427609 40.639442 0.511993 1.804911 0.098531 -0.016787 52869.700000 0 0 1
-35.616354 -20.129475 -9.563509 42.014059 0.514419 1.800436 0.086139 -0.018812 -482357.000000 0 0 1
-36.892654 -19.404575 -10.011409 42.869963 0.484210 1.806502 0.086938 -0.036733 66449.200000 0 0 1
-37.211754 -19.228275 -11.442709 43.420925 0.476939 1.837476 0.077013 -0.041278 356341.000000 0 0 1
36.527954 -18.372875 -11.567909 42.493182 -0.466030 1.846506 0.095772 -0.047738 373919.000000 0 0 1
36.171454 -18.103375 -13.101709 42.517774 -0.464038 1.884041 0.080049 -0.040429 -262097.000000 0 0 1
35.435154 -19.155575 -13.624209 42.522997 -0.495583 1.896944 0.046108 -0.027621 -279982.000000 0 0 1
34.873054 -18.892375 -14.875709 42.359632 -0.496485 1.929624 0.041525 -0.023053 -368713.000000 0 0 1
33.828154 -19.892475 -15.389209 42.153082 -0.531583 1.944514 0.061776 -0.027710 -1448090.000000 0 0 1
32.748954 -19.857075 -14.482109 40.945438 -0.545070 1.932313 0.093309 -0.033861 -446275.000000 0 0 1
31.550554 -20.416075 -14.956209 40.446777 -0.574327 1.949563 0.107946 -0.032893 309177.000000 0 0 1
30.902754 -19.760575 -16.213909 40.104256 -0.568919 1.987003 0.094396 -0.022520 -1073430.000000 0 0 1
30.103154 -18.597975 -15.951109 38.813947 -0.553411 1.994307 0.082556 -0.025025 551807.000000 0 0 1
29.366354 -18.191575 -17.084609 38.538293 -0.554613 2.030090 0.072041 -0.026530 -22662.500000 0 0 1
28.451954 -16.969775 -16.997209 37.234286 -0.537795 2.044846 0.078193 -0.014895 27589.200000 0 0 1
27.232554 -17.143075 -16.296609 36.070438 -0.561834 2.039578 0.086774 -0.026513 -56909.700000 0 0 1
26.652654 -15.884475 -16.227709 35.014555 -0.537459 2.052688 0.072615 -0.017666 -961628.000000 0 0 1
25.225454 -15.941275 -15.617209 33.680039 -0.563583 2.052956 0.052325 -0.009446 615813.000000 0 0 1
24.230254 -16.661875 -16.353109 33.647399 -0.602388 2.078319 0.065915 -0.011029 398617.000000 0 0 1
23.926654 -16.114375 -17.653809 33.820332 -0.592712 2.119976 0.081033 -0.014454 -1823740.000000 0 0 1
22.869754 -16.810475 -18.437509 33.846114 -0.633866 2.146882 0.071513 -0.015609 -1730310.000000 0 0 1
21.654454 -16.687075 -17.801409 32.623060 -0.656560 2.147984 0.072025 -0.006674 -1270730.000000 0 0 1
20.749054 -17.446475 -18.568909 32.858897 -0.699148 2.171364 0.067541 -0.017888 1033100.000000 0 0 1
19.245054 -17.643175 -18.143209 31.793549 -0.742000 2.178102 0.074505 -0.012415 796905.000000 0 0 1
18.421254 -16.547675 -18.089809 30.666094 -0.731871 2.201726 0.088580 -0.004259 -49945.100000 0 0 1
17.072654 -16.980175 -17.924209 30.017980 -0.782682 2.210697 0.097867 -0.016129 759500.000000 0 0 1
16.093054 -15.818475 -17.488009 28.548923 -0.776794 2.230095 0.104442 -0.011970 327630.000000 0 0 1
15.694954 -14.915175 -18.514109 28.488002 -0.759929 2.278238 0.093818 -0.007655 182143.000000 0 0 1
14.412454 -14.423875 -18.167609 27.309870 -0.785794 2.298611 0.108690 -0.009677 313439.000000 0 0 1
13.648154 -13.823775 -19.374309 27.435975 -0.791791 2.354863 0.086438 -0.010959 212327.000000 0 0 1
14.275054 -12.707075 -19.956709 27.631814 -0.727352 2.377827 0.089969 -0.013909 439699.000000 0 0 1
13.362454 -12.194775 -20.956509 27.684707 -0.739741 2.429461 0.093207 -0.011912 629001.000000 0 0 1
13.643754 -10.783375 -21.506009 27.657578 -0.668831 2.461606 0.083810 -0.013711 -713366.000000 0 0 1
14.822454 -10.714975 -22.234309 28.790282 -0.625922 2.453227 0.070768 -0.009673 -855062.000000 0 0 1
15.193954 -9.398075 -22.335409 28.601583 -0.553941 2.466926 0.077448 -0.014982 916618.000000 0 0 1
16.558254 -9.123375 -23.095209 29.846280 -0.503600 2.455623 0.067066 -0.015802 1031680.000000 0 0 1
16.545354 -9.436775 -24.478809 31.016343 -0.518339 2.480339 0.084424 -0.012895 332465.000000 0 0 1
17.855354 -9.216575 -24.984509 32.062199 -0.476508 2.464267 0.085866 -0.018056 -241791.000000 0 0 1
23.022054 5.070525 -7.240209 24.660613 0.216785 1.868781 0.204944 0.003633 -135480.000000 0 1 0
22.698954 6.406225 -7.258309 24.677222 0.275071 1.869341 0.167714 -0.004257 441227.000000 0 1 0
21.825054 6.710725 -6.197109 23.659480 0.298303 1.835817 0.138136 -0.010594 -426032.000000 0 1 0
21.447554 8.198325 -6.133609 23.766179 0.365112 1.831832 0.124927 -0.008180 -266852.000000 0 1 0
20.601654 8.668025 -7.188609 23.478478 0.398260 1.881973 0.096992 -0.006224 460410.000000 0 1 0
20.197754 10.035725 -7.193209 23.672924 0.461143 1.879536 0.082415 -0.001512 3771.380000 0 1 0
19.572654 10.720125 -5.938909 23.092867 0.501083 1.830894 0.099669 -0.007438 -161898.000000 0 1 0
20.410354 10.889825 -4.793309 23.625128 0.490121 1.775105 0.111484 -0.011693 69928.000000 0 1 0
20.510654 12.286325 -4.508409 24.330361 0.539700 1.757173 0.148422 -0.016590 -59533.100000 0 1 0
21.318054 12.595925 -3.263409 24.975320 0.533670 1.701836 0.134000 -0.036142 114188.000000 0 1 0
22.721854 12.431725 -3.385509 26.120722 0.500634 1.700772 0.124595 -0.050688 203839.000000 0 0 1
23.414654 12.977625 -2.330109 26.871811 0.506102 1.657617 0.123589 -0.052321 -697283.000000 0 0 1
24.450154 12.065725 -1.721909 27.319531 0.458420 1.633867 0.116260 -0.044091 -1136860.000000 0 0 1
25.648554 11.913025 -2.419109 28.383457 0.434823 1.656129 0.109047 -0.037596 -247568.000000 0 0 1
26.438654 10.988625 -1.710609 28.682373 0.393905 1.630471 0.125289 -0.035062 846856.000000 0 0 1
27.905654 10.712725 -2.233209 29.974577 0.366543 1.645369 0.135337 -0.031653 817388.000000 0 0 1
28.815754 11.726125 -1.841109 31.164714 0.386470 1.629907 0.123033 -0.043569 959415.000000 0 0 1
30.165554 11.204325 -1.824009 32.230802 0.355635 1.627419 0.121563 -0.032378 787886.000000 0 0 1
31.176854 12.306925 -1.488309 33.551032 0.375969 1.615170 0.105143 -0.029530 -748342.000000 0 0 1
31.189354 12.780125 -0.145009 33.706505 0.388891 1.575098 0.137761 -0.038822 594238.000000 0 0 1
32.149354 13.814725 0.102391 34.991972 0.405849 1.567870 0.120444 -0.039780 478841.000000 0 0 1
33.625154 13.349725 0.289791 36.179416 0.377931 1.562786 0.129761 -0.042947 459503.000000 0 0 1
34.589554 14.394825 0.457391 37.468086 0.394360 1.558589 0.122106 -0.045250 380288.000000 0 0 1
35.332654 14.790125 -0.691509 38.309561 0.396434 1.588848 0.133228 -0.035062 -174854.000000 0 0 1
34.698054 15.717125 -1.771509 38.132942 0.425320 1.617269 0.072978 -0.009267 588707.000000 0 0 1
33.532854 15.195225 -2.446109 36.896215 0.425466 1.637142 0.084164 -0.009505 481697.000000 0 0 1
32.911254 16.201825 -3.238609 36.825784 0.457459 1.658854 0.054228 0.004493 -7517.080000 0 0 1
31.563054 15.659825 -3.753709 35.433697 0.460558 1.676932 0.069359 -0.017142 -1072700.000000 0 0 1
31.628754 14.675525 -4.718109 35.185362 0.434430 1.705294 0.058546 -0.012557 681889.000000 0 0 1
30.474854 14.563325 -5.580209 34.233696 0.445796 1.734530 0.062641 -0.029916 635134.000000 0 0 1
29.207354 14.034225 -4.856809 32.766105 0.447929 1.719571 0.093116 -0.033126 -970261.000000 0 0 1
28.136654 13.899525 -5.748909 31.904828 0.458837 1.751975 0.112152 -0.040905 -526628.000000 0 0 1
27.149454 13.069125 -5.210009 30.578409 0.448639 1.742014 0.104236 -0.025984 -399531.000000 0 0 1
26.031954 12.872725 -6.264409 29.708795 0.459236 1.783251 0.092875 -0.033049 -358937.000000 0 0 1
26.512254 12.205825 -7.429209 30.117685 0.431456 1.820042 0.081284 -0.021257 11587.100000 0 0 1
25.555854 11.958725 -8.418309 29.444536 0.437676 1.860746 0.100477 -0.017943 -358937.000000 0 0 1
25.268354 13.217025 -9.263109 29.983073 0.481930 1.884879 0.110305 -0.009224 -262219.000000 0 0 1
24.348354 14.034425 -8.575709 29.382822 0.522887 1.866969 0.099876 -0.018515 -189531.000000 0 0 1
24.104954 15.226525 -9.267209 29.979611 0.563386 1.885061 0.104274 -0.027784 -622051.000000 0 0 1
23.039254 16.106725 -8.566009 29.387248 0.610121 1.866578 0.095964 -0.015409 838230.000000 0 0 1
21.652954 15.773125 -8.643109 28.148628 0.629567 1.882891 0.108907 -0.023748 720956.000000 0 0 1
21.342254 14.555225 -8.005409 27.045018 0.598537 1.871302 0.117467 -0.025174 -698259.000000 0 0 1
19.815154 14.277225 -8.168409 25.752717 0.624366 1.893557 0.129102 -0.019868 780925.000000 0 0 1
18.995554 15.080625 -7.308609 25.331248 0.671012 1.863479 0.169463 -0.043568 -655583.000000 0 0 1
17.643254 14.990025 -7.593309 24.364803 0.704272 1.887726 0.176870 -0.034249 -886908.000000 0 1 0
16.816554 15.493725 -6.415609 23.748938 0.744480 1.844338 0.163368 -0.014737 -564130.000000 0 1 0
16.568054 14.458225 -5.508609 22.669042 0.717501 1.816255 0.118651 -0.017063 354089.000000 0 1 0
15.968354 14.946525 -4.323009 22.295187 0.752357 1.765931 0.092700 -0.002668 -298025.000000 0 1 0
15.658554 13.800625 -3.394009 21.146321 0.722414 1.731995 0.075429 0.000755 -439867.000000 0 1 0
16.834154 13.241025 -2.855709 21.607142 0.666490 1.703349 0.071291 -0.005432 450706.000000 0 1 0
16.553254 12.377025 -1.719409 20.740235 0.642034 1.653794 0.058834 -0.013130 84027.300000 0 1 0
16.554854 13.136425 -0.347909 21.136459 0.670770 1.587257 0.063660 -0.017585 -358979.000000 0 1 0
15.582854 14.143325 -0.332509 21.046842 0.737010 1.586595 0.066142 -0.018463 239314.000000 0 1 0
15.764954 14.897425 0.901791 21.708991 0.757113 1.529244 0.069761 -0.016371 -480611.000000 0 1 0
14.595054 15.814325 1.244991 21.555939 0.825472 1.513008 0.068609 -0.010021 -526293.000000 0 1 0
14.347954 16.872225 0.385191 22.151392 0.866076 1.553406 0.070258 -0.014117 318706.000000 0 1 0
13.447554 17.835525 0.918791 22.355913 0.924756 1.529686 0.058189 -0.017211 -80461.600000 0 1 0
13.382854 19.211125 0.256091 23.414391 0.962342 1.559859 0.050253 -0.016220 -459449.000000 0 1 0
12.945754 19.042725 -1.072409 23.051421 0.973738 1.617336 0.047799 -0.024764 94395.400000 0 1 0
12.324554 20.245925 -1.553609 23.753017 1.023973 1.636250 0.051301 -0.027596 -9047.690000 0 1 0
10.811254 20.330525 -1.322709 23.064324 1.082053 1.628176 0.037111 -0.026237 -487491.000000 0 1 0
10.436354 20.468625 0.075191 22.975808 1.099283 1.567524 0.031145 -0.028635 -1327190.000000 0 1 0
9.079254 20.247625 0.051791 22.190130 1.149265 1.568462 0.034052 -0.032402 -1078970.000000 0 1 0
8.371054 20.524425 1.384791 22.209102 1.183534 1.508403 0.027227 -0.026221 -72559.900000 0 1 0
8.261454 21.913825 1.785691 23.487360 1.210276 1.494695 0.020445 -0.021025 -201435.000000 0 1 0
7.372754 22.101125 2.830291 23.469721 1.248813 1.449909 0.027201 -0.015736 -369686.000000 0 1 0
7.363554 23.495725 3.528191 24.874066 1.267092 1.428474 0.036134 -0.007730 144458.000000 0 1 0
7.927254 23.549925 4.850691 25.317376 1.246095 1.378009 0.048374 -0.017799 268057.000000 0 0 1
7.778654 24.852025 5.429491 26.600940 1.267457 1.365243 0.046005 -0.008825 88502.400000 0 0 1
8.308854 24.959625 6.911091 27.198955 1.249443 1.313885 0.058839 -0.013647 177902.000000 0 0 1
7.516054 24.222025 7.841491 26.545933 1.269918 1.270929 0.067237 -0.018858 201490.000000 0 0 1
7.864854 24.451125 9.184191 27.277515 1.259592 1.227392 0.066770 -0.024231 156905.000000 0 0 1
7.143954 23.417925 10.141291 26.500587 1.274701 1.178099 0.068999 -0.019967 1135280.000000 0 0 1
5.860754 23.787425 10.699391 26.733257 1.329227 1.159031 0.064765 -0.019310 769945.000000 0 0 1
5.490354 22.906025 11.687791 26.295141 1.335544 1.110197 0.062313 -0.013373 -67730.100000 0 0 1
4.066054 23.248725 12.165391 26.552453 1.397654 1.094867 0.051765 -0.027246 214000.000000 0 0 1
3.022154 23.074925 11.210091 25.831216 1.440566 1.121897 0.044375 -0.025479 -69825.000000 0 0 1
1.789454 23.199325 11.875191 26.123380 1.493815 1.098895 0.061622 -0.031195 489447.000000 0 0 1
0.608754 23.591125 10.897391 25.993555 1.544998 1.138195 0.068408 -0.023073 358294.000000 0 0 1
0.729354 24.939725 10.573991 27.098545 1.541560 1.169942 0.074373 -0.023214 579450.000000 0 0 1
-0.074346 25.264125 9.405991 26.958379 -1.567854 1.214391 0.074450 -0.020726 2835540.000000 0 0 1
-1.620946 25.670225 9.680291 27.482648 -1.507735 1.210841 0.093955 -0.038558 2196210.000000 0 0 1
-2.435046 24.720125 10.312491 26.895381 -1.472609 1.177289 0.098224 -0.042222 362423.000000 0 0 1
-3.814746 25.053125 10.181791 27.310808 -1.419691 1.188759 0.108466 -0.046679 306549.000000 0 0 1
-4.845446 24.084725 10.826291 26.846991 -1.372263 1.155721 0.096084 -0.052005 147616.000000 0 0 1
-5.212946 24.385525 12.182191 27.753098 -1.360194 1.116368 0.090341 -0.033654 340507.000000 0 0 1
-6.161546 25.422325 12.406291 28.951258 -1.333014 1.127938 0.096116 -0.034386 -157202.000000 0 0 1
-6.739846 25.463725 13.788891 29.731471 -1.312046 1.088538 0.083268 -0.026695 -330888.000000 0 0 1
-7.614946 24.434125 14.121991 29.230883 -1.268684 1.066583 0.069150 -0.024859 -247722.000000 0 0 1
-8.093446 24.498925 15.432891 30.064519 -1.251725 1.031741 0.058217 -0.014136 -214609.000000 0 0 1
-9.326346 23.616725 15.666091 29.835496 -1.194691 1.017985 0.047298 -0.016194 -72243.300000 0 0 1
-10.524946 24.276125 15.347791 30.588551 -1.161705 1.045176 0.041336 -0.009425 -90361.900000 0 0 1
-11.699446 23.480425 15.392991 30.416304 -1.108539 1.040166 0.030996 -0.007508 39854.200000 0 0 1
-12.984446 24.254125 15.148391 31.405926 -1.079270 1.067470 0.026098 -0.010527 -471793.000000 0 0 1
-13.377546 25.087225 16.247891 32.746321 -1.080911 1.051609 0.020606 -0.010654 170133.000000 0 0 1
-14.318446 26.053025 15.791891 33.662469 -1.068269 1.082497 0.014492 -0.006774 95411.200000 0 0 1
-15.099646 26.837425 16.881891 35.117587 -1.058305 1.069315 0.026933 -0.005738 -577101.000000 0 0 1
-16.204446 26.204825 17.439691 35.403669 -1.016974 1.055727 0.024595 -0.014959 -144107.000000 0 0 1
-16.747546 26.989025 18.539591 36.777768 -1.015417 1.042459 0.056725 -0.021742 424196.000000 0 0 1
-18.106046 26.483125 19.097291 37.334854 -0.971106 1.033851 0.043505 -0.030291 596715.000000 0 0 1
-19.255546 26.814725 18.343591 37.766293 -0.948028 1.063617 0.038619 -0.023951 301239.000000 0 0 1
-20.446246 26.226525 18.852391 38.226852 -0.908618 1.055065 0.048915 -0.019484 668188.000000 0 0 1
-21.657146 26.444425 17.888791 38.579119 -0.884596 1.088640 0.045261 -0.021459 118696.000000 0 0 1
-22.245246 27.728425 17.855091 39.780910 -0.894682 1.105334 0.038413 -0.027312 15562.900000 0 0 1
-22.843346 27.982225 16.642191 39.771672 -0.886164 1.139066 0.040681 -0.024870 -812478.000000 0 0 1
-23.877546 29.099725 16.608891 41.143486 -0.883655 1.155258 0.044625 -0.028926 -263106.000000 0 0 1
-25.030706 28.702325 17.347691 41.848561 -0.853623 1.143365 0.046648 -0.026626 -305340.000000 0 0 1
-25.810146 29.823125 17.481191 43.141331 -0.857406 1.153591 0.049905 -0.030067 -705377.000000 0 0 1
-27.227736 29.585925 18.024091 44.062960 -0.826882 1.149380 0.060872 -0.029014 -874338.000000 0 0 1
-28.093496 28.903825 17.141391 43.800718 -0.799614 1.168699 0.087757 -0.020339 301452.000000 0 0 1
-29.391726 28.797325 17.731091 44.805704 -0.775184 1.163931 0.118416 -0.030822 268035.000000 0 0 1
-29.580516 27.683225 18.749791 44.642161 -0.752278 1.137349 0.102936 -0.030027 -1175080.000000 0 0 1
-29.726676 26.440725 18.101591 43.708750 -0.726962 1.143797 0.103011 -0.024186 132849.000000 0 0 1
-29.644796 25.290325 19.005691 43.354709 -0.706298 1.117005 0.103789 -0.020151 -106204.000000 0 0 1
-29.747766 23.956525 18.192691 42.306249 -0.677978 1.126277 0.093781 -0.026688 324730.000000 0 0 1
-31.027566 23.851925 17.560491 42.895163 -0.655383 1.149020 0.117073 -0.031350 418617.000000 0 0 1
-31.105896 23.007525 16.444191 42.039676 -0.636845 1.168906 0.123728 -0.027507 -241473.000000 0 0 1
-31.467906 21.514225 16.696991 41.615868 -0.599694 1.157951 0.109104 -0.018575 207997.000000 0 0 1
-32.855196 21.265825 16.848191 42.609397 -0.574446 1.164282 0.116129 -0.010307 186239.000000 0 0 1
-33.222076 19.899625 16.642491 42.150610 -0.539675 1.164909 0.105733 -0.017488 16199.300000 0 0 1
-34.691969 19.679325 16.249191 43.067908 -0.515997 1.183926 0.111333 -0.024405 -191493.000000 0 0 1
-34.948605 19.947525 14.895491 42.909025 -0.518648 1.216275 0.098169 -0.023095 -212211.000000 0 0 1
-36.223456 19.528325 14.494391 43.630054 -0.494442 1.232149 0.118613 -0.034131 -397762.000000 0 0 1
-36.502746 19.890425 12.983491 43.550551 -0.498921 1.268069 0.116565 -0.029725 -71199.600000 0 0 1
-36.641566 21.287925 12.646891 44.223568 -0.526315 1.280771 0.108545 -0.034124 -77476.400000 0 0 1
-36.798126 21.486025 11.240991 44.069391 -0.528489 1.312871 0.076308 -0.030925 -158003.000000 0 0 1
-35.582356 21.258125 10.313491 42.712762 -0.538531 1.326925 0.102705 -0.034060 -216904.000000 0 0 1
-35.489867 20.008225 9.673091 41.873958 -0.513356 1.337686 0.105632 -0.020823 106604.000000 0 0 1
-34.200706 19.844225 9.110391 40.576850 -0.525755 1.344344 0.125465 -0.020178 262935.000000 0 0 1
-33.471636 18.635625 9.796291 39.542436 -0.508017 1.320448 0.109313 -0.026406 55882.500000 0 0 1
-32.916846 18.933925 11.077791 39.556664 -0.521988 1.286952 0.129783 -0.033907 122868.000000 0 0 1
-32.451056 17.793425 11.755591 38.831314 -0.501549 1.263235 0.140741 -0.038463 -11704.500000 0 0 1
-31.962986 18.142825 13.169291 39.041321 -0.516270 1.226731 0.112712 -0.021108 896396.000000 0 0 1
-30.767486 18.951325 13.265091 38.493552 -0.552067 1.218978 0.138633 -0.019128 670805.000000 0 0 1
-31.035666 20.354125 13.122091 39.366130 -0.580463 1.230958 0.128934 -0.017297 33570.700000 0 0 1
-29.747006 21.207625 13.052291 38.794459 -0.619353 1.227655 0.132509 -0.027909 254059.000000 0 0 1
-29.077136 21.159825 14.312591 38.704887 -0.629085 1.192016 0.112696 -0.016609 -30050.200000 0 0 1
-27.862766 21.890725 14.218291 38.179803 -0.665937 1.189199 0.125560 -0.023328 108469.000000 0 0 1
-27.134336 21.739925 15.612491 38.113599 -0.675470 1.148747 0.100538 -0.025816 -105271.000000 0 0 1
-26.549916 20.458125 15.855291 37.078608 -0.656526 1.128946 0.132755 -0.038773 135194.000000 0 0 1
-26.045006 20.354525 17.170191 37.248684 -0.663367 1.091719 0.108402 -0.028094 -197800.000000 0 0 1
-25.068526 19.201625 17.395891 36.052051 -0.653641 1.067265 0.128140 -0.037685 -113338.000000 0 0 1
-24.465946 19.332825 18.666691 36.342619 -0.668733 1.031385 0.124022 -0.032718 520613.000000 0 0 1
-23.345646 18.439925 18.786091 35.184759 -0.668531 1.007558 0.118717 -0.031281 571510.000000 0 0 1
-22.769446 18.521625 20.257791 35.663376 -0.682884 0.966689 0.106510 -0.029958 -150078.000000 0 0 1
-23.586046 17.887525 21.183891 36.400856 -0.648852 0.949658 0.118956 -0.017170 -103936.000000 0 0 1
-23.236346 18.199525 22.536591 37.135541 -0.664435 0.918675 0.114993 -0.018330 -101128.000000 0 0 1
-23.774646 17.236625 23.647991 37.703614 -0.627308 0.892834 0.149948 -0.021706 463087.000000 0 0 1
-23.082146 15.981925 23.662691 36.716894 -0.605603 0.870475 0.129471 -0.018275 596870.000000 0 0 1
-23.837646 15.091725 24.503491 37.368631 -0.564406 0.855656 0.142240 -0.015370 588288.000000 0 0 1
21.087954 24.702525 33.671321 46.783271 0.864172 0.767383 0.120978 -0.048456 20164.300000 0 0 1
21.921054 23.946325 32.813613 46.159423 0.829524 0.780054 0.125783 -0.056714 -136092.000000 0 0 1
22.145154 22.631125 33.293296 45.945830 0.796251 0.760313 0.142103 -0.062305 190421.000000 0 0 1
21.115154 21.559125 32.856913 44.611908 0.795801 0.742907 0.142063 -0.065818 55904.900000 0 0 1
21.307854 21.197625 31.494467 43.534647 0.782805 0.762032 0.159183 -0.059827 686643.000000 0 0 1
20.413854 20.098125 31.154217 42.323107 0.777605 0.743500 0.148545 -0.055705 358776.000000 0 0 1
20.716754 19.362625 29.811607 41.143980 0.751625 0.760389 0.133121 -0.036614 246363.000000 0 0 1
21.969454 18.692425 29.903887 41.548841 0.704980 0.767385 0.139928 -0.038378 259347.000000 0 0 1
22.272154 17.990025 28.706857 40.543477 0.679440 0.784062 0.118336 -0.030047 191855.000000 0 0 1
23.505754 17.049825 28.745167 40.859536 0.627536 0.790469 0.132355 -0.033131 102471.000000 0 0 1
24.777254 17.655325 28.783927 41.882423 0.619107 0.813092 0.141127 -0.031071 -783996.000000 0 0 1
25.682454 16.700625 29.171277 42.302042 0.576568 0.809867 0.120676 -0.015366 -1237570.000000 0 0 1
27.074354 17.268925 29.376347 43.522480 0.567775 0.829873 0.104296 -0.026423 -948058.000000 0 0 1
27.816254 17.485425 28.202177 43.299503 0.561187 0.861463 0.082316 -0.006865 -457562.000000 0 0 1
29.079354 17.979625 28.525007 44.525856 0.553763 0.875466 0.081912 0.002553 -479304.000000 0 0 1
30.135854 17.777925 27.438767 44.464709 0.532979 0.905756 0.068066 0.018208 -157487.000000 0 0 1
30.162254 18.799525 26.435637 44.294770 0.557361 0.931275 0.090958 0.006868 429340.000000 0 0 1
31.378754 18.794425 25.687917 44.695925 0.539650 0.958527 0.092626 0.001122 498129.000000 0 0 1
31.532054 20.011525 24.778547 44.818612 0.565502 0.985000 0.112331 -0.007326 138181.000000 0 0 1
30.689954 19.852925 23.658897 43.540273 0.574184 0.996339 0.104275 -0.011350 374039.000000 0 0 1
31.006554 20.943625 22.775557 43.803743 0.594064 1.024009 0.106456 -0.024229 2804.070000 0 0 1
31.608554 20.459125 21.452357 43.334515 0.574450 1.052914 0.112360 -0.019864 -394360.000000 0 0 1
30.651054 19.766625 20.696057 41.934871 0.572776 1.054654 0.119365 -0.028111 -166473.000000 0 0 1
31.008654 19.236725 19.438957 41.345632 0.555260 1.081327 0.131196 -0.036477 -221233.000000 0 0 1
32.158854 18.223325 19.299757 41.698467 0.515548 1.089599 0.158222 -0.050474 234650.000000 0 0 1
31.678054 16.921125 19.672357 40.949057 0.490600 1.069674 0.164546 -0.044618 250747.000000 0 0 1
32.742354 16.017725 19.785257 41.473916 0.454974 1.073498 0.146732 -0.037147 -953100.000000 0 0 1
32.334054 14.512725 19.769857 40.582725 0.421886 1.061973 0.154813 -0.029734 425240.000000 0 0 1
31.611454 13.923425 20.903057 40.374294 0.414888 1.026599 0.122153 -0.041793 454710.000000 0 0 1
30.335154 14.504825 21.085457 39.688891 0.446017 1.010699 0.123999 -0.025548 -606158.000000 0 0 1
29.568554 13.780025 22.202957 39.460865 0.436110 0.973199 0.087488 -0.018982 -252299.000000 0 0 1
28.987354 12.554525 21.927457 38.453819 0.408714 0.964013 0.088695 -0.019306 207350.000000 0 0 1
28.315454 12.069125 23.137687 38.506900 0.402919 0.926206 0.069485 -0.001237 324593.000000 0 0 1
27.480454 10.815025 22.841917 37.334881 0.374937 0.912447 0.084611 -0.015267 282865.000000 0 0 1
26.195054 10.911325 22.244857 36.056505 0.394684 0.905942 0.060307 -0.013855 380431.000000 0 0 1
25.710254 9.621525 21.900757 35.117433 0.358095 0.897401 0.068893 -0.006872 23323.600000 0 0 1
24.352854 9.628425 21.158457 33.666726 0.376510 0.891214 0.072978 -0.005896 340070.000000 0 0 1
23.231154 9.533225 22.034857 33.408141 0.389409 0.850556 0.043554 -0.005016 557860.000000 0 0 1
22.096554 9.048825 21.327157 32.015412 0.388680 0.841758 0.016275 0.003556 -243435.000000 0 0 1
20.798854 8.973425 22.117157 31.658859 0.407311 0.797345 0.020176 -0.005028 -575574.000000 0 0 1
20.801554 8.112225 23.182207 32.185829 0.371840 0.766617 0.053594 -0.003022 -213973.000000 0 0 1
19.588954 8.074925 23.864187 31.912866 0.390995 0.726066 0.047469 -0.001912 -416094.000000 0 0 1
19.663154 7.127225 25.049607 32.633109 0.347737 0.695687 0.079777 -0.008310 -41491.000000 0 0 1
19.978454 5.833425 24.612017 32.232265 0.284088 0.701952 0.077786 -0.015942 254090.000000 0 0 1
19.696854 4.914725 25.641167 32.704588 0.244525 0.669675 0.118907 -0.038841 -197166.000000 0 0 1
20.216354 3.510825 25.309807 32.582407 0.171948 0.681238 0.112597 -0.041284 -258482.000000 0 0 1
21.600554 3.394525 25.486157 33.580515 0.155875 0.709087 0.120839 -0.029310 -445432.000000 0 0 1
22.113154 2.141025 25.262087 33.641472 0.096520 0.721341 0.092084 -0.029712 299455.000000 0 0 1
23.649254 2.062225 25.018597 34.488697 0.086980 0.759160 0.092994 -0.020932 165037.000000 0 0 1
24.399354 2.581125 26.088937 35.813732 0.105395 0.754722 0.098988 -0.025086 147942.000000 0 0 1
25.705554 2.890925 25.599187 36.393013 0.111992 0.790613 0.100069 -0.017032 369461.000000 0 0 1
26.492454 3.582925 26.721927 37.798795 0.134428 0.785617 0.079561 -0.013658 -707290.000000 0 0 1
26.656054 2.829025 27.890257 38.683525 0.105735 0.765573 0.064766 -0.003291 231581.000000 0 0 1
27.462854 3.264725 29.006707 40.078122 0.118323 0.761569 0.069201 0.002964 1152190.000000 0 0 1
28.997754 3.105825 28.692907 40.912087 0.106699 0.793534 0.076543 0.002349 230736.000000 0 0 1
29.416154 4.153825 27.832777 40.709064 0.140281 0.817976 0.071252 -0.000572 -100314.000000 0 0 1
30.712354 3.965325 27.302357 41.284274 0.128401 0.848211 0.049172 0.003716 -19485.700000 0 0 1
31.061954 2.920325 26.220367 40.753908 0.093741 0.871887 0.056331 0.010609 -491722.000000 0 0 1
30.602454 3.297425 24.954147 39.624395 0.107336 0.889543 0.051867 0.013009 -1080.240000 0 0 1
30.705954 2.256125 24.049397 39.068136 0.073343 0.907680 0.056482 0.014219 -457338.000000 0 0 1
30.353654 2.573225 22.578757 37.917887 0.084573 0.932953 0.060624 0.012836 142152.000000 0 0 1
31.161254 3.544025 21.925357 38.266241 0.113245 0.960673 0.073134 0.007229 -550980.000000 0 0 1
32.481954 3.119325 21.736057 39.207955 0.095739 0.983180 0.066794 0.007988 -594412.000000 0 0 1
33.426254 4.258525 21.317357 39.873290 0.126718 1.006729 0.072141 0.000553 -429055.000000 0 0 1
33.161654 4.710225 20.010457 39.016663 0.141095 1.032272 0.077099 -0.011254 -161587.000000 0 0 1
33.401754 6.055025 19.666857 39.231694 0.179331 1.045696 0.096972 -0.008815 810873.000000 0 0 1
34.931954 6.421025 19.526657 40.530993 0.181786 1.068122 0.067771 -0.005551 754383.000000 0 0 1
35.809654 6.263025 20.673557 41.820483 0.173146 1.053720 0.067665 -0.009570 743571.000000 0 0 1
35.610154 7.353225 21.626457 42.306698 0.203630 1.034236 0.085823 -0.026526 -372527.000000 0 0 1
36.340554 7.231125 22.978147 43.599545 0.196417 1.015698 0.087260 -0.026476 -235772.000000 0 0 1
35.862354 6.257425 23.847347 43.519649 0.172745 0.990864 0.072778 -0.009332 -235733.000000 0 0 1
36.668754 5.971325 24.943307 44.748440 0.161428 0.979531 0.081800 -0.013300 -365981.000000 0 0 1
35.969454 4.979925 25.878937 44.590590 0.137574 0.951616 0.071309 -0.007224 -6167.580000 0 0 1
35.825254 3.650225 25.406887 44.071339 0.101539 0.956364 0.071374 -0.005624 -703638.000000 0 0 1
34.905354 2.974225 26.137137 43.707891 0.085003 0.929798 0.065256 0.002140 -904430.000000 0 0 1
34.971154 1.448425 25.858277 43.517009 0.041394 0.934512 0.053629 0.013172 177304.000000 0 0 1
34.317454 1.028725 24.638957 42.259013 0.029968 0.948323 0.051803 0.009511 230394.000000 0 0 1
34.415154 -0.385875 24.459137 42.223230 -0.011212 0.952949 0.048980 0.000864 56901.100000 0 0 1
33.491554 -0.968275 23.348057 40.838139 -0.028903 0.962193 0.068577 0.010870 381528.000000 0 0 1
32.128454 -1.111475 23.695157 39.936618 -0.034581 0.935620 0.063711 0.016557 -93061.800000 0 0 1
31.428354 -1.920075 22.773657 38.859589 -0.061018 0.944621 0.064126 0.004547 -483366.000000 0 0 1
29.920254 -1.892075 22.916687 37.735608 -0.063153 0.918144 0.065897 0.019031 -536281.000000 0 0 1
29.266154 -0.704175 22.475657 36.907436 -0.024056 0.916030 0.056219 0.020193 -241456.000000 0 0 1
27.878254 -0.949475 22.412857 35.783163 -0.034045 0.893932 0.068787 0.023009 35186.100000 0 0 1
27.073954 0.389725 22.509857 35.211427 0.014394 0.877239 0.084683 0.011544 -144398.000000 0 0 1
27.023854 1.238325 21.353157 34.464177 0.045791 0.902595 0.072336 0.001649 -19998.000000 0 0 1
26.089254 2.262125 21.575457 33.930322 0.086491 0.881654 0.095365 -0.006718 -181493.000000 0 0 1
26.015654 3.323125 20.488757 33.281325 0.127048 0.907620 0.084498 -0.010432 -59184.000000 0 0 1
25.423254 2.858825 19.296457 32.044781 0.111979 0.924578 0.085427 -0.008655 294993.000000 0 0 1
25.041454 3.977025 18.478757 31.374443 0.157502 0.941007 0.093093 -0.018597 -11713.700000 0 0 1
24.788954 3.632125 17.004457 30.279303 0.145487 0.974494 0.101199 -0.021717 -203824.000000 0 0 1
25.921554 3.538425 16.177957 30.759937 0.135667 1.016973 0.094845 -0.019169 -56722.800000 0 0 1
25.623754 3.649325 14.773057 29.801637 0.141468 1.052141 0.094374 -0.020111 -504703.000000 0 0 1
25.003954 2.502425 14.006857 28.768940 0.099749 1.062289 0.090080 -0.011403 17733.300000 0 0 1
23.660154 2.243825 14.358057 27.766733 0.094553 1.027342 0.118611 -0.010478 188690.000000 0 0 1
23.167354 1.148425 13.586657 26.882010 0.049530 1.040930 0.119311 -0.009554 1029450.000000 0 0 1
21.674254 0.666125 13.864757 25.738075 0.030724 1.001919 0.149850 -0.024631 1206180.000000 0 0 1
20.603954 1.378225 13.253957 24.537519 0.066792 1.000180 0.170569 -0.026212 678537.000000 0 1 0
20.333254 1.235625 11.884757 23.584221 0.060694 1.042656 0.158527 -0.018605 -565970.000000 0 1 0
20.057654 -0.211175 11.373257 23.058731 -0.010528 1.054997 0.152000 -0.012308 -150224.000000 0 1 0
21.231554 -1.002275 11.314257 24.078951 -0.047172 1.081640 0.166089 -0.036503 416984.000000 0 1 0
22.046254 -0.843375 10.167457 24.292505 -0.038236 1.138956 0.156245 -0.042559 -1268870.000000 0 1 0
23.284254 -1.661875 10.355757 25.537424 -0.071253 1.153256 0.184351 -0.054155 -1254390.000000 0 0 1
24.047654 -1.258775 11.487557 26.680296 -0.052297 1.125679 0.171862 -0.049653 84277.600000 0 0 1
25.028554 -2.268175 11.643057 27.697183 -0.090377 1.136944 0.115141 -0.041200 -185634.000000 0 0 1
25.455654 -2.272475 13.139357 28.736687 -0.089036 1.095915 0.127131 -0.031572 34382.500000 0 0 1
26.290354 -1.178675 13.482557 29.569433 -0.044803 1.097343 0.101203 -0.023903 125831.000000 0 0 1
26.399554 -1.130875 14.890557 30.330580 -0.042811 1.057626 0.080479 -0.016734 -91379.600000 0 0 1
27.529554 -0.207675 15.391157 31.540565 -0.007544 1.061023 0.108852 -0.016144 241910.000000 0 0 1
28.818054 -0.755375 15.224457 32.601150 -0.026206 1.084911 0.112601 -0.016905 188193.000000 0 0 1
29.904054 0.135025 15.355757 33.616514 0.004515 1.096411 0.091818 -0.016600 103596.000000 0 0 1
31.299154 -0.505875 15.384257 34.879340 -0.016161 1.114005 0.087942 -0.017483 -310708.000000 0 0 1
31.814354 -0.936675 14.146157 34.830221 -0.029433 1.152564 0.124324 -0.022105 -350740.000000 0 0 1
33.060854 -1.464375 14.507457 36.133514 -0.044264 1.157647 0.114861 -0.022323 -489705.000000 0 0 1
33.665954 -2.253775 13.316857 36.274160 -0.066845 1.194889 0.112915 -0.024500 -154090.000000 0 0 1
34.071454 -1.423475 12.251057 36.235048 -0.041755 1.225899 0.117297 -0.023985 -215637.000000 0 0 1
35.064854 -2.042875 11.512757 36.962967 -0.058194 1.254060 0.117343 -0.026562 -371621.000000 0 0 1
35.255554 -1.684875 10.039657 36.695881 -0.047754 1.293672 0.182934 -0.022185 -596881.000000 0 0 1
35.681254 -0.343475 9.754957 36.992284 -0.009626 1.303938 0.123344 -0.012867 468230.000000 0 0 1
34.717954 0.728525 9.956257 36.124703 0.020981 1.291574 0.145901 -0.016679 121622.000000 0 0 1
35.136054 2.128325 9.396857 36.433131 0.060500 1.309927 0.151093 -0.021356 -178136.000000 0 0 1
35.155054 2.153425 7.962157 36.109708 0.061179 1.348470 0.139234 -0.018751 375496.000000 0 0 1
35.560154 3.440425 7.443157 36.493310 0.096449 1.365396 0.142271 -0.016823 45306.600000 0 0 1
35.800254 3.490625 5.929657 36.455501 0.097196 1.407416 0.125738 -0.014904 -38631.700000 0 0 1
36.095954 4.794925 5.488357 36.824330 0.132065 1.421197 0.106274 -0.003097 287641.000000 0 0 1
36.459354 4.801225 4.066557 36.998286 0.130934 1.460662 0.135127 -0.022189 42580.500000 0 0 1
37.028154 6.156125 3.634857 37.711991 0.164748 1.474262 0.143777 -0.036460 -476844.000000 0 0 1
36.036454 7.145525 3.728457 36.926765 0.195747 1.469655 0.162843 -0.042711 -287376.000000 0 0 1
36.348154 8.453925 3.167057 37.452469 0.228519 1.486133 0.152933 -0.045209 -691657.000000 0 0 1
35.156054 9.469025 3.224157 36.551413 0.263099 1.482473 0.181832 -0.051952 619871.000000 0 0 1
34.026354 9.298125 2.410257 35.356149 0.266750 1.502573 0.190830 -0.058150 149642.000000 0 0 1
33.355654 8.029625 2.531757 34.401808 0.236233 1.497136 0.220516 -0.053547 -906319.000000 0 0 1
32.070454 7.864625 1.676957 33.063251 0.240484 1.520055 0.226115 -0.055461 192300.000000 0 0 1
32.285354 7.859325 0.299457 33.229547 0.238789 1.561784 0.218074 -0.045262 257486.000000 0 0 1
31.046054 7.615525 -0.340443 31.968260 0.240548 1.581446 0.191922 -0.042858 961.796000 0 0 1
31.193854 7.574125 -1.890543 32.155841 0.238199 1.629623 0.148936 -0.032366 -902929.000000 0 0 1
30.202354 6.961825 -2.602043 31.103374 0.226549 1.654552 0.163990 -0.026631 -340673.000000 0 0 1
30.651154 6.766925 -3.919343 31.632986 0.217287 1.695016 0.147734 -0.026561 -244495.000000 0 0 1
29.667554 5.944625 -4.765843 30.630305 0.197756 1.727023 0.164228 -0.018853 -311025.000000 0 0 1
29.490154 4.632125 -4.321343 30.162888 0.155801 1.714558 0.165369 -0.020756 467494.000000 0 0 1
28.528054 3.995525 -5.106943 29.255683 0.139151 1.746258 0.145265 -0.020645 -526039.000000 0 0 1
28.403154 2.472425 -4.876743 28.924638 0.086829 1.740207 0.169481 -0.018269 -365133.000000 0 0 1
27.789654 2.115625 -3.622543 28.104512 0.075983 1.700051 0.187733 -0.026547 638056.000000 0 0 1
27.631754 0.717825 -3.432143 27.853343 0.025972 1.694332 0.166462 -0.036296 -238665.000000 0 0 1
28.013854 0.153625 -2.027143 28.087523 0.005484 1.643031 0.192123 -0.038155 -559311.000000 0 0 1
29.340754 0.424225 -1.712843 29.393769 0.014458 1.629102 0.183148 -0.031024 -477954.000000 0 0 1
29.641554 0.176225 -0.362343 29.644293 0.005945 1.583020 0.203098 -0.024968 -532399.000000 0 0 1
31.034254 0.595025 0.099057 31.040116 0.019171 1.567605 0.219418 -0.028251 -337358.000000 0 0 1
32.044854 -0.214675 -0.485743 32.049255 -0.006699 1.585953 0.184992 -0.028460 -603810.000000 0 0 1
33.314954 0.171525 -0.113743 33.315590 0.005149 1.574210 0.145157 -0.029025 -870100.000000 0 0 1
-3.047346 -21.436175 -8.485409 23.255065 1.429584 1.944305 0.040100 0.000335 128946.000000 0 1 0
-3.236346 -21.689775 -7.131909 23.060451 1.422678 1.885222 0.047660 -0.012023 -306931.000000 0 1 0
-2.810446 -22.997075 -6.779609 24.139742 1.449191 1.855474 0.048282 -0.003539 -80212.500000 0 1 0
-3.332446 -23.594275 -5.441009 24.441759 1.430485 1.795288 0.049879 0.001046 -544237.000000 0 1 0
-3.011746 -22.813375 -4.337609 23.416565 1.439539 1.757109 0.054442 -0.006823 -240750.000000 0 1 0
-3.426046 -23.425375 -3.185309 23.887908 1.425572 1.704539 0.054258 -0.010601 -67917.800000 0 1 0
-3.087646 -22.623675 -1.862509 22.909237 1.435156 1.652186 0.054100 -0.022505 705637.000000 0 1 0
-1.682446 -22.644675 -1.604409 22.763700 1.496635 1.641336 0.066997 -0.020357 275344.000000 0 1 0
-1.404646 -22.397775 -0.217009 22.442826 1.508165 1.580466 0.068509 -0.023865 174109.000000 0 1 0
0.109354 -22.427475 0.088991 22.427918 -1.565920 1.566828 0.079977 -0.024063 79207.000000 0 1 0
0.883054 -21.425575 -0.541609 21.450603 -1.529605 1.596048 0.063495 -0.025076 -98643.500000 0 1 0
2.228454 -21.419975 -0.112009 21.535874 -1.467133 1.575997 0.053694 -0.019141 514826.000000 0 1 0
3.156554 -20.449775 -0.908009 20.711871 -1.417649 1.614650 0.049448 -0.014675 504080.000000 0 1 0
3.865754 -21.019075 -1.983409 21.463445 -1.388912 1.663337 0.046301 -0.008099 42151.300000 0 1 0
4.702054 -20.009575 -2.589009 20.717031 -1.339994 1.696094 0.054558 -0.000517 82486.800000 0 1 0
5.475954 -20.503475 -3.819809 21.563151 -1.309813 1.748881 0.061410 -0.002589 -92363.000000 0 1 0
6.600054 -21.240875 -3.339809 22.491994 -1.269530 1.719836 0.067671 -0.011715 360390.000000 0 1 0
7.436154 -21.827975 -4.350809 23.466709 -1.242457 1.757279 0.066128 -0.015599 809596.000000 0 1 0
8.647054 -20.923575 -4.791309 23.141395 -1.178904 1.779350 0.081494 -0.021580 31873.000000 0 1 0
8.393654 -19.779175 -5.642309 22.214969 -1.169461 1.827596 0.075497 -0.015711 -1080580.000000 0 1 0
9.521054 -19.264575 -6.227009 22.372974 -1.111779 1.852848 0.091273 -0.015842 -1304960.000000 0 1 0
9.352154 -17.978975 -7.043709 21.455073 -1.091142 1.905300 0.076734 -0.018476 609759.000000 0 1 0
10.619354 -17.362875 -7.344209 21.637410 -1.021882 1.917098 0.091711 -0.030948 773179.000000 0 1 0
10.475954 -16.361175 -8.292109 21.123275 -1.001275 1.974207 0.084019 -0.021164 -146801.000000 0 1 0
10.777354 -16.761075 -9.746609 22.182907 -0.999358 2.025699 0.080823 -0.012106 470393.000000 0 1 0
9.813754 -17.364375 -10.668909 22.619834 -1.056384 2.061971 0.077758 -0.021855 269362.000000 0 1 0
9.134754 -16.409875 -11.444009 21.993023 -1.062853 2.118054 0.060127 -0.031578 27555.700000 0 1 0
8.456054 -17.021075 -12.682809 22.848971 -1.109713 2.159245 0.070164 -0.039279 -673430.000000 0 1 0
7.232454 -17.638875 -12.461709 22.775699 -1.181674 2.149751 0.053980 -0.033435 -379565.000000 0 1 0
6.850754 -18.152875 -13.722609 23.764884 -1.209930 2.186376 0.065816 -0.028405 -176180.000000 0 1 0
5.530254 -18.939875 -13.679009 24.008704 -1.286704 2.177000 0.062725 -0.018226 -83654.500000 0 1 0
5.808654 -20.211075 -13.096309 24.773803 -1.290939 2.127788 0.062183 -0.025348 447551.000000 0 1 0
4.635754 -20.967475 -12.782009 24.990097 -1.353204 2.107706 0.082279 -0.027574 370589.000000 0 1 0
4.822854 -22.475975 -12.585509 26.207335 -1.359423 2.071712 0.068236 -0.031371 -216881.000000 0 0 1
5.295354 -23.101775 -13.753809 27.402555 -1.345470 2.096610 0.089493 -0.032528 -79287.100000 0 0 1
4.964654 -24.526975 -13.906709 28.628951 -1.371079 2.078025 0.078574 -0.029635 456114.000000 0 0 1
3.503354 -24.873375 -14.309809 28.908976 -1.430869 2.088626 0.090936 -0.031721 398396.000000 0 0 1
2.569754 -24.621975 -13.268909 28.087528 -1.466804 2.062823 0.095163 -0.037724 1217300.000000 0 0 1
1.164754 -24.834175 -13.580109 28.328647 -1.523929 2.070741 0.082772 -0.043562 1368930.000000 0 0 1
0.657754 -26.179625 -13.036709 29.253396 -1.545677 2.032694 0.071003 -0.038506 -561616.000000 0 0 1
0.940454 -27.238615 -13.934309 30.610318 -1.536284 2.043411 0.084087 -0.037681 56149.300000 0 0 1
0.423154 -28.467505 -13.497209 31.507976 -1.555933 2.013489 0.068745 -0.029142 528401.000000 0 0 1
-1.081946 -28.803385 -13.754409 31.937272 1.533251 2.016031 0.049942 -0.032753 520476.000000 0 0 1
-2.004946 -28.078845 -12.971509 30.995183 1.499513 2.002590 0.052615 -0.035318 -415246.000000 0 0 1
-3.308546 -28.433315 -13.361609 31.590069 1.454956 2.007515 0.059934 -0.031293 -123007.000000 0 0 1
-4.438646 -27.697755 -12.571909 30.739552 1.411894 1.992134 0.036275 -0.023923 300157.000000 0 0 1
-4.755146 -28.068225 -11.207109 30.594704 1.402976 1.945835 0.028342 -0.029566 -210282.000000 0 0 1
-5.354146 -29.305125 -11.094709 31.789146 1.390086 1.927310 0.030153 -0.029629 -745094.000000 0 0 1
-5.770846 -29.625475 -9.609209 31.675042 1.378412 1.879022 0.024648 -0.027376 173146.000000 0 0 1
-7.067846 -29.168175 -9.249309 31.405200 1.333065 1.869745 0.030571 -0.018227 46636.200000 0 0 1
-7.251246 -27.801255 -8.902109 30.078861 1.315656 1.871256 0.036443 -0.009713 321176.000000 0 0 1
-8.747546 -27.504415 -8.512809 30.091200 1.262871 1.857613 0.041523 -0.008369 1438430.000000 0 0 1
-9.843046 -27.551645 -9.430609 30.739471 1.227670 1.882616 0.061533 -0.003975 310481.000000 0 0 1
-10.112746 -28.798145 -9.996109 32.117331 1.233089 1.887291 0.079265 -0.024608 512585.000000 0 0 1
-11.532846 -28.903655 -10.702609 32.908565 1.191144 1.902043 0.084983 -0.024286 739179.000000 0 0 1
-11.620046 -27.981095 -11.758509 32.499687 1.177186 1.940998 0.095739 -0.032150 150139.000000 0 0 1
-12.113146 -28.561635 -12.973209 33.627361 1.169684 1.966864 0.112983 -0.041524 -309917.000000 0 0 1
-12.121846 -27.517435 -14.076109 33.200681 1.155858 2.008621 0.126173 -0.039768 -177757.000000 0 0 1
-13.297246 -26.808445 -14.408009 33.212952 1.110346 2.019510 0.104492 -0.042876 -41062.500000 0 0 1
-13.606046 -25.811045 -13.452509 32.129496 1.085673 2.002806 0.111546 -0.032309 -321958.000000 0 0 1
-14.665046 -24.821175 -13.925209 32.016647 1.037148 2.020764 0.126295 -0.029815 -446924.000000 0 0 1
-14.163846 -23.865575 -14.875709 31.487567 1.035182 2.062843 0.128639 -0.034892 837027.000000 0 0 1
-15.156546 -22.887975 -15.299709 31.427080 0.985889 2.079256 0.145123 -0.041663 240950.000000 0 0 1
-14.746846 -22.249075 -16.599009 31.432752 0.985470 2.127134 0.138106 -0.034272 181964.000000 0 0 1
-13.702746 -21.287675 -16.491709 30.214347 0.998867 2.148168 0.117655 -0.028911 459541.000000 0 0 1
-13.335846 -20.624075 -17.732309 30.292441 0.996804 2.196134 0.085706 -0.023746 -124194.000000 0 0 1
-13.317446 -19.082675 -17.805709 29.300957 0.961494 2.223937 0.090176 -0.014575 -128356.000000 0 0 1
-12.221346 -18.335575 -17.315209 28.024472 0.982883 2.236815 0.071247 -0.004066 -200292.000000 0 0 1
-12.360846 -16.945875 -17.433409 27.274107 0.940590 2.264244 0.075372 0.004943 337808.000000 0 0 1
-11.061046 -16.124475 -17.718109 26.387057 0.969543 2.306987 0.071559 0.005958 543880.000000 0 0 1
-10.330046 -15.895175 -16.526109 25.149129 0.994502 2.287794 0.079800 -0.003114 241794.000000 0 0 1
-9.065446 -15.301975 -16.823409 24.481826 1.035957 2.328396 0.063081 0.002768 77312.500000 0 1 0
-8.368346 -14.847275 -15.498409 23.036307 1.057550 2.308759 0.051059 -0.002497 -202028.000000 0 1 0
-8.060346 -15.845475 -14.565609 22.982715 1.100225 2.257205 0.054176 0.004622 -883101.000000 0 1 0
-6.890746 -16.536375 -14.812809 23.245502 1.175975 2.261699 0.050660 0.008356 -897263.000000 0 1 0
-6.375346 -17.432875 -13.628709 23.028067 1.220197 2.204124 0.046150 0.003520 -399599.000000 0 1 0
-5.813946 -16.691275 -12.556909 21.681249 1.235617 2.188494 0.038789 -0.005622 142642.000000 0 1 0
-5.545446 -17.519875 -11.422409 21.637223 1.264250 2.126929 0.034497 -0.008583 9167.340000 0 1 0
-4.451146 -18.593275 -11.499109 22.310358 1.335823 2.112289 0.043327 -0.007680 -3617.730000 0 1 0
-3.117646 -18.149875 -11.660309 21.796799 1.400684 2.135251 0.038293 0.001724 463228.000000 0 1 0
-2.139346 -19.203075 -11.464009 22.466828 1.459847 2.106288 0.030825 0.004543 313569.000000 0 1 0
-0.768546 -18.834975 -11.987609 22.339420 1.530015 2.137214 0.030961 0.012658 -1007310.000000 0 1 0
-0.708546 -18.802175 -13.379309 23.087436 1.533130 2.188919 0.036763 0.018051 -38237.800000 0 1 0
0.398754 -18.053375 -13.894509 22.784660 -1.548712 2.226628 0.032445 0.006490 203299.000000 0 1 0
1.655354 -18.870875 -14.180809 23.663167 -1.483300 2.213395 0.040264 -0.005326 -592948.000000 0 1 0
1.459254 -19.839675 -15.201209 25.036351 -1.497376 2.223285 0.058681 -0.002894 -56420.300000 0 0 1
1.095954 -21.142175 -14.787109 25.823463 -1.519005 2.180498 0.075372 -0.006036 -1131750.000000 0 0 1
1.302754 -22.137475 -15.955509 27.319283 -1.512016 2.194491 0.094437 -0.017683 603440.000000 0 0 1
2.622054 -22.638275 -16.181309 27.949980 -1.455486 2.188222 0.097176 -0.026853 -9853.140000 0 0 1
3.550254 -21.633575 -16.472909 27.422119 -1.408138 2.215193 0.100228 -0.032144 -605834.000000 0 0 1
5.005054 -22.195875 -16.646709 28.192558 -1.349011 2.202431 0.105862 -0.032216 594642.000000 0 0 1
5.234854 -22.558375 -17.942609 29.295412 -1.342774 2.229980 0.094600 -0.027481 290162.000000 0 0 1
6.474354 -23.248475 -18.106109 30.170184 -1.299193 2.214463 0.092827 -0.033728 527577.000000 0 0 1
6.708154 -23.358575 -19.643109 31.248585 -1.291141 2.250558 0.082003 -0.024316 17225.000000 0 0 1
7.175054 -22.066475 -20.069509 30.678916 -1.256423 2.283893 0.090855 -0.032956 84864.300000 0 0 1
7.416554 -22.067575 -21.469209 31.668755 -1.246572 2.315740 0.059045 -0.023855 118271.000000 0 0 1
7.817154 -20.671275 -22.021909 31.198942 -1.209254 2.354425 0.034214 -0.026499 -449217.000000 0 0 1
6.694854 -19.857775 -22.074609 30.437488 -1.245624 2.382185 0.065573 -0.025563 -420725.000000 0 0 1
7.032854 -18.513675 -22.305109 29.828427 -1.207760 2.415509 0.067320 -0.024351 465867.000000 0 0 1
5.822754 -17.582775 -22.684709 29.285738 -1.251001 2.456877 0.063020 -0.024362 -793742.000000 0 0 1
5.442754 -17.768575 -23.995709 30.350286 -1.273557 2.482626 0.041109 -0.027296 235548.000000 0 0 1
4.344154 -16.997975 -24.475209 30.113762 -1.320583 2.519667 0.077207 -0.025143 648763.000000 0 0 1
2.994854 -17.023275 -23.744309 29.369257 -1.396651 2.512353 0.090822 -0.015683 -862610.000000 0 0 1
3.096054 -16.208375 -22.605109 27.987281 -1.382054 2.511024 0.086609 -0.021532 -358911.000000 0 0 1
1.887054 -16.081175 -21.867609 27.209511 -1.453985 2.504242 0.088412 -0.016026 395242.000000 0 0 1
1.960654 -15.310175 -20.548409 25.699858 -1.443427 2.497348 0.098265 -0.021399 -114456.000000 0 0 1
2.390754 -13.994675 -20.668809 25.075213 -1.401597 2.539712 0.093649 -0.024025 -327185.000000 0 0 1
2.500254 -13.395575 -19.449209 23.747935 -1.386272 2.530437 0.094199 -0.028178 -528824.000000 0 1 0
3.599554 -12.353875 -19.439109 23.312099 -1.287275 2.556867 0.087293 -0.026787 -1009450.000000 0 1 0
4.860854 -12.979875 -19.288509 23.751876 -1.212471 2.518510 0.081438 -0.028233 -271940.000000 0 1 0
5.939454 -12.067475 -19.387709 23.596278 -1.113419 2.535083 0.078159 -0.026848 338447.000000 0 1 0
6.173954 -11.091175 -18.204009 22.192742 -1.062858 2.532677 0.078704 -0.026851 -674575.000000 0 1 0
5.282454 -9.987575 -18.097509 21.334849 -1.084295 2.583488 0.056337 -0.018321 -48376.900000 0 1 0
5.430854 -8.852575 -18.956609 21.615163 -1.020526 2.640390 0.067663 -0.026118 -134867.000000 0 1 0
4.849754 -8.851575 -20.433809 22.790591 -1.069569 2.682804 0.083175 -0.032857 694709.000000 0 1 0
3.422154 -8.835475 -20.400009 22.493046 -1.201269 2.706776 0.081087 -0.038127 -15250.700000 0 1 0
2.890954 -9.147975 -21.637709 23.669252 -1.264707 2.724251 0.086318 -0.040707 713309.000000 0 1 0
1.327554 -9.074675 -21.646409 23.509129 -1.425535 2.740836 0.072319 -0.034593 629991.000000 0 1 0
0.828454 -7.785875 -21.483909 22.866231 -1.464790 2.792103 0.063727 -0.032792 390921.000000 0 1 0
-0.583846 -7.765875 -21.764109 23.115495 1.495757 2.797962 0.066023 -0.027544 1060070.000000 0 1 0
-0.962246 -6.764675 -22.906909 23.904251 1.429499 2.851711 0.070395 -0.022247 116226.000000 0 1 0
-0.692346 -7.255775 -24.235809 25.308102 1.475664 2.849455 0.078364 -0.022477 -547447.000000 0 0 1
-1.283246 -6.478775 -25.240249 26.090063 1.375258 2.885660 0.090999 -0.026712 59750.600000 0 0 1
-0.851146 -4.990975 -25.585919 26.082054 1.401884 2.946233 0.091971 -0.025580 159933.000000 0 0 1
-1.601546 -4.472175 -26.700799 27.120065 1.226912 2.965526 0.098036 -0.026632 -76504.000000 0 0 1
-1.346546 -3.171875 -27.187349 27.404852 1.169327 3.015520 0.078212 -0.023825 -631399.000000 0 0 1
-1.717346 -1.988075 -26.217139 26.348436 0.858332 3.041720 0.071573 -0.027625 533286.000000 0 0 1
-3.083746 -1.667075 -25.962449 26.198041 0.495598 3.007382 0.074002 -0.035573 299881.000000 0 0 1
-3.757646 -1.109375 -27.094379 27.376194 0.287076 2.997983 0.090949 -0.027500 -93495.400000 0 0 1
-5.294946 -1.188675 -26.941019 27.482138 0.220831 2.942822 0.094115 -0.038840 216110.000000 0 0 1
-5.897646 -0.240875 -26.064509 26.724499 0.040820 2.918889 0.100419 -0.035221 -443166.000000 0 0 1
-7.286046 -0.327175 -26.144379 27.142624 0.044874 2.869543 0.110040 -0.050331 -933712.000000 0 0 1
-8.072846 0.793425 -25.399959 26.663801 -0.097969 2.832470 0.108609 -0.041196 -496951.000000 0 0 1
-8.245946 1.967125 -26.212539 27.549272 -0.234180 2.828802 0.115524 -0.039998 765647.000000 0 0 1
-9.266946 1.799825 -27.230569 28.820471 -0.191832 2.807885 0.110304 -0.041632 1588330.000000 0 0 1
-10.771446 1.533725 -26.814649 28.937895 -0.141437 2.756138 0.111227 -0.042625 471019.000000 0 0 1
-11.789846 2.258925 -27.445539 29.955981 -0.189305 2.729278 0.116374 -0.046014 490646.000000 0 0 1
-13.090146 1.867225 -27.041139 30.100858 -0.141688 2.686798 0.056743 -0.025505 904393.000000 0 0 1
-14.270946 2.519425 -27.834599 31.381082 -0.174742 2.661575 0.032282 -0.018075 -147763.000000 0 0 1
-15.576846 2.103125 -27.502529 31.677284 -0.134205 2.622379 0.032530 -0.010541 1031880.000000 0 0 1
-16.686446 2.696525 -28.213619 32.889466 -0.160215 2.601831 0.034650 -0.011697 910835.000000 0 0 1
-16.912446 4.094725 -27.633039 32.655511 -0.237542 2.579606 0.033046 -0.004224 -1008050.000000 0 0 1
-16.073346 5.166025 -28.079009 32.763867 -0.310975 2.600238 0.060747 -0.008988 66711.600000 0 0 1
-16.175146 5.625925 -29.420509 34.041926 -0.334725 2.614441 0.060285 -0.021561 692333.000000 0 0 1
-17.565346 6.199525 -29.945309 35.266088 -0.339292 2.585122 0.047177 -0.008819 951571.000000 0 0 1
-17.956446 7.371725 -29.273929 35.124623 -0.389554 2.556083 0.049404 -0.008298 -179941.000000 0 0 1
-19.077546 7.964225 -29.873759 36.329369 -0.395472 2.536243 0.043040 -0.012097 -9745.770000 0 0 1
-19.863346 8.954925 -28.928319 36.215892 -0.423541 2.496051 0.055849 -0.013219 8277.650000 0 0 1
-19.136046 10.096925 -28.563269 35.832896 -0.485514 2.493314 0.053728 -0.010845 41922.500000 0 0 1
-19.866346 10.890425 -27.684019 35.772586 -0.501448 2.455756 0.079585 -0.010869 -763609.000000 0 0 1
-8.980446 25.269425 31.042467 41.022275 -1.229330 0.712512 0.074728 -0.007000 -739518.000000 0 0 1
-9.554246 26.555425 31.027607 41.942659 -1.225431 0.738079 0.079498 -0.001940 398751.000000 0 0 1
-8.920946 27.459725 31.953085 43.065293 -1.256679 0.734795 0.079585 -0.013000 1335130.000000 0 0 1
-7.470346 27.962625 31.554507 42.818237 -1.309738 0.742263 0.086154 -0.013528 989788.000000 0 0 1
-7.679646 28.918325 30.492647 42.720581 -1.311224 0.775931 0.094420 -0.015322 270571.000000 0 0 1
-6.432346 29.341125 29.996357 42.450656 -1.354984 0.786090 0.097735 -0.008844 -133744.000000 0 0 1
-6.395046 30.441625 28.940457 42.486930 -1.363732 0.821449 0.114683 -0.012920 -110997.000000 0 0 1
-6.898946 31.661425 29.471777 43.802134 -1.356252 0.832757 0.120817 -0.030476 434860.000000 0 0 1
-6.606946 32.753825 28.655627 44.018289 -1.371752 0.861904 0.117860 -0.037014 -90048.600000 0 0 1
-7.000946 -33.694020 29.326717 45.214561 1.365931 0.865037 0.131566 -0.045255 -533458.000000 0 0 1
-6.213246 -33.454320 30.476207 45.679264 1.387165 0.840382 0.162311 -0.042379 -63831.100000 0 0 1
-6.771646 -32.770420 31.604177 46.028031 1.367025 0.813954 0.157932 -0.056421 484284.000000 0 0 1
-7.874046 -33.495220 32.487766 47.322144 1.339909 0.814099 0.096745 -0.044637 854440.000000 0 0 1
-7.391646 33.254325 33.393684 47.703509 -1.352076 0.795363 0.110257 -0.042203 161365.000000 0 0 1
-7.276946 32.020925 32.794758 46.408941 -1.347336 0.786048 0.113625 -0.035194 -99624.500000 0 0 1
-7.084646 31.012225 -33.909259 46.495034 -1.346204 2.388108 0.118933 -0.024063 -351421.000000 0 0 1
-5.861146 31.109825 -33.239809 45.902714 -1.384577 2.380577 0.122693 -0.028580 -425657.000000 0 0 1
-5.902246 30.304025 -32.097019 44.535256 -1.378437 2.375623 0.108724 -0.029075 192088.000000 0 0 1
-4.547046 29.827925 -31.495399 43.615833 -1.419518 2.377643 0.098736 -0.033720 611663.000000 0 0 1
-3.980246 28.597125 -31.944959 43.059474 -1.432501 2.406666 0.114579 -0.020709 269580.000000 0 0 1
-3.337646 28.525925 -33.240109 43.929183 -1.454322 2.429008 0.095991 -0.022071 189691.000000 0 0 1
-2.449546 27.258625 -33.406709 43.186122 -1.481174 2.455223 0.103883 -0.032799 -302307.000000 0 0 1
-1.330346 27.160025 -32.520309 42.391123 -1.521854 2.445181 0.113478 -0.023929 706824.000000 0 0 1
-0.601546 25.931525 -32.628589 41.682498 -1.547603 2.469931 0.130724 -0.027228 401877.000000 0 0 1
0.085454 25.533325 33.865337 42.412487 1.567450 0.646037 0.108744 -0.029704 -515589.000000 0 0 1
-0.831446 25.232425 32.815933 41.403527 -1.537857 0.655755 0.102714 -0.026585 115121.000000 0 0 1
-0.251446 25.066125 31.524187 40.275902 -1.560765 0.671795 0.099341 -0.029248 54804.800000 0 0 1
0.222554 26.359925 30.817817 40.554076 1.562354 0.707608 0.086461 -0.029377 259042.000000 0 0 1
-0.934346 27.214425 30.678417 41.020278 -1.536477 0.725927 0.105538 -0.029345 747526.000000 0 0 1
-0.591146 28.478925 30.138207 41.469389 -1.550042 0.757206 0.105640 -0.026160 241910.000000 0 0 1
-1.769146 29.510025 30.109477 42.196589 -1.510917 0.776241 0.118671 -0.030324 274203.000000 0 0 1
-2.080446 29.838225 31.450837 43.402801 -1.501185 0.760303 0.134565 -0.037339 132812.000000 0 0 1
-2.976046 30.939425 31.479177 44.238484 -1.474902 0.779053 0.142799 -0.039640 154306.000000 0 0 1
-2.657646 31.827125 32.699277 45.708552 -1.487487 0.773619 0.151797 -0.036610 -730801.000000 0 0 1
-1.505346 32.559825 32.629937 46.120723 -1.524596 0.784856 0.167791 -0.049865 -1214820.000000 0 0 1
-1.164146 33.148625 33.817157 47.368626 -1.535692 0.775723 0.133748 -0.039215 -1140800.000000 0 0 1
0.296354 33.507625 33.845567 47.627421 1.561952 0.780400 0.135740 -0.049824 -1007950.000000 0 0 1
0.677154 -33.129820 33.147736 46.870203 -1.550360 0.785232 0.158849 -0.062056 629059.000000 0 0 1
2.095554 -32.933220 33.171140 46.790094 -1.507252 0.782809 0.118747 -0.053926 535331.000000 0 0 1
2.603854 -31.576120 32.653182 45.497931 -1.488520 0.770324 0.125337 -0.062441 -15483.200000 0 0 1
2.275054 -30.585420 33.624891 45.511285 -1.496549 0.739471 0.117073 -0.055306 208264.000000 0 0 1
2.559054 -29.251420 33.198663 44.320938 -1.483534 0.724167 0.091876 -0.056061 -315318.000000 0 0 1
2.233554 -28.167520 -33.580749 43.886953 -1.491667 2.442093 0.095993 -0.051034 -235275.000000 0 0 1
0.856754 -28.049720 -33.353989 43.589097 -1.540262 2.442134 0.091746 -0.051231 -295992.000000 0 0 1
0.436054 -27.267020 -32.245389 42.230861 -1.554806 2.439590 0.083608 -0.040258 -719548.000000 0 0 1
-1.060746 -27.453820 -32.083819 42.239896 1.532178 2.433436 0.139583 -0.039741 -707611.000000 0 0 1
-1.594146 -26.966920 -30.883909 41.031352 1.511750 2.422935 0.136694 -0.032636 -315082.000000 0 0 1
-2.838346 -26.349020 -31.050039 40.821954 1.463489 2.435066 0.144247 -0.033804 -249679.000000 0 0 1
-3.356946 -25.668120 -29.763399 39.445929 1.440752 2.425744 0.152543 -0.040918 -53883.200000 0 0 1
-3.705346 -26.559620 -28.717789 39.291912 1.432181 2.390411 0.155880 -0.035070 26937.400000 0 0 1
-4.118946 -25.823720 -27.573869 38.001953 1.412626 2.382689 0.165659 -0.032007 -367058.000000 0 0 1
-3.034246 -25.208420 -26.702749 36.847087 1.451006 2.381382 0.156428 -0.034698 -356709.000000 0 0 1
-2.343346 -24.113220 -27.269809 36.477131 1.473920 2.415217 0.158807 -0.039239 -107226.000000 0 0 1
-1.256746 -23.780620 -26.445119 35.587099 1.517998 2.408502 0.115353 -0.039786 -779806.000000 0 0 1
-0.275346 -22.780820 -27.161629 35.451314 1.558710 2.443652 0.080371 -0.024535 332843.000000 0 0 1
0.439254 -23.184420 -28.292089 36.580767 -1.551852 2.455006 0.038292 -0.027773 -161765.000000 0 0 1
1.270854 -24.301620 -28.084079 37.160453 -1.518549 2.427598 0.024421 -0.016188 -447346.000000 0 0 1
2.300954 -24.444120 -29.251889 38.190082 -1.476942 2.443322 0.009096 -0.023443 159942.000000 0 0 1
3.251354 -23.462920 -29.522749 37.850662 -1.433099 2.465430 0.030774 -0.023131 -42813.900000 0 0 1
4.047054 -23.755520 -30.647549 38.986865 -1.402054 2.475269 0.042729 -0.021969 -981390.000000 0 0 1
5.024054 -22.660920 -31.057659 38.772884 -1.352620 2.499785 0.063662 -0.032246 -250203.000000 0 0 1
6.189754 -22.592520 -30.232899 38.246087 -1.303385 2.482394 0.038181 -0.027553 1010760.000000 0 0 1
7.225354 -23.571420 -30.273029 39.041950 -1.273359 2.458141 0.054787 -0.015057 229227.000000 0 0 1
7.968354 -23.751220 -31.636989 40.354853 -1.247104 2.471831 0.065935 -0.013245 -262583.000000 0 0 1
7.139354 -24.483420 -32.548679 41.350027 -1.287064 2.476971 0.041495 -0.021061 407473.000000 0 0 1
7.479554 -24.216020 -33.905049 42.330978 -1.271224 2.499679 0.061529 -0.023886 101959.000000 0 0 1
6.830254 -22.897520 33.335849 41.014969 -1.280903 0.621900 0.087688 -0.023831 777052.000000 0 0 1
5.398954 -22.887020 33.406570 40.852948 -1.339136 0.613345 0.090344 -0.028147 843593.000000 0 0 1
4.787454 -21.856820 32.657329 39.587137 -1.355165 0.600686 0.122676 -0.040054 944292.000000 0 0 1
3.268554 -21.587420 32.958342 39.534194 -1.420528 0.585082 0.106594 -0.038968 1366720.000000 0 0 1
2.266954 -22.567520 32.684295 39.783102 -1.470680 0.606650 0.107438 -0.036677 371483.000000 0 0 1
2.070254 -23.537420 33.684158 41.145092 -1.483066 0.611709 0.108073 -0.033105 229740.000000 0 0 1
0.659754 -24.198220 33.641864 41.445918 -1.543538 0.623731 0.117007 -0.034824 391607.000000 0 0 1
0.560354 -25.096620 32.598489 41.143843 -1.548472 0.656218 0.121185 -0.033455 -5264.880000 0 0 1
-0.739146 -25.592220 32.331750 41.241364 1.541923 0.669771 0.125706 -0.037041 82018.000000 0 0 1
-0.865146 -26.730320 31.299977 41.169735 1.538442 0.707073 0.126446 -0.045482 302286.000000 0 0 1
-2.171846 -26.688420 30.743557 40.769535 1.489597 0.716542 0.133414 -0.048267 296741.000000 0 0 1
-2.498746 -27.829220 29.899927 40.923280 1.481248 0.751547 0.155477 -0.051992 -132381.000000 0 0 1
-3.826746 -27.649620 29.157867 40.364919 1.433269 0.763592 0.166529 -0.049752 273460.000000 0 0 1
-4.988246 -28.077920 29.885927 41.308847 1.394974 0.761973 0.167853 -0.045350 436123.000000 0 0 1
-6.022146 -28.474820 29.033407 41.109857 1.362377 0.786624 0.144886 -0.042082 -406560.000000 0 0 1
-7.361946 -28.853020 29.626527 42.005072 1.320973 0.787938 0.110081 -0.034961 -1011070.000000 0 0 1
-8.433646 -29.317520 28.878157 42.007039 1.290693 0.812811 0.113611 -0.032554 285916.000000 0 0 1
-9.702046 -29.282320 29.511937 42.691198 1.250852 0.807525 0.094219 -0.027675 278863.000000 0 0 1
-9.931446 -30.352220 30.664247 44.273998 1.254570 0.805707 0.075380 -0.025824 -729702.000000 0 0 1
-9.948246 -31.734620 30.337427 45.015699 1.267017 0.831281 0.091091 -0.027789 759278.000000 0 0 1
-11.043446 -32.085920 29.468337 44.942706 1.239313 0.855704 0.078071 -0.025000 291914.000000 0 0 1
-10.910346 -33.541520 28.889187 45.592262 1.256312 0.884544 0.082597 -0.019983 -512659.000000 0 0 1
-11.188646 33.298525 29.822177 46.079712 -1.246638 0.866908 0.071607 -0.013335 166974.000000 0 0 1
-10.865746 31.997425 29.375777 44.775394 -1.243433 0.855197 0.080941 -0.024585 -113174.000000 0 0 1
-11.176546 30.903225 30.445367 44.797822 -1.223770 0.823556 0.078999 -0.004761 -52447.300000 0 0 1
-12.549546 30.605925 30.514927 45.004161 -1.181668 0.825694 0.063093 0.002601 -218262.000000 0 0 1
-12.896146 29.381825 31.251457 44.791247 -1.157198 0.798596 0.062100 -0.000475 80560.200000 0 0 1
-12.920146 29.436125 32.770709 45.905718 -1.157193 0.775787 0.076400 -0.016723 -490733.000000 0 0 1
-14.088546 30.014925 33.276743 46.975786 -1.131940 0.783595 0.064938 -0.006787 -69502.300000 0 0 1
-14.251646 29.817425 -33.159209 46.815824 -1.124933 2.357870 0.076180 -0.016535 -453228.000000 0 0 1
-15.607646 30.217825 -32.587069 47.102363 -1.094032 2.334824 0.060467 -0.014219 -333319.000000 0 0 1
-15.765946 29.652725 -31.254249 45.876761 -1.082122 2.320286 0.051047 -0.021903 -490033.000000 0 0 1
-17.017846 29.967525 -30.723809 46.169384 -1.054332 2.298904 0.063835 -0.017890 -329127.000000 0 0 1
-17.122346 29.372625 -29.312349 44.890306 -1.043019 2.282305 0.085250 -0.027446 -124721.000000 0 0 1
-17.201146 27.952925 -29.342789 44.025500 -1.019158 2.300294 0.070272 -0.034299 -15304.100000 0 0 1
-17.262546 27.481325 -28.005259 42.866225 -1.009931 2.282755 0.083806 -0.027426 18289.700000 0 0 1
-18.043246 26.140125 -27.742159 42.172174 -0.966643 2.288731 0.059832 -0.037447 287160.000000 0 0 1
-19.447246 26.204925 -27.837529 42.893140 -0.932356 2.277062 0.070691 -0.035643 -120155.000000 0 0 1
-20.087446 24.945725 -27.658299 42.317563 -0.892865 2.283113 0.050293 -0.033950 -791975.000000 0 0 1
-21.525846 24.837625 -28.043729 43.205560 -0.856708 2.277167 0.075952 -0.033017 -1127080.000000 0 0 1
-22.510546 25.159025 -27.107189 43.295507 -0.840900 2.247334 0.078366 -0.027531 244202.000000 0 0 1
-23.807346 24.697225 -27.454309 43.937247 -0.803742 2.245739 0.070936 -0.026694 374150.000000 0 0 1
-24.806146 24.748925 -26.288049 43.805430 -0.784243 2.214434 0.069490 -0.019347 -23578.100000 0 0 1
-25.297976 26.050125 -25.998669 44.660132 -0.800045 2.192161 0.054472 -0.013899 443444.000000 0 0 1
-26.485396 26.104225 -25.198209 44.920557 -0.778150 2.166330 0.070806 -0.016188 488504.000000 0 0 1
-26.274556 25.892825 -23.671909 43.830924 -0.778081 2.141320 0.074886 -0.013765 -309191.000000 0 0 1
-25.930036 24.546725 -23.207809 42.585336 -0.758000 2.147152 0.074362 -0.013742 -305780.000000 0 0 1
-27.006696 23.667025 -22.994009 42.640522 -0.719588 2.140346 0.083671 -0.020259 -66815.900000 0 0 1
-27.847106 23.964325 -21.702209 42.670084 -0.710597 2.104360 0.073526 -0.019962 -159099.000000 0 0 1
-27.316276 23.687925 -20.399509 41.514295 -0.714380 2.084476 0.080416 -0.015596 30497.600000 0 0 1
-26.268286 24.546625 -19.985009 41.133444 -0.751530 2.078141 0.074286 -0.013255 31372.600000 0 0 1
-25.410426 23.905125 -18.859409 39.658820 -0.754884 2.066376 0.074804 -0.015190 -132476.000000 0 0 1
-26.098286 23.814825 -17.621509 39.481438 -0.739681 2.033449 0.063343 -0.013987 149121.000000 0 0 1
-25.293816 23.409225 -16.546109 38.230127 -0.746722 2.018396 0.089464 -0.025423 -112431.000000 0 0 1
-26.141026 23.389225 -15.249809 38.248735 -0.729897 1.980896 0.085225 -0.023497 -286396.000000 0 0 1
-26.351226 24.772725 -14.882209 39.109527 -0.754532 1.961162 0.091400 -0.030520 -104840.000000 0 0 1
-26.941476 24.801525 -13.604309 39.064510 -0.744064 1.926502 0.058481 -0.034879 -53012.000000 0 0 1
-27.043556 26.276125 -13.160109 39.937165 -0.771006 1.906592 0.063094 -0.025937 -446201.000000 0 0 1
-25.782216 26.794525 -12.866509 39.347379 -0.804650 1.903921 0.092061 -0.034079 -621106.000000 0 0 1
-25.766896 27.801525 -11.861309 39.718363 -0.823362 1.874059 0.106236 -0.032377 1021210.000000 0 0 1
-24.315046 28.266125 -11.402409 38.989873 -0.860400 1.867579 0.112398 -0.035020 1147990.000000 0 0 1
-23.509246 27.201125 -10.930809 37.577499 -0.858073 1.865950 0.106547 -0.035232 -644625.000000 0 0 1
-22.300646 27.688925 -10.470709 37.062530 -0.892772 1.857211 0.088188 -0.036844 -911714.000000 0 0 1
-21.398946 26.652025 -9.822109 35.562890 -0.894289 1.850624 0.149211 -0.030093 5273.780000 0 0 1
-20.704846 25.855325 -10.800809 34.840292 -0.895570 1.885999 0.140989 -0.039204 97123.200000 0 0 1
-19.989346 24.795825 -10.229809 33.452292 -0.892312 1.881578 0.148438 -0.023299 -500360.000000 0 0 1
-19.107246 24.012925 -11.165909 32.655550 -0.898679 1.919766 0.141532 -0.031340 -467789.000000 0 0 1
-18.488146 22.891425 -10.593709 31.273879 -0.891411 1.916374 0.089997 -0.017355 243232.000000 0 0 1
-18.060646 21.937925 -11.576709 30.683541 -0.882032 1.957669 0.120302 -0.014084 35057.300000 0 0 1
-17.613046 20.603425 -10.934509 29.228137 -0.863487 1.954232 0.086963 -0.005292 132192.000000 0 0 1
-18.572446 19.584225 -10.744909 29.050485 -0.811908 1.949666 0.074751 -0.002810 380224.000000 0 0 1
-17.866346 18.369525 -10.512209 27.697514 -0.799284 1.960091 0.102585 -0.024078 586463.000000 0 0 1
-18.971346 17.255225 -10.251309 27.617822 -0.738062 1.951081 0.080915 -0.004879 1328560.000000 0 0 1
-19.696246 16.676125 -11.351909 28.193990 -0.702555 1.985191 0.070258 -0.002342 578210.000000 0 0 1
-20.616446 17.552925 -11.999309 29.616320 -0.705309 1.987949 0.085728 -0.008162 -428032.000000 0 0 1
-21.278146 16.917625 -13.246309 30.239547 -0.671728 2.024220 0.093494 -0.014161 88305.300000 0 0 1
-20.368646 16.573725 -14.286909 29.894579 -0.683032 2.069070 0.079948 -0.018059 691625.000000 0 0 1
-21.102946 16.429925 -15.532109 30.927709 -0.661531 2.096945 0.082214 -0.008940 966501.000000 0 0 1
-20.126146 16.178925 -16.751609 30.780444 -0.677100 2.146266 0.084759 -0.019714 501177.000000 0 0 1
-19.391446 17.337025 -17.127209 31.143890 -0.729521 2.153086 0.082098 -0.022847 491539.000000 0 0 1
-18.866846 17.213225 -18.495709 31.533224 -0.739598 2.197585 0.084910 -0.012935 -533033.000000 0 0 1
-18.236946 18.527725 -18.887009 32.133812 -0.793307 2.199085 0.076126 -0.015581 -400324.000000 0 0 1
-16.997446 18.580125 -18.194209 31.067080 -0.829854 2.196469 0.102332 -0.021657 211081.000000 0 0 1
-16.379846 19.837025 -18.136009 31.475732 -0.880568 2.184856 0.108088 -0.022840 120231.000000 0 0 1
34.021153 30.507025 2.132591 45.745660 0.730993 1.524161 0.091820 -0.010332 -438288.000000 0 0 1
35.371863 30.453525 1.797291 46.709915 0.710819 1.532309 0.110190 -0.013963 -424820.000000 0 0 1
35.478073 30.842525 0.444991 47.012265 0.715616 1.561331 0.108015 -0.008532 16472.300000 0 0 1
36.878553 30.793025 -0.190109 48.044502 0.695712 1.574753 0.079648 -0.003413 247852.000000 0 0 1
-37.000676 31.611925 0.426491 48.667707 -0.707020 1.562033 0.056415 0.002979 1401830.000000 0 0 1
-35.758373 31.527225 -0.328509 47.673211 -0.722597 1.577687 0.064578 0.000749 752580.000000 0 0 1
-34.713200 32.545125 0.101791 47.583629 -0.753174 1.568657 0.033104 0.001634 -491294.000000 0 0 1
-34.050676 32.288725 1.286991 46.943228 -0.758845 1.543377 0.035466 0.003159 -71668.200000 0 0 1
-33.394026 33.470025 1.720091 47.311333 -0.786535 1.534431 0.035025 -0.001424 -57850.900000 0 0 1
-32.674136 33.346225 3.104391 46.788964 -0.795578 1.504399 0.057348 -0.005720 -113851.000000 0 0 1
-32.304986 -33.165320 3.570491 46.435966 0.798538 1.493830 0.053430 -0.003305 157593.000000 0 0 1
-31.737156 -33.260420 4.866491 46.229701 0.808830 1.465333 0.072516 -0.012928 -404214.000000 0 0 1
-31.853876 -32.003320 5.776991 45.522033 0.787738 1.443548 0.080783 -0.012161 100271.000000 0 0 1
-33.113566 -31.644420 6.304191 46.234406 0.762715 1.434017 0.085350 -0.011106 143883.000000 0 0 1
-33.525766 -32.497120 7.351491 47.266099 0.769819 1.414628 0.086967 -0.022852 131823.000000 0 0 1
-34.633250 -31.945420 8.392391 47.858166 0.745049 1.394525 0.123508 -0.012067 1863790.000000 0 0 1
-35.959390 -31.655820 7.959591 48.564634 0.721836 1.406157 0.087446 -0.014047 1098990.000000 0 0 1
-36.722506 -32.698320 7.256891 49.702968 0.727495 1.424267 0.058226 -0.015026 -440565.000000 0 0 1
36.665903 -32.414620 7.071591 49.447987 -0.723935 1.427294 0.050957 -0.010467 -42959.100000 0 0 1
35.951933 -32.304120 8.319791 49.044027 -0.732006 1.400333 0.045905 -0.005022 754899.000000 0 0 1
34.561723 -32.598420 8.181691 48.209021 -0.756173 1.400258 0.025437 0.005541 367852.000000 0 0 1
33.832503 -32.543620 9.544791 47.904368 -0.765983 1.370207 0.034000 -0.007318 394412.000000 0 0 1
32.418333 -32.474620 9.321391 46.823472 -0.786266 1.370382 0.031490 -0.013851 937743.000000 0 0 1
31.599223 -32.335820 10.498091 46.414718 -0.796919 1.342642 0.040459 -0.012335 303741.000000 0 0 1
31.638783 -30.910920 11.209391 45.630560 -0.773762 1.322601 0.051694 -0.010521 -329908.000000 0 0 1
30.876313 -29.826120 10.667091 44.234952 -0.768099 1.327250 0.047643 -0.012947 442431.000000 0 0 1
31.273193 -29.421720 9.353791 43.944779 -0.754903 1.356302 0.062383 -0.020419 73016.400000 0 0 1
30.563573 -28.095620 8.959091 42.470709 -0.743350 1.358252 0.061914 -0.028157 239246.000000 0 0 1
31.077603 -27.511520 7.741691 42.221261 -0.724607 1.386393 0.073820 -0.029548 60282.600000 0 0 1
30.345363 -26.351820 7.358491 40.858375 -0.715078 1.389711 0.075564 -0.035093 146983.000000 0 0 1
30.685633 -25.820220 5.962991 40.544409 -0.699505 1.423188 0.080952 -0.029723 611632.000000 0 0 1
31.933693 -25.116520 5.960891 41.062544 -0.666468 1.425115 0.101248 -0.028600 150621.000000 0 0 1
32.212353 -24.474620 4.695091 40.726976 -0.649737 1.455257 0.101540 -0.030793 -324732.000000 0 0 1
33.621663 -23.912720 4.455291 41.498000 -0.618223 1.463227 0.105358 -0.038250 -523106.000000 0 0 1
34.487913 -24.983620 4.360791 42.809040 -0.626926 1.468753 0.086397 -0.025892 -1107180.000000 0 0 1
35.804173 -24.563420 4.127791 43.615812 -0.601301 1.476015 0.079246 -0.022973 -460395.000000 0 0 1
36.763333 -25.701920 3.818891 45.019054 -0.610134 1.485866 0.073656 -0.018219 -293422.000000 0 0 1
37.103823 -26.418720 5.013291 45.823307 -0.618749 1.461172 0.062435 -0.011494 -368339.000000 0 0 1
-37.165116 -27.589820 4.671691 46.521701 0.638592 1.470207 0.067432 -0.018484 -1146490.000000 0 0 1
37.120203 -28.828020 5.423391 47.311493 -0.660317 1.455912 0.061766 -0.020146 967566.000000 0 0 1
35.783833 -29.216620 5.095291 46.476398 -0.684707 1.460944 0.029230 -0.013308 968910.000000 0 0 1
34.714163 -28.358520 5.469891 45.157485 -0.684970 1.449369 0.047070 -0.019323 -337746.000000 0 0 1
33.448163 -29.082320 6.004491 44.728233 -0.715692 1.436146 0.067982 -0.014742 506830.000000 0 0 1
32.601423 -29.839220 5.143991 44.493735 -0.741190 1.454926 0.047614 -0.013027 152997.000000 0 0 1
31.731263 -29.054420 4.339791 43.241949 -0.741389 1.470266 0.067550 -0.015855 68543.600000 0 0 1
30.334233 -29.741520 4.229991 42.692113 -0.775532 1.471552 0.069194 -0.019503 390945.000000 0 0 1
30.296303 -30.748920 3.216491 43.286347 -0.792812 1.496420 0.072664 -0.011981 -718311.000000 0 0 1
29.054763 -31.388320 3.248091 42.894708 -0.823987 1.495001 0.095130 -0.020825 -450847.000000 0 0 1
29.069863 -32.872520 2.702791 43.965493 -0.846711 1.509282 0.096442 -0.017180 -315380.000000 0 0 1
28.936863 -32.935320 1.301891 43.860828 -0.849933 1.541110 0.087127 -0.024386 275051.000000 0 0 1
28.858663 33.563625 0.844791 44.272486 0.860629 1.551714 0.075707 -0.016461 -216978.000000 0 0 1
28.667663 33.680725 -0.663209 44.234217 0.865630 1.585790 0.071602 -0.015627 -597933.000000 0 0 1
29.739363 -33.643520 -1.414409 44.925679 -0.846917 1.602285 0.064143 -0.009070 58038.400000 0 0 1
29.224363 -33.382020 -2.739109 44.451382 -0.851710 1.632456 0.077477 -0.009150 -72442.500000 0 0 1
30.298413 -32.818620 -3.647509 44.814729 -0.825306 1.652277 0.081590 -0.013909 -292571.000000 0 0 1
30.473603 -31.426020 -3.392909 43.906116 -0.800783 1.648150 0.067714 -0.013800 -319164.000000 0 0 1
31.411283 -31.073920 -4.361309 44.399079 -0.779999 1.669185 0.065522 -0.013933 -505916.000000 0 0 1
31.822023 -29.657920 -4.092609 43.691907 -0.750213 1.664604 0.058250 -0.012478 26308.200000 0 0 1
30.820753 -28.676420 -4.441109 42.331776 -0.749373 1.675902 0.063274 -0.023402 679186.000000 0 0 1
31.329093 -27.327420 -4.619609 41.828707 -0.717282 1.681463 0.072288 -0.021178 369735.000000 0 0 1
32.223863 -27.055420 -5.900309 42.487489 -0.698430 1.710118 0.070440 -0.014589 181422.000000 0 0 1
33.550683 -27.436720 -5.619009 43.703491 -0.685482 1.699724 0.061234 0.001156 -399167.000000 0 0 1
34.541193 -26.987720 -6.499409 44.313354 -0.663246 1.717997 0.071927 -0.005744 -27351.600000 0 0 1
34.772233 -27.947320 -7.737109 45.277187 -0.677008 1.742522 0.074565 -0.024276 -325473.000000 0 0 1
33.696813 -27.880720 -8.676109 44.587942 -0.691226 1.766630 0.072324 -0.023061 262140.000000 0 0 1
33.584383 -28.963120 -9.621609 45.380044 -0.711648 1.784441 0.059519 -0.013919 83957.700000 0 0 1
33.571263 -30.463720 -9.038109 46.225051 -0.736907 1.767588 0.046225 -0.007807 283596.000000 0 0 1
34.795283 -30.900420 -8.459409 47.298089 -0.726181 1.750617 0.058813 -0.007943 -293984.000000 0 0 1
34.585013 -32.039420 -7.678109 47.766106 -0.747209 1.732241 0.052127 -0.017284 -549565.000000 0 0 1
35.756663 -32.670620 -6.969909 48.933505 -0.740329 1.713719 0.046440 -0.012377 -680035.000000 0 0 1
35.453693 33.869325 -6.385409 49.445616 0.762547 1.700298 0.051690 -0.012239 21617.800000 0 0 1
34.816553 -33.825420 -5.094909 48.808908 -0.770960 1.675372 0.054419 -0.011374 95726.400000 0 0 1
34.413113 32.611525 -4.546109 47.628154 0.758525 1.666392 0.065521 -0.009423 221681.000000 0 0 1
33.292933 32.055525 -5.223009 46.510815 0.766465 1.683330 0.091629 -0.017763 131931.000000 0 0 1
33.191833 30.725225 -4.904809 45.494993 0.746827 1.678816 0.094595 -0.012601 -428229.000000 0 0 1
31.965163 29.997825 -5.413209 44.169491 0.753659 1.693661 0.106392 -0.018625 -621969.000000 0 0 1
32.020953 29.781725 -6.815609 44.257712 0.749182 1.725410 0.078901 -0.010114 163408.000000 0 0 1
30.835903 29.172725 -7.312709 43.074082 0.757690 1.741393 0.060364 -0.000707 240316.000000 0 0 1
30.874983 28.788925 -8.769309 43.115746 0.750449 1.775615 0.050846 0.006992 -282316.000000 0 0 1
31.607213 27.587425 -8.955309 42.898479 0.717594 1.781099 0.055828 0.007581 25346.600000 0 0 1
31.978573 27.357425 -10.320809 43.331016 0.707674 1.811293 0.046355 0.018365 354185.000000 0 0 1
33.189233 28.165325 -10.870609 44.866255 0.703697 1.815521 0.061408 0.004851 115025.000000 0 0 1
34.474823 27.763825 -10.385609 45.466518 0.677986 1.801254 0.068396 -0.003241 1674810.000000 0 0 1
35.528763 28.713525 -10.806509 46.941881 0.679707 1.803090 0.075404 -0.003908 1057530.000000 0 0 1
35.744373 29.942825 -9.933709 47.675062 0.697306 1.780697 0.074885 -0.008052 -481154.000000 0 0 1
36.657763 29.747625 -8.867909 48.034910 0.681711 1.756475 0.079358 -0.011016 204156.000000 0 0 1
36.566743 30.850125 -7.949509 48.497955 0.700805 1.735454 0.061296 -0.013227 -726029.000000 0 0 1
-37.206126 30.784925 -6.897009 48.780899 -0.691236 1.712659 0.063266 -0.008965 768892.000000 0 0 1
-35.852529 31.113125 -7.252209 48.021088 -0.714742 1.722398 0.062510 -0.009037 620979.000000 0 0 1
-35.212090 30.046525 -7.876809 46.954542 -0.706408 1.739347 0.076559 -0.011011 -536722.000000 0 0 1
-33.778416 30.479725 -8.336109 46.254575 -0.734108 1.752009 0.075926 -0.014426 4889.210000 0 0 1
-32.934666 30.749925 -7.200109 45.629943 -0.751106 1.729252 0.064002 -0.013967 46518.200000 0 0 1
-31.615006 31.032125 -7.596109 44.946660 -0.776094 1.740614 0.081710 -0.021331 -145888.000000 0 0 1
-31.309226 32.379025 -8.353509 45.808842 -0.802194 1.754178 0.062171 -0.022896 -780257.000000 0 0 1
-31.348086 33.614525 -7.641809 46.594377 -0.820272 1.735548 0.046315 -0.013115 456475.000000 0 0 1
-30.275816 33.880925 -6.712709 45.930410 -0.841531 1.717471 0.064961 -0.031618 381383.000000 0 0 1
-30.404046 -32.555720 -6.027009 44.951148 0.819560 1.705280 0.059457 -0.020696 681614.000000 0 0 1
-31.649386 -32.380220 -5.341109 45.592649 0.796812 1.688214 0.028146 -0.019076 364769.000000 0 0 1
-31.664876 -32.943120 -4.024309 45.870563 0.805180 1.658641 0.035636 -0.025403 789193.000000 0 0 1
-33.041046 -32.888720 -3.232109 46.731414 0.783088 1.640015 0.026757 -0.023733 605900.000000 0 0 1
-33.145336 -31.504720 -2.851409 45.818022 0.760027 1.633070 0.033817 -0.022313 -208186.000000 0 0 1
-33.985826 -31.304120 -1.744509 46.238810 0.744347 1.608534 0.042441 -0.020527 446906.000000 0 0 1
-34.979786 -30.085320 -1.627809 46.166673 0.710315 1.606063 0.064745 -0.016046 986258.000000 0 0 1
-35.935625 -30.198820 -0.565009 46.943126 0.698870 1.582833 0.061273 -0.012744 161476.000000 0 0 1
-36.558316 -28.959320 -0.290709 46.639438 0.669930 1.577029 0.068816 -0.015002 -256289.000000 0 0 1
37.355223 -29.057020 0.938291 47.335013 -0.661092 1.550973 0.062245 -0.008746 -670263.000000 0 0 1
36.146823 -29.685020 0.616091 46.777909 -0.687555 1.557625 0.034718 -0.003259 -359374.000000 0 0 1
35.159943 -29.600120 1.619391 45.989250 -0.699756 1.535577 0.049968 -0.009005 368079.000000 0 0 1
34.395843 -28.235120 1.740091 44.534525 -0.687348 1.531714 0.048014 0.006031 -810897.000000 0 0 1
33.454613 -28.006520 0.725391 43.636022 -0.696986 1.554172 0.049896 -0.000969 -277176.000000 0 0 1
32.868653 -26.737820 0.947091 42.381084 -0.682903 1.548447 0.063944 -0.000571 -225148.000000 0 0 1
31.645023 -26.590720 0.023191 41.333695 -0.698825 1.570235 0.069701 -0.014436 163701.000000 0 0 1
30.422773 -27.206620 0.421591 40.815720 -0.729648 1.560467 0.071221 -0.010063 396412.000000 0 0 1
30.227983 -28.645720 0.395791 41.646907 -0.758529 1.561293 0.062415 -0.013708 -340013.000000 0 0 1
29.746163 -29.108320 -0.997009 41.630788 -0.774561 1.594747 0.070975 -0.011803 105380.000000 0 0 1
28.359063 -28.958920 -1.254109 40.551551 -0.795863 1.601728 0.085146 -0.013561 94255.900000 0 0 1
28.154363 -29.178120 -2.606809 40.630361 -0.803253 1.635000 0.079608 -0.016998 934405.000000 0 0 1
26.762163 -29.754020 -3.121409 40.140481 -0.838287 1.648637 0.096386 -0.024381 1494990.000000 0 0 1
25.677963 -28.862620 -2.944209 38.743734 -0.843723 1.646862 0.110163 -0.033451 220371.000000 0 0 1
24.430763 -29.379620 -3.363809 38.358043 -0.877109 1.658604 0.084425 -0.034096 269307.000000 0 0 1
23.230163 -28.414620 -3.268909 36.847209 -0.885450 1.659628 0.080551 -0.036280 33258.000000 0 0 1
23.091663 -27.516420 -4.410909 36.191634 -0.872608 1.692977 0.081940 -0.035884 368182.000000 0 0 1
22.087563 -26.540020 -4.123509 34.774076 -0.876706 1.689656 0.083498 -0.040914 90692.700000 0 0 1
21.666763 -25.643420 -5.277509 33.983609 -0.869256 1.726723 0.089498 -0.051349 -46731.800000 0 0 1
20.546263 -26.172420 -5.973609 33.805746 -0.905247 1.748433 0.100599 -0.045547 -122988.000000 0 0 1
20.214163 -25.539320 -7.182309 33.353482 -0.901265 1.787835 0.114189 -0.049899 -1217300.000000 0 0 1
18.834463 -25.959320 -7.623709 32.965803 -0.943136 1.804170 0.114744 -0.042981 -1093460.000000 0 0 1
17.910263 -25.227420 -6.896109 31.697895 -0.953422 1.790107 0.103473 -0.046645 -191304.000000 0 0 1
16.576563 -25.732220 -6.922509 31.382331 -0.998513 1.793212 0.101717 -0.046138 325784.000000 0 0 1
15.679563 -24.827220 -6.061709 29.983059 -1.007503 1.774371 0.082038 -0.035697 -337335.000000 0 0 1
15.723463 -24.960720 -4.662009 29.866354 -1.008661 1.727533 0.073682 -0.023330 -133710.000000 0 0 1
15.050763 -23.924220 -4.037709 28.551652 -1.009253 1.712690 0.069893 -0.023198 -239542.000000 0 0 1
14.949263 -24.192520 -2.532709 28.551236 -1.017298 1.659621 0.068710 -0.019500 -111653.000000 0 0 1
14.199363 -25.350820 -2.388809 29.154629 -1.060221 1.652824 0.073912 -0.013734 -163027.000000 0 0 1
14.899363 -26.250820 -1.586309 30.226030 -1.054558 1.623302 0.080113 -0.013713 17170.900000 0 0 1
14.275563 -27.691420 -1.569209 31.194051 -1.094808 1.621122 0.076079 -0.009177 937332.000000 0 0 1
13.042763 -27.879320 -0.841609 30.790882 -1.133215 1.598133 0.077849 -0.013697 611940.000000 0 0 1
12.422863 -29.158720 -1.104509 31.714009 -1.168043 1.605631 0.077691 -0.013944 -77933.700000 0 0 1
13.054263 -30.527820 -0.706509 33.209347 -1.166710 1.592072 0.077035 -0.010682 -166313.000000 0 0 1
14.172663 -30.800920 -1.544609 33.940342 -1.139544 1.616322 0.093620 -0.009054 -244358.000000 0 0 1
14.721963 -32.049720 -1.194709 35.289489 -1.140196 1.604657 0.078725 -0.011485 -908332.000000 0 0 1
16.084163 -32.223820 -1.849609 36.062389 -1.107838 1.622108 0.080395 -0.017241 -1124640.000000 0 0 1
17.000963 -31.421220 -1.206009 35.746052 -1.074838 1.604541 0.075701 -0.010823 -669068.000000 0 0 1
18.258663 -31.490520 -1.860609 36.448504 -1.045351 1.621866 0.083594 -0.018877 66221.700000 0 0 1
19.250763 -30.397620 -1.369409 36.006700 -1.006252 1.608838 0.076168 -0.022459 -91820.100000 0 0 1
18.833363 -29.082720 -1.584809 34.684460 -0.996125 1.616504 0.076122 -0.024011 -158015.000000 0 0 1
19.432963 -28.284720 -0.641509 34.323125 -0.968816 1.589488 0.064445 -0.020145 -265767.000000 0 0 1
19.047863 -26.785820 -0.726309 32.875960 -0.952648 1.592891 0.059376 -0.016653 -88623.200000 0 0 1
19.433363 -26.052720 -1.899309 32.557751 -0.929909 1.629166 0.082403 -0.031856 921733.000000 0 0 1
18.480263 -26.195220 -2.997809 32.197772 -0.956400 1.664037 0.099041 -0.030250 367412.000000 0 0 1
33.220983 -29.146520 13.937691 46.340183 -0.720161 1.265297 0.073471 -0.026159 -333956.000000 0 0 1
34.027923 -29.279620 15.047191 47.345682 -0.710535 1.247372 0.086422 -0.024345 -432316.000000 0 0 1
33.543153 -30.189820 15.977791 47.873355 -0.732831 1.230516 0.065690 -0.008176 253033.000000 0 0 1
34.518733 -30.543620 17.159091 49.182212 -0.724377 1.214412 0.069260 -0.007766 274499.000000 0 0 1
33.849993 -31.409920 18.083291 49.592444 -0.748025 1.197552 0.053164 -0.008072 247631.000000 0 0 1
34.576243 -31.619920 19.257491 50.657545 -0.740768 1.180837 0.033227 -0.009110 -247394.000000 0 0 1
35.464473 -32.871620 19.171691 52.017554 -0.747474 1.193335 0.039105 0.000137 -182079.000000 0 0 1
36.496713 -32.894320 18.209491 52.398777 -0.733530 1.215874 0.050091 0.009012 201322.000000 0 0 1
37.224353 33.670925 18.308991 53.428483 0.735318 1.221026 0.046701 -0.008953 857125.000000 0 0 1
-36.411416 33.593525 17.315291 52.479857 -0.745167 1.234555 0.044289 -0.011741 647957.000000 0 0 1
-35.317383 -33.388020 17.686891 51.719469 0.757324 1.221776 0.049077 -0.013239 93461.100000 0 0 1
-34.409247 -33.310920 16.593591 50.684918 0.769181 1.237259 0.065592 -0.003479 -61940.600000 0 0 1
-33.195336 -32.388220 16.932091 49.372288 0.773092 1.220744 0.062176 -0.013364 386946.000000 0 0 1
-32.188286 -32.344820 15.942791 48.336794 0.787824 1.234676 0.073194 -0.016689 121088.000000 0 0 1
-32.500066 -31.396520 14.946591 47.596179 0.768129 1.251362 0.086257 -0.017351 -645449.000000 0 0 1
-31.414266 -31.349420 13.879891 46.500469 0.784365 1.267687 0.087615 -0.018171 280057.000000 0 0 1
-30.224486 -30.827020 14.471191 45.532846 0.795267 1.247368 0.087057 -0.025053 357002.000000 0 0 1
-29.096586 -30.867720 13.601491 44.546919 0.814926 1.260512 0.086313 -0.020600 80230.100000 0 0 1
-27.860056 -30.230720 14.211891 43.497781 0.826185 1.237958 0.091076 -0.026110 -580676.000000 0 0 1
-26.686716 -30.408120 13.466491 42.640133 0.850485 1.249478 0.090811 -0.023016 -372476.000000 0 0 1
-25.604256 -30.048820 14.334291 41.999778 0.865091 1.222503 0.057177 -0.018802 -317279.000000 0 0 1
-24.263446 -30.029320 13.624691 40.940286 0.891201 1.231531 0.070342 -0.011575 -665834.000000 0 0 1
-23.816446 -31.287220 13.234391 41.488098 0.920153 1.246130 0.071365 -0.022446 900335.000000 0 0 1
-22.446146 -31.238120 12.773891 40.531739 0.947729 1.250173 0.064873 -0.025954 1015250.000000 0 0 1
-21.930346 -32.656120 12.505491 41.276501 0.979418 1.262990 0.051027 -0.020741 -317664.000000 0 0 1
-22.438846 -33.281820 11.368091 41.718279 0.977591 1.294809 0.046335 -0.024671 -102139.000000 0 0 1
-22.144746 33.164425 11.249391 41.434498 -0.982061 1.295847 0.050676 -0.019537 -330756.000000 0 0 1
-23.088746 32.518525 10.262191 41.180787 -0.953378 1.318944 0.052050 -0.013864 -177462.000000 0 0 1
-22.981746 32.938025 8.931591 41.144227 -0.961598 1.351974 0.041165 -0.007302 -81259.000000 0 0 1
-24.114346 32.513425 8.206391 41.303382 -0.932646 1.370780 0.045478 -0.013632 -377645.000000 0 0 1
-24.094246 32.835725 6.708491 41.276160 -0.937756 1.407545 0.041583 -0.006080 -730430.000000 0 0 1
-23.380046 31.954725 5.887591 40.029923 -0.939135 1.423181 0.036350 -0.005150 1446300.000000 0 0 1
-21.929346 32.038725 5.833891 39.260800 -0.970574 1.421651 0.046686 -0.012614 1411100.000000 0 0 1
-21.178746 33.355625 5.451691 39.885560 -1.005083 1.433684 0.059331 -0.012700 -554994.000000 0 0 1
-21.258346 -33.365020 6.421991 40.079718 1.003511 1.409872 0.052120 -0.012137 381762.000000 0 0 1
-20.432946 -33.574820 7.591191 40.029988 1.024092 1.380003 0.051988 -0.015329 -118147.000000 0 0 1
-20.422346 -32.422920 8.556291 39.262298 1.008700 1.351107 0.044883 -0.016708 -222513.000000 0 0 1
-19.544246 -31.354920 8.115891 37.828246 1.013404 1.354570 0.057305 -0.029050 299357.000000 0 0 1
-19.710046 -30.165120 8.840191 37.102147 0.992031 1.330216 0.055186 -0.030177 59765.700000 0 0 1
-18.967246 -30.079220 10.177291 36.987743 1.008197 1.292047 0.045564 -0.022949 1383140.000000 0 0 1
-17.524846 -29.927320 10.106591 36.123508 1.041047 1.287233 0.047817 -0.031730 855778.000000 0 0 1
-16.921046 -29.946820 11.361191 36.224446 1.056482 1.251779 0.068215 -0.029373 -476.617000 0 0 1
-15.719846 -30.913120 11.348691 36.490099 1.100358 1.254543 0.064235 -0.026911 396438.000000 0 0 1
-14.577346 -30.481520 10.617891 35.416968 1.124711 1.266317 0.057807 -0.024595 157551.000000 0 0 1
-13.500946 -31.384720 10.593591 35.770104 1.164550 1.270129 0.068916 -0.019505 572406.000000 0 0 1
-12.257346 -30.869820 9.791291 34.627412 1.192822 1.284125 0.087118 -0.018850 519203.000000 0 0 1
-11.608646 -29.817620 10.500291 33.676508 1.199529 1.253711 0.091541 -0.023493 -1253.290000 0 0 1
-10.611346 -29.136220 9.721091 32.496455 1.221530 1.267002 0.104695 -0.021484 451200.000000 0 0 1
-9.557446 -28.546220 10.660791 31.935621 1.247721 1.230442 0.106637 -0.021957 -127151.000000 0 0 1
-10.110446 -27.558620 11.482391 31.520532 1.219172 1.197934 0.077759 -0.027427 -343679.000000 0 0 1
-9.208446 -27.204120 12.504691 31.324541 1.244408 1.160154 0.078801 -0.022200 93628.800000 0 0 1
-9.550446 -25.881120 13.235191 30.597609 1.217286 1.123470 0.075477 -0.032027 239517.000000 0 0 1
-9.158346 -24.687620 12.515291 29.154526 1.215564 1.127107 0.063809 -0.030918 -79808.600000 0 0 1
-9.990846 -24.383220 11.426191 28.721355 1.181919 1.161647 0.052274 -0.028980 32303.700000 0 0 1
-9.602646 -22.973820 10.856791 27.163893 1.174885 1.159632 0.047497 -0.027274 -907140.000000 0 0 1
-8.403446 -23.026020 10.210291 26.553070 1.220862 1.176104 0.034864 -0.021502 -984645.000000 0 0 1
-7.851946 -21.752720 9.758391 25.100997 1.224388 1.171505 0.030206 -0.010091 -159808.000000 0 0 1
-6.655346 -21.878620 8.834891 24.515769 1.275496 1.202126 0.038851 -0.020640 330143.000000 0 1 0
-5.459746 -22.257320 9.519891 24.815830 1.330245 1.177081 0.059344 -0.030311 134817.000000 0 1 0
-4.357246 -22.538720 8.712691 24.553828 1.379829 1.208053 0.060910 -0.029973 -43810.700000 0 1 0
-3.186946 -23.332620 9.310191 25.322864 1.435049 1.194305 0.077685 -0.035902 -221504.000000 0 0 1
-2.430446 -22.558020 10.196991 24.874685 1.463468 1.148414 0.066891 -0.033382 -522981.000000 0 1 0
-1.506346 -23.474720 10.769991 25.871302 1.506715 1.141434 0.089170 -0.042731 548414.000000 0 0 1
-0.436946 -22.814820 11.680391 25.634712 1.551647 1.097697 0.084853 -0.040433 -57761.500000 0 0 1
-1.064146 -22.425020 12.891391 25.888258 1.523378 1.049548 0.077551 -0.039363 -630674.000000 0 0 1
-0.274946 -22.090220 13.987591 26.147774 1.558350 1.006355 0.108312 -0.040624 -587248.000000 0 0 1
0.489454 -20.762720 13.832791 24.953481 -1.547227 0.983223 0.086009 -0.044605 865466.000000 0 1 0
1.743654 -20.826620 13.101791 24.666685 -1.487269 1.010835 0.097741 -0.044704 677078.000000 0 1 0
2.239154 -19.541020 12.803991 23.469287 -1.456707 0.993735 0.078837 -0.038609 -302017.000000 0 1 0
3.756854 -19.716120 12.679691 23.740554 -1.382506 1.007360 0.088808 -0.027595 -334587.000000 0 1 0
4.020654 -20.316820 11.430291 23.655663 -1.375423 1.066496 0.097186 -0.023441 603690.000000 0 1 0
5.412554 -20.127220 11.099791 23.613684 -1.308094 1.081440 0.120212 -0.034764 1239170.000000 0 1 0
5.883654 -21.147320 9.993791 24.118507 -1.299437 1.143555 0.117982 -0.036151 -340128.000000 0 1 0
5.644654 -20.820020 8.627491 23.232928 -1.306044 1.190336 0.095655 -0.024756 -389612.000000 0 1 0
6.201054 -21.729120 7.724091 23.880312 -1.292806 1.241423 0.093228 -0.026733 959422.000000 0 1 0
7.763454 -21.872020 7.682891 24.447562 -1.229719 1.251119 0.096603 -0.023843 298230.000000 0 1 0
8.577854 -20.977720 6.918591 23.696228 -1.182639 1.274510 0.100379 -0.028829 179093.000000 0 1 0
9.012854 -19.770620 7.531091 22.996223 -1.143071 1.237148 0.108228 -0.023115 548469.000000 0 1 0
9.948154 -19.860620 8.776991 23.884002 -1.106430 1.194494 0.096370 -0.019154 172433.000000 0 1 0
9.219554 -20.093120 9.955491 24.245524 -1.140614 1.147672 0.116529 -0.024406 22699.100000 0 1 0
10.124454 -20.039020 11.070591 25.032476 -1.102968 1.112691 0.108450 -0.010813 459187.000000 0 0 1
9.461254 -20.102320 12.464091 25.474932 -1.130899 1.059545 0.126631 -0.020694 62789.100000 0 0 1
9.254354 -21.492120 12.804791 26.674275 -1.164198 1.070093 0.116672 -0.024867 -164318.000000 0 0 1
8.407554 -21.698020 13.920691 27.115986 -1.201129 1.031682 0.150097 -0.030994 132952.000000 0 0 1
8.653654 -22.998120 14.562891 28.563561 -1.210907 1.035796 0.139479 -0.038353 103714.000000 0 0 1
8.148354 -24.145320 13.910091 29.032444 -1.245326 1.071142 0.151046 -0.039228 -166690.000000 0 0 1
8.496654 -25.303120 14.596491 30.422008 -1.246832 1.070369 0.155223 -0.053379 70447.700000 0 0 1
8.555354 -26.512920 13.659391 31.027536 -1.258659 1.114937 0.167017 -0.061584 264297.000000 0 0 1
9.712354 -26.630420 12.833091 31.115869 -1.221078 1.145677 0.141620 -0.049688 48353.800000 0 0 1
9.713254 -27.661820 11.868591 31.628896 -1.233104 1.186135 0.134894 -0.050452 -20899.900000 0 0 1
11.088154 -28.019520 11.234891 32.159966 -1.193977 1.213925 0.109378 -0.043011 -43076.600000 0 0 1
11.938254 -28.623320 12.155691 33.310316 -1.175652 1.197247 0.092178 -0.040073 -1398250.000000 0 0 1
13.117454 -28.981520 11.574891 33.852241 -1.145770 1.221833 0.124768 -0.037004 -1597020.000000 0 0 1
13.889254 -29.853920 12.502291 35.220380 -1.135341 1.207911 0.096457 -0.039788 -867199.000000 0 0 1
14.413154 -29.143820 13.631591 35.255092 -1.111516 1.173794 0.083138 -0.038486 689822.000000 0 0 1
15.352554 -29.885720 14.440791 36.570393 -1.096242 1.164863 0.074185 -0.034875 910103.000000 0 0 1
16.811554 -29.973720 13.954391 37.091472 -1.059641 1.185088 0.064656 -0.023204 -449889.000000 0 0 1
17.465554 -28.826520 13.603091 36.346360 -1.026061 1.187195 0.050876 -0.033520 -1144680.000000 0 0 1
18.774654 -28.992620 13.236191 36.989950 -0.996134 1.204851 0.056397 -0.031751 -1117260.000000 0 0 1
19.529454 -27.709320 12.877091 36.263280 -0.956858 1.207775 0.034694 -0.035536 1074920.000000 0 0 1
20.906654 -27.848520 12.446191 36.980210 -0.926830 1.227531 0.027295 -0.034676 1168310.000000 0 0 1
21.591254 -26.591520 12.463891 36.450511 -0.888805 1.221816 0.015383 -0.029543 -322744.000000 0 0 1
22.938954 -26.775620 11.775091 37.172331 -0.862419 1.248474 0.020721 -0.023972 -22348.400000 0 0 1
23.905554 -27.492220 12.572391 38.540403 -0.855068 1.238501 0.032652 -0.022877 594913.000000 0 0 1
25.089754 -27.801420 11.871191 39.285365 -0.836622 1.263819 0.035959 -0.026128 -388552.000000 0 0 1
26.221154 -28.467920 12.748791 40.749271 -0.826458 1.252594 0.047477 -0.022900 575131.000000 0 0 1
27.148754 -27.518420 13.329791 40.890116 -0.792160 1.238737 0.024739 -0.021256 675904.000000 0 0 1
28.165854 -27.269320 12.362691 41.106779 -0.769227 1.265322 0.006263 -0.023789 -260138.000000 0 0 1
29.477854 -26.549020 12.821291 41.691484 -0.733170 1.258202 0.053887 -0.034119 313392.000000 0 0 1
29.506954 -25.166420 12.964791 40.891256 -0.706174 1.248173 0.073762 -0.039044 -24633.400000 0 0 1
28.782654 -24.629620 14.046991 40.402690 -0.707800 1.215706 0.073563 -0.027512 -607951.000000 0 0 1
29.529154 -24.431520 15.381491 41.297220 -0.691208 1.189140 0.064806 -0.016901 -191423.000000 0 0 1
29.790154 -25.700320 15.989191 42.468977 -0.711828 1.184791 0.050719 -0.024169 274730.000000 0 0 1
30.768254 -25.712020 17.025491 43.562149 -0.696114 1.169261 0.076920 -0.003266 157035.000000 0 0 1
31.300754 -27.093320 17.429191 44.917278 -0.713470 1.172305 0.060373 0.024897 -142103.000000 0 0 1
30.359954 -27.874620 18.120991 45.023234 -0.742746 1.156571 0.041640 0.012159 -266351.000000 0 0 1
30.953754 -28.911520 18.819991 46.348710 -0.751298 1.152667 0.057129 -0.003235 -277272.000000 0 0 1
30.006754 -29.794120 19.634591 46.622013 -0.781842 1.136090 0.057391 0.008947 -518184.000000 0 0 1
29.247954 -29.112920 20.654191 46.147595 -0.783084 1.106752 0.045271 0.011097 1305960.000000 0 0 1
28.234354 -29.922720 21.326191 46.339555 -0.814421 1.092558 0.036589 0.007983 1416920.000000 0 0 1
26.960554 -30.352220 20.547691 45.500949 -0.844507 1.102252 0.076011 -0.000748 -259598.000000 0 0 1
27.292954 -31.482420 19.700491 46.088583 -0.856557 1.129128 0.081444 -0.000007 47912.200000 0 0 1
26.502754 -31.803120 18.570191 45.372750 -0.876055 1.149131 0.096806 0.000968 -272742.000000 0 0 1
26.711554 -30.790620 17.459791 44.344264 -0.856217 1.166107 0.083682 0.004286 1014780.000000 0 0 1
27.991254 -30.897920 16.794191 44.947042 -0.834716 1.187862 0.069607 -0.003096 1001590.000000 0 0 1
27.988054 -30.061820 15.677391 43.963903 -0.821107 1.206174 0.067385 -0.019693 722336.000000 0 0 1
29.295854 -30.167720 14.783391 44.574511 -0.800059 1.232738 0.071327 -0.020175 720846.000000 0 0 1
29.305354 -31.385220 14.007191 45.166771 -0.819655 1.255475 0.091238 -0.011841 476428.000000 0 0 1
29.882854 -32.572320 14.574591 46.544169 -0.828434 1.252304 0.096081 -0.019174 -191631.000000 0 0 1
29.240154 -33.853920 14.058391 46.890435 -0.858393 1.266299 0.113941 -0.029537 -364799.000000 0 0 1
29.365754 33.860925 12.625291 46.565092 0.856375 1.296227 0.107221 -0.028153 517621.000000 0 0 1
28.534854 32.871825 12.030291 45.161075 0.855908 1.301154 0.102729 -0.036455 -46271.000000 0 0 1
29.017354 32.574025 10.547091 44.881122 0.843080 1.333577 0.106045 -0.044635 -613213.000000 0 0 1
30.261754 31.962625 10.632591 45.281731 0.812726 1.333774 0.090095 -0.047998 -453425.000000 0 0 1
30.608054 31.357825 9.403791 44.817379 0.797497 1.359401 0.088717 -0.057613 -603524.000000 0 0 1
32.055754 30.884225 9.407291 45.496196 0.766787 1.362523 0.054476 -0.046772 -531734.000000 0 0 1
32.327054 29.824125 10.263391 45.164744 0.745148 1.341550 0.047178 -0.036228 -285713.000000 0 0 1
33.702054 29.699225 10.500391 46.131667 0.722347 1.341166 0.046642 -0.030035 -241131.000000 0 0 1
34.044254 28.830925 11.719191 46.125621 0.702672 1.313909 0.054271 -0.026310 -85391.300000 0 0 1
33.731654 27.495125 11.579691 45.032163 0.683889 1.310732 0.059531 -0.031877 -31889.400000 0 0 1
33.889554 26.847025 12.791291 45.087490 0.669962 1.283147 0.077913 -0.040747 138219.000000 0 0 1
33.660654 25.317925 12.666791 43.982776 0.644877 1.278665 0.060873 -0.035542 199247.000000 0 0 1
34.700154 24.805725 11.855791 44.271712 0.620629 1.299691 0.064565 -0.025499 43962.200000 0 0 1
34.956854 23.385625 11.910091 43.711777 0.589606 1.294838 0.073901 -0.030294 -191190.000000 0 0 1
33.807054 22.456225 11.477291 42.177330 0.586325 1.295201 0.063125 -0.026109 -305810.000000 0 0 1
32.644454 22.451225 12.238091 41.466719 0.602457 1.271204 0.100283 -0.042319 -182948.000000 0 0 1
31.597554 21.775825 11.515191 40.064843 0.603415 1.279271 0.096722 -0.032948 1818710.000000 0 0 1
30.204254 21.907825 12.304791 39.289409 0.627520 1.252253 0.095153 -0.029754 1146820.000000 0 0 1
29.499154 23.105225 12.238691 39.418741 0.664444 1.255099 0.102804 -0.030742 -806498.000000 0 0 1
28.366854 22.979825 13.018491 38.758637 0.680866 1.228250 0.127818 -0.021305 -620907.000000 0 0 1
25.217354 9.306825 25.676737 37.172931 0.353557 0.808288 0.049294 -0.007365 -116621.000000 0 0 1
25.101554 8.112725 26.337957 37.277236 0.312599 0.786196 0.053619 -0.012935 1974100.000000 0 0 1
23.673354 7.780425 26.444987 36.335934 0.317536 0.755700 0.054720 -0.014625 1750290.000000 0 0 1
23.262254 6.535825 27.269197 36.434306 0.273901 0.725077 0.072378 -0.011020 -125407.000000 0 0 1
23.384954 6.788725 28.660987 37.608444 0.282537 0.704263 0.090511 -0.017732 -87928.000000 0 0 1
24.673654 6.539525 29.167797 38.759709 0.259084 0.718903 0.071207 -0.015301 -272841.000000 0 0 1
24.875654 6.635625 30.715097 40.078010 0.260682 0.697605 0.082094 -0.020779 -75156.500000 0 0 1
25.006054 7.978925 31.197547 40.770737 0.308868 0.699453 0.120818 -0.030533 139201.000000 0 0 1
24.927354 7.973425 32.616285 41.818304 0.309582 0.676207 0.126274 -0.032677 -27739.800000 0 0 1
25.236254 9.281925 33.362073 42.849161 0.352445 0.678375 0.180032 -0.039818 580368.000000 0 0 1
26.558054 9.760325 33.143012 43.578131 0.352187 0.706648 0.121235 -0.040549 159897.000000 0 0 1
27.128954 10.335725 -33.550339 44.367022 0.364007 2.428282 0.137227 -0.038235 756364.000000 0 0 1
28.350954 11.316025 -33.757259 45.512433 0.379766 2.406420 0.117894 -0.038911 459644.000000 0 0 1
28.015154 12.616825 33.586961 45.520513 0.423151 0.740928 0.114748 -0.045922 326337.000000 0 0 1
27.431754 13.473325 -33.261349 45.170222 0.456549 2.398464 0.114983 -0.046908 -183612.000000 0 0 1
27.027654 14.824525 -33.829929 45.768163 0.501687 2.402617 0.111497 -0.043180 -223053.000000 0 0 1
28.112054 15.674625 33.669270 46.578979 0.508642 0.762889 0.086869 -0.044765 129008.000000 0 0 1
27.705254 16.967925 33.262106 46.495799 0.549520 0.773630 0.110437 -0.045573 -60524.400000 0 0 1
27.818554 17.993725 -33.400659 47.045192 0.574140 2.360251 0.097485 -0.045534 -330017.000000 0 0 1
27.056954 17.654525 -32.272719 45.664969 0.578127 2.355659 0.104264 -0.050898 232079.000000 0 0 1
27.880454 17.004425 -31.331409 45.256241 0.547671 2.335484 0.094801 -0.041456 62347.000000 0 0 1
27.006354 16.309925 -30.259799 43.715126 0.543304 2.335335 0.099220 -0.038769 347925.000000 0 0 1
26.385354 15.094925 -30.677199 43.187200 0.519648 2.360764 0.120930 -0.033027 -24027.100000 0 0 1
25.778654 14.372825 -29.617959 41.813163 0.508619 2.357941 0.148289 -0.038601 138895.000000 0 0 1
24.994654 13.169625 -30.222419 41.371081 0.484933 2.389880 0.139868 -0.031996 166513.000000 0 0 1
23.810554 13.523125 -30.944519 41.320463 0.516517 2.417183 0.148068 -0.037145 759866.000000 0 0 1
23.193454 12.361525 -31.528109 41.045892 0.489678 2.446694 0.140026 -0.029973 206560.000000 0 0 1
22.172554 11.542325 -30.706589 39.594722 0.479966 2.458338 0.141886 -0.034221 343026.000000 0 0 1
20.976354 12.278525 -30.391309 38.915309 0.529578 2.466998 0.171074 -0.031073 771643.000000 0 0 1
20.212354 11.620825 -29.404389 37.526003 0.521787 2.471193 0.154363 -0.015275 -371096.000000 0 0 1
18.916354 12.242825 -28.920989 36.662499 0.574410 2.479722 0.116554 -0.003492 -116561.000000 0 0 1
17.953854 12.508525 -29.943499 37.086618 0.608511 2.510518 0.093756 0.003595 75489.100000 0 0 1
16.792554 13.035825 -29.352269 36.241941 0.660113 2.514774 0.079586 -0.003199 -493554.000000 0 0 1
15.667254 13.299825 -30.359749 36.661459 0.703851 2.546525 0.076519 -0.007808 -143248.000000 0 0 1
14.927254 12.241725 -30.909569 36.442890 0.686873 2.583307 0.070236 -0.002594 399309.000000 0 0 1
13.640254 12.087725 -30.305369 35.363611 0.725127 2.600147 0.060903 -0.006300 930349.000000 0 0 1
12.577054 11.334225 -31.203199 35.500515 0.733468 2.644454 0.069573 -0.005932 457541.000000 0 0 1
12.158954 12.186325 -32.189549 36.503613 0.786522 2.650500 0.074573 -0.009152 67256.400000 0 0 1
11.043654 11.640225 -32.895399 36.600060 0.811691 2.687775 0.072775 -0.005331 297603.000000 0 0 1
10.746254 12.576825 33.780914 37.613943 0.863725 0.455376 0.079373 -0.012655 -197072.000000 0 0 1
11.630554 12.543125 32.688897 36.893953 0.823131 0.482100 0.073667 -0.011093 -184797.000000 0 0 1
11.074954 13.230925 31.560097 35.968761 0.873868 0.500317 0.079912 -0.022767 -198937.000000 0 0 1
11.944254 13.281025 30.291197 35.165430 0.838342 0.532794 0.084992 -0.022946 -285918.000000 0 0 1
12.192454 11.955225 29.795167 34.341453 0.775574 0.520410 0.079986 -0.020563 23730.800000 0 0 1
12.257554 11.956125 28.420717 33.180322 0.772950 0.542243 0.102717 -0.021316 -290193.000000 0 0 1
12.757254 10.615525 27.818347 32.392860 0.694020 0.537912 0.121380 -0.014258 362461.000000 0 0 1
11.885254 9.497825 28.086957 31.942842 0.674208 0.496431 0.106230 -0.031658 553230.000000 0 0 1
12.525454 8.220425 27.868287 31.640225 0.580790 0.493275 0.116631 -0.032583 -358318.000000 0 0 1
11.713754 6.944825 28.147977 31.269015 0.535166 0.450596 0.088087 -0.028301 132264.000000 0 0 1
10.505654 6.997325 27.350857 30.123093 0.587578 0.432383 0.079611 -0.030900 605665.000000 0 0 1
9.597254 5.973525 27.759447 29.972941 0.556742 0.386722 0.071509 -0.037766 -63526.500000 0 0 1
10.022754 4.500125 27.370047 29.492817 0.422014 0.381723 0.089110 -0.030280 372450.000000 0 0 1
11.131654 3.984125 28.149737 30.531864 0.343704 0.397636 0.088037 -0.030433 927108.000000 0 0 1
11.421754 2.675325 27.680487 30.063653 0.230083 0.400851 0.086346 -0.029237 -132985.000000 0 0 1
12.099354 1.812925 28.712767 31.210641 0.148730 0.402799 0.074955 -0.024939 -295564.000000 0 0 1
11.124954 1.411525 29.622177 31.673813 0.126205 0.361899 0.064845 -0.030241 94948.000000 0 0 1
11.399454 0.160125 30.212727 32.292137 0.014046 0.360824 0.076590 -0.029259 109647.000000 0 0 1
10.329254 -0.056375 31.287487 32.948498 -0.005458 0.318878 0.084200 -0.028541 60615.700000 0 0 1
10.409054 0.939825 32.305509 33.954052 0.090045 0.312890 0.065230 -0.031855 444469.000000 0 0 1
9.111754 1.236025 32.812578 34.076636 0.134829 0.273226 0.079674 -0.029609 175623.000000 0 0 1
9.117254 2.544325 33.700598 35.004689 0.272143 0.273819 0.074938 -0.036533 -194784.000000 0 0 1
9.268154 3.818525 33.099546 34.584098 0.390812 0.294063 0.052363 -0.032488 764722.000000 0 0 1
10.508454 4.019925 32.401499 34.299338 0.365366 0.334214 0.061945 -0.027359 73983.500000 0 0 1
10.619754 5.359825 31.595127 33.760317 0.467403 0.360088 0.056592 -0.028856 39550.900000 0 0 1
10.605754 6.514825 32.474797 34.778405 0.550848 0.366009 0.056303 -0.031965 94751.800000 0 0 1
10.761954 7.680225 31.687357 34.335028 0.619826 0.395284 0.064858 -0.026911 -440363.000000 0 0 1
10.692154 9.026425 32.460435 35.347962 0.701123 0.407003 0.074467 -0.029083 416336.000000 0 0 1
9.406054 9.530025 32.863330 35.486528 0.791945 0.386911 0.064556 -0.033994 477234.000000 0 0 1
8.818254 8.741025 33.896837 36.099345 0.781000 0.351121 0.062005 -0.031126 -1062210.000000 0 0 1
7.385454 9.103325 -33.602249 35.588293 0.889208 2.805935 0.066135 -0.033383 -717925.000000 0 0 1
6.899954 8.396725 -32.480229 34.250250 0.882937 2.818698 0.071961 -0.032142 -117877.000000 0 0 1
5.516754 8.592225 -32.286759 33.862896 1.000021 2.835291 0.072478 -0.031781 -31004.700000 0 0 1
5.103354 7.784225 -31.046319 32.411607 0.990493 2.850311 0.074790 -0.027444 -218321.000000 0 0 1
5.528954 8.309225 -29.757929 31.387050 0.983671 2.817989 0.086300 -0.033690 210479.000000 0 0 1
5.178054 7.461325 -28.654559 30.059397 0.964118 2.834659 0.080250 -0.028707 194744.000000 0 0 1
3.712954 7.501125 -28.160549 29.378043 1.111168 2.852692 0.075919 -0.022010 665727.000000 0 0 1
2.737354 6.927025 -29.059329 29.998690 1.194460 2.890682 0.066542 -0.023073 1191060.000000 0 0 1
1.396954 7.135025 -28.564369 29.475129 1.377454 2.892355 0.079358 -0.013981 819496.000000 0 0 1
0.346454 6.875125 -29.653269 30.441809 1.520446 2.913488 0.091471 -0.029482 -271905.000000 0 0 1
0.449154 7.702525 -30.769969 31.722573 1.512550 2.895907 0.081068 -0.034084 -177048.000000 0 0 1
-0.016846 7.053725 -31.919359 32.689460 -1.568408 2.924102 0.109467 -0.048645 -478694.000000 0 0 1
0.354554 7.849625 -33.183109 34.100748 1.525659 2.909079 0.128518 -0.055195 564405.000000 0 0 1
1.705754 7.924525 -33.679399 34.641155 1.358781 2.905403 0.105515 -0.043095 965816.000000 0 0 1
2.323354 6.686725 33.759812 34.493988 1.236388 0.206689 0.102901 -0.045178 -300223.000000 0 0 1
1.986154 6.152125 32.331714 32.971703 1.258519 0.197349 0.107973 -0.046727 -474973.000000 0 0 1
0.791754 5.424625 32.349871 32.811090 1.425864 0.167868 0.125352 -0.055549 -331007.000000 0 0 1
0.315254 5.031925 31.045257 31.451990 1.508227 0.160996 0.142839 -0.049990 358209.000000 0 0 1
1.277154 4.109025 30.221907 30.526692 1.269446 0.141427 0.142893 -0.054269 230824.000000 0 0 1
0.952054 4.190225 28.837467 29.155856 1.347381 0.147920 0.130005 -0.048728 -75957.800000 0 0 1
1.813754 3.442025 28.045487 28.314071 1.085827 0.137847 0.115885 -0.040122 -286789.000000 0 0 1
1.636854 3.925025 26.577647 26.915729 1.175695 0.158664 0.112465 -0.033586 230697.000000 0 0 1
2.278654 5.181225 26.386277 26.986534 1.156465 0.211309 0.100135 -0.033630 80778.900000 0 0 1
2.313454 5.477425 24.992777 25.690333 1.171162 0.233565 0.090582 -0.027346 -273247.000000 0 0 1
2.885654 6.917425 24.754287 25.864117 1.175587 0.294008 0.078629 -0.025188 317753.000000 0 0 1
4.294054 7.041525 24.783147 26.119464 1.023188 0.321260 0.073349 -0.022108 123679.000000 0 0 1
4.941554 6.789525 23.521867 24.975886 0.941642 0.342901 0.067938 -0.022923 -781968.000000 0 1 0
6.469654 6.840725 23.534637 25.348197 0.813269 0.380567 0.082910 -0.023999 -179384.000000 0 0 1
7.206954 5.947625 24.358047 26.088866 0.689956 0.366306 0.093419 -0.023201 218613.000000 0 0 1
6.929754 4.550225 24.230277 25.609225 0.581016 0.329654 0.096592 -0.023464 -1218070.000000 0 0 1
7.108154 3.846325 22.883167 24.268486 0.495996 0.339513 0.092982 -0.022274 -295381.000000 0 1 0
6.157454 4.078325 21.885757 23.098341 0.585001 0.325461 0.065909 -0.024377 -56246.200000 0 1 0
4.893254 3.459325 22.171657 22.967222 0.615380 0.263973 0.064566 -0.018360 -105052.000000 0 1 0
3.817454 3.885325 21.183257 21.872337 0.794209 0.251680 0.048491 -0.015510 -466735.000000 0 1 0
3.397354 5.173925 21.276757 22.158789 0.989774 0.283097 0.045964 -0.020081 -410135.000000 0 1 0
2.092254 5.247825 20.757057 21.512151 1.191420 0.265737 0.042478 -0.010628 -128394.000000 0 1 0
1.561854 6.716725 20.635857 21.757583 1.342324 0.322505 0.045956 -0.018399 -309732.000000 0 1 0
2.228354 7.517525 19.735857 21.236356 1.282626 0.378167 0.034675 -0.026369 -634870.000000 0 1 0
1.707154 8.826525 19.701857 21.656064 1.379743 0.428087 0.040935 -0.031245 305039.000000 0 1 0
2.759254 9.913825 19.319357 21.889152 1.299343 0.489433 0.049549 -0.032286 -896709.000000 0 1 0
3.121954 10.107625 17.998357 20.877058 1.271221 0.531374 0.036503 -0.024152 247240.000000 0 1 0
4.116654 11.159825 17.802857 21.410985 1.217400 0.589026 0.043287 -0.020675 862395.000000 0 1 0
5.507354 10.708325 18.293757 21.901159 1.095770 0.582141 0.045714 -0.017697 -1238910.000000 0 1 0
6.245454 9.929925 17.356857 20.949215 1.009360 0.594336 0.038870 -0.007609 63604.600000 0 1 0
7.546454 9.698825 17.858957 21.678527 0.909565 0.602699 0.052068 0.004270 -44732.200000 0 1 0
7.838854 8.275025 18.195457 21.470872 0.812460 0.559636 0.055478 -0.005727 -418463.000000 0 1 0
7.127954 7.799925 19.313057 22.014558 0.830382 0.500619 0.054611 -0.018194 -254713.000000 0 1 0
7.191054 6.356425 19.555057 21.783381 0.723868 0.456263 0.060564 -0.034281 722886.000000 0 1 0
8.533954 5.603025 19.933757 22.395914 0.580971 0.473315 0.088838 -0.027447 788572.000000 0 1 0
9.396454 5.495925 18.785457 21.711563 0.529238 0.525191 0.083436 -0.025257 -196832.000000 0 1 0
10.690754 5.013525 19.024257 22.390847 0.438508 0.555486 0.103430 -0.027288 -103268.000000 0 1 0
10.782654 3.505825 19.245257 22.336884 0.314355 0.532401 0.123361 -0.019733 -785604.000000 0 1 0
10.093954 3.015625 20.349257 22.914497 0.290315 0.477707 0.125508 -0.024079 -163074.000000 0 1 0
10.222854 1.604525 20.347157 22.827354 0.155685 0.470482 0.120798 -0.023670 -41275.100000 0 1 0
9.238954 0.923825 21.312357 23.247114 0.099661 0.410868 0.115307 -0.027758 -156863.000000 0 1 0
9.451354 1.161325 22.689157 24.606394 0.122261 0.397365 0.131709 -0.024649 -91215.400000 0 1 0
8.792854 0.254325 23.524277 25.115147 0.028916 0.357836 0.121878 -0.025348 -414284.000000 0 0 1
9.232854 0.353825 25.022907 26.674270 0.038304 0.353717 0.126979 -0.030639 77125.100000 0 0 1
10.465854 -0.246775 25.392317 27.465702 -0.023575 0.391048 0.131865 -0.029682 320764.000000 0 0 1
10.507154 -1.679675 25.348097 27.490865 -0.158519 0.397439 0.143139 -0.023563 -117738.000000 0 0 1
11.952954 -2.229875 25.378297 28.140779 -0.184434 0.446802 0.150685 -0.028399 220742.000000 0 0 1
11.948854 -3.619775 25.182857 28.107903 -0.294151 0.460264 0.148615 -0.020729 92280.800000 0 0 1
13.250654 -4.177975 25.100847 28.689508 -0.305437 0.505538 0.136484 -0.019470 166858.000000 0 0 1
13.257154 -5.694375 25.074637 28.929492 -0.405703 0.522148 0.143344 -0.015213 -29008.600000 0 0 1
13.257354 -6.317975 23.838807 27.999339 -0.444723 0.552136 0.142728 -0.020855 215279.000000 0 0 1
13.097454 -7.726675 24.025327 28.433452 -0.532987 0.564293 0.134587 -0.027007 32901.000000 0 0 1
13.007254 -8.450075 22.716057 27.506576 -0.576124 0.599104 0.132170 -0.027021 89858.600000 0 0 1
12.628454 -9.804575 22.890767 27.921225 -0.660176 0.609675 0.146387 -0.017704 -518887.000000 0 0 1
12.520354 -10.508175 21.626357 27.108677 -0.698242 0.647217 0.130067 -0.020928 44810.500000 0 0 1
11.880354 -11.891175 21.782857 27.514282 -0.785853 0.657221 0.157526 -0.018559 -1819160.000000 0 0 1
10.526054 -11.892175 21.788257 26.962007 -0.846261 0.629861 0.152118 -0.019114 -2023520.000000 0 0 1
10.076954 -13.210575 22.024657 27.588944 -0.919157 0.646305 0.148233 -0.020151 -566959.000000 0 0 1
8.652354 -13.285975 22.567857 27.580583 -0.993550 0.612433 0.109305 -0.009568 -379257.000000 0 0 1
7.755454 -12.806675 21.585057 26.269235 -1.026285 0.606434 0.092896 -0.015061 -554324.000000 0 0 1
6.485754 -12.551975 22.125357 26.251639 -1.093869 0.568298 0.052022 -0.009636 119038.000000 0 0 1
5.746954 -11.331675 21.555057 25.021088 -1.101438 0.532628 0.034765 0.001525 524885.000000 0 0 1
6.409354 -10.097875 21.878457 24.934189 -1.005236 0.500280 0.051159 0.001463 379222.000000 0 1 0
5.615854 -9.013275 21.325757 23.823620 -1.013590 0.462025 0.028324 0.001975 410853.000000 0 1 0
6.010354 -7.620475 21.612257 23.691468 -0.902977 0.422082 0.057896 -0.018713 -449052.000000 0 1 0
5.018054 -6.692875 21.223557 22.812603 -0.927448 0.375448 0.043608 -0.013330 -183053.000000 0 1 0
5.254854 -5.357175 21.553157 22.822169 -0.795040 0.335045 0.060110 -0.024155 35018.600000 0 1 0
-7.854446 -15.583175 -20.953209 27.268381 1.103927 2.447144 0.044737 0.005852 159003.000000 0 0 1
-7.436946 -15.192475 -19.657009 25.932941 1.115572 2.431028 0.033270 0.013035 -214613.000000 0 0 1
-6.970946 -13.856475 -19.758209 25.119371 1.104686 2.476035 0.053177 -0.003668 -57503.100000 0 0 1
-6.370346 -13.426775 -18.423109 23.670034 1.127796 2.462799 0.040006 -0.006047 346842.000000 0 1 0
-5.226246 -14.248875 -18.117509 23.634471 1.219249 2.444281 0.033756 0.003737 505252.000000 0 1 0
-4.674646 -13.871475 -16.852309 22.321972 1.245752 2.426397 0.044330 -0.005230 -319168.000000 0 1 0
-3.533746 -14.772675 -16.420409 22.368485 1.336000 2.395117 0.037343 0.004128 -588503.000000 0 1 0
-2.392246 -14.641575 -17.236709 22.742090 1.408840 2.430917 0.035043 -0.001525 -420015.000000 0 1 0
-1.368846 -15.392575 -16.609009 22.686213 1.482101 2.392224 0.042750 -0.001299 -1115960.000000 0 1 0
-0.136646 -15.512575 -17.435109 23.337559 1.561988 2.414460 0.052466 0.001710 -1142080.000000 0 1 0
-0.156646 -16.354875 -18.623109 24.785614 1.561219 2.420929 0.090737 -0.025637 -407084.000000 0 1 0
-0.173746 -17.754975 -18.415109 25.580961 1.561011 2.374419 0.088395 -0.013630 -426731.000000 0 0 1
-0.604646 -18.519675 -19.643109 27.003623 1.538159 2.385358 0.104710 -0.034216 -788181.000000 0 0 1
-1.972846 -18.312975 -19.774409 27.023775 1.463481 2.391669 0.118737 -0.030482 -900446.000000 0 0 1
-2.463246 -18.791475 -21.032509 28.311721 1.440456 2.408174 0.111068 -0.035128 -233704.000000 0 0 1
-3.556846 -17.858175 -21.532609 28.199624 1.374197 2.439632 0.125393 -0.034405 -373352.000000 0 0 1
-3.114846 -16.544975 -21.798309 27.542780 1.384709 2.483949 0.120501 -0.028141 -179167.000000 0 0 1
-3.388646 -15.693375 -20.654209 26.160299 1.358133 2.480831 0.094754 -0.016388 -215367.000000 0 0 1
-2.497246 -14.472975 -20.535009 25.246580 1.399933 2.520732 0.080473 -0.012737 -82249.000000 0 0 1
-2.852146 -13.414675 -21.397309 25.415213 1.361302 2.571608 0.067918 -0.019361 -18811.200000 0 0 1
-2.141446 -12.269875 -20.954409 24.376687 1.398008 2.605299 0.064200 -0.022809 372223.000000 0 1 0
-1.879146 -11.307575 -22.143509 24.934462 1.406117 2.663923 0.074216 -0.023792 -1044200.000000 0 1 0
-2.994746 -10.569875 -22.307709 24.866134 1.294704 2.683985 0.068373 -0.021677 -1150160.000000 0 1 0
-3.030446 -10.105675 -23.657809 25.903671 1.279454 2.722109 0.084701 -0.018408 -369485.000000 0 0 1
-3.978746 -8.950075 -23.876809 25.807678 1.152485 2.752312 0.073080 -0.017347 -339125.000000 0 0 1
-5.340446 -9.268075 -24.102409 26.369370 1.048046 2.723908 0.064521 -0.015370 430204.000000 0 0 1
-6.052146 -8.010275 -23.983209 25.999755 0.923754 2.745148 0.063802 -0.025607 -433045.000000 0 0 1
-7.559046 -8.167475 -23.693609 26.176973 0.824067 2.702486 0.043997 -0.030161 172706.000000 0 0 1
-8.433446 -8.562175 -24.723809 27.490008 0.792972 2.689133 0.038054 -0.017394 80213.600000 0 0 1
-8.758446 -7.444075 -25.546519 28.013376 0.704454 2.718784 0.037824 -0.024580 -369836.000000 0 0 1
-9.716746 -7.753775 -26.707299 29.458716 0.673508 2.705954 0.032649 -0.032379 246578.000000 0 0 1
-10.694546 -6.800775 -27.089759 29.907840 0.566407 2.704000 0.044638 -0.037050 257555.000000 0 0 1
-11.156846 -7.151475 -28.360729 31.304149 0.570018 2.704470 0.046331 -0.032557 -606539.000000 0 0 1
-12.139546 -6.218775 -28.997109 32.044875 0.473419 2.701919 0.048674 -0.036526 -450990.000000 0 0 1
-11.559646 -5.057475 -29.602379 32.179252 0.412420 2.738676 0.037016 -0.031449 -15345.700000 0 0 1
-12.015546 -4.907575 -30.917239 33.531079 0.387757 2.744133 0.049753 -0.032374 -381974.000000 0 0 1
-11.319246 -3.832375 -31.747079 33.921813 0.326458 2.781573 0.040757 -0.028543 880505.000000 0 0 1
-10.033846 -4.207375 -32.292169 34.075860 0.397048 2.816607 0.026651 -0.022394 950631.000000 0 0 1
-9.644946 -3.254375 -33.304249 34.825119 0.325422 2.844967 0.037386 -0.025330 -120079.000000 0 0 1
-8.418246 -3.715575 33.719220 34.952227 0.415655 0.266407 0.039683 -0.018891 546566.000000 0 0 1
-7.169646 -3.739775 -33.399209 34.364180 0.480788 2.904050 0.048126 -0.023761 523705.000000 0 0 1
-6.168846 -4.038275 33.477696 34.280001 0.579619 0.216778 0.039865 -0.022814 -642313.000000 0 0 1
-4.784846 -3.515875 33.796817 34.314443 0.633698 0.173913 0.069439 -0.030396 -641402.000000 0 0 1
-4.650546 -2.143275 33.498739 33.887855 0.431853 0.151687 0.106019 -0.051688 367347.000000 0 0 1
-3.354146 -1.612175 33.783445 33.987801 0.448049 0.109715 0.111535 -0.048306 472910.000000 0 0 1
-3.348246 -0.258275 -33.427879 33.596139 0.076985 3.041468 0.125545 -0.056094 -16223.200000 0 0 1
-3.913846 -0.310375 -32.133729 32.372690 0.079136 3.020014 0.124086 -0.050136 136452.000000 0 0 1
-4.442446 0.942825 -31.745429 32.068622 -0.209128 2.999500 0.151891 -0.047620 -499435.000000 0 0 1
-4.969446 0.945225 -30.269299 30.689074 -0.187962 2.976005 0.131200 -0.057595 586985.000000 0 0 1
-6.014746 0.017725 -29.991449 30.588633 -0.002947 2.943669 0.121393 -0.059700 -332237.000000 0 0 1
-7.297846 0.531325 -30.113179 30.989424 -0.072678 2.903224 0.126835 -0.059841 -452674.000000 0 0 1
-8.421346 -0.549275 -30.142809 31.301912 0.065132 2.868607 0.104962 -0.053644 263787.000000 0 0 1
-8.641746 -1.145675 -28.914569 30.200077 0.131806 2.848772 0.101196 -0.052841 142877.000000 0 0 1
-9.776846 -1.996575 -28.979629 30.649501 0.201445 2.809976 0.045373 -0.035620 136419.000000 0 0 1
-10.045446 -2.615775 -27.568319 29.457859 0.254737 2.781477 0.049799 -0.039086 -530091.000000 0 0 1
-10.758446 -1.746975 -26.768779 28.902657 0.160977 2.754923 0.058953 -0.035401 -146491.000000 0 0 1
-10.997946 -2.322975 -25.491679 27.859948 0.208159 2.726289 0.059153 -0.035271 -16342.200000 0 0 1
-12.007346 -1.570475 -24.601009 27.419926 0.130055 2.684172 0.073095 -0.033249 42129.200000 0 0 1
-11.505546 -0.302675 -24.137209 26.740868 0.026301 2.696646 0.090742 -0.035503 113521.000000 0 0 1
-12.435846 0.496725 -23.450409 26.548421 -0.039922 2.653667 0.098811 -0.032673 58424.500000 0 0 1
-11.739346 1.783525 -22.908209 25.802698 -0.150774 2.663387 0.108198 -0.030406 455952.000000 0 0 1
-11.123446 2.529625 -23.956909 26.534195 -0.223611 2.697194 0.079783 -0.028611 328976.000000 0 0 1
-10.221546 3.542025 -23.524109 25.892270 -0.333576 2.710568 0.084169 -0.021619 -57209.300000 0 0 1
-10.157846 4.817625 -24.387309 26.853904 -0.442858 2.709634 0.113278 -0.030231 407341.000000 0 0 1
-11.411046 5.488725 -24.479109 27.560204 -0.448333 2.664220 0.110913 -0.026677 535168.000000 0 0 1
-12.209546 5.053725 -25.599899 28.809164 -0.392445 2.665086 0.092539 -0.028539 -118315.000000 0 0 1
-13.534246 5.828425 -25.714619 29.637611 -0.406640 2.621221 0.084989 -0.020116 -153620.000000 0 0 1
-13.467846 7.192925 -26.010939 30.161067 -0.490540 2.610790 0.088901 -0.022887 -94495.500000 0 0 1
-14.770146 7.709425 -26.188429 31.039108 -0.481061 2.574979 0.092058 -0.017833 -542.181000 0 0 1
-14.828646 9.231825 -26.180389 31.472656 -0.556848 2.553221 0.111738 -0.016385 -132695.000000 0 0 1
-14.634546 9.726325 -24.876809 30.456969 -0.586580 2.526613 0.144829 -0.026676 186374.000000 0 0 1
-15.091546 11.061725 -24.698509 30.986010 -0.632516 2.493250 0.129002 -0.014656 -50447.400000 0 0 1
-14.873646 11.631125 -23.245909 29.947966 -0.663666 2.459428 0.118042 -0.023807 155238.000000 0 0 1
-15.752546 11.143025 -22.244109 29.446733 -0.615661 2.427063 0.138252 -0.029851 -14476.900000 0 0 1
-15.497846 11.768825 -21.022509 28.646716 -0.649480 2.394775 0.119081 -0.022707 13349.000000 0 0 1
-16.701646 11.653625 -20.071309 28.593870 -0.609216 2.348920 0.116682 -0.024796 -111742.000000 0 0 1
-17.830146 12.444725 -20.336209 29.771575 -0.609355 2.322761 0.102202 -0.023333 35001.300000 0 0 1
-18.454146 13.016125 -19.190909 29.635553 -0.614289 2.275179 0.090104 -0.014316 -817888.000000 0 0 1
-19.911446 13.325625 -19.426009 30.844899 -0.589785 2.252088 0.080407 -0.019399 -905980.000000 0 0 1
-20.029746 14.484725 -20.200309 31.922569 -0.626102 2.255948 0.064994 -0.018759 941990.000000 0 0 1
-21.409046 14.884225 -20.292209 33.040295 -0.607518 2.232124 0.054543 -0.022701 798356.000000 0 0 1
-21.636246 16.146925 -21.125009 34.279969 -0.641123 2.234768 0.056296 -0.021354 -237787.000000 0 0 1
-21.473646 16.036925 -22.540009 35.019315 -0.641462 2.270048 0.060618 -0.022774 76001.600000 0 0 1
-21.647646 17.281225 -23.212609 36.139819 -0.673701 2.268292 0.058765 -0.012446 -198607.000000 0 0 1
-21.306846 17.314325 -24.694609 36.926836 -0.682388 2.303315 0.056839 -0.013622 -48955.300000 0 0 1
-19.971346 16.975625 -25.037909 36.248081 -0.704494 2.333305 0.055519 -0.021096 211773.000000 0 0 1
-19.700446 16.911625 -26.437209 37.054509 -0.709373 2.365232 0.046430 -0.019656 34000.700000 0 0 1
-19.420646 18.246325 -27.171889 38.057869 -0.754232 2.365937 0.046471 -0.007077 -444009.000000 0 0 1
-20.581546 19.032925 -27.274659 39.112137 -0.746326 2.342483 0.050790 -0.019397 206874.000000 0 0 1
-20.224746 20.381225 -27.605229 39.830683 -0.789252 2.336528 0.050034 -0.011546 -264199.000000 0 0 1
-21.383846 21.362725 -27.346209 40.760888 -0.784904 2.306209 0.066649 -0.025415 -23665.500000 0 0 1
-21.975846 21.434725 -26.053369 40.263672 -0.772934 2.274530 0.075000 -0.019044 874033.000000 0 0 1
-23.142746 20.573125 -26.068119 40.476993 -0.726686 2.270542 0.091014 -0.028270 49201.200000 0 0 1
-24.059946 20.853925 -24.897009 40.418167 -0.714138 2.234433 0.100517 -0.018547 -82977.900000 0 0 1
-23.466946 20.297325 -23.726709 39.059386 -0.713100 2.223646 0.077511 -0.007094 111708.000000 0 0 1
-24.254546 20.637225 -22.640909 39.074145 -0.704993 2.188831 0.076132 -0.013145 -192887.000000 0 0 1
-23.686646 20.193925 -21.283909 37.707513 -0.705970 2.170560 0.071198 -0.006573 -908785.000000 0 0 1
-22.471846 20.724625 -20.889509 37.025201 -0.744972 2.170257 0.073667 -0.008172 -660527.000000 0 0 1
-21.658446 19.916725 -20.059009 35.610785 -0.743529 2.169152 0.068662 -0.008155 -151861.000000 0 0 1
-22.126546 19.493525 -18.665209 34.899449 -0.722219 2.135101 0.076829 -0.016506 -824628.000000 0 0 1
-23.239346 18.582425 -18.757209 35.173948 -0.674503 2.133258 0.099078 -0.018024 383402.000000 0 0 1
-23.903346 18.437325 -17.549109 34.918134 -0.657012 2.097375 0.082125 -0.011307 19351.900000 0 0 1
-24.920646 19.595325 -17.284109 36.107558 -0.666337 2.069951 0.068642 -0.016354 -525668.000000 0 0 1
-26.014276 19.564225 -18.178109 37.281967 -0.644816 2.080117 0.068921 -0.008043 414524.000000 0 0 1
-27.026776 20.527225 -17.899409 38.369290 -0.649563 2.056130 0.068116 -0.009873 -374541.000000 0 0 1
-28.384386 20.286325 -18.614009 39.543516 -0.620524 2.060905 0.051424 -0.005134 404929.000000 0 0 1
-29.024716 19.054325 -18.243309 39.221419 -0.580921 2.054585 0.045523 -0.008684 279032.000000 0 0 1
-29.511236 19.043725 -16.905609 38.979175 -0.573067 2.019401 0.063822 -0.014452 -709245.000000 0 0 1
-30.445246 17.868925 -16.461409 38.951116 -0.530746 2.007127 0.065002 -0.015926 -96455.400000 0 0 1
-29.819886 16.639525 -16.446109 37.902162 -0.508965 2.019624 0.085690 -0.027763 -84767.400000 0 0 1
-30.675046 15.664025 -15.879209 37.927159 -0.472126 2.002784 0.090130 -0.019022 251742.000000 0 0 1
-29.925896 14.332425 -15.592509 36.662023 -0.446650 2.010094 0.123324 -0.021767 -112903.000000 0 0 1
-29.059836 14.368825 -14.471009 35.501370 -0.459203 1.990641 0.128367 -0.023580 21248.000000 0 0 1
-29.662116 14.043725 -13.196009 35.372333 -0.442188 1.953101 0.095823 -0.011431 225202.000000 0 0 1
-29.021156 14.835125 -11.992009 34.729191 -0.472554 1.923355 0.121241 -0.040792 145794.000000 0 0 1
-29.137656 16.272325 -12.137509 35.512120 -0.509318 1.919612 0.122739 -0.026353 -326326.000000 0 0 1
-30.388516 16.833925 -11.859109 36.708056 -0.505876 1.899763 0.097297 -0.018076 -296205.000000 0 0 1
-30.365836 18.400725 -11.979109 37.472252 -0.544796 1.896187 0.149045 -0.006073 78792.700000 0 0 1
-29.367076 19.065325 -11.205309 36.762354 -0.575818 1.880529 0.084776 -0.031190 272348.000000 0 0 1
-29.603846 20.445925 -11.231509 37.690454 -0.604424 1.873386 0.021749 -0.022836 -159875.000000 0 0 1
-28.395046 21.190025 -10.655909 36.997894 -0.641102 1.862949 0.083889 -0.015787 -52263.300000 0 0 1
-28.466586 22.633325 -10.576409 37.874455 -0.671736 1.853808 0.069237 -0.024120 735669.000000 0 0 1
-27.145986 23.192625 -10.430009 37.196606 -0.707024 1.855009 0.078567 -0.013679 854164.000000 0 0 1
-27.126306 24.315725 -9.430109 37.630013 -0.730817 1.824097 0.106754 0.002653 -45458.700000 0 0 1
-27.374186 24.018525 -8.076609 37.302375 -0.720196 1.789042 0.088143 -0.005032 529913.000000 0 0 1
-28.721016 24.157825 -7.616409 38.294999 -0.699316 1.771019 0.108207 -0.010303 432905.000000 0 0 1
-28.906826 23.747025 -6.186409 37.918299 -0.687715 1.734680 0.108492 -0.006748 -129201.000000 0 0 1
-28.658896 22.354225 -6.144909 36.861953 -0.662433 1.738279 0.132937 -0.017888 194231.000000 0 0 1
-28.552376 21.909425 -4.818009 36.310801 -0.654508 1.703877 0.111528 -0.006770 -48923.800000 0 0 1
-28.642366 20.364625 -4.748409 35.463368 -0.618068 1.705096 0.137885 -0.019397 597977.000000 0 0 1
-27.444576 19.699725 -5.174409 34.176869 -0.622573 1.722782 0.146771 -0.027041 718323.000000 0 0 1
-27.111776 19.728525 -6.581309 34.169822 -0.629058 1.764613 0.122476 -0.018006 342619.000000 0 0 1
-28.066286 18.778625 -7.472609 34.586024 -0.589672 1.788572 0.142151 -0.021874 568124.000000 0 0 1
-27.805636 17.409825 -7.296709 33.607995 -0.559408 1.789652 0.138519 -0.022776 215910.000000 0 0 1
-27.861846 16.817625 -8.579309 33.655898 -0.543068 1.828554 0.108741 -0.029804 49011.000000 0 0 1
-27.407606 15.317825 -8.538009 32.537827 -0.509643 1.836307 0.148653 -0.037604 585249.000000 0 0 1
-28.357236 14.472725 -7.857909 32.792367 -0.471910 1.812777 0.133961 -0.023974 391281.000000 0 0 1
-28.135626 13.163925 -8.155109 32.115544 -0.437618 1.827538 0.141051 -0.038342 -298572.000000 0 0 1
-29.016486 12.244225 -7.336209 32.337245 -0.399305 1.799654 0.129530 -0.043178 26989.100000 0 0 1
-30.403996 12.425725 -7.646509 33.723444 -0.387973 1.799527 0.130724 -0.041225 167865.000000 0 0 1
-31.164246 11.620525 -6.802009 33.948698 -0.356911 1.772523 0.151208 -0.040328 -294837.000000 0 0 1
-31.646046 10.295225 -7.409109 34.093383 -0.314525 1.789862 0.126266 -0.033814 -134109.000000 0 0 1
-30.599656 9.376525 -7.726009 32.923386 -0.297342 1.807672 0.121382 -0.029758 237272.000000 0 0 1
-31.078146 8.058725 -7.918409 33.068042 -0.253717 1.812604 0.133125 -0.030978 -81884.700000 0 0 1
-29.988256 7.071725 -8.438509 31.945472 -0.231586 1.838122 0.160949 -0.033702 129307.000000 0 0 1
-29.500586 7.367225 -9.728309 31.924920 -0.244726 1.880446 0.148124 -0.044479 626753.000000 0 0 1
-28.576556 6.313425 -10.073509 30.950839 -0.217437 1.902303 0.158480 -0.050184 -12654.700000 0 0 1
-27.943316 6.406725 -11.466709 30.876535 -0.225380 1.951284 0.124226 -0.037778 -460710.000000 0 0 1
-27.026996 7.446925 -11.682009 30.370784 -0.268865 1.965621 0.152574 -0.035209 304714.000000 0 0 1
-26.416906 7.461025 -12.929109 30.342736 -0.275264 2.010976 0.142019 -0.027016 -309661.000000 0 0 1
-32.453966 25.759025 -33.431229 53.239406 -0.670894 2.249702 0.032400 0.011141 154816.000000 0 0 1
-33.164976 26.932925 -33.869729 54.520240 -0.682069 2.241110 0.036989 -0.002045 484441.000000 0 0 1
-32.950496 27.213525 32.596820 53.748152 -0.690330 0.919179 0.037177 -0.001793 -97256.300000 0 0 1
-33.554736 28.589525 32.189545 54.584321 -0.705669 0.940082 0.054753 -0.020490 100932.000000 0 0 1
-33.129416 29.138025 30.921827 53.877102 -0.721385 0.959496 0.069569 -0.016901 239495.000000 0 0 1
-33.545216 30.456425 30.953157 54.872336 -0.737174 0.971461 0.085381 -0.026568 -65025.000000 0 0 1
-33.158996 31.177725 29.664357 54.328111 -0.754613 0.993187 0.094016 -0.028544 -34073.800000 0 0 1
-31.773936 31.252825 29.433907 53.410458 -0.777130 0.987128 0.072736 -0.022760 -210071.000000 0 0 1
-31.558266 31.860025 28.187287 52.967051 -0.790156 1.009639 0.070615 -0.021789 185367.000000 0 0 1
-30.110316 31.817225 27.635687 51.794769 -0.812954 1.007990 0.100910 -0.019419 -107298.000000 0 0 1
-29.838436 30.513725 27.202827 50.610409 -0.796587 1.003333 0.121195 -0.022786 216806.000000 0 0 1
-28.759156 30.332525 26.294777 49.381843 -0.812018 1.009270 0.093831 -0.013976 -39389.600000 0 0 1
-28.879756 31.065725 24.889937 49.179554 -0.821848 1.040136 0.108180 -0.028682 -402912.000000 0 0 1
-28.913476 32.454925 24.940537 50.113288 -0.843042 1.049871 0.093111 -0.031201 -128786.000000 0 0 1
-29.807736 33.040725 24.043347 50.579375 -0.836794 1.075425 0.097289 -0.033966 -352577.000000 0 0 1
-30.294336 -33.363420 24.524087 51.305900 0.833573 1.072423 0.105390 -0.031303 -12751.800000 0 0 1
-30.982976 -33.434620 25.754037 52.355411 0.823438 1.056517 0.097822 -0.039750 157229.000000 0 0 1
-31.120426 -32.108120 26.315697 51.883795 0.801018 1.038858 0.066817 -0.039911 -261901.000000 0 0 1
-31.413436 -32.043920 27.787257 52.780189 0.795333 1.016352 0.085131 -0.044062 1227980.000000 0 0 1
-32.770686 -32.489420 28.074067 54.015123 0.781088 1.024244 0.078190 -0.047993 1172790.000000 0 0 1
-32.955726 -32.631320 29.487637 54.958199 0.780452 1.004457 0.070005 -0.044642 808100.000000 0 0 1
-34.409747 -33.118020 29.842067 56.315032 0.766272 1.012298 0.091307 -0.046667 744081.000000 0 0 1
-34.683407 -33.307720 31.186707 57.314515 0.765168 0.995441 0.088987 -0.049499 -233255.000000 0 0 1
-36.060556 -33.272520 31.477497 58.294572 0.745208 1.000391 0.091386 -0.050151 -143223.000000 0 0 1
-36.456816 -33.563520 32.923933 59.494493 0.744101 0.984362 0.103228 -0.042217 -217595.000000 0 0 1
-36.203426 32.876125 33.299968 59.164310 -0.737269 0.972980 0.085622 -0.041478 -336591.000000 0 0 1
-36.915926 32.530125 -33.416139 59.478004 -0.722328 2.167385 0.097542 -0.036113 -38502.200000 0 0 1
-36.537766 31.097325 -32.981009 58.221979 -0.705133 2.173012 0.078942 -0.033975 629014.000000 0 0 1
-35.240128 31.009725 -32.406909 57.041015 -0.721629 2.175032 0.074905 -0.031254 53279.000000 0 0 1
-34.902093 29.647525 -32.042559 55.891479 -0.704174 2.181324 0.066125 -0.022913 401527.000000 0 0 1
-34.067725 29.548825 -30.711849 54.561530 -0.714484 2.168668 0.053920 -0.021558 271131.000000 0 0 1
-34.788550 29.764025 -29.520539 54.475706 -0.707719 2.143496 0.062179 -0.024299 -379834.000000 0 0 1
-34.957581 31.098825 -29.156239 55.129444 -0.727048 2.128063 0.056266 -0.024638 -122976.000000 0 0 1
-36.136476 31.312525 -28.206329 55.515008 -0.714000 2.103756 0.063772 -0.027104 174373.000000 0 0 1
-35.735616 31.056725 -26.854249 54.430736 -0.715461 2.086751 0.064301 -0.047193 -528047.000000 0 0 1
-36.858396 31.148025 -26.056239 54.842213 -0.701627 2.065889 0.103851 -0.045056 -634875.000000 0 0 1
-36.575066 30.646625 -24.585909 53.678841 -0.697433 2.046561 0.096302 -0.048249 -348207.000000 0 0 1
-36.111426 31.640025 -23.697609 53.541600 -0.719497 2.029294 0.096376 -0.055667 -117681.000000 0 0 1
-36.211676 31.275425 -22.296609 52.788033 -0.712385 2.006866 0.085674 -0.054637 -263266.000000 0 0 1
37.262913 30.830225 -21.761509 53.033864 0.691209 1.993615 0.067451 -0.046257 416766.000000 0 0 1
36.294603 31.895125 -21.687709 52.961816 0.720969 1.992699 0.074301 -0.053029 4732.180000 0 0 1
36.533733 33.064325 -20.956809 53.545785 0.735590 1.972928 0.073172 -0.056851 -928345.000000 0 0 1
36.639153 32.936925 -19.397909 52.948536 0.732237 1.945884 0.066517 -0.044159 -295728.000000 0 0 1
-37.036926 32.251025 -19.140409 52.708801 -0.716435 1.942427 0.051664 -0.043066 -223445.000000 0 0 1
-36.709506 32.135725 -17.727309 51.909056 -0.719060 1.919316 0.054395 -0.029822 -691445.000000 0 0 1
-35.381154 31.430025 -17.636409 50.504608 -0.726328 1.927518 0.077498 -0.033519 -781816.000000 0 0 1
-35.032551 31.281325 -16.280609 49.707737 -0.728891 1.904481 0.044564 -0.011087 -423545.000000 0 0 1
-33.887096 30.514125 -16.064509 48.347860 -0.733072 1.909505 0.078997 -0.019190 -941752.000000 0 0 1
-33.566476 30.171825 -14.595409 47.434937 -0.732189 1.883564 0.068866 -0.009728 -170682.000000 0 0 1
-34.483586 29.348025 -13.872909 47.359074 -0.705116 1.868086 0.061787 -0.003446 40807.300000 0 0 1
-33.911666 28.937825 -12.673209 46.346618 -0.706424 1.847768 0.083204 -0.010196 -360017.000000 0 0 1
-34.859777 28.171325 -11.780309 46.342241 -0.679680 1.827819 0.081585 -0.017987 -327873.000000 0 0 1
-34.200208 27.602525 -10.647609 45.220849 -0.679047 1.808486 0.106479 -0.015177 239880.000000 0 0 1
-35.005839 26.769425 -9.886809 45.163701 -0.652851 1.791494 0.107883 -0.026159 34221.300000 0 0 1
-34.093792 26.172925 -8.771009 43.867291 -0.654717 1.772097 0.135781 -0.023168 267711.000000 0 0 1
-33.801676 27.086025 -7.764909 44.005680 -0.675547 1.748177 0.113629 -0.020898 -694437.000000 0 0 1
-32.628456 26.674425 -7.190609 42.753315 -0.685333 1.739788 0.116187 -0.026590 -1068570.000000 0 0 1
-32.332506 27.445325 -5.890509 42.817460 -0.703824 1.708807 0.104171 -0.026875 -282039.000000 0 0 1
-31.264346 26.814825 -5.237609 41.520196 -0.708936 1.697279 0.106997 -0.017878 -110307.000000 0 0 1
-30.943306 27.300825 -3.958009 41.454663 -0.722941 1.666420 0.101716 -0.010349 95758.100000 0 0 1
-30.185376 26.154725 -3.223009 40.070118 -0.713978 1.651318 0.100523 -0.016371 -59177.800000 0 0 1
-31.002016 25.108025 -2.846709 39.995520 -0.680739 1.642032 0.089402 -0.008406 136153.000000 0 0 1
-30.171106 24.210625 -2.113109 38.741647 -0.676229 1.625367 0.115708 -0.021166 730000.000000 0 0 1
-31.019976 23.030925 -1.557309 38.666363 -0.638655 1.611083 0.117140 -0.034370 259045.000000 0 0 1
-31.557616 22.195625 -2.572209 38.667107 -0.612962 1.637367 0.122685 -0.033648 212572.000000 0 0 1
-32.460316 21.241625 -2.013309 38.844976 -0.579453 1.622649 0.124312 -0.032096 228106.000000 0 0 1
-33.106536 20.353225 -3.093409 38.985454 -0.551216 1.650228 0.145270 -0.024515 242124.000000 0 0 1
-32.112106 19.531425 -3.726409 37.769697 -0.546446 1.669618 0.145759 -0.022902 457545.000000 0 0 1
-32.606776 18.613125 -4.685209 37.836509 -0.518699 1.694943 0.132909 -0.018425 152140.000000 0 0 1
-31.434036 17.829125 -5.333709 36.529779 -0.515946 1.717330 0.134588 -0.024317 52770.200000 0 0 1
-30.924706 16.818325 -4.517209 35.490825 -0.498107 1.698421 0.184467 -0.029753 -76838.100000 0 0 1
-30.284456 15.813425 -5.280709 34.570197 -0.481220 1.724150 0.178092 -0.037816 -408772.000000 0 0 1
-29.912216 14.548625 -4.545109 33.571731 -0.452690 1.706598 0.191203 -0.036645 3790.000000 0 0 1
-30.946226 13.873125 -3.791609 34.124900 -0.421437 1.682136 0.188417 -0.042221 729610.000000 0 0 1
-30.458056 12.673525 -3.221809 33.146515 -0.394306 1.668149 0.203523 -0.049673 35825.400000 0 0 1
-31.597466 11.988925 -2.410209 33.881311 -0.362646 1.641993 0.187158 -0.049225 443775.000000 0 0 1
-32.456646 11.383525 -3.385109 34.561213 -0.337325 1.668899 0.158583 -0.029704 46756.900000 0 0 1
-33.524396 10.670725 -2.837109 35.295873 -0.308158 1.651264 0.173014 -0.027994 -317572.000000 0 0 1
-34.563269 10.121025 -3.829809 36.217704 -0.284862 1.676738 0.151496 -0.026163 -65571.000000 0 0 1
-34.042170 9.182925 -4.742509 35.576492 -0.263480 1.704499 0.162052 -0.027781 201137.000000 0 0 1
-35.067387 8.579125 -5.489509 36.516541 -0.239934 1.721698 0.147112 -0.025710 -213628.000000 0 0 1
-34.474430 7.583725 -6.438609 35.881121 -0.216532 1.751216 0.158115 -0.029500 -61362.600000 0 0 1
-33.698116 6.586325 -5.730009 34.810568 -0.193018 1.736154 0.164332 -0.029299 461883.000000 0 0 1
-33.499726 5.576425 -6.656509 34.606896 -0.164949 1.764349 0.168024 -0.033438 -252174.000000 0 0 1
-32.493056 4.506725 -6.176209 33.380455 -0.137819 1.756893 0.179462 -0.035813 825691.000000 0 0 1
-31.102096 4.865025 -6.265509 32.097748 -0.155164 1.767259 0.188821 -0.036876 1031120.000000 0 0 1
-30.294986 3.772125 -5.881309 31.090270 -0.123876 1.761112 0.187904 -0.037465 -605399.000000 0 0 1
-28.811746 4.103025 -5.736909 29.662495 -0.141457 1.765429 0.205745 -0.037310 -687841.000000 0 0 1
-28.205506 4.364825 -6.979409 29.382212 -0.153533 1.810627 0.193394 -0.033673 -151288.000000 0 0 1
-26.814226 4.285225 -6.778609 27.987772 -0.158472 1.815428 0.215528 -0.046739 -385915.000000 0 0 1
-25.959286 4.678425 -7.954309 27.550739 -0.178308 1.863681 0.191432 -0.042075 -379588.000000 0 0 1
-26.187586 3.883025 -9.107409 27.996650 -0.147205 1.902129 0.182989 -0.061173 705614.000000 0 0 1
-25.151686 4.144025 -10.062509 27.405005 -0.163294 1.946769 0.182836 -0.062337 270347.000000 0 0 1
-25.420676 3.411025 -11.392509 28.064837 -0.133386 1.988798 0.156210 -0.061316 325428.000000 0 0 1
-26.530116 3.937625 -12.125809 29.434455 -0.147345 1.995400 0.145588 -0.048828 405190.000000 0 0 1
-26.904256 3.124025 -13.222409 30.140182 -0.115599 2.024945 0.145992 -0.045910 556470.000000 0 0 1
-27.978366 3.894025 -14.063509 31.555263 -0.138291 2.032729 0.125824 -0.036242 530310.000000 0 0 1
-27.250196 4.942025 -14.709509 31.358674 -0.179407 2.059037 0.100333 -0.029967 1296720.000000 0 0 1
-28.077936 5.777425 -15.570809 32.622066 -0.202932 2.068386 0.145605 -0.024922 374189.000000 0 0 1
-28.813346 5.180325 -16.791509 33.749065 -0.177889 2.091557 0.084588 -0.007659 468712.000000 0 0 1
-30.044506 4.547225 -16.452409 34.554758 -0.150210 2.067040 0.101712 -0.018039 273036.000000 0 0 1
-30.704316 3.856725 -17.493009 35.547640 -0.124954 2.085297 0.100719 -0.010922 694461.000000 0 0 1
-32.149976 3.347225 -17.186609 36.608802 -0.103739 2.059483 0.096845 -0.011784 352046.000000 0 0 1
-32.243756 2.356725 -16.155009 36.141365 -0.072961 2.034200 0.109837 -0.024911 120687.000000 0 0 1
-31.737206 1.090925 -16.536409 35.803535 -0.034360 2.050893 0.140180 -0.033042 -115417.000000 0 0 1
-31.880196 0.031125 -15.403509 35.406439 -0.000976 2.020888 0.138787 -0.033357 -275176.000000 0 0 1
-31.499526 -1.231475 -15.928309 35.319225 0.039075 2.038661 0.152444 -0.018556 222338.000000 0 0 1
-31.900356 -2.264075 -15.093209 35.363310 0.070855 2.011752 0.168362 -0.030900 -59206.600000 0 0 1
-31.782006 -3.599975 -15.854809 35.699169 0.112790 2.030991 0.151269 -0.025219 -161904.000000 0 0 1
-32.640926 -3.702875 -16.955009 36.967738 0.112960 2.047264 0.163885 -0.030491 89892.000000 0 0 1
-32.639596 -4.979675 -17.547209 37.390439 0.151398 2.059290 0.157834 -0.033901 170142.000000 0 0 1
-33.408206 -4.897975 -18.902009 38.696050 0.145573 2.081136 0.188021 -0.036960 126605.000000 0 0 1
-33.066956 -5.956675 -19.696709 38.946962 0.178228 2.101026 0.179093 -0.039132 281383.000000 0 0 1
-33.831936 -5.947275 -20.907509 40.213106 0.174011 2.117551 0.169662 -0.040173 -72088.700000 0 0 1
-33.658456 -7.177175 -21.867309 40.774780 0.210089 2.136838 0.163196 -0.041223 101070.000000 0 0 1
-32.384996 -7.149975 -22.487309 40.069803 0.217295 2.166635 0.156670 -0.038011 104471.000000 0 0 1
-32.278416 -8.141375 -23.440509 40.714071 0.247070 2.184299 0.142341 -0.026946 -569757.000000 0 0 1
-30.868606 -8.153375 -24.001509 39.942718 0.258234 2.215421 0.129740 -0.021646 -601055.000000 0 0 1
-30.300846 -7.078775 -24.787709 39.782921 0.229500 2.243463 0.128998 -0.017380 262001.000000 0 0 1
-30.621796 -7.079775 -26.226479 40.934652 0.227208 2.266195 0.111369 -0.013682 255799.000000 0 0 1
-32.081816 -6.941275 -26.770089 42.356367 0.213077 2.254954 0.122697 -0.010786 440221.000000 0 0 1
-32.822076 -8.133875 -26.511579 42.968737 0.242923 2.235717 0.114933 -0.024050 -84360.100000 0 0 1
-34.063080 -8.138775 -27.209449 44.349601 0.234535 2.231309 0.095089 -0.022329 566214.000000 0 0 1
-34.978314 -9.287575 -26.697039 44.971917 0.259535 2.206368 0.075550 -0.027671 -453208.000000 0 0 1
-34.540814 -10.536575 -27.140779 45.174208 0.296081 2.215301 0.081497 -0.017856 -323406.000000 0 0 1
-35.341094 -11.679275 -26.940849 45.947880 0.319174 2.197323 0.070938 -0.013664 -398791.000000 0 0 1
-36.604136 -11.867475 -27.794819 47.468428 0.313518 2.196346 0.055567 -0.008115 430941.000000 0 0 1
37.272043 -10.841875 -27.524219 47.585019 -0.283073 2.187589 0.055286 -0.019446 278869.000000 0 0 1
36.442263 -10.735775 -28.643659 47.578930 -0.286492 2.216830 0.064491 -0.019051 -260812.000000 0 0 1
35.385453 -9.630175 -28.454649 46.416997 -0.265715 2.230677 0.071312 -0.018288 -383508.000000 0 0 1
34.295963 -9.898275 -27.616469 45.131566 -0.280978 2.229270 0.057232 -0.017151 -195911.000000 0 0 1
33.653203 -8.661575 -27.329519 44.209315 -0.251910 2.237227 0.035896 -0.012615 632295.000000 0 0 1
32.301953 -8.851975 -26.554389 42.742358 -0.267472 2.241154 0.024832 -0.007576 570142.000000 0 0 1
32.524853 -9.175975 -25.198629 42.154898 -0.274975 2.211504 0.011878 -0.002133 -203116.000000 0 0 1
31.348613 -9.496475 -24.498409 40.903430 -0.294144 2.212964 0.008336 -0.000663 -209453.000000 0 0 1
31.496603 -9.612675 -22.963009 40.146473 -0.296218 2.179715 0.001318 0.000935 -355787.000000 0 0 1
32.349423 -10.629775 -22.579609 40.857264 -0.317478 2.156332 -0.008278 0.000342 -201055.000000 0 0 1
32.373663 -10.737675 -21.169809 40.143648 -0.320261 2.126277 -0.012330 0.001831 -168447.000000 0 0 1
33.248533 -11.893775 -20.707009 40.935401 -0.343539 2.101159 0.008500 -0.000012 1019730.000000 0 0 1
34.660703 -11.756575 -20.995109 42.194502 -0.327013 2.091602 0.016973 -0.003777 1298150.000000 0 0 1
35.447573 -12.482875 -20.023809 42.582925 -0.338589 2.060349 0.044158 -0.004769 15511.100000 0 0 1
36.948053 -12.532275 -20.360709 44.008806 -0.327009 2.051779 0.066564 -0.023980 -422503.000000 0 0 1
-37.182366 -11.297775 -20.465009 43.920207 0.294983 2.055514 0.101940 -0.028622 507118.000000 0 0 1
37.431113 -10.384575 -21.502609 44.399209 -0.270625 2.076361 0.104823 -0.026443 -847917.000000 0 0 1
-36.915186 -10.733275 -22.930909 44.763386 0.282954 2.108621 0.075010 -0.026470 33567.300000 0 0 1
-37.374366 -11.919975 -23.558709 45.759608 0.308736 2.111613 0.062126 -0.015517 483538.000000 0 0 1
36.179203 -11.825075 -24.085209 45.042917 -0.315902 2.134969 0.066970 -0.012658 261244.000000 0 0 1
35.725323 -13.070975 -24.896709 45.464219 -0.350746 2.150303 0.050071 -0.021801 -142456.000000 0 0 1
35.600263 -14.378175 -24.309809 45.443123 -0.383845 2.135245 0.038786 -0.024616 271510.000000 0 0 1
34.809883 -14.466275 -23.155209 44.239855 -0.393864 2.121634 0.017909 -0.012830 -304353.000000 0 0 1
-30.167856 8.443125 -19.071909 36.675926 -0.272890 2.117661 0.071678 0.007713 688855.000000 0 0 1
-28.932696 7.735625 -19.211509 35.581215 -0.261255 2.141155 0.074308 0.011354 334803.000000 0 0 1
-28.066016 8.351025 -20.153309 35.547105 -0.289207 2.173591 0.095852 -0.003950 -175025.000000 0 0 1
-26.806056 7.518525 -20.328909 34.472560 -0.273452 2.201499 0.084565 -0.005915 -220083.000000 0 0 1
-25.718566 7.700325 -19.445709 33.149287 -0.290913 2.197663 0.087613 -0.007114 -452024.000000 0 0 1
-24.794546 6.692125 -19.414109 32.194124 -0.263622 2.218094 0.098540 -0.018560 -733819.000000 0 0 1
-23.456646 7.190225 -18.869209 30.950939 -0.297439 2.226414 0.076861 -0.014183 -233688.000000 0 0 1
-22.728646 8.048925 -19.741509 31.162537 -0.340351 2.256866 0.075201 -0.009998 476752.000000 0 0 1
-21.484046 8.415825 -19.128109 29.971234 -0.373352 2.262975 0.078470 -0.007943 684138.000000 0 0 1
-20.686146 9.437625 -19.994409 30.278074 -0.428022 2.292093 0.080171 -0.009090 23729.700000 0 0 1
-20.122846 8.901925 -21.174309 30.537265 -0.416498 2.336983 0.098215 -0.018789 -10819.200000 0 0 1
-19.418946 9.903125 -21.896209 30.896784 -0.471594 2.358434 0.107106 -0.020192 379070.000000 0 0 1
-18.474046 9.345525 -23.011809 30.954362 -0.468335 2.408952 0.115003 -0.017861 293653.000000 0 0 1
-19.239546 8.769525 -24.042009 32.016915 -0.427673 2.420244 0.110761 -0.017868 110661.000000 0 0 1
-18.429246 8.091425 -24.959209 32.063536 -0.413714 2.462957 0.103378 -0.011810 -365495.000000 0 0 1
-19.247946 7.235625 -25.946589 33.106844 -0.359574 2.471433 0.071449 -0.005291 -50813.200000 0 0 1
-19.713546 6.107725 -25.224789 32.591688 -0.300445 2.455873 0.078029 0.003248 315943.000000 0 0 1
-20.524846 5.244625 -26.009889 33.545338 -0.250173 2.458090 0.065081 -0.000320 -425135.000000 0 0 1
-20.855846 3.851825 -25.304439 33.016927 -0.182630 2.444027 0.051712 0.012808 727663.000000 0 0 1
-19.800346 2.851025 -25.189649 32.166760 -0.143006 2.470424 0.052358 0.012305 180183.000000 0 0 1
-18.735046 3.239725 -24.388609 30.924133 -0.171230 2.479422 0.049299 0.008858 -856391.000000 0 0 1
-17.864646 2.029825 -23.973109 29.966243 -0.113137 2.498098 0.047635 0.005781 -14394.300000 0 0 1
-18.336746 1.190325 -22.913609 29.371527 -0.064824 2.465670 0.049300 0.007683 195425.000000 0 0 1
-19.628446 0.612325 -22.975909 30.224877 -0.031186 2.434364 0.048095 0.012408 95146.500000 0 0 1
-20.025346 -0.228375 -21.729609 29.550677 0.011404 2.396955 0.058526 0.008819 -13095.300000 0 0 1
-19.465346 -1.536575 -21.744309 29.224574 0.078776 2.409896 0.072307 -0.000945 78800.000000 0 0 1
-19.695646 -2.294175 -20.549209 28.556114 0.115959 2.374034 0.075560 0.004246 -361232.000000 0 0 1
-18.867646 -3.571575 -20.471909 28.068545 0.187083 2.388174 0.063395 -0.014583 -227185.000000 0 0 1
-19.213146 -4.580775 -21.405409 29.125933 0.234049 2.396354 0.068779 -0.023677 218239.000000 0 0 1
-19.349746 -5.887975 -20.862209 29.057059 0.295390 2.371683 0.079384 -0.018237 -320924.000000 0 0 1
-19.403946 -6.888175 -22.070809 30.184113 0.341112 2.390885 0.062919 -0.028313 -548003.000000 0 0 1
-18.169646 -6.900475 -22.755909 29.926309 0.362955 2.434722 0.074282 -0.022500 -118954.000000 0 0 1
-18.124946 -7.742875 -23.857809 30.946095 0.403728 2.451124 0.088449 -0.031354 928930.000000 0 0 1
-16.698146 -7.771175 -24.541809 30.684191 0.435580 2.497790 0.079652 -0.034441 462556.000000 0 0 1
-16.653446 -8.557975 -25.669529 31.772644 0.474695 2.511398 0.088361 -0.056143 146784.000000 0 0 1
-15.369846 -8.685975 -26.248169 31.632968 0.514386 2.549496 0.101253 -0.053982 618945.000000 0 0 1
-14.259346 -9.551575 -25.566349 30.792851 0.590201 2.550386 0.082776 -0.045941 -87693.500000 0 0 1
-13.666146 -9.009175 -24.405909 29.386683 0.582839 2.550817 0.074644 -0.036725 364754.000000 0 0 1
-12.680046 -9.864175 -23.823909 28.734372 0.661137 2.548307 0.059920 -0.028591 229424.000000 0 0 1
-11.786246 -9.153575 -22.815609 27.262713 0.660329 2.562354 0.058692 -0.024549 -158604.000000 0 0 1
-12.551746 -8.614275 -21.742009 26.541797 0.601473 2.530743 0.064775 -0.025737 -170357.000000 0 0 1
-11.803446 -8.003875 -20.749209 25.177629 0.595874 2.539431 0.070511 -0.023589 -1296620.000000 0 0 1
-12.507146 -7.719975 -19.370009 24.315097 0.553003 2.492487 0.069300 -0.019040 235780.000000 0 1 0
-13.522246 -6.724175 -19.414309 24.596362 0.461459 2.480491 0.069470 -0.016316 855292.000000 0 1 0
-14.792546 -7.194075 -19.883909 25.805890 0.452653 2.450450 0.073462 -0.021719 421838.000000 0 0 1
-16.005346 -6.244775 -19.651709 26.102834 0.372002 2.423189 0.080290 -0.011824 -87253.600000 0 0 1
-16.331446 -5.947775 -18.328309 25.259039 0.349261 2.382722 0.073868 -0.007382 240724.000000 0 0 1
-15.522246 -4.920875 -17.756409 24.092430 0.306998 2.399435 0.074479 -0.008183 -364172.000000 0 1 0
-15.465546 -4.844575 -16.251309 22.951210 0.303568 2.357573 0.092951 -0.003362 1157480.000000 0 1 0
-16.623246 -4.341975 -15.488909 23.132041 0.255491 2.304449 0.119656 -0.018412 1243270.000000 0 1 0
-16.985946 -2.958075 -15.709609 23.325187 0.172419 2.309735 0.079484 -0.022278 216054.000000 0 1 0
-18.089646 -2.408475 -14.768209 23.476286 0.132363 2.251152 0.067931 -0.024065 200995.000000 0 1 0
-17.765346 -2.788275 -13.440409 22.450536 0.155680 2.212633 0.083599 -0.026647 698122.000000 0 1 0
-18.640246 -2.100775 -12.551009 22.569888 0.112227 2.160477 0.077867 -0.036763 -1269.980000 0 1 0
-18.018146 -0.856275 -11.902509 21.611490 0.047487 2.154058 0.066961 -0.034779 -152089.000000 0 1 0
-17.801146 0.186425 -12.849709 21.955194 -0.010472 2.196009 0.102314 -0.039297 834473.000000 0 1 0
-16.900446 1.158025 -12.321509 20.947211 -0.068413 2.199649 0.094142 -0.030286 -973215.000000 0 1 0
-16.537246 2.357525 -13.252209 21.322745 -0.141604 2.241460 0.108124 -0.032483 126236.000000 0 1 0
-15.760346 2.094125 -14.397009 21.448723 -0.132099 2.306662 0.092998 -0.031613 586754.000000 0 1 0
-14.512646 1.458225 -14.117109 20.298671 -0.100144 2.339870 0.086515 -0.024570 -571687.000000 0 1 0
-13.984646 0.428425 -15.138809 20.614010 -0.030626 2.395570 0.080617 -0.025157 3651.630000 0 1 0
-13.655446 1.013325 -16.361409 21.335269 -0.074071 2.444749 0.084786 -0.031197 85843.400000 0 1 0
-13.143746 0.027525 -17.181309 21.632295 -0.002094 2.488558 0.055360 -0.019930 -57496.200000 0 1 0
-12.568546 0.610525 -18.525909 22.395320 -0.048537 2.544942 0.077775 -0.022012 -12956.300000 0 1 0
-11.308646 1.211725 -18.321209 21.564332 -0.106743 2.586036 0.058269 -0.014929 -236343.000000 0 1 0
-10.943646 2.164625 -19.344109 22.330327 -0.195277 2.618485 0.065518 -0.015820 312877.000000 0 1 0
-9.458446 2.596725 -19.236409 21.592698 -0.267939 2.670066 0.044094 -0.012692 -489859.000000 0 1 0
-8.580546 1.548325 -19.670809 21.516593 -0.178525 2.724365 0.054011 -0.007349 -326040.000000 0 1 0
-7.232246 1.748825 -19.352409 20.733535 -0.237255 2.774534 0.039100 -0.001966 109689.000000 0 1 0
-6.550346 2.927625 -20.143409 21.383052 -0.420308 2.799417 0.041974 -0.003183 -1153640.000000 0 1 0
-6.396646 2.717325 -21.560109 22.652576 -0.401705 2.829760 0.037758 -0.004254 221138.000000 0 1 0
-5.795846 3.810325 -22.234109 23.290899 -0.581576 2.839199 0.027776 -0.006346 -441925.000000 0 1 0
-5.365146 3.382725 -23.691609 24.525903 -0.562545 2.880015 0.058769 -0.018044 618590.000000 0 1 0
-4.215746 2.512025 -23.588409 24.093481 -0.537375 2.936475 0.074897 -0.027127 399197.000000 0 1 0
-3.707846 2.102525 -24.857309 25.220121 -0.515837 2.971766 0.116173 -0.032768 130294.000000 0 0 1
-2.311446 1.468725 -24.806509 24.957220 -0.566053 3.031639 0.076994 -0.028484 -4744.020000 0 1 0
-1.220746 2.320325 -24.461109 24.601219 -1.086480 3.034816 0.073857 -0.026370 361251.000000 0 1 0
0.112554 1.882525 -24.588409 24.660625 1.511078 3.065044 0.071517 -0.020170 213583.000000 0 1 0
0.519154 0.813025 -23.549909 23.569657 1.002515 3.100654 0.066828 -0.026605 -1023900.000000 0 1 0
0.026154 -0.506775 -23.817809 23.823214 -1.519232 3.120290 0.061847 -0.023348 -32723.800000 0 1 0
0.507054 -1.300375 -22.769809 22.812546 -1.199001 3.080372 0.054466 -0.018625 -708990.000000 0 1 0
0.108754 -2.780075 -22.920309 23.088551 -1.531697 3.020798 0.062841 -0.025502 353589.000000 0 1 0
-1.106146 -3.206775 -22.321909 22.578188 1.238636 2.990780 0.053104 -0.017929 -375822.000000 0 1 0
-2.331946 -3.010375 -22.953209 23.266932 0.911714 2.977190 0.070892 -0.022885 -441622.000000 0 1 0
-2.981346 -1.646075 -22.855909 23.108235 0.504473 2.993679 0.078016 -0.029396 -1507820.000000 0 1 0
-3.474446 -1.278375 -21.570109 21.885511 0.352564 2.971615 0.055801 -0.025468 512594.000000 0 1 0
-4.375246 -0.172675 -21.489809 21.931358 0.039446 2.940589 0.057431 -0.023116 2071060.000000 0 1 0
-5.760246 -0.238775 -22.305709 23.038708 0.041428 2.888665 0.056706 -0.016577 1501080.000000 0 1 0
-6.682646 -1.260775 -21.853509 22.887183 0.186472 2.839904 0.065030 -0.009751 883010.000000 0 1 0
-8.027346 -0.937775 -22.208709 23.633545 0.116295 2.792581 0.054470 -0.005192 1122690.000000 0 1 0
-9.111346 -1.954175 -21.714309 23.629359 0.211276 2.736218 0.059250 -0.011207 365140.000000 0 1 0
-9.207346 -3.080075 -22.615809 24.611722 0.322821 2.736089 0.093621 -0.021752 -49322.200000 0 1 0
-9.541146 -4.289675 -21.993709 24.354835 0.422519 2.697622 0.070997 -0.025509 -92535.100000 0 1 0
-10.434046 -5.101275 -22.978109 25.746569 0.454734 2.673594 0.063724 -0.026923 650749.000000 0 0 1
-11.805046 -4.698475 -22.985609 26.263529 0.378786 2.636627 0.055901 -0.028468 335164.000000 0 0 1
-12.520946 -5.423975 -23.961609 27.574486 0.408789 2.623929 0.042376 -0.035463 -151890.000000 0 0 1
-14.040046 -5.264375 -23.791009 28.122031 0.358731 2.579219 0.058493 -0.037597 -198908.000000 0 0 1
-14.599246 -3.997975 -24.079309 28.441781 0.267295 2.580393 0.054275 -0.039010 850509.000000 0 0 1
-16.042346 -4.058475 -24.057109 29.198845 0.247786 2.539066 0.056501 -0.038071 1358660.000000 0 0 1
-16.653246 -2.626175 -24.161809 29.462186 0.156409 2.532374 0.048954 -0.024439 29895.300000 0 0 1
-16.499546 -2.283875 -25.546169 30.496849 0.137546 2.563792 0.039503 -0.025461 176498.000000 0 0 1
-16.996446 -0.969375 -25.853909 30.955508 0.056972 2.559285 0.032148 -0.015779 1277760.000000 0 0 1
-18.527246 -0.846575 -26.253829 32.144036 0.045662 2.526562 0.038842 -0.003901 1006470.000000 0 0 1
-18.809746 -1.388075 -27.549639 33.387361 0.073662 2.541267 0.048604 -0.020182 73492.200000 0 0 1
-18.339146 -0.664475 -28.739229 34.098520 0.036217 2.573315 0.028314 -0.017030 19472.200000 0 0 1
-18.311146 -1.508975 -29.995099 35.175005 0.082222 2.592003 0.042577 -0.016314 18585.100000 0 0 1
-19.595246 -1.821775 -30.473819 36.275972 0.092704 2.568181 0.052820 -0.018943 -100516.000000 0 0 1
-19.504946 -2.493475 -31.707179 37.309590 0.127148 2.586478 0.065511 -0.022459 874153.000000 0 0 1
-20.948346 -3.085675 -32.059119 38.420589 0.146248 2.557886 0.048196 -0.023809 1816650.000000 0 0 1
-21.997346 -2.158575 -32.347649 39.177966 0.097816 2.542166 0.047078 -0.016607 519226.000000 0 0 1
-22.561246 -1.529775 -31.241689 38.566736 0.067702 2.515065 0.039039 -0.000836 -852298.000000 0 0 1
-23.630746 -0.491775 -31.638209 39.492154 0.020808 2.499971 0.052693 0.002723 22833.000000 0 0 1
-23.071146 0.626025 -32.305429 39.702776 -0.027128 2.521254 0.042093 0.001148 -59504.100000 0 0 1
-24.076346 1.502725 -32.685589 40.623593 -0.062334 2.505791 0.045050 -0.006686 -503025.000000 0 0 1
-23.630746 2.938125 -33.015729 40.707285 -0.123700 2.516745 0.048590 -0.005742 -1060590.000000 0 0 1
-23.388146 3.842825 -31.984609 39.809394 -0.162851 2.503853 0.034701 -0.003493 748997.000000 0 0 1
-24.502046 4.392125 -31.251849 39.953962 -0.177372 2.468980 0.031265 -0.003478 795319.000000 0 0 1
-25.724836 4.987925 -32.031129 41.384052 -0.191519 2.455926 0.040205 -0.005793 -253773.000000 0 0 1
-26.598306 4.086525 -32.663379 42.320986 -0.152447 2.452465 0.066348 -0.020841 238495.000000 0 0 1
-27.760166 4.849025 -32.986219 43.384680 -0.172931 2.434601 0.077897 -0.025874 -423925.000000 0 0 1
-28.763506 4.064825 -33.796149 44.565028 -0.140389 2.431583 0.089376 -0.024932 -762175.000000 0 0 1
-28.387116 3.649525 32.758537 43.500220 -0.127861 0.718087 0.114032 -0.025355 117389.000000 0 0 1
-29.464306 3.064725 32.044209 43.639079 -0.103642 0.746160 0.115954 -0.028934 7081.590000 0 0 1
-29.538166 1.539525 31.945901 43.536352 -0.052073 0.746934 0.114829 -0.016269 -447881.000000 0 0 1
-29.852466 0.967425 33.180764 44.643798 -0.032396 0.732906 0.121579 -0.012024 334360.000000 0 0 1
-29.905216 -0.457775 33.053900 44.576808 0.015306 0.735486 0.110098 -0.009216 -892480.000000 0 0 1
-29.927786 -1.186575 -33.390269 44.855215 0.039627 2.410434 0.069413 -0.002419 -97058.700000 0 0 1
-28.691996 -1.603775 -32.852499 43.647330 0.055838 2.422920 0.085885 -0.010669 594060.000000 0 0 1
-27.742076 -0.574675 -32.558649 42.778717 0.020712 2.435795 0.076187 -0.003266 -312914.000000 0 0 1
-27.747476 -0.102575 -31.050809 41.642354 0.003697 2.412313 0.089644 0.001857 -375221.000000 0 0 1
-27.227746 -1.158375 -30.272829 40.732495 0.042518 2.408653 0.076451 -0.003469 271476.000000 0 0 1
-27.470676 -0.882975 -28.921499 39.898255 0.032131 2.381658 0.080679 -0.003444 130747.000000 0 0 1
-26.386016 -1.279075 -27.856469 38.390633 0.048438 2.382711 0.062486 0.003664 233217.000000 0 0 1
-26.414956 -2.667075 -27.534349 38.249229 0.100627 2.374407 0.058094 0.000515 400341.000000 0 0 1
-25.384786 -3.005075 -26.592119 36.885750 0.117833 2.375943 0.062176 -0.000335 307406.000000 0 0 1
-25.616146 -4.290875 -25.757119 36.579061 0.165966 2.352021 0.067730 -0.016614 88775.200000 0 0 1
-26.423586 -4.147175 -24.600409 36.339855 0.155680 2.314413 0.089833 -0.013324 -103595.000000 0 0 1
-26.609726 -5.285775 -23.870609 36.136171 0.196088 2.292379 0.092645 -0.017692 -563896.000000 0 0 1
-27.785836 -5.112675 -22.943909 36.395261 0.181968 2.252877 0.093702 -0.019307 -519113.000000 0 0 1
-28.158796 -6.276975 -22.228909 36.420359 0.219328 2.227290 0.110365 -0.033775 429251.000000 0 0 1
-29.268136 -6.022875 -21.345709 36.722446 0.202950 2.191087 0.136760 -0.029172 419409.000000 0 0 1
-29.622606 -7.322875 -20.635809 36.836936 0.242347 2.165416 0.147225 -0.046114 -249640.000000 0 0 1
-28.660206 -7.837875 -19.722009 35.662267 0.266949 2.156783 0.141009 -0.044014 154677.000000 0 0 1
-29.118616 -8.868975 -18.863209 35.810238 0.295654 2.125574 0.147589 -0.037238 205474.000000 0 0 1
-29.967806 -8.395675 -17.642109 35.774303 0.273154 2.086504 0.148002 -0.050987 244085.000000 0 0 1
-29.114386 -7.830275 -16.678709 34.454898 0.262732 2.076101 0.144047 -0.044638 44980.400000 0 0 1
-29.754746 -6.991475 -15.764209 34.390927 0.230784 2.046971 0.146039 -0.045170 -268809.000000 0 0 1
-28.816866 -6.490075 -14.635209 32.965469 0.221522 2.030805 0.161443 -0.043373 619455.000000 0 0 1
-27.732206 -5.648075 -15.069209 32.063328 0.200917 2.060067 0.167359 -0.032874 951164.000000 0 0 1
-27.100796 -4.992875 -13.963909 30.892923 0.182191 2.039814 0.155267 -0.048126 64975.100000 0 0 1
-14.525446 20.985425 -4.925509 25.993024 -0.965346 1.761443 0.113023 -0.030741 86566.100000 0 0 1
-14.593746 20.502025 -6.244709 25.928880 -0.952182 1.814027 0.146012 -0.034883 350201.000000 0 0 1
-15.489746 19.384425 -6.334409 25.608844 -0.896615 1.820743 0.108987 -0.039712 104197.000000 0 0 1
-15.581946 18.763925 -7.730709 25.586046 -0.877780 1.877739 0.131285 -0.045009 -256130.000000 0 0 1
-14.400446 18.147125 -8.237809 24.587649 -0.900008 1.912442 0.120517 -0.036011 50952.200000 0 1 0
-14.572346 17.067625 -9.157409 24.238713 -0.864100 1.958216 0.100495 -0.039360 -416935.000000 0 1 0
-15.024946 15.721525 -8.535109 23.361580 -0.808050 1.944803 0.095438 -0.041836 -432573.000000 0 1 0
-16.366346 15.749825 -8.147509 24.130813 -0.766204 1.915204 0.092626 -0.030180 -436271.000000 0 1 0
-16.519346 14.903725 -7.105309 23.355839 -0.734028 1.879916 0.080775 -0.020568 -188261.000000 0 1 0
-17.947246 15.069825 -6.564509 24.337133 -0.698468 1.843911 0.113537 -0.027290 -505625.000000 0 1 0
-18.896846 14.602625 -7.449709 25.016506 -0.657906 1.873175 0.111983 -0.032902 -97162.100000 0 0 1
-20.183446 15.175325 -7.190909 26.255878 -0.644697 1.848219 0.094329 -0.022618 558731.000000 0 0 1
-21.333446 14.609625 -8.039809 27.077584 -0.600467 1.872259 0.099237 -0.012562 -235009.000000 0 0 1
-21.824646 13.383025 -7.603609 26.706467 -0.550074 1.859501 0.139712 -0.028608 519090.000000 0 0 1
-22.783546 12.843925 -8.546509 27.515435 -0.513329 1.886629 0.153706 -0.034001 599349.000000 0 0 1
-23.236746 11.430925 -8.061109 27.121834 -0.457173 1.872574 0.156935 -0.031010 -389559.000000 0 0 1
-22.284346 10.424925 -8.183709 25.927673 -0.437569 1.891923 0.168888 -0.027778 -535222.000000 0 0 1
-22.704446 9.234625 -7.617309 25.666974 -0.386296 1.872110 0.170737 -0.042791 -106469.000000 0 0 1
-21.552046 8.301125 -7.164409 24.181152 -0.367654 1.871592 0.162213 -0.028117 -136335.000000 0 1 0
-21.055246 7.361225 -8.080809 23.723627 -0.336332 1.918376 0.148031 -0.032767 411429.000000 0 1 0
-20.064846 6.602325 -7.399909 22.381854 -0.317890 1.907758 0.127902 -0.024024 -371905.000000 0 1 0
-19.589346 5.323825 -8.188809 21.889316 -0.265362 1.954223 0.097510 -0.041956 -751774.000000 0 1 0
-20.490146 4.269925 -8.279009 22.508228 -0.205449 1.947461 0.113429 -0.043587 -77241.600000 0 1 0
-20.215046 3.330125 -9.311709 22.504349 -0.163269 1.997392 0.102854 -0.043188 -835197.000000 0 1 0
-21.144346 2.152125 -9.321009 23.207675 -0.101433 1.984098 0.096413 -0.040084 -461798.000000 0 1 0
-21.059046 1.272825 -8.241109 22.649931 -0.060367 1.943191 0.104354 -0.039447 377111.000000 0 1 0
-21.949146 0.149325 -8.288709 23.462523 -0.006803 1.931865 0.119008 -0.038503 184794.000000 0 1 0
-21.550746 -0.963575 -9.326209 23.501942 0.044682 1.978854 0.081085 -0.053746 366315.000000 0 1 0
-20.343746 -1.627375 -8.959109 22.288606 0.079824 1.984452 0.043873 -0.034564 389315.000000 0 1 0
-20.334946 -3.018375 -9.278009 22.554424 0.147357 1.994743 0.035336 -0.031711 -305100.000000 0 1 0
-21.425446 -3.980775 -8.708509 23.467731 0.183702 1.950973 0.058869 -0.032008 326842.000000 0 1 0
-21.160746 -4.253275 -7.345009 22.799488 0.198355 1.898803 0.063227 -0.030484 958869.000000 0 1 0
-22.264946 -4.980175 -6.777809 23.800601 0.220056 1.859568 0.113513 -0.030975 101012.000000 0 1 0
-22.375046 -6.486475 -7.075409 24.347041 0.282163 1.865657 0.113276 -0.040937 -485631.000000 0 1 0
-21.336446 -7.353575 -6.693709 23.539854 0.331899 1.859131 0.084889 -0.032205 256264.000000 0 1 0
-21.680246 -8.695475 -6.852409 24.343374 0.381436 1.856143 0.101011 -0.029951 461418.000000 0 1 0
-20.599546 -9.624675 -6.136209 23.550556 0.437088 1.834393 0.100797 -0.024486 827767.000000 0 1 0
-19.271146 -9.526375 -6.626909 22.495439 0.459104 1.869822 0.090031 -0.028616 450682.000000 0 1 0
-18.418946 -10.157075 -5.644709 21.778119 0.503954 1.832982 0.094990 -0.020374 210225.000000 0 1 0
-17.635046 -11.376175 -6.162909 21.872211 0.572915 1.856434 0.083012 -0.022326 174839.000000 0 1 0
-16.649846 -11.272875 -7.203909 21.358637 0.595161 1.914826 0.097971 -0.028130 865151.000000 0 1 0
-17.169946 -10.827775 -8.412709 21.973197 0.562633 1.963689 0.107682 -0.033752 -241769.000000 0 1 0
-16.144546 -11.064675 -9.569109 21.786262 0.600826 2.025534 0.106511 -0.024106 539778.000000 0 1 0
-16.058346 -12.435575 -9.954909 22.618890 0.658935 2.026523 0.108710 -0.026235 114027.000000 0 1 0
-14.994246 -12.520375 -10.871209 22.355544 0.695728 2.078632 0.101955 -0.015982 -63618.700000 0 1 0
-15.042546 -13.825975 -11.723909 23.556014 0.743281 2.091745 0.105466 -0.019142 -331656.000000 0 1 0
-15.918646 -13.792075 -12.796309 24.644880 0.713944 2.116744 0.106508 -0.021350 -147220.000000 0 1 0
-16.202146 -15.091275 -13.288109 25.823050 0.749915 2.111318 0.094210 -0.017449 7380.510000 0 0 1
-16.825346 -15.068075 -14.691909 26.944226 0.730356 2.147509 0.112994 -0.018150 21717.800000 0 0 1
-17.284146 -16.341475 -15.108109 28.178723 0.757371 2.136669 0.109949 -0.010700 153709.000000 0 0 1
-17.374746 -16.468475 -16.504909 29.077559 0.758626 2.174404 0.104707 -0.012936 -338020.000000 0 0 1
-17.874146 -17.833275 -16.995109 30.435908 0.784254 2.163240 0.099041 -0.014571 710130.000000 0 0 1
-19.294846 -18.016375 -16.961509 31.377916 0.751147 2.141894 0.065862 -0.016621 -15369.600000 0 0 1
-19.882846 -17.789175 -18.187309 32.288705 0.729879 2.169136 0.078784 -0.021630 29793.200000 0 0 1
-21.403246 -17.518675 -17.957209 32.976723 0.685923 2.146639 0.074758 -0.025941 242014.000000 0 0 1
-21.640046 -16.289675 -17.287209 32.132424 0.645263 2.138858 0.065621 -0.023359 94848.700000 0 0 1
-21.665846 -16.394675 -15.892909 31.476639 0.647779 2.100075 0.062135 -0.021580 -404685.000000 0 0 1
-21.679746 -14.990375 -15.188209 30.420460 0.604962 2.093559 0.064498 -0.029170 339932.000000 0 0 1
-22.997446 -14.472275 -15.075409 31.074060 0.561685 2.077325 0.077721 -0.026384 723601.000000 0 0 1
-22.841446 -13.177675 -14.539309 30.112692 0.523276 2.074680 0.093313 -0.029962 398232.000000 0 0 1
-24.242446 -12.523575 -14.348309 30.828721 0.476837 2.054906 0.113564 -0.036013 744154.000000 0 0 1
-25.057706 -13.260375 -13.371709 31.345314 0.486729 2.011519 0.125027 -0.036883 1045200.000000 0 0 1
-26.209366 -12.500775 -13.012809 31.820330 0.445045 1.992096 0.135901 -0.033504 -68612.400000 0 0 1
-26.765976 -12.905875 -11.647409 31.916159 0.449286 1.944362 0.145388 -0.035549 -279205.000000 0 0 1
-27.722246 -11.969075 -11.198709 32.205477 0.407574 1.925942 0.137238 -0.041374 306098.000000 0 0 1
-28.256766 -12.471775 -9.939209 32.446538 0.415657 1.882127 0.121418 -0.026805 373616.000000 0 0 1
-29.196916 -11.535375 -9.108709 32.687816 0.376265 1.853192 0.123691 -0.030412 891354.000000 0 0 1
-28.504166 -10.300475 -8.660509 31.521289 0.346766 1.849127 0.141914 -0.032591 569742.000000 0 0 1
-29.393976 -9.535675 -7.898409 31.895450 0.313697 1.821034 0.159379 -0.040174 94433.900000 0 0 1
-28.695906 -8.246375 -7.331309 30.744199 0.279831 1.811578 0.171398 -0.049452 203954.000000 0 0 1
-27.775846 -8.572275 -6.302809 29.744023 0.299349 1.784317 0.162945 -0.051522 32014.600000 0 0 1
-27.016196 -7.493075 -5.777909 28.625255 0.270554 1.774039 0.160415 -0.044052 247536.000000 0 0 1
-27.725286 -6.283375 -4.953809 28.856758 0.222865 1.743320 0.186229 -0.052160 -418534.000000 0 0 1
-28.207116 -6.771875 -3.704809 29.244235 0.235618 1.697823 0.173055 -0.050518 -101361.000000 0 0 1
-27.365786 -6.815675 -2.588709 28.320329 0.244092 1.662332 0.172141 -0.035537 -509095.000000 0 0 1
-26.996686 -5.483575 -1.887109 27.612530 0.200394 1.639192 0.190673 -0.031873 -485083.000000 0 0 1
-28.118256 -4.866475 -1.342209 28.567821 0.171374 1.617797 0.204187 -0.042576 -85904.800000 0 0 1
-27.808036 -3.618275 -0.706109 28.051334 0.129389 1.595971 0.204524 -0.045940 -633551.000000 0 0 1
-29.045046 -2.846875 -0.280409 29.185579 0.097704 1.580404 0.203543 -0.050413 -120734.000000 0 0 1
-29.921586 -3.327575 0.726691 30.114816 0.110755 1.546663 0.194102 -0.031976 502943.000000 0 0 1
-29.389756 -3.115475 2.016191 29.623115 0.105611 1.502682 0.194226 -0.031580 -164420.000000 0 0 1
-30.215316 -3.690075 3.202891 30.607850 0.121524 1.465962 0.165941 -0.026598 68002.100000 0 0 1
-30.613036 -5.048875 2.999991 31.171285 0.163454 1.474405 0.176950 -0.027469 372515.000000 0 0 1
-31.585456 -5.393675 3.968691 32.287509 0.169133 1.447567 0.189746 -0.032202 361375.000000 0 0 1
-32.278286 -6.793475 3.862891 33.210856 0.207438 1.454218 0.194609 -0.028014 -63035.300000 0 0 1
-31.340106 -7.751375 4.246291 32.562509 0.242465 1.440020 0.182802 -0.015739 297559.000000 0 0 1
-31.729506 -9.055575 3.857091 33.221109 0.278008 1.454430 0.202645 -0.019573 -58534.100000 0 0 1
-30.712756 -10.082775 4.401991 32.623814 0.317207 1.435452 0.194914 -0.018144 73698.700000 0 0 1
-30.745616 -10.276275 5.801091 32.932467 0.322562 1.393721 0.159296 -0.018596 -514732.000000 0 0 1
-29.833626 -11.222075 6.129991 32.458542 0.359783 1.380799 0.164592 -0.026973 -830672.000000 0 0 1
-29.923526 -11.621275 7.627991 32.994813 0.370437 1.337498 0.146675 -0.030783 -8093.130000 0 0 1
-29.576026 -10.464575 8.448191 32.490315 0.340073 1.307752 0.148948 -0.025811 496725.000000 0 0 1
-29.843756 -10.765775 9.795391 33.203936 0.346209 1.271334 0.169824 -0.027333 -136722.000000 0 0 1
-30.092706 -9.531275 10.660591 33.317628 0.306734 1.245100 0.162583 -0.028366 351724.000000 0 0 1
-28.900996 -8.760775 10.809391 32.075873 0.294326 1.227074 0.149427 -0.029899 663627.000000 0 0 1
-29.127196 -7.620375 11.590491 32.261480 0.255889 1.203314 0.155862 -0.028251 333952.000000 0 0 1
-28.054556 -6.498675 11.336891 30.948602 0.227629 1.195752 0.166220 -0.023259 326113.000000 0 0 1
-28.174156 -5.739575 10.166291 30.497200 0.200968 1.230940 0.185170 -0.021662 46071.400000 0 0 1
-27.371816 -4.615175 10.275991 29.599191 0.167039 1.216243 0.183485 -0.025436 -574809.000000 0 0 1
-27.339946 -3.744775 8.977291 29.018748 0.136124 1.256275 0.203816 -0.031786 58113.700000 0 0 1
-26.467866 -4.282975 7.992091 27.977943 0.160427 1.281105 0.155489 -0.024187 121584.000000 0 0 1
-26.496136 -3.612975 6.777391 27.586805 0.135523 1.322580 0.171889 -0.033952 -702703.000000 0 0 1
-25.621076 -4.111975 5.665491 26.560227 0.159135 1.355837 0.162785 -0.024578 -1252250.000000 0 0 1
-24.292746 -3.722975 5.762791 25.242975 0.152071 1.340472 0.170253 -0.042919 -168193.000000 0 0 1
-23.538046 -4.035975 4.580591 24.316877 0.169815 1.381293 0.155349 -0.030881 366511.000000 0 1 0
-22.052546 -3.605675 4.673791 22.828929 0.162070 1.364607 0.139229 -0.028249 143890.000000 0 1 0
-21.900846 -2.265375 4.816991 22.538464 0.103071 1.355412 0.125593 -0.031068 47722.800000 0 1 0
-20.555746 -1.960375 4.551891 21.144774 0.095081 1.353825 0.084887 -0.024464 -849067.000000 0 1 0
-20.300746 -0.429675 4.691891 20.840315 0.021162 1.343714 0.062721 -0.030919 -847595.000000 0 1 0
-20.750346 0.406925 3.657591 21.074164 -0.019608 1.396355 0.087041 -0.025196 630025.000000 0 1 0
-22.103246 0.823625 3.717391 22.428794 -0.037245 1.404286 0.108976 -0.044403 471.885000 0 1 0
-22.228246 1.980425 2.704991 22.479634 -0.088860 1.450173 0.132795 -0.028022 -127819.000000 0 1 0
-21.545746 3.142625 3.186791 22.005701 -0.144837 1.425469 0.101607 -0.036508 390632.000000 0 1 0
-21.723946 4.298225 2.346891 22.269092 -0.195334 1.465212 0.113361 -0.017375 -282998.000000 0 1 0
-20.519646 4.466425 1.437091 21.049229 -0.214323 1.502470 0.073772 -0.009827 -776268.000000 0 1 0
-20.674646 5.275025 0.317191 21.339341 -0.249815 1.555932 0.077539 -0.009713 841004.000000 0 1 0
-21.608546 4.815425 -0.722909 22.150399 -0.219265 1.603438 0.109953 -0.014850 536430.000000 0 1 0
-21.326146 3.549225 -1.560609 21.675723 -0.164915 1.642857 0.112364 -0.016662 -344417.000000 0 1 0
-21.267046 2.336825 -0.890009 21.413549 -0.109441 1.612371 0.090142 -0.015076 494800.000000 0 1 0
-20.923546 1.256125 -1.773809 21.036136 -0.059962 1.655219 0.089045 -0.011662 -262057.000000 0 1 0
-20.126646 0.209725 -0.947109 20.150009 -0.010420 1.617817 0.086977 -0.012754 -49883.000000 0 1 0
-20.887646 -0.660875 -0.081909 20.898258 0.031629 1.574716 0.108752 -0.018521 1217760.000000 0 1 0
-20.092346 -1.446375 0.850191 20.162271 0.071862 1.528616 0.091653 -0.015604 -26149.700000 0 1 0
-19.153546 -2.526775 0.378291 19.323199 0.131165 1.551218 0.058152 -0.011087 -108439.000000 0 1 0
-18.242446 -2.988775 1.381691 18.537224 0.162394 1.496191 0.038927 -0.008647 758004.000000 0 1 0
-17.563746 -4.206775 1.089091 18.093320 0.235086 1.510567 0.031264 -0.004578 -87294.400000 0 1 0
-18.412046 -5.501875 0.796991 19.233025 0.290373 1.529346 0.032337 -0.000539 -557668.000000 0 1 0
-19.179046 -5.777075 1.917891 20.121846 0.292574 1.475338 0.061031 -0.010380 -90033.300000 0 1 0
-20.133146 -6.739175 1.548091 21.287475 0.323007 1.498009 0.078196 -0.009569 -448972.000000 0 1 0
-20.790446 -7.216675 2.829691 22.188514 0.334102 1.442919 0.097220 -0.018071 -222978.000000 0 1 0
-20.003846 -8.200575 3.488191 21.899104 0.389054 1.410830 0.074250 -0.013588 636186.000000 0 1 0
-20.590046 -8.508075 4.722191 22.773590 0.391845 1.361927 0.060300 -0.017971 -431463.000000 0 1 0
-19.632846 -9.307075 5.552291 22.425392 0.442678 1.320605 0.048679 -0.012456 -530722.000000 0 1 0
-19.318246 -10.588275 5.055491 22.602304 0.501381 1.345217 0.073844 -0.010529 857374.000000 0 1 0
-18.270346 -11.260275 5.787391 22.228208 0.552329 1.307399 0.066473 -0.013606 452494.000000 0 1 0
-17.871246 -12.605975 5.206191 22.481024 0.614326 1.337093 0.063813 -0.011778 -549235.000000 0 1 0
-18.915546 -13.499475 5.476091 23.875118 0.619842 1.339372 0.101193 -0.016676 4861.450000 0 1 0
-18.524846 -14.756375 5.026891 24.211364 0.672647 1.361650 0.106357 -0.014669 -286789.000000 0 1 0
-19.388446 -15.935675 5.392391 25.669738 0.687962 1.359152 0.121626 -0.021202 -292592.000000 0 0 1
-18.834446 -17.081375 4.726491 25.862123 0.736626 1.387006 0.123345 -0.026528 666317.000000 0 0 1
-19.556246 -18.303975 4.933091 27.236329 0.752334 1.388669 0.122171 -0.022798 218182.000000 0 0 1
-18.591246 -19.456475 4.627191 27.305672 0.808135 1.400516 0.124637 -0.029678 -400348.000000 0 0 1
-18.247646 -19.754375 3.331791 27.098205 0.825026 1.447532 0.120373 -0.030271 553264.000000 0 0 1
-17.534346 -21.017075 3.087391 27.544558 0.875493 1.458473 0.108536 -0.020201 279996.000000 0 0 1
-16.025246 -20.898275 3.350691 26.547571 0.916616 1.444244 0.093876 -0.016110 -385603.000000 0 0 1
-15.418146 -22.183775 3.643891 27.260173 0.963421 1.436724 0.078242 -0.019756 1124090.000000 0 0 1
-13.981146 -22.009075 3.718591 26.338180 1.004864 1.429137 0.072585 -0.017234 1210760.000000 0 0 1
-13.245246 -23.337175 4.003591 27.130960 1.054571 1.422690 0.065359 -0.012485 -333645.000000 0 0 1
-13.443446 -24.299275 3.012891 27.933108 1.065465 1.462725 0.070922 -0.017875 -19010.300000 0 0 1
-13.041546 -25.599925 3.355291 28.925699 1.099628 1.454538 0.055462 -0.014617 -234708.000000 0 0 1
19.544054 18.871725 -24.149409 36.349773 0.767899 2.297436 0.080948 -0.017523 -421049.000000 0 0 1
18.655354 19.035225 -25.158589 36.651284 0.795476 2.327366 0.063684 -0.024003 -678964.000000 0 0 1
19.394354 19.278625 -26.346109 37.972672 0.782406 2.337573 0.085840 -0.026437 528119.000000 0 0 1
18.492354 19.424125 -27.621269 38.499329 0.809968 2.370928 0.079679 -0.029714 549446.000000 0 0 1
17.866754 20.732725 -27.734989 38.965323 0.859511 2.362835 0.072668 -0.028068 430605.000000 0 0 1
16.924854 20.652225 -28.796939 39.271221 0.884267 2.393935 0.061728 -0.029396 -70060.900000 0 0 1
16.563554 22.083125 -29.303809 40.258278 0.927260 2.386044 0.064724 -0.024915 -486626.000000 0 0 1
15.826654 22.760325 -28.348299 39.650239 0.963190 2.367362 0.060550 -0.025495 78989.900000 0 0 1
15.552354 24.076125 -28.685679 40.551248 0.997262 2.356600 0.057568 -0.018630 -438092.000000 0 0 1
14.782754 24.848925 -27.630539 39.993069 1.034131 2.333506 0.059087 -0.028543 -9693.470000 0 0 1
13.454154 24.364125 -27.483389 39.114723 1.066257 2.349891 0.062299 -0.038998 280361.000000 0 0 1
12.757354 25.169525 -26.518169 38.722969 1.101678 2.325150 0.060931 -0.036468 -518777.000000 0 0 1
11.299254 24.707425 -26.218239 37.756139 1.141870 2.338396 0.084400 -0.040416 606332.000000 0 0 1
10.580054 25.707025 -25.509129 37.729357 1.180362 2.313264 0.082181 -0.044456 -212503.000000 0 0 1
10.174154 26.785725 -26.275529 38.876624 1.207794 2.312940 0.094325 -0.052883 -941843.000000 0 0 1
9.602154 27.980725 -25.481859 39.044173 1.240219 2.281862 0.116586 -0.046336 180163.000000 0 0 1
10.585054 28.610525 -24.688609 39.244527 1.216442 2.251187 0.095866 -0.037196 384291.000000 0 0 1
9.904554 29.140825 -23.550309 38.754418 1.243160 2.223933 0.121711 -0.044965 -33374.100000 0 0 1
10.869554 29.315825 -22.396509 38.459959 1.215736 2.192392 0.092356 -0.027113 235547.000000 0 0 1
11.725454 30.489425 -22.526509 39.680410 1.203658 2.174504 0.070065 -0.040218 509657.000000 0 0 1
12.572954 30.642225 -21.408709 39.438027 1.181430 2.144617 0.056048 -0.026570 -158175.000000 0 0 1
13.732254 31.615025 -21.747809 40.756003 1.161026 2.133660 0.059053 -0.017205 369677.000000 0 0 1
14.808654 30.954925 -22.423109 40.991456 1.124582 2.149595 0.056430 -0.011779 498385.000000 0 0 1
15.797054 31.918225 -22.839509 42.307957 1.111219 2.141043 0.055710 -0.006700 1004150.000000 0 0 1
17.144454 31.252825 -23.273409 42.571387 1.069049 2.149204 0.015989 0.009519 541266.000000 0 0 1
18.013054 30.757025 -22.282209 42.035242 1.040990 2.129496 0.012901 0.014396 -116471.000000 0 0 1
19.191054 30.282625 -22.874709 42.527477 1.005943 2.138717 0.011282 0.016845 143871.000000 0 0 1
20.208154 29.463125 -22.014809 41.965427 0.969610 2.123034 0.003252 0.016339 148214.000000 0 0 1
20.872054 30.164025 -21.015209 42.274698 0.965492 2.091062 0.013908 0.019152 327465.000000 0 0 1
21.829854 29.292725 -20.389409 41.836997 0.930354 2.079853 0.026820 0.023298 507026.000000 0 0 1
22.548854 29.940825 -19.179009 42.103898 0.925305 2.043748 0.037847 0.016163 180007.000000 0 0 1
23.465354 31.003525 -19.485109 43.491504 0.922919 2.035347 0.043321 0.007778 643435.000000 0 0 1
23.964954 31.504425 -18.189009 43.562460 0.920492 2.001531 0.048571 0.002316 -162934.000000 0 0 1
25.163554 32.468225 -18.263609 44.954972 0.911473 1.989159 0.068310 -0.000100 664490.000000 0 0 1
26.355954 31.904525 -18.814309 45.458919 0.880349 1.997503 0.070023 -0.003121 263410.000000 0 0 1
27.494854 32.689625 -18.513409 46.554537 0.871499 1.979774 0.065217 -0.009788 554226.000000 0 0 1
28.805654 32.015325 -19.021909 47.080567 0.838122 1.986713 0.075979 -0.018640 313489.000000 0 0 1
29.192054 30.838525 -18.325109 46.249327 0.812818 1.978197 0.049300 0.004057 -241774.000000 0 0 1
30.422554 30.377225 -18.822309 46.931726 0.784653 1.983467 0.038412 -0.003166 190503.000000 0 0 1
31.142254 29.255625 -17.972609 46.354571 0.754172 1.968953 0.051130 -0.009325 -157341.000000 0 0 1
31.618454 29.701725 -16.758209 46.505448 0.754151 1.939439 0.052009 0.007399 -51297.700000 0 0 1
32.011654 28.568725 -15.952409 45.775511 0.728627 1.926758 0.063886 0.010031 -287605.000000 0 0 1
32.450154 28.973825 -14.505709 45.857504 0.728863 1.892646 0.068215 0.010217 -219557.000000 0 0 1
33.703054 29.592925 -14.464509 47.125992 0.720554 1.882765 0.048597 0.013186 -605043.000000 0 0 1
33.632254 30.960625 -14.703309 48.019539 0.744061 1.881989 0.050316 0.009108 292150.000000 0 0 1
35.091554 31.478225 -14.865209 49.429448 0.731173 1.876260 0.062781 -0.004607 1212790.000000 0 0 1
35.932254 31.448425 -13.687809 49.673801 0.718951 1.849962 0.055405 -0.001722 50975.900000 0 0 1
37.274654 31.757125 -13.947309 50.916032 0.705640 1.848271 0.046419 -0.009757 -184103.000000 0 0 1
-36.755454 31.944125 -12.685809 50.322165 -0.715478 1.825638 0.049833 -0.007881 -142360.000000 0 0 1
-37.168554 32.971425 -11.811709 51.069881 -0.725630 1.804195 0.047823 -0.009184 261926.000000 0 0 1
-36.144654 33.192125 -10.870409 50.262501 -0.742841 1.788792 0.039776 -0.000483 86715.200000 0 0 1
-36.617154 -33.503220 -9.837509 50.597018 0.741019 1.766471 0.034260 0.000086 563242.000000 0 0 1
-35.566254 -32.891520 -9.068509 49.285376 0.746347 1.755851 0.028610 -0.000593 509268.000000 0 0 1
-35.158854 -33.657220 -7.962109 49.318846 0.763581 1.732947 0.036293 -0.005300 -213.987000 0 0 1
-34.783554 -32.764920 -6.815809 48.268943 0.755523 1.712475 0.046812 -0.002952 -86336.300000 0 0 1
-35.911454 -32.172420 -6.208009 48.613131 0.730535 1.698848 0.046647 -0.000735 -48957.600000 0 0 1
-35.563654 -30.955820 -5.567309 47.476638 0.716238 1.688331 0.057167 -0.003945 313711.000000 0 0 1
-36.841254 -30.196020 -5.127409 47.909998 0.686593 1.678023 0.054037 -0.000445 194807.000000 0 0 1
37.299554 -30.748120 -4.040409 48.508025 -0.689417 1.654187 0.040772 -0.005156 1146500.000000 0 0 1
35.982054 -30.132720 -4.067409 47.108734 -0.697155 1.657245 0.037111 0.001480 1055440.000000 0 0 1
35.720254 -29.224820 -2.855209 46.240446 -0.685715 1.632583 0.026475 0.007545 -280105.000000 0 0 1
36.308054 -27.953520 -3.022809 45.921797 -0.656115 1.636669 0.044649 -0.005780 392827.000000 0 0 1
35.716354 -27.040720 -2.099509 44.847145 -0.648027 1.617628 0.048679 -0.002278 59898.600000 0 0 1
36.149854 -25.555020 -2.325209 44.331452 -0.615355 1.623271 0.055880 -0.013734 -558637.000000 0 0 1
35.587954 -25.059220 -3.451509 43.662111 -0.613505 1.649929 0.073129 -0.016222 75257.700000 0 0 1
35.541854 -23.634320 -3.557809 42.830626 -0.586828 1.653959 0.083807 -0.020297 -82906.600000 0 0 1
35.039654 -23.196820 -4.986909 42.317125 -0.584776 1.688917 0.088712 -0.021966 566132.000000 0 0 1
36.070854 -23.314520 -6.010609 43.368200 -0.573807 1.709839 0.082230 -0.022901 816801.000000 0 0 1
35.691254 -22.766720 -7.270709 42.954073 -0.567807 1.740882 0.067291 -0.016851 -321202.000000 0 0 1
36.744154 -22.876820 -8.390409 44.089463 -0.556870 1.762268 0.079786 -0.023246 -119046.000000 0 0 1
37.164854 -24.188320 -8.747209 45.197510 -0.576964 1.765558 0.066896 -0.010896 -394347.000000 0 0 1
-36.622554 -24.049620 -9.603709 44.853393 0.581063 1.786580 0.078086 -0.011211 -188479.000000 0 0 1
-36.201054 -25.335520 -10.408109 45.395304 0.610629 1.802131 0.058992 -0.001588 -130598.000000 0 0 1
-35.463654 -26.309420 -9.681409 45.206039 0.638278 1.786630 0.064829 0.001108 276203.000000 0 0 1
-36.211354 -27.217720 -8.877609 46.161438 0.644547 1.764319 0.051226 -0.002087 116706.000000 0 0 1
-35.238354 -28.244520 -8.258909 45.909738 0.675672 1.751676 0.047424 0.001088 380470.000000 0 0 1
-34.645554 -29.086820 -9.260309 46.174785 0.698398 1.772715 0.046620 0.004000 482529.000000 0 0 1
-33.573954 -29.858120 -8.724109 45.769288 0.726885 1.762580 0.028902 -0.006113 194030.000000 0 0 1
-32.967354 -30.875720 -9.685009 46.194760 0.752648 1.782019 0.027902 0.004482 -97239.400000 0 0 1
-32.320054 -30.282720 -10.816509 45.591949 0.752866 1.810326 0.033805 0.021596 274901.000000 0 0 1
-32.158054 -31.147620 -11.907909 46.326158 0.769438 1.830760 0.040733 0.018385 -161570.000000 0 0 1
-32.085454 -30.357420 -13.217309 46.105819 0.757731 1.861549 0.021333 0.023874 -170718.000000 0 0 1
-30.992154 -29.490620 -13.424209 44.837703 0.760577 1.874855 0.026840 0.023940 -175100.000000 0 0 1
-31.206054 -28.776620 -14.616309 44.894856 0.744918 1.902408 0.021982 0.024629 288623.000000 0 0 1
-29.986054 -27.968420 -15.128609 43.706644 0.750598 1.924250 0.046528 0.007195 679262.000000 0 0 1
-28.962454 -28.738220 -15.791309 43.750136 0.781512 1.940075 0.070102 0.000295 287295.000000 0 0 1
-27.802654 -27.959520 -15.981309 42.545558 0.788211 1.955871 0.091575 0.008287 40127.200000 0 0 1
-26.690054 -28.761920 -16.715309 42.649836 0.822744 1.973514 0.113593 -0.001343 -497030.000000 0 0 1
-26.947954 -29.162020 -18.044109 43.614281 0.824837 1.997333 0.106206 -0.001437 -187787.000000 0 0 1
-27.025254 -28.181920 -19.104009 43.468932 0.806346 2.025823 0.084033 0.006177 377383.000000 0 0 1
-25.748554 -27.345320 -19.471009 42.306911 0.815463 2.049053 0.088021 0.002644 458077.000000 0 0 1
-25.522054 -26.256620 -18.593209 41.066930 0.799584 2.040648 0.103435 -0.001936 200237.000000 0 0 1
-24.120754 -26.017420 -18.588109 40.052898 0.823209 2.053402 0.099345 -0.014704 533421.000000 0 0 1
-23.723454 -24.835120 -17.629509 38.605505 0.808287 2.045031 0.114447 -0.017880 17154.700000 0 0 1
-23.849654 -25.108820 -16.235009 38.247017 0.811112 2.009181 0.120072 -0.020327 170847.000000 0 0 1
-23.277554 -24.124820 -15.385409 36.885800 0.803270 2.001059 0.113603 -0.020827 25899.100000 0 0 1
-23.900054 -24.190620 -13.961609 36.760375 0.791440 1.960377 0.100752 -0.010091 -40552.500000 0 0 1
-25.274154 -23.899420 -13.957309 37.480283 0.757449 1.952380 0.081566 0.007304 -258325.000000 0 0 1
-25.813554 -23.917020 -12.676309 37.403906 0.747280 1.916547 0.081838 0.006553 941484.000000 0 0 1
-27.379454 -23.742520 -12.550909 38.351884 0.714376 1.904195 0.072288 0.028533 586010.000000 0 0 1
-27.985054 -24.969520 -13.015309 39.699350 0.728514 1.904820 0.088048 0.017900 62824.100000 0 0 1
-29.324554 -25.206920 -12.666209 40.690922 0.710032 1.887334 0.073498 0.018930 276705.000000 0 0 1
-30.464654 -24.236120 -13.168909 41.096287 0.672021 1.896991 0.081583 0.021750 -526923.000000 0 0 1
-30.564654 -23.075720 -12.340209 40.236397 0.646681 1.882513 0.097540 0.011669 266674.000000 0 0 1
-31.229454 -23.232620 -11.081509 40.470152 0.639607 1.848158 0.109198 0.002883 -48665.600000 0 0 1
-32.745954 -23.557020 -11.080809 41.833180 0.623619 1.838877 0.087619 0.003776 76120.100000 0 0 1
-33.653254 -22.486920 -11.342109 42.033873 0.589060 1.844015 0.109545 -0.014327 211566.000000 0 0 1
-33.881854 -22.098420 -12.679109 42.391980 0.577934 1.874537 0.095666 0.003271 -458127.000000 0 0 1
-35.334354 -21.710020 -12.983909 43.455994 0.550953 1.874213 0.058193 -0.005244 -107039.000000 0 0 1
-36.261454 -22.761320 -12.888709 44.711179 0.560539 1.863212 0.057175 -0.002867 -19736.000000 0 0 1
37.282654 -22.316320 -13.129209 45.391525 -0.539368 1.864233 0.068813 -0.021345 732993.000000 0 0 1
36.269754 -23.478720 -12.802109 45.062616 -0.574500 1.858860 0.059706 -0.002305 126488.000000 0 0 1
36.263854 -24.552620 -13.749409 45.901465 -0.595160 1.875009 0.041408 0.003538 46049.000000 0 0 1
35.481754 -25.623720 -13.214209 45.718106 -0.625448 1.864017 0.039879 -0.006223 317041.000000 0 0 1
35.424154 -26.897620 -14.042709 46.642795 -0.649428 1.876610 0.031589 -0.006928 -95836.400000 0 0 1
34.613954 -26.765720 -15.148309 46.303357 -0.658224 1.904086 0.031443 -0.013280 -530678.000000 0 0 1
34.531954 -27.994420 -15.803409 47.179351 -0.681220 1.912364 0.024280 0.008555 50348.300000 0 0 1
33.597154 -27.935520 -17.027409 46.894506 -0.693646 1.942389 0.026961 -0.002839 229562.000000 0 0 1
32.211054 -27.931420 -16.756409 45.809316 -0.714360 1.945274 0.079463 -0.008186 524572.000000 0 0 1
31.403054 -27.632620 -17.915909 45.504871 -0.721618 1.975465 0.070077 -0.012090 122345.000000 0 0 1
29.885254 -27.789820 -17.864509 44.548212 -0.749082 1.983421 0.078175 -0.021084 -226844.000000 0 0 1
29.325954 -26.810820 -17.010409 43.222513 -0.740624 1.975291 0.072197 -0.019475 -1327760.000000 0 0 1
27.965154 -26.993620 -16.922709 42.392021 -0.767722 1.981436 0.098237 -0.021181 -993753.000000 0 0 1
27.331554 -25.914820 -16.003709 40.923226 -0.758797 1.972587 0.083372 -0.024333 546.203000 0 0 1
27.396054 -24.571520 -16.482709 40.323480 -0.731100 1.991894 0.072922 -0.028987 -60026.600000 0 0 1
27.148554 -23.726320 -15.368309 39.193968 -0.718232 1.973719 0.073029 -0.021414 -251033.000000 0 0 1
26.790054 -22.307020 -15.663109 38.218361 -0.694341 1.993066 0.068459 -0.024162 313102.000000 0 0 1
25.422654 -22.040820 -15.964209 37.241980 -0.714267 2.013807 0.083054 -0.036512 324846.000000 0 0 1
25.342154 -20.707320 -16.401409 36.606339 -0.685087 2.035377 0.081711 -0.034308 666941.000000 0 0 1
23.907854 -20.089020 -16.282509 35.217528 -0.698817 2.051430 0.077731 -0.032482 633080.000000 0 0 1
23.500554 -19.754220 -14.926509 34.136577 -0.699003 2.023344 0.086655 -0.032537 -35631.900000 0 0 1
22.329754 -18.977220 -15.036109 32.936869 -0.704414 2.044868 0.082818 -0.038968 -56299.100000 0 0 1
22.201254 -17.897720 -13.932409 31.738558 -0.678485 2.025253 0.084841 -0.016750 -151366.000000 0 0 1
21.610554 -18.398720 -12.765209 31.120403 -0.705293 1.993456 0.069422 -0.021018 -43326.000000 0 0 1
21.186854 -17.349120 -11.929009 29.869315 -0.686137 1.981630 0.069510 -0.025144 70988.800000 0 0 1
20.153854 -17.658520 -10.779009 28.882316 -0.719501 1.953257 0.080954 -0.008852 161248.000000 0 0 1
20.592354 -18.316420 -9.616709 29.189337 -0.726971 1.906528 0.077723 -0.025431 564336.000000 0 0 1
19.521454 -18.464520 -8.665409 28.233225 -0.757581 1.882754 0.072385 -0.032297 668895.000000 0 0 1
20.074054 -19.267420 -7.474409 28.810899 -0.764898 1.833228 0.068160 -0.029395 -12403.400000 0 0 1
21.119854 -18.701920 -6.756309 29.007891 -0.724754 1.805868 0.060728 -0.031772 -259309.000000 0 0 1
21.766154 -19.500720 -5.776809 29.789513 -0.730556 1.765954 0.063415 -0.022796 -694765.000000 0 0 1
22.984554 -18.788720 -5.252409 30.147861 -0.685291 1.745912 0.072278 -0.015333 -723730.000000 0 0 1
24.026954 -18.707620 -6.207909 31.077447 -0.661561 1.771905 0.069177 -0.023618 67069.700000 0 0 1
24.948654 -17.704720 -5.770809 31.131892 -0.617171 1.757241 0.082056 -0.027522 -303764.000000 0 0 1
26.043954 -17.414320 -6.802109 32.059550 -0.589375 1.784592 0.094930 -0.035503 -230665.000000 0 0 1
27.062054 -18.373120 -6.910809 33.431805 -0.596442 1.779011 0.110621 -0.043350 85776.200000 0 0 1
26.781854 -19.322520 -7.913709 33.959598 -0.624996 1.805992 0.107815 -0.044591 -742811.000000 0 0 1
27.666954 -20.545420 -7.863709 35.347030 -0.638747 1.795145 0.126803 -0.043567 -211297.000000 0 0 1
28.988654 -20.165020 -8.181909 36.247948 -0.607779 1.798479 0.136017 -0.038606 -218310.000000 0 0 1
29.922454 -21.209220 -7.999909 37.539084 -0.616612 1.785552 0.136699 -0.035125 -16816.700000 0 0 1
-30.754146 29.058825 4.317891 42.530894 -0.757062 1.469097 0.051813 -0.017288 92519.200000 0 0 1
-30.270986 29.985725 3.377991 42.742100 -0.780664 1.491682 0.049235 -0.013056 -190125.000000 0 0 1
-29.527906 31.010025 4.012391 43.007187 -0.809876 1.477365 0.045482 -0.001296 84356.100000 0 0 1
-29.035756 32.010825 2.947691 43.318090 -0.834094 1.502696 0.042803 -0.002978 -424814.000000 0 0 1
-28.096996 31.513525 2.013691 42.268172 -0.842650 1.523137 0.040849 -0.006464 173144.000000 0 0 1
-27.710756 32.519825 1.064691 42.738257 -0.865073 1.545882 0.051475 -0.017535 -291080.000000 0 0 1
-26.624066 33.527625 1.478291 42.838392 -0.899667 1.536281 0.078729 -0.002862 -440565.000000 0 0 1
-25.358886 32.897425 1.554691 41.565980 -0.914086 1.533385 0.059075 -0.008005 -22869.700000 0 0 1
-24.391146 33.749425 2.141291 41.695765 -0.944989 1.519419 0.059844 -0.002463 -332880.000000 0 0 1
-22.965146 33.312725 1.846691 40.503652 -0.967233 1.525187 0.067023 -0.015292 -497232.000000 0 0 1
-22.437546 33.689025 0.593791 40.481433 -0.983242 1.556128 0.111543 -0.019257 754083.000000 0 0 1
-21.043446 33.325425 0.562391 39.417342 -1.007570 1.556528 0.118584 -0.028562 569186.000000 0 0 1
-20.256146 -33.841220 -0.611409 39.445068 1.031433 1.586297 0.123775 -0.028257 1552.770000 0 0 1
-19.850246 -32.477020 -0.523209 38.066557 1.022176 1.584541 0.125564 -0.027552 717722.000000 0 0 1
-18.790846 -32.161020 0.389891 37.250222 1.042020 1.560329 0.137998 -0.026740 117394.000000 0 0 1
-18.418046 -30.679020 0.451591 35.785899 1.030122 1.558177 0.144292 -0.032037 -353289.000000 0 0 1
-17.697746 -30.148420 -0.615409 34.964498 1.039975 1.588398 0.142821 -0.026824 -117903.000000 0 0 1
-17.446446 -28.809820 -0.377909 33.682740 1.026289 1.582016 0.112850 -0.017321 151986.000000 0 0 1
-16.389946 -28.134520 -1.304209 32.586538 1.043302 1.610830 0.102291 -0.013454 -37651.000000 0 0 1
-16.842846 -28.065020 -2.651409 32.838343 1.030276 1.651626 0.084845 -0.012659 232554.000000 0 0 1
-15.857846 -27.641820 -3.599009 32.070147 1.049947 1.683256 0.069526 0.000252 341297.000000 0 0 1
-16.433246 -27.709820 -5.060109 32.611200 1.035504 1.726591 0.093367 -0.008843 267994.000000 0 0 1
-17.411946 -26.735620 -5.346109 32.350426 0.993533 1.736814 0.091131 -0.006719 -138235.000000 0 0 1
-17.807246 -26.818720 -6.699609 32.882008 0.984652 1.775980 0.107579 -0.009434 320945.000000 0 0 1
-18.608946 -25.557720 -7.118609 32.406241 0.941450 1.792270 0.082085 0.000408 103220.000000 0 0 1
-17.725146 -24.459220 -7.235409 31.060994 0.943697 1.805898 0.052881 0.012439 145708.000000 0 0 1
-18.328746 -23.218320 -7.288209 30.465575 0.902547 1.812367 0.033505 0.020477 -405426.000000 0 0 1
-17.257646 -22.194920 -6.940009 28.958669 0.909895 1.812804 0.053551 0.016603 147994.000000 0 0 1
-16.331046 -21.943920 -7.970209 28.491453 0.931006 1.854320 0.070657 0.009318 -410420.000000 0 0 1
-15.175846 -21.321820 -7.460509 27.213700 0.952227 1.848497 0.100536 -0.007753 189317.000000 0 0 1
-14.132946 -20.932620 -8.534509 26.659943 0.976934 1.896658 0.117732 -0.008900 -55618.700000 0 0 1
-14.542746 -19.921020 -9.401209 26.395477 0.940205 1.934959 0.112539 -0.013809 -193574.000000 0 0 1
-13.627546 -19.824120 -10.501009 26.248369 0.968562 1.982382 0.115657 -0.016172 254727.000000 0 0 1
-14.099546 -19.118820 -11.739509 26.497972 0.935363 2.029777 0.128416 -0.020730 -673972.000000 0 0 1
-15.346746 -19.557420 -12.166909 27.677589 0.905453 2.025943 0.100306 -0.010264 -791746.000000 0 0 1
-15.767146 -18.933620 -13.376809 28.036117 0.876397 2.068180 0.113106 -0.015568 -556731.000000 0 0 1
-16.968646 -19.586220 -13.977309 29.443507 0.856883 2.065438 0.121999 -0.016487 -1596030.000000 0 0 1
-18.167646 -19.439420 -13.326509 29.758196 0.819203 2.035129 0.115550 -0.015830 -1508370.000000 0 0 1
-19.185246 -19.760820 -14.203109 30.988578 0.800176 2.046916 0.078125 -0.016538 -628765.000000 0 0 1
-20.607446 -19.477720 -13.650609 31.470422 0.757222 2.019458 0.053463 -0.006533 866238.000000 0 0 1
-21.566146 -19.998420 -14.625409 32.847192 0.747698 2.032256 0.073176 -0.016571 786143.000000 0 0 1
-22.920846 -19.790820 -14.233709 33.461025 0.712246 2.010180 0.058212 -0.013314 421839.000000 0 0 1
-23.920946 -20.472520 -15.206709 34.965407 0.707875 2.020732 0.080910 -0.026064 -95341.000000 0 0 1
-24.082746 -19.918520 -16.497509 35.339692 0.691040 2.056495 0.095669 -0.036907 -61866.200000 0 0 1
-24.642546 -20.765420 -17.418509 36.631437 0.700220 2.066337 0.116436 -0.037138 -161075.000000 0 0 1
-24.906946 -20.150420 -18.827809 37.160217 0.680222 2.102109 0.113717 -0.032639 -995815.000000 0 0 1
-23.749746 -19.928720 -19.509109 36.630719 0.698140 2.132453 0.103408 -0.035675 -1137340.000000 0 0 1
-23.988446 -19.419720 -20.823909 37.231790 0.680534 2.164343 0.104395 -0.038792 -387942.000000 0 0 1
-22.804646 -18.721520 -21.499409 36.507146 0.687387 2.200505 0.083124 -0.026577 -574315.000000 0 0 1
-21.702546 -19.563820 -21.673309 36.379607 0.733617 2.209001 0.074168 -0.027122 -868894.000000 0 0 1
-20.752446 -18.796520 -22.370309 35.838581 0.735983 2.244899 0.078097 -0.024164 14504.200000 0 0 1
-19.400146 -19.538320 -22.574809 35.605246 0.788947 2.257550 0.090488 -0.024074 171826.000000 0 0 1
-19.471546 -20.733320 -23.288409 36.760871 0.816771 2.256879 0.062064 -0.017884 -970537.000000 0 0 1
-18.184946 -21.189020 -23.482909 36.484432 0.861547 2.270044 0.061352 -0.016398 -822101.000000 0 0 1
-18.053746 -22.577120 -24.074809 37.619948 0.896270 2.265227 0.055370 -0.016205 -311746.000000 0 0 1
-18.492546 -22.509920 -25.387829 38.642109 0.883065 2.287628 0.066942 -0.016866 40082.100000 0 0 1
-18.775646 -23.785320 -25.947029 39.893791 0.902565 2.278911 0.074473 -0.029573 -2772.440000 0 0 1
-18.650046 -23.780720 -27.474709 40.843683 0.905733 2.308620 0.067597 -0.014235 71901.700000 0 0 1
-17.318246 -23.551120 -27.874639 40.392726 0.936739 2.332410 0.073410 -0.018211 -124591.000000 0 0 1
-17.185546 -23.421820 -29.253739 41.227489 0.937783 2.359682 0.088341 -0.020488 -681155.000000 0 0 1
-15.778846 -23.300420 -29.818549 41.000334 0.975543 2.385141 0.073610 -0.033589 -664773.000000 0 0 1
-14.965646 -24.420420 -29.622869 41.204876 1.020994 2.373039 0.084014 -0.033530 -489029.000000 0 0 1
-13.730246 -24.243020 -30.254399 41.128728 1.055480 2.397352 0.096327 -0.036633 -242816.000000 0 0 1
-12.652346 -25.262520 -29.838899 41.093024 1.106481 2.383474 0.107265 -0.027836 -844565.000000 0 0 1
-12.911746 -26.604320 -30.193949 42.263194 1.118957 2.366601 0.097029 -0.024032 -63581.100000 0 0 1
-11.989546 -27.632520 -29.905909 42.446068 1.161418 2.352603 0.111403 -0.023142 -571263.000000 0 0 1
-10.634546 -27.618320 -30.619859 42.584515 1.203240 2.373213 0.124878 -0.032456 -564469.000000 0 0 1
-9.871346 -26.552220 -30.151129 41.370937 1.214860 2.387364 0.157894 -0.045789 502830.000000 0 0 1
-8.585046 -26.348420 -30.781629 41.418002 1.255816 2.408629 0.147268 -0.031503 1505400.000000 0 0 1
-7.634246 -25.270020 -30.067409 40.011307 1.277408 2.421088 0.187110 -0.039344 514523.000000 0 0 1
-7.966846 -23.886420 -30.191159 39.313328 1.248868 2.446450 0.185916 -0.033888 -93893.500000 0 0 1
-8.997446 -23.546820 -29.291729 38.644691 1.205808 2.431000 0.167376 -0.025822 -187100.000000 0 0 1
-9.341246 -22.058020 -29.166279 37.742376 1.170209 2.453995 0.164262 -0.048033 37197.000000 0 0 1
-10.078846 -21.669920 -30.320349 38.606892 1.135450 2.474075 0.147589 -0.044614 -54073.400000 0 0 1
-10.602746 -20.399220 -30.202339 37.956918 1.091464 2.490960 0.135550 -0.049703 -143029.000000 0 0 1
-11.473346 -20.006020 -31.411489 38.968707 1.050094 2.508277 0.099324 -0.034081 -88699.700000 0 0 1
-11.823646 -18.640220 -31.352649 38.343773 1.005531 2.528153 0.101182 -0.045170 74251.300000 0 0 1
-12.625646 -18.347120 -32.480979 39.383216 0.968065 2.540542 0.102000 -0.030507 -317865.000000 0 0 1
-13.577146 -17.139120 -32.345809 39.042792 0.900846 2.547168 0.107007 -0.039614 -499180.000000 0 0 1
-13.136146 -15.785720 -32.413559 38.371683 0.876755 2.576849 0.093228 -0.037537 -524953.000000 0 0 1
-12.240846 -15.323420 -31.440349 37.055917 0.896768 2.583859 0.080073 -0.029181 -247950.000000 0 0 1
-11.907246 -13.767620 -31.547049 36.421781 0.857731 2.618261 0.063776 -0.020386 -416465.000000 0 0 1
-11.245146 -13.249620 -32.715249 37.044476 0.867049 2.653298 0.063681 -0.026907 311734.000000 0 0 1
-11.791246 -13.488320 33.788643 38.244485 0.852430 0.487534 0.069203 -0.030499 -205168.000000 0 0 1
-12.229446 -12.127120 33.118904 37.329455 0.781197 0.479543 0.063351 -0.020817 -650639.000000 0 0 1
-13.386246 -11.614820 33.656859 38.037873 0.714662 0.484678 0.057008 -0.012115 -1080480.000000 0 0 1
-13.990146 -10.691620 32.773957 37.204397 0.652543 0.493002 0.059472 -0.023783 383400.000000 0 0 1
-15.078546 -9.848120 33.494960 38.029730 0.578566 0.493337 0.072288 -0.021498 613174.000000 0 0 1
-14.469646 -8.818520 -33.522439 37.561827 0.547339 2.673566 0.058155 -0.022822 -179810.000000 0 0 1
-15.380946 -8.374020 -32.605989 37.011460 0.498565 2.648705 0.069088 -0.027806 -221304.000000 0 0 1
-14.796546 -7.245920 -31.680719 35.708669 0.455377 2.662036 0.068615 -0.034371 -171905.000000 0 0 1
-14.777146 -5.953720 -32.307089 36.021643 0.383004 2.683460 0.066366 -0.043688 851179.000000 0 0 1
-16.021846 -5.230620 -32.188589 36.334063 0.315559 2.659241 0.078567 -0.037833 721673.000000 0 0 1
-16.345146 -4.692320 -30.787049 35.171352 0.279559 2.636944 0.077821 -0.042130 -387659.000000 0 0 1
-16.899946 -5.656920 -29.914459 34.820737 0.323007 2.604303 0.089091 -0.047267 -158852.000000 0 0 1
-17.089546 -5.194320 -28.561209 33.686439 0.295074 2.582723 0.078636 -0.043608 500563.000000 0 0 1
-15.841946 -4.614920 -27.798549 32.326831 0.283466 2.605913 0.071516 -0.041214 673209.000000 0 0 1
-15.312746 -3.395720 -28.287229 32.344681 0.218226 2.635315 0.062988 -0.033493 -861789.000000 0 0 1
-14.016646 -3.098720 -27.893649 31.370752 0.217575 2.666305 0.054371 -0.034809 -568437.000000 0 0 1
-13.669046 -1.688920 -28.383639 31.548791 0.122935 2.689819 0.031587 -0.019037 -294390.000000 0 0 1
-13.598946 -1.768920 -29.773379 32.779788 0.129351 2.709962 0.030236 -0.019645 153013.000000 0 0 1
-13.759746 -0.434920 -30.279739 33.262326 0.031598 2.714880 0.029232 -0.021820 4821.980000 0 0 1
-13.931746 -0.467920 -31.825459 34.744385 0.033574 2.728761 0.020677 -0.019849 -755034.000000 0 0 1
-15.132446 -1.027920 -32.290759 35.675491 0.067824 2.702469 0.014583 -0.011376 103754.000000 0 0 1
-15.116446 -1.127920 -33.688639 36.941894 0.074477 2.718774 0.012031 -0.010137 -139242.000000 0 0 1
-16.539546 -1.467920 33.666396 37.538482 0.088520 0.458200 0.014705 -0.007867 -293760.000000 0 0 1
-16.639446 -1.978920 32.366255 36.446698 0.118373 0.477724 0.032343 -0.022038 39729.000000 0 0 1
-17.858546 -2.003920 31.646237 36.392687 0.111743 0.516452 0.037160 -0.017890 -193277.000000 0 0 1
-17.728246 -1.897920 30.126317 35.006968 0.106650 0.534388 0.050244 -0.015510 -171417.000000 0 0 1
-17.242946 -0.683920 29.693047 34.343325 0.039643 0.526454 0.032787 0.002075 5326.220000 0 0 1
-17.249846 -0.557920 28.283307 33.133275 0.032332 0.547896 0.034780 -0.014235 -168956.000000 0 0 1
-16.647146 0.807080 27.733317 32.356077 -0.048444 0.541127 0.033246 -0.011416 226552.000000 0 0 1
-17.406746 1.999080 27.926957 32.968258 -0.114344 0.560318 0.033803 -0.005616 -646109.000000 0 0 1
-18.697446 2.026080 27.435457 33.262649 -0.107940 0.600925 0.048885 -0.017928 -887639.000000 0 0 1
-18.939746 2.890080 26.162477 32.427485 -0.151425 0.632081 0.064599 -0.026812 -595007.000000 0 0 1
-18.612446 4.259080 26.352827 32.542809 -0.224957 0.627003 0.066180 -0.022609 230398.000000 0 0 1
-19.046246 5.044080 25.255347 32.031778 -0.258890 0.662517 0.072402 -0.018852 -576747.000000 0 0 1
-18.792946 6.535080 25.568977 32.398375 -0.334661 0.661282 0.067754 -0.017387 7955.810000 0 0 1
-17.473046 6.995080 25.424687 31.633103 -0.380796 0.637247 0.062893 -0.018232 -233987.000000 0 0 1
-17.000146 7.084080 24.090707 30.324105 -0.394826 0.652710 0.057190 -0.008035 -96999.000000 0 0 1
-15.744846 7.993080 24.006717 29.801208 -0.469759 0.634173 0.064383 -0.006935 -620034.000000 0 0 1
-14.629946 7.559080 24.664687 29.656733 -0.476907 0.588683 0.057883 -0.009130 -1107930.000000 0 0 1
-13.508746 8.119080 24.034347 28.741182 -0.541172 0.580417 0.071799 -0.009314 -65737.500000 0 0 1
-12.115246 7.860080 24.670867 28.586916 -0.575514 0.529593 0.048217 -0.008773 404571.000000 0 0 1
-11.137846 8.594080 23.923267 27.753064 -0.657189 0.531585 0.038533 -0.011415 858741.000000 0 0 1
-9.858546 8.681080 24.584727 27.874018 -0.721973 0.490719 0.046874 -0.014089 767437.000000 0 0 1
-9.649246 10.049080 25.308177 28.889372 -0.805693 0.503213 0.061758 -0.027796 -927977.000000 0 0 1
-10.501546 10.241080 26.400747 30.202014 -0.772842 0.507137 0.044639 -0.022893 65911.000000 0 0 1
-10.504946 11.573080 27.000657 31.198166 -0.833740 0.524735 0.055562 -0.027498 -414295.000000 0 0 1
-11.164146 12.632080 26.079847 31.054244 -0.847008 0.573852 0.043109 -0.028289 318938.000000 0 0 1
-12.575746 12.669080 25.880047 31.439336 -0.789095 0.603817 0.055703 -0.031565 623548.000000 0 0 1
-12.928446 11.829080 24.764637 30.337421 -0.741022 0.615809 0.049168 -0.026976 -19222.500000 0 0 1
-14.454746 11.691080 24.509017 30.762200 -0.680087 0.648940 0.045099 -0.019375 267877.000000 0 0 1
-15.072746 12.886080 24.051337 31.172192 -0.707347 0.689500 0.045196 -0.024535 344564.000000 0 0 1
-16.334946 12.712080 23.402037 31.242324 -0.661315 0.724171 0.051484 -0.012215 520119.000000 0 0 1
-16.406146 12.033080 21.975257 29.947764 -0.632824 0.746918 0.033139 0.005684 -283859.000000 0 0 1
-16.084046 10.633080 21.822057 29.119772 -0.584135 0.723656 0.035990 0.009509 -35714.000000 0 0 1
-16.187146 10.226080 20.448757 28.013355 -0.563432 0.752526 0.054189 -0.002011 -149111.000000 0 0 1
-16.660446 8.755080 20.356657 27.723914 -0.483840 0.746215 0.061049 -0.003812 503043.000000 0 0 1
-17.985746 8.674080 20.868457 28.882854 -0.449368 0.763355 0.057071 0.010486 -110512.000000 0 0 1
-18.506046 7.364080 20.736857 28.752750 -0.378719 0.765245 0.050827 0.007633 909365.000000 0 0 1
-20.038646 7.146080 21.000757 29.893906 -0.342556 0.791879 0.063862 0.002177 958514.000000 0 0 1
-20.479146 7.323080 22.336757 31.176171 -0.343418 0.772069 0.069299 -0.008322 -244313.000000 0 0 1
-21.864846 7.152080 22.511557 32.186860 -0.316134 0.796236 0.078083 -0.008731 74694.900000 0 0 1
-22.385046 7.935080 23.773757 33.604275 -0.340661 0.784895 0.095523 0.000473 -480683.000000 0 0 1
-22.417046 9.382080 23.772417 33.995223 -0.396373 0.796397 0.087947 -0.005214 -479252.000000 0 0 1
-21.225346 10.074080 23.959617 33.556902 -0.443142 0.775602 0.070618 -0.004415 -482560.000000 0 0 1
-20.457446 9.899080 25.298877 34.007824 -0.450674 0.731889 0.063173 -0.013315 -311350.000000 0 0 1
-20.772046 10.836080 26.303047 35.224265 -0.480830 0.727663 0.079985 -0.009546 -152651.000000 0 0 1
-20.559146 10.237080 27.555477 35.871725 -0.461993 0.694823 0.087308 -0.015622 -350025.000000 0 0 1
-31.923046 -14.412775 20.595657 40.632377 0.424088 1.039237 0.083258 -0.017287 249683.000000 0 0 1
-31.113396 -15.599275 20.709857 40.500357 0.464742 1.034041 0.081602 -0.010131 336544.000000 0 0 1
-31.442066 -16.628275 19.801857 40.708925 0.486464 1.062802 0.089182 -0.007511 -201535.000000 0 0 1
-31.209546 -16.331375 18.285157 39.687486 0.482099 1.091980 0.100534 -0.013983 -61011.700000 0 0 1
-32.016826 -15.334775 17.706157 39.670398 0.446674 1.108134 0.099978 -0.019392 -27710.900000 0 0 1
-31.551446 -15.156475 16.363957 38.639249 0.447823 1.133484 0.090829 -0.017920 -1021020.000000 0 0 1
-32.248226 -14.063175 15.566957 38.471432 0.411228 1.154215 0.101006 -0.016170 -654036.000000 0 0 1
-33.551816 -14.423575 15.178957 39.549521 0.406005 1.176892 0.113664 -0.010742 628428.000000 0 0 1
-34.604996 -14.258575 16.146257 40.761677 0.390841 1.163516 0.103702 -0.011078 -178128.000000 0 0 1
-34.990628 -12.862675 16.689357 40.845160 0.352270 1.149876 0.106020 -0.010325 -567798.000000 0 0 1
-36.115166 -12.965975 17.535957 42.189234 0.344685 1.142139 0.094130 -0.011758 -25692.000000 0 0 1
-36.651076 -11.707875 17.818357 42.401292 0.309196 1.137096 0.087108 -0.004418 407095.000000 0 0 1
37.026313 -11.685675 18.818957 43.146912 -0.305711 1.119469 0.076676 0.003886 289059.000000 0 0 1
-37.427526 -12.208475 20.090457 44.198337 0.315308 1.098927 0.072439 0.000287 89151.200000 0 0 1
36.822983 -11.629475 21.233057 44.068350 -0.305908 1.068065 0.063612 -0.001513 -1155780.000000 0 0 1
37.378243 -12.059175 22.613257 45.320152 -0.312083 1.048390 0.066649 -0.005370 389676.000000 0 0 1
-36.215086 -11.561375 22.968727 44.415766 0.309015 1.027302 0.063774 -0.003113 296575.000000 0 0 1
-35.148822 -12.183375 22.292757 43.368667 0.333663 1.030921 0.054012 -0.006249 -808262.000000 0 0 1
-33.790946 -11.457975 22.293257 42.072586 0.326917 1.012342 0.077032 -0.006918 98462.500000 0 0 1
-33.752026 -10.324075 21.434957 41.294590 0.296843 1.025029 0.094681 -0.014314 185043.000000 0 0 1
-32.392506 -9.962875 21.270557 40.012122 0.298385 1.010305 0.102180 -0.022552 -132123.000000 0 0 1
-32.248336 -8.794775 20.288157 39.101311 0.266246 1.025278 0.126662 -0.011413 -74082.700000 0 0 1
-32.647676 -8.941975 18.958757 38.797733 0.267337 1.060247 0.126580 -0.004859 -82574.000000 0 0 1
-34.038122 -8.904075 18.747857 39.866758 0.255858 1.081208 0.117301 -0.011466 -460124.000000 0 0 1
-34.382247 -8.479375 17.319357 39.420792 0.241796 1.115926 0.123976 -0.008831 -625975.000000 0 0 1
-35.756088 -8.339575 17.110257 40.506879 0.229139 1.134701 0.084031 -0.007181 -273785.000000 0 0 1
-36.119526 -8.117175 15.766057 40.237759 0.221058 1.168185 0.093647 -0.009503 -792927.000000 0 0 1
37.254043 -8.106675 15.581557 41.186974 -0.214265 1.182823 0.083768 -0.015488 -907468.000000 0 0 1
36.631773 -9.382175 15.689557 40.939885 -0.250731 1.177501 0.079254 0.003401 87978.600000 0 0 1
35.259223 -9.108975 15.867157 39.723455 -0.252815 1.159890 0.062423 -0.003985 -148734.000000 0 0 1
34.290763 -10.283775 15.796257 39.129710 -0.291364 1.155250 0.056598 0.000553 -29628.000000 0 0 1
34.271483 -11.068775 16.993257 39.822395 -0.312398 1.129927 0.050436 -0.004792 277392.000000 0 0 1
33.165273 -11.973975 16.965757 39.129890 -0.346476 1.122340 0.065639 -0.003737 458266.000000 0 0 1
32.859663 -12.456075 18.407557 39.670511 -0.362333 1.088278 0.064137 -0.005130 6115.090000 0 0 1
33.724103 -13.461475 18.885757 40.929186 -0.379786 1.091195 0.056320 0.003825 -131331.000000 0 0 1
33.719153 -13.451175 20.302757 41.594679 -0.379573 1.060874 0.063726 -0.000974 -59077.500000 0 0 1
34.017983 -14.829375 20.965557 42.622624 -0.411090 1.056539 0.053234 0.004662 44065.000000 0 0 1
34.352633 -14.632675 22.331557 43.507666 -0.402679 1.031796 0.046117 -0.000258 132650.000000 0 0 1
35.019143 -15.811775 22.807967 44.682837 -0.424116 1.035098 0.041603 0.002243 239731.000000 0 0 1
35.279123 -15.773275 24.325717 45.663478 -0.420439 1.008988 0.063437 0.002201 487309.000000 0 0 1
36.443193 -14.997975 24.613307 46.463539 -0.390418 1.012510 0.068041 0.001279 238378.000000 0 0 1
36.710703 -14.963575 25.986007 47.401022 -0.387048 0.990566 0.065883 -0.003761 -401820.000000 0 0 1
-36.994886 -13.987575 26.122697 47.399041 0.361481 0.987087 0.069257 -0.010899 -376640.000000 0 0 1
-35.792952 -14.549375 25.639657 46.370375 0.386086 0.984918 0.047319 -0.009368 233805.000000 0 0 1
-34.691952 -13.696575 25.957927 45.441629 0.376020 0.962785 0.054717 -0.015566 317165.000000 0 0 1
-33.278996 -14.258475 25.779117 44.445006 0.404791 0.952040 0.051045 -0.010763 -287370.000000 0 0 1
-32.854056 -14.370775 24.441797 43.397115 0.412337 0.972528 0.045905 -0.008830 1294510.000000 0 0 1
-31.516846 -14.902075 24.184337 42.429536 0.441675 0.964305 0.059383 -0.017675 1427410.000000 0 0 1
-31.179506 -16.414575 24.517547 42.926798 0.484586 0.962893 0.066875 -0.012811 -534229.000000 0 0 1
-31.149626 -16.598975 25.883617 43.769702 0.489603 0.938053 0.065010 -0.010006 206356.000000 0 0 1
-30.777256 -17.929075 26.244117 44.243021 0.527485 0.935792 0.069156 -0.015942 -121796.000000 0 0 1
-30.393856 -18.010175 27.763667 44.932995 0.534931 0.904740 0.076460 -0.030294 -721372.000000 0 0 1
-29.209506 -17.378075 28.065627 44.078023 0.536695 0.880551 0.077119 -0.028976 -722082.000000 0 0 1
-28.739826 -17.612975 29.393877 44.723534 0.549809 0.853652 0.093966 -0.037136 228426.000000 0 0 1
-27.487226 -16.831875 29.827757 43.915313 0.549453 0.824109 0.080145 -0.033116 34512.600000 0 0 1
-27.764806 -15.512275 30.317967 43.939666 0.509500 0.809320 0.095526 -0.036170 -438558.000000 0 0 1
-26.614026 -14.763075 30.095047 42.801479 0.506452 0.791005 0.085396 -0.028847 -737426.000000 0 0 1
-26.345906 -13.418875 30.756367 42.662947 0.471087 0.765674 0.097295 -0.028352 -318639.000000 0 0 1
-25.721526 -13.570075 32.017555 43.253528 0.485465 0.737384 0.101517 -0.032526 200132.000000 0 0 1
-25.504166 -12.285575 32.594455 43.171708 0.448908 0.715149 0.096058 -0.022332 -17436.300000 0 0 1
-24.733246 -12.271975 -33.879339 43.705199 0.460582 2.457794 0.106652 -0.025212 235654.000000 0 0 1
-23.343346 -12.541475 -33.879099 43.011553 0.493010 2.477821 0.072706 -0.014650 348589.000000 0 0 1
-22.917146 -13.915175 -33.778889 43.125874 0.545693 2.470693 0.083748 -0.021980 93045.200000 0 0 1
-23.037346 -14.482875 -32.307879 42.240644 0.561234 2.441609 0.094947 -0.024854 -65537.800000 0 0 1
-21.938846 -14.170875 -31.465139 40.892317 0.573506 2.448797 0.066487 -0.015351 94733.400000 0 0 1
-22.080546 -14.987975 -30.299779 40.376558 0.596346 2.419509 0.076835 -0.018138 703362.000000 0 0 1
-20.731246 -15.259775 -29.530759 39.175387 0.634530 2.424636 0.073561 -0.016854 1019990.000000 0 0 1
-20.176346 -14.172175 -28.788459 37.903968 0.612345 2.433356 0.081517 -0.022789 262225.000000 0 0 1
-20.939246 -13.921575 -27.598379 37.335409 0.586748 2.402680 0.091104 -0.020661 4491.570000 0 0 1
-20.619046 -12.680875 -26.777289 36.096715 0.551382 2.406578 0.088199 -0.021741 232195.000000 0 0 1
-19.294446 -12.780075 -26.260979 35.003499 0.585023 2.419219 0.084515 -0.023486 314026.000000 0 0 1
-18.920146 -11.598775 -25.562219 33.851595 0.549951 2.426643 0.088520 -0.032987 -30676.700000 0 0 1
-17.453046 -11.730975 -25.117169 32.758155 0.591786 2.444552 0.103311 -0.034358 -704122.000000 0 0 1
-17.173046 -12.712475 -24.093209 32.202534 0.637237 2.416107 0.105341 -0.033919 303996.000000 0 0 1
-15.819546 -12.659775 -23.654709 31.145998 0.674900 2.433307 0.119250 -0.032055 341662.000000 0 0 1
-14.874746 -13.484575 -24.561609 31.723248 0.736417 2.456320 0.079866 -0.026335 -296263.000000 0 0 1
-14.015546 -12.624175 -25.347899 31.596222 0.733216 2.501842 0.067229 -0.032045 739686.000000 0 0 1
-13.104846 -13.398375 -26.120619 32.148719 0.796473 2.519213 0.072134 -0.032406 -488247.000000 0 0 1
-12.168346 -12.692075 -27.082869 32.289924 0.806462 2.565763 0.064214 -0.032652 -333795.000000 0 0 1
-12.837646 -12.075975 -28.134739 33.199365 0.754835 2.581956 0.094294 -0.038485 -695192.000000 0 0 1
-12.007646 -11.210275 -28.788279 33.145419 0.751069 2.623055 0.078636 -0.038804 -482526.000000 0 0 1
-12.763246 -10.407275 -29.886029 34.123108 0.684067 2.637948 0.047121 -0.031431 416940.000000 0 0 1
-11.929746 -9.491375 -30.602479 34.189424 0.672056 2.679421 0.045433 -0.024631 217623.000000 0 0 1
-11.317846 -9.984775 -31.769469 35.172269 0.722902 2.698088 0.058852 -0.018723 37484.100000 0 0 1
-10.623546 -8.870275 -32.600369 35.416459 0.695700 2.740120 0.046490 -0.021224 -339950.000000 0 0 1
-9.422346 -8.455675 -32.023619 34.435319 0.731380 2.765112 0.035420 -0.021621 -605578.000000 0 0 1
-8.969846 -7.249075 -32.574089 34.555441 0.679697 2.801314 0.035806 -0.024947 -1114590.000000 0 0 1
-7.560846 -6.939175 -32.157979 33.755801 0.742551 2.832682 0.053947 -0.018932 -1294610.000000 0 0 1
-7.404346 -6.869375 -30.766039 32.381504 0.747936 2.824389 0.040260 -0.016592 -38107.600000 0 0 1
-7.670346 -5.614575 -30.100449 31.565720 0.631871 2.835706 0.032457 -0.015080 -105248.000000 0 0 1
-6.839646 -4.333575 -30.422229 31.481306 0.564757 2.881470 0.047341 -0.022022 -645151.000000 0 0 1
-5.497846 -4.346675 -30.053809 30.860190 0.668992 2.912487 0.092441 -0.024550 -852652.000000 0 0 1
-4.974946 -3.138575 -30.423849 30.987277 0.562814 2.950606 0.100443 -0.041339 -559976.000000 0 0 1
-3.469946 -3.035475 -30.154209 30.504605 0.718711 2.989878 0.096844 -0.030861 -1213860.000000 0 0 1
-2.714646 -3.808675 -31.046509 31.396831 0.951562 2.992069 0.107735 -0.031777 58543.900000 0 0 1
-1.300346 -3.812075 -30.902849 31.164224 1.242061 3.011987 0.116554 -0.026233 900417.000000 0 0 1
-0.629846 -2.387775 -31.177509 31.275153 1.312892 3.062552 0.110571 -0.025548 -1079940.000000 0 0 1
0.770754 -2.363675 -31.048669 31.148047 -1.255585 3.061690 0.114371 -0.020117 -58885.200000 0 0 1
1.379354 -1.115075 -31.368929 31.419034 -0.679844 3.085110 0.069856 -0.014773 99333.600000 0 0 1
1.391554 -0.109175 -30.201919 30.234157 -0.078295 3.095409 0.074419 -0.025699 -919974.000000 0 0 1
0.132454 0.375625 -29.866189 29.868844 1.231786 3.128257 0.097164 -0.024383 -1045530.000000 0 0 1
0.132654 1.325525 -28.894299 28.924991 1.471052 3.095521 0.109561 -0.039502 -152430.000000 0 0 1
-1.201746 1.618525 -28.199779 28.271741 -0.932116 3.070228 0.100020 -0.033945 -49308.600000 0 0 1
-2.247646 2.269025 -28.862859 29.039025 -0.790132 3.031387 0.101371 -0.053990 -8952.100000 0 0 1
-2.087146 3.667325 -28.573069 28.882966 -1.053393 2.994973 0.117757 -0.044299 501382.000000 0 0 1
-3.319546 4.527825 -29.055839 29.593282 -0.938171 2.950720 0.143959 -0.046965 598563.000000 0 0 1
-3.310746 4.663325 -30.449209 30.981639 -0.953421 2.955933 0.147394 -0.053391 -217887.000000 0 0 1
-4.530846 5.135725 -30.940269 31.689185 -0.847891 2.923754 0.155384 -0.046053 -710311.000000 0 0 1
-4.445246 5.543925 -32.443509 33.212597 -0.894945 2.925971 0.163147 -0.052194 -52102.100000 0 0 1
-4.207846 4.663625 -33.525549 34.108911 -0.836729 2.956380 0.171450 -0.058779 405515.000000 0 0 1
-2.945546 4.019325 -33.444619 33.813810 -0.938365 2.993685 0.179065 -0.065688 -103733.000000 0 0 1
-2.485146 3.436925 33.022465 33.293718 -0.944753 0.127737 0.159688 -0.060185 -249417.000000 0 0 1
-3.305846 2.389125 32.490064 32.745089 -0.625797 0.124886 0.158582 -0.061788 185553.000000 0 0 1
-2.985246 1.876925 31.197837 31.396490 -0.561280 0.112551 0.149100 -0.052038 -87736.100000 0 0 1
-2.908846 2.884925 30.020047 30.298307 -0.781270 0.135633 0.140339 -0.049189 381054.000000 0 0 1
-4.134546 3.596025 29.828707 30.327836 -0.715849 0.181676 0.130021 -0.049902 436323.000000 0 0 1
-3.894846 4.593525 28.871737 29.493178 -0.867523 0.205646 0.126357 -0.046655 432618.000000 0 0 1
-5.180246 5.442725 28.748887 29.714588 -0.810102 0.255643 0.120203 -0.033761 255317.000000 0 0 1
-5.040246 6.282125 27.644717 28.794089 -0.894645 0.283497 0.112950 -0.028984 651683.000000 0 0 1
-6.261346 7.031725 27.474287 29.042832 -0.843287 0.330155 0.097856 -0.022011 604193.000000 0 0 1
-6.358646 7.722025 26.079847 27.932427 -0.881924 0.366251 0.094817 -0.021354 -272227.000000 0 0 1
-5.526646 8.846625 26.050917 28.061662 -1.012400 0.380860 0.103952 -0.019156 -169760.000000 0 0 1
-5.582246 9.581125 24.889967 27.248301 -1.043247 0.419113 0.094602 -0.024383 15685.700000 0 0 1
-4.522546 10.707925 24.863057 27.446033 -1.171168 0.437322 0.092430 -0.026420 -1195430.000000 0 0 1
-4.696746 11.578025 23.825057 26.902480 -1.185420 0.482994 0.093009 -0.029703 451560.000000 0 0 1
-3.885146 12.767125 23.859847 27.338364 -1.275391 0.509967 0.073642 -0.021571 -85175.000000 0 0 1
-2.331946 12.635025 23.911397 27.144737 -1.388288 0.493067 0.056032 -0.010888 -343591.000000 0 0 1
-1.772646 11.990825 25.022207 27.803472 -1.424026 0.451102 0.063946 -0.012565 -362895.000000 0 0 1
-1.943546 12.775425 26.157457 29.175357 -1.419822 0.458856 0.077258 -0.011554 -1032780.000000 0 0 1
-1.125546 12.339025 27.396277 30.067830 -1.479830 0.424732 0.080064 -0.015004 -52375.100000 0 0 1
0.255454 12.519225 27.216887 29.959226 1.550394 0.431201 0.069627 -0.005103 -753051.000000 0 0 1
0.979854 12.313325 28.373787 30.945919 1.491387 0.410596 0.076779 -0.019201 516535.000000 0 0 1
2.497654 12.647325 28.195577 31.002963 1.375820 0.428842 0.065160 -0.017260 645878.000000 0 0 1
2.847754 14.022325 28.109977 31.542133 1.370434 0.470839 0.059704 -0.018117 -822358.000000 0 0 1
4.209254 14.126825 27.880707 31.537579 1.281210 0.486345 0.075035 -0.019818 -547210.000000 0 0 1
4.784454 15.602325 28.131987 32.522796 1.273250 0.525660 0.072424 -0.020639 -86146.000000 0 0 1
4.782554 16.080425 29.500737 33.937390 1.281713 0.517074 0.078382 -0.015002 452675.000000 0 0 1
3.763954 17.013525 29.876307 34.586430 1.353070 0.528001 0.059824 -0.011145 137304.000000 0 0 1
3.921554 18.446025 29.379057 34.910793 1.361319 0.570656 0.066433 -0.009010 -387730.000000 0 0 1
4.925354 19.145225 30.041207 35.962104 1.318994 0.582014 0.086680 -0.012688 -281344.000000 0 0 1
5.563554 20.047225 29.150007 35.812949 1.300087 0.619874 0.078097 -0.013502 -536658.000000 0 0 1
6.655254 20.862525 29.791637 36.974032 1.261996 0.633864 0.078328 -0.011818 -703282.000000 0 0 1
6.217854 21.772325 30.803297 38.230080 1.292616 0.633882 0.071100 -0.027134 70117.100000 0 0 1
7.247954 22.582025 31.355727 39.314913 1.260222 0.647568 0.054864 -0.030044 14903.200000 0 0 1
7.597654 23.932325 30.626707 39.603987 1.263395 0.686729 0.054183 -0.023223 54630.200000 0 0 1
8.086054 23.806025 29.309007 38.615140 1.243359 0.709016 0.044869 -0.019712 191762.000000 0 0 1
8.396854 25.041125 28.676347 38.985870 1.247257 0.744307 0.043383 -0.020171 19071.200000 0 0 1
8.879854 24.835225 27.247557 37.921888 1.227411 0.769127 0.074024 -0.027052 128063.000000 0 0 1
7.889754 24.301625 26.372367 36.719463 1.256872 0.769567 0.073771 -0.030068 454070.000000 0 0 1
8.447554 24.017725 25.118227 35.765034 1.232589 0.792156 0.089621 -0.035616 -160046.000000 0 0 1
28.595963 3.230825 6.444491 29.490656 0.112505 1.350492 0.205185 -0.018962 57449.900000 0 0 1
29.481963 3.991925 7.242491 30.619851 0.134584 1.332004 0.189697 -0.027150 322378.000000 0 0 1
29.084863 3.909225 8.595091 30.579190 0.133607 1.285881 0.172375 -0.013652 -333243.000000 0 0 1
29.719963 4.934025 9.483591 31.584162 0.164517 1.265827 0.156511 -0.019704 -30237.900000 0 0 1
29.268163 6.318225 9.327691 31.361619 0.212611 1.268803 0.156180 -0.018945 485081.000000 0 0 1
30.017243 6.993825 8.288191 31.916180 0.228910 1.308099 0.174188 -0.038732 288160.000000 0 0 1
29.511363 8.438925 8.016791 31.723886 0.278522 1.315321 0.203869 -0.043250 849330.000000 0 0 1
28.244763 8.508925 7.342791 30.398767 0.292609 1.326835 0.172553 -0.041015 528677.000000 0 0 1
28.060663 9.765825 6.837991 30.488199 0.334915 1.344589 0.198261 -0.069953 115502.000000 0 0 1
26.980163 9.764725 5.726791 29.258762 0.347256 1.373795 0.171914 -0.057550 452618.000000 0 0 1
25.647363 9.736325 6.223591 28.130345 0.362817 1.347709 0.146873 -0.043378 614522.000000 0 0 1
24.705163 9.811625 5.124491 27.071636 0.378046 1.380353 0.172419 -0.043317 -54456.600000 0 0 1
23.470563 10.589825 5.514291 26.332853 0.423848 1.359828 0.101383 -0.027494 -701537.000000 0 0 1
23.676763 12.011025 5.570491 27.127186 0.469464 1.363978 0.098827 -0.018998 207403.000000 0 0 1
22.534563 12.690525 6.053391 26.561240 0.512889 1.340873 0.091274 -0.010799 -59170.600000 0 0 1
22.682463 14.180325 6.140991 27.446084 0.558719 1.345139 0.087082 -0.002555 -95869.500000 0 0 1
22.624663 14.877125 4.893691 27.516403 0.581673 1.391999 0.083476 -0.013945 322559.000000 0 0 1
22.655863 16.244525 5.166491 28.352519 0.622052 1.387549 0.117615 -0.005945 -169999.000000 0 0 1
22.184363 17.049125 3.923391 28.252639 0.655249 1.431478 0.116667 -0.026780 148290.000000 0 0 1
20.777063 16.966225 3.787391 27.090284 0.684772 1.430531 0.127729 -0.012630 145879.000000 0 0 1
20.267563 17.836225 2.803791 27.143439 0.721676 1.467316 0.134338 -0.019695 -145023.000000 0 0 1
18.764663 17.537525 2.616691 25.817134 0.751608 1.469267 0.112425 -0.020287 -33314.700000 0 0 1
17.991763 18.170925 3.628391 25.827336 0.790352 1.429844 0.116329 -0.026169 922535.000000 0 0 1
16.596063 18.165725 3.279291 24.822905 0.830522 1.438302 0.086319 -0.031111 1175140.000000 0 1 0
15.697863 19.139425 4.170191 25.102410 0.883868 1.403895 0.110261 -0.038912 590328.000000 0 0 1
14.313163 18.864825 4.041191 24.022479 0.921736 1.401767 0.113025 -0.039189 132111.000000 0 1 0
13.597663 20.106025 4.058491 24.609349 0.976156 1.405123 0.082585 -0.035396 -46889.300000 0 1 0
12.127663 19.830225 3.658891 23.530948 1.021910 1.414670 0.060714 -0.033879 -206689.000000 0 1 0
11.502063 19.203225 4.751391 22.883117 1.031138 1.361637 0.046199 -0.028103 108256.000000 0 1 0
10.090963 19.362125 4.581791 22.309465 1.090356 1.363950 0.032195 -0.014996 510521.000000 0 1 0
9.253363 18.751325 5.703791 21.674182 1.112380 1.304499 0.026068 -0.013875 -450612.000000 0 1 0
9.295263 19.456225 6.952591 22.655797 1.125104 1.258884 0.053332 -0.020858 -200680.000000 0 1 0
8.677363 18.694325 7.987791 22.103828 1.136221 1.201053 0.053153 -0.018349 52774.700000 0 1 0
7.641463 19.617325 8.699091 22.779499 1.199352 1.178964 0.058863 -0.018156 688057.000000 0 1 0
6.528463 20.050725 7.911291 22.522010 1.256024 1.211870 0.048325 -0.016843 346611.000000 0 1 0
6.715863 21.302025 7.207391 23.469674 1.265391 1.258659 0.060655 -0.011481 -190243.000000 0 1 0
5.477863 21.650325 6.311891 23.207403 1.322982 1.295349 0.051111 -0.000528 1759640.000000 0 1 0
4.183763 21.837025 6.962991 23.298987 1.381500 1.267305 0.041465 0.000998 1181640.000000 0 1 0
3.992063 22.806225 7.924391 24.471544 1.397509 1.241031 0.051267 -0.009295 -665932.000000 0 1 0
3.953263 24.211825 7.324791 25.602604 1.408946 1.280647 0.073143 -0.008300 -969190.000000 0 0 1
2.829863 24.464725 6.573491 25.490031 1.455637 1.309964 0.058759 -0.007357 -757655.000000 0 0 1
2.878863 25.578525 5.723291 26.368634 1.458718 1.352006 0.071632 -0.014080 147462.000000 0 0 1
1.614463 25.744025 4.830691 26.243035 1.508166 1.385665 0.069806 -0.013862 511530.000000 0 0 1
0.396863 26.095225 5.447991 26.660812 1.555589 1.365002 0.091649 -0.016073 -172689.000000 0 0 1
-0.679537 26.151225 4.548991 26.552621 -1.544817 1.398627 0.090593 -0.017413 -1124060.000000 0 0 1
-1.959537 26.476525 5.254491 27.063922 -1.496921 1.375404 0.111103 -0.021468 -1749400.000000 0 0 1
-2.933837 26.665125 4.302791 27.168922 -1.461212 1.411755 0.128358 -0.032481 -735017.000000 0 0 1
-4.017237 27.347825 4.920491 28.075843 -1.424945 1.394629 0.121988 -0.032423 31075.600000 0 0 1
-5.093537 27.818725 3.912791 28.550578 -1.389705 1.433316 0.138836 -0.033833 -70897.700000 0 0 1
-4.537337 28.810725 3.110291 29.331199 -1.414592 1.464556 0.127935 -0.031074 299527.000000 0 0 1
-5.436937 29.276425 2.086091 29.849977 -1.387178 1.500853 0.133603 -0.046281 33863.700000 0 0 1
-4.944137 30.354325 1.023391 30.771365 -1.409333 1.537532 0.123539 -0.034848 -71162.500000 0 0 1
-4.560537 31.661025 1.518791 32.023831 -1.427738 1.523352 0.121402 -0.027027 761627.000000 0 0 1
-3.265237 31.626025 2.137191 31.865888 -1.467916 1.503678 0.117889 -0.030467 264448.000000 0 0 1
-2.520137 32.968325 2.083491 33.130084 -1.494504 1.507867 0.121225 -0.030969 -1239180.000000 0 0 1
-1.962537 33.349925 0.869391 33.418930 -1.512017 1.544778 0.100793 -0.016885 101703.000000 0 0 1
-0.984737 -33.437320 0.875591 33.463274 1.541355 1.544628 0.107867 -0.024257 -149591.000000 0 0 1
0.319463 -33.742020 1.616191 33.782215 -1.561329 1.522937 0.095049 -0.019542 -1314550.000000 0 0 1
0.257263 -33.698220 3.048091 33.836771 -1.563162 1.480592 0.083870 -0.013778 -187136.000000 0 0 1
1.531663 -33.812820 3.626491 34.041213 -1.525529 1.464061 0.069245 -0.013697 5705.840000 0 0 1
1.355063 -33.821620 5.160091 34.239811 -1.530753 1.419516 0.067078 -0.009471 99328.300000 0 0 1
0.583763 32.934925 5.689991 33.427924 1.553073 1.399747 0.098772 -0.022503 -259567.000000 0 0 1
0.051963 33.208325 6.985191 33.935062 1.569232 1.363474 0.129513 -0.028910 -383923.000000 0 0 1
0.981363 33.322725 8.185791 34.327456 1.541355 1.330015 0.107029 -0.019651 -114236.000000 0 0 1
1.598463 32.042325 8.502691 33.189779 1.520952 1.311724 0.099943 -0.028397 -185405.000000 0 0 1
2.607463 32.192225 9.435691 33.647741 1.489976 1.286559 0.106190 -0.030296 -547173.000000 0 0 1
3.396563 30.880325 9.608391 32.518492 1.461246 1.270844 0.109265 -0.039686 -519954.000000 0 0 1
2.680763 29.982825 10.345791 31.830672 1.481623 1.239757 0.134948 -0.039127 -316649.000000 0 0 1
3.306263 28.732025 10.515091 30.773817 1.456228 1.222082 0.105252 -0.042871 -680093.000000 0 0 1
2.754763 27.743425 11.520091 30.166187 1.471826 1.178959 0.114718 -0.046588 -978227.000000 0 0 1
2.791363 28.196625 12.866291 31.118850 1.472121 1.144549 0.108425 -0.040971 49792.500000 0 0 1
2.601963 27.224125 13.834691 30.648359 1.475510 1.102462 0.099635 -0.040399 404436.000000 0 0 1
1.067663 26.946125 13.987091 30.378813 1.531195 1.092325 0.097227 -0.041803 721590.000000 0 0 1
0.283163 27.962025 14.665891 31.575994 1.560670 1.087768 0.103869 -0.046490 346051.000000 0 0 1
-0.291337 28.872925 13.786191 31.996715 -1.560706 1.125348 0.117484 -0.047653 -742731.000000 0 0 1
-1.030237 29.934025 14.552491 33.299884 -1.536393 1.118521 0.101127 -0.045180 -355585.000000 0 0 1
-2.206137 29.496925 15.187091 33.250314 -1.496143 1.096458 0.091948 -0.036384 -257987.000000 0 0 1
-2.832937 30.574925 15.833291 34.547716 -1.478405 1.094712 0.084536 -0.032092 -296378.000000 0 0 1
-4.113937 30.152725 16.577491 34.654358 -1.435197 1.072002 0.072661 -0.025585 519220.000000 0 0 1
-5.142237 29.721625 15.684691 33.997458 -1.399479 1.091281 0.080344 -0.027996 548452.000000 0 0 1
-6.426937 29.541325 16.238991 34.317638 -1.356577 1.077880 0.070082 -0.017681 125246.000000 0 0 1
-7.555137 29.100625 15.276891 33.724025 -1.316783 1.100672 0.063464 -0.023446 583940.000000 0 0 1
-8.844637 29.059325 15.918791 34.294021 -1.275340 1.088081 0.056945 -0.020681 1065670.000000 0 0 1
-9.843137 28.855725 14.905791 33.937042 -1.242058 1.116067 0.056947 -0.020191 1373930.000000 0 0 1
-11.183237 28.223925 15.489091 34.081765 -1.193542 1.099021 0.047781 -0.013588 1374340.000000 0 0 1
-12.058437 29.102725 16.226391 35.435438 -1.177989 1.095149 0.049181 -0.019645 647880.000000 0 0 1
-12.116037 28.835925 17.594391 35.886927 -1.173022 1.058393 0.058578 -0.020780 -311723.000000 0 0 1
-12.798237 29.968225 18.403791 37.424443 -1.167182 1.056688 0.067140 -0.021955 -339840.000000 0 0 1
-14.184637 30.011025 18.150491 37.832604 -1.129269 1.070418 0.085079 -0.014951 -29275.400000 0 0 1
-14.773237 31.259225 18.491591 39.208757 -1.129305 1.079671 0.083577 -0.020433 300920.000000 0 0 1
-15.580937 31.132325 19.829291 40.064798 -1.106769 1.053041 0.083666 -0.020840 517065.000000 0 0 1
-14.707537 30.961825 20.927891 40.161211 -1.127330 1.022660 0.080296 -0.024504 223100.000000 0 0 1
-15.587037 30.640225 21.950091 40.787077 -1.100204 1.002540 0.070911 -0.022160 -210091.000000 0 0 1
-15.049437 30.791725 23.339091 41.464793 -1.116190 0.972948 0.056414 -0.010488 -785910.000000 0 0 1
-14.010437 29.857925 23.532891 40.516478 -1.132061 0.951057 0.057548 -0.014603 198210.000000 0 0 1
-13.675937 29.497025 24.836091 40.913777 -1.136659 0.918472 0.062066 -0.011684 -113015.000000 0 0 1
-13.001437 30.581325 25.717591 42.019630 -1.168805 0.912162 0.056580 -0.003245 -1099530.000000 0 0 1
-13.939537 31.486025 26.128991 43.225047 -1.154012 0.921674 0.051453 -0.010250 7001.920000 0 0 1
-13.418737 32.608925 26.905191 44.354186 -1.180411 0.919021 0.045251 -0.014134 56234.100000 0 0 1
-14.675437 33.428125 27.333691 45.606345 -1.157115 0.928120 0.055112 -0.019386 716986.000000 0 0 1
-15.401337 32.821725 28.407391 46.059165 -1.132056 0.906178 0.041090 -0.017239 320443.000000 0 0 1
-14.838037 33.055125 29.697391 46.848092 -1.148868 0.884200 0.056497 -0.006425 -190589.000000 0 0 1
-15.584637 32.229425 30.787691 47.217568 -1.120393 0.860526 0.046753 -0.008067 -598594.000000 0 0 1
-16.821437 32.778825 31.082191 48.202850 -1.096660 0.870008 0.047019 -0.006394 -932473.000000 0 0 1
-17.319037 32.353825 32.329991 48.907539 -1.079308 0.848588 0.041322 -0.008174 505754.000000 0 0 1
-18.801537 32.742525 32.589691 49.876435 -1.049546 0.858718 0.049540 -0.008986 351463.000000 0 0 1
-18.974437 -33.678120 32.887291 50.752526 1.057719 0.865850 0.061966 -0.016056 -32847.000000 0 0 1
-20.362337 -33.421520 32.995391 51.189048 1.023597 0.870324 0.074585 -0.018404 231420.000000 0 0 1
-20.790037 -31.960420 33.375091 50.671400 0.994074 0.851763 0.081819 -0.012377 -166098.000000 0 0 1
-20.567437 -31.424120 -33.216275 50.137967 0.991256 2.294944 0.081186 -0.011870 147897.000000 0 0 1
-21.366337 -31.913120 -32.136475 50.077146 0.980824 2.267560 0.067359 -0.013054 191108.000000 0 0 1
-21.019637 -31.070520 -30.910575 48.607263 0.976007 2.260003 0.080982 -0.014314 244251.000000 0 0 1
-21.247837 -29.716020 -31.068475 47.955840 0.950054 2.275563 0.097375 -0.015665 217360.000000 0 0 1
-20.515137 -28.989320 -30.088575 46.546470 0.954935 2.273679 0.080943 -0.012585 172763.000000 0 0 1
-20.911037 -27.521620 -30.262675 45.940619 0.921050 2.289932 0.088539 -0.022755 -281209.000000 0 0 1
-22.227637 -27.289920 -29.862375 46.158087 0.887276 2.274385 0.077772 -0.016053 -572141.000000 0 0 1
-22.543737 -25.921920 -30.003175 45.610925 0.854988 2.288699 0.082106 -0.014782 1060170.000000 0 0 1
-23.946337 -25.549720 -29.352075 45.692007 0.817781 2.268409 0.079733 -0.016522 1054480.000000 0 0 1
-24.018337 -25.695820 -27.933075 44.915614 0.819128 2.241965 0.075322 -0.021806 -85880.600000 0 0 1
-23.262437 -24.768020 -27.211075 43.532039 0.816734 2.246032 0.090906 -0.033445 -306127.000000 0 0 1
-23.183437 -25.183920 -25.729975 42.822111 0.826735 2.215369 0.090830 -0.026697 204587.000000 0 0 1
-24.384437 -24.893620 -25.040975 42.910879 0.795731 2.193899 0.080930 -0.028776 -13892.700000 0 0 1
-24.222037 -25.380620 -23.741775 42.362186 0.808751 2.165722 0.082440 -0.021749 -256918.000000 0 0 1
-25.453237 -25.117620 -22.855275 42.439671 0.778762 2.139495 0.079510 -0.018047 1745760.000000 0 0 1
-26.739337 -25.801220 -23.017375 43.709205 0.767545 2.125395 0.065496 -0.016925 1410250.000000 0 0 1
-26.654737 -27.192120 -23.034375 44.502459 0.795378 2.114837 0.065251 -0.008810 -937786.000000 0 0 1
-28.019537 -27.894820 -23.100775 45.791497 0.783168 2.099573 0.057720 -0.011034 354745.000000 0 0 1
-28.782237 -27.792820 -21.873275 45.599322 0.767911 2.071091 0.072488 -0.007378 -106178.000000 0 0 1
-30.017437 -27.165820 -22.046175 46.098396 0.735571 2.069448 0.072642 -0.011333 -309524.000000 0 0 1
-30.597837 -26.621620 -20.721275 45.544588 0.716019 2.043131 0.078634 -0.009905 164485.000000 0 0 1
-31.440337 -27.491320 -19.980575 46.297849 0.718488 2.017024 0.077281 0.001505 37469.300000 0 0 1
-31.942837 -26.892920 -18.853875 45.815309 0.699777 1.994917 0.079628 0.005494 -1111210.000000 0 0 1
-32.867337 -27.748920 -17.983675 46.622709 0.701158 1.966793 0.057086 0.003474 149696.000000 0 0 1
-34.103037 -28.086020 -18.635275 47.949089 0.688945 1.969959 0.045347 0.011524 873366.000000 0 0 1
-35.109537 -27.111020 -18.856775 48.200259 0.657548 1.972750 0.031101 0.013906 -230169.000000 0 0 1
-35.834637 -26.599920 -17.565475 47.960639 0.638553 1.945770 0.043706 0.011047 -808061.000000 0 0 1
-35.154437 -25.575420 -16.901875 46.643434 0.628955 1.941599 0.041816 0.021712 -192028.000000 0 0 1
-35.672437 -25.194220 -15.654975 46.393423 0.614919 1.914992 0.040385 0.018426 -76767.800000 0 0 1
-35.051637 -25.793920 -14.350775 45.824538 0.634405 1.889323 0.064645 0.016053 161130.000000 0 0 1
-35.611037 -27.083120 -14.078375 46.902473 0.650204 1.875660 0.054218 0.017005 603836.000000 0 0 1
-35.021337 -27.675320 -12.895975 46.462066 0.668762 1.852049 0.032499 0.016824 -91114.200000 0 0 1
-35.698137 -28.973220 -12.512875 47.648468 0.681785 1.836521 0.036868 0.006063 -228350.000000 0 0 1
-35.574337 -29.961420 -13.457975 48.418356 0.699960 1.852458 0.027530 0.010453 216042.000000 0 0 1
-36.022337 -31.160320 -12.894075 49.344011 0.713154 1.835175 0.010063 0.007876 -251531.000000 0 0 1
-35.685237 -32.285120 -13.931975 50.098553 0.735416 1.852603 0.006457 0.018399 -1155200.000000 0 0 1
-34.337337 -32.570420 -13.959875 49.343318 0.758996 1.857626 0.021925 0.014063 -1014020.000000 0 0 1
-33.947637 -33.084620 -15.207675 49.782602 0.772524 1.881241 0.049994 -0.010280 -314881.000000 0 0 1
-32.530237 -33.649120 -15.103575 49.179239 0.802303 1.882954 0.059616 -0.005791 -222716.000000 0 0 1
-32.119437 33.401125 -16.239575 49.102110 -0.804957 1.907874 0.075667 -0.015375 -913599.000000 0 0 1
-30.978337 32.643225 -16.046275 47.777824 -0.811561 1.913306 0.092401 -0.020926 -925057.000000 0 0 1
9.457554 19.918125 -9.065409 23.840274 1.127494 1.960869 0.054710 -0.027100 -1412.250000 0 1 0
8.045154 20.023125 -9.280309 23.489874 1.188745 1.976948 0.057861 -0.028362 614442.000000 0 1 0
7.603754 19.926125 -10.634109 23.831740 1.206254 2.033329 0.069470 -0.031661 225718.000000 0 1 0
7.687454 18.520125 -11.204209 22.970117 1.177352 2.080333 0.062367 -0.032107 -825592.000000 0 1 0
8.964754 18.182525 -11.667809 23.390357 1.112730 2.093044 0.086217 -0.034437 -376402.000000 0 1 0
9.035254 16.949825 -12.341909 22.831012 1.081053 2.141919 0.087885 -0.044242 -509146.000000 0 1 0
10.327454 16.755025 -13.127509 23.658374 1.018420 2.159013 0.110126 -0.037048 -259547.000000 0 1 0
10.293354 15.511525 -13.820509 23.185492 0.984924 2.209412 0.121517 -0.046363 507237.000000 0 1 0
11.556954 15.206125 -14.412609 23.927238 0.920913 2.217240 0.154549 -0.055840 389561.000000 0 1 0
11.583754 13.870625 -15.294309 23.674744 0.875000 2.273152 0.139079 -0.053129 -372645.000000 0 1 0
11.523554 12.649225 -14.573909 22.476522 0.831932 2.276285 0.150361 -0.054340 1080410.000000 0 1 0
12.756454 12.177825 -13.982809 22.506566 0.762196 2.241167 0.182182 -0.058044 1031600.000000 0 1 0
13.835854 11.578225 -14.941909 23.425345 0.696797 2.262503 0.206970 -0.063434 344865.000000 0 1 0
14.371954 12.395225 -15.968909 24.803240 0.711683 2.270281 0.175776 -0.053268 385031.000000 0 1 0
15.279554 11.681825 -16.814509 25.547163 0.652742 2.289189 0.176688 -0.060119 226580.000000 0 0 1
15.823554 12.580125 -17.945309 27.031066 0.671700 2.296788 0.134726 -0.048337 43529.500000 0 0 1
16.776454 13.526925 -17.514009 27.769905 0.678573 2.253229 0.111261 -0.041564 131173.000000 0 0 1
17.684254 13.900125 -18.559809 29.161839 0.666156 2.260672 0.083911 -0.030258 432776.000000 0 0 1
18.895154 14.729125 -18.067409 30.006753 0.662127 2.216939 0.081859 -0.018135 -214863.000000 0 0 1
18.674154 16.018425 -17.688309 30.301654 0.708997 2.194125 0.081403 -0.021789 11752.700000 0 0 1
18.296054 16.963825 -18.701109 31.180899 0.747633 2.214000 0.080172 -0.012944 36919.600000 0 0 1
17.812854 18.277225 -18.124109 31.302365 0.798264 2.188300 0.075124 -0.009100 659433.000000 0 0 1
18.946254 19.122125 -17.866409 32.308277 0.790018 2.156754 0.083646 -0.008610 690280.000000 0 0 1
18.471954 20.282725 -17.181909 32.370048 0.832088 2.130336 0.057342 -0.001101 455652.000000 0 0 1
19.312154 21.613625 -17.446709 33.830397 0.841574 2.112634 0.065518 -0.008885 1142640.000000 0 0 1
20.534754 21.807625 -16.721509 34.305357 0.815451 2.079942 0.100807 -0.018120 326997.000000 0 0 1
20.304354 22.175125 -15.422909 33.791554 0.829409 2.044756 0.090755 -0.011045 -296201.000000 0 0 1
21.479954 22.946625 -14.818509 34.749450 0.818400 2.011348 0.093087 -0.018376 -244274.000000 0 0 1
22.664954 22.239125 -14.587309 34.943790 0.775915 2.001434 0.103052 -0.023343 -610161.000000 0 0 1
23.560054 23.045725 -13.878909 35.760393 0.774363 1.969375 0.089867 -0.027175 53461.300000 0 0 1
25.025754 22.544925 -14.108709 36.518731 0.733295 1.967458 0.076570 -0.015853 440899.000000 0 0 1
25.524354 22.716625 -15.434209 37.493366 0.727262 1.995062 0.090720 -0.013743 -362244.000000 0 0 1
26.608654 23.585325 -15.453809 38.769940 0.725238 1.980789 0.066433 0.001356 -520792.000000 0 0 1
27.061354 23.848625 -16.934509 39.847853 0.722376 2.009735 0.078776 -0.013896 -818825.000000 0 0 1
27.841354 22.839325 -17.510409 40.042355 0.687020 2.023387 0.078996 -0.017543 -226216.000000 0 0 1
27.710354 22.839725 -18.908109 40.583659 0.689342 2.055453 0.070414 -0.017576 -334713.000000 0 0 1
28.709254 21.831625 -19.536409 41.018440 0.650148 2.067220 0.064186 -0.017143 -834030.000000 0 0 1
30.017554 22.246525 -19.582409 42.183317 0.637792 2.053552 0.058215 -0.008026 -1388390.000000 0 0 1
30.737954 21.413225 -20.480309 42.694158 0.608466 2.071107 0.062575 -0.014243 -730214.000000 0 0 1
32.162954 21.898525 -20.625709 44.038857 0.597766 2.058222 0.080663 -0.014604 -977604.000000 0 0 1
32.250554 23.137625 -21.279109 45.036079 0.622331 2.062911 0.071308 -0.004501 -243463.000000 0 0 1
33.503954 23.746625 -21.128309 46.182492 0.616588 2.045974 0.071413 -0.002911 -126940.000000 0 0 1
33.379354 25.243325 -21.605109 47.097638 0.647493 2.047362 0.094254 -0.001754 -61447.200000 0 0 1
33.595154 25.427825 -22.988809 47.996813 0.647896 2.070272 0.081951 0.000022 243072.000000 0 0 1
32.536554 25.068525 -23.875509 47.508928 0.656475 2.097340 0.079991 -0.007087 -114376.000000 0 0 1
32.759654 25.566725 -25.346769 48.675570 0.662696 2.118501 0.093828 -0.007107 -28373.100000 0 0 1
32.428454 26.925725 -25.579139 49.304074 0.692952 2.116247 0.097769 -0.015752 -14075.400000 0 0 1
31.065554 27.293925 -25.676229 48.675412 0.720860 2.126450 0.086510 -0.003150 347787.000000 0 0 1
30.439754 27.257425 -27.133719 49.048798 0.730298 2.156995 0.097995 -0.000893 -100292.000000 0 0 1
30.109954 25.924925 -27.488169 48.314703 0.710850 2.176013 0.094527 -0.005243 -50079.800000 0 0 1
29.960554 25.826725 -28.902359 48.989804 0.711433 2.201814 0.102029 -0.018847 -234816.000000 0 0 1
29.328254 24.468225 -29.261999 48.115539 0.695302 2.224538 0.113914 -0.032897 -244329.000000 0 0 1
28.030554 24.297725 -28.757209 46.936856 0.714184 2.230242 0.100737 -0.027482 -306311.000000 0 0 1
27.549054 23.013225 -28.888649 46.077250 0.695930 2.248443 0.108820 -0.038554 -242562.000000 0 0 1
26.106754 22.730225 -28.449279 44.806107 0.716369 2.258730 0.085119 -0.033619 -299858.000000 0 0 1
25.892254 22.566625 -27.073239 43.733530 0.716878 2.238329 0.087290 -0.013310 506578.000000 0 0 1
24.561854 22.760125 -26.594059 42.761571 0.747343 2.241982 0.050258 -0.007840 294053.000000 0 0 1
24.436954 22.958125 -25.041909 41.848984 0.754206 2.212283 0.057297 -0.001936 -201969.000000 0 0 1
24.684654 21.816625 -24.254309 40.909275 0.723800 2.205427 0.075012 -0.012915 126239.000000 0 0 1
24.906654 22.148825 -22.939609 40.461556 0.726857 2.173593 0.086226 -0.017757 -15289.600000 0 0 1
25.739354 21.020825 -22.241609 39.988481 0.684829 2.160603 0.088701 -0.022716 116623.000000 0 0 1
26.979654 20.695425 -22.804109 40.941785 0.654340 2.161552 0.060774 -0.017045 -187196.000000 0 0 1
27.628554 19.575225 -22.272109 40.528672 0.616417 2.152609 0.079769 -0.030530 -353522.000000 0 0 1
28.869354 19.215125 -23.080509 41.657779 0.587256 2.158018 0.094648 -0.034527 -130852.000000 0 0 1
29.829154 18.484525 -22.302209 41.579378 0.554764 2.136934 0.086806 -0.031787 311347.000000 0 0 1
30.900854 18.089925 -23.156509 42.641905 0.529629 2.144856 0.072858 -0.018638 48849.900000 0 0 1
32.158454 17.648225 -22.393209 42.977690 0.501913 2.118868 0.052394 -0.012835 -329325.000000 0 0 1
32.658254 18.659325 -21.583509 43.365653 0.519088 2.091753 0.056879 -0.008385 -834852.000000 0 0 1
33.950254 18.292325 -21.232509 44.023271 0.494202 2.074077 0.077841 -0.009333 -819233.000000 0 0 1
34.680154 19.184125 -20.273809 44.517088 0.505276 2.043636 0.046227 -0.017704 -306142.000000 0 0 1
33.984054 19.397525 -19.066309 43.528199 0.518659 2.024194 0.059218 -0.021068 -171008.000000 0 0 1
34.604854 20.334925 -18.272409 44.100862 0.531276 1.998005 0.048900 -0.015349 -160697.000000 0 0 1
33.972054 20.420525 -16.857409 43.072852 0.541226 1.972916 0.048415 -0.018361 -42108.900000 0 0 1
34.426454 19.394125 -15.998809 42.629506 0.513035 1.955516 0.051744 -0.028680 189637.000000 0 0 1
33.825954 19.450425 -14.721709 41.704232 0.521845 1.931575 0.043868 -0.026904 -249704.000000 0 0 1
34.227654 18.298425 -13.768309 41.181683 0.490950 1.911692 0.048550 -0.020167 824187.000000 0 0 1
35.653954 18.376725 -13.517809 42.327765 0.475907 1.895851 0.052443 -0.025731 1129230.000000 0 0 1
36.180054 17.344325 -12.721009 42.090926 0.447023 1.877824 0.046986 -0.012463 -24018.400000 0 0 1
36.102654 17.602725 -11.180309 41.692408 0.453658 1.842281 0.065130 -0.019896 -241049.000000 0 0 1
36.921154 18.667125 -10.726309 42.739758 0.468113 1.824476 0.049349 -0.016670 481424.000000 0 0 1
36.442754 19.077125 -9.437909 42.202905 0.482256 1.796335 0.043953 -0.011004 43111.300000 0 0 1
35.197454 19.986225 -9.398109 41.552791 0.516430 1.798943 0.042353 -0.010819 384150.000000 0 0 1
33.973054 19.263725 -9.489409 40.190900 0.515824 1.809155 0.063703 -0.028200 -32034.100000 0 0 1
32.819354 20.051525 -9.516109 39.619818 0.548444 1.813353 0.027999 -0.016226 -259532.000000 0 0 1
31.502954 19.308825 -9.755109 38.215560 0.549866 1.828918 0.017764 -0.007484 -207574.000000 0 0 1
31.471554 18.946225 -11.123809 38.381731 0.541897 1.864836 0.031396 -0.019291 260873.000000 0 0 1
30.266954 18.245025 -11.401309 37.134341 0.542478 1.882866 0.040342 -0.023236 58368.200000 0 0 1
30.213654 17.793025 -12.893209 37.358955 0.532223 1.923160 0.041001 -0.025528 -264689.000000 0 0 1
31.281954 16.962325 -13.289809 37.985526 0.496866 1.928223 0.045931 -0.022429 44369.000000 0 0 1
30.964054 16.228925 -14.426709 37.819051 0.482758 1.962179 0.030455 -0.014746 455058.000000 0 0 1
32.274654 15.628725 -15.047909 38.888944 0.450961 1.968113 0.044874 -0.024357 597008.000000 0 0 1
32.891054 14.683925 -14.180309 38.710726 0.419891 1.945842 0.037967 -0.019838 -294045.000000 0 0 1
34.101954 14.262425 -14.723709 39.788788 0.396122 1.949856 0.050802 -0.021078 -272431.000000 0 0 1
34.951854 13.265025 -13.866309 39.873143 0.362730 1.925978 0.053912 -0.036765 -21388.000000 0 0 1
35.822954 13.849825 -12.921309 40.522364 0.368918 1.895332 0.055944 -0.016339 131025.000000 0 0 1
36.378154 12.869525 -12.068109 40.430608 0.340030 1.873906 0.053461 -0.015325 119531.000000 0 0 1
37.330254 13.512625 -10.994409 41.194854 0.347303 1.840959 0.081242 -0.017920 334982.000000 0 0 1
-36.288454 13.736825 -11.604309 40.499534 -0.361875 1.861399 0.078350 -0.014424 -299276.000000 0 0 1
-35.391154 14.322925 -10.689609 39.647796 -0.384555 1.843789 0.075648 -0.017365 -1298620.000000 0 0 1
-34.005654 14.612625 -11.277409 38.692289 -0.405855 1.866553 0.107241 -0.021816 46620.700000 0 0 1
-33.248354 13.467325 -11.723509 37.739403 -0.384854 1.886667 0.123007 -0.033673 351141.000000 0 0 1
-32.922054 12.594725 -10.634209 36.818136 -0.365384 1.863802 0.137840 -0.024305 -1095370.000000 0 0 1
-31.706254 11.684125 -10.941609 35.517941 -0.353070 1.883948 0.158839 -0.035838 -144089.000000 0 0 1
-31.873554 10.737425 -11.975609 35.701974 -0.324935 1.912861 0.147228 -0.029549 -57912.300000 0 0 1
-31.141754 9.541025 -11.801009 34.642514 -0.297294 1.918406 0.147915 -0.039073 -393208.000000 0 0 1
-31.019354 8.595625 -12.924909 34.686285 -0.270322 1.952630 0.145870 -0.039119 -589271.000000 0 0 1
-32.226654 8.181125 -13.462409 35.870942 -0.248610 1.955518 0.124421 -0.029252 -396791.000000 0 0 1
-31.969854 7.020925 -14.269809 35.707036 -0.216179 1.981916 0.129576 -0.021488 224967.000000 0 0 1
-33.106954 6.656725 -15.260909 37.057762 -0.198422 1.995240 0.114578 -0.014104 448193.000000 0 0 1
-34.317154 6.198225 -14.697309 37.843043 -0.178689 1.969664 0.128254 -0.026860 299990.000000 0 0 1
-35.166154 5.437925 -15.531509 38.825986 -0.153420 1.982344 0.108971 -0.029245 507714.000000 0 0 1
-36.416254 4.976925 -14.716109 39.591378 -0.135826 1.951636 0.110744 -0.031077 473762.000000 0 0 1
-37.372154 4.180025 -15.396509 40.634997 -0.111386 1.959401 0.119262 -0.028813 613599.000000 0 0 1
36.333054 3.938825 -14.610509 39.358254 0.107987 1.951117 0.118887 -0.029653 199905.000000 0 0 1
35.418654 2.902225 -15.200209 38.651654 0.081758 1.974973 0.104951 -0.026529 -594906.000000 0 0 1
35.933854 1.588225 -15.130109 39.021591 0.044170 1.968971 0.124499 -0.029555 -184031.000000 0 0 1
34.978454 0.559925 -15.055709 38.085170 0.016006 1.977209 0.117849 -0.030634 110500.000000 0 0 1
34.426454 0.277225 -13.611309 37.020607 0.008053 1.947297 0.105040 -0.035161 -179656.000000 0 0 1
35.481454 -0.104475 -12.769609 37.709514 -0.002944 1.916258 0.118957 -0.033714 -12735.500000 0 0 1
35.101654 -0.278875 -11.395909 36.906241 -0.007945 1.884706 0.103335 -0.021272 -279846.000000 0 0 1
35.069254 1.024425 -10.548609 36.635709 0.029203 1.862863 0.107920 -0.038426 424218.000000 0 0 1
34.057154 1.944725 -11.026009 35.850308 0.057040 1.883421 0.099554 -0.022350 1006000.000000 0 0 1
34.349454 3.287925 -10.617309 36.102946 0.095429 1.869294 0.118393 -0.030296 -77642.600000 0 0 1
33.271154 4.295725 -11.063009 35.324399 0.128402 1.889339 0.118979 -0.033776 -116470.000000 0 0 1
33.373754 4.622425 -12.464109 35.923924 0.137629 1.925122 0.106906 -0.030517 -51575.800000 0 0 1
32.393654 5.527425 -12.822609 35.274928 0.169005 1.942824 0.115695 -0.032038 -615148.000000 0 0 1
32.599454 6.115525 -14.183209 36.073363 0.185441 1.974880 0.094686 -0.022575 -278510.000000 0 0 1
32.449854 5.298725 -15.311809 36.270112 0.161861 2.006624 0.082812 -0.015766 226239.000000 0 0 1
32.835054 5.859625 -16.552009 37.234997 0.176597 2.031444 0.081250 -0.015820 -803573.000000 0 0 1
31.960354 7.049125 -17.029809 36.894021 0.217083 2.050580 0.080271 -0.016162 1221230.000000 0 0 1
30.705054 6.663725 -17.647809 36.036797 0.213710 2.082561 0.059122 -0.010916 1679440.000000 0 0 1
29.648754 6.146625 -16.805009 34.630015 0.204419 2.077472 0.052072 -0.006581 -240370.000000 0 0 1
28.307854 6.156325 -17.558009 33.875044 0.214143 2.115678 0.039794 -0.003859 -268299.000000 0 0 1
28.285854 5.203425 -18.552209 34.224986 0.181925 2.143690 0.052318 -0.006120 -84940.700000 0 0 1
27.198954 5.448525 -19.400409 33.850338 0.197704 2.181108 0.036070 0.002687 -234581.000000 0 0 1
26.718154 4.141025 -20.070809 33.672618 0.153766 2.209378 0.046332 0.009807 -185128.000000 0 0 1
25.953354 3.320325 -19.232809 32.473098 0.127243 2.204668 0.054135 -0.000503 -9386.570000 0 0 1
25.469754 2.160825 -19.864209 32.372277 0.084636 2.231431 0.060270 -0.004266 -161419.000000 0 0 1
24.404154 1.451025 -19.001609 30.963355 0.059388 2.231510 0.062651 -0.007303 -42078.400000 0 0 1
23.100854 1.975625 -19.075709 30.023911 0.085314 2.259259 0.069296 -0.011538 -604183.000000 0 0 1
22.199154 1.184125 -18.405709 28.861302 0.053291 2.262344 0.086035 -0.014675 -674415.000000 0 0 1
20.874554 1.922025 -18.153109 27.730427 0.091816 2.284487 0.102393 -0.027896 -1435340.000000 0 0 1
20.222354 2.139025 -19.410809 28.112249 0.105383 2.332942 0.103746 -0.023137 121906.000000 0 0 1
18.991754 2.827325 -19.394609 27.291599 0.147786 2.361209 0.100761 -0.019768 1292940.000000 0 0 1
17.820054 2.178825 -18.497609 25.777183 0.121664 2.371141 0.138249 -0.039080 -272926.000000 0 0 1
18.016654 2.338625 -17.097909 24.948096 0.129082 2.325866 0.147556 -0.044434 -280794.000000 0 1 0
16.830354 2.187425 -16.360009 23.573196 0.129245 2.337839 0.114502 -0.028739 432954.000000 0 1 0
15.820054 3.388725 -16.358309 23.007648 0.211016 2.361708 0.127251 -0.032040 411115.000000 0 1 0
14.900654 3.400125 -17.451509 23.197964 0.224345 2.422322 0.118444 -0.030984 675671.000000 0 1 0
13.849654 4.349125 -17.266909 22.558235 0.304273 2.442517 0.116501 -0.038391 426768.000000 0 1 0
-19.768846 -21.717675 -17.069109 33.967913 0.832339 2.097292 0.101877 -0.030291 100906.000000 0 0 1
-19.835046 -21.927875 -18.449609 34.851812 0.835468 2.128658 0.106310 -0.029283 -941523.000000 0 0 1
-21.134646 -21.941375 -18.896409 35.849288 0.804124 2.125989 0.117342 -0.036086 -1050980.000000 0 0 1
-21.231146 -22.544275 -20.311009 37.034348 0.815386 2.151290 0.098086 -0.025893 -42851.900000 0 0 1
-21.034246 -23.940675 -20.346909 37.809947 0.849932 2.139021 0.084136 -0.019090 149911.000000 0 0 1
-20.632646 -24.283375 -21.659109 38.529279 0.866499 2.167776 0.073539 -0.014303 -43736.200000 0 0 1
-20.422346 -25.776455 -21.764209 39.435753 0.900776 2.155426 0.073567 -0.014450 720852.000000 0 0 1
-21.644746 -26.569205 -21.810609 40.621673 0.887183 2.137579 0.084553 -0.010072 988731.000000 0 0 1
-21.422646 -27.924065 -21.552509 41.269768 0.916394 2.120266 0.092541 -0.013572 566218.000000 0 0 1
-22.866446 -28.513755 -21.641509 42.476622 0.894871 2.105391 0.090001 -0.006076 828120.000000 0 0 1
-23.512746 -28.539975 -22.914409 43.502293 0.881679 2.125557 0.066997 -0.007370 45024.700000 0 0 1
-23.180846 -29.600035 -23.821909 44.508392 0.906423 2.135568 0.059135 -0.011272 -679761.000000 0 0 1
-23.557246 -29.352135 -25.292929 45.345605 0.894488 2.162507 0.047006 -0.005949 131544.000000 0 0 1
-24.951746 -29.452315 -25.548039 46.289640 0.867935 2.155458 0.043566 -0.000842 405064.000000 0 0 1
-25.402456 -28.676045 -26.634839 46.658493 0.845858 2.178333 0.040336 -0.001599 -257347.000000 0 0 1
-24.831146 -28.970105 -28.042359 47.352156 0.862177 2.204593 0.050060 -0.012659 -559081.000000 0 0 1
-25.327126 -30.093125 -28.703249 48.692257 0.871185 2.201215 0.031482 -0.002011 -10743.000000 0 0 1
-24.943646 -30.256695 -30.076009 49.418816 0.881353 2.225084 0.075027 -0.008918 61805.600000 0 0 1
-25.487286 -31.572755 -30.659829 50.857307 0.891647 2.217877 0.046935 -0.011729 172603.000000 0 0 1
-24.801146 -32.781915 -30.280129 51.055234 0.923117 2.205682 0.049803 -0.016489 134792.000000 0 0 1
-25.511716 -33.880835 -30.802989 52.417389 0.925388 2.198946 0.057139 -0.015105 215642.000000 0 0 1
-24.750046 32.530007 -30.797789 51.178803 -0.920395 2.216510 0.065294 -0.011051 104902.000000 0 0 1
-23.887746 32.338201 -31.890709 51.316673 -0.934576 2.241388 0.079983 -0.030511 -313615.000000 0 0 1
-23.228546 31.135230 -31.724029 50.153583 -0.929826 2.255622 0.079420 -0.018570 -724281.000000 0 0 1
-21.970646 30.950040 -32.568469 50.013192 -0.953474 2.279958 0.075021 -0.014704 -370370.000000 0 0 1
-22.133446 30.673040 33.910447 50.800032 -0.945725 0.839912 0.075110 -0.006249 513995.000000 0 0 1
-20.982846 29.913060 33.525247 49.588438 -0.959090 0.828381 0.060227 -0.005914 330271.000000 0 0 1
-21.012946 29.472770 32.028352 48.332219 -0.951424 0.846417 0.051927 -0.008037 -146733.000000 0 0 1
-20.576646 30.518940 31.223367 48.266994 -0.977579 0.867299 0.058615 -0.007082 69531.100000 0 0 1
-20.665846 30.282430 29.839647 47.270575 -0.971955 0.887630 0.081341 -0.007378 -372875.000000 0 0 1
-20.373246 31.621200 29.136217 47.580338 -0.998445 0.911756 0.070596 -0.024828 204724.000000 0 0 1
-21.449946 32.557407 29.192837 48.706331 -0.988236 0.928090 0.064789 -0.017273 235713.000000 0 0 1
-21.158846 33.824570 28.642957 49.114329 -1.011804 0.948147 0.062851 -0.030305 338617.000000 0 0 1
-22.408746 -33.035665 28.862197 49.259857 0.974769 0.944785 0.085616 -0.035103 646307.000000 0 0 1
-22.563046 -32.572265 30.233457 49.840801 0.964982 0.919019 0.075650 -0.027176 -107330.000000 0 0 1
-23.535246 -31.551605 30.436197 49.757147 0.929906 0.912595 0.089152 -0.026733 -25810.100000 0 0 1
-23.331346 -30.097885 29.910397 48.423819 0.911372 0.905008 0.097542 -0.023439 -280812.000000 0 0 1
-23.457046 -30.040435 28.506107 47.594736 0.907842 0.928627 0.063544 -0.016182 -85190.200000 0 0 1
-23.522646 -28.732725 28.065107 46.546048 0.884774 0.923598 0.072506 -0.020717 -162827.000000 0 0 1
-24.853046 -28.328195 27.373017 46.577275 0.850651 0.942595 0.080060 -0.013642 -427647.000000 0 0 1
-25.962156 -28.330665 28.241027 47.688738 0.828995 0.937016 0.096652 -0.017768 -233515.000000 0 0 1
-26.728446 -29.472735 28.368797 48.865536 0.834189 0.951395 0.079145 -0.021559 -593580.000000 0 0 1
-27.769636 -29.663065 27.253637 48.926586 0.818354 0.979990 0.076526 -0.001042 -607615.000000 0 0 1
-27.129046 -29.900125 26.031777 48.038068 0.833951 0.998101 0.077081 -0.004362 423205.000000 0 0 1
-28.089156 -29.887185 24.972827 48.019648 0.816401 1.023882 0.072463 -0.004639 146123.000000 0 0 1
-27.388416 -30.053655 23.640937 47.034470 0.831764 1.044158 0.068667 -0.004122 -520549.000000 0 0 1
-26.655996 -28.894785 23.270767 45.683469 0.825678 1.036319 0.058471 -0.010021 249423.000000 0 0 1
-25.981046 -28.905455 22.050057 44.684954 0.838629 1.054738 0.085145 -0.017176 -59220.500000 0 0 1
-24.669946 -29.715465 22.010157 44.452920 0.877907 1.052807 0.088848 -0.021488 -871686.000000 0 0 1
-24.894646 -31.084275 21.800357 45.400783 0.895522 1.069941 0.091392 -0.030530 634467.000000 0 0 1
-23.748446 -31.779375 21.318757 45.037837 0.929031 1.077704 0.083973 -0.019417 268321.000000 0 0 1
-22.775346 -32.362915 22.347157 45.447443 0.957559 1.056739 0.081362 -0.018224 -244435.000000 0 0 1
-22.200146 -31.495805 23.301657 45.031094 0.956816 1.026920 0.096192 -0.025962 265287.000000 0 0 1
-21.439046 -32.302225 24.207907 45.706555 0.984849 1.012623 0.085850 -0.030837 -312874.000000 0 0 1
-20.604646 -31.514285 25.214877 45.315468 0.991741 0.980714 0.070362 -0.018391 680945.000000 0 0 1
-19.316646 -30.985285 24.770417 44.122491 1.013339 0.974718 0.089687 -0.018494 1251700.000000 0 0 1
-18.692646 -30.221485 25.772167 43.897127 1.016869 0.943320 0.105425 -0.014506 -123847.000000 0 0 1
-17.992446 -30.852265 26.963047 44.750377 1.042836 0.924140 0.078728 -0.026385 -858912.000000 0 0 1
-18.823046 -31.530135 27.879117 46.105332 1.032596 0.921428 0.085344 -0.028296 -224193.000000 0 0 1
-18.139246 -32.106865 28.947877 46.881367 1.056537 0.905273 0.080055 -0.023364 -430571.000000 0 0 1
-18.502046 -31.380325 30.245977 47.348386 1.038054 0.877863 0.102586 -0.022496 -101267.000000 0 0 1
-18.118146 -30.023395 30.276147 46.328356 1.027831 0.858581 0.096749 -0.019582 186409.000000 0 0 1
-18.546246 -29.327145 31.421217 46.811725 1.006899 0.834936 0.109033 -0.017068 -159300.000000 0 0 1
-18.312746 -27.849275 31.281417 45.710675 0.989120 0.817105 0.112774 -0.019186 -31028.600000 0 0 1
-19.020446 -27.029685 30.324307 44.854708 0.957600 0.828399 0.121541 -0.020327 294766.000000 0 0 1
-18.808046 -27.231285 28.896157 43.934876 0.966354 0.853029 0.121398 -0.014178 -18006.500000 0 0 1
-17.420446 -26.841225 28.330067 42.737758 0.995112 0.846136 0.104618 -0.015073 88131.400000 0 0 1
-17.145046 -25.429405 28.256037 41.701449 0.977582 0.826330 0.100033 -0.008978 719016.000000 0 0 1
-15.896746 -25.228365 27.570207 40.611492 1.008528 0.824564 0.092224 -0.009897 655210.000000 0 0 1
-15.846846 -23.773475 27.047537 39.342978 0.982856 0.812782 0.077945 -0.011562 -504540.000000 0 0 1
-16.810646 -23.700675 26.025747 39.008452 0.953863 0.840377 0.103142 -0.010672 -50440.800000 0 0 1
-16.779446 -22.514175 25.210097 37.735751 0.930321 0.839185 0.063157 -0.012615 -556258.000000 0 0 1
-17.455746 -21.279275 25.727007 37.674786 0.883789 0.819111 0.072060 -0.009120 -644603.000000 0 0 1
-17.459946 -20.257475 24.778177 36.457826 0.859433 0.823525 0.058831 -0.008700 160700.000000 0 0 1
-17.744246 -18.968075 25.392607 36.323968 0.818721 0.796715 0.066119 -0.006219 25191.100000 0 0 1
-17.343346 -17.898875 24.367127 34.855678 0.801160 0.796677 0.053897 -0.014199 -339683.000000 0 0 1
-15.964046 -17.674775 24.336327 34.051509 0.836210 0.774613 0.065171 -0.021471 -550419.000000 0 0 1
-15.679146 -16.703275 23.322537 32.692136 0.817014 0.776460 0.070927 -0.020978 930.125000 0 0 1
-14.227446 -16.215275 23.520047 31.914698 0.850603 0.742226 0.095327 -0.031420 -714704.000000 0 0 1
-13.249246 -17.123775 23.081107 31.646543 0.912278 0.753439 0.070678 -0.034224 -157852.000000 0 0 1
-11.952746 -16.612875 23.339457 31.041682 0.947111 0.719895 0.081348 -0.033209 -66144.000000 0 0 1
-11.429246 -15.758575 22.127157 29.471536 0.943310 0.721528 0.102730 -0.033156 -317704.000000 0 0 1
-10.839046 -16.515075 21.035757 28.857160 0.989996 0.753993 0.127950 -0.028503 562248.000000 0 0 1
-9.510546 -16.991375 21.242457 28.816650 1.060515 0.741940 0.116405 -0.025803 69901.800000 0 0 1
-9.097246 -18.092975 20.233257 28.626916 1.104907 0.785844 0.115663 -0.025960 147031.000000 0 0 1
-9.027446 -17.681675 18.913057 27.419703 1.098741 0.809637 0.110074 -0.028096 -186862.000000 0 0 1
-8.755146 -18.843975 18.145457 27.586330 1.135857 0.852942 0.104869 -0.031509 138883.000000 0 0 1
-8.381446 -18.618575 16.673557 26.361098 1.147805 0.886012 0.096331 -0.034082 -306381.000000 0 0 1
-7.091646 -18.097275 16.577857 25.546588 1.197325 0.864624 0.089785 -0.031395 -858434.000000 0 0 1
-6.687546 -18.034675 15.254157 24.549177 1.215699 0.900304 0.080587 -0.029454 -217093.000000 0 1 0
-5.681046 -16.898975 15.207957 23.433557 1.246489 0.864551 0.064629 -0.028774 -636380.000000 0 1 0
-6.259246 -15.715275 15.582757 22.999355 1.191764 0.826397 0.076775 -0.030637 -306063.000000 0 1 0
-5.305946 -14.695175 15.556057 22.047497 1.224296 0.787569 0.053275 -0.020972 -256054.000000 0 1 0
-5.569546 -13.657675 16.695557 22.277647 1.183587 0.723594 0.039050 -0.011268 -235463.000000 0 1 0
-5.315446 -13.999575 18.064657 23.464311 1.207924 0.692146 0.055301 -0.004766 286335.000000 0 1 0
-6.334546 -14.625375 18.855257 24.689042 1.162068 0.701756 0.086452 -0.019484 403129.000000 0 1 0
-7.559846 -13.797775 19.256257 24.866309 1.069564 0.685044 0.111054 -0.030546 114267.000000 0 1 0
-7.233446 -13.018575 20.397457 25.255936 1.063645 0.630674 0.106559 -0.027592 112531.000000 0 0 1
-8.443546 -12.555275 20.948057 25.840849 0.978759 0.625524 0.106938 -0.026138 251650.000000 0 0 1
-8.237146 -11.773575 22.255957 26.491419 0.960319 0.573293 0.108987 -0.017585 -137110.000000 0 0 1
-7.586446 -10.527775 21.961757 25.508959 0.946370 0.533676 0.080513 -0.013579 484221.000000 0 0 1
-7.071546 -9.867475 23.146637 26.136959 0.948982 0.483033 0.068730 -0.007147 -544898.000000 0 0 1
-5.646746 -10.217975 23.518327 26.256513 1.065937 0.460762 0.069194 -0.012117 -849221.000000 0 0 1
-5.433846 -11.367775 24.275447 27.350509 1.124900 0.478757 0.085742 -0.012292 231306.000000 0 0 1
-4.061846 -11.479075 24.631827 27.477166 1.230698 0.459110 0.064784 -0.010658 66952.200000 0 0 1
-3.840846 -12.765575 25.459237 28.738211 1.278537 0.482361 0.075932 -0.018712 -447774.000000 0 0 1
-2.490446 -13.083675 25.673097 28.922185 1.382699 0.478555 0.043006 -0.016603 -242899.000000 0 0 1
-2.407046 -14.110475 26.658247 30.258247 1.401837 0.492774 0.049318 -0.027120 -119906.000000 0 0 1
-2.500546 -15.581975 26.129487 30.525412 1.411676 0.543331 0.060278 -0.034509 -414505.000000 0 0 1
-1.398046 -15.987575 25.368167 30.018344 1.483572 0.564065 0.043677 -0.031536 -105631.000000 0 0 1
-1.621646 -17.314475 24.936877 30.401787 1.477410 0.608959 0.071290 -0.031409 -220982.000000 0 0 1
-0.278046 -18.095975 24.918457 30.797259 1.555432 0.628155 0.073701 -0.033569 424900.000000 0 0 1
0.221654 -18.469975 26.215777 32.069551 -1.558796 0.613798 0.087501 -0.034876 127563.000000 0 0 1
0.732854 -17.434475 26.997027 32.145567 -1.528786 0.573814 0.089155 -0.038407 -1087250.000000 0 0 1
1.443954 -17.937875 28.227767 33.476249 -1.490472 0.567555 0.084337 -0.032447 343422.000000 0 0 1
2.721554 -18.601275 28.028927 33.749593 -1.425517 0.590797 0.085188 -0.031279 1171040.000000 0 0 1
3.607854 -18.607475 29.132297 34.755510 -1.379280 0.576810 0.098692 -0.041164 644080.000000 0 0 1
4.387254 -17.248975 29.310697 34.291283 -1.321729 0.545715 0.114497 -0.036857 -416432.000000 0 0 1
3.532454 -16.213275 29.668207 33.993397 -1.356275 0.509960 0.090169 -0.039149 498863.000000 0 0 1
4.380554 -15.135675 30.158527 34.026676 -1.289075 0.481459 0.114245 -0.048674 258727.000000 0 0 1
3.597454 -14.011275 30.791447 34.020152 -1.319471 0.439195 0.110424 -0.048614 -593095.000000 0 0 1
3.030254 -14.480575 31.959969 35.218023 -1.364510 0.433529 0.105776 -0.047050 68886.800000 0 0 1
2.207154 -13.516975 32.639746 35.396796 -1.408937 0.397297 0.102391 -0.047255 17394.400000 0 0 1
1.372954 -14.162175 33.740993 36.618395 -1.474153 0.399072 0.099717 -0.043584 205702.000000 0 0 1
2.159454 -14.407275 -32.918229 35.997814 -1.422017 2.724945 0.115881 -0.035834 249552.000000 0 0 1
1.554554 -15.384475 -32.085669 35.617255 -1.470091 2.692511 0.112437 -0.039212 120216.000000 0 0 1
2.312854 -15.654575 -30.759409 34.591274 -1.424114 2.666444 0.115640 -0.033969 248900.000000 0 0 1
1.548854 -16.309975 -29.740579 33.954620 -1.476117 2.638078 0.105731 -0.031852 -251853.000000 0 0 1
2.107554 -16.226075 -28.451739 32.821163 -1.441633 2.619689 0.094046 -0.030867 -257712.000000 0 0 1
1.716054 -17.503675 -27.699879 32.811686 -1.473069 2.575882 0.094560 -0.033797 -225098.000000 0 0 1
2.401654 -18.568275 -28.240179 33.882982 -1.442169 2.556140 0.081382 -0.027777 -259129.000000 0 0 1
2.321454 -19.692975 -27.359269 33.789525 -1.453455 2.514432 0.083460 -0.030487 -1090610.000000 0 0 1
3.415354 -20.761475 -27.530179 34.649881 -1.407752 2.489020 0.058600 -0.024696 1061720.000000 0 0 1
4.745354 -20.277175 -27.165329 34.229188 -1.340909 2.487550 0.053686 -0.019754 1227140.000000 0 0 1
4.976354 -20.209675 -25.779889 33.133031 -1.329363 2.462387 0.072263 -0.020772 -731634.000000 0 0 1
5.966354 -21.291675 -25.196909 33.523380 -1.297584 2.421314 0.027404 -0.018614 -172740.000000 0 0 1
5.703654 -22.696975 -25.313269 34.473844 -1.324598 2.395394 0.035677 -0.011717 159618.000000 0 0 1
5.968154 -23.223575 -26.629449 35.834074 -1.319253 2.408535 0.026362 -0.008877 -324929.000000 0 0 1
5.369754 -24.632875 -26.802089 36.796260 -1.356163 2.386768 0.034805 -0.000606 17273.500000 0 0 1
5.953054 -25.604375 -25.969639 36.951928 -1.342353 2.350115 0.040883 -0.001333 97045.900000 0 0 1
5.298754 -26.835735 -26.287909 37.937944 -1.375853 2.336326 0.050467 -0.002380 86140.600000 0 0 1
5.826054 -28.077075 -25.515519 38.383678 -1.366198 2.297954 0.071906 -0.004184 475638.000000 0 0 1
7.185954 -28.338855 -25.877919 39.043505 -1.322458 2.295344 0.090457 -0.014834 268258.000000 0 0 1
7.515154 -29.554895 -25.270489 39.605138 -1.321796 2.262774 0.093934 -0.020904 46501.400000 0 0 1
9.007454 -29.930285 -25.476409 40.323735 -1.278470 2.254665 0.107150 -0.026384 175199.000000 0 0 1
9.328354 -30.011435 -26.801349 41.303955 -1.269437 2.276909 0.109897 -0.025575 -390179.000000 0 0 1
10.711954 -29.992985 -27.030599 41.772938 -1.227767 2.274550 0.134893 -0.029525 -68898.200000 0 0 1
11.115854 -29.924195 -28.526909 42.811262 -1.215127 2.300087 0.132334 -0.030296 -87736.100000 0 0 1
10.703954 -31.078595 -29.273309 44.015682 -1.239105 2.298378 0.145250 -0.042221 136451.000000 0 0 1
10.738954 -30.830625 -30.669179 44.793427 -1.235618 2.324961 0.132487 -0.039343 -72855.300000 0 0 1
-35.809208 -4.780375 -5.470409 36.538701 0.132711 1.721077 0.180145 -0.043753 59871.500000 0 0 1
-35.186536 -4.071975 -4.431409 35.697488 0.115213 1.695255 0.176221 -0.048868 56493.100000 0 0 1
-34.624457 -2.801375 -4.755609 35.061610 0.080732 1.706851 0.198557 -0.057645 -277617.000000 0 0 1
-35.522898 -1.633475 -5.226809 35.942510 0.045951 1.716735 0.194591 -0.043916 -908817.000000 0 0 1
-36.405986 -1.200575 -4.261509 36.674209 0.032965 1.687258 0.150670 -0.035715 -393206.000000 0 0 1
-37.163446 -0.119575 -4.686009 37.457905 0.003218 1.696226 0.139954 -0.034813 312211.000000 0 0 1
36.687613 0.495925 -3.668309 36.873885 0.013517 1.670444 0.153755 -0.027479 441115.000000 0 0 1
37.359013 1.168825 -2.627109 37.469503 0.031276 1.640967 0.176228 -0.026709 378919.000000 0 0 1
36.497663 2.094125 -1.955609 36.609960 0.057314 1.624239 0.165426 -0.034225 -435499.000000 0 0 1
37.224903 3.048825 -0.937509 37.361312 0.081720 1.595892 0.177768 -0.037096 212148.000000 0 0 1
-36.947496 4.151725 -1.465309 37.208888 -0.111899 1.610187 0.205428 -0.052854 1283060.000000 0 0 1
-35.780666 3.797625 -2.276609 36.053584 -0.105740 1.633984 0.182714 -0.026217 462171.000000 0 0 1
-34.904621 5.033325 -2.658309 35.365711 -0.143215 1.646034 0.184760 -0.037779 -5475.290000 0 0 1
-34.205639 5.636825 -1.603809 34.704059 -0.163324 1.617027 0.202557 -0.043180 244074.000000 0 0 1
-33.808116 6.984425 -1.926909 34.575770 -0.203724 1.626555 0.214903 -0.052308 -19068.100000 0 0 1
-33.066166 7.768525 -0.816809 33.976293 -0.230754 1.594839 0.208209 -0.049608 -260757.000000 0 0 1
-31.687776 7.444025 -0.718609 32.558333 -0.230734 1.592870 0.235478 -0.044531 539214.000000 0 0 1
-31.097226 7.782025 0.550091 32.060879 -0.245212 1.553638 0.241882 -0.047942 190270.000000 0 0 1
-31.235646 9.249625 1.116291 32.595509 -0.287897 1.536543 0.248565 -0.050950 -72407.700000 0 0 1
-32.570556 9.555825 1.506891 33.976839 -0.285380 1.526431 0.220450 -0.052611 300344.000000 0 0 1
-32.654686 10.897525 1.946391 34.480037 -0.322099 1.514317 0.218908 -0.049231 481769.000000 0 0 1
-34.101660 11.447325 1.746991 36.014114 -0.323863 1.522269 0.205580 -0.049813 -187207.000000 0 0 1
-34.428347 11.582625 0.364191 36.326311 -0.324532 1.560771 0.178446 -0.042784 1308780.000000 0 0 1
-35.655698 12.339825 0.162491 37.730975 -0.333181 1.566490 0.166859 -0.036194 1109070.000000 0 0 1
-37.040196 11.804825 0.530391 38.879446 -0.308526 1.557154 0.160351 -0.051208 -460313.000000 0 0 1
37.327593 10.757125 -0.272109 38.847638 0.280579 1.577801 0.171022 -0.040975 -661545.000000 0 0 1
35.986123 10.482025 -0.016309 37.481651 0.283437 1.571231 0.179722 -0.050068 -401663.000000 0 0 1
35.519673 9.294125 -0.915809 36.726920 0.255924 1.595735 0.178414 -0.042433 86347.100000 0 0 1
35.247633 9.655025 -2.234109 36.614292 0.267362 1.631852 0.175729 -0.039396 -49787.200000 0 0 1
35.099813 8.540025 -3.130509 36.259192 0.238669 1.657241 0.165747 -0.044872 -145889.000000 0 0 1
34.475473 8.941925 -4.488109 35.897902 0.253778 1.696149 0.138383 -0.033280 1049370.000000 0 0 1
33.041493 9.099825 -4.384609 34.551004 0.268744 1.698042 0.158280 -0.030473 1235200.000000 0 0 1
32.553583 9.532625 -5.654809 34.388713 0.284865 1.735984 0.131354 -0.020584 -1548.140000 0 0 1
31.249223 10.369125 -5.758809 33.424490 0.320388 1.743953 0.152653 -0.030488 691864.000000 0 0 1
30.109463 9.568425 -5.425409 32.055726 0.307695 1.740864 0.133989 -0.024460 863768.000000 0 0 1
28.877363 10.171925 -5.761309 31.153857 0.338674 1.756798 0.153498 -0.028128 -237883.000000 0 0 1
27.676663 9.274525 -6.060909 29.811895 0.323342 1.775529 0.157269 -0.018906 -304079.000000 0 0 1
27.840363 8.400225 -7.199309 29.957964 0.293042 1.813485 0.154592 -0.032331 1234390.000000 0 0 1
26.769663 7.392225 -7.261409 28.705189 0.269428 1.826540 0.173530 -0.027303 1005770.000000 0 0 1
26.970763 6.368225 -8.389009 28.954305 0.231869 1.864744 0.169629 -0.035847 -584281.000000 0 0 1
27.960563 5.440425 -8.149809 29.627870 0.192174 1.849461 0.152737 -0.033890 -106866.000000 0 0 1
27.900963 4.382625 -9.090809 29.670085 0.155805 1.882201 0.134969 -0.027274 -536047.000000 0 0 1
28.899663 3.297625 -8.670309 30.351921 0.113615 1.860491 0.100797 -0.020242 636092.000000 0 0 1
30.285153 3.703825 -8.825209 31.761504 0.121694 1.852361 0.118118 -0.021551 1862550.000000 0 0 1
31.266103 2.913625 -8.139909 32.439428 0.092920 1.824433 0.091475 -0.017272 332414.000000 0 0 1
31.364223 1.381425 -8.396109 32.497961 0.044016 1.832118 0.079971 -0.014146 -618384.000000 0 0 1
30.280973 0.649625 -7.800109 31.276205 0.021450 1.822851 0.108629 -0.026703 601963.000000 0 0 1
30.477993 -0.737375 -7.494309 31.394529 -0.024189 1.811838 0.101711 -0.030836 -322019.000000 0 0 1
30.404573 -1.787475 -8.582509 31.643207 -0.058722 1.845464 0.105466 -0.024650 -281179.000000 0 0 1
31.536133 -1.856175 -9.421409 32.965679 -0.058791 1.860632 0.098928 -0.020747 284527.000000 0 0 1
31.440053 -3.005975 -10.229709 33.198791 -0.095320 1.884028 0.093039 -0.039868 -140521.000000 0 0 1
32.632163 -3.188375 -11.183909 34.642511 -0.097397 1.899523 0.096200 -0.036893 -543154.000000 0 0 1
33.838583 -3.616875 -10.645209 35.657425 -0.106482 1.873960 0.099692 -0.018061 -493857.000000 0 0 1
34.751493 -4.026775 -11.624309 36.864695 -0.115359 1.891594 0.112344 -0.035977 664172.000000 0 0 1
36.207893 -4.195375 -11.038709 38.084981 -0.115355 1.864860 0.132975 -0.032091 537543.000000 0 0 1
36.368603 -5.310575 -10.190409 38.140817 -0.144996 1.841260 0.134014 -0.037155 -475383.000000 0 0 1
-37.295846 -5.334675 -9.524209 38.860641 0.142073 1.818405 0.149340 -0.043940 -619825.000000 0 0 1
-37.110216 -6.712775 -8.819909 38.730095 0.178952 1.800540 0.152039 -0.043798 124735.000000 0 0 1
37.065803 -6.753075 -7.572809 38.429483 -0.180215 1.769152 0.161300 -0.038652 457985.000000 0 0 1
36.796583 -8.040475 -7.070409 38.322688 -0.215130 1.756356 0.163850 -0.040501 -478187.000000 0 0 1
36.345733 -8.015375 -5.636209 37.643397 -0.217057 1.721088 0.173785 -0.038991 -988958.000000 0 0 1
37.282213 -7.700675 -4.640009 38.350925 -0.203686 1.692082 0.177950 -0.037570 253206.000000 0 0 1
-37.031776 -8.809475 -3.930109 38.267545 0.233549 1.673679 0.200873 -0.042490 220934.000000 0 0 1
-36.380446 -10.051975 -4.615209 38.024718 0.269576 1.692470 0.190106 -0.046241 -546962.000000 0 0 1
-37.415276 -10.889775 -5.098209 39.299895 0.283227 1.700889 0.175925 -0.048683 601004.000000 0 0 1
-36.950126 -11.887675 -6.003009 39.276771 0.311264 1.724236 0.141505 -0.046639 -25723.600000 0 0 1
37.070583 -11.822975 -7.280709 39.585598 -0.308733 1.755773 0.141659 -0.046170 136607.000000 0 0 1
-37.374676 -10.802775 -8.170609 39.753304 0.281372 1.777804 0.157208 -0.045238 260918.000000 0 0 1
37.352613 -11.276375 -9.468609 40.150079 -0.293190 1.808869 0.168367 -0.031703 -147608.000000 0 0 1
-37.357176 -10.166475 -10.553109 40.128343 0.265708 1.836910 0.146560 -0.029211 -810848.000000 0 0 1
36.367403 -9.440075 -10.841709 39.105571 -0.253970 1.851719 0.132824 -0.031990 19642.000000 0 0 1
36.544863 -8.779175 -12.043209 39.466945 -0.235763 1.880889 0.122588 -0.033093 -862990.000000 0 0 1
35.268123 -8.059175 -12.387609 38.239294 -0.224654 1.900698 0.119013 -0.029409 -826510.000000 0 0 1
35.323263 -7.589975 -13.723009 38.647918 -0.211654 1.933793 0.119439 -0.025203 -8630.780000 0 0 1
34.262413 -6.757175 -14.059809 37.646388 -0.194719 1.953544 0.105212 -0.033425 -570241.000000 0 0 1
34.554443 -5.833875 -15.236709 38.212575 -0.167254 1.980934 0.103664 -0.036569 -229991.000000 0 0 1
35.309203 -4.705275 -14.864109 38.598201 -0.132479 1.966111 0.114274 -0.036709 106396.000000 0 0 1
35.216073 -3.584875 -15.709809 38.727525 -0.101447 1.988486 0.113659 -0.038178 13908.200000 0 0 1
36.580053 -2.871975 -15.693509 39.907828 -0.078351 1.974953 0.119842 -0.041692 -417424.000000 0 0 1
-37.423496 -3.173975 -16.789709 41.139840 0.084610 1.991183 0.127966 -0.037643 1087940.000000 0 0 1
-36.069906 -2.704575 -16.728909 39.852342 0.074841 2.003991 0.150911 -0.030041 731389.000000 0 0 1
-35.750786 -1.253875 -16.248809 39.290134 0.035058 1.997156 0.149314 -0.023246 -977726.000000 0 0 1
-35.995908 -0.303175 -17.271609 39.926254 0.008422 2.018157 0.129607 -0.022729 136670.000000 0 0 1
-35.871491 0.951325 -16.630309 39.550424 -0.026514 2.004775 0.137332 -0.025822 -1726.950000 0 0 1
-36.116686 2.137925 -17.605509 40.236049 -0.059126 2.023675 0.120584 -0.024463 -83911.700000 0 0 1
-35.198759 2.246725 -18.676709 39.910147 -0.063743 2.057787 0.109687 -0.014503 92695.900000 0 0 1
-35.351538 3.359325 -19.570209 40.546385 -0.094742 2.074488 0.104826 -0.007518 -51544.200000 0 0 1
-34.349500 3.259425 -20.756409 40.265872 -0.094607 2.112369 0.096164 -0.001061 621784.000000 0 0 1
-32.977176 3.464825 -20.416909 38.940330 -0.104683 2.122704 0.099086 0.000495 734716.000000 0 0 1
-32.246836 3.916425 -21.592709 39.005664 -0.120860 2.157452 0.075050 0.004146 425824.000000 0 0 1
-30.851346 4.427625 -21.105009 37.640813 -0.142542 2.166021 0.084697 0.000104 265597.000000 0 0 1
-30.012826 3.325925 -20.838909 36.689121 -0.110366 2.174853 0.083958 0.008396 1348360.000000 0 0 1
-28.607906 3.718825 -20.981409 35.671577 -0.129268 2.199606 0.062438 0.010057 1677250.000000 0 0 1
-27.657086 2.732225 -20.259509 34.392254 -0.098470 2.200706 0.082736 0.006931 -52908.700000 0 0 1
-27.467086 2.996025 -18.893509 33.472102 -0.108647 2.170570 0.084661 0.007105 -138874.000000 0 0 1
-26.699946 1.992625 -18.296709 32.428802 -0.074492 2.170274 0.089563 0.006151 -446309.000000 0 0 1
-25.932036 2.353025 -17.004809 31.099368 -0.090490 2.149321 0.091040 -0.004888 462971.000000 0 0 1
-24.883346 3.331325 -17.164709 30.412265 -0.133086 2.170504 0.088755 -0.008541 1015240.000000 0 0 1
-24.054546 3.409125 -15.977809 29.078062 -0.140787 2.152538 0.108438 -0.027230 795106.000000 0 0 1
-22.908346 4.462425 -16.131009 28.371024 -0.192386 2.175567 0.126712 -0.038349 1085470.000000 0 0 1
-21.793946 4.082125 -16.968309 27.920661 -0.185160 2.223999 0.138145 -0.040617 818736.000000 0 0 1
-20.763746 5.060625 -17.028309 27.325928 -0.239063 2.243568 0.125717 -0.037374 1268000.000000 0 0 1
-19.390846 4.360125 -17.457709 26.453491 -0.221176 2.291535 0.150797 -0.041155 665886.000000 0 0 1
-19.024746 3.346825 -16.556709 25.441438 -0.174138 2.279404 0.185382 -0.043159 307964.000000 0 0 1
-17.886746 2.610025 -17.012409 24.822771 -0.144897 2.325887 0.147093 -0.047984 -185935.000000 0 1 0
-17.858846 1.111625 -16.635709 24.431964 -0.062165 2.319786 0.163363 -0.038202 143754.000000 0 1 0
-18.759046 0.157825 -17.208909 25.457283 -0.008413 2.313106 0.112721 -0.028395 545049.000000 0 0 1
-20.113146 0.394725 -16.830209 26.228808 -0.019623 2.267468 0.122825 -0.031924 60772.800000 0 0 1
-21.088546 -0.682175 -17.378309 27.334918 0.032337 2.259782 0.086043 -0.019639 -325484.000000 0 0 1
-21.048346 -1.943175 -16.727909 26.956107 0.092059 2.240254 0.083283 -0.023915 -17461.100000 0 0 1
-22.070246 -2.794275 -17.137909 28.082230 0.125938 2.227205 0.086045 -0.010950 -328865.000000 0 0 1
-22.145846 -4.013975 -16.228409 27.747283 0.179305 2.195510 0.105480 -0.025133 -24847.000000 0 0 1
-22.735246 -3.782475 -14.963709 27.479285 0.164861 2.146643 0.109507 -0.031444 308185.000000 0 0 1
-22.925246 -4.956075 -14.136209 27.385433 0.212908 2.113198 0.113355 -0.041503 -62388.900000 0 0 1
-23.130146 -4.613475 -12.624909 26.752123 0.196874 2.062266 0.127874 -0.058232 -249076.000000 0 0 1
-24.216546 -3.732975 -12.468909 27.492724 0.152946 2.041524 0.118041 -0.051959 340159.000000 0 0 1
-24.491646 -3.327975 -11.128409 27.106412 0.135055 1.993848 0.144634 -0.066174 -520457.000000 0 0 1
-25.442436 -2.119975 -11.121309 27.847717 0.083132 1.981617 0.196810 -0.067930 -356004.000000 0 0 1
-25.484076 -1.417875 -9.897109 27.375194 0.055580 1.940711 0.206570 -0.073045 639329.000000 0 0 1
-26.105366 -0.120775 -10.009809 27.958916 0.004626 1.936941 0.223157 -0.068317 -235063.000000 0 0 1
-26.449526 0.418325 -8.603809 27.816864 -0.015815 1.885255 0.246657 -0.066381 -14341.300000 0 0 1
-25.301376 0.566625 -7.783509 26.477607 -0.022391 1.869170 0.210555 -0.064990 674979.000000 0 0 1
-25.717236 0.670225 -6.443109 26.520540 -0.026055 1.816200 0.222343 -0.064967 580211.000000 0 0 1
-24.492546 1.021625 -5.524409 25.128621 -0.041688 1.792452 0.154832 -0.048166 501391.000000 0 0 1
-24.069346 2.365525 -5.682409 24.843890 -0.097965 1.801564 0.169707 -0.041426 599024.000000 0 1 0
-22.776246 2.589625 -5.150209 23.494428 -0.113212 1.791801 0.145124 -0.026819 24623.300000 0 1 0
-22.167446 4.014625 -5.220109 23.124930 -0.179163 1.798494 0.130704 -0.028280 -337369.000000 0 1 0
-22.727546 4.983625 -4.376509 23.675550 -0.215860 1.756719 0.135027 -0.028120 500438.000000 0 1 0
-22.043646 6.227425 -4.493209 23.342923 -0.275329 1.764492 0.103672 -0.036099 -207500.000000 0 1 0
-22.684946 7.495325 -3.832109 24.196523 -0.319117 1.729840 0.120681 -0.026616 -408718.000000 0 1 0
-22.320946 7.575225 -2.446509 23.697976 -0.327180 1.674218 0.113534 -0.027606 365386.000000 0 1 0
-21.018346 7.978025 -2.086909 22.578196 -0.362775 1.663359 0.120311 -0.027057 -178052.000000 0 1 0
-20.640346 9.466925 -2.396109 22.833919 -0.430033 1.675926 0.110866 -0.027229 -404116.000000 0 1 0
-20.479746 9.734725 -3.816109 22.994511 -0.443721 1.737525 0.097811 -0.023895 494253.000000 0 1 0
-19.918846 11.010825 -4.037309 23.114899 -0.504978 1.746359 0.100638 -0.019565 -122379.000000 0 1 0
-19.872746 11.391125 -5.543109 23.567134 -0.520483 1.808226 0.109069 -0.026966 438527.000000 0 1 0
-18.774946 10.738725 -6.205809 22.501797 -0.519555 1.850210 0.092418 -0.031161 728140.000000 0 1 0
-18.689646 11.191225 -7.515109 23.043941 -0.539531 1.902993 0.098036 -0.026516 204203.000000 0 1 0
-17.354946 10.791825 -8.201909 22.021102 -0.556316 1.952451 0.079961 -0.018429 27884.700000 0 1 0
-17.063646 9.377925 -8.390709 21.201827 -0.502525 1.977685 0.067398 -0.023389 313645.000000 0 1 0
-17.916346 8.586525 -9.207709 21.897620 -0.446916 2.004781 0.083987 -0.028846 -543235.000000 0 1 0
-18.043946 9.123125 -10.633409 22.844797 -0.468122 2.054954 0.093124 -0.030947 -544208.000000 0 1 0
-16.909546 8.895425 -11.378709 22.238173 -0.484277 2.107929 0.088722 -0.029962 -555662.000000 0 1 0
-17.044746 9.632725 -12.594609 23.279539 -0.514395 2.142441 0.109929 -0.035051 205565.000000 0 1 0
-15.810346 9.432725 -13.510009 22.835579 -0.537928 2.203864 0.070319 -0.021341 -223795.000000 0 1 0
-15.896846 8.281925 -14.282409 22.919144 -0.480290 2.243579 0.090279 -0.042722 403421.000000 0 1 0
-15.409046 7.094625 -13.602909 21.744230 -0.431485 2.246680 0.069516 -0.035381 -295777.000000 0 1 0
-15.380646 5.832925 -14.462209 21.903031 -0.362481 2.291992 0.076355 -0.038053 -344851.000000 0 1 0
-14.335346 5.882925 -15.413509 21.856056 -0.389422 2.353541 0.071896 -0.037477 600228.000000 0 1 0
-14.401546 4.682525 -16.159609 22.146411 -0.314359 2.388638 0.077601 -0.039425 -19758.100000 0 1 0
33.119333 -15.178975 28.718737 46.390272 -0.429744 0.903241 0.070943 -0.020274 -201855.000000 0 0 1
32.140583 -14.147475 28.711157 45.359659 -0.414653 0.885417 0.083995 -0.016047 211894.000000 0 0 1
31.115533 -14.329875 29.695777 45.336088 -0.431582 0.856595 0.084093 -0.017593 402534.000000 0 0 1
31.538803 -14.279075 31.210727 46.612204 -0.425135 0.837149 0.084797 -0.033962 -407160.000000 0 0 1
32.124583 -13.059575 31.601807 46.917114 -0.386122 0.831772 0.080677 -0.031742 23718.300000 0 0 1
32.328853 -13.131175 32.992366 48.021648 -0.385818 0.813401 0.073919 -0.031879 -173328.000000 0 0 1
32.942433 -11.830675 33.606356 48.523767 -0.344787 0.805743 0.079873 -0.033769 132152.000000 0 0 1
32.662793 -11.671775 -32.865909 47.783431 -0.343200 2.329264 0.079500 -0.041825 -25873.500000 0 0 1
32.732803 -10.312975 -32.485499 47.255703 -0.305220 2.328756 0.080674 -0.030680 -45505.500000 0 0 1
32.235503 -10.060475 -31.054789 45.877453 -0.302514 2.314349 0.085174 -0.028825 505391.000000 0 0 1
30.816423 -10.209575 -30.988449 44.879520 -0.319922 2.332950 0.104008 -0.031103 548687.000000 0 0 1
30.450063 -10.141575 -29.595459 43.657176 -0.321501 2.315707 0.096450 -0.026550 -231581.000000 0 0 1
29.134163 -9.371575 -29.305439 42.372569 -0.311217 2.334517 0.090884 -0.012347 262445.000000 0 0 1
28.645763 -9.453875 -27.956969 41.128428 -0.318772 2.318215 0.089129 -0.017126 530020.000000 0 0 1
28.017263 -10.715775 -27.596399 40.759736 -0.365304 2.314544 0.125665 -0.018826 -666415.000000 0 0 1
27.466063 -10.612575 -26.161759 39.388437 -0.368718 2.297218 0.127859 -0.018044 -325165.000000 0 0 1
26.566663 -9.473975 -25.915369 38.303395 -0.342553 2.313907 0.117568 -0.019167 1158750.000000 0 0 1
25.299063 -9.311975 -26.540569 37.830639 -0.352686 2.348385 0.106120 -0.021392 895026.000000 0 0 1
24.313263 -10.527475 -26.395339 37.398882 -0.408621 2.354318 0.102326 -0.013954 -548208.000000 0 0 1
24.869263 -11.612375 -27.090519 38.564539 -0.436849 2.349662 0.099753 -0.010007 -18491.300000 0 0 1
23.961463 -12.705975 -27.178049 38.395831 -0.487567 2.357230 0.105941 -0.020003 395118.000000 0 0 1
24.735463 -13.910975 -27.757529 39.696835 -0.512306 2.345127 0.105803 -0.009589 241652.000000 0 0 1
24.902463 -13.756275 -29.105439 40.700053 -0.504689 2.367593 0.106914 -0.019852 -543227.000000 0 0 1
25.829763 -14.617375 -29.614169 41.926642 -0.514978 2.355101 0.098622 -0.018901 -868132.000000 0 0 1
25.763263 -14.669875 -31.172949 43.019806 -0.517624 2.381277 0.103980 -0.024894 -606248.000000 0 0 1
24.699763 -15.335075 -31.777569 43.070369 -0.555616 2.400610 0.107996 -0.022322 -367417.000000 0 0 1
24.778663 -15.483075 -33.150869 44.189228 -0.558495 2.419165 0.099534 -0.023608 15448.800000 0 0 1
24.951663 -14.294575 33.669766 44.278364 -0.520248 0.706850 0.065649 -0.026661 -47006.100000 0 0 1
23.779263 -13.518475 33.580013 43.310735 -0.516934 0.683563 0.079571 -0.020953 -23067.900000 0 0 1
23.954863 -12.509975 32.669431 42.398428 -0.481274 0.691118 0.060168 -0.018807 344255.000000 0 0 1
22.892063 -11.348775 32.887428 41.646418 -0.460243 0.660506 0.073689 -0.024642 1221000.000000 0 0 1
21.519763 -11.546875 32.545314 40.689409 -0.492474 0.643756 0.063490 -0.022315 682318.000000 0 0 1
21.177463 -11.854975 31.231597 39.552978 -0.510330 0.660616 0.052718 -0.021880 -36863.100000 0 0 1
19.652563 -12.084575 30.942767 38.596827 -0.551311 0.640676 0.061277 -0.019152 938321.000000 0 0 1
18.817863 -10.950075 30.952207 37.842506 -0.527003 0.613007 0.074959 -0.025909 -160841.000000 0 0 1
18.097263 -10.808775 32.139800 38.435756 -0.538403 0.580488 0.042252 -0.008619 -526452.000000 0 0 1
17.374163 -9.490375 32.224771 37.820162 -0.499948 0.550902 0.043991 -0.011603 -442427.000000 0 0 1
16.275463 -9.330075 31.327307 36.514945 -0.520526 0.539567 0.080466 -0.019490 584104.000000 0 0 1
15.453063 -8.160375 31.503147 36.025507 -0.485854 0.506459 0.092610 -0.012942 808118.000000 0 0 1
14.402063 -8.368975 32.673061 36.674079 -0.526403 0.471466 0.109741 -0.023799 -1740900.000000 0 0 1
13.381163 -9.194575 32.287548 36.139750 -0.602035 0.465921 0.113673 -0.021663 -1185470.000000 0 0 1
12.341563 -9.246875 33.207170 36.613318 -0.643019 0.434763 0.113859 -0.024277 -189750.000000 0 0 1
11.232863 -8.217175 32.832567 35.660576 -0.631575 0.400935 0.135944 -0.028713 -865253.000000 0 0 1
11.608263 -6.848575 33.014828 35.659973 -0.533015 0.387589 0.131755 -0.032674 -87849.300000 0 0 1
10.716363 -5.982175 32.368824 34.617447 -0.509138 0.362414 0.157106 -0.024340 -172174.000000 0 0 1
11.017963 -4.453875 32.414508 34.524381 -0.384154 0.351412 0.149013 -0.033275 -149119.000000 0 0 1
10.948963 -3.858475 33.729668 35.671531 -0.338816 0.331477 0.136571 -0.043385 181835.000000 0 0 1
11.532863 -2.623875 33.788191 35.798513 -0.223705 0.336720 0.110688 -0.039496 -620444.000000 0 0 1
11.043163 -1.962775 -32.714509 34.583855 -0.175900 2.811300 0.097272 -0.040912 -1053080.000000 0 0 1
9.713263 -1.633575 -32.762879 34.211435 -0.166621 2.849553 0.093194 -0.020661 -1174320.000000 0 0 1
9.264563 -0.891375 -31.682899 33.021701 -0.095918 2.855865 0.093345 -0.017392 -39586.800000 0 0 1
7.732363 -0.740075 -31.565159 32.506867 -0.095421 2.900302 0.086750 -0.014738 -250348.000000 0 0 1
7.232763 0.249625 -32.434099 33.231701 0.034499 2.922057 0.092941 -0.018982 -956091.000000 0 0 1
5.864663 0.284725 -32.183619 32.714838 0.048511 2.961138 0.108784 -0.019778 -940967.000000 0 0 1
5.159563 1.104625 -33.224709 33.641084 0.210909 2.984096 0.114420 -0.028866 -188098.000000 0 0 1
5.633363 2.454125 -33.107459 33.672857 0.410849 2.958082 0.091519 -0.025873 23022.500000 0 0 1
5.115763 3.221825 33.675392 34.213787 0.562032 0.177638 0.093043 -0.030888 50871.100000 0 0 1
5.788863 4.613625 33.609866 34.415398 0.672899 0.216786 0.073419 -0.032882 115064.000000 0 0 1
5.647863 5.247725 32.360885 33.266558 0.748690 0.233877 0.095115 -0.047820 -298284.000000 0 0 1
6.510963 6.316925 32.397790 33.643915 0.770273 0.273019 0.079227 -0.044655 -329033.000000 0 0 1
5.967463 7.410525 31.436947 32.845215 0.892851 0.293891 0.095480 -0.047415 -14004.700000 0 0 1
4.816763 8.074725 31.930729 33.286242 1.032937 0.286365 0.096232 -0.047495 108598.000000 0 0 1
4.401863 9.300325 31.333547 32.979746 1.128734 0.317290 0.097134 -0.054989 -113143.000000 0 0 1
4.004063 9.309325 29.856997 31.529928 1.164603 0.327214 0.091306 -0.051116 540990.000000 0 0 1
2.705763 8.736325 29.602957 30.983538 1.270452 0.299645 0.108208 -0.053100 490711.000000 0 0 1
2.427163 8.521125 28.256047 29.612580 1.293305 0.303853 0.091703 -0.035596 1794450.000000 0 0 1
0.977363 7.843525 28.062377 29.154299 1.446828 0.274552 0.099674 -0.038256 1471430.000000 0 0 1
-0.138937 8.534725 28.540047 29.789178 -1.554519 0.290616 0.101429 -0.032944 -568962.000000 0 0 1
-1.135037 8.487725 27.535447 28.836273 -1.437858 0.301510 0.108519 -0.028893 -198710.000000 0 0 1
-2.556437 8.688725 28.057637 29.483221 -1.284646 0.312241 0.113377 -0.028038 -298523.000000 0 0 1
-2.787637 10.009125 28.546187 30.378254 -1.299170 0.349069 0.109922 -0.025691 -998848.000000 0 0 1
-4.103337 10.074425 28.978487 30.952935 -1.184011 0.359106 0.097892 -0.013524 -735093.000000 0 0 1
-4.537137 11.446625 29.637897 32.093859 -1.193420 0.393753 0.087455 -0.010435 -47363.600000 0 0 1
-4.569237 12.620225 28.846127 31.815831 -1.223421 0.435499 0.082065 -0.011822 362309.000000 0 0 1
-5.619737 12.666625 27.886697 31.139890 -1.153223 0.461176 0.068662 -0.019942 173392.000000 0 0 1
-6.006537 14.064525 27.455027 31.427184 -1.167174 0.508229 0.056700 -0.013860 -353751.000000 0 0 1
-5.048337 14.445825 26.552017 30.645998 -1.234597 0.522828 0.051539 -0.011948 -250057.000000 0 0 1
-5.274837 15.793625 26.253727 31.088916 -1.248459 0.565217 0.039503 -0.006840 76214.900000 0 0 1
-4.078237 16.382025 25.484367 30.568869 -1.326810 0.585075 0.054997 -0.011992 -93471.000000 0 0 1
-3.936637 15.968325 24.151637 29.219619 -1.329088 0.597836 0.036953 0.002747 647776.000000 0 0 1
-2.826237 16.722325 23.611517 29.071077 -1.403369 0.622884 0.033901 0.003565 674110.000000 0 0 1
-2.652237 16.429425 22.108957 27.672484 -1.410745 0.645247 0.040745 -0.002265 -81620.600000 0 0 1
-2.137737 15.166525 21.777057 26.623930 -1.430768 0.612957 0.037465 -0.008360 -106914.000000 0 0 1
-2.116237 15.024825 20.405957 25.428860 -1.430867 0.639369 0.049655 -0.013892 418121.000000 0 0 1
-1.321837 13.767825 19.847457 24.191359 -1.475081 0.608623 0.047012 -0.016368 568518.000000 0 1 0
-2.054537 12.523525 19.887757 23.592005 -1.408191 0.567984 0.046285 -0.017407 11451.500000 0 1 0
-1.334837 11.519825 19.265457 22.486574 -1.455438 0.541854 0.047708 -0.022101 -576412.000000 0 1 0
-2.137037 10.217625 19.133257 21.795604 -1.364616 0.499443 0.035785 -0.020934 -820670.000000 0 1 0
-2.358937 9.441625 20.297057 22.509541 -1.325964 0.447090 0.066296 -0.031361 -319223.000000 0 1 0
-3.149037 9.985325 21.320357 23.752490 -1.265302 0.456490 0.074083 -0.023736 -268680.000000 0 1 0
-4.643137 10.099125 20.924357 23.693455 -1.139859 0.488307 0.062532 -0.019289 -423547.000000 0 1 0
-5.314437 8.830225 20.870857 23.276787 -1.029020 0.458679 0.055878 -0.021149 -1379940.000000 0 1 0
-6.669737 8.963725 20.819657 23.628201 -0.931094 0.492537 0.052297 -0.017664 -1151440.000000 0 1 0
-7.526137 7.672225 20.847457 23.454685 -0.795010 0.475989 0.057119 -0.014064 188997.000000 0 1 0
-7.481337 7.070725 22.114457 24.392925 -0.757189 0.435657 0.060290 -0.016936 -258288.000000 0 1 0
-8.246937 5.930325 22.093457 24.316694 -0.623426 0.430945 0.053156 -0.014880 -199895.000000 0 1 0
-8.139937 5.067725 23.385077 25.274538 -0.556854 0.389122 0.059415 -0.020672 92463.500000 0 0 1
-8.789637 5.730825 24.489257 26.642519 -0.577778 0.404804 0.052033 -0.014930 192419.000000 0 0 1
-8.953737 4.902325 25.609987 27.569433 -0.500935 0.379292 0.053925 -0.006417 -121167.000000 0 0 1
-9.978137 5.359225 26.664227 28.970080 -0.492883 0.401679 0.049881 -0.008333 -5701.580000 0 0 1
-9.494337 6.507625 27.382927 29.703810 -0.600875 0.397928 0.050215 -0.011535 453038.000000 0 0 1
-10.445537 6.966425 28.339297 30.996066 -0.588184 0.417052 0.056727 -0.017445 261866.000000 0 0 1
-9.936037 8.245425 29.054177 31.793979 -0.692679 0.418188 0.066785 -0.013291 -109389.000000 0 0 1
-8.956437 7.907325 29.987517 32.279944 -0.723267 0.379141 0.074572 -0.018351 -50113.800000 0 0 1
-8.293837 9.005525 30.613937 32.971205 -0.826515 0.380429 0.076041 -0.021687 130902.000000 0 0 1
-7.309837 8.500125 31.673407 33.598967 -0.860544 0.340194 0.095317 -0.029505 -61808.500000 0 0 1
-6.037337 8.104025 31.223327 32.817996 -0.930516 0.313017 0.108021 -0.031085 -349836.000000 0 0 1
-5.273937 7.353625 32.120554 33.370949 -0.948627 0.274612 0.137930 -0.036846 -615234.000000 0 0 1
-3.799137 7.222425 31.812993 32.843012 -1.086550 0.251106 0.116047 -0.037185 -469394.000000 0 0 1
-3.092037 8.425425 32.071293 33.303398 -1.219068 0.272862 0.102247 -0.039371 -41781.100000 0 0 1
-1.693937 8.332925 31.843458 32.959261 -1.370247 0.260947 0.105537 -0.045511 505059.000000 0 0 1
-1.072237 9.693725 31.384587 32.865032 -1.460633 0.301292 0.102270 -0.039982 -88815.500000 0 0 1
-0.972837 10.688525 32.404599 34.135744 -1.480029 0.319838 0.096900 -0.050185 -241483.000000 0 0 1
-1.583637 11.868225 32.027289 34.192250 -1.438145 0.357762 0.088934 -0.039871 -380013.000000 0 0 1
-1.660937 12.972325 33.133874 35.621532 -1.443452 0.375936 0.076124 -0.043006 -501256.000000 0 0 1
-0.464737 13.668625 33.244554 35.947847 -1.536809 0.390288 0.116072 -0.045926 -926368.000000 0 0 1
-0.544437 14.636325 -33.579879 36.635047 -1.533616 2.730301 0.110015 -0.043831 637636.000000 0 0 1
0.810363 14.994125 -32.873599 36.140752 1.516804 2.713115 0.094909 -0.038577 452250.000000 0 0 1
1.654763 15.824525 -33.618999 37.193963 1.466605 2.699558 0.101700 -0.040975 -226048.000000 0 0 1
2.916563 16.034325 -33.053529 36.852974 1.390869 2.683511 0.100704 -0.038832 3803.730000 0 0 1
3.882163 16.944225 -33.856479 38.058364 1.345569 2.667251 0.104785 -0.030332 158865.000000 0 0 1
3.502663 18.258125 -33.891719 38.655871 1.381258 2.639869 0.090074 -0.022638 179370.000000 0 0 1
4.548763 19.041825 33.366067 38.685615 1.336308 0.530621 0.072612 -0.005498 305229.000000 0 0 1
4.257063 20.530525 33.314574 39.363510 1.366341 0.561737 0.082449 -0.021186 -152662.000000 0 0 1
4.377763 21.202525 -33.307749 39.725533 1.367184 2.565223 0.102669 -0.037763 -20463.100000 0 0 1
3.954363 22.541325 -33.388869 40.479191 1.397136 2.540716 0.089177 -0.035865 76566.900000 0 0 1
4.237863 23.291525 -32.066959 39.859058 1.390816 2.505644 0.100519 -0.033032 -33480.400000 0 0 1
3.545363 24.498925 -31.932369 40.403504 1.427079 2.482155 0.105515 -0.038041 48358.600000 0 0 1
3.481663 24.890425 -30.549099 39.558851 1.431818 2.453163 0.118067 -0.040798 -88728.500000 0 0 1
2.936363 26.304125 -30.384169 40.295495 1.459625 2.424978 0.123155 -0.045365 -157106.000000 0 0 1
3.822363 27.231225 -30.907249 41.369169 1.431341 2.414497 0.126771 -0.047582 -75427.300000 0 0 1
3.363163 28.461325 -30.416699 41.791548 1.453176 2.385933 0.128787 -0.050499 -16682.000000 0 0 1
4.382863 29.633025 -30.295319 42.604366 1.423956 2.361836 0.145641 -0.060352 778588.000000 0 0 1
5.293363 29.425425 -29.160659 41.763852 1.392809 2.343714 0.137628 -0.066763 819677.000000 0 0 1
6.137363 30.572425 -28.963769 42.558669 1.372681 2.319324 0.145787 -0.071450 603976.000000 0 0 1
7.285663 30.346025 -27.895619 41.858424 1.335170 2.300204 0.150743 -0.059741 -237996.000000 0 0 1
8.401863 29.733325 -28.458069 42.006233 1.295402 2.315117 0.147268 -0.052354 -500772.000000 0 0 1
9.626363 30.415325 -28.342129 42.673588 1.264274 2.297167 0.153210 -0.052994 -48211.300000 0 0 1
9.792463 31.684825 -29.217589 44.198280 1.271050 2.293023 0.171503 -0.057603 -569697.000000 0 0 1
8.967263 32.772825 -28.695319 44.473489 1.303715 2.272111 0.173774 -0.057430 724511.000000 0 0 1
8.961563 33.884725 -29.509649 45.818158 1.312244 2.270590 0.160393 -0.049520 36493.000000 0 0 1
7.691863 33.880825 -30.407119 46.169990 1.347553 2.289741 0.123120 -0.041424 41395.400000 0 0 1
7.738363 33.114725 -31.578229 46.407454 1.341232 2.319181 0.104778 -0.035587 -646731.000000 0 0 1
6.474163 32.634325 -31.866369 46.069289 1.374954 2.334644 0.096758 -0.031050 -676601.000000 0 0 1
6.414363 32.002125 -33.237229 46.583188 1.372982 2.365281 0.103987 -0.046289 -8465.510000 0 0 1
6.469563 32.912525 33.503556 47.408626 1.376703 0.785977 0.097130 -0.040349 142027.000000 0 0 1
6.273063 32.200225 32.318221 46.050768 1.378392 0.792882 0.105393 -0.039119 -184277.000000 0 0 1
5.857063 33.094425 31.133577 45.813162 1.395630 0.823610 0.094138 -0.047012 238022.000000 0 0 1
6.915563 33.731625 30.400307 45.932845 1.368581 0.847522 0.093809 -0.042739 222431.000000 0 0 1
6.542963 -33.307220 29.248327 44.806762 -1.376823 0.859567 0.079275 -0.049089 -104720.000000 0 0 1
18.395054 -21.397475 29.688047 40.958639 -0.860707 0.760009 0.125679 -0.020515 -1151620.000000 0 0 1
17.385554 -20.401975 29.671577 39.986255 -0.865055 0.734681 0.128803 -0.015523 -11822.000000 0 0 1
16.093154 -20.955175 29.721647 39.767893 -0.915887 0.726690 0.132545 -0.013588 -28663.000000 0 0 1
15.628454 -21.560175 31.068297 40.918563 -0.943569 0.708603 0.128163 -0.015440 -1259200.000000 0 0 1
16.314154 -22.739675 31.389137 42.053804 -0.948467 0.728154 0.145210 -0.022637 -48868.600000 0 0 1
16.321754 -23.021175 32.789582 43.261193 -0.954063 0.710640 0.122120 -0.023170 178223.000000 0 0 1
17.271854 -24.201775 33.227369 44.588126 -0.950961 0.729952 0.122076 -0.031441 135108.000000 0 0 1
16.907254 -25.467225 32.874925 44.890929 -0.984723 0.749061 0.145744 -0.038244 19942.100000 0 0 1
17.590554 -26.383395 33.746215 46.306783 -0.982751 0.754297 0.139859 -0.039406 284678.000000 0 0 1
17.220354 -27.860745 33.458230 46.821095 -1.017184 0.774748 0.131565 -0.031673 -148440.000000 0 0 1
17.614654 -28.302205 32.217284 46.359942 -1.014085 0.802463 0.125867 -0.038024 -137285.000000 0 0 1
17.346154 -29.671515 31.950169 46.926551 -1.041773 0.821867 0.123835 -0.042321 -306835.000000 0 0 1
18.112354 -30.330135 30.799447 46.867691 -1.032458 0.853755 0.131554 -0.041183 -40356.700000 0 0 1
19.369254 -30.818905 31.202037 47.943092 -1.009694 0.862140 0.134152 -0.041783 47175.100000 0 0 1
20.176054 -31.201745 30.079517 47.805851 -0.996792 0.890271 0.103579 -0.036551 -945567.000000 0 0 1
21.527354 -31.751465 30.453017 48.979269 -0.974992 0.899817 0.094773 -0.032156 -1111520.000000 0 0 1
22.476054 -30.754195 30.686647 48.914863 -0.939678 0.892653 0.099797 -0.036585 -344539.000000 0 0 1
23.770854 -31.310765 30.576557 49.803046 -0.921439 0.909742 0.072129 -0.029852 66682.600000 0 0 1
24.811254 -30.140125 30.699417 49.663666 -0.882070 0.904414 0.067084 -0.031259 -855449.000000 0 0 1
26.070154 -30.491255 30.258817 50.249036 -0.863404 0.924571 0.074344 -0.033013 -1313890.000000 0 0 1
26.944954 -29.431285 30.496857 50.222400 -0.829472 0.918219 0.065530 -0.023381 -235250.000000 0 0 1
28.071654 -29.380845 29.450897 50.185727 -0.808182 0.943648 0.046412 -0.011078 -347505.000000 0 0 1
28.981254 -30.421715 29.534417 51.358307 -0.809642 0.958111 0.031543 -0.006500 -325428.000000 0 0 1
30.055654 -30.323745 28.625287 51.403103 -0.789838 0.980173 0.018135 -0.011378 659618.000000 0 0 1
31.154154 -31.445305 28.776087 52.796323 -0.790049 0.994360 0.011841 -0.017822 384872.000000 0 0 1
30.647854 -32.718405 28.531697 53.139842 -0.818062 1.004018 0.005703 -0.011954 761241.000000 0 0 1
31.606254 -33.731365 28.961527 54.548422 -0.817912 1.011096 0.035303 -0.014869 727880.000000 0 0 1
30.752454 32.885797 29.602527 53.884123 0.818909 0.989182 0.029724 -0.013613 24120.900000 0 0 1
30.097454 33.162208 30.817387 54.362673 0.833808 0.968077 0.039398 -0.013149 381404.000000 0 0 1
29.022854 -33.683345 30.889667 54.139314 -0.859584 0.963610 0.018836 -0.004754 342165.000000 0 0 1
27.744054 33.731682 30.092467 53.038812 0.882490 0.967492 0.028849 -0.008423 -306098.000000 0 0 1
27.275654 32.432580 30.492737 52.207668 0.871553 0.947067 0.015664 -0.009221 566363.000000 0 0 1
25.848454 32.394753 30.322967 51.352166 0.897324 0.939130 0.028205 -0.005204 1120470.000000 0 0 1
25.290254 30.928970 30.220717 50.094809 0.885363 0.923201 0.048514 -0.018425 8564.620000 0 0 1
25.234854 30.476680 28.892957 48.994172 0.879211 0.940081 0.046210 -0.021338 49305.800000 0 0 1
25.033954 29.101790 28.847097 48.018414 0.860399 0.926356 0.089523 -0.042907 -609813.000000 0 0 1
24.426254 28.596270 27.605407 46.652407 0.863883 0.937599 0.082105 -0.041134 64371.200000 0 0 1
23.154754 29.233950 27.471387 46.318934 0.900922 0.935903 0.105746 -0.040380 558626.000000 0 0 1
22.428854 28.842980 26.290627 45.012977 0.909852 0.947065 0.098014 -0.036835 -155220.000000 0 0 1
21.073954 29.506210 26.130097 44.693512 0.950590 0.946347 0.113487 -0.029352 -412510.000000 0 0 1
21.166654 30.847410 25.678507 45.375938 0.969411 0.969265 0.116064 -0.037219 487240.000000 0 0 1
19.852754 31.347310 25.405527 44.969173 1.006239 0.970418 0.106080 -0.032840 194244.000000 0 0 1
19.769354 32.708968 24.677297 45.493659 1.027147 0.997465 0.121308 -0.031145 -258401.000000 0 0 1
20.238854 32.731866 23.299337 44.987170 1.017013 1.026390 0.125657 -0.029622 711972.000000 0 0 1
21.630754 33.065022 23.284447 45.862302 0.991482 1.038279 0.124989 -0.028837 498424.000000 0 0 1
22.197254 33.217729 21.833857 45.528595 0.981709 1.070639 0.135455 -0.028508 18800.000000 0 0 1
21.732154 -33.375005 21.238957 45.136136 -0.993613 1.080879 0.133398 -0.018313 257776.000000 0 0 1
22.461154 -33.051605 20.086357 44.725539 -0.973908 1.105036 0.146021 -0.028410 -142601.000000 0 0 1
22.063654 -31.678895 19.600357 43.295857 -0.962438 1.100997 0.128652 -0.025648 -351216.000000 0 0 1
22.582054 -30.583945 20.267457 43.082441 -0.934785 1.081013 0.129925 -0.021804 91527.300000 0 0 1
22.199354 -29.333755 19.713357 41.736039 -0.922967 1.078859 0.123137 -0.028370 11680.900000 0 0 1
23.041654 -28.839805 18.472357 41.278083 -0.896694 1.106817 0.094361 -0.021431 -109701.000000 0 0 1
22.947554 -29.667525 17.332957 41.318080 -0.912430 1.137901 0.075720 -0.030367 247167.000000 0 0 1
23.356354 -28.986105 16.184857 40.591418 -0.892542 1.160669 0.060389 -0.025123 -58653.000000 0 0 1
22.802354 -29.659095 14.882057 40.262699 -0.915362 1.192192 0.044099 -0.023887 750271.000000 0 0 1
23.731154 -30.723955 14.524857 41.449977 -0.913113 1.212778 0.083622 -0.028100 740188.000000 0 0 1
23.867954 -31.052685 13.157657 41.316733 -0.915480 1.246694 0.072283 -0.027393 -581182.000000 0 0 1
22.638454 -31.178485 12.244957 40.429402 -0.942773 1.263091 0.062156 -0.032145 -756201.000000 0 0 1
21.808154 -32.224105 12.531357 40.878154 -0.975835 1.259226 0.070838 -0.033997 -629662.000000 0 0 1
20.686054 -32.316835 11.707057 40.116653 -1.001411 1.274662 0.072329 -0.027238 -191996.000000 0 0 1
19.445054 -32.974745 12.335457 40.219491 -1.037988 1.259069 0.085570 -0.022520 -85521.200000 0 0 1
19.054354 -32.275805 13.507757 39.840375 -1.037495 1.224893 0.076180 -0.011363 201464.000000 0 0 1
19.359454 -33.111535 14.650357 41.058436 -1.041722 1.205938 0.070614 -0.022891 -718232.000000 0 0 1
19.303454 -32.424355 16.044557 41.004755 -1.033812 1.168769 0.079146 -0.032035 -39253.100000 0 0 1
18.039354 -31.897415 16.422857 40.156863 -1.056098 1.149474 0.081535 -0.034643 85640.100000 0 0 1
17.115554 -32.908625 16.793557 40.717851 -1.091204 1.145669 0.078339 -0.025690 -612878.000000 0 0 1
17.123854 -33.582475 18.165657 41.844953 -1.099257 1.121737 0.082559 -0.031802 -571560.000000 0 0 1
18.037754 33.149268 18.198257 41.897627 1.072465 1.121479 0.074175 -0.029092 -245538.000000 0 0 1
18.169154 32.672333 19.505757 42.167216 1.063280 1.089892 0.061709 -0.021397 379388.000000 0 0 1
19.256954 31.569930 19.548057 41.828427 1.023073 1.084518 0.067968 -0.019121 325852.000000 0 0 1
18.740454 30.338160 19.018557 40.414281 1.017450 1.080837 0.046552 -0.021901 633276.000000 0 0 1
19.770254 29.350110 18.831657 40.086447 0.978009 1.081759 0.051707 -0.030832 255145.000000 0 0 1
19.170954 27.971400 18.494557 38.626071 0.969952 1.071497 0.051956 -0.027835 53448.700000 0 0 1
18.501854 27.381890 19.629857 38.437193 0.976568 1.034798 0.055446 -0.027628 326858.000000 0 0 1
18.097754 26.031210 19.314157 37.123972 0.963277 1.023640 0.059829 -0.020182 -268334.000000 0 0 1
18.142354 25.018580 20.512857 37.092475 0.943386 0.984812 0.065696 -0.011544 166222.000000 0 0 1
17.115654 25.214640 21.493957 37.292277 0.974442 0.956523 0.056090 -0.014112 551765.000000 0 0 1
15.962654 24.445660 21.207957 36.085649 0.992325 0.942569 0.072609 -0.018164 553280.000000 0 0 1
14.625754 24.711560 21.964157 36.152429 1.036385 0.917833 0.098753 -0.040646 856170.000000 0 0 1
13.944454 25.904640 21.593757 36.493678 1.076981 0.937615 0.100655 -0.039632 9435.370000 0 0 1
12.618054 25.990330 22.059757 36.350316 1.118824 0.918685 0.105036 -0.042071 77008.700000 0 0 1
11.737054 27.022380 21.301257 36.355344 1.161036 0.944784 0.102629 -0.046147 -382942.000000 0 0 1
11.996054 28.398560 21.591157 37.637237 1.171115 0.959823 0.086444 -0.047141 -138667.000000 0 0 1
11.701454 29.283180 20.472057 37.596992 1.190638 0.994988 0.086945 -0.048814 -12288.600000 0 0 1
12.149354 30.756420 20.612357 38.967082 1.194592 1.013412 0.085362 -0.048059 65867.300000 0 0 1
11.352254 31.479380 21.486057 39.767772 1.224687 1.000017 0.076533 -0.043793 -136388.000000 0 0 1
12.030854 31.451780 22.731157 40.628333 1.205451 0.977026 0.063911 -0.042686 763232.000000 0 0 1
11.286154 32.347331 23.797077 41.713643 1.235097 0.963698 0.067065 -0.038551 386082.000000 0 0 1
10.042354 31.918813 24.283057 41.344001 1.265980 0.943026 0.076348 -0.040988 -287619.000000 0 0 1
9.755254 32.442872 25.581607 42.451426 1.278706 0.924030 0.066357 -0.038377 -797800.000000 0 0 1
8.400154 32.058133 26.155607 42.218507 1.314529 0.902653 0.133054 -0.055312 -225555.000000 0 0 1
7.243854 32.798278 25.744577 42.320015 1.353425 0.916840 0.135580 -0.048989 754865.000000 0 0 1
6.589354 32.361205 24.556237 41.154295 1.369923 0.931430 0.134682 -0.059404 124536.000000 0 0 1
5.798054 31.016340 24.453007 39.919674 1.385994 0.911507 0.134631 -0.051772 -177516.000000 0 0 1
6.607554 29.891030 24.724267 39.350005 1.353240 0.891409 0.101778 -0.049639 -697479.000000 0 0 1
5.972254 28.655350 24.481837 38.159629 1.365321 0.874261 0.105349 -0.048255 -258218.000000 0 0 1
6.984154 27.421280 24.484757 37.419358 1.321401 0.857495 0.086539 -0.049245 296700.000000 0 0 1
7.856754 27.330910 23.350997 36.796417 1.290876 0.883306 0.081031 -0.047236 977932.000000 0 0 1
8.822854 28.424990 23.263227 37.775661 1.269834 0.907363 0.099652 -0.043939 311189.000000 0 0 1
10.106454 28.302690 24.165407 38.563579 1.227824 0.893565 0.095400 -0.052186 -476837.000000 0 0 1
9.764054 28.355340 25.543737 39.393459 1.239167 0.865281 0.086653 -0.047533 17715.800000 0 0 1
10.818954 28.022570 26.427467 40.009065 1.202347 0.849263 0.091847 -0.034540 576147.000000 0 0 1
12.046154 28.971090 26.497877 41.067888 1.176745 0.869483 0.085096 -0.035930 20667.000000 0 0 1
11.648154 30.097020 27.197007 42.204115 1.201529 0.870537 0.084241 -0.042572 420705.000000 0 0 1
12.795054 30.879450 27.506637 43.288208 1.177977 0.882231 0.081286 -0.034106 123884.000000 0 0 1
12.450854 32.143224 28.385457 44.653609 1.201238 0.881906 0.063509 -0.035464 74060.500000 0 0 1
11.958854 31.907870 29.709717 45.208336 1.212207 0.853734 0.069336 -0.046219 1027480.000000 0 0 1
10.627254 31.368880 29.892977 44.615415 1.244149 0.836568 0.083595 -0.047088 862342.000000 0 0 1
10.224454 31.197600 31.360407 45.401596 1.254095 0.808293 0.127197 -0.041940 70328.100000 0 0 1
10.749854 29.992030 31.900201 45.085520 1.226637 0.784773 0.088525 -0.036025 113778.000000 0 0 1
10.808754 30.042630 33.374452 46.187042 1.225435 0.763250 0.123845 -0.034247 -252661.000000 0 0 1
10.983954 28.691670 -33.832219 45.699871 1.205181 2.404332 0.108077 -0.036600 -177669.000000 0 0 1
12.243554 28.092790 33.781750 45.610483 1.159792 0.736748 0.111550 -0.032176 104357.000000 0 0 1
12.181854 26.701500 -33.731039 44.711863 1.142779 2.425550 0.112136 -0.036696 -181353.000000 0 0 1
13.509654 26.013740 33.751274 44.703176 1.091806 0.715129 0.107759 -0.039993 -28605.100000 0 0 1
13.608254 24.663080 -33.690089 43.914396 1.066598 2.445224 0.083432 -0.043740 -217545.000000 0 0 1
13.732354 24.321830 -32.339479 42.731380 1.056805 2.429213 0.079989 -0.040745 -186329.000000 0 0 1
13.752654 22.835390 -32.182709 41.788961 1.028723 2.449833 0.067486 -0.057138 -459808.000000 0 0 1
14.923654 22.284470 -32.687299 42.282060 0.980705 2.454475 0.060819 -0.044050 -523834.000000 0 0 1
14.863454 20.852570 -32.657109 41.499864 0.951540 2.476599 0.063968 -0.044040 48168.200000 0 0 1
16.168654 20.186370 -33.148689 42.044625 0.895465 2.479027 0.094824 -0.059298 680199.000000 0 0 1
17.297654 20.484070 -32.317039 41.990439 0.869537 2.449055 0.103132 -0.061718 301054.000000 0 0 1
18.437354 19.734570 -32.663839 42.382964 0.819369 2.450709 0.115527 -0.058150 29713.800000 0 0 1
19.657654 19.947770 -31.728889 42.320908 0.792723 2.418437 0.100836 -0.051954 -109887.000000 0 0 1
20.217754 21.184770 -32.066059 43.425617 0.808750 2.401511 0.104879 -0.045662 -344153.000000 0 0 1
21.185654 21.707870 -31.178249 43.498813 0.797572 2.369942 0.083954 -0.037491 42998.800000 0 0 1
20.727654 22.062770 -29.725419 42.426430 0.816589 2.347083 0.071306 -0.038369 -147217.000000 0 0 1
20.080554 23.328360 -29.704519 42.776156 0.860078 2.338407 0.062060 -0.028092 73784.800000 0 0 1
19.736154 23.861830 -28.421499 42.031944 0.879747 2.313372 0.052475 -0.016159 112488.000000 0 0 1
21.014154 24.262900 -27.625699 42.349288 0.857028 2.281450 0.047128 -0.018315 740116.000000 0 0 1
21.807254 25.293750 -28.236669 43.733735 0.859285 2.272670 0.034082 -0.003310 19339.200000 0 0 1
21.262154 26.609690 -28.128439 44.174245 0.896642 2.261087 0.026567 -0.005182 -343190.000000 0 0 1
22.116454 27.642920 -28.882499 45.688810 0.896009 2.255130 0.021834 0.000565 -376843.000000 0 0 1
22.050254 27.845390 -30.282979 46.675885 0.901025 2.276793 0.048596 -0.003942 -156450.000000 0 0 1
22.276154 26.685610 -31.113459 46.651861 0.875215 2.300875 0.059512 -0.012166 1759380.000000 0 0 1
23.692154 25.892120 -30.949429 46.793025 0.829737 2.293495 0.068051 -0.013106 1767650.000000 0 0 1
24.794454 26.735060 -31.176119 47.973730 0.823040 2.278194 0.056514 -0.004953 -668731.000000 0 0 1
25.881754 26.512300 -30.343589 47.890507 0.797432 2.256998 0.103506 -0.022059 190966.000000 0 0 1
27.163154 27.315640 -30.761919 49.297838 0.788197 2.244649 0.082400 -0.011062 95975.200000 0 0 1
27.175054 28.692050 -30.510049 49.925749 0.812545 2.228257 0.043555 -0.004049 292881.000000 0 0 1
28.420154 29.352830 -30.760839 51.142184 0.801541 2.216145 0.057013 -0.009863 620458.000000 0 0 1
28.574754 30.608550 -29.814709 51.403471 0.819749 2.189542 0.044987 0.000150 65964.500000 0 0 1
29.128154 30.366140 -28.485249 50.813003 0.806204 2.165894 0.068037 -0.006005 528956.000000 0 0 1
29.087754 31.506320 -27.633619 51.013357 0.825291 2.143247 0.044055 0.003930 -628887.000000 0 0 1
29.449954 31.186200 -26.146909 50.234846 0.814024 2.118225 0.065672 -0.002333 433958.000000 0 0 1
28.609654 30.263830 -25.398279 48.779958 0.813488 2.118432 0.056354 0.007514 1807760.000000 0 0 1
27.209454 30.609220 -25.241849 48.108520 0.844131 2.123142 0.035162 0.013549 655276.000000 0 0 1
26.515254 30.112910 -24.003109 46.754629 0.848844 2.109921 0.034042 0.028102 -274433.000000 0 0 1
26.745154 30.937960 -22.827409 46.835363 0.857957 2.079902 0.065539 0.006368 86677.100000 0 0 1
26.137854 30.389790 -21.673309 45.568181 0.860475 2.066469 0.050150 0.011126 124540.000000 0 0 1
3.544654 -25.690995 -19.361409 32.364424 -1.433689 2.212088 0.090723 -0.017730 -199571.000000 0 0 1
3.228554 -26.886495 -18.779309 32.954053 -1.451288 2.177136 0.101170 -0.015495 82242.200000 0 0 1
2.861454 -26.738595 -17.433109 32.047678 -1.464186 2.145962 0.099792 -0.019768 -183408.000000 0 0 1
2.780354 -27.949755 -16.545109 32.598463 -1.471646 2.103127 0.100706 -0.027362 249158.000000 0 0 1
4.053154 -28.368465 -16.067809 32.853802 -1.428881 2.081820 0.100856 -0.024581 137985.000000 0 0 1
4.019054 -29.258045 -14.995409 33.121719 -1.434285 2.040628 0.100860 -0.026549 -552857.000000 0 0 1
5.320454 -30.013075 -14.839009 33.901152 -1.395348 2.023851 0.140499 -0.020498 -174439.000000 0 0 1
6.401854 -29.262835 -14.292509 33.189954 -1.355419 2.015984 0.104478 -0.016510 220160.000000 0 0 1
7.586454 -30.056795 -14.190009 34.092837 -1.323556 2.000077 0.114942 -0.017929 617700.000000 0 0 1
7.986954 -30.545185 -12.752609 34.050386 -1.315042 1.954677 0.107102 -0.024188 -444703.000000 0 0 1
8.551154 -29.453225 -11.963909 32.920355 -1.288235 1.942732 0.108778 -0.029316 186596.000000 0 0 1
8.833454 -29.764215 -10.628309 32.816145 -1.282295 1.900618 0.110072 -0.026391 2649.580000 0 0 1
10.016354 -30.742095 -10.411309 33.967618 -1.255824 1.882317 0.107416 -0.019264 276699.000000 0 0 1
11.259854 -30.054775 -10.216209 33.681519 -1.212337 1.878969 0.115039 -0.031919 496199.000000 0 0 1
12.338854 -30.981705 -10.193509 34.871492 -1.191789 1.867444 0.120086 -0.030121 239094.000000 0 0 1
13.407954 -30.600455 -9.133809 34.635062 -1.157830 1.837669 0.122250 -0.035041 276856.000000 0 0 1
14.558254 -29.939155 -9.633109 34.656782 -1.118200 1.852463 0.126213 -0.051619 -48524.000000 0 0 1
15.592854 -29.865685 -8.707209 34.798157 -1.089626 1.823704 0.107594 -0.041564 -688093.000000 0 0 1
16.857254 -29.241215 -9.264809 35.000748 -1.047843 1.838692 0.101684 -0.046983 -479415.000000 0 0 1
16.704454 -27.828845 -9.499309 33.818934 -1.030188 1.855515 0.117650 -0.048953 246836.000000 0 0 1
16.108554 -27.451945 -10.747309 33.594634 -1.040146 1.896432 0.108509 -0.046163 -105446.000000 0 0 1
15.882454 -25.938945 -10.964309 32.331058 -1.021381 1.916784 0.119122 -0.045388 -367960.000000 0 0 1
14.858654 -25.558025 -10.047609 31.224136 -1.044188 1.898416 0.096442 -0.049667 581444.000000 0 0 1
14.339954 -24.217775 -10.093109 29.899929 -1.036187 1.915123 0.077103 -0.039789 247591.000000 0 0 1
13.646954 -23.611175 -11.372709 29.547681 -1.046720 1.965889 0.067632 -0.032627 159260.000000 0 0 1
14.471754 -23.186175 -12.461309 30.038552 -1.012805 1.998568 0.068669 -0.030899 37063.300000 0 0 1
13.796754 -23.325075 -13.728809 30.379100 -1.036651 2.039709 0.075146 -0.030321 346414.000000 0 0 1
14.569954 -22.680475 -14.903209 30.802486 -0.999782 2.075824 0.074351 -0.032962 -27061.000000 0 0 1
15.664254 -23.444675 -15.331609 32.094857 -0.981776 2.068827 0.066180 -0.032023 -237073.000000 0 0 1
16.283454 -22.779475 -16.394609 32.447474 -0.950186 2.100487 0.070723 -0.037650 -527507.000000 0 0 1
17.401554 -23.547875 -17.144709 33.930186 -0.934381 2.100519 0.076348 -0.036650 754715.000000 0 0 1
18.693554 -23.652275 -16.549209 34.391211 -0.901968 2.072825 0.103864 -0.039737 312709.000000 0 0 1
19.505054 -22.536275 -16.926909 34.276101 -0.857375 2.087297 0.112193 -0.041516 20013.500000 0 0 1
21.007754 -22.810975 -16.617409 35.182447 -0.826527 2.062718 0.093753 -0.032964 240933.000000 0 0 1
21.526554 -23.712775 -17.572609 36.530601 -0.833686 2.072635 0.113861 -0.032980 514729.000000 0 0 1
22.883454 -23.995375 -17.176309 37.342417 -0.809113 2.048755 0.119302 -0.007737 977104.000000 0 0 1
23.605154 -25.032615 -18.069209 38.862983 -0.814739 2.054371 0.106987 -0.007485 -171794.000000 0 0 1
24.128154 -24.578275 -19.316509 39.489074 -0.794639 2.081924 0.118781 -0.014554 5108.780000 0 0 1
24.815354 -25.700805 -19.856809 40.873292 -0.802924 2.078090 0.109865 -0.023526 48759.800000 0 0 1
26.307054 -25.441125 -20.177409 41.790427 -0.768666 2.074673 0.099049 -0.027538 73705.700000 0 0 1
26.592054 -24.541975 -21.287909 41.983579 -0.745327 2.102559 0.113475 -0.037109 -106937.000000 0 0 1
26.689454 -23.153875 -21.136209 41.172421 -0.714583 2.109890 0.117487 -0.036288 -188426.000000 0 0 1
25.326654 -22.380975 -21.031309 39.807831 -0.723732 2.127418 0.132504 -0.037647 436367.000000 0 0 1
24.786654 -21.860875 -22.221709 39.825625 -0.722759 2.162740 0.146472 -0.035924 -35105.600000 0 0 1
24.341454 -22.869375 -23.146209 40.635719 -0.754227 2.176819 0.113226 -0.037162 -1043650.000000 0 0 1
23.477254 -22.176875 -24.170709 40.338795 -0.756923 2.213289 0.102389 -0.025499 -514015.000000 0 0 1
24.154854 -21.309275 -25.057299 40.809440 -0.722890 2.231924 0.097512 -0.018197 491846.000000 0 0 1
23.245854 -20.488375 -25.781299 40.309039 -0.722431 2.264762 0.098715 -0.011233 419535.000000 0 0 1
24.087854 -19.984075 -26.968959 41.314800 -0.692550 2.282028 0.087660 -0.011898 413525.000000 0 0 1
23.343254 -19.113975 -27.860229 41.066335 -0.686113 2.316406 0.081221 -0.003446 285301.000000 0 0 1
24.053154 -18.558175 -28.944819 41.961442 -0.657150 2.332003 0.083521 -0.005511 -12539.700000 0 0 1
23.226854 -17.512475 -29.801579 41.645019 -0.646040 2.368293 0.113505 -0.010738 357061.000000 0 0 1
22.046154 -18.030675 -30.401179 41.657770 -0.685537 2.388802 0.108569 -0.007153 607700.000000 0 0 1
21.294854 -16.988775 -31.053569 41.308757 -0.673391 2.421498 0.104730 -0.014325 -202115.000000 0 0 1
19.981054 -17.401375 -31.677039 41.297520 -0.716500 2.445018 0.085745 -0.013102 -643003.000000 0 0 1
20.235854 -18.064475 -32.912509 42.650302 -0.728765 2.452279 0.099462 -0.015877 828714.000000 0 0 1
19.088254 -18.667375 -33.535289 42.865463 -0.774251 2.469207 0.099198 -0.015873 480129.000000 0 0 1
19.518454 -19.529475 33.072338 43.083060 -0.785680 0.695644 0.122570 -0.014354 155807.000000 0 0 1
20.298154 -20.615175 33.534296 44.289384 -0.793147 0.711837 0.127078 -0.011537 36757.500000 0 0 1
20.596554 -21.536575 32.506379 44.098830 -0.807705 0.741989 0.128912 -0.018992 94779.400000 0 0 1
21.649354 -22.624275 32.885395 45.409267 -0.807415 0.760923 0.113593 -0.013668 57671.000000 0 0 1
21.191354 -23.660475 33.728069 46.330058 -0.840393 0.755403 0.124508 -0.016330 30440.400000 0 0 1
20.999554 -23.421975 -32.738669 45.402540 -0.839877 2.376150 0.117293 -0.022008 255618.000000 0 0 1
20.096954 -24.555175 -32.061089 45.108287 -0.884912 2.361372 0.119925 -0.026619 125492.000000 0 0 1
20.592154 -25.850685 -32.073629 46.054450 -0.898144 2.341205 0.130274 -0.037904 -23885.600000 0 0 1
21.738654 -26.033365 -31.261519 46.125782 -0.875057 2.315488 0.099865 -0.025564 174247.000000 0 0 1
21.852554 -27.554345 -31.008359 46.885972 -0.900295 2.293423 0.095375 -0.034484 536990.000000 0 0 1
20.629454 -27.986695 -30.394509 46.180685 -0.935592 2.289175 0.104535 -0.032806 682775.000000 0 0 1
20.589054 -29.427675 -30.546499 47.148550 -0.960306 2.275591 0.101210 -0.036149 -290895.000000 0 0 1
19.335654 -30.099515 -29.897999 46.623370 -0.999789 2.266944 0.119227 -0.035758 1510010.000000 0 0 1
18.071654 -29.879935 -30.569259 46.409856 -1.026848 2.289860 0.137029 -0.042929 782813.000000 0 0 1
17.998854 -30.507515 -31.864269 47.644505 -1.037776 2.303379 0.140475 -0.047677 454511.000000 0 0 1
16.545354 -31.037955 -32.255089 47.723099 -1.081045 2.312954 0.147435 -0.056800 1301880.000000 0 0 1
15.628154 -30.046785 -32.620139 47.022568 -1.091177 2.337427 0.149426 -0.053373 -762300.000000 0 0 1
14.498654 -30.602215 -33.217869 47.435570 -1.128346 2.346577 0.114580 -0.037619 -224000.000000 0 0 1
13.535554 -29.575565 -33.854309 46.947199 -1.141591 2.376206 0.106366 -0.026318 187920.000000 0 0 1
12.624454 -28.966775 -32.958059 45.658346 -1.159792 2.377255 0.123662 -0.037403 -450716.000000 0 0 1
11.651754 -28.326315 -33.691279 45.532908 -1.180552 2.403766 0.096152 -0.036824 -400288.000000 0 0 1
10.628554 -27.429755 -32.957149 44.176139 -1.201127 2.412891 0.106094 -0.035031 802254.000000 0 0 1
9.556754 -28.145245 -32.327589 43.915366 -1.243460 2.398137 0.108719 -0.030446 176306.000000 0 0 1
8.615954 -27.309655 -31.726349 42.738895 -1.265189 2.407337 0.058645 -0.026640 388083.000000 0 0 1
7.446354 -28.002305 -30.918219 42.373500 -1.310892 2.388620 0.040443 -0.021423 718217.000000 0 0 1
6.598154 -28.709015 -31.827559 43.367461 -1.344891 2.394848 0.047986 -0.025613 72981.300000 0 0 1
6.941454 -30.087605 -32.014339 44.478822 -1.344056 2.374261 0.053052 -0.026208 380609.000000 0 0 1
5.707454 -30.971305 -32.442349 45.213966 -1.388559 2.371045 0.082352 -0.033756 439618.000000 0 0 1
4.832554 -31.187255 -31.394949 44.515629 -1.417066 2.353582 0.087053 -0.045122 -67279.000000 0 0 1
3.853354 -32.190735 -31.678509 45.327913 -1.451659 2.344619 0.105632 -0.067618 -333162.000000 0 0 1
2.947454 -32.694535 -30.516319 44.820373 -1.480888 2.319730 0.086433 -0.067600 880419.000000 0 0 1
1.881054 -31.791665 -30.123139 43.836649 -1.511697 2.328380 0.073930 -0.062069 216024.000000 0 0 1
0.740054 -31.952045 -30.915929 44.466566 -1.547639 2.339581 0.070546 -0.031087 -978290.000000 0 0 1
-0.208746 -30.764195 -30.596429 43.389177 1.564011 2.353449 0.056800 -0.018522 -218550.000000 0 0 1
-0.836446 -30.992905 -29.346879 42.690738 1.543815 2.328740 0.039037 -0.024249 -194139.000000 0 0 1
-1.425746 -29.775695 -28.926979 41.537872 1.522950 2.341165 0.095464 -0.020654 152410.000000 0 0 1
-2.291546 -29.724725 -27.658459 40.666950 1.493856 2.318724 0.102196 -0.022428 -279177.000000 0 0 1
-1.464346 -29.918235 -26.560319 40.033681 1.521890 2.296216 0.069268 -0.021841 -238790.000000 0 0 1
-2.059446 -29.768045 -25.270399 39.102057 1.501723 2.273480 0.091641 -0.025820 -175645.000000 0 0 1
-1.192246 -30.450205 -24.214209 38.922543 1.531662 2.242235 0.058732 -0.024179 126919.000000 0 0 1
-1.718646 -30.259405 -22.891109 37.981419 1.514060 2.217667 0.106791 -0.032709 47993.900000 0 0 1
-0.757646 -30.712315 -21.974409 37.771616 1.546132 2.191700 0.090779 -0.030459 66351.700000 0 0 1
-1.229646 -30.625545 -20.529609 36.890390 1.530667 2.160967 0.045750 -0.015857 -135933.000000 0 0 1
-1.357846 -29.323315 -19.993609 35.516826 1.524523 2.168727 0.032351 -0.011879 1444040.000000 0 0 1
-0.098046 -28.658955 -19.620409 34.731912 1.567375 2.171121 0.061841 -0.024497 1576150.000000 0 0 1
-0.424346 -27.213455 -19.043609 33.217634 1.555204 2.181322 0.071974 -0.029805 -77694.500000 0 0 1
-1.138046 -27.239985 -17.833309 32.578195 1.529042 2.150051 0.063321 -0.024841 -171728.000000 0 0 1
-1.140846 -25.983565 -17.168909 31.164380 1.526918 2.154256 0.071284 -0.027117 -238841.000000 0 0 1
-2.163746 -25.820645 -16.045509 30.476972 1.487193 2.125251 0.058264 -0.022703 -339057.000000 0 0 1
-2.022346 -24.589175 -15.403409 29.085777 1.488736 2.128908 0.047394 -0.023135 -21065.600000 0 0 1
-2.991746 -24.535075 -14.402909 28.607066 1.449458 2.098411 0.048875 -0.021207 -218443.000000 0 0 1
-2.633946 -23.472075 -13.310209 27.111577 1.459048 2.083967 0.047075 -0.013675 -192842.000000 0 0 1
-1.539146 -23.799175 -12.498209 26.925358 1.506214 2.053505 0.055401 -0.017386 -441344.000000 0 0 1
-1.400346 -22.754975 -11.596509 25.577898 1.509334 2.041350 0.060358 -0.016192 -388294.000000 0 0 1
-0.073746 -22.781075 -10.845909 25.231261 1.567559 2.015134 0.059403 -0.024637 -337849.000000 0 0 1
0.158454 -21.515075 -10.202709 23.812157 -1.563432 2.013591 0.045432 -0.016646 -76809.500000 0 1 0
1.512054 -21.431875 -9.798909 23.614194 -1.500361 1.998693 0.036420 -0.016112 262237.000000 0 1 0
1.930954 -20.003175 -9.455809 22.209635 -1.474562 2.010590 0.032669 -0.014504 -1023750.000000 0 1 0
2.219754 -19.290675 -10.611109 22.128106 -1.456231 2.070916 0.030605 -0.003250 207385.000000 0 1 0
3.141754 -18.228975 -10.326109 21.184774 -1.400124 2.079941 0.024558 -0.003775 1434950.000000 0 1 0
4.648654 -18.552475 -10.000809 21.582875 -1.325283 2.052588 0.052040 -0.021672 415867.000000 0 1 0
4.695654 -18.841375 -8.651809 21.257948 -1.326552 1.989955 0.052999 -0.025742 18550.700000 0 1 0
5.825354 -19.626275 -8.295709 22.089459 -1.282265 1.955787 0.069400 -0.029031 9624.130000 0 1 0
5.395454 -20.658675 -7.279809 22.558532 -1.315331 1.899385 0.069867 -0.032941 -311903.000000 0 1 0
4.548354 -21.610275 -7.813709 23.425319 -1.363352 1.910872 0.064382 -0.036544 -319933.000000 0 1 0
4.624854 -22.794275 -7.068709 24.309152 -1.370618 1.865842 0.086144 -0.030041 185356.000000 0 1 0
3.691054 -23.934375 -7.547309 25.366120 -1.417786 1.872906 0.086700 -0.023859 121287.000000 0 0 1
4.163154 -24.380675 -8.771809 26.242976 -1.401671 1.911609 0.087960 -0.036787 -414007.000000 0 0 1
3.238054 -25.155865 -9.456809 27.069055 -1.442781 1.927683 0.074189 -0.029834 -530105.000000 0 0 1
3.858954 -26.064825 -10.460409 28.349370 -1.423812 1.948710 0.061576 -0.029456 -442133.000000 0 0 1
4.537154 -27.141145 -9.912109 29.248545 -1.405159 1.916536 0.077391 -0.033467 -376250.000000 0 0 1
5.264854 -27.863755 -10.856909 30.364123 -1.384048 1.936447 0.092547 -0.024914 -202231.000000 0 0 1
4.973454 -29.364625 -10.903909 31.716110 -1.403020 1.921754 0.088067 -0.025192 1058690.000000 0 0 1
3.607854 -29.718595 -11.261409 31.984853 -1.449987 1.930595 0.094170 -0.021560 1132340.000000 0 0 1
3.497954 -31.116005 -11.290709 33.285455 -1.458850 1.916872 0.101997 -0.024910 -30506.900000 0 0 1
2.085854 -31.574375 -11.704209 33.738412 -1.504831 1.925071 0.084139 -0.035090 -83701.800000 0 0 1
1.823354 -31.309895 -13.089509 33.984840 -1.512626 1.966175 0.098646 -0.042843 156750.000000 0 0 1
1.152054 -32.390485 -13.656209 35.170482 -1.535244 1.969567 0.081579 -0.034729 -382437.000000 0 0 1
0.786154 -32.224355 -15.115509 35.602046 -1.546405 2.009282 0.081859 -0.026610 -88433.700000 0 0 1
-0.274046 -31.325285 -15.332509 34.877420 1.562048 2.025962 0.084424 -0.027892 -132699.000000 0 0 1
-0.907146 -31.518555 -16.565409 35.618183 1.542023 2.054525 0.049805 -0.022139 420546.000000 0 0 1
-2.041646 -30.502235 -16.917809 34.939475 1.503962 2.076249 0.053111 -0.012879 267387.000000 0 0 1
-3.204846 -30.636855 -16.147109 34.779549 1.466568 2.053607 0.060476 -0.019720 -428247.000000 0 0 1
-4.313146 -30.092415 -16.822409 34.744066 1.428436 2.076223 0.073760 -0.013327 176910.000000 0 0 1
-5.693846 -30.341125 -16.189609 34.858387 1.385293 2.053798 0.078552 -0.018123 -118687.000000 0 0 1
-5.991346 -29.471205 -15.115109 33.658797 1.370235 2.036519 0.055377 -0.010426 361502.000000 0 0 1
-7.391646 -29.366225 -14.883709 33.742205 1.324213 2.027621 0.068160 -0.012637 591556.000000 0 0 1
-8.021546 -30.351545 -13.838609 34.308433 1.312416 1.985981 0.067842 -0.019875 -60304.200000 0 0 1
-8.194746 -31.644415 -14.374909 35.709394 1.317399 1.985100 0.079270 -0.026056 -364760.000000 0 0 1
-8.860646 -32.421085 -13.445509 36.199717 1.304012 1.951341 0.081977 -0.023595 25493.400000 0 0 1
-9.177446 -33.878645 -13.880909 37.744771 1.306254 1.947392 0.121657 -0.037215 -118815.000000 0 0 1
-7.997646 33.183873 -14.084209 36.925556 -1.334297 1.962130 0.119846 -0.036951 -126918.000000 0 0 1
-8.355346 31.879264 -14.466809 35.991497 -1.314468 1.984443 0.134482 -0.049865 -129258.000000 0 0 1
-7.034146 -21.644075 -3.207809 22.983368 1.256572 1.710824 0.046618 -0.018207 133547.000000 0 1 0
-6.954646 -20.781875 -4.296009 22.331796 1.247862 1.764375 0.046407 -0.014937 -472138.000000 0 1 0
-5.883846 -20.876475 -5.182809 22.300411 1.296081 1.805350 0.035602 -0.012515 -340013.000000 0 1 0
-6.015746 -19.925675 -6.417909 21.780984 1.277589 1.869892 0.052163 -0.010600 -191128.000000 0 1 0
-7.121746 -20.205575 -7.239809 22.614140 1.231928 1.896679 0.064504 -0.016356 -225344.000000 0 1 0
-7.410046 -19.052875 -8.001509 21.953245 1.199878 1.943870 0.056980 -0.024496 -36631.000000 0 1 0
-8.401746 -19.149375 -9.156409 22.828222 1.157339 1.983514 0.074734 -0.027392 313052.000000 0 1 0
-7.847846 -19.915275 -10.231409 23.725273 1.195420 2.016669 0.090968 -0.018901 260493.000000 0 1 0
-8.886346 -20.131875 -11.146909 24.668058 1.155111 2.039664 0.106385 -0.023152 518657.000000 0 1 0
-8.262846 -21.085675 -12.242709 25.744207 1.197318 2.066388 0.084131 -0.013149 880649.000000 0 0 1
-7.205846 -20.467775 -12.990309 25.290357 1.232289 2.110226 0.073299 -0.003958 678787.000000 0 0 1
-6.573946 -21.340875 -13.984909 26.348195 1.271975 2.130309 0.052538 -0.004463 802699.000000 0 0 1
-5.435346 -20.798575 -14.889509 26.149974 1.315180 2.176559 0.042534 0.002069 925818.000000 0 0 1
-4.148146 -20.585775 -14.296209 25.403992 1.371954 2.168510 0.044484 -0.003147 992835.000000 0 0 1
-3.139546 -19.973775 -15.124709 25.250054 1.414889 2.213044 0.051621 0.003246 508643.000000 0 0 1
-3.243346 -18.449375 -15.465909 24.291831 1.396777 2.260970 0.059120 0.006655 -34889.900000 0 1 0
-4.379946 -18.043975 -16.259709 24.680905 1.332665 2.290015 0.052429 0.015626 493535.000000 0 1 0
-4.358246 -18.413175 -17.626809 25.860079 1.338382 2.320774 0.078056 -0.001558 61383.700000 0 0 1
-5.792546 -18.303875 -18.216209 26.465367 1.264303 2.329944 0.059277 0.012519 395038.000000 0 0 1
-6.630946 -19.359875 -17.830209 27.142044 1.240810 2.287525 0.048120 0.003791 143680.000000 0 0 1
-7.973946 -19.141275 -18.258509 27.628705 1.176076 2.292751 0.040873 0.003325 763711.000000 0 0 1
-8.931346 -20.298575 -17.809109 28.442318 1.156291 2.247400 0.071484 -0.012628 59560.100000 0 0 1
-8.515946 -21.568575 -18.240809 29.503421 1.194754 2.237324 0.076012 -0.010193 222081.000000 0 0 1
-9.423046 -22.598875 -17.912009 30.337155 1.175747 2.202390 0.104833 -0.008237 10199.900000 0 0 1
-8.955146 -23.926975 -18.493209 31.538762 1.212666 2.197360 0.116541 -0.023849 -635777.000000 0 0 1
-9.022846 -23.885575 -19.952509 32.404244 1.209614 2.234118 0.107547 -0.028056 -16125.800000 0 0 1
-8.167546 -24.816575 -20.567809 33.250653 1.252846 2.237716 0.120582 -0.046185 962792.000000 0 0 1
-6.641746 -24.397575 -20.556909 32.587435 1.305007 2.253410 0.102383 -0.030954 199833.000000 0 0 1
-6.376246 -23.150775 -21.251909 32.066470 1.302037 2.295275 0.136887 -0.049270 80369.500000 0 0 1
-6.270946 -21.968375 -20.456309 30.665857 1.292738 2.301067 0.106244 -0.042042 -69812.900000 0 0 1
-5.184346 -21.946275 -19.332209 29.702705 1.338820 2.279509 0.113506 -0.027507 -240871.000000 0 0 1
-3.851546 -22.180475 -19.655609 29.885629 1.398865 2.288550 0.099974 -0.036903 -416900.000000 0 0 1
-3.016446 -21.905075 -18.546909 28.860337 1.433952 2.268740 0.057257 -0.029551 490482.000000 0 0 1
-1.590746 -22.505475 -18.583209 29.229480 1.500231 2.259801 0.087610 -0.034607 136257.000000 0 0 1
-0.655146 -21.962875 -19.473309 29.359953 1.540975 2.295964 0.124529 -0.037844 -408562.000000 0 0 1
0.576654 -22.638275 -19.384209 29.808918 -1.545329 2.278752 0.086530 -0.036289 772847.000000 0 0 1
1.721754 -21.900775 -20.201909 29.845025 -1.492342 2.314331 0.085233 -0.035872 778975.000000 0 0 1
1.474254 -21.994175 -21.581609 30.849360 -1.503867 2.345606 0.084826 -0.043670 -364081.000000 0 0 1
2.389654 -21.237775 -22.323509 30.904572 -1.458749 2.377972 0.086881 -0.038115 -820609.000000 0 0 1
2.119054 -21.218975 -23.813909 31.966194 -1.471260 2.411289 0.111228 -0.044156 383420.000000 0 0 1
1.265554 -20.232175 -24.433609 31.748130 -1.508326 2.449023 0.106859 -0.039017 874997.000000 0 0 1
-0.041246 -20.129075 -23.837209 31.199261 1.568747 2.440335 0.129271 -0.043150 -343920.000000 0 0 1
-0.903046 -19.091675 -24.486109 31.062470 1.523531 2.478815 0.140448 -0.051978 -518765.000000 0 0 1
-0.445946 -17.809275 -24.276209 30.111517 1.545761 2.508514 0.099363 -0.037884 144240.000000 0 0 1
-1.233346 -16.799875 -24.981709 30.130428 1.497514 2.548326 0.119101 -0.047468 533100.000000 0 0 1
-0.734046 -15.351975 -24.758909 29.141474 1.523018 2.586043 0.107462 -0.026103 -294991.000000 0 0 1
0.511554 -15.098175 -25.334219 29.496427 -1.536927 2.603897 0.109267 -0.030254 -792660.000000 0 0 1
1.076654 -13.896675 -24.881409 28.519489 -1.493475 2.630960 0.103738 -0.026890 142483.000000 0 0 1
0.606454 -12.701175 -25.713269 28.685533 -1.523085 2.682341 0.101136 -0.023627 -143149.000000 0 0 1
1.231854 -11.500775 -25.400699 27.910227 -1.464093 2.714287 0.098728 -0.023377 -216197.000000 0 0 1
0.828054 -10.481175 -26.269339 28.295209 -1.491956 2.760886 0.098560 -0.025740 -1060420.000000 0 0 1
1.506954 -9.145575 -25.946219 27.552109 -1.407490 2.798487 0.104662 -0.033612 668632.000000 0 0 1
2.928154 -9.161275 -26.071629 27.789078 -1.261435 2.788180 0.098728 -0.025928 292519.000000 0 0 1
3.377054 -9.280475 -27.416349 29.140829 -1.221803 2.795846 0.091681 -0.032568 81184.200000 0 0 1
4.897054 -9.067275 -27.784729 29.634233 -1.075601 2.786427 0.085244 -0.031484 891495.000000 0 0 1
5.275054 -7.708975 -27.533729 29.075087 -0.970703 2.814520 0.074021 -0.038825 122626.000000 0 0 1
6.421154 -7.335875 -28.278089 29.911479 -0.851792 2.809593 0.077279 -0.029698 -223341.000000 0 0 1
7.725254 -7.108575 -27.475019 29.412379 -0.743850 2.776613 0.086735 -0.030350 300827.000000 0 0 1
8.476754 -8.258375 -27.049329 29.524944 -0.772350 2.729168 0.081462 -0.035925 540612.000000 0 0 1
9.226854 -8.917675 -28.035859 30.832923 -0.768360 2.712355 0.097854 -0.043022 -502285.000000 0 0 1
9.640554 -10.328075 -27.532749 30.946109 -0.819815 2.667484 0.083601 -0.037918 406564.000000 0 0 1
8.499354 -11.186875 -27.483469 30.866264 -0.921077 2.669030 0.090726 -0.042335 626818.000000 0 0 1
8.653154 -12.278375 -26.572919 30.524672 -0.956891 2.627093 0.087825 -0.039722 -503196.000000 0 0 1
9.573554 -13.355575 -27.099019 31.691973 -0.948870 2.596492 0.084248 -0.047888 -281355.000000 0 0 1
9.055954 -14.019275 -28.249159 32.811055 -0.997263 2.607959 0.096664 -0.055182 -124956.000000 0 0 1
9.931354 -14.993975 -28.732699 33.897184 -0.985784 2.582323 0.081963 -0.045899 -96405.900000 0 0 1
9.270954 -15.745575 -29.923089 35.060875 -1.038655 2.593387 0.081677 -0.043725 57481.400000 0 0 1
9.078954 -14.964075 -31.074929 35.665139 -1.025453 2.628635 0.093890 -0.044312 -197567.000000 0 0 1
8.332554 -15.597575 -32.021889 36.580284 -1.080148 2.637031 0.113025 -0.038031 -823163.000000 0 0 1
7.090854 -14.812575 -32.457029 36.375147 -1.124329 2.673180 0.126857 -0.041238 -231242.000000 0 0 1
7.360454 -13.758775 -33.337079 36.808165 -1.079570 2.703820 0.136094 -0.038512 -176050.000000 0 0 1
6.166754 -13.150575 -33.749619 36.742390 -1.132309 2.735186 0.113593 -0.052046 -198571.000000 0 0 1
6.300754 -11.995075 33.165602 35.826506 -1.087131 0.387840 0.156098 -0.040632 -275426.000000 0 0 1
6.640654 -12.272775 31.839441 34.763045 -1.074821 0.413054 0.161030 -0.036558 232310.000000 0 0 1
6.998954 -11.031275 31.242767 33.864213 -1.005420 0.396056 0.165779 -0.037901 -272304.000000 0 0 1
7.241754 -11.097275 29.697507 32.519755 -0.992616 0.419692 0.179712 -0.028536 434743.000000 0 0 1
6.143954 -11.676075 28.981397 31.843371 -1.086409 0.427215 0.159130 -0.024940 707041.000000 0 0 1
6.580654 -11.835675 27.626247 30.766829 -1.063357 0.455768 0.143942 -0.026982 518893.000000 0 0 1
5.574054 -12.588375 26.689597 30.031182 -1.153951 0.476230 0.111509 -0.044674 -46086.700000 0 0 1
5.664854 -13.990575 27.004767 30.936778 -1.186069 0.509678 0.111419 -0.038318 -156261.000000 0 0 1
5.151954 -14.865975 26.038877 30.423067 -1.237189 0.543522 0.066446 -0.028091 -1046710.000000 0 0 1
3.650054 -15.012875 26.059007 30.294904 -1.332296 0.535178 0.053984 -0.040074 -810808.000000 0 0 1
2.845054 -13.887775 25.669147 29.323536 -1.368732 0.504581 0.052294 -0.041181 -83815.200000 0 0 1
1.598554 -14.312075 25.176747 29.004473 -1.459565 0.519576 0.031243 -0.032353 -194400.000000 0 0 1
0.696154 -13.122375 24.842777 28.104180 -1.517795 0.486546 0.027904 -0.031196 -627867.000000 0 0 1
1.266054 -12.306175 23.790557 26.814837 -1.468277 0.479521 0.011293 -0.012742 351527.000000 0 0 1
0.471754 -11.170475 23.394917 25.929216 -1.528589 0.445812 0.020873 -0.009506 -87082.000000 0 0 1
-0.886346 -11.424675 22.765757 25.487026 1.493370 0.466319 0.038629 -0.016423 -901117.000000 0 0 1
-0.775546 -12.206775 21.543157 24.773261 1.507348 0.516378 0.040787 -0.008550 -456112.000000 0 1 0
-1.963346 -12.826575 21.120357 24.788006 1.418907 0.550927 0.048953 -0.020864 -75891.500000 0 1 0
-1.855146 -13.353575 19.694557 23.867030 1.432755 0.600278 0.070060 -0.025456 -52451.100000 0 1 0
-0.872346 -14.375175 19.615957 24.335004 1.510186 0.633298 0.087211 -0.028722 -270740.000000 0 1 0
-1.117646 -15.322975 18.541257 24.079471 1.497986 0.691951 0.096791 -0.027765 961232.000000 0 1 0
-2.431646 -16.224975 18.638557 24.830597 1.422033 0.721783 0.092331 -0.033443 1183390.000000 0 1 0
-2.483546 -17.245275 17.640857 24.794502 1.427767 0.779190 0.075251 -0.033333 34982.800000 0 1 0
-3.529846 -18.185975 17.892957 25.755532 1.379083 0.802762 0.098244 -0.028040 381054.000000 0 0 1
-3.189546 -19.544575 17.208657 26.235501 1.409029 0.855382 0.091486 -0.037232 191247.000000 0 0 1
-2.090846 -20.245675 17.753157 27.008028 1.467887 0.853528 0.100294 -0.039837 -102933.000000 0 0 1
-2.175546 -21.585175 17.318457 27.759354 1.470347 0.897101 0.106219 -0.059151 -257491.000000 0 0 1
-1.070246 -22.420475 17.982957 28.761257 1.523097 0.895345 0.120112 -0.047507 30222.100000 0 0 1
0.168954 -22.148775 17.372357 28.149522 -1.563168 0.905686 0.124438 -0.055511 -850943.000000 0 0 1
1.172254 -22.955775 17.918457 29.144689 -1.519775 0.908651 0.132477 -0.040124 196914.000000 0 0 1
2.495054 -22.923475 17.099357 28.707125 -1.462380 0.932723 0.130542 -0.051378 563742.000000 0 0 1
3.229454 -21.681375 17.247557 27.892465 -1.422933 0.904143 0.136510 -0.048502 64551.100000 0 0 1
4.148254 -21.483775 16.185057 27.216111 -1.380056 0.933921 0.138489 -0.048753 303035.000000 0 0 1
5.175354 -20.394975 16.619057 26.812914 -1.322285 0.902289 0.121259 -0.031956 -757542.000000 0 0 1
6.181454 -20.848475 17.526557 27.929366 -1.282559 0.892418 0.117204 -0.019349 309332.000000 0 0 1
7.017054 -19.829175 18.076457 27.734339 -1.230673 0.860878 0.121296 -0.015296 1271260.000000 0 0 1
7.979754 -19.115775 17.022357 26.811378 -1.175344 0.882926 0.111576 -0.019236 97792.700000 0 0 1
7.177454 -18.254375 16.182357 25.428463 -1.196174 0.880990 0.101536 -0.018393 380077.000000 0 0 1
7.932254 -17.423475 15.306857 24.511182 -1.143575 0.896325 0.124422 -0.026130 -8538.660000 0 1 0
7.042154 -16.468575 14.486057 23.035880 -1.166716 0.890726 0.080260 -0.021504 -474659.000000 0 1 0
6.115654 -17.111075 13.675057 22.741972 -1.227536 0.925652 0.089790 -0.026732 -226716.000000 0 1 0
5.580654 -16.266175 12.664057 21.356744 -1.240297 0.936045 0.058111 -0.030640 -15085.600000 0 1 0
6.102554 -16.558275 11.206857 20.904815 -1.217692 1.004998 0.057171 -0.026476 -458012.000000 0 1 0
7.399354 -16.096675 11.054657 20.882022 -1.139920 1.012919 0.064751 -0.025617 -748601.000000 0 1 0
8.055154 -16.598675 9.912157 20.944030 -1.118987 1.077798 0.068564 -0.017906 609712.000000 0 1 0
9.399554 -15.818675 9.726257 20.813029 -1.034648 1.084544 0.064258 -0.020558 777910.000000 0 1 0
10.296354 -16.495875 8.846857 21.363419 -1.012789 1.143829 0.071515 -0.010933 -199270.000000 0 1 0
11.611754 -15.995375 8.946757 21.696298 -0.942869 1.145750 0.065466 -0.009507 435240.000000 0 1 0
12.632154 -16.723875 8.020557 22.440781 -0.923889 1.205303 0.069431 -0.019642 231256.000000 0 1 0
13.012754 -17.990475 8.477157 23.766598 -0.944594 1.206081 0.087543 -0.024883 -619340.000000 0 1 0
13.923554 -18.584575 7.648657 24.449003 -0.927808 1.252613 0.080763 -0.027002 -534777.000000 0 1 0
14.394354 -19.949775 8.227257 25.939906 -0.945767 1.248057 0.076484 -0.029387 224437.000000 0 0 1
13.391454 -20.961875 8.374357 26.246164 -1.002301 1.246049 0.081863 -0.026246 10192.500000 0 0 1
13.916354 -22.045375 9.109657 27.616106 -1.007708 1.234633 0.057070 -0.020355 -214796.000000 0 0 1
12.986854 -22.954175 9.919257 28.177015 -1.055924 1.211053 0.083551 -0.024120 -204847.000000 0 0 1
12.767654 -22.317975 11.178157 28.036694 -1.051160 1.160700 0.095132 -0.023368 -29488.000000 0 0 1
11.893454 -22.997375 12.116457 28.585697 -1.093511 1.133089 0.116570 -0.032221 -111027.000000 0 0 1
12.132154 -24.430775 12.629357 30.059152 -1.109878 1.137186 0.086408 -0.032186 1251430.000000 0 0 1
13.451254 -24.601975 13.249957 31.012172 -1.070448 1.129347 0.048689 -0.033251 1409790.000000 0 0 1
13.522454 -25.870455 13.767057 32.274899 -1.089155 1.130115 0.071974 -0.046728 -171702.000000 0 0 1
14.657254 -26.213655 14.750357 33.459884 -1.060959 1.114265 0.055155 -0.039231 -151410.000000 0 0 1
14.616754 -25.558615 15.994457 33.506939 -1.051301 1.073163 0.060712 -0.033896 -150163.000000 0 0 1
15.648254 -26.005435 16.807057 34.693338 -1.029106 1.065066 0.068880 -0.037415 -591863.000000 0 0 1
15.584854 -25.431615 18.277757 34.981869 -1.021008 1.021025 0.093319 -0.035302 -241687.000000 0 0 1
15.857754 -24.043275 18.495557 34.229126 -0.987736 0.999949 0.070657 -0.029409 -496491.000000 0 0 1
17.209754 -23.900475 18.798357 34.939757 -0.946734 1.002708 0.069087 -0.030462 -644668.000000 0 0 1
17.685954 -22.472675 19.060757 34.367522 -0.904034 0.982896 0.070372 -0.025078 -73316.600000 0 0 1
17.779754 -21.574575 18.006457 33.253789 -0.881528 0.998593 0.062049 -0.018156 1042730.000000 0 0 1
16.534954 -20.893775 17.698757 31.987506 -0.901332 0.984473 0.083450 -0.019261 281957.000000 0 0 1
16.751454 -19.740175 16.713457 30.815992 -0.867117 0.997549 0.063781 -0.012428 221126.000000 0 0 1
17.506854 -18.633375 17.235457 30.834293 -0.816559 0.977653 0.053898 -0.011487 -748663.000000 0 0 1
18.871354 -18.796775 17.170257 31.690133 -0.783418 0.998199 0.041811 -0.007346 -1360460.000000 0 0 1
19.708854 -17.519375 17.401957 31.594233 -0.726653 0.987479 0.053271 -0.008067 -326011.000000 0 0 1
19.855854 -17.214275 18.760257 32.288287 -0.714259 0.950811 0.052720 0.002119 221105.000000 0 0 1
20.655354 -16.060875 18.984557 32.326596 -0.660910 0.943110 0.054863 -0.002736 -36683.000000 0 0 1
21.219454 -15.946475 20.439957 33.501450 -0.644462 0.914582 0.047409 -0.001969 -106263.000000 0 0 1
22.361354 -16.767275 20.581457 34.709769 -0.643394 0.936068 0.057420 0.005322 -189462.000000 0 0 1
22.793754 -16.673775 21.888557 35.730645 -0.631560 0.911452 0.067272 0.003467 -70352.300000 0 0 1
34.542493 -0.908575 -7.531309 35.365660 -0.026297 1.785395 0.108149 -0.022485 -570577.000000 0 0 1
35.782343 -0.653775 -8.105309 36.694680 -0.018269 1.793518 0.136840 -0.032933 -413481.000000 0 0 1
36.640083 -1.789275 -8.004809 37.546959 -0.048795 1.785640 0.166167 -0.047451 175845.000000 0 0 1
-36.838606 -1.452175 -8.557609 37.847382 0.039400 1.798877 0.157187 -0.043282 107946.000000 0 0 1
-35.833325 -2.462275 -8.491109 36.907843 0.068607 1.802938 0.185092 -0.033393 -785770.000000 0 0 1
-34.649291 -1.976275 -8.966509 35.845185 0.056975 1.823627 0.275961 -0.046540 -750933.000000 0 0 1
-33.472346 -3.007475 -8.873009 34.758785 0.089609 1.828927 0.254560 -0.038636 195351.000000 0 0 1
-33.050436 -3.278975 -7.557109 34.061604 0.098888 1.794524 0.246841 -0.047457 94364.700000 0 0 1
-31.911716 -4.112975 -7.685609 33.080851 0.128179 1.805267 0.237682 -0.064395 -51264.500000 0 0 1
-31.246846 -4.399475 -6.317709 32.181271 0.139878 1.768396 0.216872 -0.078289 -196997.000000 0 0 1
-30.517216 -3.324975 -5.795109 31.240025 0.108526 1.757380 0.227855 -0.070245 234119.000000 0 0 1
-30.447356 -3.507775 -4.379309 30.960043 0.114702 1.712723 0.221014 -0.064347 -101079.000000 0 0 1
-30.258506 -2.082075 -3.710309 30.556155 0.068701 1.692523 0.234148 -0.062301 -163261.000000 0 0 1
-28.943396 -1.586975 -3.807609 29.235877 0.054775 1.701405 0.232444 -0.060754 359025.000000 0 0 1
-28.905216 -0.283275 -3.179609 29.080950 0.009800 1.680352 0.250619 -0.070257 5936.890000 0 0 1
-27.464936 0.191025 -2.861309 27.614240 -0.006955 1.674600 0.275919 -0.049022 313367.000000 0 0 1
-26.789786 -0.603875 -1.883009 26.862669 0.022537 1.640951 0.251710 -0.048424 1945630.000000 0 0 1
-25.504846 -0.069975 -1.414909 25.544158 0.002744 1.626215 0.222657 -0.040707 1371600.000000 0 0 1
-24.964046 -0.721675 -0.171509 24.975064 0.028901 1.577664 0.218133 -0.038235 -199452.000000 0 1 0
-24.796746 -2.135175 -0.280709 24.890086 0.085895 1.582074 0.198598 -0.035037 432407.000000 0 1 0
-24.003846 -2.628075 0.783191 24.159983 0.109051 1.538374 0.170516 -0.027293 -56735.700000 0 1 0
-24.061246 -4.163975 0.841591 24.433389 0.171360 1.536345 0.171631 -0.018431 168756.000000 0 1 0
-25.124696 -4.612775 1.679791 25.599799 0.181573 1.505132 0.176845 -0.032436 546859.000000 0 0 1
-25.491766 -5.946475 1.312991 26.209056 0.229172 1.520678 0.160190 -0.017561 585704.000000 0 0 1
-26.758696 -6.374175 2.167091 27.592647 0.233851 1.492177 0.162907 -0.021658 459840.000000 0 0 1
-26.581786 -6.843175 3.494391 27.670040 0.251967 1.444170 0.163570 -0.023881 -691516.000000 0 0 1
-27.744746 -7.211575 4.148791 28.965327 0.254299 1.427069 0.161555 -0.011572 -630385.000000 0 0 1
-27.552046 -7.464375 5.673091 29.103540 0.264568 1.374612 0.165295 -0.007953 -201644.000000 0 0 1
-26.784616 -8.621175 5.961191 28.762408 0.311399 1.362027 0.162420 0.000180 85368.400000 0 0 1
-26.692056 -8.869475 7.383991 29.080178 0.320810 1.314067 0.152720 -0.019931 345479.000000 0 0 1
-25.962376 -7.756175 8.279091 28.332782 0.290307 1.274261 0.137353 -0.022378 -303559.000000 0 0 1
-24.595746 -7.593375 8.039491 26.967452 0.299444 1.268076 0.146881 -0.021044 -423740.000000 0 0 1
-24.199046 -6.291275 8.403091 26.377754 0.254350 1.246579 0.150805 -0.030616 -258577.000000 0 0 1
-22.818146 -5.829675 7.897191 24.839857 0.250134 1.247257 0.143271 -0.031331 500641.000000 0 1 0
-21.703246 -6.445675 8.529291 24.193520 0.288694 1.210508 0.118470 -0.034637 -512978.000000 0 1 0
-20.480246 -6.190875 7.944291 22.822777 0.293552 1.215268 0.099136 -0.027320 -628108.000000 0 1 0
-19.285446 -6.639875 8.789891 22.209875 0.331583 1.163896 0.093555 -0.025409 -203332.000000 0 1 0
-19.045046 -5.671675 9.810491 22.161394 0.289440 1.112207 0.080325 -0.022872 413103.000000 0 1 0
-17.987646 -6.064675 10.680991 21.781167 0.325189 1.058274 0.082326 -0.026783 10972.500000 0 1 0
-17.646246 -5.025475 11.780991 21.804521 0.277445 1.000002 0.077979 -0.014161 268454.000000 0 1 0
-18.719346 -4.950375 12.711791 23.162680 0.258534 0.989862 0.108811 -0.022881 370463.000000 0 1 0
-18.862646 -3.683575 13.332091 23.390442 0.192857 0.964314 0.114964 -0.015664 269138.000000 0 1 0
-20.174746 -3.476175 14.160691 24.892355 0.170628 0.965656 0.125264 -0.024365 323045.000000 0 1 0
-20.295846 -4.404475 15.207391 25.740736 0.213700 0.938758 0.144925 -0.030642 -115682.000000 0 0 1
-21.536746 -4.339475 15.852491 27.091769 0.198829 0.945743 0.135149 -0.013303 -308502.000000 0 0 1
-21.499646 -5.174575 17.102991 27.955738 0.236190 0.912477 0.130617 -0.012612 409990.000000 0 0 1
-22.454846 -4.770775 18.127691 29.250531 0.209348 0.902386 0.117636 -0.012424 862087.000000 0 0 1
-22.198946 -5.259575 19.410891 29.953948 0.232639 0.865809 0.122952 -0.002123 -475740.000000 0 0 1
-23.081746 -4.789375 20.569591 31.285990 0.204593 0.853341 0.122504 -0.014564 -476863.000000 0 0 1
-23.129246 -3.362675 20.718791 31.233602 0.144375 0.845510 0.131912 -0.022291 244711.000000 0 0 1
-23.653546 -3.022075 21.983291 32.432827 0.127076 0.826017 0.124133 -0.021947 -268225.000000 0 0 1
-23.813846 -1.518075 22.120691 32.538113 0.063661 0.823253 0.110701 -0.013838 -572870.000000 0 0 1
-24.991646 -1.064775 21.549091 33.016351 0.042579 0.859681 0.113579 -0.024024 -722814.000000 0 0 1
-25.093686 0.362725 21.590691 33.105628 -0.014454 0.860345 0.107916 -0.018949 -351197.000000 0 0 1
-26.462446 0.912625 21.170191 33.900898 -0.034474 0.896340 0.110566 -0.027147 -63786.100000 0 0 1
-27.373506 0.721625 22.219591 35.263859 -0.026356 0.889120 0.123413 -0.027153 -127639.000000 0 0 1
-28.730196 1.066125 22.018391 36.212847 -0.037091 0.917223 0.112837 -0.024786 256035.000000 0 0 1
-29.551016 0.967125 23.312091 37.651712 -0.032716 0.903135 0.097418 -0.017844 -206795.000000 0 0 1
-29.247056 2.039425 24.165891 37.993944 -0.069618 0.881433 0.091451 -0.021511 -183300.000000 0 0 1
-29.923246 1.896925 25.352291 39.264967 -0.063308 0.868893 0.086415 -0.024978 -231637.000000 0 0 1
-29.480076 2.933225 26.434991 39.705005 -0.099172 0.842251 0.106888 -0.027527 111720.000000 0 0 1
-28.188676 2.738325 26.965191 39.105260 -0.096839 0.809923 0.097656 -0.031883 256133.000000 0 0 1
-27.810426 3.670125 28.018891 39.647798 -0.131211 0.785981 0.090958 -0.026554 -948574.000000 0 0 1
-26.551586 3.217725 28.680291 39.216062 -0.120600 0.750511 0.111035 -0.027378 -1409990.000000 0 0 1
-26.745086 2.098525 29.524691 39.892491 -0.078304 0.737568 0.112052 -0.031124 -65373.800000 0 0 1
-25.724166 1.695625 30.392091 39.853319 -0.065820 0.703475 0.092266 -0.030789 -338032.000000 0 0 1
-26.154356 0.483125 31.271891 40.770270 -0.018470 0.696602 0.090334 -0.036108 -223171.000000 0 0 1
-26.542636 -0.662575 30.534291 40.463483 0.024957 0.715731 0.070260 -0.036864 105469.000000 0 0 1
-26.736416 -1.804775 31.374991 41.261159 0.067400 0.706867 0.085125 -0.030694 -535390.000000 0 0 1
-27.563816 -2.942075 30.696591 41.360615 0.106334 0.734495 0.086712 -0.025617 769950.000000 0 0 1
-28.916436 -2.520175 30.422591 42.048134 0.086934 0.761911 0.103521 -0.030548 851446.000000 0 0 1
-29.144476 -1.753475 29.236791 41.319065 0.060092 0.784720 0.098700 -0.031310 -997868.000000 0 0 1
-30.646876 -1.552575 29.092991 42.285265 0.050617 0.812043 0.079471 -0.040105 -552578.000000 0 0 1
-31.189776 -0.693175 30.014191 43.291272 0.022221 0.804727 0.102834 -0.028078 -455413.000000 0 0 1
-32.504496 -0.342775 29.623791 43.979867 0.010545 0.831760 0.090676 -0.032536 449270.000000 0 0 1
-33.511316 -0.205675 30.814991 45.525973 0.006137 0.827299 0.090332 -0.024857 118884.000000 0 0 1
-33.768126 -1.428675 31.457291 46.172379 0.042283 0.821258 0.096698 -0.027174 76409.200000 0 0 1
-34.412714 -1.192875 32.703691 47.488833 0.034650 0.811156 0.114583 -0.025309 104323.000000 0 0 1
-34.619543 -2.468675 33.611391 48.314933 0.071188 0.801440 0.119811 -0.027270 -206498.000000 0 0 1
-35.654487 -3.265275 33.117591 48.771706 0.091326 0.824352 0.099206 -0.029755 -133801.000000 0 0 1
-35.702820 -4.491075 33.837891 49.394979 0.125133 0.816128 0.093308 -0.025088 14869.600000 0 0 1
-36.860606 -5.456375 33.459391 50.080007 0.146960 0.839119 0.087703 -0.017559 -736564.000000 0 0 1
36.821033 -4.971575 33.910191 50.303142 -0.134208 0.831028 0.082040 -0.025690 -1101590.000000 0 0 1
35.669483 -5.530575 33.295391 49.106846 -0.153826 0.825732 0.083229 -0.029912 319442.000000 0 0 1
34.377753 -4.774975 33.815091 48.457101 -0.138014 0.798425 0.086374 -0.030046 123664.000000 0 0 1
33.867203 -5.230775 -32.758075 47.407171 -0.153239 2.333660 0.083274 -0.026996 460847.000000 0 0 1
33.247653 -6.547075 -32.817775 47.172841 -0.194431 2.340179 0.101181 -0.036695 -676425.000000 0 0 1
31.862173 -6.628975 -33.460775 46.677241 -0.205125 2.370076 0.090601 -0.035215 -959905.000000 0 0 1
30.834623 -6.437175 -32.536075 45.285841 -0.205809 2.372382 0.099925 -0.032062 504700.000000 0 0 1
29.559363 -6.852475 -33.072675 44.883340 -0.227797 2.399208 0.085325 -0.027933 666414.000000 0 0 1
28.385263 -6.693875 -32.111175 43.378090 -0.231591 2.404257 0.091230 -0.027248 -124530.000000 0 0 1
27.105163 -7.097075 -32.564975 42.959701 -0.256086 2.431092 0.077044 -0.022833 98532.800000 0 0 1
26.140363 -6.565775 -31.675975 41.590809 -0.246083 2.436590 0.069139 -0.023176 -335231.000000 0 0 1
24.720163 -7.018475 -32.065575 41.091928 -0.276637 2.466002 0.054002 -0.024272 -213354.000000 0 0 1
24.528763 -8.413375 -31.985375 41.176562 -0.330426 2.460342 0.055083 -0.025813 189631.000000 0 0 1
24.079263 -8.924075 -30.725775 40.044016 -0.354919 2.445417 0.070490 -0.027393 -116628.000000 0 0 1
23.870763 -10.449775 -30.512375 40.125006 -0.412633 2.434776 0.084806 -0.021691 -239335.000000 0 0 1
22.807263 -10.975775 -31.243575 40.209450 -0.448528 2.460715 0.088028 -0.029101 -234174.000000 0 0 1
22.733963 -12.332275 -30.960975 40.342286 -0.497036 2.445662 0.083039 -0.026427 -209934.000000 0 0 1
21.711663 -13.198775 -31.794475 40.700032 -0.546217 2.467367 0.070782 -0.020766 1545160.000000 0 0 1
20.309763 -12.869075 -31.744375 39.822166 -0.564788 2.493362 0.066884 -0.017964 951006.000000 0 0 1
19.946463 -11.658875 -32.356175 39.758179 -0.528951 2.521500 0.062077 -0.019543 -716236.000000 0 0 1
18.588263 -11.080775 -31.926275 38.569342 -0.537559 2.545905 0.043436 -0.025394 348404.000000 0 0 1
17.450963 -11.621875 -32.582775 38.745855 -0.587522 2.569806 0.026651 -0.011283 532440.000000 0 0 1
16.249163 -11.351275 -31.841375 37.506798 -0.609770 2.584791 0.067188 -0.024533 1529470.000000 0 0 1
14.909263 -11.583575 -32.645275 37.711793 -0.660520 2.617247 0.068856 -0.020204 -52724.500000 0 0 1
14.637763 -12.928775 -33.089075 38.422704 -0.723482 2.608394 0.077892 -0.018401 523736.000000 0 0 1
13.290363 -13.039175 -33.542775 38.363675 -0.775858 2.634864 0.067662 -0.017308 667964.000000 0 0 1
12.228763 -13.251975 -32.412175 37.090518 -0.825533 2.633896 0.063810 -0.024536 -475430.000000 0 0 1
12.080963 -12.075575 -31.610975 35.930807 -0.785175 2.646182 0.132704 -0.019101 -187570.000000 0 0 1
11.037863 -12.086775 -30.649275 34.746260 -0.830726 2.651074 0.131102 -0.034910 380930.000000 0 0 1
9.666563 -11.621175 -31.183075 34.653691 -0.876960 2.690219 0.123758 -0.032119 -125972.000000 0 0 1
9.687663 -10.211675 -31.188475 34.217687 -0.811725 2.717646 0.119023 -0.024229 1194190.000000 0 0 1
8.454763 -9.822375 -31.844475 34.380702 -0.860085 2.755085 0.109516 -0.023361 778978.000000 0 0 1
8.509063 -8.346675 -32.299375 34.428488 -0.775764 2.788068 0.128236 -0.032854 -206664.000000 0 0 1
8.418263 -7.391375 -31.260375 33.207087 -0.720536 2.797484 0.110405 -0.036189 358438.000000 0 0 1
8.820863 -6.099275 -31.779175 33.539898 -0.604971 2.816132 0.104154 -0.014507 -40929.700000 0 0 1
9.033163 -5.049875 -30.654575 32.354323 -0.509755 2.816010 0.095986 -0.026716 -895369.000000 0 0 1
7.960163 -4.790575 -29.842875 31.255575 -0.541756 2.839788 0.098173 -0.022415 -791484.000000 0 0 1
8.126163 -3.504375 -29.150275 30.463974 -0.407149 2.846850 0.109963 -0.017223 402414.000000 0 0 1
6.772463 -2.997375 -28.542775 29.487972 -0.416669 2.887717 0.091378 -0.011591 -305720.000000 0 0 1
6.035963 -2.418175 -29.591575 30.297553 -0.381048 2.925294 0.084853 -0.009084 -494068.000000 0 0 1
4.834863 -1.872975 -29.155075 29.612537 -0.369588 2.965592 0.087862 -0.012279 -334198.000000 0 0 1
3.598563 -2.763775 -28.909875 29.263783 -0.654936 2.985912 0.073789 -0.017645 -750609.000000 0 0 1
3.683963 -3.563075 -27.724875 28.194605 -0.768719 2.958799 0.078554 -0.019872 874575.000000 0 0 1
2.670763 -4.627375 -27.679875 28.190797 -1.047336 2.950916 0.087316 -0.020427 1062600.000000 0 0 1
3.094363 -5.686975 -26.653275 27.428340 -1.072483 2.903299 0.081297 -0.030094 -6134.350000 0 0 1
3.026663 -5.202275 -25.353775 26.058362 -1.043870 2.908519 0.094945 -0.031125 108925.000000 0 0 1
3.546463 -6.132875 -24.407175 25.414558 -1.046507 2.859094 0.092870 -0.040038 94606.800000 0 0 1
3.406363 -5.653075 -22.931875 23.862763 -1.028491 2.861356 0.104253 -0.047474 102912.000000 0 1 0
4.299063 -4.593975 -22.723175 23.578151 -0.818548 2.871472 0.101585 -0.042689 35101.400000 0 1 0
3.830963 -3.867275 -21.634075 22.308413 -0.790115 2.895091 0.084953 -0.035597 375729.000000 0 1 0
4.814963 -2.685675 -21.354275 22.054518 -0.508794 2.888927 0.086192 -0.033377 954336.000000 0 1 0
6.088763 -3.108675 -20.859375 21.951091 -0.472059 2.824885 0.080613 -0.043244 384349.000000 0 1 0
6.948363 -1.995375 -20.640775 21.870136 -0.279647 2.804705 0.094098 -0.027511 722633.000000 0 1 0
8.418363 -2.393775 -20.285175 22.092698 -0.277039 2.734270 0.097564 -0.035873 -397786.000000 0 1 0
9.131863 -2.773975 -21.445275 23.473084 -0.294911 2.722876 0.097228 -0.045691 398156.000000 0 1 0
10.414663 -3.351275 -21.235175 23.887840 -0.311321 2.665851 0.086715 -0.044173 1384330.000000 0 1 0
11.562263 -2.547575 -20.470375 23.647670 -0.216870 2.617224 0.092972 -0.040282 110729.000000 0 1 0
11.293563 -2.361575 -19.058275 22.278677 -0.206138 2.597214 0.083465 -0.032527 -373103.000000 0 1 0
12.454163 -2.031475 -18.360075 22.278362 -0.161692 2.539446 0.084407 -0.037857 -473427.000000 0 1 0
12.861063 -0.512775 -18.317875 22.387818 -0.039849 2.529082 0.086688 -0.034982 95223.700000 0 1 0
13.339763 0.077325 -19.549175 23.666970 0.005797 2.542790 0.097674 -0.041059 353314.000000 0 1 0
13.496263 1.443625 -19.434675 23.705268 0.106560 2.531939 0.121171 -0.049572 37206.100000 0 1 0
13.945763 2.226425 -20.724775 25.079026 0.158313 2.543443 0.111840 -0.037435 616788.000000 0 0 1
15.318863 2.143325 -21.122575 26.180614 0.139012 2.509516 0.122957 -0.032586 680037.000000 0 0 1
15.609663 3.275825 -21.913975 27.103780 0.206857 2.512431 0.125120 -0.036288 323937.000000 0 0 1
17.045663 3.092125 -22.476575 28.378025 0.179451 2.484942 0.109438 -0.020640 190253.000000 0 0 1
17.048863 2.123525 -23.515375 29.122945 0.123917 2.510616 0.090899 -0.014635 246961.000000 0 0 1
18.270663 1.447225 -23.788775 30.030275 0.079045 2.485136 0.095069 -0.015118 202380.000000 0 0 1
10.290554 26.813625 3.222591 28.900711 1.204350 1.459058 0.024803 -0.011844 57541.000000 0 0 1
10.215454 27.403925 4.516291 29.592694 1.213979 1.417583 0.033734 -0.010840 522064.000000 0 0 1
11.519454 27.670125 5.026891 30.390842 1.176306 1.404625 0.035271 -0.012462 -49659.900000 0 0 1
11.443054 28.076525 6.520691 31.012162 1.183784 1.358953 0.036707 -0.018082 -45309.900000 0 0 1
11.443954 27.017125 7.453791 30.272895 1.170128 1.322018 0.046026 -0.019936 207875.000000 0 0 1
11.236454 27.642625 8.714991 31.085748 1.184708 1.286634 0.047350 -0.016864 -598100.000000 0 0 1
11.102954 26.644125 9.910591 30.518926 1.175966 1.240064 0.067740 -0.022948 10574.100000 0 0 1
12.273354 26.031425 10.403691 30.602404 1.130222 1.223919 0.064342 -0.020685 148353.000000 0 0 1
12.954254 25.146725 9.491791 29.837302 1.095105 1.247052 0.068062 -0.020977 -343388.000000 0 0 1
14.260854 24.614625 10.083791 30.181693 1.045688 1.230143 0.089928 -0.023292 -460202.000000 0 0 1
15.326254 25.517425 10.107891 31.435689 1.029922 1.243439 0.076406 -0.025757 -422154.000000 0 0 1
16.405154 25.133525 10.911191 31.935517 0.992511 1.222110 0.075867 -0.029128 -681907.000000 0 0 1
17.389654 26.229625 11.134491 33.382184 0.985352 1.230734 0.063312 -0.026945 -1432520.000000 0 0 1
18.069454 26.700125 9.931591 33.734824 0.975842 1.271967 0.054540 -0.032030 1082310.000000 0 0 1
19.493554 26.503825 10.003391 34.387778 0.936640 1.275629 0.080567 -0.041583 1201230.000000 0 0 1
20.303354 27.333425 11.073091 35.804409 0.931917 1.256375 0.068797 -0.040211 -983032.000000 0 0 1
20.385054 28.738925 10.929791 36.890874 0.953844 1.270008 0.067850 -0.049343 -267265.000000 0 0 1
19.162754 29.384525 11.146491 36.809044 0.992920 1.263147 0.051994 -0.030855 -318927.000000 0 0 1
19.364354 30.946725 11.161491 38.174035 1.011671 1.274077 0.058252 -0.024949 -939778.000000 0 0 1
19.611754 31.549625 9.848191 38.431584 1.014634 1.311653 0.083436 -0.046056 503816.000000 0 0 1
18.504554 31.556225 8.931891 37.656242 1.040437 1.331318 0.086853 -0.043273 410593.000000 0 0 1
17.245854 32.295525 9.429191 37.806482 1.080319 1.318729 0.076050 -0.038358 -602417.000000 0 0 1
17.470154 33.650525 9.591891 39.109699 1.091935 1.323012 0.072205 -0.041379 -728915.000000 0 0 1
16.239554 -33.556620 9.799291 38.546024 -1.120075 1.313752 0.091455 -0.028091 -561880.000000 0 0 1
16.374654 -32.022320 10.025291 37.337176 -1.098109 1.298954 0.100471 -0.023839 -16178.400000 0 0 1
16.755854 -31.314120 8.889791 36.610943 -1.079473 1.325527 0.100900 -0.032303 -176905.000000 0 0 1
16.808154 -29.891320 9.123991 35.485945 -1.058552 1.310760 0.081921 -0.036564 25432.100000 0 0 1
17.431454 -29.135020 7.951491 34.870205 -1.031628 1.340741 0.075402 -0.033230 415544.000000 0 0 1
16.636154 -29.363020 6.775691 34.421774 -1.055322 1.372659 0.080572 -0.032719 485977.000000 0 0 1
17.316554 -28.794220 5.695491 34.079448 -1.029355 1.402884 0.066680 -0.025206 26259.600000 0 0 1
16.718854 -29.286620 4.371991 34.005007 -1.052071 1.441870 0.071336 -0.026130 40261.100000 0 0 1
17.152854 -30.573820 3.908491 35.274001 -1.059524 1.459765 0.077487 -0.028545 -178686.000000 0 0 1
16.845154 -30.717820 2.506691 35.123029 -1.069195 1.499367 0.073949 -0.024660 -3358.970000 0 0 1
17.061754 -32.131520 1.954891 36.432947 -1.082659 1.517113 0.070411 -0.027222 446308.000000 0 0 1
18.467854 -32.364620 2.027291 37.318094 -1.052261 1.516445 0.081687 -0.026059 417062.000000 0 0 1
18.773754 -33.579820 1.349691 38.495192 -1.061010 1.535728 0.099194 -0.033047 153999.000000 0 0 1
20.207254 33.671625 1.591991 39.301984 1.030283 1.530279 0.121718 -0.037652 181980.000000 0 0 1
20.432554 33.172425 2.898491 39.067894 1.018731 1.496537 0.113536 -0.050738 16701.900000 0 0 1
21.823854 33.030325 3.063391 39.707271 0.986921 1.493570 0.121803 -0.043689 -162538.000000 0 0 1
22.201754 32.446225 4.473491 39.568770 0.970710 1.457498 0.128862 -0.044032 -123816.000000 0 0 1
21.812354 31.127725 4.661891 38.294220 0.959576 1.448755 0.115540 -0.055619 349960.000000 0 0 1
22.333454 30.607625 5.902891 38.346500 0.940434 1.416246 0.094330 -0.055756 33340.600000 0 0 1
21.216954 29.908725 6.663891 37.270611 0.953796 1.391032 0.084391 -0.061008 -582320.000000 0 0 1
20.748254 28.754625 6.009191 35.964273 0.945745 1.402921 0.095150 -0.051025 99198.900000 0 0 1
19.561254 28.214125 6.528591 34.947132 0.964572 1.382879 0.089928 -0.053124 838806.000000 0 0 1
18.187254 28.724525 5.958691 34.516381 1.006350 1.397293 0.072481 -0.045738 96854.500000 0 0 1
17.947054 30.111325 6.076691 35.576886 1.033306 1.399150 0.071155 -0.046135 33750.500000 0 0 1
18.071354 30.850825 4.873191 36.084557 1.040909 1.435333 0.091832 -0.052331 -258644.000000 0 0 1
17.891154 32.323225 5.068191 37.290359 1.065264 1.434463 0.105036 -0.051079 502747.000000 0 0 1
16.575754 32.734525 5.434991 37.092370 1.102066 1.423741 0.080817 -0.041641 218109.000000 0 0 1
16.575254 -33.667320 5.434591 37.917836 -1.113308 1.426976 0.090416 -0.048468 295037.000000 0 0 1
15.163454 -33.050720 5.654291 36.800155 -1.140654 1.416537 0.082960 -0.042174 699290.000000 0 0 1
14.318254 -33.063220 4.494091 36.309582 -1.162121 1.446707 0.072847 -0.029473 -133261.000000 0 0 1
13.208254 -32.216120 4.661891 35.129326 -1.181709 1.437697 0.066247 -0.027122 -209031.000000 0 0 1
12.266554 -32.242220 3.461791 34.670060 -1.207256 1.470780 0.060690 -0.021842 -1299780.000000 0 0 1
11.269654 -31.341520 3.468991 33.486264 -1.225616 1.467016 0.058576 -0.022556 -1347970.000000 0 0 1
10.681254 -31.326620 2.215991 33.171628 -1.242194 1.503943 0.063783 -0.010707 -884625.000000 0 0 1
9.959754 -29.999320 1.956691 31.669931 -1.250247 1.508973 0.063599 -0.009108 -209278.000000 0 0 1
9.387054 -29.746720 0.717791 31.200951 -1.265121 1.547789 0.072433 -0.005844 103165.000000 0 0 1
8.371354 -30.623520 0.262791 31.748206 -1.303952 1.562519 0.063317 -0.008023 -476182.000000 0 0 1
8.723254 -31.225920 -1.103609 32.440271 -1.298382 1.604823 0.083149 -0.009191 -76964.600000 0 0 1
9.939754 -31.932820 -1.036609 33.460099 -1.269032 1.601782 0.078173 -0.012007 -268973.000000 0 0 1
10.127154 -32.712020 -2.180709 34.313131 -1.270569 1.634392 0.088851 -0.006954 -290211.000000 0 0 1
11.379354 -33.573920 -2.035509 35.508324 -1.244013 1.628153 0.079697 -0.009646 -406126.000000 0 0 1
11.386154 33.360125 -0.924709 35.261843 1.241884 1.597023 0.066128 -0.005356 348071.000000 0 0 1
12.628054 32.664825 -0.884309 35.031993 1.201899 1.596042 0.077316 -0.010553 126429.000000 0 0 1
12.802254 31.673825 0.283291 34.164443 1.186683 1.562504 0.062674 -0.018644 -685621.000000 0 0 1
12.977454 32.242425 1.573591 34.791730 1.188140 1.525552 0.058474 -0.019080 2087950.000000 0 0 1
14.310954 32.860925 1.836691 35.888957 1.160065 1.519597 0.066815 -0.020527 1436240.000000 0 0 1
15.505054 31.949325 1.934091 35.565528 1.118977 1.516388 0.064157 -0.028006 -1204720.000000 0 0 1
16.004454 31.495725 0.702991 35.335782 1.100652 1.550900 0.077732 -0.027153 -226173.000000 0 0 1
17.000554 30.514625 0.881291 34.941921 1.062497 1.545572 0.081315 -0.023397 120457.000000 0 0 1
17.523854 29.970525 -0.510109 34.721435 1.041701 1.585488 0.082394 -0.018971 838745.000000 0 0 1
18.614154 30.721325 -1.088109 35.937036 1.026047 1.601079 0.069158 -0.013823 526227.000000 0 0 1
18.246654 31.806025 -1.925409 36.718808 1.049951 1.623257 0.089631 -0.025626 539692.000000 0 0 1
19.490654 32.612825 -2.460609 38.072780 1.032116 1.635470 0.088437 -0.020445 579418.000000 0 0 1
20.194954 33.350825 -1.478009 39.016641 1.026320 1.608687 0.078951 -0.022651 238311.000000 0 0 1
21.264954 -33.811320 -2.198509 40.002963 -1.009376 1.625783 0.075687 -0.019210 -771698.000000 0 0 1
22.178254 -32.972820 -1.328209 39.759853 -0.978682 1.604208 0.087316 -0.019930 -706549.000000 0 0 1
23.094054 -33.600820 -0.397709 40.773872 -0.968641 1.580550 0.088044 -0.026920 1517600.000000 0 0 1
24.098654 33.277425 -0.907009 41.096896 0.944030 1.592868 0.082974 -0.014380 902210.000000 0 0 1
25.107054 33.874925 -1.958309 42.210303 0.932971 1.617207 0.065087 -0.015272 -344199.000000 0 0 1
24.423154 -33.756220 -3.217009 41.789017 -0.944462 1.647855 0.075717 -0.020707 713905.000000 0 0 1
25.315154 -33.217920 -4.216809 41.977002 -0.919600 1.671421 0.061877 -0.022934 141012.000000 0 0 1
24.613054 -32.764920 -5.486609 41.345438 -0.926527 1.703891 0.060158 -0.027431 -118837.000000 0 0 1
23.698754 -31.669120 -5.385109 39.919463 -0.928369 1.706108 0.076995 -0.031578 361860.000000 0 0 1
23.217554 -31.371720 -6.683809 39.596880 -0.933675 1.740405 0.084635 -0.037439 -5884.080000 0 0 1
22.132054 -30.264920 -6.626209 38.074924 -0.939386 1.745718 0.095655 -0.043844 145776.000000 0 0 1
20.909754 -30.550120 -5.995309 37.502951 -0.970589 1.731348 0.115228 -0.041342 -220528.000000 0 0 1
20.124054 -29.379320 -5.941809 36.103007 -0.970227 1.736128 0.120385 -0.044220 297758.000000 0 0 1
18.923554 -29.344020 -4.984409 35.270621 -0.998024 1.712590 0.098306 -0.027910 1302890.000000 0 0 1
17.683054 -29.941920 -5.420009 35.193543 -1.037333 1.725417 0.102586 -0.032819 1065500.000000 0 0 1
16.552454 -29.741920 -4.588809 34.345636 -1.062949 1.704804 0.073992 -0.020245 959853.000000 0 0 1
15.220854 -30.431120 -5.024209 34.394333 -1.107010 1.717398 0.075220 -0.016453 485483.000000 0 0 1
15.281854 -31.845020 -5.120609 35.691189 -1.123372 1.714763 0.074236 -0.002739 -446662.000000 0 0 1
14.080554 -32.452220 -5.504209 35.800906 -1.161424 1.725154 0.083867 0.003926 -266095.000000 0 0 1
14.193554 33.794225 -5.486309 37.062194 1.173169 1.719372 0.080759 -0.003979 57814.000000 0 0 1
14.201454 33.215025 -4.224809 36.369881 1.166758 1.687221 0.089680 -0.018034 -105009.000000 0 0 1
14.593354 31.876825 -4.187909 35.307741 1.141471 1.689688 0.087207 -0.019095 -457154.000000 0 0 1
13.566454 30.838225 -4.595209 34.002364 1.156354 1.706355 0.081532 -0.018935 -332015.000000 0 0 1
12.617754 30.435725 -3.624109 33.146271 1.177793 1.680352 0.078026 -0.017691 197530.000000 0 0 1
13.072654 29.347925 -2.825409 32.251790 1.151743 1.658513 0.078785 -0.020868 1002540.000000 0 0 1
11.856354 28.480625 -2.232009 30.930584 1.176322 1.643021 0.067838 -0.018834 1146240.000000 0 0 1
11.139254 29.098425 -1.211709 31.181238 1.205194 1.609666 0.068915 -0.020826 -41710.200000 0 0 1
10.065554 28.290225 -0.743109 30.036718 1.228967 1.595539 0.051487 -0.018647 689669.000000 0 0 1
9.030954 29.022925 0.169891 30.396006 1.269127 1.565207 0.033153 -0.003098 407332.000000 0 0 1
8.055654 28.231725 0.788991 29.369140 1.292842 1.543928 0.028740 -0.007547 142347.000000 0 0 1
6.897254 29.000925 1.133091 29.831354 1.337305 1.532804 0.052777 -0.001994 772459.000000 0 0 1
5.852554 28.123425 1.890891 28.788104 1.365622 1.505066 0.050520 -0.009970 82333.700000 0 0 1
5.284454 27.164725 1.109391 27.696182 1.378662 1.530730 0.056277 -0.014219 -731199.000000 0 0 1
3.978654 26.874025 1.523491 27.209630 1.423816 1.514776 0.063136 -0.018863 -272027.000000 0 0 1
3.296754 25.815425 0.648191 26.033150 1.443779 1.545895 0.061112 -0.019456 -1065200.000000 0 0 1
2.071454 25.405225 1.125391 25.514366 1.489440 1.526674 0.065605 -0.020765 -758888.000000 0 0 1
1.506354 24.443525 0.238591 24.491059 1.509248 1.561054 0.046341 -0.018016 465766.000000 0 1 0
0.130154 23.920825 0.744891 23.932774 1.565355 1.539667 0.043445 -0.016399 497344.000000 0 1 0
-0.961046 24.809125 0.614591 24.835338 -1.532078 1.546047 0.051578 -0.018942 -364848.000000 0 1 0
-2.148546 24.216325 1.029391 24.333234 -1.482305 1.528480 0.041145 -0.015373 246236.000000 0 1 0
-3.462946 25.072225 1.140691 25.335936 -1.433546 1.525758 0.076223 -0.029469 184804.000000 0 0 1
-4.537046 24.212025 1.390891 24.672688 -1.385556 1.514393 0.071804 -0.028741 -19898.200000 0 1 0
-5.655446 24.876025 1.981391 25.587626 -1.347251 1.493283 0.074968 -0.030833 510786.000000 0 0 1
-6.846746 25.264825 1.079591 26.198375 -1.306153 1.529576 0.090274 -0.030663 -185745.000000 0 0 1
-6.575046 26.362725 0.228391 27.171247 -1.326376 1.562391 0.095507 -0.030423 561608.000000 0 0 1
-7.700846 26.588825 -0.629809 27.688722 -1.288883 1.593544 0.093093 -0.029837 221488.000000 0 0 1
-7.569346 27.811825 -1.544209 28.864809 -1.305070 1.624320 0.086113 -0.022646 -127609.000000 0 0 1
-7.767146 29.047625 -0.926909 30.082424 -1.309515 1.601614 0.122197 -0.037359 90084.100000 0 0 1
-7.646746 30.036325 -1.950909 31.055750 -1.321509 1.633657 0.114733 -0.034796 -35265.500000 0 0 1
-7.533946 31.501925 -1.343509 32.418153 -1.336047 1.612251 0.100915 -0.034631 -568992.000000 0 0 1
-7.823846 32.622625 -2.250309 33.623089 -1.335413 1.637774 0.088331 -0.018228 164.255000 0 0 1
-7.051346 32.806125 -3.438109 33.731053 -1.359078 1.672901 0.074282 -0.024818 1540570.000000 0 0 1
-5.486246 33.124625 -3.317109 33.739338 -1.406662 1.669271 0.095264 -0.018732 1372830.000000 0 0 1
-5.033946 -33.515820 -2.593809 33.990861 1.421715 1.647180 0.095964 -0.023739 103113.000000 0 0 1
-4.955246 -33.770220 -1.202809 34.153022 1.425102 1.606022 0.117488 -0.033414 -373446.000000 0 0 1
-4.859946 -32.529820 -0.368709 32.892920 1.422494 1.582006 0.120547 -0.030145 -643778.000000 0 0 1
-6.008946 -31.771820 -0.446509 32.338140 1.383876 1.584604 0.094338 -0.026608 -691791.000000 0 0 1
-5.892846 -30.647920 -1.340209 31.238066 1.380839 1.613713 0.106707 -0.020338 -388996.000000 0 0 1
-7.191346 -29.851920 -1.336209 30.734964 1.334400 1.614285 0.108328 -0.024053 -260626.000000 0 0 1
-7.428946 -29.376320 -0.016809 30.301117 1.323101 1.571351 0.102793 -0.023349 -315869.000000 0 0 1
-8.735646 -28.883220 0.132291 30.175642 1.277096 1.566412 0.043883 -0.011487 -137508.000000 0 0 1
-8.856346 -28.123120 1.487091 29.522130 1.265714 1.520403 0.061355 -0.017109 -270684.000000 0 0 1
-8.040246 -27.011420 1.565091 28.226085 1.281487 1.515319 0.066336 -0.018938 -467294.000000 0 0 1
-7.736246 -26.502620 2.832991 27.753634 1.286783 1.468542 0.088015 -0.017404 222006.000000 0 0 1
-8.777646 -25.454520 3.327491 27.130275 1.238729 1.447838 0.065793 -0.008745 357402.000000 0 0 1
-8.592446 -24.149120 2.774391 25.781919 1.228957 1.462978 0.071598 -0.013564 -79007.900000 0 0 1
-9.481446 -23.217720 3.364791 25.303797 1.183094 1.437426 0.063514 -0.017308 12744.000000 0 0 1
-8.672446 -21.946420 3.722891 23.889675 1.194465 1.414322 0.044005 0.006483 334572.000000 0 1 0
-7.846346 -22.068420 4.867391 23.922203 1.229189 1.365898 0.045769 0.005725 -637.003000 0 1 0
-7.049146 -20.878320 5.022891 22.601419 1.245184 1.346687 0.025073 0.006139 183183.000000 0 1 0
-7.843046 -19.697520 5.570591 21.921157 1.191865 1.313859 0.025824 -0.005693 5374.470000 0 1 0
-8.259846 -19.851220 6.934191 22.591569 1.176499 1.258823 0.028692 -0.009075 156058.000000 0 1 0
-9.077346 -18.775620 7.352891 22.113053 1.120464 1.231829 0.018170 -0.015078 -357384.000000 0 1 0
-28.516556 29.211925 -5.985009 41.259555 -0.797443 1.716367 0.104374 -0.006909 119412.000000 0 0 1
-27.742946 29.868925 -4.989709 41.069708 -0.822283 1.692591 0.098605 -0.018114 -61328.700000 0 0 1
-26.851076 29.062525 -4.297309 39.800471 -0.824929 1.678979 0.078707 -0.010598 -63786.800000 0 0 1
-25.825036 29.824825 -3.397109 39.597891 -0.857149 1.656692 0.068145 -0.014919 -102280.000000 0 0 1
-26.220526 30.295625 -2.077009 40.120504 -0.857379 1.622589 0.051955 -0.017028 24477.600000 0 0 1
-25.349256 31.222625 -1.468709 40.244182 -0.888849 1.607299 0.047599 -0.015422 -113787.000000 0 0 1
-24.049946 30.705425 -0.839509 39.011893 -0.906354 1.592317 0.047779 -0.006075 62576.800000 0 0 1
-23.079346 30.125525 -1.685509 37.987424 -0.917067 1.615181 0.087840 -0.023168 -208475.000000 0 0 1
-21.829246 30.071325 -1.074809 37.174666 -0.942888 1.599713 0.078795 -0.017955 -405795.000000 0 0 1
-20.735346 29.282725 -1.827609 35.927325 -0.954649 1.621688 0.089116 -0.026261 -309125.000000 0 0 1
-19.491146 29.555525 -1.259709 35.426271 -0.987789 1.606362 0.105373 -0.024389 -600235.000000 0 0 1
-18.411946 28.971325 -1.937509 34.381556 -1.004666 1.627179 0.112484 -0.021871 -577698.000000 0 0 1
-17.048446 29.181425 -1.313209 33.822028 -1.042059 1.609633 0.122239 -0.032181 -666575.000000 0 0 1
-16.781846 28.525125 -0.144609 33.095831 -1.039011 1.575166 0.118848 -0.035312 216292.000000 0 0 1
-15.652346 29.093725 0.514591 33.040968 -1.077215 1.555221 0.127278 -0.046315 330782.000000 0 0 1
-15.121946 28.373425 1.754091 32.199400 -1.081128 1.516293 0.125510 -0.048211 -516406.000000 0 0 1
-15.838346 28.645925 2.916691 32.862582 -1.065729 1.481925 0.108562 -0.048139 -432218.000000 0 0 1
-15.494046 27.973125 4.095291 32.238682 -1.064971 1.443422 0.105390 -0.062538 124982.000000 0 0 1
-14.129246 28.327625 4.768791 32.012986 -1.108125 1.421276 0.116156 -0.055933 483119.000000 0 0 1
-14.165846 29.565225 5.517791 33.244845 -1.123977 1.404050 0.094969 -0.050097 -269661.000000 0 0 1
-14.127446 30.715725 4.739291 34.139440 -1.139706 1.431525 0.110973 -0.045279 -284387.000000 0 0 1
-14.078246 31.991825 5.601891 35.398518 -1.156241 1.411876 0.105732 -0.044146 197451.000000 0 0 1
-15.233546 32.294025 6.364191 36.269380 -1.130032 1.394413 0.101523 -0.042775 79809.000000 0 0 1
-14.951546 33.513925 7.001891 37.359850 -1.151166 1.382264 0.104205 -0.048459 -71051.100000 0 0 1
-16.032046 -33.756820 7.942491 38.205137 1.127407 1.361378 0.077147 -0.038087 -181540.000000 0 0 1
-16.111446 33.414125 9.226491 38.225784 -1.121510 1.327021 0.051862 -0.031772 336430.000000 0 0 1
-17.304646 33.825525 9.890691 39.261211 -1.097923 1.316132 0.061463 -0.030455 -318792.000000 0 0 1
-17.474046 33.161425 11.289391 39.146810 -1.085831 1.278256 0.057818 -0.019753 460877.000000 0 0 1
-16.695846 33.640425 12.432391 39.560003 -1.110111 1.251112 0.059552 -0.026410 830607.000000 0 0 1
-15.312946 33.307525 12.261091 38.655037 -1.139869 1.248029 0.060111 -0.022997 418558.000000 0 0 1
-14.456646 33.477125 13.574491 38.909887 -1.163149 1.214431 0.057521 -0.022357 182963.000000 0 0 1
-14.682946 32.541425 14.653391 38.590868 -1.146938 1.181312 0.050995 -0.020653 162516.000000 0 0 1
-13.864546 31.381325 14.520291 37.253886 -1.154775 1.170419 0.034160 -0.018845 -289107.000000 0 0 1
-14.545446 30.088925 14.069691 36.261131 -1.120504 1.172325 0.027667 -0.020338 -301328.000000 0 0 1
-14.652046 29.989825 12.675191 35.703397 -1.116337 1.207868 0.026665 -0.019101 35518.700000 0 0 1
-15.898546 29.594325 12.153591 35.725308 -1.077821 1.223671 0.009972 -0.022758 -172954.000000 0 0 1
-16.028046 29.502925 10.636591 35.220135 -1.073135 1.264003 0.020433 -0.020905 238757.000000 0 0 1
-15.346846 28.310225 10.144291 33.762422 -1.074042 1.265620 0.015307 -0.021525 395393.000000 0 0 1
-15.262546 28.345725 8.735691 33.357724 -1.076870 1.305828 0.036825 -0.027884 -237562.000000 0 0 1
-14.566346 27.009825 8.324491 31.796324 -1.076207 1.305903 0.042235 -0.034447 -646849.000000 0 0 1
-13.196946 26.967425 8.545591 31.215838 -1.115692 1.293498 0.059492 -0.040812 -793647.000000 0 0 1
-12.743346 25.707825 8.182891 29.836971 -1.110595 1.292983 0.065410 -0.042995 -618394.000000 0 0 1
-11.420446 25.599025 7.448091 29.003633 -1.151167 1.311088 0.101918 -0.052431 -607417.000000 0 0 1
-11.548146 25.889625 6.074791 28.991989 -1.151230 1.359699 0.118625 -0.051045 347289.000000 0 0 1
-10.349446 25.653725 5.366191 28.178372 -1.187338 1.379190 0.134687 -0.043305 -13577.300000 0 0 1
-10.627546 25.873925 3.851591 28.235430 -1.181063 1.433960 0.139623 -0.041296 -41216.400000 0 0 1
-10.465646 27.186525 3.464491 29.336659 -1.203325 1.452426 0.143876 -0.037970 251733.000000 0 0 1
-10.837146 27.498325 2.115191 29.632341 -1.195385 1.499354 0.147807 -0.042795 28703.100000 0 0 1
-10.401046 28.905925 1.664191 30.765302 -1.225397 1.516677 0.156021 -0.038524 42328.200000 0 0 1
-11.107746 29.943125 2.289491 32.018971 -1.215571 1.499231 0.139817 -0.047183 6277.560000 0 0 1
-10.662546 31.206725 1.856491 33.030231 -1.241558 1.514561 0.129494 -0.045934 -140254.000000 0 0 1
-11.279546 32.324625 2.720691 34.344020 -1.235061 1.491494 0.113304 -0.048630 1287900.000000 0 0 1
-12.675746 32.694225 2.605191 35.162109 -1.200933 1.496638 0.141765 -0.051125 1028990.000000 0 0 1
-12.955846 33.425625 1.395191 35.875798 -1.201023 1.531897 0.123659 -0.040945 140386.000000 0 0 1
-14.491146 33.665825 1.208291 36.672075 -1.164326 1.537842 0.132213 -0.039136 946634.000000 0 0 1
-15.292746 32.728125 0.477691 36.127918 -1.133677 1.557574 0.115804 -0.027762 84302.000000 0 0 1
-15.387346 32.903325 -0.982509 36.336821 -1.133359 1.597839 0.109459 -0.024934 -77320.600000 0 0 1
-14.129346 32.759225 -1.869009 35.725319 -1.163594 1.623136 0.114154 -0.021855 5735.630000 0 0 1
-13.647846 31.442625 -2.120109 34.342353 -1.161281 1.632570 0.117091 -0.024097 -295447.000000 0 0 1
-12.274046 31.397725 -2.367509 33.794592 -1.198141 1.640910 0.108241 -0.018151 -481000.000000 0 0 1
-11.752346 29.962525 -2.541009 32.285094 -1.197002 1.649583 0.080300 -0.025077 20453.900000 0 0 1
-11.930246 29.390225 -3.815809 31.948028 -1.185192 1.690520 0.092127 -0.028218 568465.000000 0 0 1
-10.724346 29.549225 -4.582309 31.767371 -1.222648 1.715547 0.083997 -0.026698 516871.000000 0 0 1
-10.769946 28.972025 -5.999009 31.485839 -1.214890 1.762499 0.079288 -0.022482 -119277.000000 0 0 1
-10.955946 27.567225 -5.950809 30.255525 -1.192510 1.768772 0.084904 -0.019925 81004.300000 0 0 1
-10.915346 27.043825 -7.300409 30.063420 -1.187176 1.816082 0.071434 -0.014062 224549.000000 0 0 1
-11.427146 25.566925 -7.389809 28.963021 -1.150481 1.828795 0.090253 -0.018953 303894.000000 0 0 1
-10.551346 24.668525 -6.760009 27.668841 -1.166620 1.817613 0.058126 -0.011264 -330581.000000 0 0 1
-11.151946 23.436025 -6.682709 26.800593 -1.126658 1.822805 0.124792 -0.028615 -329490.000000 0 0 1
-10.588646 22.386125 -5.679009 25.406872 -1.128981 1.796223 0.099955 -0.030184 -340986.000000 0 0 1
-9.287446 22.008925 -6.093709 24.653250 -1.171482 1.820562 0.077760 -0.029904 63763.500000 0 1 0
-8.708946 20.849725 -5.520909 23.260207 -1.175124 1.810438 0.069147 -0.023442 -224724.000000 0 1 0
-8.560546 20.638825 -4.020609 22.702628 -1.177615 1.748834 0.062701 -0.032929 150305.000000 0 1 0
-9.721946 20.631125 -3.171009 23.026395 -1.130431 1.708947 0.089597 -0.035231 320269.000000 0 1 0
-10.462446 19.417425 -3.198009 22.287360 -1.076579 1.714783 0.084553 -0.029868 509894.000000 0 1 0
-11.761546 19.415225 -2.320409 22.818177 -1.026130 1.672664 0.086779 -0.026594 423818.000000 0 1 0
-11.586746 19.429625 -0.938309 22.641630 -1.033069 1.612250 0.074925 -0.024795 46352.500000 0 1 0
-10.984546 18.294625 -0.368109 21.342190 -1.030065 1.588045 0.060793 -0.015105 -186099.000000 0 1 0
-10.800646 18.295525 1.154191 21.277038 -1.037507 1.516524 0.057999 -0.018644 -253554.000000 0 1 0
-12.033746 18.206525 1.802591 21.898354 -0.986756 1.488387 0.085175 -0.027032 95039.600000 0 1 0
-11.779546 18.462025 3.177591 22.129192 -1.002873 1.426706 0.077017 -0.021425 -150269.000000 0 1 0
-13.052846 18.384025 4.032491 22.904370 -0.953384 1.393816 0.093070 -0.030551 -192468.000000 0 1 0
-13.490846 17.131025 4.402891 22.245458 -0.903718 1.371558 0.043438 -0.024459 544478.000000 0 1 0
-14.718446 17.251325 5.132591 23.250470 -0.864460 1.348211 0.063773 -0.030228 410579.000000 0 1 0
-15.283946 15.899625 5.603891 22.755234 -0.805139 1.321968 0.035779 -0.022702 -897111.000000 0 1 0
-14.799946 15.319925 6.791891 22.357734 -0.802660 1.262136 0.050956 -0.017972 -108416.000000 0 1 0
-15.071746 15.974725 8.065991 23.396786 -0.814475 1.218826 0.035041 -0.012330 -1200090.000000 0 1 0
-14.026146 15.807125 9.184691 23.042494 -0.845025 1.160809 0.028450 -0.005737 536163.000000 0 1 0
-12.808046 16.543525 9.073591 22.804919 -0.911984 1.161593 0.037515 -0.014690 616571.000000 0 1 0
-11.965046 16.051025 8.023791 21.568008 -0.930221 1.189609 0.039802 -0.022697 -377278.000000 0 1 0
-10.716446 16.950425 7.729491 21.491956 -1.007020 1.202908 0.057149 -0.027472 912496.000000 0 1 0
-9.737346 17.091125 8.762891 21.533943 -1.052931 1.151701 0.060260 -0.028107 440760.000000 0 1 0
-8.999546 18.270625 8.663191 22.132746 -1.113111 1.168623 0.060668 -0.030663 -771105.000000 0 1 0
-7.737746 18.440525 9.473391 22.128507 -1.173504 1.128398 0.058843 -0.028155 -903931.000000 0 1 0
-6.739046 17.474825 9.084591 20.816197 -1.202728 1.119181 0.048263 -0.024075 655800.000000 0 1 0
-5.452546 17.768025 9.640191 20.937198 -1.273045 1.092313 0.038803 -0.024203 514898.000000 0 1 0
-4.659846 18.807425 8.875291 21.312067 -1.327921 1.141265 0.028177 -0.026427 -1733680.000000 0 1 0
-5.207746 20.152325 8.981691 22.669530 -1.317910 1.163421 0.047671 -0.033178 138089.000000 0 1 0
-4.555046 21.209125 8.260391 23.212270 -1.359242 1.206959 0.044154 -0.034684 201043.000000 0 1 0
-3.133146 21.628025 8.724291 23.530859 -1.426932 1.190970 0.050141 -0.027536 550322.000000 0 1 0
-2.055046 20.919525 8.104991 22.528662 -1.472875 1.202782 0.033097 -0.014039 1026030.000000 0 1 0
-0.816846 21.661325 8.284691 23.205955 -1.533104 1.205734 0.022257 -0.003705 1674810.000000 0 1 0
0.453254 20.791225 7.956391 22.266222 1.549000 1.205389 0.011275 0.002434 847550.000000 0 1 0
0.807454 19.851025 8.952391 21.791294 1.530143 1.147438 0.012823 -0.016154 -1309380.000000 0 1 0
2.160854 19.600125 8.993091 21.672791 1.460993 1.142910 0.005224 -0.009656 -909382.000000 0 1 0
2.543254 18.752625 10.204291 21.500155 1.435998 1.076270 0.001548 -0.035895 510061.000000 0 1 0
3.963254 18.676025 10.415191 21.748046 1.361688 1.071392 0.021214 -0.004742 736268.000000 0 1 0
4.212154 18.240525 11.727991 22.090830 1.343852 1.011136 0.012873 -0.009548 -110579.000000 0 1 0
5.715754 18.270925 12.050891 22.621241 1.267608 1.008980 0.046339 -0.009510 317586.000000 0 1 0
6.580154 17.395625 11.301991 21.763300 1.209166 1.024748 0.031301 -0.008628 130765.000000 0 1 0
7.640054 17.017525 12.135691 22.254024 1.148814 0.994019 0.037297 0.000955 -23999.900000 0 1 0
8.894854 16.395125 11.457591 21.890522 1.073706 1.019955 0.040307 -0.001930 199246.000000 0 1 0
9.846154 17.294425 10.952991 22.715896 1.053237 1.067663 0.061983 -0.015351 -522978.000000 0 1 0
10.860654 16.586925 10.302891 22.343444 0.991074 1.091545 0.056984 -0.018129 -124557.000000 0 1 0
11.923354 17.529625 9.688691 23.309330 0.973494 1.142131 0.060642 -0.015533 832861.000000 0 1 0
12.967854 16.893925 8.882091 23.075127 0.916123 1.175675 0.068578 -0.014161 577907.000000 0 1 0
13.845654 17.979425 8.564791 24.255258 0.914565 1.209902 0.091597 -0.014684 468231.000000 0 1 0
14.777054 17.589025 7.357391 24.121906 0.872061 1.260849 0.098758 -0.020999 204771.000000 0 1 0
15.647754 16.502125 7.579091 23.971128 0.811967 1.249101 0.111783 -0.034939 -15391.900000 0 1 0
16.738454 16.463225 6.682391 24.410408 0.777109 1.293505 0.109992 -0.025494 -800908.000000 0 1 0
18.013554 16.611625 7.472591 25.617843 0.744932 1.274798 0.111024 -0.023604 -1261260.000000 0 0 1
18.417154 15.450425 8.119891 25.374000 0.698023 1.245058 0.121765 -0.022821 535545.000000 0 0 1
19.660354 15.778025 8.771191 26.690999 0.676282 1.235954 0.124714 -0.027082 598040.000000 0 0 1
20.115854 14.683825 9.719891 26.734596 0.630553 1.198699 0.123476 -0.026153 -248755.000000 0 0 1
20.707154 13.555525 9.199991 26.404135 0.579623 1.214901 0.121608 -0.028989 -125817.000000 0 0 1
20.938754 12.580625 10.182391 26.464782 0.541029 1.175857 0.122680 -0.033603 -533465.000000 0 0 1
21.822954 11.493525 9.639091 26.481211 0.484756 1.198240 0.105146 -0.028323 -15214.100000 0 0 1
23.215554 11.735025 9.908991 27.836323 0.468023 1.206841 0.114392 -0.033615 1313710.000000 0 0 1
24.153254 10.831125 9.342591 28.070928 0.421550 1.231503 0.141850 -0.029238 95878.900000 0 0 1
24.108054 9.331925 9.683191 27.605204 0.369326 1.212399 0.150028 -0.041199 -495348.000000 0 0 1
22.897154 8.723225 9.254391 26.191947 0.363998 1.209668 0.147777 -0.040592 584084.000000 0 0 1
22.765554 7.363325 9.716291 25.824317 0.312822 1.185055 0.131449 -0.034801 -537462.000000 0 0 1
23.742454 6.395225 9.066691 26.207021 0.263114 1.217530 0.157091 -0.040585 -461050.000000 0 0 1
23.667854 6.345925 7.604391 25.656673 0.261963 1.269885 0.141660 -0.026342 196635.000000 0 0 1
24.790454 5.731925 7.009391 26.392294 0.227222 1.301986 0.151941 -0.033395 -70537.100000 0 0 1
24.605954 5.352125 5.502991 25.775592 0.214177 1.355644 0.168405 -0.038749 -43790.100000 0 0 1
23.664854 4.296725 5.374191 24.644860 0.179609 1.350965 0.146106 -0.031774 250136.000000 0 1 0
23.457954 3.929025 4.087291 24.133355 0.165952 1.400613 0.159253 -0.028832 -185492.000000 0 1 0
22.355954 2.841625 3.985891 22.885604 0.126430 1.395738 0.137436 -0.021912 -531492.000000 0 1 0
22.733854 1.535625 4.268491 23.182025 0.067445 1.385610 0.159812 -0.028293 -542484.000000 0 1 0
21.827454 0.522225 4.016991 22.200151 0.023921 1.388850 0.137884 -0.024437 -1115320.000000 0 1 0
22.280254 -1.012075 4.188091 22.693042 -0.045394 1.385178 0.159337 -0.027963 -462192.000000 0 1 0
22.422154 -1.423075 5.540391 23.140313 -0.063382 1.329022 0.142783 -0.030870 684468.000000 0 1 0
22.666054 -2.804375 5.572591 23.508899 -0.123100 1.331477 0.146100 -0.032538 -390702.000000 0 1 0
22.695254 -3.327575 7.031091 23.991323 -0.145583 1.273362 0.173606 -0.038355 -93056.300000 0 1 0
22.876154 -4.736175 7.099791 24.416323 -0.204151 1.275754 0.164780 -0.040714 577426.000000 0 1 0
23.134654 -5.159575 8.432891 25.158440 -0.219433 1.228988 0.202389 -0.045795 -142224.000000 0 0 1
22.873354 -6.661275 8.630691 25.338740 -0.283386 1.223228 0.206541 -0.045280 825597.000000 0 0 1
21.460454 -6.896875 8.545891 24.107058 -0.310951 1.208420 0.199691 -0.046886 1153570.000000 0 1 0
21.081754 -8.205475 9.006591 24.349310 -0.371180 1.191905 0.176186 -0.040939 26981.600000 0 1 0
-27.059726 -33.272420 5.050691 43.183239 0.888011 1.453568 0.054981 -0.008517 -78782.300000 0 0 1
-27.963106 33.611525 5.647891 44.085923 -0.876875 1.442332 0.055855 -0.014872 214993.000000 0 0 1
-28.016296 33.791525 7.068291 44.460553 -0.878566 1.411140 0.057028 -0.010133 -66647.500000 0 0 1
-28.949676 32.818025 7.814691 44.454200 -0.847944 1.394086 0.072188 -0.019906 -731090.000000 0 0 1
-30.313516 32.942025 7.577091 45.403728 -0.826928 1.403129 0.080490 -0.016733 -610628.000000 0 0 1
-30.914866 31.641025 7.753291 44.910989 -0.797006 1.397290 0.093618 -0.029374 1038710.000000 0 0 1
-32.478836 31.658425 7.923691 46.042540 -0.772607 1.397840 0.098264 -0.024889 896639.000000 0 0 1
-33.107816 31.806925 6.662891 46.391832 -0.765361 1.426676 0.081858 -0.020100 387542.000000 0 0 1
-34.524397 31.893725 6.826291 47.494651 -0.745811 1.426569 0.072285 -0.016526 687044.000000 0 0 1
-35.264726 31.883525 5.425891 47.849768 -0.735086 1.457158 0.046720 -0.007012 -73362.100000 0 0 1
-35.182768 30.555625 4.920791 46.858164 -0.715127 1.465588 0.050480 -0.009961 257648.000000 0 0 1
-35.812403 30.584425 3.667791 47.237569 -0.706822 1.493072 0.056326 0.002596 3613.430000 0 0 1
-35.519451 29.325225 2.842091 46.148431 -0.690163 1.509171 0.069439 -0.009244 19937.900000 0 0 1
-35.910166 28.171925 3.579591 45.782211 -0.665225 1.492529 0.100747 -0.019499 270618.000000 0 0 1
-35.427542 27.035325 2.907991 44.659556 -0.651843 1.505636 0.102494 -0.014466 -132221.000000 0 0 1
-35.836464 25.708825 3.598291 44.250915 -0.622304 1.489391 0.116075 -0.028671 428372.000000 0 0 1
-37.172436 25.314125 3.272491 45.092173 -0.597855 1.498159 0.123398 -0.026121 319051.000000 0 0 1
37.102563 24.612825 4.359891 44.737009 0.585719 1.473185 0.125078 -0.027943 1120210.000000 0 0 1
35.540373 24.431525 4.161291 43.328211 0.602240 1.474607 0.138216 -0.031718 1228730.000000 0 0 1
35.099713 23.406125 3.193391 42.308797 0.588127 1.495246 0.132315 -0.043583 254041.000000 0 0 1
35.528433 22.113425 3.534091 41.997177 0.556738 1.486546 0.118242 -0.044655 -688070.000000 0 0 1
34.839593 20.972125 2.719591 40.755655 0.541861 1.504018 0.124466 -0.040315 541396.000000 0 0 1
33.457753 20.740525 2.976591 39.477218 0.554925 1.495324 0.118645 -0.052409 606208.000000 0 0 1
33.187703 19.974325 4.172691 38.959064 0.541785 1.463486 0.098570 -0.034265 -501590.000000 0 0 1
33.402313 18.389725 3.960991 38.335179 0.503267 1.467286 0.111805 -0.042998 -444738.000000 0 0 1
32.475003 17.903925 3.028191 37.206804 0.503852 1.489318 0.093052 -0.057137 110572.000000 0 0 1
32.538393 16.474825 2.838691 36.581758 0.468690 1.493120 0.093480 -0.051478 -209684.000000 0 0 1
31.562953 15.607925 3.665791 35.401488 0.459239 1.467061 0.125976 -0.051052 771944.000000 0 0 1
30.177523 15.881525 3.412791 34.271750 0.484442 1.471051 0.111140 -0.044709 602790.000000 0 0 1
29.311063 15.192525 4.278391 33.290477 0.478196 1.441923 0.104876 -0.046406 184831.000000 0 0 1
27.838463 15.600825 3.988691 32.160153 0.510797 1.446450 0.095780 -0.042228 211774.000000 0 0 1
27.363063 14.911925 2.834591 31.291175 0.498970 1.480084 0.102911 -0.039230 1335450.000000 0 0 1
25.988463 15.249925 2.476791 30.234003 0.530654 1.488784 0.079316 -0.029063 1507840.000000 0 0 1
25.397863 14.562425 1.195991 29.300957 0.520610 1.529968 0.079675 -0.034279 -328820.000000 0 0 1
25.951963 15.077525 0.025491 30.013943 0.526315 1.569947 0.093677 -0.038036 114387.000000 0 0 1
27.200063 14.520425 -0.310709 30.834765 0.490350 1.580873 0.099937 -0.035329 -1049160.000000 0 0 1
28.062663 15.259725 -1.383409 31.973209 0.498050 1.614078 0.122242 -0.036992 158353.000000 0 0 1
28.446363 16.569825 -1.001109 32.935648 0.527448 1.601197 0.101558 -0.036135 242682.000000 0 0 1
29.312963 16.548825 0.115191 33.661947 0.513950 1.567374 0.094669 -0.037768 -1218340.000000 0 0 1
29.912053 17.941125 0.392191 34.882212 0.540269 1.559553 0.110385 -0.031591 193826.000000 0 0 1
30.730233 18.327325 -0.733909 35.787940 0.537764 1.591305 0.094319 -0.026597 299529.000000 0 0 1
31.253273 19.640925 -0.589209 36.917207 0.561072 1.586757 0.090644 -0.016198 -589331.000000 0 0 1
32.204573 19.861925 -1.702309 37.875169 0.552639 1.615757 0.093038 -0.016964 -703048.000000 0 0 1
32.816243 21.142425 -1.802009 39.078833 0.572334 1.616925 0.047185 -0.008781 367181.000000 0 0 1
32.052723 22.065725 -2.566309 38.998195 0.602912 1.636650 0.085497 -0.012587 -255154.000000 0 0 1
32.794883 23.421225 -2.816209 40.397886 0.620175 1.640565 0.082047 -0.010562 163100.000000 0 0 1
33.135143 24.318325 -1.737409 41.138026 0.633126 1.613043 0.115103 -0.008730 -58797.300000 0 0 1
34.007473 23.733325 -0.832509 41.478573 0.609305 1.590868 0.129007 -0.004803 -1113170.000000 0 0 1
34.383203 24.673325 0.313591 42.321105 0.622439 1.563386 0.146511 -0.023359 -251248.000000 0 0 1
35.191553 25.748525 -0.129809 43.605605 0.631665 1.573773 0.172427 -0.014531 531902.000000 0 0 1
36.545263 25.684425 0.328791 44.669386 0.612610 1.563436 0.153369 -0.016325 599289.000000 0 0 1
37.412453 26.838325 -0.268709 46.044104 0.622284 1.576632 0.115179 -0.014780 -281267.000000 0 0 1
-37.123046 26.765225 -1.627709 45.794620 -0.624673 1.606347 0.115358 -0.029238 -76839.100000 0 0 1
36.765003 27.286925 -2.475909 45.851629 0.638489 1.624821 0.100337 -0.024992 -76024.900000 0 0 1
36.937003 26.728825 -3.896709 45.759771 0.626411 1.656055 0.101728 -0.021403 167235.000000 0 0 1
-36.830616 27.238325 -4.637209 46.042636 -0.636784 1.671683 0.096831 -0.015928 211821.000000 0 0 1
-36.876696 26.874825 -6.015109 46.025302 -0.629778 1.701863 0.085778 -0.013852 -45123.300000 0 0 1
36.791653 27.233625 -6.933709 46.296570 0.637207 1.721129 0.071964 0.003475 -99495.300000 0 0 1
35.654933 26.543825 -6.513409 44.925198 0.639949 1.716293 0.086111 -0.004802 -412632.000000 0 0 1
34.522053 26.754625 -7.382009 44.295329 0.659311 1.738232 0.071887 -0.001849 939310.000000 0 0 1
33.356083 25.831725 -6.857409 42.742606 0.658950 1.731928 0.071022 -0.002055 -263390.000000 0 0 1
33.472943 24.382225 -6.854709 41.975205 0.629544 1.734835 0.058580 -0.008566 -464252.000000 0 0 1
34.551323 23.726625 -6.238109 42.375236 0.601748 1.718544 0.053751 -0.009521 -387914.000000 0 0 1
34.628243 22.196425 -6.437809 41.632222 0.570017 1.726055 0.048801 -0.007314 -845559.000000 0 0 1
33.532683 21.492725 -5.975109 40.275054 0.569986 1.719704 0.050970 -0.008092 -321659.000000 0 0 1
33.900073 20.129425 -5.920609 39.868061 0.535839 1.719853 0.048995 -0.017100 172039.000000 0 0 1
32.818953 19.129325 -5.409809 38.370311 0.527732 1.712257 0.060775 -0.007582 1140610.000000 0 0 1
31.631053 19.014825 -6.223709 37.427552 0.541260 1.737859 0.034448 -0.015043 567985.000000 0 0 1
30.416223 18.883125 -5.532509 36.226064 0.555591 1.724118 0.103490 -0.030654 -9933.060000 0 0 1
29.230263 18.772425 -6.504509 35.342904 0.570891 1.755891 0.076726 -0.034314 -217798.000000 0 0 1
29.191163 17.509525 -7.101009 34.772572 0.540289 1.776456 0.061744 -0.027266 54199.700000 0 0 1
28.315063 17.501825 -8.222709 34.288039 0.553629 1.812969 0.077432 -0.031471 124759.000000 0 0 1
28.364863 16.233925 -9.031209 33.906762 0.519822 1.840405 0.068270 -0.024646 120116.000000 0 0 1
27.513163 16.318425 -10.172709 33.567084 0.535340 1.878694 0.063103 -0.022854 351199.000000 0 0 1
27.754963 15.358425 -11.135609 33.618759 0.505418 1.908405 0.053953 -0.014037 -183569.000000 0 0 1
27.031663 15.719625 -12.451009 33.657763 0.526725 1.949730 0.065651 -0.010006 431352.000000 0 0 1
25.599663 15.652425 -12.449409 32.485827 0.548782 1.964083 0.070617 -0.013765 740040.000000 0 0 1
25.050163 15.754325 -13.730709 32.622719 0.561407 2.005227 0.065107 -0.026347 -449853.000000 0 0 1
25.017463 14.417225 -14.537809 32.327662 0.522801 2.037228 0.057509 -0.026490 -29624.700000 0 0 1
26.289463 13.967225 -15.007209 33.338200 0.488362 2.037730 0.061470 -0.028426 504140.000000 0 0 1
26.796763 14.664725 -16.112909 34.536162 0.500735 2.056185 0.057305 -0.027036 20309.600000 0 0 1
28.162863 14.039225 -16.554009 35.556742 0.462448 2.055070 0.065987 -0.021654 373888.000000 0 0 1
28.123563 12.797525 -17.250309 35.387633 0.427043 2.079983 0.058934 -0.027891 499672.000000 0 0 1
29.417763 12.193725 -17.385109 36.281313 0.392945 2.070511 0.052968 -0.010326 687060.000000 0 0 1
29.489163 10.721425 -17.834709 36.092056 0.348714 2.087647 0.035626 -0.003715 -301012.000000 0 0 1
28.808263 10.535125 -19.042109 36.104110 0.350591 2.126360 0.041751 -0.001560 -137153.000000 0 0 1
28.959763 9.279525 -19.641209 36.201582 0.310091 2.144267 0.041295 0.001907 274922.000000 0 0 1
30.413023 8.933525 -20.088409 37.527377 0.285704 2.135659 0.045330 -0.002310 -286061.000000 0 0 1
30.743463 9.809525 -21.192909 38.607340 0.308865 2.151886 0.041647 -0.011011 125957.000000 0 0 1
31.362673 9.299725 -22.364109 39.626449 0.288263 2.170470 0.050305 -0.005437 199031.000000 0 0 1
32.814493 8.762125 -22.240409 40.598049 0.260932 2.150552 0.061272 -0.006614 498321.000000 0 0 1
33.804523 9.783225 -22.095909 41.553417 0.281709 2.131458 0.071642 -0.012217 158808.000000 0 0 1
35.135583 9.344525 -22.123109 42.558915 0.259939 2.117440 0.064902 -0.008530 586015.000000 0 0 1
36.252053 10.432225 -21.979409 43.659330 0.280198 2.098360 0.087946 -0.008453 468252.000000 0 0 1
36.163863 11.109325 -20.751109 43.149167 0.298044 2.072495 0.064477 -0.002808 -518665.000000 0 0 1
37.255003 11.915525 -20.524609 44.172101 0.309555 2.054037 0.043941 0.001262 -540855.000000 0 0 1
36.983633 12.657425 -19.203009 43.551751 0.329749 2.027424 0.046452 -0.008812 220775.000000 0 0 1
37.378223 11.794025 -18.084509 43.165727 0.305645 2.003091 0.054143 0.003367 254527.000000 0 0 1
37.338703 12.495125 -16.865309 42.833930 0.322929 1.975490 0.055751 0.002898 -59720.000000 0 0 1
-37.099296 11.567525 -15.640309 41.890150 -0.302246 1.953430 0.062095 0.003555 -293828.000000 0 0 1
36.843823 10.519825 -15.506509 41.335043 0.278124 1.955346 0.042678 -0.003585 2014.740000 0 0 1
37.335983 9.435825 -14.746109 41.236612 0.247544 1.936490 0.034907 -0.012077 -215803.000000 0 0 1
36.441963 8.197225 -14.641509 40.119633 0.221257 1.944371 0.087344 -0.009404 169697.000000 0 0 1
35.356413 8.253425 -13.707709 38.808456 0.229328 1.931801 0.104000 -0.014331 741363.000000 0 0 1
35.708823 7.976525 -12.361809 38.620711 0.219769 1.896613 0.106684 -0.025922 -141194.000000 0 0 1
34.599113 8.431725 -11.374209 37.384024 0.239038 1.879951 0.120434 -0.030747 28791.300000 0 0 1
34.376373 9.831625 -11.394809 37.526491 0.278563 1.879314 0.116416 -0.032216 595571.000000 0 0 1
33.321023 10.318325 -10.554209 36.443788 0.300299 1.864608 0.102456 -0.031878 -20647.400000 0 0 1
33.750773 10.181625 -9.061109 36.398954 0.292989 1.822381 0.120288 -0.027845 7751.920000 0 0 1
34.925013 10.925825 -8.758409 37.627648 0.303192 1.805716 0.120796 -0.024924 270123.000000 0 0 1
34.750553 12.315625 -8.408809 37.815124 0.340590 1.795037 0.112978 -0.026219 -408083.000000 0 0 1
34.494053 12.662525 -6.932309 37.392996 0.351821 1.757266 0.108370 -0.031278 63260.100000 0 0 1
35.640893 12.389525 -6.151909 38.231133 0.334554 1.732413 0.135069 -0.033338 469978.000000 0 0 1
35.353743 12.657825 -4.799209 37.856837 0.343814 1.697911 0.125858 -0.029606 -110038.000000 0 0 1
36.639953 12.492625 -3.984309 38.915634 0.328596 1.673359 0.144224 -0.024694 83791.500000 0 0 1
37.342833 13.724325 -3.866409 39.972408 0.352199 1.667675 0.141571 -0.014390 -805289.000000 0 0 1
-36.279966 13.585025 -3.321709 38.882162 -0.358288 1.656331 0.146356 -0.026988 -632608.000000 0 0 1
-35.404517 14.825125 -3.083109 38.506749 -0.396553 1.650949 0.139375 -0.024951 246040.000000 0 0 1
-36.010543 15.678525 -2.142709 39.334038 -0.410636 1.625298 0.138291 -0.022355 -479.103000 0 0 1
-35.141364 16.687625 -1.785509 38.943296 -0.443343 1.616661 0.151147 -0.028093 -108499.000000 0 0 1
-35.840672 17.670625 -0.795309 39.967953 -0.458058 1.590696 0.138171 -0.024750 274390.000000 0 0 1
-36.876046 18.375625 -1.426009 41.225476 -0.462293 1.605394 0.113626 -0.017175 99552.300000 0 0 1
37.043363 19.004725 -0.613609 41.638526 0.474025 1.585533 0.109943 -0.022923 40284.800000 0 0 1
36.365803 20.194425 -1.290909 41.616738 0.506914 1.601820 0.111073 -0.022888 -302859.000000 0 0 1
37.166013 21.315725 -1.502709 42.871095 0.520727 1.605855 0.105397 -0.020744 -290223.000000 0 0 1
36.813023 21.948325 -2.706709 42.944777 0.537629 1.633866 0.093798 -0.013295 -131206.000000 0 0 1
-37.234996 23.205425 -3.081709 43.982196 -0.557315 1.640921 0.108229 -0.020862 540396.000000 0 0 1
-35.890900 22.878025 -3.452309 42.702215 -0.567490 1.651731 0.112546 -0.016239 475163.000000 0 0 1
-35.279185 24.026725 -4.040309 42.874567 -0.597891 1.665172 0.124096 -0.018075 214027.000000 0 0 1
-33.885056 23.654525 -4.614109 41.581529 -0.609437 1.681991 0.133195 -0.026547 268470.000000 0 0 1
-33.954066 22.720225 -5.696309 41.249668 -0.589717 1.709332 0.108417 -0.013730 -57223.900000 0 0 1
-32.705966 22.756925 -6.369709 40.350106 -0.607904 1.729320 0.119713 -0.011579 177212.000000 0 0 1
-32.488016 21.946125 -7.649709 39.945233 -0.594103 1.763492 0.121340 -0.020205 -211759.000000 0 0 1
-33.343036 22.398725 -8.636109 41.085804 -0.591525 1.782573 0.125202 -0.026531 81351.700000 0 0 1
-32.779116 22.022925 -9.903509 40.713132 -0.591588 1.816512 0.093795 -0.018374 -208481.000000 0 0 1
-33.780536 22.147225 -11.028009 41.871722 -0.580317 1.837316 0.088227 -0.014926 -381384.000000 0 0 1
-34.051680 23.434225 -11.470409 42.898136 -0.602760 1.841477 0.085620 -0.019671 36761.100000 0 0 1
-34.417951 23.418825 -12.873109 43.574690 -0.597467 1.870698 0.057965 -0.018766 -444540.000000 0 0 1
-34.562818 24.924525 -13.314809 44.644198 -0.624771 1.873647 0.063335 -0.013543 509988.000000 0 0 1
-33.307006 25.560425 -13.178809 44.004238 -0.654556 1.874954 0.057130 -0.014566 237575.000000 0 0 1
-32.381026 25.423125 -14.251009 43.565552 -0.665604 1.904047 0.065995 -0.023311 814380.000000 0 0 1
-30.953746 26.030925 -13.953009 42.783523 -0.699224 1.903004 0.063822 -0.024320 701853.000000 0 0 1
-30.104536 25.408125 -13.014609 41.487780 -0.700998 1.889881 0.049956 -0.026074 -277988.000000 0 0 1
-30.526356 25.248725 -11.659309 41.295230 -0.691056 1.857029 0.077141 -0.017182 -469486.000000 0 0 1
-30.685166 26.553525 -10.760609 41.981660 -0.713340 1.830006 0.084368 -0.008694 672386.000000 0 0 1
-29.426416 27.181625 -10.511309 41.415484 -0.745764 1.827405 0.093672 -0.010401 389653.000000 0 0 1
-29.644996 28.416925 -9.929909 42.248674 -0.764250 1.808051 0.081334 -0.012101 494924.000000 0 0 1
-28.295096 29.074125 -9.571309 41.683656 -0.798977 1.802481 0.088142 -0.022104 144740.000000 0 0 1
-28.595706 30.402425 -9.184609 42.736154 -0.816012 1.787400 0.078382 -0.037044 1586.090000 0 0 1
-27.470776 31.233325 -8.953509 42.547966 -0.849404 1.782814 0.114302 -0.030764 81081.600000 0 0 1
35.821883 -24.817475 33.682337 55.078255 -0.605879 0.912796 0.034021 -0.013790 -311840.000000 0 0 1
35.413393 -23.468475 33.823997 54.304148 -0.585252 0.898400 0.033843 -0.019566 819430.000000 0 0 1
34.235273 -23.412075 -33.177379 53.112311 -0.599810 2.245498 0.026347 -0.020177 923852.000000 0 0 1
33.632473 -21.986975 -32.920289 51.945314 -0.579002 2.257186 0.021775 -0.019956 377637.000000 0 0 1
33.075453 -21.309375 33.775582 51.854267 -0.572333 0.861426 0.013408 -0.017828 293879.000000 0 0 1
32.558683 -20.033075 -33.686119 50.952394 -0.551587 2.293119 0.016619 -0.013951 65559.000000 0 0 1
32.385033 -19.196175 32.882897 49.985682 -0.535070 0.852841 0.017794 -0.019384 -914953.000000 0 0 1
33.551643 -18.737675 32.296409 50.198319 -0.509325 0.871896 0.038083 -0.024642 -522171.000000 0 0 1
33.254833 -18.274975 30.939817 48.960504 -0.502493 0.886750 0.042973 -0.022042 179486.000000 0 0 1
34.473413 -18.245875 29.972497 49.190230 -0.486791 0.915596 0.045100 -0.021014 -34337.700000 0 0 1
35.349143 -17.172575 30.165587 49.542122 -0.452222 0.916139 0.054340 -0.028790 631344.000000 0 0 1
36.622403 -17.365175 29.525037 50.144566 -0.442769 0.941225 0.067743 -0.032933 772687.000000 0 0 1
-37.256676 -16.197875 29.783167 50.373287 0.410112 0.938189 0.068644 -0.036752 55393.200000 0 0 1
-35.936098 -16.688975 29.620847 49.470391 0.434770 0.928845 0.071310 -0.024974 435811.000000 0 0 1
-35.020148 -15.635875 30.014277 48.700598 0.419925 0.906758 0.074736 -0.030483 458859.000000 0 0 1
-33.519866 -15.966875 29.880797 47.659045 0.444542 0.893138 0.075567 -0.033151 706703.000000 0 0 1
-32.665216 -14.995175 30.563707 47.180629 0.430360 0.866101 0.081310 -0.031928 472070.000000 0 0 1
-31.500316 -15.541875 31.125007 46.931715 0.458344 0.845713 0.090216 -0.036093 -49769.800000 0 0 1
-30.480756 -14.496475 31.623697 46.252378 0.443933 0.817947 0.093157 -0.042744 -152039.000000 0 0 1
-30.856756 -13.946475 32.876730 47.196641 0.424495 0.800162 0.102915 -0.046958 307463.000000 0 0 1
-30.060566 -12.831275 33.256772 46.629305 0.403434 0.776720 0.101057 -0.038624 -8896.560000 0 0 1
-30.349946 -12.334175 -33.190899 46.635682 0.386010 2.362720 0.092723 -0.024638 -193564.000000 0 0 1
-30.140086 -13.262575 -32.188949 46.048334 0.414533 2.344830 0.105479 -0.023717 220773.000000 0 0 1
-30.404366 -12.650575 -30.940769 45.186211 0.394289 2.325042 0.108348 -0.016705 -360921.000000 0 0 1
-30.618686 -13.475575 -29.678419 44.720281 0.414599 2.296478 0.104334 -0.015374 -493106.000000 0 0 1
-31.827256 -14.137575 -29.827099 45.853037 0.418018 2.279030 0.092214 -0.015963 -476148.000000 0 0 1
-32.320096 -14.691675 -28.613209 45.597693 0.426646 2.249153 0.092358 -0.007730 382329.000000 0 0 1
-33.527546 -15.651775 -28.689829 46.820729 0.436764 2.230344 0.080066 -0.014558 55039.400000 0 0 1
-33.191686 -16.865875 -29.272409 47.360528 0.470135 2.237089 0.078532 -0.011049 125367.000000 0 0 1
-34.371300 -17.618675 -29.420369 48.552673 0.473675 2.221753 0.069783 -0.011363 35100.200000 0 0 1
-34.004886 -19.036775 -29.944969 49.147047 0.510355 2.225965 0.063196 -0.003625 719672.000000 0 0 1
-35.155512 -19.888175 -30.068489 50.354379 0.514832 2.210724 0.040290 -0.002878 596725.000000 0 0 1
-34.764468 -21.146775 -30.523699 50.866988 0.546491 2.214384 0.032186 -0.001778 50693.900000 0 0 1
-36.014355 -21.983275 -30.837149 52.261150 0.548034 2.201928 0.031470 0.003865 213350.000000 0 0 1
-36.733996 -22.429275 -29.674639 52.278514 0.548167 2.174416 0.037300 -0.003669 80860.900000 0 0 1
37.089433 -23.333475 -29.909079 53.053087 -0.561552 2.169725 0.050667 -0.005370 134330.000000 0 0 1
-37.280396 -24.787375 -30.178659 53.990678 0.586772 2.163928 0.046974 -0.006584 -79622.000000 0 0 1
-36.792666 -24.904675 -31.456959 54.437885 0.595049 2.186889 0.052194 -0.004597 -198566.000000 0 0 1
-36.239656 -26.267285 -31.568989 54.771196 0.627191 2.185087 0.056608 -0.006999 223793.000000 0 0 1
-36.414736 -27.011875 -32.910659 56.024868 0.638222 2.198675 0.056967 -0.015771 -397911.000000 0 0 1
37.206283 -27.555645 -33.216309 56.981964 -0.637470 2.193122 0.061818 -0.018082 -629383.000000 0 0 1
37.185853 -28.771335 33.870347 57.946335 -0.658508 0.946517 0.053649 -0.018432 80924.200000 0 0 1
-37.009886 -29.979645 -33.274559 58.100835 0.680836 2.180596 0.065585 -0.029269 -52320.300000 0 0 1
37.263123 -30.351235 -32.033519 57.757113 -0.683527 2.158708 0.083295 -0.038922 -210138.000000 0 0 1
-37.138556 -31.574165 -31.522349 58.050484 0.704594 2.144821 0.076035 -0.041343 -60877.600000 0 0 1
37.174273 -32.071975 -30.121369 57.600651 -0.711848 2.121086 0.064312 -0.036561 -173007.000000 0 0 1
36.135193 -32.981045 -30.306809 57.550014 -0.739794 2.125412 0.084118 -0.034486 -376273.000000 0 0 1
35.721343 -33.487245 -29.054179 56.934657 -0.753129 2.106339 0.070849 -0.029056 105500.000000 0 0 1
34.496583 33.349485 -29.177679 56.156383 0.768492 2.117155 0.085198 -0.041981 462467.000000 0 0 1
33.372043 -33.781405 -29.750399 56.035371 -0.791494 2.130484 0.095180 -0.040394 -232289.000000 0 0 1
32.164093 33.433431 -29.331699 54.887810 0.804746 2.134587 0.082901 -0.034712 -358461.000000 0 0 1
30.967673 -33.873075 -30.138459 54.906363 -0.830176 2.151852 0.053830 -0.025076 -415788.000000 0 0 1
30.855153 33.372333 -31.448519 55.269905 0.824570 2.176084 0.061912 -0.025037 -504471.000000 0 0 1
29.638363 33.685206 -32.071449 55.151641 0.849219 2.191385 0.050816 -0.005174 -264714.000000 0 0 1
29.310663 32.989267 -33.435519 55.365518 0.844376 2.219188 0.048861 -0.014245 -54360.800000 0 0 1
29.094163 31.629150 -33.371049 54.410480 0.827120 2.231054 0.033863 -0.009751 -12707.200000 0 0 1
28.771963 31.062830 33.198159 53.803746 0.823666 0.905842 0.048478 -0.014324 67791.300000 0 0 1
28.709363 29.542200 33.409429 53.039222 0.799694 0.889371 0.064914 -0.032147 -166728.000000 0 0 1
29.945943 28.938880 33.670751 53.553130 0.768298 0.890870 0.068078 -0.028793 -498982.000000 0 0 1
29.821063 27.542450 -33.899599 52.887287 0.745697 2.266568 0.075708 -0.036481 1203070.000000 0 0 1
31.251983 26.912910 -33.656399 53.232925 0.710937 2.255247 0.097792 -0.033173 1042640.000000 0 0 1
31.872053 27.196500 -32.442599 52.990561 0.706408 2.229679 0.102829 -0.025873 512834.000000 0 0 1
33.164203 26.548780 -32.405509 53.430507 0.675061 2.222445 0.106436 -0.020589 1449610.000000 0 0 1
34.001843 26.701080 -31.067439 53.237757 0.665703 2.193902 0.109362 -0.020340 193293.000000 0 0 1
34.797013 27.861430 -30.860599 54.216860 0.675158 2.176337 0.096900 -0.022075 -111357.000000 0 0 1
34.268053 29.151760 -30.941159 54.602929 0.704899 2.173240 0.124975 -0.030795 148653.000000 0 0 1
33.202083 29.538470 -29.841709 53.529684 0.727071 2.162143 0.136711 -0.027888 1007490.000000 0 0 1
33.805983 29.679910 -28.527409 53.268702 0.720497 2.135941 0.114001 -0.029302 58224.400000 0 0 1
32.845783 30.167500 -27.646159 52.471264 0.742920 2.125724 0.096783 -0.023370 -505989.000000 0 0 1
33.318853 30.382290 -26.188819 52.144834 0.739332 2.096975 0.106520 -0.034613 -432045.000000 0 0 1
34.167923 31.475460 -26.083709 53.277682 0.744405 2.082405 0.096558 -0.043065 -178796.000000 0 0 1
34.550143 31.848022 -24.781809 53.123883 0.744725 2.056116 0.070685 -0.052079 -83257.500000 0 0 1
34.861863 33.327602 -24.545309 54.116086 0.762902 2.041561 0.078760 -0.046512 1136550.000000 0 0 1
33.677593 -33.599735 -24.555509 53.535927 -0.784241 2.047298 0.074717 -0.035723 1101960.000000 0 0 1
34.004643 -32.230105 -24.447909 52.846907 -0.758613 2.051742 0.051628 -0.024283 -424749.000000 0 0 1
34.395853 -31.532255 -25.805589 53.322474 -0.741990 2.075963 0.049467 -0.019223 -652719.000000 0 0 1
35.626873 -31.836085 -26.327439 54.552217 -0.729267 2.074428 0.058592 -0.022844 -467907.000000 0 0 1
36.728683 -31.021865 -25.914689 54.616145 -0.701364 2.065178 0.060584 -0.025387 1162160.000000 0 0 1
-36.696366 -31.554635 -26.211119 55.039449 0.710205 2.067152 0.047532 -0.022484 661631.000000 0 0 1
-36.425956 -32.870145 -25.620019 55.350538 0.734130 2.052025 0.043461 -0.027003 -177360.000000 0 0 1
-36.399086 -33.058725 -24.218409 54.811532 0.737343 2.028455 0.043065 -0.029385 -824855.000000 0 0 1
-35.287067 -32.400465 -23.437909 53.332005 0.742778 2.025807 0.035174 -0.028515 -503188.000000 0 0 1
-35.412272 -30.945665 -23.381409 52.520029 0.718189 2.032183 -0.009492 -0.021374 -176352.000000 0 0 1
-34.709409 -30.334295 -22.302009 51.208320 0.718235 2.021407 0.028638 -0.024863 -360914.000000 0 0 1
-34.446884 -28.807495 -22.567609 50.256905 0.696479 2.036492 0.037916 -0.013835 -182282.000000 0 0 1
-35.510761 -27.889315 -22.642209 50.512351 0.665760 2.035604 0.018507 0.000784 -690884.000000 0 0 1
-36.205086 -27.988355 -23.842309 51.600503 0.658091 2.051108 0.041396 -0.010688 446569.000000 0 0 1
-37.380466 -26.943905 -23.916009 51.915785 0.624551 2.049545 0.036899 -0.004600 299755.000000 0 0 1
-36.814496 -25.645405 -23.876709 50.824119 0.608448 2.059850 0.024246 0.009709 -218252.000000 0 0 1
37.198303 -24.641075 -24.306809 50.810602 -0.585060 2.069606 0.029309 0.012392 -273233.000000 0 0 1
-37.204186 -23.957075 -25.618009 51.130962 0.572100 2.095582 0.043951 0.000171 516916.000000 0 0 1
-36.038566 -23.149575 -25.328879 49.761764 0.570983 2.104822 0.028546 0.002101 330215.000000 0 0 1
-35.692400 -22.453775 -26.501919 49.804328 0.561536 2.131900 0.032932 -0.011083 -449094.000000 0 0 1
-34.398529 -21.693375 -26.246659 48.401946 0.562651 2.143926 0.036397 -0.008140 -593505.000000 0 0 1
-34.452519 -20.579775 -25.391449 47.489250 0.538459 2.134923 0.048700 -0.016852 -446485.000000 0 0 1
-35.303265 -19.499775 -25.710759 47.828912 0.504646 2.138333 0.047583 -0.011931 235592.000000 0 0 1
-36.486996 -19.287575 -24.686209 48.090751 0.486277 2.109852 0.052174 -0.015181 453866.000000 0 0 1
-36.164256 -19.093375 -23.323409 47.078570 0.485767 2.089108 0.046284 -0.023780 -332312.000000 0 0 1
-35.546304 -20.169175 -22.601209 46.702783 0.516108 2.075944 0.026513 -0.021700 184720.000000 0 0 1
-36.394036 -21.469675 -22.412509 47.830882 0.532977 2.058477 0.041393 -0.015380 -27378.100000 0 0 1
-37.428536 -21.258875 -21.509709 48.119670 0.516547 2.034210 0.035075 -0.016373 -686394.000000 0 0 1
36.725563 -22.421075 -21.205609 47.970297 -0.548107 2.028687 0.031644 -0.008988 -195115.000000 0 0 1
35.669723 -22.229475 -20.115609 46.595240 -0.557306 2.017183 0.020513 -0.008635 307798.000000 0 0 1
34.464083 -21.661175 -20.618309 45.629970 -0.561123 2.039644 0.051797 -0.007471 197889.000000 0 0 1
33.421773 -21.580375 -19.670609 44.380855 -0.573345 2.029987 0.058902 -0.011581 -213460.000000 0 0 1
32.141043 -20.945375 -20.186109 43.350137 -0.577549 2.055168 0.059819 -0.013682 -737161.000000 0 0 1
31.609803 -21.720875 -21.250409 43.846960 -0.602054 2.076759 0.065933 -0.010330 -470690.000000 0 0 1
30.451493 -21.255575 -21.868009 43.096435 -0.609392 2.102985 0.103401 -0.019161 -567178.000000 0 0 1
30.446053 -19.994375 -22.700709 42.919219 -0.581081 2.128120 0.093693 -0.016958 -470137.000000 0 0 1
30.698543 -18.877075 -21.903509 42.172363 -0.551316 2.116922 0.091150 -0.016395 -70413.600000 0 0 1
30.772733 -17.727075 -22.698009 42.147478 -0.522634 2.139497 0.087377 -0.011955 161917.000000 0 0 1
31.508323 -16.560075 -21.942009 41.814617 -0.483900 2.123212 0.057795 -0.010554 -115575.000000 0 0 1
30.731303 -16.066675 -20.855309 40.465972 -0.481730 2.112246 0.052687 -0.015407 286073.000000 0 0 1
31.453543 -15.347275 -19.841209 40.231055 -0.453949 2.086539 0.032894 -0.018045 68913.600000 0 0 1
32.488253 -16.149175 -19.017409 40.962718 -0.461307 2.053597 0.051641 -0.020662 929791.000000 0 0 1
33.716213 -16.419375 -19.748309 42.383659 -0.453184 2.055495 0.036559 -0.017613 930662.000000 0 0 1
34.521553 -17.312275 -18.939609 43.013501 -0.464840 2.026749 0.036162 -0.021848 82539.800000 0 0 1
35.740543 -17.808575 -19.725709 44.538021 -0.462266 2.029622 0.030653 -0.030006 3919.000000 0 0 1
36.645643 -16.758275 -20.021209 44.995463 -0.428913 2.031927 0.037518 -0.032761 1574220.000000 0 0 1
-37.131186 -17.137675 -20.955009 45.951466 0.432412 2.044320 0.043670 -0.030146 1642550.000000 0 0 1
-36.340946 -15.932075 -21.506709 45.133511 0.413170 2.067481 0.054825 -0.033246 25326.200000 0 0 1
-35.631770 -15.158075 -20.547609 43.835995 0.402217 2.058658 0.079466 -0.032326 97874.200000 0 0 1
-34.921642 -14.128275 -21.208509 43.231123 0.384440 2.083556 0.092801 -0.030003 -1705630.000000 0 0 1
-33.635206 -13.747875 -20.541709 41.740782 0.388014 2.085326 0.107559 -0.036822 -489697.000000 0 0 1
-32.489626 -14.565175 -20.842609 41.256932 0.421441 2.100399 0.118742 -0.036652 626649.000000 0 0 1
-32.523566 -15.875275 -20.211809 41.452670 0.454095 2.080121 0.096660 -0.038561 -743533.000000 0 0 1
-31.465146 -16.871475 -20.690809 41.265138 0.492183 2.096026 0.083188 -0.045983 -193134.000000 0 0 1
-31.710996 -18.133075 -20.087009 41.687931 0.519443 2.073552 0.097378 -0.055418 426970.000000 0 0 1
-30.668776 -19.100875 -20.251809 41.419234 0.557024 2.081678 0.107586 -0.055799 169977.000000 0 0 1
-30.967726 -20.464775 -19.530009 41.943155 0.583959 2.055143 0.093458 -0.018888 -255446.000000 0 0 1
-31.963936 -21.183075 -20.199909 43.341114 0.585264 2.055638 0.071682 -0.023272 -143531.000000 0 0 1
-32.197516 -22.503375 -19.635509 43.916228 0.609998 2.034331 0.071106 0.000114 877122.000000 0 0 1
-33.290786 -23.415575 -20.326909 45.494492 0.612981 2.033981 0.038267 -0.009529 805107.000000 0 0 1
-32.765786 -23.770775 -21.590509 45.878061 0.627620 2.060774 0.041104 -0.019049 697732.000000 0 0 1
-33.693726 -24.592975 -22.311309 47.306195 0.630511 2.061942 0.034034 -0.009210 459646.000000 0 0 1
-33.286496 -24.683675 -23.830109 47.803229 0.638073 2.092669 0.033703 -0.003836 564949.000000 0 0 1
-31.949766 -25.096835 -24.075409 47.225670 0.665842 2.105743 0.037853 -0.015479 -125273.000000 0 0 1
-31.726146 -25.515045 -25.411389 47.992755 0.677313 2.128788 0.038992 -0.008876 869895.000000 0 0 1
-30.267746 -25.863815 -25.913089 47.503279 0.707101 2.147783 0.051330 -0.015119 665549.000000 0 0 1
-29.446646 -24.739575 -25.988309 46.417062 0.698747 2.165046 0.056838 -0.015321 -1029750.000000 0 0 1
-28.155346 -25.152125 -26.298869 46.010687 0.729120 2.179229 0.044010 -0.014531 -286585.000000 0 0 1
-27.101396 -24.061875 -26.571049 44.938626 0.726060 2.203434 0.057300 -0.015126 24344.800000 0 0 1
-27.312436 -23.314475 -27.774999 45.398066 0.706593 2.229143 0.058939 -0.010590 -425918.000000 0 0 1
-26.299746 -22.375175 -27.900389 44.393206 0.704944 2.250398 0.074622 -0.012758 -221911.000000 0 0 1
-26.104386 -21.765675 -29.368359 44.918638 0.695010 2.283408 0.062167 -0.007835 -11763.800000 0 0 1
-25.633096 -22.727675 -30.287529 45.726767 0.725392 2.294759 0.070491 -0.014425 140058.000000 0 0 1
-25.201596 -22.209675 -31.551639 46.085746 0.722376 2.324891 0.077793 -0.011907 220151.000000 0 0 1
-24.742546 -23.341775 -32.478879 47.030943 0.756275 2.333094 0.082362 -0.014854 -13942.000000 0 0 1
-25.869846 -24.138675 -32.723879 48.195194 0.750794 2.317177 0.046220 -0.013740 -104572.000000 0 0 1
-25.556816 -25.220435 -33.593999 49.170905 0.778774 2.322944 0.072291 -0.010933 58068.600000 0 0 1
-20.041446 -14.768275 -11.753009 27.529887 0.635056 2.011878 0.050911 -0.001823 126531.000000 0 0 1
-20.596446 -14.468775 -10.445009 27.251738 0.612394 1.964140 0.054284 -0.017239 348093.000000 0 0 1
-19.629546 -14.572175 -9.395709 26.190584 0.638593 1.937718 0.047564 -0.019178 -50269.400000 0 0 1
-20.086846 -13.968375 -8.056009 25.758419 0.607631 1.888886 0.087579 -0.036383 -230286.000000 0 0 1
-21.116046 -14.686075 -7.418009 26.769293 0.607695 1.851580 0.105663 -0.030831 -279065.000000 0 0 1
-21.491646 -13.933775 -6.324909 26.382672 0.575203 1.812892 0.104059 -0.035888 -192796.000000 0 0 1
-22.869546 -14.363075 -5.770509 27.615445 0.560785 1.781307 0.106721 -0.031523 -195199.000000 0 0 1
-23.007346 -15.692575 -5.245409 28.339181 0.598589 1.756964 0.086280 -0.030427 311687.000000 0 0 1
-22.404546 -15.860775 -3.968009 27.735770 0.616026 1.714354 0.103163 -0.033017 -48688.000000 0 0 1
-22.121046 -17.351775 -3.596809 28.343637 0.665157 1.698039 0.070682 -0.017421 998395.000000 0 0 1
-23.365746 -18.062075 -3.386509 29.726504 0.658069 1.684966 0.081142 -0.013869 1096920.000000 0 0 1
-23.154246 -19.070875 -2.404509 30.093172 0.688993 1.650784 0.070521 -0.011891 65036.500000 0 0 1
-24.304146 -20.083775 -2.204009 31.605492 0.690604 1.640588 0.074778 -0.027578 91717.800000 0 0 1
-24.282846 -21.001075 -3.275509 32.271205 0.713054 1.672471 0.063517 -0.025980 447088.000000 0 0 1
-25.337436 -21.965875 -3.154709 33.681412 0.714243 1.664597 0.077879 -0.025745 348817.000000 0 0 1
-25.081156 -23.244375 -4.094609 34.440255 0.747408 1.689968 0.068775 -0.025564 291677.000000 0 0 1
-23.865146 -23.947375 -3.793309 34.020745 0.787118 1.682529 0.075024 -0.019251 198510.000000 0 0 1
-23.571546 -24.774175 -4.879609 34.542555 0.810269 1.712534 0.077467 -0.017771 -170032.000000 0 0 1
-22.164846 -24.711975 -5.522609 33.652062 0.839681 1.735651 0.059946 -0.005384 12275.700000 0 0 1
-21.904646 -23.474075 -6.191709 32.698363 0.819970 1.761305 0.037055 0.003781 113250.000000 0 0 1
-21.621346 -22.402975 -5.290209 31.581041 0.803151 1.739102 0.036194 -0.001589 -844119.000000 0 0 1
-21.710246 -20.936475 -5.777809 30.709181 0.767256 1.760070 0.030806 0.012263 -224718.000000 0 0 1
-20.671946 -20.508375 -6.620009 29.862138 0.781426 1.794339 0.014782 0.014248 -144772.000000 0 0 1
-20.862646 -19.165675 -7.026709 29.188143 0.743029 1.813923 0.006201 0.012616 -108937.000000 0 0 1
-19.804346 -18.710975 -8.043009 28.407792 0.757018 1.857849 0.015794 0.011154 -298613.000000 0 0 1
-19.804946 -19.342375 -9.302909 29.204579 0.773583 1.894988 -0.000521 0.008206 100876.000000 0 0 1
-18.594346 -19.167075 -10.030909 28.526226 0.800564 1.930117 0.055503 0.001851 125784.000000 0 0 1
-18.218046 -17.773475 -10.556009 27.554000 0.773047 1.963949 0.061200 0.008281 -307766.000000 0 0 1
-17.721646 -16.956875 -9.513409 26.307742 0.763349 1.940801 0.082225 -0.013977 -243554.000000 0 0 1
-16.335346 -17.043375 -9.252409 25.356009 0.806607 1.944322 0.116950 -0.015083 -382667.000000 0 0 1
-15.999646 -15.921175 -8.292309 24.046514 0.782940 1.922869 0.107136 -0.016320 -265453.000000 0 1 0
-16.602046 -16.028875 -7.033009 24.125007 0.767835 1.866616 0.081838 -0.015494 37039.300000 0 1 0
-16.653746 -14.795375 -6.284809 23.146256 0.726375 1.845774 0.095709 -0.020149 252462.000000 0 1 0
-17.488046 -15.008675 -4.957509 23.572631 0.709250 1.782686 0.104162 -0.020549 378552.000000 0 1 0
-17.795446 -13.855375 -4.173209 22.936106 0.661550 1.753765 0.107536 -0.025029 141575.000000 0 1 0
-18.481546 -14.178875 -3.002509 23.486657 0.654413 1.698986 0.106757 -0.023009 -325509.000000 0 1 0
-19.384646 -13.059275 -2.496009 23.506152 0.592850 1.677182 0.122190 -0.017162 -694371.000000 0 1 0
-20.548746 -12.860375 -3.258609 24.459328 0.559208 1.704419 0.146736 -0.036203 233448.000000 0 1 0
-21.387746 -11.953575 -2.541309 24.632943 0.509649 1.674147 0.157592 -0.026822 290959.000000 0 1 0
-22.892546 -12.052075 -2.930109 26.036641 0.484593 1.683573 0.134770 -0.017615 253433.000000 0 0 1
-23.262246 -11.374075 -4.123409 26.220300 0.454769 1.728712 0.141615 -0.038993 186004.000000 0 0 1
-24.674046 -11.386475 -4.148009 27.489385 0.432356 1.722270 0.126925 -0.026513 -167994.000000 0 0 1
-25.270076 -10.771475 -5.411209 27.997903 0.402932 1.765292 0.140175 -0.039129 -167381.000000 0 0 1
-25.002546 -11.439375 -6.622709 28.281564 0.429097 1.807162 0.126149 -0.039234 277745.000000 0 0 1
-25.492736 -10.665475 -7.677509 28.680587 0.396244 1.841791 0.143411 -0.039781 -593874.000000 0 0 1
-24.789346 -11.096275 -8.936309 28.591897 0.420875 1.888669 0.163207 -0.048061 46588.300000 0 0 1
-23.518846 -10.474375 -9.077909 27.299397 0.418989 1.909783 0.156420 -0.044631 368511.000000 0 0 1
-22.711046 -11.028975 -10.089409 27.188712 0.452079 1.950977 0.117998 -0.038391 -1142540.000000 0 0 1
-21.290346 -10.579575 -9.908409 25.756218 0.461180 1.965679 0.126423 -0.045227 -1358040.000000 0 0 1
-21.053646 -9.279975 -10.285809 25.202615 0.415158 1.991195 0.126618 -0.051939 1388280.000000 0 0 1
-19.762446 -8.774375 -9.850709 23.760900 0.417847 1.998274 0.125253 -0.038934 520510.000000 0 1 0
-19.568946 -7.319975 -10.384409 23.331558 0.357947 2.032060 0.090578 -0.046624 -188686.000000 0 1 0
-19.242046 -7.211275 -11.731509 23.661934 0.358566 2.089548 0.110499 -0.043962 509784.000000 0 1 0
-19.508546 -5.933975 -12.308409 23.817899 0.295281 2.113872 0.122569 -0.055550 -376226.000000 0 1 0
-18.978246 -5.980075 -13.756509 24.190424 0.305253 2.175691 0.156009 -0.037185 -105277.000000 0 1 0
-19.722346 -6.749875 -14.692909 25.503202 0.329750 2.184770 0.147799 -0.043445 250312.000000 0 0 1
-19.163246 -6.712175 -15.998509 25.850252 0.336909 2.238127 0.144035 -0.042253 -122921.000000 0 0 1
-19.822446 -7.650875 -17.065509 27.252464 0.368354 2.247467 0.122099 -0.042158 -679646.000000 0 0 1
-21.010146 -7.126075 -17.543809 28.284137 0.326997 2.239884 0.110516 -0.045498 -531620.000000 0 0 1
-21.565446 -7.963875 -18.532709 29.528851 0.353754 2.249280 0.100633 -0.045162 131561.000000 0 0 1
-22.934446 -7.494875 -19.110709 30.779557 0.315855 2.240673 0.091734 -0.040519 -425219.000000 0 0 1
-23.007746 -6.264875 -19.743609 30.958280 0.265849 2.262368 0.080784 -0.038070 134029.000000 0 0 1
-24.194346 -6.102975 -20.482009 32.281966 0.247093 2.258122 0.066732 -0.038723 -411789.000000 0 0 1
-25.519576 -5.812475 -19.817109 32.829124 0.223945 2.218860 0.109214 -0.034476 -1049770.000000 0 0 1
-25.654536 -4.542175 -19.183609 32.354248 0.175236 2.205481 0.100465 -0.026182 -35429.300000 0 0 1
-26.795846 -4.581975 -18.365509 32.807068 0.169358 2.164945 0.128148 -0.018641 -283007.000000 0 0 1
-27.043196 -3.246575 -17.582409 32.419373 0.119480 2.144019 0.120645 -0.013280 63747.000000 0 0 1
-27.173506 -2.055175 -18.402109 32.882530 0.075488 2.164738 0.115337 -0.009429 905847.000000 0 0 1
-28.450286 -1.889675 -19.057709 34.295566 0.066323 2.159989 0.127295 -0.007834 674059.000000 0 0 1
-28.561456 -0.716175 -20.045609 34.901233 0.025070 2.182609 0.129537 -0.002412 -55676.800000 0 0 1
-27.878226 -0.664275 -21.316909 35.100532 0.023823 2.223467 0.109658 0.001277 -52855.700000 0 0 1
-28.520136 -1.323675 -22.375909 36.274392 0.046379 2.235532 0.126056 0.006725 -338349.000000 0 0 1
-27.862386 -1.278775 -23.813009 36.674339 0.045864 2.277473 0.119880 0.006590 -615417.000000 0 0 1
-27.990676 -0.050375 -24.450209 37.165753 0.001800 2.288783 0.114613 0.008641 150488.000000 0 0 1
-27.282466 1.033125 -23.865909 36.262679 -0.037850 2.289142 0.075145 0.014351 -370817.000000 0 0 1
-25.768776 0.931225 -23.641609 34.983176 -0.036122 2.312845 0.062988 0.011359 -831433.000000 0 0 1
-24.986546 0.864225 -24.812909 35.224349 -0.034574 2.352409 0.049861 0.015043 -247758.000000 0 0 1
-23.618746 0.835025 -24.458109 34.010903 -0.035340 2.373339 0.045876 0.012673 -247006.000000 0 0 1
-22.798846 0.440625 -25.681499 34.344154 -0.019324 2.415492 0.038274 0.008587 -394063.000000 0 0 1
-22.918346 1.329225 -26.829869 35.310894 -0.057933 2.433830 0.021328 0.019023 34330.900000 0 0 1
-22.201646 0.894125 -27.958069 35.712269 -0.040251 2.470062 0.022532 0.019437 -60711.100000 0 0 1
-21.972446 2.004525 -28.968669 36.414149 -0.090977 2.490684 0.022492 0.018591 -560937.000000 0 0 1
-21.106846 3.092225 -28.714639 35.771375 -0.145469 2.502650 0.034201 0.020680 214922.000000 0 0 1
-21.000546 3.906925 -29.895329 36.742586 -0.183936 2.521187 0.027585 0.007848 73917.300000 0 0 1
-20.189846 3.243425 -31.062199 37.188841 -0.159285 2.559394 0.026444 0.005099 -162509.000000 0 0 1
-18.790146 3.072625 -30.943429 36.331892 -0.162089 2.589994 0.011205 0.005010 38405.600000 0 0 1
-18.321946 2.392125 -32.066019 37.008722 -0.129826 2.618833 0.000295 0.008875 1065120.000000 0 0 1
-16.756346 2.154525 -31.989809 36.176857 -0.127878 2.655707 0.004989 0.004408 1028840.000000 0 0 1
-16.081046 3.377625 -31.833859 35.824614 -0.207028 2.665087 0.018597 -0.000217 -910674.000000 0 0 1
-14.755546 3.302725 -32.218129 35.589913 -0.220200 2.702788 0.018496 0.001087 -882134.000000 0 0 1
-14.187946 4.672325 -32.650209 35.904938 -0.318131 2.712519 0.043199 -0.004657 -381364.000000 0 0 1
-14.024846 5.614525 -31.623909 35.046980 -0.380788 2.695939 0.061074 -0.023186 271279.000000 0 0 1
-13.550946 6.903625 -32.134819 35.551860 -0.471185 2.699564 0.097267 -0.016036 -9736.840000 0 0 1
-12.916446 7.836625 -31.065769 34.544598 -0.545344 2.688950 0.103821 -0.021808 -519134.000000 0 0 1
-11.740946 7.427025 -30.441709 33.462040 -0.564028 2.713450 0.134616 -0.039597 -306544.000000 0 0 1
-11.780946 6.367125 -29.498149 32.395551 -0.495489 2.715437 0.116727 -0.038325 -1002240.000000 0 0 1
-10.466546 5.621725 -29.407569 31.716833 -0.492896 2.757640 0.120251 -0.050448 -695417.000000 0 0 1
-10.153546 4.820625 -30.566289 32.567329 -0.443263 2.789221 0.108267 -0.050046 82590.200000 0 0 1
-10.893246 3.629025 -30.604409 32.687344 -0.321581 2.782673 0.112097 -0.047928 -344333.000000 0 0 1
-10.587746 2.782525 -31.830579 33.660489 -0.256995 2.810342 0.091753 -0.040942 -301850.000000 0 0 1
-11.074446 1.451425 -31.839379 33.741607 -0.130318 2.804208 0.089690 -0.032530 177269.000000 0 0 1
-10.889246 0.712125 -33.025659 34.781848 -0.065304 2.822462 0.082314 -0.024072 -780628.000000 0 0 1
-11.408946 1.284125 33.453288 35.368567 -0.112083 0.330599 0.078752 -0.016409 -432482.000000 0 0 1
-12.806446 1.379225 33.385111 35.783697 -0.107284 0.368219 0.019842 -0.005254 -356605.000000 0 0 1
-13.114946 1.761225 32.054939 34.678853 -0.133493 0.391503 0.019125 -0.000096 1710530.000000 0 0 1
-14.673746 1.696925 31.695307 34.968427 -0.115132 0.436119 0.026457 0.003069 2205950.000000 0 0 1
-15.557346 2.833325 31.921485 35.623587 -0.180147 0.459944 0.027282 0.006587 539146.000000 0 0 1
-16.838046 2.475025 31.455397 35.764334 -0.145945 0.495947 0.025540 0.010880 -176123.000000 0 0 1
-17.615846 3.750125 31.012357 35.862902 -0.209752 0.526149 0.024491 0.000662 -483974.000000 0 0 1
-17.990746 4.515725 32.127544 37.097679 -0.245922 0.523598 0.025010 0.001184 348232.000000 0 0 1
-17.057946 5.512425 32.519457 37.133212 -0.312566 0.503807 0.037432 0.004050 -471632.000000 0 0 1
-17.456746 6.111725 33.890387 38.608930 -0.336770 0.499575 0.041490 0.004841 153691.000000 0 0 1
-18.700546 6.803125 -33.902359 39.311103 -0.348909 2.610811 0.048203 -0.004964 103603.000000 0 0 1
-19.670746 5.958325 -33.318769 39.148183 -0.294118 2.588861 0.030881 -0.001206 -532105.000000 0 0 1
-21.109546 6.493125 -33.293059 39.952489 -0.298407 2.555876 0.024171 -0.001609 -122538.000000 0 0 1
-21.383246 7.658925 -32.458249 39.616161 -0.343938 2.531017 0.035926 -0.015331 233531.000000 0 0 1
-21.123246 8.859125 -33.139249 40.285052 -0.397119 2.536798 0.048501 -0.009351 -260459.000000 0 0 1
-21.530746 10.173325 -32.446449 40.247256 -0.441408 2.508460 0.058351 -0.011731 -573283.000000 0 0 1
-20.612846 10.608825 -31.456319 39.076036 -0.475315 2.506477 0.062157 -0.022203 34557.200000 0 0 1
-20.262946 11.963425 -31.469859 39.294561 -0.533337 2.499544 0.073219 -0.018394 445300.000000 0 0 1
-19.368646 12.467025 -32.696359 39.995287 -0.571913 2.527862 0.078078 -0.028300 -164606.000000 0 0 1
-19.977046 12.451125 33.873267 41.249377 -0.557355 0.607316 0.099031 -0.034329 -73943.500000 0 0 1
-19.059846 12.634525 32.818745 39.999737 -0.585381 0.608557 0.096228 -0.037759 -14359.400000 0 0 1
-19.644346 12.259825 31.439697 39.046872 -0.557944 0.634820 0.107513 -0.033525 -163674.000000 0 0 1
-19.923346 10.870925 31.236827 38.611606 -0.499488 0.628346 0.088865 -0.023846 -532320.000000 0 0 1
-18.822646 10.069425 31.002697 37.641102 -0.491225 0.602997 0.080114 -0.023123 -802466.000000 0 0 1
-19.072246 8.590825 31.076967 37.461056 -0.423216 0.592440 0.087702 -0.016059 -379290.000000 0 0 1
-19.796046 8.101725 30.014397 36.856281 -0.388463 0.619165 0.085740 -0.019938 -57679.100000 0 0 1
-19.849246 6.682625 30.119267 36.685424 -0.324750 0.607610 0.068473 -0.013581 -243798.000000 0 0 1
-20.296246 5.933025 28.790847 35.721860 -0.284397 0.633479 0.058957 -0.016526 251148.000000 0 0 1
-21.675246 6.066125 28.480797 36.301101 -0.272883 0.668792 0.085408 -0.023454 89953.000000 0 0 1
-22.077746 5.103425 27.567637 35.685381 -0.227167 0.687998 0.082069 -0.024065 529735.000000 0 0 1
-23.639646 5.176025 27.431567 36.580254 -0.215554 0.722884 0.082038 -0.019725 553334.000000 0 0 1
-24.014246 6.034925 26.350227 36.158523 -0.246208 0.754314 0.086221 -0.022346 480354.000000 0 0 1
-25.430306 6.107225 26.251627 37.055993 -0.235692 0.783523 0.081650 -0.018672 65619.700000 0 0 1
-25.944966 6.766425 24.941837 36.619954 -0.255116 0.821533 0.078801 -0.014660 -201079.000000 0 0 1
-25.923876 5.906925 23.806397 35.688705 -0.224032 0.840545 0.078831 -0.016454 432555.000000 0 0 1
-27.077636 5.086625 23.732787 36.363681 -0.185689 0.859718 0.080148 -0.016026 -49658.100000 0 0 1
-27.292456 4.485325 22.285457 35.519542 -0.162887 0.892569 0.091171 -0.018330 -132836.000000 0 0 1
-28.043696 5.209725 21.356257 35.632567 -0.183678 0.928112 0.077844 -0.010911 -149507.000000 0 0 1
-28.297126 4.428625 20.234757 35.068297 -0.155245 0.955733 0.118539 -0.016715 -106489.000000 0 0 1
-29.081636 5.105425 19.077957 35.153597 -0.173784 0.997145 0.117400 -0.022257 412988.000000 0 0 1
-30.460846 5.109425 19.452257 36.501502 -0.166190 1.008753 0.120476 -0.024344 103851.000000 0 0 1
-31.221196 5.620925 18.382457 36.664323 -0.178127 1.045613 0.134143 -0.025117 -1001090.000000 0 0 1
-32.677226 5.745225 18.772357 38.120993 -0.174039 1.055904 0.128847 -0.020476 -863999.000000 0 0 1
-32.915786 6.757725 19.731257 38.967144 -0.202490 1.039842 0.114044 -0.028469 -169707.000000 0 0 1
-34.278992 6.655625 20.067657 40.274775 -0.191774 1.049196 0.109152 -0.021123 -95202.600000 0 0 1
-34.724107 7.884025 20.920757 41.298905 -0.223263 1.039595 0.112539 -0.028197 -125282.000000 0 0 1
-34.112452 7.792125 22.152957 41.414129 -0.224572 1.006392 0.100653 -0.024982 -109296.000000 0 0 1
-34.658051 8.662225 23.117577 42.551580 -0.244917 0.996453 0.119877 -0.027347 -54921.200000 0 0 1
-0.218146 32.495025 12.121391 34.682883 -1.564083 1.213767 0.123113 -0.037560 147764.000000 0 0 1
-0.495146 32.720425 13.536991 35.413578 -1.555665 1.178562 0.113278 -0.039367 72950.300000 0 0 1
-0.513046 -33.686720 13.847291 36.425345 1.555568 1.180832 0.101934 -0.038588 -52359.300000 0 0 1
-0.516546 -33.500820 15.365191 36.860017 1.555379 1.140816 0.088779 -0.026527 -205292.000000 0 0 1
-1.740546 -33.765520 15.987091 37.399557 1.519294 1.129107 0.066735 -0.019070 -356245.000000 0 0 1
-1.620846 -33.589120 17.419291 37.871992 1.522579 1.092855 0.049896 -0.013901 -604753.000000 0 0 1
-2.968146 -33.410420 18.083091 38.105960 1.482190 1.076346 0.051031 -0.012213 -656616.000000 0 0 1
-3.713146 33.189725 18.235791 38.051142 -1.459383 1.071003 0.054608 -0.012733 288219.000000 0 0 1
-4.587146 33.385225 19.357391 38.862884 -1.434251 1.049396 0.057921 -0.012094 69358.600000 0 0 1
-5.615346 32.311825 19.765091 38.291579 -1.398729 1.028419 0.054955 -0.019774 471612.000000 0 0 1
-6.712546 32.338925 18.821591 38.014690 -1.366134 1.052831 0.051479 -0.020544 -129032.000000 0 0 1
-7.752346 31.595525 19.367991 37.861526 -1.330187 1.033811 0.052159 -0.038051 -437676.000000 0 0 1
-8.891546 31.426725 18.321391 37.448258 -1.295073 1.059572 0.034983 -0.030210 -156092.000000 0 0 1
-9.440046 32.666325 17.984091 38.465969 -1.289476 1.084299 0.045300 -0.031330 -428199.000000 0 0 1
-10.385946 32.459225 16.957691 38.066159 -1.261122 1.109087 0.048581 -0.021003 -186184.000000 0 0 1
-11.194946 33.743225 16.715791 39.285490 -1.250455 1.131287 0.075379 -0.035929 -862822.000000 0 0 1
-12.184846 -33.827520 17.633691 40.046456 1.225059 1.114829 0.070530 -0.031335 -154295.000000 0 0 1
-13.190446 -32.920020 17.165291 39.400035 1.189703 1.120017 0.048841 -0.030041 35999.800000 0 0 1
-14.576746 -33.143120 17.771391 40.333240 1.156447 1.114514 0.083830 -0.036965 -309738.000000 0 0 1
-14.620846 -32.697120 19.112391 40.597466 1.150307 1.080624 0.079950 -0.030737 167798.000000 0 0 1
-15.838046 -32.996620 19.774691 41.601190 1.123285 1.075446 0.075517 -0.037418 286662.000000 0 0 1
-15.794746 -32.579720 21.238491 41.976013 1.119380 1.040293 0.085294 -0.039297 -44043.900000 0 0 1
-15.650546 -31.178220 21.357391 40.904268 1.105574 1.021449 0.093518 -0.035677 122437.000000 0 0 1
-15.646246 -30.839220 22.730291 41.382709 1.101287 0.989306 0.077146 -0.026285 194358.000000 0 0 1
-15.410846 -29.307320 22.934891 40.279305 1.086694 0.965025 0.099666 -0.027921 -80227.200000 0 0 1
-15.610746 -28.921720 24.296491 40.871515 1.075850 0.934202 0.094986 -0.034244 -55995.200000 0 0 1
-15.509846 -27.519720 24.522691 39.990657 1.057579 0.910678 0.068559 -0.018722 -57304.300000 0 0 1
-16.707246 -26.655420 24.045891 39.596065 1.010914 0.918164 0.088968 -0.017030 1146760.000000 0 0 1
-17.938346 -26.930620 24.784991 40.759518 0.983190 0.917158 0.104300 -0.011214 1202030.000000 0 0 1
-18.952746 -26.044420 24.345591 40.376059 0.941715 0.923576 0.103186 -0.006972 -372765.000000 0 0 1
-20.084046 -25.765520 25.407791 41.385828 0.908685 0.909773 0.103172 -0.000789 393202.000000 0 0 1
-20.813746 -26.935320 25.810891 42.719147 0.912906 0.922035 0.118826 -0.005290 424921.000000 0 0 1
-21.584246 -27.532520 24.766591 42.863776 0.905916 0.954769 0.110737 -0.010686 -154616.000000 0 0 1
-23.041046 -26.977420 24.598391 43.171192 0.863935 0.964549 0.086031 0.000945 201902.000000 0 0 1
-23.076046 -25.699320 24.138291 42.138059 0.839129 0.960832 0.095886 0.001335 652247.000000 0 0 1
-24.259946 -25.446120 23.355491 42.208162 0.809257 0.984427 0.085500 0.001758 545617.000000 0 0 1
-24.623446 -23.969120 23.087991 41.399132 0.771933 0.979193 0.079806 0.015351 120646.000000 0 0 1
-25.224486 -23.319320 24.223191 42.033657 0.746172 0.956626 0.073096 0.013794 283447.000000 0 0 1
-25.730636 -22.045220 23.827091 41.422066 0.708411 0.957915 0.061443 0.013442 286326.000000 0 0 1
-26.422376 -21.350020 25.045691 42.204880 0.679617 0.935481 0.067242 0.011521 271460.000000 0 0 1
-27.613706 -21.933320 25.537691 43.540337 0.671250 0.944029 0.063054 0.013521 171467.000000 0 0 1
-28.130136 -21.102820 26.541691 44.057859 0.643620 0.924257 0.055601 0.005297 -940997.000000 0 0 1
-29.220316 -21.869920 27.306091 45.582265 0.642508 0.928481 0.044266 -0.003941 -327070.000000 0 0 1
-30.564916 -21.614020 27.004391 46.158608 0.615509 0.945873 0.043137 -0.006546 -63945.900000 0 0 1
-31.028206 -22.077320 25.761091 45.975987 0.618419 0.976029 0.038902 0.004150 957765.000000 0 0 1
-32.620756 -22.315920 25.769591 47.182473 0.599976 0.993013 0.031128 0.000518 1939290.000000 0 0 1
-33.139586 -22.988520 24.618991 47.252501 0.606477 1.022763 0.032265 -0.005997 215136.000000 0 0 1
-32.751416 -24.365220 24.471491 47.593834 0.639614 1.030753 0.022975 -0.002234 -623823.000000 0 0 1
-33.069016 -25.007620 23.156291 47.488469 0.647473 1.061436 0.030701 -0.006326 531272.000000 0 0 1
-34.452052 -25.350120 23.023891 48.576455 0.634357 1.077000 0.043165 -0.014061 476574.000000 0 0 1
-34.629856 -25.927420 21.729491 48.411040 0.642669 1.105314 0.064029 -0.007810 842054.000000 0 0 1
-36.036836 -26.626320 21.538791 49.714524 0.636336 1.122701 0.069615 -0.014921 568967.000000 0 0 1
-36.242206 -27.832420 22.325591 50.858363 0.654894 1.116338 0.049956 -0.017027 112337.000000 0 0 1
-35.379108 -28.929020 22.085491 50.757643 0.685433 1.120629 0.034111 -0.014509 -543946.000000 0 0 1
-35.789781 -29.940420 20.953591 51.150661 0.696642 1.148732 0.049004 -0.011075 -215693.000000 0 0 1
-35.757470 -29.421220 19.633691 50.295990 0.688489 1.169771 0.046997 -0.014382 336578.000000 0 0 1
-36.278586 -30.381520 18.760591 50.903166 0.697163 1.193343 0.048310 -0.007608 -414532.000000 0 0 1
-36.551926 -29.849120 17.327291 50.271744 0.684795 1.218906 0.065649 -0.002876 20750.200000 0 0 1
-35.390526 -29.577420 16.537091 48.997841 0.696159 1.226530 0.068186 -0.012249 460461.000000 0 0 1
-35.576808 -28.804920 15.374891 48.288921 0.680600 1.246762 0.080815 -0.016790 -262044.000000 0 0 1
-36.389056 -29.442820 14.241791 48.927207 0.680272 1.275440 0.087431 -0.018167 -268285.000000 0 0 1
-35.705134 -30.444720 13.539391 48.837001 0.706042 1.289880 0.089811 -0.029039 -272558.000000 0 0 1
-36.403006 -31.178020 12.557191 49.547258 0.708237 1.314563 0.093581 -0.028617 -290802.000000 0 0 1
-36.727836 -30.550920 11.228491 49.075163 0.693844 1.339950 0.102445 -0.024407 625417.000000 0 0 1
36.938453 -29.798920 11.430091 48.816717 -0.678824 1.334459 0.110847 -0.026271 592345.000000 0 0 1
36.703713 -28.952420 10.284691 47.866272 -0.667883 1.354245 0.085742 -0.026398 42426.300000 0 0 1
35.378303 -28.166820 10.353191 46.391622 -0.672396 1.345732 0.130548 -0.015707 29488.200000 0 0 1
35.383853 -27.182420 9.382391 45.595287 -0.655057 1.363540 0.145857 -0.061746 -486192.000000 0 0 1
34.215653 -26.443720 9.381391 44.249200 -0.657968 1.357162 0.116968 -0.048766 -602044.000000 0 0 1
34.375123 -25.295620 8.347191 43.487849 -0.634396 1.377655 0.112869 -0.046258 387769.000000 0 0 1
35.374143 -24.339820 8.691591 43.809823 -0.602673 1.371078 0.129597 -0.054178 313620.000000 0 0 1
35.730343 -23.530420 7.635591 43.458489 -0.582366 1.394181 0.122872 -0.050558 -79337.400000 0 0 1
36.494913 -22.252920 7.984591 43.483615 -0.547561 1.386125 0.127936 -0.050006 -165197.000000 0 0 1
35.606083 -21.265220 8.487691 42.332536 -0.538384 1.368928 0.117555 -0.057803 272209.000000 0 0 1
35.967133 -19.908520 8.110191 41.901778 -0.505542 1.376015 0.127543 -0.041810 -77713.000000 0 0 1
35.241423 -18.841620 8.952791 40.952619 -0.490977 1.350403 0.121371 -0.035987 261087.000000 0 0 1
35.687683 -18.948320 10.276891 41.692493 -0.488099 1.321737 0.102121 -0.047002 412198.000000 0 0 1
34.834313 -18.134220 11.073291 40.803150 -0.479980 1.295966 0.107699 -0.038514 282657.000000 0 0 1
35.208263 -18.286620 12.542591 41.609360 -0.479035 1.264597 0.090990 -0.042090 701018.000000 0 0 1
36.505683 -17.831320 12.946191 42.640646 -0.454368 1.262316 0.073754 -0.026853 763365.000000 0 0 1
36.942343 -18.437720 14.130491 43.638939 -0.462923 1.241048 0.070396 -0.016939 -782456.000000 0 0 1
-36.687596 -17.763720 14.663591 43.319168 0.450919 1.225473 0.089215 -0.024203 -1271320.000000 0 0 1
-35.534935 -18.149120 14.014191 42.290893 0.472203 1.233035 0.083359 -0.016728 -862023.000000 0 0 1
-34.430374 -17.446420 14.497591 41.231157 0.469006 1.211498 0.084515 -0.015229 331112.000000 0 0 1
-33.123856 -17.501520 13.620291 39.862330 0.486082 1.222089 0.084370 -0.012402 720074.000000 0 0 1
-32.481236 -18.775020 13.575991 39.897864 0.524106 1.223594 0.071959 -0.018080 1070090.000000 0 0 1
-31.300966 -18.707920 12.738991 38.626657 0.538711 1.234707 0.073208 -0.022294 1018380.000000 0 0 1
-30.557656 -20.058520 12.504991 38.632749 0.580872 1.241171 0.067815 -0.029997 256963.000000 0 0 1
-31.217486 -20.855220 11.545991 39.278257 0.588968 1.272436 0.080137 -0.029839 91713.900000 0 0 1
-30.306426 -21.857620 11.103291 38.980996 0.624826 1.281958 0.071865 -0.027294 -419425.000000 0 0 1
-30.742166 -22.673520 9.888291 39.458175 0.635478 1.317494 0.090216 -0.032855 -131003.000000 0 0 1
-31.656546 -23.697320 10.206791 40.839667 0.642589 1.318195 0.107980 -0.032494 580330.000000 0 0 1
-33.013716 -23.214820 10.097491 41.602795 0.612862 1.325636 0.130750 -0.046113 -13469.500000 0 0 1
-33.953616 -24.428420 10.225691 43.059963 0.623670 1.331030 0.159550 -0.053978 -409549.000000 0 0 1
-33.996456 -25.201420 9.021991 43.269699 0.637907 1.360749 0.152004 -0.045352 -69295.800000 0 0 1
-34.647997 -26.434420 9.263191 44.554112 0.651733 1.361360 0.162457 -0.036517 108761.000000 0 0 1
-34.809195 -27.270320 7.949291 44.928183 0.664551 1.392927 0.149022 -0.029601 935819.000000 0 0 1
-33.535696 -27.556520 7.347391 44.022594 0.687838 1.403111 0.145170 -0.028671 808525.000000 0 0 1
-33.811606 -28.035920 6.061791 44.339404 0.692282 1.433653 0.133564 -0.030110 -354905.000000 0 0 1
-32.505366 -28.438020 5.381291 43.523305 0.718757 1.446838 0.122344 -0.027272 -293764.000000 0 0 1
-31.758816 -27.339320 4.969091 42.198965 0.710755 1.452769 0.119764 -0.020896 -135649.000000 0 0 1
-30.473796 -27.666520 4.478191 41.402207 0.737151 1.462421 0.101130 -0.020738 439082.000000 0 0 1
-29.632796 -26.532820 3.838391 39.960310 0.730261 1.474593 0.097887 -0.014992 339597.000000 0 0 1
-30.086366 -26.163920 2.517291 39.950930 0.715779 1.507745 0.106548 -0.019344 -122104.000000 0 0 1
-29.478396 -24.980720 2.093291 38.696176 0.702997 1.516674 0.101674 -0.033591 -301898.000000 0 0 1
-29.885246 -24.479620 0.684491 38.637394 0.686292 1.553080 0.104212 -0.031666 -282141.000000 0 0 1
-29.450316 -25.252320 -0.421809 38.796632 0.708806 1.581669 0.098998 -0.030968 -23553.100000 0 0 1
-29.824156 -24.683420 -1.670909 38.749753 0.691364 1.613930 0.101208 -0.034066 101120.000000 0 0 1
-31.308726 -24.621420 -2.091209 39.885132 0.666398 1.623251 0.102520 -0.030313 252465.000000 0 0 1
-32.023696 -23.463920 -1.679209 39.735278 0.632340 1.613069 0.101584 -0.020003 357145.000000 0 0 1
-33.298646 -23.290120 -2.284909 40.699512 0.610344 1.626967 0.105651 -0.019271 437330.000000 0 0 1
-34.030544 -21.933520 -1.961709 40.534004 0.572516 1.619212 0.099527 -0.023066 188640.000000 0 0 1
-34.388962 -21.752920 -0.600109 40.695827 0.564014 1.585543 0.096215 -0.029442 619429.000000 0 0 1
-35.128737 -20.520220 -0.382209 40.684808 0.528679 1.580191 0.100462 -0.026518 203513.000000 0 0 1
-35.305626 -20.155220 1.138991 40.669612 0.518731 1.542787 0.098795 -0.030778 -503774.000000 0 0 1
-36.306626 -20.845720 1.804891 41.904328 0.521201 1.527711 0.090698 -0.034135 -180319.000000 0 0 1
-36.426886 -20.451120 3.149691 41.893757 0.511576 1.495542 0.097463 -0.038303 -513910.000000 0 0 1
37.409973 -21.235720 4.008791 43.203382 -0.516292 1.477874 0.113890 -0.033226 1188980.000000 0 0 1
36.011093 -21.126620 3.749191 41.918842 -0.530560 1.481237 0.112345 -0.035078 730620.000000 0 0 1
35.398293 -19.848220 3.686791 40.750256 -0.511030 1.480200 0.117636 -0.043126 36247.500000 0 0 1
34.129893 -19.685520 2.782391 39.498240 -0.523173 1.500295 0.112673 -0.031819 1947290.000000 0 0 1
32.947863 -20.369820 3.293091 38.875901 -0.553726 1.485987 0.101930 -0.029375 1594640.000000 0 0 1
31.692043 -20.014020 2.707091 37.580246 -0.563271 1.498699 0.118161 -0.039041 862806.000000 0 0 1
30.421593 -20.740320 3.146191 36.953115 -0.598381 1.485553 0.117072 -0.026188 -71105.100000 0 0 1
30.259963 -21.965120 2.443091 37.471329 -0.627885 1.505551 0.096900 -0.019395 -411139.000000 0 0 1
28.947563 -22.400420 2.643591 36.697803 -0.658577 1.498697 0.104839 -0.021094 -423928.000000 0 0 1
28.579363 -23.651420 1.872291 37.143978 -0.691327 1.520369 0.090871 -0.017501 -110491.000000 0 0 1
28.396763 -23.489320 0.485191 36.855931 -0.691098 1.557631 0.092515 -0.018861 74521.500000 0 0 1
28.211263 -24.710520 -0.182209 37.503578 -0.719345 1.575655 0.092950 -0.021584 -117545.000000 0 0 1
27.102363 -24.724820 -1.250709 36.707207 -0.739556 1.604875 0.104724 -0.028812 -180219.000000 0 0 1
27.357663 -23.919920 -2.349409 36.415985 -0.718457 1.635357 0.094652 -0.031409 -408287.000000 0 0 1
28.184663 -24.422120 -3.351909 37.443964 -0.713998 1.660434 0.095423 -0.036472 -1357510.000000 0 0 1
27.580363 -25.308320 -4.490109 37.700776 -0.742466 1.690178 0.087649 -0.041493 -80829.800000 0 0 1
26.774663 -24.592820 -5.409809 36.755345 -0.742948 1.718517 0.086552 -0.054404 630009.000000 0 0 1
25.487963 -24.286520 -4.877809 35.542430 -0.761265 1.708470 0.085947 -0.044216 -738021.000000 0 0 1
24.787763 -23.232320 -5.750109 34.456314 -0.753018 1.738462 0.087181 -0.055683 -301118.000000 0 0 1
24.501463 -23.733520 -7.074409 34.837464 -0.769479 1.775288 0.083228 -0.054387 1247620.000000 0 0 1
23.232263 -23.231120 -7.579309 33.717486 -0.785374 1.797522 0.066771 -0.047016 814228.000000 0 0 1
23.126963 -21.798420 -8.168409 32.813875 -0.755835 1.822373 0.056931 -0.038933 -508776.000000 0 0 1
23.756763 -21.598820 -9.384509 33.450886 -0.737856 1.855159 0.063983 -0.034649 -13731.700000 0 0 1
23.546263 -20.294720 -9.822409 32.600335 -0.711367 1.876850 0.048460 -0.017436 43863.200000 0 0 1
24.103363 -20.109120 -11.276809 33.354388 -0.695301 1.915684 0.049902 -0.010915 1539670.000000 0 0 1
25.551963 -20.018920 -11.357909 34.389854 -0.664573 1.907385 0.077321 -0.018070 1233850.000000 0 0 1
25.941263 -19.990420 -12.730109 35.137183 -0.656557 1.941528 0.063034 -0.020479 99505.700000 0 0 1
27.444763 -19.719720 -13.035109 36.221491 -0.623050 1.938927 0.068590 -0.018784 595222.000000 0 0 1
28.306063 -20.814320 -13.145109 37.513504 -0.634047 1.928805 0.037847 -0.013167 -89207.000000 0 0 1
28.587163 -21.627820 -12.019809 37.808256 -0.647684 1.894326 0.070082 -0.022947 -588648.000000 0 0 1
29.105063 -23.032720 -12.478509 39.157682 -0.669453 1.895126 0.062148 -0.020845 451722.000000 0 0 1
30.509353 -22.933420 -12.753509 40.241947 -0.644579 1.893277 0.056450 -0.022215 734965.000000 0 0 1
30.952063 -24.284020 -12.933009 41.412637 -0.665261 1.888405 0.059145 -0.015970 -112519.000000 0 0 1
-3.770446 -9.024075 -27.595019 29.276872 1.175022 2.800990 0.069918 -0.018779 133003.000000 0 0 1
-4.170246 -7.965275 -26.806819 28.274407 1.088484 2.817986 0.080856 -0.018196 -246527.000000 0 0 1
-4.819546 -7.042275 -27.611929 28.900524 0.970635 2.841851 0.077289 -0.022761 -185258.000000 0 0 1
-4.842246 -5.634175 -26.926339 27.932400 0.860846 2.872386 0.081328 -0.025962 50027.400000 0 0 1
-5.746546 -5.472175 -25.854019 27.044367 0.760947 2.843796 0.074978 -0.026712 303309.000000 0 0 1
-5.407946 -4.260575 -25.164559 26.089335 0.667280 2.874542 0.082875 -0.030921 305606.000000 0 0 1
-5.937846 -4.172775 -23.699609 24.785914 0.612564 2.844435 0.065128 -0.030168 44661.300000 0 1 0
-5.202046 -5.066975 -22.884609 24.009182 0.772246 2.834316 0.060467 -0.036779 482700.000000 0 1 0
-5.527246 -4.894175 -21.495109 22.727584 0.724726 2.810759 0.041233 -0.031726 -150970.000000 0 1 0
-4.859946 -5.980775 -20.653009 22.043945 0.888423 2.784456 0.033935 -0.026752 -547625.000000 0 1 0
-5.331646 -7.300775 -20.803709 22.683079 0.940033 2.731657 0.030952 -0.020057 501119.000000 0 1 0
-4.516946 -8.251575 -20.070409 22.165572 1.069948 2.703298 0.033646 -0.024060 -290736.000000 0 1 0
-5.197546 -9.646675 -19.926809 22.740944 1.076599 2.638825 0.039531 -0.024413 644388.000000 0 1 0
-6.437046 -9.691975 -19.208009 22.457015 0.984529 2.596971 0.043546 -0.016641 212628.000000 0 1 0
-7.551146 -9.277075 -19.942409 23.254754 0.887602 2.601309 0.034672 -0.008490 -423080.000000 0 1 0
-8.842946 -9.133775 -19.065209 22.915185 0.801575 2.553482 0.034051 0.003430 105808.000000 0 1 0
-9.407246 -10.396575 -18.775409 23.432904 0.835313 2.500163 0.054229 -0.001222 -133446.000000 0 1 0
-10.311346 -10.276675 -17.704709 22.921401 0.783714 2.453423 0.070908 -0.000449 105415.000000 0 1 0
-11.202746 -11.551875 -17.477909 23.757622 0.800740 2.397460 0.061190 0.010049 -81594.000000 0 1 0
-12.281346 -11.675475 -18.369509 24.991739 0.760113 2.396497 0.085965 -0.006449 -249326.000000 0 1 0
-12.044046 -12.211475 -19.684509 26.108601 0.792301 2.424847 0.079563 -0.013489 -1343680.000000 0 0 1
-13.240346 -12.228075 -20.613409 27.381475 0.745673 2.423137 0.087018 -0.024889 -221620.000000 0 0 1
-14.230646 -13.216475 -20.412209 28.175251 0.748465 2.381066 0.093610 -0.020482 148396.000000 0 0 1
-15.090946 -13.124875 -19.281609 27.780918 0.715831 2.337909 0.094437 -0.018321 -824979.000000 0 0 1
-16.247146 -14.101375 -19.367809 28.947030 0.714811 2.303763 0.092346 -0.008855 -496592.000000 0 0 1
-15.893246 -15.449975 -19.360809 29.430221 0.771257 2.288763 0.092168 -0.010402 -229972.000000 0 0 1
-16.380646 -16.124775 -20.525509 30.816074 0.777527 2.299717 0.107439 -0.011416 230874.000000 0 0 1
-15.769146 -17.521675 -20.753209 31.406539 0.837993 2.292671 0.063608 -0.006026 -23363.800000 0 0 1
-16.300746 -18.568475 -19.916709 31.736065 0.850342 2.249229 0.071850 -0.007866 29422.100000 0 0 1
-15.980346 -19.810275 -20.427309 32.635768 0.892002 2.247104 0.057949 -0.010789 -506958.000000 0 0 1
-16.650746 -20.969575 -19.782209 33.291233 0.899698 2.207088 0.072232 -0.014163 -261392.000000 0 0 1
-16.347446 -22.153875 -20.504209 34.328643 0.935081 2.210916 0.070356 -0.020482 181840.000000 0 0 1
-17.054446 -23.228875 -19.888209 35.013934 0.937490 2.174880 0.090578 -0.016004 194921.000000 0 0 1
-16.680646 -24.683975 -20.362309 36.085540 0.976519 2.170356 0.090546 -0.027581 -264416.000000 0 0 1
-17.109246 -24.907275 -21.658909 37.178044 0.968905 2.192687 0.066081 -0.020878 -44380.000000 0 0 1
-16.634646 -26.181265 -22.077109 38.073203 1.004779 2.189353 0.077559 -0.016894 -60196.200000 0 0 1
-16.971146 -26.468945 -23.611709 39.320956 1.000652 2.214906 0.082958 -0.019936 -716484.000000 0 0 1
-18.265446 -26.832705 -23.995409 40.365829 0.973130 2.207376 0.094785 -0.012903 -693068.000000 0 0 1
-18.455646 -28.233075 -23.898109 41.338081 0.991832 2.187211 0.100064 -0.006615 -676151.000000 0 0 1
-19.561346 -28.807415 -24.773809 42.734705 0.974277 2.189171 0.101688 -0.008472 -633702.000000 0 0 1
-19.434846 -28.764695 -26.186439 43.483910 0.976601 2.217063 0.099252 -0.010037 -96893.000000 0 0 1
-19.276946 -27.460355 -26.760589 42.916207 0.958735 2.244077 0.103707 -0.021134 120518.000000 0 0 1
-17.906546 -27.276805 -27.460669 42.646885 0.989883 2.270391 0.112249 -0.027740 3602.900000 0 0 1
-17.792346 -27.930385 -28.669629 43.802073 1.003597 2.284353 0.118819 -0.023969 -294607.000000 0 0 1
-16.529346 -27.706525 -29.239769 43.541186 1.032890 2.307085 0.085104 -0.014258 -168968.000000 0 0 1
-16.554546 -27.841705 -30.813569 44.706706 1.034360 2.331233 0.105401 -0.023183 -9750.460000 0 0 1
-16.620146 -29.189005 -31.263669 45.887299 1.053183 2.320353 0.073974 -0.017101 314385.000000 0 0 1
-17.212746 -29.215825 -32.567489 47.015788 1.038387 2.336012 0.082672 -0.015786 26273.700000 0 0 1
-17.082346 -30.642755 -33.208399 48.307170 1.062238 2.328758 0.079201 -0.019068 -573460.000000 0 0 1
-15.797746 -31.007385 -33.573669 48.355123 1.099591 2.338263 0.069323 -0.017297 -950607.000000 0 0 1
-15.820246 -32.020365 33.294317 48.827200 1.111905 0.820466 0.061451 -0.015522 -251444.000000 0 0 1
-14.518646 -32.386095 32.553885 48.160208 1.149358 0.828543 0.053353 -0.014097 -173514.000000 0 0 1
-13.696546 -33.138555 33.387666 48.994851 1.178867 0.821051 0.060309 -0.016847 -569874.000000 0 0 1
-12.764746 33.843870 32.753872 48.797156 -1.210128 0.834936 0.066767 -0.022728 -218475.000000 0 0 1
-11.947846 32.896670 33.688098 48.578080 -1.222417 0.804483 0.073897 -0.024450 301216.000000 0 0 1
-11.045146 33.580588 -33.292979 48.560000 -1.253028 2.326231 0.085370 -0.024139 -210381.000000 0 0 1
-10.384146 32.739912 -32.418419 47.230141 -1.263662 2.327313 0.089859 -0.027118 -326384.000000 0 0 1
-9.592546 33.568892 -31.438069 46.981269 -1.292457 2.303877 0.080383 -0.030588 -436330.000000 0 0 1
-10.386046 -33.698395 -30.412139 46.565545 1.271828 2.282472 0.097118 -0.032417 -345212.000000 0 0 1
-9.729346 -32.708315 -29.707099 45.243847 1.281673 2.287098 0.110081 -0.036716 -587645.000000 0 0 1
-10.713646 -31.798445 -28.968519 44.329430 1.245818 2.282973 0.110729 -0.028640 100842.000000 0 0 1
-10.956846 -32.007245 -27.574929 43.645079 1.240976 2.254669 0.153408 -0.035985 -59095.200000 0 0 1
-11.497046 -33.260575 -27.217679 44.488762 1.237988 2.229115 0.131464 -0.035002 -348603.000000 0 0 1
-11.853546 -33.382515 -25.718949 43.776285 1.229601 2.198773 0.147742 -0.038688 97191.800000 0 0 1
-10.747446 -33.231035 -24.864809 42.872695 1.257998 2.189486 0.157312 -0.054891 -393869.000000 0 0 1
-11.114446 -33.569195 -23.567709 42.495395 1.251066 2.158672 0.158227 -0.058835 -42990.600000 0 0 1
-9.968246 -33.578095 -22.547509 41.656266 1.282216 2.142749 0.166126 -0.065072 34361.800000 0 0 1
-8.985146 33.220029 -22.752909 41.255279 -1.306643 2.154976 0.143322 -0.072296 -90854.600000 0 0 1
-8.211846 33.033863 -21.580309 40.303601 -1.327146 2.135829 0.152993 -0.073223 -87702.000000 0 0 1
-7.635346 31.578670 -21.471109 38.942514 -1.333561 2.154783 0.150057 -0.081108 -5662.790000 0 0 1
-6.327746 31.563070 -22.034809 39.010262 -1.372940 2.171044 0.127539 -0.086262 164794.000000 0 0 1
-5.897746 30.248990 -22.132409 37.942434 -1.378239 2.193601 0.102643 -0.074828 -760821.000000 0 0 1
-4.447346 30.180870 -22.581609 37.955143 -1.424493 2.208006 0.105536 -0.077440 -610542.000000 0 0 1
-4.245646 30.488320 -23.978609 39.019698 -1.432431 2.232581 0.120917 -0.063314 718759.000000 0 0 1
-2.845246 30.543750 -24.316809 39.144901 -1.477911 2.241069 0.114061 -0.065944 859945.000000 0 0 1
-2.596346 30.850330 -25.881219 40.352464 -1.486835 2.267090 0.108395 -0.033807 -226331.000000 0 0 1
-1.631146 31.806814 -26.255479 41.275710 -1.519558 2.260230 0.110349 -0.055478 183276.000000 0 0 1
-2.036946 33.149670 -25.922749 42.131208 -1.509427 2.233545 0.113250 -0.049676 -64676.600000 0 0 1
-1.214246 -33.542515 -26.651589 42.858860 1.534612 2.241893 0.045733 -0.021645 -622197.000000 0 0 1
-0.005846 -33.355575 -25.992359 42.287080 1.570621 2.232757 0.082082 -0.040163 -1020170.000000 0 0 1
0.652654 -32.332565 -26.710319 41.943555 -1.550613 2.261158 0.044929 -0.021345 -543319.000000 0 0 1
1.992754 -31.984285 -26.049559 41.298245 -1.508573 2.253337 0.058168 -0.019585 -729698.000000 0 0 1
1.944754 -31.317955 -24.797509 39.993910 -1.508779 2.239580 0.048840 -0.013259 -284076.000000 0 0 1
3.149154 -30.655085 -24.536209 39.391331 -1.468427 2.243219 0.027477 -0.011805 -820618.000000 0 0 1
3.285054 -29.853225 -23.239109 37.974502 -1.461197 2.229341 0.049564 -0.015632 -374820.000000 0 0 1
3.601754 -30.626265 -22.123009 37.952184 -1.453731 2.193112 0.055747 -0.017379 442367.000000 0 0 1
3.781554 -29.743075 -21.019809 36.616704 -1.444334 2.182239 0.064672 -0.010526 -470114.000000 0 0 1
3.844954 -30.373185 -19.554009 36.327308 -1.444876 2.139183 0.065686 -0.009079 -591134.000000 0 0 1
2.656554 -30.922505 -19.049309 36.416133 -1.485097 2.121282 0.063250 -0.019465 -23789.000000 0 0 1
2.242854 -32.141375 -19.600209 37.712949 -1.501128 2.117321 0.058747 -0.018842 -370700.000000 0 0 1
2.792554 -33.362415 -18.835809 38.414018 -1.487287 2.083273 0.047674 -0.020879 878334.000000 0 0 1
4.156154 -33.771485 -19.026509 38.984546 -1.448345 2.080653 0.053635 -0.014474 685658.000000 0 0 1
4.470554 32.926199 -18.161409 37.867627 1.435847 2.070998 0.061548 -0.026390 510493.000000 0 0 1
5.551954 31.975164 -18.787709 37.499511 1.398877 2.095564 0.070637 -0.016379 604063.000000 0 0 1
6.812454 32.613946 -18.904909 38.307631 1.364875 2.086908 0.094268 -0.017171 -778971.000000 0 0 1
7.654154 31.796380 -19.621309 38.139109 1.334567 2.111182 0.081099 -0.027460 -1215410.000000 0 0 1
9.020454 32.409912 -19.789709 39.030803 1.299343 2.102529 0.077076 -0.026111 -862539.000000 0 0 1
9.635254 32.783147 -18.557709 38.883948 1.284937 2.068329 0.083115 -0.023071 -265240.000000 0 0 1
10.883654 33.378613 -18.800009 39.824943 1.255600 2.062429 0.080886 -0.011220 143708.000000 0 0 1
11.738254 33.582740 -17.487709 39.640976 1.234538 2.027679 0.075384 -0.010330 161125.000000 0 0 1
12.279054 32.421082 -16.948709 38.589642 1.208754 2.025508 0.064507 -0.015179 774228.000000 0 0 1
13.274854 32.725458 -15.915609 38.736081 1.185435 1.994208 0.055692 -0.020965 1101770.000000 0 0 1
14.500954 31.787530 -15.848409 38.365307 1.142812 1.996643 0.041596 -0.018577 88387.500000 0 0 1
14.395154 30.721810 -14.913909 37.060420 1.132612 1.984957 0.062870 -0.014745 -107564.000000 0 0 1
15.636854 30.086350 -14.680209 36.948724 1.091488 1.979383 0.054453 -0.007058 259424.000000 0 0 1
15.425854 29.003610 -13.599409 35.554329 1.081987 1.963293 0.066353 -0.018927 -78590.300000 0 0 1
15.080554 29.534430 -12.320709 35.376624 1.098697 1.926524 0.059050 -0.024731 -399417.000000 0 0 1
13.740654 29.481580 -11.913209 34.639482 1.134654 1.921885 0.092891 -0.026113 -188544.000000 0 0 1
13.186454 28.064190 -11.532409 33.082893 1.131544 1.926864 0.084260 -0.028883 -557654.000000 0 0 1
12.745854 27.211570 -12.565809 32.570322 1.132748 1.966877 0.062104 -0.026757 212765.000000 0 0 1
12.183454 25.933350 -12.173109 31.131331 1.131600 1.972541 0.076204 -0.027722 398636.000000 0 0 1
11.147954 25.791120 -11.046409 30.190759 1.162809 1.945382 0.068327 -0.023463 -1373000.000000 0 0 1
9.882954 26.269810 -11.308309 30.259768 1.210966 1.953799 0.058636 -0.023754 -723816.000000 0 0 1
9.268654 26.514590 -10.022209 29.822409 1.234506 1.913530 0.046362 -0.018382 -144705.000000 0 0 1
8.289754 27.673000 -10.052909 30.587186 1.279742 1.905685 0.058622 -0.015570 -167229.000000 0 0 1
8.929054 28.918950 -10.360709 31.990279 1.271321 1.900614 0.063662 -0.024129 447989.000000 0 0 1
7.970654 29.973060 -10.488309 32.740194 1.310884 1.896895 0.054404 -0.009091 334362.000000 0 0 1
8.639954 31.281600 -10.884709 34.229581 1.301316 1.894406 0.083135 -0.019628 -256919.000000 0 0 1
9.552654 31.821416 -9.922909 34.674484 1.279160 1.861027 0.071362 -0.023864 -76535.600000 0 0 1
10.117154 32.999757 -10.394909 36.047121 1.273311 1.863320 0.092647 -0.027984 329270.000000 0 0 1
11.233754 32.914990 -11.484009 36.626169 1.241897 1.889722 0.085381 -0.031516 -929366.000000 0 0 1
12.547054 32.833876 -11.070809 36.851795 1.205783 1.875923 0.081970 -0.022710 -1012880.000000 0 0 1
13.442854 33.299523 -12.035009 37.873606 1.187109 1.894171 0.100231 -0.027581 392275.000000 0 0 1
14.952754 33.189269 -11.675509 38.228654 1.147502 1.881168 0.093573 -0.028126 478696.000000 0 0 1
15.368654 -33.783425 -10.590809 38.596380 -1.143861 1.848761 0.107238 -0.034919 -1265070.000000 0 0 1
16.741654 -33.830995 -10.593909 39.205231 -1.111268 1.844414 0.090005 -0.035314 -1355330.000000 0 0 1
17.444354 -33.050925 -9.486709 38.557318 -1.085155 1.819391 0.107711 -0.041363 -200745.000000 0 0 1
17.468454 -33.616285 -8.209009 38.763247 -1.091558 1.784185 0.108601 -0.040780 29270.400000 0 0 1
18.064254 -32.678675 -7.349809 38.055654 -1.065818 1.765151 0.099740 -0.037015 -571131.000000 0 0 1
18.319854 -33.234495 -5.941909 38.411652 -1.067009 1.726110 0.093974 -0.030881 283716.000000 0 0 1
19.311654 33.578983 -5.700709 39.153367 1.048878 1.716915 0.075212 -0.032519 -104731.000000 0 0 1
20.652854 -33.821075 -5.890209 40.063700 -1.022582 1.718352 0.083049 -0.033536 -1042160.000000 0 0 1
21.429454 32.991907 -6.727909 39.911805 0.994747 1.740174 0.057086 -0.020878 -355231.000000 0 0 1
21.740154 31.698730 -6.167509 38.929192 0.969639 1.729896 0.064719 -0.010072 -215549.000000 0 0 1
22.710654 31.745240 -5.159709 39.372029 0.949807 1.702224 0.072447 -0.010461 -865579.000000 0 0 1
23.052054 30.386950 -4.607409 38.418643 0.921803 1.691012 0.044722 -0.003993 -160161.000000 0 0 1
23.651254 29.540330 -5.586909 38.252144 0.895664 1.717375 0.045557 -0.001941 4463.000000 0 0 1
23.842254 28.229070 -5.144209 37.306787 0.869446 1.709126 0.048205 0.007149 300417.000000 0 0 1
24.898354 27.572350 -6.100809 37.648140 0.836316 1.733562 0.036907 0.013613 -664396.000000 0 0 1
26.147354 28.149450 -6.169809 38.911980 0.822255 1.730026 0.057051 0.011567 -235581.000000 0 0 1
27.113754 27.312480 -6.863909 39.092717 0.789049 1.747291 0.042740 0.015239 857025.000000 0 0 1
27.925254 26.369950 -5.947209 38.865967 0.756761 1.724418 0.052610 0.016809 -756287.000000 0 0 1
28.764354 26.954300 -5.003009 39.736035 0.752924 1.697037 0.073293 0.014584 -415698.000000 0 0 1
29.398354 25.978780 -4.268109 39.463616 0.723726 1.679161 0.092686 0.002854 -27978.100000 0 0 1
30.623954 26.507210 -3.479309 40.651745 0.713465 1.656489 0.096403 0.001635 319801.000000 0 0 1
30.186054 27.307860 -2.406409 40.776316 0.735379 1.629846 0.097721 -0.001603 372296.000000 0 0 1
31.298854 27.614060 -1.576209 41.768876 0.722933 1.608542 0.110959 -0.010138 463345.000000 0 0 1
31.265854 29.029080 -1.101109 42.678491 0.748318 1.596599 0.135851 -0.013914 3251.560000 0 0 1
31.722454 29.958070 -2.045509 43.680478 0.756801 1.617642 0.111198 -0.013026 -100053.000000 0 0 1
31.538054 31.227140 -1.483309 44.407019 0.780445 1.604205 0.120874 -0.010826 45400.700000 0 0 1
34.256943 22.311425 18.946357 45.058876 0.577286 1.136822 0.145571 -0.032031 106761.000000 0 0 1
34.654423 22.176425 20.327257 45.890307 0.569264 1.111906 0.129135 -0.030862 416196.000000 0 0 1
35.563503 23.209225 20.719557 47.251782 0.578210 1.116876 0.138544 -0.031108 413740.000000 0 0 1
35.707473 23.317925 22.271757 48.112165 0.578500 1.089517 0.103527 -0.014570 86273.400000 0 0 1
34.539633 23.927925 22.774957 47.793624 0.605855 1.074096 0.099630 -0.012812 133450.000000 0 0 1
34.628053 24.216825 24.157337 48.673747 0.610284 1.051452 0.085954 -0.013198 -467621.000000 0 0 1
33.258603 24.600925 24.707557 48.185097 0.636867 1.032396 0.101869 -0.020851 -303133.000000 0 0 1
33.151963 26.014225 24.551177 48.770410 0.665340 1.043263 0.084965 -0.022457 -121812.000000 0 0 1
31.981893 26.407725 25.204187 48.533086 0.690222 1.024742 0.079055 -0.028928 -358406.000000 0 0 1
31.721163 27.955225 25.171637 49.207094 0.722376 1.033815 0.066820 -0.021740 -127597.000000 0 0 1
31.194003 28.433325 23.955997 48.532562 0.739132 1.054564 0.067840 -0.031517 252718.000000 0 0 1
30.769343 29.794425 24.094477 49.142691 0.769302 1.058367 0.059642 -0.024829 -39168.500000 0 0 1
31.097843 30.730225 22.909287 49.358465 0.779452 1.088132 0.058939 -0.022889 -338595.000000 0 0 1
32.457083 31.047725 22.834567 50.386912 0.763209 1.100462 0.034825 -0.020864 -458607.000000 0 0 1
32.945863 31.679325 21.655957 50.576576 0.765802 1.128317 0.024154 -0.010297 -701197.000000 0 0 1
34.427123 31.949825 21.670057 51.726294 0.748094 1.138522 0.010444 -0.025319 -829431.000000 0 0 1
34.651863 33.161125 22.423357 52.945432 0.763419 1.133471 0.025534 -0.008876 1416390.000000 0 0 1
36.062403 33.510825 22.569357 54.155777 0.748740 1.140930 0.035316 -0.016050 1636450.000000 0 0 1
36.308833 -32.871320 23.202027 54.195840 -0.735750 1.128391 0.029212 -0.007926 -52704.800000 0 0 1
35.840603 -31.791420 22.421557 52.895835 -0.725599 1.133070 0.014915 0.001797 130988.000000 0 0 1
36.032693 -30.601520 23.160147 52.642192 -0.704071 1.115249 0.030675 0.001417 -128677.000000 0 0 1
34.934963 -29.489820 22.920687 51.141558 -0.701079 1.106067 0.021520 -0.002002 643796.000000 0 0 1
33.672253 -29.922220 23.375427 50.750078 -0.726498 1.092127 0.013162 0.001157 -119261.000000 0 0 1
32.761553 -30.349120 22.404157 49.963333 -0.747191 1.105808 0.025772 0.009647 -455393.000000 0 0 1
32.166253 -31.702220 22.764257 50.575784 -0.778133 1.103917 0.018883 0.008518 -488895.000000 0 0 1
31.159593 -31.755620 23.724777 50.420280 -0.794871 1.080893 0.011096 0.000457 -82715.700000 0 0 1
30.747993 -33.109020 23.858787 51.096849 -0.822355 1.084977 0.007151 0.002369 181233.000000 0 0 1
29.746763 -33.355920 25.035167 51.227404 -0.842531 1.060190 0.012066 -0.002283 177061.000000 0 0 1
29.603263 33.081125 25.312427 51.102182 0.840823 1.052582 0.020107 -0.011635 36259.600000 0 0 1
28.697463 32.995225 26.390777 51.075458 0.854950 1.027802 0.023991 -0.009535 -433158.000000 0 0 1
28.260563 31.528525 26.732327 50.073193 0.840002 1.007631 0.036305 -0.019559 680751.000000 0 0 1
27.475663 30.913025 25.699987 48.693085 0.844201 1.014793 0.042205 -0.015940 -322195.000000 0 0 1
26.119463 31.229625 25.632927 48.109903 0.874270 1.008891 0.042641 -0.006779 -624986.000000 0 0 1
25.517963 30.994225 24.195867 46.874817 0.882001 1.028411 0.084584 -0.025820 178386.000000 0 0 1
25.943763 31.998625 23.272937 47.314062 0.889518 1.056546 0.104384 -0.032487 1225260.000000 0 0 1
27.315863 31.914825 22.822997 47.807966 0.862888 1.073115 0.069522 -0.023797 752834.000000 0 0 1
27.617163 32.936225 21.710557 48.154449 0.873014 1.103076 0.085056 -0.014199 787777.000000 0 0 1
28.985563 32.921025 21.264257 48.745517 0.848884 1.119392 0.078605 -0.013522 747392.000000 0 0 1
29.102263 33.672625 20.102257 48.835317 0.858076 1.146550 0.071274 -0.018298 68339.300000 0 0 1
30.507723 33.884925 19.481157 49.582505 0.837797 1.167009 0.073221 -0.020032 286343.000000 0 0 1
31.074833 32.736525 18.855457 48.916803 0.811433 1.175090 0.082023 -0.033711 642319.000000 0 0 1
32.324173 33.119525 18.260757 49.751486 0.797551 1.194972 0.070206 -0.025837 775888.000000 0 0 1
33.183233 32.044025 17.504257 49.339087 0.767935 1.208123 0.063251 -0.027943 9088.950000 0 0 1
34.012013 31.296625 18.334457 49.723718 0.743844 1.193158 0.051662 -0.026525 -480186.000000 0 0 1
34.894443 30.492725 17.576957 49.561859 0.718182 1.208260 0.068329 -0.035141 -296698.000000 0 0 1
35.904643 29.943125 18.573057 50.305990 0.695109 1.192646 0.081662 -0.049496 -831683.000000 0 0 1
36.770633 30.857725 19.157357 51.684456 0.698188 1.191077 0.087899 -0.044694 -477548.000000 0 0 1
-37.285856 30.206025 20.086057 52.020080 -0.680881 1.174373 0.104245 -0.044814 149619.000000 0 0 1
-36.172356 31.149925 20.632057 52.004220 -0.710933 1.162836 0.105719 -0.041909 85372.900000 0 0 1
-35.225088 31.613725 19.714357 51.272705 -0.731420 1.176130 0.092022 -0.041234 -171938.000000 0 0 1
-34.153801 32.375325 20.233757 51.225469 -0.758672 1.164735 0.076901 -0.026997 -16993.700000 0 0 1
-34.338718 33.791825 20.875357 52.505386 -0.777371 1.161913 0.058314 -0.019672 -591390.000000 0 0 1
-34.568885 33.704425 22.275857 53.171514 -0.772737 1.138515 0.074016 -0.022334 40446.700000 0 0 1
-34.438797 -32.851520 23.000347 52.860846 0.761814 1.120635 0.069152 -0.017720 -152694.000000 0 0 1
-34.404220 -32.981420 24.547047 53.609532 0.764287 1.095181 0.083645 -0.023464 633074.000000 0 0 1
-35.625072 -33.543520 25.070007 54.980166 0.755313 1.097320 0.072444 -0.015369 565180.000000 0 0 1
-35.536798 -33.743420 26.475677 55.699586 0.759518 1.075457 0.094020 -0.018836 666829.000000 0 0 1
-36.947266 33.805525 27.103847 56.943239 -0.741023 1.074718 0.074076 -0.023800 608115.000000 0 0 1
-36.912276 33.165125 28.350547 57.150636 -0.731977 1.051733 0.095202 -0.025688 -502087.000000 0 0 1
36.661043 32.810225 28.753007 56.984896 0.730024 1.041910 0.103786 -0.034360 -244571.000000 0 0 1
36.510093 31.796625 29.898177 56.902665 0.716503 1.017580 0.104132 -0.027889 -199786.000000 0 0 1
36.595393 30.426425 29.575357 56.032954 0.693613 1.014764 0.088582 -0.025670 801960.000000 0 0 1
-37.053616 29.970425 28.958027 55.765259 -0.680108 1.024783 0.079318 -0.022833 455726.000000 0 0 1
-37.027566 28.516425 28.452887 54.715573 -0.656267 1.023928 0.081513 -0.010548 131521.000000 0 0 1
36.901843 28.244425 27.404767 53.949188 0.653280 1.037966 0.070317 -0.015246 396736.000000 0 0 1
36.894723 26.907025 26.949657 53.023510 0.630116 1.037635 0.068658 -0.012223 59587.300000 0 0 1
36.482533 25.644225 27.754187 52.525198 0.612682 1.014084 0.067570 -0.015432 253555.000000 0 0 1
37.418543 25.378025 28.818937 53.616440 0.595959 1.003324 0.053830 -0.011876 421763.000000 0 0 1
37.171843 24.090825 29.422427 53.176997 0.575034 0.984485 0.048654 -0.004538 -108841.000000 0 0 1
-37.401436 22.817725 28.531047 52.283235 -0.547796 0.993570 0.042115 0.014135 -229393.000000 0 0 1
36.608573 22.700825 27.411617 51.057926 0.555065 1.004070 0.066564 -0.002936 -281706.000000 0 0 1
37.132253 22.135425 26.260917 50.580797 0.537565 1.024896 0.059673 -0.011615 -660869.000000 0 0 1
37.133213 20.619725 26.240457 49.926047 0.506896 1.017392 0.059239 -0.011878 -1142740.000000 0 0 1
35.910433 20.071825 25.896937 48.611611 0.509682 1.008971 0.107397 -0.006009 -346298.000000 0 0 1
35.494903 18.896925 26.598657 48.212763 0.489218 0.986403 0.095717 -0.000796 -110116.000000 0 0 1
35.296923 18.983125 28.189387 48.998708 0.493438 0.957815 0.073997 -0.001518 -277663.000000 0 0 1
34.182633 19.731025 28.638247 48.763869 0.523504 0.943097 0.079225 -0.004871 179175.000000 0 0 1
34.075363 21.150225 28.411497 49.149523 0.555494 0.954444 0.084698 -0.014703 -593167.000000 0 0 1
32.884773 21.681625 29.255137 49.064898 0.582900 0.931970 0.103189 -0.031198 305973.000000 0 0 1
31.558593 21.439925 28.826207 47.818045 0.596745 0.923752 0.124846 -0.040954 525885.000000 0 0 1
30.962763 22.355125 27.854357 47.268484 0.625339 0.940629 0.121188 -0.040030 216348.000000 0 0 1
30.936393 23.895125 28.216027 48.209767 0.657681 0.945576 0.116789 -0.035526 -7444.820000 0 0 1
32.181113 24.572725 27.992357 49.224129 0.652133 0.965906 0.119769 -0.030053 580844.000000 0 0 1
32.550493 25.676225 28.846087 50.506434 0.667882 0.962906 0.091675 -0.027026 229281.000000 0 0 1
32.838363 25.434025 30.396227 51.470170 0.659011 0.939044 0.090119 -0.034563 861097.000000 0 0 1
34.157743 24.865625 30.565877 52.147134 0.629249 0.944502 0.066045 -0.023659 1027060.000000 0 0 1
34.588453 24.874725 31.957516 53.257825 0.623471 0.927229 0.091010 -0.023752 10801.800000 0 0 1
34.051113 23.655525 32.761848 52.843172 0.607164 0.902076 0.110246 -0.022968 -16006.400000 0 0 1
34.381563 23.710525 -33.699269 53.664901 0.603732 2.249722 0.104894 -0.033496 296969.000000 0 0 1
33.536523 22.761525 -33.089769 52.323209 0.596293 2.255458 0.090224 -0.027815 95048.000000 0 0 1
33.748863 22.525025 -31.588479 51.421732 0.588531 2.232298 0.070104 -0.027132 299900.000000 0 0 1
32.988443 23.499825 -30.800349 50.883599 0.618977 2.220952 0.053994 -0.029102 585104.000000 0 0 1
33.301463 23.345525 -29.392039 50.178610 0.611421 2.196599 0.090682 -0.034032 878132.000000 0 0 1
34.759303 23.661425 -28.888769 51.016009 0.597670 2.172768 0.088070 -0.006109 662578.000000 0 0 1
35.158103 23.306625 -27.619319 50.419418 0.585397 2.150518 0.086920 -0.009232 -115496.000000 0 0 1
36.371933 23.976725 -27.274829 51.397637 0.582822 2.130179 0.089653 0.002150 296362.000000 0 0 1
37.028773 23.211625 -26.093379 50.899646 0.559931 2.109057 0.076048 0.005398 -560003.000000 0 0 1
-37.153856 22.118525 -26.577259 50.754200 -0.536973 2.121922 0.059888 0.009446 -324763.000000 0 0 1
-36.919036 21.192425 -25.528489 49.637061 -0.521101 2.110991 0.037558 0.005509 -105970.000000 0 0 1
-36.011564 19.966225 -25.859099 48.622791 -0.506245 2.131557 0.047243 0.016105 -541722.000000 0 0 1
-34.682846 20.370225 -25.851229 47.813511 -0.531050 2.142027 0.052741 0.013370 -1331510.000000 0 0 1
-33.858726 19.259925 -25.941259 46.800715 -0.517186 2.158308 0.030513 0.010374 154719.000000 0 0 1
-32.522906 19.466925 -25.159869 45.494171 -0.539360 2.156799 0.033325 0.002921 113594.000000 0 0 1
-32.651516 19.699425 -23.738809 44.919037 -0.542860 2.127605 0.044122 -0.000213 248061.000000 0 0 1
-31.545096 20.366425 -23.109109 44.089854 -0.573296 2.122497 0.061058 -0.012352 404897.000000 0 0 1
-31.730596 20.810825 -21.709409 43.717497 -0.580484 2.090455 0.059637 -0.026559 -34202.700000 0 0 1
-31.981046 19.762625 -20.760809 42.946010 -0.553512 2.075350 0.056466 -0.008229 -84407.700000 0 0 1
-32.477596 20.268725 -19.549109 42.985847 -0.557940 2.042922 0.060487 -0.006841 -594541.000000 0 0 1
-33.294266 19.245425 -18.741109 42.779945 -0.524116 2.024260 0.061164 -0.003350 95810.200000 0 0 1
-33.978826 19.715225 -17.591909 43.043303 -0.525749 1.991828 0.057329 -0.008564 -115160.000000 0 0 1
-35.164195 20.405125 -17.880209 44.413867 -0.525794 1.985132 0.042245 -0.007670 -187457.000000 0 0 1
-36.363546 20.237925 -16.884609 44.910701 -0.507854 1.956228 0.039153 -0.013696 514878.000000 0 0 1
-36.133676 20.864525 -15.652309 44.564175 -0.523656 1.929682 0.056150 -0.024115 -356656.000000 0 0 1
-37.301986 20.731025 -14.911109 45.205693 -0.507256 1.906941 0.060092 -0.014082 -829413.000000 0 0 1
37.417383 21.443525 -13.517709 45.195285 0.520398 1.874541 0.071207 -0.014916 -195720.000000 0 0 1
37.281593 22.834725 -13.603809 45.786520 0.549555 1.872465 0.081312 -0.023059 959329.000000 0 0 1
35.951503 23.174925 -14.051809 45.022672 0.572581 1.888204 0.070639 -0.006997 684054.000000 0 0 1
35.706853 24.660225 -14.546509 45.767969 0.604410 1.894238 0.077482 -0.007326 -125706.000000 0 0 1
35.888023 25.576225 -13.502809 46.091423 0.619177 1.868114 0.073340 -0.002121 182599.000000 0 0 1
35.627033 26.897125 -13.936309 46.764960 0.646670 1.873401 0.063579 0.004299 -301546.000000 0 0 1
36.913233 27.582425 -14.412309 48.281379 0.641722 1.873924 0.089765 0.003331 22504.900000 0 0 1
37.375783 27.210825 -15.689109 48.821371 0.629294 1.897959 0.086712 -0.001973 390666.000000 0 0 1
-36.277476 27.792825 -16.119509 48.459622 -0.653737 1.909896 0.087781 -0.019556 -389337.000000 0 0 1
-35.842180 27.620525 -17.567309 48.540350 -0.656565 1.941114 0.103324 -0.033031 -88796.900000 0 0 1
-35.452415 26.313025 -17.960509 47.663706 -0.638495 1.957154 0.111272 -0.039672 1429820.000000 0 0 1
-34.096197 25.981125 -17.546709 46.319072 -0.651134 1.959320 0.117471 -0.038549 902865.000000 0 0 1
-33.663116 24.726525 -18.290709 45.597768 -0.633526 1.983548 0.104883 -0.035561 -167071.000000 0 0 1
-33.576306 25.071725 -19.666009 46.289433 -0.641391 2.009591 0.086889 -0.028329 279274.000000 0 0 1
-32.628586 24.271425 -20.353209 45.475046 -0.639566 2.034841 0.073031 -0.017797 3530.330000 0 0 1
-32.760036 24.377325 -21.877109 46.325822 -0.639726 2.062632 0.068062 -0.014102 -665944.000000 0 0 1
-33.961906 23.821925 -22.321909 47.107990 -0.611686 2.064449 0.073338 -0.014451 -404687.000000 0 0 1
-33.987856 23.468825 -23.704709 47.622193 -0.604326 2.091817 0.055961 -0.000603 -281683.000000 0 0 1
-34.717376 24.513425 -24.617909 49.114617 -0.614798 2.095820 0.062652 -0.007216 -228380.000000 0 0 1
-34.132258 25.802325 -24.752509 49.431343 -0.647299 2.095256 0.061227 -0.011311 160752.000000 0 0 1
-34.927676 26.661625 -25.589009 50.848620 -0.651983 2.098139 0.071910 -0.012521 64069.300000 0 0 1
-34.297421 28.005925 -25.791649 51.243088 -0.684758 2.098232 0.059434 -0.019660 112882.000000 0 0 1
-33.032546 27.988225 -26.424239 50.722088 -0.702920 2.118773 0.044349 -0.014088 -231540.000000 0 0 1
-32.547446 29.305125 -26.760999 51.325214 -0.733026 2.119288 0.046041 -0.013900 981103.000000 0 0 1
-31.094116 29.205625 -27.360379 50.679413 -0.754090 2.141081 0.048875 -0.013490 -312511.000000 0 0 1
-30.200686 28.728525 -26.379979 49.328621 -0.760422 2.135044 0.038448 -0.016617 167965.000000 0 0 1
-28.886056 28.529125 -26.937619 48.723203 -0.779182 2.156601 0.066632 -0.007154 670363.000000 0 0 1
-28.093426 29.824325 -26.947159 49.039579 -0.815275 2.152560 0.048108 -0.015259 -1513880.000000 0 0 1
-27.488996 30.289825 -25.712609 48.314145 -0.833835 2.131989 0.041945 -0.014258 -79863.700000 0 0 1
-28.302176 30.381125 -24.599309 48.261288 -0.820810 2.105645 0.053413 -0.013990 -398451.000000 0 0 1
-27.446686 30.929525 -23.436109 47.531119 -0.844989 2.086410 0.019046 -0.018755 240801.000000 0 0 1
-27.218716 32.342725 -23.452209 48.341664 -0.871216 2.077313 0.029349 -0.018553 -15512.300000 0 0 1
-26.309266 32.710525 -22.460709 47.609236 -0.893435 2.062096 0.033538 0.006347 -227146.000000 0 0 1
-25.677876 -33.670520 -22.561509 47.979984 0.919266 2.060345 0.028264 0.022302 -690446.000000 0 0 1
-26.566066 -32.646420 -22.327809 47.645310 0.887727 2.058531 0.017605 -0.002560 -103652.000000 0 0 1
-25.958426 -31.386120 -22.646509 46.602497 0.879768 2.078247 0.030057 -0.004968 -10396.700000 0 0 1
17.325554 8.164325 -24.377909 31.001830 0.440368 2.475655 0.078750 -0.004215 995423.000000 0 0 1
15.970954 7.681025 -24.223109 30.013806 0.448281 2.509962 0.073202 -0.007925 1000060.000000 0 0 1
15.765254 6.455425 -24.908909 30.177301 0.388645 2.541740 0.074992 -0.016733 -991108.000000 0 0 1
14.347354 5.950825 -24.960209 29.398485 0.393172 2.584944 0.071883 -0.026980 -1042300.000000 0 0 1
13.781154 5.843625 -23.672809 28.008392 0.401049 2.577743 0.098314 -0.041625 -527879.000000 0 0 1
12.545954 5.227025 -23.859409 27.458954 0.394760 2.623796 0.095538 -0.040698 -794046.000000 0 0 1
11.543554 5.295125 -22.680209 25.993920 0.430072 2.631132 0.111338 -0.043302 -7701.930000 0 0 1
11.909154 4.643625 -21.470709 24.987648 0.371787 2.604604 0.105109 -0.039857 258782.000000 0 1 0
11.056754 5.087625 -20.400409 23.755261 0.431252 2.603669 0.108304 -0.035471 155545.000000 0 1 0
11.599154 6.330125 -19.609509 23.646220 0.499567 2.548627 0.122934 -0.051729 47251.700000 0 1 0
11.047454 6.476925 -18.296909 22.333242 0.530272 2.530929 0.105786 -0.043615 -283793.000000 0 1 0
11.305254 7.760425 -17.681509 22.375628 0.601570 2.481953 0.115468 -0.049843 405543.000000 0 1 0
12.798354 8.075025 -17.388009 23.050960 0.562861 2.425428 0.110614 -0.046520 88066.600000 0 1 0
13.346654 7.407025 -16.289209 22.323430 0.506653 2.388666 0.127809 -0.055752 210029.000000 0 1 0
14.690354 7.818525 -16.139609 23.182382 0.489091 2.340889 0.123109 -0.049682 -303678.000000 0 1 0
15.437054 7.438525 -14.877309 22.692920 0.449032 2.285763 0.129875 -0.046559 -452125.000000 0 1 0
16.776154 7.863125 -14.873809 23.759173 0.438302 2.247240 0.122793 -0.045844 436207.000000 0 1 0
17.378754 7.880025 -13.555109 23.406343 0.425702 2.188447 0.119757 -0.044676 841057.000000 0 1 0
18.288954 9.143725 -13.229409 24.353867 0.463615 2.145059 0.151799 -0.052818 719501.000000 0 1 0
17.485454 10.292625 -13.028809 24.112841 0.532024 2.141621 0.194666 -0.044131 276048.000000 0 1 0
18.301054 11.294925 -12.560709 24.905327 0.552951 2.099412 0.219126 -0.063318 -874978.000000 0 1 0
17.635854 12.612825 -12.267209 24.911667 0.620842 2.085674 0.253917 -0.050270 -1301490.000000 0 1 0
16.893454 12.485425 -11.103509 23.760525 0.636468 2.057041 0.288808 -0.036635 -118747.000000 0 1 0
16.166254 13.625625 -10.753609 23.720151 0.700325 2.041320 0.177440 -0.024255 768556.000000 0 1 0
14.775654 13.846625 -11.468409 23.271729 0.752951 2.086106 0.133972 -0.039391 307244.000000 0 1 0
13.820854 14.692725 -10.881309 22.919317 0.815966 2.065494 0.154493 -0.048148 162311.000000 0 1 0
14.105754 16.081225 -11.048609 24.075919 0.850746 2.047561 0.158242 -0.043608 -136048.000000 0 1 0
13.079954 17.005925 -10.358709 23.824138 0.915157 2.020611 0.139115 -0.037719 115608.000000 0 1 0
13.213754 17.022725 -8.949209 23.333770 0.910711 1.964412 0.131947 -0.015920 -311763.000000 0 1 0
12.113154 17.621325 -8.368309 22.962321 0.968567 1.943824 0.104810 -0.002011 -499243.000000 0 1 0
12.267554 17.451825 -6.869509 22.410918 0.958101 1.882337 0.085289 -0.001831 -257707.000000 0 1 0
13.374954 18.141825 -6.395109 23.428885 0.935509 1.847263 0.099697 -0.000154 -168996.000000 0 1 0
13.897554 17.631825 -5.157709 23.035304 0.903287 1.796615 0.101386 -0.014456 343574.000000 0 1 0
15.049654 18.493525 -4.543109 24.272256 0.887709 1.759080 0.090669 -0.018493 444279.000000 0 1 0
16.323054 18.441125 -5.150009 25.160282 0.846250 1.776941 0.106223 -0.032525 388713.000000 0 0 1
17.049954 19.639325 -4.903509 26.465986 0.855857 1.757149 0.073364 -0.028302 462330.000000 0 0 1
18.467454 19.732825 -5.551909 27.590849 0.818511 1.773402 0.075637 -0.017810 242193.000000 0 0 1
19.551054 19.074025 -4.970209 27.762657 0.773049 1.750792 0.096485 -0.034986 -133916.000000 0 0 1
19.625154 17.673325 -5.359209 26.948362 0.733116 1.771001 0.114382 -0.039269 -308834.000000 0 0 1
20.693554 16.891525 -4.548409 27.096768 0.684583 1.739453 0.132202 -0.047564 1532570.000000 0 0 1
22.064254 17.190325 -4.945009 28.404079 0.661868 1.745783 0.109254 -0.051254 1212230.000000 0 0 1
22.958954 16.357825 -4.264209 28.510972 0.619054 1.720923 0.115373 -0.056193 -372752.000000 0 0 1
24.455154 16.504025 -4.550809 29.852090 0.593660 1.723838 0.115048 -0.050313 -202477.000000 0 0 1
25.005754 17.662025 -3.954709 30.868667 0.614954 1.699263 0.113652 -0.051230 384112.000000 0 0 1
26.425754 17.519325 -3.900909 31.944708 0.585435 1.693216 0.105201 -0.039724 184747.000000 0 0 1
27.003754 18.725325 -3.198509 33.016224 0.606306 1.667825 0.121171 -0.028800 -510253.000000 0 0 1
27.026754 19.913825 -3.939309 33.801243 0.635012 1.687605 0.116842 -0.031169 274228.000000 0 0 1
27.199754 21.039225 -3.077709 34.524599 0.658377 1.660060 0.138336 -0.010268 -247022.000000 0 0 1
27.126754 22.409725 -3.835709 35.394481 0.690461 1.679380 0.103634 -0.007903 131785.000000 0 0 1
28.255154 22.877125 -4.562609 36.640606 0.680605 1.695644 0.097726 0.001258 295635.000000 0 0 1
28.596554 22.217625 -5.741609 36.665404 0.660517 1.728038 0.083305 0.001565 170532.000000 0 0 1
29.698154 22.923525 -6.600409 38.092437 0.657360 1.744949 0.063396 0.003433 291709.000000 0 0 1
29.279754 23.927625 -7.488909 38.547620 0.685145 1.766316 0.035299 0.013410 349993.000000 0 0 1
30.388554 24.398425 -8.262309 39.837334 0.676496 1.779714 0.030118 0.016879 337490.000000 0 0 1
30.972754 23.505325 -9.370509 39.995228 0.649175 1.807285 0.016849 0.002954 190495.000000 0 0 1
30.202954 23.487825 -10.571309 39.694445 0.660974 1.840366 0.009085 0.011660 94712.100000 0 0 1
30.682754 22.408925 -11.327109 39.647128 0.630801 1.860531 -0.011906 -0.005441 11728.100000 0 0 1
30.104954 22.239825 -12.756709 39.543036 0.636258 1.899275 0.025826 0.006967 247980.000000 0 0 1
30.667254 23.099725 -13.787509 40.794279 0.645570 1.915562 0.018344 0.004304 264374.000000 0 0 1
30.518954 22.473425 -15.036309 40.774404 0.634725 1.948480 0.037589 -0.007602 -94960.500000 0 0 1
30.733554 23.376125 -16.299709 41.912708 0.650254 1.970230 0.037132 -0.003715 -805185.000000 0 0 1
32.053654 23.621825 -16.664509 43.164027 0.635094 1.967168 0.047863 0.003473 -853336.000000 0 0 1
32.214054 24.647125 -17.617809 44.222316 0.653098 1.980559 0.069856 -0.006773 -1342080.000000 0 0 1
33.606454 25.166025 -17.573709 45.514370 0.642761 1.967211 0.072202 -0.007495 -1134740.000000 0 0 1
34.543354 24.168725 -18.015109 45.846644 0.610500 1.974626 0.071485 0.000319 411274.000000 0 0 1
35.818054 24.820425 -18.176809 47.216342 0.605984 1.965970 0.093398 -0.011387 870835.000000 0 0 1
37.024854 23.838225 -18.183809 47.641911 0.572035 1.962406 0.073183 -0.021880 158170.000000 0 0 1
37.062454 23.107325 -19.422809 47.799786 0.557498 1.989238 0.059739 -0.012415 -411063.000000 0 0 1
-36.738054 23.355325 -20.272509 48.022187 -0.566275 2.006611 0.084420 -0.008062 -455325.000000 0 0 1
-36.675154 22.342525 -21.421709 47.991092 -0.547157 2.033499 0.073870 0.000451 -8931.220000 0 0 1
-36.167354 21.074125 -20.992209 46.828080 -0.527590 2.035639 0.065870 0.001131 188884.000000 0 0 1
-36.003754 20.197625 -22.078209 46.815186 -0.511239 2.061905 0.056280 0.009072 275082.000000 0 0 1
-35.611954 18.753525 -21.722309 45.735814 -0.484706 2.065706 0.054500 0.013841 278489.000000 0 0 1
-36.812454 18.022925 -21.560309 46.312304 -0.455283 2.055043 0.057868 0.002936 267245.000000 0 0 1
-36.613154 16.630725 -21.749609 45.718153 -0.426364 2.066593 0.044564 -0.001566 36824.300000 0 0 1
37.004554 15.714925 -21.724409 45.697329 0.401596 2.066212 0.032199 -0.000680 -140389.000000 0 0 1
36.208054 15.761725 -22.852609 45.625617 0.410571 2.095403 0.059800 0.001371 -527355.000000 0 0 1
35.034254 15.017125 -22.757709 44.393990 0.404951 2.109042 0.082766 -0.010660 -447820.000000 0 0 1
35.162554 13.595925 -23.309009 44.323406 0.368953 2.124551 0.064393 -0.015538 -533755.000000 0 0 1
35.222954 13.559525 -24.710709 45.112486 0.367476 2.150478 0.098991 -0.019955 155151.000000 0 0 1
35.611254 12.281225 -25.204379 45.323842 0.332097 2.160477 0.080415 -0.010354 125010.000000 0 0 1
35.757554 12.216125 -26.775419 46.311548 0.329206 2.187266 0.076231 -0.008266 321527.000000 0 0 1
34.463254 12.222125 -27.376239 45.678821 0.340804 2.213448 0.071053 -0.012682 542374.000000 0 0 1
34.181254 13.345325 -28.264279 46.317657 0.372228 2.227143 0.077750 -0.010242 -297118.000000 0 0 1
34.722954 13.210525 -29.658959 47.537936 0.363545 2.244521 0.072206 -0.021738 -379050.000000 0 0 1
36.114554 13.438325 -29.632119 48.609794 0.356228 2.226342 0.077340 -0.012852 -92417.900000 0 0 1
36.640554 13.588225 -30.955419 49.853867 0.355129 2.240716 0.072690 -0.015658 476863.000000 0 0 1
-36.710654 13.897625 -31.038839 50.042238 -0.361899 2.239861 0.067338 -0.006744 1166300.000000 0 0 1
-35.708554 12.948825 -30.613679 48.784938 -0.347878 2.249164 0.070082 -0.005064 593723.000000 0 0 1
-35.646254 12.750425 -29.200579 47.811113 -0.343512 2.227802 0.064762 -0.003020 398230.000000 0 0 1
-34.533654 11.674725 -28.841879 46.483615 -0.326006 2.240143 0.067827 -0.009171 998046.000000 0 0 1
-35.009154 10.386725 -29.247359 46.786033 -0.288414 2.246095 0.070468 -0.012693 1082240.000000 0 0 1
-33.945654 9.396825 -29.186039 45.743115 -0.270057 2.262749 0.070099 -0.008088 585969.000000 0 0 1
-34.340154 7.978125 -29.694579 46.094085 -0.228277 2.270795 0.080959 -0.008825 -652224.000000 0 0 1
-34.480354 8.079325 -31.114489 47.141083 -0.230164 2.291654 0.078177 -0.007690 182851.000000 0 0 1
-35.018454 6.966225 -31.813499 47.821743 -0.196367 2.298627 0.088645 -0.009614 973112.000000 0 0 1
-36.439354 6.359925 -31.458139 48.558106 -0.172794 2.275549 0.102756 -0.010043 746689.000000 0 0 1
-36.351954 5.733925 -30.209629 47.612647 -0.156445 2.258142 0.108653 -0.017576 362253.000000 0 0 1
37.250354 5.186125 -29.911379 48.053880 0.138334 2.242672 0.094479 -0.009987 189079.000000 0 0 1
37.216054 4.486925 -28.486439 47.081253 0.119985 2.220623 0.102796 -0.017640 458696.000000 0 0 1
-36.738654 3.368625 -28.460229 46.594645 -0.091436 2.227873 0.112196 -0.012527 748318.000000 0 0 1
-37.034354 2.454425 -27.465189 46.172548 -0.066178 2.207861 0.107674 -0.011967 -17899.400000 0 0 1
-35.973554 1.325025 -27.415529 45.248906 -0.036817 2.221671 0.119749 -0.010739 -320500.000000 0 0 1
-34.751154 1.666925 -26.865699 43.956650 -0.047931 2.228355 0.121955 -0.007444 -169387.000000 0 0 1
-33.813554 0.573225 -26.882809 43.201509 -0.016951 2.242430 0.129883 -0.008435 1230760.000000 0 0 1
-32.604154 0.713225 -25.877049 41.631253 -0.021872 2.241551 0.131237 -0.013549 499950.000000 0 0 1
-32.916854 0.339325 -24.531709 41.054100 -0.010308 2.211233 0.119543 -0.004625 108442.000000 0 0 1
-31.924754 0.635525 -23.569009 39.687428 -0.019904 2.206652 0.128924 0.007550 -121770.000000 0 0 1
-32.323254 0.299925 -22.135209 39.177164 -0.009279 2.171233 0.122793 0.008623 -427414.000000 0 0 1
-32.546254 -1.096875 -22.002309 39.300933 0.033689 2.164991 0.142808 -0.003359 244160.000000 0 0 1
-32.960254 -1.549575 -20.722709 38.964217 0.046979 2.131568 0.150450 -0.009266 -302107.000000 0 0 1
-34.366154 -1.204975 -20.207509 39.885184 0.035048 2.102082 0.142219 -0.013991 -3920.720000 0 0 1
-35.339054 -2.166375 -20.665209 40.995033 0.061226 2.099125 0.149010 -0.022833 -264053.000000 0 0 1
-36.643754 -1.765975 -20.427409 41.990027 0.048156 2.078855 0.133679 -0.023120 62879.100000 0 0 1
37.210454 -2.956775 -20.210109 42.447720 -0.079294 2.067031 0.133377 -0.033276 535961.000000 0 0 1
36.710654 -3.761375 -21.254709 42.586180 -0.102104 2.093355 0.121898 -0.025353 213188.000000 0 0 1
-37.230754 -4.711375 -21.661809 43.330821 0.125876 2.094299 0.115985 -0.028525 -248220.000000 0 0 1
37.003354 -5.695575 -22.682409 43.774187 -0.152722 2.115505 0.100838 -0.035486 -140379.000000 0 0 1
36.136454 -6.666175 -22.102509 42.881256 -0.182421 2.112312 0.108259 -0.031659 754170.000000 0 0 1
35.338754 -7.443275 -22.988409 42.810009 -0.207592 2.137657 0.105961 -0.025139 859883.000000 0 0 1
34.073754 -6.728275 -23.613709 41.998782 -0.194954 2.167897 0.083780 -0.025097 10976.900000 0 0 1
34.224854 -5.929875 -24.742509 42.646170 -0.171559 2.189748 0.086127 -0.025896 -241824.000000 0 0 1
32.958854 -5.459875 -25.108329 41.791440 -0.164166 2.215299 0.067796 -0.024283 -201967.000000 0 0 1
32.934154 -4.237575 -25.994109 42.170004 -0.127965 2.234975 0.097817 -0.043935 -141841.000000 0 0 1
32.930854 -4.602375 -27.359459 43.059993 -0.138859 2.259297 0.092216 -0.041480 202055.000000 0 0 1
32.397354 -3.526275 -28.068979 43.010356 -0.108418 2.281820 0.086923 -0.037493 -161300.000000 0 0 1
32.188954 -3.921675 -29.579599 43.891468 -0.121235 2.310306 0.093532 -0.033471 84990.300000 0 0 1
31.818954 -2.826475 -30.368379 44.075767 -0.088597 2.330910 0.082670 -0.041293 -250260.000000 0 0 1
31.034954 -3.213375 -31.460059 44.308345 -0.103173 2.360331 0.089784 -0.038775 -613130.000000 0 0 1
30.604754 -1.950075 -32.269089 44.516827 -0.063632 2.381648 0.087383 -0.040399 -881667.000000 0 0 1
29.658154 -1.091875 -31.671109 43.403427 -0.036799 2.388667 0.079186 -0.038364 703502.000000 0 0 1
28.321154 -1.564075 -31.491909 42.382478 -0.055170 2.408399 0.085989 -0.046198 550181.000000 0 0 1
27.489354 -1.808575 -32.803029 42.836599 -0.065697 2.443036 0.079312 -0.035474 -827334.000000 0 0 1
27.871854 -2.992675 -33.505509 43.685415 -0.106963 2.444906 0.091143 -0.032798 45291.400000 0 0 1
27.228054 -3.136875 33.088986 42.966126 -0.114702 0.691770 0.078353 -0.031166 -824866.000000 0 0 1
27.593254 -4.510975 32.466720 42.846523 -0.162048 0.710946 0.059687 -0.026647 -549386.000000 0 0 1
28.887254 -4.819275 32.018761 43.392395 -0.165308 0.740859 0.069332 -0.024712 -309019.000000 0 0 1
29.249754 -4.185775 30.785587 42.671082 -0.142140 0.764884 0.070766 -0.024316 -411746.000000 0 0 1
29.972454 -2.875875 30.980017 43.201622 -0.095658 0.771159 0.069049 -0.016608 -1920790.000000 0 0 1
31.217354 -2.982475 31.536707 44.474513 -0.095250 0.782581 0.066153 -0.023179 -990318.000000 0 0 1
31.713954 -1.700075 31.926862 45.033207 -0.053555 0.782770 0.070746 -0.020867 590462.000000 0 0 1
33.190554 -1.617175 32.426357 46.429482 -0.048685 0.797637 0.068688 -0.023567 764659.000000 0 0 1
34.159854 -1.993575 31.455697 46.479360 -0.058294 0.827434 0.075390 -0.025054 -118975.000000 0 0 1
35.464854 -1.829175 31.930917 47.756521 -0.051531 0.838446 0.081146 -0.026665 -73930.600000 0 0 1
36.625154 -2.424575 31.109077 48.115021 -0.066103 0.867735 0.090044 -0.024672 161621.000000 0 0 1
36.970154 -1.656075 29.963237 47.616494 -0.044765 0.890193 0.081997 -0.021279 -459060.000000 0 0 1
-36.687754 -2.040675 29.425487 47.074568 0.055566 0.895559 0.080434 -0.024374 -504980.000000 0 0 1
-36.319254 -1.409375 28.073017 45.925688 0.038786 0.913131 0.079471 -0.025515 359020.000000 0 0 1
-37.307954 -1.617975 27.055947 46.114266 0.043341 0.943800 0.075389 -0.020183 502609.000000 0 0 1
-36.777954 -1.210575 25.782937 44.931540 0.032904 0.959625 0.076229 -0.019968 47324.600000 0 0 1
-27.307866 14.966125 12.030591 33.383223 -0.501346 1.202123 0.176488 -0.028612 -49463.800000 0 0 1
-28.499116 14.245825 12.213891 34.122167 -0.463543 1.204729 0.141570 -0.014121 -250633.000000 0 0 1
-29.529916 15.032725 12.748291 35.503770 -0.470875 1.203527 0.144054 -0.012987 135801.000000 0 0 1
-30.717226 14.128625 13.205491 36.298085 -0.431104 1.198445 0.137829 -0.010767 861044.000000 0 0 1
-31.784656 14.832825 13.857391 37.713450 -0.436627 1.194542 0.124474 -0.015017 448137.000000 0 0 1
-32.811106 14.032025 14.437791 38.495665 -0.404122 1.186346 0.134611 -0.021498 629009.000000 0 0 1
-33.788096 14.882625 15.285391 39.959619 -0.414900 1.178273 0.113486 -0.025559 342271.000000 0 0 1
-33.117026 15.385025 16.459091 40.054189 -0.434900 1.147333 0.096613 -0.018950 13933.400000 0 0 1
-34.014256 15.915625 17.409391 41.392797 -0.437648 1.136701 0.098771 -0.027738 -24384.100000 0 0 1
-33.423186 16.135425 18.800591 41.604369 -0.449762 1.101914 0.137595 -0.020156 -63938.100000 0 0 1
-32.959666 14.983225 19.449791 41.099039 -0.426667 1.077829 0.129751 -0.025242 -80108.200000 0 0 1
-31.988616 15.301325 20.467491 40.942890 -0.446167 1.047309 0.125824 -0.017319 553963.000000 0 0 1
-32.482526 15.775725 21.866491 42.215298 -0.452116 1.026314 0.127434 -0.032306 -134547.000000 0 0 1
-33.244666 16.997225 21.855691 43.264127 -0.472628 1.041219 0.126659 -0.036430 377912.000000 0 0 1
-33.678676 17.466625 23.102991 44.419415 -0.478437 1.023816 0.120143 -0.044519 -401850.000000 0 0 1
-34.643512 16.549425 24.009491 45.282580 -0.445654 1.011943 0.099810 -0.045970 486566.000000 0 0 1
-35.933838 16.329425 23.481791 45.926956 -0.426532 1.034116 0.123495 -0.032253 229194.000000 0 0 1
-36.771726 17.505525 23.433291 46.986406 -0.444312 1.048669 0.114996 -0.031563 106311.000000 0 0 1
36.658053 17.043425 23.012991 46.517620 0.435200 1.053289 0.106650 -0.037666 760195.000000 0 0 1
35.915583 16.427825 24.042591 46.236876 0.428992 1.023960 0.111871 -0.031961 -59309.100000 0 0 1
34.657533 15.924425 23.666291 44.886805 0.430709 1.015443 0.120397 -0.029144 -53295.200000 0 0 1
33.977763 15.115525 24.779791 44.687868 0.418576 0.983024 0.067540 -0.013395 -241423.000000 0 0 1
33.684233 15.863225 25.962691 45.390867 0.440130 0.961878 0.102567 -0.022134 155730.000000 0 0 1
33.768823 15.079725 27.150891 45.879215 0.419988 0.937518 0.088598 -0.015715 -353687.000000 0 0 1
32.755413 13.989325 27.410591 44.943952 0.403635 0.914882 0.085639 -0.006875 -691253.000000 0 0 1
33.293063 12.795425 26.985091 44.725229 0.366923 0.923098 0.080727 -0.014053 334236.000000 0 0 1
32.370763 11.710025 27.044991 43.776963 0.347101 0.904867 0.076431 -0.009632 101022.000000 0 0 1
33.101783 10.404725 26.611891 43.728470 0.304547 0.916538 0.080975 -0.011720 -1041070.000000 0 0 1
34.072563 9.992325 27.465291 44.890181 0.285267 0.912421 0.072984 -0.008661 -895841.000000 0 0 1
34.471163 8.673925 27.143991 44.724650 0.246511 0.918625 0.066758 -0.010831 287633.000000 0 0 1
35.614823 8.136025 28.091791 46.084262 0.224591 0.915273 0.065002 -0.013994 -103657.000000 0 0 1
36.876923 8.627525 27.807391 46.985026 0.229821 0.937463 0.084835 -0.017946 -558289.000000 0 0 1
-36.962986 7.769325 28.298891 47.195889 -0.207176 0.927789 0.085588 -0.019397 616485.000000 0 0 1
-35.645016 8.556825 28.496591 46.431047 -0.235599 0.910007 0.085175 -0.017329 206784.000000 0 0 1
-34.885135 8.869025 27.348991 45.206189 -0.248961 0.921051 0.082063 -0.018506 371793.000000 0 0 1
-33.631676 9.477825 27.631891 44.547056 -0.274689 0.901690 0.088644 -0.001443 538530.000000 0 0 1
-32.893436 10.027625 26.378891 43.340250 -0.295902 0.916443 0.096553 -0.009313 -159946.000000 0 0 1
-32.116966 9.067525 25.716491 42.131430 -0.275166 0.914247 0.089673 -0.016337 119908.000000 0 0 1
-31.309576 9.610625 24.690491 41.015534 -0.297825 0.924819 0.084500 -0.014141 201973.000000 0 0 1
-30.300626 8.641525 24.014591 39.616972 -0.277818 0.919561 0.083910 -0.012578 -318389.000000 0 0 1
-29.483646 9.265225 23.126591 38.600116 -0.304478 0.928379 0.092757 -0.012628 -542040.000000 0 0 1
-28.688216 8.287525 22.444091 37.355509 -0.281226 0.926265 0.077110 -0.006604 236121.000000 0 0 1
-27.652726 8.895225 21.456991 36.113719 -0.311223 0.934587 0.095436 -0.001527 -353130.000000 0 0 1
-26.494276 9.374825 22.159191 35.789157 -0.340095 0.903125 0.097229 -0.003713 879871.000000 0 0 1
-25.587306 10.161325 21.356291 34.843276 -0.378024 0.911040 0.084194 0.002778 1119530.000000 0 0 1
-24.804446 9.371625 20.216491 33.343581 -0.361241 0.919386 0.069517 0.002295 -56998.000000 0 0 1
-25.738246 9.044625 19.162691 33.338735 -0.337929 0.958452 0.077415 -0.000356 468211.000000 0 0 1
-25.330316 8.187825 18.147991 32.218239 -0.312641 0.972442 0.067163 -0.007298 -388005.000000 0 0 1
-25.071316 6.714725 18.553291 31.904279 -0.261684 0.950188 0.064426 -0.000144 157267.000000 0 0 1
-23.806546 6.492725 19.188091 31.258438 -0.266253 0.909864 0.064341 -0.001853 859999.000000 0 0 1
-23.607146 5.124825 19.616091 31.118358 -0.213771 0.888766 0.074416 -0.009446 -58951.000000 0 0 1
-23.660046 3.888625 18.654691 30.379544 -0.162898 0.909609 0.086522 -0.015226 10842.100000 0 0 1
-24.981346 3.641125 18.168091 31.103134 -0.144735 0.946996 0.109636 -0.020367 754586.000000 0 0 1
-25.073306 2.780125 17.059491 30.453670 -0.110429 0.976195 0.108565 -0.014603 -109311.000000 0 0 1
-24.951046 1.271025 17.381291 30.434840 -0.050897 0.962953 0.109670 -0.016316 -1388130.000000 0 0 1
-23.679046 0.848025 17.620491 29.527920 -0.035798 0.931364 0.112633 -0.016670 -852339.000000 0 0 1
-23.800846 -0.379475 18.303591 30.027416 0.015942 0.915288 0.124137 -0.021126 -61615.900000 0 0 1
-22.466646 -1.133875 18.473891 29.108770 0.050426 0.883240 0.117154 -0.012355 23697.200000 0 0 1
-21.517646 -0.594175 19.391791 28.972464 0.027606 0.837506 0.108560 -0.016801 399458.000000 0 0 1
-20.474346 -1.560475 19.546191 28.349383 0.076069 0.810032 0.105974 -0.016741 405680.000000 0 0 1
-19.473946 -1.036575 20.630491 28.388840 0.053179 0.757274 0.115164 -0.021126 400516.000000 0 0 1
-19.978746 -1.048975 21.964291 29.709943 0.052456 0.738780 0.111400 -0.022107 256895.000000 0 0 1
-18.927546 -0.704175 22.884191 29.705792 0.037187 0.691389 0.091812 -0.020960 191326.000000 0 0 1
-19.215146 -0.828875 24.398291 31.067434 0.043110 0.667562 0.090982 -0.022753 155547.000000 0 0 1
-19.917146 0.260925 25.007091 31.970539 -0.013100 0.672620 0.077130 -0.027468 210355.000000 0 0 1
-21.328146 0.093625 24.915691 32.797717 -0.004390 0.707979 0.131827 -0.035115 -295692.000000 0 0 1
-22.065346 1.027625 25.872391 34.019349 -0.046538 0.706683 0.112100 -0.037978 -546481.000000 0 0 1
-22.005646 2.383825 25.382891 33.678216 -0.107907 0.717140 0.092345 -0.036044 784544.000000 0 0 1
-23.165946 2.703825 24.571691 33.878307 -0.116190 0.759337 0.088637 -0.030112 -2307.740000 0 0 1
-22.927146 3.858125 23.548191 33.091637 -0.166716 0.779016 0.095499 -0.024343 210706.000000 0 0 1
-22.235346 3.486925 22.339091 31.711264 -0.155552 0.789144 0.101069 -0.025139 -529587.000000 0 0 1
-20.877646 3.306925 22.520991 30.887002 -0.157090 0.753730 0.104100 -0.021487 -1656550.000000 0 0 1
-20.252246 2.534125 21.367991 29.549387 -0.124481 0.762476 0.097832 -0.026413 -359568.000000 0 0 1
-20.051646 3.341425 20.199491 28.657513 -0.165124 0.788573 0.084364 -0.013915 216481.000000 0 0 1
-19.630946 2.524325 19.119891 27.519384 -0.127887 0.802684 0.111172 -0.024118 9645.050000 0 0 1
-19.285146 3.356625 17.857091 26.496405 -0.172326 0.831262 0.090842 -0.020740 -471378.000000 0 0 1
-17.988746 3.871825 17.749091 25.565919 -0.212002 0.803422 0.108867 -0.031340 -297387.000000 0 0 1
-17.665346 4.399825 16.539691 24.596428 -0.244099 0.833292 0.110764 -0.028901 -358550.000000 0 1 0
-16.272646 5.043325 16.351391 23.613600 -0.300539 0.805908 0.115284 -0.025426 14181.200000 0 1 0
-15.873246 6.188125 17.057291 24.108173 -0.371723 0.784797 0.108356 -0.033923 -98714.100000 0 1 0
-16.423646 7.450425 16.709091 24.585335 -0.425877 0.823529 0.113398 -0.035522 -415072.000000 0 1 0
-15.953746 8.170025 15.449491 23.663434 -0.473286 0.859410 0.067488 -0.036845 -35102.500000 0 1 0
-16.293246 7.604325 14.151091 22.881193 -0.436668 0.904016 0.109349 -0.037426 1023090.000000 0 1 0
-17.701946 7.536725 13.850691 23.706597 -0.402512 0.946835 0.078245 -0.043764 667487.000000 0 1 0
-18.046446 6.524725 12.788391 23.060555 -0.346929 0.982966 0.088525 -0.040268 -143065.000000 0 1 0
-17.756746 5.243525 13.255191 22.770522 -0.287137 0.949462 0.090381 -0.029879 178015.000000 0 1 0
-17.945446 4.204025 12.329691 22.175079 -0.230117 0.981212 0.065203 -0.033874 61562.000000 0 1 0
-17.602946 2.827725 12.958291 22.040350 -0.159279 0.942293 0.065950 -0.004294 128343.000000 0 1 0
-18.491346 2.554925 14.046191 23.361357 -0.137299 0.925722 0.086278 -0.022463 525191.000000 0 1 0
-18.240446 1.226425 14.406091 23.275597 -0.067136 0.903410 0.085172 -0.011107 -782074.000000 0 1 0
-19.441146 0.598725 15.026191 24.578508 -0.030787 0.913025 0.119014 -0.019717 -603465.000000 0 1 0
-20.481246 0.163125 14.145291 24.891711 -0.007964 0.966391 0.127567 -0.023720 -194953.000000 0 1 0
-21.665146 0.164025 14.868791 26.277108 -0.007571 0.969338 0.124173 -0.027830 -925418.000000 0 0 1
-22.900346 0.024525 13.966991 26.823558 -0.001071 1.023127 0.126138 -0.021703 -788966.000000 0 0 1
-22.861046 -1.172875 13.186991 26.417793 0.051260 1.048155 0.142412 -0.039861 780814.000000 0 0 1
-24.157946 -1.419275 12.663691 27.312813 0.058682 1.088682 0.151264 -0.029830 393156.000000 0 0 1
-24.055646 -2.678975 11.756491 26.908476 0.110909 1.118640 0.155762 -0.040861 -98872.200000 0 0 1
-23.838646 -3.840975 12.450691 27.167146 0.159751 1.094715 0.132155 -0.033000 306684.000000 0 0 1
-23.691646 -4.923775 11.628591 26.847007 0.204911 1.122819 0.131887 -0.031560 -78121.900000 0 0 1
-23.559646 -6.304275 12.326191 27.326466 0.261462 1.102831 0.119489 -0.024753 -300501.000000 0 0 1
-24.759546 -6.742775 12.890991 28.717203 0.265883 1.105269 0.128642 -0.021700 -115303.000000 0 0 1
-24.718146 -8.084675 13.312991 29.216167 0.316107 1.097669 0.130627 -0.025878 -61251.200000 0 0 1
-25.604356 -8.262575 14.548991 30.586375 0.312152 1.075072 0.125372 -0.014922 -150611.000000 0 0 1
-26.961006 -7.950575 14.360291 31.564623 0.286764 1.098481 0.149214 -0.026528 -118387.000000 0 0 1
-27.704956 -8.318775 15.520291 32.827519 0.291698 1.078350 0.135280 -0.010512 -641352.000000 0 0 1
-29.091216 -7.646975 15.576791 33.873463 0.257047 1.092967 0.149407 -0.020914 -50768.600000 0 0 1
-30.055576 -8.043375 14.600491 34.368704 0.261489 1.132034 0.130020 -0.022321 656501.000000 0 0 1
-30.523286 -9.382675 14.445191 35.048097 0.298226 1.145980 0.128429 -0.029689 -255351.000000 0 0 1
-31.098156 -10.064575 15.719291 36.269644 0.313000 1.122533 0.127017 -0.019841 -18175.000000 0 0 1
-30.023836 -10.455975 16.593591 35.862311 0.335120 1.089755 0.119143 -0.010052 667035.000000 0 0 1
-30.416956 -11.120475 17.758491 36.935351 0.350505 1.069230 0.102330 -0.001658 -373239.000000 0 0 1
-29.225666 -11.165775 18.716891 36.457318 0.364940 1.031664 0.112320 -0.003947 -354924.000000 0 0 1
-28.213686 -12.008675 18.294791 35.706018 0.402407 1.032851 0.094508 -0.009970 -128100.000000 0 0 1
-27.060866 -11.958175 19.141491 35.237552 0.416097 0.996537 0.092890 -0.013467 621580.000000 0 0 1
-25.874986 -12.800075 18.596091 34.339065 0.459390 0.998524 0.084017 -0.007400 -201871.000000 0 0 1
-25.177486 -12.303775 17.485291 33.030653 0.454552 1.012944 0.078888 -0.002807 292119.000000 0 0 1
-24.346646 -13.376575 16.985491 32.560694 0.502399 1.022005 0.078569 -0.017339 207854.000000 0 0 1
-23.868346 -13.084675 15.516691 31.331683 0.501462 1.052686 0.086514 -0.017413 -287862.000000 0 0 1
-23.015046 -11.968475 15.332191 30.133251 0.479542 1.036991 0.081187 -0.021132 82273.800000 0 0 1
-22.685146 -11.923775 13.919891 29.164286 0.483933 1.073225 0.088615 -0.015199 -185844.000000 0 0 1
-21.374746 -11.191975 13.619891 27.706344 0.482355 1.056893 0.083041 -0.023456 -696482.000000 0 0 1
-21.385546 -9.765575 13.774191 27.247685 0.428365 1.040814 0.087266 -0.026347 236644.000000 0 0 1
-20.227946 -9.004175 13.404391 25.882864 0.418801 1.026418 0.079022 -0.025189 616466.000000 0 0 1
-19.629846 -9.196375 11.920191 24.738535 0.438123 1.068035 0.090412 -0.020186 -423362.000000 0 1 0
-18.809346 -10.283775 11.714791 24.429160 0.500335 1.070664 0.070444 -0.026749 10391.500000 0 1 0
-18.684246 -10.461775 10.353091 23.785211 0.510431 1.120453 0.084209 -0.020447 -885674.000000 0 1 0
-18.058946 -11.823375 9.919391 23.755253 0.579679 1.140031 0.062630 -0.007205 388547.000000 0 1 0
-16.658046 -12.001175 9.896891 22.791822 0.624315 1.121613 0.073528 -0.021211 87502.200000 0 1 0
-15.993046 -11.800275 11.088791 22.759290 0.635672 1.061892 0.072200 -0.025624 170447.000000 0 1 0
-14.426846 -12.027475 10.972691 21.753022 0.694947 1.042085 0.071046 -0.027467 1260200.000000 0 1 0
-14.195246 -13.432275 10.913591 22.383866 0.757789 1.061498 0.071235 -0.026135 -445161.000000 0 1 0
-12.846446 -13.765575 10.930391 21.771442 0.819923 1.044827 0.075981 -0.024897 -501133.000000 0 1 0
-12.479246 -15.311775 10.876891 22.549696 0.886970 1.067459 0.088442 -0.025135 -7224.140000 0 1 0
-12.511146 -15.779875 9.561391 22.292452 0.900428 1.127514 0.067248 -0.025396 -72613.700000 0 1 0
-12.185646 -17.155475 9.461291 23.071981 0.953187 1.148258 0.077959 -0.020691 221517.000000 0 1 0
-12.818946 -17.965075 8.288791 23.574845 0.951035 1.211522 0.066630 -0.010602 679460.000000 0 1 0
-12.039346 -17.701875 7.062591 22.542901 0.973540 1.252135 0.052131 -0.019011 506598.000000 0 1 0
-12.483146 -18.422875 5.942291 23.033499 0.975270 1.309861 0.037048 -0.010619 -125099.000000 0 1 0
-11.599246 -18.130075 4.685491 22.027164 1.001640 1.356444 0.042686 -0.017182 118230.000000 0 1 0
-11.878146 -19.065675 3.624091 22.753557 1.013628 1.410839 0.056392 -0.016160 336471.000000 0 1 0
-11.113846 -18.721575 2.485191 21.913263 1.035068 1.457141 0.071700 -0.035592 220785.000000 0 1 0
-11.268046 -19.744175 1.362391 22.774051 1.052198 1.510939 0.080626 -0.024984 111059.000000 0 1 0
-11.030246 -21.107575 1.774491 23.881894 1.089254 1.496425 0.066858 -0.028901 -280267.000000 0 1 0
-11.422646 -22.067175 0.806191 24.861355 1.093144 1.538363 0.067195 -0.023217 -229470.000000 0 1 0
-10.737346 -22.047375 -0.592209 24.530145 1.117593 1.594941 0.083125 -0.020531 -117822.000000 0 1 0
-10.847446 -20.899175 -1.422009 23.589504 1.092035 1.631114 0.091758 -0.037624 1119880.000000 0 1 0
-11.964346 -20.831375 -2.370809 24.139438 1.049456 1.669168 0.110609 -0.032624 1457340.000000 0 1 0
-13.272946 -20.147075 -1.917809 24.202349 0.988258 1.650120 0.133387 -0.027829 364257.000000 0 1 0
-14.088946 -20.755875 -0.932109 25.103258 0.974445 1.607936 0.135145 -0.017951 -28136.400000 0 0 1
-15.245446 -20.017675 -0.653609 25.170580 0.919913 1.596766 0.156302 -0.003785 29346.200000 0 0 1
27.070254 -19.627575 -3.370109 33.606517 -0.627348 1.671247 0.101755 -0.042731 768361.000000 0 0 1
25.764654 -19.876075 -2.812909 32.661724 -0.657087 1.657026 0.104247 -0.045023 897133.000000 0 0 1
25.720954 -21.190675 -2.358609 33.409209 -0.689126 1.641453 0.091606 -0.035342 395250.000000 0 0 1
24.374054 -21.658575 -1.709509 32.651352 -0.726476 1.623177 0.082601 -0.032271 364200.000000 0 0 1
23.324354 -21.875375 -2.608909 32.083702 -0.753352 1.652202 0.088779 -0.044075 -509376.000000 0 0 1
22.201254 -22.385075 -1.918309 31.585870 -0.789521 1.631567 0.064434 -0.034838 -234100.000000 0 0 1
21.267754 -23.030375 -2.943909 31.486221 -0.825167 1.664431 0.073745 -0.040151 12505.200000 0 0 1
20.360654 -22.165675 -3.615409 30.314099 -0.827817 1.690346 0.073237 -0.047758 224213.000000 0 0 1
19.543654 -22.862775 -4.566409 30.422245 -0.863508 1.721467 0.081826 -0.038509 107102.000000 0 0 1
18.518654 -22.007375 -5.314009 29.248997 -0.871272 1.753493 0.068475 -0.019768 82942.500000 0 0 1
17.481654 -21.331275 -4.600109 27.960553 -0.884259 1.736069 0.071483 -0.018923 451298.000000 0 0 1
17.889354 -20.303875 -3.760609 27.320661 -0.848533 1.708882 0.058907 -0.024209 -524240.000000 0 0 1
16.763054 -19.801775 -2.839109 26.099249 -0.868313 1.679793 0.068985 -0.011210 37579.000000 0 0 1
16.341754 -20.702175 -1.840309 26.438981 -0.902568 1.640459 0.069203 -0.020131 204134.000000 0 0 1
15.285854 -20.079575 -1.119809 25.260654 -0.920125 1.615141 0.071620 -0.009931 -117321.000000 0 0 1
14.995054 -20.740975 0.204591 25.594561 -0.944822 1.562803 0.067709 -0.015400 343883.000000 0 0 1
14.279354 -22.011275 0.110191 26.237537 -0.995315 1.566597 0.084787 -0.023772 463687.000000 0 0 1
13.626954 -22.394075 1.315791 26.247281 -1.024145 1.520645 0.073629 -0.015833 399541.000000 0 0 1
12.577854 -23.536075 1.288791 26.717227 -1.080003 1.522539 0.079806 -0.023262 301595.000000 0 0 1
13.113254 -24.791275 1.531391 28.087540 -1.084261 1.516247 0.073574 -0.018060 -130120.000000 0 0 1
12.064154 -25.715405 1.496691 28.444085 -1.132139 1.518153 0.065519 -0.011970 20158.300000 0 0 1
12.368654 -27.043485 2.229391 29.821198 -1.141837 1.495968 0.075727 -0.016271 25330.600000 0 0 1
12.201254 -26.953145 3.671691 29.813150 -1.145713 1.447326 0.084843 -0.021899 -9484.090000 0 0 1
12.637254 -28.142755 4.259791 31.142586 -1.148740 1.433583 0.081971 -0.021524 -153163.000000 0 0 1
12.137854 -28.430155 5.667891 31.428112 -1.167287 1.389460 0.088495 -0.030246 -282024.000000 0 0 1
12.702454 -29.583115 6.178391 32.782397 -1.165220 1.381196 0.078585 -0.031106 -193690.000000 0 0 1
12.487854 -29.678225 7.606991 33.084889 -1.172510 1.338797 0.080168 -0.029733 70188.600000 0 0 1
12.941054 -31.049215 8.097391 34.599023 -1.175899 1.334570 0.078333 -0.028690 224577.000000 0 0 1
12.517154 -31.310005 9.449291 35.018348 -1.190478 1.297571 0.073956 -0.018582 431925.000000 0 0 1
11.557654 -32.353795 9.673291 35.692016 -1.227698 1.296343 0.068496 -0.011040 512308.000000 0 0 1
11.222954 -32.433225 11.221291 36.107979 -1.237660 1.254793 0.076337 -0.011447 241100.000000 0 0 1
12.310154 -33.001995 11.957091 37.197360 -1.213769 1.243536 0.073607 -0.019094 559486.000000 0 0 1
11.995854 -33.362425 13.348991 37.883340 -1.225629 1.210693 0.083637 -0.016811 5180.960000 0 0 1
11.140854 33.178218 13.571791 37.538065 1.246838 1.200869 0.086188 -0.014895 166933.000000 0 0 1
11.800954 32.034252 13.106191 36.568129 1.217837 1.204238 0.089594 -0.016468 143786.000000 0 0 1
10.859954 30.986420 13.159391 35.373244 1.233699 1.189617 0.091240 -0.010488 176204.000000 0 0 1
10.898754 29.959850 11.954291 34.048209 1.221900 1.212052 0.085557 -0.017625 110518.000000 0 0 1
10.394854 30.473480 10.709091 33.931853 1.242062 1.249701 0.072122 -0.014363 481599.000000 0 0 1
11.345454 31.298520 10.040791 34.772607 1.223037 1.277869 0.051676 -0.009656 386648.000000 0 0 1
10.738754 31.679180 8.670991 34.555425 1.243968 1.317155 0.036032 -0.008705 -161935.000000 0 0 1
9.556554 32.415359 8.852391 34.934912 1.284103 1.314606 0.044999 -0.009942 -37494.400000 0 0 1
8.773554 32.415289 7.638791 34.439474 1.306469 1.347133 0.035309 -0.009127 -71506.600000 0 0 1
9.072654 33.563890 6.609391 35.391126 1.306796 1.382941 0.048298 -0.009925 -402066.000000 0 0 1
8.703454 -32.971335 7.106191 34.833274 -1.312713 1.365348 0.051080 -0.008438 269178.000000 0 0 1
9.488754 -31.912175 6.547191 33.930651 -1.281782 1.376620 0.063846 -0.020969 29159.200000 0 0 1
8.843954 -30.508985 6.655691 32.454767 -1.288649 1.364255 0.060656 -0.017153 -33541.700000 0 0 1
8.682454 -30.089365 8.044991 32.333833 -1.289872 1.319345 0.071279 -0.020532 173526.000000 0 0 1
7.980654 -28.881035 8.260791 31.081276 -1.301195 1.301783 0.080572 -0.018149 58719.900000 0 0 1
8.667854 -27.596225 7.659491 29.922419 -1.266458 1.311937 0.095014 -0.026671 -29873.300000 0 0 1
9.638554 -27.015775 8.492891 29.914595 -1.228099 1.282932 0.091963 -0.033971 90764.000000 0 0 1
10.422554 -25.901955 8.011691 29.046998 -1.188236 1.291355 0.097467 -0.042368 443658.000000 0 0 1
9.743054 -24.710575 7.222191 27.526345 -1.195225 1.305315 0.088995 -0.037201 -292547.000000 0 0 1
9.579554 -25.137105 5.923991 27.545155 -1.206695 1.354038 0.089921 -0.030453 -350825.000000 0 0 1
8.728654 -24.274075 5.213091 26.317227 -1.225606 1.371391 0.092318 -0.024879 109427.000000 0 0 1
8.554654 -24.704675 3.748591 26.411267 -1.237442 1.428384 0.080821 -0.016816 593945.000000 0 0 1
7.649354 -25.798625 3.483391 27.133295 -1.282551 1.442060 0.058991 -0.017898 201069.000000 0 0 1
8.157654 -27.071495 3.890891 28.540361 -1.278113 1.434041 0.056223 -0.017988 170975.000000 0 0 1
7.140054 -28.206465 3.595591 29.317457 -1.322869 1.447843 0.052133 -0.011138 -472152.000000 0 0 1
6.408354 -28.583315 4.685391 29.665229 -1.350244 1.412190 0.049988 -0.003252 -832465.000000 0 0 1
5.263154 -29.271835 4.244091 30.042527 -1.392895 1.429053 0.039833 -0.001330 -119804.000000 0 0 1
5.368854 -30.822925 4.134891 31.559066 -1.398343 1.439398 0.043152 0.004629 -680521.000000 0 0 1
6.228954 -31.365095 3.202991 32.137645 -1.374752 1.470966 0.049980 -0.002106 -463696.000000 0 0 1
6.440254 -32.681945 3.651791 33.510028 -1.376231 1.461603 0.047671 -0.003575 -260383.000000 0 0 1
7.464254 -33.405425 2.776491 34.341613 -1.350963 1.489859 0.048936 -0.007887 -441698.000000 0 0 1
7.118554 -33.605175 1.402791 34.379491 -1.362053 1.529982 0.057162 -0.007604 -552044.000000 0 0 1
7.888654 33.251803 0.722791 34.182389 1.337863 1.549650 0.051583 -0.007065 -777050.000000 0 0 1
7.300154 32.812858 -0.662309 33.621638 1.351883 1.590496 0.080849 -0.006425 636106.000000 0 0 1
6.184354 31.928588 -0.538609 32.526467 1.379472 1.587356 0.054995 -0.002552 -4237.410000 0 0 1
4.953454 32.599396 -0.395909 32.975962 1.420001 1.582803 0.059568 -0.007340 -748611.000000 0 0 1
3.798654 31.611510 -0.217809 31.839673 1.451203 1.577637 0.073921 -0.013614 -247390.000000 0 0 1
3.712654 30.656700 -1.259709 30.906374 1.450279 1.611566 0.077993 -0.011302 441079.000000 0 0 1
2.648354 29.732620 -0.986909 29.866645 1.481958 1.603846 0.071040 -0.018389 483502.000000 0 0 1
2.550154 28.595050 -2.022509 28.779693 1.481850 1.641130 0.068027 -0.010408 163683.000000 0 0 1
1.876454 28.989350 -3.235909 29.229687 1.506157 1.681730 0.070568 -0.020094 333251.000000 0 0 1
2.069254 28.076080 -4.311309 28.480440 1.497228 1.722758 0.074342 -0.033219 -486792.000000 0 0 1
1.862354 28.774930 -5.637909 29.381133 1.506165 1.763883 0.078245 -0.031020 127742.000000 0 0 1
0.525254 29.180280 -5.871809 29.769830 1.552798 1.769338 0.093599 -0.032891 181114.000000 0 0 1
0.269754 30.211990 -6.859809 30.982158 1.561868 1.794058 0.086351 -0.029428 -210288.000000 0 0 1
0.288754 29.778630 -8.358409 30.930780 1.561100 1.844428 0.096578 -0.026315 290371.000000 0 0 1
-0.875746 28.994840 -8.718509 30.289934 -1.540602 1.862762 0.106978 -0.023445 988799.000000 0 0 1
-1.069246 28.728290 -10.112309 30.474854 -1.533594 1.909034 0.112612 -0.024678 15043.800000 0 0 1
-1.256746 29.892340 -11.063709 31.898857 -1.528779 1.924993 0.093369 -0.023638 193196.000000 0 0 1
-0.033946 30.583050 -11.368709 32.627774 -1.569686 1.926699 0.090379 -0.021667 364020.000000 0 0 1
-0.149946 31.932955 -11.788509 34.039757 -1.566101 1.924437 0.078096 -0.028183 -101592.000000 0 0 1
-0.310246 32.999404 -10.653109 34.677740 -1.561395 1.883049 0.073529 -0.034826 124138.000000 0 0 1
0.821654 33.005831 -9.811509 34.443079 1.545907 1.859658 0.075362 -0.041016 -181677.000000 0 0 1
0.552854 33.863900 -8.722609 34.973608 1.554472 1.822863 0.072248 -0.028714 -646525.000000 0 0 1
1.647054 -33.532945 -7.750309 34.456327 -1.521718 1.797669 0.063943 -0.026956 -1080190.000000 0 0 1
2.465254 -32.513085 -8.195209 33.620524 -1.495118 1.817033 0.077278 -0.026861 -333869.000000 0 0 1
3.384254 -32.227485 -7.123209 33.178367 -1.466168 1.787175 0.081866 -0.028470 259039.000000 0 0 1
4.685154 -31.501855 -7.660409 32.756669 -1.423152 1.806840 0.055908 -0.025475 719344.000000 0 0 1
5.489654 -32.354295 -8.463409 33.890500 -1.402724 1.823196 0.073178 -0.024413 288649.000000 0 0 1
6.373954 -33.155575 -7.676209 34.624321 -1.380870 1.794354 0.086270 -0.012128 -1018000.000000 0 0 1
6.687654 33.351317 -8.479009 35.056079 1.372899 1.815089 0.075038 -0.011610 -244484.000000 0 0 1
5.723354 32.336877 -8.460709 33.911856 1.395619 1.822951 0.064072 -0.013814 -359561.000000 0 0 1
4.577154 32.585719 -9.243709 34.179315 1.431244 1.844654 0.071652 -0.026775 -270947.000000 0 0 1
3.775454 31.327640 -9.520409 32.959267 1.450860 1.863826 0.069096 -0.031523 -31804.600000 0 0 1
4.500754 30.519370 -10.429409 32.564725 1.424380 1.896808 0.048525 -0.019593 73653.200000 0 0 1
3.801254 29.328110 -10.658409 31.435478 1.441904 1.916710 0.053531 -0.026997 127495.000000 0 0 1
4.427554 28.401010 -11.748009 31.052155 1.416147 1.958789 0.057050 -0.027381 185457.000000 0 0 1
4.082554 28.752730 -13.066709 31.845339 1.429751 1.993599 0.065742 -0.023107 -139556.000000 0 0 1
5.259554 28.855950 -13.830809 32.428692 1.390506 2.011415 0.061601 -0.023834 -51354.600000 0 0 1
5.120654 29.286890 -15.277909 33.426898 1.397701 2.045477 0.068254 -0.016836 -81724.900000 0 0 1
4.412054 28.289140 -16.021109 32.808804 1.416080 2.080957 0.071534 -0.017147 9012.750000 0 0 1
4.112154 28.830060 -17.269209 33.857167 1.429118 2.106052 0.107127 -0.017081 -178032.000000 0 0 1
2.814854 28.246330 -17.831709 33.522357 1.471470 2.131680 0.104725 -0.026093 -184882.000000 0 0 1
3.069054 26.940710 -18.291909 32.708025 1.457366 2.164275 0.131172 -0.021800 117584.000000 0 0 1
2.077654 26.460600 -19.191509 32.753534 1.492438 2.196832 0.117969 -0.038643 133085.000000 0 0 1
2.637054 25.332860 -20.021509 32.397047 1.467074 2.236998 0.141458 -0.037076 115473.000000 0 0 1
2.926354 24.127340 -19.294809 31.031947 1.450098 2.241800 0.141554 -0.040648 -58919.300000 0 0 1
3.977254 23.446900 -19.947109 31.039698 1.402768 2.268725 0.147726 -0.031339 56907.400000 0 0 1
4.569754 22.353970 -19.044109 29.719702 1.369148 2.266324 0.140075 -0.023567 149326.000000 0 0 1
3.743154 21.241770 -18.850409 28.645452 1.396370 2.289035 0.155203 -0.019554 -122854.000000 0 0 1
4.490754 20.336670 -18.070309 27.573231 1.353463 2.285451 0.134188 -0.011129 466036.000000 0 0 1
3.684354 19.038670 -17.731709 26.276585 1.379640 2.311504 0.127124 -0.021533 280254.000000 0 0 1
2.783154 19.214570 -16.655509 25.580298 1.426951 2.279838 0.129118 -0.025395 -207953.000000 0 0 1
1.985454 18.062170 -16.435309 24.501090 1.461313 2.306082 0.095130 -0.015972 -58170.900000 0 1 0
2.545454 16.947870 -15.536709 23.132206 1.421717 2.307228 0.064723 -0.006178 597427.000000 0 1 0
3.719754 16.272370 -16.044409 23.152746 1.346064 2.336412 0.079317 -0.011388 507465.000000 0 1 0
3.405454 15.100370 -16.774709 22.825625 1.348986 2.396326 0.091963 -0.022161 33163.500000 0 1 0
3.282254 15.342370 -18.331809 24.129167 1.360039 2.433704 0.107323 -0.022937 1010650.000000 0 1 0
4.488154 15.947970 -18.882909 25.120619 1.296467 2.421417 0.110808 -0.020272 808391.000000 0 0 1
4.355554 16.154170 -20.295509 26.302771 1.307435 2.452166 0.110197 -0.030864 -312700.000000 0 0 1
4.511254 14.995870 -21.360009 26.485421 1.278575 2.508974 0.108135 -0.034091 421069.000000 0 0 1
3.511954 13.962870 -21.420009 25.809152 1.324387 2.549794 0.102822 -0.026726 395888.000000 0 0 1
2.293154 14.492170 -21.969609 26.418654 1.413863 2.552769 0.106514 -0.032964 630363.000000 0 0 1
1.428054 13.276570 -22.549809 26.206879 1.463646 2.606956 0.102653 -0.025235 392333.000000 0 0 1
0.797254 12.431570 -21.600109 24.934800 1.506753 2.618470 0.106028 -0.023330 8380.220000 0 1 0
-0.065446 11.552970 -22.296009 25.111499 -1.565132 2.663514 0.066295 -0.015272 -8.148620 0 0 1
-0.840246 10.618770 -21.327409 23.839519 -1.491833 2.678386 0.043092 -0.009909 -490570.000000 0 1 0
-1.850046 11.221770 -20.520309 23.461327 -1.407404 2.635497 0.040765 -0.008263 60850.800000 0 1 0
-2.330246 10.389970 -19.495509 22.213878 -1.350169 2.641686 0.026518 -0.001727 544589.000000 0 1 0
-3.312046 9.256670 -19.993109 22.279587 -1.227189 2.684577 0.024171 -0.003015 -14951.400000 0 1 0
-2.646046 8.186670 -20.659109 22.379050 -1.258181 2.746979 0.018441 -0.003964 41013.700000 0 1 0
-3.649246 7.344170 -21.214309 22.744246 -1.109640 2.772716 0.017753 0.009726 288588.000000 0 1 0
-3.105246 6.129070 -21.937909 22.988690 -1.101849 2.838076 0.022498 -0.001203 -583655.000000 0 1 0
-2.484946 5.234770 -21.115209 21.895886 -1.127593 2.873757 0.025143 0.000067 -353603.000000 0 1 0
-2.176746 4.088870 -21.916209 22.400386 -1.081598 2.933300 0.046412 -0.008020 -774155.000000 0 1 0
-1.429046 2.999470 -21.146109 21.405534 -1.126180 2.985746 0.044385 -0.006781 2109.060000 0 1 0
-0.044146 3.277970 -21.074909 21.328357 -1.557330 2.987276 0.041527 -0.005675 -277614.000000 0 1 0
0.614054 2.318370 -20.262209 20.403652 1.311877 3.023777 0.038936 -0.002922 1282010.000000 0 1 0
2.189854 2.403770 -20.303409 20.562149 0.831932 2.982786 0.043413 -0.008687 1112830.000000 0 1 0
2.809554 2.133370 -21.540109 21.827074 0.649444 2.979259 0.060388 -0.004158 270456.000000 0 1 0
4.219654 2.132670 -21.295709 21.814238 0.467969 2.923121 0.073659 -0.012814 761817.000000 0 1 0
5.018854 1.302070 -22.359609 22.952917 0.253839 2.913728 0.077248 -0.012553 1680680.000000 0 1 0
6.476554 1.410570 -22.255309 23.221418 0.214447 2.852124 0.088356 -0.018353 1529190.000000 0 1 0
7.029854 0.838670 -23.386409 24.434532 0.118740 2.847636 0.085953 -0.015567 543654.000000 0 1 0
8.590454 0.686070 -23.311709 24.853619 0.079695 2.787497 0.088509 -0.026591 694480.000000 0 1 0
9.332254 1.845970 -23.322809 25.188330 0.195284 2.754306 0.089244 -0.032444 -16789.500000 0 0 1
10.734354 1.632670 -23.301709 25.707229 0.150941 2.705541 0.099511 -0.030732 236981.000000 0 0 1
13.615054 -20.126875 22.689557 33.245704 -0.976043 0.819645 0.105103 -0.013203 289511.000000 0 0 1
12.755954 -21.276275 22.520257 33.504570 -1.030716 0.833681 0.090782 -0.010188 1189510.000000 0 0 1
11.543854 -21.114375 21.743757 32.432521 -1.070467 0.836007 0.085551 -0.004657 986281.000000 0 0 1
11.697154 -20.944275 20.236657 31.384843 -1.061459 0.870047 0.105832 -0.019841 -306592.000000 0 0 1
12.021054 -19.604175 19.873457 30.393811 -1.020736 0.858114 0.120209 -0.020361 -46774.400000 0 0 1
11.990954 -19.371075 18.480057 29.334861 -1.016514 0.889283 0.122560 -0.016780 60819.600000 0 0 1
12.017754 -17.878775 18.134957 28.159433 -0.978987 0.871068 0.144390 -0.033589 546193.000000 0 0 1
10.831354 -17.200375 18.550857 27.519183 -1.008813 0.831042 0.166328 -0.041699 124313.000000 0 0 1
10.862154 -15.854475 18.051557 26.366826 -0.970130 0.816698 0.178035 -0.039272 486337.000000 0 0 1
9.703254 -14.963575 18.615657 25.779923 -0.995506 0.763965 0.165705 -0.040461 953722.000000 0 0 1
8.394154 -15.448575 18.325857 25.396010 -1.073064 0.764680 0.136331 -0.029746 -273203.000000 0 0 1
7.445254 -14.552375 18.795257 24.909137 -1.097898 0.715824 0.103531 -0.023610 130293.000000 0 1 0
5.991054 -14.911475 18.368357 24.405765 -1.188761 0.718759 0.046509 -0.008462 328864.000000 0 1 0
5.710754 -14.807575 16.976657 23.239705 -1.202709 0.751739 0.031317 -0.014998 214943.000000 0 1 0
4.363454 -15.071175 16.618757 22.855265 -1.288979 0.756664 0.011037 -0.014032 101561.000000 0 1 0
3.890754 -16.580875 16.483957 23.701988 -1.340313 0.801726 0.004488 -0.008480 -576067.000000 0 1 0
2.529554 -16.563175 16.167857 23.283836 -1.419246 0.803237 0.012788 -0.007647 -562749.000000 0 1 0
1.933754 -17.841175 16.268857 24.222358 -1.462831 0.834368 0.020238 -0.011544 527767.000000 0 1 0
0.397854 -17.850375 16.044457 24.004558 -1.548512 0.838751 0.029720 -0.001411 359347.000000 0 1 0
-0.050646 -17.514075 14.745257 22.894716 1.567905 0.871020 0.040575 -0.013795 -432219.000000 0 1 0
-1.436146 -17.739775 14.684557 23.073759 1.490016 0.880951 0.034829 -0.006472 -518821.000000 0 1 0
-1.951746 -18.053675 13.293057 22.504441 1.463107 0.938888 0.033647 -0.022161 179898.000000 0 1 0
-3.301746 -18.505475 13.291457 23.022097 1.394234 0.955336 0.032486 -0.016310 325458.000000 0 1 0
-3.425246 -19.641075 12.490757 23.527073 1.398141 1.011122 0.055420 -0.028265 605847.000000 0 1 0
-4.902746 -20.094175 12.242357 24.035143 1.331484 1.036364 0.042948 -0.025710 862887.000000 0 1 0
-5.494246 -20.739075 13.381357 25.285503 1.311823 1.013126 0.048995 -0.024562 226061.000000 0 0 1
-6.857246 -21.041275 13.117857 25.726159 1.255755 1.035724 0.045360 -0.029697 346955.000000 0 0 1
-7.546446 -21.812375 14.276757 27.139535 1.237715 1.016847 0.070520 -0.032567 -1011160.000000 0 0 1
-8.916846 -21.732575 14.298057 27.499989 1.181443 1.024028 0.069990 -0.035194 -1315070.000000 0 0 1
-9.483046 -22.498275 15.333257 28.830701 1.171893 1.010027 0.074953 -0.030752 120842.000000 0 0 1
-10.970046 -22.125575 15.510357 29.162547 1.110508 1.010002 0.089399 -0.033105 -58620.700000 0 0 1
-11.069846 -20.828275 16.045557 28.527503 1.082282 0.973439 0.081399 -0.032695 -843454.000000 0 0 1
-12.377646 -20.366875 16.034957 28.725173 1.024709 0.978558 0.076885 -0.029355 -649580.000000 0 0 1
-12.566346 -19.071175 16.838857 28.375515 0.988177 0.935484 0.087507 -0.028926 -258901.000000 0 0 1
-12.685546 -19.298675 18.236757 29.426880 0.989287 0.902396 0.080355 -0.028629 -28910.000000 0 0 1
-13.045546 -18.159975 19.014357 29.351605 0.947849 0.866086 0.086312 -0.030845 -137178.000000 0 0 1
-13.623946 -18.594675 20.363257 30.757699 0.938473 0.847240 0.077021 -0.030907 386829.000000 0 0 1
-14.952746 -19.110175 20.267957 31.616032 0.906849 0.874910 0.058885 -0.023752 302257.000000 0 0 1
-15.302346 -19.712675 21.494257 32.935610 0.910694 0.859766 0.054036 -0.016132 -508734.000000 0 0 1
-16.677246 -20.333675 21.301157 33.842697 0.883872 0.889994 0.067188 -0.019638 -1326940.000000 0 0 1
-16.659846 -21.262575 20.204157 33.732114 0.906180 0.928596 0.069339 -0.026830 169273.000000 0 0 1
-17.911246 -21.523275 19.595557 34.176746 0.876739 0.960196 0.059855 -0.020629 44741.100000 0 0 1
-18.848646 -22.416675 20.412257 35.699286 0.871649 0.962118 0.065322 -0.015045 -647820.000000 0 0 1
-19.252846 -21.808575 21.640857 36.257588 0.847560 0.931209 0.055893 -0.010505 -639126.000000 0 0 1
-20.168146 -22.607675 22.328357 37.635311 0.842367 0.935666 0.073590 0.003063 -336773.000000 0 0 1
-20.825946 -21.563075 23.267267 37.948016 0.802786 0.910773 0.059117 0.005551 169231.000000 0 0 1
-21.752246 -20.617375 22.715957 37.606529 0.758620 0.922232 0.074596 0.004342 386383.000000 0 0 1
-21.791546 -19.494975 23.534667 37.534065 0.729830 0.893072 0.067699 -0.003744 698162.000000 0 0 1
-22.910846 -18.447375 23.143587 37.427772 0.677892 0.904151 0.068529 -0.003238 631244.000000 0 0 1
-22.609246 -17.741475 21.960157 36.168860 0.665342 0.918319 0.063837 -0.004939 -63956.300000 0 0 1
-23.593946 -16.784175 21.631757 36.142990 0.618320 0.929163 0.075384 -0.009631 -28683.500000 0 0 1
-23.277546 -15.976675 20.358957 34.807836 0.601510 0.946045 0.079111 -0.008102 356384.000000 0 0 1
-22.249646 -14.986075 20.440157 33.725794 0.592747 0.919687 0.083013 -0.012865 191182.000000 0 0 1
-21.800046 -14.702275 19.138957 32.522278 0.593348 0.941609 0.076650 -0.015670 31808.700000 0 0 1
-20.864346 -13.473875 18.923457 31.224405 0.573406 0.919715 0.076034 -0.022549 215969.000000 0 0 1
-20.488846 -13.539075 17.547057 30.182753 0.583932 0.950397 0.075202 -0.029389 86425.300000 0 0 1
-19.643946 -12.457375 17.145157 28.896837 0.565158 0.935616 0.082446 -0.033547 -41346.400000 0 0 1
-18.802946 -12.802975 15.879257 27.741985 0.597794 0.961378 0.069062 -0.035035 311355.000000 0 0 1
-18.134846 -11.644375 15.349157 26.458661 0.570801 0.951922 0.069737 -0.030458 -68990.300000 0 0 1
-16.825446 -11.404375 15.774257 25.729022 0.595674 0.910828 0.072485 -0.043275 -629759.000000 0 0 1
-16.206746 -10.176175 15.041057 24.340225 0.560680 0.904663 0.070941 -0.039421 468624.000000 0 1 0
-16.953246 -8.917175 15.216357 24.463566 0.484220 0.899501 0.081979 -0.037368 621615.000000 0 1 0
-16.421146 -7.885775 14.446157 23.249321 0.447699 0.900321 0.062482 -0.031937 -497518.000000 0 1 0
-16.802246 -6.514975 15.053557 23.481268 0.369897 0.874881 0.089837 -0.027197 397514.000000 0 1 0
-16.176046 -6.282175 16.326157 23.825902 0.370434 0.815881 0.078161 -0.021131 398777.000000 0 1 0
-14.812646 -5.908675 16.187957 22.723927 0.379553 0.777920 0.065838 -0.023010 -13738.600000 0 1 0
-13.994846 -5.944975 17.504757 23.186525 0.401699 0.715213 0.046844 -0.022541 -17628.800000 0 1 0
-14.027646 -7.149675 18.320457 24.156404 0.471365 0.709926 0.044289 -0.022298 175723.000000 0 1 0
-13.675746 -8.359475 17.604557 23.808135 0.548660 0.738566 0.058063 -0.022673 -293020.000000 0 1 0
-13.618146 -9.655075 18.487057 24.908746 0.616731 0.734462 0.058503 -0.026172 742433.000000 0 1 0
-14.869246 -10.115075 19.005857 26.165470 0.597360 0.757768 0.072278 -0.029969 425208.000000 0 0 1
-15.558146 -9.379775 19.980157 27.004495 0.542538 0.737900 0.057338 -0.028535 -830215.000000 0 0 1
-16.940046 -9.957075 20.371657 28.303938 0.531388 0.767359 0.069259 -0.028522 -33278.700000 0 0 1
-17.991046 -9.806675 19.466057 28.262625 0.499063 0.811024 0.089085 -0.029598 -36211.900000 0 0 1
-18.506646 -8.499575 19.328757 28.077385 0.430537 0.811501 0.081190 -0.027990 -905935.000000 0 0 1
-19.455246 -8.363475 18.140257 27.884104 0.405999 0.862476 0.109377 -0.039327 205855.000000 0 0 1
-20.772746 -8.801075 18.442757 29.139341 0.400755 0.885482 0.113907 -0.035534 111668.000000 0 0 1
-21.554946 -8.830275 17.236957 28.977614 0.388809 0.933733 0.124161 -0.022041 745625.000000 0 0 1
-23.009746 -9.354675 17.479257 30.372401 0.386142 0.957583 0.111064 -0.011054 543678.000000 0 0 1
-23.778246 -8.432375 18.235857 31.129671 0.340790 0.944926 0.110768 -0.007967 -304022.000000 0 0 1
-25.047946 -8.930875 18.491957 32.390008 0.342499 0.963176 0.099938 -0.005802 135008.000000 0 0 1
-26.115876 -7.917575 19.122257 33.322480 0.294363 0.959592 0.103629 -0.005675 694168.000000 0 0 1
-25.984696 -7.734475 20.484757 33.980168 0.289304 0.923735 0.106043 -0.013493 -184055.000000 0 0 1
-26.751496 -6.705275 20.988057 34.656915 0.245591 0.920283 0.092118 -0.016434 -1064340.000000 0 0 1
-26.685236 -6.631375 22.537757 35.553164 0.243570 0.884189 0.099386 -0.018265 -83561.200000 0 0 1
-25.559066 -6.159275 23.243477 35.092189 0.236473 0.846839 0.104551 -0.024176 -597613.000000 0 0 1
-24.431346 -6.960475 23.083367 34.324637 0.277546 0.833213 0.111411 -0.022379 -1210640.000000 0 0 1
-23.450046 -6.703675 24.231567 34.380412 0.278444 0.788645 0.121748 -0.024729 -262087.000000 0 0 1
-22.907446 -5.392175 24.125657 33.702729 0.231181 0.772974 0.113635 -0.028381 510861.000000 0 0 1
-21.840846 -5.176875 25.051727 33.636463 0.232732 0.730593 0.113793 -0.028561 377542.000000 0 0 1
-21.630946 -3.636375 25.203077 33.411318 0.166553 0.716167 0.113486 -0.029874 -183524.000000 0 0 1
-20.575546 -3.252675 26.061997 33.364063 0.156787 0.674307 0.087302 -0.032943 -181592.000000 0 0 1
-20.787046 -3.279975 27.426537 34.569849 0.156499 0.654478 0.100409 -0.045783 -440431.000000 0 0 1
-21.684846 -2.217975 28.055707 35.528505 0.101928 0.660529 0.099966 -0.042641 11318.000000 0 0 1
-22.967946 -2.243275 27.472227 35.878714 0.097361 0.698672 0.117492 -0.047900 -63260.300000 0 0 1
-23.879346 -1.341275 28.155757 36.942778 0.056110 0.704176 0.108300 -0.034373 299584.000000 0 0 1
-25.200676 -1.199075 27.419047 37.260113 0.047545 0.743828 0.102150 -0.037724 -1033950.000000 0 0 1
-25.033586 -0.542475 26.172167 36.220947 0.021666 0.763284 0.092796 -0.036942 -70181.600000 0 0 1
-26.231816 -0.227175 25.512707 36.593141 0.008660 0.799313 0.105929 -0.036495 -305913.000000 0 0 1
-27.158196 -1.341775 25.029407 36.957262 0.049366 0.826774 0.095793 -0.028707 -621526.000000 0 0 1
-28.053536 -1.841675 25.993317 38.288969 0.065555 0.824571 0.080831 -0.029972 264425.000000 0 0 1
-28.678846 -3.100775 25.714297 38.643448 0.107702 0.842734 0.079021 -0.027694 273070.000000 0 0 1
-27.707336 -4.305975 25.760157 38.076549 0.154176 0.827748 0.080464 -0.029349 49047.400000 0 0 1
-27.158726 -4.589775 27.024517 38.587394 0.167416 0.794915 0.079206 -0.033385 -883518.000000 0 0 1
-26.203556 -5.572175 26.917007 37.976318 0.209528 0.783023 0.092237 -0.042543 -482582.000000 0 0 1
-25.598786 -5.683975 28.301347 38.582012 0.218496 0.747284 0.073875 -0.033117 249526.000000 0 0 1
-26.675316 -6.112375 29.130867 39.969251 0.225251 0.754182 0.088365 -0.038164 851651.000000 0 0 1
-26.192966 -6.662275 30.345767 40.636473 0.249072 0.727616 0.081310 -0.032065 -77021.700000 0 0 1
-27.364796 -7.072475 31.278807 42.157037 0.252917 0.734808 0.088881 -0.035086 89824.600000 0 0 1
-28.097166 -8.150875 30.729317 42.428510 0.282346 0.760834 0.078169 -0.032181 143907.000000 0 0 1
-29.101876 -8.591775 31.611417 43.818027 0.287076 0.764939 0.076151 -0.033194 350352.000000 0 0 1
-30.419596 -9.134075 30.973467 44.363710 0.291704 0.797956 0.064795 -0.030756 113481.000000 0 0 1
-30.328646 -10.451075 30.405567 44.198985 0.331851 0.812171 0.067356 -0.024913 432499.000000 0 0 1
-31.393436 -10.745075 29.512617 44.407196 0.329773 0.843850 0.063966 -0.029610 -110722.000000 0 0 1
-31.043406 -12.090775 28.789887 44.031097 0.371404 0.858130 0.070236 -0.027336 309066.000000 0 0 1
-29.880786 -11.939875 28.010207 42.661384 0.380147 0.854533 0.068454 -0.019539 -444781.000000 0 0 1
-29.083726 -13.039075 27.780527 42.280471 0.421463 0.853893 0.064637 -0.019108 187543.000000 0 0 1
-27.711286 -12.604775 27.135067 40.781216 0.426889 0.842792 0.076529 -0.022382 590711.000000 0 0 1
-26.795146 -11.937575 28.012057 40.560583 0.419116 0.808447 0.078360 -0.022956 154238.000000 0 0 1
-27.110146 -10.653475 28.512727 40.760669 0.374431 0.796077 0.084988 -0.019812 -1060720.000000 0 0 1
-27.195346 -9.405075 27.583097 39.860626 0.332959 0.806556 0.073771 -0.013731 -313822.000000 0 0 1
-26.006676 -8.983875 26.974597 38.531625 0.332611 0.795309 0.082871 -0.023388 -152079.000000 0 0 1
-25.414916 -9.882975 26.006507 37.681953 0.370871 0.809089 0.074890 -0.020524 -308158.000000 0 0 1
-26.042826 -9.894175 24.612727 37.174048 0.363077 0.847186 0.087984 -0.015076 -668630.000000 0 0 1
-27.310696 -10.467775 24.553187 38.187791 0.366014 0.872441 0.076715 -0.017655 -480078.000000 0 0 1
-27.870606 -10.318475 23.240627 37.727554 0.354580 0.907126 0.090923 -0.015241 -379630.000000 0 0 1
-29.054976 -11.262275 22.992107 38.725540 0.369788 0.935123 0.085752 -0.014980 56602.000000 0 0 1
-30.332856 -10.858475 23.430927 39.837130 0.343764 0.942005 0.088115 -0.009544 -113745.000000 0 0 1
-30.502646 -10.984375 24.856567 40.852378 0.345655 0.916692 0.086516 -0.012002 -1022010.000000 0 0 1
-31.955276 -10.776775 25.300607 42.159213 0.325267 0.927145 0.063213 -0.009808 -860412.000000 0 0 1
-32.327676 -9.494175 25.013657 41.963091 0.285654 0.932177 0.076657 -0.014676 1485200.000000 0 0 1
-33.734996 -9.216175 25.345677 43.190174 0.266686 0.943647 0.066285 -0.011654 2036990.000000 0 0 1
-34.271024 -9.270175 26.830717 44.500861 0.264174 0.923633 0.055695 -0.020134 -300222.000000 0 0 1
-34.325118 -10.607075 27.366487 45.162466 0.299709 0.919829 0.048829 -0.027379 52773.500000 0 0 1
-34.896053 -10.512475 28.655927 46.361717 0.292604 0.904480 0.068280 -0.032155 -1060100.000000 0 0 1
-35.493875 -11.772175 29.304387 47.509434 0.320251 0.906110 0.085182 -0.027563 -184114.000000 0 0 1
-36.699046 -12.166175 28.703257 48.153014 0.320110 0.932181 0.060937 -0.022461 618259.000000 0 0 1
37.004293 -11.506875 29.229497 48.539565 -0.301482 0.924569 0.072005 -0.018363 857888.000000 0 0 1
35.663093 -12.025875 28.589357 47.263402 -0.325234 0.921163 0.076251 -0.015917 710499.000000 0 0 1
35.533433 -11.668675 27.254137 46.277109 -0.317291 0.941058 0.069733 -0.011589 766634.000000 0 0 1
34.262803 -12.086975 26.694507 45.084713 -0.339143 0.937138 0.071041 0.001732 1012760.000000 0 0 1
34.109323 -11.799475 25.155617 43.994075 -0.333045 0.962103 0.068146 -0.005383 167507.000000 0 0 1
33.708223 -10.431575 24.904297 43.188958 -0.300119 0.956191 0.082585 -0.020888 133459.000000 0 0 1
33.692403 -10.203675 23.526227 42.341190 -0.294068 0.981670 0.079690 -0.019670 -11179.600000 0 0 1
33.494033 -8.696275 23.364587 41.753795 -0.254028 0.976917 0.090804 -0.010619 62185.400000 0 0 1
32.166483 -8.255875 23.571977 40.724442 -0.251238 0.953520 0.089107 -0.012329 -265786.000000 0 0 1
31.942913 -7.048575 22.861547 39.908426 -0.217181 0.960817 0.085307 -0.009184 950385.000000 0 0 1
30.395243 -6.742775 22.800217 38.589969 -0.218301 0.938706 0.074821 -0.002383 758687.000000 0 0 1
29.663263 -7.573075 21.949457 37.670138 -0.249962 0.948780 0.078298 -0.003851 -957692.000000 0 0 1
28.387963 -7.027275 21.926157 36.551544 -0.242666 0.927458 0.097962 -0.020649 -1029220.000000 0 0 1
15.611454 -17.166375 25.397797 34.401309 -0.832801 0.740280 0.111042 -0.004063 -43332.200000 0 0 1
15.029454 -18.445275 25.462797 34.849200 -0.887088 0.751513 0.121968 -0.007021 557036.000000 0 0 1
15.986854 -19.469275 25.839377 36.087472 -0.883302 0.772711 0.098928 -0.007698 -228856.000000 0 0 1
15.419454 -20.947975 25.810217 36.643479 -0.936262 0.789275 0.101027 -0.013235 390106.000000 0 0 1
14.370654 -21.315275 26.686657 37.054478 -0.977600 0.766705 0.086716 -0.017192 1594620.000000 0 0 1
13.125654 -20.563775 26.527737 36.039874 -1.002697 0.743556 0.093615 -0.015002 908770.000000 0 0 1
12.165454 -20.561275 27.761537 36.626046 -1.036526 0.710597 0.077514 -0.010892 189157.000000 0 0 1
12.735754 -19.820175 28.813607 37.219118 -0.999665 0.685407 0.077775 -0.021936 72467.400000 0 0 1
11.873954 -19.254075 29.808217 37.419781 -1.018189 0.649163 0.070053 -0.016766 81136.100000 0 0 1
11.706754 -17.752075 29.570957 36.422874 -0.987801 0.623433 0.097185 -0.014868 -684365.000000 0 0 1
12.859554 -17.059875 29.789567 36.658230 -0.924874 0.622146 0.083777 -0.002611 -1067130.000000 0 0 1
12.536254 -15.743575 29.407147 35.634227 -0.898329 0.600152 0.104444 -0.005042 -237846.000000 0 0 1
13.689454 -14.759675 29.521957 35.732270 -0.822999 0.598470 0.084949 -0.002294 -477197.000000 0 0 1
13.378154 -13.419975 29.279517 34.876366 -0.786959 0.574391 0.130033 -0.008072 -4453.900000 0 0 1
14.414254 -12.568475 29.722427 35.343457 -0.717099 0.571742 0.111763 -0.004265 11551.700000 0 0 1
14.036754 -11.058775 29.478397 34.471770 -0.667285 0.544964 0.108062 -0.003237 100738.000000 0 0 1
14.282454 -10.612975 28.125697 33.281806 -0.639056 0.564087 0.157306 -0.013747 588302.000000 0 0 1
15.616854 -10.252875 27.762047 33.462499 -0.580949 0.592322 0.134329 -0.015369 200874.000000 0 0 1
15.672054 -8.869375 26.977087 32.435202 -0.514996 0.588593 0.133257 -0.013426 -123017.000000 0 0 1
15.722954 -7.702675 27.746577 32.808765 -0.455535 0.562909 0.140320 -0.025096 -342534.000000 0 0 1
17.012454 -7.507875 28.253437 33.823786 -0.415609 0.582095 0.129934 -0.028047 -782095.000000 0 0 1
17.653754 -6.305775 27.623857 33.384058 -0.343067 0.596233 0.128902 -0.032999 2022300.000000 0 0 1
19.131554 -6.197275 27.672087 34.207704 -0.313263 0.628444 0.111094 -0.044642 2549830.000000 0 0 1
19.705554 -5.043975 27.051627 33.845843 -0.250587 0.644733 0.111262 -0.037686 953904.000000 0 0 1
21.262754 -4.960975 26.892437 34.639850 -0.229217 0.681952 0.107568 -0.033948 -108010.000000 0 0 1
21.652854 -5.771675 25.770277 34.150630 -0.260498 0.715743 0.113636 -0.028176 812921.000000 0 0 1
22.997254 -5.689775 25.264677 34.634537 -0.242541 0.753257 0.098928 -0.028953 1407520.000000 0 0 1
24.159354 -5.929075 26.305947 36.205403 -0.240659 0.757472 0.072007 -0.024083 -541258.000000 0 0 1
24.508554 -4.777575 27.014907 36.787222 -0.192521 0.746079 0.088386 -0.027593 323944.000000 0 0 1
25.342254 -5.084775 28.158307 38.222704 -0.198015 0.742633 0.086568 -0.027672 118009.000000 0 0 1
25.782954 -3.851275 28.969537 38.972133 -0.148277 0.732747 0.086242 -0.018181 149113.000000 0 0 1
26.703954 -3.123275 28.141197 38.920214 -0.116430 0.762591 0.075045 -0.008593 415109.000000 0 0 1
26.990454 -1.801875 28.589797 39.358708 -0.066661 0.757741 0.066282 -0.010394 179406.000000 0 0 1
28.082854 -1.135775 27.691927 39.456046 -0.040422 0.792816 0.061209 -0.006002 285201.000000 0 0 1
29.409054 -1.561175 27.868967 40.546382 -0.053035 0.812982 0.073496 -0.005730 -429659.000000 0 0 1
30.275754 -0.800775 27.069357 40.620348 -0.026443 0.841428 0.061211 0.014703 1193020.000000 0 0 1
31.765954 -0.765475 27.617017 42.099424 -0.024093 0.855296 0.052310 0.005753 1120700.000000 0 0 1
32.029454 0.096325 28.733817 43.029379 0.003007 0.839585 0.047415 0.013625 -1268700.000000 0 0 1
33.370954 0.193025 28.980237 44.198552 0.005784 0.855710 0.055923 0.006714 -1167560.000000 0 0 1
33.696554 1.392525 29.903867 45.073697 0.041302 0.845384 0.070588 -0.016668 -129229.000000 0 0 1
33.805254 2.548025 29.130657 44.697683 0.075231 0.860938 0.050757 -0.007617 73281.500000 0 0 1
34.144254 3.629625 29.959067 45.569178 0.105905 0.853378 0.044249 -0.011474 -226902.000000 0 0 1
33.926754 4.975925 29.213597 45.046851 0.145628 0.865163 0.045226 -0.004087 -83434.100000 0 0 1
33.950354 6.147025 30.020647 45.734580 0.179119 0.854746 0.057898 -0.009294 -372707.000000 0 0 1
32.791354 6.300925 30.770347 45.406925 0.189838 0.826224 0.048356 -0.009081 -824237.000000 0 0 1
32.988754 7.166725 32.085509 46.573595 0.213923 0.810797 0.028763 -0.009742 -122266.000000 0 0 1
33.565754 6.437925 33.155603 47.617232 0.189499 0.800575 0.037577 -0.006167 339545.000000 0 0 1
33.699754 7.284925 -33.539779 48.100523 0.212896 2.342399 0.051898 -0.017468 -376467.000000 0 0 1
33.922954 6.486425 -32.240049 47.246813 0.188930 2.321803 0.083976 -0.027175 365845.000000 0 0 1
32.742354 5.816025 -31.777659 45.996821 0.175796 2.333483 0.063923 -0.019972 559013.000000 0 0 1
32.497654 4.529725 -32.241069 46.001114 0.138494 2.347421 0.076497 -0.025634 -86793.600000 0 0 1
33.386154 3.486625 -31.524799 46.050025 0.104056 2.324820 0.086188 -0.034881 -10187.600000 0 0 1
33.224954 2.244925 -32.214019 46.332281 0.067465 2.339609 0.087579 -0.036969 283321.000000 0 0 1
33.591654 1.260825 -31.316469 45.942466 0.037516 2.320805 0.076154 -0.035634 -212813.000000 0 0 1
33.777154 -0.119375 -31.918319 46.472459 -0.003534 2.327904 0.082065 -0.050340 -924880.000000 0 0 1
35.026454 -0.242975 -32.529249 47.802339 -0.006937 2.319234 0.087888 -0.036950 -267790.000000 0 0 1
35.714154 -1.460475 -32.259159 48.148594 -0.040871 2.304994 0.092418 -0.030800 649640.000000 0 0 1
36.487654 -1.531375 -30.875729 47.822638 -0.041945 2.272644 0.092844 -0.029860 -239514.000000 0 0 1
35.627454 -1.528875 -29.774909 46.456411 -0.042887 2.266494 0.078488 -0.032303 128180.000000 0 0 1
36.407354 -1.521075 -28.599749 46.322292 -0.041755 2.236240 0.089343 -0.032707 -78192.100000 0 0 1
35.524054 -1.174775 -27.426909 44.895143 -0.033058 2.228006 0.096054 -0.033567 -293789.000000 0 0 1
35.456354 0.216625 -27.267759 44.729528 0.006110 2.226370 0.092368 -0.031276 554975.000000 0 0 1
34.579154 0.534625 -26.193779 43.383382 0.015460 2.219024 0.100363 -0.030096 145377.000000 0 0 1
33.830054 1.899725 -26.210539 42.837762 0.056096 2.229201 0.086208 -0.027577 606981.000000 0 0 1
32.976954 2.106525 -27.354749 42.897544 0.063792 2.262274 0.101260 -0.041309 534110.000000 0 0 1
32.035454 3.107125 -27.114429 42.084639 0.096688 2.270882 0.077678 -0.023996 -63841.000000 0 0 1
31.120754 3.538825 -28.289959 42.206000 0.113226 2.305386 0.093296 -0.032002 40734.400000 0 0 1
30.166654 4.540225 -27.941749 41.368853 0.149384 2.312343 0.077940 -0.027832 683729.000000 0 0 1
29.427654 4.945725 -29.105529 41.684276 0.166508 2.343729 0.074606 -0.032339 -112172.000000 0 0 1
28.180954 5.791125 -28.796179 40.705322 0.202676 2.356652 0.067361 -0.026329 -424821.000000 0 0 1
27.072054 5.040125 -28.351709 39.523643 0.184067 2.370767 0.093600 -0.026765 -199508.000000 0 0 1
26.112654 5.923225 -27.863119 38.643353 0.223059 2.376088 0.101321 -0.030581 402012.000000 0 0 1
24.688354 5.268025 -27.683539 37.465254 0.210228 2.402251 0.129198 -0.024205 671246.000000 0 0 1
23.942654 4.989425 -28.818729 37.797674 0.205450 2.437883 0.140934 -0.025720 319535.000000 0 0 1
22.670254 4.413725 -28.624579 36.780265 0.192287 2.462685 0.133637 -0.013714 541706.000000 0 0 1
21.710154 4.196325 -29.826129 37.128667 0.190934 2.503642 0.129326 -0.013348 338725.000000 0 0 1
21.895654 2.915125 -30.359389 37.544775 0.132359 2.512596 0.127229 -0.023710 253548.000000 0 0 1
20.977454 2.691325 -31.415679 37.871384 0.127599 2.549073 0.091759 -0.020881 -122654.000000 0 0 1
21.302154 3.387225 -32.739459 39.206214 0.157688 2.559034 0.093813 -0.019693 -402752.000000 0 0 1
22.561354 3.076925 -33.270879 40.316666 0.135544 2.541421 0.118526 -0.021196 -408041.000000 0 0 1
22.839154 3.766825 33.356931 40.601734 0.163457 0.606647 0.093751 -0.024232 -698611.000000 0 0 1
24.283254 3.662125 32.894815 41.050658 0.149681 0.641294 0.087919 -0.022673 -545597.000000 0 0 1
24.569754 2.305925 32.710564 40.975250 0.093578 0.646328 0.103664 -0.023127 113216.000000 0 0 1
25.945754 2.043825 32.436934 41.587427 0.078611 0.676179 0.102198 -0.020783 162831.000000 0 0 1
26.245054 0.534925 32.409644 41.707003 0.020379 0.680784 0.081164 -0.015167 -469934.000000 0 0 1
25.763054 -0.203575 31.289127 40.531296 -0.007902 0.688855 0.076244 -0.008748 1163160.000000 0 0 1
24.336554 -0.417275 31.295037 39.646203 -0.017144 0.661034 0.080725 -0.014777 877688.000000 0 0 1
23.721854 -1.520275 32.216762 40.036950 -0.064000 0.635667 0.070902 -0.026967 -233244.000000 0 0 1
24.093154 -2.873275 31.852638 40.041558 -0.118696 0.650981 0.060420 -0.029517 23386.200000 0 0 1
23.459954 -3.834775 32.624616 40.366330 -0.162028 0.629684 0.069646 -0.040379 -369418.000000 0 0 1
23.473054 -5.231675 32.039670 40.061143 -0.219296 0.643886 0.074401 -0.036770 52280.400000 0 0 1
24.732554 -5.822575 31.802125 40.705980 -0.231211 0.674108 0.064506 -0.035737 -156837.000000 0 0 1
24.516954 -7.195675 31.689757 40.707487 -0.285481 0.678564 0.078307 -0.040384 -743496.000000 0 0 1
25.816854 -7.930975 31.424017 41.435241 -0.298050 0.709959 0.061842 -0.031808 -462093.000000 0 0 1
26.276554 -7.532775 30.181017 40.719698 -0.279186 0.735956 0.080865 -0.031086 -1020190.000000 0 0 1
27.529954 -8.016175 29.850967 41.391276 -0.283346 0.765278 0.058524 -0.014650 -637176.000000 0 0 1
27.940054 -7.696375 28.429227 40.596820 -0.268794 0.795004 0.066647 -0.025220 28845.300000 0 0 1
27.077254 -8.264075 27.449707 39.432969 -0.296224 0.800831 0.068742 -0.021481 -47094.800000 0 0 1
27.489954 -7.968075 26.149147 38.768102 -0.282123 0.830507 0.085487 -0.020390 78965.900000 0 0 1
26.652054 -8.820475 25.199527 37.724647 -0.319603 0.839297 0.072026 -0.015215 -432810.000000 0 0 1
25.269954 -8.658275 25.204097 36.725779 -0.330095 0.814437 0.069557 -0.019015 -775892.000000 0 0 1
24.694654 -9.606275 24.309127 35.958868 -0.370990 0.828440 0.082019 -0.021983 -217274.000000 0 0 1
23.290654 -9.202775 23.863907 34.592365 -0.376299 0.809500 0.063191 -0.018414 -82280.500000 0 0 1
22.276554 -9.369175 24.848147 34.662036 -0.398125 0.771495 0.050204 -0.016285 166567.000000 0 0 1
21.053954 -8.797975 24.425397 33.425640 -0.395822 0.751393 0.074293 -0.016079 -171838.000000 0 0 1
19.986654 -8.662675 25.486737 33.527333 -0.408983 0.707209 0.084037 -0.022809 -318978.000000 0 0 1
19.270854 -9.784275 25.984387 33.797726 -0.469808 0.693802 0.096890 -0.018954 591520.000000 0 0 1
20.030854 -10.636175 26.880347 35.169823 -0.488131 0.700839 0.072302 -0.021263 564246.000000 0 0 1
19.118254 -11.740275 27.510717 35.499032 -0.550713 0.684127 0.079131 -0.020548 208896.000000 0 0 1
18.718154 -12.787475 26.677547 35.008290 -0.599334 0.704346 0.093452 -0.016425 -314181.000000 0 0 1
17.744154 -13.614975 27.221207 35.230905 -0.654477 0.687789 0.082949 -0.009527 -429554.000000 0 0 1
18.282354 -14.717275 28.125317 36.631628 -0.677782 0.695415 0.084296 0.002827 -822014.000000 0 0 1
17.443454 -15.792175 28.127817 36.672074 -0.735755 0.696629 0.080437 -0.006278 -493075.000000 0 0 1
17.953554 -16.929175 28.789557 37.917881 -0.756040 0.708620 0.082061 -0.001785 212902.000000 0 0 1
18.834054 -17.974675 28.007417 38.239063 -0.762055 0.748913 0.090657 -0.006262 743803.000000 0 0 1
20.054554 -17.403075 27.541747 38.257026 -0.714730 0.767119 0.102374 -0.007537 481730.000000 0 0 1
20.618454 -18.147575 26.473817 38.148632 -0.721746 0.803815 0.103200 -0.001956 217888.000000 0 0 1
21.849454 -17.553175 25.749237 38.059635 -0.676792 0.827729 0.076789 -0.009075 91629.800000 0 0 1
22.985954 -17.371275 26.561167 39.186872 -0.647161 0.826019 0.061802 -0.010400 -889091.000000 0 0 1
23.965054 -16.796475 25.779837 39.000582 -0.611312 0.848630 0.062431 -0.006623 -925620.000000 0 0 1
25.241454 -16.564975 26.607377 40.242788 -0.580764 0.848417 0.076282 -0.009455 185485.000000 0 0 1
26.064354 -17.661875 26.995117 41.473229 -0.595551 0.862021 0.081064 -0.011225 542027.000000 0 0 1
27.118254 -17.965175 26.074907 41.689903 -0.585095 0.895090 0.058930 -0.016126 -54371.600000 0 0 1
27.627354 -19.375575 26.275317 42.767697 -0.611610 0.909205 0.033705 -0.013520 26870.500000 0 0 1
28.445254 -19.624575 27.414457 44.111324 -0.603920 0.900162 0.037423 -0.011134 138283.000000 0 0 1
28.834154 -20.962075 27.569677 45.065554 -0.628610 0.912502 0.033001 -0.014690 -546196.000000 0 0 1
27.842954 -21.873875 28.297807 45.326178 -0.665909 0.896542 0.047647 -0.008393 -204983.000000 0 0 1
27.738354 -21.768775 29.709867 46.108265 -0.665397 0.870623 0.050593 -0.008088 -309145.000000 0 0 1
27.034454 -22.879475 30.162717 46.520121 -0.702347 0.865342 0.077856 -0.014523 -434014.000000 0 0 1
26.728354 -22.866675 31.693387 47.347234 -0.707691 0.837420 0.065555 -0.013321 273314.000000 0 0 1
26.131954 -24.089275 32.228038 47.977272 -0.744747 0.834247 0.071655 -0.015840 433146.000000 0 0 1
25.738554 -23.921275 33.613405 48.626758 -0.748820 0.807574 0.082485 -0.011305 6186.820000 0 0 1
25.658354 -25.311465 -33.473819 49.188596 -0.778592 2.319268 0.079910 -0.017148 -281908.000000 0 0 1
24.569054 -26.162895 -33.651879 49.199435 -0.816805 2.324013 0.114141 -0.026660 -639436.000000 0 0 1
24.316954 -26.662255 32.836340 48.789500 -0.831371 0.832511 0.100926 -0.023140 -493071.000000 0 0 1
22.941354 -27.301825 32.729410 48.403612 -0.871969 0.828235 0.126003 -0.028184 -516820.000000 0 0 1
22.836554 -28.531325 33.388908 49.501151 -0.895810 0.830499 0.122352 -0.036988 464645.000000 0 0 1
21.478054 -28.935055 33.557039 49.240422 -0.932251 0.820994 0.136510 -0.043151 254391.000000 0 0 1
21.213254 -30.435815 33.874587 50.237722 -0.962098 0.830799 0.105079 -0.039789 -194020.000000 0 0 1
21.900654 -31.039155 -32.896399 50.251775 -0.956334 2.284491 0.077488 -0.042539 88827.600000 0 0 1
23.188554 -31.530785 -33.186989 51.315453 -0.936688 2.274079 0.049732 -0.026224 -107308.000000 0 0 1
23.769354 -32.471335 -32.053029 51.446734 -0.938908 2.243411 0.037591 -0.025010 -16820.300000 0 0 1
25.108754 -32.869505 -32.288529 52.472879 -0.918463 2.233610 0.025551 -0.015621 544642.000000 0 0 1
25.777054 -33.496795 -31.178429 52.522245 -0.914908 2.206350 0.018446 -0.002829 238930.000000 0 0 1
26.602354 -32.569215 -30.287849 51.824635 -0.885898 2.194973 0.023222 -0.010162 -322300.000000 0 0 1
27.108754 -33.129455 -29.075139 51.747551 -0.885016 2.167435 0.038792 -0.002111 -100157.000000 0 0 1
27.560054 -32.079605 -28.289379 50.881692 -0.861035 2.160342 0.045107 0.000006 -364349.000000 0 0 1
27.839854 -32.578325 -26.772549 50.528943 -0.863666 2.129215 0.052816 -0.006965 -53899.500000 0 0 1
29.040854 -33.220125 -26.478789 51.459442 -0.852423 2.111287 0.044500 0.003123 -205586.000000 0 0 1
30.142654 -32.398745 -26.113819 51.382777 -0.821456 2.103914 0.058200 -0.010958 436141.000000 0 0 1
-27.564366 -30.814020 9.512491 42.423879 0.841006 1.344649 0.067898 -0.010413 -100906.000000 0 0 1
-27.571696 -32.055320 10.244091 43.504980 0.860451 1.333095 0.071628 -0.016332 -928260.000000 0 0 1
-26.351486 -32.188320 10.863491 42.994234 0.884777 1.315354 0.058752 -0.014078 -995898.000000 0 0 1
-26.248366 -33.275320 12.012891 44.051483 0.902907 1.294597 0.066412 -0.019296 -77400.100000 0 0 1
-26.342176 33.194425 11.543391 43.920724 -0.899987 1.304849 0.075289 -0.008526 495154.000000 0 0 1
-27.673476 32.719525 11.297591 44.317312 -0.868758 1.313026 0.063795 -0.032623 482879.000000 0 0 1
-27.754426 31.312025 10.824891 43.219548 -0.845556 1.317638 0.065279 -0.024284 -111016.000000 0 0 1
-27.181006 31.113925 9.552091 42.404314 -0.852762 1.343584 0.088489 -0.033326 -103324.000000 0 0 1
-27.344836 29.795025 9.087891 41.449648 -0.828252 1.349749 0.102682 -0.028107 -194595.000000 0 0 1
-26.668376 29.436025 7.743991 40.467904 -0.834689 1.378247 0.079854 -0.010910 -90214.400000 0 0 1
-25.335996 29.023025 7.940091 39.335654 -0.853122 1.367545 0.067660 -0.009144 -99508.400000 0 0 1
-24.625346 28.991525 6.734491 38.629905 -0.866652 1.395567 0.047538 -0.004548 -278350.000000 0 0 1
-23.473346 27.964725 6.703091 37.120819 -0.872494 1.389225 0.077560 -0.001087 -287017.000000 0 0 1
-23.688546 26.552025 6.706691 36.209625 -0.842332 1.384502 0.088633 -0.014557 -53572.300000 0 0 1
-24.232846 25.914325 5.567291 35.913476 -0.818917 1.415149 0.066563 -0.020868 -555325.000000 0 0 1
-24.430246 24.416325 5.994591 35.056083 -0.785113 1.398952 0.089619 -0.017957 -578841.000000 0 0 1
-25.506926 24.237325 6.904391 35.856963 -0.759881 1.377032 0.088716 -0.024723 341131.000000 0 0 1
-25.737886 22.890925 7.223591 35.193941 -0.726920 1.364076 0.103120 -0.034543 -141063.000000 0 0 1
-26.264036 22.047625 6.082091 34.826558 -0.698344 1.395257 0.103602 -0.048595 -57114.800000 0 0 1
-27.609676 22.340225 5.646091 35.961899 -0.680292 1.413142 0.101744 -0.050831 1052480.000000 0 0 1
-27.911896 21.835925 4.337891 35.702925 -0.663865 1.448996 0.097335 -0.045468 -89909.000000 0 0 1
-27.636416 22.874025 3.227991 36.019612 -0.691391 1.481058 0.071278 -0.045843 -101457.000000 0 0 1
-26.227276 23.066725 3.182091 35.072347 -0.721369 1.479942 0.066643 -0.043586 437379.000000 0 0 1
-25.991086 23.735725 1.979891 35.253952 -0.740074 1.514606 0.051515 -0.034905 7563.030000 0 0 1
-24.685746 24.560825 1.972491 34.878516 -0.782862 1.514213 0.052849 -0.028583 -29484.300000 0 0 1
-24.273946 24.968125 0.675491 34.829413 -0.799495 1.551401 0.031818 -0.022020 -204364.000000 0 0 1
-23.237646 25.918925 0.772791 34.819191 -0.839890 1.548600 0.061410 -0.025253 -545413.000000 0 0 1
-22.680946 26.437225 -0.585809 34.838131 -0.861724 1.587612 0.082505 -0.022523 63512.000000 0 0 1
-22.250846 25.551825 -1.605209 33.920091 -0.854343 1.618137 0.076635 -0.028049 45909.400000 0 0 1
-21.109746 24.844625 -1.189909 32.623498 -0.866494 1.607278 0.086280 -0.043037 -623116.000000 0 0 1
-20.719946 23.720925 -2.172609 31.570851 -0.852823 1.639668 0.100540 -0.053982 -92097.800000 0 0 1
-21.622446 22.636425 -2.123309 31.375888 -0.808304 1.638521 0.079367 -0.038410 491.114000 0 0 1
-21.271146 21.617225 -3.031609 30.478791 -0.793467 1.670427 0.084853 -0.036816 256329.000000 0 0 1
-22.457846 21.017825 -3.873209 31.001702 -0.752288 1.696059 0.095028 -0.028961 355133.000000 0 0 1
-22.949046 22.055525 -4.717309 32.176978 -0.765547 1.717932 0.088899 -0.021382 938794.000000 0 0 1
-24.212746 21.709525 -5.344609 32.956416 -0.730942 1.733688 0.092790 -0.016833 1079560.000000 0 0 1
-24.280746 22.308225 -6.792609 33.665280 -0.743085 1.773960 0.100162 -0.007519 347398.000000 0 0 1
-23.444146 21.703425 -7.798609 32.885938 -0.746861 1.810218 0.100100 -0.016036 408331.000000 0 0 1
-23.229946 22.602725 -8.888209 33.608240 -0.771714 1.838446 0.093940 -0.020467 134567.000000 0 0 1
-22.481646 21.906325 -10.076109 32.967248 -0.772438 1.881407 0.090807 -0.023583 -53527.500000 0 0 1
-23.310746 21.065925 -10.822609 33.230903 -0.734856 1.902526 0.066346 -0.015226 -71869.000000 0 0 1
-22.784546 20.751125 -12.113309 33.113093 -0.738725 1.945306 0.060747 -0.004844 245675.000000 0 0 1
-23.913146 20.449325 -13.123209 34.091524 -0.707476 1.965940 0.041903 -0.015281 469111.000000 0 0 1
-24.673846 19.270025 -12.908809 33.863991 -0.663041 1.961886 0.043749 -0.005635 -250515.000000 0 0 1
-25.952656 19.255025 -13.461909 35.007418 -0.638316 1.965511 0.060198 -0.021053 55961.600000 0 0 1
-26.515546 17.793625 -13.569609 34.696131 -0.591041 1.972621 0.120057 -0.025318 6034.050000 0 0 1
-25.933756 17.180425 -14.733809 34.421095 -0.585094 2.013126 0.104074 -0.027480 82844.700000 0 0 1
-26.565696 15.999625 -15.148109 34.513612 -0.542084 2.025173 0.135338 -0.045775 -644546.000000 0 0 1
-25.792036 15.256625 -16.216609 34.073041 -0.534164 2.066825 0.134922 -0.035704 -952049.000000 0 0 1
-24.618246 14.656425 -15.847109 32.741406 -0.536992 2.076026 0.119271 -0.030027 -809220.000000 0 0 1
-24.138146 13.899925 -16.982509 32.623053 -0.522472 2.118312 0.117882 -0.041082 183603.000000 0 0 1
-23.079746 12.840025 -16.602909 31.196113 -0.507692 2.132006 0.116384 -0.028745 -124330.000000 0 0 1
-21.830346 13.260925 -16.108509 30.197685 -0.545882 2.133453 0.100685 -0.029418 -134015.000000 0 0 1
-21.089646 12.066925 -15.970009 29.076193 -0.519707 2.152259 0.096721 -0.038450 -210884.000000 0 0 1
-19.779246 12.248325 -15.160309 27.768237 -0.554455 2.148329 0.093000 -0.035871 68476.500000 0 0 1
-18.863846 13.090525 -15.852809 27.901937 -0.606653 2.175066 0.080562 -0.022716 -73291.600000 0 0 1
-17.746046 13.309225 -15.027209 26.793182 -0.643490 2.166220 0.084903 -0.012884 -237047.000000 0 0 1
-16.985246 14.592425 -15.446609 27.203587 -0.709767 2.174645 0.061576 -0.007783 133944.000000 0 0 1
-16.197446 14.355725 -16.636909 27.298916 -0.725192 2.226144 0.091850 -0.018898 402371.000000 0 0 1
-15.507246 15.554525 -17.036409 27.796711 -0.786920 2.230513 0.088166 -0.011156 470716.000000 0 0 1
-14.616146 15.361125 -18.310009 28.015215 -0.810245 2.283093 0.101970 -0.020287 1055120.000000 0 0 1
-13.483146 14.476525 -18.229109 26.901030 -0.820912 2.315340 0.098001 -0.015915 452506.000000 0 0 1
-12.789146 14.483525 -19.460609 27.423531 -0.847446 2.359772 0.116863 -0.025822 488531.000000 0 0 1
-11.645646 13.408625 -19.526409 26.394941 -0.855649 2.403537 0.104086 -0.025064 443698.000000 0 0 1
-12.064546 12.250325 -20.220009 26.541900 -0.793039 2.436906 0.116436 -0.014268 -178529.000000 0 0 1
-11.288146 11.096425 -20.035609 25.533870 -0.776834 2.472957 0.093143 -0.003851 -125630.000000 0 0 1
-11.781446 9.881325 -20.887909 25.937382 -0.697908 2.507012 0.101127 -0.017227 201492.000000 0 0 1
-11.277346 10.062525 -22.213809 26.867941 -0.728532 2.544151 0.109955 -0.024895 -41546.400000 0 0 1
-11.611046 9.025225 -23.104209 27.387507 -0.660743 2.574756 0.108710 0.000081 -97381.700000 0 0 1
-11.221946 9.225525 -24.571709 28.544899 -0.688070 2.607654 0.096866 -0.016122 -404819.000000 0 0 1
-9.905346 8.838825 -24.866709 28.188542 -0.728561 2.651218 0.091348 -0.015251 -416275.000000 0 0 1
-9.773946 8.375625 -26.212859 29.202655 -0.708506 2.685134 0.067221 -0.028271 -422813.000000 0 0 1
-9.431846 9.414025 -27.346419 30.420556 -0.784453 2.688152 0.104445 -0.032646 -1048410.000000 0 0 1
-8.157946 9.932225 -27.394569 30.259933 -0.883165 2.702901 0.089145 -0.035029 -831238.000000 0 0 1
-7.830946 10.941325 -26.493049 29.713935 -0.949597 2.671670 0.067537 -0.024869 -251488.000000 0 0 1
-6.419346 11.551025 -26.617989 29.717865 -1.063558 2.680776 0.054464 -0.024473 -30079.900000 0 0 1
-6.155646 12.289625 -27.828599 31.038005 -1.106444 2.682822 0.056732 -0.036112 517692.000000 0 0 1
-4.777746 12.638525 -27.896709 30.996541 -1.209372 2.690553 0.077118 -0.029386 98543.900000 0 0 1
-4.184246 12.737725 -29.274579 32.198735 -1.253409 2.712117 0.088419 -0.037251 -804679.000000 0 0 1
-2.795846 12.673325 -29.188719 31.943876 -1.353666 2.723217 0.092152 -0.046850 -570663.000000 0 0 1
-2.206846 12.741825 -30.483819 33.113252 -1.399301 2.740392 0.095184 -0.046189 1780270.000000 0 0 1
-0.625446 12.502425 -30.516069 32.983818 -1.520812 2.752314 0.105234 -0.058316 1187080.000000 0 0 1
-0.219946 11.258525 -29.987889 32.032425 -1.551263 2.782377 0.073274 -0.032094 131896.000000 0 0 1
1.162654 10.960025 -30.078869 32.034548 1.465110 2.790365 0.094073 -0.041980 461409.000000 0 0 1
1.643854 10.536925 -31.530109 33.284783 1.416035 2.815443 0.100241 -0.049730 -525078.000000 0 0 1
1.655054 11.532325 -32.521339 34.545205 1.428255 2.797595 0.112430 -0.055185 120373.000000 0 0 1
1.930454 10.933225 -33.784319 35.561809 1.396030 2.824086 0.110867 -0.051270 -210943.000000 0 0 1
2.171354 11.952225 32.898822 35.069973 1.391087 0.353719 0.115286 -0.058494 -693463.000000 0 0 1
3.357654 12.675925 33.007234 35.516622 1.311859 0.378159 0.105739 -0.053899 -644774.000000 0 0 1
3.581854 13.429525 31.800930 34.705634 1.310149 0.412043 0.100307 -0.043535 -575992.000000 0 0 1
5.071754 13.588225 31.576387 34.748105 1.213564 0.430583 0.101557 -0.043419 -792814.000000 0 0 1
5.763654 12.391725 31.368557 34.216384 1.135439 0.410879 0.097675 -0.044902 158673.000000 0 0 1
7.110454 12.478925 30.925807 34.098207 1.052881 0.434780 0.090830 -0.030405 564330.000000 0 0 1
7.731354 11.087525 30.618717 33.469582 0.961883 0.415729 0.070440 -0.026589 96892.100000 0 0 1
7.141454 10.528925 29.462937 32.092418 0.974804 0.407624 0.072588 -0.038917 155190.000000 0 0 1
8.088854 9.697525 28.840387 31.483956 0.875597 0.412717 0.080074 -0.035412 122649.000000 0 0 1
7.448454 8.821925 27.781037 30.084745 0.869614 0.393882 0.069658 -0.026626 -52976.400000 0 0 1
6.692354 7.755725 28.317927 30.113849 0.858865 0.347103 0.064526 -0.029718 -139634.000000 0 0 1
6.089154 7.035625 27.267527 28.811385 0.857387 0.328848 0.078760 -0.030503 68888.600000 0 0 1
5.240254 5.779725 27.698857 28.776591 0.834313 0.274546 0.099167 -0.045558 163928.000000 0 0 1
6.064454 4.786025 28.231407 29.269370 0.668117 0.267111 0.076641 -0.038535 -345047.000000 0 0 1
5.359054 4.086625 29.184667 29.952709 0.651494 0.226946 0.087309 -0.044012 -603635.000000 0 0 1
6.123754 3.081025 30.100187 30.870931 0.466146 0.223925 0.093787 -0.038212 -21697.700000 0 0 1
6.097854 1.769125 29.583227 30.256916 0.282370 0.211418 0.090880 -0.029021 99029.800000 0 0 1
7.196354 1.508025 28.720037 29.646285 0.206565 0.250629 0.096175 -0.029483 -111070.000000 0 0 1
7.305354 0.097625 28.143607 29.076457 0.013363 0.253991 0.096684 -0.025806 -112885.000000 0 0 1
7.808054 -0.819475 29.090637 30.131420 -0.104570 0.263599 0.085500 -0.032959 109562.000000 0 0 1
7.816354 -2.144775 28.556377 29.684376 -0.267804 0.276561 0.098387 -0.032076 -439654.000000 0 0 1
8.506854 -3.122375 29.528977 30.888126 -0.351776 0.297754 0.085573 -0.030880 618307.000000 0 0 1
9.919554 -3.011875 29.689417 31.447265 -0.294784 0.335937 0.086738 -0.030757 556897.000000 0 0 1
10.671754 -3.733975 28.731597 30.876101 -0.336580 0.374898 0.109348 -0.024161 259492.000000 0 0 1
12.212254 -3.450175 28.837147 31.505935 -0.275342 0.414563 0.103086 -0.020367 1334030.000000 0 0 1
13.137454 -4.387575 28.253357 31.465787 -0.322327 0.455804 0.123751 -0.025255 336840.000000 0 0 1
13.458254 -5.455775 29.119437 32.539695 -0.385140 0.462612 0.131664 -0.028345 -443549.000000 0 0 1
12.843954 -6.823675 28.720967 32.193535 -0.488354 0.468748 0.141703 -0.022816 154349.000000 0 0 1
11.437554 -6.750075 28.503687 31.445848 -0.533158 0.436026 0.140786 -0.017688 262047.000000 0 0 1
10.956654 -8.130575 28.557937 31.649808 -0.638405 0.445698 0.145734 -0.011344 -39896.000000 0 0 1
9.431554 -8.238275 28.438977 31.074086 -0.717969 0.414794 0.136752 -0.013978 -259086.000000 0 0 1
8.739754 -7.698975 29.550717 31.763224 -0.722170 0.375447 0.157869 -0.022561 429704.000000 0 0 1
7.446454 -7.242075 29.105747 30.903752 -0.771485 0.342794 0.150664 -0.027094 403026.000000 0 0 1
6.624554 -6.668175 30.227897 31.655569 -0.788680 0.301474 0.122138 -0.030836 -504482.000000 0 0 1
6.092554 -7.604675 31.136487 32.625621 -0.895349 0.303297 0.131415 -0.040542 -50292.300000 0 0 1
5.383854 -6.818975 32.117362 33.271749 -0.902466 0.264190 0.129419 -0.037546 -385701.000000 0 0 1
6.075454 -5.971475 33.198289 34.273840 -0.776767 0.251184 0.130597 -0.024515 -447838.000000 0 0 1
6.392454 -4.722975 32.643301 33.596951 -0.636318 0.238832 0.132140 -0.030211 -122789.000000 0 0 1
6.675654 -3.771575 33.622110 34.485293 -0.514267 0.224212 0.118051 -0.012463 45604.900000 0 0 1
6.939454 -2.456475 32.906646 33.719989 -0.340222 0.220082 0.117068 -0.024357 364955.000000 0 0 1
5.735354 -1.991875 32.306034 32.871594 -0.334265 0.185767 0.122343 -0.032510 284195.000000 0 0 1
5.871654 -0.766675 31.547307 32.098236 -0.129838 0.185543 0.107359 -0.033751 -430652.000000 0 0 1
4.483854 -0.433975 30.982297 31.308083 -0.096486 0.144388 0.130189 -0.044938 114116.000000 0 0 1
3.591454 -0.099575 32.048662 32.249422 -0.027718 0.111639 0.114729 -0.043155 291492.000000 0 0 1
2.400054 0.522525 31.543787 31.639277 0.214369 0.077712 0.124284 -0.049484 36896.800000 0 0 1
1.370454 0.880525 32.585691 32.626381 0.571089 0.049948 0.123830 -0.045637 -568851.000000 0 0 1
1.720754 1.908525 33.530691 33.629016 0.837090 0.076488 0.110922 -0.039428 -98328.600000 0 0 1
0.674854 2.302425 -33.449499 33.535437 1.285676 3.069987 0.093289 -0.039099 -204544.000000 0 0 1
1.135354 3.432925 -32.420879 32.621885 1.251395 3.030525 0.089026 -0.031825 585960.000000 0 0 1
2.251754 2.981525 -31.648559 31.868341 0.923953 3.024081 0.064941 -0.013409 448661.000000 0 0 1
3.003554 4.092225 -31.144939 31.555900 0.937636 2.980027 0.059373 -0.018103 13851.300000 0 0 1
4.010154 3.673725 -30.050859 30.539019 0.741642 2.962553 0.068303 -0.010561 34159.800000 0 0 1
3.401954 2.950625 -28.905899 29.254580 0.714471 2.987044 0.068180 -0.010737 589613.000000 0 0 1
4.155554 3.112425 -27.715149 28.197257 0.642848 2.956408 0.089852 -0.018693 -207491.000000 0 0 1
3.605054 2.289725 -26.545469 26.886821 0.565860 2.982075 0.071384 -0.018300 -250485.000000 0 0 1
3.872954 0.915225 -26.508449 26.805508 0.232055 2.992579 0.087585 -0.019153 117467.000000 0 0 1
3.372054 0.224925 -25.369289 25.593401 0.066604 3.009158 0.088047 -0.021083 -736152.000000 0 0 1
3.844354 -1.225975 -25.298329 25.618109 -0.308707 2.983424 0.089651 -0.022690 191935.000000 0 0 1
5.195754 -1.425275 -24.926409 25.502022 -0.267730 2.928723 0.077554 -0.023886 108058.000000 0 0 1
5.505754 -2.805775 -25.091189 25.840926 -0.471304 2.900118 0.078311 -0.022110 303511.000000 0 0 1
6.923654 -3.263975 -24.636909 25.798601 -0.440526 2.840357 0.088644 -0.032017 234770.000000 0 0 1
7.958354 -2.681775 -25.367819 26.721780 -0.325025 2.821897 0.095296 -0.025898 -799295.000000 0 0 1
9.205954 -3.113875 -24.886009 26.716273 -0.326165 2.769291 0.079828 -0.028719 46367.800000 0 0 1
-30.586336 -3.921275 18.336457 35.876538 0.127508 1.034334 0.158749 -0.015049 -298906.000000 0 0 1
-31.949606 -3.820275 18.635657 37.184130 0.119007 1.045843 0.152178 0.002418 -811102.000000 0 0 1
-32.440486 -5.084575 18.766757 37.821015 0.155471 1.051581 0.142608 -0.016679 -250217.000000 0 0 1
-33.931446 -5.148575 19.155357 39.303671 0.150586 1.061723 0.129738 -0.012351 182692.000000 0 0 1
-34.816162 -4.668875 18.131557 39.531214 0.133306 1.094305 0.125392 -0.018053 389701.000000 0 0 1
-36.142516 -4.837175 18.604957 40.936831 0.133046 1.099008 0.107311 -0.014288 399064.000000 0 0 1
-37.214956 -4.710775 17.473057 41.381784 0.125913 1.134881 0.088711 -0.012709 974382.000000 0 0 1
36.290693 -4.952975 17.814557 40.729655 -0.135643 1.118107 0.060172 -0.008129 333113.000000 0 0 1
35.481833 -4.708675 16.720257 39.505684 -0.131936 1.133781 0.042479 -0.011955 -1020870.000000 0 0 1
34.020103 -5.048675 16.917757 38.328410 -0.147327 1.113650 0.041357 -0.008111 -973616.000000 0 0 1
33.356013 -4.182775 17.793357 38.035809 -0.124747 1.083990 0.050882 -0.017935 -106788.000000 0 0 1
32.086513 -4.764175 18.003357 37.099360 -0.147402 1.064120 0.079509 -0.022558 -27524.900000 0 0 1
31.347203 -4.297475 19.315057 37.070026 -0.136243 1.022724 0.079683 -0.014241 356484.000000 0 0 1
30.536613 -3.112075 19.251757 36.232581 -0.101562 1.010617 0.085379 -0.007923 37711.200000 0 0 1
31.232843 -1.940575 19.012057 36.615770 -0.062053 1.024845 0.068984 -0.003457 -782219.000000 0 0 1
30.423683 -0.658375 19.195457 35.979154 -0.021637 1.008044 0.080754 0.009522 -16722.000000 0 0 1
31.011483 0.504525 18.607257 36.169001 0.016268 1.030426 0.067302 0.005065 134039.000000 0 0 1
30.088513 1.559625 18.742757 35.482982 0.051788 1.014296 0.072456 -0.001995 183458.000000 0 0 1
30.565063 2.833925 18.073257 35.621578 0.092453 1.038668 0.064860 -0.006868 -102947.000000 0 0 1
30.471443 2.835025 16.655657 34.841887 0.092772 1.072380 0.075532 -0.007951 -83252.000000 0 0 1
29.822863 3.978825 16.213557 34.177678 0.132632 1.076525 0.091526 -0.012317 -99232.000000 0 0 1
29.388063 4.099725 14.737757 33.131065 0.138609 1.109810 0.103703 -0.007894 -292172.000000 0 0 1
28.771363 5.354425 14.378657 32.606855 0.183998 1.114117 0.133112 -0.020677 397120.000000 0 0 1
28.336263 5.263625 12.992757 31.614258 0.183662 1.147270 0.127348 -0.017975 242798.000000 0 0 1
27.508963 6.558725 12.592357 30.956863 0.234052 1.151880 0.139584 -0.015457 -298022.000000 0 0 1
26.363063 6.784325 13.336457 30.313351 0.251877 1.115250 0.094004 -0.016731 -456060.000000 0 0 1
25.873863 8.069325 13.083657 30.095729 0.302312 1.121053 0.127039 -0.035228 1507000.000000 0 0 1
24.501763 8.514825 13.823257 29.392534 0.334463 1.081168 0.130107 -0.032480 2431240.000000 0 0 1
23.248163 7.907625 13.463757 28.005006 0.327864 1.069272 0.124819 -0.020711 1143780.000000 0 0 1
23.034063 6.564425 13.912957 27.698919 0.277628 1.044548 0.132044 -0.024897 -480703.000000 0 0 1
21.618563 6.015625 13.635757 26.258025 0.271396 1.024766 0.146239 -0.020860 -194890.000000 0 0 1
21.390363 5.862925 12.254057 25.339365 0.267522 1.066036 0.162981 -0.031315 568682.000000 0 0 1
20.301163 4.979125 12.044857 24.124831 0.240515 1.048038 0.139713 -0.027193 -10065.900000 0 1 0
19.978963 4.792625 10.557357 23.099481 0.235435 1.096133 0.144633 -0.032213 -270804.000000 0 1 0
21.011263 4.062925 9.948957 23.600048 0.191011 1.135626 0.164536 -0.036277 203077.000000 0 1 0
20.789163 3.833125 8.602257 22.822817 0.182333 1.184333 0.178769 -0.036573 -328129.000000 0 1 0
21.922563 3.188525 7.793457 23.484110 0.144432 1.232521 0.174004 -0.032995 -1178940.000000 0 1 0
22.200463 1.854725 8.118557 23.711000 0.083351 1.221330 0.165257 -0.038400 531158.000000 0 1 0
23.122863 1.212525 7.276157 24.270959 0.052390 1.266325 0.170002 -0.030261 173428.000000 0 1 0
24.627863 1.650225 7.139857 25.694988 0.066906 1.289221 0.176031 -0.033162 490283.000000 0 0 1
25.369063 1.268025 8.340057 26.734880 0.049942 1.253547 0.169231 -0.018346 633333.000000 0 0 1
25.156963 2.082325 9.498157 26.970796 0.082585 1.210914 0.157484 -0.023749 -712307.000000 0 0 1
26.026663 1.415225 10.568357 28.126148 0.054322 1.185592 0.119992 -0.015870 -82039.100000 0 0 1
27.380863 1.821025 10.530557 29.392523 0.066409 1.204379 0.138022 -0.023926 -173957.000000 0 0 1
28.113363 0.807825 11.153357 30.255762 0.028727 1.193255 0.106148 -0.014006 -1011380.000000 0 0 1
29.615663 0.987025 11.153557 31.661705 0.033315 1.210798 0.147761 -0.008927 -718335.000000 0 0 1
30.129873 2.072225 11.912657 32.465593 0.068668 1.195088 0.134056 -0.015132 530210.000000 0 0 1
31.484623 1.793325 12.269457 33.838396 0.056897 1.199751 0.133020 -0.022195 560661.000000 0 0 1
32.226763 2.945225 13.012457 34.879258 0.091137 1.188479 0.115883 -0.014524 -470229.000000 0 0 1
32.535563 4.057825 12.233657 34.995588 0.124079 1.213677 0.132121 -0.018716 314353.000000 0 0 1
33.324563 4.969825 13.000457 36.114229 0.148043 1.202548 0.131621 -0.024866 -804644.000000 0 0 1
34.738833 5.087825 12.515657 37.273505 0.145425 1.228364 0.124732 -0.019015 -1168790.000000 0 0 1
35.548453 3.942225 12.704357 37.955689 0.110446 1.229493 0.102917 -0.019853 18417.000000 0 0 1
36.883813 4.210525 12.375157 39.131684 0.113664 1.249029 0.108508 -0.014891 374071.000000 0 0 1
-36.869576 3.335725 13.066957 39.258605 -0.090228 1.231479 0.143821 -0.011155 140134.000000 0 0 1
-36.718826 1.953525 12.597857 38.868939 -0.053152 1.240724 0.133504 -0.012517 208700.000000 0 0 1
37.062503 1.060625 12.670857 39.182964 0.028609 1.241501 0.116278 -0.008696 -201962.000000 0 0 1
36.548713 0.655425 14.101857 39.180357 0.017931 1.202612 0.097348 -0.009829 586183.000000 0 0 1
-37.296336 -0.028275 14.849357 40.143752 0.000758 1.191890 0.098991 -0.001629 787581.000000 0 0 1
37.139963 -0.283075 16.142157 40.497237 -0.007622 1.160808 0.082899 -0.012057 -495739.000000 0 0 1
-36.770706 -1.100875 16.987357 40.519958 0.029930 1.138195 0.096748 -0.009031 -302922.000000 0 0 1
-35.586836 -0.398675 17.321357 39.580440 0.011202 1.117842 0.132792 -0.010252 -297894.000000 0 0 1
-34.704064 -1.136675 18.114657 39.163821 0.032742 1.089943 0.112532 -0.007837 -164643.000000 0 0 1
-34.836282 -1.106475 19.647157 40.010019 0.031751 1.057495 0.105676 -0.015638 -353005.000000 0 0 1
-35.710341 -2.051275 20.229357 41.093346 0.057379 1.056091 0.092003 -0.023266 -26863.600000 0 0 1
-35.878448 -1.803975 21.609157 41.922226 0.050238 1.029254 0.086277 -0.019810 75340.000000 0 0 1
-36.159216 -3.130075 22.390457 42.645267 0.086348 1.018035 0.076631 -0.015660 711996.000000 0 0 1
-35.076865 -4.091475 22.352357 41.794192 0.116118 1.006502 0.100213 -0.021100 607914.000000 0 0 1
-35.352807 -5.293575 23.002077 42.508098 0.148631 0.999025 0.092077 -0.026919 -186842.000000 0 0 1
-35.503749 -5.304475 24.546047 43.487493 0.148309 0.971043 0.085597 -0.030992 585502.000000 0 0 1
-34.317276 -4.913275 25.261637 42.894825 0.142206 0.941074 0.099245 -0.026157 39295.800000 0 0 1
-34.423846 -4.781575 26.659247 43.801599 0.138020 0.916455 0.105995 -0.035966 -12451.800000 0 0 1
-33.327946 -3.864175 27.270997 43.236456 0.115429 0.888289 0.108041 -0.038076 71764.000000 0 0 1
-33.299946 -2.532175 26.814487 42.828904 0.075895 0.894276 0.093743 -0.029548 -67135.800000 0 0 1
-32.914656 -2.415575 25.443517 41.672319 0.073258 0.914027 0.088310 -0.021324 -474336.000000 0 0 1
-32.746606 -1.028875 24.908747 41.156342 0.031409 0.920751 0.077131 -0.015763 584809.000000 0 0 1
-34.001646 -0.356775 24.778937 42.074160 0.010492 0.941056 0.082479 -0.029283 211099.000000 0 0 1
-33.788016 1.001425 24.317177 41.640821 -0.029630 0.947180 0.066690 -0.024668 323841.000000 0 0 1
-35.014334 1.977525 24.388507 42.716665 -0.056418 0.963150 0.072757 -0.014608 1010520.000000 0 0 1
-36.087606 1.561425 23.511807 43.099402 -0.043241 0.993781 0.070397 0.002096 382939.000000 0 0 1
-37.100266 2.485925 23.199807 43.827395 -0.066906 1.012968 0.066857 0.002210 411714.000000 0 0 1
-36.554656 3.660025 22.347057 43.000344 -0.099792 1.024303 0.065222 0.009074 -227893.000000 0 0 1
-36.021578 3.446325 21.044757 41.860638 -0.095384 1.044038 0.062481 -0.008776 -61435.900000 0 0 1
-36.949926 3.257725 19.965957 42.125399 -0.087939 1.077008 0.072077 -0.013389 91443.200000 0 0 1
-36.318916 2.626025 18.697457 40.933538 -0.072179 1.096429 0.098554 -0.015262 104767.000000 0 0 1
-35.332278 3.418625 18.033157 39.815218 -0.096456 1.100757 0.116077 -0.021724 211088.000000 0 0 1
-34.916860 2.637625 16.906657 38.884177 -0.075397 1.120985 0.148762 -0.014737 47110.600000 0 0 1
-33.871596 3.365825 16.005257 37.613588 -0.099045 1.131262 0.143489 -0.017883 248336.000000 0 0 1
-34.383218 4.557425 15.458557 37.972922 -0.131780 1.151526 0.161707 -0.029364 -349.846000 0 0 1
-33.357436 5.278125 14.836757 36.887755 -0.156928 1.156863 0.188601 -0.025851 -256974.000000 0 0 1
-33.826686 6.652125 14.408857 37.364563 -0.194175 1.174907 0.207894 -0.040714 254466.000000 0 0 1
-32.883676 7.347925 13.592657 36.333022 -0.219841 1.187356 0.215265 -0.031296 225143.000000 0 0 1
-33.499796 8.476325 12.978557 36.912428 -0.247825 1.211512 0.201251 -0.036373 -30269.900000 0 0 1
-32.608876 9.265125 11.995957 35.959481 -0.276833 1.230680 0.219238 -0.036898 -177659.000000 0 0 1
-33.176866 10.446925 11.501257 36.634978 -0.305057 1.251454 0.192774 -0.027860 -43416.700000 0 0 1
-32.303006 11.100025 10.595457 35.762529 -0.330982 1.270009 0.182201 -0.036810 60417.700000 0 0 1
-32.710496 12.565225 10.228757 36.503272 -0.366755 1.286778 0.151928 -0.029198 238352.000000 0 0 1
-31.761386 13.214625 9.354257 35.649882 -0.394274 1.305296 0.159659 -0.023773 362579.000000 0 0 1
-31.731566 14.622925 9.572257 36.226376 -0.431825 1.303386 0.144107 -0.020945 87943.300000 0 0 1
-30.911596 15.394925 8.498557 35.563407 -0.462071 1.329492 0.150028 -0.024191 -438714.000000 0 0 1
-29.547366 15.096325 8.476057 34.246013 -0.472345 1.320692 0.177904 -0.019487 -624165.000000 0 0 1
-28.885026 16.107525 7.793957 33.978564 -0.508692 1.339357 0.174050 -0.038194 -161161.000000 0 0 1
-27.350296 16.119725 8.011257 32.742395 -0.532574 1.323611 0.188398 -0.024068 109549.000000 0 0 1
-26.895686 16.604225 9.272457 32.940198 -0.553084 1.285446 0.170352 -0.028869 270888.000000 0 0 1
-26.856246 18.084925 9.383657 33.710169 -0.592648 1.288707 0.159520 -0.040584 -253841.000000 0 0 1
-26.912366 18.722325 10.813057 34.521343 -0.607819 1.252206 0.168054 -0.017177 2865.650000 0 0 1
-25.742296 18.431125 11.532157 33.695145 -0.621374 1.221486 0.152572 -0.019683 99808.700000 0 0 1
-25.802736 18.969725 12.884357 34.520114 -0.633950 1.188295 0.160831 -0.028043 116965.000000 0 0 1
-26.367786 17.994425 13.935457 34.831831 -0.598843 1.159194 0.138024 -0.023064 47731.400000 0 0 1
-25.429976 16.977525 14.219557 33.721148 -0.588661 1.135498 0.155206 -0.031090 276460.000000 0 0 1
-25.850006 16.118025 15.248057 34.066358 -0.557535 1.106718 0.152347 -0.026861 31286.700000 0 0 1
-24.633046 15.252225 15.607257 32.909023 -0.554401 1.076679 0.142570 -0.018668 278531.000000 0 0 1
-23.588646 15.950325 16.280957 32.801016 -0.594564 1.051401 0.129022 -0.017689 1099650.000000 0 0 1
-22.331846 15.254325 16.453257 31.656207 -0.599276 1.024240 0.120150 -0.042939 1079890.000000 0 0 1
-22.361246 14.011125 17.405857 31.611719 -0.559735 0.987697 0.125430 -0.019822 -659915.000000 0 0 1
-22.471846 14.359025 18.802457 32.629708 -0.568588 0.956679 0.119883 -0.008076 70697.100000 0 0 1
-22.706246 13.251925 19.617357 32.802863 -0.528292 0.929746 0.109629 -0.008132 -469232.000000 0 0 1
-22.468046 13.497525 21.134357 33.669828 -0.540966 0.892209 0.102954 -0.000436 -277246.000000 0 0 1
-21.163146 13.719025 21.591357 33.200559 -0.575145 0.862776 0.108939 0.001193 -462143.000000 0 0 1
-20.747846 15.044525 21.586957 33.508321 -0.627382 0.870784 0.101804 0.016339 -758231.000000 0 0 1
-19.367646 15.223125 22.233857 33.184238 -0.666151 0.836571 0.090116 0.000628 127796.000000 0 0 1
-18.287546 14.587425 21.590757 31.833757 -0.673319 0.825439 0.069936 -0.002707 -361885.000000 0 0 1
-17.633946 15.435225 20.682957 31.256790 -0.719007 0.847698 0.058288 -0.010823 -2123120.000000 0 0 1
-16.362546 14.885925 20.040457 29.848678 -0.738179 0.834698 0.054438 -0.002819 361252.000000 0 0 1
-15.283746 14.682625 20.975457 29.818487 -0.765341 0.790573 0.047699 -0.000044 51349.800000 0 0 1
-14.726746 15.868125 21.407557 30.445984 -0.822687 0.791003 0.045289 -0.005964 -2230140.000000 0 0 1
-13.594046 15.599225 22.369557 30.471807 -0.853977 0.746446 0.030093 -0.012537 -946099.000000 0 0 1
-12.501046 15.017125 21.732357 29.224742 -0.876578 0.732315 0.020457 0.007867 -65775.000000 0 0 1
-11.458946 14.628225 22.651557 29.298216 -0.906294 0.687023 0.024643 -0.000215 809253.000000 0 0 1
-10.181346 14.072925 21.981757 28.016150 -0.944491 0.668729 0.032423 -0.006848 -1321030.000000 0 0 1
-9.830046 12.914825 22.669057 27.880256 -0.920201 0.621362 0.041629 -0.016969 936140.000000 0 0 1
-8.616946 12.240525 22.224357 26.795602 -0.957412 0.592758 0.047232 -0.008022 1357980.000000 0 0 1
-7.306546 13.050525 22.363057 26.903683 -1.060410 0.589486 0.056329 -0.005590 -1139580.000000 0 0 1
-7.022446 13.896825 21.284557 26.371744 -1.102896 0.631578 0.040188 -0.004078 -143172.000000 0 0 1
-6.309846 15.075825 21.623557 27.104850 -1.174410 0.647201 0.042521 -0.000195 -94266.100000 0 0 1
-7.103946 16.137325 22.475857 28.566475 -1.156107 0.665203 0.045829 -0.008501 630887.000000 0 0 1
-8.208346 16.696325 21.738857 28.613321 -1.113870 0.707874 0.022971 -0.009712 88171.100000 0 0 1
-7.884846 17.775925 20.811657 28.482967 -1.153303 0.751493 0.027350 -0.002004 -1379730.000000 0 0 1
-8.803346 17.966925 19.623057 28.024519 -1.115201 0.795104 0.028675 0.002956 14968.300000 0 0 1
-10.057446 18.585125 19.717557 28.902269 -1.074769 0.820009 0.018145 -0.003004 375009.000000 0 0 1
-11.002246 17.987325 20.637357 29.504132 -1.021843 0.796136 0.022026 -0.003538 436060.000000 0 0 1
-12.370546 18.774725 20.673757 30.543820 -0.988194 0.827314 0.029441 -0.008797 926251.000000 0 0 1
-13.194146 18.601625 19.511057 30.013119 -0.953856 0.863101 0.030815 -0.006837 46360.000000 0 0 1
-14.364446 19.373125 19.640557 31.103163 -0.932782 0.887355 0.016759 -0.009776 -140722.000000 0 0 1
-15.156546 19.369025 18.318257 30.666571 -0.906809 0.930621 0.030887 -0.004393 -320561.000000 0 0 1
-15.828746 18.177225 18.012457 30.090020 -0.854349 0.929020 0.046241 -0.002346 -613899.000000 0 0 1
-16.533346 18.378025 16.853557 29.918986 -0.838188 0.972414 0.065339 -0.017439 -901774.000000 0 0 1
-17.351446 17.088825 16.544257 29.441689 -0.777773 0.974075 0.066525 -0.023178 1044580.000000 0 0 1
-18.361046 16.644925 17.474257 30.323773 -0.736414 0.956656 0.070480 -0.024256 713456.000000 0 0 1
-19.425046 17.508125 17.835957 31.654198 -0.733542 0.972225 0.092943 -0.022593 -158805.000000 0 0 1
35.573183 -9.686375 11.315291 38.565697 -0.265849 1.273012 0.084702 -0.030917 -454068.000000 0 0 1
34.253023 -10.131375 11.221891 37.441223 -0.287581 1.266397 0.091582 -0.029157 -353252.000000 0 0 1
33.867933 -11.052775 12.216291 37.662162 -0.315452 1.240456 0.090758 -0.019723 -758741.000000 0 0 1
32.381853 -11.375475 12.250791 36.442663 -0.337825 1.227953 0.105100 -0.011088 -1607390.000000 0 0 1
31.613843 -10.274575 12.611491 35.553504 -0.314234 1.208183 0.110812 -0.014078 -617164.000000 0 0 1
30.262323 -10.593475 12.706691 34.488982 -0.336724 1.193479 0.114940 -0.016004 -531790.000000 0 0 1
29.738363 -11.504975 13.859591 34.768131 -0.369139 1.160775 0.099616 -0.006061 -1524180.000000 0 0 1
29.940533 -11.185075 15.216391 35.398870 -0.357522 1.126464 0.117814 -0.007941 660856.000000 0 0 1
28.933063 -11.722875 16.098691 35.124290 -0.384957 1.094675 0.120924 -0.013123 416243.000000 0 0 1
27.522863 -11.147275 15.967091 33.715245 -0.384825 1.077438 0.125541 -0.030810 -651927.000000 0 0 1
27.543863 -9.783175 16.321991 33.478087 -0.341287 1.061523 0.107706 -0.020301 1433740.000000 0 0 1
26.280563 -9.186375 15.843391 32.032335 -0.336274 1.053415 0.140396 -0.020639 1753590.000000 0 0 1
26.152063 -7.683075 16.226091 31.721382 -0.285745 1.033845 0.149822 -0.026793 488760.000000 0 0 1
27.238663 -6.872675 15.757891 32.210085 -0.247155 1.059599 0.131088 -0.026564 325635.000000 0 0 1
27.061063 -5.506075 15.988891 31.910228 -0.200728 1.045975 0.117308 -0.022959 -338382.000000 0 0 1
28.289563 -4.663675 15.659391 32.669034 -0.163385 1.070900 0.115120 -0.016565 -334068.000000 0 0 1
28.545863 -4.643675 14.248991 32.240716 -0.161262 1.113018 0.121113 -0.016706 369365.000000 0 0 1
29.646263 -3.796875 13.946191 32.982016 -0.127379 1.134217 0.121006 -0.010036 82773.500000 0 0 1
29.957123 -3.526075 12.474491 32.641620 -0.117165 1.178658 0.123295 -0.024884 21593.800000 0 0 1
30.845163 -4.359175 11.754491 33.295563 -0.140395 1.209984 0.124591 -0.034712 350407.000000 0 0 1
30.886493 -3.909475 10.418191 32.829836 -0.125906 1.247874 0.140050 -0.037757 325201.000000 0 0 1
31.679983 -4.838175 9.417491 33.402371 -0.151549 1.284980 0.171264 -0.028059 -84629.500000 0 0 1
33.004283 -5.149775 9.748891 34.797180 -0.154785 1.286832 0.147655 -0.039909 -53484.300000 0 0 1
33.511883 -6.033175 8.747291 35.156231 -0.178123 1.319343 0.154871 -0.044703 -99665.600000 0 0 1
34.940843 -6.562475 9.041891 36.683571 -0.185654 1.321746 0.139163 -0.039779 607457.000000 0 0 1
35.920133 -5.559575 8.720291 37.379249 -0.153558 1.335334 0.148698 -0.038204 18269.500000 0 0 1
37.201743 -6.084275 8.507591 38.644109 -0.162113 1.348826 0.148483 -0.047152 -62793.000000 0 0 1
-36.599616 -5.045075 8.134091 37.830518 0.136982 1.354090 0.146403 -0.048353 -13187.000000 0 0 1
-36.720076 -4.586075 6.752591 37.616400 0.124249 1.390306 0.151377 -0.041403 192960.000000 0 0 1
-35.927055 -3.423575 6.595691 36.687563 0.095006 1.390033 0.140269 -0.033061 -51671.500000 0 0 1
-35.907039 -2.901775 5.137191 36.388548 0.080638 1.429147 0.131031 -0.032410 -75073.400000 0 0 1
-35.209236 -3.755575 4.245091 35.662521 0.106263 1.451478 0.151859 -0.035295 120211.000000 0 0 1
-35.206427 -3.247175 2.964791 35.479946 0.091972 1.487136 0.159076 -0.024022 47026.500000 0 0 1
-34.383206 -4.029275 1.900291 34.670607 0.116655 1.515959 0.179560 -0.035740 281169.000000 0 0 1
-34.956772 -5.325975 1.577891 35.395362 0.151196 1.526203 0.167831 -0.024293 135167.000000 0 0 1
-36.162866 -5.336475 0.848391 36.564335 0.146510 1.547592 0.137835 -0.027413 -497932.000000 0 0 1
-36.043386 -5.335275 -0.690609 36.442664 0.146957 1.589748 0.188806 -0.037392 -1268100.000000 0 0 1
-35.650577 -6.573075 -1.228009 36.272261 0.182327 1.604658 0.186627 -0.045019 307933.000000 0 0 1
-34.860375 -6.432075 -2.415509 35.531000 0.182458 1.638832 0.167359 -0.042789 1091760.000000 0 0 1
-33.393866 -5.916975 -2.131809 33.980957 0.175367 1.633573 0.160621 -0.047875 105585.000000 0 0 1
-32.522096 -6.798875 -1.448709 33.256731 0.206086 1.614371 0.166134 -0.045075 810828.000000 0 0 1
-31.256196 -6.175975 -1.157609 31.881538 0.195079 1.607114 0.172092 -0.050925 851205.000000 0 0 1
-30.368996 -6.903175 -0.132009 31.143974 0.223512 1.575035 0.161470 -0.039897 -204289.000000 0 0 1
-29.949756 -8.190875 -0.593609 31.055284 0.266959 1.589912 0.142157 -0.037409 228018.000000 0 0 1
-29.444086 -8.982075 0.423491 30.786542 0.296088 1.557040 0.156028 -0.031732 -247157.000000 0 0 1
-28.957296 -10.372575 -0.092709 30.759127 0.343963 1.573810 0.122717 -0.023223 192206.000000 0 0 1
-27.878906 -10.311675 -1.035609 29.742839 0.354269 1.605622 0.128234 -0.029904 465331.000000 0 0 1
-27.340596 -11.570175 -1.330409 29.717791 0.400334 1.615579 0.106415 -0.008991 -126361.000000 0 0 1
-28.234756 -12.592575 -2.079309 30.985446 0.419519 1.637953 0.103707 -0.019633 -127303.000000 0 0 1
-29.174986 -13.389975 -1.390209 32.131042 0.430275 1.614077 0.124608 -0.031153 457093.000000 0 0 1
-29.750506 -14.395075 -2.219909 33.124594 0.450652 1.637864 0.114651 -0.021703 7902.920000 0 0 1
-30.991106 -15.126475 -1.679509 34.526506 0.454075 1.619460 0.131198 -0.026184 -77028.400000 0 0 1
-30.592416 -15.822475 -0.517409 34.445817 0.477315 1.585818 0.093520 -0.018877 385576.000000 0 0 1
-31.590426 -16.649775 0.074791 35.709601 0.485054 1.568702 0.123078 -0.014462 52389.500000 0 0 1
-31.605556 -18.155375 -0.323109 36.450421 0.521410 1.579661 0.121655 -0.012295 -899663.000000 0 0 1
-30.580686 -18.886575 0.226691 35.943461 0.553259 1.564489 0.129284 -0.022846 -542020.000000 0 0 1
-30.618226 -20.247375 0.044891 36.707410 0.584268 1.569573 0.115048 -0.018481 -168375.000000 0 0 1
-31.531796 -21.172275 0.903991 37.991269 0.591312 1.546999 0.108952 -0.024469 -80480.500000 0 0 1
-31.026026 -21.471575 2.219891 37.796438 0.605371 1.512030 0.110745 -0.027493 -381843.000000 0 0 1
-32.025636 -21.889875 3.065491 38.912789 0.599574 1.491936 0.098392 -0.024734 -469585.000000 0 0 1
-31.449886 -22.252175 4.446591 38.781784 0.615771 1.455887 0.100870 -0.024484 32603.400000 0 0 1
-31.046436 -21.096975 5.146291 37.887304 0.596855 1.434544 0.084873 -0.021987 -330326.000000 0 0 1
-30.207656 -21.347675 6.218891 37.508669 0.615207 1.404228 0.090087 -0.023630 -267398.000000 0 0 1
-29.748186 -20.030575 6.805091 36.503257 0.592607 1.383275 0.102434 -0.018787 -70352.500000 0 0 1
-28.983996 -20.226275 7.982091 36.233796 0.609277 1.348680 0.087353 -0.024341 -461567.000000 0 0 1
-28.451936 -19.024075 8.373391 35.235518 0.589367 1.330860 0.112657 -0.025359 83572.500000 0 0 1
-27.273996 -19.152875 9.366291 34.618360 0.612227 1.296823 0.115742 -0.028070 48338.600000 0 0 1
-27.706446 -19.651075 10.629891 35.592225 0.616914 1.267510 0.105004 -0.036671 181335.000000 0 0 1
-26.653896 -19.842675 11.581691 35.189451 0.639944 1.235421 0.094522 -0.028161 154198.000000 0 0 1
-26.349406 -18.517875 12.322191 34.482449 0.612590 1.205371 0.087856 -0.028202 -235596.000000 0 0 1
-25.592306 -17.558975 11.565991 33.121833 0.601339 1.214084 0.095522 -0.021081 443375.000000 0 0 1
-25.234796 -16.346075 12.281491 32.478056 0.574798 1.183002 0.094436 -0.014689 722056.000000 0 0 1
-24.076946 -16.448575 13.352291 32.070837 0.599339 1.141383 0.072988 -0.010185 51558.100000 0 0 1
-24.509646 -17.097875 14.500891 33.216500 0.609112 1.119028 0.067307 -0.030385 -291537.000000 0 0 1
-23.527946 -17.327675 15.466491 33.060927 0.634787 1.083976 0.072373 -0.032369 -409339.000000 0 0 1
-24.118946 -17.962075 16.767391 34.431164 0.640119 1.062164 0.062956 -0.007096 22002.900000 0 0 1
-25.036706 -17.142175 17.436391 34.995979 0.600371 1.049229 0.063518 -0.017445 -294781.000000 0 0 1
-25.838106 -17.961275 18.253591 36.378684 0.607461 1.045157 0.054312 -0.006806 -229963.000000 0 0 1
-27.042436 -17.243375 18.875191 37.214246 0.567638 1.038860 0.070593 -0.008409 -216116.000000 0 0 1
-26.707196 -16.461575 20.000391 37.205825 0.552371 1.003255 0.081659 -0.004565 211786.000000 0 0 1
-27.795876 -15.626075 20.337691 37.820716 0.512141 1.003043 0.088556 -0.009786 -123199.000000 0 0 1
-27.583746 -14.890475 21.676891 38.111375 0.495000 0.965778 0.084191 -0.010905 655042.000000 0 0 1
-26.487136 -13.951575 21.635491 36.936557 0.484802 0.944994 0.074582 -0.008724 627669.000000 0 0 1
-25.971786 -13.742775 22.928391 37.270748 0.486689 0.908176 0.063673 -0.009527 121603.000000 0 0 1
-24.516446 -13.191075 22.931491 36.068183 0.493622 0.881775 0.074031 -0.006235 267583.000000 0 0 1
-24.395246 -11.852375 22.580391 35.291371 0.452262 0.876522 0.094992 -0.014592 298649.000000 0 0 1
-23.359546 -11.683975 21.615291 33.902868 0.463792 0.879463 0.124055 -0.021481 440.619000 0 0 1
-22.826746 -10.188675 21.536391 32.995235 0.419813 0.859637 0.138073 -0.022888 -201469.000000 0 0 1
-22.182046 -9.688275 22.671891 33.165049 0.411791 0.818102 0.123019 -0.027170 -134974.000000 0 0 1
-20.790646 -9.795775 22.459691 32.134808 0.440313 0.796909 0.088865 -0.029904 -336446.000000 0 0 1
-20.018546 -9.762975 23.812191 32.604881 0.453756 0.751997 0.090525 -0.019282 144886.000000 0 0 1
-20.377346 -10.902275 24.599491 33.752493 0.491269 0.754199 0.102145 -0.019187 662.094000 0 0 1
-19.681246 -10.884175 25.817191 34.239510 0.505161 0.716639 0.098605 -0.019130 -596485.000000 0 0 1
-19.985046 -12.110075 26.729091 35.503525 0.544788 0.718404 0.084699 -0.026176 1152200.000000 0 0 1
-21.292046 -12.112275 27.323591 36.696554 0.517211 0.730888 0.078908 -0.016349 1479630.000000 0 0 1
-22.429546 -12.558875 26.531791 36.942466 0.510432 0.769595 0.082242 -0.011804 811631.000000 0 0 1
-23.642146 -13.018575 27.350991 38.425396 0.503343 0.778746 0.072315 -0.009454 -251838.000000 0 0 1
-23.459346 -14.182075 28.150791 39.292992 0.543750 0.772121 0.073889 -0.011802 17506.000000 0 0 1
-22.655046 -14.088475 29.335391 39.652256 0.556345 0.737999 0.061036 -0.004566 170956.000000 0 0 1
-22.982746 -15.120675 30.436091 41.026785 0.581919 0.734958 0.059776 -0.010771 -636456.000000 0 0 1
-22.574546 -16.421775 30.224491 41.143707 0.628910 0.745708 0.062027 -0.009800 -207976.000000 0 0 1
-22.755146 -17.230975 31.413391 42.444131 0.648115 0.737560 0.062336 -0.013969 252360.000000 0 0 1
-24.191946 -17.613875 31.901491 43.740187 0.629330 0.753439 0.081122 -0.017300 537580.000000 0 0 1
-24.880146 -16.677275 32.714691 44.355430 0.590517 0.741350 0.094102 -0.023275 555308.000000 0 0 1
-26.084096 -17.282175 33.252191 45.659192 0.585151 0.755003 0.095083 -0.028605 1097860.000000 0 0 1
-27.055256 -16.242475 -33.907975 46.320143 0.540673 2.392101 0.098697 -0.031106 506506.000000 0 0 1
-26.489936 -15.767075 -32.701575 44.941188 0.536890 2.385690 0.113932 -0.030796 28493.200000 0 0 1
-27.285706 -14.713375 -32.197675 44.695452 0.494540 2.375145 0.114229 -0.026198 -39780.200000 0 0 1
-26.744946 -14.049875 -30.912575 43.223586 0.483704 2.367676 0.107844 -0.019309 -129085.000000 0 0 1
-26.875626 -14.853875 -29.748775 42.754257 0.504906 2.340341 0.113212 -0.010135 378493.000000 0 0 1
-26.036776 -14.407575 -28.685175 41.331963 0.505415 2.337853 0.126637 0.004627 -133083.000000 0 0 1
-26.246936 -15.265775 -27.412475 40.907081 0.526796 2.305161 0.102703 0.001185 -123360.000000 0 0 1
-27.546616 -15.350575 -26.866675 41.427942 0.508399 2.276429 0.104396 -0.004749 65944.300000 0 0 1
-27.988726 -14.248175 -26.112675 40.844229 0.470876 2.264414 0.107209 -0.014170 -250510.000000 0 0 1
-27.299156 -14.048375 -24.719575 39.416470 0.475266 2.248670 0.109790 -0.021893 -362338.000000 0 0 1
-26.019666 -13.472975 -24.886875 38.443473 0.477786 2.274916 0.099540 -0.010164 428611.000000 0 0 1
-25.070976 -13.705375 -23.863075 37.226838 0.500278 2.266620 0.089181 -0.010766 110991.000000 0 0 1
-24.399246 -15.093775 -23.800475 37.277444 0.553996 2.263303 0.087205 -0.014185 -950112.000000 0 0 1
-23.630946 -15.270275 -24.942475 37.599600 0.573698 2.296111 0.095470 -0.005376 137831.000000 0 0 1
-22.992246 -16.576975 -24.885175 37.718846 0.624669 2.291288 0.097003 -0.008869 347209.000000 0 0 1
-22.128146 -17.037775 -26.085375 38.215015 0.656153 2.322104 0.084020 -0.007604 155052.000000 0 0 1
-22.833746 -17.189475 -27.308175 39.529665 0.645297 2.333429 0.091730 -0.008920 7275.640000 0 0 1
-23.724546 -18.281975 -27.401475 40.594649 0.656551 2.311764 0.093136 -0.015199 1376.950000 0 0 1
-24.490346 -18.263575 -28.780275 41.971888 0.640773 2.326366 0.096182 -0.012379 -19607.900000 0 0 1
-23.667746 -18.455575 -29.903475 42.367301 0.662288 2.354369 0.098990 -0.011926 105775.000000 0 0 1
-24.380646 -18.204475 -31.099775 43.508790 0.641371 2.367124 0.082911 -0.011194 -287513.000000 0 0 1
-23.582846 -18.580775 -32.386575 44.162043 0.667315 2.394044 0.087019 -0.021681 -1185650.000000 0 0 1
-22.483546 -17.812275 -32.730775 43.521151 0.669989 2.421987 0.089902 -0.018827 -1536880.000000 0 0 1
-21.276046 -18.300675 -32.307475 42.794366 0.710360 2.426370 0.083945 -0.020946 -1125460.000000 0 0 1
-20.691046 -19.433275 -33.148175 43.641414 0.754062 2.433429 0.090042 -0.025088 -1068030.000000 0 0 1
-20.409346 -18.997875 33.379991 43.493499 0.749596 0.695910 0.080687 -0.024990 -103462.000000 0 0 1
-20.072846 -20.035175 32.489291 43.126342 0.784459 0.717653 0.084060 -0.025457 645546.000000 0 0 1
-21.297146 -20.723075 31.738491 43.478110 0.771737 0.752492 0.088484 -0.021151 1156800.000000 0 0 1
-22.174246 -21.400375 32.660591 44.904203 0.767640 0.756359 0.075462 -0.020911 387242.000000 0 0 1
-23.440046 -21.832875 32.189891 45.412545 0.749913 0.782955 0.068415 -0.006470 154784.000000 0 0 1
-23.432046 -23.029175 31.205791 45.312306 0.776727 0.811126 0.083641 -0.004992 -643186.000000 0 0 1
-23.105646 -24.209975 31.880291 46.220631 0.808734 0.809664 0.079018 -0.001929 98058.600000 0 0 1
-23.065446 -25.341165 30.973891 46.190598 0.832376 0.835823 0.093121 0.000597 -101708.000000 0 0 1
-22.464646 -26.549375 31.740291 47.084771 0.868544 0.831038 0.113213 -0.003264 199880.000000 0 0 1
-23.331046 -27.171515 32.710391 48.503594 0.861297 0.830657 0.089277 -0.009293 159467.000000 0 0 1
-22.763646 -28.283305 33.318691 49.277420 0.893109 0.828278 0.089743 -0.018914 -974147.000000 0 0 1
-23.752246 -29.098245 -33.687075 50.454891 0.886209 2.301867 0.083860 -0.016937 -699885.000000 0 0 1
-24.664446 -29.919315 33.368891 51.156458 0.881374 0.860193 0.065378 -0.016067 1069350.000000 0 0 1
-25.857756 -29.283165 32.926691 51.091039 0.847439 0.870465 0.055035 -0.011854 -462538.000000 0 0 1
-26.833226 -28.737875 -33.899175 51.913789 0.819659 2.282322 0.044222 -0.010653 -1794030.000000 0 0 1
-28.026436 -28.250345 33.366291 51.931421 0.789377 0.873031 0.032779 -0.005129 108400.000000 0 0 1
-28.916256 -28.031325 -33.388575 52.313497 0.769860 2.263006 0.033706 0.002790 -773470.000000 0 0 1
-30.138666 -27.222695 -33.716975 52.784928 0.734607 2.263684 0.019670 -0.000202 -743905.000000 0 0 1
-30.945456 -27.753815 33.079391 53.123833 0.731079 0.898627 0.015914 -0.008775 721212.000000 0 0 1
-32.125586 -26.920225 32.928391 53.301320 0.697467 0.904882 0.022276 -0.014137 759860.000000 0 0 1
