# x y z rho theta phi s1 s2 stress_xx np intf bulk
-0.694726 -10.878738 -14.304203 17.984432 1.507022 2.490407 0.008856 0.001240 -1961790.000000 1 0 0
2.209074 -13.544038 -13.019403 18.916285 -1.409117 2.329890 0.010531 -0.000008 13501.700000 1 0 0
2.186174 -11.201838 -14.631303 18.556281 -1.378057 2.479134 0.012117 0.002437 1154790.000000 1 0 0
-5.578926 -6.309838 -16.464603 18.493826 0.846800 2.668746 0.027714 -0.001668 -437763.000000 1 0 0
4.568374 -14.205538 -11.464503 18.817603 -1.259651 2.225903 0.015763 -0.002674 270974.000000 1 0 0
14.080874 -10.680038 -7.903403 19.359701 -0.648905 1.991322 0.059947 -0.018110 137123.000000 1 0 0
7.011774 10.779862 -10.866003 16.835689 0.994104 2.272363 0.038006 -0.018804 937220.000000 1 0 0
5.770174 -4.273338 -12.597503 14.500118 -0.637452 2.623542 0.007165 0.000863 2374720.000000 1 0 0
13.694274 0.438262 -10.063803 17.000157 0.031992 2.204313 0.030098 -0.001595 793144.000000 1 0 0
14.251474 5.004162 -10.352103 18.311532 0.337684 2.171633 0.038939 -0.012298 -1793670.000000 1 0 0
4.058274 4.241262 -13.470303 14.693773 0.807443 2.730627 0.005997 -0.001721 2100040.000000 1 0 0
10.313574 -5.045638 -13.719903 17.890333 -0.454989 2.444776 0.035933 -0.006622 -1131310.000000 1 0 0
2.509574 -7.614938 -12.063203 14.484685 -1.252446 2.554987 -0.002708 0.003969 1721940.000000 1 0 0
-5.615326 -1.915638 -15.147303 16.267831 0.328764 2.768268 0.016408 -0.008340 1062690.000000 1 0 0
10.741674 0.062462 -9.630903 14.427119 0.005815 2.301717 0.010914 0.000560 1611600.000000 1 0 0
-1.632026 -9.504338 -16.817603 19.386276 1.400741 2.620951 0.020451 -0.005994 432662.000000 1 0 0
8.597674 1.670162 -18.110403 20.117061 0.191868 2.691142 0.043711 -0.005625 -539946.000000 1 0 0
16.449474 -5.962138 -8.627903 19.508280 -0.347724 2.028923 0.090598 -0.015040 -769733.000000 1 0 0
10.142174 7.487462 -10.006603 16.095275 0.635939 2.241721 0.033590 -0.010339 1064280.000000 1 0 0
13.857674 -2.396738 -10.704703 17.673997 -0.171260 2.221411 0.044428 -0.001080 -21310.600000 1 0 0
7.257074 -1.933938 -13.654603 15.583755 -0.260437 2.638732 0.019636 -0.003138 1465810.000000 1 0 0
-2.784926 6.597262 -13.790703 15.539085 -1.171356 2.662655 -0.004389 0.002736 -679680.000000 1 0 0
11.280874 1.653062 -13.810103 17.908369 0.145501 2.451447 0.029963 -0.009594 1096990.000000 1 0 0
-2.329726 10.704962 -12.952803 16.964638 -1.356507 2.439539 -0.003098 0.002030 -4001230.000000 1 0 0
2.803074 -1.101338 -15.315903 15.609198 -0.374374 2.947433 0.012669 -0.000121 1036080.000000 1 0 0
-9.158726 0.371862 -15.209703 17.758254 -0.040580 2.599220 0.017781 0.002399 -933411.000000 1 0 0
2.207674 -1.790538 -18.103003 18.324807 -0.681444 2.985846 0.026104 -0.008028 136829.000000 1 0 0
1.021374 7.806062 -13.175803 15.348602 1.440692 2.603010 -0.000727 0.000100 -1205370.000000 1 0 0
9.368474 -9.055738 -9.800203 16.303947 -0.768426 2.215666 0.025027 -0.006261 1423550.000000 1 0 0
3.869674 7.216662 -13.515803 15.802896 1.078599 2.596875 0.002751 -0.001980 702198.000000 1 0 0
-2.568926 9.029262 -15.567803 18.179203 -1.293609 2.598960 -0.003874 0.004789 -287630.000000 1 0 0
5.532774 -7.773338 -15.234403 17.975634 -0.952219 2.582059 0.014604 -0.003265 -379425.000000 1 0 0
4.190074 7.121362 -16.382003 18.347766 1.038964 2.674455 0.012971 -0.003899 -203801.000000 1 0 0
-0.314926 4.966762 -13.477703 14.367198 -1.507474 2.787866 0.004772 -0.004128 2600420.000000 1 0 0
8.699474 4.248662 -16.709203 19.311381 0.454310 2.616448 0.037763 -0.009502 1125890.000000 1 0 0
5.305874 0.256162 -14.402003 15.350427 0.048241 2.788232 0.012757 0.000964 1373890.000000 1 0 0
6.290574 7.836762 -11.663203 15.395339 0.894411 2.430394 0.010324 -0.009476 -1689920.000000 1 0 0
2.773374 -8.406838 -15.065003 17.473432 -1.252143 2.610326 0.003892 0.000194 1125050.000000 1 0 0
3.948374 11.343062 -13.854903 18.336113 1.235827 2.427377 0.029583 -0.016835 -665222.000000 1 0 0
0.631074 -4.529938 -13.794503 14.532959 -1.432375 2.821440 0.004446 0.002424 -1031110.000000 1 0 0
8.492374 -0.114138 -11.624903 14.396938 -0.013439 2.510624 0.005986 0.000772 1581100.000000 1 0 0
-0.970226 -5.040038 -16.348803 17.135538 1.380619 2.837395 0.010093 -0.005281 820354.000000 1 0 0
4.490474 0.869762 -11.765503 12.623308 0.191321 2.770815 0.008752 -0.002179 2152910.000000 1 0 0
-2.888526 -7.193038 -15.474203 17.307060 1.188935 2.677209 0.004870 -0.002056 3829360.000000 1 0 0
11.390274 -3.834538 -11.338803 16.523029 -0.324733 2.327107 0.027578 -0.006110 1324800.000000 1 0 0
6.474474 -7.114438 -12.472703 15.751265 -0.832458 2.484635 0.013969 -0.001577 -1702160.000000 1 0 0
3.368474 -4.081538 -14.665403 15.591011 -0.880821 2.795284 0.010040 0.000716 3860980.000000 1 0 0
-0.667926 -1.652938 -18.408603 18.494729 1.186774 3.045048 0.024520 -0.012969 461847.000000 1 0 0
14.983874 2.814762 -8.521303 17.465737 0.185689 2.080464 0.033994 -0.005071 -377927.000000 1 0 0
6.914474 4.251162 -14.342103 16.479631 0.551246 2.626593 0.015668 -0.003978 2903180.000000 1 0 0
10.023174 -9.727038 -14.011803 19.784082 -0.770405 2.357793 0.045747 -0.013999 -2191100.000000 1 0 0
9.096974 -3.161838 -15.590203 18.325026 -0.334509 2.588226 0.047184 -0.012528 -523272.000000 1 0 0
-5.396726 -2.139138 -18.049203 18.959807 0.377379 2.830409 0.015087 -0.000490 701256.000000 1 0 0
4.990574 -9.148338 -11.057103 15.193994 -1.071401 2.385801 -0.003002 0.004213 2836530.000000 1 0 0
-2.550226 3.956562 -17.315703 17.944124 -0.998258 2.876160 0.007196 0.004467 1346750.000000 1 0 0
9.382074 9.319162 -14.376603 19.533479 0.782034 2.397936 0.075895 -0.031796 12658.400000 1 0 0
9.789674 9.952962 -11.557303 18.123753 0.793669 2.262290 0.052174 -0.027104 1040280.000000 1 0 0
12.054374 -6.008138 -9.606803 16.543770 -0.462383 2.190372 0.031877 -0.005978 -578547.000000 1 0 0
8.095174 6.847762 -13.762403 17.373181 0.702113 2.485142 0.019715 -0.011545 -470368.000000 1 0 0
3.885374 -4.208938 -17.551503 18.462571 -0.825351 2.826131 0.025920 -0.008771 305272.000000 1 0 0
9.299574 -7.491938 -12.350703 17.179962 -0.678159 2.373017 0.030522 -0.010435 -710354.000000 1 0 0
12.065474 -8.673538 -8.787203 17.263281 -0.623280 2.104832 0.046224 -0.012540 309702.000000 1 0 0
-2.939926 -2.526538 -13.904603 14.434838 0.709919 2.869710 0.007311 -0.002618 -1903970.000000 1 0 0
-0.375126 6.022362 -17.664903 18.667039 -1.508588 2.812436 0.017548 0.001138 524883.000000 1 0 0
1.040374 -8.532938 -17.616203 19.601633 -1.449471 2.687618 0.021333 -0.002774 1118880.000000 1 0 0
0.148174 8.407562 -16.059603 18.127876 1.553174 2.659241 0.003091 0.000834 -980439.000000 1 0 0
1.715874 3.305762 -14.979603 15.435698 1.092021 2.897893 0.010168 -0.001879 2588050.000000 1 0 0
-1.960426 -0.516238 -15.891403 16.020189 0.257484 3.014709 0.012504 -0.003259 1397120.000000 1 0 0
14.091074 -4.330238 -8.476403 17.004668 -0.298144 2.092635 0.043854 -0.004866 528417.000000 1 0 0
0.503174 0.542262 -14.560803 14.579582 0.822769 3.090832 0.007533 -0.002675 921112.000000 1 0 0
8.833574 2.656662 -12.581903 15.601095 0.292141 2.508963 0.012741 -0.002069 1656660.000000 1 0 0
5.878674 0.962762 -17.113703 18.120832 0.162331 2.806627 0.036482 -0.000334 -539794.000000 1 0 0
15.322074 1.516862 -12.388103 19.761881 0.098677 2.248324 0.057898 -0.012874 -436997.000000 1 0 0
8.847274 -11.253338 -11.932503 18.635893 -0.904532 2.265681 0.039754 -0.011210 907270.000000 1 0 0
-4.652526 0.758862 -15.138803 15.855763 -0.161684 2.839723 0.012472 -0.002901 1202900.000000 1 0 0
2.327774 5.011662 -17.265703 18.128425 1.135973 2.831845 0.018461 -0.003747 1197030.000000 1 0 0
5.943974 -11.762138 -12.268203 18.005208 -1.102879 2.320429 0.017686 -0.008393 -535274.000000 1 0 0
12.873774 7.151562 -8.737403 17.123700 0.507067 2.106274 0.027088 -0.005403 1035680.000000 1 0 0
-5.045226 3.662862 -15.750303 16.939389 -0.627967 2.764675 0.006608 0.001256 1781990.000000 1 0 0
-0.527826 -4.550938 -19.133203 19.674071 1.455330 2.906568 0.024785 -0.012973 -525609.000000 1 0 0
9.835174 4.385662 -10.247103 14.864986 0.419453 2.331381 0.004954 -0.003122 1451430.000000 1 0 0
13.380774 3.587362 -12.866403 18.906576 0.261938 2.319276 0.050634 -0.020529 423032.000000 1 0 0
-6.177126 5.953362 -17.232203 19.249629 -0.766954 2.679669 0.006687 0.002585 931707.000000 1 0 0
-10.145326 3.190062 -15.440303 18.748522 -0.304648 2.538434 0.020691 -0.000480 -3075.580000 1 0 0
10.772674 13.535062 -8.442703 19.249095 0.898555 2.024839 0.075292 -0.010312 929719.000000 1 0 0
7.302974 13.321662 -12.445003 19.638692 1.069334 2.257121 0.069033 -0.026464 65654.900000 1 0 0
5.167874 15.030662 -11.306603 19.505563 1.239636 2.189108 0.049649 -0.028141 -834060.000000 1 0 0
14.259874 9.192462 -10.328803 19.862768 0.572597 2.117657 0.085902 -0.013371 -440085.000000 1 0 0
8.327574 -17.207638 -1.964903 19.217496 -1.120074 1.673221 0.036686 -0.013852 -918129.000000 1 0 0
0.656874 -15.856638 -0.064703 15.870370 -1.529394 1.574873 0.016630 -0.011887 1841440.000000 1 0 0
-9.111226 -11.628638 7.585597 16.606654 0.906188 1.096424 0.018560 -0.010444 587962.000000 1 0 0
2.054474 -15.857338 -2.622203 16.203456 -1.441954 1.733341 0.012173 -0.008197 2292470.000000 1 0 0
-1.341526 -11.090238 -9.434003 14.621678 1.450417 2.272090 0.002626 0.000446 1421880.000000 1 0 0
-4.758126 -12.700438 -12.963603 18.761553 1.212339 2.333621 0.018866 -0.001793 1007890.000000 1 0 0
-8.345626 -17.929738 -1.620103 19.843128 1.135158 1.652533 0.030661 -0.014114 -582020.000000 1 0 0
-11.392826 -7.025638 -8.785403 16.010602 0.552588 2.151634 0.021466 -0.003981 2569060.000000 1 0 0
-13.585526 -11.508938 -4.675403 18.408736 0.702835 1.827587 0.036401 -0.001835 -443128.000000 1 0 0
-5.710826 -13.439938 9.767597 17.568478 1.168998 0.981263 0.004963 -0.007964 576833.000000 1 0 0
0.075374 -14.010738 -3.619103 14.470811 -1.565417 1.823577 0.012308 -0.005443 -35218.000000 1 0 0
-14.762726 -11.606838 1.988497 18.884144 0.666286 1.465301 0.022018 -0.004891 1491600.000000 1 0 0
-3.978926 -16.476638 -7.459703 18.519142 1.333844 1.985382 0.008738 -0.011897 687987.000000 1 0 0
0.517174 -15.280938 -9.140203 17.813418 -1.536965 2.109598 0.007100 -0.003341 -273311.000000 1 0 0
4.536774 -14.253438 -2.680803 15.196365 -1.262642 1.748135 0.010118 -0.001512 -342069.000000 1 0 0
-3.566626 -18.041238 -2.375303 18.543170 1.375620 1.699245 0.013088 -0.016647 413805.000000 1 0 0
-0.916926 -13.355138 0.600397 13.400035 1.502247 1.525976 0.008634 -0.007892 1037760.000000 1 0 0
-8.508426 -11.273238 -10.457503 17.573804 0.924265 2.208139 0.017140 -0.004508 1522150.000000 1 0 0
-3.729226 -14.059638 -0.389003 14.551009 1.311523 1.597533 0.002011 -0.004080 4167850.000000 1 0 0
-1.550726 -14.963938 -7.255603 16.702334 1.467534 2.020176 0.002606 -0.003824 191520.000000 1 0 0
-14.224026 -7.879938 -1.783203 16.358366 0.505900 1.680022 0.021285 -0.006628 1512850.000000 1 0 0
-10.837626 -7.365338 -11.612603 17.508709 0.596909 2.295946 0.029860 -0.006978 -1114050.000000 1 0 0
-9.544226 -14.591038 6.805597 18.716484 0.991533 1.198651 0.008772 -0.004563 1153200.000000 1 0 0
-2.438126 -14.402438 -12.328103 19.114309 1.403101 2.271777 0.015284 0.000236 -567923.000000 1 0 0
2.367774 -17.803238 -4.795403 18.589178 -1.438575 1.831714 0.026893 -0.009589 1082140.000000 1 0 0
-6.638626 -9.655838 -9.131703 14.855792 0.968492 2.232789 0.012792 -0.005224 1359530.000000 1 0 0
-11.038126 -15.316038 0.363797 18.882627 0.946319 1.551529 0.027876 -0.011945 869606.000000 1 0 0
-12.559026 -10.974038 4.056997 17.164436 0.718148 1.332178 0.014694 -0.006429 1962330.000000 1 0 0
-17.049826 -8.904438 -1.564503 19.298530 0.481296 1.651954 0.027344 -0.005833 -1007680.000000 1 0 0
-1.454626 -19.231538 -3.923903 19.681591 1.495303 1.771510 0.014607 -0.006616 -1366050.000000 1 0 0
3.280574 -14.328238 -8.792903 17.128214 -1.345717 2.109889 0.014590 -0.007230 313209.000000 1 0 0
-4.377526 -8.031838 -13.005003 15.899788 1.071783 2.528610 0.011003 0.002176 1444050.000000 1 0 0
5.512174 -16.632638 1.199597 17.563250 -1.250780 1.502442 0.028206 -0.010700 3441430.000000 1 0 0
-2.849526 -13.724138 -3.154103 14.367328 1.366076 1.792132 0.002653 -0.005695 -753398.000000 1 0 0
-0.398426 -13.941238 3.566597 14.395745 1.542225 1.320435 0.007433 -0.004369 -2768880.000000 1 0 0
1.102174 -16.209338 6.947097 17.669737 -1.502905 1.166727 0.029157 -0.013692 1245620.000000 1 0 0
-5.524326 -10.376938 -14.588903 18.735931 1.081593 2.463322 0.018022 -0.002570 -1836620.000000 1 0 0
-0.347326 -17.294738 -5.858903 18.263498 1.550716 1.897369 0.012998 -0.008279 942985.000000 1 0 0
-6.518726 -13.343838 -1.268403 14.905054 1.116375 1.655998 0.004243 -0.005143 3031540.000000 1 0 0
-1.781026 -17.561538 -0.098303 17.651893 1.469726 1.576365 0.008852 -0.012240 2255680.000000 1 0 0
-9.548626 -9.768338 -4.813603 14.483351 0.796772 1.909595 0.017417 -0.000259 762810.000000 1 0 0
-0.845026 -16.654738 4.774997 17.346324 1.520102 1.291921 0.024100 -0.011885 1275840.000000 1 0 0
-6.838626 -9.963938 -6.249803 13.605400 0.969299 2.048073 0.017370 -0.003464 1981820.000000 1 0 0
-6.130426 -14.548538 -8.598903 17.977297 1.171998 2.069537 0.014841 -0.009751 -360801.000000 1 0 0
-5.760426 -12.181738 -10.254303 16.933044 1.129084 2.221290 0.017587 -0.006540 1018860.000000 1 0 0
-10.904226 -12.080238 -8.918403 18.557268 0.836519 2.072122 0.043705 -0.010106 -986905.000000 1 0 0
3.956174 -16.912838 6.641097 18.595687 -1.341012 1.205602 0.037600 -0.021463 550191.000000 1 0 0
-6.705126 -14.401738 -4.090003 16.404173 1.135064 1.822782 0.014362 -0.010762 -1486530.000000 1 0 0
-2.859826 -12.206738 -7.068803 14.392742 1.340664 2.084190 0.010229 -0.002825 2339750.000000 1 0 0
-6.948026 -12.752738 4.457097 15.191218 1.071934 1.273015 0.000230 -0.003206 1610920.000000 1 0 0
2.572474 -16.383538 2.305097 16.743698 -1.415052 1.432688 0.020601 -0.013214 2686270.000000 1 0 0
-6.161426 -11.942338 7.321497 15.303167 1.094485 1.071930 0.001471 -0.002413 950760.000000 1 0 0
-11.250926 -12.693938 -0.848503 16.983502 0.845589 1.620778 0.029040 -0.002767 845210.000000 1 0 0
-14.235126 -8.677138 4.670997 17.313282 0.547418 1.297619 0.016004 -0.004411 151617.000000 1 0 0
-7.941226 -15.467538 4.470897 17.952624 1.096476 1.319109 -0.001484 0.003815 808877.000000 1 0 0
-16.506226 -9.206238 1.198897 18.937995 0.508769 1.507448 0.018730 -0.004660 -276760.000000 1 0 0
-6.696826 -17.040438 2.384797 18.463782 1.196342 1.441274 0.004474 -0.004913 674692.000000 1 0 0
-11.523526 -15.065238 -4.490803 19.491546 0.917822 1.803282 0.058409 -0.005884 -769321.000000 1 0 0
-10.086926 -10.002638 -12.613203 18.997150 0.781203 2.296888 0.020983 -0.000872 -257828.000000 1 0 0
-4.312326 -15.994438 -4.494503 17.164462 1.307444 1.835734 0.003995 -0.011153 -825327.000000 1 0 0
-11.832626 -8.251438 0.087997 14.425845 0.608943 1.564696 0.003417 -0.002277 2093510.000000 1 0 0
-9.558426 -11.096338 3.519297 15.062459 0.859719 1.334970 0.006338 -0.000504 2166240.000000 1 0 0
-14.150326 -12.892138 -0.565903 19.150958 0.738905 1.600350 0.029520 0.002638 -458174.000000 1 0 0
5.676574 -15.043138 -7.163603 17.602179 -1.209964 1.989934 0.019263 -0.014093 1801060.000000 1 0 0
-7.379526 -10.493438 -1.178903 12.882525 0.957892 1.662436 0.006757 0.000565 1677570.000000 1 0 0
-11.663726 -8.171438 -5.979603 15.445729 0.611119 1.968320 0.019241 -0.002603 -393532.000000 1 0 0
-14.414826 -6.537138 -9.104503 18.259610 0.425762 2.092796 0.036393 -0.011878 297844.000000 1 0 0
-3.988926 -16.350638 1.430797 16.890887 1.331509 1.485986 0.003151 -0.010132 2861430.000000 1 0 0
-8.057426 -15.539538 0.135297 17.504790 1.092450 1.563067 0.019188 -0.011386 1007370.000000 1 0 0
0.970274 -18.528938 3.549197 18.890733 -1.518479 1.381793 0.033122 -0.015727 -283103.000000 1 0 0
-14.130226 -8.682938 -4.565003 17.201626 0.551009 1.839396 0.026273 -0.005298 943240.000000 1 0 0
-3.240926 -14.422038 11.206197 18.549330 1.349748 0.922123 0.000126 -0.013208 534548.000000 1 0 0
-10.851426 -12.134138 -3.711603 16.696309 0.841145 1.794970 0.035666 -0.007515 2420180.000000 1 0 0
-9.918426 -10.609238 0.636197 14.537395 0.819038 1.527020 0.006907 0.001935 2059730.000000 1 0 0
-0.046026 -13.219038 -11.192003 17.320682 1.567315 2.273344 0.011271 -0.001217 -78770.400000 1 0 0
-5.870426 -12.690038 -6.306303 15.338462 1.137513 1.994504 0.005432 -0.006343 978219.000000 1 0 0
1.665574 -15.880538 9.867597 18.770591 -1.466297 1.017265 0.024262 -0.013172 49031.400000 1 0 0
-8.946426 -15.785538 -5.501103 18.960060 1.055186 1.865171 0.049450 -0.013499 912659.000000 1 0 0
-3.305226 -15.461438 5.830697 16.851635 1.360194 1.217490 0.000636 -0.003076 -1044000.000000 1 0 0
-17.581726 -5.370838 -6.409603 19.469103 0.296475 1.906273 0.035468 -0.012787 421608.000000 1 0 0
18.943574 5.698962 -2.924703 19.997276 0.292226 1.717578 0.045609 -0.000299 -46816.200000 1 0 0
12.946274 -12.577038 -5.921203 18.996014 -0.770933 1.887786 0.058150 -0.007322 -257082.000000 1 0 0
10.980674 -13.552638 -1.558303 17.512211 -0.889852 1.659898 0.043352 -0.009034 2355070.000000 1 0 0
18.705174 -2.942238 4.437297 19.448134 -0.156017 1.340608 0.061939 -0.018830 -479761.000000 1 0 0
8.873474 -16.902038 4.905497 19.709930 -1.087354 1.319268 0.056674 -0.023429 -266566.000000 1 0 0
18.072974 -1.188838 6.687897 19.307349 -0.065685 1.217075 0.078900 -0.013765 -858752.000000 1 0 0
17.928374 -4.186738 -4.912603 19.054896 -0.229414 1.831554 0.096160 -0.020488 242231.000000 1 0 0
5.346574 -11.839638 14.646597 19.577684 -1.146627 0.725561 0.010482 -0.000049 125748.000000 1 0 0
15.880074 -8.935138 -0.759803 18.237071 -0.512514 1.612471 0.058287 -0.013802 1603770.000000 1 0 0
13.855274 -12.580338 -1.356603 18.763633 -0.737208 1.643159 0.057246 -0.005017 370956.000000 1 0 0
11.090274 -2.085638 13.840397 17.857790 -0.185889 0.684027 0.037394 -0.002550 -2003540.000000 1 0 0
16.908274 -6.169338 -1.346303 18.048906 -0.349861 1.645458 0.075060 -0.021482 -1632530.000000 1 0 0
17.718574 3.680862 -1.032903 18.126321 0.204827 1.627811 0.033459 -0.002054 602744.000000 1 0 0
9.728874 -11.093838 9.616897 17.612750 -0.850856 0.993191 0.026194 -0.009193 715511.000000 1 0 0
9.078574 -11.172038 4.271397 15.015984 -0.888410 1.282357 0.005455 -0.002899 121487.000000 1 0 0
14.089274 -10.141738 6.937297 18.694614 -0.623904 1.190619 0.051837 -0.011547 110548.000000 1 0 0
16.228374 -0.529038 -4.591903 16.873814 -0.032588 1.846404 0.036691 -0.002991 -457755.000000 1 0 0
15.767974 -0.503238 -1.635103 15.860511 -0.031904 1.674073 0.028453 -0.002237 -826821.000000 1 0 0
12.901574 -5.174038 -0.226403 13.902250 -0.381402 1.587082 0.009042 -0.006896 720150.000000 1 0 0
14.208374 -7.603238 1.141297 16.155175 -0.491350 1.500092 0.035829 -0.009129 2069390.000000 1 0 0
15.579974 2.467862 3.652397 16.191539 0.157094 1.343264 0.029830 -0.007378 2432020.000000 1 0 0
15.906674 -7.156038 5.079797 18.166879 -0.422751 1.287399 0.057907 -0.016210 100600.000000 1 0 0
13.647274 -12.081838 3.373697 18.536471 -0.724630 1.387773 0.033320 -0.007963 1055110.000000 1 0 0
14.085074 -0.941438 9.196497 16.847884 -0.066740 0.993387 0.055449 -0.008655 34434.400000 1 0 0
14.196074 -2.824638 -1.539903 14.556044 -0.196408 1.676786 0.004611 -0.004210 789438.000000 1 0 0
15.071374 1.839162 9.050297 17.675880 0.121430 1.033269 0.059845 -0.002584 -1716150.000000 1 0 0
14.329874 -10.200738 -2.984603 17.841194 -0.618636 1.738874 0.064245 -0.011380 188010.000000 1 0 0
7.273374 -12.587938 6.114097 15.771504 -1.046857 1.172697 0.006625 -0.006515 723251.000000 1 0 0
12.388674 -4.763138 7.006197 15.008449 -0.367052 1.085108 0.020505 -0.007766 1891680.000000 1 0 0
14.970074 -9.022338 -5.596003 18.352683 -0.542396 1.880645 0.077363 -0.014779 847039.000000 1 0 0
14.310074 -4.570338 4.618597 15.716159 -0.309140 1.272517 0.024053 -0.009990 1003360.000000 1 0 0
17.053174 -4.314838 1.002697 17.619137 -0.247821 1.513856 0.045665 -0.018419 -2301350.000000 1 0 0
10.242374 -14.577038 1.146097 17.852446 -0.958302 1.506554 0.040007 -0.008067 -147496.000000 1 0 0
16.407474 -2.676938 8.548097 18.693346 -0.161729 1.095862 0.083727 -0.013191 1731740.000000 1 0 0
15.955374 -2.607638 3.183597 16.477531 -0.162001 1.376365 0.027990 -0.010743 1810570.000000 1 0 0
7.782774 -15.332238 2.612897 17.391847 -1.101080 1.419988 0.022491 -0.008362 2034880.000000 1 0 0
16.713374 -7.055738 7.948597 19.806578 -0.399464 1.157849 0.078210 -0.012998 -198826.000000 1 0 0
10.271074 -8.645638 5.112297 14.365849 -0.699683 1.206957 0.008090 -0.004377 1583430.000000 1 0 0
10.923574 -11.916738 2.234197 16.319460 -0.828854 1.433461 0.022300 -0.005651 699943.000000 1 0 0
12.353374 -7.295338 12.007697 18.708624 -0.533445 0.873918 0.050620 -0.018983 -152490.000000 1 0 0
15.085174 -9.816338 4.384197 18.524151 -0.576886 1.331854 0.044113 -0.015406 -381237.000000 1 0 0
7.371874 -10.250738 7.825697 14.854753 -0.947330 1.015948 0.005498 -0.002934 1205850.000000 1 0 0
15.196774 -3.347638 -4.275403 16.137772 -0.216823 1.838929 0.044524 -0.004559 770549.000000 1 0 0
11.792774 -8.997538 9.811697 17.784674 -0.651751 0.986402 0.040551 -0.014135 -1787320.000000 1 0 0
16.966674 -6.799138 2.464597 18.443713 -0.381140 1.436767 0.063366 -0.016463 1847100.000000 1 0 0
17.598874 3.833262 1.969397 18.118852 0.214463 1.461888 0.037496 -0.000421 390459.000000 1 0 0
14.716674 -5.042938 8.819397 17.882771 -0.330128 1.055057 0.066226 -0.017911 679085.000000 1 0 0
12.863374 -12.674438 6.230497 19.103059 -0.778000 1.238566 0.039085 -0.005819 -260384.000000 1 0 0
18.118274 0.666762 -0.785503 18.147547 0.036784 1.614094 0.042965 -0.004833 -1829680.000000 1 0 0
11.754574 -2.061538 10.959397 16.202726 -0.173616 0.827943 0.026228 -0.001354 1972960.000000 1 0 0
5.767974 -12.493638 10.544597 17.336351 -1.138278 0.916960 0.009583 -0.006972 -1237430.000000 1 0 0
10.782174 -4.976138 11.151197 16.290072 -0.432389 0.816825 0.028254 -0.007342 -181930.000000 1 0 0
17.878874 1.190562 5.164497 18.647885 0.066492 1.290180 0.055297 -0.005386 -1043500.000000 1 0 0
12.267174 -7.816038 7.203897 16.231764 -0.567289 1.110945 0.029155 -0.009072 -1363040.000000 1 0 0
10.697874 -7.848838 14.366197 19.555981 -0.632976 0.745691 0.054225 -0.012475 -234170.000000 1 0 0
14.182674 -0.241738 3.731097 14.667235 -0.017043 1.313587 0.010768 -0.003844 2263660.000000 1 0 0
11.529574 -7.691738 2.535197 14.089753 -0.588324 1.389879 0.009402 -0.002307 2105150.000000 1 0 0
9.302774 6.049362 3.482097 11.630193 0.576569 1.266731 0.001804 -0.001531 806843.000000 1 0 0
-3.976626 14.887262 -9.998703 18.368946 -1.309774 2.146382 0.000700 0.001477 1907930.000000 1 0 0
8.924474 -6.403638 9.326197 14.409399 -0.622399 0.866851 0.008683 -0.006950 -1457060.000000 1 0 0
5.797674 -10.597638 -8.492903 14.766596 -1.070204 2.183575 0.003052 -0.002197 740721.000000 1 0 0
5.373474 1.002262 0.480197 5.487198 0.184401 1.483172 0.000764 -0.001563 3091880.000000 1 0 0
-0.539826 9.931762 11.042297 14.861482 -1.516496 0.733233 -0.000554 0.005415 -50731.000000 1 0 0
-6.340126 -5.145838 1.053097 8.233217 0.681792 1.442537 0.006974 -0.004569 3614170.000000 1 0 0
-1.073226 3.857362 -10.847103 11.562469 -1.299432 2.787987 0.003975 -0.000376 891928.000000 1 0 0
10.945974 5.797462 1.218397 12.446261 0.487080 1.472747 0.000862 0.001104 -115441.000000 1 0 0
-10.164726 -1.830838 -13.553603 17.040357 0.178206 2.490435 0.016908 -0.003366 1843420.000000 1 0 0
7.440474 10.881962 -6.165203 14.552920 0.971064 2.008257 0.014751 -0.000415 -142556.000000 1 0 0
-12.436626 -2.871738 -9.505303 15.914375 0.226932 2.210899 0.018454 -0.007431 1147400.000000 1 0 0
-3.925626 -8.674438 2.513197 9.847465 1.145823 1.312729 0.005015 -0.004553 -2110270.000000 1 0 0
7.978074 -6.673638 -5.888503 11.952472 -0.696603 2.085940 0.001839 -0.004417 2086990.000000 1 0 0
14.279474 3.173362 -4.233503 15.228137 0.218679 1.852513 0.020573 0.001008 1178130.000000 1 0 0
-2.461026 -4.980938 9.813197 11.276756 1.111889 0.515159 0.003182 -0.001385 1967760.000000 1 0 0
3.508174 -1.942338 -4.595703 6.099217 -0.505649 2.424152 -0.000999 -0.000811 -2153530.000000 1 0 0
-3.979526 8.422162 -3.505703 9.952858 -1.129384 1.930750 -0.000350 -0.001576 1030090.000000 1 0 0
5.878274 0.073862 11.703897 13.097358 0.012565 0.465477 -0.000788 -0.000895 1323670.000000 1 0 0
7.212774 4.837762 12.396897 15.136417 0.590804 0.611110 0.005338 0.006275 -453923.000000 1 0 0
0.930174 -14.559538 12.378297 19.132894 -1.506995 0.867200 0.003083 -0.007548 -1104990.000000 1 0 0
2.998174 8.695062 -9.164103 12.983602 1.238749 2.354378 0.002543 -0.001236 1470720.000000 1 0 0
-4.468726 -8.921438 -4.510603 10.950210 1.106431 1.995356 0.013006 -0.004299 1874930.000000 1 0 0
5.741174 -6.632838 -3.928003 9.611703 -0.857333 1.991791 0.000797 -0.003296 2206760.000000 1 0 0
-3.061426 3.411462 8.689297 9.824168 -0.839423 0.485414 0.002251 0.000640 2365480.000000 1 0 0
-3.842426 3.106062 -11.089503 12.140384 -0.679818 2.722452 -0.000183 -0.000716 -430350.000000 1 0 0
2.984374 -6.092038 8.528497 10.897462 -1.115277 0.671944 -0.000481 -0.000130 -14941.800000 1 0 0
-5.109526 -8.684838 10.469097 14.530508 1.039004 0.766287 0.011444 -0.006202 1856070.000000 1 0 0
-13.256326 -2.446438 6.537497 14.981792 0.182495 1.119244 0.011687 -0.000516 1362380.000000 1 0 0
3.917874 -5.974238 -8.376203 11.009180 -0.990358 2.435400 -0.002381 0.000333 3955930.000000 1 0 0
2.969374 -0.560138 12.436997 12.798822 -0.186447 0.238346 0.001089 -0.002167 2208300.000000 1 0 0
1.447574 -1.479138 -7.538203 7.817149 -0.796182 2.873644 0.003594 -0.002206 68063.400000 1 0 0
3.606674 -3.504238 3.483597 6.117453 -0.770994 0.964957 0.001803 -0.000828 1798650.000000 1 0 0
1.514474 0.342562 -11.786703 11.888538 0.222449 3.010611 0.006344 -0.005304 1864020.000000 1 0 0
4.137774 3.521762 -10.590603 11.903145 0.705147 2.667553 0.002413 -0.002480 1492340.000000 1 0 0
2.847574 3.277362 3.428097 5.531874 0.855453 0.902437 -0.003560 0.002208 -808982.000000 1 0 0
-5.235126 0.876862 2.553797 5.890442 -0.165955 1.122369 0.003103 -0.003229 2271300.000000 1 0 0
-9.418226 -9.176938 5.762497 14.357073 0.772423 1.157784 0.012487 -0.006893 -788341.000000 1 0 0
-3.122726 3.979162 -0.539303 5.086845 -0.905411 1.677015 0.003465 -0.002286 122615.000000 1 0 0
-15.866426 -6.377538 5.004697 17.817504 0.382188 1.286079 0.021733 -0.007556 977472.000000 1 0 0
0.986074 6.662462 -8.104303 10.537574 1.423859 2.448207 0.003078 -0.001537 559388.000000 1 0 0
-1.604126 6.484662 -9.540603 11.646766 -1.328292 2.530747 -0.003000 0.000961 183975.000000 1 0 0
2.073274 -0.347138 5.193297 5.602616 -0.165896 0.384619 -0.000734 -0.000752 2981330.000000 1 0 0
-3.434126 -0.618338 -6.315403 7.215253 0.178148 2.636821 0.011234 -0.006072 -23655.900000 1 0 0
1.880674 -1.191238 -2.508403 3.353814 -0.564624 2.415727 0.005371 0.000894 881322.000000 1 0 0
2.421974 -8.629138 -7.618503 11.763060 -1.297163 2.275310 -0.002520 0.002529 1413290.000000 1 0 0
-2.542526 14.074962 -5.606103 15.362206 -1.392082 1.944352 0.004544 0.003286 3113870.000000 1 0 0
6.843174 -5.130938 -8.062603 11.754196 -0.643366 2.326683 0.001004 -0.000374 3334320.000000 1 0 0
-14.180326 -4.977538 -2.099203 15.174458 0.337581 1.709579 0.005314 -0.008366 474475.000000 1 0 0
-2.785326 6.892562 -6.882603 10.130926 -1.186755 2.317694 -0.001587 -0.001103 -2242150.000000 1 0 0
-5.660026 -1.206938 -8.141703 9.988990 0.210092 2.523642 0.012876 -0.009789 114267.000000 1 0 0
-5.703626 -10.535938 3.505697 12.483079 1.074619 1.286131 0.002259 -0.005283 -3698030.000000 1 0 0
8.153674 -7.547938 6.723197 12.986730 -0.746839 1.026639 0.003980 -0.003603 1570410.000000 1 0 0
8.815374 -6.031838 13.185797 16.969359 -0.600071 0.680854 0.027019 -0.006738 -156658.000000 1 0 0
-4.752926 9.544662 -0.784303 10.691399 -1.108777 1.644221 -0.000477 0.000379 173260.000000 1 0 0
2.806274 6.637162 12.117597 14.098342 1.170780 0.536496 0.005212 0.004739 2411760.000000 1 0 0
6.089674 -2.874338 10.963597 12.866484 -0.440999 0.550802 0.000187 -0.004230 71663.400000 1 0 0
-9.743926 -6.443738 -1.028703 11.727066 0.584284 1.658630 0.006073 -0.005676 -472204.000000 1 0 0
0.781874 -13.397138 6.236297 14.798177 -1.512501 1.135782 0.006354 -0.004519 -524703.000000 1 0 0
-0.578226 -3.102638 8.714397 9.268302 1.386544 0.347472 0.001179 -0.001342 1387820.000000 1 0 0
4.280674 0.808962 3.401497 5.527095 0.186777 0.907875 -0.002254 0.001102 1305770.000000 1 0 0
-10.173926 5.660362 8.261897 14.276113 -0.507713 0.953636 -0.000924 -0.010790 976124.000000 1 0 0
9.413174 8.031162 -0.001603 12.373658 0.706339 1.570926 -0.001423 0.001255 834098.000000 1 0 0
4.336074 2.942362 8.239397 9.764563 0.596203 0.566460 -0.003639 0.000480 2099750.000000 1 0 0
1.332274 2.621862 -9.749703 10.183605 1.100658 2.848628 0.008121 -0.003980 2048350.000000 1 0 0
-1.361626 -10.160438 3.148097 10.723761 1.437578 1.272845 0.002207 -0.004400 -2654490.000000 1 0 0
-9.889726 9.590662 9.046097 16.480878 -0.770047 0.989767 0.006448 -0.013868 686116.000000 1 0 0
9.812174 -2.024438 -7.682203 12.625108 -0.203464 2.224948 0.012338 -0.000531 1551840.000000 1 0 0
-5.199126 -1.806538 6.731597 8.695337 0.334419 0.685407 0.004860 -0.003621 547694.000000 1 0 0
3.189774 -7.865638 -4.860903 9.781171 -1.185529 2.090895 -0.001968 -0.000233 2057240.000000 1 0 0
-5.091426 4.914662 -13.060303 14.854226 -0.767734 2.645043 -0.001017 -0.003716 1809920.000000 1 0 0
-5.623126 9.655962 5.566097 12.483532 -1.043458 1.108645 -0.000386 -0.001615 3080980.000000 1 0 0
-0.496226 -1.897938 -9.366803 9.570026 1.315066 2.935142 0.007639 -0.006815 -970045.000000 1 0 0
-16.760126 0.203762 6.345197 17.922189 -0.012157 1.208907 0.023813 -0.008385 810175.000000 1 0 0
-5.968226 -2.927438 4.128597 7.825275 0.456022 1.015026 -0.000089 -0.003302 2205590.000000 1 0 0
1.117574 -5.684038 -5.071103 7.698918 -1.376656 2.289856 0.002422 -0.001210 1785910.000000 1 0 0
-7.027426 1.365462 -8.426003 11.056524 -0.191913 2.437322 0.002621 -0.002860 987932.000000 1 0 0
8.044874 1.918962 4.716197 9.520763 0.234157 1.052548 -0.001817 -0.000194 -171244.000000 1 0 0
0.487174 -7.978038 -0.455603 8.005873 -1.509808 1.627736 0.002551 -0.001775 1309810.000000 1 0 0
5.506274 5.536662 -3.444303 8.534454 0.788150 1.986219 0.001821 -0.000214 1043830.000000 1 0 0
-0.688826 -0.309138 -1.218703 1.433626 0.421847 2.586941 0.004029 -0.002252 997582.000000 1 0 0
9.106574 6.373962 -6.363003 12.808001 0.610679 2.090703 0.005850 -0.003280 1008180.000000 1 0 0
-15.004926 -7.115838 2.469297 16.789293 0.442823 1.423185 0.002755 -0.006795 959549.000000 1 0 0
-6.380626 6.886162 8.877197 12.920381 -0.823485 0.813348 -0.000406 -0.004089 2240410.000000 1 0 0
-9.491026 -3.191338 -9.655103 13.909896 0.324371 2.337990 0.009063 -0.006102 -945356.000000 1 0 0
14.894974 3.458162 -1.275903 15.344285 0.228128 1.654044 0.011842 0.000272 757827.000000 1 0 0
12.095074 1.587862 -5.820603 13.516344 0.130535 2.015992 0.009990 0.001636 -793080.000000 1 0 0
1.609774 -9.458438 12.746197 15.953651 -1.402217 0.645246 -0.006668 -0.002192 -1152640.000000 1 0 0
-3.555026 6.399162 7.900497 10.770577 -1.063705 0.747301 0.001097 0.001871 1298330.000000 1 0 0
-3.953526 13.139862 -12.477103 18.546278 -1.278532 2.308723 0.001487 -0.000272 2062450.000000 1 0 0
-10.211626 7.823662 6.496297 14.411414 -0.653759 1.103164 0.001384 -0.010745 -599276.000000 1 0 0
7.967874 -9.322938 -7.095003 14.168390 -0.863607 2.095276 0.007111 -0.002586 -728240.000000 1 0 0
5.820274 -3.798738 -0.361603 6.959652 -0.578252 1.622777 0.000351 -0.002481 -548418.000000 1 0 0
-1.614026 -4.456438 4.189197 6.325685 1.223314 0.846976 0.001326 -0.002418 77384.000000 1 0 0
9.915374 -2.021438 -2.548103 10.435214 -0.201113 1.817474 0.001350 -0.003444 -1673520.000000 1 0 0
13.525774 7.035762 1.355197 15.306374 0.479657 1.482142 0.007748 -0.001181 452714.000000 1 0 0
5.434374 -3.739038 -3.238603 7.348563 -0.602650 2.027188 0.002298 -0.004093 -3274590.000000 1 0 0
-12.287926 -5.975638 1.995597 13.808830 0.452629 1.425772 0.004139 -0.004249 2383510.000000 1 0 0
3.724874 -5.722238 -0.212303 6.831089 -0.993756 1.601880 0.000343 -0.001897 -1082860.000000 1 0 0
-5.226726 3.634262 -8.651503 10.741277 -0.607580 2.507222 0.000585 -0.001361 -805845.000000 1 0 0
-1.748926 -9.332338 7.257297 11.950717 1.385540 0.918178 -0.001236 -0.003964 1928970.000000 1 0 0
-7.389526 -7.352838 2.614997 10.747443 0.782910 1.325016 0.008905 -0.006979 -3578000.000000 1 0 0
-5.733826 13.099962 -8.666703 16.721169 -1.158220 2.115667 0.001372 -0.000440 2198290.000000 1 0 0
9.296074 -13.969338 -4.147303 17.284662 -0.983628 1.813102 0.034002 -0.004365 1488190.000000 1 0 0
-6.473126 -5.113238 -6.766803 10.669404 0.668563 2.257802 0.015923 -0.005969 1775230.000000 1 0 0
3.427074 0.401162 -6.266003 7.153220 0.116526 2.638238 0.002369 -0.002920 -135803.000000 1 0 0
-3.563626 5.760562 5.014497 8.427852 -1.016795 0.933542 0.001471 0.001483 -29940.300000 1 0 0
-2.632426 -10.757138 -2.803603 11.423917 1.330799 1.818744 0.009391 -0.003545 2467410.000000 1 0 0
-12.516726 -0.394438 1.739597 12.643188 0.031502 1.432767 0.002037 -0.005281 1571060.000000 1 0 0
8.416374 -12.092238 -6.111403 15.950136 -0.962750 1.964008 0.020505 -0.008292 250207.000000 1 0 0
6.167174 3.878762 0.958497 7.348303 0.561425 1.439986 -0.001670 -0.000621 1180910.000000 1 0 0
3.488774 -4.847938 -10.967703 12.488577 -0.947010 2.642921 -0.001934 0.001364 197958.000000 1 0 0
-7.598626 4.260262 8.511897 12.179546 -0.510992 0.796982 -0.001943 -0.003593 2520340.000000 1 0 0
8.226274 8.751362 4.103897 12.692513 0.816316 1.241548 0.003630 0.000534 1115710.000000 1 0 0
0.202874 10.585562 -6.370403 12.356266 1.551633 2.112458 -0.001020 0.003838 995513.000000 1 0 0
5.422874 8.012262 3.307997 10.224811 0.975796 1.241342 0.000598 -0.000177 2924120.000000 1 0 0
8.119774 6.655662 -3.800203 11.165577 0.686630 1.918085 0.001904 -0.000083 1121340.000000 1 0 0
10.511674 2.483062 -8.229303 13.578745 0.231967 2.221873 0.002128 0.000323 1585800.000000 1 0 0
3.356974 -12.560938 -0.327503 13.005910 -1.309645 1.595980 0.000783 -0.001689 -2579670.000000 1 0 0
0.651474 2.123862 5.291497 5.738915 1.273167 0.397484 0.000972 0.000863 1813210.000000 1 0 0
-4.829326 13.454762 1.347797 14.358606 -1.226188 1.476791 -0.002487 0.001407 922098.000000 1 0 0
8.225574 4.038062 -8.015503 12.174330 0.456354 2.289479 0.004995 0.000706 283367.000000 1 0 0
-13.893826 -0.590838 -3.512103 14.343024 0.042500 1.818177 0.004288 -0.006382 -370882.000000 1 0 0
-8.597026 0.003962 -0.451303 8.608864 -0.000461 1.623243 -0.000534 -0.002817 -287225.000000 1 0 0
1.796174 -3.804938 -1.036603 4.333398 -1.129746 1.812351 0.003477 -0.001803 -2851520.000000 1 0 0
8.105974 -5.646838 -0.243503 9.881948 -0.608458 1.595440 0.002510 -0.002362 2141900.000000 1 0 0
-2.283826 -1.087338 7.395397 7.816013 0.444349 0.329558 0.003773 -0.001483 3316270.000000 1 0 0
-5.839126 8.812162 -11.695803 15.765196 -0.985600 2.406658 -0.002653 0.000825 -1159800.000000 1 0 0
-6.082326 9.228562 -8.822903 14.142300 -0.988067 2.244476 -0.001637 0.000686 919016.000000 1 0 0
-1.531926 14.043462 -8.475103 16.474009 -1.462141 2.111166 0.012855 -0.001886 678636.000000 1 0 0
-1.390926 7.185762 9.777397 12.213408 -1.379594 0.642590 0.001482 0.000697 1513280.000000 1 0 0
10.040974 2.261662 -3.993703 11.040197 0.221546 1.940932 0.000767 0.000609 -1369960.000000 1 0 0
-3.075326 -7.510438 -6.916703 10.663259 1.182150 2.276603 0.011506 -0.002897 2130220.000000 1 0 0
-5.483926 -5.033138 -1.572303 7.607763 0.742562 1.778967 0.012129 -0.004680 427137.000000 1 0 0
5.688474 7.406962 -8.879203 12.886507 0.915881 2.330947 0.006597 -0.002605 802378.000000 1 0 0
-9.503526 5.272362 -7.470303 13.187882 -0.506505 2.172991 0.001113 0.002059 235855.000000 1 0 0
-0.472626 6.215662 -5.330503 8.201956 -1.494905 2.278257 0.005836 -0.001607 -1128960.000000 1 0 0
-8.246326 2.831562 -6.263303 10.735390 -0.330758 2.193737 0.000852 -0.000769 2447490.000000 1 0 0
3.663474 1.416862 -2.071003 4.440450 0.369035 2.056007 0.001612 -0.002212 2305530.000000 1 0 0
-6.835026 12.563762 -3.483103 14.720655 -1.072550 1.809675 0.007459 0.003936 -2533.010000 1 0 0
-6.587526 3.150762 -2.267103 7.646081 -0.446131 1.871828 0.002743 -0.000367 -1060340.000000 1 0 0
12.110774 4.043862 -0.819203 12.794326 0.322266 1.634869 -0.000483 -0.000045 683808.000000 1 0 0
2.294374 12.362162 -5.550703 13.743999 1.387288 1.986533 0.005890 -0.001465 -221045.000000 1 0 0
-9.266626 -1.411738 -4.264903 10.298192 0.151184 1.997795 -0.000143 -0.003339 -946421.000000 1 0 0
-1.087526 5.838462 3.451397 6.868951 -1.386638 1.044351 0.001272 0.000883 1072630.000000 1 0 0
11.542874 2.755662 12.056897 16.917458 0.234346 0.777471 0.040309 0.002472 -86969.400000 1 0 0
-7.132426 -2.299038 -5.849503 9.506511 0.311821 2.233582 0.009854 -0.005378 1078300.000000 1 0 0
7.590774 -7.446738 10.852997 15.194121 -0.775820 0.775188 0.009366 -0.002283 -1037790.000000 1 0 0
-5.507226 -2.055438 -10.883003 12.369079 0.357214 2.646355 0.011950 -0.005072 -421441.000000 1 0 0
0.749074 -6.223538 4.534197 7.736439 -1.451011 0.944580 -0.001976 -0.000647 594285.000000 1 0 0
-4.816026 -9.267238 7.386197 12.791861 1.091527 0.955239 0.000936 -0.003532 1923710.000000 1 0 0
-8.795826 9.385062 1.700797 12.974538 -0.817796 1.439331 0.002524 -0.003262 580221.000000 1 0 0
-7.957426 7.181362 -9.085803 14.051491 -0.734180 2.273925 -0.000462 -0.000179 109425.000000 1 0 0
-1.291326 -10.522838 0.003697 10.601776 1.448690 1.570448 0.006005 -0.004478 -686171.000000 1 0 0
-3.914826 10.380662 7.804497 13.564445 -1.210162 0.957747 0.002104 0.000353 1760640.000000 1 0 0
-7.448226 12.064662 1.923697 14.308485 -1.017711 1.435943 -0.001240 -0.005026 1349150.000000 1 0 0
-8.200426 -8.205138 -2.797303 11.932987 0.785685 1.807416 0.014250 -0.005245 -248955.000000 1 0 0
5.447374 4.528162 -8.062003 10.731916 0.693511 2.420701 0.005168 0.000039 1242240.000000 1 0 0
-8.984026 -0.157838 -10.180403 13.578595 0.017567 2.418464 0.008343 -0.004292 -756700.000000 1 0 0
-15.124826 -2.241138 -1.453703 15.358916 0.147106 1.665587 0.002872 -0.010513 2290730.000000 1 0 0
-7.215126 -5.794838 8.800597 12.770619 0.676660 0.810511 0.010762 -0.004594 812666.000000 1 0 0
8.160674 3.479362 -0.962103 8.923464 0.403020 1.678824 -0.000777 0.000460 862744.000000 1 0 0
11.926174 7.247162 -5.939103 15.166672 0.546039 1.973154 0.005629 0.000290 367548.000000 1 0 0
3.684774 13.293962 -9.589103 16.800532 1.300408 2.178230 0.015043 -0.011061 -456408.000000 1 0 0
-9.770426 5.416962 -0.542803 11.184781 -0.506234 1.619346 0.001838 -0.002097 744622.000000 1 0 0
11.299074 -1.363338 -5.183803 12.505982 -0.120079 1.998196 0.013672 -0.002158 -1081900.000000 1 0 0
10.612374 1.729762 -1.249903 10.824824 0.161574 1.686521 0.000261 -0.000326 752946.000000 1 0 0
14.645374 5.068562 4.790097 16.221046 0.333184 1.271025 0.019651 -0.008821 3102750.000000 1 0 0
0.917874 -0.785038 10.308197 10.378714 -0.707550 0.116637 0.003908 -0.001118 1671800.000000 1 0 0
-7.942926 1.300862 -12.596303 14.948216 -0.162335 2.573006 0.004387 -0.000676 -1672080.000000 1 0 0
3.099374 -11.588638 -7.812003 14.315378 -1.309463 2.148029 -0.000515 -0.000540 214552.000000 1 0 0
2.895174 5.053062 -6.756003 8.919588 1.050501 2.430171 0.005112 -0.001203 -650922.000000 1 0 0
6.533574 7.950462 0.559797 10.305863 0.882912 1.516451 0.002868 -0.001858 289004.000000 1 0 0
-9.110826 -5.396238 6.816697 12.593407 0.534730 0.998825 0.005964 -0.002274 -2208720.000000 1 0 0
-0.281926 -6.890938 -11.842203 13.704097 1.529907 2.614227 -0.001522 0.003156 3242690.000000 1 0 0
6.484774 -13.584938 -4.704803 15.771430 -1.125432 1.873720 0.016477 -0.003368 2444880.000000 1 0 0
-3.252626 -0.364838 10.043397 10.563262 0.111700 0.315035 0.005757 0.000152 214529.000000 1 0 0
8.678574 8.479262 6.947497 13.981533 0.773782 1.050767 -0.004841 0.002705 -281759.000000 1 0 0
-7.930626 5.709362 -2.685603 10.134303 -0.623966 1.839002 0.000743 -0.001971 244655.000000 1 0 0
-5.369526 5.754962 -6.371403 10.126508 -0.820032 2.251295 -0.001042 -0.000522 -1808800.000000 1 0 0
3.304374 -13.669038 2.583397 14.298092 -1.333605 1.389117 0.013912 -0.009975 -2213660.000000 1 0 0
-11.339626 -6.964538 6.569197 14.840696 0.550779 1.112247 0.016619 -0.005212 -457308.000000 1 0 0
-12.921126 -3.670138 -6.688603 15.005426 0.276753 2.032803 0.009218 -0.007810 -507730.000000 1 0 0
6.057674 0.334062 -7.309203 9.499024 0.055091 2.448805 0.003064 0.000481 992983.000000 1 0 0
-1.437426 2.307762 -2.468603 3.672323 -1.013733 2.307997 0.006864 -0.003351 4153310.000000 1 0 0
7.536174 0.909462 -4.940103 9.056802 0.120099 2.147732 0.000724 0.000549 1376180.000000 1 0 0
3.719074 -4.492438 10.825197 12.296276 -0.879302 0.494168 -0.001103 -0.001301 175000.000000 1 0 0
5.973474 -2.531738 2.172297 6.841854 -0.400879 1.247703 0.002788 -0.002208 -234695.000000 1 0 0
-6.312826 7.785362 1.181597 10.092562 -0.889469 1.453451 -0.001493 -0.001758 2262970.000000 1 0 0
6.056774 -3.368738 7.952697 10.548853 -0.507586 0.716830 0.003327 -0.004164 -30944.600000 1 0 0
6.759074 -2.306738 -7.770203 10.553776 -0.328886 2.398306 0.004477 -0.001201 1009150.000000 1 0 0
12.104974 -8.227538 -5.750203 15.725381 -0.596959 1.945142 0.032695 -0.009959 -576217.000000 1 0 0
5.581674 -9.598638 9.953397 14.911709 -1.044086 0.839965 -0.000482 -0.002407 1861410.000000 1 0 0
-6.609426 7.582862 -4.522303 11.028850 -0.853880 1.993298 -0.001099 -0.001802 -5062.730000 1 0 0
-1.278526 -7.616538 9.746597 12.435531 1.404485 0.670083 0.002369 -0.002884 -1824800.000000 1 0 0
9.984074 -9.309938 0.762297 13.672519 -0.750472 1.515013 0.004471 -0.000362 845071.000000 1 0 0
11.201574 6.137662 9.722097 16.051957 0.501251 0.920196 0.010423 -0.001928 1837050.000000 1 0 0
-15.322826 -4.194338 -4.885603 16.620787 0.267186 1.869148 0.011163 -0.010540 2482190.000000 1 0 0
-4.685326 -4.621638 7.878597 10.265676 0.778555 0.695911 0.007019 -0.004213 -187179.000000 1 0 0
2.864774 10.842262 -11.132603 15.801785 1.312477 2.352537 -0.000380 -0.002026 -1129180.000000 1 0 0
9.885074 -1.367838 1.552597 10.099318 -0.137501 1.416451 -0.000317 -0.002613 182077.000000 1 0 0
-1.605326 -2.569338 0.694397 3.108176 1.012340 1.345485 0.002515 -0.002602 1209120.000000 1 0 0
1.621974 3.046862 0.847797 3.554283 1.081611 1.329946 -0.001454 -0.000112 -766592.000000 1 0 0
-8.974726 -2.338538 4.311697 10.227668 0.254901 1.135618 0.002290 -0.003870 4333170.000000 1 0 0
9.917774 4.836162 -2.755203 11.372856 0.453699 1.815492 -0.000799 0.000064 85848.600000 1 0 0
2.586174 8.479062 2.578197 9.232004 1.274752 1.287765 -0.000042 -0.000264 1460890.000000 1 0 0
-8.104526 -0.022538 2.536597 8.492242 0.002781 1.267471 -0.001446 -0.003761 1959600.000000 1 0 0
7.054674 2.030462 13.737997 15.576385 0.280243 0.490758 0.007306 0.004203 -268032.000000 1 0 0
6.893274 4.277162 3.681597 8.908732 0.555345 1.144768 -0.003637 -0.000269 1076150.000000 1 0 0
-0.291726 3.364762 7.794797 8.495033 -1.484312 0.408869 -0.000485 0.001949 1428730.000000 1 0 0
2.757774 -10.254738 9.287797 14.107734 -1.308085 0.852175 -0.002386 -0.007439 1264940.000000 1 0 0
1.324774 -4.474438 6.862797 8.299012 -1.282943 0.597150 -0.000514 -0.000453 156215.000000 1 0 0
-0.114826 10.781862 -2.079503 10.981169 -1.560147 1.761317 0.003919 -0.001799 2320690.000000 1 0 0
8.843674 5.558262 8.006697 13.161005 0.561113 0.916797 -0.002512 0.000655 -649791.000000 1 0 0
2.656074 11.302162 -2.930403 11.974175 1.339979 1.818034 0.006950 -0.002504 883461.000000 1 0 0
1.499274 2.462162 -6.678703 7.274279 1.023839 2.734121 0.005450 -0.003601 449465.000000 1 0 0
-13.577526 -2.158238 3.613797 14.215018 0.157638 1.313751 0.004712 -0.005120 2512400.000000 1 0 0
-0.963526 -10.614238 -5.225803 11.870107 1.480268 2.026672 0.004208 -0.000716 345803.000000 1 0 0
-5.724026 2.899962 0.420597 6.430486 -0.468937 1.505343 0.004506 -0.003016 704622.000000 1 0 0
3.745374 7.247462 -5.054003 9.596691 1.093812 2.125440 0.004587 -0.002423 -2377750.000000 1 0 0
2.901874 9.698662 -6.521703 12.042322 1.280070 2.143094 0.004022 -0.001363 563758.000000 1 0 0
-12.222426 1.686762 -2.508703 12.590729 -0.137139 1.771389 0.001171 -0.002520 568356.000000 1 0 0
-2.503626 9.654162 -5.811403 11.543110 -1.317055 2.098386 -0.004628 0.002136 -561569.000000 1 0 0
-1.314326 3.432062 1.749697 4.070374 -1.205070 1.126457 0.001415 -0.001078 1468190.000000 1 0 0
12.947874 3.810062 9.691397 16.615872 0.286184 0.948058 0.035106 -0.000813 509691.000000 1 0 0
-2.528826 -9.543938 11.650297 15.271252 1.311782 0.703024 -0.001734 -0.008108 548441.000000 1 0 0
-0.475026 -8.937338 -7.486403 11.668243 1.517696 2.267385 0.005889 0.000468 2295340.000000 1 0 0
2.399674 7.628062 -0.457003 8.009658 1.266013 1.627884 0.002820 -0.002360 1480230.000000 1 0 0
-11.868526 -1.250138 -5.501603 13.141247 0.104945 2.002756 0.004583 -0.001690 -2154900.000000 1 0 0
-6.229626 -7.141038 -10.890103 14.435962 0.853458 2.425495 0.010558 -0.001990 1611490.000000 1 0 0
-4.776626 -2.258838 -1.396203 5.465152 0.441729 1.829134 0.007704 -0.003214 -1568980.000000 1 0 0
-10.433726 3.733362 4.580797 11.991010 -0.343621 1.178816 -0.000013 -0.007063 2926090.000000 1 0 0
6.814874 9.331162 -3.694303 12.130992 0.940000 1.880246 0.003823 0.001140 1485270.000000 1 0 0
1.308574 -2.717338 -11.473403 11.863190 -1.122005 2.884539 0.003751 -0.002180 -963835.000000 1 0 0
1.321974 8.801762 7.571097 11.685039 1.421716 0.865932 -0.004860 0.006518 545123.000000 1 0 0
10.390874 0.480462 10.480197 14.766030 0.046206 0.781652 0.013357 0.001997 111463.000000 1 0 0
-5.289326 -0.871038 -3.977903 6.675282 0.163214 2.209201 0.010068 -0.005423 60251.300000 1 0 0
11.682074 5.739662 5.388097 14.087092 0.456681 1.178312 0.001911 0.000291 1736610.000000 1 0 0
9.938474 -3.476638 3.682397 11.154386 -0.336511 1.234355 0.008229 -0.003997 -2007620.000000 1 0 0
7.330274 -1.686438 -3.405203 8.256658 -0.226130 1.995904 0.001596 -0.001607 -3245490.000000 1 0 0
2.376274 9.277762 10.504197 14.214841 1.320061 0.739271 -0.001177 0.006970 3241040.000000 1 0 0
2.441774 -11.012338 6.417097 12.977403 -1.352596 1.053557 -0.000072 -0.004894 1544610.000000 1 0 0
5.924174 -7.522838 -1.169903 9.646637 -0.903729 1.692371 -0.000988 -0.001761 3046800.000000 1 0 0
-0.205026 -5.538338 -2.242703 5.978707 1.533794 1.955317 0.004291 0.000461 933242.000000 1 0 0
7.704874 -4.951738 2.676997 9.542071 -0.571209 1.286433 0.004009 -0.002540 1868490.000000 1 0 0
-2.686326 -12.457438 4.672897 13.573506 1.358408 1.219339 0.002459 -0.002733 -1714000.000000 1 0 0
4.851574 -10.308138 -1.110503 11.446777 -1.130899 1.667964 0.000354 -0.002057 1518080.000000 1 0 0
1.035274 0.266062 1.083197 1.521807 0.251553 0.778762 -0.001385 -0.000403 -2599520.000000 1 0 0
-1.537026 8.641662 2.350197 9.086484 -1.394775 1.309174 -0.000581 0.003226 543190.000000 1 0 0
-7.581226 0.640562 -3.045003 8.194958 -0.084293 1.951496 0.003492 -0.002789 -464560.000000 1 0 0
4.431274 -6.407338 12.792097 14.977581 -0.965735 0.547011 0.007937 -0.005956 -536593.000000 1 0 0
-5.014726 13.102762 8.395297 16.349644 -1.205272 1.031555 0.009546 -0.008215 2239320.000000 1 0 0
0.746874 6.067262 8.277297 10.289953 1.448313 0.636122 -0.002333 0.005128 1317910.000000 1 0 0
7.957374 -0.529038 -0.740903 8.009284 -0.066386 1.663434 0.002263 -0.002493 3370610.000000 1 0 0
2.381974 -9.263438 -2.291203 9.835380 -1.319112 1.805912 -0.000579 -0.001496 664332.000000 1 0 0
-6.998226 12.169862 4.855097 14.854382 -1.048928 1.237832 -0.004456 -0.004604 -310542.000000 1 0 0
-14.952526 0.280362 0.206997 14.956586 -0.018748 1.556956 0.008398 -0.008773 621953.000000 1 0 0
6.861374 -0.469038 3.982397 7.947197 -0.068253 1.045919 0.000255 -0.000359 -850937.000000 1 0 0
-4.194526 -5.011938 5.052697 8.260951 0.873953 0.912669 0.003638 -0.003517 -64242.800000 1 0 0
3.045574 5.150862 6.867497 9.108755 1.036817 0.716750 -0.004121 0.003600 -553530.000000 1 0 0
2.061774 -7.196138 1.848097 7.710433 -1.291760 1.328752 -0.000805 -0.001671 4247380.000000 1 0 0
-2.473026 6.504962 -1.798503 7.187837 -1.207496 1.823698 0.003320 -0.001142 2238790.000000 1 0 0
2.696574 -3.835838 -6.567003 8.069120 -0.958063 2.521533 -0.001649 -0.002082 -199983.000000 1 0 0
-5.139226 0.854362 -12.217803 13.282179 -0.164737 2.738531 0.003159 0.000551 -203065.000000 1 0 0
-7.435226 6.365862 -11.899803 15.408182 -0.708069 2.453257 -0.001246 -0.003634 1686710.000000 1 0 0
-0.995626 11.253362 -9.103503 14.508728 -1.482552 2.249070 -0.003308 0.006094 535513.000000 1 0 0
4.675674 5.897562 -0.655803 7.554684 0.900452 1.657713 0.000726 -0.001704 715279.000000 1 0 0
-2.699426 13.463562 3.509597 14.172920 -1.372921 1.320566 -0.003001 0.002734 986026.000000 1 0 0
1.467074 -7.945738 10.215697 13.024881 -1.388216 0.669194 -0.002618 -0.004647 -254597.000000 1 0 0
12.970774 -0.270838 -1.022603 13.013841 -0.020878 1.649456 0.004592 -0.002866 284936.000000 1 0 0
-1.024226 3.146362 -5.416503 6.347215 -1.256088 2.593206 0.006976 -0.005598 570642.000000 1 0 0
6.600874 1.161462 7.288597 9.901726 0.174173 0.743515 -0.000990 -0.000104 2410140.000000 1 0 0
5.500074 -6.132138 6.951697 10.778684 -0.839682 0.869840 -0.000742 -0.000856 2796970.000000 1 0 0
12.230574 -4.902138 2.676997 13.445602 -0.381205 1.370359 0.007228 -0.005004 -1175500.000000 1 0 0
4.347774 -9.234238 13.763197 17.134757 -1.130754 0.638094 0.003971 -0.000488 209419.000000 1 0 0
-2.707826 -4.266338 -1.412303 5.246767 1.005255 1.843334 0.009309 -0.003448 2223950.000000 1 0 0
-9.346226 -5.157938 -7.496103 13.044072 0.504281 2.183003 0.012387 -0.005988 591036.000000 1 0 0
-10.649326 -3.087838 7.892697 13.610200 0.282217 0.952178 0.006528 -0.001986 -298089.000000 1 0 0
12.063374 -0.640238 1.681097 12.196762 -0.053023 1.432525 0.003975 -0.003859 -689675.000000 1 0 0
-7.549126 4.726362 4.334797 9.905466 -0.559376 1.117850 -0.000138 -0.004143 1681590.000000 1 0 0
-1.007326 10.610862 6.973497 12.737141 -1.476147 0.991431 -0.004727 0.005862 2407650.000000 1 0 0
7.366274 -10.041838 1.882997 12.595483 -0.937901 1.420736 0.002240 -0.000596 1902090.000000 1 0 0
-4.352626 -1.732838 1.652397 4.967745 0.378879 1.231710 0.002125 -0.000375 2856210.000000 1 0 0
6.651174 -14.962738 -0.931003 16.400866 -1.152512 1.627592 0.025868 -0.007858 -2115710.000000 1 0 0
-10.370526 1.744162 2.391097 10.784584 -0.166625 1.347224 -0.003756 -0.001971 603641.000000 1 0 0
-2.994726 8.279762 -11.408003 14.410599 -1.223743 2.484284 -0.008470 0.004777 -1483230.000000 1 0 0
-1.204326 -5.200838 -6.825603 8.665332 1.343243 2.477848 0.004888 -0.003452 -146218.000000 1 0 0
12.841074 -0.485238 6.467097 14.385826 -0.037770 1.104539 0.017105 -0.003756 1400320.000000 1 0 0
5.922974 -13.315538 3.737297 15.045018 -1.152261 1.319760 0.009068 -0.005444 210419.000000 1 0 0
-5.531626 3.447362 -4.920703 8.166793 -0.557311 2.217458 0.003875 -0.002047 2381440.000000 1 0 0
-4.316926 8.060862 3.396197 9.754358 -1.079121 1.215176 -0.000165 0.001557 708420.000000 1 0 0
14.011074 6.177762 -4.065503 15.843082 0.415277 1.830310 0.021063 0.005073 101065.000000 1 0 0
-6.675426 -8.338438 5.314897 11.930590 0.895714 1.109081 0.009296 -0.005187 -168441.000000 1 0 0
1.657574 11.410762 2.655197 11.832291 1.426541 1.344466 -0.003844 -0.000103 2048940.000000 1 0 0
-7.402226 7.303162 5.971697 11.991259 -0.778662 1.049501 -0.000720 -0.006435 -272742.000000 1 0 0
-17.332026 -3.964238 5.146197 18.509393 0.224855 1.289052 0.019354 -0.007600 -148635.000000 1 0 0
7.534274 -13.105938 -8.571003 17.377946 -1.049056 2.086574 0.030107 -0.010922 -490018.000000 1 0 0
-2.266326 12.847562 -2.870803 13.358053 -1.396191 1.787398 -0.001001 0.001380 1624970.000000 1 0 0
-5.599526 13.891862 -5.842003 16.076925 -1.187638 1.942688 0.007253 0.003564 2072440.000000 1 0 0
-5.607026 2.481762 7.398697 9.609298 -0.416697 0.692031 0.003917 -0.002322 1383260.000000 1 0 0
-7.519326 5.061362 1.407397 9.172699 -0.592453 1.416755 0.001111 -0.001451 1587800.000000 1 0 0
10.758474 -5.783238 -4.960803 13.183330 -0.493236 1.956589 0.007242 -0.003708 2769460.000000 1 0 0
-9.513126 -0.775238 6.883997 11.768176 0.081312 0.945957 0.001075 -0.002702 -27314.600000 1 0 0
-11.321626 -4.608738 -2.527703 12.482346 0.386590 1.774709 0.005003 -0.004746 267105.000000 1 0 0
6.560674 -4.401638 13.515097 15.654862 -0.590936 0.528992 0.015549 -0.012201 -100750.000000 1 0 0
0.194774 10.216662 -11.755303 15.575791 1.551734 2.426018 -0.005608 0.005540 -2497320.000000 1 0 0
-11.783426 -3.189338 1.456497 12.293998 0.264330 1.452045 0.000241 -0.004747 2432050.000000 1 0 0
5.325974 5.916462 5.359897 9.596824 0.837873 0.978211 -0.004524 0.002358 -5109700.000000 1 0 0
-7.112826 0.009262 8.082297 10.766425 -0.001302 0.721683 0.003032 -0.001566 373232.000000 1 0 0
1.793674 2.066262 9.648697 10.029161 0.855901 0.276326 0.000521 -0.000917 1707610.000000 1 0 0
10.496074 -4.939338 -1.985303 11.768860 -0.439843 1.740298 0.001852 -0.003929 1724570.000000 1 0 0
-9.663026 -2.425538 -1.655403 10.099389 0.245931 1.735450 0.001145 -0.003762 -466710.000000 1 0 0
-1.929526 -5.279438 -9.892703 11.378098 1.220399 2.624887 0.013269 -0.004839 1547430.000000 1 0 0
7.699874 -1.556138 6.568797 10.240055 -0.199413 0.874370 0.004165 -0.002240 876733.000000 1 0 0
1.486174 -11.919338 -2.528703 12.274920 -1.446751 1.778288 0.004108 -0.002678 -3735650.000000 1 0 0
-0.762126 -1.450938 4.756397 5.030842 1.087142 0.331831 0.001861 -0.001473 1820140.000000 1 0 0
7.626274 1.490462 9.887597 12.575616 0.193005 0.666077 -0.000007 0.002398 824439.000000 1 0 0
-3.732226 10.824762 -8.017803 13.978202 -1.238774 2.181682 -0.006174 0.005240 1636770.000000 1 0 0
-9.477826 12.605962 6.350897 17.002157 -0.926111 1.187980 0.005711 -0.013057 2246900.000000 1 0 0
-2.542226 -2.556138 -11.080403 11.652128 0.788127 2.827037 0.012096 -0.007513 -971986.000000 1 0 0
1.161274 -11.945338 11.067397 16.325653 -1.473885 0.825874 -0.004549 -0.001682 1422380.000000 1 0 0
1.400174 3.518162 -1.968703 4.267756 1.192029 2.050253 0.003577 -0.001813 1928350.000000 1 0 0
-1.871526 -9.463938 -12.032803 15.422616 1.375562 2.465790 0.002904 0.001588 2974550.000000 1 0 0
1.295074 -2.658538 1.607197 3.365728 -1.117491 1.072968 0.004847 -0.000880 1458540.000000 1 0 0
-1.083426 -2.269838 -6.545403 7.012009 1.125462 2.774727 0.007855 -0.006467 292849.000000 1 0 0
1.818974 5.848662 4.132797 7.388879 1.269272 0.977223 -0.003147 0.003180 -1768090.000000 1 0 0
-10.958526 8.648462 3.658697 14.431606 -0.668120 1.314479 0.002350 -0.011405 2063930.000000 1 0 0
-16.358526 -1.419338 3.919897 16.881394 0.086548 1.336455 0.020991 -0.007430 391701.000000 1 0 0
-12.195626 0.269262 6.892597 14.011198 -0.022075 1.056486 0.000940 -0.000865 396066.000000 1 0 0
-5.056626 3.045762 4.643697 7.510663 -0.542132 0.904243 0.000931 -0.000484 1704330.000000 1 0 0
5.206774 -5.991738 3.978597 8.879226 -0.855379 1.106181 -0.001246 -0.001447 1725140.000000 1 0 0
9.951574 3.473262 6.281997 12.270325 0.335798 1.033324 -0.003956 0.002547 1127960.000000 1 0 0
-12.076326 5.840162 3.154997 13.780390 -0.450445 1.339799 0.003134 -0.008025 2054480.000000 1 0 0
-4.874326 12.434562 -1.393503 13.428300 -1.197207 1.674757 -0.007667 0.004156 282704.000000 1 0 0
-1.721026 -12.134338 10.318397 16.021030 1.429905 0.871011 0.003101 -0.007412 712858.000000 1 0 0
5.265974 6.535462 13.854697 16.198623 0.892557 0.544665 0.009080 0.003626 1313980.000000 1 0 0
12.909274 -3.777638 -5.921403 14.696358 -0.284681 1.985497 0.008605 -0.002893 807667.000000 1 0 0
3.587174 -2.544038 6.399897 7.765219 -0.616876 0.602053 -0.000890 0.000076 1597490.000000 1 0 0
7.252874 -11.852338 -0.662903 13.911202 -1.021646 1.618467 0.007568 -0.000999 -755776.000000 1 0 0
-6.148126 -6.545738 -4.125703 9.882690 0.816711 2.001453 0.014001 -0.005016 -550587.000000 1 0 0
0.346274 -8.991038 5.141197 10.362943 -1.532302 1.051679 0.001129 -0.003897 1714290.000000 1 0 0
-10.290026 2.498162 -0.385903 10.595960 -0.238167 1.607224 -0.001093 -0.000261 -1160560.000000 1 0 0
-1.903326 9.052062 -0.467503 9.261805 -1.363551 1.621294 0.002449 -0.001063 -272777.000000 1 0 0
-3.510326 2.246762 -6.629903 7.831088 -0.569344 2.580385 0.008384 -0.005119 -147037.000000 1 0 0
-12.597926 3.064862 6.431897 14.473093 -0.238647 1.110288 0.001540 -0.007817 -526406.000000 1 0 0
11.418574 1.682562 7.980697 14.032333 0.146300 0.965828 0.008161 -0.000938 -1488190.000000 1 0 0
6.054574 2.659362 -3.238003 7.363066 0.413863 2.026131 -0.000795 0.000066 1585010.000000 1 0 0
10.539374 -2.431538 6.426597 12.581412 -0.226743 1.034680 0.011799 -0.004650 3518810.000000 1 0 0
-0.983426 11.129962 4.073097 11.892573 -1.482667 1.221230 -0.002145 0.003407 1922800.000000 1 0 0
-1.697126 -12.262938 7.447997 14.447579 1.433275 1.029183 -0.001845 -0.000705 573146.000000 1 0 0
8.141274 8.634062 -7.831003 14.218016 0.814765 2.154095 0.008800 -0.003635 391806.000000 1 0 0
-4.678126 -5.939238 -8.792503 11.596013 0.903623 2.431398 0.015196 -0.006016 1098860.000000 1 0 0
-8.613926 -5.351438 -11.651603 15.446600 0.555901 2.425406 0.012257 -0.002382 3602670.000000 1 0 0
6.014174 -0.687538 -9.930103 11.629701 -0.113825 2.594147 0.007852 0.001462 302585.000000 1 0 0
-11.236026 -5.430638 -5.299603 13.558241 0.450218 1.972380 0.006028 -0.006963 -846888.000000 1 0 0
3.940074 8.858062 -2.767103 10.081979 1.152274 1.848825 0.008003 -0.002970 233247.000000 1 0 0
11.704174 -10.500138 -4.055303 16.238414 -0.731226 1.823203 0.024816 -0.005246 -117912.000000 1 0 0
3.990074 -11.370338 3.976897 12.689405 -1.233303 1.252022 0.004713 -0.005189 -1307140.000000 1 0 0
-0.993126 0.923062 3.120397 3.402238 -0.748850 0.409901 0.001959 -0.000077 308524.000000 1 0 0
-10.629326 -5.061638 4.544797 12.619743 0.444423 1.202385 0.008665 -0.005559 2769890.000000 1 0 0
4.616774 -8.667438 2.879097 10.233684 -1.081365 1.285611 -0.001955 -0.000867 5416230.000000 1 0 0
-3.718926 -5.668438 2.573997 7.251694 0.990162 1.207934 0.003822 -0.003165 1449200.000000 1 0 0
10.052474 5.159562 12.273397 16.682614 0.474202 0.744097 0.021736 0.003397 311504.000000 1 0 0
1.572874 -12.294638 -5.235003 13.455011 -1.443556 1.970423 0.003302 -0.002000 817097.000000 1 0 0
9.840474 -10.767338 -1.685303 14.683690 -0.830344 1.685824 0.010681 -0.004437 281750.000000 1 0 0
9.637674 -4.596838 -9.092703 14.024726 -0.445051 2.276190 0.015573 -0.003538 1219900.000000 1 0 0
-7.406626 -3.075638 -13.068703 15.333253 0.393588 2.591185 0.010872 -0.002448 1934770.000000 1 0 0
0.492074 6.257562 -2.517303 6.762842 1.492321 1.952202 0.003535 -0.002922 1046960.000000 1 0 0
-5.928826 -9.476438 1.008997 11.223722 1.011738 1.480776 0.006982 -0.005181 -642010.000000 1 0 0
-9.002726 -4.061838 0.540197 9.891381 0.423834 1.516156 0.001056 -0.003756 3796900.000000 1 0 0
1.989674 3.750362 12.177897 12.896713 1.083025 0.335446 0.003009 -0.002993 1189610.000000 1 0 0
6.659974 4.344062 9.597597 12.463547 0.577965 0.691871 -0.005475 0.004061 1584470.000000 1 0 0
-8.234026 9.908062 -3.628003 13.383993 -0.877411 1.845301 0.004773 0.000165 1182670.000000 1 0 0
16.380474 2.067562 -5.980403 17.560181 0.125557 1.918315 0.045754 -0.000285 -1952600.000000 1 0 0
-11.035026 2.744462 -5.051503 12.442731 -0.243759 1.988848 0.000496 0.001424 2447980.000000 1 0 0
-13.740726 4.127562 1.455797 14.420945 -0.291814 1.469674 0.005364 -0.003868 -439787.000000 1 0 0
-17.449626 10.558262 3.408997 20.678191 -0.544140 1.405181 0.042129 -0.027333 766632.000000 1 0 0
-14.370626 2.855962 -1.158503 14.697399 -0.196180 1.649702 0.011321 -0.004595 -202742.000000 1 0 0
-14.268726 5.176662 5.136397 16.024261 -0.348030 1.244498 0.004218 -0.007434 747427.000000 1 0 0
-17.481926 7.623462 3.221397 19.341983 -0.411215 1.403467 0.029010 -0.014159 -1980220.000000 1 0 0
-15.244426 12.622562 -3.301703 20.065463 -0.691589 1.736095 0.057980 -0.010785 -903201.000000 1 0 0
-8.549926 12.377562 -9.654803 17.875136 -0.966299 2.141382 0.020132 -0.016358 2450370.000000 1 0 0
-12.339426 8.997062 -9.980303 18.243218 -0.630011 2.149655 0.028091 -0.009252 -854545.000000 1 0 0
-13.895526 -3.548138 -12.095203 18.760833 0.250002 2.271434 0.024297 -0.004489 -211469.000000 1 0 0
-14.675226 5.895562 -7.601103 17.546984 -0.382002 2.018821 0.040794 -0.004328 -100079.000000 1 0 0
-10.923526 13.575962 -8.469103 19.374103 -0.893243 2.023207 0.030500 -0.014288 -338581.000000 1 0 0
-10.923326 13.462862 3.870597 17.763705 -0.889162 1.351141 0.013205 -0.013094 -939865.000000 1 0 0
-15.252326 3.371662 3.036397 15.912927 -0.217560 1.378806 0.011460 -0.005498 550003.000000 1 0 0
-11.099826 9.462662 -12.623003 19.289590 -0.705947 2.284178 0.025557 -0.015478 -121132.000000 1 0 0
-13.081326 11.625162 -9.018303 19.687439 -0.726528 2.046624 0.038929 -0.022986 -636903.000000 1 0 0
-8.933326 14.702062 -3.466703 17.549158 -1.024790 1.769647 0.016907 -0.001849 1728800.000000 1 0 0
-16.874626 8.163962 -3.962903 19.160059 -0.450605 1.779132 0.046900 -0.009464 -757017.000000 1 0 0
-17.049726 6.705362 0.412397 18.325531 -0.374702 1.548290 0.030125 -0.003725 439932.000000 1 0 0
-10.432326 2.872562 -12.502303 16.534588 -0.268693 2.428176 0.003718 -0.001322 359095.000000 1 0 0
-16.914526 0.988562 2.342997 17.104621 -0.058378 1.433384 0.036041 -0.012581 -724116.000000 1 0 0
-12.710126 1.192162 -6.901903 14.512230 -0.093523 2.066433 0.005436 -0.001441 1545300.000000 1 0 0
-12.282126 9.133662 -5.498003 16.263531 -0.639428 1.915648 0.026394 -0.003485 -1522060.000000 1 0 0
-9.605626 13.946862 1.256197 16.981196 -0.967674 1.496753 0.014995 -0.005214 447210.000000 1 0 0
-12.291626 11.064262 2.663497 16.751005 -0.732896 1.411113 0.012759 -0.012595 58912.800000 1 0 0
-12.518026 6.980562 -3.682003 14.798188 -0.508691 1.822252 0.012194 0.000146 516729.000000 1 0 0
-15.877126 3.700862 -9.256603 18.747378 -0.229005 2.087198 0.046978 -0.012260 -766509.000000 1 0 0
-15.046626 5.914962 -4.706503 16.838613 -0.374552 1.854076 0.027387 0.000125 2132520.000000 1 0 0
-17.820126 5.302862 7.520797 20.055912 -0.289233 1.186409 0.020988 -0.014061 -1303570.000000 1 0 0
-15.984026 10.062262 -1.966503 18.989611 -0.561843 1.674539 0.040073 -0.007131 329528.000000 1 0 0
-8.671226 9.862762 -8.340503 15.557256 -0.849599 2.136626 0.003680 -0.007110 146597.000000 1 0 0
-17.051526 4.250262 -1.306403 17.621746 -0.244282 1.645000 0.019390 -0.004005 1032750.000000 1 0 0
-10.182426 5.488062 -4.534003 12.424081 -0.494338 1.944361 0.004243 0.002778 -490716.000000 1 0 0
-18.138726 2.834662 6.052097 19.330715 -0.155023 1.252360 0.037781 -0.013552 -1505380.000000 1 0 0
-10.297726 10.046062 -5.803403 15.512769 -0.773028 1.954228 0.013531 -0.006161 -212400.000000 1 0 0
-15.431526 0.364362 -5.809903 16.493020 -0.023607 1.930786 0.016638 -0.003098 -1160950.000000 1 0 0
-16.420826 -4.139138 -8.784703 19.077395 0.246923 2.049329 0.035935 -0.019500 -690708.000000 1 0 0
-9.906926 9.621762 -1.118903 13.855592 -0.770797 1.651639 0.010808 -0.001127 2204180.000000 1 0 0
-17.330526 -2.974038 -3.145803 17.863037 0.169952 1.747826 0.031010 -0.013752 -168752.000000 1 0 0
-11.882626 5.124062 -11.454103 17.281472 -0.407130 2.295344 0.019674 -0.007283 201684.000000 1 0 0
-16.238826 7.082962 5.836997 18.653105 -0.411297 1.252527 0.019821 -0.014836 -317985.000000 1 0 0
-12.041926 6.199462 -8.762303 16.131313 -0.475436 2.145023 0.017531 -0.003811 1685450.000000 1 0 0
-14.595326 8.400162 0.076897 16.840195 -0.522238 1.566230 0.026474 -0.005523 1650860.000000 1 0 0
-14.904826 11.907062 3.928797 19.477356 -0.674053 1.367692 0.026158 -0.022081 881459.000000 1 0 0
-17.236226 4.126662 -4.062203 18.182912 -0.234995 1.796105 0.022972 -0.005281 57189.900000 1 0 0
-13.867026 13.308362 -0.757503 19.234883 -0.764843 1.610188 0.038236 -0.014805 -103235.000000 1 0 0
-10.005526 6.888162 -13.039603 17.821015 -0.602923 2.391606 0.002006 -0.009284 -256040.000000 1 0 0
-15.824926 -1.142138 -8.329203 17.919497 0.072048 2.054219 0.013581 -0.010734 -1249050.000000 1 0 0
-11.438026 11.968962 -0.098703 16.555791 -0.808077 1.576758 0.022483 -0.007480 1076420.000000 1 0 0
-12.012826 7.466662 -0.955703 14.176473 -0.556120 1.638262 0.010632 -0.001343 2790430.000000 1 0 0
-11.476926 0.189562 -11.674203 16.372012 -0.016515 2.364647 0.013027 -0.004411 -831817.000000 1 0 0
-19.100126 -1.268238 -4.632803 19.694824 0.066302 1.808251 0.045072 -0.020765 -1016000.000000 1 0 0
-17.989526 1.414362 -4.988603 18.721902 -0.078460 1.840513 0.020420 -0.008055 -841465.000000 1 0 0
-13.281726 -0.048438 -9.450703 16.300993 0.003647 2.189233 0.009385 -0.002056 -171866.000000 1 0 0
-6.074726 11.126862 -13.350803 18.410684 -1.071067 2.382072 -0.003818 -0.003381 -479074.000000 1 0 0
16.448374 5.866862 7.021897 18.822224 0.342616 1.188487 0.053668 -0.012150 1001550.000000 1 0 0
14.812574 10.062962 -5.582003 18.757247 0.596734 1.872965 0.049634 -0.006750 568799.000000 1 0 0
2.341474 16.803862 4.246497 17.489569 1.432346 1.325543 0.009633 -0.009846 1059530.000000 1 0 0
-4.044926 18.142062 -5.959603 19.519547 -1.351426 1.881065 0.014353 -0.009186 2817360.000000 1 0 0
5.412474 14.549962 5.621797 16.510629 1.214665 1.223352 -0.001824 -0.005501 -370067.000000 1 0 0
9.880874 5.999662 15.090397 19.009148 0.545696 0.653683 0.033807 0.000099 -1444890.000000 1 0 0
4.621474 12.712362 -1.149703 13.575124 1.222109 1.655590 0.007733 -0.003291 2599690.000000 1 0 0
3.675674 13.902562 12.884297 19.307950 1.312322 0.840212 0.020475 -0.002110 1354280.000000 1 0 0
-0.729126 12.356762 9.202997 15.424537 -1.511858 0.931480 -0.000092 0.002187 1536550.000000 1 0 0
-7.723026 13.887962 8.377197 17.963798 -1.063286 1.085650 0.013845 -0.017192 2399720.000000 1 0 0
11.444174 12.857362 -4.219303 17.722398 0.843485 1.811182 0.043900 0.003742 613870.000000 1 0 0
-5.784826 16.193962 0.802297 17.214886 -1.227703 1.524175 0.001426 0.001888 -246498.000000 1 0 0
3.260474 10.570662 6.723097 12.944869 1.271609 1.024690 -0.005505 0.005147 586873.000000 1 0 0
-1.240926 15.561062 2.333097 15.783849 -1.491219 1.422437 -0.005693 -0.000604 -2738620.000000 1 0 0
9.969574 8.889562 9.462497 16.369349 0.728193 0.954445 0.008083 0.001065 1714100.000000 1 0 0
7.294474 12.239162 6.117997 15.506009 1.033327 1.165211 -0.001391 -0.001095 1098680.000000 1 0 0
11.873774 14.013362 -1.616303 18.438364 0.867861 1.658569 0.036901 0.003361 1394640.000000 1 0 0
9.690074 16.013162 -1.206003 18.755621 1.026612 1.635142 0.028143 0.004528 1598200.000000 1 0 0
10.012374 13.717662 2.889297 17.227012 0.940291 1.402281 0.022010 -0.006096 2211410.000000 1 0 0
-5.991026 14.612562 6.167397 16.954532 -1.181706 1.198494 -0.002244 -0.006706 331297.000000 1 0 0
-1.086626 18.320662 -6.296003 19.402759 -1.511554 1.901269 0.029348 -0.002521 2503740.000000 1 0 0
-3.559126 15.907562 5.289397 17.137550 -1.350683 1.257030 -0.001780 -0.001453 2555330.000000 1 0 0
7.131674 12.343362 10.674597 17.809166 1.046880 0.928060 0.001257 0.007977 2264260.000000 1 0 0
1.439074 14.537762 6.262597 15.894577 1.472129 1.165808 0.000160 -0.003964 1482530.000000 1 0 0
17.390874 7.626962 -1.349103 19.037677 0.413301 1.641721 0.035540 0.000898 -826177.000000 1 0 0
2.030074 16.310762 -3.539703 16.813437 1.446971 1.782912 0.008796 -0.003271 902457.000000 1 0 0
6.701574 11.119962 0.518897 12.993610 1.028422 1.530851 0.010135 -0.001537 1767160.000000 1 0 0
12.757174 9.274762 3.143797 16.082604 0.628633 1.374051 0.018577 -0.001099 -1551820.000000 1 0 0
6.032974 14.243862 -3.497803 15.859351 1.170155 1.793176 0.015558 -0.001902 2358420.000000 1 0 0
2.986874 16.499562 1.406097 16.826588 1.391708 1.487135 0.009319 -0.011844 -1400990.000000 1 0 0
2.595274 19.001662 -2.666403 19.362549 1.435055 1.708945 0.015310 -0.011853 -1354050.000000 1 0 0
4.028574 11.959562 10.699997 16.545406 1.245884 0.867540 0.006521 0.002950 1821250.000000 1 0 0
8.001574 11.582762 3.297297 14.458829 0.966260 1.340725 0.003213 0.001544 745016.000000 1 0 0
0.713774 12.419962 0.110497 12.440946 1.513390 1.561914 0.001863 -0.000902 -865121.000000 1 0 0
11.965274 9.874362 -4.627503 16.189027 0.689950 1.860681 0.023141 0.004702 -448491.000000 1 0 0
-1.301426 16.593162 9.824097 19.327173 -1.492525 1.037581 0.005131 -0.000303 -571988.000000 1 0 0
8.157574 14.648062 -8.057103 18.601845 1.062667 2.018764 0.049294 -0.009836 1546860.000000 1 0 0
14.474374 7.631162 -1.416603 16.424034 0.485185 1.657155 0.016386 0.002294 -344754.000000 1 0 0
12.496474 8.374562 5.934197 16.171266 0.590413 1.195058 0.013763 -0.003686 -2371860.000000 1 0 0
-2.986526 14.283962 10.166497 17.785066 -1.364683 0.962304 0.005744 -0.008601 1811400.000000 1 0 0
-4.624526 17.100762 -3.231703 18.007393 -1.306686 1.751239 0.012899 -0.004334 885661.000000 1 0 0
-7.160126 16.553562 -1.807403 18.126073 -1.162554 1.670675 0.011923 0.002643 1667090.000000 1 0 0
8.322274 11.180162 -1.926103 14.070044 0.930903 1.708121 0.010975 -0.000322 -2078940.000000 1 0 0
8.582074 12.855662 -4.262503 16.033994 0.982168 1.839873 0.033035 0.001620 3319320.000000 1 0 0
2.550574 14.863362 -7.389403 16.793696 1.400850 2.026407 0.007702 -0.005525 -1558300.000000 1 0 0
11.320174 11.426162 9.709297 18.787602 0.790058 1.027696 0.023318 -0.002308 1507620.000000 1 0 0
8.491974 15.676362 1.383597 17.882290 1.074343 1.493346 0.016642 -0.006072 496251.000000 1 0 0
6.117974 9.931162 7.654197 13.951499 1.018667 0.990073 -0.003533 0.008369 2117170.000000 1 0 0
14.523174 11.393662 2.601797 18.641552 0.665228 1.430769 0.041243 -0.004618 3268670.000000 1 0 0
12.161874 12.707462 1.132097 17.625902 0.807333 1.506523 0.030168 0.001720 1786600.000000 1 0 0
5.123774 16.019562 8.082897 18.660457 1.261234 1.122804 0.007216 0.000583 -945276.000000 1 0 0
11.339674 15.173162 5.010297 19.593778 0.928993 1.312216 0.038185 -0.005664 -337119.000000 1 0 0
5.844874 16.748562 1.675597 17.818095 1.235033 1.476618 0.007313 -0.016277 -506906.000000 1 0 0
-0.768526 16.256062 -4.277203 16.826902 -1.523555 1.827805 0.007353 0.000019 1256100.000000 1 0 0
16.066574 6.370762 2.544097 17.469798 0.377505 1.424648 0.020666 -0.005788 -120320.000000 1 0 0
7.671874 16.675962 -3.255503 18.642523 1.139611 1.746324 0.027674 -0.003184 -368955.000000 1 0 0
14.877574 8.251762 7.428597 18.563886 0.506402 1.159101 0.043233 -0.008070 -88974.500000 1 0 0
2.153874 12.887462 8.567397 15.624537 1.405197 0.990431 0.000864 0.002379 1972720.000000 1 0 0
15.986274 7.446362 -5.907603 18.598630 0.435913 1.894032 0.040152 0.004146 -597643.000000 1 0 0
-2.974426 16.988062 0.641397 17.258414 -1.397464 1.533623 -0.002025 0.000902 2044590.000000 1 0 0
-2.879226 18.695262 4.445597 19.431060 -1.417989 1.339964 0.002343 -0.001711 2359910.000000 1 0 0
-0.893226 18.996662 0.777997 19.033557 -1.523811 1.529910 0.003931 -0.007322 426119.000000 1 0 0
6.999574 16.708062 -6.146503 19.129372 1.174075 1.897911 0.029717 -0.004507 734110.000000 1 0 0
11.043074 10.083162 0.771697 14.973816 0.739992 1.519237 0.007936 0.002222 -103865.000000 1 0 0
9.226774 8.774062 14.337997 19.175393 0.760254 0.726161 0.026030 0.001263 808701.000000 1 0 0
6.271274 12.332662 -8.405403 16.188707 1.100364 2.116727 0.031348 -0.010334 419578.000000 1 0 0
6.400374 9.116962 13.355997 17.391563 0.958710 0.695149 0.012931 0.001126 1482510.000000 1 0 0
16.755174 9.362762 2.835997 19.402063 0.509573 1.424101 0.045418 -0.004739 -145544.000000 1 0 0
2.526674 14.724362 -0.938803 14.969044 1.400853 1.633554 0.004855 -0.006624 -99985.800000 1 0 0
9.094974 12.912162 8.243697 17.815752 0.957142 1.089736 0.010366 -0.004843 838191.000000 1 0 0
7.266974 9.450762 10.550297 15.919629 0.915290 0.846348 0.001675 0.007487 349016.000000 1 0 0
4.312974 15.799862 -5.378803 17.238588 1.304313 1.888116 0.020644 -0.004477 1745120.000000 1 0 0
0.252674 16.424562 -8.235203 18.375218 1.555414 2.035512 0.018036 -0.003780 1932220.000000 1 0 0
-2.441626 15.637462 -2.065403 15.961129 -1.415907 1.700562 -0.003335 0.000247 556167.000000 1 0 0
13.288474 10.600062 7.532497 18.592562 0.673330 1.153670 0.040202 -0.009456 1888550.000000 1 0 0
-0.975426 15.942362 6.908997 17.402431 -1.509688 1.162536 0.001211 -0.004491 2955770.000000 1 0 0
13.152074 13.426762 6.561397 19.907459 0.795733 1.234922 0.046779 -0.008129 -1848690.000000 1 0 0
5.318574 17.323662 4.459797 18.662430 1.272919 1.329489 0.010139 -0.012093 1810930.000000 1 0 0
10.805174 9.544362 -1.900403 14.541601 0.723519 1.701859 0.006674 0.003922 455399.000000 1 0 0
3.264274 12.701562 4.711097 13.934834 1.319242 1.225920 -0.004299 0.002174 1623080.000000 1 0 0
-0.174926 18.019762 3.498497 18.357067 -1.561089 1.379043 0.001961 -0.007170 1876270.000000 1 0 0
-7.765326 15.808962 -5.903203 18.576097 -1.114215 1.894189 0.030652 -0.013248 -1214910.000000 1 0 0
-12.452526 -9.035438 8.301397 17.481926 0.627695 1.075996 0.021765 -0.007819 -220599.000000 1 0 0
-13.113326 -11.641838 6.881797 18.837485 0.726026 1.196815 0.026460 -0.010575 -2326860.000000 1 0 0
-6.604926 -12.278038 12.371497 18.639453 1.077254 0.845007 0.020313 -0.011155 -1617750.000000 1 0 0
-1.827326 -10.713138 14.388697 18.031779 1.401854 0.646888 0.001676 -0.009060 -292773.000000 1 0 0
-8.835826 2.866262 10.898197 14.319845 -0.313681 0.705858 0.004537 -0.003250 2476290.000000 1 0 0
0.519974 10.055062 15.227897 18.255506 1.519130 0.584200 0.014070 -0.004288 125699.000000 1 0 0
1.025574 -6.749538 16.473397 17.832018 -1.420002 0.392881 0.015027 -0.017247 1876740.000000 1 0 0
6.191874 2.253162 17.864697 19.041099 0.348995 0.353353 0.034542 -0.006402 1717940.000000 1 0 0
-5.172726 -2.960638 17.657497 18.636246 0.519845 0.325530 0.031760 -0.014961 293428.000000 1 0 0
-4.318026 8.143062 12.961497 15.904566 -1.083227 0.618146 0.001154 -0.001733 -285144.000000 1 0 0
0.081674 -4.801638 18.421697 19.037367 -1.553788 0.255013 0.025933 -0.025343 82269.200000 1 0 0
-11.681426 2.105262 11.184597 16.308987 -0.178309 0.815103 0.016528 -0.004408 754336.000000 1 0 0
-3.426426 -6.086438 14.353997 15.963156 1.058057 0.452869 0.017230 -0.010715 1461880.000000 1 0 0
-7.477726 -2.323038 14.654197 16.615005 0.301209 0.490737 0.018192 -0.002332 1717050.000000 1 0 0
-6.118526 -1.156838 10.565997 12.264376 0.186866 0.532542 0.010312 -0.003601 1753420.000000 1 0 0
-3.969126 2.398262 11.133097 12.060326 -0.543523 0.394686 0.006320 0.001442 332299.000000 1 0 0
-6.353726 6.282462 13.486597 16.177993 -0.779759 0.585133 -0.007011 0.000017 48016.500000 1 0 0
-8.953926 5.501862 12.433497 16.279899 -0.550987 0.701720 0.007414 -0.005377 -165422.000000 1 0 0
-12.247926 -2.053638 15.809397 20.103884 0.166127 0.665861 0.022598 -0.000414 1385060.000000 1 0 0
-3.452526 -7.635438 16.932397 18.892483 1.146138 0.459554 0.030947 -0.017258 162524.000000 1 0 0
-0.519926 -5.352838 14.323597 15.299955 1.473969 0.359179 0.008672 -0.006691 2250310.000000 1 0 0
-14.280026 -1.985838 13.707197 19.893465 0.138178 0.810646 0.039152 -0.007194 -457596.000000 1 0 0
-6.504226 1.426462 12.133797 13.840837 -0.215895 0.501908 0.010957 -0.001863 2464580.000000 1 0 0
2.234174 -2.278738 14.544797 14.890779 -0.795273 0.215987 0.004292 -0.003671 1276670.000000 1 0 0
-12.599126 4.086062 9.151097 16.098958 -0.313611 0.966203 0.006417 -0.009994 -233187.000000 1 0 0
-9.180426 -3.012038 12.604897 15.881940 0.317027 0.653991 0.010015 0.004908 1745780.000000 1 0 0
-7.163626 -7.317638 15.280797 18.394785 0.796033 0.590408 0.030340 -0.011378 -1122350.000000 1 0 0
-3.290926 6.053662 19.415597 20.602001 -1.072860 0.341022 0.048730 -0.012521 -336652.000000 1 0 0
0.658374 5.491762 16.184997 17.104007 1.451482 0.329299 0.018906 -0.006389 1698410.000000 1 0 0
3.522674 1.416562 16.901697 17.322911 0.382339 0.220973 0.018419 -0.005628 1697310.000000 1 0 0
-11.696726 11.364762 7.726797 18.046457 -0.771004 1.128339 0.008626 -0.022400 -1225750.000000 1 0 0
0.652474 -9.502138 15.486597 18.181063 -1.502238 0.551388 -0.003604 -0.000128 516440.000000 1 0 0
-2.484426 -3.539638 18.764497 19.256369 0.958805 0.226508 0.033379 -0.027106 766145.000000 1 0 0
-12.871526 2.566462 13.798197 19.043454 -0.196810 0.760395 0.027752 -0.014465 304700.000000 1 0 0
-5.396226 -0.620838 15.757997 16.667908 0.114547 0.331948 0.020762 -0.002077 2696920.000000 1 0 0
-4.497326 -6.004738 11.628597 13.838609 0.927959 0.572958 0.011254 -0.003918 1378320.000000 1 0 0
2.465774 1.755962 14.126497 14.447192 0.618823 0.211094 0.003650 -0.004265 -121481.000000 1 0 0
0.152874 3.295062 14.346797 14.721121 1.524435 0.225992 0.010708 -0.007129 885313.000000 1 0 0
-12.918126 7.117062 12.115397 19.086995 -0.503562 0.883116 0.016673 -0.012298 464793.000000 1 0 0
0.891174 1.210462 18.219897 18.281796 0.936169 0.082313 0.017765 -0.010791 753514.000000 1 0 0
-2.036926 6.415162 12.467897 14.168692 -1.263347 0.495016 -0.000930 -0.000762 494566.000000 1 0 0
-13.635626 -2.600838 10.919497 17.661542 0.188475 0.904264 0.032650 -0.007009 -147514.000000 1 0 0
-2.536026 3.598462 13.473197 14.174181 -0.956888 0.315810 0.004150 -0.000109 712329.000000 1 0 0
3.574374 6.136462 16.355297 17.830537 1.043358 0.409642 0.014500 -0.001678 1178250.000000 1 0 0
-3.718126 12.405462 12.316797 17.872421 -1.279599 0.810480 0.016991 -0.006534 826404.000000 1 0 0
3.768374 -1.504038 17.072197 17.547726 -0.379749 0.233334 0.027876 -0.011493 -151815.000000 1 0 0
-15.801926 0.452262 9.124597 18.252772 -0.028613 1.047311 0.033343 -0.007045 161514.000000 1 0 0
-4.691426 4.555662 15.226597 16.571445 -0.770717 0.405652 0.008741 -0.000024 1764500.000000 1 0 0
-8.016726 -8.180538 10.453897 15.507194 0.795511 0.831007 0.018638 -0.010648 3670010.000000 1 0 0
-2.585426 -0.405338 14.777497 15.007436 0.155512 0.175277 0.019141 -0.005287 832278.000000 1 0 0
-1.866626 0.990762 17.325897 17.454301 -0.487965 0.121372 0.020928 -0.009010 127022.000000 1 0 0
-0.680626 -2.456138 14.387797 14.611796 1.300468 0.175324 0.011548 -0.003738 -632336.000000 1 0 0
5.063574 -8.377638 16.444897 19.137901 -1.027136 0.536928 0.009297 -0.003577 109275.000000 1 0 0
-4.408026 10.033962 10.651197 15.282640 -1.156867 0.799664 0.002192 -0.003642 -1871840.000000 1 0 0
-6.269226 2.097062 15.146097 16.525892 -0.322801 0.411537 0.013895 0.000054 1131090.000000 1 0 0
-4.856726 6.830462 17.227897 19.158378 -0.952700 0.452777 0.014709 -0.001959 -960625.000000 1 0 0
-4.071326 9.167762 15.677497 18.612025 -1.152867 0.569201 0.012845 -0.007984 -1125910.000000 1 0 0
-4.712026 -9.752838 18.410697 21.360590 1.120724 0.531791 0.052994 -0.025260 -1194230.000000 1 0 0
-6.895826 -4.111738 11.133197 13.726139 0.537669 0.624775 0.014077 -0.001096 2047740.000000 1 0 0
-2.489626 -0.791938 19.608597 19.781873 0.307974 0.132455 0.031059 -0.010488 -866151.000000 1 0 0
-5.744826 -4.571238 15.247697 16.923106 0.672122 0.448730 0.024478 -0.009513 2008870.000000 1 0 0
-12.941426 0.031962 9.755997 16.206820 -0.002470 0.924832 0.013782 -0.000665 508818.000000 1 0 0
-14.262026 8.869862 10.286397 19.694918 -0.556383 1.021266 0.009237 -0.017429 -579779.000000 1 0 0
-8.256226 10.631862 12.729197 18.526581 -0.910515 0.813337 0.014634 -0.017687 -759787.000000 1 0 0
-10.437226 7.227862 10.706297 16.607302 -0.605680 0.870199 0.014159 -0.010999 -1930030.000000 1 0 0
-9.927726 -6.514238 14.794497 18.970297 0.580698 0.676327 0.030907 -0.010731 1426720.000000 1 0 0
-0.815026 -13.500638 14.459697 19.799352 1.510500 0.752018 0.002494 -0.010183 2404.180000 1 0 0
3.853474 -5.793438 16.918497 18.293407 -0.983848 0.390178 0.020429 -0.013845 2479310.000000 1 0 0
-7.289726 9.359962 10.290597 15.704948 -0.909104 0.856289 0.006165 -0.008521 1392520.000000 1 0 0
-10.356326 -6.687238 11.787997 17.056656 0.573357 0.807775 0.025652 -0.011550 2988220.000000 1 0 0
-11.041326 -3.926038 10.717397 15.880405 0.341634 0.829992 0.018457 0.001335 940655.000000 1 0 0
-10.155826 -10.245038 9.814297 17.447694 0.789771 0.973392 0.027780 -0.011720 2439050.000000 1 0 0
-9.904926 -3.619138 15.293097 18.576451 0.350317 0.603681 0.024176 -0.006132 848444.000000 1 0 0
5.640274 -3.468538 16.071197 17.381796 -0.551346 0.390814 0.023042 -0.012647 -679273.000000 1 0 0
-11.352426 0.609262 15.308497 19.068268 -0.053617 0.638777 0.028824 -0.005688 -32491.200000 1 0 0
-3.119426 3.262362 18.821897 19.355558 -0.807792 0.235368 0.030902 -0.011259 939654.000000 1 0 0
0.553374 7.391362 13.881397 15.736316 1.496068 0.490442 0.009016 -0.005737 1397370.000000 1 0 0
-13.173926 -7.491238 12.125297 19.408601 0.517042 0.896000 0.027944 -0.008591 -495148.000000 1 0 0
-1.484826 -1.015238 12.156397 12.288751 0.599731 0.146900 0.008988 -0.002944 838615.000000 1 0 0
2.094974 -4.866438 13.060397 14.094152 -1.164281 0.385385 0.002648 -0.007002 2005310.000000 1 0 0
-14.706826 -3.983938 8.680097 17.535865 0.264542 1.052972 0.026026 -0.003985 -201541.000000 1 0 0
8.106074 0.806762 16.011997 17.965059 0.099199 0.470624 0.033187 -0.006336 1280250.000000 1 0 0
-1.197826 11.421862 13.403797 17.650935 -1.466307 0.708434 0.009139 -0.001482 734112.000000 1 0 0
2.890474 -12.268838 -13.684303 18.604821 -1.339421 2.397237 0.012008 -0.000882 -258769.000000 1 0 0
0.793574 -10.752538 -13.962003 17.640418 -1.497126 2.484020 0.010044 0.004423 -3494290.000000 1 0 0
3.296574 -14.464038 -12.394103 19.331052 -1.346709 2.266792 0.020391 -0.002418 -1173520.000000 1 0 0
-5.097726 -10.201838 -16.163703 19.782052 1.107399 2.527140 0.017299 -0.004729 -221589.000000 1 0 0
-1.013626 -12.208838 -15.207303 19.528062 1.487962 2.463453 0.019915 0.003724 -194812.000000 1 0 0
5.796974 -15.076738 -11.983303 20.112496 -1.203725 2.209075 0.025895 -0.007765 -134406.000000 1 0 0
1.985874 -11.913138 -16.101803 20.127956 -1.405619 2.498045 0.021348 0.000974 -739986.000000 1 0 0
1.404274 -14.571338 -13.973303 20.237319 -1.474721 2.332938 0.026143 0.004692 -394295.000000 1 0 0
-0.970426 -10.601038 -15.857803 19.099572 1.479510 2.550388 0.014009 -0.005739 -650289.000000 1 0 0
-6.002726 -5.698138 -15.042003 17.168673 0.759373 2.638573 0.023756 -0.002609 -78674.400000 1 0 0
-6.372726 -7.712938 -16.603003 19.384549 0.880260 2.599260 0.023205 0.002718 393492.000000 1 0 0
4.996874 -12.672338 -11.345603 17.727933 -1.195202 2.265274 0.008183 -0.001408 177836.000000 1 0 0
-1.972926 -15.678038 -13.118103 20.537233 1.445614 2.263665 0.022751 0.001509 -130052.000000 1 0 0
15.676474 -7.384838 -8.817203 19.443013 -0.440243 2.041473 0.060275 -0.007396 372842.000000 1 0 0
19.242274 -3.684638 -4.107303 20.017783 -0.189196 1.777447 0.103552 -0.031175 1080970.000000 1 0 0
15.136274 -11.640438 -8.695103 20.981216 -0.655577 1.998105 0.080287 -0.023897 1072910.000000 1 0 0
17.878474 -3.488338 -6.349703 19.290595 -0.192693 1.906211 0.097471 -0.014832 409781.000000 1 0 0
9.522474 -9.103038 -15.397303 20.263755 -0.762883 2.433870 0.076523 -0.024627 106445.000000 1 0 0
1.322974 1.762662 -15.135903 15.295515 0.926940 2.997000 0.009527 -0.004332 -463386.000000 1 0 0
4.831474 -4.425438 -13.936403 15.399707 -0.741563 2.702125 0.005289 0.002589 2738870.000000 1 0 0
13.194374 -5.599638 -8.677103 16.755285 -0.401359 2.115159 0.038427 -0.003228 -2731450.000000 1 0 0
2.926874 0.975862 -12.196203 12.580392 0.321823 2.893821 0.006531 -0.004592 -273331.000000 1 0 0
0.496874 6.290762 -13.028403 14.476182 1.491975 2.690540 0.003312 -0.000661 144844.000000 1 0 0
2.974074 -1.122638 -16.898603 17.195005 -0.360939 2.955649 0.022150 -0.002031 -195213.000000 1 0 0
13.387074 4.283362 -11.480503 18.148358 0.309669 2.255691 0.032943 -0.014380 626774.000000 1 0 0
-3.760326 9.311562 -16.604103 19.404676 -1.186989 2.597651 -0.000954 0.000592 -224121.000000 1 0 0
-0.271926 -5.246938 -17.722203 18.484609 1.519017 2.853384 0.016267 -0.006690 -83295.300000 1 0 0
-0.544026 -8.547238 -17.572503 19.548506 1.507233 2.688090 0.022194 -0.006094 -938488.000000 1 0 0
5.626474 -10.209138 -12.085403 16.791089 -1.067093 2.374240 0.007759 0.000033 426716.000000 1 0 0
1.642074 -9.901938 -18.200103 20.784334 -1.406458 2.637606 0.037042 -0.006573 -369855.000000 1 0 0
10.866474 8.651062 -14.395403 20.003719 0.672373 2.374075 0.084022 -0.045774 194591.000000 1 0 0
10.941774 -3.827338 -12.886503 17.333000 -0.336489 2.409035 0.028659 -0.008976 433094.000000 1 0 0
4.949274 7.329362 -12.324903 15.169644 0.976863 2.519175 0.002256 -0.004611 -625947.000000 1 0 0
9.533974 -5.959938 -12.670703 16.940019 -0.558690 2.415801 0.026380 -0.006789 -1242620.000000 1 0 0
-3.323826 0.344462 -15.931503 16.278183 -0.103266 2.934840 0.012181 -0.002579 -712209.000000 1 0 0
-0.812126 10.786362 -12.796203 16.755535 -1.495646 2.439822 -0.005065 0.003368 -4266570.000000 1 0 0
6.668074 -5.561638 -12.400203 15.138034 -0.695173 2.530710 0.013370 -0.001655 -389474.000000 1 0 0
17.878174 -6.207238 -7.953503 20.528447 -0.334175 1.968647 0.089952 -0.018458 613304.000000 1 0 0
13.149874 4.765362 -14.002103 19.791078 0.347668 2.356745 0.053772 -0.027057 282656.000000 1 0 0
14.179774 0.885962 -11.501003 18.279059 0.062400 2.251307 0.029837 -0.000578 -682547.000000 1 0 0
15.232474 5.996762 -11.077403 19.766089 0.375049 2.165695 0.070810 -0.026266 -416405.000000 1 0 0
8.233674 1.455562 -11.768703 14.436565 0.174974 2.523873 0.003361 0.001663 462148.000000 1 0 0
9.861574 1.191762 -8.912703 13.345682 0.120266 2.302092 0.001280 0.000390 803076.000000 1 0 0
-0.090926 -5.784838 -13.007803 14.236416 1.555080 2.723092 0.002100 0.001016 339399.000000 1 0 0
10.651274 -5.797738 -8.811503 14.990197 -0.498475 2.199155 0.018526 -0.004991 236603.000000 1 0 0
10.275974 8.434862 -11.318703 17.460114 0.687316 2.276094 0.049362 -0.024955 935394.000000 1 0 0
8.283674 8.191762 -14.573003 18.657348 0.779819 2.467200 0.040563 -0.020708 111687.000000 1 0 0
8.596374 10.556362 -10.614303 17.262614 0.887378 2.233020 0.063347 -0.023488 1407380.000000 1 0 0
7.026874 1.715362 -17.931403 19.335321 0.239432 2.758174 0.042072 -0.006140 -1606280.000000 1 0 0
12.155474 2.588862 -12.902103 17.914297 0.209844 2.374905 0.030709 -0.010057 -1440780.000000 1 0 0
2.472274 -0.829138 -19.367103 19.541860 -0.323587 3.007757 0.037346 -0.009958 -486429.000000 1 0 0
10.323674 -2.181138 -15.438903 18.700143 -0.208213 2.542067 0.049668 -0.012451 -528175.000000 1 0 0
8.322274 -0.859738 -13.029103 15.484086 -0.102941 2.570760 0.013489 0.000237 1141810.000000 1 0 0
0.430274 4.270662 -14.742103 15.354260 1.470384 2.858267 0.005500 -0.002477 786792.000000 1 0 0
4.037474 -7.774538 -15.767903 18.038054 -1.091812 2.634472 0.014828 -0.005201 -1719910.000000 1 0 0
11.436974 -5.916638 -14.385303 19.306681 -0.477412 2.411473 0.060368 -0.014712 -1189440.000000 1 0 0
-5.918426 4.456262 -16.819703 18.379022 -0.645385 2.726695 0.012020 -0.002311 -163943.000000 1 0 0
11.472974 7.773862 -9.180803 16.623754 0.595520 2.155881 0.036650 -0.011385 -993913.000000 1 0 0
9.472274 6.040962 -13.543703 17.596849 0.567717 2.449115 0.025842 -0.009658 -604583.000000 1 0 0
12.120974 0.626862 -10.119003 15.802063 0.051671 2.265763 0.015476 0.002387 -2509010.000000 1 0 0
5.531174 -7.377538 -13.694803 16.509681 -0.927467 2.549011 0.011438 -0.002794 -838299.000000 1 0 0
8.685074 -10.293938 -10.649403 17.169900 -0.869967 2.239841 0.024291 -0.006440 640978.000000 1 0 0
10.091774 4.538262 -15.889403 19.362666 0.422604 2.533292 0.057337 -0.017920 1039360.000000 1 0 0
9.952674 -0.305038 -10.982103 14.824148 -0.030639 2.405094 0.007807 0.001610 -16844.900000 1 0 0
-1.827526 5.358162 -13.917603 15.024960 -1.242096 2.755265 -0.000988 -0.001132 -60780.500000 1 0 0
1.274574 -0.822838 -14.937803 15.014645 -0.573261 3.040378 0.008643 -0.002551 -472875.000000 1 0 0
11.366574 -10.515538 -14.257003 21.048460 -0.746526 2.314940 0.085994 -0.021791 -743157.000000 1 0 0
9.354974 -7.789638 -10.737603 16.232379 -0.694349 2.293604 0.024932 -0.006361 -53153.200000 1 0 0
14.161874 -1.070338 -9.843003 17.279728 -0.075435 2.176848 0.032769 -0.000005 980647.000000 1 0 0
3.932074 11.092762 -12.260303 16.994870 1.230143 2.376635 0.018417 -0.012716 -978339.000000 1 0 0
-1.449926 2.828862 -16.995303 17.290028 -1.097161 2.956689 0.009585 -0.004558 76595.900000 1 0 0
5.851074 -0.524338 -17.729503 18.677400 -0.089375 2.821636 0.021460 0.001729 259077.000000 1 0 0
6.432874 -6.796338 -16.102803 18.624509 -0.812866 2.615156 0.028160 -0.002145 -263234.000000 1 0 0
-1.764426 -5.236938 -19.892503 20.645832 1.245822 2.870623 0.030672 -0.015372 23729.900000 1 0 0
0.014774 -4.337538 -15.240603 15.845833 -1.567390 2.864318 0.004630 -0.000956 95899.200000 1 0 0
0.411874 0.565862 -12.966303 12.985178 0.941609 3.087668 0.006456 -0.005550 1267400.000000 1 0 0
15.485874 0.388062 -13.569503 20.593550 0.025054 2.290178 0.064612 -0.019101 589862.000000 1 0 0
-0.171126 6.876262 -16.332503 17.721820 -1.545915 2.742990 0.008454 0.002020 -815695.000000 1 0 0
-4.938026 -0.580938 -18.286203 18.950113 0.117108 2.876108 0.012867 -0.002287 -131180.000000 1 0 0
10.332474 -8.470538 -13.059003 18.682816 -0.686697 2.344773 0.028546 -0.018069 325501.000000 1 0 0
4.245474 8.268062 -17.491103 19.807160 1.096424 2.653161 0.033071 -0.012551 -327135.000000 1 0 0
9.292374 0.722062 -17.053403 19.434200 0.077549 2.641409 0.041464 -0.002328 -88117.700000 1 0 0
3.227374 4.711162 -18.559503 19.418191 0.970176 2.843094 0.028447 -0.002888 -439051.000000 1 0 0
1.474774 -8.398238 -16.065303 18.187889 -1.396963 2.653645 0.011048 -0.001329 945055.000000 1 0 0
4.350274 7.753862 -14.931703 17.378234 1.059512 2.604537 0.007077 -0.002379 543107.000000 1 0 0
-5.767326 -0.387538 -15.237203 16.296766 0.067095 2.779008 0.010957 -0.001944 -771146.000000 1 0 0
2.776474 3.292062 -13.751203 14.409790 0.870155 2.838091 0.007390 -0.002764 979157.000000 1 0 0
-2.391926 -10.412338 -17.892603 20.839466 1.344994 2.603314 0.036374 -0.005614 -271183.000000 1 0 0
6.037174 -9.312638 -15.333703 18.928686 -0.995633 2.515081 0.010463 -0.006495 28676.700000 1 0 0
-1.833426 5.393862 -17.549503 18.451023 -1.243139 2.827703 0.006452 0.005045 96931.000000 1 0 0
10.034074 -12.324438 -11.717303 19.745116 -0.887480 2.206107 0.059256 -0.012530 338574.000000 1 0 0
10.957474 3.644662 -9.279303 14.814023 0.321107 2.247705 0.004770 -0.003859 21745.400000 1 0 0
4.825874 -0.494938 -10.988403 12.011620 -0.102202 2.725844 0.008990 -0.002603 466213.000000 1 0 0
6.299274 9.448662 -11.468003 16.139181 0.982782 2.361103 0.019866 -0.015182 445898.000000 1 0 0
10.864274 -9.529438 -9.369503 17.222957 -0.720038 2.146008 0.042499 -0.009001 -195711.000000 1 0 0
3.273774 -2.474838 -14.639303 15.203671 -0.647304 2.868271 0.008286 0.002083 -145816.000000 1 0 0
9.257374 -4.555738 -14.790103 18.033327 -0.457324 2.532476 0.044256 -0.009865 142560.000000 1 0 0
-4.017826 -6.543438 -16.434903 18.140164 1.020129 2.704521 0.011441 -0.004249 -1098510.000000 1 0 0
5.810674 -7.773538 -11.165603 14.794003 -0.928901 2.426052 0.001419 0.000759 344261.000000 1 0 0
5.427374 6.174562 -16.774803 18.680889 0.849711 2.685922 0.019379 -0.017389 -1074100.000000 1 0 0
9.140374 1.319262 -19.568503 21.638235 0.143344 2.700647 0.066333 -0.013148 582893.000000 1 0 0
13.229474 5.739862 -9.443203 17.237723 0.409359 2.150555 0.021347 -0.010108 58157.900000 1 0 0
-1.734526 -0.988838 -17.388103 17.502357 0.518137 3.027268 0.016472 -0.007023 555742.000000 1 0 0
-0.678626 -0.599638 -19.597803 19.618715 0.723684 3.095417 0.028401 -0.014357 -248931.000000 1 0 0
2.793074 6.373462 -16.552203 17.955436 1.157769 2.743621 0.013665 -0.000588 -1167690.000000 1 0 0
7.577974 3.694562 -15.679903 17.802664 0.453630 2.648264 0.027300 -0.005046 330143.000000 1 0 0
3.125574 -9.926138 -14.748203 18.050122 -1.265742 2.527106 0.010620 -0.003909 -100008.000000 1 0 0
8.897674 -10.621638 -13.381703 19.262860 -0.873491 2.338784 0.041723 -0.009183 -499566.000000 1 0 0
3.759174 0.047362 -14.780303 15.250934 0.012598 2.892518 0.012701 -0.000377 -1214160.000000 1 0 0
-1.122026 -3.059638 -18.971903 19.249764 1.219306 2.971479 0.027675 -0.007004 536781.000000 1 0 0
9.172174 10.176462 -13.053603 18.923153 0.837256 2.332039 0.072070 -0.033361 186630.000000 1 0 0
4.634574 2.012762 -10.697803 11.831039 0.409715 2.700334 0.004672 -0.001041 16843.400000 1 0 0
-0.228526 6.874162 -18.991503 20.198602 -1.537564 2.794126 0.027597 -0.000177 38905.100000 1 0 0
0.710674 -1.723838 -17.663103 17.761247 -1.179763 3.036418 0.022300 -0.008618 -3994160.000000 1 0 0
-4.434726 -2.138438 -14.093503 14.928715 0.449309 2.805508 0.011556 -0.007088 -2982090.000000 1 0 0
10.062674 5.938962 -10.458203 15.681285 0.533180 2.300867 0.015682 -0.004736 174334.000000 1 0 0
8.265074 5.592662 -17.445403 20.098045 0.594891 2.621987 0.062840 -0.016592 -686250.000000 1 0 0
11.686774 0.152262 -13.441003 17.811918 0.013028 2.425852 0.033252 -0.000577 396718.000000 1 0 0
6.748774 11.901262 -11.931203 18.153225 1.054947 2.287960 0.051632 -0.025860 -431569.000000 1 0 0
-0.887226 0.480762 -15.301003 15.334242 -0.496581 3.075737 0.008055 -0.003653 -1539610.000000 1 0 0
-4.459826 -2.998238 -19.028903 19.773179 0.591877 2.866350 0.025777 -0.003567 223946.000000 1 0 0
5.814074 -12.150938 -13.816403 19.296159 -1.124506 2.368878 0.017893 -0.008431 -62635.500000 1 0 0
2.132774 -4.806738 -14.031403 14.984449 -1.153190 2.783017 0.003203 0.001664 -3718320.000000 1 0 0
11.826174 1.788262 -15.289403 19.411907 0.150075 2.477750 0.062510 -0.014795 319142.000000 1 0 0
9.702474 2.019262 -13.766603 16.962747 0.205189 2.517645 0.019741 -0.003908 696698.000000 1 0 0
-2.255826 -4.071738 -16.427803 17.074557 1.064872 2.865477 0.006403 -0.004701 -588078.000000 1 0 0
-2.742126 10.040262 -14.347103 17.724714 -1.304185 2.513995 -0.001962 -0.000964 217233.000000 1 0 0
3.483074 5.679762 -13.657903 15.196375 1.020696 2.687731 0.005052 -0.002677 -60870.300000 1 0 0
-5.106626 -2.536938 -16.514803 17.471474 0.461079 2.809137 0.014260 -0.005801 310463.000000 1 0 0
-4.289126 6.207762 -13.505903 15.470692 -0.966184 2.632115 -0.003614 0.000252 -1080720.000000 1 0 0
5.903474 -1.217638 -14.097003 15.331639 -0.203405 2.737530 0.015967 0.002154 -674047.000000 1 0 0
6.835474 -3.071238 -12.650103 14.703106 -0.422279 2.606790 0.014161 -0.002353 1164200.000000 1 0 0
2.787974 -3.277038 -18.215303 18.716544 -0.865861 2.909640 0.031279 -0.013103 -368437.000000 1 0 0
7.462774 -12.031238 -11.979703 18.546077 -1.015596 2.273054 0.032491 -0.010354 -2021370.000000 1 0 0
-6.149126 -5.419138 -17.651003 19.461159 0.722379 2.706868 0.042757 -0.006323 191295.000000 1 0 0
0.456474 8.663062 -11.995003 14.803280 1.518153 2.515449 -0.003878 0.004614 -489678.000000 1 0 0
0.590274 8.454262 -14.568503 16.854205 1.501090 2.614720 0.002188 0.002627 140799.000000 1 0 0
7.738474 -2.480538 -15.082503 17.132395 -0.310198 2.647396 0.025312 -0.008277 314774.000000 1 0 0
14.339974 1.386262 -8.950003 16.960517 0.096372 2.126683 0.024619 -0.000452 528110.000000 1 0 0
2.669774 10.744662 -14.591903 18.316634 1.327254 2.492525 0.010590 -0.002943 -432059.000000 1 0 0
6.149374 0.908062 -15.541403 16.738416 0.146608 2.761114 0.024371 -0.000156 128680.000000 1 0 0
16.763074 -5.533738 -10.154103 20.364889 -0.318851 2.092789 0.107412 -0.018996 452593.000000 1 0 0
4.980174 -4.309938 -11.203803 12.996265 -0.713378 2.610154 -0.000185 0.002736 -655793.000000 1 0 0
8.904674 -3.421438 -17.163203 19.636064 -0.366838 2.634305 0.052172 -0.013395 472630.000000 1 0 0
13.357974 -9.598838 -8.859003 18.683016 -0.623090 2.064822 0.068533 -0.017999 -389141.000000 1 0 0
2.344274 -7.753238 -13.637203 15.861325 -1.277175 2.605629 -0.001152 0.002175 68709.300000 1 0 0
-6.962926 -2.274138 -18.463303 19.863222 0.315684 2.763911 0.030770 -0.010710 473328.000000 1 0 0
-1.496226 -6.360638 -15.711203 17.015825 1.339765 2.747457 0.002008 -0.003185 1094110.000000 1 0 0
1.561974 -7.299038 -18.452203 19.904761 -1.359979 2.757195 0.032138 -0.011260 -819156.000000 1 0 0
5.294974 10.668462 -14.517203 18.777700 1.110097 2.454524 0.047381 -0.030656 1188340.000000 1 0 0
5.283974 -3.423638 -17.428903 18.531280 -0.574918 2.794932 0.021277 -0.006650 -196195.000000 1 0 0
3.896274 12.909462 -14.179203 19.567446 1.277675 2.381297 0.036051 -0.016422 -9477.550000 1 0 0
9.367474 10.327962 -15.639203 20.952352 0.834127 2.413459 0.098899 -0.038548 51435.400000 1 0 0
2.475074 3.769762 -16.294803 16.907327 0.989823 2.871596 0.015351 -0.003566 197630.000000 1 0 0
16.669174 1.664662 -11.506303 20.323077 0.099535 2.172647 0.080689 -0.014884 503588.000000 1 0 0
10.028974 -3.823138 -10.449403 14.979544 -0.364203 2.342808 0.021408 -0.003472 480001.000000 1 0 0
14.753174 -2.324038 -12.022603 19.172905 -0.156244 2.248572 0.071961 -0.005146 264421.000000 1 0 0
-2.646926 -8.684938 -16.005403 18.401285 1.274967 2.625589 0.010771 0.001892 -1319580.000000 1 0 0
14.064674 8.169562 -9.098403 18.636999 0.526225 2.080811 0.061053 -0.008851 878904.000000 1 0 0
-8.412826 -0.055038 -16.568603 18.582176 0.006542 2.671750 0.019987 -0.007118 -376122.000000 1 0 0
-3.499026 4.085662 -16.011303 16.890756 -0.862589 2.817477 0.006296 0.000988 252320.000000 1 0 0
15.175874 3.890362 -9.671103 18.411201 0.250948 2.123845 0.041178 -0.009071 500803.000000 1 0 0
5.465774 1.103962 -13.008703 14.153437 0.199296 2.736637 0.009085 -0.000373 168884.000000 1 0 0
7.844674 -7.808538 -12.834303 16.947906 -0.783090 2.429934 0.030390 -0.007744 -3509810.000000 1 0 0
3.250774 -6.211338 -11.849203 13.767784 -1.088635 2.607335 -0.000598 0.001877 -859704.000000 1 0 0
-3.355026 3.581062 -18.634603 19.269889 -0.817975 2.884103 0.011606 0.003684 -507771.000000 1 0 0
0.806274 4.999162 -17.737003 18.445676 1.410891 2.863499 0.019356 -0.011316 -1558430.000000 1 0 0
6.355474 7.077762 -10.279603 14.005606 0.839115 2.394936 0.009539 -0.004344 468661.000000 1 0 0
9.723074 3.634662 -11.678603 15.624939 0.357734 2.414987 0.010066 -0.004486 -83793.800000 1 0 0
4.523174 1.665862 -17.518603 18.169635 0.352879 2.873090 0.027320 -0.001305 -1199700.000000 1 0 0
2.585174 8.001562 -13.092603 15.560346 1.258299 2.570680 0.003255 -0.003699 -2461840.000000 1 0 0
14.421374 -3.619738 -9.852703 17.836880 -0.245918 2.156011 0.052613 -0.003087 310879.000000 1 0 0
-1.163226 9.294162 -16.229003 18.738065 -1.446287 2.618139 0.005114 0.002213 -1875170.000000 1 0 0
-5.271026 2.063362 -15.808803 16.791647 -0.373117 2.797756 0.010676 -0.002966 501511.000000 1 0 0
4.470474 4.243662 -11.936503 13.434058 0.759376 2.664918 0.004175 -0.002471 574684.000000 1 0 0
9.103874 3.152562 -17.804003 20.243559 0.333364 2.645585 0.047379 -0.007132 977513.000000 1 0 0
-4.188526 14.367662 -13.458603 20.127281 -1.287133 2.303221 0.013642 -0.004875 -389433.000000 1 0 0
15.500574 -4.855638 -7.919403 18.071026 -0.303573 2.024433 0.062311 -0.008503 511187.000000 1 0 0
1.293774 8.956262 -17.038203 19.292196 1.427334 2.653365 0.007484 0.001711 -571503.000000 1 0 0
0.525774 -3.214938 -12.825103 13.232367 -1.408690 2.892848 0.004930 0.000408 568673.000000 1 0 0
7.565474 3.538562 -13.071203 15.511743 0.437496 2.573010 0.011889 -0.002013 632419.000000 1 0 0
-2.742026 7.497862 -15.149803 17.124636 -1.220197 2.656601 -0.008267 0.003396 -487916.000000 1 0 0
12.101174 -5.195538 -10.977203 17.144417 -0.405542 2.265657 0.040435 -0.007954 -1288500.000000 1 0 0
0.814774 -4.575638 -20.020303 20.552685 -1.394575 2.913488 0.046137 -0.013158 -327515.000000 1 0 0
3.331374 -4.648938 -16.137503 17.121030 -0.949024 2.800993 0.016734 -0.007105 481799.000000 1 0 0
-5.647726 4.192862 -14.333303 15.966229 -0.638618 2.685377 0.001407 0.000083 704912.000000 1 0 0
12.306974 -7.535638 -9.822303 17.456377 -0.549419 2.168417 0.036164 -0.007746 189495.000000 1 0 0
-1.984726 -1.781038 -14.939303 15.175441 0.731362 2.964951 0.008690 -0.002074 508176.000000 1 0 0
7.008174 5.872062 -14.314303 16.985137 0.697420 2.573177 0.017762 -0.004348 -713044.000000 1 0 0
4.154974 -5.461838 -18.458703 19.693126 -0.920464 2.785646 0.039471 -0.013755 196280.000000 1 0 0
7.582674 7.340262 -12.344203 16.240558 0.769155 2.434240 0.016246 -0.013777 -1597520.000000 1 0 0
12.290074 -2.543738 -11.022503 16.703655 -0.204093 2.291463 0.022521 -0.001216 -167847.000000 1 0 0
7.468874 -0.786738 -10.558303 12.956882 -0.104949 2.523318 0.006210 0.002233 -278636.000000 1 0 0
5.335974 3.883662 -14.335503 15.781701 0.629158 2.710147 0.005324 -0.003261 221373.000000 1 0 0
14.810374 2.881762 -13.060603 19.955728 0.192176 2.284290 0.057891 -0.022871 381658.000000 1 0 0
-6.185026 7.070962 -16.077903 18.621278 -0.852132 2.612798 -0.000848 0.012901 247265.000000 1 0 0
-11.176826 3.778662 -16.507203 20.290083 -0.326017 2.521045 0.049315 -0.021136 -328171.000000 1 0 0
-5.051126 6.407862 -18.314603 20.049919 -0.903249 2.722480 0.006228 0.019665 141580.000000 1 0 0
-10.063326 1.618262 -15.601203 18.635633 -0.159443 2.562886 0.038125 -0.011939 -17356.200000 1 0 0
-7.620826 5.936162 -18.011003 20.437985 -0.661767 2.649300 0.012088 -0.003062 868469.000000 1 0 0
-8.687426 3.800762 -15.768803 18.400334 -0.412412 2.600186 0.005854 0.006945 -508651.000000 1 0 0
8.881674 13.348862 -12.212703 20.155058 0.983705 2.221740 0.107403 -0.034424 -965960.000000 1 0 0
13.501274 8.698062 -11.675303 19.855815 0.572315 2.199386 0.054973 -0.021433 86132.400000 1 0 0
8.322574 15.740162 -9.211603 20.046735 1.084416 2.048236 0.060265 -0.018500 -118591.000000 1 0 0
7.078574 13.581162 -14.027003 20.768028 1.090329 2.312321 0.084181 -0.023111 -171119.000000 1 0 0
4.499874 15.890362 -12.499603 20.712135 1.294839 2.218669 0.071764 -0.029003 352764.000000 1 0 0
11.103774 10.866762 -11.510403 19.335710 0.774611 2.208426 0.097534 -0.031495 -274156.000000 1 0 0
15.858174 9.177162 -10.529703 21.132360 0.524612 2.092403 0.100982 0.000615 228615.000000 1 0 0
13.644074 10.619562 -9.851103 19.899248 0.661386 2.088688 0.121654 -0.018372 385075.000000 1 0 0
10.730074 11.960462 -8.262803 18.068233 0.839570 2.045766 0.062432 -0.001836 545242.000000 1 0 0
5.275874 16.058362 -10.047803 19.663778 1.253363 2.107121 0.047648 -0.026021 -234230.000000 1 0 0
6.615174 14.533062 -11.683603 19.785778 1.143642 2.202481 0.057313 -0.017674 -1124510.000000 1 0 0
10.820474 13.923862 -9.980103 20.262257 0.910165 2.085810 0.094972 -0.012215 -310222.000000 1 0 0
8.195674 -18.575038 -1.108303 20.332965 -1.155268 1.625331 0.062194 -0.014012 -249815.000000 1 0 0
7.301474 -17.353438 -3.193703 19.095892 -1.172530 1.738832 0.047130 -0.012303 -29408.000000 1 0 0
4.556674 -17.624838 5.334797 18.969930 -1.317799 1.285727 0.043777 -0.028898 168247.000000 1 0 0
9.814274 -17.187438 -2.533303 19.953587 -1.051963 1.698100 0.058471 -0.012034 -726457.000000 1 0 0
-9.750326 -12.165138 -9.975003 18.508380 0.895143 2.139981 0.031382 -0.004718 -840460.000000 1 0 0
-5.162026 -6.973938 -12.075603 14.869516 0.933604 2.518546 0.007878 0.000180 306129.000000 1 0 0
-10.894226 -9.464638 -5.484403 15.438335 0.715294 1.933973 0.020233 -0.000191 -2522210.000000 1 0 0
-4.550526 -11.438538 -13.951803 18.606457 1.192167 2.418611 0.013138 -0.002211 7164.780000 1 0 0
-2.874926 -15.532938 7.372397 17.432430 1.387782 1.134139 -0.000024 0.000003 127136.000000 1 0 0
-4.825526 -12.026638 -11.500303 17.325781 1.189224 2.296642 0.017887 -0.004688 235543.000000 1 0 0
-14.469326 -12.755638 -4.131003 19.726451 0.722536 1.781772 0.060085 -0.004619 354548.000000 1 0 0
-3.306126 -12.180238 -3.171103 13.013246 1.305749 1.816958 0.009983 -0.004014 1053760.000000 1 0 0
-2.499126 -17.263338 -1.494503 17.507199 1.427030 1.656265 0.002598 -0.013941 -974457.000000 1 0 0
-5.743726 -12.115438 3.685297 13.905238 1.128096 1.302562 0.000839 -0.004076 -710686.000000 1 0 0
-8.858226 -10.725338 -11.910103 18.312607 0.880452 2.278877 0.018033 0.000444 151741.000000 1 0 0
-10.248326 -12.006138 -7.473503 17.465073 0.864221 2.012977 0.041815 -0.006766 -10280.400000 1 0 0
-10.979426 -14.998138 6.120097 19.569045 0.938881 1.252716 0.034456 -0.013365 623456.000000 1 0 0
-9.533226 -15.731438 0.704497 18.408065 1.025978 1.532516 0.022558 -0.003224 -1094440.000000 1 0 0
-14.811326 -7.725938 -8.121803 18.574961 0.480797 2.023329 0.026749 -0.006246 61204.600000 1 0 0
-2.425326 -16.492138 4.960297 17.391877 1.424783 1.281573 0.010400 -0.005240 -245002.000000 1 0 0
4.388974 -15.398938 6.678097 17.348988 -1.293141 1.175667 0.031598 -0.016469 -723960.000000 1 0 0
4.175074 -14.769638 -10.043703 18.342558 -1.295305 2.150245 0.013815 -0.005977 334366.000000 1 0 0
-7.592126 -14.032438 -0.233603 15.956324 1.074857 1.585437 0.005417 -0.002907 1658820.000000 1 0 0
2.920274 -14.883938 9.602797 17.951973 -1.377054 1.006388 0.021624 -0.013314 558455.000000 1 0 0
2.393174 -17.170938 10.446797 20.241145 -1.432315 1.028485 0.049898 -0.020394 -105811.000000 1 0 0
-8.188026 -17.214738 -5.519703 19.845858 1.126826 1.852642 0.047683 -0.012671 167707.000000 1 0 0
-6.529626 -9.111938 -7.606403 13.546985 0.949015 2.166973 0.018339 -0.004016 497400.000000 1 0 0
-6.065426 -13.145238 -4.826603 15.260497 1.138489 1.892603 0.004727 -0.006557 68019.600000 1 0 0
2.258374 -19.413538 -4.840503 20.134949 -1.454987 1.813577 0.025847 -0.010958 381168.000000 1 0 0
-5.331426 -12.773438 8.384897 16.183057 1.175394 1.026135 0.001248 -0.004850 746291.000000 1 0 0
2.156474 -17.476638 3.352197 17.925415 -1.448025 1.382681 0.025555 -0.013766 127631.000000 1 0 0
-17.691426 -10.039438 -2.467203 20.490582 0.516160 1.691496 0.055127 -0.012044 596110.000000 1 0 0
-3.745626 -15.320838 2.596597 15.984371 1.331020 1.407627 0.001543 -0.004631 145618.000000 1 0 0
-10.051126 -10.218738 -14.189503 20.169029 0.793667 2.351148 0.027021 -0.010276 -306294.000000 1 0 0
6.047974 -14.815138 -5.610803 16.957223 -1.183216 1.908032 0.014039 -0.009769 556757.000000 1 0 0
-7.330426 -12.283838 -10.607903 17.808858 1.032767 2.208875 0.017417 -0.008766 -1315210.000000 1 0 0
-7.061126 -14.250738 3.992197 16.397581 1.110762 1.324862 -0.004537 0.002451 731832.000000 1 0 0
3.280874 -14.998738 -3.250503 15.693695 -1.355445 1.779428 0.008636 -0.006363 -473192.000000 1 0 0
-7.549926 -11.389838 7.875797 15.772063 0.985430 1.047947 0.006639 -0.010586 -947775.000000 1 0 0
-12.771526 -12.218938 -0.983103 17.702565 0.763290 1.626359 0.030309 0.001948 -1072500.000000 1 0 0
-1.903526 -13.616338 3.969797 14.310394 1.431899 1.289703 0.002292 -0.001830 -1965080.000000 1 0 0
-3.135426 -13.952138 5.202797 15.217166 1.349742 1.221855 -0.000659 0.000190 183150.000000 1 0 0
-14.471526 -10.227138 -4.487103 18.279866 0.615214 1.818798 0.031416 -0.004851 531158.000000 1 0 0
-6.205826 -8.655038 -10.288703 14.808084 0.948739 2.338942 0.009916 -0.002437 268221.000000 1 0 0
0.928974 -19.368038 2.199097 19.514608 -1.522869 1.457867 0.040619 -0.019156 137353.000000 1 0 0
6.462074 -14.202038 -8.275503 17.661830 -1.143784 2.058448 0.024770 -0.013722 -2020960.000000 1 0 0
-3.850126 -16.683838 -5.866503 18.099441 1.343997 1.900884 0.006253 -0.014481 -462300.000000 1 0 0
-3.522426 -13.693538 -13.211903 19.351353 1.319022 2.322300 0.022559 0.000081 -845913.000000 1 0 0
-8.191626 -14.712138 -4.526303 17.436661 1.062752 1.833389 0.021452 -0.007575 -1075150.000000 1 0 0
-4.449326 -14.357738 10.155097 18.140208 1.270291 0.976638 0.002776 -0.003433 5262.380000 1 0 0
-0.281126 -12.133738 -10.015703 15.735976 1.547632 2.260728 0.006367 0.002130 523003.000000 1 0 0
2.366574 -17.106038 6.618297 18.493758 -1.433322 1.204814 0.028452 -0.021818 -1192750.000000 1 0 0
-2.920826 -19.065338 -3.398503 19.584896 1.418777 1.745206 0.015259 -0.014181 -1628220.000000 1 0 0
0.627774 -15.407038 -3.147103 15.737699 -1.530073 1.772126 0.008866 -0.006762 -303464.000000 1 0 0
5.765874 -18.010638 0.397297 18.915238 -1.260969 1.549791 0.028081 -0.011305 -404825.000000 1 0 0
-7.009926 -16.648638 3.928497 18.486463 1.172275 1.356657 -0.000410 0.000740 380467.000000 1 0 0
-5.310026 -13.479538 -9.458003 17.301680 1.195532 2.149157 0.014764 -0.007157 -110981.000000 1 0 0
5.659874 -15.229538 -2.158403 16.389988 -1.214976 1.702870 0.021974 -0.005061 -781000.000000 1 0 0
-8.844026 -10.252738 -0.483403 13.548768 0.859032 1.606483 0.004490 0.001056 960039.000000 1 0 0
-7.287626 -18.503838 -2.691603 20.068539 1.195608 1.705322 0.023551 -0.016421 -482154.000000 1 0 0
7.893674 -15.928338 -1.119403 17.812218 -1.110696 1.633682 0.026219 -0.010857 -492111.000000 1 0 0
-8.151126 -10.151138 -9.422003 16.070488 0.894243 2.197271 0.017080 -0.002421 20827.000000 1 0 0
-9.179826 -15.251338 -7.029903 19.138758 1.028979 1.946914 0.050565 -0.013632 -60122.100000 1 0 0
-11.456926 -10.623538 -12.009403 19.706508 0.747673 2.226116 0.033808 0.005755 83161.700000 1 0 0
6.558374 -16.377238 2.409697 17.805416 -1.189896 1.435045 0.030335 -0.008753 903704.000000 1 0 0
-2.234226 -11.265838 -5.996903 12.956609 1.375018 2.051998 0.008743 -0.003268 343701.000000 1 0 0
-12.291626 -15.486338 -3.172103 20.024309 0.899904 1.729879 0.045322 -0.005279 -332797.000000 1 0 0
-0.515626 -19.772738 -2.742403 19.968671 1.544725 1.708567 0.027248 -0.008597 -157212.000000 1 0 0
-5.830026 -15.601438 -4.633503 17.287667 1.213179 1.842137 0.007615 -0.012428 -2481880.000000 1 0 0
1.934274 -15.911738 -1.038803 16.062501 -1.449827 1.635514 0.016633 -0.011135 855571.000000 1 0 0
-12.979826 -11.880638 5.308497 18.379488 0.741213 1.277795 0.016176 -0.011092 469609.000000 1 0 0
2.022474 -15.230238 -8.735603 17.673746 -1.438775 2.087791 0.015315 -0.006640 -3453100.000000 1 0 0
-11.890926 -16.576138 -0.167803 20.400751 0.948519 1.579022 0.066209 -0.024381 814144.000000 1 0 0
-7.797826 -16.548338 -1.080803 18.325439 1.130441 1.629809 0.026437 -0.012044 482868.000000 1 0 0
-2.962926 -14.404138 -1.707403 14.804504 1.367926 1.686383 0.001790 -0.008080 199521.000000 1 0 0
-1.752026 -10.609238 -13.141203 16.979892 1.407132 2.455816 0.007708 0.001331 -145388.000000 1 0 0
1.445374 -19.457938 4.801997 20.093771 -1.496651 1.329482 0.055043 -0.021667 248114.000000 1 0 0
-17.430726 -9.460438 2.504397 19.990050 0.497256 1.445184 0.032838 -0.014389 101485.000000 1 0 0
-2.733626 -15.688138 -8.040803 17.839420 1.398280 2.038382 0.005156 -0.005651 -746013.000000 1 0 0
-10.536926 -12.068838 0.409297 16.026577 0.853061 1.545255 0.010325 0.004792 691723.000000 1 0 0
-6.891526 -11.496038 -6.555703 14.920766 1.030767 2.025691 0.010731 -0.002120 556994.000000 1 0 0
-2.175626 -13.597138 -6.736603 15.329623 1.412135 2.025783 0.004854 -0.004188 685033.000000 1 0 0
-14.257426 -14.437438 -1.054803 20.318130 0.791671 1.622734 0.054822 -0.007281 210842.000000 1 0 0
-9.609726 -11.260238 -4.261703 15.404606 0.864319 1.851104 0.019550 -0.002746 1294140.000000 1 0 0
9.490474 -15.222038 -5.101503 18.649528 -1.013298 1.847874 0.042934 -0.009705 305065.000000 1 0 0
-5.624926 -10.909538 -9.312103 15.406916 1.094749 2.219822 0.015207 -0.005258 -112539.000000 1 0 0
-10.361626 -16.074438 -4.802703 19.718438 0.998225 1.816835 0.059605 -0.011536 -1475830.000000 1 0 0
2.289774 -17.326538 -3.256703 17.778023 -1.439404 1.755024 0.019862 -0.008879 857200.000000 1 0 0
-0.393226 -14.450238 -8.159603 16.599492 1.543591 2.084674 0.005395 -0.002659 -1429500.000000 1 0 0
-0.750426 -18.278038 -7.093803 19.620700 1.529763 1.940723 0.011722 -0.005980 41383.600000 1 0 0
-1.690226 -9.960838 -10.543703 14.602905 1.402710 2.377525 0.005432 -0.000398 176522.000000 1 0 0
-5.180126 -17.313538 1.975697 18.179540 1.280078 1.461904 0.003570 -0.007835 -282842.000000 1 0 0
0.189274 -12.841438 -2.591603 13.101708 -1.556058 1.769916 0.007544 -0.006164 -1482990.000000 1 0 0
2.555874 -14.958138 3.080497 15.484439 -1.401562 1.370519 0.019587 -0.008515 -1455000.000000 1 0 0
-9.408426 -12.986938 6.774897 17.409143 0.943847 1.171080 0.008766 -0.009702 -332788.000000 1 0 0
-1.038026 -17.846938 -4.524403 18.440741 1.512699 1.818675 0.008427 -0.009663 -124773.000000 1 0 0
-9.742426 -17.943538 -2.429603 20.561819 1.073383 1.689234 0.050123 -0.006598 265645.000000 1 0 0
1.286174 -16.182538 1.356997 16.290188 -1.491484 1.487398 0.016333 -0.015356 822381.000000 1 0 0
-0.453626 -17.949238 3.939197 18.382007 1.545529 1.354825 0.030227 -0.017474 -244978.000000 1 0 0
-17.458626 -9.223738 -0.045603 19.745456 0.486046 1.573106 0.030720 -0.005670 592021.000000 1 0 0
-14.893026 -7.010838 -10.560303 19.556944 0.439972 2.141206 0.056793 -0.020875 784725.000000 1 0 0
2.868074 -12.769238 -8.862803 15.805966 -1.349855 2.166058 0.003824 -0.001261 716365.000000 1 0 0
-11.875726 -14.808838 1.643397 19.053485 0.894877 1.484437 0.032395 -0.006672 317055.000000 1 0 0
-2.172526 -15.513638 10.781397 19.016607 1.431661 0.968002 0.001643 -0.003948 -896526.000000 1 0 0
-7.184926 -15.889338 1.397697 17.494221 1.146127 1.490816 0.012072 -0.008875 -1433100.000000 1 0 0
-12.517926 -15.160238 -5.756203 20.485730 0.880575 1.855618 0.054538 -0.008354 391917.000000 1 0 0
0.928874 -13.750138 -4.990603 14.657258 -1.503345 1.918231 0.007586 -0.003346 615687.000000 1 0 0
6.105374 -16.568038 -7.382403 19.138322 -1.217734 1.966805 0.044201 -0.024527 56560.200000 1 0 0
-6.514926 -12.780638 5.969097 15.537667 1.099379 1.176488 0.003432 -0.002771 -31016.400000 1 0 0
-2.509826 -13.508138 0.513897 13.748931 1.387090 1.533410 0.004711 -0.006416 828813.000000 1 0 0
-4.370026 -15.437238 0.120897 16.044316 1.294931 1.563261 -0.001839 -0.009553 425663.000000 1 0 0
-17.654226 -7.489838 -1.925603 19.273747 0.401237 1.670871 0.021699 -0.005521 109221.000000 1 0 0
1.267574 -12.892338 -11.924603 17.607251 -1.472791 2.314822 0.009650 0.000921 -2067280.000000 1 0 0
1.248074 -17.124538 -5.737203 18.103121 -1.498043 1.893274 0.024692 -0.008496 -198925.000000 1 0 0
-12.855726 -6.347838 -8.969803 16.912188 0.458655 2.129839 0.026583 -0.004774 -220953.000000 1 0 0
-11.762726 -13.403138 -9.098803 20.019841 0.850490 2.042595 0.060325 -0.012115 400330.000000 1 0 0
-4.270626 -9.866038 3.579797 11.331015 1.162286 1.249361 0.005012 -0.005305 -4440000.000000 1 0 0
-6.982626 -14.379438 9.527497 18.609097 1.118737 1.033307 0.000756 -0.005785 -1040210.000000 1 0 0
-5.345926 -15.797238 -7.975803 18.486349 1.244485 2.016888 0.008940 -0.017127 -113519.000000 1 0 0
-0.239726 -13.405738 2.065097 13.565984 1.552916 1.417976 0.006807 -0.010112 773231.000000 1 0 0
-11.024926 -13.571538 -4.414203 18.033880 0.888566 1.818082 0.052389 -0.002037 -505691.000000 1 0 0
-9.699026 -10.456838 6.707397 15.760893 0.822978 1.131202 0.020790 -0.007863 -436230.000000 1 0 0
-15.574126 -7.953638 -4.718303 18.112872 0.472167 1.834331 0.030551 -0.010039 711746.000000 1 0 0
-14.532626 -7.253138 5.416197 17.121344 0.462922 1.248926 0.018804 -0.004798 407303.000000 1 0 0
-1.646826 -19.119738 0.187797 19.191448 1.484876 1.561011 0.030841 -0.015578 16219.200000 1 0 0
-15.365326 -12.178938 -1.315303 19.650694 0.670228 1.637781 0.052139 0.004772 282744.000000 1 0 0
-4.439926 -12.205438 -6.805903 14.663082 1.221911 2.053474 0.012785 -0.003986 -993126.000000 1 0 0
-7.399126 -18.472938 2.186897 20.019466 1.189826 1.461339 0.016570 -0.002936 -109064.000000 1 0 0
-2.529926 -11.818538 -8.600503 14.833982 1.359915 2.189260 0.008086 -0.000445 505823.000000 1 0 0
-1.589026 -20.292038 -5.088303 20.980530 1.492648 1.815764 0.025378 -0.005087 -167353.000000 1 0 0
-5.400426 -8.938738 -13.861603 17.355393 1.027324 2.495914 0.011555 -0.000054 617303.000000 1 0 0
-8.499626 -18.990738 -0.484803 20.811699 1.149968 1.594093 0.034566 -0.016604 -108357.000000 1 0 0
-17.078926 -7.144538 5.726897 19.378635 0.396203 1.270790 0.030276 -0.010891 -197488.000000 1 0 0
-3.630626 -14.588238 -4.218403 15.613874 1.326878 1.844366 0.002788 -0.009596 -2902140.000000 1 0 0
-3.011526 -14.814638 -10.887403 18.630038 1.370249 2.194937 0.014644 -0.007121 -222071.000000 1 0 0
-0.147226 -16.781138 6.154597 17.874768 1.562023 1.219284 0.033165 -0.013545 -1193700.000000 1 0 0
-11.050226 -11.508638 3.843297 16.411190 0.805716 1.334413 0.013761 -0.003424 -816171.000000 1 0 0
-0.226926 -14.557538 -0.193503 14.560593 1.555209 1.584086 0.004600 -0.006852 342441.000000 1 0 0
-7.248826 -9.456238 -2.436903 12.161596 0.916777 1.772539 0.011709 -0.000503 -19687.800000 1 0 0
-11.024726 -14.223338 -0.729703 18.010563 0.911414 1.611323 0.028878 -0.014522 103174.000000 1 0 0
0.250374 -14.642438 -10.544303 18.045664 -1.553699 2.194829 0.008901 -0.002767 75139.000000 1 0 0
-1.451526 -13.948038 -3.871603 14.547990 1.467103 1.840169 0.007754 -0.007935 -3396310.000000 1 0 0
-11.368926 -8.015038 -7.531403 15.818196 0.614071 2.067037 0.020223 -0.001724 515019.000000 1 0 0
-0.252526 -17.108538 -0.347403 17.113928 1.556037 1.591097 0.015388 -0.016023 35125.000000 1 0 0
-12.828626 -9.424838 4.483697 16.537979 0.633619 1.296245 0.014991 -0.005808 -463397.000000 1 0 0
3.956774 -16.824138 1.593197 17.356439 -1.339810 1.478874 0.027144 -0.016842 1026630.000000 1 0 0
-3.882626 -17.920738 -8.193403 20.083812 1.357438 1.991015 0.020891 -0.011936 80264.200000 1 0 0
-13.368826 -11.294838 2.737797 17.714243 0.701505 1.415621 0.014823 -0.005280 150514.000000 1 0 0
-8.441626 -12.155838 4.133997 15.366046 0.963805 1.298406 0.010219 -0.005991 1824120.000000 1 0 0
-8.302426 -9.506738 -5.818203 13.898195 0.852919 2.002733 0.015717 -0.003701 185853.000000 1 0 0
3.793574 -17.470838 -5.492303 18.702588 -1.356978 1.868855 0.017645 -0.002484 -88645.200000 1 0 0
-2.509126 -12.982638 11.360797 17.433081 1.379882 0.860999 -0.002260 -0.008967 332141.000000 1 0 0
0.149174 -16.789538 -9.388303 19.236712 -1.561912 2.080640 0.015254 -0.007832 -442176.000000 1 0 0
-7.025026 -10.820538 -14.479003 19.392693 0.994962 2.413765 0.016380 -0.001714 -2217050.000000 1 0 0
-4.636626 -18.762438 -1.395603 19.377180 1.328527 1.642882 0.022225 -0.020232 -362509.000000 1 0 0
-2.505926 -16.990738 1.201897 17.216544 1.424364 1.500929 0.011930 -0.015496 1378420.000000 1 0 0
4.113774 -14.754538 -7.479603 17.045938 -1.298888 2.025049 0.014832 -0.008255 683379.000000 1 0 0
-0.907426 -15.847738 -6.107203 17.008003 1.513600 1.938076 0.008512 -0.005464 -302451.000000 1 0 0
-9.606626 -15.054738 8.338097 19.709294 1.002823 1.133983 0.021802 -0.009348 -598811.000000 1 0 0
-7.162126 -11.954638 -1.755603 14.046051 1.031033 1.696113 0.005144 -0.002694 783581.000000 1 0 0
-7.357626 -15.112538 -9.475803 19.295448 1.117719 2.084137 0.031708 -0.012859 -543.273000 1 0 0
-5.017126 -13.083138 -0.684103 14.028829 1.204612 1.619580 0.003590 -0.004415 2559790.000000 1 0 0
-6.517526 -13.718138 -7.282203 16.843276 1.127264 2.017894 0.011063 -0.010336 178020.000000 1 0 0
5.675174 -15.353638 0.261097 16.371010 -1.216741 1.554847 0.020303 -0.007512 134965.000000 1 0 0
-14.451326 -12.857338 1.018997 19.369830 0.727095 1.518165 0.024750 -0.002979 969589.000000 1 0 0
0.681974 -15.251938 10.959997 18.793835 -1.526112 0.948171 0.013059 -0.015070 -529674.000000 1 0 0
-9.238926 -10.582738 2.051097 14.197151 0.853090 1.425817 0.005464 0.002358 -256592.000000 1 0 0
-9.452526 -8.876838 -3.467803 13.422897 0.754001 1.832110 0.014100 -0.001470 -989785.000000 1 0 0
-12.281626 -7.381338 -12.280603 18.871558 0.541159 2.279364 0.039879 -0.004938 -1004580.000000 1 0 0
-13.300026 -8.400538 -0.586203 15.741771 0.563344 1.608044 0.015447 -0.004011 310251.000000 1 0 0
-11.235026 -9.660238 0.574197 14.828206 0.710175 1.532063 0.004114 0.001527 1390180.000000 1 0 0
-15.775626 -12.184338 3.120897 20.175938 0.657654 1.415489 0.044686 -0.007684 148222.000000 1 0 0
-10.451426 -12.276538 -2.175903 16.268996 0.865529 1.704944 0.030027 -0.004916 853582.000000 1 0 0
-3.438026 -8.987538 -12.162803 15.509018 1.205438 2.472268 0.008161 0.003207 1198100.000000 1 0 0
-0.264826 -15.478538 3.909097 15.966725 1.553689 1.323454 0.018059 -0.010508 -845610.000000 1 0 0
-15.766926 -7.787638 1.256997 17.630181 0.458774 1.499438 0.011040 -0.007685 278295.000000 1 0 0
-6.116826 -13.498738 -13.335803 19.936778 1.145334 2.303531 0.022905 -0.002749 34689.200000 1 0 0
-15.344326 -10.364438 1.097097 18.549219 0.594064 1.511617 0.021423 -0.003327 1115080.000000 1 0 0
-9.988426 -8.452938 -12.393203 18.022549 0.702327 2.329043 0.022009 -0.005891 277237.000000 1 0 0
-13.222226 -11.732338 -6.189103 18.729122 0.725765 1.907580 0.043392 -0.002372 -103636.000000 1 0 0
-12.285326 -11.386438 -3.793703 17.174760 0.747443 1.793521 0.032515 0.000366 -971167.000000 1 0 0
-11.880326 -10.816738 -9.087903 18.458980 0.738572 2.085561 0.043895 -0.006560 469169.000000 1 0 0
-13.191026 -8.465238 -5.831503 16.723332 0.570548 1.926985 0.018490 -0.006199 -2162140.000000 1 0 0
-13.470926 -8.160238 -3.187203 16.069026 0.544649 1.770465 0.018942 -0.007104 500725.000000 1 0 0
-4.290826 -16.914938 -3.191203 17.740070 1.322366 1.751668 0.005735 -0.015856 150679.000000 1 0 0
-15.487026 -8.841138 -1.741603 17.917781 0.518728 1.668150 0.031385 -0.006271 -2519980.000000 1 0 0
-9.318626 -15.439938 3.619497 18.393728 1.027778 1.372725 0.009495 -0.009352 -345629.000000 1 0 0
4.485574 -17.642638 7.971597 19.872831 -1.321825 1.158046 0.045344 -0.012521 248712.000000 1 0 0
-8.399526 -15.402538 6.002697 18.542454 1.071543 1.241130 0.002461 0.003161 101133.000000 1 0 0
0.879974 -16.262138 8.531797 18.385403 -1.516737 1.088231 0.022353 -0.008242 371927.000000 1 0 0
-10.972126 -7.812338 -10.075003 16.820400 0.618746 2.213017 0.023161 -0.004091 938896.000000 1 0 0
-4.815126 -15.969338 5.674697 17.618382 1.277943 1.242860 -0.000270 -0.002825 -1070410.000000 1 0 0
-1.268126 -13.352738 -12.204103 18.134053 1.476109 2.309045 0.008818 0.003948 -1267820.000000 1 0 0
-6.492426 -14.348038 -2.525303 15.949763 1.145869 1.729794 0.010348 -0.008159 435799.000000 1 0 0
-17.862626 -6.835538 -7.008203 20.369410 0.365480 1.922029 0.059962 -0.023197 445210.000000 1 0 0
-17.334326 -4.323038 -10.112203 20.528618 0.244406 2.085860 0.059004 -0.022092 935432.000000 1 0 0
-15.241326 -5.224738 -8.717503 18.319136 0.330247 2.066748 0.026947 -0.023724 -88786.000000 1 0 0
-16.240726 -5.379738 -5.539303 17.982954 0.319874 1.883919 0.020762 -0.009317 622911.000000 1 0 0
-15.234626 -4.491938 -12.178603 20.014737 0.286726 2.224942 0.055105 -0.017597 255783.000000 1 0 0
-18.859126 -5.008138 -5.488603 20.269998 0.259564 1.844994 0.056555 -0.021516 282906.000000 1 0 0
-17.438726 -4.264538 -7.558503 19.478871 0.239837 1.969296 0.036388 -0.019239 852436.000000 1 0 0
12.102774 -7.825038 8.767797 16.869577 -0.573945 1.024250 0.045144 -0.015853 38127.200000 1 0 0
15.956874 -3.398738 1.754597 16.408896 -0.209859 1.463662 0.030420 -0.014505 543517.000000 1 0 0
11.952374 -2.046838 12.549297 17.450893 -0.169604 0.768260 0.047166 -0.000804 -294631.000000 1 0 0
9.616074 -10.065538 5.227797 14.869896 -0.808231 1.211550 0.004436 -0.003969 43828.700000 1 0 0
16.844474 -2.030538 7.184497 18.424885 -0.119967 1.170236 0.062186 -0.013302 -98873.500000 1 0 0
5.062874 -12.770338 9.127697 16.493304 -1.193349 0.984334 0.011832 -0.008144 -358585.000000 1 0 0
15.104774 -9.083938 -2.134003 17.754608 -0.541445 1.691282 0.053675 -0.014630 450099.000000 1 0 0
11.213674 -8.649238 6.412997 15.546136 -0.657002 1.145584 0.022301 -0.005199 -1951530.000000 1 0 0
19.932374 -3.186638 3.448897 20.478015 -0.158531 1.401570 0.099275 -0.028294 76875.000000 1 0 0
13.630774 -8.595438 6.911997 17.534402 -0.562609 1.165603 0.045559 -0.012536 -1567330.000000 1 0 0
8.293874 -11.043038 8.922597 16.442317 -0.926624 0.997195 0.010331 -0.003936 -861424.000000 1 0 0
16.730674 0.044162 -0.556903 16.739999 0.002640 1.604070 0.034641 -0.004075 -3366940.000000 1 0 0
12.438574 -12.377438 2.397797 17.710690 -0.782935 1.434992 0.027965 -0.008556 -1390490.000000 1 0 0
10.409174 -11.731438 3.654797 16.103884 -0.845049 1.341850 0.013549 -0.003333 -1170530.000000 1 0 0
16.365074 2.889562 2.298197 16.776380 0.174767 1.433374 0.023054 -0.003009 -152133.000000 1 0 0
18.207874 -3.373538 0.441597 18.523025 -0.183202 1.546954 0.067518 -0.019642 -121222.000000 1 0 0
13.448874 -11.625938 -0.130203 17.777840 -0.712826 1.578120 0.052499 -0.005536 -277235.000000 1 0 0
16.867674 -7.649738 -0.745903 18.536270 -0.425773 1.611047 0.070762 -0.020386 400101.000000 1 0 0
10.210574 -5.680838 9.828097 15.268243 -0.507719 0.871479 0.021755 -0.009734 -1195550.000000 1 0 0
11.372574 -13.288638 6.246197 18.572515 -0.862938 1.227796 0.036418 -0.006491 -367361.000000 1 0 0
13.222274 -1.689338 10.348897 16.875487 -0.127076 0.910627 0.050230 -0.002343 1392540.000000 1 0 0
15.606474 -2.067038 -1.337403 15.799473 -0.131681 1.655546 0.024337 -0.007267 198611.000000 1 0 0
10.514274 -12.383338 9.092197 18.616258 -0.866845 1.060540 0.047939 -0.019707 402317.000000 1 0 0
14.552974 1.268162 3.309297 14.978276 0.086922 1.348018 0.014287 -0.004407 1230230.000000 1 0 0
15.143974 -5.725538 5.354897 17.052761 -0.361463 1.251373 0.048457 -0.012697 301711.000000 1 0 0
14.287774 -3.512438 -2.944003 15.004828 -0.241055 1.768281 0.014073 -0.006629 1272440.000000 1 0 0
14.188874 0.629362 9.532897 17.105449 0.044327 0.979664 0.053848 -0.002939 -61914.100000 1 0 0
15.334074 -3.412138 4.368197 16.305142 -0.218953 1.299580 0.030957 -0.010421 -814581.000000 1 0 0
18.751874 5.012862 -4.379503 19.898282 0.261218 1.792708 0.052754 -0.002250 572022.000000 1 0 0
18.095774 -5.773238 -5.092803 19.665299 -0.308830 1.832756 0.096650 -0.018139 812690.000000 1 0 0
17.295674 0.036062 6.057397 18.325766 0.002085 1.233921 0.058092 -0.006216 914671.000000 1 0 0
17.117974 -6.998938 4.046397 18.931020 -0.388125 1.355390 0.072552 -0.016222 788417.000000 1 0 0
9.730774 -6.593738 14.328097 18.532666 -0.595545 0.687040 0.039440 -0.007242 -753438.000000 1 0 0
8.606674 -12.335638 5.206797 15.917084 -0.961610 1.237542 0.013807 -0.005442 -460379.000000 1 0 0
16.797174 -10.238838 -0.447803 19.676875 -0.547417 1.593556 0.069456 -0.013386 523061.000000 1 0 0
14.741274 -8.880638 0.407897 17.214450 -0.542207 1.547099 0.042696 -0.012837 880231.000000 1 0 0
10.000674 -13.025538 1.513997 16.491523 -0.916016 1.478862 0.020434 -0.006023 606019.000000 1 0 0
17.070874 -8.162138 9.044697 20.972406 -0.446001 1.124900 0.094864 -0.016757 345575.000000 1 0 0
19.033474 -0.209338 -1.794703 19.119046 -0.010998 1.664805 0.072931 -0.010457 -415678.000000 1 0 0
13.434474 -1.268238 7.729797 15.551312 -0.094123 1.050599 0.029469 -0.006444 138356.000000 1 0 0
12.787574 -9.834138 -3.076003 16.422367 -0.655575 1.759215 0.030140 -0.005267 -1735960.000000 1 0 0
8.833574 -15.243938 1.412297 17.674962 -1.045601 1.490807 0.033177 -0.009419 -780349.000000 1 0 0
11.404374 -8.273138 11.173897 17.982229 -0.627594 0.900286 0.048092 -0.015506 39.904300 1 0 0
13.911674 -3.951638 -0.447103 14.468933 -0.276762 1.601702 0.011056 -0.008871 -733846.000000 1 0 0
7.120574 -13.339938 10.697697 18.522885 -1.080492 0.955085 0.027889 -0.006254 -186778.000000 1 0 0
15.441574 -6.930938 1.923297 17.034647 -0.421896 1.457650 0.040113 -0.015434 443923.000000 1 0 0
15.740874 -6.186238 -2.420303 17.085155 -0.374461 1.712936 0.075231 -0.015609 -450210.000000 1 0 0
11.169174 -8.591738 3.801597 14.595224 -0.655699 1.307289 0.014845 -0.007236 350532.000000 1 0 0
10.712574 -14.626938 -0.403503 18.134756 -0.938663 1.593048 0.050284 -0.015711 749460.000000 1 0 0
13.440274 -12.863038 4.715497 19.192046 -0.763456 1.322554 0.032758 -0.006058 338305.000000 1 0 0
12.878874 -11.167238 6.738097 18.329609 -0.714337 1.194362 0.033685 -0.006724 -2531.250000 1 0 0
10.784774 -10.539938 1.461197 15.150470 -0.773917 1.474201 0.012289 -0.004497 330524.000000 1 0 0
13.936674 -7.600238 11.958697 19.874731 -0.499259 0.925164 0.074828 -0.020146 319660.000000 1 0 0
15.292674 -1.831538 -4.782203 16.127302 -0.119198 1.871852 0.031279 -0.000607 53005.100000 1 0 0
12.982274 -11.529238 -7.098903 18.757857 -0.726188 1.958917 0.060681 -0.009473 477852.000000 1 0 0
17.624574 -5.409738 1.989697 18.543187 -0.297814 1.463289 0.084264 -0.019938 830164.000000 1 0 0
10.636174 -9.866838 9.146897 17.150756 -0.747893 1.008272 0.028009 -0.008683 -654388.000000 1 0 0
16.547174 1.739162 9.671097 19.244838 0.104719 1.044274 0.090196 -0.011765 57153.400000 1 0 0
18.172374 3.790362 0.491397 18.569962 0.205630 1.544331 0.031294 -0.000692 898738.000000 1 0 0
13.293574 -4.155338 5.817597 15.094051 -0.302960 1.175130 0.020122 -0.009784 -739978.000000 1 0 0
12.097874 -6.326638 6.604597 15.165936 -0.481842 1.120215 0.020800 -0.009853 -50976.600000 1 0 0
16.418174 -10.182738 3.582697 19.648927 -0.555148 1.387435 0.042208 -0.014475 -440529.000000 1 0 0
16.306274 -8.137838 -5.433503 19.016886 -0.462897 1.860554 0.086725 -0.016748 782657.000000 1 0 0
13.980074 -0.381838 5.342297 14.970919 -0.027306 1.205908 0.016171 -0.003371 532242.000000 1 0 0
18.371474 -4.381138 5.048397 19.549725 -0.234103 1.309603 0.084703 -0.020515 424427.000000 1 0 0
13.610774 -13.633438 7.289197 20.597481 -0.786230 1.209072 0.057631 -0.007267 154455.000000 1 0 0
14.891374 -13.635738 -0.750103 20.205174 -0.741411 1.607929 0.063912 -0.003066 29913.900000 1 0 0
17.861674 -5.950638 7.884797 20.411260 -0.321587 1.174183 0.089725 -0.020327 -491218.000000 1 0 0
14.447274 3.288162 9.463997 17.581325 0.223785 1.002380 0.044777 -0.003816 455692.000000 1 0 0
18.895874 3.459262 2.850097 19.420186 0.181065 1.423505 0.065334 -0.009228 420662.000000 1 0 0
14.911674 -10.432138 8.300597 20.002186 -0.610454 1.142871 0.057988 -0.022949 -115255.000000 1 0 0
14.856374 -4.831838 10.442397 18.791013 -0.314446 0.981577 0.079134 -0.019946 362217.000000 1 0 0
17.910874 -7.973938 1.894297 19.696991 -0.418856 1.474476 0.111477 -0.024527 171491.000000 1 0 0
18.311374 -5.730738 -1.987503 19.289841 -0.303304 1.674013 0.085328 -0.022719 11457.200000 1 0 0
14.431574 -12.957938 -5.414303 20.136861 -0.731647 1.843021 0.081144 -0.014967 -121882.000000 1 0 0
15.467174 -1.636538 9.306497 18.125193 -0.105415 1.031588 0.093268 -0.012746 -2079750.000000 1 0 0
13.050474 -9.899738 10.222197 19.308366 -0.648965 1.012882 0.048705 -0.023036 -1249120.000000 1 0 0
16.671174 2.153862 4.781397 17.476525 0.128485 1.293673 0.042444 -0.006602 -436644.000000 1 0 0
14.942074 2.407162 -0.101903 15.135072 0.159727 1.577529 0.011952 -0.000129 -1349960.000000 1 0 0
14.960274 -9.755338 -7.007103 19.185305 -0.577838 1.944679 0.071577 -0.015366 278256.000000 1 0 0
16.161074 0.054362 -3.086303 16.453223 0.003364 1.759495 0.035585 -0.001617 -346223.000000 1 0 0
11.965974 2.697162 13.611097 18.322696 0.221698 0.733472 0.060325 -0.004541 -174928.000000 1 0 0
17.686374 -3.167538 9.471697 20.311430 -0.177216 1.085666 0.090993 -0.018270 1214680.000000 1 0 0
7.934674 -18.227038 4.721997 20.432357 -1.160213 1.337584 0.064154 -0.017602 169153.000000 1 0 0
6.790374 -11.114838 6.613497 14.607777 -1.022380 1.100963 0.006786 -0.003752 328604.000000 1 0 0
18.063374 2.157862 -1.426603 18.247659 0.118897 1.649056 0.045663 -0.000772 488931.000000 1 0 0
17.482874 -2.318838 3.607897 18.001245 -0.131865 1.369005 0.031729 -0.013184 -162245.000000 1 0 0
12.574974 -13.417038 -1.839703 18.480568 -0.817784 1.670509 0.053086 -0.003657 381814.000000 1 0 0
14.876574 -8.239338 4.515697 17.595189 -0.505792 1.311248 0.037860 -0.012138 -334301.000000 1 0 0
11.339874 -3.469238 14.638097 18.838850 -0.296891 0.680884 0.067545 -0.011455 49212.000000 1 0 0
12.232974 -13.857238 -6.477503 19.586392 -0.847574 1.907857 0.049928 -0.013362 -391688.000000 1 0 0
10.597874 -12.059338 -1.189403 16.098362 -0.849812 1.644747 0.029491 -0.007562 -1122790.000000 1 0 0
13.048474 -8.095438 2.123497 15.501872 -0.555294 1.433381 0.027931 -0.005687 396983.000000 1 0 0
8.831474 -7.871138 9.996197 15.487857 -0.727965 0.869221 0.015312 -0.003514 -2809270.000000 1 0 0
15.567874 -3.955638 8.091197 17.985362 -0.248824 1.104169 0.075929 -0.021678 -683265.000000 1 0 0
10.427574 -17.290638 4.871897 20.771034 -1.028118 1.334038 0.070159 -0.023301 -233140.000000 1 0 0
15.290074 -6.407938 8.359497 18.566886 -0.396855 1.103766 0.069535 -0.014675 397112.000000 1 0 0
16.517274 -5.040038 -0.271403 17.271248 -0.296163 1.586511 0.050548 -0.017426 -720358.000000 1 0 0
13.879874 -10.532738 3.591097 17.790038 -0.649141 1.367540 0.038932 -0.010435 283244.000000 1 0 0
15.028674 -10.083238 -4.437703 18.634000 -0.590951 1.811258 0.079024 -0.016832 856375.000000 1 0 0
13.590974 -6.632738 0.024697 15.123108 -0.454022 1.569163 0.024101 -0.010060 104969.000000 1 0 0
17.796674 -0.834138 -4.727603 18.432787 -0.046836 1.830173 0.073658 -0.007621 -33623.500000 1 0 0
14.383874 0.202662 -1.508803 14.464211 0.014089 1.675299 0.009928 -0.000516 -3236660.000000 1 0 0
4.767974 -12.916738 11.757397 18.105582 -1.217181 0.864028 0.006430 -0.004721 28626.800000 1 0 0
12.016574 -7.586638 13.522797 19.616860 -0.563151 0.810211 0.055461 -0.017133 190158.000000 1 0 0
12.043374 -5.777038 11.604297 17.693975 -0.447265 0.855510 0.043156 -0.013100 -589747.000000 1 0 0
13.199874 -4.832738 8.349297 16.349398 -0.350963 1.034822 0.041914 -0.014191 -908670.000000 1 0 0
15.339774 -1.157738 3.018197 15.676688 -0.075330 1.377059 0.021117 -0.003954 941973.000000 1 0 0
15.207174 -10.435238 5.835597 19.344419 -0.601407 1.264354 0.053909 -0.013985 294754.000000 1 0 0
13.661574 -8.060638 -5.513903 16.793321 -0.533051 1.905341 0.058535 -0.014453 -692286.000000 1 0 0
9.574874 -2.050438 13.390597 16.588870 -0.210961 0.631397 0.019169 -0.008736 -1643600.000000 1 0 0
9.929174 -9.184638 13.888197 19.386286 -0.746465 0.772178 0.055331 -0.004953 -53478.200000 1 0 0
20.360874 6.451762 -2.791603 21.540276 0.306862 1.700761 0.094568 -0.003939 218324.000000 1 0 0
11.249874 -3.527338 10.625697 15.871586 -0.303836 0.837289 0.027417 -0.002424 784266.000000 1 0 0
10.326674 -14.096538 -2.919903 17.716614 -0.938545 1.736363 0.040595 -0.004137 581515.000000 1 0 0
14.968474 -12.691138 2.628797 19.799767 -0.703249 1.437634 0.052195 -0.006120 828067.000000 1 0 0
11.459974 -0.756138 14.723197 18.672849 -0.065885 0.662460 0.062917 0.003204 302735.000000 1 0 0
19.011374 -2.007838 5.707397 19.950893 -0.105222 1.280671 0.087991 -0.018419 695298.000000 1 0 0
18.998274 -0.664638 7.892097 20.583036 -0.034970 1.177292 0.096312 -0.019576 383394.000000 1 0 0
18.846574 0.740062 0.651897 18.872361 0.039248 1.536247 0.057022 -0.012111 145006.000000 1 0 0
18.613574 0.614462 3.855097 19.018530 0.033000 1.366680 0.050920 -0.011832 435986.000000 1 0 0
16.648474 -3.911538 -3.996703 17.562615 -0.230763 1.800377 0.070574 -0.011712 -1112300.000000 1 0 0
11.127274 -8.020638 15.889497 20.991022 -0.624556 0.712138 0.084646 -0.017913 383797.000000 1 0 0
16.589974 -7.722438 6.460397 19.406185 -0.435659 1.231415 0.064754 -0.013034 769319.000000 1 0 0
18.869274 2.082362 6.008297 19.911941 0.109913 1.264276 0.062762 -0.008615 -306347.000000 1 0 0
15.283974 1.787262 7.448997 17.096249 0.116408 1.119970 0.046919 -0.006421 14019.000000 1 0 0
8.666774 -15.799038 3.805397 18.417482 -1.069057 1.362678 0.036516 -0.017169 23970.600000 1 0 0
11.430474 -15.183138 2.040397 19.114043 -0.925480 1.463844 0.050507 -0.009215 381813.000000 1 0 0
8.506274 -16.015138 6.128797 19.141669 -1.082548 1.244876 0.052342 -0.018858 58018.000000 1 0 0
14.552474 -11.704338 -2.550703 18.848664 -0.677348 1.706538 0.065112 -0.006323 718711.000000 1 0 0
13.694074 -4.993638 3.207997 14.924990 -0.349672 1.354165 0.015759 -0.006169 -2313380.000000 1 0 0
-1.075326 10.204962 -5.554503 11.668336 -1.465811 2.066934 -0.001603 0.004643 -3138080.000000 1 0 0
8.262374 -1.772738 -7.959403 11.608683 -0.211351 2.326282 0.003255 -0.000579 -1970550.000000 1 0 0
2.965674 -10.320838 7.735497 13.234532 -1.290987 0.946541 0.000896 -0.005971 512585.000000 1 0 0
-6.253826 1.319262 8.304797 10.479525 -0.207905 0.655934 0.002722 -0.000938 -552049.000000 1 0 0
7.257874 -6.314438 -7.185303 12.007391 -0.715998 2.212307 0.000293 -0.001687 -412501.000000 1 0 0
-11.513626 -4.466738 -4.085603 13.007977 0.370078 1.890288 0.005622 -0.006306 -296708.000000 1 0 0
2.120074 -3.135038 2.928897 4.785563 -0.976187 0.912174 0.002004 -0.001545 1207750.000000 1 0 0
-3.537326 -4.262338 8.908097 10.489728 0.878086 0.556288 0.005369 -0.003057 -2455980.000000 1 0 0
-4.941226 -1.080438 -2.439703 5.615622 0.215270 2.020223 0.007328 -0.001830 -479785.000000 1 0 0
5.028574 -5.231138 -3.581003 8.091659 -0.805139 2.029242 0.002257 -0.003063 25065.900000 1 0 0
2.699974 14.268762 -8.881803 17.022745 1.383785 2.119710 0.015205 -0.009127 -666295.000000 1 0 0
5.535374 -5.648338 13.623097 15.752234 -0.795499 0.525973 0.009382 -0.013061 -888897.000000 1 0 0
-4.745826 -0.862138 9.797797 10.920759 0.179703 0.457472 0.010832 -0.000532 -2477020.000000 1 0 0
-0.961126 11.934462 -2.764403 12.288086 -1.490436 1.797705 -0.001081 0.000618 364326.000000 1 0 0
3.007074 9.361862 -10.594503 14.454426 1.260001 2.393458 0.000675 -0.000069 -439514.000000 1 0 0
-10.651626 2.733762 1.147297 11.056531 -0.251230 1.466843 -0.001185 -0.002208 77418.100000 1 0 0
5.624874 -8.968738 -0.671203 10.607921 -1.010642 1.634112 -0.001802 -0.000793 953933.000000 1 0 0
-6.940626 5.457862 9.297097 12.821722 -0.666371 0.759609 -0.000141 -0.003454 69100.500000 1 0 0
-5.446426 -1.865138 5.184497 7.747342 0.329935 0.837669 0.003145 -0.004434 700188.000000 1 0 0
6.660874 -3.799738 -7.224603 10.535661 -0.518413 2.326400 0.001566 -0.002153 343347.000000 1 0 0
6.352474 4.868562 11.062897 13.654469 0.653917 0.626297 0.000606 0.004763 96737.000000 1 0 0
3.816374 -9.878338 3.519597 11.159473 -1.202123 1.249928 -0.002755 -0.000968 1121040.000000 1 0 0
-6.582926 6.611362 -5.796403 10.983774 -0.787553 2.126715 -0.002800 -0.000632 -570655.000000 1 0 0
-11.040526 8.490562 5.284497 14.896602 -0.655573 1.208155 0.002714 -0.011308 212581.000000 1 0 0
-9.212726 -5.431438 5.192397 11.888474 0.532706 1.118804 0.006295 -0.004365 -1454840.000000 1 0 0
3.076074 9.831662 -8.078303 13.091325 1.267570 2.235814 0.004268 -0.001461 717822.000000 1 0 0
-8.065526 -8.398438 6.039497 13.117240 0.805616 1.092323 0.008267 -0.007411 -2486340.000000 1 0 0
-7.815326 -5.604138 -7.507903 12.200585 0.622091 2.233655 0.014519 -0.008067 -566830.000000 1 0 0
9.253974 -1.624638 6.978797 11.703807 -0.173790 0.931932 0.005180 -0.004326 1013560.000000 1 0 0
-4.113526 -0.386538 -4.884003 6.397186 0.093692 2.439452 0.011607 -0.006451 -1133900.000000 1 0 0
9.022874 1.025662 -4.321003 10.056605 0.113188 2.014922 0.000280 0.000765 -739332.000000 1 0 0
-1.906126 -10.639038 10.682897 15.196932 1.393514 0.791240 -0.005105 -0.006106 199221.000000 1 0 0
-12.908526 0.264262 -2.593303 13.169096 -0.020469 1.769015 0.003860 -0.004770 -687173.000000 1 0 0
-9.832626 -5.226838 -6.013003 12.655298 0.488592 2.065916 0.008758 -0.005347 -815481.000000 1 0 0
-5.824126 8.513862 -0.139903 10.316291 -0.970838 1.584358 -0.001366 0.000593 1144180.000000 1 0 0
6.329974 9.538462 0.336297 11.452682 0.984902 1.541428 0.007723 -0.002475 391487.000000 1 0 0
-0.495026 -11.908738 0.013397 11.919030 1.529252 1.569672 0.007026 -0.004963 -450520.000000 1 0 0
6.227874 4.676362 2.331497 8.129616 0.644062 1.279921 -0.001492 -0.000973 197436.000000 1 0 0
3.419274 -7.527338 -8.195703 11.641383 -1.144416 2.351831 -0.002211 0.000293 247199.000000 1 0 0
-6.570926 -9.741538 4.592197 12.615978 0.977372 1.198239 0.006313 -0.004244 -2583670.000000 1 0 0
-0.068526 6.541962 -9.273903 11.349328 -1.560322 2.527215 -0.000673 -0.000446 -2450570.000000 1 0 0
-17.266526 -2.698238 4.204197 17.974667 0.155016 1.334714 0.035596 -0.006554 505007.000000 1 0 0
-8.349026 0.782562 -9.095703 12.371356 -0.093458 2.396792 0.002690 -0.002598 289090.000000 1 0 0
-10.131326 -5.960438 -11.846203 16.688412 0.531785 2.360076 0.016911 0.000227 1297770.000000 1 0 0
2.212374 9.464062 6.400397 11.637360 1.341154 0.988448 -0.004389 0.005046 -701205.000000 1 0 0
-11.387426 1.623162 -1.163803 11.561252 -0.141586 1.671631 -0.000608 -0.003358 -1669430.000000 1 0 0
-5.947126 -5.308638 -3.109303 8.556735 0.728734 1.942684 0.015809 -0.004934 845033.000000 1 0 0
-6.924926 -8.258838 1.375297 10.865286 0.873024 1.443879 0.008119 -0.004978 151840.000000 1 0 0
-0.064926 10.958062 -7.895403 13.506322 -1.564871 2.195147 0.000248 0.004124 -224600.000000 1 0 0
-2.877226 9.289362 -4.292903 10.630131 -1.270434 1.986510 -0.001176 -0.000719 198540.000000 1 0 0
3.396774 -4.757238 9.316197 10.998223 -0.950721 0.560360 0.002865 -0.002600 -863879.000000 1 0 0
-9.020726 1.547862 -0.419503 9.162170 -0.169935 1.616599 -0.003719 -0.000994 -1997380.000000 1 0 0
2.541574 3.494962 -10.318003 11.186400 0.942040 2.744968 0.004440 -0.003338 353325.000000 1 0 0
-13.690726 0.520962 1.122397 13.746532 -0.038034 1.489056 0.008969 -0.007134 -491208.000000 1 0 0
9.496474 -12.688138 -5.089703 16.645629 -0.928286 1.881541 0.034273 -0.007639 -1253720.000000 1 0 0
-4.614026 9.535162 -8.277603 13.443484 -1.120115 2.234113 -0.003960 0.002234 -1097410.000000 1 0 0
-2.229526 7.156262 8.402597 11.259952 -1.268778 0.728405 0.001593 0.002373 -586766.000000 1 0 0
-10.807726 -1.245638 -4.377503 11.726938 0.114748 1.953345 0.002073 -0.004068 -4365580.000000 1 0 0
2.719674 -7.118838 9.706197 12.340371 -1.205869 0.665610 -0.001636 -0.002905 -1153880.000000 1 0 0
-16.143626 -6.420938 3.395197 17.702329 0.378555 1.377807 0.020214 -0.005978 509766.000000 1 0 0
-10.772426 -0.062138 6.239297 12.449010 0.005768 1.045825 0.002269 -0.002460 -1422540.000000 1 0 0
-8.360426 9.957662 9.254497 15.959244 -0.872373 0.952211 0.006204 -0.012863 -329019.000000 1 0 0
0.420174 -6.002038 -3.646903 7.035688 -1.500905 2.115709 0.003102 0.000101 681632.000000 1 0 0
4.892774 1.524362 -3.030203 5.953574 0.302023 2.104786 -0.000190 -0.000895 2126.650000 1 0 0
0.351774 5.384462 3.873297 6.642184 1.505558 0.948213 0.000084 0.003292 -3284910.000000 1 0 0
6.053774 -11.247738 -1.556103 12.867838 -1.077041 1.692023 -0.001262 -0.002035 -1143790.000000 1 0 0
6.251674 -13.496438 5.296397 15.788892 -1.137012 1.228713 0.009571 -0.007984 -453471.000000 1 0 0
8.166474 -8.250638 -5.947503 13.043662 -0.790525 2.044257 0.002712 -0.003363 670496.000000 1 0 0
-13.135126 -1.266638 -4.655703 13.993265 0.096134 1.909972 0.004834 -0.005412 -4931840.000000 1 0 0
-6.804826 -1.431738 -7.085903 9.928018 0.207376 2.365602 0.009985 -0.006125 -630757.000000 1 0 0
-5.893526 12.822562 -4.717003 14.879578 -1.139970 1.893374 0.000071 0.004832 322698.000000 1 0 0
-4.315426 6.836162 -6.718403 10.511562 -1.007705 2.264181 -0.000095 0.000503 -4393860.000000 1 0 0
-9.423926 -3.700138 -8.154703 13.000022 0.374139 2.248857 0.009304 -0.003478 593438.000000 1 0 0
-2.121726 -6.395538 9.184597 11.391288 1.250471 0.632956 0.002432 -0.003055 -342486.000000 1 0 0
7.532574 -6.059838 10.061997 13.953677 -0.677469 0.765408 0.004677 -0.005213 231804.000000 1 0 0
9.661474 -4.977538 12.274897 16.394910 -0.475729 0.724695 0.023559 -0.004900 -277379.000000 1 0 0
-6.475126 2.758562 -9.004103 11.428508 -0.402738 2.478128 -0.000020 -0.002752 -1180720.000000 1 0 0
7.481274 5.558662 8.825197 12.835587 0.639012 0.812677 -0.005726 0.000896 298759.000000 1 0 0
12.707674 3.466862 11.222897 17.304842 0.266335 0.865130 0.042266 0.000617 -228286.000000 1 0 0
-7.560726 -7.179738 -3.818003 11.103619 0.759558 1.921812 0.015233 -0.007609 -1095960.000000 1 0 0
2.333874 1.404062 -5.781303 6.390761 0.541596 2.701318 0.003154 -0.001644 -216165.000000 1 0 0
12.824674 6.944162 -7.207403 16.267769 0.496270 2.029792 0.014445 0.000279 -105136.000000 1 0 0
0.721474 -7.784738 1.114497 7.897137 -1.478382 1.429197 0.003223 -0.002330 1973710.000000 1 0 0
-10.184326 -6.043038 -8.527003 14.592758 0.535528 2.194852 0.011122 -0.002410 -389117.000000 1 0 0
-6.615326 0.261762 3.165497 7.338353 -0.039548 1.124793 0.000774 -0.004205 1716020.000000 1 0 0
10.623574 -7.909138 1.243897 13.302709 -0.639965 1.477152 0.003311 -0.002741 -47735.000000 1 0 0
6.249574 1.005862 10.513397 12.271938 0.159580 0.541954 0.002124 0.002632 -732929.000000 1 0 0
-12.860626 5.372462 1.852597 14.060269 -0.395710 1.438651 0.003052 -0.005489 -324530.000000 1 0 0
2.081874 7.368362 3.694097 8.501371 1.295432 1.121280 -0.003456 0.001918 79501.000000 1 0 0
10.074074 -9.456838 -0.809003 13.840999 -0.753806 1.629279 0.001584 -0.001677 700886.000000 1 0 0
6.820874 -11.718238 -9.043603 16.298104 -1.043662 2.159023 0.007710 -0.008580 51913.500000 1 0 0
10.216674 3.605062 12.000997 16.167895 0.339221 0.734340 0.014565 0.004292 -1376970.000000 1 0 0
-11.042826 -3.182338 -1.879103 11.644840 0.280579 1.732873 -0.001171 -0.005103 -567060.000000 1 0 0
12.340774 1.011762 6.845097 14.148277 0.081802 1.065792 0.013903 -0.001049 -170791.000000 1 0 0
-9.534026 9.259562 3.118897 13.651544 -0.770795 1.340296 0.000146 -0.007268 790795.000000 1 0 0
-6.484326 7.685562 -8.717103 13.307976 -0.869970 2.285017 -0.003195 -0.001396 -911458.000000 1 0 0
8.544474 5.609862 12.053197 15.803739 0.580965 0.703349 0.008905 0.005516 -2582010.000000 1 0 0
1.314874 4.923262 -2.732903 5.782401 1.309814 2.063063 0.003944 -0.002763 237504.000000 1 0 0
1.418274 0.508862 9.498497 9.617270 0.344484 0.157325 0.002254 -0.002094 550388.000000 1 0 0
2.531874 12.558762 -3.951103 13.406868 1.371861 1.869946 0.005424 -0.002332 669486.000000 1 0 0
2.142474 0.629262 13.076797 13.266077 0.285674 0.169127 0.003429 -0.005700 131300.000000 1 0 0
-12.258326 -1.738838 0.844497 12.409806 0.140909 1.502693 -0.000082 -0.004808 -99676.300000 1 0 0
3.323174 8.688862 -1.251103 9.386430 1.205498 1.704483 0.005991 -0.001980 371748.000000 1 0 0
3.718974 -2.875138 -5.835603 7.493427 -0.658122 2.463488 -0.000627 -0.000768 -750465.000000 1 0 0
-7.819026 -7.191538 9.245797 14.083329 0.743619 0.854618 0.011833 -0.005000 173.096000 1 0 0
-7.099126 11.004962 -3.542103 13.566623 -0.997885 1.834947 0.008143 0.003186 -175883.000000 1 0 0
0.450074 0.566762 2.480897 2.584306 0.899654 0.283844 -0.001080 0.000341 -1221940.000000 1 0 0
-7.084126 4.611862 -1.966703 8.678826 -0.577087 1.799391 0.002910 -0.001143 -1271640.000000 1 0 0
-6.729326 -3.814738 -5.944703 9.755795 0.515712 2.226038 0.014827 -0.006302 534923.000000 1 0 0
2.991774 -6.146238 13.409097 15.050942 -1.117793 0.471442 0.002915 -0.007173 -1212550.000000 1 0 0
-5.473026 -0.658038 -11.684803 12.919816 0.119659 2.700790 0.010109 -0.006706 -675249.000000 1 0 0
11.845174 2.488262 -0.534003 12.115476 0.207055 1.614887 -0.003337 0.000265 -322110.000000 1 0 0
6.110774 -10.924438 10.710397 16.474147 -1.060790 0.863036 0.009824 -0.006389 239342.000000 1 0 0
-8.084126 6.353462 -10.441303 14.654022 -0.666095 2.363881 -0.000962 -0.000771 399426.000000 1 0 0
2.803774 7.845462 11.048197 13.837452 1.227566 0.646118 0.001144 0.006351 641501.000000 1 0 0
-6.107526 -10.100038 -0.396103 11.809722 1.026926 1.604343 0.008646 -0.002016 -845227.000000 1 0 0
11.326274 4.331862 6.074197 13.562647 0.365296 1.106423 0.003111 -0.001872 1136480.000000 1 0 0
-7.938826 10.696262 1.332397 13.386943 -0.932302 1.471102 -0.001161 -0.001336 673078.000000 1 0 0
4.327274 -2.727638 -3.519303 6.208929 -0.562427 2.173429 0.000450 -0.001843 -4810050.000000 1 0 0
6.493974 6.400662 6.216897 11.035850 0.778162 0.972378 -0.003109 0.001826 -5326580.000000 1 0 0
-0.394326 10.346162 -10.255303 14.572913 -1.532702 2.351421 -0.005022 0.004222 -257753.000000 1 0 0
14.081974 6.551162 -2.519403 15.734266 0.435435 1.731611 0.012644 0.005282 840533.000000 1 0 0
1.346474 9.450862 -6.241603 11.405674 1.429278 2.149855 0.005436 -0.000362 -147964.000000 1 0 0
0.667274 7.339862 7.329897 10.394528 1.480135 0.788135 -0.003890 0.005024 40233.700000 1 0 0
12.292674 6.175362 1.918997 13.889834 0.465535 1.432195 0.004374 -0.001056 -1322510.000000 1 0 0
-6.833126 6.736462 -3.209903 10.118053 -0.778275 1.893619 -0.000736 -0.003022 597264.000000 1 0 0
1.050174 9.908662 11.194897 14.987000 1.465205 0.727298 0.001830 0.004350 -263968.000000 1 0 0
-3.658626 13.758962 -11.073703 18.036670 -1.310902 2.231858 -0.001558 0.003724 -225251.000000 1 0 0
-10.052626 -5.545338 -2.271203 11.703180 0.504094 1.766103 0.006437 -0.004165 -49056.800000 1 0 0
-4.031926 3.881262 -12.466303 13.664894 -0.766361 2.719630 0.000333 -0.003537 -344127.000000 1 0 0
-3.118926 8.502362 2.468797 9.386843 -1.219207 1.304660 -0.000533 0.003836 -2133910.000000 1 0 0
7.127274 8.907162 7.032397 13.401126 0.895950 1.018361 -0.001459 0.004790 -490894.000000 1 0 0
-1.350526 -2.325438 -8.098803 8.533592 1.044643 2.821003 0.008243 -0.007178 -1714880.000000 1 0 0
0.838274 -1.306938 4.813397 5.057626 -1.000488 0.312035 0.001214 -0.001008 -281130.000000 1 0 0
2.773674 -8.797638 -6.038003 11.024935 -1.265385 2.150371 -0.001915 0.000320 563487.000000 1 0 0
5.283074 3.996362 8.898897 11.093789 0.647614 0.639907 -0.001617 0.002297 -1325030.000000 1 0 0
6.315274 -7.516738 -2.697903 10.181489 -0.872042 1.838981 0.001828 -0.002473 1105590.000000 1 0 0
1.720574 2.246262 -8.237503 8.709909 0.917151 2.810729 0.006275 -0.003071 381639.000000 1 0 0
-5.379026 11.009862 -0.808903 12.280281 -1.116339 1.636714 -0.002878 0.000172 825515.000000 1 0 0
-5.410526 3.272962 -3.357503 7.159532 -0.544033 2.058904 0.003160 -0.000413 693323.000000 1 0 0
2.084574 13.683562 -6.452603 15.271588 1.419617 2.007024 0.001789 -0.001558 375028.000000 1 0 0
-5.332826 -2.570938 2.689797 6.502596 0.449223 1.144337 -0.001523 -0.002538 855231.000000 1 0 0
10.371774 -3.359838 -1.768303 11.044868 -0.313273 1.731590 -0.002112 -0.002174 219615.000000 1 0 0
2.326574 -3.269838 7.028997 8.093923 -0.952377 0.518771 -0.000182 -0.000635 -1438080.000000 1 0 0
-2.892826 9.829562 -11.748003 15.588595 -1.284578 2.424361 -0.005387 0.004699 -3267800.000000 1 0 0
0.475574 -1.960938 9.235597 9.453449 -1.332866 0.215099 0.003631 -0.002450 964460.000000 1 0 0
9.429274 2.640862 5.021397 11.004535 0.273074 1.096961 0.000249 -0.001688 -844973.000000 1 0 0
13.391374 2.077662 -5.053203 14.463072 0.153922 1.927713 0.013662 -0.000985 -2003480.000000 1 0 0
-6.393326 3.843062 7.516197 10.589474 -0.541232 0.781610 0.000427 -0.004018 327442.000000 1 0 0
10.632174 0.056862 1.776297 10.779684 0.005348 1.405259 -0.000600 -0.002118 858567.000000 1 0 0
15.391074 6.662862 -4.682903 17.412883 0.408547 1.843082 0.028859 0.003798 -177426.000000 1 0 0
8.101274 -4.989438 -9.080403 13.152143 -0.552016 2.332855 0.007881 -0.000006 260118.000000 1 0 0
4.479874 5.616962 -2.203203 7.514894 0.897544 1.868346 0.002698 -0.002101 509054.000000 1 0 0
-1.611626 -10.546238 1.591097 10.786661 1.419154 1.422750 0.003108 -0.004714 -720839.000000 1 0 0
-2.811626 12.178162 -12.985803 18.023428 -1.343898 2.375313 0.001833 -0.000607 -1034490.000000 1 0 0
8.388274 4.163162 -9.606903 13.415947 0.460689 2.368968 0.006628 -0.001933 -1256990.000000 1 0 0
4.136574 7.586662 -9.088803 12.540934 1.071613 2.381440 0.006337 -0.003645 -1816500.000000 1 0 0
-1.680526 -4.947538 -2.437603 5.765779 1.243354 2.007297 0.007144 -0.002074 -3862.020000 1 0 0
-3.300426 -9.163538 6.921997 11.948945 1.225091 0.952929 0.000515 -0.002614 -1074820.000000 1 0 0
1.152474 7.255362 -1.427503 7.483732 1.413268 1.762720 0.002767 -0.002294 698212.000000 1 0 0
0.356474 -0.864038 -2.234603 2.422207 -1.179503 2.745429 0.006042 0.000612 -1829980.000000 1 0 0
4.087874 -6.671638 7.555397 10.876833 -1.021073 0.802888 0.002284 -0.000697 216068.000000 1 0 0
-13.762126 3.895662 5.811097 15.438301 -0.275854 1.184880 0.000105 -0.007861 -1414570.000000 1 0 0
4.368274 6.485862 12.540797 14.779033 0.978073 0.557551 0.006647 0.002937 54022.200000 1 0 0
8.348474 10.133462 -7.271903 15.008819 0.881680 2.076598 0.022347 -0.003331 502434.000000 1 0 0
12.592274 5.350262 9.384897 16.591171 0.401773 0.969568 0.026232 -0.002017 1051460.000000 1 0 0
7.651974 3.978162 0.389297 8.633078 0.479430 1.525687 -0.001784 0.001291 -981735.000000 1 0 0
-10.924126 -7.542138 -0.968403 13.310078 0.604261 1.643618 0.008484 -0.003793 -1244520.000000 1 0 0
10.512274 6.901962 0.183997 12.576917 0.580975 1.556166 0.000439 0.000864 -1078500.000000 1 0 0
14.617874 3.597262 4.194597 15.627450 0.241292 1.299052 0.017114 -0.006047 591068.000000 1 0 0
2.291374 5.599462 8.219797 10.206343 1.182373 0.634511 -0.005151 0.004331 486868.000000 1 0 0
4.301174 0.068762 11.816997 12.575621 0.015985 0.349117 0.002841 -0.000361 -1337070.000000 1 0 0
-1.589826 -1.435638 -0.455203 2.189934 0.734479 1.780184 0.008057 -0.004009 -347676.000000 1 0 0
3.061074 -5.301338 -9.536803 11.332474 -1.047149 2.570936 -0.001262 0.000399 503300.000000 1 0 0
-3.919826 -5.275838 -1.327603 6.705373 0.931805 1.770104 0.008636 -0.005564 -948336.000000 1 0 0
-1.296726 -8.717438 8.642597 12.343813 1.423128 0.795180 -0.001308 -0.002329 44018.600000 1 0 0
3.878774 8.483962 -6.060103 11.124178 1.141980 2.146909 0.007479 -0.002289 602288.000000 1 0 0
-14.129426 -1.824038 -2.602903 14.482503 0.128385 1.751506 0.002308 -0.010662 -676948.000000 1 0 0
8.742674 -10.598038 -6.589303 15.237181 -0.881036 2.018003 0.003211 -0.005014 41547.400000 1 0 0
14.836074 6.132962 1.579497 16.131247 0.391989 1.472724 0.010248 -0.002884 -516114.000000 1 0 0
-5.781626 0.341062 -8.608703 10.375610 -0.058922 2.549377 0.008441 -0.007786 578494.000000 1 0 0
-8.101526 -4.571838 -12.995003 15.981443 0.513770 2.520307 0.011124 -0.001278 1211800.000000 1 0 0
0.814274 -10.656038 11.997197 16.066952 -1.494530 0.727709 -0.002633 -0.003286 -230639.000000 1 0 0
0.251274 11.805362 3.299297 12.260305 1.549515 1.298334 -0.002751 0.001736 -515650.000000 1 0 0
5.204474 -13.291438 -3.793803 14.769625 -1.197582 1.830574 0.006058 -0.002416 647009.000000 1 0 0
-7.480526 1.603262 -6.943303 10.331417 -0.211131 2.307780 0.002507 -0.002149 863111.000000 1 0 0
1.501474 2.822262 4.123997 5.217944 1.081869 0.659418 -0.001864 0.001756 -1597940.000000 1 0 0
17.280074 5.348862 2.364297 18.242840 0.300185 1.440829 0.029002 -0.003234 178298.000000 1 0 0
2.348574 -8.329938 -3.594803 9.371568 -1.295986 1.964473 -0.002157 0.000044 793942.000000 1 0 0
-0.433226 -9.296738 -0.524003 9.321567 1.524230 1.627040 0.007555 -0.001646 -904401.000000 1 0 0
0.796374 11.879062 -5.703703 13.201460 1.503856 2.017562 0.004387 0.001122 -1248800.000000 1 0 0
5.987574 -4.964438 7.919197 11.100017 -0.692249 0.776401 0.001034 -0.001362 -895459.000000 1 0 0
-6.008826 -2.085738 -9.390403 11.341779 0.334100 2.546235 0.012357 -0.006309 -344258.000000 1 0 0
2.034474 -1.281538 11.315097 11.567750 -0.562123 0.209386 0.000898 -0.003817 -169762.000000 1 0 0
17.941274 2.131962 -5.746603 18.959378 0.118275 1.878741 0.054993 -0.004589 -1276170.000000 1 0 0
-8.869426 4.846062 7.731097 12.724814 -0.500058 0.917810 -0.000698 -0.009137 97504.500000 1 0 0
11.326774 -7.252938 -4.802103 14.281496 -0.569551 1.913725 0.010002 -0.006917 70773.500000 1 0 0
10.770674 0.646062 8.953897 14.021309 0.059912 0.878129 0.006118 -0.001633 68637.700000 1 0 0
-8.552126 -7.376338 -1.465703 11.388481 0.711715 1.699855 0.009697 -0.005933 -1253100.000000 1 0 0
10.381974 -10.588738 -3.169303 15.164143 -0.795257 1.781348 0.016640 -0.005636 9229.620000 1 0 0
7.735074 -13.951138 -3.742303 16.385068 -1.064550 1.801227 0.023880 -0.008073 -253677.000000 1 0 0
1.776674 -1.192838 -11.468003 11.665956 -0.591264 2.957112 0.003319 -0.004431 -167674.000000 1 0 0
-11.831726 -2.614538 -6.281003 13.648316 0.217482 2.049021 0.006670 -0.006378 -241164.000000 1 0 0
2.688474 -12.163938 -6.363003 13.988463 -1.353273 2.043028 0.001854 -0.001593 580789.000000 1 0 0
-5.604826 1.480362 1.133797 5.906864 -0.258226 1.377652 0.004533 -0.003268 136890.000000 1 0 0
0.125674 6.852762 -3.970603 7.920974 1.552459 2.095870 0.006292 -0.003299 1030430.000000 1 0 0
5.457474 -11.817638 3.594597 13.504137 -1.138167 1.301363 0.000468 -0.006595 -3199880.000000 1 0 0
-4.395926 -9.209638 1.095097 10.263568 1.125458 1.463895 0.007396 -0.004478 -1981850.000000 1 0 0
7.082574 -6.225738 -4.673103 10.524285 -0.721103 2.030888 0.002454 -0.003313 -581656.000000 1 0 0
-6.934126 -5.958938 2.277997 9.422331 0.709905 1.326611 0.006055 -0.005071 -32377.700000 1 0 0
-6.336226 -0.776538 6.988297 9.465044 0.121947 0.740210 0.002540 -0.002334 -2512330.000000 1 0 0
4.119174 -5.022938 3.281197 7.277620 -0.883935 1.103066 -0.001680 0.000477 -447838.000000 1 0 0
-2.440126 10.587362 -8.880503 14.032454 -1.344277 2.256031 -0.005940 0.004597 -1344180.000000 1 0 0
-2.303326 -4.891838 2.770997 6.075674 1.130739 1.097210 0.002412 -0.002138 535287.000000 1 0 0
15.169574 5.074562 6.362597 17.214814 0.322820 1.192218 0.035409 -0.010500 1300580.000000 1 0 0
6.817674 0.270562 0.144597 6.824573 0.039665 1.549607 0.001695 -0.002752 3620170.000000 1 0 0
-9.693426 9.160562 0.413497 13.343514 -0.757143 1.539803 0.003895 -0.004929 -1371650.000000 1 0 0
7.139274 10.446962 -2.615103 12.920798 0.971310 1.774599 0.007672 0.001582 -952130.000000 1 0 0
1.585874 -4.208438 -5.467603 7.079592 -1.210420 2.453258 0.000780 -0.001465 -1006950.000000 1 0 0
0.889774 -8.153138 -7.785603 11.308447 -1.462094 2.330183 0.000992 0.001125 523931.000000 1 0 0
-10.495626 0.201662 -10.466203 14.823637 -0.019212 2.354699 0.007598 -0.002338 -4653000.000000 1 0 0
5.803374 -2.511238 0.543997 6.346763 -0.408392 1.484978 0.001798 -0.001951 257183.000000 1 0 0
-3.385926 5.401862 -1.168403 6.481494 -1.010899 1.752055 0.004108 -0.003166 694284.000000 1 0 0
-0.377526 4.607462 -5.189503 6.949976 -1.489041 2.413874 0.005330 -0.003000 -1065840.000000 1 0 0
3.990074 -9.687538 10.115797 14.563600 -1.180093 0.802940 -0.000672 -0.005761 -2036030.000000 1 0 0
7.266474 -13.473738 -0.698103 15.324184 -1.076200 1.616368 0.017230 -0.005658 853382.000000 1 0 0
13.015974 -0.117738 0.556797 13.028410 -0.009045 1.528046 0.002180 -0.006227 29012.300000 1 0 0
9.304874 2.446662 -0.665403 9.644149 0.257124 1.639847 0.000775 -0.000241 -945150.000000 1 0 0
-0.781926 -5.766838 4.531797 7.375976 1.436028 0.909171 -0.001329 -0.000451 -759263.000000 1 0 0
11.467074 -3.703438 3.401697 12.521214 -0.312388 1.295664 0.008124 -0.004460 -1743810.000000 1 0 0
1.645574 -8.175538 11.774197 14.428411 -1.372170 0.616266 -0.004137 -0.002745 236733.000000 1 0 0
9.406474 -5.904038 -5.798103 12.528265 -0.560508 2.051950 0.001649 -0.004978 279331.000000 1 0 0
3.233774 6.271262 -0.109003 7.056763 1.094707 1.586244 0.001184 -0.001760 -432524.000000 1 0 0
6.465874 -1.410938 11.491197 13.260690 -0.214845 0.522526 -0.001243 -0.000410 599575.000000 1 0 0
-5.008926 -7.581538 -3.820603 9.857285 0.986954 1.968814 0.013668 -0.004759 -482740.000000 1 0 0
-3.523526 -8.510638 -5.746703 10.856831 1.178267 2.128591 0.013271 -0.001919 -391215.000000 1 0 0
9.763974 5.355862 2.132997 11.338877 0.501716 1.381555 0.001353 -0.002126 -908106.000000 1 0 0
8.844474 -1.444138 0.281297 8.966013 -0.161853 1.539417 0.001080 -0.002181 1174860.000000 1 0 0
-3.817426 9.676262 9.239697 13.913116 -1.195028 0.844507 -0.000122 -0.002269 153683.000000 1 0 0
-14.391226 -3.550638 -6.057803 16.012851 0.241892 1.958765 0.008832 -0.008644 175006.000000 1 0 0
10.679574 6.221962 -6.092103 13.779689 0.527530 2.028743 0.000845 -0.002294 60555.400000 1 0 0
-1.775226 4.554362 2.789697 5.628148 -1.199126 1.052192 0.002444 -0.000929 271419.000000 1 0 0
6.908474 -3.602938 2.827497 8.288723 -0.480718 1.222682 0.002516 -0.001890 -2057710.000000 1 0 0
8.349574 -11.272038 -1.653203 14.124706 -0.933252 1.688109 0.011572 -0.003218 -2589870.000000 1 0 0
4.546574 0.597862 1.810497 4.930180 0.130747 1.194770 0.000407 -0.001504 -61322.700000 1 0 0
-10.765826 2.383162 3.764997 11.651509 -0.217851 1.241757 -0.001719 -0.004532 175576.000000 1 0 0
-0.840326 -3.042438 4.335197 5.362510 1.301314 0.629322 0.000366 -0.001815 338151.000000 1 0 0
8.545774 -8.762138 -8.446203 14.870900 -0.797898 2.174832 0.009085 -0.003012 -280124.000000 1 0 0
12.077374 -4.805838 1.093197 13.044314 -0.378713 1.486892 0.004178 -0.004736 368150.000000 1 0 0
2.950774 4.891162 3.550597 6.725866 1.027963 1.014668 -0.004767 0.001828 -758481.000000 1 0 0
6.007474 7.380562 1.976897 9.719597 0.887602 1.365974 -0.001130 -0.001636 182581.000000 1 0 0
-1.689026 -1.476138 -10.260803 10.503136 0.718240 2.926364 0.010622 -0.006582 44181.400000 1 0 0
-0.911726 -8.682638 6.099497 10.650038 1.466174 0.960975 -0.001462 -0.002443 -63223.100000 1 0 0
-4.175026 -0.291838 2.258797 4.755857 0.069787 1.075888 0.002147 -0.001912 712147.000000 1 0 0
-8.362726 6.221662 -7.913703 13.087053 -0.639634 2.220182 -0.002581 0.000121 -1463250.000000 1 0 0
6.317274 11.128162 -9.441403 15.902328 1.054478 2.206460 0.022166 -0.010619 394205.000000 1 0 0
-11.143926 -5.797338 3.198997 12.962631 0.479696 1.321434 0.005197 -0.004196 1724180.000000 1 0 0
1.525674 -6.343738 3.129497 7.236328 -1.334778 1.123566 -0.001235 -0.000546 774526.000000 1 0 0
10.144174 2.240862 7.217997 12.650107 0.217410 0.963575 0.001116 0.001357 -952129.000000 1 0 0
-4.067426 -2.634938 -10.659403 11.709386 0.574837 2.714877 0.011653 -0.009347 -2460590.000000 1 0 0
-8.177626 11.817162 5.845097 15.513995 -0.965451 1.184497 0.006980 -0.007745 -365372.000000 1 0 0
6.950074 6.024562 -2.930303 9.653267 0.714186 1.879218 0.002796 -0.000355 -2487950.000000 1 0 0
3.842374 -9.885238 -2.259803 10.843822 -1.200071 1.780730 -0.002335 -0.002042 -1675350.000000 1 0 0
8.583274 -12.930538 -7.393503 17.191140 -0.984782 2.015374 0.025257 -0.010061 1139020.000000 1 0 0
-1.208626 9.606862 3.579097 10.322912 -1.445645 1.216731 -0.003542 0.003780 -40181.200000 1 0 0
0.510374 -13.176538 4.662797 13.986541 -1.532082 1.230913 0.004877 -0.005105 -1018550.000000 1 0 0
-11.242126 -6.965238 -5.019503 14.145506 0.554682 1.933548 0.013438 -0.006833 202291.000000 1 0 0
3.737174 10.262362 -3.384903 11.434164 1.221560 1.871334 0.012622 -0.002252 -630962.000000 1 0 0
11.785074 -8.121938 -7.299503 16.066630 -0.603422 2.042413 0.036986 -0.008630 273905.000000 1 0 0
11.812574 -4.926138 -5.824803 14.061724 -0.395096 1.997894 0.008519 -0.003848 -146653.000000 1 0 0
1.276074 -10.398238 -2.473103 10.764198 -1.448687 1.802620 0.000108 -0.000887 -999652.000000 1 0 0
2.337874 -12.036438 -3.847703 12.850927 -1.378952 1.874871 0.004147 -0.000915 -1535690.000000 1 0 0
-7.684626 -5.721138 7.302097 12.045975 0.639966 0.919541 0.008409 -0.002679 -2741120.000000 1 0 0
-7.264126 -0.827838 9.475497 11.968203 0.113473 0.657173 0.006024 -0.001482 418694.000000 1 0 0
16.234974 2.464362 -7.548403 18.072793 0.150643 2.001672 0.052377 -0.005282 143537.000000 1 0 0
-2.030226 6.340062 -5.576003 8.683894 -1.260892 2.268042 0.002376 -0.000609 -869151.000000 1 0 0
7.741174 1.249362 8.353597 11.457280 0.160012 0.753778 0.001617 0.000299 -919342.000000 1 0 0
7.963974 8.235462 -3.827103 12.078677 0.802156 1.893201 0.005520 0.002379 -11734.500000 1 0 0
8.052174 0.536762 3.934397 8.978035 0.066562 1.117174 -0.000750 -0.002029 -431170.000000 1 0 0
-6.951426 5.922262 5.268697 10.542992 -0.705625 1.047504 0.001197 -0.005987 103574.000000 1 0 0
-6.183826 -2.043138 -4.633903 7.992945 0.319109 2.189217 0.009311 -0.005356 -766234.000000 1 0 0
-15.124926 -2.068738 3.084797 15.574307 0.135933 1.371408 0.011166 -0.007047 733106.000000 1 0 0
1.031074 1.207862 -10.491003 10.610522 0.864195 2.991356 0.008370 -0.005138 754909.000000 1 0 0
1.510674 -9.242338 9.350097 13.233566 -1.408778 0.786194 -0.001893 -0.006299 -320432.000000 1 0 0
-0.179826 -6.677038 -1.064003 6.763673 1.543871 1.728764 0.004613 -0.001361 391875.000000 1 0 0
-0.406526 -10.287138 -8.377303 13.272893 1.531299 2.253843 0.005154 0.000922 294227.000000 1 0 0
-4.345326 6.500462 3.793997 8.690931 -0.981550 1.119040 0.000488 0.002616 32333.300000 1 0 0
10.841974 -1.167938 -8.579503 13.875170 -0.107310 2.237419 0.014574 0.000478 756498.000000 1 0 0
3.102174 -1.079738 6.173397 6.992864 -0.334944 0.488977 -0.001058 -0.000745 661027.000000 1 0 0
1.819974 -12.386638 6.868997 14.280204 -1.424910 1.068984 0.005372 -0.004635 -337065.000000 1 0 0
2.853974 -4.926838 -1.325503 5.846012 -1.045758 1.799522 0.004814 -0.001480 -1753640.000000 1 0 0
-1.113626 9.575162 -1.737903 9.795111 -1.455013 1.749166 0.001854 -0.002215 301997.000000 1 0 0
4.439874 -2.522438 2.604597 5.732286 -0.516658 1.099128 0.003385 -0.001988 -1459370.000000 1 0 0
17.727674 6.707162 -2.618103 19.134025 0.361699 1.708057 0.031541 0.000883 439106.000000 1 0 0
-7.103926 3.440862 -5.355503 9.538695 -0.451058 2.166934 0.000870 -0.000515 299777.000000 1 0 0
-13.868326 -6.015238 2.312997 15.292596 0.409250 1.418964 -0.000627 -0.006112 369887.000000 1 0 0
6.657874 -6.004938 3.247097 9.535733 -0.733881 1.223328 0.001245 -0.003008 798554.000000 1 0 0
-4.545326 1.996562 3.507397 6.078493 -0.413883 0.955724 0.003389 -0.003219 783597.000000 1 0 0
6.924374 -12.342138 -5.524703 15.192027 -1.059520 1.942988 0.014777 -0.005890 -22989.700000 1 0 0
2.949274 -12.275138 3.239297 13.033429 -1.335002 1.319626 0.008061 -0.006896 -1117920.000000 1 0 0
3.256874 11.200862 -6.111303 13.168696 1.287829 2.053390 0.005445 -0.000948 -690895.000000 1 0 0
-5.571326 -8.172938 6.452997 11.810070 0.972472 0.992739 0.007252 -0.003340 -449298.000000 1 0 0
-3.961426 6.547262 6.367897 9.955383 -1.026671 0.876762 0.002609 0.001081 371300.000000 1 0 0
4.313874 4.350662 -6.985103 9.291363 0.789644 2.421560 0.004686 -0.000680 -1307420.000000 1 0 0
-0.288326 -2.633938 1.629497 3.110631 1.461765 1.019434 0.001493 -0.000348 -1174850.000000 1 0 0
-13.212526 -0.891738 6.539997 14.769482 0.067390 1.112072 0.004587 -0.000984 -158135.000000 1 0 0
-0.555026 -9.275938 -5.904003 11.009466 1.511033 2.136803 0.003109 0.001404 510194.000000 1 0 0
2.074474 -1.775038 -3.942003 4.795163 -0.707769 2.535849 0.001443 -0.000851 -1197990.000000 1 0 0
11.338074 -1.945138 1.118097 11.557925 -0.169904 1.473906 0.000983 -0.003584 870575.000000 1 0 0
0.544074 -4.181938 -1.874303 4.614936 -1.441422 1.989021 0.004948 -0.001870 -2371010.000000 1 0 0
1.137074 -7.431838 -11.238903 13.521764 -1.418973 2.552007 -0.001383 0.002439 203903.000000 1 0 0
-4.489326 4.117762 -9.985903 11.697361 -0.742255 2.593824 -0.002524 -0.000354 339666.000000 1 0 0
-0.983726 5.885962 -2.077603 6.318916 -1.405196 1.905819 0.004494 -0.002780 61691.600000 1 0 0
-11.357526 1.792862 -3.847603 12.124842 -0.156565 1.893711 0.000889 -0.000806 -123605.000000 1 0 0
-1.749926 -11.263338 4.239897 12.161486 1.416664 1.214684 0.006050 -0.005090 -942737.000000 1 0 0
-3.508226 -5.552538 -9.807303 11.803454 1.007305 2.551491 0.010389 -0.003821 -226291.000000 1 0 0
-12.748826 -3.762638 -8.263103 15.651481 0.286989 2.126974 0.012970 -0.006606 18864.700000 1 0 0
11.349374 4.515762 0.475897 12.224029 0.378683 1.531855 0.001527 0.000461 169663.000000 1 0 0
-8.913926 -2.315638 -3.032403 9.696170 0.254160 1.888875 0.004059 -0.004762 -78474.800000 1 0 0
-2.481726 -6.069838 -6.354203 9.131144 1.182674 2.340444 0.007892 -0.003092 642280.000000 1 0 0
0.007074 2.774862 -1.846003 3.332812 1.568247 2.157823 0.006695 -0.002286 -101560.000000 1 0 0
8.167174 5.962362 -5.186803 11.364657 0.630604 2.044739 0.004839 -0.000538 -865323.000000 1 0 0
-9.768526 -1.005738 -0.891603 9.860556 0.102596 1.661341 -0.000172 -0.003851 -226458.000000 1 0 0
6.105974 0.495862 -8.902503 10.806635 0.081031 2.538878 0.006888 0.000290 398729.000000 1 0 0
-4.090026 2.491062 7.863097 9.206628 -0.547053 0.547038 0.001650 0.000273 -797241.000000 1 0 0
-10.166926 -3.247638 1.399097 10.764339 0.309187 1.440452 -0.000829 -0.004869 1658080.000000 1 0 0
-1.893126 -8.241738 -7.734903 11.460318 1.345013 2.311665 0.007297 -0.003016 144969.000000 1 0 0
-9.378326 -9.719138 4.283597 14.169116 0.803242 1.263671 0.007785 -0.005711 -598862.000000 1 0 0
-1.149326 -10.795538 7.290997 13.077585 1.464733 0.979403 -0.001097 -0.002895 282979.000000 1 0 0
9.450574 3.733062 -3.792703 10.845907 0.376196 1.928036 -0.000916 0.000953 -904031.000000 1 0 0
12.802674 -0.773638 3.124197 13.201045 -0.060354 1.331867 0.006486 -0.003975 -38901.600000 1 0 0
6.461274 11.831462 -6.918403 15.152421 1.070945 2.044952 0.016961 -0.001736 -165457.000000 1 0 0
-11.777826 -0.013238 -6.450903 13.428756 0.001124 2.071884 0.005532 -0.000554 541112.000000 1 0 0
-7.660026 -6.655738 -11.447203 15.297493 0.715360 2.416301 0.014189 -0.003179 -316168.000000 1 0 0
4.237274 6.093362 6.534297 9.888407 0.963170 0.848907 -0.005611 0.003835 -2429950.000000 1 0 0
-4.269026 -1.495738 -7.394403 8.668276 0.337004 2.592583 0.011214 -0.009479 -516873.000000 1 0 0
9.606174 9.325662 0.872897 13.416725 0.770582 1.505690 0.007126 0.001132 -417911.000000 1 0 0
-8.854726 3.948562 4.864197 10.847014 -0.419462 1.105781 -0.000265 -0.006535 891449.000000 1 0 0
-6.957026 7.809462 -12.213403 16.079649 -0.843062 2.433427 -0.002115 -0.002032 -1280690.000000 1 0 0
11.207974 -3.673638 7.241797 13.840446 -0.316735 1.020154 0.014782 -0.006136 300695.000000 1 0 0
11.847474 6.977662 6.419097 15.174163 0.532261 1.134012 0.005611 -0.003107 -132533.000000 1 0 0
-10.118026 -0.828938 -14.795003 17.943068 0.081744 2.540207 0.023226 0.001463 154356.000000 1 0 0
1.642474 -13.183138 11.955297 17.872380 -1.446846 0.838034 -0.000577 -0.003243 501623.000000 1 0 0
3.004974 2.961362 13.183297 13.841924 0.778089 0.309723 0.001503 -0.001526 -542471.000000 1 0 0
-2.624926 -1.425338 11.064297 11.460388 0.497454 0.263677 0.009728 -0.001076 433286.000000 1 0 0
2.553774 -10.113638 -8.256003 13.302970 -1.323459 2.240321 -0.002984 0.002200 -1020750.000000 1 0 0
13.994974 3.551862 -7.480803 16.261533 0.248548 2.048826 0.024142 -0.002331 -2406010.000000 1 0 0
7.359974 -1.520338 5.023097 9.039478 -0.203703 0.981610 0.001236 -0.001393 234207.000000 1 0 0
-1.105526 8.702862 10.150097 13.415903 -1.444443 0.712742 0.001717 0.002837 186607.000000 1 0 0
-12.288526 -4.682438 0.989897 13.187607 0.364057 1.495663 0.002300 -0.006097 179929.000000 1 0 0
-4.830326 4.825762 -5.212703 8.590244 -0.784926 2.222846 0.003211 -0.000894 28353.100000 1 0 0
-11.137926 0.343662 2.049197 11.330079 -0.030845 1.388932 -0.006598 -0.000903 -1981420.000000 1 0 0
-1.336126 2.332762 -4.081103 4.886963 -1.050643 2.559111 0.007331 -0.004657 879575.000000 1 0 0
3.055274 -9.917638 13.125697 16.732548 -1.271957 0.669002 -0.001581 -0.000341 -2810160.000000 1 0 0
8.962374 4.726262 -1.511603 10.244347 0.485283 1.718892 0.000485 -0.000788 -1350150.000000 1 0 0
4.075374 2.330062 3.815797 6.049642 0.519382 0.888280 -0.004895 0.001869 34210.700000 1 0 0
-5.374626 -3.218238 7.496997 9.769781 0.539525 0.696073 0.006522 -0.003511 -174224.000000 1 0 0
1.683274 -5.748538 7.701697 9.756805 -1.285942 0.661020 -0.000765 -0.000879 -734957.000000 1 0 0
-5.936026 -6.262438 -9.665103 12.956417 0.812150 2.412787 0.013553 -0.004290 -833328.000000 1 0 0
-11.751726 -5.724638 5.566797 14.207877 0.453300 1.168198 0.010718 -0.004011 -1124890.000000 1 0 0
10.462174 6.141962 4.510297 12.943090 0.530853 1.214856 0.001262 -0.000504 -2496870.000000 1 0 0
1.403674 -3.766238 0.450097 4.044433 -1.214044 1.459277 0.008436 -0.001126 -1009900.000000 1 0 0
8.824674 4.374862 6.961797 12.061547 0.460245 0.955514 -0.002724 0.004024 -10942.200000 1 0 0
-7.739326 12.124062 3.487297 14.800381 -1.002659 1.332938 0.003205 -0.005618 5319.230000 1 0 0
-6.226726 13.279162 -7.164503 16.322939 -1.132329 2.025195 0.008198 -0.001422 322723.000000 1 0 0
4.428174 -6.921738 -0.891103 8.265183 -1.001661 1.678820 0.000638 -0.001757 873973.000000 1 0 0
-1.837326 -8.179838 11.169197 13.965546 1.349847 0.643888 -0.001690 -0.006749 19387.700000 1 0 0
11.498974 8.831762 -5.797003 15.615110 0.654952 1.951144 0.016728 -0.000343 595311.000000 1 0 0
-3.374926 -2.845138 -1.818303 4.774009 0.700429 1.961539 0.010524 -0.003210 -2818820.000000 1 0 0
-2.027526 6.057362 4.746597 7.958183 -1.247797 0.931735 0.002361 0.001744 -632610.000000 1 0 0
0.382174 -11.349638 -5.515203 12.624492 -1.537136 2.022907 0.003488 -0.000830 -2148240.000000 1 0 0
-8.881926 6.236862 -1.535103 10.961003 -0.612199 1.711310 0.003673 -0.002919 -883905.000000 1 0 0
2.918674 0.085162 3.872597 4.850043 0.029170 0.646053 -0.002487 0.000781 73838.000000 1 0 0
-9.987926 3.930062 -1.077603 10.787274 -0.374874 1.670859 0.006123 -0.002356 -178452.000000 1 0 0
6.543274 5.583662 13.613897 16.103724 0.706432 0.563505 0.013356 0.005576 -140171.000000 1 0 0
-8.797426 -1.653438 5.735297 10.631189 0.185778 1.000979 0.002015 -0.004067 -223738.000000 1 0 0
12.962974 -1.796938 -1.438303 13.165728 -0.137743 1.680261 0.004532 -0.004370 -1422740.000000 1 0 0
5.243074 -5.534638 5.508697 9.405732 -0.812444 0.945084 0.000424 -0.001464 196303.000000 1 0 0
-9.007226 -1.106138 3.291497 9.653373 0.122194 1.222849 -0.002575 -0.002668 -104321.000000 1 0 0
2.084474 5.528362 5.651497 8.176016 1.210229 0.807608 -0.003294 0.003016 -1314030.000000 1 0 0
9.329874 3.111662 -7.348603 12.277254 0.321915 2.212492 0.003426 0.000500 -858453.000000 1 0 0
2.288974 -2.377638 -1.509803 3.629335 -0.804395 1.999838 0.003115 -0.000480 190258.000000 1 0 0
-6.311326 0.309062 -3.930903 7.441797 -0.048930 2.127299 0.003327 -0.001771 -1879630.000000 1 0 0
-3.946926 4.183362 5.033297 7.642828 -0.814471 0.851886 0.002764 -0.000187 751660.000000 1 0 0
-6.467826 1.719262 -12.468803 14.151314 -0.259810 2.648991 0.000423 0.000932 -3450050.000000 1 0 0
-0.130426 3.121362 6.244497 6.982382 -1.529036 0.463883 0.000542 0.000555 1237870.000000 1 0 0
-8.632426 9.451962 -2.115703 12.974381 -0.830685 1.734596 0.005319 0.000324 1027900.000000 1 0 0
-1.271526 -3.776938 -6.113703 7.297904 1.246059 2.563917 0.004463 -0.003070 256724.000000 1 0 0
-3.299426 7.028562 -3.029203 8.334444 -1.131901 1.942771 0.002408 -0.000361 759188.000000 1 0 0
6.909874 -0.395938 -4.279003 8.137137 -0.057238 2.124523 0.002247 -0.000203 -319880.000000 1 0 0
-5.239926 -10.738638 6.937197 13.816652 1.116835 1.044783 0.001025 -0.003125 -30864.000000 1 0 0
9.791274 8.424462 -1.469803 13.000036 0.710504 1.684100 0.000944 0.003254 -235755.000000 1 0 0
13.687574 4.644062 -4.347203 15.093547 0.327102 1.862952 0.007197 -0.000481 670322.000000 1 0 0
4.709374 1.089762 -6.844603 8.379402 0.227400 2.526702 0.002070 -0.000714 -968239.000000 1 0 0
8.979774 -4.728138 3.614697 10.773007 -0.484647 1.228626 0.001494 -0.003846 -338891.000000 1 0 0
-8.661226 -3.234538 -0.735403 9.274690 0.357411 1.650171 0.002633 -0.003369 409583.000000 1 0 0
-8.590526 -4.229138 -10.486403 14.200260 0.457471 2.401588 0.009523 -0.004323 -93369.800000 1 0 0
10.565874 -1.049238 10.646297 15.036032 -0.098980 0.784060 0.020621 0.000081 494500.000000 1 0 0
2.298474 -11.645638 9.997897 15.519724 -1.375933 0.870812 -0.005237 -0.005451 19222.600000 1 0 0
-6.383226 -10.502338 2.106697 12.469276 1.024668 1.401031 0.007312 -0.004033 -1516300.000000 1 0 0
-3.765926 -1.129238 6.736297 7.799684 0.291325 0.528305 0.006411 -0.000487 -297248.000000 1 0 0
4.710874 -7.503838 3.961197 9.705205 -1.010189 1.150368 -0.002796 0.000038 241531.000000 1 0 0
11.494974 -9.584138 -5.322203 15.884457 -0.694995 1.912462 0.022572 -0.006603 417029.000000 1 0 0
11.296874 1.272362 11.455197 16.138768 0.112157 0.781591 0.025430 0.004267 -564208.000000 1 0 0
-10.261426 -3.425438 4.340397 11.656309 0.322186 1.189241 0.006550 -0.004720 1478430.000000 1 0 0
2.107474 8.834662 8.989597 12.779106 1.336626 0.790542 -0.003151 0.007195 -194750.000000 1 0 0
6.611874 8.715362 4.159797 11.703774 0.921785 1.207429 -0.001714 0.001534 552911.000000 1 0 0
-4.354926 3.718662 0.430197 5.742725 -0.706753 1.495814 0.004546 -0.003544 -868065.000000 1 0 0
4.899474 6.882462 4.218797 9.443060 0.952143 1.107654 -0.002260 0.000801 -1543240.000000 1 0 0
-8.256626 13.106062 1.079997 15.527624 -1.008620 1.501187 0.000971 -0.001376 -276100.000000 1 0 0
8.923874 8.091762 -9.137303 15.119605 0.736534 2.219727 0.015911 -0.010275 -355954.000000 1 0 0
7.121474 1.954262 6.028397 9.532896 0.267825 0.886177 -0.003168 0.000644 -754506.000000 1 0 0
11.479474 -6.214138 3.105997 13.417938 -0.496159 1.337197 0.008066 -0.003607 -68112.900000 1 0 0
11.377674 4.602762 -2.157803 12.461661 0.384417 1.744829 0.000893 -0.000340 -433395.000000 1 0 0
-4.081426 14.374362 -6.003303 16.103415 -1.294140 1.952818 0.001515 0.004656 55197.500000 1 0 0
7.201374 -3.004738 6.980997 10.470080 -0.395284 0.840948 0.003520 -0.003448 -1445490.000000 1 0 0
-7.966526 -0.448038 0.959397 8.036586 0.056181 1.451132 0.001455 -0.002922 198559.000000 1 0 0
-3.198626 1.077162 10.709997 11.229226 -0.324829 0.305286 0.007326 0.001198 -106334.000000 1 0 0
7.096174 -1.258238 -1.866003 7.444516 -0.175488 1.824153 0.003571 -0.001819 -1883200.000000 1 0 0
-7.851226 5.336162 2.932697 9.935647 -0.596944 1.271164 0.000857 -0.002668 610054.000000 1 0 0
9.475274 -2.130338 2.898397 10.135081 -0.221154 1.280771 0.000990 -0.003898 -1386720.000000 1 0 0
0.267974 3.524262 1.548097 3.858606 1.494905 1.157963 0.002547 0.000400 -2085800.000000 1 0 0
-7.561826 -3.076638 4.110997 9.140416 0.386410 1.104299 0.001921 -0.002973 -102273.000000 1 0 0
-2.299426 8.384062 -6.723303 10.990116 -1.303117 2.229079 -0.004350 -0.000018 -533845.000000 1 0 0
4.553074 9.832662 7.333697 13.084145 1.137138 0.975804 -0.003831 0.007175 279291.000000 1 0 0
-11.819526 -3.108338 6.822897 13.996960 0.257160 1.061623 0.012153 -0.003826 -824989.000000 1 0 0
-4.722026 2.297262 -5.648903 7.712655 -0.452789 2.392666 0.006737 -0.003520 -1165910.000000 1 0 0
-2.717926 3.097862 -1.838003 4.512441 -0.850634 1.990313 0.006177 -0.002629 1191590.000000 1 0 0
2.514474 5.142462 11.659297 12.988715 1.116017 0.456392 0.001462 -0.000797 205299.000000 1 0 0
-0.646426 1.661762 4.461697 4.804796 -1.199808 0.380194 0.001755 -0.001187 667610.000000 1 0 0
5.104174 1.652862 7.725297 9.405571 0.313169 0.607017 -0.002753 0.000797 1019870.000000 1 0 0
3.355474 -8.221438 1.979197 9.097718 -1.183295 1.351494 -0.002577 -0.001735 3121270.000000 1 0 0
5.059174 6.449262 -4.685103 9.441314 0.905604 2.090052 0.006019 -0.001725 -2248310.000000 1 0 0
-4.102726 2.748762 -8.009603 9.409665 -0.590296 2.589083 0.006011 -0.004058 -614930.000000 1 0 0
-8.701526 -2.142138 -12.878503 15.689523 0.241380 2.533667 0.011939 -0.005046 1353230.000000 1 0 0
-7.809926 8.196462 1.565197 11.429207 -0.809542 1.433417 0.001833 -0.001284 -1498020.000000 1 0 0
7.354074 0.879962 -6.513203 9.862989 0.119090 2.292105 0.000700 -0.000072 628931.000000 1 0 0
9.025474 8.945762 5.462197 13.831899 0.780963 1.164839 -0.000797 0.003571 362873.000000 1 0 0
9.438374 -1.002838 -1.335403 9.584983 -0.105854 1.710573 0.001750 -0.002801 848753.000000 1 0 0
5.438674 0.136362 4.275797 6.919553 0.025067 0.904690 -0.002670 0.000441 -2015510.000000 1 0 0
-4.227826 -7.245738 -8.003203 11.594244 1.042604 2.332664 0.019234 -0.007804 -236471.000000 1 0 0
-2.295826 7.518362 -0.629103 7.886213 -1.274427 1.650654 0.002852 -0.001063 217453.000000 1 0 0
13.206974 -3.456338 -7.468603 15.561185 -0.255965 2.071395 0.020917 -0.004058 785255.000000 1 0 0
-4.773026 -5.023938 1.522297 7.095006 0.811004 1.354556 0.006987 -0.003205 1773640.000000 1 0 0
-8.823426 1.418962 2.467797 9.271263 -0.159452 1.301372 -0.003124 -0.002525 -1400320.000000 1 0 0
-1.042426 11.159662 10.182097 15.142649 -1.477656 0.833334 -0.001434 0.000492 195627.000000 1 0 0
-8.539626 0.344162 7.435797 11.328492 -0.040280 0.854786 0.001107 -0.003218 -552054.000000 1 0 0
-6.101226 13.039162 -2.165003 14.557882 -1.133144 1.720067 -0.002158 0.003975 -306106.000000 1 0 0
-12.920626 -0.735338 3.266097 13.347310 0.056851 1.323585 0.006388 -0.004807 614607.000000 1 0 0
-6.589526 12.800462 8.707697 16.825506 -1.095388 1.026835 0.012972 -0.010570 1258610.000000 1 0 0
-8.085326 0.676162 -14.089403 16.258566 -0.083434 2.619111 0.001919 0.003128 -773293.000000 1 0 0
7.332574 2.777462 3.632297 8.641442 0.362084 1.136982 -0.003063 -0.001183 -815762.000000 1 0 0
-1.584226 0.780762 -1.973403 2.648335 -0.457899 2.411554 0.005758 -0.003030 755532.000000 1 0 0
-6.190926 9.708262 -10.409603 15.522169 -1.003119 2.305852 -0.004167 0.000856 -557664.000000 1 0 0
-10.083326 13.585662 5.214997 17.704233 -0.932304 1.271799 0.005684 -0.013261 765437.000000 1 0 0
-5.595426 8.333062 2.490197 10.341653 -0.979474 1.327614 -0.000759 -0.000635 -1085860.000000 1 0 0
-2.433426 -10.625238 -1.157803 10.961649 1.345656 1.676617 0.007710 -0.003179 291067.000000 1 0 0
-2.395326 -12.429438 8.872897 15.458228 1.380416 0.959424 -0.002300 -0.001364 434057.000000 1 0 0
-14.732726 -6.370038 -1.552203 16.125753 0.408099 1.667202 0.012422 -0.007839 526839.000000 1 0 0
-2.720326 -9.359738 3.246897 10.273617 1.287948 1.249241 0.001356 -0.003783 -1397670.000000 1 0 0
4.686274 -2.584738 7.588397 9.285785 -0.504036 0.614250 0.000157 -0.000347 -232619.000000 1 0 0
-15.055626 -1.241538 -0.249503 15.108790 0.082277 1.587311 0.008323 -0.011293 104682.000000 1 0 0
5.508674 8.703262 -2.907103 10.702500 1.006505 1.845881 0.006879 -0.001476 -490048.000000 1 0 0
-5.622926 -5.675738 8.555397 11.705816 0.790072 0.751205 0.007943 -0.002679 -1388380.000000 1 0 0
3.458874 3.592962 7.073297 8.654751 0.804410 0.614133 -0.003948 0.002687 -50043.000000 1 0 0
3.348174 2.336562 9.395097 10.243908 0.609289 0.409952 0.000866 -0.000851 100015.000000 1 0 0
9.884874 -3.162638 5.198697 11.607733 -0.309655 1.106420 0.009529 -0.002426 -501864.000000 1 0 0
6.589074 10.007962 -5.091803 13.019280 0.988550 1.972620 0.007968 0.000220 555318.000000 1 0 0
-4.452826 12.127862 -8.583803 15.511104 -1.218920 2.157234 -0.004603 0.000404 -181851.000000 1 0 0
-3.413726 -7.222538 2.287097 8.309596 1.129268 1.291962 0.003590 -0.007372 843241.000000 1 0 0
-7.493826 -4.016238 1.155697 8.580398 0.491984 1.435695 0.003128 -0.004129 2612590.000000 1 0 0
-1.978726 -4.091238 -10.968403 11.872634 1.120314 2.748788 0.010526 -0.004484 -412344.000000 1 0 0
-5.226826 8.337962 -4.478803 10.812076 -1.010853 1.997905 0.000110 -0.002289 -1628510.000000 1 0 0
-10.968726 -3.168538 -10.118803 15.255909 0.281215 2.295978 0.015722 -0.004289 -1740530.000000 1 0 0
4.669674 -11.458338 -7.733403 14.591261 -1.183811 2.129400 0.003953 -0.003102 -1730650.000000 1 0 0
-9.434626 -3.944838 7.383397 12.613027 0.396032 0.945449 0.006579 -0.002758 -800205.000000 1 0 0
-5.754226 -9.724038 -5.105903 12.399124 1.036463 1.995220 0.016169 -0.005547 716953.000000 1 0 0
4.957274 4.319862 -9.560403 11.603322 0.716798 2.539120 0.003917 0.000148 -348443.000000 1 0 0
-3.434926 -7.183438 -13.966103 16.076459 1.124762 2.623429 0.007267 0.003020 28621.900000 1 0 0
0.547674 -0.878238 -8.739003 8.800081 -1.013200 3.023706 0.006772 -0.006970 217116.000000 1 0 0
-7.741026 2.222362 -2.840203 8.539855 -0.279570 1.909837 0.002031 -0.001958 -627025.000000 1 0 0
-2.284426 7.497262 -12.623803 14.858934 -1.275032 2.585978 -0.007179 0.002918 -342108.000000 1 0 0
-9.763126 8.863662 7.648097 15.243901 -0.737147 1.045216 0.003305 -0.013296 -356860.000000 1 0 0
-10.723126 -3.175238 -14.237103 18.104217 0.287885 2.475751 0.024851 0.001905 -123094.000000 1 0 0
-3.219126 4.832362 8.065597 9.938227 -0.983145 0.623957 0.002731 -0.000255 -81273.500000 1 0 0
8.724274 -2.305238 -3.567003 9.703123 -0.258329 1.947238 0.001812 -0.001010 -5212450.000000 1 0 0
1.917974 -8.366238 -1.122003 8.656296 -1.345439 1.700779 0.001393 0.000234 199272.000000 1 0 0
-13.536626 -2.847538 5.035297 14.720833 0.207335 1.221696 0.015471 -0.005937 333892.000000 1 0 0
7.093874 2.784562 -2.000703 7.879064 0.374051 1.827534 -0.000559 -0.001221 1042570.000000 1 0 0
-11.095126 4.514462 8.869997 14.905000 -0.386429 0.933404 -0.000171 -0.008377 -1713850.000000 1 0 0
-1.827126 -2.518838 7.895197 8.486287 0.943236 0.375437 0.002425 -0.002316 -546187.000000 1 0 0
2.897674 11.974562 -10.008203 15.872957 1.333375 2.253018 0.002109 -0.006207 770058.000000 1 0 0
3.672574 -5.027838 -7.117403 9.456447 -0.939926 2.422875 -0.003278 -0.003029 720716.000000 1 0 0
8.451374 -13.835438 -9.644403 18.864241 -1.022437 2.107439 0.035995 -0.013405 491929.000000 1 0 0
-6.364926 -5.743838 -0.437203 8.584585 0.734151 1.621747 0.010290 -0.005262 -212700.000000 1 0 0
-1.166626 -4.025338 9.875897 10.728360 1.288704 0.401333 0.000905 -0.001283 620030.000000 1 0 0
2.753674 3.415762 1.846397 4.760182 0.892306 1.172462 -0.002765 0.002104 -883202.000000 1 0 0
-9.101126 13.307862 7.738997 17.883561 -0.970964 1.123262 0.011091 -0.022682 797582.000000 1 0 0
3.989074 -11.116538 -0.034003 11.810643 -1.226267 1.573675 -0.000426 0.000250 107505.000000 1 0 0
-12.517726 -1.363438 -8.964403 15.456809 0.108493 2.189482 0.013140 -0.004939 -119693.000000 1 0 0
-4.346026 0.908962 -13.574203 14.281916 -0.206176 2.825467 0.004920 -0.001181 52760.800000 1 0 0
4.044774 -3.130138 5.001197 7.153317 -0.658605 0.796597 0.001178 0.001751 -140595.000000 1 0 0
1.755174 -1.190138 1.134997 2.405262 -0.595858 1.079373 0.002790 -0.001158 358246.000000 1 0 0
8.206874 -8.963138 7.410597 14.234029 -0.829415 1.023213 0.006722 -0.004148 -778532.000000 1 0 0
-0.029426 2.310562 -6.359703 6.766490 -1.558062 2.793081 0.005334 -0.005330 -1391830.000000 1 0 0
-3.769526 -9.707938 -3.297603 10.923716 1.200423 1.877456 0.013879 -0.002330 841334.000000 1 0 0
-9.532426 2.294462 -5.428903 11.207349 -0.236207 2.076480 -0.001038 0.000613 840589.000000 1 0 0
8.994974 -7.639938 5.314997 12.943238 -0.704120 1.147642 0.004681 -0.003032 2166000.000000 1 0 0
-5.598426 -4.363938 4.693097 8.509494 0.662111 0.986619 0.003404 -0.003390 -552581.000000 1 0 0
-0.155526 -12.392938 10.266297 16.093662 1.558247 0.879016 0.001661 -0.006051 -1177790.000000 1 0 0
-14.293126 -8.362538 3.143297 16.855438 0.529372 1.383213 0.008145 -0.005753 -1068880.000000 1 0 0
10.957974 -1.385938 -3.575603 11.609606 -0.125810 1.883872 0.008764 -0.000811 -469812.000000 1 0 0
-13.697926 3.076362 2.678597 14.292377 -0.220920 1.382267 0.004477 -0.004048 -451844.000000 1 0 0
-6.399826 6.178462 1.051997 8.957559 -0.767801 1.453082 -0.000966 -0.001003 873549.000000 1 0 0
7.142074 -6.938038 -0.315703 9.962192 -0.770908 1.602492 -0.000973 -0.001223 415936.000000 1 0 0
-6.926326 7.864062 9.989897 14.478104 -0.848715 0.809307 -0.000680 -0.006299 335016.000000 1 0 0
-12.607826 -5.139838 -1.834103 13.738236 0.387101 1.704700 0.002790 -0.007187 -2678760.000000 1 0 0
-9.501626 -5.575238 0.261297 11.019639 0.530632 1.547082 0.004849 -0.005203 -1026970.000000 1 0 0
-1.789326 1.891662 2.077397 3.331013 -0.813192 0.897389 0.004427 -0.001303 303181.000000 1 0 0
-7.070126 7.422762 7.530697 12.719885 -0.809725 0.937207 0.000699 -0.007738 -148217.000000 1 0 0
5.749974 7.074962 -0.503803 9.130778 0.888346 1.626001 0.003642 -0.002575 -947058.000000 1 0 0
-0.076726 -4.017338 7.471297 8.483229 1.551700 0.493429 0.001154 -0.001047 -603644.000000 1 0 0
6.525474 0.638862 13.046797 14.601674 0.097592 0.465686 0.002056 0.001583 715231.000000 1 0 0
5.783574 6.057762 -7.963303 11.556834 0.808549 2.330982 0.003419 -0.000979 -428750.000000 1 0 0
10.092174 5.294862 8.967497 14.501846 0.483173 0.904130 0.002872 0.001288 -1573400.000000 1 0 0
-1.194126 -5.044938 -8.459803 9.921976 1.338376 2.591800 0.012049 -0.004500 956071.000000 1 0 0
9.994274 -3.575238 -7.949503 13.261314 -0.343543 2.213611 0.014324 -0.005949 586394.000000 1 0 0
8.398274 -5.304738 1.271397 10.014375 -0.563364 1.443496 0.002864 -0.002615 1226110.000000 1 0 0
15.696874 3.133762 -5.000503 16.769537 0.197052 1.873592 0.028906 0.001917 -187150.000000 1 0 0
-6.939526 3.611562 1.148897 7.906982 -0.479860 1.424979 0.001975 -0.002428 -219333.000000 1 0 0
-1.825326 4.002062 0.357597 4.413184 -1.142884 1.489678 0.003743 -0.001006 -717378.000000 1 0 0
-2.555326 10.102762 6.990397 12.548352 -1.323059 0.979935 -0.001160 0.003308 1279360.000000 1 0 0
5.503874 -5.730538 -8.725003 11.800736 -0.805571 2.402917 -0.000423 -0.000371 1026390.000000 1 0 0
-1.268826 -0.832838 6.167497 6.351501 0.580851 0.241292 0.004091 -0.002650 451984.000000 1 0 0
-5.612326 4.937262 -7.741903 10.761590 -0.721496 2.373736 -0.001370 -0.000990 -150123.000000 1 0 0
6.692474 -1.189638 2.564397 7.265025 -0.175920 1.210044 -0.000692 0.000084 -953781.000000 1 0 0
8.840774 7.580662 3.288297 12.101183 0.708812 1.295602 0.002188 -0.000142 63342.700000 1 0 0
-5.249326 -4.827538 -7.793603 10.564127 0.743566 2.400516 0.015736 -0.008418 1458140.000000 1 0 0
-2.254126 7.890662 -10.047303 12.972738 -1.292538 2.456711 -0.004225 0.002722 679379.000000 1 0 0
-2.840226 -2.303038 1.731897 4.046027 0.681331 1.128464 0.001080 0.000245 1209390.000000 1 0 0
6.022374 -2.153238 -9.227203 11.227052 -0.343376 2.535486 0.003573 0.001113 1356870.000000 1 0 0
1.085274 -7.613838 5.212297 9.290662 -1.429210 0.975172 -0.001926 -0.000999 112238.000000 1 0 0
1.789074 11.816262 1.152397 12.006367 1.420530 1.474666 -0.000286 -0.000727 960832.000000 1 0 0
-0.923026 7.137762 2.517297 7.624723 -1.442194 1.234335 0.001428 0.002450 581965.000000 1 0 0
8.734474 7.835262 -6.644703 13.484600 0.731183 2.086058 0.008304 -0.003104 -234589.000000 1 0 0
3.750374 -11.340838 5.574097 13.181444 -1.251421 1.134181 0.008746 -0.006056 208754.000000 1 0 0
7.960974 -7.154138 12.387397 16.370901 -0.732069 0.712589 0.015060 -0.008221 214424.000000 1 0 0
-8.789326 0.029062 -3.881303 9.608205 -0.003306 1.986635 0.001828 -0.003446 -895414.000000 1 0 0
-3.248726 -5.024038 11.270497 12.760066 0.996789 0.488019 0.007233 -0.004538 1764130.000000 1 0 0
-8.182126 0.138962 -11.540803 14.147672 -0.016982 2.524801 0.006062 -0.002795 -1525160.000000 1 0 0
1.410274 -5.020738 5.378797 7.491872 -1.296963 0.769942 -0.000747 0.000533 -377387.000000 1 0 0
6.736674 3.697562 -7.593303 10.803379 0.501976 2.350212 0.002340 -0.001197 -638879.000000 1 0 0
16.268974 4.231062 -1.386903 16.867273 0.254433 1.653114 0.025323 0.004726 -1683020.000000 1 0 0
7.975074 7.391162 0.258097 10.876475 0.747417 1.547064 0.003132 0.000151 -1994860.000000 1 0 0
5.408174 -10.427438 13.856197 18.165187 -1.092342 0.703182 0.006372 -0.000522 152470.000000 1 0 0
-4.978026 -9.261938 8.950897 13.808794 1.077623 0.865575 -0.000596 -0.006194 673197.000000 1 0 0
-12.572326 -3.102338 2.844797 13.258233 0.241926 1.354546 0.005016 -0.004424 -345988.000000 1 0 0
-2.212326 -1.448338 -5.833703 6.405010 0.579650 2.716021 0.009180 -0.006543 -1860000.000000 1 0 0
-2.463126 13.037362 -4.409703 13.981605 -1.384069 1.891667 0.002264 0.003912 640856.000000 1 0 0
3.902274 -0.456038 -5.005803 6.363472 -0.116337 2.476155 0.002430 -0.000937 -356680.000000 1 0 0
-8.827026 3.783962 -7.386803 12.116089 -0.404983 2.226439 0.000200 0.000394 741249.000000 1 0 0
-4.539226 8.003562 -11.303603 14.575082 -1.054881 2.458371 -0.002993 0.001886 -2624120.000000 1 0 0
-10.154326 -6.398538 7.468697 14.136232 0.562279 1.014155 0.008087 -0.002532 -1639220.000000 1 0 0
8.095674 5.250062 4.093697 10.481481 0.575322 1.169551 -0.002886 -0.000575 -2323340.000000 1 0 0
-6.560426 -7.469338 4.020297 10.723478 0.850092 1.186501 0.011548 -0.004290 -836374.000000 1 0 0
-4.005226 11.930862 8.069797 14.950215 -1.246915 1.000623 -0.000100 -0.004006 -306514.000000 1 0 0
-7.150926 10.005262 -7.876303 14.604011 -0.950262 2.140431 0.003070 -0.003012 -863322.000000 1 0 0
13.075774 5.454062 4.646697 14.910213 0.395170 1.253872 0.004440 -0.003698 1018420.000000 1 0 0
5.497974 4.007362 -3.796003 7.790784 0.629847 2.079726 0.000914 0.000060 362542.000000 1 0 0
-2.870726 -4.146738 5.086197 7.162814 0.965267 0.781179 0.002976 -0.002775 -1757690.000000 1 0 0
12.407774 -2.446138 -5.257103 13.695751 -0.194649 1.964758 0.009059 -0.004096 -2454700.000000 1 0 0
-5.219626 9.784262 7.089597 13.162016 -1.080731 1.001973 -0.000761 -0.000067 -207072.000000 1 0 0
1.751074 3.901162 -0.420003 4.296711 1.148891 1.668703 0.000720 -0.001554 438339.000000 1 0 0
0.036274 9.697262 7.686297 12.374060 1.567056 0.900572 -0.002948 0.005021 -1742720.000000 1 0 0
-5.494026 2.137662 5.873697 8.321913 -0.371065 0.787229 0.002414 -0.003286 649357.000000 1 0 0
8.871274 0.902862 10.700597 13.929015 0.101424 0.694735 0.010992 0.003438 -1184180.000000 1 0 0
0.421774 -2.967638 -10.179903 10.612030 -1.429617 2.855236 0.005303 -0.003911 -1818310.000000 1 0 0
1.249474 10.522262 -2.842903 10.970929 1.452604 1.832918 0.005889 -0.001958 -459649.000000 1 0 0
2.324074 -4.356338 11.572497 12.581800 -1.080715 0.403275 0.000202 -0.003073 -409003.000000 1 0 0
6.551074 -3.029738 9.458797 11.898098 -0.433183 0.651815 0.003831 -0.002691 298245.000000 1 0 0
-10.646526 -8.143238 5.764897 14.590918 0.652952 1.164618 0.011985 -0.005949 -558173.000000 1 0 0
-2.977526 0.764162 -6.940403 7.590704 -0.251221 2.724645 0.010996 -0.005499 628709.000000 1 0 0
11.039974 2.492762 -5.120103 12.422172 0.222070 1.995636 0.001615 0.001072 -3038710.000000 1 0 0
-1.900026 -3.989638 -0.017003 4.419004 1.126337 1.574644 0.004569 -0.002036 1206320.000000 1 0 0
-1.160026 -6.527138 -10.521903 12.436223 1.394909 2.579364 0.007682 0.000434 928040.000000 1 0 0
0.342674 6.890662 -6.624203 9.564450 1.521107 2.335864 0.004012 -0.001426 -1378850.000000 1 0 0
2.011874 3.880962 -6.148903 7.544436 1.092541 2.523568 0.004488 -0.002561 -1735280.000000 1 0 0
1.515174 -14.775038 6.456397 16.195140 -1.468604 1.160738 0.017746 -0.009584 -418237.000000 1 0 0
-1.685326 5.332762 -10.619703 12.002365 -1.264697 2.656863 -0.000131 0.000123 -7772.980000 1 0 0
13.689474 4.378362 -0.837903 14.397008 0.309553 1.629029 0.005147 -0.001065 9407.560000 1 0 0
-2.396026 3.295762 -6.176603 7.399555 -0.942177 2.558432 0.006216 -0.003274 -1255530.000000 1 0 0
5.725274 7.989762 14.238797 17.301977 0.949032 0.604198 0.014677 0.006805 555710.000000 1 0 0
15.923174 0.577362 -5.682703 16.916676 0.036243 1.913381 0.032474 -0.000098 182391.000000 1 0 0
6.214974 -8.266338 10.594797 14.805674 -0.926118 0.773327 0.000554 0.001091 795052.000000 1 0 0
0.042474 -5.991138 -6.222003 8.637642 -1.563707 2.375083 0.002992 -0.002663 -244308.000000 1 0 0
8.634074 5.511762 -7.594703 12.751716 0.568158 2.208787 0.006443 -0.002993 -379614.000000 1 0 0
-16.006526 -0.623938 5.200197 16.841621 0.038961 1.256896 0.018744 -0.009254 -310372.000000 1 0 0
-0.362926 3.899362 -12.255703 12.866196 -1.477991 2.832305 0.004073 -0.001423 596033.000000 1 0 0
-11.223926 3.726162 5.970197 13.247794 -0.320536 1.103296 0.000593 -0.006932 -928346.000000 1 0 0
5.128074 -9.608738 -9.544003 14.481470 -1.080562 2.290350 -0.004913 0.000894 -151649.000000 1 0 0
1.439774 11.170662 -11.739903 16.269049 1.442614 2.376921 -0.007928 0.003280 -2607190.000000 1 0 0
5.947874 2.326562 1.136897 6.487113 0.372861 1.394632 -0.000335 -0.000434 -202630.000000 1 0 0
5.717174 4.495062 4.803497 8.715805 0.666293 0.987085 -0.005772 0.000391 464690.000000 1 0 0
0.376174 -1.579538 -6.356903 6.560995 -1.336997 2.891514 0.004078 -0.003205 459111.000000 1 0 0
12.724174 6.922362 -4.620103 15.204245 0.498250 1.879548 0.006679 0.002541 -285930.000000 1 0 0
7.375674 3.245862 12.744497 15.078408 0.414571 0.563829 0.006223 0.005071 -391768.000000 1 0 0
-2.386426 -0.187938 8.686197 9.010015 0.078591 0.268913 0.002625 -0.001102 773519.000000 1 0 0
2.000574 -15.420538 13.196797 20.394871 -1.441783 0.867068 0.010125 -0.007534 -505325.000000 1 0 0
18.827874 4.523562 -1.846803 19.451533 0.235790 1.665883 0.030474 -0.003547 1247000.000000 1 0 0
-0.429326 -13.260738 7.227197 15.108404 1.538432 1.072015 -0.000794 -0.003177 -1012100.000000 1 0 0
4.340674 1.541762 -0.625203 4.648587 0.341290 1.705698 0.000346 -0.001834 249227.000000 1 0 0
2.734474 -0.508538 -7.379703 7.886442 -0.183872 2.781163 0.001083 -0.000839 896798.000000 1 0 0
7.251574 -11.308038 0.889097 13.462821 -1.000578 1.504707 0.000631 0.001331 141316.000000 1 0 0
-11.861026 -7.355738 1.337797 14.020717 0.555112 1.475235 0.005318 -0.002676 280720.000000 1 0 0
0.158474 -7.049938 9.979297 12.219375 -1.548321 0.615165 -0.001480 -0.002832 -2461640.000000 1 0 0
-4.615326 -7.188838 10.540497 13.567708 1.000057 0.681099 0.010256 -0.002470 -1181580.000000 1 0 0
11.804274 0.684362 -1.652503 11.939012 0.057911 1.709654 -0.000615 -0.001477 967902.000000 1 0 0
6.458474 -9.679138 -7.377203 13.777544 -0.982385 2.135838 -0.001022 -0.002254 -1401350.000000 1 0 0
-10.878626 4.834762 3.576497 12.430235 -0.418210 1.278945 -0.001334 -0.007149 362985.000000 1 0 0
6.010674 -9.143338 2.094297 11.140688 -0.989248 1.381685 -0.000553 -0.000303 3039580.000000 1 0 0
11.624074 -1.330538 5.902797 13.104673 -0.113968 1.103544 0.014637 -0.005998 -129822.000000 1 0 0
-6.367526 3.732162 4.088297 8.437333 -0.530154 1.064949 -0.000628 -0.001839 -1855420.000000 1 0 0
9.541874 6.303562 -3.137703 11.858644 0.583805 1.838577 0.001452 -0.000585 455359.000000 1 0 0
-2.275326 6.548762 10.918697 12.933729 -1.236401 0.565719 -0.000700 -0.000556 22658.900000 1 0 0
1.788074 9.830862 2.868897 10.395847 1.390879 1.291202 -0.001378 0.000698 -135049.000000 1 0 0
2.868674 6.090762 -5.587703 8.749234 1.130627 2.263540 0.003539 -0.001522 -1979830.000000 1 0 0
11.999574 -0.001138 -5.574603 13.231250 -0.000095 2.005698 0.010212 0.001277 446199.000000 1 0 0
-2.744126 -12.518838 6.276297 14.270369 1.355009 1.115406 -0.002283 -0.000621 112130.000000 1 0 0
10.918674 1.807662 -2.772303 11.409240 0.164069 1.816241 0.000051 0.000013 209206.000000 1 0 0
-8.935526 5.386262 0.762397 10.461199 -0.542470 1.497853 0.001453 -0.003237 -596639.000000 1 0 0
1.292374 -10.210438 5.587197 11.710681 -1.444892 1.073441 -0.000603 -0.003704 553398.000000 1 0 0
9.421974 -5.777138 -1.137303 11.110463 -0.550037 1.673339 0.003652 -0.003830 57575.600000 1 0 0
-7.789926 8.615262 -4.460503 12.441936 -0.835665 1.937463 0.001080 -0.001187 -1030910.000000 1 0 0
-7.512826 0.029262 -1.602803 7.681952 -0.003895 1.780986 0.001962 -0.002579 -1494060.000000 1 0 0
4.153474 8.852762 2.796197 10.170618 1.132113 1.292281 0.002598 -0.000741 861499.000000 1 0 0
-1.261226 -10.486838 -3.641303 11.172446 1.451104 1.902779 0.008334 -0.001434 -302014.000000 1 0 0
3.143874 7.825562 -3.689203 9.205085 1.188787 1.983163 0.008006 -0.004488 -207801.000000 1 0 0
-4.346526 1.609662 -11.095903 12.025072 -0.354673 2.745902 0.002522 -0.003298 -573968.000000 1 0 0
1.404574 2.776562 11.034497 11.464827 1.102465 0.274853 0.002649 -0.000278 678616.000000 1 0 0
2.128674 5.556162 -8.052303 10.012081 1.204926 2.505223 0.003562 -0.001064 59140.700000 1 0 0
15.465774 6.140262 3.974997 17.108290 0.377937 1.336310 0.018781 -0.008633 -297133.000000 1 0 0
-4.460726 9.011162 4.663397 11.083609 -1.111139 1.136528 0.000447 0.001209 160752.000000 1 0 0
-0.957226 -8.238338 -12.472203 14.978062 1.455123 2.554759 0.001184 0.002694 -103334.000000 1 0 0
14.246874 -4.233238 -5.187103 15.741657 -0.288826 1.906586 0.031552 -0.004508 146929.000000 1 0 0
-6.075326 -6.250238 -5.715203 10.422984 0.799588 2.151159 0.016005 -0.006330 487207.000000 1 0 0
-8.884726 2.557562 -12.354203 15.430677 -0.280283 2.499136 0.004938 -0.000496 -1043650.000000 1 0 0
10.570374 5.468362 13.731197 18.170899 0.477415 0.714120 0.027062 0.002856 1017520.000000 1 0 0
-0.406526 11.071262 5.552797 12.392403 -1.534094 1.106179 -0.004756 0.005781 982761.000000 1 0 0
0.492474 11.110362 -0.664703 11.141118 1.526500 1.630494 0.003409 -0.001523 -375719.000000 1 0 0
-1.441926 -0.537138 3.637097 3.949195 0.356590 0.400229 0.001604 -0.000755 51902.800000 1 0 0
-4.748626 6.741562 8.874597 12.114313 -0.957136 0.748705 0.002502 -0.002315 529012.000000 1 0 0
3.417374 -8.830838 -11.429703 14.842515 -1.201563 2.449740 -0.005177 0.004492 2257250.000000 1 0 0
6.771074 -3.882938 12.014097 14.327009 -0.520676 0.576156 0.010019 -0.007310 -311551.000000 1 0 0
-2.356326 -1.965238 -12.529803 12.900015 0.695147 2.901439 0.009333 -0.005706 1337040.000000 1 0 0
-15.974626 -4.818938 5.308197 17.509648 0.292981 1.262791 0.005111 -0.006523 717672.000000 1 0 0
-8.963426 7.264762 5.767597 12.899029 -0.681104 1.107237 -0.002521 -0.008006 -4173020.000000 1 0 0
-12.717426 1.528862 6.072497 14.175527 -0.119644 1.128098 -0.000672 -0.005674 411571.000000 1 0 0
-3.463026 3.566062 10.217897 11.362868 -0.800056 0.452777 0.004851 0.000575 502236.000000 1 0 0
2.028174 -12.390338 -1.119203 12.605022 -1.408545 1.659704 0.004522 -0.003604 -3425140.000000 1 0 0
10.319074 -5.095138 -3.585003 12.053878 -0.458643 1.872780 0.006389 -0.003366 803868.000000 1 0 0
3.191574 -13.436138 0.989197 13.845377 -1.337582 1.499289 0.009805 -0.006044 577061.000000 1 0 0
10.043574 -1.708038 -6.134303 11.892033 -0.168451 2.112776 0.010315 0.001031 583478.000000 1 0 0
11.948174 -5.405338 -1.481903 13.197446 -0.424847 1.683321 0.007379 -0.004999 -506249.000000 1 0 0
1.483374 0.914962 5.938897 6.189350 0.552689 0.285451 -0.000241 -0.001150 324187.000000 1 0 0
-10.664526 11.543062 6.554497 17.027502 -0.824938 1.175658 0.002037 -0.017753 -117530.000000 1 0 0
4.760874 -14.127038 3.048697 15.216231 -1.245745 1.369073 0.008983 -0.008974 -3217130.000000 1 0 0
5.245674 -3.403838 -1.706403 6.481900 -0.575591 1.837193 0.002033 -0.002128 -1535410.000000 1 0 0
2.076074 -2.939738 -7.753003 8.547584 -0.955914 2.706997 -0.000674 -0.001244 122923.000000 1 0 0
-2.789826 14.922962 -8.929503 17.612891 -1.385981 2.102482 0.006709 -0.000870 -1200570.000000 1 0 0
-2.383026 6.071662 -8.208103 10.484123 -1.196787 2.470123 0.000775 -0.001170 180023.000000 1 0 0
2.582174 -3.621238 -11.350203 12.190492 -0.951356 2.768131 0.000481 0.002005 -1952250.000000 1 0 0
14.509474 2.792462 -2.684303 15.017595 0.190133 1.750506 0.013277 0.003261 592424.000000 1 0 0
-3.545026 13.173462 2.228397 13.822918 -1.307920 1.408879 -0.004917 0.001756 -1453940.000000 1 0 0
7.909674 -5.078138 14.021097 16.880213 -0.570742 0.590570 0.026086 -0.011913 -1580850.000000 1 0 0
-11.257126 7.253562 2.965097 13.716007 -0.572395 1.352898 0.006365 -0.008713 1478810.000000 1 0 0
-2.316226 12.031262 4.107997 12.922531 -1.380606 1.247289 -0.002805 0.002588 448771.000000 1 0 0
1.856274 1.514162 0.624297 2.475518 0.684241 1.315855 -0.002349 -0.000112 -1932680.000000 1 0 0
-6.985326 8.751162 5.349697 12.409547 -0.897144 1.125090 -0.000158 -0.004102 1152900.000000 1 0 0
-1.159926 9.264562 0.928797 9.382974 -1.446244 1.471646 0.001386 0.001567 133452.000000 1 0 0
4.827974 12.928562 -8.579703 16.250180 1.213399 2.127012 0.023028 -0.015633 -2514430.000000 1 0 0
9.015074 6.928862 7.187497 13.451424 0.655291 1.007082 -0.003397 0.001435 -1379810.000000 1 0 0
7.173874 -13.848638 2.907797 15.865199 -1.092837 1.386473 0.017474 -0.008680 -94181.400000 1 0 0
4.164074 -13.401638 -1.404103 14.103720 -1.269540 1.670517 -0.001231 0.002788 -3234600.000000 1 0 0
12.221274 -11.925738 -4.615203 17.688496 -0.773160 1.834767 0.040581 -0.003400 -839775.000000 1 0 0
2.903774 -0.039138 -1.997803 3.524862 -0.013478 2.173382 0.001744 -0.001838 1649320.000000 1 0 0
-13.603126 -3.212938 -10.562803 17.519726 0.231940 2.217939 0.019607 -0.008978 86069.500000 1 0 0
-6.540526 13.720662 4.988697 15.997567 -1.125969 1.253666 0.002628 -0.005994 66142.900000 1 0 0
7.272974 -4.398738 -0.698303 8.528346 -0.543946 1.652768 -0.000478 -0.001712 -752446.000000 1 0 0
11.801074 1.995162 -7.355303 14.048007 0.167482 2.121848 0.011576 0.001402 -79658.900000 1 0 0
-7.581826 -4.527938 9.751797 13.156134 0.538365 0.735887 0.012520 -0.003430 457962.000000 1 0 0
1.062174 2.919462 8.548897 9.095884 1.221858 0.348564 -0.000114 0.000033 -1036670.000000 1 0 0
1.598474 7.966062 -8.833803 12.002055 1.372766 2.397975 0.002042 -0.000079 240889.000000 1 0 0
-8.729326 -2.149138 -5.583503 10.582789 0.241397 2.126572 0.004786 -0.005484 646737.000000 1 0 0
6.770474 -0.415638 7.169697 9.869987 -0.061313 0.757707 0.002515 -0.000009 84064.100000 1 0 0
-10.864426 6.552562 7.152697 14.564782 -0.542711 1.057450 0.002254 -0.011242 48019.400000 1 0 0
-5.825126 11.116762 4.965397 13.497024 -1.088138 1.194059 -0.003856 -0.002368 -269978.000000 1 0 0
6.035174 -1.205338 -6.907403 9.251399 -0.197125 2.413783 0.001584 -0.000648 -942110.000000 1 0 0
4.570674 -5.777538 11.328297 13.513006 -0.901499 0.576592 0.003206 -0.004400 -1318140.000000 1 0 0
-8.949626 -7.386438 2.829697 11.944139 0.689999 1.331611 0.009127 -0.005365 -2411530.000000 1 0 0
-1.134026 12.812262 -9.361903 15.908655 -1.482515 2.199972 0.005460 0.002269 695749.000000 1 0 0
-4.573326 9.306662 -2.324503 10.626974 -1.114050 1.791315 -0.001079 -0.001333 413583.000000 1 0 0
-3.307526 9.736762 -0.215403 10.285458 -1.243332 1.591740 0.002251 0.000407 -2307620.000000 1 0 0
-3.394726 10.795162 -6.483903 13.042265 -1.266120 2.091102 -0.002627 0.002991 -20865.100000 1 0 0
4.823574 -4.796238 0.338197 6.810664 -0.782557 1.521119 -0.001130 -0.001677 -2070460.000000 1 0 0
-2.315226 2.878762 -10.822203 11.435367 -0.893473 2.812636 0.005149 0.000865 -1933170.000000 1 0 0
-3.587226 12.164862 -2.283403 12.886659 -1.284040 1.748928 -0.004393 0.003919 -468360.000000 1 0 0
-0.058726 0.448162 0.032697 0.453174 -1.440502 1.498582 -0.002655 0.000254 -2799170.000000 1 0 0
-4.957126 -1.742638 0.178797 5.257552 0.338048 1.536782 0.001884 -0.001898 429649.000000 1 0 0
2.532974 2.491362 -2.517503 4.354384 0.777116 2.187260 -0.001344 -0.001135 1674590.000000 1 0 0
6.035774 -9.697338 8.442197 14.203508 -1.014058 0.934309 0.003688 -0.002763 -725702.000000 1 0 0
-4.194126 -5.390438 6.544097 9.459002 0.909573 0.806765 0.005989 -0.003777 406112.000000 1 0 0
-6.289926 5.256062 -12.042603 14.567554 -0.696093 2.543965 -0.003516 -0.001191 79825.900000 1 0 0
-12.951826 3.166762 7.951897 15.524524 -0.239798 1.033034 0.004705 -0.009191 575013.000000 1 0 0
4.772574 -7.628438 -4.741203 10.171015 -1.011745 2.055729 -0.001790 -0.001828 284860.000000 1 0 0
-5.939926 2.460262 -1.035003 6.512053 -0.392680 1.730410 0.005047 -0.002056 -764077.000000 1 0 0
-6.877326 -2.689638 -14.532103 16.300729 0.372800 2.671442 0.015400 -0.002583 -58946.200000 1 0 0
2.751274 -6.094938 0.965897 6.756533 -1.146776 1.427347 0.000190 -0.000329 -295534.000000 1 0 0
4.836674 -7.990638 12.902997 15.928938 -1.026494 0.626585 0.005731 -0.004397 21733.000000 1 0 0
-10.019326 -1.670638 8.121097 13.005004 0.165222 0.896357 0.009294 -0.001803 -224570.000000 1 0 0
-4.409626 13.353262 -0.171803 14.063567 -1.251843 1.583013 -0.005873 0.004970 504894.000000 1 0 0
6.899774 2.279062 -4.491803 8.542675 0.319027 2.124460 0.000648 0.000662 -1949940.000000 1 0 0
5.030574 4.475062 -0.011903 6.732978 0.727024 1.572564 -0.002410 -0.002103 5365.410000 1 0 0
-5.878426 12.299662 1.669897 13.734123 -1.124957 1.448907 -0.004081 -0.000573 -320690.000000 1 0 0
6.588674 -7.255538 6.640297 11.838370 -0.833530 0.975308 -0.000020 -0.002265 -798516.000000 1 0 0
-0.302526 4.966862 7.780197 9.235405 -1.509963 0.569016 -0.001980 0.001930 -398464.000000 1 0 0
-5.827926 -3.465738 -1.579003 6.961990 0.536497 1.799591 0.008351 -0.002993 -157283.000000 1 0 0
2.492474 -6.480438 -5.056803 8.589515 -1.203623 2.200268 -0.001730 0.000213 -450957.000000 1 0 0
-14.423626 -4.817038 -3.681103 15.645937 0.322322 1.808298 0.008966 -0.010897 -177688.000000 1 0 0
-12.365126 -5.126038 -6.334003 14.808518 0.392991 2.012773 0.013366 -0.010544 -1594720.000000 1 0 0
-14.717726 -3.760038 -1.148203 15.233769 0.250127 1.646240 0.003701 -0.010183 591674.000000 1 0 0
11.947174 2.989862 8.782697 15.126467 0.245220 0.951309 0.013424 0.002765 -1113020.000000 1 0 0
8.884874 -6.528338 7.711397 13.454584 -0.633682 0.960460 0.007320 -0.004612 321097.000000 1 0 0
-8.828726 -1.719338 -9.746303 13.262464 0.192336 2.396284 0.005821 -0.005830 140388.000000 1 0 0
-8.810026 5.138562 -3.856103 10.903710 -0.528022 1.932267 0.000548 -0.001622 -1846270.000000 1 0 0
-4.059426 -6.203438 4.029597 8.437964 0.991346 1.072926 0.005306 -0.003429 -1945720.000000 1 0 0
-0.194226 -9.221338 3.636697 9.914452 1.549737 1.195221 -0.000184 -0.003444 -199866.000000 1 0 0
7.942074 -10.466538 3.316397 13.550773 -0.921683 1.323546 0.000471 -0.002383 515596.000000 1 0 0
0.105474 6.517862 9.685197 11.674617 1.554615 0.592415 -0.002665 0.001302 1614110.000000 1 0 0
0.005474 3.534862 -9.743203 10.364617 1.569248 2.793558 0.006593 -0.002882 -133255.000000 1 0 0
4.515974 -3.121138 10.971197 12.267954 -0.604750 0.463938 0.002479 -0.004172 -1559840.000000 1 0 0
8.468074 -9.128038 1.209697 12.509705 -0.822887 1.473944 0.001573 0.000186 -1285380.000000 1 0 0
-0.293726 -0.409938 11.295297 11.306550 0.949074 0.044618 0.008876 -0.000984 -1559760.000000 1 0 0
10.891774 6.066162 11.271797 16.807215 0.508163 0.835709 0.019402 0.001492 95203.000000 1 0 0
-6.378526 -2.993638 -11.843303 13.780830 0.438813 2.604900 0.011288 -0.005428 -331377.000000 1 0 0
-1.609126 2.767562 8.452497 9.038440 -1.044148 0.362052 0.002941 0.000667 -442405.000000 1 0 0
-1.740726 13.639062 -6.916703 15.391391 -1.443855 2.036876 0.009231 0.001179 651368.000000 1 0 0
7.585774 3.071762 9.782997 12.754871 0.384755 0.696642 -0.000891 0.004658 93779.000000 1 0 0
6.585174 8.457162 -7.998403 13.373951 0.909210 2.211873 0.013850 -0.005692 -516028.000000 1 0 0
6.696774 -3.084738 -3.831103 8.309016 -0.431659 2.050006 0.002791 -0.002481 -2830310.000000 1 0 0
2.087974 8.084662 1.041397 8.414624 1.318055 1.446718 0.001360 -0.000725 969298.000000 1 0 0
-17.515126 6.263962 6.318297 19.645298 -0.343457 1.243358 0.026175 -0.016380 -271895.000000 1 0 0
-14.650626 3.094862 -10.067503 18.043659 -0.208184 2.162713 0.041801 -0.009239 -105514.000000 1 0 0
-18.390926 0.099462 -4.198303 18.864299 -0.005408 1.795228 0.049198 -0.014884 546657.000000 1 0 0
-13.091426 7.889662 0.152497 15.285792 -0.542372 1.560820 0.012743 -0.006349 -319220.000000 1 0 0
-12.814126 -4.493538 -12.746803 18.624572 0.337272 2.324588 0.037616 0.001901 -850454.000000 1 0 0
-17.320026 -0.675938 -8.661903 19.377016 0.039007 2.034227 0.033704 -0.022997 -326386.000000 1 0 0
-16.692626 -2.109138 -1.982803 16.941774 0.125685 1.688101 0.031075 -0.015320 2198130.000000 1 0 0
-15.318226 4.274962 1.710297 15.995263 -0.272152 1.463666 0.013196 -0.005087 -1116670.000000 1 0 0
-13.114726 5.970062 4.328797 15.045802 -0.427185 1.278964 0.003595 -0.007847 -175679.000000 1 0 0
-9.948526 14.124962 2.795197 17.501452 -0.957175 1.410397 0.011652 -0.008099 -817.430000 1 0 0
-11.974126 2.490662 -6.347303 13.779381 -0.205079 2.049510 0.006319 0.002643 602180.000000 1 0 0
-15.969826 10.745062 4.014297 19.662306 -0.592261 1.365189 0.028942 -0.018034 5575.540000 1 0 0
-12.777326 1.144162 -8.475703 15.375523 -0.089308 2.154654 0.010605 0.000357 715371.000000 1 0 0
-12.219126 14.384362 3.945197 19.281636 -0.866608 1.364732 0.030922 -0.017838 -344045.000000 1 0 0
-10.334326 11.172662 -0.996303 15.251862 -0.824358 1.636166 0.015862 -0.002936 926759.000000 1 0 0
-17.017526 5.750362 8.819597 20.011200 -0.325862 1.114381 0.030980 -0.015780 -32895.600000 1 0 0
-11.895126 12.646262 -9.312303 19.701293 -0.815996 2.063120 0.035774 -0.011970 -406376.000000 1 0 0
-17.208326 -0.446838 3.009897 17.475286 0.025961 1.397696 0.036449 -0.009483 585723.000000 1 0 0
-13.369826 14.774862 -0.292303 19.928227 -0.835279 1.585465 0.051463 -0.013422 -76421.300000 1 0 0
-16.812826 4.756862 -10.034403 20.149146 -0.275724 2.092095 0.086361 -0.024951 565089.000000 1 0 0
-11.760826 7.726562 -9.168303 16.795075 -0.581263 2.148250 0.017643 -0.004486 -367313.000000 1 0 0
-14.730426 13.492262 -2.104803 20.086233 -0.741555 1.675777 0.046407 -0.015240 608701.000000 1 0 0
-11.733426 10.636862 -5.460203 16.752013 -0.736419 1.902805 0.028927 -0.009907 -118256.000000 1 0 0
-17.821526 2.862362 -0.949203 18.074869 -0.159253 1.623336 0.034384 -0.007456 253361.000000 1 0 0
-9.418126 15.435662 0.773097 18.098575 -1.022944 1.528067 0.016937 -0.003466 99489.500000 1 0 0
-8.237126 13.256062 -3.542603 16.003857 -1.014800 1.794004 0.010662 -0.000267 -1401290.000000 1 0 0
-17.886326 11.710562 2.330197 21.505528 -0.579687 1.462230 0.073257 -0.016662 72348.300000 1 0 0
-8.169426 15.561562 -7.447303 19.088322 -1.087369 1.971590 0.047374 -0.022406 -350668.000000 1 0 0
-6.394226 15.185362 -5.502903 17.371335 -1.172252 1.893130 0.011616 -0.001699 -2453990.000000 1 0 0
-17.422026 5.247062 -0.094903 18.195264 -0.292534 1.576012 0.031040 -0.004831 544503.000000 1 0 0
-5.371726 12.288962 -12.457603 18.304805 -1.158707 2.319329 -0.003588 -0.000452 1550160.000000 1 0 0
-10.928926 3.844762 -11.360803 16.226258 -0.338275 2.346403 -0.002297 -0.001139 347726.000000 1 0 0
-11.947726 11.113062 1.119697 16.355489 -0.749220 1.502283 0.015720 -0.008418 522938.000000 1 0 0
-12.926526 0.287162 -10.994903 16.972490 -0.022211 2.275499 0.014694 -0.005247 400652.000000 1 0 0
-14.176926 -2.239838 -13.003603 19.367390 0.156697 2.306916 0.044394 -0.006879 335638.000000 1 0 0
-18.731426 -2.358838 -3.540503 19.208477 0.125270 1.756176 0.040480 -0.017162 181630.000000 1 0 0
-18.128126 4.647362 -5.324403 19.457034 -0.250957 1.847981 0.035841 -0.008751 210230.000000 1 0 0
-8.466626 15.732762 -2.372503 18.023105 -1.077095 1.702816 0.020013 0.004383 1185040.000000 1 0 0
-16.454926 9.084662 -5.203103 19.503024 -0.504449 1.840851 0.060012 -0.009718 433723.000000 1 0 0
-18.254126 1.751462 2.100197 18.457832 -0.095656 1.456766 0.051631 -0.012895 -1622920.000000 1 0 0
-15.723326 -2.683338 -8.737503 18.187007 0.169031 2.071936 0.015975 -0.010478 180640.000000 1 0 0
-9.559026 10.550562 -7.145503 15.929455 -0.834665 2.035963 0.017516 -0.009351 632563.000000 1 0 0
-13.720926 11.955562 -7.582303 19.715237 -0.716752 1.965561 0.045926 -0.024518 -297159.000000 1 0 0
-10.962226 6.661362 -3.809403 13.381169 -0.546037 1.859473 0.007573 0.000026 -887902.000000 1 0 0
-13.037826 4.924262 -12.542503 18.749603 -0.361127 2.303588 0.050065 -0.020323 -127520.000000 1 0 0
-17.586426 9.118162 2.693297 19.991926 -0.478320 1.435666 0.026803 -0.023803 817601.000000 1 0 0
-13.454026 8.927662 -6.595703 17.441825 -0.585854 1.958598 0.030491 -0.006433 101470.000000 1 0 0
-15.795426 7.009262 -3.760003 17.685102 -0.417646 1.785040 0.027027 -0.000451 -497912.000000 1 0 0
-14.872726 -0.285338 -9.262903 17.523720 0.019183 2.127738 0.023322 -0.012017 134310.000000 1 0 0
-10.016726 5.861462 -6.083203 13.103316 -0.529442 2.053583 0.004571 0.000692 425869.000000 1 0 0
-12.682826 12.278462 -1.010003 17.681482 -0.769200 1.627950 0.028040 -0.008169 -1034570.000000 1 0 0
-10.642326 3.520162 -13.937803 17.886111 -0.319442 2.464269 0.013391 -0.002368 519682.000000 1 0 0
-11.043426 6.414762 -11.898703 17.455244 -0.526232 2.320838 0.012131 -0.009513 48440.900000 1 0 0
-5.746326 11.393562 -14.878403 19.601030 -1.103676 2.432668 0.008722 -0.014248 33935.000000 1 0 0
-15.656426 13.291562 3.650697 20.859455 -0.703886 1.394876 0.033724 -0.028551 42892.300000 1 0 0
-15.191626 11.031562 -2.954603 19.005539 -0.628069 1.726890 0.046385 -0.008127 1139560.000000 1 0 0
-18.291026 7.511262 -4.321203 20.239898 -0.389656 1.785952 0.051905 -0.008091 -150753.000000 1 0 0
-4.066926 16.341562 -10.675803 19.938889 -1.326881 2.135809 0.022769 -0.002705 -256338.000000 1 0 0
-15.697426 4.463362 -4.389803 16.899738 -0.277026 1.833566 0.024286 0.002539 447814.000000 1 0 0
-18.535026 -1.818838 -6.093903 19.595688 0.097817 1.887022 0.028986 -0.018328 511508.000000 1 0 0
-10.877826 8.552262 -5.981803 15.074821 -0.666276 1.978833 0.015405 -0.001190 -47650.400000 1 0 0
-11.277126 13.601762 -6.893703 18.965881 -0.878566 1.942796 0.032936 -0.009464 75048.400000 1 0 0
-9.487726 10.436162 -4.460403 14.792755 -0.832965 1.877089 0.006969 -0.003750 -826146.000000 1 0 0
-11.139326 6.234562 -0.375303 12.770873 -0.510252 1.600188 0.003535 -0.005524 -249927.000000 1 0 0
-14.761026 9.298562 -1.224503 17.488583 -0.562144 1.640871 0.030956 -0.005277 1132440.000000 1 0 0
-18.453926 3.672962 4.700797 19.394213 -0.196467 1.325977 0.032262 -0.013100 122859.000000 1 0 0
-14.866426 12.861562 0.445797 19.662887 -0.713219 1.548122 0.034613 -0.024674 268460.000000 1 0 0
-16.779526 2.485862 -8.660903 19.045819 -0.147079 2.042877 0.045217 -0.022635 677223.000000 1 0 0
-9.034926 8.365262 -8.860503 15.169575 -0.746931 2.194563 0.006641 -0.003490 -1551640.000000 1 0 0
-17.640126 4.865962 -2.687203 18.495207 -0.269153 1.716604 0.020979 0.001089 817643.000000 1 0 0
-13.463126 5.932762 -4.443103 15.368623 -0.415066 1.864085 0.021645 0.001034 -389578.000000 1 0 0
-12.154226 9.556362 3.112697 15.771434 -0.666306 1.372129 0.009242 -0.013832 379553.000000 1 0 0
-17.425126 2.544362 -3.983303 18.054791 -0.144992 1.793250 0.023230 -0.005291 969478.000000 1 0 0
-11.326926 1.546162 -12.479803 16.924401 -0.135665 2.399987 0.016995 -0.000075 384842.000000 1 0 0
-11.213826 11.957662 3.377197 16.737414 -0.817489 1.367626 0.010659 -0.014475 -372145.000000 1 0 0
-16.739826 13.030362 -3.742903 21.541156 -0.661434 1.745439 0.074802 -0.013128 280479.000000 1 0 0
-11.118026 4.223562 -4.476203 12.707689 -0.363046 1.930764 0.000210 -0.000901 -441112.000000 1 0 0
-11.062026 15.017662 -9.100103 20.753565 -0.935926 2.024707 0.042985 -0.017251 323473.000000 1 0 0
-15.597126 7.163462 -0.086303 17.163711 -0.430545 1.575825 0.027180 -0.002305 -143252.000000 1 0 0
-12.818826 8.462162 -4.146703 15.909922 -0.583467 1.834478 0.020158 -0.002037 907992.000000 1 0 0
-19.252826 1.911962 -5.847003 20.211738 -0.098984 1.864279 0.061423 -0.017174 251779.000000 1 0 0
-12.408326 10.199862 -8.929603 18.377746 -0.688023 2.078180 0.028141 -0.016667 794244.000000 1 0 0
-16.873526 10.886062 -0.897803 20.100454 -0.572963 1.615477 0.044297 -0.015864 650259.000000 1 0 0
-10.648226 6.529562 -14.462303 19.109633 -0.550074 2.429210 0.024694 -0.020161 7938.650000 1 0 0
-14.312926 12.860962 -4.571703 19.777883 -0.732017 1.804058 0.054120 -0.007589 -125141.000000 1 0 0
-18.223826 7.671962 -0.135903 19.773348 -0.398465 1.577669 0.054794 -0.008195 661299.000000 1 0 0
-12.899726 6.848362 -2.145003 14.761572 -0.488055 1.716623 0.008449 0.001558 829720.000000 1 0 0
-13.787026 8.752962 -10.643803 19.493254 -0.565665 2.148408 0.043435 -0.016751 -321735.000000 1 0 0
-14.949026 1.390662 -0.938203 15.042857 -0.092760 1.633205 0.007814 -0.004490 -1011110.000000 1 0 0
-13.380826 2.777762 -2.367903 13.869730 -0.204685 1.742361 0.009816 -0.002814 -505489.000000 1 0 0
-11.350326 9.559162 -11.089403 18.525181 -0.699944 2.212564 0.025417 -0.011362 -118321.000000 1 0 0
-15.164726 4.404362 -8.005703 17.704762 -0.282658 2.040002 0.024302 -0.009606 1134320.000000 1 0 0
-18.575626 10.530862 4.610897 21.845212 -0.515739 1.358126 0.077861 -0.043365 1028830.000000 1 0 0
-15.380626 6.211562 -6.211003 17.712247 -0.383826 1.929074 0.037247 0.001155 856868.000000 1 0 0
-7.662426 11.087362 -13.107203 18.800030 -0.966072 2.342267 0.005699 -0.013086 -727915.000000 1 0 0
-16.972226 8.973562 -2.606703 19.374627 -0.486359 1.705748 0.044589 -0.010946 1023240.000000 1 0 0
-20.685426 -1.077438 -4.717603 21.243905 0.052040 1.794732 0.073346 -0.026306 157431.000000 1 0 0
-15.362226 4.466062 4.213197 16.543721 -0.282919 1.313289 0.014930 -0.007017 -184500.000000 1 0 0
-6.940426 12.514562 -9.522703 17.189114 -1.064437 2.157953 0.007359 -0.006050 526316.000000 1 0 0
-17.147026 1.641962 5.761697 18.163526 -0.095467 1.248008 0.024943 -0.016997 -41391.000000 1 0 0
-10.481126 14.404862 -3.048603 18.073406 -0.941779 1.740286 0.032897 -0.010146 990660.000000 1 0 0
-9.889126 8.462862 -12.926703 18.344331 -0.707837 2.352755 -0.000975 -0.010641 8658.650000 1 0 0
-13.765326 11.685162 2.846897 18.279278 -0.703846 1.414415 0.028888 -0.019271 75458.500000 1 0 0
-17.088026 6.691762 1.987697 18.458907 -0.373249 1.462905 0.033329 -0.004470 940823.000000 1 0 0
-9.398526 13.200362 -8.586103 18.338566 -0.952069 2.058048 0.031235 -0.019255 -1288840.000000 1 0 0
-5.460326 9.721762 -12.939203 17.080714 -1.059045 2.430322 -0.007023 -0.000873 -1199110.000000 1 0 0
-15.905226 1.938462 3.143397 16.328343 -0.121278 1.377075 0.011946 -0.009747 -452827.000000 1 0 0
-18.627926 -4.729238 4.564997 19.753595 0.248626 1.337591 0.051757 -0.010157 589562.000000 1 0 0
-5.338026 14.533062 -9.194403 18.006706 -1.218791 2.106690 0.003774 0.000548 390338.000000 1 0 0
-15.433226 -0.983438 -6.760603 16.877718 0.063636 1.982928 0.016288 -0.008636 737825.000000 1 0 0
-8.841926 10.826762 -9.568503 16.939736 -0.885971 2.171054 0.005799 -0.015390 57441.700000 1 0 0
-16.836626 1.012762 -5.966903 17.891383 -0.060080 1.910818 0.022024 -0.008774 -2078330.000000 1 0 0
-11.182126 8.752062 -1.496903 14.278629 -0.664092 1.675825 0.012354 -0.003528 -575713.000000 1 0 0
-10.793326 10.969062 -13.136703 20.233367 -0.793473 2.277407 0.028333 -0.007469 -271816.000000 1 0 0
-14.148526 11.722762 -10.218403 21.024264 -0.691909 2.078337 0.060469 -0.028373 -169313.000000 1 0 0
-13.086626 6.019462 -7.560403 16.268171 -0.431114 2.054133 0.023863 -0.001994 -588254.000000 1 0 0
-8.933226 15.298362 -4.956103 18.395797 -1.042274 1.843582 0.029230 -0.012799 110493.000000 1 0 0
-8.640126 6.146662 -12.895303 16.694971 -0.618342 2.453418 0.000337 -0.006859 -1847820.000000 1 0 0
-16.262426 7.486462 4.270697 18.405229 -0.431430 1.336625 0.020535 -0.011953 673561.000000 1 0 0
-12.653026 5.536262 -10.090203 17.104428 -0.412448 2.201753 0.025577 -0.003841 663956.000000 1 0 0
-12.450426 8.948262 -13.305303 20.300630 -0.623174 2.285526 0.048247 -0.026195 -1202670.000000 1 0 0
-10.725026 5.311862 -8.475203 14.665303 -0.459862 2.186960 0.006150 0.003586 -597168.000000 1 0 0
-17.613226 -4.430138 -2.526303 18.336686 0.246412 1.709009 0.021599 -0.016065 -11851.400000 1 0 0
-8.973126 12.923262 -11.106503 19.258299 -0.963880 2.185495 0.037749 -0.021428 212798.000000 1 0 0
-14.979326 6.162362 6.131797 17.319175 -0.390288 1.208902 0.015867 -0.012387 -957428.000000 1 0 0
-16.274626 -3.041038 -4.400103 17.131032 0.184727 1.830558 0.008481 -0.011165 -140207.000000 1 0 0
-11.139726 -1.135438 -12.492503 16.776333 0.101576 2.410807 0.013638 -0.003801 107370.000000 1 0 0
-15.210626 7.045062 -8.607903 18.843886 -0.433750 2.045192 0.033916 -0.001826 -260228.000000 1 0 0
-14.912526 9.257162 1.420097 17.609519 -0.555548 1.490065 0.031195 -0.015609 -431400.000000 1 0 0
-19.384126 5.465162 7.829797 21.608286 -0.274807 1.200007 0.064297 -0.022135 -296316.000000 1 0 0
-16.304326 0.755662 0.903397 16.346810 -0.046314 1.515504 0.029491 -0.010553 -72399.100000 1 0 0
-17.455126 3.839562 7.098797 19.230615 -0.216519 1.192712 0.024092 -0.011378 724207.000000 1 0 0
-15.474126 3.945662 -1.411903 16.031540 -0.249664 1.658981 0.011984 -0.004819 -1095050.000000 1 0 0
-10.789626 13.342362 0.382497 17.163361 -0.890788 1.548509 0.022661 -0.011692 -762084.000000 1 0 0
-13.493126 3.353162 0.091797 13.903833 -0.243575 1.564194 0.008463 -0.003006 -319778.000000 1 0 0
-15.106726 0.142362 -4.224203 15.686852 -0.009423 1.843445 0.011928 -0.003030 -478911.000000 1 0 0
-18.912626 7.185262 3.726097 20.571806 -0.363076 1.388665 0.045096 -0.016190 -442017.000000 1 0 0
-14.194826 1.235362 -6.296003 15.577511 -0.086810 1.986870 0.014288 -0.002120 -41163.400000 1 0 0
-14.186226 12.056162 5.344897 19.369253 -0.704407 1.291221 0.019457 -0.024538 67050.600000 1 0 0
17.743174 5.510262 6.133497 19.565352 0.301113 1.251933 0.054463 -0.014243 17875.800000 1 0 0
18.340374 7.376162 -0.088803 19.768282 0.382386 1.575289 0.040783 -0.005151 -32520.000000 1 0 0
16.744374 5.366162 8.527997 19.542172 0.310134 1.119214 0.066789 -0.007787 510143.000000 1 0 0
11.706474 12.362162 10.951997 20.243785 0.812634 0.999164 0.029267 -0.000000 498667.000000 1 0 0
-2.328826 16.175562 -0.569803 16.352275 -1.427807 1.605649 -0.002589 -0.002033 -178408.000000 1 0 0
15.266174 12.557862 3.474997 20.070665 0.688367 1.396781 0.062747 -0.010062 731225.000000 1 0 0
13.443174 11.856962 6.603297 19.102618 0.722784 1.217838 0.042674 -0.003042 697117.000000 1 0 0
-0.708626 15.942062 8.465197 18.064082 -1.526376 1.083068 0.002615 -0.000585 436220.000000 1 0 0
0.819274 12.722062 9.444497 15.865705 1.506487 0.933185 -0.003240 0.000779 -124777.000000 1 0 0
0.730974 15.679862 -4.224303 16.255372 1.524211 1.833685 0.006771 0.001959 -144187.000000 1 0 0
5.449874 10.360862 13.603597 17.947324 1.086561 0.710596 0.015991 -0.000940 78678.100000 1 0 0
-1.345326 16.452162 -2.858203 16.752697 -1.489206 1.742247 0.001793 0.000121 -748614.000000 1 0 0
8.459474 10.084562 3.284997 13.566588 0.872809 1.326227 0.006276 0.001358 330120.000000 1 0 0
12.611874 13.670462 -5.007303 19.261723 0.825654 1.833778 0.058165 -0.002714 784639.000000 1 0 0
2.491874 11.617362 7.683597 14.149565 1.359502 0.996759 0.001465 0.006130 321848.000000 1 0 0
-0.355426 15.083262 -8.780003 17.456219 -1.547236 2.097831 0.014459 -0.001042 -927649.000000 1 0 0
2.374574 15.972562 0.061097 16.148222 1.423211 1.567013 0.007278 -0.008004 -486643.000000 1 0 0
1.902974 13.333862 5.346697 14.491389 1.429036 1.192910 -0.002614 0.001269 825027.000000 1 0 0
17.467774 9.183362 -1.748503 19.811980 0.484020 1.659166 0.031053 -0.001744 442533.000000 1 0 0
-7.138326 14.927162 7.275297 18.075005 -1.124732 1.156544 0.007530 -0.015430 -552213.000000 1 0 0
8.514374 15.880462 -0.139403 18.019519 1.078645 1.578533 0.016856 -0.004003 -266598.000000 1 0 0
15.725974 10.390062 2.120797 18.967273 0.583856 1.458749 0.044471 -0.002435 978822.000000 1 0 0
14.203274 7.513562 8.666597 18.256410 0.486579 1.076156 0.040178 -0.011230 -1009140.000000 1 0 0
3.931074 18.639462 -1.890203 19.143034 1.362942 1.669699 0.020774 -0.014906 -1024640.000000 1 0 0
-0.713926 17.754062 -4.891503 18.429411 -1.530606 1.839434 0.017996 0.003790 573169.000000 1 0 0
1.303074 13.657162 -0.757803 13.740100 1.475671 1.625977 0.000705 -0.003718 694277.000000 1 0 0
10.109174 14.755262 4.098297 18.349638 0.970125 1.345552 0.018935 -0.010711 80966.300000 1 0 0
-1.746526 15.382662 -5.237403 16.343409 -1.457742 1.897011 0.008697 -0.001070 264028.000000 1 0 0
15.087674 8.703662 -6.322303 18.530061 0.523240 1.918981 0.046465 -0.002093 240954.000000 1 0 0
-2.375626 18.428462 0.804397 18.598356 -1.442593 1.527532 -0.000750 -0.003966 -990887.000000 1 0 0
-3.734926 19.517362 3.339597 20.150186 -1.381718 1.404293 0.003889 -0.004621 183697.000000 1 0 0
1.725474 17.688462 -2.817203 17.994321 1.473556 1.728004 0.010439 -0.008161 -565200.000000 1 0 0
2.922774 12.232662 3.251597 12.990516 1.336261 1.317801 -0.001044 0.001555 1071960.000000 1 0 0
-2.598926 16.176462 1.894997 16.493130 -1.411497 1.455646 -0.003590 -0.000418 -2480860.000000 1 0 0
11.881674 12.798262 -2.687603 17.668981 0.822520 1.723498 0.030958 0.007588 466509.000000 1 0 0
7.108874 11.668362 4.626397 14.425336 1.023608 1.244314 -0.000038 0.000668 -78500.700000 1 0 0
6.969574 15.644162 1.840197 17.225014 1.151686 1.463759 0.010554 -0.010237 -988788.000000 1 0 0
5.556874 12.228662 10.357597 16.961688 1.144278 0.913919 0.003629 0.010384 -960993.000000 1 0 0
-1.361726 14.189662 3.064297 14.580491 -1.475123 1.359053 -0.005033 0.000755 -729116.000000 1 0 0
4.510574 16.072462 1.306197 16.744416 1.297194 1.492709 0.006796 -0.012950 -3581390.000000 1 0 0
7.461774 13.267562 11.957597 19.356921 1.058477 0.904927 0.015940 0.005142 -48398.200000 1 0 0
0.839174 17.321462 -9.408303 19.729506 1.522387 2.067880 0.029097 -0.007258 189381.000000 1 0 0
10.021474 9.638962 15.432697 20.772763 0.765945 0.733360 0.037000 -0.003638 -167322.000000 1 0 0
13.452774 7.497762 -0.204303 15.402445 0.508461 1.584061 0.002448 0.002637 -212669.000000 1 0 0
12.432474 13.651562 -0.151903 18.464957 0.832101 1.579023 0.036793 0.001617 685717.000000 1 0 0
9.332874 12.438362 3.530397 15.946131 0.927084 1.347551 0.011641 0.000340 -25518.500000 1 0 0
-0.711126 12.784062 0.726597 12.824425 -1.515228 1.514109 -0.001544 -0.000336 -635078.000000 1 0 0
15.933874 7.378562 -0.866003 17.580714 0.433673 1.620075 0.025610 0.002132 -3385170.000000 1 0 0
-4.253526 18.494762 -2.516003 19.143640 -1.344742 1.702605 0.009813 0.000161 124289.000000 1 0 0
11.634574 9.260962 -3.208003 15.212495 0.672289 1.783271 0.014003 0.003734 -13938.300000 1 0 0
14.728974 9.850662 7.703497 19.321545 0.589475 1.160698 0.050382 -0.011039 776800.000000 1 0 0
4.387874 13.785062 4.683097 15.205682 1.262630 1.257724 0.000015 0.000694 -1279740.000000 1 0 0
2.042474 15.863862 5.571497 16.937396 1.442751 1.235609 0.002383 -0.006110 -18239.900000 1 0 0
6.140074 18.466162 5.180897 20.138057 1.249792 1.310601 0.022960 -0.014662 -325802.000000 1 0 0
10.748874 17.155662 -0.812003 20.261155 1.011083 1.610884 0.041082 -0.006461 -814184.000000 1 0 0
10.027974 13.593962 -4.415103 17.459931 0.935228 1.826442 0.043731 -0.000711 918663.000000 1 0 0
16.536074 7.864562 2.369197 18.463645 0.443938 1.442125 0.021981 -0.003393 -610564.000000 1 0 0
3.901974 14.056262 -0.606603 14.600406 1.300017 1.612355 0.005102 -0.004137 -690409.000000 1 0 0
5.547674 13.105762 -2.445403 14.440141 1.170366 1.740964 0.010684 -0.003317 417932.000000 1 0 0
-6.210126 16.872962 -3.031303 18.233247 -1.218131 1.737823 0.012526 -0.000571 -424511.000000 1 0 0
18.218874 9.921662 2.395797 20.883166 0.498674 1.455819 0.055998 -0.007413 786336.000000 1 0 0
7.861074 12.816062 9.312997 17.685583 1.020599 1.016216 0.009504 -0.002536 1000670.000000 1 0 0
-2.568926 15.913962 6.540997 17.396500 -1.410751 1.185326 -0.001589 -0.002324 904170.000000 1 0 0
10.721274 16.077562 6.168597 20.285101 0.982669 1.261808 0.034492 -0.012702 -161363.000000 1 0 0
13.565274 12.006962 1.419497 18.171372 0.724536 1.492599 0.040097 -0.002649 678767.000000 1 0 0
17.537574 7.809562 -5.635403 20.007837 0.418942 1.856320 0.056180 0.010471 660953.000000 1 0 0
9.604474 9.303762 7.967897 15.565773 0.769496 1.033418 0.006262 0.001472 -133881.000000 1 0 0
-1.926626 14.118262 -2.041803 14.394657 -1.435171 1.713121 -0.002963 0.000166 784781.000000 1 0 0
11.005374 11.653662 0.815797 16.049661 0.814001 1.519945 0.012548 0.003274 217160.000000 1 0 0
11.782174 9.799562 -0.630403 15.337811 0.693790 1.611909 0.008842 0.004528 -982451.000000 1 0 0
-0.077426 16.349562 10.801097 19.595353 -1.566061 0.986986 0.006725 -0.006163 -445267.000000 1 0 0
1.816374 20.113162 -1.823203 20.277144 1.480733 1.660832 0.020008 -0.016760 -488139.000000 1 0 0
9.180974 14.301962 1.686697 17.078681 1.000109 1.471875 0.017239 -0.005442 -1002360.000000 1 0 0
8.489674 11.616962 -5.244903 15.314613 0.939697 1.920348 0.025767 0.000695 -676478.000000 1 0 0
10.622774 10.131762 10.235997 17.896133 0.761744 0.961895 0.005642 0.000699 -18359.200000 1 0 0
-5.113926 15.887862 5.786297 17.665153 -1.259392 1.237082 -0.005360 -0.003020 1191070.000000 1 0 0
14.348074 9.133162 -1.955603 17.120347 0.566857 1.685273 0.024795 0.007463 -621811.000000 1 0 0
12.203074 9.667362 6.799097 16.988250 0.669971 1.159036 0.016811 -0.005081 -1114580.000000 1 0 0
3.330074 12.956562 9.641397 16.489949 1.319223 0.946307 0.004073 0.002724 -369706.000000 1 0 0
8.545374 12.510762 -2.727203 15.394162 0.971543 1.748895 0.020507 0.002366 -267585.000000 1 0 0
9.200774 16.958162 2.058097 19.402816 1.073685 1.464524 0.013366 -0.009611 -439277.000000 1 0 0
9.603774 14.200262 -7.593703 18.749513 0.976147 1.987784 0.060348 -0.010824 -1051470.000000 1 0 0
6.407374 11.442962 7.245197 14.982947 1.060354 1.066076 -0.004220 0.004073 -397756.000000 1 0 0
5.486674 16.852262 -5.667303 18.607005 1.256044 1.880293 0.036033 -0.003440 -999714.000000 1 0 0
-4.123826 17.137762 -4.756303 18.257361 -1.334658 1.834351 0.008644 -0.003239 21015.100000 1 0 0
-0.119026 18.476662 -0.520603 18.484378 -1.564354 1.598965 0.004197 -0.008867 -436746.000000 1 0 0
6.626774 15.549962 -2.777403 17.129782 1.167943 1.733654 0.021371 -0.002262 1107360.000000 1 0 0
-0.937526 20.639762 0.868997 20.679310 -1.525404 1.528761 0.008898 -0.007436 -97669.900000 1 0 0
-1.273426 18.891662 4.219697 19.399030 -1.503491 1.351522 0.003429 -0.004528 292260.000000 1 0 0
7.270274 13.766662 -4.431803 16.186993 1.084917 1.848126 0.025219 0.003500 711663.000000 1 0 0
-0.951926 11.980262 7.733397 14.291196 -1.491505 0.999016 -0.002787 0.005129 289883.000000 1 0 0
7.669574 10.909162 11.028797 17.305102 0.958033 0.879788 0.001792 0.007778 138369.000000 1 0 0
1.498974 16.070662 -7.303803 17.716056 1.477791 1.995741 0.016200 -0.007555 -37221.500000 1 0 0
8.970274 7.257462 14.783497 18.753356 0.680239 0.662736 0.024145 0.002046 200727.000000 1 0 0
11.476874 11.385162 -4.899303 16.892120 0.781387 1.865060 0.037166 0.004602 -59834.100000 1 0 0
-3.327226 17.137962 4.338297 17.988913 -1.379038 1.327230 -0.002376 0.000385 -872773.000000 1 0 0
3.925674 15.295962 -6.822703 17.202519 1.319571 1.978618 0.025238 -0.008980 -1821140.000000 1 0 0
-4.340226 14.189062 9.333997 17.529704 -1.273949 1.009283 0.016260 -0.010329 -321619.000000 1 0 0
6.282074 17.697962 0.451197 18.785257 1.229709 1.546775 0.013831 -0.020888 -394094.000000 1 0 0
9.782874 10.707162 -2.186603 14.667283 0.830477 1.720434 0.015139 0.004138 -1846190.000000 1 0 0
6.914274 18.007062 -2.750303 19.483984 1.204180 1.712426 0.027610 -0.008465 666112.000000 1 0 0
3.571874 10.403762 10.581597 15.263248 1.240080 0.804776 0.001675 0.008963 1225280.000000 1 0 0
0.056074 18.514962 1.992697 18.621971 1.567768 1.463583 0.006449 -0.010665 483836.000000 1 0 0
-0.969126 17.196062 -7.460503 18.769732 -1.514498 1.979560 0.026780 -0.005468 1164340.000000 1 0 0
10.066274 8.882162 12.983597 18.676094 0.722988 0.802100 0.020373 0.000848 -146631.000000 1 0 0
3.728674 11.368262 5.482597 13.160519 1.253863 1.141101 -0.003973 0.002941 505349.000000 1 0 0
13.057074 14.157162 8.017797 20.861388 0.825799 1.176307 0.050888 -0.011758 51765.700000 1 0 0
-0.411826 17.417662 6.660697 18.652330 -1.547157 1.205638 0.001685 -0.005690 -647834.000000 1 0 0
11.971074 13.845262 5.677097 19.163176 0.857868 1.270032 0.031514 -0.004363 -1901130.000000 1 0 0
4.850874 14.573862 -4.562903 16.023374 1.249483 1.859558 0.014479 -0.002164 243063.000000 1 0 0
3.712774 17.548462 4.591897 18.515365 1.362298 1.320176 0.007630 -0.010685 223385.000000 1 0 0
7.058474 11.719762 1.999597 13.826542 1.028709 1.425667 0.007241 0.000341 804633.000000 1 0 0
6.387474 8.885862 11.776597 16.076275 0.947541 0.748743 0.002240 0.005348 639170.000000 1 0 0
-5.376926 14.928962 1.653097 15.953619 -1.225093 1.466991 -0.000409 0.001976 -195989.000000 1 0 0
6.739174 13.732662 5.974697 16.422530 1.114584 1.198440 -0.000963 -0.002565 108841.000000 1 0 0
5.896874 15.880862 4.870997 17.626727 1.215256 1.290811 0.002795 -0.009103 898396.000000 1 0 0
1.270674 17.981462 4.199997 18.509121 1.500248 1.341887 0.013132 -0.008088 -193595.000000 1 0 0
7.323074 18.044462 -6.942103 20.674207 1.185270 1.913236 0.034049 -0.002485 391703.000000 1 0 0
-2.584626 18.892162 -6.112503 20.023905 -1.434831 1.881008 0.028323 0.001960 1437980.000000 1 0 0
13.532874 9.907762 -4.637603 17.401431 0.631963 1.840563 0.027218 -0.000233 -2291220.000000 1 0 0
-1.657626 18.155962 9.685997 20.644738 -1.479749 1.082440 0.018625 -0.005230 -245072.000000 1 0 0
3.386574 11.765362 -1.594103 12.346408 1.290530 1.700272 0.007350 -0.002671 364063.000000 1 0 0
4.203574 13.860062 -10.970603 18.169356 1.276327 2.219052 0.032902 -0.026119 -773296.000000 1 0 0
11.516574 13.443562 2.387797 17.862318 0.862448 1.436717 0.031525 -0.003429 516207.000000 1 0 0
15.923574 6.326762 -7.053803 18.529551 0.378194 1.961326 0.035827 -0.004625 555357.000000 1 0 0
2.459574 15.942562 2.858297 16.382449 1.417726 1.395426 0.005541 -0.008676 122653.000000 1 0 0
13.508674 10.603462 3.505797 17.527359 0.665489 1.369419 0.028442 -0.001341 -599650.000000 1 0 0
-5.255926 19.202662 -5.799203 20.736387 -1.303632 1.854240 0.021390 -0.016334 410783.000000 1 0 0
5.448274 12.014262 0.037297 13.191951 1.145049 1.567969 0.011255 -0.001871 561171.000000 1 0 0
4.596074 15.499962 9.535897 18.769818 1.282534 1.037884 0.005192 0.006224 -75130.200000 1 0 0
7.861574 9.502162 13.943097 18.614655 0.879602 0.724186 0.017154 -0.001226 -241659.000000 1 0 0
-4.919226 13.717162 6.941697 16.141452 -1.226464 1.126244 -0.001337 -0.003593 -788862.000000 1 0 0
-4.580426 17.139962 0.487197 17.748125 -1.309662 1.543342 0.003377 -0.000241 -781977.000000 1 0 0
-0.735126 16.520262 3.469697 16.896694 -1.526327 1.363977 -0.000108 -0.005803 -1926450.000000 1 0 0
7.960674 16.721062 -4.833903 19.139824 1.126462 1.826119 0.034713 -0.007746 1094950.000000 1 0 0
3.095774 16.550062 -4.687003 17.477310 1.385878 1.842296 0.012093 -0.002164 -656271.000000 1 0 0
9.234474 14.513862 8.055697 18.995314 1.004147 1.132841 0.005983 -0.004015 150585.000000 1 0 0
12.735874 11.013862 8.996397 19.090385 0.713018 1.080086 0.033261 -0.010533 1355580.000000 1 0 0
3.610274 12.471362 12.132597 17.769886 1.289014 0.819261 0.010420 0.003471 658722.000000 1 0 0
-3.290826 19.290262 5.878197 20.432742 -1.401828 1.278987 0.014429 -0.005088 232403.000000 1 0 0
-2.613926 15.828662 10.286697 19.057683 -1.407135 1.000637 0.009158 -0.007134 -195747.000000 1 0 0
1.989074 14.234162 7.711797 16.310720 1.431956 1.078324 0.004081 0.000081 -190892.000000 1 0 0
4.383274 17.389162 7.713697 19.521710 1.323871 1.164582 0.010129 -0.002699 -15562.700000 1 0 0
-1.761326 13.547462 9.441197 16.606390 -1.441510 0.966081 -0.000104 -0.002937 -208767.000000 1 0 0
5.703474 17.657862 2.932897 18.786474 1.258375 1.414038 0.001684 -0.019587 450169.000000 1 0 0
7.232474 15.353262 -6.938703 18.335128 1.130559 1.958904 0.032218 -0.002442 20144.700000 1 0 0
11.057774 7.714462 9.436197 16.456886 0.609147 0.960160 0.005200 -0.001311 350711.000000 1 0 0
9.071874 16.546262 -2.553503 19.042008 1.069280 1.705300 0.034520 0.002745 -894433.000000 1 0 0
14.560574 11.268262 -6.628803 19.568472 0.658615 1.916383 0.076205 -0.004850 568253.000000 1 0 0
11.098474 6.326162 16.038597 20.504464 0.518071 0.672607 0.059468 -0.016426 -466320.000000 1 0 0
8.573274 8.617562 10.225297 15.884587 0.787974 0.871441 0.002136 0.006734 -440875.000000 1 0 0
16.598074 9.465462 4.472197 19.623751 0.518276 1.340879 0.060294 -0.003293 -10664.100000 1 0 0
-3.374226 14.494662 4.558197 15.564632 -1.342079 1.273584 -0.004209 0.001739 -1368420.000000 1 0 0
5.095774 14.696062 12.665797 20.059002 1.237025 0.887404 0.025440 0.003865 260815.000000 1 0 0
16.012774 10.456762 -4.585903 19.666807 0.578500 1.806143 0.055374 -0.009693 220186.000000 1 0 0
14.442974 14.080662 5.872197 21.008266 0.772697 1.287504 0.061921 -0.008782 -566611.000000 1 0 0
6.356074 9.592762 9.234397 14.754486 0.985621 0.894549 0.002602 0.006928 657059.000000 1 0 0
10.446574 12.212062 8.634997 18.243589 0.863158 1.077744 0.020185 -0.003290 -956731.000000 1 0 0
7.984074 11.449762 -0.404603 13.964462 0.961876 1.599774 0.009951 -0.000826 393635.000000 1 0 0
7.345174 13.428862 -8.733803 17.622861 1.070283 2.089316 0.045715 -0.011413 -654227.000000 1 0 0
2.572674 15.250762 -2.476303 15.663220 1.403678 1.729559 0.008156 -0.006402 534567.000000 1 0 0
12.196674 14.073662 -7.870303 20.218024 0.856726 1.970637 0.076221 -0.007926 684002.000000 1 0 0
-8.044926 14.693062 9.751097 19.382745 -1.069850 1.043636 0.033225 -0.025000 274058.000000 1 0 0
11.577874 9.496162 2.154097 15.128265 0.686937 1.427922 0.014702 0.002004 -2010290.000000 1 0 0
12.037274 8.688962 4.448597 15.497872 0.625232 1.279655 0.013405 -0.001162 732432.000000 1 0 0
13.997374 7.991762 6.077597 17.225909 0.518783 1.210216 0.017289 -0.004700 -3057480.000000 1 0 0
16.206574 7.454562 7.089397 19.195914 0.431115 1.192521 0.057077 -0.010388 -562841.000000 1 0 0
13.682474 8.262362 2.346197 16.154918 0.543256 1.425050 0.016039 -0.002002 -2325460.000000 1 0 0
-4.362726 17.399862 -7.355103 19.387782 -1.325128 1.959909 0.013383 -0.011356 299336.000000 1 0 0
3.015574 19.607162 -4.085703 20.254073 1.418192 1.773913 0.033069 -0.016219 505116.000000 1 0 0
-0.176426 14.739462 6.252197 16.011647 -1.558827 1.169645 0.000464 -0.002853 561822.000000 1 0 0
6.692874 16.305062 8.226397 19.450533 1.181290 1.134110 0.015851 -0.001410 -814652.000000 1 0 0
12.882274 15.184462 -2.182403 20.032068 0.867240 1.679958 0.062084 -0.005501 573691.000000 1 0 0
12.428174 15.942662 4.155797 20.637312 0.908647 1.368037 0.044528 -0.007982 -508447.000000 1 0 0
2.880374 18.110662 1.286297 18.383340 1.413074 1.500768 0.017354 -0.014531 -580209.000000 1 0 0
10.388774 14.597462 -1.422403 17.973195 0.952272 1.650019 0.032507 0.009291 -336447.000000 1 0 0
-6.462026 15.750062 -0.566103 17.033576 -1.181455 1.604037 0.004040 0.000342 231020.000000 1 0 0
-3.963326 15.843662 -2.537103 16.527748 -1.325674 1.724911 0.006017 -0.000205 -265422.000000 1 0 0
-6.810726 17.030162 1.696697 18.419858 -1.190358 1.478553 0.007574 -0.001170 -182925.000000 1 0 0
0.055474 19.452062 -6.513503 20.513691 1.567944 1.893909 0.045487 -0.012493 725810.000000 1 0 0
4.766874 14.915662 7.017197 17.159287 1.261467 1.149499 0.004531 -0.003207 -421561.000000 1 0 0
8.740974 12.308862 6.801497 16.558173 0.953300 1.147505 0.009371 -0.002561 -262012.000000 1 0 0
-7.732226 17.375262 -5.762903 19.872043 -1.152097 1.865024 0.044742 -0.015149 76149.300000 1 0 0
-7.752226 17.893862 -1.283903 19.543175 -1.161972 1.636539 0.025808 -0.000438 111825.000000 1 0 0
-13.851726 -9.099638 9.116197 18.915041 0.581233 1.067912 0.033262 -0.012354 800014.000000 1 0 0
-12.530826 -12.918838 7.654197 19.557727 0.800643 1.168683 0.034593 -0.010063 -143132.000000 1 0 0
-3.878026 -14.814038 12.646797 19.860420 1.314761 0.880476 0.004768 -0.014598 305960.000000 1 0 0
-2.100826 -14.161538 15.144997 20.840671 1.423523 0.757285 0.024978 -0.006081 -652103.000000 1 0 0
-7.106026 -13.740138 12.869697 20.122527 1.093505 0.876862 0.021064 -0.011965 79597.400000 1 0 0
-9.971226 -11.588738 8.950397 17.715355 0.860282 1.041143 0.026536 -0.011483 810173.000000 1 0 0
-10.768126 -10.670038 11.240797 18.872143 0.780823 0.932748 0.050689 -0.017834 547893.000000 1 0 0
-5.985226 -12.302438 10.887697 17.484704 1.118001 0.898610 0.014216 -0.008025 765187.000000 1 0 0
-12.421626 -10.288538 7.343997 17.722446 0.691746 1.143524 0.015367 -0.008616 -703096.000000 1 0 0
-7.752426 -11.217738 12.520697 18.512310 0.966078 0.828008 0.026911 -0.018041 -1034550.000000 1 0 0
-14.668326 -11.599538 7.198597 20.038185 0.669099 1.203339 0.036354 -0.011571 -876882.000000 1 0 0
-11.170526 -9.119738 9.216797 17.114310 0.684668 1.002089 0.026941 -0.008554 -51957.900000 1 0 0
-5.466926 -11.729638 13.339497 18.585313 1.134653 0.770239 0.025354 -0.020599 -516099.000000 1 0 0
3.888274 -12.490238 14.501497 19.529929 -1.269000 0.733961 0.001083 -0.003152 -233072.000000 1 0 0
6.554674 -12.809538 14.177297 20.200093 -1.097831 0.792815 0.033978 -0.000733 377687.000000 1 0 0
6.626874 -8.543038 16.075497 19.373192 -0.911046 0.592082 0.010566 -0.003306 -237532.000000 1 0 0
0.706174 -1.754338 14.483197 14.606142 -1.188111 0.129840 0.006482 -0.004992 -1915150.000000 1 0 0
-0.072526 -6.367938 15.416297 16.679872 1.559408 0.391742 0.011187 -0.013166 -390809.000000 1 0 0
-1.484226 -4.590138 18.177597 18.806843 1.258057 0.259409 0.029141 -0.029996 -1641850.000000 1 0 0
-5.174026 12.602562 12.966597 18.807651 -1.181225 0.810092 0.020827 -0.013635 -257933.000000 1 0 0
-3.971226 8.853262 11.592397 15.117359 -1.149140 0.696914 0.000805 0.001607 -250023.000000 1 0 0
-0.635726 -3.911538 14.977797 15.493182 1.409679 0.258656 0.008904 -0.007354 119766.000000 1 0 0
-4.478026 9.204462 14.155397 17.468546 -1.118002 0.626070 0.008128 -0.009192 251446.000000 1 0 0
-13.449126 -2.348838 16.881097 21.710999 0.172902 0.680057 0.036455 -0.001096 386530.000000 1 0 0
-0.288326 0.755562 17.244297 17.263250 -1.206248 0.046863 0.020267 -0.007696 -436375.000000 1 0 0
-3.313426 -7.277338 15.398097 17.350500 1.143538 0.478964 0.022753 -0.015287 528855.000000 1 0 0
-7.373826 5.559362 12.556397 15.586626 -0.646013 0.634129 -0.001125 0.000413 -1750790.000000 1 0 0
-9.754326 10.283662 13.215797 19.379315 -0.811809 0.820366 0.023637 -0.017027 140935.000000 1 0 0
-5.549126 2.211262 11.075197 12.583420 -0.379203 0.494635 0.007480 -0.000356 -846632.000000 1 0 0
-7.067926 -7.402338 16.894097 19.752486 0.808504 0.544687 0.031383 -0.015810 -342744.000000 1 0 0
-4.688126 2.871262 18.612597 19.407510 -0.549527 0.287199 0.019281 -0.003643 672424.000000 1 0 0
0.934574 -8.343038 16.524997 18.535243 -1.459243 0.470052 0.013063 -0.010519 481285.000000 1 0 0
-15.045026 -3.376738 14.021197 20.841044 0.220783 0.832852 0.052209 -0.016870 463641.000000 1 0 0
-14.345726 2.458362 13.146097 19.612834 -0.169717 0.836210 0.035020 -0.007629 -226005.000000 1 0 0
-5.521326 0.944962 15.935397 16.891266 -0.169505 0.338028 0.020558 -0.004845 284704.000000 1 0 0
4.480274 5.874662 15.052097 16.767532 0.919252 0.456291 0.009758 0.000310 371665.000000 1 0 0
-1.087626 -12.019638 13.855797 18.374922 1.480555 0.716574 -0.002183 -0.008510 48554.700000 1 0 0
-5.856226 -4.140238 16.779897 18.248340 0.615396 0.403913 0.025293 -0.012424 105749.000000 1 0 0
-13.079326 -1.543438 9.880197 16.464181 0.117463 0.927167 0.016980 0.001700 -1010680.000000 1 0 0
-14.363126 10.456262 10.201497 20.486662 -0.629268 1.049554 0.009137 -0.009944 459377.000000 1 0 0
-3.612426 -3.280738 17.685497 18.346380 0.737317 0.269224 0.029718 -0.019906 -1646390.000000 1 0 0
-7.801826 9.515562 11.761297 17.021825 -0.884037 0.807988 0.001148 -0.008245 -235496.000000 1 0 0
-4.216026 10.596362 16.225197 19.832165 -1.192123 0.612653 0.011141 -0.013531 227966.000000 1 0 0
-12.392926 12.800062 8.015597 19.536530 -0.801557 1.148027 0.014023 -0.022499 135174.000000 1 0 0
-12.626026 3.173062 10.491797 16.720127 -0.246212 0.892464 0.016690 -0.008166 120950.000000 1 0 0
-10.219226 -3.475038 13.716997 17.454640 0.327782 0.666702 0.017756 0.000486 -733271.000000 1 0 0
-4.020926 -6.350538 17.722397 19.250469 1.006349 0.401127 0.039770 -0.019665 -372455.000000 1 0 0
0.849774 -3.564938 17.764297 18.138389 -1.336793 0.203448 0.016360 -0.020925 -981534.000000 1 0 0
-5.923926 1.778562 13.639997 14.976839 -0.291671 0.425725 0.010099 0.001800 -666225.000000 1 0 0
-10.529626 8.750762 10.279597 17.120718 -0.693396 0.926772 0.012533 -0.017700 -47472.000000 1 0 0
4.661774 2.449562 17.396997 18.176578 0.483805 0.293937 0.027120 -0.007167 225605.000000 1 0 0
0.572774 -5.375538 13.184397 14.249660 -1.464645 0.389121 0.004796 -0.004082 -336217.000000 1 0 0
-4.440826 5.784462 20.519397 21.776744 -0.916053 0.341474 0.065593 -0.016871 338058.000000 1 0 0
-10.834726 10.830462 8.928597 17.731611 -0.785201 1.043104 0.013585 -0.021083 -65635.100000 1 0 0
0.729774 4.122362 13.104397 13.756877 1.395583 0.309222 0.008343 -0.005182 -1702200.000000 1 0 0
-3.129426 7.142762 13.302097 15.419408 -1.157861 0.530241 0.001247 0.001441 -1583680.000000 1 0 0
0.676174 8.943962 14.131797 16.737962 1.495339 0.565546 0.008459 -0.000061 85457.300000 1 0 0
-4.183726 -6.630338 13.071997 15.242771 1.007896 0.540237 0.018425 -0.007767 -42901.400000 1 0 0
-5.064926 8.223362 16.509797 19.127220 -1.018754 0.529307 0.014344 -0.001609 411202.000000 1 0 0
1.668474 -10.670438 15.757697 19.103588 -1.415688 0.600850 0.000675 -0.002330 -918640.000000 1 0 0
-15.136226 -0.771338 14.291697 20.831536 0.050916 0.814736 0.048962 -0.008794 376815.000000 1 0 0
-13.645326 -5.231438 8.557497 16.934982 0.366103 1.041050 0.028548 -0.001530 -73746.000000 1 0 0
-14.236726 -1.812438 12.140597 18.797962 0.126626 0.868665 0.039726 -0.008111 260789.000000 1 0 0
9.452274 0.910162 16.890997 19.377298 0.095994 0.512156 0.057421 -0.005785 -98033.800000 1 0 0
5.031574 -6.881538 16.811497 18.849370 -0.939456 0.469297 0.018518 -0.009053 694164.000000 1 0 0
-6.137826 -2.676438 11.003597 12.880814 0.411198 0.546666 0.011288 -0.002182 609955.000000 1 0 0
0.563074 -6.206738 17.884697 18.939457 -1.480324 0.335308 0.027182 -0.023481 -69511.600000 1 0 0
-8.321626 12.087262 12.018597 18.968343 -0.967856 0.884581 0.013402 -0.016468 187688.000000 1 0 0
-6.600126 -5.878438 14.833597 17.267116 0.727628 0.537354 0.025236 -0.010149 -825426.000000 1 0 0
-4.523726 -8.854138 17.070597 19.755130 1.098454 0.527418 0.041776 -0.023147 343171.000000 1 0 0
2.532774 -6.264538 16.130397 17.488542 -1.186586 0.396700 0.012370 -0.014501 114960.000000 1 0 0
2.247974 5.282962 16.208197 17.195021 1.168490 0.340434 0.016598 -0.002171 -1295270.000000 1 0 0
0.898274 -8.924638 14.032797 16.654593 -1.470483 0.568744 -0.004063 -0.001647 -579415.000000 1 0 0
-10.109026 -2.735138 11.313097 15.416211 0.264237 0.746833 0.006777 0.002417 824956.000000 1 0 0
-1.298326 10.178862 12.423997 16.113677 -1.443930 0.690352 0.001690 -0.000089 -531479.000000 1 0 0
-12.527826 -3.692938 11.309697 17.276963 0.286660 0.857128 0.023617 -0.000142 -115522.000000 1 0 0
-1.896526 6.649562 19.929697 21.095173 -1.292962 0.333961 0.049401 -0.017061 -26844.600000 1 0 0
0.264974 -13.454738 15.631997 20.626670 -1.551105 0.710779 -0.001494 -0.012230 -1014970.000000 1 0 0
4.104074 -8.734238 15.243797 18.041721 -1.131531 0.564382 0.008865 -0.004168 -599895.000000 1 0 0
4.416374 -4.488738 16.154697 17.338609 -0.793524 0.371681 0.022510 -0.009929 -375794.000000 1 0 0
8.265274 1.707162 14.725197 16.972348 0.203682 0.520442 0.017248 0.004146 400977.000000 1 0 0
-6.316426 -0.154538 11.820697 13.403358 0.024461 0.490875 0.011105 -0.000316 348959.000000 1 0 0
-3.608026 -10.906138 18.390597 21.683537 1.251305 0.558339 0.044830 -0.023118 -418564.000000 1 0 0
3.283274 -1.519538 13.644197 14.115701 -0.433457 0.259193 0.003632 -0.004479 284971.000000 1 0 0
-2.550326 8.731462 15.800497 18.231794 -1.286617 0.522358 0.017861 -0.006371 -1663300.000000 1 0 0
-3.229726 4.001762 14.827197 15.693661 -0.891756 0.333846 0.014553 -0.002581 402651.000000 1 0 0
-4.588426 -8.976138 19.832397 22.247442 1.098244 0.470270 0.054663 -0.023738 -31950.600000 1 0 0
-5.736126 -2.964738 19.118997 20.179912 0.477040 0.325699 0.033330 -0.019203 -954412.000000 1 0 0
-6.607326 -8.626938 11.050697 15.498346 0.917200 0.776994 0.020572 -0.012610 -702067.000000 1 0 0
-11.731426 2.623562 12.683097 17.474850 -0.220015 0.758612 0.028727 -0.014992 17311.600000 1 0 0
-11.693126 -7.578938 11.562697 18.107055 0.575076 0.878152 0.028705 -0.008493 -180940.000000 1 0 0
-11.119226 -7.249938 15.605297 20.487169 0.577793 0.704847 0.043636 -0.019543 121213.000000 1 0 0
0.222774 5.716962 17.696797 18.598653 1.531849 0.312690 0.024012 -0.011484 -329463.000000 1 0 0
-2.126026 -0.034438 13.254897 13.424361 0.016197 0.159061 0.014866 -0.003620 262422.000000 1 0 0
-6.177026 -10.392938 18.345197 21.970778 1.034543 0.582697 0.068012 -0.023969 -236211.000000 1 0 0
0.387474 2.384362 19.159097 19.310783 1.409698 0.125421 0.033626 -0.017118 -730960.000000 1 0 0
-0.754726 10.964662 14.854697 18.478513 -1.502072 0.636989 0.018575 -0.003132 -35239.400000 1 0 0
-12.796126 -2.040138 14.299897 19.297411 0.158103 0.736198 0.027376 -0.003010 -595090.000000 1 0 0
-13.471126 8.539662 11.617297 19.732173 -0.564990 0.941286 0.010164 -0.013668 145642.000000 1 0 0
-18.131926 -0.572238 6.851697 19.391749 0.031549 1.209667 0.057166 -0.013554 1322270.000000 1 0 0
-2.003826 -8.080738 17.484397 19.365376 1.327724 0.444400 0.029680 -0.022608 -764457.000000 1 0 0
5.768974 2.523462 14.511297 15.818555 0.412343 0.409401 0.012986 0.002631 -2036620.000000 1 0 0
-14.217226 -6.718038 11.175297 19.291159 0.441430 0.952931 0.040606 -0.008390 654768.000000 1 0 0
3.254174 7.683162 16.527597 18.514375 1.170158 0.467517 0.018900 -0.002923 -67025.300000 1 0 0
1.022274 2.009662 14.694797 14.866770 1.100229 0.152250 0.011073 -0.008067 -2030320.000000 1 0 0
-14.374626 0.665862 9.788297 17.403563 -0.046289 0.973474 0.021223 -0.004114 -2557280.000000 1 0 0
-9.526826 -5.122138 15.504497 18.904659 0.493315 0.609138 0.025154 -0.005110 139644.000000 1 0 0
-2.655626 0.050562 18.256597 18.448801 -0.019037 0.144474 0.024813 -0.011227 -414618.000000 1 0 0
6.969574 3.610462 17.472997 19.155052 0.477969 0.422206 0.040297 -0.010305 -382555.000000 1 0 0
-4.104926 -0.840338 14.759097 15.342344 0.201925 0.276618 0.019417 -0.001995 134577.000000 1 0 0
4.724274 -9.226238 17.744397 20.550082 -1.097557 0.528685 0.018677 0.000970 -114638.000000 1 0 0
2.008974 6.989062 13.430997 15.273331 1.290897 0.496247 0.011571 0.000271 -1786000.000000 1 0 0
-3.836126 -0.977938 20.466197 20.845562 0.249612 0.191072 0.038330 -0.008536 -862955.000000 1 0 0
-10.623526 1.712962 16.211997 19.458222 -0.159866 0.585982 0.035888 -0.008182 -749052.000000 1 0 0
-3.837326 7.091262 18.399897 20.088984 -1.074785 0.413003 0.028958 -0.009014 -575388.000000 1 0 0
-12.650726 1.323062 14.741997 19.470948 -0.104205 0.711891 0.037663 -0.010960 -388761.000000 1 0 0
-16.130626 -4.687038 8.413697 18.787116 0.282781 1.106444 0.036483 -0.007017 -543935.000000 1 0 0
-2.345826 0.775362 15.808697 16.000593 -0.319224 0.155030 0.023362 -0.004522 58057.000000 1 0 0
-13.587426 -9.058738 12.405097 20.507689 0.588026 0.921156 0.035240 -0.020381 464304.000000 1 0 0
6.158974 -3.284638 14.588797 16.172656 -0.489939 0.446265 0.015280 -0.011996 617549.000000 1 0 0
-15.746126 0.476562 7.548497 17.468469 -0.030256 1.123953 0.023206 -0.009864 523850.000000 1 0 0
-14.101826 6.015462 12.300197 19.655587 -0.403202 0.894657 0.035389 -0.017204 127650.000000 1 0 0
0.402174 9.416062 16.713897 19.187973 1.528111 0.513438 0.021670 -0.012361 -427860.000000 1 0 0
-10.422026 -5.410538 10.878597 16.007386 0.478846 0.823581 0.019478 -0.006674 96341.700000 1 0 0
-3.156226 -11.051638 15.159097 19.023635 1.292613 0.648723 0.018533 -0.012048 -1707710.000000 1 0 0
-3.528826 2.642062 12.619197 13.367021 -0.642674 0.336080 0.008192 0.000623 -907070.000000 1 0 0
-12.467726 -7.688538 7.480097 16.447178 0.552591 1.098654 0.025799 -0.005224 527466.000000 1 0 0
-8.286226 -1.888038 13.280097 15.766648 0.224028 0.569278 0.012716 0.001274 55709.900000 1 0 0
-9.755126 6.469162 9.507597 15.080018 -0.585568 0.888629 0.001400 -0.008476 -826145.000000 1 0 0
-17.900726 -3.393438 6.576297 19.370056 0.187347 1.224402 0.042903 -0.011347 590449.000000 1 0 0
-1.477826 -0.026938 20.523997 20.577151 0.018226 0.071893 0.032137 -0.010614 -1253470.000000 1 0 0
-2.673826 2.747362 20.261397 20.620901 -0.798962 0.187002 0.039709 -0.008794 -580545.000000 1 0 0
-3.813126 11.392762 11.132097 16.378600 -1.247819 0.823479 0.007464 -0.007797 -687149.000000 1 0 0
-4.183626 -4.802838 14.884597 16.190158 0.854194 0.404344 0.020300 -0.011203 537587.000000 1 0 0
-0.331526 -14.410838 13.303597 19.615501 1.547795 0.825461 0.007262 -0.010658 -1490090.000000 1 0 0
-12.116426 0.454462 8.449697 14.778758 -0.037490 0.962164 0.005377 -0.000800 -373050.000000 1 0 0
-7.854126 1.938962 15.512497 17.495269 -0.242032 0.480707 0.007130 0.004218 226860.000000 1 0 0
3.628074 -2.315638 18.440497 18.936131 -0.568075 0.229299 0.029267 -0.011443 -234949.000000 1 0 0
-2.067026 4.854962 12.631897 13.689707 -1.168286 0.395693 0.001467 0.000790 -109879.000000 1 0 0
-10.369726 -6.197138 13.276997 17.950331 0.538666 0.738243 0.016750 -0.009181 -404440.000000 1 0 0
2.391074 -3.817038 14.206597 14.903504 -1.011176 0.307019 0.005467 -0.007100 -413831.000000 1 0 0
6.841274 1.093462 16.988597 18.346965 0.158492 0.387220 0.023630 -0.004680 -95211.100000 1 0 0
-1.960726 -5.761238 13.779697 15.063743 1.242762 0.415885 0.007330 -0.007789 -702030.000000 1 0 0
-12.792326 3.937962 14.584297 19.795274 -0.298632 0.742536 0.021774 -0.004908 252121.000000 1 0 0
-13.252326 -6.645038 13.490397 20.044238 0.464786 0.832497 0.026062 -0.010402 -499194.000000 1 0 0
-9.524626 6.884862 11.947297 16.758810 -0.625897 0.777176 0.013953 -0.006223 -783814.000000 1 0 0
-1.033826 -2.391938 12.850097 13.111642 1.162832 0.200071 0.008543 -0.001615 464836.000000 1 0 0
0.108074 6.665262 15.229297 16.624346 1.554583 0.412593 0.017246 -0.007306 797803.000000 1 0 0
-16.448826 -0.989138 9.552597 19.047162 0.060062 1.045438 0.050035 -0.007836 67852.500000 1 0 0
-1.258126 2.738062 13.860497 14.184260 -1.140075 0.214070 0.010328 -0.003332 -1297970.000000 1 0 0
-11.198026 -3.199038 16.137697 19.901128 0.278267 0.625119 0.022071 -0.006693 -248497.000000 1 0 0
-5.287626 -1.425738 17.137597 17.991358 0.263373 0.309303 0.038648 -0.006398 426427.000000 1 0 0
-11.809726 6.585262 11.108597 17.499606 -0.508670 0.883058 0.022936 -0.010863 -2479360.000000 1 0 0
-2.833726 4.806562 18.591897 19.411123 -1.038093 0.291562 0.044620 -0.014162 101882.000000 1 0 0
5.152574 -1.970838 16.406097 17.308762 -0.365326 0.324378 0.023488 -0.010283 -91919.900000 1 0 0
-8.119426 -4.141238 12.157697 15.194885 0.471648 0.643305 0.017549 -0.001710 -972340.000000 1 0 0
-11.634826 -0.644738 16.210097 19.963770 0.055358 0.623267 0.035313 -0.001264 49076.800000 1 0 0
2.136274 1.864662 17.489597 17.717975 0.717615 0.160732 0.016205 -0.007570 -1876110.000000 1 0 0
-8.967026 -7.481338 11.560397 16.432308 0.695318 0.790463 0.023834 -0.012273 1057280.000000 1 0 0
-7.103026 6.927362 14.704797 17.739007 -0.772879 0.593564 0.003203 -0.003472 -1083890.000000 1 0 0
-5.711526 3.449162 15.754097 17.108764 -0.543279 0.400618 0.007844 0.000359 285124.000000 1 0 0
-9.307526 4.288862 11.426497 15.348916 -0.431795 0.731086 0.000950 -0.007088 32339.100000 1 0 0
-10.314426 0.089862 14.131197 17.495319 -0.008712 0.630534 0.013733 0.000944 545885.000000 1 0 0
8.099874 -0.735738 15.594097 17.587642 -0.090585 0.480745 0.027511 -0.007142 -43857.200000 1 0 0
-8.607226 -7.441538 14.738697 18.619614 0.712891 0.657425 0.028822 -0.010249 -2292180.000000 1 0 0
-0.018126 4.151762 15.673897 16.214454 -1.566431 0.258940 0.014389 -0.008345 261545.000000 1 0 0
-8.053426 3.060262 9.520697 12.840037 -0.363143 0.735515 -0.000412 -0.002817 -509262.000000 1 0 0
-2.219826 -9.733438 13.227697 16.572248 1.346570 0.646522 0.001120 -0.005582 592233.000000 1 0 0
-5.954626 10.241262 10.438197 15.789141 -1.044140 0.848513 0.012423 -0.009817 -2091970.000000 1 0 0
-8.604526 -2.816938 15.687297 18.112545 0.316382 0.523447 0.022039 -0.006157 -515647.000000 1 0 0
4.421874 5.621262 17.638597 19.033436 0.904259 0.385218 0.025933 -0.004816 497669.000000 1 0 0
-6.830726 -1.013138 15.215997 16.709633 0.147247 0.426033 0.017451 0.001832 -490921.000000 1 0 0
-0.876726 -10.036138 15.526797 18.508759 1.483661 0.575557 -0.003275 -0.006530 784326.000000 1 0 0
-4.251926 5.724162 16.155297 17.658950 -0.931917 0.415659 0.012093 -0.004587 675489.000000 1 0 0
3.871474 -0.007138 17.521997 17.944602 -0.001844 0.217456 0.028727 -0.006443 -582901.000000 1 0 0
1.373674 0.026862 19.206897 19.255976 0.019552 0.071412 0.017752 -0.008161 -240304.000000 1 0 0
-6.270726 6.352462 17.809497 19.921194 -0.791873 0.464608 0.010006 -0.003370 -700805.000000 1 0 0
-12.250426 0.611362 11.057997 16.514418 -0.049864 0.837131 0.018987 -0.002811 -243465.000000 1 0 0
-5.287526 5.190962 13.926897 15.775376 -0.776183 0.488953 -0.000598 0.001762 -1163720.000000 1 0 0
-8.696926 -9.568438 9.998497 16.345075 0.833076 0.912572 0.023384 -0.008575 647381.000000 1 0 0
6.869674 -3.760238 17.020197 18.735499 -0.500820 0.431244 0.029798 -0.011116 -861761.000000 1 0 0
-16.736226 1.649062 9.586797 19.357875 -0.098215 1.052685 0.050420 -0.013065 -5999.460000 1 0 0
-4.117826 -9.492138 11.441897 15.426412 1.161484 0.735183 0.008508 -0.009220 187717.000000 1 0 0
-11.270426 -3.778638 9.157197 15.005161 0.323493 0.914395 0.012697 0.001007 -652001.000000 1 0 0
3.557274 -5.414738 18.480397 19.583122 -0.989543 0.337184 0.016080 -0.013923 -300791.000000 1 0 0
2.585674 -1.879938 16.090397 16.404900 -0.628657 0.196127 0.010950 -0.007531 -714472.000000 1 0 0
-3.054126 -4.258838 20.104397 20.776241 0.948668 0.255002 0.039337 -0.028897 -533554.000000 1 0 0
-6.339626 -3.401138 14.351897 16.054144 0.492411 0.464673 0.020870 -0.002849 -86674.700000 1 0 0
-9.644826 5.263262 13.859897 17.686756 -0.499542 0.670306 0.026423 -0.007374 348032.000000 1 0 0
-5.886026 -5.205738 11.799397 14.176416 0.724142 0.587506 0.014286 -0.001804 525369.000000 1 0 0
6.381974 1.853962 19.433997 20.538915 0.282718 0.329502 0.062711 -0.013111 232736.000000 1 0 0
-2.682726 12.002562 13.494597 18.258222 -1.350898 0.739067 0.019457 -0.007621 -328223.000000 1 0 0
3.370074 1.205162 15.328697 15.740990 0.343435 0.229379 0.008373 -0.004614 -472375.000000 1 0 0
-5.680326 7.422362 12.676397 15.749559 -0.917576 0.635335 -0.006870 -0.004718 -1486290.000000 1 0 0
-1.780426 -1.674038 15.229097 15.423933 0.754611 0.159115 0.017017 -0.005428 -370530.000000 1 0 0
-7.315626 10.635462 14.042697 19.074296 -0.968270 0.743343 0.023659 -0.015837 32685.400000 1 0 0
-10.221226 2.130662 10.547297 14.841114 -0.205512 0.780331 0.004050 -0.002926 -702772.000000 1 0 0
-13.653326 5.270362 9.119097 17.243780 -0.368391 1.013570 0.014041 -0.013341 -331527.000000 1 0 0
0.384074 -4.868638 19.989597 20.577540 -1.492072 0.239621 0.034717 -0.030386 -51925.100000 1 0 0
-14.453626 -2.920638 7.524797 16.554757 0.199385 1.098941 0.015274 -0.001295 924777.000000 1 0 0
-2.182226 2.521662 17.711997 18.023200 -0.857434 0.186101 0.020939 -0.007198 427625.000000 1 0 0
-6.302826 -8.560238 14.627597 18.082309 0.936127 0.628441 0.024873 -0.008637 369658.000000 1 0 0
-8.015926 1.934662 11.951097 14.519873 -0.236823 0.603973 0.004403 -0.002164 429441.000000 1 0 0
-14.773526 -3.392438 10.137497 18.235530 0.225717 0.981327 0.037076 -0.006791 106859.000000 1 0 0
-0.557626 6.928562 12.809197 14.573656 -1.490487 0.497186 0.006715 -0.001269 167582.000000 1 0 0
-1.800326 -2.208538 19.227497 19.437476 0.886876 0.147121 0.031897 -0.020055 95060.100000 1 0 0
-12.820526 10.350462 7.287297 18.016732 -0.679198 1.154393 0.006566 -0.020820 -250381.000000 1 0 0
-19.473826 2.268662 6.721897 20.725844 -0.115975 1.240499 0.064134 -0.017825 -21512.600000 1 0 0
-16.100226 8.409662 6.746197 19.376554 -0.481353 1.215186 0.025545 -0.015602 425731.000000 1 0 0
-12.213026 7.276862 13.539397 19.632269 -0.537346 0.809791 0.023928 -0.006552 191491.000000 1 0 0
-15.792826 8.343962 10.330697 20.633913 -0.486061 1.046428 0.028988 -0.012835 298211.000000 1 0 0
1.857874 10.935362 15.189297 18.808205 1.402507 0.630744 0.018622 -0.007230 -624170.000000 1 0 0
2.474574 14.882962 12.384297 19.519142 1.406035 0.883475 0.013041 0.007937 115268.000000 1 0 0
-3.256426 13.738662 11.630797 18.292911 -1.338065 0.881740 0.011652 -0.008423 305567.000000 1 0 0
8.976074 4.849362 15.806497 18.813069 0.495330 0.573168 0.034370 0.001831 268994.000000 1 0 0
-0.186526 12.521462 12.882497 17.966094 -1.555901 0.771243 0.007738 -0.004650 -348871.000000 1 0 0
3.627374 13.716062 14.480397 20.272398 1.312254 0.775185 0.024875 -0.000377 69094.000000 1 0 0
-2.902526 -4.135238 -13.728003 14.628155 0.958796 2.788953 0.004675 -0.004199 -70352.500000 1 0 0
5.531174 -11.682338 16.249797 20.763594 -1.128601 0.671949 0.010774 -0.000257 229929.000000 1 0 0
7.695774 -13.466438 7.368797 17.171752 -1.051613 1.127274 0.004736 -0.010833 -28195.700000 1 0 0
-0.145626 15.592662 1.190897 15.638751 -1.561457 1.494572 -0.003026 -0.003416 -2826950.000000 1 0 0
-13.539626 8.209362 9.020797 18.223333 -0.545054 1.052946 0.002988 -0.014002 544125.000000 1 0 0
-15.402726 -9.745238 5.069997 18.918734 0.564114 1.299492 0.021634 -0.009197 -239999.000000 1 0 0
9.508474 -11.065638 11.207297 18.397362 -0.860940 0.915771 0.035596 -0.011997 153950.000000 1 0 0
-5.773126 -10.520438 -16.751003 20.605938 1.068911 2.519947 0.023769 0.001278 159263.000000 1 0 0
-1.676326 -12.786738 -14.847803 19.666418 1.440441 2.426424 0.024989 0.001395 -45000.700000 1 0 0
5.776474 -15.971738 -11.665503 20.604563 -1.223764 2.172638 0.048438 -0.016869 139471.000000 1 0 0
1.136574 -11.828938 -16.519103 20.349357 -1.475006 2.517982 0.028338 -0.009273 175616.000000 1 0 0
0.495174 -14.391638 -14.182303 20.211436 -1.536403 2.348573 0.032098 0.006480 410839.000000 1 0 0
-6.644326 -6.246138 -14.605403 17.218568 0.754518 2.583441 0.023712 0.000039 8982.970000 1 0 0
-6.189126 -8.118238 -17.442403 20.210108 0.919423 2.612080 0.017476 0.004092 91800.200000 1 0 0
-2.476926 -16.441838 -12.862903 21.021976 1.421273 2.229230 0.029638 -0.009388 92474.600000 1 0 0
15.991874 -8.002438 -9.466603 20.233527 -0.463973 2.057672 0.070463 -0.013106 -11822.600000 1 0 0
19.067874 -2.910938 -3.584203 19.618968 -0.151492 1.754519 0.099856 -0.030724 110035.000000 1 0 0
15.160174 -12.555538 -8.441003 21.417819 -0.691696 1.975897 0.039896 -0.000402 15492.700000 1 0 0
18.709074 -3.571938 -6.803303 20.225556 -0.188650 1.913858 0.201712 -0.013713 -243627.000000 1 0 0
8.758274 -9.521238 -15.776403 20.402358 -0.827113 2.454769 0.061774 -0.013133 211757.000000 1 0 0
-4.591626 9.177862 -16.164203 19.146739 -1.106914 2.575918 0.001080 -0.009821 475082.000000 1 0 0
2.580174 -9.974338 -18.331503 21.028284 -1.317664 2.629569 0.041346 0.000135 497537.000000 1 0 0
10.967474 7.847962 -14.892703 20.091506 0.621097 2.405718 0.099935 -0.067561 461323.000000 1 0 0
17.980674 -7.040838 -7.509403 20.718812 -0.373225 1.941685 0.057903 -0.020603 -25821.000000 1 0 0
12.220774 4.962562 -14.017203 19.247242 0.385733 2.386591 0.052204 -0.027668 115009.000000 1 0 0
15.937774 6.264462 -10.499903 20.087411 0.374507 2.120824 0.058549 -0.033724 165625.000000 1 0 0
3.134674 -0.160538 -19.238103 19.492474 -0.051169 2.979863 0.040939 -0.007555 157290.000000 1 0 0
10.411474 -1.773238 -14.585403 18.007697 -0.168697 2.514870 0.037847 -0.010483 128543.000000 1 0 0
12.133474 -6.220438 -13.815003 19.410547 -0.473730 2.362749 0.061106 -0.010059 397734.000000 1 0 0
10.148374 6.287962 -12.923703 17.594035 0.554709 2.395800 0.044513 -0.019427 635476.000000 1 0 0
10.483474 5.398062 -15.987303 19.865451 0.475506 2.506100 0.065589 -0.038353 492747.000000 1 0 0
12.044274 -10.039738 -14.722603 21.508508 -0.694878 2.324716 0.107678 -0.027281 378827.000000 1 0 0
-1.128126 2.345362 -17.747003 17.936820 -1.122462 2.995982 0.013974 -0.002278 319826.000000 1 0 0
6.017474 -1.177438 -17.060003 18.128432 -0.193228 2.796557 0.025036 0.003556 69067.200000 1 0 0
7.350174 -6.864638 -15.865003 18.784212 -0.751254 2.576600 0.035863 -0.004103 170128.000000 1 0 0
-2.226126 -4.640138 -20.469603 21.106661 1.123476 2.895276 0.040965 -0.022627 432639.000000 1 0 0
15.604574 -0.506738 -13.273403 20.492505 -0.032462 2.275384 0.053915 -0.014617 9704.740000 1 0 0
-4.024126 -0.413938 -18.484803 18.922285 0.102504 2.926142 0.013187 -0.010036 189043.000000 1 0 0
3.465474 8.280662 -18.033303 20.143954 1.174442 2.679725 0.038351 -0.016827 23269.300000 1 0 0
9.942974 0.123762 -17.401803 20.042475 0.012447 2.622453 0.059251 -0.008840 37267.800000 1 0 0
4.141274 4.478062 -18.445003 19.427334 0.824452 2.822230 0.030904 -0.004521 506295.000000 1 0 0
-2.558126 -11.291938 -17.574503 21.045546 1.348012 2.559056 0.043739 -0.019242 188493.000000 1 0 0
5.455774 -9.897038 -15.805903 19.430476 -1.066991 2.520872 0.011028 -0.009614 -183259.000000 1 0 0
10.263774 -12.450738 -10.804203 19.418979 -0.881383 2.160811 0.042078 -0.006359 149262.000000 1 0 0
6.228174 6.683562 -16.820203 19.141039 0.820653 2.644035 0.042280 -0.027452 176916.000000 1 0 0
8.429674 1.199462 -20.187403 21.909572 0.141342 2.742455 0.071230 -0.015940 166238.000000 1 0 0
-1.219526 -0.845338 -20.339103 20.393159 0.606127 3.068766 0.037012 -0.013641 177215.000000 1 0 0
-0.976426 6.904962 -19.576503 20.781515 -1.430318 2.799382 0.024281 -0.002262 82477.400000 1 0 0
8.824774 5.895962 -18.150503 21.025693 0.589004 2.612476 0.088055 -0.026040 52288.600000 1 0 0
12.600074 -0.038738 -13.619603 18.554163 -0.003074 2.395057 0.051737 0.007062 107534.000000 1 0 0
-4.597526 -2.633138 -19.895103 20.588486 0.520126 2.881327 0.029593 -0.010819 426644.000000 1 0 0
6.275874 -11.468038 -14.288503 19.366564 -1.070068 2.400590 0.023922 -0.011732 64756.200000 1 0 0
11.196774 2.066962 -15.944103 19.592205 0.182548 2.521455 0.052222 -0.011341 -82228.600000 1 0 0
-2.777226 -4.242838 -17.203303 17.935113 0.991217 2.854944 0.006277 -0.003456 116784.000000 1 0 0
-6.794226 -4.761638 -17.418503 19.293495 0.611287 2.697073 0.032929 -0.013423 141315.000000 1 0 0
2.669274 10.631762 -15.535103 19.013122 1.324815 2.527112 0.007436 -0.007854 269129.000000 1 0 0
17.297574 -6.183538 -10.595203 21.206144 -0.343323 2.093967 0.117462 -0.023834 17013.400000 1 0 0
9.715074 -3.212538 -17.612703 20.369349 -0.319357 2.615283 0.055293 -0.020134 148046.000000 1 0 0
-7.211326 -1.585538 -19.068903 20.448477 0.216424 2.772165 0.023091 -0.000600 537391.000000 1 0 0
2.165674 -7.498438 -19.158103 20.686943 -1.289631 2.754728 0.051641 -0.024572 283747.000000 1 0 0
5.529674 9.789062 -14.245103 18.147341 1.056599 2.473443 0.038592 -0.028091 352041.000000 1 0 0
6.047974 -3.958838 -17.608503 19.034436 -0.579583 2.752060 0.041813 -0.023431 546184.000000 1 0 0
4.756674 13.262462 -14.373103 20.127219 1.226430 2.366152 0.044030 -0.027220 -417287.000000 1 0 0
10.047674 10.978162 -15.769403 21.682939 0.829624 2.385136 0.129596 -0.034364 -84612.000000 1 0 0
16.945774 0.829162 -11.148903 20.301350 0.048891 2.152168 0.088829 -0.017599 76972.200000 1 0 0
14.774574 -3.192438 -12.407203 19.555521 -0.212805 2.258107 0.077311 -0.009180 57604.300000 1 0 0
-8.882026 0.285162 -17.321403 19.467992 -0.032094 2.667566 0.041271 -0.018061 443231.000000 1 0 0
-3.533526 4.399262 -19.083103 19.899852 -0.894102 2.854097 0.019781 0.001277 94768.100000 1 0 0
3.999574 1.906362 -16.763303 17.338948 0.444787 2.883194 0.021328 -0.010416 375798.000000 1 0 0
-4.922726 14.333662 -14.060503 20.673288 -1.239979 2.318735 0.015010 -0.009443 306724.000000 1 0 0
1.006474 9.149562 -17.922903 20.148397 1.461234 2.667144 0.013334 -0.003117 359097.000000 1 0 0
1.110674 -5.420338 -20.338903 21.078060 -1.368685 2.875982 0.038488 0.007287 565391.000000 1 0 0
3.584574 -6.138138 -18.112503 19.457355 -1.042237 2.767616 0.031871 -0.018192 -42604.100000 1 0 0
-6.995126 7.423862 -15.729103 18.747005 -0.815124 2.566275 0.005948 -0.004355 141007.000000 1 0 0
-11.899926 3.197662 -16.712003 20.763533 -0.262512 2.506257 0.075491 -0.030470 264035.000000 1 0 0
-4.540926 7.152562 -18.018703 19.911122 -1.005133 2.702074 -0.000239 0.036303 401073.000000 1 0 0
-8.143226 5.143462 -17.975703 20.393460 -0.563349 2.649708 0.014043 -0.002700 480652.000000 1 0 0
-8.083726 3.907062 -15.043003 17.518667 -0.450218 2.603493 -0.014071 -0.014890 352709.000000 1 0 0
9.469974 13.336962 -12.958503 20.868104 0.953354 2.240778 0.110424 -0.048156 523633.000000 1 0 0
12.771974 9.246762 -11.939003 19.777910 0.626645 2.218872 0.038383 -0.041872 -316990.000000 1 0 0
8.624674 15.430862 -10.057503 20.338384 1.061128 2.088066 0.073173 -0.025143 77036.200000 1 0 0
7.306274 12.744362 -14.414803 20.581228 1.050245 2.346734 0.112553 -0.050170 153622.000000 1 0 0
3.975174 15.408462 -13.128203 20.629407 1.318315 2.260596 0.059511 -0.025152 147445.000000 1 0 0
11.363074 11.121162 -10.632603 19.127257 0.774639 2.160227 0.109329 -0.053065 237502.000000 1 0 0
16.129674 9.975062 -10.968103 21.908161 0.553860 2.095134 0.111014 -0.004114 185754.000000 1 0 0
13.799874 10.685062 -8.916303 19.598662 0.658864 2.043106 0.140501 -0.034738 123457.000000 1 0 0
10.889374 11.747162 -7.350903 17.624133 0.823274 2.001041 0.060514 -0.010414 154026.000000 1 0 0
5.812074 16.809362 -10.273703 20.539811 1.237900 2.094609 0.074659 -0.018541 132522.000000 1 0 0
11.623274 13.585662 -10.359103 20.663536 0.863086 2.095923 0.131012 -0.039450 -1602.140000 1 0 0
7.560274 -19.156738 -1.508703 20.649807 -1.194907 1.643923 0.041192 -0.015808 -26096.700000 1 0 0
7.579374 -17.414738 -4.100103 19.430153 -1.160295 1.783412 0.050438 -0.002868 43903.100000 1 0 0
3.898274 -18.139238 4.882797 19.185156 -1.359108 1.313456 0.051138 -0.038676 -45970.000000 1 0 0
10.345374 -17.931238 -2.274103 20.826128 -1.047500 1.680209 0.062168 -0.017802 509437.000000 1 0 0
-3.458726 -15.187738 8.037597 17.528067 1.346884 1.094427 0.021809 -0.018345 -50345.900000 1 0 0
-15.377126 -12.510838 -3.995103 20.222213 0.682979 1.769665 0.066147 -0.008589 238867.000000 1 0 0
-9.575626 -12.667538 -7.361803 17.503007 0.923518 2.004905 0.041469 -0.005096 227643.000000 1 0 0
-11.642126 -15.277438 6.740897 20.356299 0.919630 1.233279 0.039837 -0.005127 198856.000000 1 0 0
-15.737626 -7.936838 -8.125703 19.408588 0.467100 2.002771 0.108461 -0.011736 20784.100000 1 0 0
5.313674 -15.275238 6.857497 17.566824 -1.236027 1.169767 0.043109 -0.017376 196336.000000 1 0 0
2.900574 -14.324838 8.834997 17.078393 -1.371012 1.027080 0.016762 -0.008153 238920.000000 1 0 0
3.304174 -17.255638 10.190797 20.310760 -1.381603 1.045183 0.050518 -0.021508 142645.000000 1 0 0
-8.526926 -17.842438 -4.892203 20.371419 1.124983 1.813317 0.043372 -0.013820 -33312.500000 1 0 0
2.105874 -19.736538 -3.960103 20.239764 -1.464499 1.767726 0.037380 -0.014620 -42143.600000 1 0 0
-17.355926 -10.911438 -2.295303 20.629010 0.561246 1.682293 -0.022806 -0.008586 -186375.000000 1 0 0
-4.483926 -14.750338 2.775697 15.664691 1.275685 1.392661 0.004249 -0.001941 102379.000000 1 0 0
-10.877726 -10.542038 -14.528003 20.988624 0.769728 2.335308 0.046162 -0.003932 155054.000000 1 0 0
0.562474 -20.226938 2.373697 20.373508 -1.542995 1.454022 0.046043 -0.018864 181411.000000 1 0 0
5.360374 -18.797938 0.741297 19.561330 -1.293011 1.532891 0.026555 -0.000596 35503.100000 1 0 0
-6.892526 -17.812238 -3.209303 19.367043 1.201586 1.737274 -0.013293 -0.046171 28373.500000 1 0 0
-9.815626 -15.767938 -7.510903 20.034671 1.013993 1.955080 0.067835 -0.016065 178168.000000 1 0 0
-11.577826 -11.537238 -12.239803 20.419762 0.783642 2.213560 0.012484 0.008358 372791.000000 1 0 0
-13.217026 -15.300438 -3.064203 20.449511 0.858326 1.721205 0.054532 -0.006780 171717.000000 1 0 0
-0.410126 -20.715838 -2.785903 20.906348 1.551001 1.704450 0.044706 -0.004371 415384.000000 1 0 0
-11.798326 -16.751238 -1.097003 20.518477 0.957173 1.624286 0.054770 -0.016786 113354.000000 1 0 0
0.813074 -20.065138 5.168097 20.735961 -1.530297 1.318908 0.058823 -0.025329 4032.000000 1 0 0
-18.130626 -8.819438 2.462297 20.311696 0.452740 1.449272 0.049341 -0.009963 -236061.000000 1 0 0
-14.648726 -15.049338 -0.442403 21.006272 0.798887 1.591858 0.066105 -0.014739 60774.800000 1 0 0
10.056474 -15.909238 -4.769803 19.416167 -1.007097 1.818998 0.049913 -0.003883 10071.800000 1 0 0
-0.437826 -19.174138 -7.050303 20.433943 1.547966 1.923066 0.022620 -0.003683 184169.000000 1 0 0
-9.658326 -18.588338 -3.122203 21.179181 1.091599 1.718754 0.043748 0.035968 268247.000000 1 0 0
-14.329026 -6.627938 -11.221903 19.369606 0.433244 2.188735 0.037185 -0.017175 -157266.000000 1 0 0
-12.223326 -15.570638 2.092197 19.905571 0.905254 1.465496 0.048437 -0.012244 256754.000000 1 0 0
-2.566126 -16.317338 10.462497 19.552605 1.414810 1.006176 0.008654 -0.011838 402841.000000 1 0 0
-12.434226 -14.342738 -6.232903 19.979319 0.856552 1.888060 0.050921 -0.012061 125934.000000 1 0 0
5.341974 -17.133338 -7.394403 19.410439 -1.268560 1.961620 0.038183 -0.019961 163674.000000 1 0 0
-17.575826 -7.100038 -2.788403 19.159733 0.383921 1.716850 0.015444 -0.010965 -81526.900000 1 0 0
-11.584226 -13.784238 -9.950503 20.572117 0.871904 2.075661 0.027183 -0.009531 -77607.300000 1 0 0
-7.858026 -14.020338 9.441897 18.640490 1.059948 1.039645 0.016931 -0.007362 233722.000000 1 0 0
-15.889326 -7.827738 -5.605503 18.578639 0.457743 1.877290 0.040670 -0.010292 345537.000000 1 0 0
-0.785326 -19.398638 -0.099503 19.414783 1.530335 1.575921 0.029367 -0.020750 226839.000000 1 0 0
-15.146926 -11.341938 -1.708003 18.999637 0.642729 1.660814 0.039232 -0.000973 50647.900000 1 0 0
-7.184926 -18.967238 1.404397 20.331050 1.208692 1.501665 0.019917 -0.014576 -75164.900000 1 0 0
-2.350326 -20.279738 -5.656403 21.184586 1.455416 1.841081 0.031360 -0.008428 84810.600000 1 0 0
-9.293226 -19.500638 -0.371903 21.605028 1.126076 1.588011 0.038460 -0.016685 -157687.000000 1 0 0
-17.808126 -7.406638 5.177297 19.969778 0.394149 1.308544 0.044711 -0.008929 29312.800000 1 0 0
-3.085826 -15.744938 -10.710103 19.290715 1.377261 2.159393 0.017063 -0.003981 53785.200000 1 0 0
-2.980026 -18.040238 -8.464603 20.148951 1.407087 2.004353 0.007886 -0.008736 211495.000000 1 0 0
4.501974 -17.229538 -4.907003 18.471693 -1.315217 1.839674 0.032550 -0.017073 634069.000000 1 0 0
0.715874 -17.407338 -8.941303 19.582512 -1.529695 2.044962 0.021956 -0.009561 -18468.500000 1 0 0
-7.632226 -10.142538 -14.751203 19.460728 0.925699 2.431035 0.016414 -0.007876 373345.000000 1 0 0
-5.192626 -19.386838 -1.846803 20.154988 1.309096 1.662555 0.022640 -0.017626 185891.000000 1 0 0
-10.446626 -15.487638 8.435197 20.497597 0.977381 1.146674 0.031432 -0.022027 61386.900000 1 0 0
-7.304026 -14.782438 -10.365003 19.475691 1.111879 2.131996 0.029074 -0.021764 165026.000000 1 0 0
-12.719426 -8.211338 -12.132503 19.401224 0.573258 2.246373 0.046339 -0.014982 327842.000000 1 0 0
-15.971026 -13.113638 3.095797 20.895577 0.687469 1.422093 0.066619 -0.010826 162051.000000 1 0 0
-6.245226 -14.296738 -12.836503 20.203350 1.158949 2.259277 0.013674 -0.002946 469071.000000 1 0 0
-13.960526 -12.059838 -6.689403 19.623559 0.712482 1.918656 0.054533 -0.001400 203320.000000 1 0 0
-11.899526 -10.303338 -8.288803 17.789372 0.713631 2.055494 0.040838 -0.002445 244365.000000 1 0 0
-9.719726 -14.587638 3.496397 17.874480 0.983048 1.373919 0.005988 -0.009864 611883.000000 1 0 0
4.624674 -18.581538 8.011497 20.756812 -1.326867 1.174538 0.051043 -0.015901 221602.000000 1 0 0
-4.855226 -16.833038 5.281097 18.297934 1.289984 1.278014 -0.001448 0.010440 346003.000000 1 0 0
-18.621826 -7.213238 -6.579903 21.026134 0.369557 1.889082 0.067475 -0.029232 84787.300000 1 0 0
-17.015126 -5.096538 -10.561903 20.665019 0.291025 2.107261 0.071470 -0.015619 -124503.000000 1 0 0
-15.755326 -4.213738 -12.922803 20.808285 0.261332 2.240867 0.056760 -0.020842 312621.000000 1 0 0
-19.646426 -4.920338 -6.013003 21.126949 0.245397 1.859399 0.073274 -0.019561 -52828.900000 1 0 0
5.310874 -13.542638 8.633297 16.915740 -1.197067 1.035181 0.027078 -0.010416 191345.000000 1 0 0
19.886974 -2.835238 2.567397 20.251465 -0.141613 1.443678 0.085257 -0.027508 5952.160000 1 0 0
17.945174 -2.510338 0.144597 18.120485 -0.138987 1.562816 0.061606 -0.021170 157413.000000 1 0 0
14.140274 -11.542538 0.515897 18.260441 -0.684594 1.542540 0.050714 -0.003079 80139.600000 1 0 0
11.254174 -14.035638 5.671397 18.863200 -0.894941 1.265412 0.040666 0.004914 521641.000000 1 0 0
10.373674 -12.511338 8.161397 18.186674 -0.878537 1.105422 0.053474 -0.036998 -82323.400000 1 0 0
17.825574 4.814162 -4.450403 18.992981 0.263778 1.807314 0.031089 -0.001337 44513.600000 1 0 0
18.736574 -6.128638 -4.488103 20.217876 -0.316126 1.794648 0.090722 -0.024209 -106409.000000 1 0 0
17.711674 -10.071738 -0.252303 20.376628 -0.517049 1.583179 0.091206 -0.017543 382041.000000 1 0 0
17.758674 -8.787538 8.848897 21.700100 -0.459504 1.150773 0.130067 -0.026264 79636.900000 1 0 0
19.862374 0.182962 -2.042603 19.967965 0.009211 1.673270 0.093398 -0.013688 -163881.000000 1 0 0
7.318274 -13.482838 11.615797 19.242422 -1.073510 0.922718 0.030485 -0.006133 326854.000000 1 0 0
15.917774 -6.513738 -3.294303 17.511618 -0.388422 1.760045 0.066982 -0.013611 309323.000000 1 0 0
14.461874 -6.907638 12.342097 20.228412 -0.445604 0.914563 0.089180 -0.025419 402378.000000 1 0 0
17.206374 1.511062 9.026197 19.488839 0.087595 1.089254 0.154263 -0.034216 359371.000000 1 0 0
16.358074 -9.901138 2.677397 19.307708 -0.544289 1.431678 0.030468 -0.017663 301900.000000 1 0 0
16.088474 -7.242638 -5.665003 18.530706 -0.423000 1.881479 0.081679 -0.012818 209249.000000 1 0 0
19.169974 -4.887838 5.138497 20.439741 -0.249654 1.316673 0.206955 -0.030154 -261775.000000 1 0 0
13.047574 -13.680838 8.052897 20.548812 -0.809086 1.168110 0.052631 -0.015519 196249.000000 1 0 0
15.214774 -14.147538 -1.482103 20.828798 -0.749067 1.642013 0.072793 -0.007299 147030.000000 1 0 0
18.723574 -6.348138 7.926197 21.300134 -0.326882 1.189505 0.116425 -0.029272 305906.000000 1 0 0
19.622674 3.202162 2.294897 20.014238 0.161761 1.455880 0.074460 -0.010662 216782.000000 1 0 0
15.849074 -10.277938 8.294297 20.630670 -0.575312 1.157056 0.089471 -0.039820 314003.000000 1 0 0
14.411774 -4.062138 10.777797 18.448878 -0.274735 0.946905 0.077692 -0.014452 -92975.600000 1 0 0
18.809274 -7.732938 2.087197 20.443667 -0.390059 1.468523 0.115348 -0.026120 8248.880000 1 0 0
18.990974 -5.472938 -1.375903 19.811695 -0.280584 1.640301 0.099228 -0.029554 229000.000000 1 0 0
14.937174 -13.527638 -5.982003 21.021430 -0.735920 1.859351 0.099974 -0.023419 632432.000000 1 0 0
13.919374 -9.528638 10.321497 19.775673 -0.600288 1.021685 0.059069 -0.026296 527176.000000 1 0 0
14.199374 2.355062 0.488197 14.401628 0.164361 1.536891 0.000157 -0.003384 -215471.000000 1 0 0
12.830174 3.077062 13.717597 19.032975 0.235384 0.765944 0.057367 -0.013515 313190.000000 1 0 0
18.150174 -3.843738 8.991897 20.616919 -0.208691 1.119490 0.094006 -0.021824 75080.100000 1 0 0
7.070774 -18.216038 5.117097 20.199123 -1.200537 1.314673 0.052743 -0.031290 387379.000000 1 0 0
11.750874 -4.123438 14.085197 18.801026 -0.337481 0.723986 0.065050 -0.012349 140974.000000 1 0 0
11.317874 -13.717238 -6.690803 19.000625 -0.880946 1.930649 0.039320 -0.018516 8714.390000 1 0 0
10.538174 -17.754938 4.050497 21.040377 -1.035144 1.377076 0.051240 -0.023247 553242.000000 1 0 0
18.367774 -0.077638 -4.664503 18.950956 -0.004227 1.819487 0.092652 -0.016723 311805.000000 1 0 0
4.205474 -13.626038 11.469397 18.300328 -1.271436 0.893444 0.009693 -0.011297 168723.000000 1 0 0
9.047874 -2.552038 14.001497 16.864722 -0.274917 0.591287 0.019839 -0.009773 198898.000000 1 0 0
8.983974 -9.170938 13.981897 18.981869 -0.795696 0.742778 0.039804 -0.016221 403030.000000 1 0 0
21.161474 5.946462 -2.870303 22.167703 0.273940 1.700642 0.112148 -0.003104 586207.000000 1 0 0
14.740774 -13.443638 2.095497 20.060233 -0.739407 1.466145 0.052670 -0.005372 337015.000000 1 0 0
11.741174 -1.009938 15.594397 19.546365 -0.085806 0.647133 0.079666 0.004858 14230.200000 1 0 0
19.857774 -0.344638 7.644297 21.281101 -0.017354 1.203379 0.139139 -0.027429 150645.000000 1 0 0
19.729674 1.088262 0.688697 19.771663 0.055103 1.535957 0.068652 -0.014437 291189.000000 1 0 0
18.037274 0.333562 3.154097 18.314007 0.018491 1.397710 0.047101 -0.003550 -12134.900000 1 0 0
10.449974 -8.418238 16.423997 21.208875 -0.678131 0.685042 0.072416 -0.003450 148610.000000 1 0 0
19.374274 2.674962 5.463897 20.306947 0.137200 1.298374 0.074856 -0.014524 149325.000000 1 0 0
15.595174 2.616662 7.105897 17.336382 0.166238 1.148470 0.054235 -0.007107 72912.200000 1 0 0
11.490274 -16.129138 2.103497 19.914824 -0.951802 1.464974 0.038120 -0.001523 222022.000000 1 0 0
9.214874 -15.874538 6.745797 19.555578 -1.044852 1.218605 0.058756 -0.017123 34316.500000 1 0 0
6.317474 6.756962 7.079697 11.648568 0.819000 0.917542 -0.002855 0.002369 -1097390.000000 1 0 0
18.465874 2.136462 -6.538603 19.705489 0.115186 1.909025 0.070210 -0.005725 232742.000000 1 0 0
13.936174 4.499962 -7.488403 16.448185 0.312329 2.043474 0.023240 0.000126 215653.000000 1 0 0
-10.473126 -3.923738 -13.708103 17.691641 0.358462 2.457250 0.020503 -0.004655 -193732.000000 1 0 0
7.932174 -14.067238 -10.405403 19.211429 -1.057362 2.143166 0.036028 -0.014179 46168.900000 1 0 0
1.672774 -16.013538 13.862597 21.246251 -1.466714 0.859954 0.005170 -0.010497 314268.000000 1 0 0
-9.386126 -7.773938 2.080097 12.363667 0.691723 1.401750 0.011731 -0.000512 309673.000000 1 0 0
-13.794326 3.222562 -9.676303 17.155150 -0.229499 2.170074 0.028631 -0.004029 300676.000000 1 0 0
-13.136726 -4.696138 -13.617103 19.494942 0.343324 2.344087 0.046949 0.000579 286357.000000 1 0 0
-17.916826 -1.413238 -8.610503 19.928639 0.078715 2.017580 0.067925 -0.032989 309595.000000 1 0 0
-12.071526 15.255162 4.295197 19.922109 -0.901378 1.353491 0.031498 -0.020668 348931.000000 1 0 0
-17.415626 6.419762 9.363697 20.789329 -0.353166 1.103573 0.041829 -0.016723 180401.000000 1 0 0
-13.691426 15.141262 0.523097 20.420249 -0.835640 1.545177 0.053540 -0.040393 89579.600000 1 0 0
-16.346626 5.408462 -10.544903 20.190557 -0.319524 2.120306 0.083950 -0.018643 53959.900000 1 0 0
-18.339126 2.975162 -0.160603 18.579583 -0.160829 1.579440 0.060058 -0.011006 -16172.900000 1 0 0
-9.642426 15.466462 -0.149503 18.226633 -1.013319 1.578999 0.012816 -0.006533 -13996.900000 1 0 0
-18.792426 11.988962 2.393897 22.419215 -0.567870 1.463814 0.112566 -0.045480 66254.600000 1 0 0
-8.591326 16.292762 -7.882903 20.035097 -1.085541 1.975183 0.062067 -0.027839 125083.000000 1 0 0
-14.844726 -1.631638 -12.709303 19.610061 0.109474 2.275885 0.046358 -0.030076 119534.000000 1 0 0
-18.769926 5.309662 -5.096203 20.161198 -0.275679 1.826341 0.051301 -0.010307 -85534.800000 1 0 0
-17.147126 9.733362 -5.254403 20.405171 -0.516284 1.831234 0.076619 -0.002335 -184214.000000 1 0 0
-18.996126 1.164362 2.184897 19.156782 -0.061218 1.456494 0.064622 -0.015890 316989.000000 1 0 0
-14.351526 12.658662 -7.684903 20.621972 -0.722805 1.952666 0.057883 0.007188 -37752.100000 1 0 0
-12.958926 5.363162 -13.381303 19.384440 -0.392396 2.332716 0.064336 -0.028510 -378645.000000 1 0 0
-14.187826 9.477062 -6.346403 18.204009 -0.588905 1.926902 0.045740 -0.015424 276945.000000 1 0 0
-6.544226 11.331462 -15.390203 20.201170 -1.047065 2.436956 0.016478 -0.029180 171111.000000 1 0 0
-15.038826 13.961862 3.382797 20.797672 -0.748279 1.407418 0.039940 -0.028047 155300.000000 1 0 0
-18.768526 8.076262 -4.917303 21.015790 -0.406359 1.806967 0.073931 -0.015695 180064.000000 1 0 0
-4.573526 16.277762 -11.476903 20.435312 -1.296890 2.167140 0.016846 0.000517 18287.800000 1 0 0
-19.188726 -2.250638 -6.631403 20.426651 0.116756 1.901432 0.032463 -0.021841 -35077.000000 1 0 0
-10.544426 13.322462 -6.357503 18.140858 -0.901274 1.928850 0.033304 -0.027916 195913.000000 1 0 0
-19.139926 3.201062 4.243297 19.864267 -0.165712 1.355523 0.053495 -0.011489 123172.000000 1 0 0
-15.012226 11.929862 0.559897 19.183378 -0.671486 1.541606 0.023626 -0.027208 132379.000000 1 0 0
-17.413826 2.673762 -7.979103 19.340538 -0.152353 1.996057 0.041037 -0.024480 241663.000000 1 0 0
-16.999826 13.898962 -3.459303 22.229305 -0.685378 1.727050 0.074268 0.026378 343336.000000 1 0 0
-10.497426 15.690762 -8.738703 20.802906 -0.981167 2.004320 0.040939 -0.018370 3229.790000 1 0 0
-19.268326 1.503262 -6.704403 20.456715 -0.077860 1.904703 0.068906 -0.028656 289358.000000 1 0 0
-17.313026 10.306662 -0.286603 20.150689 -0.536966 1.585020 0.047974 -0.016931 14403.100000 1 0 0
-11.583026 6.677962 -14.543503 19.755382 -0.522983 2.398204 0.037201 -0.025677 313277.000000 1 0 0
-13.564926 12.277662 -4.624603 18.871543 -0.735628 1.818375 0.042701 -0.014623 218162.000000 1 0 0
-19.089326 7.286662 -0.206703 20.433808 -0.364644 1.580912 0.063623 -0.012333 214133.000000 1 0 0
-14.580526 9.097562 -10.251103 20.011059 -0.557846 2.108624 0.050889 -0.022736 663529.000000 1 0 0
-18.721326 11.368062 5.035597 22.473943 -0.545715 1.344814 0.077981 -0.047086 108019.000000 1 0 0
-8.119326 11.704862 -13.666203 19.740627 -0.964331 2.335451 0.005818 -0.018158 499826.000000 1 0 0
-20.891426 -0.945138 -5.635503 21.658805 0.045210 1.834020 0.074500 -0.026961 150920.000000 1 0 0
-10.587026 13.473462 -2.894903 17.378140 -0.904793 1.738160 0.022713 -0.000862 282008.000000 1 0 0
-18.835626 -4.532538 3.659097 19.715823 0.236147 1.384122 0.059837 -0.016206 -1788.270000 1 0 0
-11.398226 11.657462 -12.886303 20.781549 -0.796642 2.239646 0.045290 -0.012322 142677.000000 1 0 0
-14.992726 11.358962 -9.978603 21.292730 -0.648367 2.058546 0.070738 -0.028299 188970.000000 1 0 0
-12.953626 9.532062 -13.860503 21.231349 -0.634390 2.282113 0.078954 -0.030087 288898.000000 1 0 0
-18.395226 -4.788638 -2.929403 19.232701 0.254667 1.723705 0.028911 -0.016112 -515420.000000 1 0 0
-9.415926 12.212362 -11.554803 19.269533 -0.913980 2.213849 0.031605 -0.025181 -61768.600000 1 0 0
-15.276326 7.884462 -8.168003 19.032791 -0.476463 2.014353 0.026169 -0.007747 27190.000000 1 0 0
-14.816726 8.809262 2.252397 17.384238 -0.536401 1.440866 0.032684 -0.012765 -291318.000000 1 0 0
-19.798826 6.269962 7.541897 22.094935 -0.306692 1.222454 0.073427 -0.026020 315488.000000 1 0 0
-18.979626 6.304262 4.075197 20.410221 -0.320694 1.369781 0.044102 -0.008877 158768.000000 1 0 0
-14.539026 12.804562 5.811697 20.226614 -0.722051 1.279359 0.031337 -0.027245 107459.000000 1 0 0
17.948874 6.255662 5.581697 19.810369 0.335362 1.285172 0.045708 -0.014576 163522.000000 1 0 0
18.442174 8.183162 0.401997 20.180177 0.417619 1.550875 0.056211 0.005175 17655.800000 1 0 0
15.944674 5.404062 9.039397 19.108826 0.326775 1.078049 0.038363 0.006363 78378.200000 1 0 0
12.407874 12.961962 10.726897 20.905361 0.807235 1.031984 0.053832 -0.006045 217103.000000 1 0 0
15.953474 12.247762 4.052897 20.516993 0.654744 1.371950 0.073749 -0.010461 353690.000000 1 0 0
5.074574 10.441162 14.472597 18.553308 1.118398 0.676043 0.020588 0.000026 283989.000000 1 0 0
12.471674 14.524262 -5.399503 19.890990 0.861285 1.845700 0.041720 0.038401 155101.000000 1 0 0
17.992274 9.262862 -2.536503 20.395009 0.475437 1.695488 0.055481 -0.003657 -126960.000000 1 0 0
14.430474 7.746662 9.558997 18.963749 0.492673 1.042495 0.043633 -0.011008 35118.400000 1 0 0
4.551274 19.352162 -1.790403 19.960606 1.339812 1.660614 0.019961 -0.015283 546926.000000 1 0 0
-4.527026 19.035962 3.131197 19.815807 -1.337319 1.412116 0.005054 -0.017801 294258.000000 1 0 0
7.264774 12.869362 12.797297 19.549124 1.056888 0.857113 0.035252 0.007583 -23463.800000 1 0 0
0.294674 17.371162 -10.185203 20.139078 1.553835 2.101040 0.025836 0.003176 116124.000000 1 0 0
10.690774 9.137062 15.882797 21.214189 0.707198 0.724716 0.049753 -0.007229 -92171.700000 1 0 0
-1.331026 12.066662 0.786997 12.165333 -1.460934 1.506059 -0.004277 0.003061 585523.000000 1 0 0
-4.721626 19.297962 -2.711403 20.051354 -1.330841 1.706435 0.016063 0.008387 8213.080000 1 0 0
6.215474 18.322462 6.116897 20.291899 1.243751 1.264588 0.024799 -0.016205 161914.000000 1 0 0
11.444274 17.297762 -1.443503 20.791048 0.986307 1.640281 0.049300 -0.008542 543907.000000 1 0 0
18.471874 10.680362 2.908597 21.534628 0.524233 1.435316 0.049131 -0.003714 304827.000000 1 0 0
11.287774 16.763062 6.502697 21.229676 0.978166 1.259490 0.043863 0.001899 70046.300000 1 0 0
18.198474 7.175062 -5.886603 20.428364 0.375555 1.863099 0.062497 0.002854 419469.000000 1 0 0
0.402474 15.542562 10.656597 18.849304 1.544907 0.969930 0.004096 -0.006400 433490.000000 1 0 0
0.894574 20.163462 -2.047503 20.286886 1.526459 1.671896 0.015018 -0.015019 233018.000000 1 0 0
14.778574 9.777962 -1.406603 17.776201 0.584508 1.650008 0.040452 -0.002792 49981.400000 1 0 0
9.932374 17.349562 1.595497 20.055048 1.050854 1.491156 0.036006 -0.014890 289910.000000 1 0 0
-0.012226 17.541062 -0.646003 17.552958 -1.570099 1.607608 0.001138 -0.010260 37228.000000 1 0 0
-0.187326 20.967162 1.351097 21.011483 -1.561862 1.506449 0.019032 -0.006859 413508.000000 1 0 0
5.570774 18.247362 0.143597 19.079318 1.274492 1.563270 0.016845 -0.005627 -61541.900000 1 0 0
7.282574 18.432862 -1.985103 19.918507 1.194533 1.670623 0.030469 -0.013661 110147.000000 1 0 0
10.368874 9.780262 12.916697 19.235596 0.756194 0.834565 0.024383 0.005365 87668.100000 1 0 0
12.356474 14.785862 8.145897 20.920321 0.874666 1.170841 0.050978 -0.014126 217439.000000 1 0 0
0.474074 17.615262 6.941097 18.939404 1.543890 1.195563 0.002716 -0.004801 292639.000000 1 0 0
7.517274 17.874162 -7.856303 20.921677 1.172687 1.955744 0.046609 -0.010591 136662.000000 1 0 0
-1.434326 18.544662 8.848497 20.597516 -1.493606 1.126757 0.044880 -0.017533 214918.000000 1 0 0
16.204374 6.681662 -7.889103 19.221454 0.391096 1.993724 0.071447 -0.004183 -127190.000000 1 0 0
-5.465226 19.623262 -6.625003 21.420359 -1.299172 1.885238 0.025625 -0.013557 336503.000000 1 0 0
3.708474 15.743262 9.771697 18.896802 1.339454 1.027327 0.011452 0.004062 235595.000000 1 0 0
8.796174 14.874362 7.293897 18.756872 1.036750 1.171397 0.011098 -0.005475 -41573.500000 1 0 0
-2.492226 19.578362 6.304497 20.718835 -1.444182 1.261605 0.014593 -0.004723 209537.000000 1 0 0
4.737574 18.144762 8.167597 20.454502 1.315399 1.160037 0.020033 -0.007178 71247.000000 1 0 0
15.066174 12.019562 -6.341903 20.289879 0.673389 1.888688 0.079441 -0.003685 144526.000000 1 0 0
11.887174 6.699462 15.662997 20.772992 0.513215 0.716654 0.073802 -0.018944 236373.000000 1 0 0
17.194874 8.962862 5.014297 20.028474 0.480504 1.317746 0.060369 -0.009108 70804.100000 1 0 0
5.033574 15.308362 11.942197 20.057390 1.253120 0.933031 0.009518 0.002331 548932.000000 1 0 0
15.838174 10.138762 -3.707903 19.167441 0.569418 1.765472 0.050380 -0.018244 173954.000000 1 0 0
15.164574 14.204262 6.477697 21.764327 0.752711 1.268588 0.076210 0.006953 253300.000000 1 0 0
12.786074 14.384562 -8.547403 21.058429 0.844162 1.988749 0.123479 -0.025478 272463.000000 1 0 0
-8.624926 15.421362 9.562597 20.091068 -1.060853 1.074738 0.050802 -0.025718 195410.000000 1 0 0
-4.214526 17.885662 -8.158003 20.105028 -1.339381 1.988617 0.001620 0.045334 119820.000000 1 0 0
2.400774 19.360762 -4.766803 20.082959 1.447424 1.810439 0.032413 -0.027240 53634.000000 1 0 0
7.004874 16.086662 9.096697 19.763574 1.160111 1.092490 0.018483 -0.018649 574819.000000 1 0 0
13.721674 15.242562 -1.741403 20.582821 0.837859 1.655502 0.089406 -0.013428 304521.000000 1 0 0
12.369674 16.888662 4.220097 21.355209 0.938639 1.371873 0.056486 -0.020979 349883.000000 1 0 0
2.515774 18.424262 0.467097 18.601095 1.435089 1.545682 0.015867 -0.016191 13169.200000 1 0 0
-7.332726 17.671862 1.229497 19.172252 -1.177479 1.506623 0.003559 0.011751 325332.000000 1 0 0
0.368174 19.961162 -5.774903 20.782999 1.552354 1.852369 0.044511 -0.003979 255586.000000 1 0 0
-7.657426 17.828362 -6.594503 20.493270 -1.165113 1.898414 0.058252 -0.019708 31691.600000 1 0 0
-7.574826 18.625962 -1.862703 20.193417 -1.184544 1.663171 0.038439 -0.004730 75230.800000 1 0 0
-14.669926 -9.276138 8.666997 19.400265 0.563848 1.107671 0.040104 -0.008773 502604.000000 1 0 0
-13.195126 -13.425138 8.106897 20.495547 0.794038 1.164136 0.042091 -0.009394 -12739.000000 1 0 0
-3.889126 -15.755438 12.773597 20.652455 1.328791 0.903961 0.026027 -0.006874 148500.000000 1 0 0
-1.764426 -14.924238 15.600697 21.661667 1.453117 0.766708 0.016868 -0.002637 559411.000000 1 0 0
-7.582526 -13.689238 13.689997 20.791969 1.064961 0.852069 0.017589 -0.011877 159926.000000 1 0 0
-10.245826 -11.341538 11.663597 19.226204 0.836112 0.918955 0.055146 -0.010826 51661.200000 1 0 0
-7.551426 -10.373638 12.907397 18.199926 0.941561 0.782433 0.029870 -0.019374 299739.000000 1 0 0
-15.152326 -12.373838 6.936197 20.756100 0.684799 1.230065 0.041848 -0.016079 250935.000000 1 0 0
-4.603126 -12.124238 13.364397 18.622380 1.207944 0.770371 0.019949 -0.025165 409620.000000 1 0 0
3.455874 -12.148938 13.727397 18.654254 -1.293658 0.743823 -0.000056 -0.011950 324695.000000 1 0 0
6.370874 -13.663838 14.549997 20.952110 -1.134505 0.803154 0.027774 -0.002190 474116.000000 1 0 0
7.259574 -8.282238 16.734497 20.033479 -0.851104 0.582070 0.035010 -0.008512 348125.000000 1 0 0
-5.093226 13.420862 13.442297 19.666109 -1.208086 0.818214 0.016358 -0.010680 536768.000000 1 0 0
-13.264726 -1.885638 17.689697 22.190853 0.141208 0.648217 0.040637 -0.011608 350875.000000 1 0 0
-10.069526 9.400362 13.064597 18.985411 -0.751043 0.811876 0.018986 -0.012970 514852.000000 1 0 0
-7.305626 -8.271738 17.194497 20.431460 0.847339 0.570614 0.040021 -0.013522 70603.800000 1 0 0
-4.903526 2.090062 18.116897 18.884779 -0.402918 0.286147 0.026149 -0.009401 457365.000000 1 0 0
-15.477626 -3.372138 14.866997 21.724544 0.214519 0.817097 0.061104 -0.017926 6106.800000 1 0 0
-14.677326 3.321362 12.927497 19.838738 -0.222544 0.861066 0.038579 0.005411 268531.000000 1 0 0
-14.914326 10.610162 9.443197 20.595791 -0.618341 1.094488 0.009714 -0.006922 43287.100000 1 0 0
-4.800826 11.104562 15.675397 19.800942 -1.162734 0.657293 0.033549 -0.013578 261351.000000 1 0 0
-13.215926 12.672862 8.472697 20.175448 -0.764424 1.137405 0.018398 -0.029659 43402.400000 1 0 0
-3.862726 -6.279938 18.656497 20.060487 1.019355 0.376350 0.037441 -0.020235 195041.000000 1 0 0
0.627874 -2.708438 18.110097 18.322267 -1.342999 0.152331 0.016291 -0.014327 38948.200000 1 0 0
-4.598726 6.599862 20.980697 22.469893 -0.962227 0.366116 0.054580 -0.013151 375719.000000 1 0 0
2.280174 -10.494838 16.463097 19.656408 -1.356855 0.578025 0.007734 -0.008559 440363.000000 1 0 0
-15.052726 0.031762 13.791097 20.415188 -0.002110 0.829111 0.039403 -0.010242 21070.900000 1 0 0
-13.974626 -5.901838 7.970597 17.136285 0.399603 1.087015 0.024149 -0.000917 -18272.000000 1 0 0
10.253574 0.741162 16.409497 19.363799 0.072158 0.559667 0.060777 0.004625 488708.000000 1 0 0
-7.561926 12.393462 11.537397 18.544329 -1.022944 0.899307 0.018704 -0.020611 144379.000000 1 0 0
-1.798426 7.594362 19.916297 21.390829 -1.338269 0.373470 0.057615 -0.026193 385209.000000 1 0 0
1.162674 -13.330238 15.347097 20.361249 -1.483796 0.717061 -0.005541 -0.018433 561004.000000 1 0 0
-3.515826 -11.403238 17.586397 21.252676 1.271726 0.596172 0.035846 -0.030168 368351.000000 1 0 0
-2.031026 8.853962 16.586497 18.911097 -1.345306 0.501053 0.025689 -0.014106 416254.000000 1 0 0
-5.271026 -9.122238 20.476797 23.028204 1.046844 0.475191 0.089615 -0.037477 221660.000000 1 0 0
-6.680826 -3.043738 19.181197 20.538162 0.427495 0.365544 0.036940 -0.016791 355637.000000 1 0 0
-10.981526 -8.118538 15.964597 21.008877 0.636612 0.707641 0.068475 -0.019223 146587.000000 1 0 0
-0.650926 6.078362 17.788697 18.809783 -1.464114 0.331008 0.036571 -0.015639 -57218.400000 1 0 0
-6.133726 -11.167338 18.893797 22.788322 1.068525 0.593300 0.076029 -0.028808 513650.000000 1 0 0
0.164474 3.103662 18.579997 18.838154 1.517852 0.165743 0.026776 -0.018585 -215718.000000 1 0 0
-18.575126 -0.046138 7.506897 20.034743 0.002484 1.186730 0.060954 -0.018310 150846.000000 1 0 0
-1.908326 -9.000338 17.703197 19.951215 1.361862 0.479286 0.019559 -0.011327 134440.000000 1 0 0
5.445574 3.359962 14.197997 15.573270 0.552831 0.423417 0.014967 -0.005428 17424.600000 1 0 0
-14.218426 -7.055438 10.287297 18.914844 0.460617 0.995749 0.048715 0.000776 146568.000000 1 0 0
3.692874 8.027062 17.296897 19.423020 1.139614 0.472274 0.029383 0.003821 172540.000000 1 0 0
6.472574 4.154062 16.873097 18.543243 0.570585 0.427675 0.043836 -0.041790 247904.000000 1 0 0
5.416274 -9.783938 18.079897 21.258978 -1.065202 0.553938 0.025392 0.006273 307477.000000 1 0 0
-4.583826 -0.583938 20.032297 20.558341 0.126709 0.226706 0.032735 -0.007113 652501.000000 1 0 0
-11.090826 1.823862 17.031597 20.406082 -0.162989 0.583329 0.047060 -0.011334 302163.000000 1 0 0
-16.835526 -4.190638 8.812797 19.459233 0.243959 1.100798 0.042051 -0.009366 303753.000000 1 0 0
-13.026226 -9.727738 12.031097 20.225201 0.641438 0.933709 0.040458 -0.023888 -51045.700000 1 0 0
-14.830026 6.494562 12.677897 20.563027 -0.412774 0.906458 0.041792 -0.024194 46538.000000 1 0 0
1.150074 8.845062 16.844597 19.060384 1.441497 0.486982 0.026849 -0.029472 131263.000000 1 0 0
-3.780826 -10.352238 15.006697 18.618927 1.220629 0.633448 0.030668 -0.017961 552415.000000 1 0 0
-18.821426 -3.161338 6.545497 20.176314 0.166412 1.240403 0.115267 -0.014617 -237355.000000 1 0 0
-1.055026 -0.432938 21.271597 21.302145 0.389404 0.053560 0.037708 -0.010071 334476.000000 1 0 0
-1.780326 2.445762 20.146597 20.372449 -0.941575 0.149042 0.039172 -0.023163 -129581.000000 1 0 0
-8.162526 2.186462 16.376297 18.427983 -0.261722 0.476371 0.013367 0.012193 524732.000000 1 0 0
3.014774 -3.040538 18.469897 18.959716 -0.789653 0.227801 0.026945 -0.013703 -399525.000000 1 0 0
-12.052826 4.450262 14.278997 19.208467 -0.353702 0.732702 0.008213 -0.009115 77373.800000 1 0 0
-13.452526 -5.721938 13.389397 19.823899 0.402161 0.829266 0.036766 -0.004478 40644.500000 1 0 0
-17.398726 -0.973038 9.550197 19.871304 0.055868 1.069455 0.061295 -0.023324 143642.000000 1 0 0
-7.939526 7.326662 14.496797 18.079634 -0.745275 0.640444 0.017115 -0.017838 54157.700000 1 0 0
-9.468526 0.506162 14.014797 16.921103 -0.053406 0.594830 0.012602 0.000345 350121.000000 1 0 0
7.404574 -0.910138 14.970797 16.726651 -0.122302 0.462305 0.020303 -0.005291 201119.000000 1 0 0
4.159774 6.121962 18.402197 19.834894 0.973973 0.382408 0.031024 -0.008392 192683.000000 1 0 0
2.223674 0.217362 19.585997 19.713023 0.097439 0.113584 0.029582 -0.022034 166180.000000 1 0 0
-6.967026 6.912762 17.487597 20.053473 -0.781489 0.511424 0.013733 -0.007686 438943.000000 1 0 0
7.488674 -3.039638 17.008697 18.831235 -0.385581 0.443589 0.024316 0.002042 371743.000000 1 0 0
-16.334826 2.486662 9.387297 19.003457 -0.151071 1.054137 0.038798 -0.013942 197305.000000 1 0 0
3.792774 -6.060438 19.136197 20.428120 -1.011604 0.357548 0.022681 -0.016800 143149.000000 1 0 0
-3.642426 -3.735338 20.635597 21.284922 0.797991 0.247640 0.034903 -0.022168 399044.000000 1 0 0
-9.889426 6.031062 14.362897 18.451755 -0.547630 0.678679 0.029255 -0.005327 -41931.200000 1 0 0
6.825874 2.585162 19.847197 21.146793 0.362037 0.352409 0.072007 -0.020056 87754.400000 1 0 0
-7.086926 11.521362 14.298197 19.682600 -1.019339 0.757671 0.016714 -0.019797 259708.000000 1 0 0
-14.545026 5.009062 8.921297 17.783082 -0.331662 1.045264 0.018672 -0.018537 248061.000000 1 0 0
0.352674 -5.723438 20.402897 21.193403 -1.509255 0.273985 0.029694 -0.022475 16273.800000 1 0 0
-5.881926 -8.362038 13.799397 17.173936 0.957787 0.637631 0.014056 -0.005266 270178.000000 1 0 0
-12.885026 10.225162 6.347797 17.631573 -0.670808 1.202502 -0.003871 -0.022644 130847.000000 1 0 0
-19.441426 2.190762 7.668097 21.013524 -0.112212 1.197258 0.051219 -0.019359 6879.100000 1 0 0
-15.454826 9.063962 6.505597 19.061213 -0.530420 1.222496 0.009608 -0.023141 90373.600000 1 0 0
-12.702326 6.930862 14.276497 20.327427 -0.499488 0.792135 0.028126 -0.015722 96110.400000 1 0 0
-16.466226 8.932262 10.651497 21.549392 -0.497036 1.053787 0.037354 -0.020853 525830.000000 1 0 0
2.619974 10.369762 15.233497 18.613320 1.323320 0.612142 0.022973 -0.023293 325806.000000 1 0 0
1.599574 14.552362 12.550697 19.283409 1.461317 0.862087 0.019621 -0.025412 455549.000000 1 0 0
8.804874 4.992862 16.729897 19.553617 0.515844 0.544105 0.039179 -0.002859 12421.700000 1 0 0
-0.214526 13.248762 13.492997 18.911285 -1.554606 0.776331 0.005450 0.008901 346829.000000 1 0 0
4.421474 13.992462 14.922497 20.928912 1.264735 0.777016 0.041181 0.020797 164659.000000 1 0 0
-3.679226 -4.453638 -13.283203 14.484995 0.880332 2.731370 0.004341 -0.007022 155468.000000 1 0 0
5.838374 -12.508838 16.603497 21.592447 -1.134109 0.693600 0.011187 0.012655 143029.000000 1 0 0
8.539474 -13.891238 7.469797 17.935635 -1.019610 1.141228 0.019962 -0.005473 75474.700000 1 0 0
-0.409326 15.190762 0.371397 15.200813 -1.543857 1.546361 -0.002786 -0.003121 -358996.000000 1 0 0
-14.161326 7.626962 8.600297 18.239485 -0.494031 1.079782 0.015083 -0.014561 166509.000000 1 0 0
-16.204926 -9.676338 4.565697 19.418464 0.538302 1.333453 0.040497 -0.011308 263512.000000 1 0 0
8.642474 -10.725738 11.399797 17.879854 -0.892547 0.879446 0.003446 -0.001485 82846.300000 1 0 0
-26.305256 5.889662 31.327446 41.328725 -0.220264 0.710545 0.079128 -0.028763 320921.000000 0 0 1
-25.038296 5.452962 30.827926 40.087555 -0.214436 0.693498 0.075333 -0.020904 -127826.000000 0 0 1
-24.069926 5.538162 31.796115 40.261961 -0.226150 0.660426 0.065273 -0.016101 -335339.000000 0 0 1
-22.724926 4.931862 31.309436 39.000337 -0.213710 0.638821 0.067620 -0.020393 -28027.300000 0 0 1
-22.627326 3.565062 31.580346 39.013123 -0.156271 0.627530 0.050824 -0.020332 -69490.500000 0 0 1
-21.428626 3.059562 31.045466 37.846636 -0.141821 0.608867 0.053537 -0.014872 -154686.000000 0 0 1
-20.841226 1.863662 31.791196 38.059297 -0.089185 0.582105 0.045739 -0.006966 -65771.200000 0 0 1
-21.714126 0.759562 31.899445 38.596046 -0.034966 0.597943 0.049405 0.002324 224623.000000 0 0 1
-21.058226 -0.281238 32.590720 38.803131 0.013354 0.573699 0.044311 0.005886 19226.800000 0 0 1
-21.854226 -1.609938 32.616299 39.294046 0.073534 0.591586 0.066002 -0.020712 -244235.000000 0 0 1
-21.639526 -2.396538 31.448246 38.249244 0.110299 0.605544 0.083437 -0.021962 168112.000000 0 0 1
-22.016526 -3.767338 31.564056 38.667944 0.169473 0.615846 0.088642 -0.029052 657208.000000 0 0 1
-23.542926 -3.983738 31.182916 39.274849 0.167624 0.653491 0.069869 -0.028709 1680050.000000 0 0 1
-24.567326 -3.726638 32.180120 40.657121 0.150543 0.657537 0.054862 -0.023414 799424.000000 0 0 1
-24.512426 -4.531538 33.317752 41.610894 0.182803 0.642337 0.048548 -0.025941 -598097.000000 0 0 1
-25.740356 -4.256938 -33.613403 42.550538 0.163896 2.481547 0.053316 -0.019858 187206.000000 0 0 1
-25.678266 -4.753938 -32.299503 41.535902 0.183062 2.461681 0.056587 -0.014628 316364.000000 0 0 1
-26.883606 -4.418438 -31.631773 41.747095 0.162898 2.430578 0.070177 -0.012258 6356.450000 0 0 1
-27.031206 -4.860938 -30.152453 40.785846 0.177925 2.402808 0.060385 0.000133 -388308.000000 0 0 1
-27.271986 -6.222238 -30.019193 41.032053 0.224315 2.391467 0.056940 -0.007717 428707.000000 0 0 1
-26.784686 -6.676438 -28.786973 39.883380 0.244285 2.377165 0.049296 0.001238 -390916.000000 0 0 1
-26.995986 -8.199038 -28.547363 40.136759 0.294860 2.362074 0.054531 -0.007570 765211.000000 0 0 1
-28.373306 -8.607038 -28.583933 41.184546 0.294527 2.337889 0.073849 -0.010207 593214.000000 0 0 1
-28.486756 -9.885138 -28.012943 41.157456 0.334007 2.319417 0.079437 -0.012315 927584.000000 0 0 1
-29.975936 -10.297738 -27.720053 42.107024 0.330902 2.289386 0.122080 -0.014874 771501.000000 0 0 1
-30.215356 -11.303638 -26.720163 41.889224 0.357984 2.262534 0.130018 -0.018068 298195.000000 0 0 1
-31.577146 -11.373438 -26.287053 42.631917 0.345714 2.235219 0.130262 -0.023333 322595.000000 0 0 1
-31.714156 -12.056038 -24.923903 42.099129 0.363275 2.204370 0.130243 -0.020966 -15475.400000 0 0 1
-31.226676 -11.217738 -23.877703 40.878939 0.344879 2.194577 0.132481 -0.021388 232452.000000 0 0 1
-31.132536 -12.005238 -22.701703 40.357500 0.368046 2.168221 0.129655 -0.026695 -255490.000000 0 0 1
-30.582096 -11.179938 -21.484303 39.010651 0.350479 2.154034 0.139393 -0.034810 34884.400000 0 0 1
-30.600846 -11.722738 -20.204003 38.497222 0.365840 2.123297 0.138752 -0.026813 404296.000000 0 0 1
-29.654776 -12.780238 -20.032303 38.000439 0.406914 2.126051 0.125278 -0.030092 108706.000000 0 0 1
-29.197356 -12.990338 -18.581403 36.966241 0.418617 2.097468 0.134954 -0.038031 68162.300000 0 0 1
-28.768366 -11.792338 -17.957903 35.904935 0.389017 2.094570 0.133558 -0.042177 162028.000000 0 0 1
-28.365366 -12.007238 -16.609003 34.994667 0.400435 2.065323 0.130421 -0.044342 175090.000000 0 0 1
-27.566996 -10.762738 -16.069603 33.675034 0.372222 2.068258 0.125627 -0.039889 -1230940.000000 0 0 1
-26.207016 -10.700338 -16.218403 32.624247 0.387641 2.091081 0.119191 -0.045532 -1109670.000000 0 0 1
-25.928846 -9.331538 -15.924103 31.827028 0.345458 2.094779 0.113769 -0.046841 413974.000000 0 0 1
-24.426626 -8.897838 -15.902803 30.475083 0.349329 2.119791 0.119970 -0.047751 523542.000000 0 0 1
-23.696826 -9.412238 -14.827403 29.495451 0.378085 2.097517 0.126174 -0.053887 -288353.000000 0 0 1
-22.432426 -8.823138 -14.692003 28.229708 0.374735 2.118168 0.144221 -0.068108 -96167.200000 0 0 1
-21.518526 -9.478538 -13.609703 27.168247 0.414911 2.095483 0.129426 -0.049918 -99529.400000 0 0 1
-20.629126 -10.500838 -13.988703 27.046483 0.470845 2.114384 0.122686 -0.037603 16335.600000 0 0 1
-19.436426 -10.326038 -13.250003 25.689770 0.488351 2.112702 0.119247 -0.029912 -148698.000000 0 0 1
-18.337326 -11.311138 -13.723703 25.544850 0.552708 2.137957 0.105344 -0.027094 -213954.000000 0 0 1
-17.714126 -10.930938 -14.900003 25.598550 0.552880 2.192061 0.117911 -0.029359 -407284.000000 0 0 1
-18.434826 -11.222438 -16.033803 26.886219 0.546838 2.209752 0.110947 -0.034149 -691131.000000 0 0 1
-17.666226 -10.823738 -17.302203 26.992871 0.549691 2.266586 0.109000 -0.035764 -263896.000000 0 0 1
-18.207426 -11.302238 -18.494903 28.307461 0.555536 2.282808 0.084148 -0.021829 125744.000000 0 0 1
-17.887026 -10.441638 -19.582003 28.503128 0.528389 2.328166 0.086642 -0.028638 262148.000000 0 0 1
-18.865626 -10.746038 -20.759903 30.039353 0.517774 2.333793 0.102307 -0.025484 -96390.100000 0 0 1
-20.035426 -10.002038 -20.887603 30.622720 0.463022 2.321420 0.076828 -0.032258 -133947.000000 0 0 1
-20.835626 -10.619438 -21.890103 32.032364 0.471359 2.323171 0.091695 -0.021990 680063.000000 0 0 1
-22.084426 -9.846738 -22.388503 32.953379 0.419412 2.317740 0.080762 -0.021126 695917.000000 0 0 1
-21.571426 -8.713038 -23.156203 32.824582 0.383877 2.353859 0.072594 -0.034319 508479.000000 0 0 1
-22.569426 -8.037338 -23.882203 33.828056 0.342113 2.354614 0.071901 -0.032480 -172253.000000 0 0 1
-21.933426 -7.142338 -24.959803 33.986467 0.314808 2.395585 0.067711 -0.034312 -414496.000000 0 0 1
-21.183926 -7.914938 -25.811743 34.316920 0.357569 2.422127 0.081337 -0.039746 -603673.000000 0 0 1
-20.596026 -7.170938 -26.780733 34.537317 0.335044 2.458167 0.064629 -0.047430 -510381.000000 0 0 1
-19.379926 -7.808138 -27.477903 34.519323 0.383002 2.491479 0.086854 -0.049282 -355642.000000 0 0 1
-19.659026 -9.056338 -28.081313 35.454967 0.431692 2.484920 0.089134 -0.044891 181990.000000 0 0 1
-18.569026 -9.571438 -28.824643 35.598893 0.475933 2.514448 0.072494 -0.035520 -46969.600000 0 0 1
-18.966626 -10.824338 -29.641943 36.817713 0.518600 2.506640 0.079971 -0.032741 -58840.700000 0 0 1
-19.398326 -10.519438 -30.969693 38.027299 0.496901 2.522503 0.074301 -0.029217 271983.000000 0 0 1
-19.508226 -11.671138 -31.811073 39.098986 0.539145 2.521120 0.066385 -0.026695 -225929.000000 0 0 1
-20.027826 -11.467438 -33.236163 40.463051 0.520010 2.534650 0.057770 -0.020394 -98132.400000 0 0 1
-19.314626 -10.533038 33.816606 40.343060 0.499258 0.576774 0.057825 -0.017929 -12872.300000 0 0 1
-19.634226 -10.636838 32.446769 39.388297 0.496487 0.602773 0.051555 -0.021790 -196590.000000 0 0 1
-19.089026 -11.833938 31.681666 38.835048 0.554948 0.616684 0.058291 -0.021286 -984968.000000 0 0 1
-17.730226 -11.781238 31.390446 37.927808 0.586482 0.595912 0.068168 -0.022668 -635693.000000 0 0 1
-17.215326 -12.584138 30.386056 37.121966 0.631220 0.611920 0.083722 -0.025027 -99545.400000 0 0 1
-17.393926 -14.188638 30.546696 37.907344 0.684255 0.633728 0.077456 -0.014521 -462902.000000 0 0 1
-18.710926 -14.670838 30.338016 38.545135 0.664957 0.664739 0.057030 -0.016302 110732.000000 0 0 1
-18.875326 -16.025238 30.770566 39.495746 0.703916 0.677590 0.074564 -0.016765 -64451.900000 0 0 1
-19.161126 -16.233838 32.298123 40.912773 0.702882 0.660902 0.053821 -0.022117 -682918.000000 0 0 1
-18.154026 -15.856638 33.169940 41.003007 0.717952 0.628409 0.075728 -0.019644 -268465.000000 0 0 1
-18.672726 -15.708638 -33.349243 41.323165 0.699399 2.509910 0.061227 -0.018366 -240079.000000 0 0 1
-17.543526 -15.157638 -32.530633 39.947107 0.712567 2.522392 0.083994 -0.020374 -560289.000000 0 0 1
-17.332926 -13.838138 -32.969493 39.735524 0.673748 2.549408 0.081912 -0.018825 -722849.000000 0 0 1
-16.051726 -13.336138 -32.750263 38.834137 0.693255 2.574259 0.078518 -0.017581 -363029.000000 0 0 1
-15.710626 -12.872038 -31.329433 37.336932 0.686411 2.566424 0.090928 -0.019694 -278363.000000 0 0 1
-15.717226 -13.940938 -30.399723 36.952998 0.725578 2.536869 0.081970 -0.026237 -138753.000000 0 0 1
-16.048726 -13.530138 -29.063923 35.851609 0.700455 2.516097 0.066010 -0.019561 -159999.000000 0 0 1
-16.414026 -14.686138 -28.123353 35.721504 0.729896 2.477205 0.088493 -0.011746 426195.000000 0 0 1
-15.299726 -15.441538 -27.658913 35.178661 0.790011 2.475499 0.095604 -0.029866 -125576.000000 0 0 1
-14.617526 -16.185438 -28.603233 35.969228 0.836256 2.490157 0.093838 -0.032624 -105483.000000 0 0 1
-13.298726 -16.798738 -28.034883 35.284676 0.901167 2.489036 0.113725 -0.031606 -201975.000000 0 0 1
-12.190626 -15.976738 -28.146653 34.584702 0.919012 2.521538 0.093242 -0.036074 -488096.000000 0 0 1
-11.023426 -16.704938 -27.758183 34.221157 0.987500 2.516897 0.112987 -0.044072 788117.000000 0 0 1
-9.686826 -16.013738 -28.127723 33.785251 1.026776 2.554481 0.092604 -0.048707 318240.000000 0 0 1
-9.515626 -14.726538 -27.571253 32.674027 0.997129 2.575173 0.082024 -0.027516 403943.000000 0 0 1
-8.185926 -14.233538 -27.805293 32.291443 1.048875 2.608173 0.088691 -0.028453 687865.000000 0 0 1
-8.115726 -12.669438 -27.710793 31.532011 1.001075 2.644169 0.066388 -0.030524 -26858.200000 0 0 1
-8.567126 -12.024938 -28.915813 32.467199 0.951766 2.669495 0.094751 -0.030489 234201.000000 0 0 1
-8.262026 -10.646238 -28.908743 31.895436 0.910830 2.705384 0.073940 -0.025012 -571474.000000 0 0 1
-7.338726 -10.310838 -30.045453 32.602140 0.952229 2.742925 0.075210 -0.017427 -975752.000000 0 0 1
-6.043726 -10.852638 -29.863613 32.344115 1.062679 2.747405 0.080840 -0.020409 531723.000000 0 0 1
-5.124826 -10.574238 -30.937173 33.093610 1.119502 2.778600 0.084983 -0.020590 506090.000000 0 0 1
-4.770726 -9.075038 -31.228803 32.868743 1.086803 2.824373 0.078447 -0.019939 -637742.000000 0 0 1
-3.476026 -8.821038 -31.744583 33.130228 1.195420 2.851355 0.087484 -0.034933 254464.000000 0 0 1
-3.483126 -7.451738 -32.118103 33.154684 1.133547 2.890876 0.082837 -0.033223 -800762.000000 0 0 1
-2.147626 -6.904838 -32.543143 33.336845 1.269249 2.922944 0.094052 -0.034836 -794078.000000 0 0 1
-1.632126 -7.429638 -33.746123 34.592834 1.354553 2.919886 0.103565 -0.038172 -271701.000000 0 0 1
-0.499426 -6.711338 33.677610 34.343455 1.496518 0.197235 0.112373 -0.032657 -33195.800000 0 0 1
0.120374 -7.231238 32.325060 33.124233 -1.554151 0.220110 0.103206 -0.034117 166595.000000 0 0 1
-0.585026 -6.956038 31.081966 31.856198 1.486891 0.220921 0.094111 -0.030468 48905.500000 0 0 1
0.244174 -7.220238 29.978086 30.836295 -1.536991 0.236479 0.077860 -0.037307 -71449.200000 0 0 1
-0.217526 -6.707838 28.587096 29.364340 1.538379 0.230593 0.064077 -0.026307 -94027.400000 0 0 1
0.106174 -5.336838 28.511496 29.006870 -1.550904 0.185076 0.071332 -0.037753 132169.000000 0 0 1
-0.032026 -4.825038 27.217496 27.641891 1.564159 0.175458 0.077056 -0.024473 -877555.000000 0 0 1
-1.274626 -3.999438 26.955796 27.280673 1.262272 0.154482 0.052018 -0.010418 -405693.000000 0 0 1
-2.453326 -4.761138 27.034496 27.559957 1.094999 0.195586 0.037830 -0.003694 557926.000000 0 0 1
-3.642426 -4.034038 26.616306 27.165575 0.836369 0.201434 0.030136 -0.012428 1530910.000000 0 0 1
-4.957726 -4.762838 27.065306 27.924800 0.765352 0.248749 0.034885 -0.005267 494562.000000 0 0 1
-5.248926 -5.942738 26.340226 27.507724 0.847313 0.292391 0.032360 -0.005122 81756.100000 0 0 1
-6.536326 -6.387438 26.754106 28.271985 0.773878 0.329168 0.032414 -0.008498 584568.000000 0 0 1
-6.700526 -7.870138 26.585586 28.524192 0.865498 0.370804 0.041677 -0.011570 -197505.000000 0 0 1
-5.750126 -8.576638 27.303246 29.190579 0.980186 0.361565 0.039413 -0.018488 -466309.000000 0 0 1
-5.952026 -9.975438 27.336776 29.702446 1.032830 0.401811 0.032697 -0.021613 -106562.000000 0 0 1
-5.325326 -10.584438 28.560166 30.920422 1.104650 0.393255 0.030072 -0.023130 -147513.000000 0 0 1
-5.460526 -11.990638 28.582846 31.473351 1.143462 0.431928 0.055153 -0.035275 106051.000000 0 0 1
-4.846726 -12.453338 29.791746 32.651562 1.199643 0.421652 0.065468 -0.037595 42909.500000 0 0 1
-5.033326 -13.969938 29.970156 33.447030 1.224978 0.460009 0.088451 -0.049288 282825.000000 0 0 1
-6.314826 -14.504538 29.634076 33.592218 1.160176 0.490344 0.113829 -0.054779 153824.000000 0 0 1
-6.367526 -15.944338 29.703866 34.308701 1.190842 0.524085 0.095030 -0.052638 66398.100000 0 0 1
-6.467926 -16.443538 31.183426 35.841737 1.196043 0.515531 0.114573 -0.050131 -909367.000000 0 0 1
-7.704426 -16.235938 31.759036 36.491098 1.127732 0.514939 0.111599 -0.047582 -942664.000000 0 0 1
-7.754026 -16.624538 33.106522 37.848937 1.134371 0.505977 0.108385 -0.037731 -304727.000000 0 0 1
-9.174726 -16.864038 33.664239 38.753740 1.072540 0.518284 0.124354 -0.032883 388116.000000 0 0 1
-9.885826 -18.027338 33.246303 39.090039 1.069198 0.553850 0.134103 -0.039381 299797.000000 0 0 1
-10.297126 -18.105938 31.881048 38.082240 1.053698 0.578721 0.135718 -0.042000 -617579.000000 0 0 1
-11.051326 -19.407038 31.639496 38.727544 1.053143 0.614648 0.141266 -0.038549 613400.000000 0 0 1
-12.338926 -19.608938 32.256809 39.714749 1.009147 0.622862 0.123366 -0.025732 1007700.000000 0 0 1
-12.757126 -20.954038 32.265353 40.532320 1.023921 0.650072 0.113000 -0.023552 56715.600000 0 0 1
-12.112926 -21.905838 33.330376 41.683362 1.065688 0.644153 0.119628 -0.018703 -58230.300000 0 0 1
-10.717826 -22.106438 33.292816 41.376056 1.119360 0.635728 0.113854 -0.015591 126247.000000 0 0 1
-10.077526 -22.802838 -33.475943 41.739246 1.154664 2.501475 0.113141 -0.018525 332937.000000 0 0 1
-10.543526 -24.298538 -33.380903 42.613021 1.161398 2.470833 0.108969 -0.009654 -223465.000000 0 0 1
-10.064926 -25.086978 33.405307 42.971779 1.189255 0.680310 0.100942 -0.002875 -45635.000000 0 0 1
-10.357426 -26.459048 33.468402 43.903205 1.197681 0.703902 0.119598 -0.011924 -606736.000000 0 0 1
-9.549226 -27.176178 32.298222 43.277102 1.232891 0.728292 0.101356 -0.014343 -279.556000 0 0 1
-8.171826 -27.017088 32.368900 42.947031 1.277076 0.717132 0.114252 -0.025299 -243689.000000 0 0 1
-7.414526 -27.734908 33.377143 44.025379 1.309570 0.710349 0.119908 -0.030629 352396.000000 0 0 1
-5.873826 -27.668858 33.154922 43.581147 1.361612 0.706308 0.136930 -0.041490 293117.000000 0 0 1
-5.329126 -26.522568 33.697550 43.213089 1.372509 0.676451 0.136116 -0.025079 -90968.700000 0 0 1
-4.981426 -25.488488 32.758704 41.804429 1.377791 0.670328 0.152057 -0.017632 17645.200000 0 0 1
-4.492226 -24.212838 33.459902 41.545237 1.387351 0.634472 0.133394 -0.024649 -165019.000000 0 0 1
-3.350026 -24.268538 -33.578143 41.565326 1.433623 2.511275 0.133610 -0.040259 -340599.000000 0 0 1
-2.986926 -23.010238 -33.034963 40.369562 1.441710 2.529267 0.108726 -0.035209 154041.000000 0 0 1
34.713331 -15.903938 2.918197 38.294470 -0.429611 1.494518 0.198419 -0.073701 -230977.000000 0 0 1
35.773941 -15.763238 3.812397 39.278351 -0.415038 1.473582 0.187650 -0.067341 -326081.000000 0 0 1
35.484651 -16.306338 5.120797 39.386288 -0.430753 1.440413 0.160065 -0.073615 -124033.000000 0 0 1
36.633421 -16.464538 6.144497 40.630572 -0.422388 1.418985 0.136474 -0.052840 -173289.000000 0 0 1
-37.352146 -17.378138 5.706697 41.590250 0.435464 1.433150 0.137506 -0.050292 89177.900000 0 0 1
-36.184476 -17.307638 6.514597 40.636321 0.446151 1.409787 0.132018 -0.035268 -341157.000000 0 0 1
-35.115227 -18.306938 6.287197 40.096783 0.480573 1.413346 0.105741 -0.029120 -1013210.000000 0 0 1
-35.550150 -19.571538 6.653897 41.123383 0.503252 1.408279 0.096696 -0.034036 407905.000000 0 0 1
-34.410042 -20.346038 6.976497 40.579351 0.533985 1.398016 0.087481 -0.026695 156925.000000 0 0 1
-34.739184 -21.860638 7.134497 41.660526 0.561670 1.398695 0.099032 -0.023476 -219104.000000 0 0 1
-34.586998 -22.520838 5.914197 41.694439 0.577173 1.428470 0.109018 -0.027467 395156.000000 0 0 1
-35.067355 -23.867238 5.967297 42.836586 0.597595 1.431038 0.115765 -0.028392 59781.900000 0 0 1
-34.289171 -24.813238 5.019797 42.622088 0.626420 1.452748 0.122341 -0.025628 18297.400000 0 0 1
-34.467733 -24.540138 3.649197 42.468337 0.618717 1.484763 0.112004 -0.021380 319363.000000 0 0 1
-33.667186 -25.445548 2.888597 42.300110 0.647201 1.502455 0.094928 -0.019192 16396.600000 0 0 1
-33.976476 -25.352098 1.394797 42.415507 0.641043 1.537906 0.098592 -0.022491 211804.000000 0 0 1
-35.250588 -25.932618 1.054597 43.774613 0.634263 1.546702 0.063205 -0.017252 935905.000000 0 0 1
-35.842078 -25.215118 -0.030203 43.823026 0.613075 1.571486 0.050230 -0.017635 -360711.000000 0 0 1
-36.633206 -23.964738 0.251097 43.776289 0.579309 1.565060 0.047542 -0.017936 -765621.000000 0 0 1
36.923221 -24.187138 0.435597 44.142175 -0.579928 1.560928 0.048965 -0.009645 77871.100000 0 0 1
36.347811 -22.872838 0.639997 42.950433 -0.561669 1.555895 0.066094 -0.019921 311466.000000 0 0 1
34.797861 -22.917538 0.734397 41.673061 -0.582391 1.553173 0.101325 -0.020137 307422.000000 0 0 1
34.243881 -22.925938 -0.577303 41.213776 -0.589955 1.584804 0.095882 -0.022550 201857.000000 0 0 1
32.825071 -22.901138 -0.424703 40.026588 -0.609162 1.581407 0.095008 -0.025025 636790.000000 0 0 1
32.138871 -22.626238 -1.799803 39.345812 -0.613415 1.616555 0.112211 -0.020457 15538.200000 0 0 1
32.449301 -21.352838 -2.320803 38.913840 -0.582004 1.630471 0.138989 -0.029279 57615.000000 0 0 1
32.094601 -21.248938 -3.679903 38.666813 -0.584815 1.666110 0.136224 -0.038598 -71929.700000 0 0 1
32.014601 -19.818238 -4.115103 37.876527 -0.554300 1.679656 0.143333 -0.039623 386160.000000 0 0 1
30.912221 -19.185138 -3.478603 36.547717 -0.555453 1.666120 0.153000 -0.046236 243649.000000 0 0 1
30.879251 -17.797438 -3.835103 35.846687 -0.522853 1.677988 0.148460 -0.041809 -353470.000000 0 0 1
29.816141 -17.070938 -3.019803 34.489685 -0.519984 1.658465 0.143382 -0.035101 -731383.000000 0 0 1
29.991681 -16.739738 -1.660103 34.387144 -0.509076 1.619092 0.143137 -0.038286 -219808.000000 0 0 1
30.522691 -17.687838 -0.770803 35.285810 -0.525208 1.592643 0.138144 -0.032682 -339142.000000 0 0 1
29.718041 -18.984038 -0.522603 35.267957 -0.568465 1.585615 0.128851 -0.036728 -967462.000000 0 0 1
28.487141 -18.743138 0.041597 34.100207 -0.581944 1.569576 0.108615 -0.017367 -1046110.000000 0 0 1
27.844641 -19.932038 0.384197 34.245551 -0.621272 1.559577 0.102379 -0.017099 -590081.000000 0 0 1
26.573341 -19.700938 1.195597 33.101342 -0.637961 1.534669 0.102466 -0.012166 -758946.000000 0 0 1
25.890141 -20.908638 1.612197 33.317709 -0.679352 1.522389 0.096535 -0.012742 585461.000000 0 0 1
24.818541 -20.704638 2.512897 32.418462 -0.695274 1.493204 0.068832 -0.005246 221672.000000 0 0 1
23.476741 -20.144838 1.990297 30.998922 -0.709164 1.506547 0.042991 -0.004908 -567723.000000 0 0 1
23.448141 -18.775538 1.693397 30.086604 -0.675184 1.514482 0.068586 -0.018539 252067.000000 0 0 1
23.391041 -17.922038 2.821097 29.602345 -0.653784 1.475352 0.096437 -0.021785 -226457.000000 0 0 1
23.382441 -16.430238 2.415497 28.679712 -0.612518 1.486473 0.081095 -0.010700 125593.000000 0 0 1
22.101441 -16.122738 1.898397 27.422988 -0.630244 1.501514 0.074179 -0.012899 9632.590000 0 0 1
22.129541 -14.858838 1.220097 26.683146 -0.591306 1.525055 0.092527 -0.021701 692558.000000 0 0 1
20.707041 -14.446638 0.693497 25.258025 -0.609159 1.543336 0.091271 -0.019325 750135.000000 0 0 1
19.728041 -14.445538 1.731897 24.512622 -0.632033 1.500084 0.090098 -0.016070 276381.000000 0 1 0
18.704141 -13.497938 1.527297 23.116484 -0.625112 1.504679 0.108767 -0.020945 -54093.600000 0 1 0
19.069541 -12.047738 2.013597 22.646191 -0.563459 1.481763 0.117833 -0.024897 -297283.000000 0 1 0
19.833441 -11.349438 1.040297 22.874819 -0.519756 1.525303 0.120166 -0.031790 306043.000000 0 1 0
20.259841 -10.170638 1.614597 22.726855 -0.465254 1.499693 0.135845 -0.028987 -543323.000000 0 1 0
21.281241 -9.411138 0.745597 23.281251 -0.416371 1.538765 0.158696 -0.034275 -299316.000000 0 1 0
20.758941 -8.930238 -0.426403 22.602314 -0.406256 1.589663 0.170100 -0.029739 544568.000000 0 1 0
21.787141 -8.302938 -1.170703 23.344996 -0.364102 1.620965 0.166024 -0.029123 -78037.300000 0 1 0
21.283341 -7.823638 -2.569703 22.820896 -0.352262 1.683639 0.204175 -0.028622 379441.000000 0 1 0
22.299141 -7.369338 -3.480303 23.741763 -0.319177 1.717916 0.215468 -0.033164 1054110.000000 0 1 0
23.246041 -8.300638 -4.043903 25.012640 -0.342966 1.733183 0.187271 -0.028349 -312225.000000 0 0 1
22.770641 -9.578938 -4.813703 25.168033 -0.398198 1.763245 0.157840 -0.026714 -621063.000000 0 0 1
22.146441 -9.332838 -6.085603 24.791153 -0.398830 1.818806 0.146774 -0.026859 -48687.800000 0 1 0
20.796841 -8.975338 -6.015603 23.436142 -0.407424 1.830382 0.157004 -0.025121 -792150.000000 0 1 0
20.120641 -8.987638 -7.412403 23.249979 -0.420096 1.895274 0.142913 -0.024682 -303705.000000 0 1 0
20.003441 -10.200738 -8.100003 23.870541 -0.471575 1.917001 0.132978 -0.019859 282915.000000 0 1 0
21.119841 -10.475338 -8.910503 25.202727 -0.460439 1.932163 0.109361 -0.015249 -215749.000000 0 0 1
20.948941 -11.843738 -9.595903 25.907790 -0.514561 1.950222 0.091382 -0.015018 -200246.000000 0 0 1
19.941641 -11.863138 -10.571103 25.498065 -0.536656 1.998283 0.119867 -0.024880 -23426.800000 0 0 1
19.733441 -13.204738 -10.861303 26.110184 -0.589724 1.999816 0.114495 -0.023661 -250583.000000 0 0 1
18.625041 -13.519138 -11.872203 25.896109 -0.627870 2.047052 0.132935 -0.027663 -132567.000000 0 0 1
18.251341 -14.872438 -11.962303 26.408286 -0.683741 2.040896 0.117363 -0.026902 316839.000000 0 0 1
17.483541 -15.177438 -13.107603 26.605227 -0.714908 2.085952 0.124466 -0.028131 -349387.000000 0 0 1
17.352841 -16.667238 -13.402503 27.541696 -0.765248 2.079020 0.098647 -0.030642 -49875.900000 0 0 1
16.557441 -17.449938 -12.491103 27.104923 -0.811636 2.049741 0.094150 -0.026870 514112.000000 0 0 1
16.631441 -18.878238 -12.796003 28.226413 -0.848587 2.041299 0.089648 -0.026491 -104702.000000 0 0 1
15.598641 -19.714638 -11.988103 27.851376 -0.901431 2.015767 0.085032 -0.031634 -153990.000000 0 0 1
14.318841 -19.620338 -12.541803 27.336490 -0.940352 2.047433 0.088409 -0.040395 -453267.000000 0 0 1
13.339641 -20.260238 -11.726003 26.942947 -0.988528 2.021075 0.092191 -0.039062 -714336.000000 0 0 1
11.951841 -19.913038 -12.189703 26.229076 -1.030228 2.054137 0.094186 -0.044223 -1064120.000000 0 0 1
10.983141 -20.320538 -11.255403 25.695092 -1.075280 2.024210 0.102273 -0.054760 -1018950.000000 0 0 1
9.715141 -20.280338 -11.815803 25.402545 -1.124055 2.054592 0.086766 -0.046872 -264164.000000 0 0 1
8.585641 -20.828638 -10.886903 25.021392 -1.179814 2.020950 0.072625 -0.044915 196884.000000 0 0 1
8.568341 -22.228738 -10.628503 26.086363 -1.202885 1.990440 0.090522 -0.044054 364677.000000 0 0 1
7.463441 -22.631138 -9.801603 25.767087 -1.252241 1.961017 0.087093 -0.041080 432505.000000 0 0 1
7.478541 -24.173438 -9.680103 27.092214 -1.270765 1.936174 0.083491 -0.039276 242273.000000 0 0 1
8.683241 -24.596638 -9.076603 27.618436 -1.231429 1.905663 0.086306 -0.026652 -392314.000000 0 0 1
8.881741 -25.917208 -9.513203 29.001518 -1.240643 1.905008 0.072279 -0.030531 213855.000000 0 0 1
10.374841 -26.314458 -9.481303 29.832585 -1.195245 1.894223 0.071688 -0.025441 112504.000000 0 0 1
10.823341 -26.695438 -8.198603 29.950095 -1.185611 1.848078 0.076745 -0.022745 -705620.000000 0 0 1
12.155841 -27.104358 -8.243503 30.828007 -1.149205 1.841493 0.106059 -0.015368 -565762.000000 0 0 1
12.709041 -27.615078 -6.853703 31.162245 -1.139475 1.792545 0.093073 -0.016314 149226.000000 0 0 1
12.240141 -28.871218 -6.318003 31.988833 -1.169810 1.769610 0.092883 -0.026457 -542015.000000 0 0 1
10.877841 -29.149558 -6.370703 31.758621 -1.213628 1.772764 0.088142 -0.019306 -719372.000000 0 0 1
10.348941 -30.179508 -5.334403 32.347475 -1.240449 1.736462 0.093215 -0.005272 351895.000000 0 0 1
10.837841 -31.528518 -5.541103 33.796598 -1.239703 1.735494 0.107273 -0.025155 56646.800000 0 0 1
9.954741 -32.148928 -6.455503 34.268411 -1.270515 1.760309 0.106243 -0.033751 308366.000000 0 0 1
9.970641 -33.739208 -6.463403 35.770427 -1.283454 1.752486 0.102247 -0.032578 -348942.000000 0 0 1
9.295141 33.537762 -5.407403 35.219612 1.300428 1.724940 0.094286 -0.029729 -282082.000000 0 0 1
9.815941 32.194576 -5.154503 34.050144 1.274855 1.722760 0.095991 -0.023046 76709.400000 0 0 1
9.126141 31.567496 -3.903803 33.091281 1.289370 1.689042 0.081831 -0.022085 87050.700000 0 0 1
7.826341 31.115616 -4.185603 32.356644 1.324383 1.700518 0.079490 -0.020508 -870772.000000 0 0 1
7.362241 30.260026 -3.182903 31.304993 1.332134 1.672646 0.056371 -0.017426 70113.900000 0 0 1
6.037441 29.611006 -3.661103 30.441189 1.369661 1.691356 0.055847 -0.020360 23608.500000 0 0 1
6.073041 28.958026 -4.911503 29.992865 1.364074 1.735293 0.059503 -0.031106 -6911.640000 0 0 1
5.722741 29.835436 -6.013403 30.968758 1.381288 1.766214 0.051353 -0.026520 -257071.000000 0 0 1
5.934641 29.192256 -7.402603 30.695379 1.370234 1.814361 0.070020 -0.028175 281949.000000 0 0 1
5.077841 28.113086 -7.847103 29.626121 1.392101 1.838867 0.076780 -0.029418 366876.000000 0 0 1
5.458941 26.832446 -7.262803 28.328934 1.370090 1.830065 0.069584 -0.028163 -337853.000000 0 0 1
4.528141 25.641576 -7.575403 27.117913 1.396005 1.853914 0.069493 -0.032404 -192589.000000 0 0 1
3.168241 25.814256 -7.216003 26.990447 1.448675 1.841442 0.066212 -0.025402 38224.500000 0 0 1
2.298641 26.413846 -8.162703 27.741750 1.483991 1.869455 0.078222 -0.027542 -69153.900000 0 0 1
1.853341 25.503196 -9.287703 27.204950 1.498253 1.919200 0.090529 -0.034206 -225416.000000 0 0 1
2.894741 25.230206 -10.232403 27.379643 1.456563 1.953816 0.083924 -0.033792 520023.000000 0 0 1
2.445541 24.426916 -11.315003 27.031170 1.471012 2.002690 0.108161 -0.038996 -54423.300000 0 0 1
2.062641 22.902166 -11.178803 25.568131 1.480976 2.023297 0.121379 -0.038611 318982.000000 0 0 1
0.925141 22.638216 -10.374403 24.919328 1.529953 2.000190 0.137411 -0.036063 12964.500000 0 1 0
0.789141 21.240116 -10.199703 23.575394 1.533660 2.018217 0.095984 -0.032009 198492.000000 0 1 0
-0.502459 20.874416 -9.419703 22.906866 -1.546730 1.994586 0.097055 -0.021975 644368.000000 0 1 0
-1.752959 21.030416 -10.074403 23.384714 -1.487635 2.016188 0.102316 -0.025477 -96294.600000 0 1 0
-2.781959 20.646716 -9.187603 22.769238 -1.436862 1.986146 0.076034 -0.015931 593584.000000 0 1 0
-4.155159 20.463516 -9.911603 23.114080 -1.370468 2.013974 0.082366 -0.019946 699665.000000 0 1 0
-5.146859 19.697316 -9.227303 22.352126 -1.315213 1.996339 0.061493 -0.025509 280676.000000 0 1 0
-6.137159 19.343016 -10.185003 22.705754 -1.263562 2.035955 0.063846 -0.018360 -450733.000000 0 1 0
-6.996859 18.147616 -9.745103 21.754517 -1.202806 2.035276 0.056747 -0.019261 16428.100000 0 1 0
-8.112859 18.475416 -8.952003 22.074823 -1.157030 1.988355 0.078160 -0.019698 -257578.000000 0 1 0
-9.318359 18.673016 -9.663603 22.997794 -1.107927 2.004459 0.079393 -0.024879 -231543.000000 0 1 0
-10.433859 19.025216 -8.670003 23.366497 -1.069165 1.950930 0.098513 -0.032247 -159891.000000 0 1 0
-10.662459 17.973916 -7.740403 22.285949 -1.035378 1.925510 0.081485 -0.024460 155421.000000 0 1 0
-11.597759 18.314516 -6.698103 22.689074 -1.006283 1.870474 0.094969 -0.018490 326972.000000 0 1 0
-11.979159 16.974616 -6.027903 21.632694 -0.956248 1.853182 0.071591 -0.023183 812681.000000 0 1 0
-12.957459 17.274616 -4.969903 22.158701 -0.927240 1.797007 0.077023 -0.014839 885397.000000 0 1 0
-13.461959 16.154516 -4.291303 21.461780 -0.876063 1.772104 0.076431 -0.016177 -245705.000000 0 1 0
-14.510559 16.517816 -3.230103 22.222244 -0.849999 1.716668 0.059028 -0.015416 -1657440.000000 0 1 0
-15.733559 16.626516 -3.792003 23.202698 -0.812986 1.734962 0.099600 -0.030016 -1996650.000000 0 1 0
-16.655459 17.177816 -2.917003 24.103746 -0.800836 1.692112 0.099517 -0.022801 -689373.000000 0 1 0
-18.011259 17.360416 -3.605403 25.274264 -0.767000 1.713936 0.114812 -0.037276 -478202.000000 0 0 1
-18.184959 18.377216 -4.566503 26.253909 -0.790656 1.745622 0.102263 -0.032165 -319849.000000 0 0 1
-19.507759 18.472416 -5.028403 27.332538 -0.758145 1.755822 0.088377 -0.034433 -130708.000000 0 0 1
-19.673359 19.444716 -6.227503 28.353480 -0.779553 1.792240 0.085051 -0.015581 -63856.500000 0 0 1
-19.489759 20.802416 -5.821603 29.094368 -0.817965 1.772250 0.104885 -0.042143 -263136.000000 0 0 1
-19.568659 21.563916 -7.026303 29.955030 -0.833868 1.807564 0.093936 -0.014412 55378.400000 0 0 1
-19.298959 23.083256 -6.860703 30.860262 -0.874452 1.794985 0.116781 -0.024284 1256130.000000 0 0 1
-17.945859 23.381746 -6.422403 30.166325 -0.916179 1.785338 0.108443 -0.027600 1173830.000000 0 0 1
-17.878859 23.852526 -5.100003 30.242464 -0.927578 1.740243 0.130188 -0.040801 -589740.000000 0 0 1
-16.471059 24.351116 -4.820403 29.791088 -0.976086 1.733318 0.129807 -0.043230 -964316.000000 0 0 1
-16.300959 25.026266 -3.582503 30.081050 -0.993470 1.690175 0.120990 -0.040606 -14692.300000 0 0 1
-15.065559 25.678916 -3.379103 29.963246 -1.040221 1.683812 0.149446 -0.045664 1019.110000 0 0 1
-14.643059 26.843186 -4.311603 30.879859 -1.071412 1.710879 0.139443 -0.039825 43800.200000 0 0 1
-15.520459 27.966356 -4.155703 32.253241 -1.064146 1.700002 0.153255 -0.033122 514694.000000 0 0 1
-14.999959 29.105746 -4.825603 33.097275 -1.094936 1.717119 0.113541 -0.026288 -220335.000000 0 0 1
-15.774459 30.324216 -4.413003 34.465435 -1.091125 1.699190 0.108815 -0.019466 43243.700000 0 0 1
-17.070159 30.323636 -4.996003 35.154989 -1.058078 1.713393 0.130014 -0.019651 -38501.200000 0 0 1
-17.819059 31.422696 -4.623203 36.418109 -1.054937 1.698088 0.145555 -0.015892 -232385.000000 0 0 1
13.069674 -8.524638 18.593616 24.273615 -0.577952 0.698199 0.130164 -0.022113 119079.000000 0 1 0
13.755674 -9.707438 18.966016 25.360653 -0.614544 0.725976 0.132179 -0.023365 -47156.000000 0 0 1
14.018774 -10.599038 17.943416 25.116366 -0.647368 0.775014 0.136061 -0.026596 -147545.000000 0 0 1
14.779874 -11.849038 18.420016 26.422365 -0.675777 0.799400 0.174801 -0.039946 -2180310.000000 0 0 1
16.024874 -11.591138 18.899616 27.355924 -0.626207 0.808093 0.155852 -0.030949 -1060240.000000 0 0 1
16.600674 -12.660538 19.597216 28.634289 -0.651549 0.817020 0.146165 -0.036210 -238921.000000 0 0 1
17.130174 -13.811638 18.790016 28.935600 -0.678556 0.864036 0.130958 -0.040666 -1109710.000000 0 0 1
16.118974 -14.530738 18.109516 28.265142 -0.733626 0.875385 0.154933 -0.048734 331571.000000 0 0 1
16.545074 -15.734138 17.444516 28.733495 -0.760281 0.918372 0.163872 -0.048118 -513484.000000 0 0 1
15.709974 -15.985238 16.207016 27.658606 -0.794083 0.944724 0.155904 -0.054189 1014570.000000 0 0 1
14.284074 -16.126038 16.462416 27.112636 -0.845895 0.918282 0.208198 -0.057517 1526310.000000 0 0 1
13.524774 -15.918638 15.261716 25.869723 -0.866524 0.939805 0.224574 -0.057465 17316.600000 0 0 1
12.937974 -17.171438 14.636816 26.009342 -0.925085 0.973085 0.168833 -0.043381 -112765.000000 0 0 1
13.981274 -18.012138 14.119516 26.819282 -0.910728 1.016354 0.162325 -0.046421 614595.000000 0 0 1
13.536574 -19.137738 13.303316 26.953109 -0.955172 1.054604 0.138494 -0.041332 -895612.000000 0 0 1
14.623074 -19.950538 12.651916 27.783615 -0.938286 1.098005 0.132587 -0.043027 -1105680.000000 0 0 1
15.349074 -20.575738 13.659616 29.078174 -0.929873 1.081783 0.101588 -0.034631 -451751.000000 0 0 1
15.708074 -21.833238 13.180816 29.952760 -0.947131 1.115138 0.073325 -0.022398 -383683.000000 0 0 1
16.498174 -22.562238 14.263116 31.379624 -0.939417 1.098947 0.061718 -0.027569 1079890.000000 0 0 1
17.911674 -22.244638 14.294416 31.937162 -0.892885 1.106740 0.046126 -0.027080 1030270.000000 0 0 1
18.574174 -23.139638 15.155416 33.318605 -0.894412 1.098577 0.051202 -0.035469 -192888.000000 0 0 1
19.978274 -22.707138 15.592516 34.027520 -0.849241 1.094791 0.024520 -0.020732 -103222.000000 0 0 1
20.979274 -22.923338 14.630716 34.346284 -0.829651 1.130755 0.011449 -0.025495 -507498.000000 0 0 1
22.141574 -22.169138 14.919816 34.703327 -0.786020 1.126387 0.014058 -0.018339 465694.000000 0 0 1
23.382674 -22.734838 14.141216 35.547100 -0.771352 1.161661 0.012322 -0.022094 136201.000000 0 0 1
23.759274 -23.879738 14.834616 36.807755 -0.787927 1.155971 0.009757 -0.021940 -509839.000000 0 0 1
24.965174 -24.432838 14.423916 37.792498 -0.774622 1.179204 0.021522 -0.032302 -510937.000000 0 0 1
25.443574 -25.708048 15.161916 39.219420 -0.790569 1.173863 0.025732 -0.024996 -212910.000000 0 0 1
25.837374 -25.534138 16.482816 39.890417 -0.779495 1.144828 0.025873 -0.012067 50972.600000 0 0 1
26.291474 -26.769428 17.049116 41.213059 -0.794406 1.144301 0.053392 0.004122 47189.600000 0 0 1
26.756074 -26.571318 18.532916 42.016562 -0.781934 1.113988 0.039185 0.013670 -249366.000000 0 0 1
25.707474 -26.273288 19.394916 41.561072 -0.796283 1.085285 0.042682 0.008202 -467812.000000 0 0 1
26.113174 -26.265588 20.738316 42.448283 -0.788308 1.060364 0.053112 0.005867 33624.700000 0 0 1
24.992074 -25.775788 21.683516 41.942460 -0.800834 1.027474 0.058628 -0.007609 1226950.000000 0 0 1
23.966274 -26.805978 21.920516 42.112371 -0.841270 1.023331 0.066843 -0.006089 1095140.000000 0 0 1
23.227274 -26.642628 23.140566 42.247150 -0.853777 0.991133 0.088733 -0.007511 69566.000000 0 0 1
22.649174 -27.924098 23.660586 43.041418 -0.889325 0.988771 0.125349 -0.018610 -1101800.000000 0 0 1
23.622374 -28.799938 24.052146 44.339133 -0.883845 0.997435 0.117503 -0.013618 -157598.000000 0 0 1
23.393074 -30.082878 23.480116 44.760824 -0.909851 1.018588 0.122359 -0.016249 -283040.000000 0 0 1
24.582074 -31.012118 23.753446 46.154697 -0.900547 1.030199 0.108770 -0.012967 -153987.000000 0 0 1
24.723574 -31.273608 25.129396 47.125155 -0.901840 1.008361 0.112011 -0.022374 803150.000000 0 0 1
25.905574 -32.051918 25.386636 48.403569 -0.891052 1.018694 0.115454 -0.021748 -155365.000000 0 0 1
25.834474 -32.591918 26.784726 49.467916 -0.900544 0.998628 0.118653 -0.042514 61361.800000 0 0 1
24.888474 -33.587448 27.158076 49.850917 -0.933077 0.994663 0.085850 -0.023112 509049.000000 0 0 1
23.540974 -33.151528 27.079036 48.851566 -0.953322 0.983260 0.096360 -0.029956 -219903.000000 0 0 1
22.479974 33.532341 27.445316 48.816109 0.980216 0.973730 0.100845 -0.044309 -126662.000000 0 0 1
22.264074 33.357426 28.841326 49.398674 0.982259 0.947336 0.090666 -0.026919 400964.000000 0 0 1
21.385174 32.272073 29.157236 48.466037 0.985578 0.925292 0.086966 -0.039652 100771.000000 0 0 1
21.094674 32.313487 30.664926 49.289800 0.992446 0.899329 0.077123 -0.040303 -142618.000000 0 0 1
22.177874 32.083546 31.546366 50.163585 0.965964 0.890698 0.058825 -0.020526 -156092.000000 0 0 1
21.933774 32.486667 32.873916 51.158268 0.976935 0.872919 0.049864 -0.014868 -96189.900000 0 0 1
23.141074 32.252215 33.796356 52.133563 0.948419 0.865493 0.025403 -0.005773 -6921.520000 0 0 1
23.352774 30.860496 -33.889233 51.441252 0.923008 2.290012 0.030029 -0.000707 -325533.000000 0 0 1
24.627774 30.624196 -33.362603 51.550285 0.893504 2.274683 0.024370 0.008023 -267279.000000 0 0 1
24.836974 29.049966 -33.308653 50.697556 0.863421 2.287638 0.043318 -0.007843 -152925.000000 0 0 1
24.960874 28.423166 33.259229 50.369613 0.850164 0.849574 0.054654 -0.014770 138321.000000 0 0 1
24.701174 27.078366 33.277601 49.505400 0.831276 0.833618 0.060565 -0.024015 -317819.000000 0 0 1
25.253274 26.272976 32.099153 48.562874 0.805186 0.848671 0.110403 -0.043415 358549.000000 0 0 1
26.673274 26.166226 32.075139 49.243776 0.775802 0.861429 0.103261 -0.044633 611293.000000 0 0 1
27.173974 25.481366 30.902546 48.401366 0.753264 0.878295 0.135015 -0.062344 -417943.000000 0 0 1
28.591574 24.966516 31.088886 49.064487 0.717817 0.884556 0.113051 -0.041962 -719846.000000 0 0 1
28.726174 23.977306 32.081720 49.288346 0.695535 0.862029 0.139753 -0.044596 -385938.000000 0 0 1
29.858474 24.103136 32.865208 50.523376 0.679144 0.862560 0.135314 -0.042917 -1455220.000000 0 0 1
29.736574 23.248286 -33.686583 50.591822 0.663549 2.299429 0.143736 -0.052308 113363.000000 0 0 1
28.867174 23.778416 -32.669623 49.659149 0.689037 2.288793 0.143219 -0.049296 1551760.000000 0 0 1
27.473374 24.031076 -32.929713 49.159382 0.718662 2.304811 0.135033 -0.044263 1237580.000000 0 0 1
26.468474 22.801336 -33.037843 48.083054 0.711105 2.328286 0.132794 -0.052174 315701.000000 0 0 1
26.164474 22.068416 -31.885643 46.779150 0.700679 2.320772 0.116761 -0.060591 473413.000000 0 0 1
25.347574 20.905116 -32.123953 45.950753 0.689644 2.344928 0.135448 -0.048803 280539.000000 0 0 1
25.278274 19.959916 -30.924203 44.650820 0.668372 2.335854 0.130280 -0.057762 651359.000000 0 0 1
24.265574 20.353916 -29.945443 43.587034 0.697955 2.328185 0.107079 -0.044620 853006.000000 0 0 1
24.158074 19.339916 -28.981663 42.397897 0.675080 2.323430 0.102942 -0.035634 -289957.000000 0 0 1
23.058574 19.517716 -27.933123 41.144847 0.702424 2.317056 0.091861 -0.027162 -366237.000000 0 0 1
22.996174 18.789916 -26.750223 39.968230 0.685074 2.304045 0.096702 -0.019619 -15538.100000 0 0 1
23.911974 19.224816 -25.752593 40.057110 0.677165 2.269071 0.071223 -0.015740 166625.000000 0 0 1
23.883574 18.271416 -24.569903 38.832330 0.653045 2.255854 0.102292 -0.005927 37610.900000 0 0 1
24.614374 17.108116 -24.887703 38.960914 0.607393 2.263716 0.108534 -0.022521 29720.400000 0 0 1
24.704574 16.192416 -23.832503 37.953900 0.580191 2.249691 0.113550 -0.015283 -159576.000000 0 0 1
25.828974 15.126016 -23.910303 38.309723 0.529780 2.244816 0.115423 -0.012693 -972297.000000 0 0 1
27.054474 15.721016 -23.650303 39.222847 0.526397 2.218018 0.123347 -0.021094 -708444.000000 0 0 1
28.093174 14.830316 -23.287803 39.388913 0.485716 2.203376 0.115225 -0.027844 54805.200000 0 0 1
27.976974 14.129916 -21.896503 38.233787 0.467684 2.180592 0.100492 -0.024672 -252822.000000 0 0 1
26.867974 13.226616 -21.832703 37.060738 0.457454 2.200748 0.096470 -0.017072 263664.000000 0 0 1
26.493274 12.779916 -20.559203 35.887333 0.449455 2.180814 0.066703 -0.023968 -298377.000000 0 0 1
25.054874 12.243216 -20.658703 34.704828 0.454531 2.208397 0.087135 -0.017827 -577328.000000 0 0 1
24.140274 13.273116 -20.716003 34.468554 0.502715 2.215563 0.111807 -0.022693 -1694610.000000 0 0 1
22.861474 12.788016 -20.850603 33.480263 0.510008 2.243078 0.130976 -0.030538 -256466.000000 0 0 1
21.709974 13.874616 -20.794603 33.109567 0.568667 2.249847 0.133331 -0.037732 32337.000000 0 0 1
21.895774 14.955316 -21.616303 34.210392 0.599241 2.254752 0.119700 -0.028126 -45803.000000 0 0 1
20.960474 15.995116 -21.444103 33.985802 0.651838 2.253602 0.092643 -0.027155 938407.000000 0 0 1
19.598974 15.768116 -22.229403 33.569325 0.677502 2.294539 0.097410 -0.020539 1068960.000000 0 0 1
18.677374 14.821316 -21.666803 32.217481 0.670792 2.308401 0.085411 -0.026552 520378.000000 0 0 1
17.511874 14.700516 -22.452503 32.045059 0.698343 2.347110 0.084993 -0.029635 -109644.000000 0 0 1
16.410274 13.798816 -21.916503 30.660031 0.699166 2.367168 0.065963 -0.029201 -72419.600000 0 0 1
15.180174 13.970816 -22.588603 30.591933 0.743936 2.401468 0.069946 -0.026402 2937.210000 0 0 1
14.113474 13.387216 -21.833503 29.242256 0.758996 2.413796 0.092338 -0.034699 1504910.000000 0 0 1
12.683074 13.540916 -22.513903 29.173491 0.818099 2.452345 0.088476 -0.033440 1067800.000000 0 0 1
12.179774 14.856016 -22.589403 29.653486 0.884066 2.436851 0.076744 -0.028200 122515.000000 0 0 1
11.498474 15.073016 -23.830303 30.451503 0.919121 2.469573 0.071069 -0.015988 -641469.000000 0 0 1
11.311574 16.620216 -24.067303 31.359502 0.973215 2.445673 0.069405 -0.023088 -330939.000000 0 0 1
12.434774 17.482116 -24.116903 32.278057 0.952536 2.414576 0.066108 -0.018609 -505996.000000 0 0 1
13.496474 17.101216 -24.942003 33.116611 0.902669 2.423644 0.063666 -0.026445 -840608.000000 0 0 1
13.292074 17.054816 -26.473793 34.181979 0.908760 2.456714 0.083288 -0.030781 -956880.000000 0 0 1
14.381174 16.656316 -27.251613 35.027153 0.858570 2.462295 0.078156 -0.030839 -620394.000000 0 0 1
14.054774 16.882016 -28.607783 36.068606 0.876533 2.486759 0.080103 -0.039439 -549118.000000 0 0 1
15.130174 17.399016 -29.552123 37.483008 0.855033 2.479023 0.079330 -0.036737 -393005.000000 0 0 1
16.155374 16.458916 -29.764153 37.653643 0.794705 2.482376 0.068284 -0.032833 -412317.000000 0 0 1
17.296974 17.006916 -30.355703 38.857293 0.776943 2.467398 0.065635 -0.032379 123165.000000 0 0 1
18.437974 15.939316 -30.575023 39.100546 0.712842 2.468599 0.078033 -0.030463 801649.000000 0 0 1
19.659674 16.617216 -30.872083 40.196022 0.701726 2.446569 0.101703 -0.036580 31615.400000 0 0 1
20.770274 15.743716 -30.841263 40.378860 0.648597 2.439972 0.124374 -0.034086 -258088.000000 0 0 1
22.081474 16.450616 -31.115223 41.549625 0.640291 2.417150 0.144161 -0.041458 -501096.000000 0 0 1
22.020474 16.901016 -32.485563 42.730053 0.654616 2.434496 0.140590 -0.042907 -315001.000000 0 0 1
23.249574 17.397716 -32.923623 43.899751 0.642414 2.418817 0.154569 -0.045368 -241062.000000 0 0 1
23.202574 17.918816 33.482920 44.503363 0.657607 0.719146 0.140196 -0.043944 286799.000000 0 0 1
24.434374 18.567516 33.205533 45.215028 0.649803 0.746027 0.147301 -0.043098 262164.000000 0 0 1
24.502174 19.072916 31.884181 44.505434 0.661441 0.772152 0.154849 -0.051378 137581.000000 0 0 1
25.599674 20.145616 31.681966 45.441568 0.666732 0.799309 0.166665 -0.044639 1341430.000000 0 0 1
26.985674 19.746816 31.756186 46.115276 0.631720 0.811204 0.138692 -0.037390 992690.000000 0 0 1
27.820874 20.829416 31.390086 46.831647 0.642667 0.836217 0.120169 -0.042113 -349577.000000 0 0 1
29.315474 20.567216 31.543646 47.722207 0.611787 0.848666 0.138432 -0.037009 -415128.000000 0 0 1
29.746074 20.155216 32.844496 48.680824 0.595517 0.830251 0.116807 -0.035179 321139.000000 0 0 1
31.091074 19.698316 32.780370 49.287231 0.564737 0.843184 0.099336 -0.030096 281889.000000 0 0 1
31.531674 18.941316 -33.787213 49.945927 0.540940 2.313763 0.087048 -0.024637 -210717.000000 0 0 1
31.759674 19.786616 -32.700403 49.694098 0.557167 2.289001 0.083359 -0.036508 422815.000000 0 0 1
30.868074 19.445316 -31.626753 48.282604 0.562150 2.285024 0.101291 -0.044786 115265.000000 0 0 1
31.481474 19.960516 -30.261983 48.013467 0.565074 2.252712 0.097039 -0.036076 59500.700000 0 0 1
32.696374 19.268316 -30.091973 48.433952 0.532522 2.241196 0.088096 -0.035267 -561373.000000 0 0 1
33.311974 19.741416 -28.924743 48.332720 0.534977 2.212362 0.103364 -0.035719 490436.000000 0 0 1
34.824974 19.335216 -28.896953 49.210398 0.506835 2.198407 0.068921 -0.024926 509473.000000 0 0 1
35.630874 20.116616 -29.770423 50.601537 0.513971 2.199789 0.077467 -0.027500 46184.600000 0 0 1
36.898674 20.257516 -29.141293 51.196621 0.502078 2.176333 0.043206 -0.003327 399015.000000 0 0 1
-36.934092 20.961116 -29.956693 51.970174 -0.516200 2.185138 0.028598 -0.007518 286074.000000 0 0 1
-36.351492 20.231316 -31.001103 51.882613 -0.507856 2.211206 0.024871 -0.007632 17606.000000 0 0 1
-35.220792 20.935216 -31.505523 51.685447 -0.536291 2.226305 0.021753 -0.003747 196116.000000 0 0 1
-34.436692 20.033116 -32.493203 51.410307 -0.526883 2.254975 0.029182 -0.007812 54193.800000 0 0 1
-33.577192 19.080816 -31.848633 50.058374 -0.516760 2.260398 0.018857 -0.001544 224963.000000 0 0 1
-32.820592 18.435016 -32.838783 49.954246 -0.511774 2.288129 0.021798 0.003068 324987.000000 0 0 1
-31.858292 17.320916 -32.289073 48.554599 -0.497983 2.298297 0.018069 0.015742 533752.000000 0 0 1
-32.624092 16.204016 -31.805453 48.357919 -0.460995 2.288570 0.018894 0.018435 296426.000000 0 0 1
-32.383892 15.074716 -32.655183 48.397567 -0.435669 2.311392 0.020995 0.017476 -337825.000000 0 0 1
-33.099692 13.798816 -32.346053 48.293520 -0.394978 2.304709 0.038177 0.013289 -356250.000000 0 0 1
-32.670392 12.654616 -33.060743 48.171636 -0.369547 2.327202 0.045579 0.006273 -192046.000000 0 0 1
-33.726792 11.728116 -33.009613 48.627973 -0.334659 2.316950 0.062568 0.003475 -18686.300000 0 0 1
-33.321892 10.220016 -33.031093 48.019270 -0.297597 2.329349 0.064494 0.007764 -151634.000000 0 0 1
-32.764192 9.820816 33.604045 47.949688 -0.291220 0.794252 0.043119 0.012724 527.807000 0 0 1
-33.110392 8.466016 33.376515 47.769899 -0.250327 0.797227 0.080780 -0.006099 129875.000000 0 0 1
-32.150092 7.758416 32.392499 46.293579 -0.236791 0.795792 0.098861 -0.011754 -594222.000000 0 0 1
-30.856792 7.576416 32.841470 45.695797 -0.240772 0.768869 0.056528 0.000286 -1005980.000000 0 0 1
-30.061792 7.035716 31.815336 44.333151 -0.229904 0.770386 0.068534 -0.009341 -54443.600000 0 0 1
21.678674 -3.978038 -31.138683 38.149800 -0.181481 2.525636 0.058015 -0.042053 35586.100000 0 0 1
22.978974 -4.207438 -31.702373 39.379896 -0.181094 2.506538 0.042901 -0.037487 279867.000000 0 0 1
23.866274 -3.215138 -31.259353 39.459895 -0.133909 2.485170 0.051633 -0.038349 -246020.000000 0 0 1
23.706174 -1.824138 -31.973493 39.844880 -0.076796 2.502185 0.051509 -0.034311 -786058.000000 0 0 1
24.265074 -0.657338 -31.320793 39.625976 -0.027083 2.482275 0.058103 -0.032127 215419.000000 0 0 1
24.172374 0.589762 -31.974053 40.087299 0.024393 2.494120 0.063506 -0.034424 -755016.000000 0 0 1
25.162074 1.549862 -31.362343 40.238397 0.061517 2.464525 0.067556 -0.028671 -51866.400000 0 0 1
26.503674 1.341662 -31.768133 41.393950 0.050579 2.445664 0.075920 -0.033720 202972.000000 0 0 1
27.413174 2.128462 -31.008333 41.443084 0.077488 2.416164 0.082910 -0.036455 1253040.000000 0 0 1
28.957574 2.012262 -31.291433 42.681894 0.069378 2.393711 0.080105 -0.035482 1265430.000000 0 0 1
29.499674 2.553362 -32.520553 43.981096 0.086340 2.403006 0.083692 -0.027984 244890.000000 0 0 1
29.475274 1.602862 -33.582273 44.711632 0.054326 2.420502 0.068090 -0.019133 -223717.000000 0 0 1
30.127674 2.155962 32.934371 44.687781 0.071439 0.742193 0.055223 -0.026607 82704.800000 0 0 1
29.422474 3.145762 32.202572 43.733094 0.106512 0.743146 0.046459 -0.012097 362865.000000 0 0 1
29.789674 4.425562 32.718642 44.469313 0.147482 0.744011 0.061014 -0.013087 265558.000000 0 0 1
29.302674 5.484062 31.650206 43.479388 0.185012 0.755490 0.073211 -0.004288 116388.000000 0 0 1
29.574074 6.866362 31.994529 44.106946 0.228133 0.759202 0.091628 -0.020580 297121.000000 0 0 1
28.882374 7.723262 31.107446 43.145261 0.261291 0.765562 0.083117 -0.024652 54764.000000 0 0 1
29.337574 9.224462 31.343746 43.911438 0.304637 0.775895 0.066249 -0.024880 593368.000000 0 0 1
30.730174 9.328062 31.059126 44.676903 0.294708 0.802106 0.053093 -0.020790 180871.000000 0 0 1
31.184574 10.620162 30.904766 45.170456 0.328239 0.817316 0.053260 -0.013932 -668565.000000 0 0 1
32.613774 10.804462 30.452356 45.910137 0.319906 0.845572 0.045220 -0.001866 -1299330.000000 0 0 1
33.655674 10.606462 31.375506 47.218893 0.305294 0.844013 0.053955 -0.016714 -354426.000000 0 0 1
34.884274 10.976762 30.838176 47.837172 0.304853 0.870233 0.076540 -0.020301 -578659.000000 0 0 1
35.206674 12.486062 30.860726 48.454062 0.340812 0.880317 0.081355 -0.013517 -1001700.000000 0 0 1
35.527974 12.841662 32.222196 49.652947 0.346841 0.864595 0.075643 -0.006444 168018.000000 0 0 1
35.921074 14.198862 32.410356 50.421845 0.376430 0.872669 0.091058 0.003302 -24430.000000 0 0 1
34.831674 15.290162 32.307356 49.907914 0.413646 0.866708 0.094435 -0.007787 131521.000000 0 0 1
34.117174 15.459262 31.054516 48.655455 0.425448 0.878569 0.086418 -0.019107 530833.000000 0 0 1
33.037374 16.347162 31.159916 48.266326 0.459486 0.869010 0.081922 -0.021182 1522060.000000 0 0 1
31.576574 15.773862 31.467756 47.287572 0.463282 0.842693 0.089108 -0.018319 1092370.000000 0 0 1
30.853774 15.216662 30.434126 45.931887 0.458182 0.846521 0.065975 -0.015976 -11664.400000 0 0 1
29.804874 14.397062 30.936346 45.306329 0.449991 0.819172 0.073347 -0.020062 333045.000000 0 0 1
28.848574 13.880662 29.771076 43.717617 0.448459 0.821688 0.072828 -0.011254 221776.000000 0 0 1
29.254474 12.791162 28.976156 43.116768 0.412190 0.833837 0.063047 -0.007072 523114.000000 0 0 1
28.272274 12.511462 27.958776 41.683946 0.416628 0.835600 0.066979 -0.014644 462020.000000 0 0 1
27.966774 10.972962 27.801246 40.932330 0.373900 0.824124 0.057942 -0.004616 -170021.000000 0 0 1
28.989774 10.309962 27.067256 40.979735 0.341692 0.849307 0.054981 -0.002183 490467.000000 0 0 1
28.713374 8.894562 27.033956 40.427786 0.300396 0.838341 0.068075 -0.009714 -286478.000000 0 0 1
30.008274 8.172762 26.661476 40.964923 0.265901 0.862110 0.069397 -0.010973 -276545.000000 0 0 1
30.431474 8.261762 25.341216 40.453783 0.265098 0.893839 0.079940 -0.010726 239543.000000 0 0 1
31.402974 7.275262 25.007806 40.797875 0.227658 0.910984 0.081314 -0.009509 356566.000000 0 0 1
32.142774 7.520362 23.669356 40.619604 0.229833 0.948740 0.103256 -0.013589 487420.000000 0 0 1
32.799574 8.840662 23.476646 41.293127 0.263279 0.966071 0.111982 -0.024989 460824.000000 0 0 1
32.038374 9.895662 22.932586 40.623701 0.299574 0.970954 0.116118 -0.025161 -236716.000000 0 0 1
31.523974 9.754762 21.463516 39.364945 0.300094 0.994116 0.133209 -0.020540 -77567.800000 0 0 1
32.524874 9.768762 20.481816 39.658555 0.291775 1.028092 0.139476 -0.028508 -69324.500000 0 0 1
31.935474 9.934962 19.201116 38.565021 0.301604 1.049633 0.163647 -0.040708 -758219.000000 0 0 1
32.669774 11.034062 18.350016 39.061334 0.325716 1.081761 0.181976 -0.070622 1818960.000000 0 0 1
34.025374 10.736562 17.901816 39.918353 0.305657 1.105754 0.159674 -0.058031 1032250.000000 0 0 1
34.971074 10.698862 18.913316 41.172263 0.296892 1.093510 0.138598 -0.044781 -1873260.000000 0 0 1
36.378174 10.293262 18.558216 42.115676 0.275744 1.114475 0.168720 -0.042599 -801769.000000 0 0 1
36.555274 8.911562 18.341016 41.858057 0.239119 1.117233 0.134065 -0.028429 624746.000000 0 0 1
-37.118692 8.585762 17.767316 42.037961 -0.227308 1.134430 0.141722 -0.032544 351251.000000 0 0 1
-36.921492 7.083862 17.523616 41.478366 -0.189559 1.134621 0.137065 -0.034533 -376812.000000 0 0 1
37.047674 6.576262 16.644316 41.143780 0.175678 1.154320 0.114999 -0.033508 164522.000000 0 0 1
37.420274 5.282562 16.126416 41.088243 0.140242 1.167467 0.123331 -0.021601 -185983.000000 0 0 1
36.229974 4.321762 15.987916 39.835940 0.118726 1.157813 0.095130 -0.015303 -57394.200000 0 0 1
35.957574 3.659262 17.228416 40.039427 0.101417 1.125986 0.086611 -0.011290 -160763.000000 0 0 1
34.692574 3.048362 17.241716 38.860571 0.087643 1.111094 0.072034 -0.008487 -61318.100000 0 0 1
34.479374 2.090362 18.477416 39.174121 0.060552 1.079608 0.069337 -0.009598 256277.000000 0 0 1
35.280374 0.899962 18.519416 39.855784 0.025503 1.087545 0.070012 -0.007323 2583.210000 0 0 1
34.862974 0.112862 19.588016 39.989125 0.003237 1.058897 0.059657 0.000075 192206.000000 0 0 1
35.368174 -1.359138 19.609416 40.463369 -0.038409 1.064866 0.057723 -0.002284 20926.900000 0 0 1
34.675274 -2.156438 20.542216 40.360965 -0.062110 1.036817 0.063728 0.001316 233351.000000 0 0 1
35.223174 -3.491538 20.586016 40.946879 -0.098803 1.044020 0.066981 0.000447 80477.600000 0 0 1
34.681074 -4.269038 21.793016 41.181758 -0.122478 1.013149 0.055302 -0.002400 -169055.000000 0 0 1
35.064574 -3.705638 23.027256 42.113070 -0.105290 0.992264 0.056426 -0.014366 121649.000000 0 0 1
34.611274 -4.428638 24.130226 42.424297 -0.127262 0.965771 0.057134 -0.014937 -33825.500000 0 0 1
35.132374 -3.791138 25.432656 43.537070 -0.107494 0.946950 0.047826 -0.013683 577109.000000 0 0 1
34.340474 -4.234338 26.574146 43.627778 -0.122685 0.915858 0.056940 -0.011464 587875.000000 0 0 1
34.738074 -3.572538 27.778396 44.622149 -0.102482 0.898832 0.064396 -0.014585 271091.000000 0 0 1
33.823774 -3.938238 29.003556 44.729897 -0.115912 0.865295 0.073983 -0.023474 349250.000000 0 0 1
33.956874 -5.299138 29.334096 45.184504 -0.154806 0.864255 0.075955 -0.022273 112146.000000 0 0 1
33.018874 -5.679738 30.323806 45.188922 -0.170348 0.835179 0.075968 -0.026034 127613.000000 0 0 1
33.107474 -7.187638 30.674936 45.702502 -0.213783 0.834987 0.084461 -0.024188 120168.000000 0 0 1
34.307974 -7.501538 31.349616 47.075563 -0.215265 0.842040 0.103866 -0.024914 51503.800000 0 0 1
34.612874 -8.917438 31.242016 47.472469 -0.252150 0.852493 0.093557 -0.018639 -288552.000000 0 0 1
35.821874 -9.295538 32.080216 48.977076 -0.253893 0.856607 0.089089 -0.013655 -317168.000000 0 0 1
35.546274 -9.636138 33.438289 49.744467 -0.264725 0.833618 0.089920 -0.027218 324903.000000 0 0 1
36.746374 -9.982438 -33.721713 50.863533 -0.265256 2.295594 0.089851 -0.028071 295155.000000 0 0 1
36.563274 -10.141438 -32.192833 49.760429 -0.270565 2.274383 0.093554 -0.022305 -493970.000000 0 0 1
36.236174 -8.999438 -31.420253 48.798386 -0.243430 2.270354 0.084229 -0.021724 208371.000000 0 0 1
37.051874 -7.825338 -31.416853 49.204633 -0.208141 2.263336 0.080236 -0.014874 -160612.000000 0 0 1
36.441074 -6.700938 -30.605763 48.057957 -0.181853 2.261203 0.089858 -0.015560 -22242.900000 0 0 1
36.799274 -6.782238 -29.233963 47.484839 -0.182258 2.234005 0.083898 -0.012471 181423.000000 0 0 1
36.189174 -5.721938 -28.552073 46.450164 -0.156814 2.232779 0.100123 -0.019291 -258876.000000 0 0 1
36.658074 -5.590838 -27.087713 45.921847 -0.151347 2.201689 0.096750 -0.024678 -288850.000000 0 0 1
-36.926792 -5.256938 -27.096433 46.102495 0.141411 2.199063 0.085451 -0.020654 -524401.000000 0 0 1
-36.469292 -4.949338 -25.801593 44.946940 0.134888 2.182234 0.090613 -0.021966 520382.000000 0 0 1
-34.942192 -4.647238 -25.751733 43.654385 0.132222 2.201732 0.115952 -0.016716 -24246.900000 0 0 1
-34.522292 -4.134938 -24.505703 42.537229 0.119208 2.184746 0.136472 -0.023816 254598.000000 0 0 1
-33.144392 -4.272938 -24.228303 41.277347 0.128212 2.198100 0.144510 -0.021945 967917.000000 0 0 1
-32.060692 -3.380938 -24.979503 40.783505 0.105066 2.230004 0.136224 -0.009317 351421.000000 0 0 1
-31.895392 -3.667338 -26.383963 41.555732 0.114477 2.258683 0.134657 -0.002565 48908.700000 0 0 1
-30.858592 -2.880638 -26.937703 41.063251 0.093080 2.286310 0.127170 -0.000932 16139.000000 0 0 1
-30.494392 -3.521438 -28.288313 41.743708 0.114969 2.315381 0.112175 -0.000940 -500947.000000 0 0 1
-31.454592 -3.493438 -29.298193 43.127481 0.110610 2.317658 0.126092 -0.005532 -750383.000000 0 0 1
-31.120692 -4.360938 -30.341333 43.681938 0.139223 2.338656 0.095507 0.006740 -696995.000000 0 0 1
-32.324792 -4.867138 -31.189983 45.181813 0.149447 2.332730 0.092670 -0.006219 273581.000000 0 0 1
-33.318592 -5.589538 -30.456053 45.485631 0.166213 2.304433 0.098311 -0.006297 507941.000000 0 0 1
-34.107692 -4.920538 -29.492533 45.358085 0.143276 2.278664 0.107173 -0.002857 -1039190.000000 0 0 1
-35.231092 -3.964438 -29.904253 46.381149 0.112055 2.271493 0.130466 -0.010384 -642669.000000 0 0 1
-34.912292 -2.814038 -30.708993 46.581425 0.080429 2.290623 0.141505 -0.013210 -63198.000000 0 0 1
-34.355492 -1.721738 -29.971643 45.624156 0.050073 2.287529 0.139096 -0.005137 -84389.600000 0 0 1
-33.986092 -0.567038 -30.945403 45.967314 0.016683 2.309330 0.132522 -0.008951 189299.000000 0 0 1
-35.100092 0.144962 -31.470773 47.142836 -0.004130 2.301726 0.148804 -0.016192 202262.000000 0 0 1
-34.758192 1.429062 -31.930603 47.220097 -0.041091 2.313399 0.149693 -0.015289 -362851.000000 0 0 1
-35.990792 2.252762 -32.275973 48.395769 -0.062511 2.300860 0.129436 -0.020078 -298639.000000 0 0 1
-36.539492 1.902862 -33.544503 49.638584 -0.052030 2.312812 0.135981 -0.026747 400391.000000 0 0 1
37.092374 2.450862 -33.624963 50.124735 0.065979 2.306118 0.116384 -0.023556 403170.000000 0 0 1
36.175974 1.771162 33.163292 49.108473 0.048921 0.829416 0.089807 -0.025034 -54305.300000 0 0 1
36.312274 2.132562 31.814573 48.324902 0.058661 0.852175 0.096355 -0.023009 -46347.200000 0 0 1
37.326474 1.348762 31.255036 48.702794 0.036118 0.874018 0.076017 -0.022224 -407550.000000 0 0 1
-37.342192 1.638962 29.741896 47.767205 -0.043862 0.898681 0.084771 -0.026266 -196216.000000 0 0 1
-36.550192 2.798462 29.596786 47.113880 -0.076416 0.891563 0.094233 -0.030701 112410.000000 0 0 1
-36.183892 2.845962 28.241036 45.988365 -0.078491 0.909563 0.078655 -0.028099 27584.300000 0 0 1
-35.676192 4.246562 27.858826 45.463592 -0.118473 0.911232 0.080660 -0.025595 -220008.000000 0 0 1
-35.202392 4.392662 26.538756 44.303606 -0.124141 0.928519 0.078521 -0.017380 279206.000000 0 0 1
-34.426992 5.574162 26.447436 43.769349 -0.160520 0.921978 0.083733 -0.018788 -312167.000000 0 0 1
-33.570392 5.643462 25.179436 42.341751 -0.166551 0.933939 0.074475 -0.011743 725416.000000 0 0 1
-32.434092 4.721662 25.138476 41.306264 -0.144562 0.916517 0.072196 -0.012509 1589120.000000 0 0 1
-31.535792 4.868062 24.013406 39.935547 -0.153157 0.925664 0.072505 -0.010889 291171.000000 0 0 1
-32.090792 4.536462 22.655816 39.543450 -0.140433 0.960714 0.076942 -0.017836 -319671.000000 0 0 1
-32.117692 3.144562 22.439116 39.305831 -0.097596 0.963213 0.070516 -0.017840 -345976.000000 0 0 1
-32.726192 2.906262 21.210916 39.106943 -0.088573 0.997526 0.087888 -0.015445 -649263.000000 0 0 1
-32.604392 1.449462 20.716316 38.656346 -0.044427 1.005211 0.079091 -0.015089 -341830.000000 0 0 1
-31.381892 1.124662 20.114016 37.291576 -0.035823 1.001106 0.105526 -0.016445 -149679.000000 0 0 1
-31.042992 1.696462 18.849616 36.357302 -0.054594 1.025753 0.116801 -0.017797 174468.000000 0 0 1
-29.773192 1.034662 18.258816 34.941349 -0.034737 1.020950 0.131949 -0.022324 279115.000000 0 0 1
-30.177892 -0.236038 17.793516 35.033842 0.007821 1.038057 0.141913 -0.015766 721327.000000 0 0 1
-29.086692 -0.993038 17.245116 33.829215 0.034127 1.035879 0.159822 -0.017025 615939.000000 0 0 1
-28.621092 -0.639238 15.803816 32.700706 0.022331 1.066391 0.167470 -0.010201 202334.000000 0 0 1
-27.937792 0.608262 15.662516 32.034429 -0.021769 1.059936 0.172348 -0.013217 274745.000000 0 0 1
-27.910192 0.785962 14.255016 31.349674 -0.028153 1.098750 0.191156 -0.018287 -9196.880000 0 0 1
-27.376592 2.191462 13.849716 30.758656 -0.079878 1.103728 0.184107 -0.025762 -1145160.000000 0 0 1
-26.008092 2.256062 13.813616 29.535177 -0.086528 1.084109 0.168493 -0.031258 -1185490.000000 0 0 1
-25.548492 3.465362 13.249316 28.987559 -0.134816 1.096099 0.163966 -0.031565 337667.000000 0 0 1
-24.005592 3.451362 13.030016 27.531104 -0.142795 1.077782 0.137584 -0.031775 -7094.150000 0 0 1
-23.280292 3.635062 14.206816 27.513984 -0.154893 1.028214 0.110521 -0.020586 -1003320.000000 0 0 1
-21.964492 3.866962 13.845116 26.250325 -0.174269 1.015228 0.084996 -0.024405 -627855.000000 0 0 1
-21.165092 4.548362 15.029216 26.353862 -0.211680 0.963943 0.074071 -0.029444 52073.100000 0 0 1
-21.556892 5.892562 15.261716 27.061816 -0.266831 0.971626 0.065802 -0.020387 529457.000000 0 0 1
-21.102292 6.181262 16.568716 27.532473 -0.284948 0.925058 0.051478 -0.009473 -249034.000000 0 0 1
-21.118892 7.729562 16.828416 28.088242 -0.350859 0.928386 0.047262 -0.011823 -691457.000000 0 0 1
-20.169492 8.396362 16.062016 27.116336 -0.394470 0.936840 0.052755 -0.015209 156336.000000 0 0 1
-20.318492 9.827862 16.072016 27.708080 -0.450515 0.952009 0.050662 -0.012632 -280985.000000 0 0 1
-19.829892 10.516362 17.350616 28.370096 -0.487615 0.912739 0.060289 -0.011334 -51986.100000 0 0 1
-20.650692 10.237262 18.502516 29.556653 -0.460229 0.894381 0.067512 -0.012735 491506.000000 0 0 1
-20.139492 10.778562 19.691016 30.158128 -0.491406 0.859356 0.083227 -0.007397 -103218.000000 0 0 1
-12.740026 -33.122092 -19.931303 40.701819 1.203603 2.082531 0.174221 -0.054133 -543130.000000 0 0 1
-13.823926 -33.513892 -19.188003 41.017817 1.179575 2.057593 0.197115 -0.046994 -495591.000000 0 0 1
-14.970326 -32.686992 -19.322603 40.815598 1.141318 2.063957 0.158233 -0.067003 688111.000000 0 0 1
-16.257226 -33.237892 -18.637303 41.429505 1.115893 2.037400 0.141508 -0.052498 -599563.000000 0 0 1
-16.628826 33.281462 -19.219903 41.875747 -1.107435 2.047637 0.127709 -0.063678 -175035.000000 0 0 1
-17.513926 32.501862 -18.468803 41.282021 -1.076547 2.034631 0.144560 -0.062444 -1141400.000000 0 0 1
-18.933326 32.892562 -18.192703 42.087598 -1.048503 2.017792 0.126454 -0.049623 -1671530.000000 0 0 1
-18.975426 -33.703392 -17.393503 42.408953 1.058018 1.993401 0.145033 -0.042102 -22924.000000 0 0 1
-20.230126 -33.313192 -16.855803 42.463453 1.025048 1.978986 0.118611 -0.038245 111980.000000 0 0 1
-20.488726 33.819062 -15.436703 42.447716 -1.026098 1.942994 0.128780 -0.041651 -376270.000000 0 0 1
-20.565526 32.410462 -15.465903 41.383246 -1.005371 1.953817 0.123881 -0.051416 54132.100000 0 0 1
-21.105026 31.867762 -14.314603 40.815245 -0.985845 1.929133 0.143258 -0.043601 -327701.000000 0 0 1
-21.214326 30.311162 -14.289703 39.661187 -0.960148 1.939380 0.134353 -0.050012 730327.000000 0 0 1
-19.987126 29.663162 -13.931303 38.385799 -0.977869 1.942205 0.150261 -0.054703 614507.000000 0 0 1
-20.199526 28.256962 -14.000703 37.449919 -0.950172 1.953954 0.151268 -0.053162 482890.000000 0 0 1
-19.007326 27.415362 -13.432703 35.962731 -0.964575 1.953594 0.141455 -0.052857 541851.000000 0 0 1
-17.801926 27.576262 -14.158503 35.746636 -0.997554 1.978039 0.173129 -0.056845 -91332.800000 0 0 1
-16.821426 26.640462 -13.726303 34.366931 -1.007591 1.981663 0.178521 -0.065884 154631.000000 0 0 1
-15.404526 27.174562 -14.000003 34.230926 -1.055091 1.992140 0.144220 -0.061787 -111101.000000 0 0 1
-15.139226 27.310062 -15.374803 34.805462 -1.064623 2.028328 0.140717 -0.059999 -900084.000000 0 0 1
-13.828226 27.661362 -15.650203 34.659769 -1.107220 2.039285 0.149217 -0.063339 -727121.000000 0 0 1
-13.652526 27.955962 -17.175103 35.537465 -1.116505 2.075212 0.172383 -0.077695 -82481.100000 0 0 1
-13.629126 26.804762 -18.002003 35.047403 -1.100404 2.110227 0.136956 -0.077429 136139.000000 0 0 1
-14.051726 27.159262 -19.302303 36.161518 -1.093340 2.133861 0.124331 -0.074689 -50284.800000 0 0 1
-13.555726 26.119762 -20.297703 35.749076 -1.092078 2.174606 0.090976 -0.052623 173532.000000 0 0 1
-12.177026 26.322862 -20.582003 35.563912 -1.137512 2.187970 0.069412 -0.045483 104267.000000 0 0 1
-11.620526 25.200462 -21.226003 34.937703 -1.138731 2.223754 0.071545 -0.039785 -407093.000000 0 0 1
-10.345626 25.555162 -21.966603 35.250956 -1.186129 2.243559 0.087108 -0.041764 -807494.000000 0 0 1
-10.544226 26.140462 -23.223503 36.521713 -1.187390 2.259947 0.084255 -0.035237 -744261.000000 0 0 1
-9.362726 26.434262 -23.874003 36.829320 -1.230395 2.276059 0.081776 -0.040586 -708466.000000 0 0 1
-9.523626 26.969762 -25.318813 38.198296 -1.231343 2.295383 0.094206 -0.034228 -325907.000000 0 0 1
-10.268526 26.147262 -26.182863 38.401357 -1.196582 2.321046 0.091319 -0.033747 -238395.000000 0 0 1
-10.649526 26.973962 -27.280223 39.814791 -1.194774 2.325645 0.104809 -0.027957 -815600.000000 0 0 1
-12.014326 26.561962 -27.762483 40.257140 -1.146020 2.331773 0.092640 -0.025507 -1071740.000000 0 0 1
-12.448526 27.145962 -28.995133 41.624353 -1.140832 2.341431 0.104571 -0.027150 837996.000000 0 0 1
-13.739126 26.569262 -29.328433 41.890885 -1.093558 2.346355 0.090076 -0.020545 809505.000000 0 0 1
-14.143926 26.965362 -30.742363 43.269784 -1.087724 2.360978 0.087548 -0.028328 -7985.090000 0 0 1
-13.332726 26.447662 -31.823943 43.474173 -1.103860 2.392078 0.096425 -0.029217 287758.000000 0 0 1
-13.386426 25.045662 -32.050583 42.821974 -1.079946 2.416535 0.081088 -0.034787 350251.000000 0 0 1
-12.375326 24.605062 -33.144373 43.094167 -1.104785 2.448252 0.075796 -0.021584 560440.000000 0 0 1
-12.990926 24.766662 33.442582 43.595390 -1.087716 0.696468 0.072538 -0.012885 34817.200000 0 0 1
-12.198026 24.111762 32.520389 42.281729 -1.102444 0.693309 0.066543 -0.018164 -347659.000000 0 0 1
-12.746326 24.239362 31.064236 41.412586 -1.086681 0.722559 0.069406 -0.009512 834606.000000 0 0 1
-14.017626 23.564162 30.896266 41.307903 -1.034157 0.725827 0.087057 -0.021738 807520.000000 0 0 1
-14.269826 23.313162 29.509106 40.223361 -1.021532 0.747146 0.102092 -0.021322 -248024.000000 0 0 1
-15.554726 22.506662 29.370656 40.138943 -0.966057 0.749947 0.083006 -0.021109 -255507.000000 0 0 1
-15.382426 21.163062 29.651386 39.543633 -0.942275 0.722977 0.065906 -0.019132 126375.000000 0 0 1
-16.585026 20.413162 29.528376 39.543460 -0.888499 0.727661 0.062765 -0.026789 311484.000000 0 0 1
-16.379426 18.915762 29.846246 38.947273 -0.857136 0.697696 0.063049 -0.028454 386414.000000 0 0 1
-15.741526 18.134462 28.795996 37.494850 -0.855919 0.695086 0.074640 -0.029008 422832.000000 0 0 1
-15.243026 16.863862 29.177376 36.987281 -0.835838 0.661863 0.066844 -0.039003 -5111.080000 0 0 1
-14.777026 16.041462 27.944266 35.448145 -0.826404 0.662733 0.073004 -0.032534 -418099.000000 0 0 1
-13.757526 16.673762 27.270586 34.798976 -0.880937 0.670259 0.049919 -0.034706 -893271.000000 0 0 1
-13.006926 15.827362 26.479926 33.479426 -0.882903 0.658467 0.038063 -0.029794 38450.700000 0 0 1
-11.863926 16.524962 25.673486 32.755992 -0.948132 0.670067 0.049319 -0.025540 385116.000000 0 0 1
-12.297726 17.342062 24.572836 32.493160 -0.953971 0.713239 0.050336 -0.023434 -211234.000000 0 0 1
-12.740926 18.670262 24.881476 33.615439 -0.971968 0.737458 0.055465 -0.023338 671325.000000 0 0 1
-11.659426 19.710962 25.414586 34.210604 -1.036636 0.733425 0.059922 -0.021755 681365.000000 0 0 1
-11.338726 19.563962 26.837236 35.093483 -1.045533 0.700165 0.066448 -0.029968 -214465.000000 0 0 1
-12.428926 19.897062 27.661196 36.270002 -1.012441 0.703401 0.086577 -0.027159 67145.300000 0 0 1
-12.065026 19.677862 29.172556 37.199746 -1.020781 0.669368 0.079958 -0.027443 871172.000000 0 0 1
-11.014126 20.546062 29.665566 37.729265 -1.078711 0.666040 0.066352 -0.033767 465399.000000 0 0 1
-10.982726 20.486662 31.065166 38.799074 -1.078694 0.642387 0.055467 -0.028859 315653.000000 0 0 1
-9.752626 21.157862 31.761016 39.389478 -1.138877 0.632871 0.049709 -0.020637 363464.000000 0 0 1
-8.561126 20.423262 31.688706 38.659754 -1.173861 0.609941 0.056698 -0.022833 -429805.000000 0 0 1
-7.554626 20.988762 32.471171 39.395145 -1.225297 0.601932 0.061377 -0.010347 -444401.000000 0 0 1
-6.248926 20.267062 32.731869 39.002284 -1.271716 0.574931 0.062604 -0.007717 -381069.000000 0 0 1
-6.335326 19.274362 33.719432 39.352732 -1.253229 0.541666 0.063369 -0.017642 201616.000000 0 0 1
-5.102226 18.622162 -33.842423 38.963152 -1.303372 2.623116 0.064063 -0.015767 325517.000000 0 0 1
-4.693126 17.420262 33.140130 37.732734 -1.307638 0.498531 0.049535 -0.017615 -139985.000000 0 0 1
-5.147326 16.138762 33.485607 37.526530 -1.262054 0.468341 0.056443 -0.012051 -132801.000000 0 0 1
-4.960426 15.292662 32.400372 36.169814 -1.257138 0.460602 0.049016 -0.005596 -491028.000000 0 0 1
-5.538726 13.880562 32.528305 35.797180 -1.191129 0.430677 0.066706 -0.031806 -182880.000000 0 0 1
-4.928226 12.944162 33.435234 36.190518 -1.207012 0.392731 0.071337 -0.024550 435883.000000 0 0 1
-5.642326 11.674862 33.342744 35.775366 -1.120607 0.370896 0.071884 -0.015281 674578.000000 0 0 1
-4.781626 10.508962 33.907286 35.819077 -1.143788 0.328193 0.106408 -0.045743 201085.000000 0 0 1
-4.590526 10.562262 -32.539213 34.517165 -1.160809 2.801418 0.105379 -0.052412 -682273.000000 0 0 1
-3.590026 9.657562 -32.280633 33.885042 -1.214894 2.832636 0.122549 -0.055352 -565877.000000 0 0 1
-3.328726 9.222862 -30.789243 32.312831 -1.224426 2.833286 0.119734 -0.052847 490897.000000 0 0 1
-4.276526 8.231462 -30.370823 31.755826 -1.091644 2.845164 0.123219 -0.040989 398608.000000 0 0 1
-5.356726 8.789062 -29.630103 31.366943 -1.023438 2.807256 0.131576 -0.049416 -148422.000000 0 0 1
-6.454626 7.792462 -29.264523 30.964447 -0.879026 2.808699 0.122685 -0.046272 -361772.000000 0 0 1
-5.993626 6.843662 -28.357743 29.781216 -0.851518 2.831163 0.125512 -0.039983 -13706.400000 0 0 1
-6.862026 5.728362 -28.207753 29.590182 -0.695598 2.834713 0.130516 -0.052970 -289079.000000 0 0 1
-6.631226 4.937162 -26.874743 28.117619 -0.639993 2.843156 0.112409 -0.046301 -101100.000000 0 0 1
-6.839126 5.632162 -25.635783 27.123574 -0.688919 2.808843 0.086544 -0.033320 -357649.000000 0 0 1
-5.933726 6.607462 -25.233063 26.750236 -0.839068 2.803183 0.078716 -0.034481 -140661.000000 0 0 1
-6.620126 7.690862 -24.308803 26.341855 -0.860078 2.746135 0.048145 -0.017841 323899.000000 0 0 1
-6.935326 7.167362 -23.051503 25.116560 -0.801850 2.733252 0.039260 -0.007673 -689801.000000 0 0 1
-7.946826 7.886762 -22.480803 25.114529 -0.781605 2.679522 0.050070 -0.003305 -762942.000000 0 0 1
-7.832626 7.881562 -20.957803 23.721268 -0.788512 2.654084 0.040739 -0.007968 164784.000000 0 1 0
-7.115026 9.053662 -20.559003 23.564061 -0.904729 2.631036 0.017602 0.000735 138007.000000 0 1 0
-6.905126 9.199662 -19.163403 22.350627 -0.926921 2.600990 0.017786 -0.000556 -847066.000000 0 1 0
-8.090926 9.564662 -18.273103 22.155183 -0.868676 2.540605 0.019854 0.002041 -810020.000000 0 1 0
-7.929026 9.651062 -16.884703 21.002515 -0.883040 2.504683 0.008389 0.000707 -99516.300000 0 1 0
-9.120126 9.922862 -16.155603 21.039092 -0.827527 2.446329 0.020145 -0.004352 263172.000000 0 1 0
-9.767326 11.304562 -16.217403 22.049896 -0.858221 2.397181 0.048323 -0.012797 125313.000000 0 1 0
-8.756326 12.308462 -15.978303 21.988125 -0.952456 2.384271 0.023529 -0.006324 525686.000000 0 1 0
-9.138126 13.635462 -16.281703 23.119797 -0.980370 2.352137 0.053679 -0.013963 532453.000000 0 1 0
-7.969326 14.664562 -16.040203 23.148383 -1.073003 2.336341 0.053476 -0.013099 412784.000000 0 1 0
-7.379926 14.755562 -14.734403 22.119958 -1.107032 2.299782 0.047425 -0.012384 -7093.350000 0 1 0
-8.114626 15.189362 -13.614303 21.952519 -1.080141 2.239756 0.040261 -0.030354 -382095.000000 0 1 0
-7.117026 15.764862 -12.557803 21.374783 -1.146738 2.198769 0.015579 -0.026511 61072.500000 0 1 0
-6.616826 17.071762 -12.744103 22.307837 -1.201035 2.178865 0.036830 -0.032327 531411.000000 0 1 0
-5.906426 17.450162 -13.983703 23.128726 -1.244426 2.220064 0.050420 -0.015971 254594.000000 0 1 0
-6.100126 18.988462 -14.303803 24.543268 -1.259956 2.192966 0.087415 -0.009349 131711.000000 0 1 0
-5.564826 19.826062 -13.333103 24.531850 -1.297155 2.145400 0.092832 -0.024107 -118235.000000 0 1 0
-5.886926 21.205162 -13.655003 25.899303 -1.299998 2.126139 0.092032 -0.019543 90244.000000 0 0 1
-5.408126 22.218562 -12.549103 26.084330 -1.332034 2.072702 0.108155 -0.015634 -214207.000000 0 0 1
-5.674126 23.592862 -12.828703 27.448032 -1.334777 2.057123 0.096157 -0.022008 1053900.000000 0 0 1
-7.037726 24.091962 -12.822103 28.184367 -1.286585 2.043097 0.094176 -0.019291 1215340.000000 0 0 1
-7.800026 24.118962 -11.462203 27.819900 -1.258014 1.995460 0.057318 -0.020361 -158723.000000 0 0 1
-8.204126 22.837862 -11.023403 26.653162 -1.225919 1.997187 0.065861 -0.016700 -226079.000000 0 0 1
-8.701226 22.791362 -9.680903 26.246474 -1.206097 1.948563 0.080118 -0.020430 532534.000000 0 0 1
-7.764126 23.206562 -8.447103 25.887829 -1.247937 1.903179 0.080854 -0.016465 511779.000000 0 0 1
-7.321226 24.566362 -8.453303 26.991940 -1.281159 1.889335 0.077386 -0.017081 -380026.000000 0 0 1
-6.644626 24.913662 -7.296603 26.797052 -1.310157 1.846570 0.073966 -0.017499 -84546.800000 0 0 1
-6.609926 26.473362 -7.150903 28.207542 -1.326117 1.827104 0.064233 -0.029333 251844.000000 0 0 1
-5.889926 27.390162 -8.011203 29.139176 -1.358984 1.849312 0.070248 -0.028586 49259.900000 0 0 1
-6.142626 27.334462 -9.381603 29.545205 -1.349748 1.893924 0.078967 -0.027144 -102069.000000 0 0 1
-5.738726 28.673662 -10.059003 30.924026 -1.373267 1.902105 0.078592 -0.028345 413366.000000 0 0 1
-6.631426 29.771162 -9.843203 32.049751 -1.351628 1.882964 0.073720 -0.028797 571906.000000 0 0 1
-7.539726 29.996962 -10.944703 32.809323 -1.324548 1.910900 0.083465 -0.030804 715687.000000 0 0 1
-8.743926 30.959462 -10.688603 33.899716 -1.295534 1.891570 0.087538 -0.036298 367618.000000 0 0 1
-9.750326 30.319962 -9.926703 33.360281 -1.259660 1.872933 0.092583 -0.026223 -741226.000000 0 0 1
-10.928326 31.060962 -10.046503 34.425919 -1.232488 1.866935 0.085000 -0.035209 244154.000000 0 0 1
-12.035726 30.526762 -9.056803 34.040675 -1.195241 1.840098 0.107624 -0.032112 443539.000000 0 0 1
-12.510426 29.219662 -9.361903 33.135247 -1.166260 1.857233 0.121726 -0.038912 -830310.000000 0 0 1
-13.729626 29.125062 -8.695103 33.352311 -1.130287 1.834548 0.133002 -0.028444 -190529.000000 0 0 1
-14.688326 28.064462 -9.349503 33.026870 -1.088622 1.857808 0.138297 -0.032527 235282.000000 0 0 1
-14.607026 26.743862 -8.821003 31.723957 -1.070889 1.852565 0.139033 -0.036626 135713.000000 0 0 1
-15.646526 25.901462 -9.314903 31.661758 -1.027383 1.869415 0.161320 -0.035958 296141.000000 0 0 1
-15.561826 24.468562 -8.809003 30.306426 -1.004331 1.865718 0.149929 -0.035988 239241.000000 0 0 1
-14.462326 23.685062 -9.250003 29.252411 -1.022612 1.892532 0.137937 -0.031218 80138.000000 0 0 1
-14.707426 22.301262 -9.030903 28.199501 -0.987780 1.896790 0.127557 -0.027597 573323.000000 0 0 1
-13.691626 21.228762 -9.649803 27.041443 -0.997975 1.935693 0.127554 -0.024907 476266.000000 0 0 1
-13.923926 20.926762 -11.019303 27.445038 -0.983696 1.983955 0.117349 -0.017973 605412.000000 0 0 1
-13.115526 19.779062 -11.404803 26.330549 -0.985266 2.018769 0.105614 -0.013357 467278.000000 0 0 1
-13.394126 19.458862 -12.933803 26.932010 -0.967945 2.071724 0.109083 -0.009527 585425.000000 0 0 1
-14.729126 18.990362 -13.087103 27.365183 -0.911105 2.069445 0.133775 -0.015189 26134.900000 0 0 1
-15.036226 18.681962 -14.413003 27.979250 -0.893103 2.111958 0.127733 -0.011954 1579810.000000 0 0 1
-16.600226 18.590362 -14.675503 28.922991 -0.841891 2.102960 0.137282 -0.009720 1605220.000000 0 0 1
-17.342526 19.781462 -14.747803 30.159030 -0.851001 2.081741 0.111772 -0.020436 -466930.000000 0 0 1
-18.684226 19.565562 -15.061703 30.963953 -0.808436 2.078792 0.092836 -0.015810 4678.400000 0 0 1
-19.543226 20.799162 -15.573103 32.512526 -0.816520 2.070298 0.095730 -0.019971 379793.000000 0 0 1
-20.044126 21.643262 -14.567203 32.899866 -0.823740 2.029486 0.114134 -0.041300 299967.000000 0 0 1
-20.601526 22.827662 -15.136703 34.273091 -0.836612 2.028233 0.116540 -0.032885 316623.000000 0 0 1
-21.335326 23.879962 -14.239903 35.046020 -0.841617 1.989219 0.108575 -0.024848 506110.000000 0 0 1
-22.558326 23.500162 -13.617703 35.306904 -0.805844 1.966758 0.147275 -0.028974 390903.000000 0 0 1
-23.221926 24.591662 -13.050503 36.253597 -0.814038 1.939041 0.156795 -0.044330 -85732.400000 0 0 1
-26.488936 -0.843738 3.494997 26.731828 0.031842 1.439678 0.236873 -0.046083 22144.100000 0 0 1
-26.971866 -0.172538 4.616597 27.364654 0.006397 1.401279 0.243679 -0.041776 -82839.000000 0 0 1
-28.311806 -0.384738 4.974797 28.748130 0.013588 1.396873 0.222569 -0.039099 -129465.000000 0 0 1
-28.773586 0.520962 6.169097 29.432098 -0.018104 1.359626 0.227129 -0.026971 -396808.000000 0 0 1
-28.991566 1.888062 5.815497 29.629304 -0.065033 1.373239 0.248929 -0.037453 310363.000000 0 0 1
-29.300246 2.673762 6.957297 30.233382 -0.091002 1.338596 0.253644 -0.030891 -592565.000000 0 0 1
-28.073666 3.150962 7.730997 29.288694 -0.111771 1.303672 0.255393 -0.027732 -807600.000000 0 0 1
-27.330416 2.061362 8.208197 28.610756 -0.075281 1.279815 0.230454 -0.035095 -194606.000000 0 0 1
-26.399176 2.651062 9.092297 28.046648 -0.100087 1.240646 0.215563 -0.043453 -361910.000000 0 0 1
-25.597426 1.545062 9.848097 27.469992 -0.060287 1.204132 0.198351 -0.040181 -35093.500000 0 0 1
-24.604626 0.899162 9.061897 26.235740 -0.036528 1.218128 0.192791 -0.043196 603289.000000 0 0 1
-25.028396 -0.346938 8.568097 26.456629 0.013861 1.240996 0.173273 -0.032455 -560643.000000 0 0 1
-23.888226 -1.055038 7.855297 25.168753 0.044137 1.253388 0.158151 -0.036265 -275353.000000 0 0 1
-22.832626 -1.389038 8.726097 24.482708 0.060761 1.206364 0.146792 -0.053986 -86375.000000 0 1 0
-21.758226 -2.025438 8.116497 23.310948 0.092821 1.215163 0.158186 -0.042194 844970.000000 0 1 0
-20.558526 -2.405938 9.126497 22.621549 0.116499 1.155520 0.109660 -0.025787 1574700.000000 0 1 0
-19.739126 -1.309138 9.587697 21.983422 0.066225 1.119499 0.081414 -0.022891 898877.000000 0 1 0
-20.387626 -0.588338 10.648997 23.008750 0.028850 1.089618 0.113625 -0.032518 -230578.000000 0 1 0
-19.878626 0.847062 10.996797 22.733386 -0.042586 1.065886 0.074404 -0.024651 -435094.000000 0 1 0
-20.256926 1.926862 10.112597 22.722686 -0.094836 1.109573 0.088573 -0.016146 265237.000000 0 1 0
-21.618426 2.242262 9.972597 23.913109 -0.103350 1.140616 0.117932 -0.028443 -488846.000000 0 1 0
-22.050326 3.580662 9.280297 24.190120 -0.160981 1.177062 0.117540 -0.035483 -206550.000000 0 1 0
-21.900626 4.696162 10.144097 24.588494 -0.211232 1.145540 0.091693 -0.032441 511391.000000 0 1 0
-22.548126 5.842562 9.661697 25.217095 -0.253539 1.177602 0.093255 -0.025881 -208548.000000 0 0 1
-22.747826 6.968262 10.647997 26.065304 -0.297251 1.149973 0.104466 -0.031207 -266346.000000 0 0 1
-23.673326 6.598562 11.618197 27.183632 -0.271834 1.129185 0.102998 -0.029521 -54708.400000 0 0 1
-23.770726 7.638962 12.580597 27.958408 -0.310936 1.104058 0.116561 -0.032081 -125409.000000 0 0 1
-24.627226 7.307062 13.809697 29.165067 -0.288433 1.077535 0.136865 -0.031064 356293.000000 0 0 1
-26.019906 7.247362 13.523597 30.206745 -0.271646 1.106603 0.163713 -0.032629 238636.000000 0 0 1
-26.726116 6.863962 14.685197 31.257867 -0.251393 1.081723 0.157451 -0.034238 406087.000000 0 0 1
-28.251846 6.689462 14.418197 32.416047 -0.232498 1.109861 0.160947 -0.027379 276333.000000 0 0 1
-28.576516 5.566362 13.619697 32.141839 -0.192379 1.133229 0.179732 -0.019717 261435.000000 0 0 1
-29.826086 5.764162 12.974297 33.032610 -0.190906 1.167152 0.216943 -0.023295 34933.100000 0 0 1
-30.284776 4.587962 12.173997 32.960935 -0.150351 1.192491 0.236649 -0.021077 -274022.000000 0 0 1
-31.112606 3.708262 12.924297 33.893700 -0.118629 1.179574 0.207735 -0.024301 357358.000000 0 0 1
-31.711556 2.843862 11.978997 34.017741 -0.089440 1.210940 0.207585 -0.005389 -299198.000000 0 0 1
-32.937186 2.025462 12.446597 35.268661 -0.061417 1.210119 0.157587 0.005297 -27095.400000 0 0 1
-32.729966 0.914562 13.232197 35.315409 -0.027935 1.186738 0.171347 0.005025 370837.000000 0 0 1
-34.001306 0.300962 13.432997 36.559879 -0.008851 1.194558 0.135950 0.008625 437049.000000 0 0 1
-34.027083 -0.854038 14.447697 36.977124 0.025094 1.169383 0.117832 -0.002202 90535.300000 0 0 1
-33.543246 -2.069938 13.883097 36.361716 0.061631 1.179047 0.134717 -0.006443 341594.000000 0 0 1
-33.785476 -3.043238 14.871997 37.039114 0.089833 1.157619 0.153817 -0.005553 15953.200000 0 0 1
-33.584226 -4.463738 14.299097 36.773487 0.132137 1.171421 0.147918 -0.011022 270256.000000 0 0 1
-34.557380 -4.798438 13.297897 37.337268 0.137972 1.206645 0.106551 -0.013010 503741.000000 0 0 1
-34.522841 -6.155638 12.895297 37.363178 0.176452 1.218415 0.120862 -0.017099 -311600.000000 0 0 1
-35.688902 -6.475138 11.877297 38.166678 0.179480 1.254346 0.124102 -0.009214 1336000.000000 0 0 1
-37.033886 -6.606338 12.332897 39.588543 0.176529 1.253997 0.097846 -0.012868 755783.000000 0 0 1
37.347041 -5.504938 13.018197 39.932183 -0.146346 1.238719 0.097709 -0.016340 -672466.000000 0 0 1
35.803671 -5.369738 12.939797 38.447045 -0.148868 1.227533 0.108075 -0.022783 -137504.000000 0 0 1
35.077651 -6.398138 13.533497 38.138344 -0.180416 1.208040 0.101282 -0.025204 -348543.000000 0 0 1
33.817251 -6.347838 12.890597 36.743285 -0.185551 1.212340 0.122229 -0.018967 259381.000000 0 0 1
32.755911 -7.351138 13.455397 36.166789 -0.220764 1.189593 0.103195 -0.027895 165222.000000 0 0 1
32.254091 -7.017338 14.734697 36.148039 -0.214226 1.150949 0.109348 -0.017704 258305.000000 0 0 1
31.256721 -7.961838 15.090097 35.610174 -0.249420 1.133206 0.114734 -0.009466 416855.000000 0 0 1
30.544961 -7.825938 16.439597 35.559813 -0.250815 1.090200 0.115257 -0.009757 59941.300000 0 0 1
31.436661 -8.257638 17.436597 36.884782 -0.256872 1.078408 0.093234 -0.005102 305850.000000 0 0 1
30.862721 -8.278138 18.757197 37.052227 -0.262056 1.039981 0.098356 -0.011303 91107.500000 0 0 1
31.871741 -8.964738 19.745497 38.549436 -0.274191 1.033038 0.083303 -0.010669 796386.000000 0 0 1
33.004611 -8.217938 20.135597 39.525702 -0.244031 1.036274 0.083067 -0.010395 985550.000000 0 0 1
34.162001 -8.286938 19.250197 40.078495 -0.237981 1.069785 0.058875 -0.001405 737163.000000 0 0 1
35.404421 -7.637738 19.887197 41.319592 -0.212472 1.068657 0.057031 -0.011574 -31966.200000 0 0 1
35.759091 -8.155238 21.140897 42.333887 -0.224226 1.047908 0.065082 -0.013825 -481574.000000 0 0 1
37.044621 -7.744838 21.505897 43.529186 -0.206099 1.054047 0.043174 -0.011783 -380268.000000 0 0 1
-37.309186 -8.458738 22.727797 44.498071 0.222951 1.034729 0.054976 -0.010999 -325999.000000 0 0 1
37.415651 -7.848138 23.974497 45.125389 -0.206758 1.010678 0.061071 -0.011665 -13779.100000 0 0 1
37.402951 -8.863838 24.964897 45.834424 -0.232690 0.994794 0.061732 -0.017556 -591636.000000 0 0 1
36.879021 -8.441438 26.374397 46.118639 -0.225019 0.961999 0.080680 -0.019960 79194.200000 0 0 1
-37.343056 -7.424138 27.078697 46.721274 0.196250 0.952584 0.050868 -0.026672 56666.300000 0 0 1
36.807131 -6.984538 28.167797 46.871883 -0.187531 0.926103 0.065053 -0.028705 -262375.000000 0 0 1
37.404211 -5.961238 29.219797 47.837307 -0.158044 0.913705 0.083455 -0.027994 141983.000000 0 0 1
-36.744426 -6.465438 30.257797 48.036330 0.174174 0.889380 0.082115 -0.036591 362445.000000 0 0 1
-35.424490 -6.889838 29.908897 46.871169 0.192095 0.878757 0.069586 -0.037726 496020.000000 0 0 1
-34.586398 -7.494838 31.066997 47.090868 0.213400 0.850344 0.071042 -0.027797 4227.780000 0 0 1
-34.670601 -8.911038 31.219297 47.498439 0.251575 0.853606 0.074573 -0.023123 111798.000000 0 0 1
-33.977056 -9.386438 32.343097 47.839539 0.269536 0.828374 0.070362 -0.018405 -194976.000000 0 0 1
-33.956206 -10.905238 32.537797 48.276872 0.310751 0.831209 0.084027 -0.023813 -60209.300000 0 0 1
-35.204509 -11.404938 32.973997 49.565255 0.313293 0.842949 0.080937 -0.022174 334903.000000 0 0 1
-35.215546 -12.776738 32.761397 49.766342 0.348046 0.852232 0.079734 -0.024215 1413720.000000 0 0 1
-36.754506 -13.147738 32.906497 51.054816 0.343534 0.870384 0.069078 -0.025039 1180060.000000 0 0 1
-37.082376 -14.515138 33.084097 51.772090 0.373096 0.877555 0.064621 -0.035468 -277146.000000 0 0 1
36.479351 -14.501538 33.344797 51.506438 -0.378373 0.866640 0.057114 -0.033787 -56091.900000 0 0 1
35.957031 -15.972238 33.454897 51.645432 -0.418023 0.866129 0.049311 -0.025325 38327.200000 0 0 1
36.556311 -16.609138 -33.260322 52.139010 -0.426460 2.262586 0.050132 -0.034696 165723.000000 0 0 1
36.150351 -17.956738 -33.161822 52.239820 -0.461023 2.258546 0.047353 -0.033667 -350102.000000 0 0 1
36.556221 -18.839038 -32.004222 52.110813 -0.475848 2.232114 0.045948 -0.014855 148167.000000 0 0 1
35.880961 -18.384238 -30.834622 50.756255 -0.473493 2.223711 0.041968 -0.015577 13663.800000 0 0 1
36.322291 -19.209738 -29.762122 50.735656 -0.486475 2.197665 0.043883 -0.010786 -933278.000000 0 0 1
35.402341 -19.346538 -28.484022 49.385765 -0.500134 2.185560 0.045783 -0.011511 158877.000000 0 0 1
34.231991 -20.073738 -28.738422 48.996745 -0.530362 2.197573 0.044989 -0.007227 338308.000000 0 0 1
33.251461 -19.349638 -29.505022 48.483136 -0.527018 2.225044 0.045637 -0.010860 -239153.000000 0 0 1
31.892471 -20.048038 -29.791922 48.027202 -0.561194 2.239939 0.053032 -0.012230 806847.000000 0 0 1
30.768841 -19.276538 -30.230022 47.245748 -0.559674 2.265095 0.053742 -0.009830 708809.000000 0 0 1
29.703541 -20.215938 -30.351222 47.033830 -0.597580 2.272220 0.060229 -0.008965 285559.000000 0 0 1
28.550141 -19.819538 -31.308622 46.777713 -0.606823 2.304071 0.055465 -0.008975 357768.000000 0 0 1
28.954441 -19.810638 -32.677722 47.944286 -0.600043 2.320712 0.038403 -0.006229 135387.000000 0 0 1
27.828841 -19.650138 -33.506022 47.783112 -0.614813 2.347890 0.066001 -0.004030 151225.000000 0 0 1
28.251341 -19.934638 32.896597 47.725404 -0.614486 0.810289 0.059893 -0.020778 529068.000000 0 0 1
29.112841 -18.873738 32.371697 47.452105 -0.575176 0.820033 0.050383 -0.014126 568703.000000 0 0 1
29.179541 -18.717838 30.938997 46.465305 -0.570356 0.842162 0.039363 -0.021545 -770209.000000 0 0 1
28.019741 -18.001138 30.288397 45.017040 -0.571046 0.832781 0.041072 -0.016431 -882508.000000 0 0 1
27.886341 -16.682538 30.644997 44.666217 -0.539119 0.814697 0.054867 -0.018423 152563.000000 0 0 1
27.276341 -15.913638 29.647097 43.315044 -0.528141 0.816944 0.058486 -0.016711 -319514.000000 0 0 1
26.976141 -14.486938 30.188897 42.999454 -0.492829 0.792487 0.069371 -0.015275 -164311.000000 0 0 1
28.036141 -13.556038 30.232597 43.402780 -0.450377 0.800206 0.079797 -0.009404 344161.000000 0 0 1
27.568441 -12.263538 30.683397 43.033524 -0.418554 0.777012 0.092830 -0.016689 156279.000000 0 0 1
28.764041 -11.299238 30.697397 43.558845 -0.374306 0.788748 0.102801 -0.024701 238424.000000 0 0 1
29.470141 -11.143238 29.475297 43.144572 -0.361503 0.818695 0.104244 -0.016141 -248591.000000 0 0 1
30.780391 -10.728438 29.747197 44.129668 -0.335381 0.831070 0.098980 -0.015988 -269028.000000 0 0 1
31.507391 -10.165638 28.509697 43.690488 -0.312099 0.859868 0.098001 -0.016493 -133842.000000 0 0 1
31.099861 -8.865138 28.097197 42.839754 -0.277689 0.855465 0.085294 -0.011739 110468.000000 0 0 1
31.815561 -8.346138 26.970497 42.535816 -0.256548 0.883997 0.081826 -0.009022 215120.000000 0 0 1
31.717481 -6.762138 26.986797 42.190192 -0.210054 0.876758 0.077868 -0.011242 1635390.000000 0 0 1
30.374091 -6.256038 26.709697 40.928368 -0.203126 0.859791 0.089993 -0.009957 1165390.000000 0 0 1
30.501091 -4.901138 26.374197 40.619404 -0.159325 0.864132 0.093278 -0.009181 59392.500000 0 0 1
29.167541 -4.208438 26.076397 39.350157 -0.143296 0.846410 0.083872 -0.000012 -296557.000000 0 0 1
28.494841 -4.668638 24.943497 38.156653 -0.162399 0.858316 0.088898 -0.011274 -733741.000000 0 0 1
27.267341 -4.034138 24.828597 37.097727 -0.146882 0.837563 0.097544 -0.014031 -727559.000000 0 0 1
26.422841 -4.580138 23.659997 35.762266 -0.171635 0.847858 0.104310 -0.014029 -346974.000000 0 0 1
26.761841 -3.948938 22.434397 35.143882 -0.146501 0.878432 0.109624 -0.006687 86736.000000 0 0 1
26.258641 -4.522038 21.256897 34.085491 -0.170539 0.897412 0.119319 -0.005548 -134836.000000 0 0 1
26.626141 -3.715538 20.027597 33.524040 -0.138649 0.930529 0.126700 -0.003980 260702.000000 0 0 1
25.814341 -2.560538 19.894497 32.691399 -0.098867 0.916559 0.121576 0.005754 182840.000000 0 0 1
26.331041 -1.708638 18.880397 32.445532 -0.064800 0.949720 0.127951 -0.000162 -637999.000000 0 0 1
25.381741 -0.592838 18.527997 31.430414 -0.023353 0.940366 0.115990 -0.003263 -197591.000000 0 0 1
24.394941 -1.255838 17.720497 30.177911 -0.051434 0.943200 0.109112 -0.006536 148400.000000 0 0 1
23.295641 -0.423738 17.374697 29.064524 -0.018188 0.930046 0.123682 -0.005462 464540.000000 0 0 1
22.052641 -1.235738 16.960697 27.848003 -0.055977 0.915940 0.132971 -0.011608 139830.000000 0 0 1
22.331541 -1.881938 15.662497 27.341420 -0.084074 0.960819 0.149386 -0.015958 418363.000000 0 0 1
21.199241 -2.587438 15.180097 26.201870 -0.121453 0.952863 0.176372 -0.024337 144317.000000 0 0 1
21.495841 -3.179038 13.795197 25.738782 -0.146827 1.005141 0.188878 -0.044105 -26767.900000 0 0 1
20.448941 -3.993138 13.294697 24.715447 -0.192847 1.002840 0.207128 -0.045534 622212.000000 0 1 0
20.611141 -4.319138 11.923697 24.200178 -0.206565 1.055594 0.179813 -0.044651 -573525.000000 0 1 0
19.461441 -5.200538 11.458997 23.175459 -0.261121 1.053600 0.181178 -0.049061 -435142.000000 0 1 0
19.495941 -6.483338 12.053897 23.820618 -0.321044 1.040223 0.178699 -0.052960 756794.000000 0 1 0
18.253841 -7.120838 11.804897 22.874978 -0.371944 1.028550 0.170896 -0.047619 145975.000000 0 1 0
18.260441 -8.496638 12.353197 23.627062 -0.435507 1.020616 0.179318 -0.054940 164185.000000 0 1 0
19.062341 -9.330438 11.490897 24.134428 -0.455188 1.074558 0.163942 -0.060444 764028.000000 0 1 0
18.673241 -10.685738 11.521097 24.405135 -0.519764 1.079151 0.175097 -0.061057 -314930.000000 0 1 0
19.242641 -11.446438 10.376497 24.677355 -0.536622 1.136815 0.161867 -0.060083 -20348.200000 0 1 0
18.559941 -11.206338 9.130797 23.524984 -0.543203 1.172193 0.139765 -0.050039 644933.000000 0 1 0
19.161041 -11.877538 8.024297 23.929286 -0.554909 1.228837 0.141186 -0.053416 183728.000000 0 1 0
18.689141 -11.168738 6.723197 22.786533 -0.538657 1.271287 0.121429 -0.041735 138310.000000 0 1 0
19.310941 -9.897538 6.710297 22.713471 -0.473625 1.270888 0.129553 -0.032911 678192.000000 0 1 0
19.389241 -9.462438 5.400797 22.240706 -0.454022 1.325510 0.081365 -0.037190 -321026.000000 0 1 0
20.054641 -8.088338 5.233197 22.248510 -0.383361 1.333356 0.112211 -0.033456 -460242.000000 0 1 0
20.605241 -7.870138 3.963097 22.410291 -0.364848 1.393019 0.121315 -0.035491 739018.000000 0 1 0
21.213041 -6.565138 3.952397 22.554724 -0.300137 1.394651 0.150847 -0.032515 -176991.000000 0 1 0
21.867641 -6.235638 2.575497 22.884713 -0.277781 1.458015 0.176359 -0.036004 -218294.000000 0 1 0
20.961641 -6.157438 1.499497 21.898697 -0.285711 1.502268 0.133505 -0.045320 542925.000000 0 1 0
21.347041 -5.165038 0.609497 21.971465 -0.237393 1.543052 0.139224 -0.043272 -48840.500000 0 1 0
-25.983996 -14.840638 -0.109803 29.923647 0.518933 1.574466 0.117209 -0.024255 -1016770.000000 0 0 1
-24.905326 -14.162738 -0.648803 28.657972 0.517059 1.593438 0.092141 -0.012210 -340900.000000 0 0 1
-23.641926 -14.711538 -0.350403 27.847671 0.556630 1.583380 0.118065 -0.012116 240849.000000 0 0 1
-23.058826 -14.478338 1.074597 27.248605 0.560673 1.531349 0.148641 -0.031762 -570670.000000 0 0 1
-23.732926 -15.161138 2.113697 28.241452 0.568478 1.495882 0.139518 -0.014183 601750.000000 0 0 1
-23.035226 -14.845638 3.332497 27.606523 0.572482 1.449787 0.140668 -0.007699 547996.000000 0 0 1
-23.752626 -15.572938 4.481197 28.753865 0.580323 1.414312 0.158476 -0.003488 49449.900000 0 0 1
-23.611326 -17.000438 4.302597 29.411255 0.624031 1.423979 0.196498 -0.020640 675026.000000 0 0 1
-24.447726 -17.684738 5.255597 30.627807 0.626239 1.398347 0.214029 -0.022747 -29757.800000 0 0 1
-24.310226 -19.174538 5.102697 31.379731 0.667840 1.407460 0.161226 -0.013684 131723.000000 0 0 1
-24.836726 -19.907638 6.230197 32.434432 0.675679 1.377509 0.154370 -0.019354 248956.000000 0 0 1
-24.535626 -21.246738 5.980197 33.002781 0.713684 1.388587 0.140903 -0.026939 -188724.000000 0 0 1
-24.853726 -22.341438 7.053397 34.155497 0.732216 1.362791 0.125672 -0.025026 -231685.000000 0 0 1
-24.206326 -22.282638 8.303497 33.932436 0.744042 1.323579 0.128059 -0.023331 -289210.000000 0 0 1
-24.351926 -23.421238 9.172297 35.010023 0.765919 1.305712 0.106615 -0.022295 -377645.000000 0 0 1
-23.555826 -23.432838 10.470197 34.836760 0.782781 1.265527 0.127847 -0.029076 -226156.000000 0 0 1
-23.795226 -22.396838 11.338897 34.589040 0.755134 1.236804 0.111270 -0.031549 -64604.800000 0 0 1
-23.185226 -22.535038 12.595597 34.699160 0.771178 1.199317 0.104032 -0.033615 -442117.000000 0 0 1
-23.740226 -21.477838 13.565197 34.769389 0.735407 1.170004 0.087750 -0.031876 -932926.000000 0 0 1
-24.939626 -21.912138 14.079697 36.060568 0.720869 1.169681 0.083349 -0.034975 -916620.000000 0 0 1
-25.481536 -21.171638 15.114497 36.414213 0.693278 1.142775 0.087452 -0.023544 -321308.000000 0 0 1
-26.834516 -21.756238 15.578997 37.896310 0.681265 1.147141 0.044015 -0.023374 -327981.000000 0 0 1
-27.898176 -21.446638 14.696597 38.134715 0.655392 1.175170 0.047732 -0.022481 116574.000000 0 0 1
-28.253116 -22.558938 13.883697 38.728559 0.673800 1.204149 0.052169 -0.027211 335457.000000 0 0 1
-29.411376 -23.439638 14.530897 40.318639 0.672883 1.202098 0.056761 -0.023890 -27262.400000 0 0 1
-29.026886 -24.154438 15.689097 40.891866 0.694034 1.177026 0.049592 -0.011609 44599.500000 0 0 1
-29.960136 -25.166158 16.112697 42.315059 0.698653 1.180157 0.027503 -0.014188 157517.000000 0 0 1
-29.781006 -26.530518 15.377997 42.746456 0.727739 1.202797 0.050774 -0.015588 -865.537000 0 0 1
-30.208396 -26.501778 14.040397 42.567877 0.720130 1.234667 0.067877 -0.026260 -360168.000000 0 0 1
-31.445186 -27.153418 13.918697 43.815955 0.712289 1.247533 0.086937 -0.036255 -425583.000000 0 0 1
-31.935286 -27.344188 12.471797 43.853310 0.708104 1.282418 0.134004 -0.043171 -252670.000000 0 0 1
-31.287706 -28.371168 11.761897 43.842741 0.736550 1.299195 0.121004 -0.038134 -32823.700000 0 0 1
-31.807266 -28.646348 10.472297 44.067952 0.733159 1.330861 0.138952 -0.025147 -224955.000000 0 0 1
-31.228316 -29.939938 9.892697 44.378745 0.764338 1.345992 0.118009 -0.033382 66930.400000 0 0 1
-31.660736 -31.120518 10.619597 45.647176 0.776794 1.336000 0.112998 -0.015031 120294.000000 0 0 1
-31.168286 -32.336688 10.068297 46.027101 0.803795 1.350266 0.106733 -0.023065 -301398.000000 0 0 1
-31.352606 -33.673218 10.916197 47.286730 0.821071 1.337844 0.098204 -0.022990 652675.000000 0 0 1
-32.699316 33.654013 11.121197 48.223634 -0.799785 1.338084 0.094195 -0.018158 404285.000000 0 0 1
-32.742396 32.380982 11.728997 47.520120 -0.779849 1.321397 0.104260 -0.024287 750596.000000 0 0 1
-34.156535 32.059443 12.393897 48.457047 -0.753738 1.312151 0.114931 -0.020879 1474560.000000 0 0 1
-35.256240 31.800432 11.535697 48.860436 -0.733908 1.332451 0.073133 -0.019171 284724.000000 0 0 1
-35.806436 32.984667 10.989397 49.908475 -0.744402 1.348786 0.092343 -0.013561 -1643730.000000 0 0 1
-37.201826 32.839627 10.461997 50.713611 -0.723198 1.363009 0.062647 0.003566 -1033220.000000 0 0 1
-37.217836 32.336998 9.139297 50.143548 -0.715340 1.387509 0.039444 -0.000851 85852.700000 0 0 1
36.421751 31.912041 8.803997 49.218214 0.719498 1.390952 0.020371 0.002086 -14576.500000 0 0 1
36.231331 31.257826 7.428697 48.424648 0.711838 1.416781 0.019333 -0.006190 -164705.000000 0 0 1
36.654421 29.947936 7.274297 47.888838 0.685042 1.418306 0.039947 -0.011680 -130707.000000 0 0 1
36.266341 29.477066 6.011497 47.119879 0.682494 1.442869 0.065249 -0.010161 -90547.500000 0 0 1
36.566121 27.998586 5.749597 46.411850 0.653472 1.446595 0.075104 -0.014233 -413388.000000 0 0 1
35.729911 27.025236 6.381697 45.251695 0.647569 1.429298 0.062531 -0.013737 152321.000000 0 0 1
36.082941 26.642396 7.714697 45.511673 0.636013 1.400464 0.045189 -0.006018 35601.700000 0 0 1
34.958041 25.731926 8.283597 44.190662 0.634533 1.382230 0.049583 -0.006876 -7311.590000 0 0 1
34.838201 24.545356 7.500797 43.271661 0.613775 1.396574 0.058061 -0.017795 -256110.000000 0 0 1
33.752341 23.749776 7.880097 42.016286 0.613170 1.382130 0.054160 -0.020456 -821857.000000 0 0 1
33.585681 22.358316 7.137597 40.973620 0.587340 1.395703 0.075028 -0.023815 708379.000000 0 0 1
34.669761 21.449116 7.361897 41.427701 0.554034 1.392143 0.081435 -0.022947 1040480.000000 0 0 1
35.979661 21.795616 6.904797 42.629345 0.544656 1.408107 0.099200 -0.032718 337881.000000 0 0 1
37.016601 20.662416 7.015797 42.969589 0.509112 1.406789 0.083996 -0.033272 -93177.100000 0 0 1
36.701491 19.636316 6.107897 42.070069 0.491276 1.425097 0.114678 -0.041803 -43796.100000 0 0 1
-37.368676 18.571916 6.257597 42.195871 -0.461238 1.421948 0.115536 -0.043008 -508885.000000 0 0 1
37.191181 17.386716 5.376797 41.405214 0.437308 1.440571 0.112822 -0.041739 -128077.000000 0 0 1
-37.363476 17.467116 3.996097 41.437884 -0.437304 1.474210 0.124325 -0.040590 192354.000000 0 0 1
37.046661 16.362916 3.294997 40.633202 0.415917 1.489616 0.120558 -0.044806 -800341.000000 0 0 1
-37.085896 16.004016 2.080997 40.445305 -0.407396 1.519321 0.139852 -0.032146 1147960.000000 0 0 1
-35.889185 15.154616 2.052297 39.011638 -0.399549 1.518165 0.144685 -0.042011 746410.000000 0 0 1
-34.795400 15.824716 2.550797 38.309895 -0.426833 1.504164 0.156169 -0.042912 -902580.000000 0 0 1
-33.497906 14.991116 2.749497 36.802214 -0.420793 1.496017 0.162817 -0.047350 259208.000000 0 0 1
-33.459316 14.301816 3.944397 36.600902 -0.403935 1.462819 0.163142 -0.045750 -615802.000000 0 0 1
-32.200396 13.747616 4.019597 35.242298 -0.403512 1.456492 0.168749 -0.048089 -987421.000000 0 0 1
-31.836876 13.074516 5.326797 34.826777 -0.389672 1.417242 0.179934 -0.038338 -343500.000000 0 0 1
-32.176816 11.780816 5.529497 34.708939 -0.350969 1.410804 0.199633 -0.035552 -14505.700000 0 0 1
-31.690296 11.279416 6.705397 34.299598 -0.341945 1.374034 0.186543 -0.025301 -293379.000000 0 0 1
-31.831026 9.800516 6.785097 33.989731 -0.298681 1.369824 0.215235 -0.025360 -50965.000000 0 0 1
-33.183786 9.427616 6.906097 35.181497 -0.276809 1.373214 0.202381 -0.021541 -104586.000000 0 0 1
-33.375986 8.072016 6.534497 34.954449 -0.237294 1.382747 0.224992 -0.023248 894341.000000 0 0 1
-34.916406 7.729316 6.481897 36.344363 -0.217853 1.391490 0.188249 -0.012837 655951.000000 0 0 1
-35.568708 7.742516 7.687897 37.204614 -0.214334 1.362659 0.178926 -0.010912 -68510.500000 0 0 1
-36.747986 6.950616 7.578897 38.159733 -0.186934 1.370857 0.130350 -0.012560 275822.000000 0 0 1
-37.277246 6.237016 8.794997 38.805224 -0.165779 1.342165 0.125734 -0.011193 -70991.400000 0 0 1
36.980521 7.025116 9.771797 38.889577 0.187731 1.316804 0.132049 -0.011800 374618.000000 0 0 1
-37.133406 7.884016 10.555697 39.401399 -0.209209 1.299582 0.155897 -0.021189 27230.100000 0 0 1
37.065271 8.725116 11.625297 39.813433 0.231190 1.274485 0.141497 -0.031849 31716.200000 0 0 1
36.452041 8.004416 12.712297 39.426190 0.216157 1.242498 0.127703 -0.030603 612521.000000 0 0 1
35.725711 8.974316 13.450497 39.214546 0.246108 1.220690 0.144965 -0.037253 -31282.100000 0 0 1
35.097551 8.563216 14.819397 39.048448 0.239308 1.181526 0.137914 -0.039810 -87592.400000 0 0 1
33.919901 7.792416 14.815597 37.825697 0.225812 1.168339 0.136113 -0.044692 -81918.700000 0 0 1
33.456781 7.497316 16.101197 37.878945 0.220448 1.131757 0.125425 -0.036789 -10669.100000 0 0 1
31.966071 7.103216 16.174297 36.522503 0.218658 1.112012 0.121879 -0.031304 -609345.000000 0 0 1
31.148521 8.259416 16.002997 35.979775 0.259197 1.109870 0.122591 -0.038508 518592.000000 0 0 1
29.752041 8.046916 15.841597 34.653903 0.264146 1.096022 0.126221 -0.031774 505326.000000 0 0 1
29.010541 7.625616 17.116397 34.535960 0.257042 1.052258 0.128816 -0.041639 -1016210.000000 0 0 1
29.060841 8.574316 18.193597 35.342019 0.286907 1.030038 0.141007 -0.043006 144098.000000 0 0 1
28.380641 8.245916 19.406197 35.356136 0.282762 0.989775 0.134639 -0.028690 -273509.000000 0 0 1
28.829441 7.068116 20.334197 35.980196 0.240428 0.970182 0.144199 -0.026345 -325961.000000 0 0 1
28.054241 6.881016 21.487997 36.001706 0.240527 0.931214 0.103172 -0.013199 -176982.000000 0 0 1
28.429641 5.785316 22.309597 36.598258 0.200755 0.915265 0.097260 -0.011863 -520486.000000 0 0 1
27.549041 5.661516 23.562797 36.690705 0.202685 0.873431 0.100754 0.002451 -429601.000000 0 0 1
26.281141 5.177616 23.274297 35.485194 0.194518 0.855439 0.063366 -0.001914 -302885.000000 0 0 1
25.263941 6.188216 23.418097 34.999543 0.240213 0.837803 0.081923 -0.002418 -746585.000000 0 0 1
23.865041 5.741116 23.159497 33.747043 0.236080 0.814451 0.095998 -0.016335 -1265530.000000 0 0 1
23.638841 5.697716 21.731797 32.611804 0.236520 0.841456 0.087400 -0.002984 1372700.000000 0 0 1
22.260441 5.389816 21.404297 31.348386 0.237554 0.819225 0.068914 -0.002920 675831.000000 0 0 1
21.544141 3.981616 21.701897 30.837892 0.182750 0.790146 0.099747 -0.008613 397995.000000 0 0 1
20.284141 3.713516 21.122897 29.519711 0.181070 0.773382 0.101529 -0.018505 146363.000000 0 0 1
19.222841 4.504216 21.588297 29.255087 0.230163 0.740794 0.113812 -0.020745 -843288.000000 0 0 1
17.946841 4.256216 20.751197 27.763585 0.232855 0.726619 0.156465 -0.034897 -182578.000000 0 0 1
17.307241 3.051716 21.136297 27.488118 0.174532 0.693639 0.157622 -0.034242 -878210.000000 0 0 1
16.252541 2.769116 20.315897 26.163883 0.168760 0.681726 0.187701 -0.043275 -1168420.000000 0 0 1
15.244241 1.805916 20.954897 25.976064 0.117916 0.632249 0.199294 -0.038905 -290629.000000 0 0 1
15.641341 0.442216 20.865197 26.080712 0.028265 0.643461 0.170026 -0.032428 249494.000000 0 0 1
14.763041 -0.280184 21.669397 26.221912 -0.018976 0.598139 0.184990 -0.039673 -494518.000000 0 0 1
15.016441 -1.773984 21.689697 26.440187 -0.117591 0.608807 0.159091 -0.029052 -229544.000000 0 0 1
14.536841 -2.416084 20.572697 25.305989 -0.164699 0.621583 0.161773 -0.017012 -144725.000000 0 0 1
14.808041 -3.804284 20.640097 25.685877 -0.251468 0.637547 0.119611 -0.005466 -205185.000000 0 0 1
14.327241 -4.593084 19.411097 24.559254 -0.310233 0.659370 0.119563 -0.012783 471756.000000 0 1 0
12.910441 -4.575484 19.252297 23.627642 -0.340591 0.618376 0.116352 -0.013325 374403.000000 0 1 0
12.547441 -4.919284 17.900597 22.406896 -0.373638 0.645352 0.112576 -0.016043 1569040.000000 0 1 0
10.977441 -4.844184 17.628497 21.324499 -0.415583 0.597618 0.091747 -0.008978 1648470.000000 0 1 0
10.306441 -5.782984 18.474897 21.931426 -0.511328 0.569086 0.089528 0.000316 -610916.000000 0 1 0
8.962841 -5.839884 18.083797 21.010961 -0.577475 0.534185 0.067468 -0.016532 278023.000000 0 1 0
7.996641 -6.853684 18.856197 21.598042 -0.708585 0.509371 0.062072 -0.023160 545347.000000 0 1 0
8.230841 -8.233284 18.587897 21.932707 -0.785547 0.559545 0.068810 -0.027471 -271538.000000 0 1 0
9.176141 -8.920084 19.359497 23.206887 -0.771249 0.584091 0.103632 -0.025255 -65411.400000 0 1 0
9.298841 -10.375184 18.864297 23.451537 -0.840053 0.636140 0.128329 -0.039323 146263.000000 0 1 0
9.611341 -10.369484 17.469797 22.474383 -0.823324 0.680401 0.115075 -0.027814 -25367.900000 0 1 0
9.803641 -11.696884 17.112397 22.929514 -0.873227 0.728304 0.119760 -0.036166 203797.000000 0 1 0
9.714741 -12.029784 15.580997 21.951296 -0.891464 0.781584 0.112078 -0.030185 202647.000000 0 1 0
10.167341 -13.326584 15.191897 22.622255 -0.919067 0.834502 0.091499 -0.023460 -39833.100000 0 1 0
10.033641 -13.441184 13.792397 21.715654 -0.929549 0.882612 0.083581 -0.018562 -246765.000000 0 1 0
10.771841 -14.699384 13.183497 22.492422 -0.938389 0.944522 0.107804 -0.025586 1109270.000000 0 1 0
12.133741 -14.517184 12.738997 22.809173 -0.874593 0.978216 0.090551 -0.028295 811134.000000 0 1 0
12.260841 -13.664584 11.605397 21.719446 -0.839491 1.007079 0.051075 -0.026173 -1090450.000000 0 1 0
13.710441 -13.332284 11.296297 22.211086 -0.771415 1.037252 0.084873 -0.033189 -379083.000000 0 1 0
14.494141 -14.388384 10.710797 23.061373 -0.781737 1.087786 0.098267 -0.033136 1044590.000000 0 1 0
15.669341 -13.827684 10.060197 23.193548 -0.723044 1.122146 0.092287 -0.046066 774553.000000 0 1 0
16.650941 -14.890184 9.560797 24.297742 -0.729632 1.166377 0.085997 -0.051293 55000.100000 0 1 0
17.243441 -15.742284 10.566697 25.628321 -0.739920 1.145813 0.087209 -0.039995 11430.300000 0 0 1
16.425441 -16.759584 11.009897 25.920969 -0.795467 1.132112 0.133504 -0.037615 -542743.000000 0 0 1
16.978941 -17.357984 12.284397 27.211955 -0.796437 1.102425 0.122296 -0.036166 391635.000000 0 0 1
18.121841 -18.209884 12.097697 28.396396 -0.787821 1.130697 0.142402 -0.045106 488122.000000 0 0 1
18.625741 -18.696884 13.344397 29.573039 -0.787304 1.102647 0.095200 -0.039100 -632788.000000 0 0 1
19.816441 -19.593484 13.072197 30.781135 -0.779741 1.132186 0.041888 -0.035731 -223256.000000 0 0 1
20.865741 -18.792784 12.524797 30.747657 -0.733176 1.151255 0.039302 -0.036507 -754231.000000 0 0 1
21.972941 -19.541384 12.158697 31.819958 -0.726894 1.178719 0.030596 -0.033319 -39060.100000 0 0 1
22.872141 -18.680184 11.191397 31.580556 -0.684855 1.208549 0.061673 -0.034572 -348004.000000 0 0 1
22.507741 -18.667784 9.792897 30.838051 -0.692409 1.247642 0.057194 -0.031578 547341.000000 0 0 1
21.231241 -18.243884 9.304197 29.498695 -0.709865 1.249907 0.069331 -0.036541 441802.000000 0 0 1
20.916241 -16.758084 9.588497 28.465098 -0.675472 1.227226 0.122779 -0.053331 47672.100000 0 0 1
21.912641 -15.944184 8.958397 28.541789 -0.629027 1.251531 0.120923 -0.035055 490715.000000 0 0 1
21.624141 -14.577984 9.025497 27.596752 -0.593168 1.237617 0.137967 -0.048425 -66020.100000 0 0 1
-35.767453 24.507662 8.043897 44.098078 -0.600720 1.387360 0.107819 -0.029330 -527776.000000 0 0 1
-34.706278 23.847762 8.628697 42.984833 -0.602037 1.368685 0.120891 -0.036715 -509025.000000 0 0 1
-33.833636 24.635262 9.351797 42.884346 -0.629356 1.350960 0.126845 -0.031063 -368565.000000 0 0 1
-32.588506 23.968162 9.964997 41.662749 -0.634143 1.329273 0.144840 -0.043829 85180.300000 0 0 1
-31.685016 23.493062 8.982797 40.454355 -0.638011 1.346882 0.148871 -0.043581 316416.000000 0 0 1
-30.672276 22.657662 9.548897 39.310807 -0.636231 1.325434 0.157685 -0.045732 342247.000000 0 0 1
-30.165626 21.707662 8.441397 38.110953 -0.623770 1.347449 0.142106 -0.051730 383687.000000 0 0 1
-31.204826 20.875062 7.936597 38.373154 -0.589595 1.362466 0.147715 -0.058997 749711.000000 0 0 1
-30.554026 19.729262 7.383397 37.112084 -0.573359 1.370511 0.159121 -0.057307 310594.000000 0 0 1
-31.372586 18.976562 6.273997 37.198280 -0.543998 1.401323 0.145733 -0.049355 44261.200000 0 0 1
-32.203116 17.938662 6.787097 37.482008 -0.508238 1.388716 0.145916 -0.052158 252090.000000 0 0 1
-33.226286 17.682362 5.856897 38.091406 -0.489059 1.416425 0.107000 -0.045930 -268792.000000 0 0 1
-34.108236 16.507162 6.328497 38.417548 -0.450737 1.405313 0.109510 -0.028332 -427051.000000 0 0 1
-34.720976 16.678762 7.589997 39.259843 -0.447817 1.376244 0.080330 -0.032969 399004.000000 0 0 1
-35.405766 15.456362 7.916897 39.435322 -0.411612 1.368666 0.088279 -0.033896 3497.020000 0 0 1
-36.438266 15.645862 9.058697 40.676777 -0.405575 1.346214 0.086797 -0.031614 7359.760000 0 0 1
37.352321 16.366762 8.698097 41.698005 0.412975 1.360656 0.103825 -0.036448 -224741.000000 0 0 1
36.728561 16.959062 9.803097 41.625685 0.432574 1.333057 0.111583 -0.031656 -76648.100000 0 0 1
35.851341 18.158862 9.360297 41.263520 0.468838 1.341962 0.088895 -0.026689 -426326.000000 0 0 1
34.615771 17.699662 8.872797 39.878016 0.472661 1.346420 0.105856 -0.042426 -394236.000000 0 0 1
33.789351 18.813962 8.731397 39.647480 0.508050 1.348750 0.090262 -0.035488 362053.000000 0 0 1
32.262651 18.679562 8.422397 38.219647 0.524823 1.348604 0.069432 -0.032672 60299.800000 0 0 1
31.593061 19.835462 8.765597 38.319743 0.560641 1.340004 0.073157 -0.028810 -1166660.000000 0 0 1
30.255111 19.862162 8.435697 37.162322 0.580924 1.341804 0.045522 -0.023951 -901994.000000 0 0 1
29.833441 20.033662 6.928597 36.597640 0.591353 1.380329 0.043599 -0.021240 -901228.000000 0 0 1
30.015251 18.859162 6.204297 35.987172 0.560983 1.397528 0.062901 -0.020623 20370.900000 0 0 1
29.649641 18.980162 4.787697 35.528436 0.569418 1.435628 0.061855 -0.026994 430691.000000 0 0 1
28.187541 19.363362 4.376297 34.476502 0.601912 1.443517 0.086414 -0.025575 -419858.000000 0 0 1
27.197641 18.543662 4.960897 33.289481 0.598414 1.421216 0.082324 -0.024775 1847270.000000 0 0 1
25.788941 18.909362 4.805897 32.337750 0.632685 1.421628 0.107530 -0.025426 1809220.000000 0 0 1
25.372941 20.302162 5.257697 32.918191 0.674832 1.410389 0.113012 -0.019181 -1244080.000000 0 0 1
25.553441 21.262862 4.262197 33.514981 0.694006 1.443278 0.087096 -0.021704 373138.000000 0 0 1
25.141941 22.520162 4.791297 34.091515 0.730446 1.429787 0.104422 -0.019733 -107438.000000 0 0 1
26.159941 23.652762 4.496597 35.552989 0.735108 1.443981 0.088919 -0.022951 158853.000000 0 0 1
27.400741 23.430062 5.145697 36.417669 0.707441 1.429025 0.083229 -0.025627 -195815.000000 0 0 1
28.265941 24.494262 4.937897 37.726849 0.714032 1.439534 0.096183 -0.022759 -732930.000000 0 0 1
29.632941 24.264962 5.633697 38.712247 0.686130 1.424750 0.075075 -0.023983 -88010.900000 0 0 1
30.430861 23.104362 5.448997 38.594564 0.649389 1.429137 0.060586 -0.025770 424554.000000 0 0 1
30.705391 22.777562 4.093297 38.449882 0.638239 1.464136 0.062542 -0.025620 -430410.000000 0 0 1
31.578491 23.783662 3.253597 39.666731 0.645521 1.488681 0.098069 -0.034743 -401267.000000 0 0 1
30.913061 24.983762 2.890797 39.851755 0.679718 1.498194 0.075738 -0.034037 -384934.000000 0 0 1
31.689661 25.868062 2.155997 40.963881 0.684597 1.518140 0.140273 -0.030746 -1124920.000000 0 0 1
31.328691 27.333362 2.351797 41.642892 0.717396 1.514291 0.127768 -0.026019 123457.000000 0 0 1
30.035701 27.767062 2.033697 40.954719 0.746170 1.521119 0.163212 -0.020944 129028.000000 0 0 1
28.940441 27.348562 2.851097 39.920192 0.757125 1.499316 0.133002 -0.019313 251437.000000 0 0 1
27.641541 28.101562 2.442697 39.493282 0.793650 1.508906 0.102608 -0.011057 132309.000000 0 0 1
27.536241 29.458262 2.897897 40.428104 0.819108 1.499055 0.092830 -0.017333 -194158.000000 0 0 1
26.168841 29.763662 2.861697 39.735036 0.849581 1.498714 0.095241 -0.012303 -218921.000000 0 0 1
25.730641 31.192162 3.347997 40.573710 0.881051 1.488186 0.104429 -0.020742 -35007.900000 0 0 1
25.949641 31.541462 4.715497 41.115491 0.882357 1.455854 0.105647 -0.043286 216998.000000 0 0 1
27.276341 31.577362 5.214897 42.051441 0.858348 1.446464 0.097391 -0.040507 142436.000000 0 0 1
27.304541 31.479062 6.749997 42.214118 0.856294 1.410208 0.135340 -0.059040 -4005.460000 0 0 1
26.826041 30.282462 7.373097 41.122093 0.845848 1.390524 0.119757 -0.059451 485194.000000 0 0 1
27.557441 29.030662 7.086597 40.649868 0.811426 1.395568 0.103612 -0.053529 346898.000000 0 0 1
26.891541 27.685762 7.517997 39.321453 0.799949 1.378419 0.116226 -0.053537 -272804.000000 0 0 1
25.626541 27.459362 6.952597 38.197837 0.819910 1.387761 0.102765 -0.061759 -312569.000000 0 0 1
25.132741 26.169362 7.283197 37.007231 0.805602 1.372699 0.112756 -0.049462 36545.500000 0 0 1
23.659441 25.968962 6.832297 35.788775 0.831901 1.378711 0.115528 -0.031351 217462.000000 0 0 1
23.537841 25.896462 5.409797 35.410769 0.833074 1.417423 0.072419 -0.028088 213842.000000 0 0 1
23.701041 27.121062 4.690897 36.322112 0.852591 1.441287 0.072500 -0.012028 -371152.000000 0 0 1
23.525741 26.863262 3.125997 35.845044 0.851537 1.483477 0.069634 -0.003586 504190.000000 0 0 1
24.623441 26.112062 2.566797 35.982524 0.814731 1.499401 0.066902 0.005904 811591.000000 0 0 1
24.388341 25.734962 1.214197 35.476100 0.812258 1.536564 0.084396 0.003419 202959.000000 0 0 1
25.619541 25.037062 0.580697 35.826702 0.773900 1.554587 0.100261 -0.001004 424575.000000 0 0 1
26.812841 25.829162 0.362697 37.231782 0.766714 1.561055 0.084217 0.002477 1142780.000000 0 0 1
27.787541 25.200762 -0.444803 37.515646 0.736619 1.582653 0.101864 0.002963 579158.000000 0 0 1
28.575741 23.908662 0.036897 37.258535 0.696708 1.569806 0.093986 -0.008997 -313659.000000 0 0 1
27.717241 22.805362 0.138097 35.893579 0.688481 1.566949 0.091317 -0.011951 672433.000000 0 0 1
28.318541 21.827162 1.023397 35.768870 0.656664 1.542181 0.094183 -0.015387 -481815.000000 0 0 1
27.239941 20.921262 1.497497 34.379588 0.654945 1.527225 0.085535 -0.019684 -887745.000000 0 0 1
26.812141 20.003262 0.522597 33.455859 0.640970 1.555175 0.114995 -0.032667 662929.000000 0 0 1
25.626441 19.358362 0.973597 32.131115 0.646952 1.540491 0.094076 -0.023443 30097.600000 0 0 1
25.039541 18.442562 -0.158403 31.098743 0.634829 1.575890 0.113344 -0.031681 -571637.000000 0 0 1
23.760641 18.006862 0.205097 29.813708 0.648502 1.563917 0.095002 -0.022825 -167776.000000 0 0 1
23.172341 17.268562 -0.869003 28.912208 0.640437 1.600857 0.122061 -0.049063 550934.000000 0 0 1
21.932241 16.478762 -0.348703 27.435276 0.644364 1.583507 0.106506 -0.029552 240959.000000 0 0 1
21.278441 15.603062 -1.282903 26.417294 0.632714 1.619378 0.105275 -0.033171 1463700.000000 0 0 1
19.912841 15.256962 -0.941503 25.103437 0.653781 1.608310 0.115057 -0.032922 960582.000000 0 0 1
18.797941 16.182462 -1.406503 24.843770 0.710767 1.627441 0.109504 -0.036509 -602234.000000 0 1 0
18.889541 17.493062 -0.877803 25.760289 0.747034 1.604879 0.099457 -0.025702 -574191.000000 0 0 1
17.767841 18.188162 -1.275503 25.458443 0.797088 1.620919 0.073666 -0.037034 -531288.000000 0 0 1
17.747941 19.699362 -1.004503 26.534191 0.837462 1.608662 0.073425 -0.024161 -172821.000000 0 0 1
17.547241 20.032362 0.362897 26.633304 0.851432 1.557170 0.079499 -0.024765 -12043.800000 0 0 1
17.552841 21.440162 0.719197 27.718225 0.884763 1.544847 0.086467 -0.024281 355302.000000 0 0 1
16.342341 22.344562 0.274097 27.684412 0.939320 1.560895 0.066101 -0.035996 1149190.000000 0 0 1
15.180541 22.167462 1.115197 26.890311 0.970337 1.529312 0.049359 -0.028470 994246.000000 0 0 1
14.093441 23.015462 0.763997 26.998523 1.021348 1.542495 0.037624 -0.029388 807666.000000 0 0 1
12.777041 22.928762 1.589797 26.296546 1.062404 1.510303 0.043513 -0.031524 537645.000000 0 0 1
12.909441 23.359162 2.953997 26.852006 1.065921 1.460563 0.043676 -0.013832 17602.600000 0 0 1
11.652941 23.648262 3.538797 26.599895 1.112957 1.437363 0.043703 -0.014764 210365.000000 0 0 1
11.677641 23.949762 5.028397 27.115368 1.117127 1.384272 0.060938 -0.019819 -30782.200000 0 0 1
12.252941 22.880062 5.751597 26.584068 1.079131 1.352717 0.069089 -0.033918 194407.000000 0 0 1
11.586941 22.737062 6.990797 26.459449 1.099494 1.303414 0.064898 -0.017470 -672639.000000 0 0 1
12.120141 21.515162 7.759197 25.884458 1.057776 1.266352 0.071075 -0.028957 96328.900000 0 0 1
13.363241 21.604062 8.404197 26.757097 1.016847 1.251296 0.092406 -0.030727 126889.000000 0 0 1
14.484941 21.619562 7.527197 27.090177 0.980495 1.289234 0.095483 -0.028212 -589052.000000 0 0 1
15.890141 21.708262 8.125297 28.102770 0.938924 1.277481 0.117173 -0.035178 -944134.000000 0 0 1
16.110841 20.422562 8.734597 27.439632 0.902876 1.246839 0.124179 -0.041289 620878.000000 0 0 1
17.445841 20.302462 9.237097 28.317332 0.860930 1.238516 0.114472 -0.043838 724138.000000 0 0 1
17.807941 21.333062 10.370297 29.660839 0.875218 1.213621 0.084143 -0.023545 -1328240.000000 0 0 1
17.067441 21.035962 11.481297 29.421581 0.889175 1.169911 0.084821 -0.035367 -425508.000000 0 0 1
17.301641 21.739762 12.667497 30.535709 0.898590 1.143027 0.084720 -0.028209 -122881.000000 0 0 1
18.313141 21.237962 13.748297 31.232000 0.859214 1.114976 0.071967 -0.007156 -94935.600000 0 0 1
19.647941 21.410562 13.398297 31.999502 0.828301 1.138779 0.073455 -0.015189 -1015980.000000 0 0 1
20.547041 20.837662 14.286797 32.565344 0.792420 1.116632 0.063379 -0.006431 -281535.000000 0 0 1
22.010941 21.216862 14.077997 33.657492 0.767031 1.139254 0.070819 -0.020184 -270665.000000 0 0 1
22.698441 20.648162 12.994297 33.322929 0.738134 1.170218 0.080172 -0.023418 441641.000000 0 0 1
24.051941 21.104862 12.979997 34.531021 0.720227 1.185435 0.104875 -0.028778 629783.000000 0 0 1
24.887441 20.698862 11.729197 34.429663 0.693773 1.223166 0.113539 -0.037377 2734.260000 0 0 1
24.632541 21.501362 10.569597 34.362582 0.717631 1.258137 0.122849 -0.043210 8539.100000 0 0 1
25.413741 21.259662 9.448097 34.454288 0.696629 1.293017 0.139638 -0.044173 -851920.000000 0 0 1
25.533041 22.516462 8.574497 35.106256 0.722700 1.324056 0.127947 -0.042623 74430.800000 0 0 1
26.209541 23.577262 9.247997 36.446574 0.732576 1.314250 0.110662 -0.050220 959726.000000 0 0 1
27.631241 23.501662 9.082097 37.393824 0.704811 1.325466 0.093917 -0.047138 360206.000000 0 0 1
28.334641 24.811562 9.533997 38.850516 0.719205 1.322862 0.093770 -0.048031 -688636.000000 0 0 1
29.420641 25.209462 8.799897 39.730709 0.708465 1.347456 0.092814 -0.037020 -571899.000000 0 0 1
30.219161 26.172262 9.451697 41.079430 0.713757 1.338633 0.094207 -0.036918 553086.000000 0 0 1
31.471961 26.599462 8.630797 42.101144 0.701689 1.364331 0.075736 -0.032926 -83489.800000 0 0 1
31.115651 27.445962 7.575297 42.176411 0.722816 1.390207 0.098932 -0.031168 -208186.000000 0 0 1
32.215161 27.775462 6.785097 43.073547 0.711526 1.412614 0.058964 -0.013196 -323347.000000 0 0 1
31.939221 28.921862 5.716597 43.465704 0.735861 1.438894 0.079788 -0.007792 149908.000000 0 0 1
32.130031 30.218862 6.172697 44.537857 0.754755 1.431754 0.071501 -0.019166 89811.900000 0 0 1
31.759431 31.096962 5.126097 44.743260 0.774859 1.455977 0.084958 -0.022931 117374.000000 0 0 1
31.760881 32.595462 5.491697 45.840773 0.798366 1.450708 0.061108 -0.020175 614716.000000 0 0 1
30.635791 33.004862 6.298997 45.470319 0.822607 1.431820 0.076069 -0.035162 652815.000000 0 0 1
30.646711 -33.353492 6.473697 45.755711 -0.827666 1.428836 0.080537 -0.041203 -817752.000000 0 0 1
29.301641 -32.888992 6.996297 44.600674 -0.843017 1.413280 0.128582 -0.047840 -968724.000000 0 0 1
28.365041 -33.003492 5.977897 43.926544 -0.860838 1.434284 0.120819 -0.055243 -986025.000000 0 0 1
27.188741 -32.338592 6.352797 42.724351 -0.871696 1.421550 0.100432 -0.054825 178350.000000 0 0 1
25.939041 -32.510092 5.441797 41.944643 -0.897351 1.440692 0.141770 -0.049207 226800.000000 0 0 1
26.036241 -31.791192 4.186397 41.304862 -0.884591 1.469268 0.109307 -0.036372 -250414.000000 0 0 1
24.972741 -32.093092 3.320197 40.799853 -0.909531 1.489329 0.123418 -0.037794 -85563.200000 0 0 1
25.249541 -31.481592 1.912197 40.401565 -0.894812 1.523449 0.115912 -0.024785 -66124.500000 0 0 1
25.226341 -30.064592 1.935497 39.293690 -0.872681 1.521519 0.117367 -0.019097 149206.000000 0 0 1
25.801841 -29.547392 0.749397 39.234487 -0.852966 1.551695 0.099051 -0.020086 -471780.000000 0 0 1
26.044441 -28.036392 0.882197 38.277022 -0.822214 1.547747 0.109231 -0.031207 -3016.950000 0 0 1
24.937941 -27.164492 1.092497 36.891788 -0.828106 1.541178 0.109594 -0.023857 300603.000000 0 0 1
24.138841 -26.999592 -0.094503 36.216992 -0.841281 1.573406 0.089601 -0.029833 610725.000000 0 0 1
22.935341 -26.024892 0.132697 34.689227 -0.848418 1.566971 0.077724 -0.022147 392308.000000 0 0 1
23.386141 -24.658492 0.071097 33.984671 -0.811875 1.568704 0.085825 -0.029820 44359.400000 0 0 1
23.418841 -24.037992 1.349197 33.587014 -0.798444 1.530615 0.071384 -0.016277 -443266.000000 0 0 1
22.067241 -23.773192 2.004297 32.498384 -0.822596 1.509083 0.052733 -0.013008 -455118.000000 0 0 1
22.078041 -22.999092 3.191597 32.040356 -0.805828 1.471019 0.055110 -0.009165 -308516.000000 0 0 1
20.770941 -22.874192 3.692397 31.117430 -0.833551 1.451856 0.042219 -0.002425 -174206.000000 0 0 1
20.744741 -22.157192 5.098797 30.777965 -0.818309 1.404365 0.033623 -0.001571 -265993.000000 0 0 1
20.923141 -20.754092 5.181097 29.922465 -0.781342 1.396768 0.062521 -0.006515 316879.000000 0 0 1
19.833941 -20.002792 4.669197 28.553429 -0.789637 1.406534 0.051983 0.001132 -311241.000000 0 0 1
19.835741 -18.455492 5.020297 27.554767 -0.749368 1.387580 0.057156 0.000067 156594.000000 0 0 1
19.547141 -18.111292 6.410797 27.408173 -0.747288 1.334708 0.079329 -0.018340 475998.000000 0 0 1
18.237941 -18.394192 6.912197 26.809462 -0.789664 1.310024 0.063735 -0.001877 460570.000000 0 0 1
19.303074 -26.029228 -11.784003 34.481765 -0.932698 1.919570 0.118570 -0.026292 71719.200000 0 0 1
19.761574 -24.892738 -12.431303 34.127782 -0.899805 1.943632 0.126142 -0.028601 -43426.400000 0 0 1
18.650474 -24.265938 -13.060103 33.275250 -0.915506 1.974130 0.112759 -0.032489 496171.000000 0 0 1
18.909574 -22.757738 -13.293203 32.437569 -0.877491 1.993041 0.103634 -0.039777 87555.800000 0 0 1
18.703774 -21.801138 -12.275303 31.237859 -0.861718 1.974647 0.101811 -0.043165 89629.000000 0 0 1
19.809374 -21.599238 -11.393403 31.444364 -0.828596 1.941569 0.094158 -0.036565 -187281.000000 0 0 1
19.666774 -22.350338 -10.051903 31.422291 -0.849180 1.896417 0.096538 -0.023504 219644.000000 0 0 1
18.805674 -21.835138 -9.060003 30.207785 -0.859803 1.875408 0.092590 -0.029379 183339.000000 0 0 1
17.423474 -21.986038 -9.321103 29.560891 -0.900658 1.891589 0.113031 -0.024609 -39322.200000 0 0 1
16.447374 -21.310938 -8.330203 28.179150 -0.913501 1.870896 0.097306 -0.028921 -721273.000000 0 0 1
16.446574 -19.910438 -8.405203 27.158107 -0.880385 1.885455 0.083396 -0.032727 576444.000000 0 0 1
15.499874 -19.298138 -7.510103 25.866308 -0.894119 1.865382 0.085917 -0.039958 1029470.000000 0 0 1
14.016274 -19.285038 -8.009803 25.150061 -0.942312 1.894922 0.092454 -0.033663 484003.000000 0 0 1
13.496574 -20.645238 -8.134703 25.972231 -0.991798 1.889365 0.087408 -0.037709 -191061.000000 0 0 1
12.091974 -20.589838 -8.358703 25.298719 -1.039783 1.907524 0.089123 -0.039695 213345.000000 0 0 1
11.532274 -22.007838 -8.109203 26.136133 -1.088128 1.886271 0.093150 -0.034955 -100793.000000 0 0 1
11.499974 -22.377438 -6.729403 26.043886 -1.096083 1.832149 0.093080 -0.031547 121360.000000 0 0 1
10.829974 -23.614238 -6.528503 26.786973 -1.140797 1.816995 0.068356 -0.023295 332869.000000 0 0 1
11.159274 -24.180838 -5.070603 27.110023 -1.138426 1.758942 0.082817 -0.016764 631879.000000 0 0 1
10.273074 -25.267748 -4.771003 27.690389 -1.184640 1.743959 0.075746 -0.006409 340945.000000 0 0 1
10.836974 -25.979708 -3.672703 28.387920 -1.175609 1.700536 0.066701 -0.010950 143995.000000 0 0 1
9.875674 -26.838258 -2.848103 28.739045 -1.218203 1.670061 0.068931 -0.010045 32765.800000 0 0 1
9.096174 -26.139648 -1.878903 27.740798 -1.235919 1.638579 0.048950 -0.006987 -327980.000000 0 0 1
8.343174 -27.064478 -1.163103 28.345147 -1.271769 1.611841 0.050335 -0.009630 -400202.000000 0 0 1
7.842574 -26.477378 0.133897 27.614769 -1.282830 1.565948 0.061064 -0.012152 448901.000000 0 0 1
6.603974 -25.793568 -0.087203 26.625706 -1.320149 1.574071 0.054032 -0.021812 255448.000000 0 0 1
6.025374 -25.319778 1.109497 26.050476 -1.337171 1.528193 0.046090 -0.017366 -1047390.000000 0 0 1
4.638174 -24.757338 1.039597 25.209506 -1.385598 1.529546 0.067834 -0.022322 -1143140.000000 0 0 1
3.701774 -25.704888 0.599397 25.976984 -1.427769 1.547720 0.085761 -0.025916 -407635.000000 0 0 1
2.425374 -25.087008 0.739297 25.214817 -1.474417 1.541472 0.092927 -0.027454 -146099.000000 0 0 1
1.318674 -25.898008 0.068897 25.931650 -1.519922 1.568139 0.105402 -0.018343 -283643.000000 0 0 1
0.823574 -27.002128 0.876997 27.028916 -1.540305 1.538344 0.102293 -0.020244 -6363.500000 0 0 1
1.515174 -28.243798 0.783197 28.295252 -1.517201 1.543113 0.081796 -0.020956 -740851.000000 0 0 1
1.028374 -29.354558 1.683097 29.420749 -1.535778 1.513557 0.114641 -0.021030 -402375.000000 0 0 1
1.280274 -29.220578 3.052197 29.407434 -1.527010 1.466819 0.081733 -0.021319 197213.000000 0 0 1
0.588674 -30.274548 3.757797 30.512552 -1.551354 1.447327 0.103588 -0.022894 334557.000000 0 0 1
0.659474 -30.226558 5.296097 30.694110 -1.548982 1.397384 0.093309 -0.022543 -199769.000000 0 0 1
1.988874 -30.408048 5.715897 31.004459 -1.505483 1.385378 0.053869 -0.008890 -220079.000000 0 0 1
2.157674 -30.229038 7.101597 31.126885 -1.499540 1.340619 0.064292 -0.011923 -194731.000000 0 0 1
3.567474 -30.682288 7.478697 31.781450 -1.455045 1.333252 0.076563 -0.012215 -265709.000000 0 0 1
3.796774 -32.044218 7.295597 33.082823 -1.452861 1.348443 0.073253 -0.012668 -814948.000000 0 0 1
4.970574 -32.554418 7.820297 33.847508 -1.419281 1.337645 0.066191 -0.012819 -513600.000000 0 0 1
5.175974 33.718162 7.562397 34.941308 1.418478 1.352639 0.057678 0.003474 85647.200000 0 0 1
5.546474 33.378171 6.203397 34.399822 1.406130 1.389472 0.042219 0.006230 34634.100000 0 0 1
5.458574 31.993048 6.096897 33.023072 1.401806 1.385106 0.056068 -0.002756 -443251.000000 0 0 1
5.635674 31.548766 4.588197 32.374944 1.394027 1.428597 0.060407 -0.003598 898704.000000 0 0 1
7.011074 31.611556 4.148297 32.644356 1.352541 1.443376 0.059701 -0.002249 957522.000000 0 0 1
7.691274 30.365426 4.425497 31.635420 1.322723 1.430445 0.060849 -0.008990 -882228.000000 0 0 1
9.122074 30.355946 3.949797 31.942081 1.278877 1.446824 0.039520 -0.004312 -452372.000000 0 0 1
10.060274 31.019366 4.790397 32.959946 1.257177 1.424940 0.034997 -0.006811 1535070.000000 0 0 1
11.389274 31.246366 4.228597 33.525095 1.221263 1.444327 0.034692 -0.010258 1367470.000000 0 0 1
12.425774 31.803455 5.191697 34.537129 1.198328 1.419902 0.032426 -0.018475 -325191.000000 0 0 1
12.971774 30.816026 6.039597 33.976037 1.172367 1.392086 0.034512 -0.017920 -3186.090000 0 0 1
14.222274 31.212436 6.558497 34.921385 1.143245 1.381867 0.050967 -0.020874 -37927.400000 0 0 1
14.928374 30.213686 7.508097 34.526724 1.111885 1.351587 0.048281 -0.019997 -539603.000000 0 0 1
14.357774 29.884596 8.737697 34.286763 1.122918 1.313112 0.055944 -0.013775 134588.000000 0 0 1
15.155174 28.871876 9.337297 33.918279 1.087419 1.291907 0.067254 -0.011294 411597.000000 0 0 1
14.729274 28.633786 10.839797 33.975674 1.095694 1.246074 0.062905 -0.004344 39909.000000 0 0 1
15.225574 29.675396 11.643697 35.327368 1.096747 1.234923 0.075843 -0.016405 77040.900000 0 0 1
14.976774 29.514006 13.033997 35.570569 1.101209 1.195631 0.082318 -0.016077 -146029.000000 0 0 1
15.579774 30.647006 13.863697 37.069805 1.100481 1.187490 0.089962 -0.021269 -1106670.000000 0 0 1
16.903874 30.482406 14.132897 37.611924 1.064470 1.185584 0.091336 -0.019291 -1356330.000000 0 0 1
17.581174 31.498386 14.799797 38.990768 1.061709 1.181463 0.088425 -0.015434 -237009.000000 0 0 1
18.669674 31.057306 15.788697 39.527154 1.029542 1.159891 0.075483 -0.012100 238116.000000 0 0 1
19.897074 30.638536 15.202597 39.569336 0.994834 1.176454 0.048897 -0.008997 299166.000000 0 0 1
20.050374 29.228226 15.091797 38.523616 0.969533 1.168259 0.036135 -0.013976 -163648.000000 0 0 1
21.378874 28.761896 14.487297 38.654685 0.931594 1.186629 0.048105 -0.021485 497295.000000 0 0 1
22.552774 28.847796 15.278997 39.677080 0.907261 1.175498 0.061030 -0.018633 85567.500000 0 0 1
23.762974 28.689346 14.595297 40.009751 0.879044 1.197385 0.067838 -0.019107 -326362.000000 0 0 1
24.978874 28.882776 15.502997 41.212884 0.857752 1.185139 0.100370 -0.029553 -486266.000000 0 0 1
25.249574 27.755516 16.323297 40.918940 0.832640 1.160460 0.083688 -0.021222 27913.600000 0 0 1
26.198474 28.035086 17.339597 42.106861 0.819250 1.146368 0.088170 -0.029155 321876.000000 0 0 1
27.238074 26.882996 17.670797 42.152879 0.778837 1.138224 0.076380 -0.025837 303492.000000 0 0 1
26.759374 25.666196 18.251597 41.327213 0.764549 1.113375 0.069249 -0.020557 12330.600000 0 0 1
26.467874 25.792716 19.650397 41.856310 0.772480 1.082103 0.085451 -0.019391 -203310.000000 0 0 1
25.996374 24.517936 20.317497 41.106463 0.756139 1.053807 0.089805 -0.011575 -16272.600000 0 0 1
26.944574 23.464316 20.231997 41.059931 0.716467 1.055557 0.074508 -0.012557 -17617.200000 0 0 1
26.359774 22.237116 20.493297 40.116109 0.700767 1.034624 0.078780 -0.011262 -621512.000000 0 0 1
27.233774 21.071716 20.157997 39.900382 0.658519 1.041173 0.058212 -0.013096 -686415.000000 0 0 1
26.643274 19.809516 20.358097 38.945258 0.639334 1.020739 0.040887 0.006948 224833.000000 0 0 1
27.539174 18.682216 20.431197 39.049521 0.596073 1.020180 0.053024 -0.007875 154069.000000 0 0 1
28.167974 18.410816 21.815297 40.103617 0.578907 0.995631 0.053903 -0.001435 234943.000000 0 0 1
27.299774 17.685916 22.718697 39.676296 0.574856 0.961121 0.049623 0.009685 348499.000000 0 0 1
27.944274 17.326216 23.897197 40.646725 0.555016 0.942306 0.071580 0.013264 399827.000000 0 0 1
26.992074 16.535916 24.914697 40.283380 0.549648 0.903982 0.034523 0.015054 658531.000000 0 0 1
26.681874 15.248516 24.475597 39.287333 0.519195 0.898238 0.049774 0.004021 595137.000000 0 0 1
25.526774 14.730516 25.146497 38.742104 0.523382 0.864430 0.059596 -0.005429 673108.000000 0 0 1
24.722674 13.669116 24.329697 37.282563 0.505065 0.859817 0.056438 -0.007209 390536.000000 0 0 1
23.598974 13.063316 24.973297 36.759045 0.505568 0.823881 0.036223 -0.008097 222404.000000 0 0 1
23.087174 12.031416 24.174397 35.527089 0.480408 0.822420 0.039736 -0.008092 35328.800000 0 0 1
21.790274 11.524416 24.860997 35.009961 0.486483 0.781139 0.043656 -0.012317 -236583.000000 0 0 1
20.651974 12.330716 24.767497 34.525056 0.538264 0.770766 0.060688 -0.019565 -711104.000000 0 0 1
19.538074 11.472216 24.845997 33.625461 0.530934 0.739354 0.079223 -0.016520 1217890.000000 0 0 1
18.159974 12.305316 24.928597 33.206030 0.595538 0.721637 0.072380 -0.024830 1184510.000000 0 0 1
18.012874 13.062016 26.078297 34.280570 0.627406 0.706358 0.100630 -0.023603 26442.800000 0 0 1
16.813074 13.799816 25.994497 33.894369 0.687283 0.696758 0.108305 -0.025384 -125287.000000 0 0 1
16.132874 13.925316 27.367297 34.686496 0.712087 0.661633 0.101671 -0.022686 -367884.000000 0 0 1
15.693274 12.703716 27.924397 34.459182 0.680507 0.626027 0.107909 -0.023865 -116571.000000 0 0 1
15.607474 12.786216 29.336097 35.604595 0.686361 0.602465 0.092970 -0.036233 -192934.000000 0 0 1
16.955474 12.820516 30.107697 36.855490 0.647412 0.614760 0.107680 -0.023093 300351.000000 0 0 1
17.699174 14.015716 29.834497 37.413878 0.669773 0.647792 0.125732 -0.040520 1099920.000000 0 0 1
19.116374 13.793016 30.003997 38.156558 0.625029 0.665935 0.136806 -0.032451 815578.000000 0 0 1
19.993774 15.057416 29.759697 38.885940 0.645485 0.699278 0.152493 -0.035270 -111869.000000 0 0 1
20.244674 15.465416 28.441097 38.182744 0.652354 0.730460 0.128541 -0.037492 134411.000000 0 0 1
20.832674 14.574916 27.525497 37.471075 0.610470 0.745749 0.106482 -0.031212 -430542.000000 0 0 1
20.626974 15.090616 26.080097 36.515342 0.631618 0.775283 0.091923 -0.025765 -215745.000000 0 0 1
21.365874 16.269916 25.860097 37.282105 0.650815 0.804276 0.092187 -0.026645 33450.300000 0 0 1
21.502174 16.472516 24.465597 36.500037 0.653717 0.836197 0.076510 -0.009689 1018490.000000 0 0 1
22.712274 17.451416 24.082497 37.421464 0.655154 0.871672 0.069849 -0.006345 839067.000000 0 0 1
22.631474 17.656616 22.648897 36.563811 0.662538 0.902774 0.073837 -0.003213 1337410.000000 0 0 1
23.710774 18.492216 22.060097 37.293575 0.662369 0.937847 0.059963 -0.002082 1285220.000000 0 0 1
23.993774 19.910916 22.651997 38.539055 0.692671 0.942500 0.084033 -0.014558 -559233.000000 0 0 1
23.083174 20.903916 22.303397 38.304675 0.735895 0.949287 0.080171 -0.008333 -143776.000000 0 0 1
23.146074 21.999616 23.243797 39.496809 0.760009 0.941596 0.098249 -0.018342 -313416.000000 0 0 1
22.206274 23.102366 22.850697 39.357239 0.805173 0.951335 0.081999 -0.024552 -523315.000000 0 0 1
22.683974 23.917056 21.784197 39.511258 0.811852 0.986825 0.082156 -0.017856 376923.000000 0 0 1
21.803274 24.994926 21.387897 39.466077 0.853493 0.998063 0.065410 -0.017516 2619.230000 0 0 1
22.316974 25.916966 20.258397 39.750964 0.859896 1.036038 0.066818 -0.022312 -221157.000000 0 0 1
22.143174 25.473646 18.931297 38.699106 0.855228 1.059633 0.063653 -0.018890 -261846.000000 0 0 1
22.769174 26.332396 18.099797 39.235609 0.857840 1.091325 0.068524 -0.019141 -653572.000000 0 0 1
22.696374 25.670626 16.692697 38.114991 0.846814 1.117472 0.052649 -0.007712 -587006.000000 0 0 1
21.465374 25.476936 16.050197 36.978986 0.870648 1.121829 0.041298 -0.008993 -653587.000000 0 0 1
21.547174 25.233866 14.665497 36.278168 0.864043 1.154636 0.051530 -0.010860 -228744.000000 0 0 1
20.241674 24.648886 14.023097 34.841645 0.883261 1.156571 0.060857 -0.016085 493989.000000 0 0 1
19.174574 25.518936 13.819597 34.783065 0.926409 1.162215 0.064217 -0.009596 -438157.000000 0 0 1
18.420774 25.791836 15.008297 35.068400 0.950597 1.128549 0.054742 -0.019500 -1204300.000000 0 0 1
16.983374 26.264276 14.717997 34.566843 0.996791 1.130969 0.067650 -0.015911 -271103.000000 0 0 1
16.194274 25.194216 14.112697 33.108477 0.999515 1.130446 0.073802 -0.017806 416740.000000 0 0 1
15.736474 24.136106 14.973097 32.471247 0.993024 1.091541 0.086365 -0.028600 -500981.000000 0 0 1
14.668874 24.573596 15.996497 32.786055 1.032632 1.061108 0.118002 -0.043590 -786588.000000 0 0 1
15.129974 25.507546 16.927597 34.148127 1.035424 1.052143 0.101088 -0.043270 -236010.000000 0 0 1
14.169174 25.783826 17.911397 34.444003 1.068308 1.023928 0.113140 -0.033673 239536.000000 0 0 1
14.664874 27.127606 18.666997 36.047501 1.075207 1.026467 0.113739 -0.051202 242863.000000 0 0 1
14.604674 28.280956 17.899097 36.516936 1.094104 1.058524 0.110820 -0.040216 -51260.600000 0 0 1
15.292974 29.274806 18.549097 37.880844 1.089395 1.059086 0.091251 -0.028180 -356129.000000 0 0 1
15.340674 30.641636 17.856797 38.640799 1.106630 1.090409 0.084121 -0.032081 120932.000000 0 0 1
14.020574 31.133876 17.717197 38.468088 1.147667 1.092161 0.102800 -0.026286 275767.000000 0 0 1
14.075474 32.447058 17.199097 39.328609 1.161497 1.118182 0.088372 -0.023147 691089.000000 0 0 1
12.636174 33.063862 17.014897 39.273382 1.205750 1.122709 0.108722 -0.034769 645682.000000 0 0 1
12.591774 -33.371068 16.411997 39.262382 -1.209988 1.139545 0.111459 -0.034347 -206672.000000 0 0 1
13.076674 -32.174658 16.919597 38.632639 -1.184761 1.117467 0.100664 -0.038527 -186525.000000 0 0 1
12.683074 -31.952938 18.426997 39.005190 -1.192939 1.078757 0.108161 -0.041558 -130957.000000 0 0 1
13.505374 -32.654178 19.339297 40.282737 -1.178631 1.070040 0.110137 -0.037600 259034.000000 0 0 1
13.339574 -32.364188 20.729097 40.682679 -1.179842 1.036156 0.097094 -0.030089 498238.000000 0 0 1
14.549174 -33.034078 21.504597 42.016384 -1.155930 1.033501 0.104845 -0.028891 1248000.000000 0 0 1
15.780574 -32.327748 21.408297 41.861976 -1.116679 1.033981 0.100282 -0.026256 -291474.000000 0 0 1
16.796674 -32.821678 22.179797 43.027134 -1.097789 1.029224 0.101576 -0.027167 -120422.000000 0 0 1
18.192674 -32.199848 21.892397 42.977676 -1.056515 1.036321 0.121956 -0.030932 380874.000000 0 0 1
18.260574 -30.808198 22.243497 42.158828 -1.035748 1.015010 0.124915 -0.033466 -436968.000000 0 0 1
19.466574 -30.245198 21.853997 42.087014 -0.998916 1.024814 0.126885 -0.031568 -822771.000000 0 0 1
-4.955026 12.962562 18.397216 23.044259 -1.205679 0.646258 0.019993 -0.006400 178395.000000 0 1 0
-4.646226 14.172662 17.778016 23.205810 -1.254007 0.698042 0.021096 -0.011191 751651.000000 0 1 0
-5.888826 14.852862 17.559416 23.740659 -1.193330 0.738269 0.023118 -0.015615 675997.000000 0 1 0
-5.627126 16.332962 17.321416 24.463476 -1.239007 0.784060 0.047026 -0.022767 -117756.000000 0 1 0
-5.074026 16.877762 18.484116 25.539521 -1.278758 0.761581 0.041725 -0.015838 26096.200000 0 0 1
-4.654526 18.158062 18.176916 26.110919 -1.319865 0.800786 0.055154 -0.013646 -883434.000000 0 0 1
-4.130126 18.795962 19.418616 27.339144 -1.354499 0.780892 0.057786 -0.015449 -610448.000000 0 0 1
-5.044426 18.926162 20.476616 28.336154 -1.310320 0.763194 0.040639 -0.015248 -460916.000000 0 0 1
-4.452526 19.661362 21.504716 29.476210 -1.348092 0.753115 0.038772 -0.007820 -153015.000000 0 0 1
-5.341826 19.974662 22.761616 30.750828 -1.309481 0.737436 0.027755 -0.002369 91958.100000 0 0 1
-5.559226 18.954862 23.730976 30.876383 -1.285509 0.694177 0.020533 -0.008756 -447363.000000 0 0 1
-6.079426 19.446462 24.937156 32.202268 -1.267799 0.685044 0.015397 -0.013802 -92201.900000 0 0 1
-5.193226 20.266462 25.922766 33.311993 -1.319947 0.679032 0.009066 -0.008177 -729225.000000 0 0 1
-4.807926 21.566162 25.531176 33.764722 -1.351445 0.713387 0.032247 -0.012883 6825.620000 0 0 1
-3.804526 22.198862 26.299686 34.625675 -1.401062 0.708186 0.024585 -0.005425 -261789.000000 0 0 1
-2.399626 21.732662 25.946496 33.930627 -1.460826 0.700232 0.022757 -0.000187 -1345040.000000 0 0 1
-1.973126 20.460062 26.433976 33.485257 -1.474656 0.660931 0.031967 0.004205 -57457.100000 0 0 1
-0.743126 20.096362 25.841606 32.744536 -1.533835 0.661310 0.032458 0.003700 -8162.300000 0 0 1
-0.223226 18.763462 26.423316 32.408471 -1.558900 0.617512 0.040790 0.007316 -123062.000000 0 0 1
-0.972426 17.623162 26.004836 31.428855 -1.515673 0.596300 0.041181 0.003159 -35102.900000 0 0 1
-0.476626 16.428962 26.596226 31.264952 -1.541793 0.553534 0.038487 0.000523 1122570.000000 0 0 1
1.004374 15.968062 26.254926 30.745877 1.507980 0.547299 0.054766 -0.001823 923677.000000 0 0 1
1.217374 15.802762 24.868686 29.490013 1.493913 0.567417 0.051037 -0.002644 -204289.000000 0 0 1
0.900074 14.513462 24.363616 28.373165 1.508859 0.538098 0.059420 -0.004065 -296260.000000 0 0 1
1.228974 14.364862 22.857376 27.024420 1.485450 0.562725 0.071644 -0.019300 -488606.000000 0 0 1
2.568374 14.245962 22.502716 26.756611 1.392425 0.571639 0.064751 -0.024286 -734611.000000 0 0 1
2.667774 13.633562 21.227616 25.369326 1.377561 0.579488 0.064655 -0.028913 -574157.000000 0 0 1
4.121674 13.429762 20.839916 25.132624 1.273016 0.593125 0.058905 -0.031190 -491217.000000 0 0 1
4.677474 14.540862 20.127316 25.267059 1.259572 0.649174 0.063107 -0.022709 250064.000000 0 0 1
6.050574 14.260362 19.885516 25.207164 1.169525 0.661806 0.070270 -0.022615 147993.000000 0 0 1
6.838574 15.415162 19.303816 25.632609 1.153255 0.718041 0.087062 -0.030836 -137309.000000 0 0 1
6.377374 15.532462 17.941216 24.572658 1.181200 0.752285 0.071680 -0.029737 293136.000000 0 1 0
7.069974 16.503862 17.203616 24.866170 1.166064 0.806751 0.071875 -0.021341 -196112.000000 0 1 0
6.962374 16.163762 15.678616 23.570339 1.164074 0.843056 0.063021 -0.012091 571922.000000 0 1 0
7.904674 15.215262 15.123516 22.862826 1.091653 0.847993 0.049040 -0.006520 514051.000000 0 1 0
8.081574 13.970762 15.755216 22.554841 1.046363 0.797456 0.049021 -0.006606 -224725.000000 0 1 0
9.089274 13.140562 14.910116 21.854081 0.965665 0.819950 0.047316 -0.013888 -93371.800000 0 1 0
10.408774 13.593562 15.115616 22.838769 0.917314 0.847525 0.045167 -0.012467 211653.000000 0 1 0
11.298474 12.775262 14.305416 22.260004 0.846666 0.872843 0.049676 -0.007706 907186.000000 0 1 0
12.734274 13.367762 14.161216 23.267979 0.809663 0.916484 0.057510 -0.003950 -658498.000000 0 1 0
13.481374 13.329562 15.349016 24.392970 0.779736 0.890222 0.052375 -0.005160 1296030.000000 0 1 0
14.844574 13.811662 15.327816 25.417815 0.749369 0.923497 0.052449 -0.001845 1321200.000000 0 0 1
15.800974 13.441062 14.182916 25.129426 0.704870 0.971096 0.054294 -0.006194 -1256430.000000 0 0 1
17.159074 13.711162 14.451416 26.292075 0.674169 0.988852 0.065515 -0.012351 365517.000000 0 0 1
17.975374 13.071662 13.461116 25.984304 0.628748 1.026229 0.076472 -0.020174 -201299.000000 0 0 1
19.415374 13.601762 13.437316 27.249333 0.611106 1.055119 0.072685 -0.021717 -413694.000000 0 0 1
20.130574 13.167762 14.559616 28.117831 0.579264 1.026511 0.046422 -0.018922 -1057840.000000 0 0 1
21.474574 13.410562 14.312716 29.083575 0.558229 1.056269 0.077831 -0.033945 -427042.000000 0 0 1
22.366374 13.277962 15.608916 30.334753 0.535743 1.030307 0.084751 -0.025099 247956.000000 0 0 1
22.495474 11.957962 16.013516 30.091061 0.488585 1.009636 0.083458 -0.025512 47597.900000 0 0 1
23.493974 11.855662 16.987716 31.322613 0.467341 0.997569 0.070162 -0.026697 -379199.000000 0 0 1
23.893574 10.431762 17.232416 31.251891 0.411649 0.986750 0.086442 -0.021427 -598964.000000 0 0 1
22.912574 9.801262 17.985316 30.733083 0.404213 0.945657 0.053957 -0.015987 22214.300000 0 0 1
22.582374 8.641862 17.263316 29.709721 0.365488 0.950758 0.059446 0.001790 -211224.000000 0 0 1
21.880374 7.570062 18.096916 29.386306 0.333085 0.907360 0.077683 -0.009831 -168088.000000 0 0 1
21.597074 6.411762 17.294616 28.401550 0.288593 0.916083 0.103457 -0.015261 207846.000000 0 0 1
20.786974 5.530162 18.009016 28.053621 0.260017 0.873758 0.104804 -0.019574 -479638.000000 0 0 1
20.694774 4.111262 17.422116 27.362498 0.196109 0.880566 0.154740 -0.020217 -577138.000000 0 0 1
19.817774 4.175662 16.316516 26.007865 0.207665 0.892627 0.150706 -0.024625 311096.000000 0 0 1
19.574674 2.929762 15.681316 25.251833 0.148568 0.900782 0.136087 -0.026165 -255061.000000 0 0 1
18.662874 1.914162 16.373116 24.900719 0.102208 0.853253 0.147575 -0.015555 -319395.000000 0 1 0
19.315374 1.066962 17.292916 25.947390 0.055183 0.841345 0.161497 -0.029306 361406.000000 0 0 1
18.367774 0.582962 18.227716 25.883675 0.031728 0.789477 0.160589 -0.023540 371921.000000 0 0 1
19.080474 -0.141238 19.418116 27.224028 -0.007402 0.776642 0.158822 -0.024177 209257.000000 0 0 1
19.511474 -1.471838 19.313716 27.493337 -0.075292 0.791910 0.163796 -0.014442 344997.000000 0 0 1
18.490274 -2.372838 19.733216 27.146278 -0.127631 0.756968 0.130129 -0.012115 243198.000000 0 0 1
18.478974 -3.692238 18.967116 26.736803 -0.197210 0.782148 0.112061 -0.005810 24310.700000 0 0 1
17.932574 -3.603938 17.640416 25.411609 -0.198330 0.803506 0.121594 -0.017975 350955.000000 0 0 1
18.049374 -4.801938 16.910316 25.195184 -0.260022 0.835007 0.140849 -0.024529 -235467.000000 0 0 1
17.637074 -4.616738 15.446016 23.894771 -0.256019 0.867916 0.118265 -0.025140 -805003.000000 0 1 0
16.275174 -4.347338 15.345116 22.787129 -0.261021 0.831982 0.116782 -0.027813 -620281.000000 0 1 0
15.859074 -4.290838 14.008716 21.590870 -0.264234 0.864756 0.110309 -0.026335 279550.000000 0 1 0
16.307274 -3.009838 13.163516 21.172257 -0.182516 0.899841 0.111237 -0.019320 -456892.000000 0 1 0
15.338074 -2.043038 13.329216 20.422990 -0.132421 0.859710 0.105626 -0.014855 -170198.000000 0 1 0
15.672674 -0.779938 12.712316 20.195148 -0.049723 0.889921 0.105574 -0.014020 -23928.300000 0 1 0
14.745774 0.396262 13.123716 19.744032 0.026866 0.843714 0.113840 -0.007555 -92187.300000 0 1 0
15.043174 1.723662 12.778816 19.813285 0.114083 0.869823 0.108022 -0.007712 -297117.000000 0 1 0
16.218174 2.256562 13.331116 21.114922 0.138250 0.887491 0.135521 -0.019453 -156529.000000 0 1 0
16.404974 3.668362 12.838516 21.152011 0.219994 0.918561 0.121402 -0.019487 -452828.000000 0 1 0
15.418874 4.506062 13.334716 20.877283 0.284325 0.877964 0.102796 -0.007562 22055.900000 0 1 0
15.235074 5.616362 12.505716 20.494974 0.353189 0.914503 0.099431 -0.020230 179551.000000 0 1 0
14.213374 6.717962 12.920216 20.349030 0.441530 0.882878 0.076048 -0.011966 133205.000000 0 1 0
14.247674 7.765862 11.947616 20.150692 0.499044 0.936124 0.050737 -0.025096 402606.000000 0 1 0
13.465174 8.935362 12.243116 20.274257 0.585870 0.922443 0.042744 -0.010802 -46102.700000 0 1 0
13.714274 9.718162 13.543516 21.585894 0.616486 0.892555 0.051306 -0.014661 76706.600000 0 1 0
13.201674 9.008562 14.685516 21.704902 0.598802 0.827662 0.055236 -0.021052 713538.000000 0 1 0
13.977074 9.375462 15.815816 23.095409 0.590841 0.816462 0.085235 -0.028727 196316.000000 0 1 0
13.396474 8.717662 17.065116 23.381218 0.576897 0.752673 0.076719 -0.034174 410170.000000 0 1 0
12.107974 9.178162 17.498716 23.174270 0.648618 0.715001 0.066375 -0.032475 517236.000000 0 1 0
11.552974 8.502762 18.636716 23.517980 0.634468 0.655988 0.086660 -0.024465 -155444.000000 0 1 0
12.210474 8.647862 20.028416 25.000373 0.616230 0.641624 0.111423 -0.025365 -282847.000000 0 0 1
13.531074 8.150262 19.965616 25.458644 0.542136 0.669331 0.129043 -0.027446 339799.000000 0 0 1
14.305974 8.388762 21.150616 26.877143 0.530346 0.664967 0.124763 -0.018347 158903.000000 0 0 1
15.812574 8.109762 20.992416 27.504314 0.473889 0.702482 0.105172 -0.012888 -286712.000000 0 0 1
16.555574 9.117562 20.369116 27.787009 0.503399 0.748009 0.102837 -0.014493 695183.000000 0 0 1
17.786974 8.502462 19.918916 28.025552 0.445906 0.780245 0.077742 -0.008583 704235.000000 0 0 1
18.644174 9.457662 19.068116 28.295683 0.469448 0.831338 0.079300 -0.014045 -97210.600000 0 0 1
19.062774 10.692162 19.709716 29.431014 0.511167 0.837002 0.059646 -0.014611 -490792.000000 0 0 1
20.024874 11.284062 18.913216 29.766347 0.513150 0.882284 0.055644 -0.015077 -602220.000000 0 0 1
20.978674 12.077662 19.837616 31.297056 0.522369 0.884276 0.049837 -0.009150 -401167.000000 0 0 1
20.368174 13.235462 20.491816 31.779781 0.576242 0.870026 0.038730 0.000426 303826.000000 0 0 1
21.089574 13.898562 21.554616 33.204543 0.582694 0.864334 0.043811 0.002425 -359850.000000 0 0 1
22.304174 14.703462 21.127416 34.059297 0.582833 0.901655 0.023904 -0.002173 49883.900000 0 0 1
23.495974 13.984662 20.821116 34.367870 0.536878 0.919987 0.004763 0.001800 588966.000000 0 0 1
24.590274 14.892462 20.629816 35.384408 0.544545 0.948356 0.016809 -0.006043 450723.000000 0 0 1
25.951174 14.175062 20.530016 35.998297 0.499937 0.963919 0.029812 -0.015186 -332094.000000 0 0 1
26.121974 13.519962 19.299816 35.179963 0.477605 0.990104 0.045920 -0.034267 -890648.000000 0 0 1
27.165474 12.660162 19.420916 35.712948 0.436111 0.995831 0.077181 -0.039208 -1194530.000000 0 0 1
27.497674 11.768162 18.214116 35.019505 0.404383 1.023813 0.122703 -0.044097 128551.000000 0 0 1
28.219174 12.365862 17.119416 35.246429 0.413004 1.063625 0.136836 -0.054885 495746.000000 0 0 1
28.488974 11.623762 15.923616 34.645275 0.387392 1.093231 0.169066 -0.061590 -228738.000000 0 0 1
27.273174 11.328562 15.023216 33.133961 0.393689 1.100211 0.146122 -0.059936 -159348.000000 0 0 1
26.781274 12.545362 14.496916 32.936049 0.438081 1.115027 0.168145 -0.055840 170294.000000 0 0 1
25.780474 12.308962 13.514016 31.603355 0.445448 1.128945 0.159968 -0.045871 131263.000000 0 0 1
25.492974 13.510862 12.621616 31.491909 0.487346 1.158418 0.142419 -0.048416 108497.000000 0 0 1
24.837674 14.621062 13.246316 31.719874 0.532043 1.139991 0.125796 -0.047653 330602.000000 0 0 1
24.693874 15.639262 12.269416 31.700355 0.564564 1.173373 0.107778 -0.033582 -481047.000000 0 0 1
23.756574 16.746662 12.753016 31.740588 0.614025 1.157327 0.102534 -0.028397 -368496.000000 0 0 1
22.469474 16.166262 12.858716 30.521663 0.623678 1.135920 0.117000 -0.037551 -121305.000000 0 0 1
21.408274 17.040462 13.129516 30.349230 0.672282 1.123406 0.084514 -0.025435 -472193.000000 0 0 1
20.739074 17.854862 11.989916 29.877473 0.710805 1.157857 0.105508 -0.023074 -256920.000000 0 0 1
19.544274 17.361862 11.418516 28.527100 0.726333 1.158986 0.115986 -0.028985 478114.000000 0 0 1
18.405974 17.721762 12.238216 28.330455 0.766462 1.124108 0.092147 -0.023820 532208.000000 0 0 1
17.088174 17.164862 11.588916 26.850348 0.787637 1.124518 0.090906 -0.011186 316428.000000 0 0 1
17.125074 15.744062 11.225716 25.829448 0.743407 1.121192 0.094992 -0.015159 1060380.000000 0 0 1
15.810274 15.411062 10.729716 24.547758 0.772612 1.118429 0.092531 -0.014469 1024720.000000 0 1 0
15.723474 14.081562 9.961516 23.339877 0.730365 1.129842 0.095921 -0.018051 -117590.000000 0 1 0
15.770374 12.924662 10.791616 23.069690 0.686550 1.084015 0.076970 -0.012361 702098.000000 0 1 0
16.429974 11.880462 10.016216 22.614465 0.626060 1.111952 0.093719 -0.010766 294339.000000 0 1 0
16.712674 10.557762 10.798916 22.525461 0.563418 1.070815 0.084447 -0.021522 -706788.000000 0 1 0
17.310874 9.571762 9.962016 22.147839 0.505093 1.104259 0.078188 -0.023817 418415.000000 0 1 0
17.906174 8.452662 10.556216 22.439079 0.441041 1.081008 0.082998 -0.021881 134762.000000 0 1 0
19.164674 8.740262 11.408616 23.954821 0.427883 1.074405 0.083004 -0.025355 -863194.000000 0 1 0
18.954274 9.281062 12.674016 24.617744 0.455338 1.029984 0.079718 -0.026265 -9574.240000 0 1 0
20.084974 9.566062 13.473716 26.008782 0.444492 1.026233 0.096408 -0.027197 -632277.000000 0 0 1
19.555874 9.704562 14.887016 26.424118 0.460641 0.972316 0.059342 -0.016385 146049.000000 0 0 1
19.252274 8.516462 15.640316 26.225935 0.416483 0.931827 0.077800 -0.019269 1494640.000000 0 0 1
17.939974 8.029162 15.227716 24.863497 0.420821 0.911637 0.092645 -0.031654 715001.000000 0 1 0
17.627774 6.657462 15.821516 24.604483 0.361108 0.872343 0.126211 -0.033755 -99167.800000 0 1 0
16.515574 6.743462 16.688016 24.428024 0.387649 0.818728 0.124662 -0.027164 132221.000000 0 1 0
16.135474 5.454162 17.087216 24.126218 0.325965 0.783791 0.132463 -0.014018 -901071.000000 0 1 0
14.793074 5.462162 17.833216 23.805333 0.353709 0.724053 0.120606 -0.020317 -168099.000000 0 1 0
14.133074 4.220162 17.952816 23.234827 0.290174 0.687762 0.126052 -0.011928 393085.000000 0 1 0
13.536474 3.789162 16.753916 21.869787 0.272937 0.698083 0.112955 -0.014198 -914557.000000 0 1 0
13.283874 2.255462 16.782516 21.522111 0.168186 0.676482 0.113515 -0.017362 525976.000000 0 1 0
14.555174 1.590062 16.852316 22.324470 0.108812 0.715324 0.135602 -0.014531 777654.000000 0 1 0
14.556974 0.180262 16.923216 22.323379 0.012383 0.710411 0.139246 -0.011681 -493669.000000 0 1 0
13.841674 -0.572638 17.997616 22.711980 -0.041347 0.656016 0.138998 -0.019262 -402666.000000 0 1 0
12.442774 -0.697338 17.919916 21.827330 -0.055985 0.607662 0.117763 0.003336 -346541.000000 0 1 0
12.036274 -1.336738 19.056516 22.578963 -0.110606 0.566109 0.104905 -0.010323 -357763.000000 0 1 0
-26.861176 14.397462 28.360526 41.630867 -0.492027 0.821344 0.087853 -0.004134 62617.600000 0 0 1
-25.953696 14.348562 29.473346 41.810928 -0.505030 0.788486 0.079095 -0.004861 554534.000000 0 0 1
-25.523416 13.024762 29.621976 41.213477 -0.471859 0.768801 0.077833 0.004630 -9102.560000 0 0 1
-24.279426 12.834662 30.541926 41.073450 -0.486283 0.732368 0.063598 -0.013190 116343.000000 0 0 1
-24.468326 13.333062 31.881685 42.342784 -0.498928 0.718274 0.069753 -0.026324 -131407.000000 0 0 1
-23.277826 13.327362 32.627374 42.237676 -0.519980 0.688074 0.064914 -0.021703 -178129.000000 0 0 1
-23.567826 13.438862 -33.670713 43.240748 -0.518235 2.463356 0.054265 -0.013382 243427.000000 0 0 1
-24.267126 12.307862 -33.100313 42.848659 -0.469377 2.453555 0.031957 -0.013983 268656.000000 0 0 1
-24.835326 12.658362 -31.883783 42.350952 -0.471371 2.423173 0.010293 -0.005804 -50599.000000 0 0 1
-25.731886 11.659962 -31.112463 42.024636 -0.425456 2.404370 -0.003485 -0.010782 -124295.000000 0 0 1
-25.024576 10.658862 -30.421533 40.808215 -0.402663 2.412045 0.013971 -0.010991 48867.700000 0 0 1
-24.996726 9.403962 -31.094403 40.989422 -0.359829 2.431952 0.026466 -0.015608 -434779.000000 0 0 1
-24.184326 8.303262 -30.385663 39.712898 -0.330723 2.442045 0.026131 -0.005815 75977.600000 0 0 1
-24.713026 7.888962 -29.111213 38.992718 -0.308998 2.413704 0.029280 -0.005382 299713.000000 0 0 1
-23.898526 6.879762 -28.551743 37.863870 -0.280295 2.425023 0.040505 -0.003173 -170140.000000 0 0 1
-24.541026 6.100762 -27.397413 37.284038 -0.243655 2.396212 0.041138 -0.002497 -145494.000000 0 0 1
-25.423786 5.090862 -27.828903 38.035951 -0.197626 2.391532 0.042132 -0.003604 31574.700000 0 0 1
-25.500376 4.109862 -26.780523 37.206942 -0.159795 2.374270 0.054240 -0.001560 -281981.000000 0 0 1
-26.199686 2.771362 -27.191573 37.861400 -0.105387 2.371990 0.062088 -0.001786 1772070.000000 0 0 1
-27.581266 2.651062 -27.642333 39.138893 -0.095824 2.355001 0.069956 0.000009 1404230.000000 0 0 1
-27.856466 3.448962 -28.735963 40.170058 -0.123185 2.367932 0.067272 -0.005854 -59296.500000 0 0 1
-29.264966 3.328862 -29.431553 41.638154 -0.113262 2.355819 0.091064 -0.013817 284283.000000 0 0 1
-30.337026 3.723562 -28.595073 41.855444 -0.122129 2.322914 0.086391 -0.012848 -334854.000000 0 0 1
-31.504076 3.858862 -29.360093 43.236705 -0.121881 2.317271 0.090649 -0.014173 -231574.000000 0 0 1
-31.747786 5.233562 -30.051363 44.027224 -0.163379 2.322060 0.084502 -0.026340 -482750.000000 0 0 1
-30.854086 5.519962 -31.148093 44.188780 -0.177032 2.353060 0.087855 -0.026105 520390.000000 0 0 1
-30.978386 6.827562 -31.742053 44.875761 -0.216930 2.356513 0.085181 -0.021793 -606119.000000 0 0 1
-30.419066 7.992762 -30.933923 44.114752 -0.256947 2.347896 0.053589 -0.014468 -758188.000000 0 0 1
-29.041516 7.906262 -30.707993 42.998831 -0.265798 2.366218 0.023494 -0.014636 -193850.000000 0 0 1
-28.539736 7.362862 -29.508223 41.706875 -0.252481 2.356771 0.024369 -0.013699 -596161.000000 0 0 1
-28.545586 8.384662 -28.278003 41.046297 -0.285694 2.330807 0.007118 -0.007297 398053.000000 0 0 1
-29.780076 8.751962 -27.637453 41.560541 -0.285839 2.298280 0.008452 -0.010648 584897.000000 0 0 1
-30.331886 7.661562 -26.904103 41.262011 -0.247416 2.281056 0.014512 -0.001151 686343.000000 0 0 1
-31.727026 7.997162 -26.216583 41.926936 -0.246918 2.246302 0.019470 0.001609 1037820.000000 0 0 1
-31.603666 8.947262 -25.224083 41.413760 -0.275889 2.225690 0.013955 0.005745 46987.600000 0 0 1
-31.588226 8.320762 -23.943803 40.501318 -0.257563 2.203325 0.018038 0.007297 67930.500000 0 0 1
-31.062926 9.195262 -22.761203 39.592052 -0.287802 2.183270 0.032750 0.004141 306457.000000 0 0 1
-32.047136 10.162162 -22.357103 40.374850 -0.307071 2.157643 0.037189 0.013551 933453.000000 0 0 1
-31.401366 11.103862 -21.481603 39.633329 -0.339888 2.143622 0.054317 0.002448 -288068.000000 0 0 1
-32.304096 12.004562 -20.682603 40.192464 -0.355796 2.111325 0.061851 0.005552 -868487.000000 0 0 1
-32.974656 11.311262 -19.692803 40.038470 -0.330451 2.085006 0.078163 0.000415 -222410.000000 0 0 1
-33.875876 12.081262 -18.958803 40.656710 -0.342572 2.055916 0.080392 -0.003014 -61208.900000 0 0 1
-33.203526 13.019862 -17.896503 39.903330 -0.373697 2.035879 0.101123 -0.012820 -242028.000000 0 0 1
-32.669796 12.411262 -16.706903 38.735973 -0.363060 2.016732 0.136821 -0.017805 381179.000000 0 0 1
-33.577936 12.013562 -15.676003 38.955622 -0.343590 1.984941 0.120404 -0.017873 -45746.700000 0 0 1
-34.195033 13.104362 -14.804003 39.499153 -0.365961 1.954970 0.097248 -0.007245 -144602.000000 0 0 1
-34.871187 13.999762 -15.645903 40.703652 -0.381774 1.965339 0.086320 -0.004317 -358519.000000 0 0 1
-35.628766 14.920162 -14.926303 41.410321 -0.396580 1.939545 0.061656 0.001365 33416.100000 0 0 1
-36.448476 15.998262 -15.688903 42.785248 -0.413609 1.946245 0.041520 -0.010828 -61308.100000 0 0 1
37.292901 15.495862 -16.184403 43.506518 0.393812 1.951959 0.030401 -0.009977 -90584.300000 0 0 1
36.466191 16.530762 -16.712803 43.386253 0.425609 1.966231 0.019224 -0.009520 21971.600000 0 0 1
35.808061 16.335062 -18.107403 43.323544 0.427985 2.001992 0.022856 -0.013441 163419.000000 0 0 1
34.881061 15.253562 -18.191103 42.193314 0.412244 2.016549 0.025017 -0.027958 674913.000000 0 0 1
33.553951 15.772262 -18.224303 41.312917 0.439407 2.027652 0.040662 -0.028085 -171226.000000 0 0 1
32.535051 14.729362 -18.720703 40.323050 0.425116 2.053604 0.046872 -0.032875 -399608.000000 0 0 1
32.675631 14.379762 -20.067503 40.953377 0.414571 2.082896 0.051662 -0.029441 299347.000000 0 0 1
32.153981 13.126562 -20.511403 40.334883 0.387590 2.104270 0.032478 -0.019271 124038.000000 0 0 1
32.889911 11.861362 -19.937703 40.248604 0.346121 2.089050 0.050827 -0.013566 43520.500000 0 0 1
32.892751 11.807662 -18.562203 39.571572 0.344648 2.059044 0.060837 -0.017199 -51492.400000 0 0 1
33.581151 10.649862 -18.152103 39.630949 0.307105 2.046572 0.069107 -0.016884 -170814.000000 0 0 1
33.697321 10.455062 -16.579403 38.983257 0.300846 2.010085 0.061734 -0.012538 -519542.000000 0 0 1
32.485991 10.103362 -15.954603 37.576148 0.301524 2.009310 0.068404 -0.021052 -183588.000000 0 0 1
32.589871 9.799462 -14.586703 37.025681 0.292090 1.975734 0.050635 -0.014968 -266121.000000 0 0 1
31.967891 10.854362 -13.668003 36.422212 0.327326 1.955480 0.060821 -0.017877 -680309.000000 0 0 1
30.613071 11.054062 -13.966403 35.417690 0.346520 1.976139 0.056065 -0.019566 -337099.000000 0 0 1
30.119421 12.235962 -13.413603 35.168495 0.385881 1.962117 0.071840 -0.016556 -261928.000000 0 0 1
28.589341 12.304162 -13.291703 33.843938 0.406415 1.974400 0.080792 -0.014484 -953301.000000 0 0 1
28.078041 11.264262 -12.506403 32.736373 0.381521 1.962792 0.078062 -0.017535 -558202.000000 0 0 1
26.690341 11.133762 -12.580603 31.537383 0.395199 1.981125 0.078893 -0.012907 -352993.000000 0 0 1
26.133941 10.522762 -13.916603 31.422654 0.382786 2.029610 0.075705 -0.021271 -886291.000000 0 0 1
26.360741 9.132262 -14.055803 31.238637 0.333495 2.037505 0.087008 -0.016549 817564.000000 0 0 1
27.712841 8.844062 -14.438303 32.475892 0.308916 2.031508 0.092763 -0.024806 662339.000000 0 0 1
28.444141 7.773362 -13.542603 32.448365 0.266771 2.001333 0.100010 -0.022960 -96560.500000 0 0 1
27.988741 6.435862 -13.652303 31.798983 0.226016 2.014549 0.103033 -0.026599 290680.000000 0 0 1
27.100441 6.171462 -12.591703 30.513469 0.223907 1.996169 0.123700 -0.032489 -277199.000000 0 0 1
26.663641 4.700962 -12.617503 29.870557 0.174513 2.006894 0.126017 -0.029022 -265486.000000 0 0 1
25.842141 4.321762 -11.537903 28.628955 0.165704 1.985605 0.139691 -0.029216 350574.000000 0 0 1
25.496141 2.951962 -11.685103 28.201222 0.115268 1.998022 0.141898 -0.036639 356256.000000 0 0 1
24.511141 2.285762 -10.627803 26.813633 0.092985 1.978343 0.139455 -0.038571 437310.000000 0 0 1
25.111441 2.181962 -9.325703 26.875903 0.086673 1.925157 0.140743 -0.032958 567083.000000 0 0 1
24.938641 0.906962 -8.749303 26.444445 0.036352 1.908007 0.173020 -0.021319 -373448.000000 0 0 1
25.832941 0.660462 -7.503703 26.908783 0.025561 1.853400 0.195253 -0.016141 -120460.000000 0 0 1
25.905341 -0.542738 -6.771203 26.781158 -0.020948 1.826405 0.172139 -0.031946 346503.000000 0 0 1
26.093541 -1.702038 -7.562603 27.220631 -0.065136 1.852327 0.124903 -0.030474 -447785.000000 0 0 1
26.507541 -2.936138 -6.670103 27.491106 -0.110316 1.815870 0.131665 -0.034973 -298015.000000 0 0 1
27.794741 -2.737338 -6.128003 28.593584 -0.098167 1.786786 0.133087 -0.048115 410964.000000 0 0 1
28.201741 -3.859338 -5.338803 28.960930 -0.136003 1.756202 0.154228 -0.059997 362755.000000 0 0 1
29.737841 -4.032338 -5.123303 30.444165 -0.134774 1.739886 0.146057 -0.051745 537055.000000 0 0 1
30.436091 -4.453938 -6.317603 31.402314 -0.145306 1.773362 0.114818 -0.039681 252847.000000 0 0 1
31.701181 -4.945038 -5.939303 32.629643 -0.154742 1.753838 0.137876 -0.034413 68902.700000 0 0 1
32.568321 -5.343038 -7.189203 33.777629 -0.162608 1.785276 0.150704 -0.042439 155581.000000 0 0 1
32.027781 -6.489838 -7.773703 33.590582 -0.199925 1.804339 0.156516 -0.051213 196467.000000 0 0 1
32.490981 -6.509738 -9.124303 34.369949 -0.197737 1.839491 0.145794 -0.032224 -867040.000000 0 0 1
31.474301 -7.147238 -10.069503 33.809903 -0.223295 1.873212 0.123271 -0.031006 836861.000000 0 0 1
30.283921 -6.342738 -10.250603 32.594801 -0.206458 1.890711 0.093334 -0.038998 1512580.000000 0 0 1
29.299441 -6.426038 -9.204903 31.376447 -0.215904 1.868546 0.124980 -0.034728 -958818.000000 0 0 1
28.217241 -5.372038 -9.245503 30.175334 -0.188130 1.882198 0.108325 -0.031307 -616066.000000 0 0 1
27.215141 -5.622438 -10.191103 29.599565 -0.203726 1.922288 0.100045 -0.034207 343376.000000 0 0 1
26.093141 -4.764738 -10.223903 28.426799 -0.180615 1.938697 0.096386 -0.036378 -514400.000000 0 0 1
24.846941 -5.312038 -9.597203 27.160532 -0.210620 1.931947 0.120511 -0.034873 -2054100.000000 0 0 1
24.828941 -5.468238 -8.142603 26.696065 -0.216776 1.880747 0.126633 -0.041988 1404750.000000 0 0 1
23.630341 -6.102338 -7.592503 25.559296 -0.252720 1.872403 0.117751 -0.046273 578229.000000 0 0 1
22.522141 -5.088738 -7.333703 24.226541 -0.222213 1.878335 0.131608 -0.032682 -666524.000000 0 1 0
22.156741 -4.392038 -8.524603 24.142908 -0.195689 1.931667 0.156883 -0.030723 212568.000000 0 1 0
22.203541 -3.011838 -8.310303 23.898316 -0.134824 1.925952 0.169024 -0.034166 -246992.000000 0 1 0
22.368041 -2.207938 -9.642603 24.457801 -0.098391 1.976053 0.195495 -0.020786 117142.000000 0 1 0
23.719941 -2.187938 -10.078703 25.865091 -0.091980 1.971063 0.161317 -0.032046 615760.000000 0 0 1
23.845141 -1.495638 -11.282703 26.422094 -0.062641 2.011988 0.190911 -0.030197 -476368.000000 0 0 1
25.193841 -1.595538 -12.013203 27.956974 -0.063246 2.014960 0.140476 -0.030350 -141062.000000 0 0 1
26.171141 -0.808138 -11.335603 28.532045 -0.030869 1.979362 0.132921 -0.037883 158840.000000 0 0 1
27.410041 -0.901238 -11.957503 29.918296 -0.032868 1.981955 0.106173 -0.032632 -603117.000000 0 0 1
28.615441 -0.070438 -11.457303 30.823987 -0.002462 1.951637 0.085024 -0.018508 -188648.000000 0 0 1
29.817641 -0.544638 -12.063203 32.170005 -0.018264 1.955175 0.085910 -0.023041 -12847.100000 0 0 1
30.908891 0.268762 -11.832003 33.097251 0.008695 1.936377 0.085421 -0.017475 -796702.000000 0 0 1
30.830361 1.661062 -12.623203 33.355892 0.053825 1.958907 0.095405 -0.016512 -941530.000000 0 0 1
30.958101 1.485362 -14.007803 34.012187 0.047943 1.995276 0.100906 -0.022721 398797.000000 0 0 1
30.645811 2.701362 -14.618203 34.061047 0.087921 2.014377 0.111128 -0.026494 -7983.850000 0 0 1
30.944471 2.708062 -16.171703 35.020249 0.087291 2.050799 0.110496 -0.019804 212059.000000 0 0 1
29.965511 1.915462 -16.835203 34.424190 0.063835 2.081798 0.100409 -0.021338 417668.000000 0 0 1
30.138841 2.065462 -18.240503 35.289259 0.068425 2.114005 0.088104 -0.019082 303375.000000 0 0 1
29.030241 1.351362 -19.087903 34.769658 0.046517 2.151942 0.073009 -0.019658 251789.000000 0 0 1
29.056641 -0.052738 -18.982003 34.707457 -0.001815 2.149470 0.093056 -0.023912 143147.000000 0 0 1
28.398541 -0.558838 -20.119803 34.807986 -0.019676 2.187100 0.071007 -0.022469 -236515.000000 0 0 1
28.266141 -2.131038 -20.175203 34.793029 -0.075250 2.189357 0.081024 -0.023866 984573.000000 0 0 1
27.077641 -2.642338 -19.497503 33.471379 -0.097276 2.192613 0.090593 -0.024325 1180860.000000 0 0 1
26.977641 -4.082138 -19.577903 33.582008 -0.150176 2.193198 0.089476 -0.030099 44583.200000 0 0 1
27.797141 -4.932638 -18.566803 33.789616 -0.175623 2.152541 0.076167 -0.023494 108262.000000 0 0 1
29.196141 -4.915338 -18.677103 35.005847 -0.166792 2.133580 0.080282 -0.029926 -45620.800000 0 0 1
29.907541 -5.079338 -17.470903 35.007044 -0.168229 2.093320 0.072123 -0.025528 -857673.000000 0 0 1
31.391171 -4.869838 -17.700703 36.365311 -0.153907 2.079158 0.092641 -0.031880 -1191380.000000 0 0 1
31.990311 -6.037338 -18.129403 37.262645 -0.186530 2.078910 0.075447 -0.029825 -1742590.000000 0 0 1
33.239451 -5.738738 -18.581103 38.510409 -0.170963 2.074298 0.084402 -0.033794 -1666390.000000 0 0 1
33.881511 -7.013338 -19.116503 39.529538 -0.204113 2.075560 0.075979 -0.025231 -381097.000000 0 0 1
34.206991 -7.950138 -18.107503 39.512081 -0.228359 2.046853 0.076683 -0.033599 105160.000000 0 0 1
35.129121 -8.860038 -18.682303 40.762530 -0.247061 2.046901 0.067877 -0.028011 -286434.000000 0 0 1
36.083831 -9.519138 -17.701003 41.303539 -0.257930 2.013694 0.069855 -0.023125 -885754.000000 0 0 1
35.439261 -10.430738 -16.802803 40.584180 -0.286244 1.997666 0.070152 -0.020628 539669.000000 0 0 1
36.323831 -11.238438 -16.016103 41.258196 -0.300054 1.969465 0.079393 -0.031122 65666.300000 0 0 1
37.376911 -10.494838 -15.128003 41.665712 -0.273736 1.942368 0.097724 -0.041029 -41699.800000 0 0 1
-36.926566 -11.210338 -14.043603 41.066601 0.294742 1.919810 0.096913 -0.038146 994837.000000 0 0 1
-36.199686 -12.447538 -14.330703 40.874534 0.331192 1.929010 0.082445 -0.023901 -524791.000000 0 0 1
-34.838023 -12.326038 -14.999403 39.882341 0.340065 1.956371 0.076710 -0.029212 -768927.000000 0 0 1
-34.891043 -11.889038 -16.328303 40.315599 0.328408 1.987788 0.095735 -0.032225 -948199.000000 0 0 1
-33.594226 -11.882738 -16.790303 39.391442 0.339979 2.011131 0.111586 -0.034068 -957246.000000 0 0 1
-33.482056 -11.016838 -18.146203 39.644715 0.317879 2.046226 0.152406 -0.043075 266022.000000 0 0 1
-33.563666 -9.627038 -17.779003 39.182808 0.279330 2.041760 0.149099 -0.047455 -488307.000000 0 0 1
-34.903331 -9.273438 -17.901203 40.307471 0.259690 2.030984 0.131052 -0.048895 -800439.000000 0 0 1
-35.210771 -7.757838 -17.788103 40.204465 0.216861 2.029115 0.145822 -0.052145 95950.600000 0 0 1
-36.574516 -7.447438 -18.025303 41.449621 0.200877 2.020693 0.136931 -0.048654 143107.000000 0 0 1
-36.955176 -6.120438 -17.681403 41.421936 0.164128 2.011815 0.129078 -0.050841 68433.200000 0 0 1
25.030674 27.684662 -26.400573 45.716139 0.835701 2.186446 0.035424 0.014604 128769.000000 0 0 1
25.542974 26.624762 -25.610173 44.913277 0.806132 2.177562 0.032694 -0.000596 644244.000000 0 0 1
26.815674 26.151962 -26.095503 45.650638 0.772868 2.179293 0.046455 -0.000868 503521.000000 0 0 1
27.496674 25.180562 -25.153683 44.975944 0.741458 2.164301 0.060861 -0.005903 -585428.000000 0 0 1
27.983674 25.743062 -23.959403 44.942677 0.743718 2.133069 0.058068 -0.002437 176452.000000 0 0 1
28.280974 24.773562 -22.972903 44.060154 0.719385 2.119285 0.062364 -0.000728 323801.000000 0 0 1
28.988674 25.351562 -21.705303 44.205940 0.718566 2.084038 0.060393 0.001936 -52771.500000 0 0 1
28.145274 26.258562 -21.083403 43.888249 0.750732 2.071894 0.063345 -0.005867 -395186.000000 0 0 1
28.703674 26.940462 -20.005503 44.157780 0.753721 2.040975 0.037864 0.001106 -7364.200000 0 0 1
27.685574 27.870162 -19.285203 43.762495 0.788721 2.027151 0.043756 0.005982 -157046.000000 0 0 1
26.747674 27.216962 -18.488803 42.403266 0.794094 2.021971 0.055456 0.006455 -237150.000000 0 0 1
25.950674 28.200262 -17.838303 42.271708 0.826917 2.006437 0.045409 0.007446 -278448.000000 0 0 1
24.891874 27.588262 -16.930903 40.833480 0.836732 1.998336 0.059381 -0.002915 -250047.000000 0 0 1
23.891174 26.885462 -17.649803 40.064096 0.844300 2.026995 0.079933 -0.007181 268082.000000 0 0 1
22.817074 26.616862 -16.741403 38.850364 0.862113 2.016308 0.059537 0.010054 150293.000000 0 0 1
21.768074 25.614562 -17.250703 37.782821 0.866400 2.044938 0.058983 -0.006809 -455488.000000 0 0 1
21.047574 26.237262 -18.290903 38.287745 0.894714 2.068856 0.051628 -0.002573 -371910.000000 0 0 1
20.399774 25.294962 -19.129503 37.708404 0.892119 2.102846 0.047732 0.000677 21474.600000 0 0 1
19.696374 25.873462 -20.348403 38.359362 0.920129 2.129949 0.027762 0.005074 -328366.000000 0 0 1
18.473174 26.436062 -19.991103 37.944271 0.960885 2.125692 0.011345 0.012406 -831504.000000 0 0 1
17.785274 26.819862 -21.177503 38.524117 0.985241 2.152826 0.015884 0.004658 211820.000000 0 0 1
16.635674 27.807762 -20.870403 38.543365 1.031673 2.142991 0.021082 0.007572 317282.000000 0 0 1
15.469374 27.239062 -20.275503 37.314395 1.054306 2.145242 0.045199 0.007761 -74652.700000 0 0 1
14.681574 28.249762 -19.734403 37.457233 1.091508 2.125688 0.038804 -0.002461 -327925.000000 0 0 1
14.593074 28.149362 -18.238303 36.578410 1.092525 2.092789 0.049582 -0.005303 39407.300000 0 0 1
13.609174 27.200862 -17.836903 35.259773 1.106892 2.101188 0.044070 -0.003177 -49000.300000 0 0 1
13.343074 27.221862 -16.420803 34.477676 1.115051 2.067208 0.072253 -0.005047 15811.500000 0 0 1
12.281574 26.150562 -16.142403 33.094805 1.131723 2.080321 0.073507 -0.011252 -177055.000000 0 0 1
12.772674 24.859762 -16.258003 32.333754 1.096178 2.097652 0.054268 -0.008985 -206412.000000 0 0 1
11.797374 23.834262 -16.124103 31.100430 1.111176 2.115837 0.077722 -0.009226 135720.000000 0 0 1
12.505374 22.473062 -16.167603 30.377858 1.063006 2.132013 0.064812 -0.005577 292048.000000 0 0 1
13.024874 22.228162 -17.460903 31.122687 1.040762 2.166431 0.059515 0.000076 319399.000000 0 0 1
14.161474 21.353862 -17.580803 31.074417 0.985211 2.172156 0.058146 0.001202 473841.000000 0 0 1
13.829174 19.877762 -17.732003 30.013254 0.962955 2.202853 0.072782 -0.001891 18348.500000 0 0 1
13.273774 19.383862 -16.519203 28.719527 0.970355 2.183633 0.087059 -0.015781 -275162.000000 0 0 1
12.961974 18.020862 -16.560903 27.695266 0.947250 2.211761 0.076059 -0.023013 -89165.500000 0 0 1
14.090574 16.969462 -16.596703 27.603577 0.877822 2.215863 0.112591 -0.024457 -169885.000000 0 0 1
14.878074 16.754562 -15.479303 27.233826 0.844650 2.175338 0.126132 -0.026199 96339.200000 0 0 1
15.793274 15.680362 -15.663003 27.214535 0.781811 2.184058 0.132993 -0.029178 -565787.000000 0 0 1
16.404674 15.081962 -14.394603 26.528918 0.743414 2.144326 0.194174 -0.032312 -10954.900000 0 0 1
17.364074 15.844662 -13.595403 27.155098 0.739677 2.095154 0.147313 -0.023464 1921990.000000 0 0 1
18.633074 16.098362 -14.221403 28.435840 0.712547 2.094537 0.107354 -0.017242 -260563.000000 0 0 1
19.531174 14.985262 -14.728403 28.687117 0.654449 2.109956 0.109939 -0.020653 -909721.000000 0 0 1
20.190274 14.115862 -13.802403 28.238468 0.610150 2.081487 0.154627 -0.027918 658140.000000 0 0 1
21.115974 14.688562 -12.881703 28.767629 0.607776 2.035082 0.133997 -0.019890 -657998.000000 0 0 1
21.867774 13.609262 -12.140803 28.474737 0.556687 2.011273 0.136864 -0.026835 -651168.000000 0 0 1
21.120474 12.889262 -11.148803 27.138595 0.547939 1.994139 0.219100 -0.032918 246072.000000 0 0 1
21.737774 11.826062 -10.446603 26.861089 0.498250 1.970247 0.228417 -0.016925 -422182.000000 0 0 1
21.721074 10.492462 -11.285003 26.631713 0.450000 2.008370 0.192615 -0.025776 -491291.000000 0 0 1
22.613474 10.530662 -12.379803 27.848224 0.435817 2.031463 0.153953 -0.019975 302249.000000 0 0 1
22.633274 9.429262 -13.283303 27.885879 0.394743 2.067290 0.133820 -0.026219 -285914.000000 0 0 1
22.979574 8.051262 -12.828203 27.521745 0.337001 2.055687 0.127801 -0.005304 -180250.000000 0 0 1
22.008974 7.630062 -11.883003 26.149925 0.333714 2.042515 0.149375 -0.026385 506054.000000 0 0 1
22.529274 6.715162 -10.953103 25.935151 0.289680 2.006807 0.136777 -0.014515 -1036140.000000 0 0 1
22.489374 5.180762 -11.330503 25.709775 0.226415 2.027184 0.146542 -0.027450 -270914.000000 0 0 1
21.209474 4.591162 -11.321303 24.476365 0.213178 2.051654 0.137297 -0.050658 732560.000000 0 1 0
20.286474 5.140662 -12.296803 24.273006 0.248179 2.102038 0.083115 -0.047425 93852.200000 0 1 0
19.328774 4.031062 -12.840303 23.552587 0.205605 2.147395 0.090694 -0.063240 268709.000000 0 1 0
20.144174 3.234562 -13.646003 24.545133 0.159212 2.160308 0.108176 -0.055743 564640.000000 0 1 0
19.672874 1.893562 -13.664203 24.027443 0.095957 2.175711 0.127234 -0.057456 -643291.000000 0 1 0
20.597274 0.984062 -14.421903 25.163612 0.047740 2.181111 0.145033 -0.041107 -1541830.000000 0 0 1
21.776874 0.812562 -13.702203 25.741851 0.037296 2.132103 0.173692 -0.034079 10631.000000 0 0 1
22.892674 0.461362 -14.525403 27.115950 0.020151 2.136106 0.131746 -0.034624 224504.000000 0 0 1
22.928774 -0.957138 -15.115203 27.479341 -0.041720 2.153229 0.123816 -0.027996 -726592.000000 0 0 1
21.961174 -1.185938 -16.132203 27.275403 -0.053949 2.203660 0.116256 -0.019180 154445.000000 0 0 1
22.345074 -2.172138 -17.048103 28.189685 -0.096904 2.220266 0.115043 -0.026408 -1291710.000000 0 0 1
21.209374 -2.797238 -17.769603 27.810446 -0.131130 2.263934 0.093558 -0.025067 -1117640.000000 0 0 1
20.564174 -3.676238 -16.844603 26.835436 -0.176900 2.249391 0.115305 -0.027917 150556.000000 0 0 1
19.573574 -4.359738 -17.589503 26.674384 -0.219158 2.290837 0.100179 -0.028694 -86811.800000 0 0 1
19.000874 -5.668738 -16.931503 26.073811 -0.289934 2.277550 0.106561 -0.028669 -188568.000000 0 0 1
20.011474 -6.594038 -16.640803 26.848776 -0.318308 2.239281 0.113348 -0.026601 130663.000000 0 0 1
19.581274 -7.619138 -15.767003 26.269297 -0.371078 2.214556 0.124323 -0.022144 -691015.000000 0 0 1
20.724974 -8.486838 -15.308303 27.127387 -0.388668 2.170396 0.176419 -0.021040 -697446.000000 0 0 1
21.278474 -9.288838 -16.316603 28.377588 -0.411602 2.183378 0.137806 -0.025534 468023.000000 0 0 1
22.166674 -10.251538 -15.764303 29.068346 -0.433180 2.143991 0.120385 -0.028359 -430491.000000 0 0 1
22.622074 -11.227338 -16.850803 30.360516 -0.460683 2.159188 0.106413 -0.023550 213124.000000 0 0 1
23.666974 -10.664838 -17.666603 31.400212 -0.423370 2.168356 0.103542 -0.020821 395615.000000 0 0 1
23.941774 -11.507738 -18.766103 32.523887 -0.448052 2.185840 0.102511 -0.020026 -500970.000000 0 0 1
23.047374 -11.342638 -20.025103 32.570564 -0.457343 2.232957 0.112090 -0.018725 1032070.000000 0 0 1
21.695674 -11.830738 -19.876903 31.713718 -0.499231 2.248185 0.109472 -0.025574 1008840.000000 0 0 1
21.542274 -13.243638 -20.003503 32.242885 -0.551212 2.240050 0.101196 -0.013984 518451.000000 0 0 1
20.028374 -13.665938 -19.881403 31.355443 -0.598767 2.257596 0.098520 -0.007817 1233170.000000 0 0 1
19.213674 -13.215038 -20.951503 31.349131 -0.602487 2.302755 0.100641 -0.000499 -777409.000000 0 0 1
17.847674 -13.342138 -20.736403 30.439293 -0.641935 2.320249 0.092255 0.007695 -182130.000000 0 0 1
16.983574 -12.962538 -22.002403 30.668794 -0.651921 2.370888 0.079288 0.003000 -33407.000000 0 0 1
17.160474 -13.782138 -23.140903 31.936352 -0.676648 2.381242 0.069205 0.005220 195855.000000 0 0 1
16.680974 -13.169238 -24.303703 32.285503 -0.668291 2.423063 0.078032 -0.008566 -200332.000000 0 0 1
16.776874 -14.027538 -25.541063 33.624117 -0.696383 2.433503 0.071842 -0.012689 -411810.000000 0 0 1
15.783374 -15.012638 -25.556613 33.580272 -0.760376 2.435742 0.075425 -0.011034 -3834.380000 0 0 1
15.863274 -15.890938 -26.701903 34.887777 -0.786269 2.442405 0.076137 -0.006351 183312.000000 0 0 1
16.986174 -16.979138 -26.871083 36.039927 -0.785191 2.412219 0.064342 -0.006074 581945.000000 0 0 1
18.272874 -16.482638 -27.202823 36.681996 -0.733934 2.406226 0.069311 -0.009290 265491.000000 0 0 1
19.203374 -17.570538 -27.235493 37.673140 -0.741025 2.378847 0.083853 -0.007439 578982.000000 0 0 1
20.680674 -17.087338 -27.211403 38.211619 -0.690541 2.363315 0.097164 -0.007475 -61.880000 0 0 1
21.126774 -16.658238 -25.963433 37.389000 -0.667683 2.338401 0.099736 -0.007667 -297085.000000 0 0 1
22.513774 -16.426538 -25.954393 38.083221 -0.630331 2.320631 0.109079 -0.010263 -237059.000000 0 0 1
22.995274 -15.785938 -24.581203 37.178139 -0.601599 2.293178 0.117529 -0.008980 104721.000000 0 0 1
22.641074 -14.451938 -24.276003 36.204987 -0.568111 2.305700 0.119995 -0.011682 330288.000000 0 0 1
21.252874 -14.121838 -24.239203 35.194459 -0.586478 2.330521 0.119641 -0.004840 514047.000000 0 0 1
20.947874 -12.853438 -23.402203 33.936520 -0.550353 2.331716 0.121697 -0.004414 102717.000000 0 0 1
21.575574 -11.709138 -23.990003 34.323892 -0.497224 2.344697 0.124559 -0.017415 337628.000000 0 0 1
21.211474 -10.548438 -23.256603 33.197376 -0.461484 2.346972 0.116455 -0.014846 113267.000000 0 0 1
21.459974 -9.319738 -24.110503 33.596196 -0.409708 2.371227 0.118149 -0.023333 -55156.800000 0 0 1
20.939874 -8.167038 -23.491703 32.512135 -0.371876 2.378283 0.111899 -0.029405 16270.300000 0 0 1
21.023074 -7.050238 -24.310003 32.903674 -0.323571 2.402119 0.087707 -0.022275 23437.800000 0 0 1
20.386474 -5.768138 -23.623103 31.732172 -0.275732 2.410511 0.092390 -0.034341 101250.000000 0 0 1
19.024674 -5.958838 -23.307803 30.670827 -0.303537 2.434008 0.089361 -0.029054 -343195.000000 0 0 1
18.511174 -5.029338 -22.419103 29.505491 -0.265288 2.433845 0.089840 -0.032635 -58792.200000 0 0 1
19.009374 -5.209138 -20.936903 28.754918 -0.267464 2.386365 0.097718 -0.033867 -432368.000000 0 0 1
18.415774 -6.217838 -20.103003 27.963065 -0.325618 2.373033 0.105833 -0.033652 215445.000000 0 0 1
18.717574 -7.551538 -20.540503 28.797319 -0.383474 2.364961 0.111090 -0.028072 -107150.000000 0 0 1
18.537574 -8.590338 -19.389903 28.167426 -0.433942 2.330050 0.108194 -0.025812 -370862.000000 0 0 1
17.179774 -8.763438 -19.112603 27.152055 -0.471697 2.351684 0.102539 -0.030166 -721476.000000 0 0 1
16.948474 -9.933538 -18.305203 26.851563 -0.530138 2.320905 0.115773 -0.026258 -1012360.000000 0 0 1
15.452074 -10.269038 -18.357503 26.100147 -0.586552 2.350894 0.118871 -0.021575 -603884.000000 0 0 1
14.647774 -9.553138 -17.493903 24.735731 -0.577914 2.356372 0.128747 -0.022044 -238088.000000 0 1 0
14.497874 -8.191838 -17.838503 24.403007 -0.514315 2.390577 0.135930 -0.043572 -1283750.000000 0 1 0
13.282774 -7.453538 -17.232103 22.998537 -0.511358 2.417755 0.126383 -0.026383 -498790.000000 0 1 0
12.074874 -7.727138 -17.869403 22.909099 -0.569267 2.465483 0.112440 -0.037262 -192460.000000 0 1 0
11.093874 -6.852538 -17.305403 21.668140 -0.553323 2.495856 0.093221 -0.037719 -144329.000000 0 1 0
9.649774 -6.879938 -17.795603 21.380720 -0.619374 2.554077 0.079686 -0.026452 -311564.000000 0 1 0
9.496874 -6.242438 -19.048503 22.181166 -0.581500 2.603659 0.080146 -0.038976 -425074.000000 0 1 0
8.115374 -6.101138 -19.218303 21.735371 -0.644652 2.655564 0.076916 -0.040097 -195018.000000 0 1 0
7.571874 -5.756238 -20.635003 22.721595 -0.650006 2.709681 0.082664 -0.048203 20029.600000 0 1 0
7.716074 -6.754238 -21.564903 23.878915 -0.719026 2.697717 0.086682 -0.043280 -162554.000000 0 1 0
7.039274 -6.396438 -22.722103 24.632494 -0.737589 2.745160 0.089788 -0.039628 -151939.000000 0 1 0
7.055874 -7.430538 -23.882903 25.988292 -0.811256 2.736300 0.083626 -0.035023 -215232.000000 0 0 1
6.507674 -8.646038 -23.503203 25.874782 -0.925584 2.710104 0.093551 -0.032932 -194240.000000 0 0 1
6.377174 -9.475138 -24.636603 27.155272 -0.978392 2.707494 0.076051 -0.019434 -421539.000000 0 0 1
5.577774 -10.741738 -24.360103 27.201307 -1.091858 2.680460 0.085648 -0.026352 -79279.100000 0 0 1
6.132674 -11.709638 -23.470803 26.937036 -1.088346 2.628684 0.064300 -0.029163 102501.000000 0 0 1
5.282874 -12.853438 -23.489403 27.292337 -1.180836 2.607359 0.090986 -0.036221 -30236.100000 0 0 1
5.828774 -13.953238 -22.564803 27.163170 -1.175094 2.551184 0.079048 -0.024856 1158180.000000 0 0 1
7.054574 -14.614138 -22.944303 28.103044 -1.121066 2.526006 0.049158 -0.015135 1421530.000000 0 0 1
8.343274 -13.975838 -23.007603 28.183046 -1.032602 2.525882 0.065413 -0.021433 1353740.000000 0 0 1
9.024474 -13.615438 -21.621403 27.098088 -0.985467 2.494590 0.060847 -0.016493 -48388.300000 0 0 1
9.641474 -14.687038 -20.940603 27.334520 -0.989892 2.443526 0.058193 -0.009235 436520.000000 0 0 1
8.713674 -15.669438 -20.433203 27.184098 -1.063287 2.421372 0.068301 -0.010830 381800.000000 0 0 1
8.973374 -15.907838 -18.914103 26.293042 -1.057204 2.373674 0.067720 -0.008555 326188.000000 0 0 1
9.990674 -16.867838 -18.679103 27.078523 -1.036064 2.332026 0.070507 -0.005410 -249476.000000 0 0 1
10.223574 -17.240338 -17.320703 26.490705 -1.035537 2.283446 0.087606 -0.013008 108316.000000 0 0 1
9.098774 -18.108538 -16.676803 26.245430 -1.105184 2.259345 0.071681 -0.025011 -475913.000000 0 0 1
9.028174 -19.452538 -17.154503 27.462450 -1.136268 2.245483 0.094176 -0.033022 -58221.300000 0 0 1
8.306174 -19.702938 -18.363003 28.185070 -1.171834 2.280376 0.085885 -0.017606 -205846.000000 0 0 1
6.788874 -19.437738 -18.367903 27.591563 -1.234779 2.299238 0.080373 -0.019388 -528564.000000 0 0 1
6.483174 -18.060538 -18.157003 26.417633 -1.226154 2.328570 0.088982 -0.020535 637699.000000 0 0 1
5.062274 -17.974538 -17.904403 25.870413 -1.296271 2.335163 0.079375 -0.016681 1209050.000000 0 0 1
4.640474 -16.474438 -17.547803 24.512578 -1.296233 2.368665 0.063611 -0.008454 184022.000000 0 1 0
5.230974 -16.007938 -16.326503 23.455743 -1.254961 2.340686 0.049427 -0.009536 285695.000000 0 1 0
4.774274 -14.739938 -15.928403 22.221015 -1.257559 2.370023 0.030413 -0.000474 32673.800000 0 1 0
10.805774 29.133762 -18.470803 36.148463 1.215623 2.107110 0.071843 -0.028128 -1109010.000000 0 0 1
9.839674 28.727962 -19.319903 35.991299 1.240808 2.137429 0.101911 -0.041364 -1642830.000000 0 0 1
8.790374 28.251562 -18.575403 34.935183 1.269145 2.131415 0.094274 -0.039946 -585718.000000 0 0 1
7.527174 27.714862 -19.266403 34.582744 1.305600 2.161698 0.102482 -0.038380 113790.000000 0 0 1
6.761274 28.666362 -19.933103 35.564079 1.339169 2.165767 0.118741 -0.047318 -533907.000000 0 0 1
5.963974 28.090562 -20.943303 35.542518 1.361590 2.200922 0.112013 -0.047556 639616.000000 0 0 1
4.899374 29.084862 -21.531703 36.517767 1.403912 2.201388 0.092979 -0.046735 5521.970000 0 0 1
3.689574 29.218462 -20.838703 36.077458 1.445186 2.186594 0.089095 -0.039420 -727410.000000 0 0 1
2.957974 30.209362 -21.557103 37.229878 1.473192 2.188331 0.095543 -0.048870 -510039.000000 0 0 1
1.516674 30.099062 -20.968203 36.714021 1.520449 2.178669 0.105256 -0.044673 360060.000000 0 0 1
0.848374 28.816162 -21.141803 35.750059 1.541364 2.203563 0.113260 -0.059550 183173.000000 0 0 1
0.457774 28.559362 -22.472003 36.343330 1.554769 2.237406 0.139710 -0.072661 -744253.000000 0 0 1
-0.299426 27.225562 -22.602703 35.386481 -1.559799 2.263654 0.149696 -0.064661 -40931.300000 0 0 1
-1.491226 27.261562 -21.868503 34.980679 -1.516150 2.246132 0.157187 -0.068393 -124709.000000 0 0 1
-2.261726 26.051362 -21.864203 34.085660 -1.484196 2.267182 0.163433 -0.073649 481508.000000 0 0 1
-3.376426 26.067662 -20.786003 33.510911 -1.441988 2.239890 0.120870 -0.070716 456941.000000 0 0 1
-4.656126 26.507962 -21.227603 34.277729 -1.396920 2.238625 0.118252 -0.067107 184252.000000 0 0 1
-5.645626 26.170762 -20.297703 33.597301 -1.358330 2.219491 0.100868 -0.066059 419801.000000 0 0 1
-7.116126 26.609462 -20.636303 34.417433 -1.309483 2.213783 0.097753 -0.072459 357115.000000 0 0 1
-8.033326 26.118562 -19.713603 33.694803 -1.272408 2.195755 0.088190 -0.063885 -781713.000000 0 0 1
-8.525826 27.165262 -18.931203 34.191104 -1.266682 2.157583 0.091887 -0.073409 114990.000000 0 0 1
-9.770926 26.749062 -18.079303 33.731951 -1.220573 2.136452 0.108171 -0.063410 302528.000000 0 0 1
-9.572726 25.943462 -16.972103 32.446149 -1.217310 2.121263 0.112695 -0.070122 -436087.000000 0 0 1
-10.765126 25.276962 -16.599403 32.099111 -1.168175 2.114290 0.077584 -0.054139 -103880.000000 0 0 1
-10.728826 24.361062 -15.395703 30.750556 -1.155947 2.095162 0.091305 -0.039272 -317822.000000 0 0 1
-10.005026 23.143862 -15.425603 29.558216 -1.162761 2.119840 0.094176 -0.042461 -296957.000000 0 0 1
-10.165426 22.603462 -14.164403 28.546150 -1.148168 2.090005 0.109576 -0.032698 -148855.000000 0 0 1
-9.745026 21.128562 -13.995003 27.152196 -1.138647 2.112303 0.113485 -0.018083 -120623.000000 0 0 1
-10.498326 20.110562 -14.655103 27.007806 -1.089680 2.144355 0.087971 -0.015856 -331751.000000 0 0 1
-10.541726 20.108962 -16.116003 27.842842 -1.087953 2.188078 0.103567 -0.014002 793125.000000 0 0 1
-9.180026 20.053562 -16.919103 27.797019 -1.141495 2.225175 0.091028 -0.019300 901318.000000 0 0 1
-8.591226 18.759462 -16.955303 26.705971 -1.141336 2.258660 0.091464 -0.013559 -721785.000000 0 0 1
-7.610426 18.749962 -17.929203 27.035827 -1.185223 2.295835 0.089320 -0.019993 -353764.000000 0 0 1
-7.018026 17.329562 -18.188903 26.084528 -1.186009 2.342429 0.075936 -0.014322 270662.000000 0 0 1
-7.947926 16.387562 -18.721303 26.119129 -1.119223 2.369950 0.085451 -0.022377 -216189.000000 0 0 1
-7.545026 15.716462 -19.832403 26.405658 -1.123218 2.420472 0.073156 -0.026220 -107544.000000 0 0 1
-6.379326 14.695562 -19.852303 25.510180 -1.161244 2.462608 0.052087 -0.015341 -380095.000000 0 0 1
-6.551826 13.383362 -19.185403 24.292395 -1.115544 2.481230 0.036106 -0.015556 -311041.000000 0 1 0
-5.418726 12.634762 -18.803803 23.293407 -1.165649 2.510289 0.036670 -0.007599 46151.000000 0 1 0
-4.645226 13.153562 -17.543803 22.413820 -1.231315 2.469825 0.034818 -0.002050 509122.000000 0 1 0
-3.923626 14.386362 -17.746503 23.179746 -1.304540 2.442776 0.040439 -0.011601 -144360.000000 0 1 0
-3.394026 14.857462 -16.534803 22.486958 -1.346211 2.396915 0.036832 -0.000933 -9255.390000 0 1 0
-2.626026 16.208862 -16.559403 23.320314 -1.410180 2.360415 0.068439 -0.005772 195251.000000 0 1 0
-3.441726 17.346562 -16.720603 24.337774 -1.374930 2.328180 0.070569 -0.010941 -253306.000000 0 1 0
-2.696026 18.555362 -16.657503 25.080718 -1.426510 2.297160 0.085340 -0.022056 515590.000000 0 0 1
-3.497326 19.810062 -17.188603 26.459741 -1.396054 2.277872 0.103920 -0.025980 509168.000000 0 0 1
-3.708926 19.701462 -18.550403 27.313388 -1.384718 2.317426 0.100435 -0.028283 -318184.000000 0 0 1
-4.206826 20.876162 -19.224203 28.689397 -1.371946 2.305113 0.123041 -0.028673 -25276.000000 0 0 1
-3.267626 22.103662 -19.387203 29.582307 -1.424027 2.285462 0.115124 -0.042404 -1016630.000000 0 0 1
-2.319826 21.872062 -20.392803 29.993918 -1.465128 2.318420 0.129260 -0.035759 -665709.000000 0 0 1
-1.214926 22.740362 -20.362103 30.548573 -1.517421 2.300365 0.124910 -0.045518 192297.000000 0 0 1
-0.154826 22.218262 -19.362103 29.471446 -1.563828 2.287600 0.147806 -0.042407 -923907.000000 0 0 1
-0.436526 22.506062 -18.032803 28.842596 -1.551403 2.246202 0.137223 -0.036425 -699863.000000 0 0 1
0.646874 22.112962 -17.241103 28.047409 1.541551 2.232818 0.141274 -0.030034 -3099.720000 0 0 1
0.361274 22.219062 -15.699703 27.208416 1.554538 2.185867 0.142344 -0.034972 91543.300000 0 0 1
-0.651126 21.309562 -15.296803 26.239542 -1.540250 2.193173 0.124602 -0.026329 -42552.900000 0 0 1
-0.880426 21.347662 -13.909003 25.494277 -1.529577 2.147870 0.139983 -0.028298 710724.000000 0 0 1
-1.836326 20.185962 -13.382103 24.288389 -1.480076 2.154319 0.102528 -0.022303 754273.000000 0 1 0
-1.263226 18.901162 -13.476003 23.247630 -1.504062 2.189123 0.084356 -0.016112 -14937.300000 0 1 0
-2.118526 17.977262 -12.848303 22.197950 -1.453493 2.188060 0.067921 -0.009400 326166.000000 0 1 0
-1.500826 16.529162 -12.968603 21.063009 -1.480246 2.234077 0.032710 -0.000344 -1383300.000000 0 1 0
-0.453626 16.319162 -12.148103 20.349379 -1.543006 2.210524 0.025412 -0.001937 -1094060.000000 0 1 0
0.088274 15.016962 -12.035503 19.245006 1.564918 2.246419 0.016852 0.001758 140727.000000 0 1 0
0.828174 14.371462 -13.213803 19.540455 1.513234 2.313427 0.009083 0.006956 58508.900000 0 1 0
-0.091026 14.156762 -14.303303 20.124777 -1.564367 2.361333 0.015539 -0.004121 347682.000000 0 1 0
0.295474 13.099162 -15.136903 20.020019 1.548243 2.428112 0.018135 -0.008395 -51557.100000 0 1 0
-0.420926 12.883562 -16.538603 20.968756 -1.538136 2.479530 0.017511 -0.001915 14165.000000 0 1 0
-0.132826 13.984062 -17.387203 22.313369 -1.561298 2.464229 0.037428 -0.005395 16080.300000 0 1 0
-0.262326 13.603262 -18.749103 23.165630 -1.551515 2.513841 0.050048 -0.010119 131102.000000 0 1 0
-0.851126 14.861662 -19.480203 24.516764 -1.513589 2.489090 0.064986 -0.009970 760088.000000 0 1 0
0.112674 15.933362 -19.424303 25.123460 1.563725 2.454596 0.078496 -0.017828 564887.000000 0 0 1
-0.507226 17.141362 -19.876503 26.251837 -1.541214 2.429731 0.109064 -0.026466 -59668.600000 0 0 1
0.456174 18.302262 -20.045503 27.147800 1.545877 2.401467 0.129107 -0.030897 -76206.100000 0 0 1
1.276474 18.090662 -21.173403 27.878566 1.500353 2.433320 0.144076 -0.043020 -203659.000000 0 0 1
2.029774 19.222562 -21.545303 28.945240 1.465593 2.410353 0.152226 -0.038354 22527.200000 0 0 1
2.647074 19.021962 -22.916903 29.900275 1.432525 2.444084 0.157187 -0.049342 -172221.000000 0 0 1
3.769574 18.187662 -22.966103 29.537140 1.366430 2.461530 0.139948 -0.043715 -455921.000000 0 0 1
4.298374 18.081362 -24.242103 30.546542 1.337404 2.487519 0.138605 -0.052270 -50642.200000 0 0 1
5.212974 16.880162 -24.456003 30.169704 1.271265 2.515997 0.092007 -0.040377 -1061050.000000 0 0 1
6.544574 17.066862 -24.062903 30.218083 1.204623 2.491963 0.087711 -0.026021 -418603.000000 0 0 1
7.342074 15.998062 -24.539103 30.199530 1.140537 2.519337 0.085732 -0.026216 -51794.300000 0 0 1
7.779674 16.106362 -26.049883 31.599598 1.120826 2.539891 0.078475 -0.029967 -972658.000000 0 0 1
8.925974 16.909962 -26.288073 32.506655 1.085115 2.512732 0.055076 -0.020903 322081.000000 0 0 1
9.378574 16.908062 -27.656473 33.744936 1.064367 2.531463 0.062726 -0.023683 256217.000000 0 0 1
9.841774 15.549362 -28.295833 33.753479 1.006509 2.564970 0.054980 -0.029512 -827495.000000 0 0 1
10.982874 14.923762 -27.809993 33.417629 0.936360 2.553851 0.072701 -0.029878 -517712.000000 0 0 1
11.074974 13.541062 -27.981843 32.999984 0.885247 2.582874 0.058264 -0.016734 142548.000000 0 0 1
10.330274 12.670162 -26.857333 31.441436 0.886782 2.594810 0.067328 -0.013468 501766.000000 0 0 1
8.932374 12.898162 -26.895503 31.137083 0.965101 2.613515 0.088395 -0.020735 -359051.000000 0 0 1
8.309874 11.909662 -26.126683 29.891430 0.961587 2.634279 0.097561 -0.017617 -843255.000000 0 0 1
6.801474 11.993462 -26.123383 29.538692 1.054921 2.655957 0.081072 -0.025473 -1006530.000000 0 0 1
6.365874 13.053262 -25.280233 29.154797 1.117050 2.620155 0.100164 -0.013659 842610.000000 0 0 1
4.926274 13.170762 -25.255473 28.906332 1.212875 2.633554 0.111769 -0.036456 1045150.000000 0 0 1
4.226374 13.995262 -26.312113 30.100779 1.277518 2.634446 0.123919 -0.022734 -635237.000000 0 0 1
4.081874 13.366462 -27.527683 30.872274 1.274409 2.671803 0.115434 -0.038354 201401.000000 0 0 1
3.800974 14.363962 -28.454353 32.100171 1.312107 2.660357 0.100096 -0.044979 -179463.000000 0 0 1
3.598874 13.906862 -29.957523 33.223574 1.317568 2.694470 0.133812 -0.046206 60074.300000 0 0 1
4.825474 13.391062 -30.431723 33.596064 1.224931 2.704089 0.109415 -0.048278 186303.000000 0 0 1
4.800074 13.097762 -31.832393 34.754760 1.219516 2.728577 0.105711 -0.049126 -735313.000000 0 0 1
5.966974 12.236062 -32.390463 35.134998 1.117074 2.743717 0.099823 -0.039005 723671.000000 0 0 1
7.292574 12.743162 -32.207443 35.396175 1.051013 2.713871 0.099349 -0.033706 645467.000000 0 0 1
7.847274 12.824262 -30.923043 34.384240 1.021667 2.689049 0.089295 -0.028856 -730164.000000 0 0 1
7.924974 11.553062 -29.989383 33.100476 0.969553 2.704558 0.091514 -0.028705 -246394.000000 0 0 1
8.863374 10.610762 -30.461253 33.451989 0.874887 2.715521 0.081216 -0.024214 -43722.900000 0 0 1
8.727674 9.446462 -29.703783 32.368544 0.824928 2.732984 0.090580 -0.026233 276898.000000 0 0 1
9.839774 8.409062 -29.979933 32.654706 0.707158 2.734029 0.084341 -0.022477 683789.000000 0 0 1
11.128374 8.487062 -29.400343 32.561497 0.651548 2.697306 0.080044 -0.022560 208410.000000 0 0 1
11.920874 7.334362 -29.434653 32.592927 0.551560 2.697729 0.063954 -0.013883 -148981.000000 0 0 1
13.143674 7.612462 -28.498033 32.293089 0.524965 2.651907 0.061436 0.001740 798072.000000 0 0 1
14.020074 6.490662 -28.214583 32.167590 0.433575 2.640612 0.076348 0.005525 587682.000000 0 0 1
14.997674 6.253262 -29.212093 33.427233 0.395031 2.633967 0.074192 0.001512 -714621.000000 0 0 1
15.745274 5.014962 -28.799033 33.203129 0.308347 2.620667 0.074212 0.001504 -215025.000000 0 0 1
16.560274 5.063962 -27.635353 32.612867 0.296760 2.581820 0.061321 -0.003105 416341.000000 0 0 1
17.536074 4.045362 -27.631093 32.975084 0.226722 2.564291 0.083145 -0.002774 107647.000000 0 0 1
18.473174 4.061962 -26.383123 32.462700 0.216440 2.519604 0.100549 -0.001111 -118504.000000 0 0 1
19.422974 5.099462 -26.488193 33.239747 0.256753 2.492915 0.132169 -0.002339 -243136.000000 0 0 1
20.133474 5.093062 -25.294573 32.727840 0.247767 2.454158 0.138320 -0.006611 -237938.000000 0 0 1
21.246174 6.169462 -25.187803 33.524433 0.282608 2.420867 0.128615 -0.007187 135660.000000 0 0 1
20.737974 7.521562 -25.352123 33.606065 0.347939 2.425523 0.140865 -0.002725 441729.000000 0 0 1
21.631974 8.367262 -26.060043 34.886662 0.369076 2.414322 0.141555 -0.020112 -464540.000000 0 0 1
21.564474 8.159062 -27.605103 35.967187 0.361710 2.445741 0.182822 -0.027673 140924.000000 0 0 1
20.429674 8.696262 -28.280163 35.955030 0.402436 2.475986 0.155884 -0.011240 -26795.400000 0 0 1
19.317574 7.832462 -28.176933 35.049332 0.385203 2.504657 0.149041 -0.004455 -629435.000000 0 0 1
18.095174 8.595862 -28.737063 35.030600 0.443478 2.532805 0.112510 0.008116 -384647.000000 0 0 1
18.009674 8.526762 -30.150373 36.139992 0.442187 2.557597 0.103768 0.004430 -656146.000000 0 0 1
16.943774 9.212462 -30.661453 36.222723 0.497999 2.580117 0.080956 0.004368 -1107380.000000 0 0 1
16.607674 8.748862 -32.080793 37.169002 0.484854 2.612184 0.059566 0.009478 -276504.000000 0 0 1
15.848874 7.611962 -32.297553 36.773098 0.447751 2.643076 0.058197 0.009432 11644.600000 0 0 1
14.630874 7.894562 -32.961753 36.916984 0.494810 2.674456 0.060570 0.003538 206526.000000 0 0 1
13.885474 6.594362 -33.365603 36.736296 0.443376 2.709870 0.069733 -0.007667 -5980.360000 0 0 1
13.673274 5.838462 -32.228493 35.492560 0.403562 2.709366 0.065226 -0.003926 510162.000000 0 0 1
12.766774 4.742762 -32.503043 35.241057 0.355692 2.744802 0.063486 -0.026493 581835.000000 0 0 1
12.705574 3.618462 -31.453863 34.115544 0.277448 2.743960 0.080999 -0.030068 -123935.000000 0 0 1
13.865574 2.829662 -31.548313 34.576830 0.201314 2.719935 0.079836 -0.033657 -15058.300000 0 0 1
13.977274 1.916162 -30.500693 33.605478 0.136242 2.708354 0.113745 -0.032636 -167861.000000 0 0 1
13.239174 0.553162 -30.666263 33.406607 0.041758 2.733728 0.119657 -0.029714 -183655.000000 0 0 1
13.856774 -0.484538 -31.339393 34.269557 -0.034953 2.725058 0.124565 -0.032541 286028.000000 0 0 1
14.821974 -1.270438 -30.583923 34.010017 -0.085504 2.688876 0.130564 -0.035255 707697.000000 0 0 1
15.142974 -2.657338 -31.226063 34.805720 -0.173715 2.684078 0.137701 -0.045201 264227.000000 0 0 1
13.992274 -3.487738 -31.224613 34.393670 -0.244284 2.708946 0.124903 -0.044149 192187.000000 0 0 1
14.149674 -4.602038 -32.081903 35.364396 -0.314449 2.707331 0.130681 -0.046897 137163.000000 0 0 1
13.128974 -5.773438 -31.958893 35.029607 -0.414296 2.719758 0.119839 -0.041494 129073.000000 0 0 1
13.333574 -6.462238 -30.683113 34.073423 -0.451300 2.691714 0.135736 -0.033227 465616.000000 0 0 1
12.866274 -7.820138 -30.818563 34.299845 -0.546136 2.687147 0.140917 -0.034851 229828.000000 0 0 1
13.504474 -8.606738 -29.626233 33.677299 -0.567413 2.646047 0.104769 -0.033552 -647564.000000 0 0 1
14.891974 -8.652338 -29.619853 34.263239 -0.526337 2.614909 0.121581 -0.030777 -363183.000000 0 0 1
15.518374 -9.304438 -28.461283 33.725912 -0.540107 2.575307 0.122737 -0.026462 384962.000000 0 0 1
15.368374 -10.802838 -28.288633 33.957841 -0.612687 2.555398 0.091498 -0.021494 189526.000000 0 0 1
14.029974 -11.179138 -27.969133 33.227785 -0.672789 2.571293 0.074495 -0.028786 535227.000000 0 0 1
13.955774 -12.593338 -28.044253 33.761456 -0.734126 2.551086 0.073580 -0.032097 159698.000000 0 0 1
-10.612326 -3.213138 -17.625103 20.822823 0.294000 2.580045 0.049764 0.001087 206636.000000 0 1 0
-11.254426 -2.724138 -18.770603 22.054899 0.237483 2.588846 0.057374 -0.006918 -301291.000000 0 1 0
-12.203826 -3.614338 -19.270703 23.094519 0.287934 2.557890 0.058494 -0.005965 -639604.000000 0 1 0
-13.171326 -3.058538 -20.307403 24.397317 0.228168 2.554152 0.063267 -0.023940 -638311.000000 0 1 0
-14.087726 -2.178438 -19.752303 24.359045 0.153419 2.516453 0.063166 -0.019106 -124465.000000 0 1 0
-14.973326 -1.687138 -20.771703 25.661460 0.112203 2.514013 0.057879 -0.008107 922344.000000 0 0 1
-15.804426 -0.379038 -20.497403 25.885654 0.023978 2.484619 0.059249 -0.010465 515580.000000 0 0 1
-15.030526 0.778062 -20.690403 25.585442 -0.051719 2.512699 0.068218 -0.015882 72483.600000 0 0 1
-15.671126 1.894462 -20.083303 25.544319 -0.120305 2.475455 0.072008 -0.007025 130895.000000 0 0 1
-15.319726 3.211162 -20.834103 26.058883 -0.206618 2.497260 0.102548 -0.022149 580714.000000 0 0 1
-14.057726 3.784862 -20.499403 25.142998 -0.263001 2.524065 0.106944 -0.026269 374672.000000 0 0 1
-13.727026 4.962062 -21.200503 25.739359 -0.346866 2.538633 0.116140 -0.035549 -447534.000000 0 0 1
-12.431026 5.633662 -20.764403 24.848118 -0.425507 2.560117 0.090991 -0.027300 -502348.000000 0 1 0
-12.377926 5.968962 -19.405403 23.778377 -0.449328 2.525417 0.094669 -0.039702 -609102.000000 0 1 0
-11.093726 6.294262 -19.012503 22.894623 -0.516082 2.550685 0.065319 -0.026919 -1021430.000000 0 1 0
-10.968226 6.954862 -17.589703 21.864806 -0.565111 2.505588 0.060474 -0.032826 -29089.600000 0 1 0
-11.551926 8.257662 -17.507203 22.541919 -0.620610 2.460128 0.065216 -0.036927 1362440.000000 0 1 0
-12.956326 8.173662 -17.109803 22.965637 -0.562804 2.411357 0.105847 -0.025489 1225080.000000 0 1 0
-13.657926 9.538862 -17.027203 23.821303 -0.609660 2.367119 0.116990 -0.032949 -226769.000000 0 1 0
-13.141826 10.374162 -16.054603 23.196575 -0.668244 2.335206 0.091169 -0.031272 111106.000000 0 1 0
-13.797226 11.631162 -16.234103 24.273308 -0.700420 2.303396 0.088205 -0.024729 145214.000000 0 1 0
-13.166526 12.920962 -15.584903 24.149490 -0.775985 2.272279 0.096206 -0.021825 -165162.000000 0 1 0
-13.310926 13.026262 -14.155903 23.393457 -0.774590 2.220716 0.100691 -0.027203 -151761.000000 0 1 0
-12.699826 14.150962 -13.610203 23.383176 -0.839390 2.192045 0.095290 -0.026204 -999484.000000 0 1 0
-13.088126 14.361262 -12.115603 22.898312 -0.831746 2.128341 0.078483 -0.031669 1328000.000000 0 1 0
-14.462426 14.715662 -11.843503 23.790356 -0.794077 2.091889 0.078856 -0.030463 739075.000000 0 1 0
-15.458326 13.815462 -12.226203 24.068794 -0.729336 2.103622 0.075618 -0.027856 -864952.000000 0 1 0
-16.761426 14.067962 -11.402303 24.675199 -0.698253 2.051153 0.040636 -0.020823 629923.000000 0 1 0
-17.892226 13.330662 -11.880003 25.277910 -0.640328 2.060060 0.040882 -0.022719 -46382.100000 0 0 1
-18.909626 13.400862 -10.934203 25.626428 -0.616527 2.011611 0.101053 -0.028558 -1386620.000000 0 0 1
-20.256026 13.040662 -11.491403 26.691155 -0.571998 2.015879 0.093510 -0.041913 -1148730.000000 0 0 1
-20.507326 11.649362 -11.581103 26.275083 -0.516602 2.027246 0.111036 -0.044355 547817.000000 0 0 1
-21.837126 11.453662 -12.048403 27.444680 -0.483058 2.025289 0.136013 -0.043258 340957.000000 0 0 1
-22.512826 10.215962 -11.421203 27.233014 -0.425996 2.003568 0.133872 -0.047927 129646.000000 0 0 1
-21.814926 9.032262 -11.837203 26.411969 -0.392551 2.035520 0.132730 -0.050040 955754.000000 0 0 1
-22.451626 7.862962 -11.307103 26.339177 -0.336869 2.014501 0.133450 -0.043124 214484.000000 0 0 1
-21.425126 6.709862 -11.267503 25.120009 -0.303502 2.035935 0.164268 -0.043886 -128268.000000 0 0 1
-21.221426 6.020462 -12.430303 25.320097 -0.276434 2.083949 0.170205 -0.047404 510959.000000 0 0 1
-20.056226 5.237762 -12.266403 24.086323 -0.255449 2.105131 0.171580 -0.054411 50624.800000 0 1 0
-20.186226 4.036262 -13.184003 24.445716 -0.197349 2.140423 0.188154 -0.070735 152726.000000 0 1 0
-21.001126 2.970162 -12.683503 24.713162 -0.140497 2.109739 0.166934 -0.064428 580102.000000 0 1 0
-20.916526 1.892662 -13.560203 24.999246 -0.090241 2.144117 0.149162 -0.058499 -147147.000000 0 1 0
-21.756026 0.635562 -13.213303 25.462128 -0.029205 2.116406 0.154696 -0.054342 1083470.000000 0 0 1
-23.168126 0.795762 -13.504603 26.828522 -0.034334 2.098288 0.119759 -0.047274 1410040.000000 0 0 1
-23.633126 -0.485138 -13.881103 27.412497 0.020525 2.101776 0.113332 -0.052173 146697.000000 0 0 1
-25.012226 -0.444738 -14.604003 28.966983 0.017779 2.099206 0.117067 -0.048747 482947.000000 0 0 1
-26.143806 -0.055338 -13.851203 29.586440 0.002117 2.058004 0.164920 -0.058737 137050.000000 0 0 1
-27.318416 -0.411538 -14.540303 30.949727 0.015063 2.059865 0.155662 -0.037665 1014700.000000 0 0 1
-28.690186 0.025462 -13.872103 31.867894 -0.000887 2.021168 0.161620 -0.035075 876081.000000 0 0 1
-28.949796 -0.790138 -12.732603 31.635963 0.027287 1.985012 0.205430 -0.046741 -606881.000000 0 0 1
-30.130146 -0.413938 -12.125503 32.481146 0.013737 1.953370 0.227731 -0.049535 -637292.000000 0 0 1
-30.221526 -1.024838 -10.693503 32.074007 0.033898 1.910705 0.230296 -0.061066 -44396.500000 0 0 1
-30.466206 -2.481638 -10.496603 32.319141 0.081276 1.901575 0.233090 -0.053596 740696.000000 0 0 1
-29.514066 -3.351038 -11.126103 31.719075 0.113056 1.929190 0.242880 -0.054762 92481.500000 0 0 1
-29.798696 -4.798538 -10.723203 32.030849 0.159661 1.912165 0.236609 -0.058386 -662289.000000 0 0 1
-31.009116 -5.210838 -11.276303 33.404687 0.166487 1.915127 0.196845 -0.053540 -344531.000000 0 0 1
-31.463386 -6.493438 -10.819903 33.899553 0.203523 1.895656 0.197575 -0.058626 -136590.000000 0 0 1
-30.862306 -7.763538 -11.467603 33.826918 0.246441 1.916659 0.179623 -0.064112 344142.000000 0 0 1
-29.474436 -7.829138 -11.115803 32.459187 0.259629 1.920325 0.170689 -0.058296 539548.000000 0 0 1
-28.732626 -8.843438 -11.727703 32.269323 0.298583 1.942745 0.157546 -0.060695 114769.000000 0 0 1
-27.222716 -8.836238 -11.402003 30.808457 0.313862 1.949906 0.146157 -0.065151 -543243.000000 0 0 1
-26.463836 -7.803638 -11.934503 30.061000 0.286752 1.979053 0.129403 -0.061715 397437.000000 0 0 1
-25.076356 -7.759238 -11.635003 28.712413 0.300081 1.988022 0.140247 -0.063747 367335.000000 0 0 1
-24.735326 -7.413638 -10.110503 27.731221 0.291199 1.943988 0.146313 -0.058435 -717309.000000 0 0 1
-24.965326 -6.082038 -9.639603 27.444136 0.238964 1.929696 0.156527 -0.047576 416388.000000 0 0 1
-26.264596 -5.870438 -9.135803 28.421012 0.219897 1.898052 0.166666 -0.054405 -344213.000000 0 0 1
-26.416326 -4.445238 -8.617003 28.139565 0.166714 1.882020 0.193968 -0.062592 -274052.000000 0 0 1
-26.032246 -4.319438 -7.228103 27.360205 0.164428 1.838153 0.183629 -0.057752 464747.000000 0 0 1
-25.998476 -2.998238 -6.742803 27.025461 0.114816 1.822958 0.239502 -0.061100 -63862.900000 0 0 1
-25.779026 -2.916338 -5.214403 26.462297 0.112649 1.769145 0.213799 -0.055556 170960.000000 0 0 1
-24.466226 -3.190638 -4.763703 25.129052 0.129678 1.761520 0.156325 -0.047914 207358.000000 0 0 1
-24.189626 -2.815038 -3.439703 24.594593 0.115853 1.711112 0.126604 -0.039764 333478.000000 0 1 0
-22.745126 -3.117438 -2.930903 23.144100 0.136211 1.697774 0.109050 -0.027780 288096.000000 0 1 0
-22.490726 -4.493338 -2.740603 23.098349 0.197190 1.689726 0.128526 -0.022481 -49425.500000 0 1 0
-21.177426 -4.832838 -2.414903 21.855696 0.224365 1.681515 0.093265 -0.019732 -956270.000000 0 1 0
-21.055526 -6.367638 -2.462303 22.134699 0.293677 1.682269 0.090285 -0.016601 -76216.500000 0 1 0
-21.707026 -6.970038 -1.326803 22.837180 0.310697 1.628927 0.103070 -0.014387 451311.000000 0 1 0
-22.693026 -7.865538 -1.782703 24.083566 0.333648 1.644886 0.118029 -0.016994 -249511.000000 0 1 0
-23.180126 -8.730938 -0.605803 24.777298 0.360222 1.595249 0.131668 -0.020864 507963.000000 0 1 0
-22.189326 -9.682738 -0.115503 24.210224 0.411461 1.575567 0.105630 -0.011855 1029600.000000 0 1 0
-22.681526 -10.502238 0.965197 25.013601 0.433637 1.532200 0.097943 -0.008327 620.732000 0 0 1
-21.507326 -11.023438 1.791997 24.234118 0.473632 1.496784 0.109158 -0.012226 179116.000000 0 1 0
-20.622426 -11.905838 1.119997 23.838788 0.523580 1.523797 0.104266 -0.014611 693727.000000 0 1 0
-19.535526 -12.358138 1.910697 23.195066 0.564045 1.488328 0.087290 -0.023187 78889.200000 0 1 0
-18.737126 -13.503638 1.306997 23.133015 0.624477 1.514267 0.084316 -0.020683 -407203.000000 0 1 0
-19.338726 -14.756538 1.527397 24.373647 0.651805 1.508089 0.095644 -0.017758 205217.000000 0 1 0
-18.880026 -15.846138 0.764097 24.660481 0.698253 1.539807 0.096811 -0.022065 411111.000000 0 1 0
-17.732626 -16.743138 1.375597 24.426849 0.756705 1.514452 0.107186 -0.020389 775897.000000 0 1 0
-16.404226 -16.254738 1.181697 23.123831 0.780821 1.519671 0.101226 -0.009572 838623.000000 0 1 0
-15.351726 -16.896838 1.866097 22.905478 0.833274 1.489236 0.101598 -0.012082 339510.000000 0 1 0
-15.320326 -16.700038 3.417697 22.919082 0.828460 1.421118 0.099774 -0.021322 -664176.000000 0 1 0
-15.047226 -15.336638 3.676597 21.797909 0.794923 1.401319 0.076505 -0.019400 181325.000000 0 1 0
-14.198926 -15.162538 4.805897 21.321555 0.818205 1.343442 0.046369 -0.017719 -164690.000000 0 1 0
-14.728426 -15.483438 6.194897 22.249497 0.810384 1.288639 0.091572 -0.018526 -563680.000000 0 1 0
-15.713426 -14.620038 6.765097 22.503862 0.749368 1.265454 0.078032 -0.016031 393765.000000 0 1 0
-15.983026 -14.871738 8.138097 23.299235 0.749397 1.213987 0.088439 -0.015992 103509.000000 0 1 0
-17.004226 -16.015738 8.465997 24.845939 0.755471 1.223093 0.087276 -0.005867 -114577.000000 0 1 0
-16.520426 -17.310238 8.192397 25.291979 0.808740 1.240934 0.100622 -0.003861 222099.000000 0 0 1
-17.150526 -18.393538 8.912197 26.681267 0.820355 1.230226 0.096029 -0.007097 119217.000000 0 0 1
-16.693726 -18.527038 10.391997 27.017128 0.837403 1.175973 0.121544 -0.014180 -479332.000000 0 0 1
-15.464526 -19.134838 10.579097 26.780793 0.891083 1.164701 0.072225 -0.004311 -589349.000000 0 0 1
-15.173426 -19.252038 11.956697 27.273365 0.903325 1.116976 0.078696 -0.018856 465834.000000 0 0 1
-13.926126 -20.148038 12.297797 27.406500 0.966008 1.105466 0.066447 -0.018049 1732540.000000 0 0 1
-12.657426 -19.508538 11.983097 26.160812 0.995255 1.094990 0.066672 -0.018500 914801.000000 0 0 1
-11.523726 -20.305038 12.333697 26.404752 1.054594 1.084787 0.062057 -0.022859 1578870.000000 0 0 1
-10.324426 -19.321038 12.746497 25.345009 1.080039 1.043823 0.056327 -0.016792 752966.000000 0 0 1
-9.675426 -18.599938 11.731097 24.024783 1.091131 1.060665 0.043953 -0.018927 -541964.000000 0 1 0
-8.672926 -17.815338 12.265997 23.303661 1.117745 1.016488 0.038567 -0.014012 -505648.000000 0 1 0
-7.756426 -17.067038 11.282297 21.880040 1.144233 1.029038 0.017166 -0.011046 459598.000000 0 1 0
-6.809626 -17.912038 10.624597 21.911051 1.207500 1.064551 0.012774 -0.005725 107299.000000 0 1 0
-6.238626 -17.311438 9.494797 20.706461 1.224908 1.094442 0.012936 -0.002489 -172363.000000 0 1 0
-5.183326 -18.198138 8.745097 20.845043 1.293317 1.137870 0.016071 -0.003986 109618.000000 0 1 0
-3.924926 -18.222938 9.374397 20.865278 1.358653 1.104835 0.036542 -0.009502 -763177.000000 0 1 0
-3.068326 -19.006938 8.641697 21.103489 1.410745 1.148900 0.048801 -0.009015 391446.000000 0 1 0
-1.611226 -19.109938 9.213997 21.276361 1.486682 1.122909 0.044636 -0.020007 821430.000000 0 1 0
-0.692826 -19.840838 8.400097 21.556913 1.535891 1.170522 0.057466 -0.008389 21876.700000 0 1 0
0.512774 -19.921338 9.137497 21.922968 -1.545062 1.140874 0.064440 -0.020108 474002.000000 0 1 0
1.804274 -20.230338 8.307097 21.943788 -1.481845 1.182554 0.078940 -0.040809 522730.000000 0 1 0
1.933474 -21.519138 7.702797 22.937845 -1.481188 1.228329 0.088209 -0.036825 -15319.600000 0 1 0
2.368274 -22.570538 8.612897 24.273852 -1.466251 1.208073 0.097989 -0.040472 12189.900000 0 1 0
1.996574 -24.002038 8.196297 25.441372 -1.487804 1.242782 0.107033 -0.039921 27888.500000 0 0 1
2.163674 -24.866838 9.294697 26.635174 -1.484004 1.214332 0.110397 -0.047297 -101643.000000 0 0 1
1.714274 -26.144558 8.937897 27.683256 -1.505321 1.242043 0.117113 -0.044174 -959831.000000 0 0 1
1.712374 -27.235728 10.018797 29.070490 -1.508007 1.218943 0.127607 -0.043118 539457.000000 0 0 1
0.725674 -27.068188 11.054697 29.247560 -1.543994 1.183194 0.119178 -0.048603 907393.000000 0 0 1
-0.606426 -27.322478 10.555697 29.296899 1.548605 1.202206 0.103055 -0.036060 268471.000000 0 0 1
-1.605526 -27.362718 11.732197 29.815105 1.512188 1.166362 0.106099 -0.040305 -22896.200000 0 0 1
-1.371426 -28.444448 12.604897 31.142429 1.522619 1.154091 0.109782 -0.043165 -180007.000000 0 0 1
-1.297726 -28.102818 13.954597 31.403555 1.524651 1.110333 0.106785 -0.045958 -30211.200000 0 0 1
-0.947926 -29.268788 14.915897 32.864031 1.538421 1.099696 0.091151 -0.029779 210447.000000 0 0 1
-1.376926 -29.001368 16.236997 33.265829 1.523354 1.060887 0.096037 -0.024755 9693.670000 0 0 1
-0.899726 -29.966968 17.129697 34.529049 1.540781 1.051701 0.086020 -0.018369 -69642.200000 0 0 1
-1.418226 -29.687658 18.546297 35.033321 1.523061 1.012915 0.073274 -0.011401 1224360.000000 0 0 1
-2.831026 -29.941678 18.736897 35.434307 1.476525 1.013636 0.079771 -0.010015 1044990.000000 0 0 1
-3.139526 -29.787358 20.092897 36.067546 1.465786 0.979918 0.089341 -0.017680 -495590.000000 0 0 1
-4.625126 -30.075778 20.310797 36.585143 1.418209 0.982235 0.115708 -0.025577 -174128.000000 0 0 1
-5.475626 -28.969208 19.925397 35.583970 1.383985 0.976466 0.095074 -0.025333 -258264.000000 0 0 1
-6.608826 -28.801988 20.702097 36.080575 1.345243 0.959690 0.102391 -0.037722 -477513.000000 0 0 1
-6.419426 -27.897148 21.935097 36.063949 1.344623 0.916970 0.136037 -0.051977 -419433.000000 0 0 1
-5.404126 -28.293998 22.831097 36.756141 1.382070 0.900586 0.146120 -0.046396 13806.100000 0 0 1
-5.195226 -27.318168 23.819197 36.614571 1.382866 0.862503 0.153981 -0.038184 -39695.900000 0 0 1
-4.167326 -27.781568 24.889497 37.532242 1.421903 0.845777 0.171756 -0.034765 116737.000000 0 0 1
-4.597726 -28.781918 25.788897 38.917928 1.412391 0.846447 0.172578 -0.036824 188934.000000 0 0 1
-3.819026 -29.929848 25.530297 39.524383 1.443883 0.868545 0.152574 -0.037528 194895.000000 0 0 1
-4.098326 -31.046928 26.575797 41.072874 1.439551 0.867100 0.164061 -0.032988 311016.000000 0 0 1
-3.467726 -30.813198 27.830197 41.665311 1.458728 0.839350 0.174525 -0.043392 177173.000000 0 0 1
-3.989126 -31.706158 28.768797 42.998108 1.445638 0.837838 0.154659 -0.056596 -239517.000000 0 0 1
-3.278926 -31.537558 30.132497 43.741700 1.467200 0.810862 0.191133 -0.062009 610410.000000 0 0 1
-1.903826 -31.907018 30.151097 43.940540 1.511199 0.814572 0.185379 -0.061668 565177.000000 0 0 1
-1.190626 -31.413278 31.272797 44.341848 1.532912 0.787998 0.188302 -0.075381 44208.800000 0 0 1
-29.137346 2.812562 -9.838703 30.881961 -0.096230 1.895039 0.218497 -0.048763 -385274.000000 0 0 1
-30.079656 2.383762 -10.761703 32.035640 -0.079083 1.913388 0.202130 -0.061222 -409908.000000 0 0 1
-30.806546 3.460862 -11.244003 32.976483 -0.111873 1.918745 0.167685 -0.056550 -128552.000000 0 0 1
-31.766226 3.221162 -12.458903 34.273798 -0.101057 1.942830 0.153837 -0.047272 93026.700000 0 0 1
-32.892066 2.486862 -11.993803 35.098772 -0.075463 1.919538 0.179712 -0.052624 104993.000000 0 0 1
-33.798706 2.489462 -13.084703 36.328493 -0.073523 1.939254 0.172736 -0.049583 -307732.000000 0 0 1
-35.091678 1.710362 -12.780703 37.385793 -0.048701 1.919692 0.147479 -0.040235 -182279.000000 0 0 1
-35.009035 0.326262 -12.849403 37.294049 -0.009319 1.922548 0.186869 -0.037826 -571224.000000 0 0 1
-36.272216 -0.238538 -12.777103 38.457573 0.006576 1.909473 0.131214 -0.042907 -428826.000000 0 0 1
-36.131166 -1.700438 -12.282103 38.199511 0.047028 1.898136 0.173967 -0.045901 185253.000000 0 0 1
-35.547694 -2.547738 -13.290103 38.036250 0.071549 1.927734 0.156477 -0.035289 272042.000000 0 0 1
-35.047500 -3.779838 -12.877703 37.529318 0.107434 1.921051 0.185115 -0.049208 135091.000000 0 0 1
-35.625209 -4.976438 -13.695903 38.490235 0.138791 1.934596 0.148073 -0.050548 427327.000000 0 0 1
-34.943505 -6.159538 -13.249903 37.875432 0.174479 1.928184 0.169129 -0.062215 427597.000000 0 0 1
-35.299996 -7.316038 -13.975703 38.664381 0.204360 1.940632 0.161966 -0.053965 -464263.000000 0 0 1
-34.880272 -8.568438 -13.198903 38.265683 0.240883 1.922958 0.145492 -0.054407 -633810.000000 0 0 1
-33.544196 -8.940138 -13.128903 37.114784 0.260464 1.932361 0.139330 -0.052357 -532200.000000 0 0 1
-32.870626 -9.393938 -14.262503 37.042450 0.278365 1.966038 0.132361 -0.051267 -688945.000000 0 0 1
-31.599246 -10.137638 -13.837403 35.954941 0.310446 1.965846 0.117284 -0.040566 -477262.000000 0 0 1
-31.816636 -11.446838 -13.289103 36.330822 0.345357 1.945268 0.102657 -0.035501 -203278.000000 0 0 1
-30.623666 -12.173038 -13.260903 35.522434 0.378353 1.953371 0.115779 -0.032869 -477291.000000 0 0 1
-30.870646 -13.619338 -13.739903 36.431690 0.415490 1.957504 0.128825 -0.029750 -41555.600000 0 0 1
-31.007146 -13.696338 -15.167703 37.136128 0.415943 1.991535 0.121777 -0.038864 105074.000000 0 0 1
-31.346806 -14.908538 -15.812303 38.143357 0.443938 1.998244 0.135475 -0.039655 -195870.000000 0 0 1
-30.497206 -16.155938 -15.464103 37.818413 0.487164 1.992049 0.125569 -0.022757 1165540.000000 0 0 1
-29.151156 -16.004138 -15.979503 36.895350 0.502079 2.018729 0.131734 -0.032051 674244.000000 0 0 1
-28.359046 -17.176138 -16.009603 36.817965 0.544576 2.020647 0.137410 -0.029544 47203.700000 0 0 1
-26.883126 -16.833138 -16.237903 35.633221 0.559433 2.043950 0.151885 -0.048266 -255502.000000 0 0 1
-26.606696 -16.362538 -17.498703 35.802982 0.551360 2.081453 0.142693 -0.041209 -1774770.000000 0 0 1
-25.296756 -16.191238 -17.802003 34.914085 0.569350 2.105842 0.120953 -0.030092 -1828130.000000 0 0 1
-24.993326 -15.626138 -19.185903 35.170178 0.558752 2.147801 0.124687 -0.017914 -50458.300000 0 0 1
-25.449146 -16.320238 -20.329203 36.431932 0.570227 2.162776 0.123614 -0.029742 1297040.000000 0 0 1
-26.867616 -16.206138 -20.585003 37.526658 0.542758 2.151418 0.132096 -0.034304 980474.000000 0 0 1
-27.506386 -17.336138 -21.440303 38.946496 0.562372 2.153767 0.132986 -0.036049 -131075.000000 0 0 1
-27.080216 -17.374738 -22.730103 39.393872 0.570449 2.185842 0.124030 -0.021550 268061.000000 0 0 1
-27.766656 -18.482538 -23.338803 40.709840 0.587290 2.181320 0.102754 -0.021820 92562.100000 0 0 1
-27.246616 -18.796538 -24.759303 41.336558 0.603893 2.213009 0.091829 -0.025631 1868700.000000 0 0 1
-25.844366 -19.205438 -24.874303 40.687972 0.639083 2.228553 0.099554 -0.019996 1489530.000000 0 0 1
-25.653556 -20.558138 -24.538403 41.022862 0.675579 2.212005 0.084326 -0.018230 -884070.000000 0 0 1
-24.222326 -21.061538 -24.418403 40.330731 0.715712 2.221133 0.078877 -0.005249 -306406.000000 0 0 1
-23.423026 -20.798438 -25.578883 40.441222 0.726117 2.255567 0.073652 -0.012410 -251635.000000 0 0 1
-22.134826 -21.283038 -25.266663 39.765846 0.765782 2.259305 0.078141 -0.018645 -548841.000000 0 0 1
-21.166926 -21.251538 -26.415873 39.968299 0.787393 2.292841 0.071424 -0.020441 -875478.000000 0 0 1
-21.402526 -22.081738 -27.531213 41.275161 0.801017 2.300993 0.088760 -0.017950 -296121.000000 0 0 1
-21.948326 -21.413438 -28.669023 41.978294 0.773063 2.322588 0.094149 -0.019527 15232.200000 0 0 1
-21.088726 -21.509238 -29.939673 42.470763 0.795269 2.353146 0.091586 -0.026114 89313.300000 0 0 1
-21.042626 -22.812238 -30.443633 43.474189 0.825728 2.346571 0.092027 -0.030642 409496.000000 0 0 1
-20.280826 -22.827538 -31.681123 44.001158 0.844407 2.374608 0.097934 -0.031874 764699.000000 0 0 1
-19.562826 -24.192138 -32.069763 44.681466 0.890807 2.371350 0.104938 -0.034314 331958.000000 0 0 1
-18.968126 -24.253438 -33.371243 45.405494 0.907078 2.396405 0.113536 -0.032586 -31509.100000 0 0 1
-19.928126 -24.129738 33.443652 45.802318 0.880476 0.752220 0.116509 -0.020820 14486.200000 0 0 1
-19.294226 -24.023138 31.983518 44.410852 0.894137 0.766744 0.119356 -0.017509 -126198.000000 0 0 1
-18.749226 -22.799838 31.600446 43.242968 0.882581 0.751354 0.106217 -0.021739 -265152.000000 0 0 1
-18.161626 -22.959238 30.330266 42.153248 0.901544 0.767680 0.109827 -0.014667 -75659.700000 0 0 1
-17.296026 -21.721938 29.939506 40.833432 0.898348 0.747765 0.095651 -0.013406 -96717.200000 0 0 1
-17.986926 -20.514838 29.732186 40.353327 0.850961 0.742477 0.089260 -0.019076 220486.000000 0 0 1
-17.132026 -19.368338 29.582386 39.290666 0.846590 0.718322 0.085204 -0.017376 239981.000000 0 0 1
-16.317526 -18.763338 30.720966 39.523439 0.855005 0.680458 0.094601 -0.023542 72050.800000 0 0 1
-15.688826 -17.526438 30.448816 38.476560 0.840666 0.657766 0.103224 -0.027070 160032.000000 0 0 1
-14.846626 -17.194238 31.566516 38.890990 0.858537 0.623797 0.098601 -0.029930 461039.000000 0 0 1
-14.057226 -15.871238 31.360576 37.854822 0.845936 0.594474 0.099113 -0.029040 648610.000000 0 0 1
-12.824526 -15.986638 30.633706 36.857360 0.894714 0.589638 0.106259 -0.037017 663089.000000 0 0 1
-12.397726 -14.786238 30.020526 35.687091 0.873038 0.571269 0.102177 -0.034039 1503730.000000 0 0 1
-10.826226 -14.534238 30.124146 35.155589 0.930582 0.541608 0.143360 -0.048345 1577090.000000 0 0 1
-10.609526 -13.108438 29.992216 34.408229 0.890370 0.512221 0.137174 -0.043983 39619.000000 0 0 1
-9.247226 -12.798738 30.218886 34.095454 0.945122 0.481497 0.121592 -0.043304 217896.000000 0 0 1
-8.893426 -11.317638 29.914946 33.197680 0.904773 0.448461 0.089999 -0.031763 -254222.000000 0 0 1
-9.568726 -10.436338 30.769936 33.871325 0.828741 0.431269 0.090534 -0.031328 74489.300000 0 0 1
-9.272526 -9.059538 30.503216 33.143644 0.773780 0.401863 0.068052 -0.024041 -184009.000000 0 0 1
-10.037126 -8.100238 31.451166 33.993141 0.679011 0.389179 0.044991 -0.024838 -319007.000000 0 0 1
-11.401826 -8.053738 31.111066 34.099307 0.614978 0.421768 0.071574 -0.036007 63535.600000 0 0 1
-12.288226 -7.705138 32.180003 35.297624 0.560061 0.423451 0.054013 -0.036809 265211.000000 0 0 1
-12.264826 -6.298738 32.828409 35.606243 0.474438 0.397621 0.043507 -0.021314 -446574.000000 0 0 1
-12.562926 -5.256338 31.901343 34.686480 0.396268 0.403467 0.056769 -0.024039 277083.000000 0 0 1
-12.765926 -4.033038 32.532192 35.179224 0.305999 0.390403 0.049304 -0.027807 -267217.000000 0 0 1
-12.417626 -2.831538 31.615656 34.084670 0.224192 0.382961 0.039945 -0.012281 -107386.000000 0 0 1
-11.027426 -2.608538 31.624426 33.593346 0.232280 0.344070 0.043788 -0.022002 36628.700000 0 0 1
-10.597626 -1.516038 30.785136 32.593445 0.142090 0.334668 0.036321 -0.019110 86939.900000 0 0 1
-9.133826 -1.109338 31.062606 32.396650 0.120862 0.287973 0.054805 -0.015982 192451.000000 0 0 1
-8.866526 -0.447238 32.280955 33.479477 0.050398 0.268382 0.068375 -0.037756 -169212.000000 0 0 1
-7.504926 -0.067738 32.330940 33.190634 0.009026 0.228098 0.101097 -0.041241 166187.000000 0 0 1
-7.072226 0.485462 33.690128 34.427849 -0.068536 0.207388 0.143200 -0.059934 -141389.000000 0 0 1
-7.690826 1.737762 -33.714873 34.624576 -0.222221 2.911857 0.109794 -0.044703 -23998.000000 0 0 1
-7.341926 2.901262 33.388119 34.308712 -0.376330 0.232179 0.121738 -0.045019 -532138.000000 0 0 1
-8.150126 4.115862 33.706778 34.921509 -0.467644 0.264530 0.134859 -0.050150 -1044380.000000 0 0 1
-9.333226 4.121562 32.993611 34.535124 -0.415847 0.299907 0.080526 -0.029107 -486688.000000 0 0 1
-10.064726 5.355562 33.144097 35.050135 -0.489006 0.331302 0.080587 -0.020519 644317.000000 0 0 1
-11.338226 5.485962 32.241587 34.614608 -0.450642 0.372434 0.049868 -0.008045 667804.000000 0 0 1
-12.202726 6.520362 32.734627 35.538394 -0.490738 0.399884 0.046938 -0.010969 -72921.100000 0 0 1
-13.129426 6.799162 31.731156 35.006809 -0.477831 0.436047 0.027406 -0.007334 -392426.000000 0 0 1
-13.808226 8.173062 31.865571 35.677453 -0.534441 0.466480 0.058705 -0.014966 -432665.000000 0 0 1
-14.806926 8.260962 32.822063 36.942879 -0.508897 0.476830 0.059824 -0.010202 -233662.000000 0 0 1
-15.293126 9.567062 32.891538 37.513486 -0.559016 0.501646 0.075436 -0.008242 160273.000000 0 0 1
-16.182526 9.818462 -33.680613 38.634958 -0.545355 2.629590 0.078321 -0.008708 331163.000000 0 0 1
-15.358926 9.979662 -32.533733 37.335426 -0.576209 2.628826 0.082898 -0.013227 191302.000000 0 0 1
-16.083226 10.436562 -31.424413 36.811489 -0.575608 2.593765 0.084586 -0.014933 -1189740.000000 0 0 1
-15.140626 10.623662 -30.266013 35.470160 -0.611843 2.593042 0.095537 -0.022807 -55657.100000 0 0 1
-14.147726 11.603862 -30.248733 35.352420 -0.686933 2.597571 0.105966 -0.020547 -283.869000 0 0 1
-13.161226 11.511062 -31.253853 35.812368 -0.718614 2.631524 0.118106 -0.024313 -1118250.000000 0 0 1
-12.281026 12.741562 -31.293003 35.950285 -0.803801 2.626916 0.112736 -0.023084 101484.000000 0 0 1
-12.921626 13.798662 -32.010673 37.175996 -0.818209 2.608142 0.097548 -0.021848 512790.000000 0 0 1
-12.011826 14.888262 -32.157453 37.417190 -0.891924 2.604950 0.093472 -0.028895 215585.000000 0 0 1
-12.106326 16.038762 -31.101623 37.028583 -0.924220 2.567961 0.096318 -0.026696 1140300.000000 0 0 1
-13.417526 16.665462 -31.059433 37.715461 -0.892947 2.538384 0.089473 -0.027288 1174160.000000 0 0 1
-13.527226 17.683462 -30.065073 37.411218 -0.917786 2.504179 0.075079 -0.017935 911735.000000 0 0 1
-14.978726 18.350562 -30.059343 38.271000 -0.886222 2.474193 0.062681 -0.024775 1102010.000000 0 0 1
-15.165426 19.095862 -31.264183 39.649605 -0.899618 2.479182 0.061245 -0.032246 240798.000000 0 0 1
-16.453426 19.619162 -31.546063 40.629802 -0.872934 2.459772 0.053838 -0.031403 351745.000000 0 0 1
-17.015726 20.774962 -30.681273 40.773453 -0.884547 2.422618 0.049349 -0.040523 -310432.000000 0 0 1
-16.550026 22.089862 -31.065393 41.556275 -0.927799 2.415162 0.057818 -0.035497 545925.000000 0 0 1
-17.288626 23.128962 -30.412893 41.937924 -0.928905 2.382104 0.040513 -0.029316 252103.000000 0 0 1
-18.700426 23.456462 -30.945273 43.098973 -0.897741 2.371728 0.048809 -0.030666 -20557.000000 0 0 1
-19.687926 22.506162 -30.590573 42.777621 -0.852091 2.367573 0.054991 -0.028482 285603.000000 0 0 1
-20.798826 22.566462 -31.485343 43.967751 -0.826137 2.368996 0.076684 -0.032184 537251.000000 0 0 1
-22.071526 21.732862 -31.003283 43.825484 -0.777667 2.356646 0.095072 -0.035345 416761.000000 0 0 1
-22.957826 22.419862 -30.145953 44.028291 -0.773543 2.324982 0.106297 -0.028739 373923.000000 0 0 1
-23.740326 23.476862 -30.711323 45.364650 -0.779818 2.314459 0.097593 -0.021103 -1466710.000000 0 0 1
-24.936326 23.031862 -31.495953 46.306393 -0.745716 2.318783 0.099198 -0.020652 -1814020.000000 0 0 1
-24.783326 22.150862 -32.615783 46.568908 -0.729368 2.346722 0.105563 -0.021894 -251816.000000 0 0 1
-26.015196 21.773562 -33.182213 47.454585 -0.696872 2.345132 0.111210 -0.015388 -201818.000000 0 0 1
-26.013226 20.501262 33.674875 47.233324 -0.667448 0.777104 0.116923 -0.009614 7677.580000 0 0 1
-25.527966 19.251162 -33.644253 46.413576 -0.646133 2.381656 0.112575 -0.020759 512755.000000 0 0 1
-25.247466 18.299062 33.208054 45.552882 -0.627169 0.753936 0.107263 -0.034058 -327204.000000 0 0 1
-25.009326 16.865062 33.699618 45.227878 -0.593304 0.730101 0.082009 -0.023601 -622702.000000 0 0 1
-26.117086 16.051462 -33.872023 45.684412 -0.551083 2.406003 0.067351 -0.010605 295583.000000 0 0 1
-26.640096 15.362162 32.814708 44.972167 -0.523078 0.752961 0.079693 -0.014109 -565931.000000 0 0 1
-27.465846 14.094862 32.980107 45.174387 -0.474134 0.752384 0.039963 -0.002328 -862747.000000 0 0 1
-28.812396 14.399762 33.232640 46.280835 -0.463469 0.769779 0.043635 0.003909 -72582.000000 0 0 1
-29.676806 13.248962 33.154805 46.427243 -0.419891 0.775425 0.030537 0.010958 195280.000000 0 0 1
-29.648156 12.199362 -33.574463 46.422862 -0.390356 2.379266 0.014130 0.008914 -1151750.000000 0 0 1
-28.481006 11.453062 -33.510663 45.445625 -0.382341 2.399979 0.012978 -0.003067 -406074.000000 0 0 1
-28.879496 10.108062 -33.474273 45.351131 -0.336682 2.401066 0.025049 0.004925 13615.400000 0 0 1
-27.631346 9.190162 -33.430143 44.334239 -0.321090 2.425000 0.024458 -0.008563 89150.400000 0 0 1
-26.859176 9.002462 33.235654 43.669994 -0.323405 0.705845 0.041944 -0.012737 621178.000000 0 0 1
-25.839066 10.003962 33.100306 43.166733 -0.369392 0.696953 0.025819 -0.014525 -345682.000000 0 0 1
-24.542226 9.589762 32.415401 41.773707 -0.372503 0.682535 0.037615 -0.011891 -444428.000000 0 0 1
-24.761326 9.235962 31.047696 40.772364 -0.357016 0.705189 0.037179 -0.009960 667053.000000 0 0 1
-23.551726 9.166962 30.272396 39.435199 -0.371185 0.695632 0.068348 -0.018333 659865.000000 0 0 1
-23.776026 8.991262 28.760576 38.383759 -0.361543 0.723807 0.090640 -0.018140 -73412.500000 0 0 1
-24.294226 10.178762 28.182346 38.575397 -0.396759 0.751628 0.068603 -0.010075 169082.000000 0 0 1
-24.263626 10.152462 26.767476 37.527241 -0.396287 0.776628 0.074902 -0.006448 -1062500.000000 0 0 1
-24.332426 11.534262 26.078836 37.486155 -0.442655 0.801413 0.080351 0.000251 1076780.000000 0 0 1
-25.576646 12.286562 26.131476 38.574324 -0.447830 0.826531 0.085072 0.000623 699667.000000 0 0 1
-26.639126 11.686562 25.471996 38.665764 -0.413417 0.851608 0.096529 -0.002282 -1049500.000000 0 0 1
-27.991016 12.388962 25.532326 39.860796 -0.416687 0.875599 0.097603 0.001124 -188140.000000 0 0 1
-27.884256 13.607162 24.845476 39.749016 -0.453991 0.895589 0.118138 -0.002923 -11171.500000 0 0 1
-29.115626 14.283962 24.838896 40.849994 -0.456095 0.917193 0.110131 -0.014075 -99970.300000 0 0 1
-28.975946 15.750062 24.270676 40.947962 -0.497883 0.936364 0.127285 -0.016064 197253.000000 0 0 1
-28.173946 16.628162 25.065816 41.213616 -0.533180 0.917015 0.140123 -0.019387 322596.000000 0 0 1
-27.800666 17.725062 24.333576 40.977772 -0.567592 0.934993 0.121040 -0.036726 -299035.000000 0 0 1
-23.166426 -8.889138 31.887152 40.404091 0.366383 0.661281 0.074300 -0.022513 -121861.000000 0 0 1
-22.377026 -8.275938 30.909026 39.046003 0.354240 0.657364 0.069264 -0.028565 38879.500000 0 0 1
-22.819426 -8.629538 29.588956 38.349726 0.361544 0.689513 0.071977 -0.029318 402268.000000 0 0 1
-21.797426 -8.226638 28.451236 36.773335 0.360885 0.686148 0.103301 -0.032235 -474299.000000 0 0 1
-21.489126 -6.904738 28.457196 36.321756 0.310894 0.670558 0.107468 -0.033503 1065070.000000 0 0 1
-20.159626 -6.592638 28.948556 35.887216 0.316060 0.632328 0.098017 -0.027100 1049610.000000 0 0 1
-18.908526 -6.948738 28.102786 34.577216 0.352172 0.621932 0.102492 -0.027209 -581975.000000 0 0 1
-18.594926 -8.343038 27.972046 34.609434 0.421750 0.629673 0.097473 -0.033471 8210.600000 0 0 1
-18.223026 -9.020738 29.162316 35.551274 0.459655 0.608880 0.104015 -0.035650 -508727.000000 0 0 1
-16.779226 -8.777838 29.682146 35.208275 0.481986 0.567877 0.101574 -0.036749 -30174.900000 0 0 1
-15.751726 -9.343238 28.888936 34.205023 0.535372 0.565013 0.084182 -0.032550 -18329.700000 0 0 1
-14.516426 -9.063138 29.531166 34.131464 0.558122 0.525211 0.089211 -0.039286 -226591.000000 0 0 1
-13.342426 -9.936438 29.102796 33.522021 0.640117 0.519295 0.087087 -0.037980 18700.100000 0 0 1
-12.755626 -9.566238 27.823106 32.067805 0.643477 0.520373 0.100598 -0.035912 343214.000000 0 0 1
-11.619826 -10.369638 27.530396 31.630246 0.728605 0.514819 0.116577 -0.039852 73640.100000 0 0 1
-11.112126 -10.058138 26.118416 30.113405 0.735653 0.520973 0.103316 -0.034569 87966.300000 0 0 1
-11.839726 -10.739538 25.105206 29.762194 0.736711 0.566980 0.096978 -0.031687 -60976.500000 0 0 1
-11.481726 -10.242538 23.830096 28.365703 0.728418 0.573324 0.084220 -0.025663 724245.000000 0 0 1
-12.513126 -10.657338 22.692716 28.019931 0.705476 0.626853 0.098638 -0.033162 97107.100000 0 0 1
-12.534426 -12.088038 22.495816 28.448097 0.767271 0.658735 0.093003 -0.032185 377344.000000 0 0 1
-13.696326 -12.654338 21.903316 28.765898 0.745876 0.705275 0.091073 -0.030925 1678190.000000 0 0 1
-15.014826 -12.619838 22.824986 30.094606 0.698948 0.709878 0.088243 -0.032193 1157340.000000 0 0 1
-16.253426 -13.022738 22.263816 30.486769 0.675491 0.752068 0.073225 -0.025108 541806.000000 0 0 1
-17.304426 -12.755038 23.188466 31.620233 0.635192 0.747571 0.073798 -0.022571 -434141.000000 0 0 1
-18.622726 -13.391538 22.795716 32.338582 0.623428 0.788503 0.097482 -0.025758 -1070800.000000 0 0 1
-18.563626 -14.782738 22.869626 32.956901 0.672498 0.803870 0.090551 -0.027122 -460506.000000 0 0 1
-19.781626 -15.427138 22.717216 33.843481 0.662347 0.834911 0.080098 -0.015560 -700236.000000 0 0 1
-20.769126 -15.415838 23.891046 35.210605 0.638521 0.825052 0.077908 -0.016636 -503507.000000 0 0 1
-20.362626 -16.229838 24.973646 36.079456 0.672934 0.806285 0.077124 -0.013913 170060.000000 0 0 1
-21.395126 -16.313338 25.929896 37.366240 0.651440 0.803851 0.070791 -0.014427 -178880.000000 0 0 1
-20.973726 -17.098438 27.181096 38.354475 0.683960 0.783169 0.071981 -0.009868 -88944.500000 0 0 1
-21.031326 -18.471638 26.862846 38.796012 0.720691 0.805969 0.073770 -0.000355 213649.000000 0 0 1
-20.590526 -19.253138 27.966176 39.708439 0.751845 0.789377 0.068199 -0.008320 -306105.000000 0 0 1
-20.742226 -20.759838 27.686206 40.345221 0.785823 0.814499 0.083160 -0.001819 729349.000000 0 0 1
-22.077626 -21.265638 27.513466 41.190287 0.766666 0.839332 0.083325 0.000927 635054.000000 0 0 1
-21.979526 -22.659838 27.073406 41.587704 0.800637 0.861901 0.093336 0.012708 -83795.600000 0 0 1
-23.321626 -23.379538 26.866136 42.571003 0.786638 0.887839 0.091064 0.019666 -293158.000000 0 0 1
-23.999726 -23.714838 28.054886 43.880030 0.779428 0.877138 0.090277 0.016068 -762802.000000 0 0 1
-25.155926 -24.335238 27.613336 44.581619 0.768817 0.902833 0.072066 0.016233 -630650.000000 0 0 1
-25.999956 -25.031318 28.708716 46.116754 0.766419 0.898835 0.051150 0.003969 -242103.000000 0 0 1
-26.900476 -24.254638 29.437056 46.674011 0.733722 0.888348 0.035614 0.007410 27832.900000 0 0 1
-27.547396 -25.074688 30.404396 48.083535 0.738443 0.886246 0.038341 0.009237 -258123.000000 0 0 1
-28.742956 -24.437538 31.115106 48.902971 0.704616 0.881153 0.022893 0.000849 -573152.000000 0 0 1
-29.782556 -24.233838 30.210006 48.856156 0.683034 0.904160 0.040768 -0.003825 -126821.000000 0 0 1
-30.870236 -23.541738 30.809626 49.562263 0.651518 0.899968 0.049632 -0.015566 -311922.000000 0 0 1
-32.115926 -23.395738 29.955386 49.760611 0.629584 0.924805 0.053741 -0.019342 -1129210.000000 0 0 1
-32.951666 -24.473138 29.941336 50.805810 0.638811 0.940568 0.049364 -0.022703 -436426.000000 0 0 1
-33.997686 -24.245638 29.005576 50.843063 0.619501 0.963691 0.042503 -0.023880 789112.000000 0 0 1
-35.330505 -24.954138 29.476936 52.343513 0.614945 0.972611 0.045319 -0.020748 528634.000000 0 0 1
-35.183844 -26.351848 29.559146 52.972312 0.642845 0.978809 0.053534 -0.022262 455116.000000 0 0 1
-36.126716 -26.959768 30.448836 54.397613 0.641100 0.976717 0.053928 -0.023256 273124.000000 0 0 1
-35.666920 -28.399308 30.753776 54.994951 0.672442 0.977363 0.054494 -0.025696 -112013.000000 0 0 1
-34.500093 -28.581998 31.495396 54.764468 0.691856 0.958062 0.063356 -0.020686 -417022.000000 0 0 1
-34.068125 -29.895318 31.596626 55.251371 0.720253 0.962012 0.065557 -0.030409 -105451.000000 0 0 1
-33.085636 -30.066158 32.752445 55.419814 0.737622 0.938513 0.061132 -0.020313 -268157.000000 0 0 1
-33.729566 -29.868668 -33.872383 56.366295 0.724765 2.215465 0.061120 -0.016686 -466636.000000 0 0 1
-32.826296 -29.975148 -32.840863 55.268413 0.740030 2.207075 0.062350 -0.021093 -531675.000000 0 0 1
-33.344646 -29.592378 -31.453263 54.560810 0.725849 2.185212 0.062049 -0.023171 -64174.400000 0 0 1
-33.512746 -28.222248 -31.210803 53.793249 0.699910 2.189770 0.063325 -0.014806 162431.000000 0 0 1
-32.271126 -27.618988 -30.887133 52.519035 0.707876 2.199520 0.058193 -0.010311 4750.200000 0 0 1
-32.339376 -26.053148 -30.758293 51.678567 0.678157 2.208292 0.041259 -0.002020 81264.500000 0 0 1
-33.059496 -25.546648 -29.619343 51.213933 0.657901 2.187495 0.041764 -0.006811 104510.000000 0 0 1
-32.972366 -24.133438 -29.442403 50.363229 0.631835 2.195185 0.046817 -0.004638 1106720.000000 0 0 1
-31.551806 -23.604738 -28.962273 48.903102 0.642301 2.204630 0.051279 -0.008983 1062830.000000 0 0 1
-31.507946 -22.185038 -28.882683 48.157408 0.613479 2.213992 0.057428 -0.004887 765860.000000 0 0 1
-30.323556 -21.676438 -28.227263 46.756437 0.620615 2.218941 0.053242 -0.004643 518440.000000 0 0 1
-30.288256 -20.129638 -28.279353 46.068455 0.586572 2.231731 0.072981 -0.011523 -41880.600000 0 0 1
-30.054696 -19.763338 -29.638303 46.607974 0.581685 2.259979 0.087029 -0.005913 278094.000000 0 0 1
-29.528416 -18.464538 -29.780193 45.822771 0.558825 2.278248 0.082228 -0.012749 -442907.000000 0 0 1
-29.155166 -18.015438 -31.221283 46.361063 0.553489 2.309645 0.099795 -0.009922 414661.000000 0 0 1
-30.119916 -17.656738 -32.220243 47.509091 0.530222 2.316095 0.098511 -0.022107 405809.000000 0 0 1
-31.163946 -16.760938 -31.826303 47.592374 0.493452 2.303292 0.083717 -0.021704 190378.000000 0 0 1
-32.069606 -16.258538 -32.990373 48.797176 0.469213 2.313214 0.084246 -0.030807 259520.000000 0 0 1
-32.911196 -17.221138 -33.616183 50.097526 0.482083 2.306373 0.094748 -0.035174 296692.000000 0 0 1
-34.265605 -16.963038 -33.274233 50.685806 0.459676 2.286940 0.094504 -0.029170 94657.400000 0 0 1
-35.238876 -17.531038 33.526196 51.702239 0.461639 0.865253 0.094241 -0.037891 -545426.000000 0 0 1
-35.429002 -18.921138 33.582095 52.354377 0.490521 0.874425 0.063774 -0.032983 330801.000000 0 0 1
-36.120936 -19.491838 32.460738 52.329277 0.494845 0.901650 0.065624 -0.031807 75484.200000 0 0 1
-36.641256 -20.938638 32.619295 53.338791 0.519162 0.912779 0.044895 -0.026232 -303497.000000 0 0 1
-35.546931 -21.788238 32.579928 52.912790 0.549882 0.907486 0.059521 -0.029688 -192330.000000 0 0 1
-35.831622 -22.953338 33.333370 54.054365 0.569731 0.906299 0.053951 -0.023383 -827567.000000 0 0 1
-34.660818 -23.957538 33.397264 53.765353 0.604795 0.900565 0.057066 -0.021294 48271.600000 0 0 1
-33.561756 -23.696738 -33.623333 53.089126 0.614784 2.256655 0.042470 -0.021250 398868.000000 0 0 1
-32.725926 -22.545438 -33.854763 52.205631 0.603249 2.276394 0.044507 -0.023317 -189932.000000 0 0 1
-31.373436 -22.602838 -33.101523 50.900801 0.624316 2.278795 0.052593 -0.020002 80810.900000 0 0 1
-30.480276 -23.597838 -33.622003 51.150213 0.658810 2.288052 0.050117 -0.020624 1674890.000000 0 0 1
-29.082356 -23.428938 -33.262593 50.010985 0.678150 2.298432 0.062141 -0.021478 1516170.000000 0 0 1
-28.665306 -23.869538 -31.869833 49.062622 0.694363 2.277821 0.057543 -0.012887 -924857.000000 0 0 1
-28.943556 -25.171528 -31.450403 49.603055 0.715807 2.257565 0.043446 -0.009306 249298.000000 0 0 1
-28.175346 -25.496848 -30.279573 48.587981 0.735535 2.243612 0.038868 -0.004906 242886.000000 0 0 1
-28.060246 -26.999078 -29.982223 49.145308 0.766127 2.226949 0.034334 -0.008294 174224.000000 0 0 1
-29.240946 -27.611708 -29.457593 49.851671 0.756749 2.202976 0.029954 -0.002324 432870.000000 0 0 1
-29.021246 -28.870538 -28.897873 50.108160 0.782795 2.185492 0.040517 -0.004196 -174502.000000 0 0 1
-29.705956 -29.992688 -29.712013 51.621787 0.790201 2.184099 0.043028 0.004295 -180207.000000 0 0 1
-29.055756 -30.356458 -30.923413 52.172876 0.807288 2.205216 0.050431 -0.011026 387480.000000 0 0 1
-29.370866 -31.720888 -31.226033 53.328488 0.823846 2.196344 0.059887 -0.002445 20688.300000 0 0 1
-28.876516 -32.217178 -32.614023 54.180017 0.840025 2.216746 0.051665 -0.015815 996709.000000 0 0 1
-27.454376 -32.407368 -32.757973 53.638280 0.867951 2.227766 0.036717 -0.015592 764339.000000 0 0 1
-27.079706 -32.940958 33.807416 54.418366 0.882743 0.900459 0.050131 -0.017345 374891.000000 0 0 1
-25.558876 -33.220768 33.644107 53.747572 0.915017 0.894428 0.060713 -0.023384 394640.000000 0 0 1
-25.308666 -33.812428 32.361676 53.207959 0.928255 0.916991 0.060985 -0.008436 -166337.000000 0 0 1
-24.288026 33.005253 32.500140 52.302141 -0.936391 0.900278 0.060635 -0.003770 -354238.000000 0 0 1
-24.116926 32.142715 31.252126 50.906538 -0.927098 0.909790 0.059144 -0.015016 371050.000000 0 0 1
-25.184546 31.173566 31.239556 50.813014 -0.891268 0.908671 0.080085 -0.030386 559671.000000 0 0 1
-25.204006 30.445066 30.038196 49.643098 -0.879302 0.920926 0.074036 -0.019675 -852989.000000 0 0 1
-26.592196 30.129786 29.547456 49.879866 -0.847685 0.936796 0.080442 -0.018936 -583097.000000 0 0 1
-27.320186 29.082196 30.187716 50.034637 -0.816628 0.923118 0.089805 -0.013740 128723.000000 0 0 1
-28.547756 28.762216 29.570426 50.166219 -0.789140 0.940420 0.094444 -0.021126 26185.700000 0 0 1
-29.179956 27.576406 30.294206 50.295794 -0.757152 0.924391 0.086497 -0.019881 -236493.000000 0 0 1
-28.316556 26.459006 30.300636 49.193850 -0.751499 0.907213 0.082592 -0.010952 63982.900000 0 0 1
-28.891776 25.239656 30.799576 49.197447 -0.718033 0.894332 0.084024 -0.005675 104654.000000 0 0 1
-29.797436 24.529606 29.809996 48.767044 -0.688735 0.913128 0.073617 -0.002954 -199332.000000 0 0 1
-29.079936 24.019636 28.748246 47.424121 -0.690387 0.919529 0.076903 -0.014005 -486826.000000 0 0 1
-29.925956 23.427396 27.796576 47.085617 -0.664193 0.939315 0.079754 -0.003630 502111.000000 0 0 1
-29.135366 23.049496 26.473146 45.617719 -0.669301 0.951667 0.096767 -0.015685 426909.000000 0 0 1
-28.292206 21.922616 26.543676 44.560259 -0.659225 0.932684 0.095835 -0.021509 56949.000000 0 0 1
-27.534266 21.667316 25.384506 43.266402 -0.666715 0.943815 0.089359 -0.011588 829492.000000 0 0 1
-26.088086 21.135716 25.729336 42.300182 -0.680910 0.916935 0.088610 -0.020197 458224.000000 0 0 1
-26.154306 19.887316 26.381696 42.137239 -0.650114 0.894268 0.125433 -0.034755 914181.000000 0 0 1
-24.852226 19.349816 26.668006 41.270220 -0.661552 0.868227 0.100751 -0.024360 551382.000000 0 0 1
-24.941826 18.323416 27.801806 41.602676 -0.633602 0.838916 0.124435 -0.033231 -457845.000000 0 0 1
-23.719726 17.755816 28.180176 40.890301 -0.642584 0.810460 0.112676 -0.029532 -328514.000000 0 0 1
-23.805326 16.619316 28.971346 41.015047 -0.609473 0.786455 0.111512 -0.018765 -240105.000000 0 0 1
-22.458726 15.860616 29.055056 40.001872 -0.614883 0.757811 0.100269 -0.018254 641823.000000 0 0 1
-21.495826 16.572716 29.856136 40.349898 -0.656790 0.737829 0.130536 -0.017714 365832.000000 0 0 1
-20.244626 15.911516 29.863596 39.431657 -0.666123 0.711550 0.111126 -0.018767 694183.000000 0 0 1
-19.175226 16.372016 30.926336 39.902011 -0.706702 0.683991 0.101677 -0.026357 425277.000000 0 0 1
-19.472926 16.096816 32.309272 41.014526 -0.690766 0.663645 0.096247 -0.016422 528773.000000 0 0 1
-18.436926 16.617216 33.159095 41.419533 -0.733533 0.642556 0.096466 -0.017982 -285417.000000 0 0 1
-18.670626 16.312216 -33.152133 41.397398 -0.718084 2.499470 0.085404 -0.025975 1011180.000000 0 0 1
-19.709426 17.139916 -32.540653 41.726877 -0.715781 2.465220 0.091938 -0.022537 1489000.000000 0 0 1
-21.049526 16.859016 -32.970253 42.595147 -0.675303 2.455990 0.087999 -0.016101 316943.000000 0 0 1
-22.069726 17.682716 -32.086343 42.770137 -0.675485 2.419167 0.089047 -0.025038 129851.000000 0 0 1
-22.294626 17.193216 -30.778283 41.712824 -0.656920 2.400693 0.088674 -0.028986 108303.000000 0 0 1
-23.072026 18.118216 -30.037283 41.986027 -0.665706 2.368009 0.090488 -0.022698 -397436.000000 0 0 1
-23.192626 17.798716 -28.498123 40.826893 -0.654563 2.343430 0.086365 -0.029260 360201.000000 0 0 1
-23.989326 16.702416 -28.060833 40.519980 -0.608200 2.335771 0.076911 -0.026396 350515.000000 0 0 1
-25.378296 16.706416 -28.358923 41.561890 -0.582185 2.321741 0.074543 -0.023343 290449.000000 0 0 1
-26.253836 15.696816 -27.613613 41.208804 -0.538864 2.305127 0.074868 -0.027898 5113.810000 0 0 1
-25.920656 14.405216 -27.941773 40.744733 -0.507242 2.326466 0.046918 -0.021264 3838.380000 0 0 1
-26.613656 13.514716 -27.056913 40.286607 -0.469877 2.307177 0.022145 -0.013750 411150.000000 0 0 1
-26.106026 12.059316 -27.230493 39.603679 -0.432736 2.328940 0.032725 -0.018140 527399.000000 0 0 1
-24.863726 11.740816 -26.624283 38.274065 -0.441167 2.340082 0.029894 -0.021120 58433.400000 0 0 1
-24.403926 10.458516 -27.006293 37.871784 -0.404881 2.364704 0.028880 -0.009344 740819.000000 0 0 1
-23.222926 9.876016 -26.139013 36.333015 -0.402099 2.373776 0.057141 -0.012287 756659.000000 0 0 1
-23.680126 9.121716 -25.033003 35.645551 -0.367688 2.349385 0.052322 -0.001403 411458.000000 0 0 1
-22.551826 8.528916 -24.413703 34.312623 -0.361566 2.362438 0.074103 0.005613 236265.000000 0 0 1
-23.061626 7.548516 -23.329603 33.661388 -0.316328 2.336532 0.069430 0.015212 246457.000000 0 0 1
-23.802926 6.520016 -23.921903 34.370733 -0.267359 2.340603 0.063790 -0.009290 -41260.400000 0 0 1
-24.342326 5.600716 -23.035303 33.978552 -0.226146 2.315748 0.063091 -0.001062 -270098.000000 0 0 1
34.871121 24.054362 -10.158803 43.563846 0.603853 1.806157 0.057594 0.003072 -156143.000000 0 0 1
35.714111 23.607062 -9.133003 43.774454 0.584070 1.780978 0.065493 -0.012640 -166737.000000 0 0 1
36.966041 23.205462 -9.646703 44.699446 0.560575 1.788320 0.050787 -0.013288 200547.000000 0 0 1
-36.924496 22.844962 -8.565503 44.256960 -0.554052 1.765566 0.101387 -0.017335 164771.000000 0 0 1
-37.324986 21.760062 -7.727703 43.890457 -0.527818 1.747787 0.054280 -0.019456 -739413.000000 0 0 1
-36.289026 21.312062 -6.948003 42.654098 -0.531019 1.734417 0.137435 -0.027223 -1137860.000000 0 0 1
-36.722876 20.360262 -5.827803 42.391900 -0.506238 1.708708 0.093398 -0.016233 -178043.000000 0 0 1
-37.064906 19.107062 -6.389403 42.186627 -0.475973 1.722837 0.056344 -0.009177 318710.000000 0 0 1
-37.287006 18.147662 -5.422903 41.821840 -0.452953 1.700829 0.070424 -0.028557 -298020.000000 0 0 1
36.926531 16.879962 -5.967203 41.037901 0.428761 1.716721 0.065459 -0.017626 98628.100000 0 0 1
35.630781 17.248062 -6.402603 40.100393 0.450829 1.731147 0.057483 -0.017194 -5737.020000 0 0 1
35.078241 16.194362 -7.201003 39.301333 0.432511 1.755063 0.065939 -0.015880 112309.000000 0 0 1
33.751621 16.493662 -7.924903 38.392927 0.454549 1.778707 0.053447 -0.021532 -76416.600000 0 0 1
33.412651 15.380262 -8.731903 37.804812 0.431397 1.803874 0.069516 -0.028309 -113908.000000 0 0 1
33.106301 15.749562 -10.060803 38.017044 0.444041 1.838626 0.063878 -0.023345 -1136070.000000 0 0 1
32.471391 14.656462 -10.905403 37.257629 0.423989 1.867848 0.052567 -0.020949 -175049.000000 0 0 1
31.196641 14.141962 -10.594503 35.853437 0.425609 1.870770 0.060031 -0.017197 412227.000000 0 0 1
31.020031 13.712862 -9.277803 35.161947 0.416235 1.837817 0.070549 -0.025193 -1072740.000000 0 0 1
29.984071 12.562662 -9.188803 33.783118 0.396759 1.846261 0.074502 -0.017024 443437.000000 0 0 1
30.609971 11.325062 -9.471403 33.984332 0.354362 1.853236 0.081773 -0.013301 288633.000000 0 0 1
29.599941 10.376862 -9.477303 32.766676 0.337183 1.864225 0.108284 -0.016169 -455655.000000 0 0 1
30.085231 8.945262 -9.852803 32.897060 0.289006 1.874969 0.122653 -0.013438 -291806.000000 0 0 1
31.064451 8.507062 -8.935303 33.424689 0.267299 1.841414 0.108730 -0.017069 185968.000000 0 0 1
31.172881 7.103862 -8.930203 33.195811 0.224060 1.843168 0.110643 -0.013771 -166860.000000 0 0 1
32.326341 6.580362 -8.033803 33.953431 0.200817 1.809674 0.145341 -0.021885 -507995.000000 0 0 1
33.560521 6.900562 -8.580503 35.320693 0.202789 1.816183 0.134482 -0.014876 -840230.000000 0 0 1
34.593041 6.470562 -7.738903 36.033835 0.184911 1.787250 0.137252 -0.018207 -160917.000000 0 0 1
36.046411 6.788962 -8.132403 37.570863 0.186159 1.788978 0.143332 -0.021189 136938.000000 0 0 1
36.427181 6.151262 -9.347203 38.107056 0.167286 1.818613 0.155574 -0.027928 312705.000000 0 0 1
-37.123636 6.267162 -9.579503 38.848533 -0.167242 1.819952 0.161102 -0.032349 -494125.000000 0 0 1
-36.625936 5.298562 -10.696403 38.522032 -0.143670 1.852164 0.147085 -0.035341 734165.000000 0 0 1
-35.222904 5.004362 -10.765303 37.169723 -0.141132 1.864632 0.152732 -0.035520 776028.000000 0 0 1
-34.383107 5.903262 -11.394403 36.699849 -0.170033 1.886490 0.122369 -0.028436 -938207.000000 0 0 1
-33.634036 6.904462 -10.537003 35.915851 -0.202469 1.868557 0.128262 -0.032855 -1039050.000000 0 0 1
-34.383027 7.866062 -9.801503 36.607880 -0.224907 1.841846 0.144153 -0.028721 45467.100000 0 0 1
-34.891489 9.004262 -10.493703 37.531460 -0.252554 1.854171 0.133336 -0.030072 360511.000000 0 0 1
-36.067686 9.717662 -9.763603 38.608792 -0.263179 1.826458 0.123061 -0.027978 442878.000000 0 0 1
-35.591619 10.324162 -8.594703 38.042352 -0.282325 1.798688 0.133686 -0.021609 68527.000000 0 0 1
-36.543086 11.245462 -8.110703 39.085049 -0.298535 1.779829 0.124614 -0.025863 222792.000000 0 0 1
-35.915955 12.166862 -7.011503 38.563577 -0.326626 1.753630 0.130934 -0.032307 13469.300000 0 0 1
-35.058667 13.103462 -7.551703 38.181659 -0.357681 1.769893 0.135575 -0.029956 -481423.000000 0 0 1
-34.614806 14.117562 -6.642503 37.968581 -0.387253 1.746649 0.151634 -0.032158 397157.000000 0 0 1
-33.633456 15.153262 -7.244803 37.594120 -0.423304 1.764721 0.122568 -0.022504 114783.000000 0 0 1
-34.273244 16.049862 -8.140603 38.710757 -0.437960 1.782671 0.100040 -0.017419 -200738.000000 0 0 1
-33.534676 17.219062 -8.348903 38.610552 -0.474366 1.788752 0.091921 -0.009885 -311656.000000 0 0 1
-34.119103 18.241062 -9.325803 39.797237 -0.490966 1.807329 0.066829 -0.011145 -48399.800000 0 0 1
-33.811426 17.972462 -10.663603 39.748388 -0.488568 1.842401 0.064091 -0.014167 -304561.000000 0 0 1
-34.819091 18.422162 -11.523303 41.043046 -0.486642 1.855384 0.055127 -0.014327 -239281.000000 0 0 1
-34.332343 18.451762 -13.019403 41.093578 -0.493153 1.893175 0.036891 -0.004093 -236548.000000 0 0 1
-33.329216 19.387562 -13.248403 40.770508 -0.526854 1.901756 0.051483 -0.014843 -365187.000000 0 0 1
-33.229956 19.765862 -14.647603 41.345756 -0.536602 1.932931 0.028032 -0.014552 -459817.000000 0 0 1
-32.399226 21.037762 -14.803703 41.369637 -0.575903 1.936750 0.041942 -0.011352 -291653.000000 0 0 1
-31.072996 20.872862 -14.324903 40.080048 -0.591504 1.936287 0.046651 -0.010366 149423.000000 0 0 1
-30.340196 22.071162 -14.235403 40.128672 -0.628916 1.933436 0.036130 -0.018090 95178.100000 0 0 1
-29.590356 22.604662 -15.467903 40.321408 -0.652350 1.964504 0.036839 -0.024557 -774344.000000 0 0 1
-30.466026 23.155162 -16.420303 41.640924 -0.649891 1.976136 0.053025 -0.015690 -64683.300000 0 0 1
-29.855936 23.620662 -17.589703 41.936979 -0.669324 2.003616 0.067296 -0.020472 -369963.000000 0 0 1
-29.285716 25.019762 -17.592703 42.345541 -0.707004 1.999240 0.071623 -0.025694 228429.000000 0 0 1
-30.308056 25.996062 -17.341603 43.532800 -0.708963 1.980521 0.102022 -0.036705 288552.000000 0 0 1
-29.906206 27.282462 -17.701203 44.181970 -0.739552 1.983015 0.103106 -0.039960 -323514.000000 0 0 1
-30.840536 28.321362 -17.117903 45.235614 -0.742843 1.958881 0.108265 -0.042368 -461578.000000 0 0 1
-30.727576 28.575062 -15.720003 44.808889 -0.749117 1.929246 0.094136 -0.042461 239624.000000 0 0 1
-29.614446 29.338162 -15.254203 44.389569 -0.780712 1.921591 0.085888 -0.041071 207141.000000 0 0 1
-29.660336 29.629862 -13.697503 44.105394 -0.784884 1.886582 0.074801 -0.032487 173524.000000 0 0 1
-30.570316 30.720562 -13.448003 45.377813 -0.787850 1.871672 0.055528 -0.019806 226688.000000 0 0 1
-30.346746 31.547662 -12.266603 45.460417 -0.804798 1.844013 0.045136 -0.022422 178939.000000 0 0 1
-29.371316 32.760662 -12.366003 45.703973 -0.839895 1.844779 0.048835 -0.036078 327931.000000 0 0 1
-29.895016 33.840362 -13.134703 47.025551 -0.847221 1.853872 0.032508 -0.028992 -550323.000000 0 0 1
-29.007886 -32.887992 -13.312803 45.829119 0.848004 1.865533 0.096969 -0.030443 -566986.000000 0 0 1
-29.090686 -32.125092 -14.648103 45.747748 0.834927 1.896729 0.075457 -0.024906 -255551.000000 0 0 1
-28.435666 -32.827492 -15.676103 46.173277 0.856964 1.917188 0.091344 -0.025080 -164711.000000 0 0 1
-28.525266 -32.064392 -16.861903 46.110083 0.843743 1.945168 0.097845 -0.013153 -35352.200000 0 0 1
-27.514696 -32.569892 -17.943603 46.258288 0.869335 1.969149 0.088573 -0.024190 133043.000000 0 0 1
-27.706086 -33.799192 -18.603603 47.498490 0.884142 1.973239 0.091705 -0.016416 -112045.000000 0 0 1
-27.209536 32.857862 -17.855003 46.247152 -0.879156 1.967172 0.086535 -0.033742 -404058.000000 0 0 1
-27.482546 31.477462 -18.643003 45.756775 -0.853051 1.990442 0.097489 -0.040825 486185.000000 0 0 1
-28.828236 31.018862 -18.775903 46.322473 -0.821986 1.988136 0.116564 -0.034286 509957.000000 0 0 1
-29.577496 31.777062 -19.710503 47.677184 -0.821233 1.996999 0.104157 -0.036280 -920610.000000 0 0 1
-31.089146 31.595162 -19.742403 48.523723 -0.793470 1.989811 0.092497 -0.046547 -341989.000000 0 0 1
-31.461686 30.289562 -20.240803 48.135074 -0.766419 2.004793 0.105649 -0.051771 -382665.000000 0 0 1
-32.822976 30.218862 -20.528603 49.111617 -0.744114 2.002038 0.124299 -0.050408 -532412.000000 0 0 1
-33.302526 28.745562 -20.835303 48.677257 -0.712087 2.013108 0.130590 -0.052708 30415.600000 0 0 1
-34.694473 28.626862 -21.050303 49.662047 -0.689867 2.008511 0.134907 -0.054764 236530.000000 0 0 1
-34.960810 27.358162 -21.678103 49.403111 -0.664002 2.025060 0.121844 -0.039631 115289.000000 0 0 1
-36.448476 26.935262 -21.824303 50.302086 -0.636421 2.019574 0.116688 -0.035089 405203.000000 0 0 1
-37.051886 27.604362 -22.928503 51.580609 -0.640306 2.031432 0.116283 -0.036099 -1019190.000000 0 0 1
36.712561 26.953062 -23.236303 51.129301 0.633289 2.042564 0.111292 -0.027545 -418276.000000 0 0 1
36.009811 27.451462 -24.545103 51.504867 0.651348 2.067533 0.109202 -0.023449 181868.000000 0 0 1
36.868251 27.348862 -25.648553 52.583994 0.638232 2.080322 0.122853 -0.031688 -57564.000000 0 0 1
36.143301 27.795562 -26.787713 52.882067 0.655574 2.101982 0.138909 -0.024157 71387.600000 0 0 1
37.011701 27.903262 -28.075633 54.191320 0.645995 2.115405 0.144038 -0.027767 189926.000000 0 0 1
37.419231 26.604762 -28.503453 54.041271 0.618065 2.126379 0.091613 -0.010097 -242212.000000 0 0 1
-36.935226 26.777162 -29.771283 54.475284 -0.627293 2.148987 0.066703 -0.011749 -763307.000000 0 0 1
-36.323086 25.469862 -30.264203 53.702909 -0.611533 2.169472 0.049261 -0.006401 300438.000000 0 0 1
-35.321826 24.821862 -29.507583 52.292004 -0.612559 2.170363 0.036950 0.002037 -3028.430000 0 0 1
-34.070559 25.491162 -29.509943 51.782613 -0.642340 2.177158 0.022288 0.005801 -266571.000000 0 0 1
-33.017156 24.837462 -28.609473 50.254691 -0.644945 2.176438 0.024695 0.000286 -319862.000000 0 0 1
-32.604556 23.547162 -28.995643 49.580976 -0.625473 2.195447 0.019773 0.006097 -301043.000000 0 0 1
-33.101446 22.507262 -28.228713 48.981045 -0.597141 2.185014 0.010780 0.006460 -159991.000000 0 0 1
-32.687506 21.147062 -28.822943 48.439997 -0.574226 2.208091 0.026177 0.000151 1233940.000000 0 0 1
-31.281016 20.813962 -28.695763 47.277582 -0.587116 2.223030 0.062966 -0.006042 1040570.000000 0 0 1
-31.077006 19.511462 -29.178053 46.881086 -0.560641 2.242582 0.048905 -0.002261 64011.700000 0 0 1
-29.634656 18.958362 -29.205313 45.722889 -0.569126 2.263664 0.058302 -0.010594 411370.000000 0 0 1
-28.814846 19.482662 -30.268963 46.109430 -0.594527 2.286912 0.063610 -0.009941 897882.000000 0 0 1
-27.584416 18.882862 -30.659763 45.359492 -0.600280 2.313020 0.079705 -0.017114 668067.000000 0 0 1
-27.872386 17.549162 -31.430163 45.526894 -0.561919 2.332789 0.079406 -0.016510 -315341.000000 0 0 1
-28.202126 16.483262 -30.625323 44.776871 -0.528921 2.323965 0.046321 -0.009832 -23588.900000 0 0 1
-28.276996 15.209562 -31.334403 44.863839 -0.493489 2.344002 0.023944 -0.003913 -51894.100000 0 0 1
-28.596446 13.964662 -30.503733 44.082266 -0.454273 2.335015 0.016039 -0.000381 372911.000000 0 0 1
-29.946986 14.022462 -30.034953 44.671577 -0.437921 2.308176 0.016593 0.003571 508384.000000 0 0 1
-30.520286 12.720762 -29.837673 44.537539 -0.394902 2.304930 0.017003 0.013334 86111.700000 0 0 1
-30.189006 11.969762 -28.498513 43.206672 -0.377480 2.291064 -0.003111 -0.009695 -174270.000000 0 0 1
-30.626116 12.669662 -27.344473 42.967424 -0.392251 2.260619 -0.004978 -0.004613 115502.000000 0 0 1
-30.607126 11.849362 -26.171483 41.977971 -0.369375 2.243954 0.005243 0.007308 79444.400000 0 0 1
-30.614036 12.623862 -24.848403 41.400775 -0.391112 2.214537 0.015148 -0.005143 -8978.400000 0 0 1
-29.302416 13.079462 -24.648803 40.463161 -0.419824 2.225806 0.028643 -0.016076 -357500.000000 0 0 1
-29.201066 13.693462 -23.371003 39.829849 -0.438490 2.197862 0.039605 -0.006705 -322051.000000 0 0 1
-27.702216 13.764662 -23.079403 38.594527 -0.461148 2.211796 0.068708 -0.010564 -694639.000000 0 0 1
-26.999476 14.663862 -23.971803 38.969833 -0.497543 2.233357 0.075186 -0.016972 1052640.000000 0 0 1
-25.593746 14.868162 -23.727003 37.935112 -0.526279 2.246521 0.080792 -0.026354 1144020.000000 0 0 1
-25.235876 15.488462 -22.388403 37.121186 -0.550467 2.218199 0.082702 -0.025954 -1001060.000000 0 0 1
-25.796796 16.773962 -22.181903 37.932536 -0.576540 2.195396 0.098938 -0.026368 -1228.400000 0 0 1
-25.845036 16.993562 -20.788503 37.268068 -0.581642 2.162541 0.100819 -0.019746 250792.000000 0 0 1
-27.255086 17.204962 -20.168703 38.021402 -0.563086 2.129935 0.095036 -0.020955 275433.000000 0 0 1
-28.142236 16.132262 -20.347703 38.291831 -0.520511 2.131031 0.096185 -0.022821 -357098.000000 0 0 1
-29.195776 16.081162 -19.446003 38.589430 -0.503461 2.098928 0.088268 -0.020847 -1121150.000000 0 0 1
-30.184286 14.973262 -19.800403 39.081269 -0.460492 2.102087 0.085759 -0.022931 295255.000000 0 0 1
-30.964676 14.988362 -21.038403 40.324639 -0.450804 2.119669 0.060318 -0.013433 370226.000000 0 0 1
-31.930566 15.989062 -21.059503 41.457373 -0.464243 2.103634 0.063529 -0.014267 -713744.000000 0 0 1
-32.519186 16.244862 -22.483703 42.742366 -0.463285 2.124720 0.033750 0.005409 271067.000000 0 0 1
-33.542616 15.329362 -22.860003 43.389816 -0.428669 2.125689 0.048418 -0.001081 269921.000000 0 0 1
-33.942086 15.598762 -24.211503 44.514980 -0.430784 2.145869 0.025880 0.004501 793818.000000 0 0 1
-35.124731 14.711062 -24.805803 45.447661 -0.396627 2.148152 0.034230 -0.004814 781846.000000 0 0 1
-34.983876 13.316362 -24.953403 44.987436 -0.363709 2.158769 0.040055 0.001561 -123300.000000 0 0 1
-35.250860 12.493462 -23.764803 44.311122 -0.340603 2.136864 0.034131 0.003611 -18500.800000 0 0 1
-35.042081 10.990662 -24.073403 43.912081 -0.303925 2.151029 0.040069 -0.001002 161387.000000 0 0 1
-35.977712 10.488762 -25.002203 45.050194 -0.283673 2.159142 0.059024 -0.003864 -83604.200000 0 0 1
-35.556412 9.227562 -25.459943 44.694686 -0.253917 2.176866 0.055583 0.003196 -233816.000000 0 0 1
-36.627186 8.382662 -26.183583 45.797377 -0.224990 2.179405 0.080084 -0.000227 -369764.000000 0 0 1
-37.427676 7.749562 -25.219903 45.792249 -0.204169 2.154054 0.082874 0.003317 -346229.000000 0 0 1
36.433181 7.176662 -25.940163 45.296503 0.194491 2.180561 0.087578 -0.004076 459717.000000 0 0 1
35.328341 6.545862 -25.028903 43.787966 0.183209 2.179243 0.094237 -0.008678 401356.000000 0 0 1
35.855411 5.431062 -24.304903 43.655873 0.150328 2.161251 0.089250 -0.012967 457779.000000 0 0 1
34.852251 4.596362 -23.721503 42.408910 0.131125 2.164400 0.109867 -0.013538 697077.000000 0 0 1
35.523181 3.488962 -22.815803 42.363075 0.097902 2.139544 0.093814 -0.008127 579137.000000 0 0 1
36.169031 2.420762 -23.539203 43.222135 0.066829 2.146720 0.098610 -0.014063 146400.000000 0 0 1
37.043851 1.741262 -22.681603 43.471071 0.046971 2.119713 0.104863 -0.012985 -179748.000000 0 0 1
37.469781 0.371262 -23.238503 44.092520 0.009908 2.125910 0.127494 -0.016967 645053.000000 0 0 1
36.416381 -0.593538 -23.409603 43.295665 -0.016297 2.142055 0.100328 -0.026030 514844.000000 0 0 1
37.047311 -1.747238 -23.903003 44.123799 -0.047127 2.143285 0.107350 -0.024974 330324.000000 0 0 1
-23.299626 29.028062 27.038266 46.006182 -0.894436 0.942572 0.069493 -0.022338 -499877.000000 0 0 1
-24.710426 29.060062 26.921786 46.689131 -0.866115 0.956213 0.060624 -0.021375 313749.000000 0 0 1
-25.125836 28.924162 25.597896 46.077837 -0.855557 0.981789 0.054408 -0.020445 -317238.000000 0 0 1
-25.541666 27.475462 25.146796 45.162363 -0.821857 0.980257 0.054267 -0.016435 371849.000000 0 0 1
-26.844306 27.055962 25.573936 45.898454 -0.789325 0.979804 0.057604 -0.012957 754591.000000 0 0 1
-26.983106 26.661162 26.995826 46.558352 -0.779397 0.952279 0.071036 -0.015598 -662668.000000 0 0 1
-26.250896 25.372462 27.492016 45.702104 -0.768384 0.925359 0.074885 -0.014179 1210080.000000 0 0 1
-24.806826 25.358162 27.569026 44.927343 -0.796388 0.910139 0.065455 -0.015694 842032.000000 0 0 1
-24.380526 25.980562 28.764366 45.790702 -0.817159 0.891597 0.059607 -0.019100 620170.000000 0 0 1
-22.951226 25.611662 29.326406 45.196837 -0.840127 0.864711 0.065474 -0.017059 390680.000000 0 0 1
-21.858026 26.295762 28.715646 44.652309 -0.877296 0.872264 0.084190 -0.029206 -306684.000000 0 0 1
-20.768626 26.247562 29.588426 44.673765 -0.901408 0.846882 0.105438 -0.039706 -75382.300000 0 0 1
-19.862326 24.993162 29.602556 43.537127 -0.899289 0.823118 0.097313 -0.023572 -385906.000000 0 0 1
-19.165526 24.764162 28.377046 42.259175 -0.912160 0.834565 0.096994 -0.029447 175395.000000 0 0 1
-19.964026 24.046762 27.457086 41.601691 -0.877900 0.849979 0.089458 -0.029471 -12484.500000 0 0 1
-19.784726 22.550462 27.499816 40.696420 -0.850635 0.828841 0.065544 -0.011391 158957.000000 0 0 1
-20.395826 21.981662 28.654056 41.475753 -0.822802 0.808115 0.062466 -0.011115 67883.700000 0 0 1
-20.461126 20.552662 28.626986 40.750140 -0.787630 0.791892 0.080661 -0.014721 204364.000000 0 0 1
-21.081226 20.095562 29.974496 41.793781 -0.761465 0.771020 0.096952 -0.019802 -41049.800000 0 0 1
-20.151826 20.302362 31.005566 42.185627 -0.789119 0.745160 0.083869 -0.025521 55784.800000 0 0 1
-20.591926 19.871162 32.292718 43.147539 -0.767587 0.725111 0.078123 -0.016741 415739.000000 0 0 1
-19.542726 20.414762 33.336346 43.703462 -0.807219 0.703187 0.087910 -0.020180 245523.000000 0 0 1
-19.614726 21.852362 33.485776 44.537180 -0.839308 0.719916 0.051423 -0.017250 -2243.810000 0 0 1
-18.901126 22.608162 32.498973 43.869862 -0.874468 0.736530 0.072091 -0.017429 442570.000000 0 0 1
-17.410826 22.761762 32.939421 43.660510 -0.917817 0.715989 0.073055 -0.018822 724524.000000 0 0 1
-16.603726 21.557962 32.899917 42.694660 -0.914498 0.691036 0.094778 -0.036247 293557.000000 0 0 1
-15.246626 21.823362 33.205564 42.559702 -0.960985 0.675793 0.072683 -0.036792 -249356.000000 0 0 1
-14.346426 20.551862 33.203416 41.601272 -0.961374 0.646604 0.068695 -0.035020 1385630.000000 0 0 1
-12.963726 20.673662 33.649980 41.566569 -1.010714 0.627421 0.061068 -0.030869 1406240.000000 0 0 1
-12.770626 21.062462 -32.870823 41.075627 -1.025742 2.498510 0.069066 -0.036176 -1298760.000000 0 0 1
-11.346226 20.860962 -32.420383 40.187035 -1.072650 2.509406 0.062836 -0.025347 -1013690.000000 0 0 1
-10.441026 21.860662 -32.712943 40.706758 -1.125215 2.504157 0.072512 -0.033606 -782437.000000 0 0 1
-9.212026 21.591962 -32.094883 39.763749 -1.167536 2.510087 0.071111 -0.030293 -196624.000000 0 0 1
-8.290826 22.838462 -31.992173 40.172531 -1.222570 2.492065 0.082833 -0.026221 97341.200000 0 0 1
-8.538426 23.813762 -30.965433 39.985722 -1.226525 2.456582 0.086644 -0.025349 21360.300000 0 0 1
-8.080926 23.365762 -29.649633 38.605193 -1.237828 2.446543 0.079102 -0.030143 368609.000000 0 0 1
-7.382026 24.544962 -28.866853 38.603687 -1.278647 2.415500 0.092935 -0.029756 104227.000000 0 0 1
-6.255426 25.052962 -29.512143 39.214128 -1.326111 2.422782 0.098074 -0.026261 -234470.000000 0 0 1
-5.638526 26.188362 -28.878823 39.390477 -1.358727 2.393727 0.125583 -0.027794 -36248.200000 0 0 1
-4.271526 26.611062 -29.441653 39.914978 -1.411637 2.400319 0.086417 -0.026541 -422265.000000 0 0 1
-3.275826 25.818562 -28.774623 38.798300 -1.444592 2.406318 0.103466 -0.030778 965594.000000 0 0 1
-1.935426 25.993862 -29.267623 39.192097 -1.496476 2.413994 0.124578 -0.030077 1052920.000000 0 0 1
-1.191026 27.337462 -29.069053 39.921989 -1.527256 2.386410 0.130116 -0.040980 -661098.000000 0 0 1
-0.699126 27.421562 -27.744863 39.015487 -1.545306 2.361892 0.135309 -0.054908 181846.000000 0 0 1
0.096774 28.584362 -27.597303 39.732685 1.567411 2.338624 0.146192 -0.052313 -815040.000000 0 0 1
0.726174 28.832462 -26.170803 38.945463 1.545616 2.307683 0.140741 -0.067697 72938.300000 0 0 1
1.799674 28.099162 -25.633493 38.077259 1.506836 2.309320 0.174010 -0.078553 112504.000000 0 0 1
2.934074 28.172262 -26.467303 38.766006 1.467023 2.322309 0.166871 -0.078868 496302.000000 0 0 1
4.356874 28.109162 -25.724063 38.351463 1.417022 2.306009 0.165621 -0.080181 1220930.000000 0 0 1
4.673974 26.887962 -25.260743 37.187547 1.398685 2.317577 0.159745 -0.068445 122072.000000 0 0 1
5.922874 27.054062 -24.598603 37.041787 1.355269 2.297055 0.121365 -0.062521 252008.000000 0 0 1
6.602174 25.720162 -24.113603 35.868946 1.319529 2.308067 0.120448 -0.060858 -103063.000000 0 0 1
7.774574 26.054262 -23.422803 35.887272 1.280809 2.281909 0.115883 -0.059282 -529112.000000 0 0 1
8.501074 24.881162 -23.024003 34.949180 1.241564 2.289999 0.099399 -0.034758 66056.700000 0 0 1
9.932174 25.126362 -22.542403 35.187243 1.194358 2.266130 0.080833 -0.015410 -514860.000000 0 0 1
9.974874 25.668862 -21.258203 34.789363 1.200158 2.228189 0.094559 -0.021471 1395140.000000 0 0 1
11.293374 26.131862 -20.806403 35.260756 1.162869 2.201945 0.115579 -0.026237 1754040.000000 0 0 1
12.206474 25.046562 -20.136903 34.377655 1.117319 2.196608 0.074223 -0.004574 293889.000000 0 0 1
12.699274 24.160662 -21.170303 34.542595 1.086865 2.230491 0.070240 -0.009240 -94086.300000 0 0 1
12.937774 22.836262 -20.639203 33.389483 1.055339 2.237164 0.038721 0.001055 43620.600000 0 0 1
13.012174 21.779962 -21.776403 33.434939 1.032263 2.280102 0.037437 -0.002888 1041460.000000 0 0 1
11.729674 21.575862 -22.418703 33.252087 1.072843 2.310683 0.055893 -0.015820 939264.000000 0 0 1
11.882274 20.988962 -23.710903 33.822062 1.055661 2.347663 0.063238 -0.024731 357570.000000 0 0 1
10.828274 21.535062 -24.760403 34.555578 1.104895 2.369624 0.077441 -0.028264 181606.000000 0 0 1
9.595674 20.883262 -24.581803 33.651933 1.140078 2.389809 0.070554 -0.028540 -537086.000000 0 0 1
9.075874 20.502862 -25.831863 34.205613 1.154060 2.426746 0.066401 -0.027370 -299365.000000 0 0 1
7.575774 20.120762 -25.802313 33.585663 1.210698 2.446905 0.082788 -0.036320 484184.000000 0 0 1
6.600374 21.127862 -25.540483 33.797452 1.268001 2.427507 0.113873 -0.043557 253841.000000 0 0 1
6.572574 21.549862 -24.180603 33.049914 1.274764 2.391519 0.123359 -0.040869 -820329.000000 0 0 1
5.147874 21.745962 -23.642003 32.532011 1.338348 2.384346 0.153059 -0.047726 -41719.900000 0 0 1
4.437574 22.774062 -24.297003 33.596046 1.378356 2.379236 0.147855 -0.052352 364166.000000 0 0 1
3.168274 23.051862 -23.678503 33.197858 1.434211 2.364926 0.178031 -0.050617 532740.000000 0 0 1
2.517774 24.213162 -24.438203 34.494089 1.467185 2.358131 0.161287 -0.047777 527574.000000 0 0 1
1.093474 24.107762 -24.285703 34.237045 1.525470 2.359358 0.170563 -0.068541 649357.000000 0 0 1
0.475974 24.916362 -25.298513 35.511497 1.551696 2.363713 0.158818 -0.054374 1234910.000000 0 0 1
-1.073326 24.791362 -25.564193 35.627119 -1.527529 2.371073 0.165786 -0.051652 1119430.000000 0 0 1
-1.393326 23.502062 -25.989373 35.067589 -1.511580 2.405537 0.180691 -0.052659 2155280.000000 0 0 1
-2.786626 23.548162 -26.546173 35.594670 -1.453007 2.412517 0.170926 -0.041064 2658350.000000 0 0 1
-3.176426 22.100562 -27.125683 35.132993 -1.428048 2.452913 0.149474 -0.037726 -355329.000000 0 0 1
-2.437226 21.652662 -28.256153 35.681760 -1.458708 2.484700 0.173510 -0.046467 197968.000000 0 0 1
-3.033026 20.416762 -28.736953 35.381575 -1.423319 2.518712 0.141305 -0.037316 1318950.000000 0 0 1
-4.336626 20.655062 -29.642313 36.388248 -1.363848 2.522857 0.109199 -0.033836 918045.000000 0 0 1
-4.157826 21.230362 -30.980853 37.786625 -1.377401 2.532014 0.117802 -0.032850 -236189.000000 0 0 1
-3.416826 22.411362 -31.116033 38.498719 -1.419502 2.511946 0.131109 -0.032841 -211285.000000 0 0 1
-2.831826 22.508262 -32.518613 39.649732 -1.445641 2.532464 0.098266 -0.027096 -472768.000000 0 0 1
-1.816226 21.585162 -32.808483 39.314303 -1.486852 2.558053 0.095726 -0.024620 -182827.000000 0 0 1
-1.486426 21.862962 33.651398 40.157380 -1.502912 0.577211 0.092284 -0.011950 -116550.000000 0 0 1
-0.402126 20.935862 33.087712 39.156975 -1.551591 0.564228 0.097312 -0.011082 -77249.000000 0 0 1
-0.763826 19.545762 33.035929 38.392615 -1.531737 0.534593 0.083218 0.009432 576967.000000 0 0 1
0.287174 18.828162 32.371396 37.449826 1.555545 0.526853 0.087589 -0.006297 897671.000000 0 0 1
-0.282226 17.426062 31.852899 36.309151 -1.554602 0.500653 0.064457 0.000089 564312.000000 0 0 1
-1.135126 17.431562 30.708326 35.329155 -1.505769 0.517201 0.049177 0.000849 359124.000000 0 0 1
-1.773226 16.168362 30.614836 34.667398 -1.461560 0.488364 0.041659 0.005485 -45446.300000 0 0 1
-2.866026 15.973762 29.534536 33.699614 -1.393264 0.502449 0.047571 0.003491 194146.000000 0 0 1
-4.120426 16.574762 29.758936 34.311732 -1.327139 0.521022 0.041250 -0.001967 -85450.700000 0 0 1
-4.159126 17.906162 29.205696 34.509443 -1.342570 0.561776 0.036757 -0.001507 -805494.000000 0 0 1
-5.523926 18.561862 29.301356 35.123012 -1.281547 0.584026 0.037839 -0.008650 -572448.000000 0 0 1
-6.345526 18.150862 28.231726 34.157720 -1.234479 0.597915 0.027780 -0.009235 -609030.000000 0 0 1
-7.650026 18.593262 28.525966 34.899327 -1.180466 0.613950 0.037481 -0.012055 -740784.000000 0 0 1
-8.759026 17.968662 27.694586 34.155284 -1.117230 0.625205 0.041004 -0.022118 -418044.000000 0 0 1
-9.126826 16.600062 27.967186 33.779054 -1.068102 0.595364 0.046489 -0.033262 -134930.000000 0 0 1
-9.866226 16.426662 29.134836 34.871425 -1.029919 0.581767 0.049988 -0.029355 -356493.000000 0 0 1
-10.614926 15.020062 29.253486 34.554962 -0.955577 0.561273 0.044548 -0.032012 126017.000000 0 0 1
-9.783226 13.904862 29.375686 33.940943 -0.957670 0.524660 0.053419 -0.021561 6944.410000 0 0 1
-8.997426 13.811362 30.617436 34.772616 -0.993402 0.493871 0.051036 -0.025405 205972.000000 0 0 1
-9.630926 13.554862 32.023344 36.083010 -0.953048 0.478925 0.106641 -0.031151 -533856.000000 0 0 1
-9.942526 12.197262 32.070246 35.722930 -0.886889 0.456162 0.110883 -0.019049 221587.000000 0 0 1
-10.384926 11.863662 33.361109 36.899279 -0.851765 0.441498 0.096761 -0.013384 -350963.000000 0 0 1
-10.821426 10.402462 33.592836 36.793928 -0.765661 0.420219 0.088726 -0.018321 -591238.000000 0 0 1
-9.788126 9.453962 33.637968 36.286330 -0.768034 0.384423 0.085372 -0.018976 -102973.000000 0 0 1
-9.861726 8.693862 -33.031013 35.551156 -0.722542 2.762801 0.121486 -0.042123 49005.800000 0 0 1
-8.936826 9.239062 -31.904393 34.396474 -0.802025 2.758594 0.103724 -0.042728 37248.400000 0 0 1
-9.389126 10.550962 -31.515673 34.535722 -0.843599 2.720280 0.106280 -0.038022 630561.000000 0 0 1
-8.503626 11.073962 -30.508153 33.551329 -0.915941 2.712390 0.100728 -0.039812 494229.000000 0 0 1
-7.517926 12.091962 -31.108873 34.212523 -1.014553 2.712355 0.074715 -0.038846 -23234.000000 0 0 1
-8.210526 13.288062 -31.404083 35.074232 -1.017328 2.680036 0.080934 -0.028511 269543.000000 0 0 1
-7.341626 14.194762 -32.065073 35.826800 -1.093478 2.679233 0.054812 -0.023849 -57528.900000 0 0 1
-7.760426 15.639662 -32.233793 36.658432 -1.110192 2.645189 0.052472 -0.017626 526563.000000 0 0 1
-8.789126 15.870062 -33.233383 37.862453 -1.065027 2.641921 0.056394 -0.017705 721603.000000 0 0 1
-9.108426 17.235462 -33.262093 38.553747 -1.084633 2.611472 0.071638 -0.022569 -433785.000000 0 0 1
-9.583926 17.652362 33.168187 38.776103 -1.073400 0.544518 0.043423 -0.022293 1204570.000000 0 0 1
-10.791226 17.172962 32.549377 38.351312 -1.009767 0.557243 0.046480 -0.027948 1232770.000000 0 0 1
-12.064926 17.436262 33.135722 39.339061 -0.965497 0.569240 0.069135 -0.034689 -26361.300000 0 0 1
-13.246426 17.212462 32.201323 38.841497 -0.914879 0.593400 0.080009 -0.037868 -485390.000000 0 0 1
-13.515926 15.897462 31.669786 37.926045 -0.866190 0.582590 0.076644 -0.028190 481215.000000 0 0 1
-14.222226 15.014962 32.535082 38.551944 -0.812505 0.566232 0.080971 -0.022656 -35842.600000 0 0 1
-13.658226 13.610062 32.299312 37.616838 -0.783632 0.538186 0.067287 -0.013504 -126765.000000 0 0 1
-14.009826 13.069462 31.065946 36.499028 -0.750686 0.552635 0.060196 -0.021332 342938.000000 0 0 1
-13.127626 12.012662 30.633376 35.426577 -0.741078 0.526243 0.063110 -0.018289 16061.900000 0 0 1
-13.457226 11.278662 29.349236 34.200626 -0.697552 0.539143 0.069483 -0.019999 -588128.000000 0 0 1
-14.489426 10.319862 29.302346 34.279301 -0.618890 0.545609 0.058922 -0.017095 41002.400000 0 0 1
-14.620026 9.738562 28.005956 33.059315 -0.587618 0.560212 0.049090 -0.010801 151858.000000 0 0 1
-15.502626 8.463462 28.044206 33.142708 -0.499719 0.562048 0.058340 -0.013088 192329.000000 0 0 1
-14.962426 7.400762 28.804156 33.291514 -0.459337 0.525227 0.034820 -0.012937 -88932.000000 0 0 1
-15.610926 6.224062 28.460816 33.052353 -0.379384 0.533401 0.038273 -0.007824 -161792.000000 0 0 1
-14.695226 4.992562 28.487326 32.440763 -0.327506 0.498849 0.033279 -0.006182 436953.000000 0 0 1
-13.707426 4.698262 27.490436 31.075574 -0.330204 0.485093 0.035560 -0.007735 531807.000000 0 0 1
-14.291126 4.433262 26.215276 30.184943 -0.300798 0.518651 0.037098 -0.006548 -741674.000000 0 0 1
-13.380826 4.197362 25.041686 28.701052 -0.303964 0.510499 0.028917 -0.005643 -775955.000000 0 0 1
-12.745226 2.929162 25.157496 28.353490 -0.225901 0.479381 0.030271 -0.003187 239311.000000 0 0 1
-11.752926 2.850262 24.157316 27.015388 -0.237922 0.464142 0.027135 -0.001667 144118.000000 0 0 1
-10.748426 1.663362 24.254226 26.581251 -0.153536 0.421549 0.031533 0.000373 465702.000000 0 0 1
-9.365826 1.945262 24.247606 26.066245 -0.204786 0.375757 0.037542 -0.011486 246442.000000 0 0 1
-8.528426 0.811362 24.444266 25.902017 -0.094851 0.337092 0.037833 -0.010155 549110.000000 0 0 1
-7.040526 1.242962 24.309876 25.339377 -0.174743 0.286030 0.057800 -0.015275 -104478.000000 0 0 1
-6.636726 1.444562 22.960756 23.944294 -0.214319 0.287612 0.054965 -0.015371 260956.000000 0 1 0
-5.283626 1.704462 22.609916 23.281542 -0.312054 0.240781 0.057308 -0.018503 245554.000000 0 1 0
-4.784426 3.097662 23.037536 23.732137 -0.574578 0.242538 0.077765 -0.021590 -472928.000000 0 1 0
-4.430626 3.115762 24.419256 25.012767 -0.612892 0.218278 0.078587 -0.026956 52884.700000 0 0 1
-4.460626 4.438362 24.970906 25.751551 -0.782896 0.246856 0.074526 -0.026924 139381.000000 0 0 1
4.916374 -23.556538 13.496397 27.590469 -1.365044 1.059660 0.135142 -0.034509 350558.000000 0 0 1
4.213374 -24.773138 13.294797 28.429079 -1.402330 1.084169 0.154353 -0.049182 27978.600000 0 0 1
2.813074 -24.614738 13.129797 28.039085 -1.457006 1.083467 0.150478 -0.047470 281759.000000 0 0 1
2.001774 -25.745378 13.756497 29.258722 -1.493200 1.081316 0.128719 -0.050602 -276828.000000 0 0 1
1.868774 -25.660108 15.193797 29.879507 -1.498097 1.037352 0.153299 -0.048016 -83536.700000 0 0 1
1.952874 -26.910478 15.774897 31.254359 -1.498354 1.041731 0.148378 -0.045638 -176791.000000 0 0 1
2.005474 -27.096478 17.343897 32.234327 -1.496919 1.002666 0.127276 -0.034446 1056190.000000 0 0 1
3.026174 -26.266208 18.011697 31.992072 -1.456090 0.972779 0.146877 -0.043091 1136430.000000 0 0 1
3.429574 -26.824738 19.256997 33.198803 -1.443635 0.952005 0.124490 -0.039471 26992.900000 0 0 1
4.175574 -25.925578 20.239997 33.154615 -1.411108 0.914139 0.111808 -0.035057 235726.000000 0 0 1
3.324874 -25.002398 20.925697 32.772847 -1.438590 0.878239 0.117569 -0.027244 1011500.000000 0 0 1
4.111474 -24.283638 21.899497 32.957355 -1.403076 0.843999 0.096909 -0.028824 988901.000000 0 0 1
3.173674 -23.129338 22.435197 32.378644 -1.434434 0.805292 0.110827 -0.034148 371237.000000 0 0 1
2.835774 -22.019838 21.594697 30.971694 -1.442719 0.799257 0.133780 -0.036552 -420768.000000 0 0 1
3.871774 -21.283938 21.035097 30.174028 -1.390853 0.799415 0.125439 -0.022727 -721597.000000 0 0 1
3.397974 -20.264038 20.029297 28.694080 -1.404657 0.798155 0.096976 -0.012751 -221081.000000 0 0 1
2.657074 -19.259338 20.630197 28.347613 -1.433699 0.755749 0.057804 -0.010741 -95894.800000 0 0 1
2.111774 -18.335438 19.708397 27.001274 -1.456127 0.752612 0.034328 -0.017321 79550.900000 0 0 1
1.436274 -17.095838 20.329997 26.601491 -1.486980 0.700930 0.055833 -0.021406 101291.000000 0 0 1
2.333774 -16.143838 20.914797 26.523551 -1.427230 0.662370 0.023783 0.004744 -49300.600000 0 0 1
1.736874 -14.965738 21.295297 26.086006 -1.455257 0.615734 0.031191 0.001402 152891.000000 0 0 1
2.782974 -13.804738 21.237797 25.482539 -1.371867 0.585519 0.001314 0.026886 -47488.300000 0 0 1
3.277874 -13.421738 19.975997 24.288433 -1.331264 0.605093 -0.013851 0.024739 456892.000000 0 1 0
2.342574 -12.867138 18.989497 23.057578 -1.390710 0.603122 -0.003741 0.015558 1001270.000000 0 1 0
1.459874 -11.634438 19.362197 22.635946 -1.445970 0.544524 -0.001390 0.005167 150943.000000 0 1 0
2.209774 -10.447938 19.304797 22.061680 -1.362365 0.505283 0.005762 0.016957 -217218.000000 0 1 0
1.807274 -9.536138 20.313097 22.512798 -1.383499 0.445742 0.011893 0.000962 -368694.000000 0 1 0
0.506474 -8.809638 19.978097 21.840115 -1.513369 0.415924 0.029696 -0.022630 -370096.000000 0 1 0
-0.048026 -8.336138 21.141997 22.726142 1.565035 0.375582 0.043911 -0.023909 -1260510.000000 0 1 0
-1.350326 -7.935538 20.914897 22.410468 1.402249 0.367399 0.042993 -0.031679 -624073.000000 0 1 0
-2.003726 -7.035838 22.027497 23.210527 1.293353 0.320651 0.043837 -0.035524 135120.000000 0 1 0
-2.104826 -7.812338 23.222397 24.591516 1.307622 0.335258 0.037534 -0.022743 33876.000000 0 1 0
-2.346826 -7.022938 24.389597 25.488854 1.248297 0.294756 0.033319 -0.016519 21693.200000 0 0 1
-2.547726 -7.932738 25.662097 26.980780 1.260036 0.313937 0.024711 -0.018399 820487.000000 0 0 1
-1.321326 -8.647538 25.832897 27.273877 1.419171 0.326514 0.023388 -0.020615 819068.000000 0 0 1
-1.661126 -9.680838 26.712697 28.461310 1.400862 0.352357 0.030540 -0.027215 371738.000000 0 0 1
-0.410226 -10.548438 26.911197 28.907618 1.531926 0.373823 0.033042 -0.028650 171335.000000 0 0 1
0.772474 -9.960138 27.402597 29.166820 -1.493395 0.349592 0.036399 -0.025181 -360734.000000 0 0 1
1.690374 -10.980638 27.610497 29.761911 -1.418054 0.382559 0.051503 -0.034261 200210.000000 0 0 1
2.873074 -10.652638 28.579897 30.635662 -1.307359 0.368423 0.086586 -0.040106 831387.000000 0 0 1
2.316974 -10.466338 29.886297 31.750643 -1.352936 0.344390 0.080223 -0.051895 384607.000000 0 0 1
3.388474 -10.157738 30.766097 32.576282 -1.248819 0.334933 0.125289 -0.040093 21303.600000 0 0 1
2.909174 -9.553138 32.064397 33.583498 -1.275193 0.301923 0.124649 -0.050904 -305828.000000 0 0 1
2.126374 -10.423438 32.846297 34.526059 -1.369558 0.313215 0.123880 -0.051445 -192213.000000 0 0 1
2.020874 -10.157238 -33.619222 35.178196 -1.374402 2.842769 0.109732 -0.060237 421563.000000 0 0 1
3.261174 -10.505638 -32.709422 34.509564 -1.269806 2.817175 0.101576 -0.038193 850393.000000 0 0 1
4.446974 -9.731438 -32.894122 34.590457 -1.142161 2.827119 0.083682 -0.044873 391159.000000 0 0 1
4.809074 -8.986338 -31.775422 33.370030 -1.079423 2.831202 0.106445 -0.044687 -709515.000000 0 0 1
3.815974 -7.904538 -31.291522 32.499273 -1.121038 2.868115 0.096833 -0.027502 -126734.000000 0 0 1
3.741174 -6.829238 -32.155422 33.084831 -1.069630 2.904004 0.136952 -0.037840 278776.000000 0 0 1
2.912274 -5.763738 -31.662822 32.314645 -1.102937 2.940400 0.109334 -0.017085 384443.000000 0 0 1
2.954674 -4.504938 -32.537222 32.980227 -0.990302 2.977503 0.113039 -0.020979 88914.700000 0 0 1
2.171174 -4.588738 -33.708522 34.088634 -1.128856 2.992117 0.106727 -0.032456 -58629.800000 0 0 1
2.554274 -3.556638 33.218397 33.505759 -0.947979 0.131063 0.121999 -0.024402 148970.000000 0 0 1
1.776474 -3.576138 31.893997 32.142988 -1.109746 0.124550 0.129361 -0.022628 650126.000000 0 0 1
0.427574 -3.118238 32.036397 32.190635 -1.434526 0.097931 0.124208 -0.029187 182543.000000 0 0 1
-0.223426 -3.267938 30.792497 30.966227 1.502534 0.105977 0.117211 -0.030077 440473.000000 0 0 1
-1.774126 -3.351738 30.883697 31.115662 1.083973 0.122182 0.094030 -0.026307 119313.000000 0 0 1
-2.472426 -2.203838 30.528997 30.708133 0.728025 0.108067 0.083835 -0.025577 -90199.200000 0 0 1
-3.820426 -2.634038 30.366097 30.718621 0.603618 0.151644 0.068137 -0.024248 282118.000000 0 0 1
-4.742226 -1.519538 29.798597 30.211820 0.310090 0.165583 0.064215 -0.018591 -108971.000000 0 0 1
-4.842626 -1.494238 28.362797 28.812012 0.299291 0.176816 0.053117 -0.018648 -98988.100000 0 0 1
-5.931826 -0.782638 27.813597 28.449873 0.131181 0.211890 0.037961 -0.020887 160138.000000 0 0 1
-6.069626 0.754762 28.028697 28.688288 -0.123716 0.214850 0.076022 -0.022085 -81459.700000 0 0 1
-6.908726 0.969462 29.131097 29.954819 -0.139414 0.235056 0.069478 -0.022975 -446258.000000 0 0 1
-7.093626 2.356462 29.415697 30.350547 -0.320725 0.248842 0.089406 -0.029842 -162043.000000 0 0 1
-8.471626 2.713262 30.015697 31.306107 -0.309954 0.288116 0.068967 -0.024779 492349.000000 0 0 1
-9.463026 2.318862 29.041397 30.632152 -0.240309 0.323687 0.050831 -0.016023 181707.000000 0 0 1
-10.767526 2.756362 29.346797 31.381071 -0.250607 0.362043 0.035032 -0.008878 296039.000000 0 0 1
-11.858426 2.189362 28.372597 30.828880 -0.182569 0.401885 0.022300 -0.004958 58847.700000 0 0 1
-12.277526 0.913762 28.658097 31.190690 -0.074289 0.405759 0.020343 -0.003261 -75606.700000 0 0 1
-12.874726 0.301362 27.542097 30.404218 -0.023403 0.437380 0.022686 -0.002060 -831982.000000 0 0 1
-12.984926 -1.287038 27.639197 30.564522 0.098795 0.441082 0.022554 -0.009130 293685.000000 0 0 1
-11.774926 -1.985738 27.917097 30.363734 0.167069 0.404187 0.043653 -0.011881 290527.000000 0 0 1
-10.626426 -1.846838 27.126697 29.192284 0.172078 0.378440 0.018412 -0.011935 -409290.000000 0 0 1
-10.664726 -2.507238 25.729297 27.964609 0.230903 0.402546 0.028922 -0.006292 -444010.000000 0 0 1
-11.372826 -1.801438 24.710997 27.262056 0.157093 0.436056 0.011707 -0.010753 296947.000000 0 0 1
-11.224226 -2.370538 23.409597 26.069368 0.208140 0.455654 0.009981 -0.004894 127256.000000 0 0 1
-9.983326 -1.936338 22.546197 24.733524 0.191579 0.423724 0.030218 -0.012773 473313.000000 0 1 0
-8.779026 -2.405238 23.088497 24.818041 0.267414 0.375536 0.044738 -0.014701 -199544.000000 0 1 0
-7.689626 -2.235338 22.182297 23.583498 0.282899 0.346446 0.038035 -0.012468 779354.000000 0 1 0
-6.256126 -2.451238 22.760597 23.731676 0.373430 0.287058 0.047122 -0.012966 823364.000000 0 1 0
-5.631526 -3.735638 22.650097 23.636751 0.585699 0.289952 0.045591 -0.014583 327379.000000 0 1 0
-6.263226 -4.680338 23.491597 24.758609 0.641753 0.321301 0.044041 -0.013555 -192272.000000 0 1 0
-5.889726 -6.164838 23.147797 24.668089 0.808216 0.352912 0.049878 -0.014045 -99872.400000 0 1 0
-6.422626 -6.820338 21.980697 23.893894 0.815421 0.402896 0.041352 -0.022061 20593.200000 0 1 0
-6.153326 -6.126638 20.768597 22.510747 0.783225 0.396008 0.044788 -0.024875 -931411.000000 0 1 0
-7.300526 -6.085038 19.802797 21.965339 0.694841 0.447463 0.047937 -0.021569 -942043.000000 0 1 0
-8.187526 -5.064938 20.143797 22.326257 0.553996 0.445844 0.043060 -0.017727 -876134.000000 0 1 0
-9.326726 -5.003938 19.354697 22.059726 0.492432 0.500429 0.049495 -0.005688 -255946.000000 0 1 0
-9.991826 -3.617038 19.414297 22.132205 0.347325 0.500804 0.032305 -0.008465 329628.000000 0 1 0
-9.098726 -2.600238 18.936697 21.169472 0.278361 0.463421 0.032230 -0.009409 522494.000000 0 1 0
-9.725626 -1.369238 18.803597 21.214096 0.139867 0.481346 0.029350 -0.012086 -617615.000000 0 1 0
-8.664426 -0.408738 18.257397 20.213161 0.047139 0.443529 0.026276 -0.006451 -197755.000000 0 1 0
-7.710826 -0.097938 19.237297 20.725347 0.012701 0.381247 0.030772 0.003157 -51377.900000 0 1 0
-8.160326 0.805662 20.193897 21.795263 -0.098410 0.385722 0.052369 -0.003818 -547868.000000 0 1 0
-8.033226 2.321262 19.800097 21.493367 -0.281296 0.399594 0.049531 -0.018471 -220773.000000 0 1 0
-9.029126 2.717662 18.924897 21.143853 -0.292363 0.462243 0.040886 -0.022023 -78187.400000 0 1 0
-8.673026 4.057062 18.649197 20.963628 -0.437540 0.474332 0.034942 -0.017165 291595.000000 0 1 0
-9.593126 4.728862 17.600497 20.595332 -0.457986 0.546042 0.039624 -0.003299 61544.300000 0 1 0
-10.846826 5.096562 18.144097 21.744812 -0.439252 0.583734 0.040401 0.004968 -67801.300000 0 1 0
-11.612526 5.917562 17.295997 21.656865 -0.471286 0.645768 0.037339 0.025855 -164455.000000 0 1 0
-11.149726 7.427162 17.160297 21.770506 -0.587631 0.662859 0.028912 0.020920 -923137.000000 0 1 0
-9.990026 7.624262 16.433897 20.688232 -0.651888 0.652844 0.020568 0.001355 -385725.000000 0 1 0
-9.643626 9.005962 16.220197 20.909368 -0.751220 0.682912 -0.002764 -0.006808 247742.000000 0 1 0
-8.555726 9.655862 17.122497 21.438657 -0.845733 0.645708 0.008388 0.008548 68194.800000 0 1 0
-8.959126 10.087762 18.444197 22.852074 -0.844585 0.631551 0.046510 0.027594 -109267.000000 0 1 0
-8.524726 11.425162 18.780197 23.577555 -0.929773 0.649265 0.066316 0.021473 68941.400000 0 1 0
-9.219626 12.584462 18.039897 23.849697 -0.938512 0.713005 0.068736 0.010853 235774.000000 0 1 0
-8.769026 12.772062 16.687097 22.770169 -0.969135 0.748296 0.043907 -0.005016 57718.600000 0 1 0
-9.457326 13.912762 16.204497 23.357904 -0.973784 0.804116 0.047669 -0.013491 64986.900000 0 1 0
-9.005126 14.221262 14.778497 22.399566 -1.006311 0.850288 0.034607 -0.015081 303848.000000 0 1 0
-7.683226 14.703162 14.672397 22.147103 -1.089267 0.846648 0.039382 -0.012739 -182166.000000 0 1 0
-7.502026 15.203362 13.317097 21.558471 -1.112406 0.904956 0.038211 -0.026402 -655456.000000 0 1 0
-6.479026 16.288962 13.297597 22.003048 -1.192226 0.921843 0.017891 -0.019414 -305708.000000 0 1 0
-5.132026 15.866162 13.413397 21.400748 -1.257960 0.893392 0.020449 -0.025863 -178256.000000 0 1 0
-4.299726 17.008962 13.391297 22.070779 -1.323192 0.918839 0.021434 -0.027101 534941.000000 0 1 0
-2.774226 16.726562 13.540697 21.698495 -1.406435 0.896896 0.020026 -0.029217 597836.000000 0 1 0
-2.247126 16.390662 14.818397 22.210094 -1.434548 0.840364 0.033874 -0.020454 -150588.000000 0 1 0
-2.512526 15.087362 15.277697 21.618263 -1.405779 0.785969 0.030437 -0.012746 -286011.000000 0 1 0
-1.420626 14.563762 16.230597 21.853000 -1.473559 0.733677 0.034714 -0.004218 -414497.000000 0 1 0
-0.187226 14.328162 15.599397 21.181890 -1.557730 0.742989 0.023238 -0.014429 104955.000000 0 1 0
0.843174 13.832862 16.507997 21.553955 1.509917 0.698369 0.034369 -0.001999 822428.000000 0 1 0
1.644774 14.975462 17.151997 22.828945 1.461403 0.720726 0.037832 -0.009404 -759630.000000 0 1 0
0.913974 15.848462 17.956597 23.967655 1.513191 0.723941 0.033409 -0.016230 -578090.000000 0 1 0
1.749174 16.860062 18.409397 25.024532 1.467420 0.744165 0.054690 -0.017677 -651574.000000 0 0 1
0.883274 17.992162 18.944897 26.142058 1.521744 0.760211 0.066020 -0.025931 299984.000000 0 0 1
0.238274 18.809162 17.931197 25.987866 1.558129 0.809330 0.050186 -0.024151 -629351.000000 0 0 1
-0.887226 18.258062 17.363897 25.212079 -1.522241 0.811083 0.049286 -0.015101 -1762350.000000 0 0 1
-1.644726 19.305062 16.554497 25.484150 -1.485805 0.863738 0.043514 -0.012154 -515024.000000 0 0 1
-2.206226 20.290362 17.421097 26.833949 -1.462489 0.864240 0.045680 -0.016756 -50436.300000 0 0 1
-2.839526 21.224962 16.542197 27.059309 -1.437804 0.913055 0.071399 -0.025105 -97793.600000 0 0 1
-3.760826 22.214762 17.299997 28.406502 -1.403092 0.915978 0.065121 -0.024284 3126.910000 0 0 1
-4.891826 21.643662 17.908997 28.515088 -1.348515 0.891747 0.080895 -0.020344 155237.000000 0 0 1
-5.489626 22.537662 18.887097 29.913285 -1.331873 0.887446 0.090759 -0.013038 367454.000000 0 0 1
-6.676026 21.989062 19.721197 30.282235 -1.276034 0.861571 0.075961 -0.015307 557913.000000 0 0 1
-7.928626 22.170662 19.078897 30.305209 -1.227351 0.889812 0.060547 -0.012469 -371240.000000 0 0 1
-9.028926 21.795462 19.828797 30.817931 -1.178060 0.871842 0.022805 -0.014624 -671313.000000 0 0 1
-10.372226 22.330862 19.364697 31.324782 -1.135967 0.904357 0.032772 -0.017974 -460185.000000 0 0 1
-10.629826 23.666062 19.709497 32.581282 -1.148642 0.921114 0.049795 -0.013742 -324209.000000 0 0 1
-11.762526 24.064262 18.996097 32.837439 -1.116152 0.953921 0.025571 -0.018438 -378151.000000 0 0 1
-12.325926 25.427462 19.389797 34.270228 -1.119424 0.969404 0.030515 -0.018478 24924.000000 0 0 1
-13.085326 25.474562 20.596697 35.276097 -1.096279 0.947307 0.028634 -0.014334 95632.700000 0 0 1
-13.556226 26.785562 20.749997 36.493835 -1.102279 0.966007 0.038998 -0.021841 -505390.000000 0 0 1
-14.325126 26.943062 22.078197 37.664102 -1.082126 0.944452 0.067482 -0.037461 194179.000000 0 0 1
-15.592626 26.318362 21.879697 37.609936 -1.035938 0.949914 0.067325 -0.038211 380081.000000 0 0 1
-16.519026 26.611962 22.897397 38.799040 -1.015269 0.939547 0.052685 -0.025018 902299.000000 0 0 1
-17.944026 25.966562 22.879497 38.983609 -0.966107 0.943571 0.063865 -0.025250 699537.000000 0 0 1
-17.851926 24.566962 23.028997 38.112486 -0.942398 0.921988 0.079646 -0.025928 508715.000000 0 0 1
-19.174826 24.020162 23.041397 38.412864 -0.897105 0.927501 0.084721 -0.015725 638536.000000 0 0 1
28.513174 23.869562 23.313806 43.889528 0.696982 1.010788 0.119120 -0.037947 92253.000000 0 0 1
28.091174 23.045762 24.391656 43.762702 0.687052 0.979592 0.117838 -0.044438 124083.000000 0 0 1
27.592474 21.808562 24.006776 42.582665 0.668848 0.971855 0.118843 -0.028030 -210460.000000 0 0 1
27.188374 20.876362 25.214266 42.553371 0.654822 0.936597 0.133711 -0.027624 -290322.000000 0 0 1
25.924174 21.166262 25.729656 42.214792 0.684702 0.915374 0.127461 -0.029533 -225269.000000 0 0 1
25.817474 20.528362 26.990416 42.619693 0.671767 0.885006 0.134922 -0.031217 831630.000000 0 0 1
24.431874 20.885562 27.648626 42.397756 0.707302 0.860413 0.153448 -0.038962 615482.000000 0 0 1
24.440974 22.190262 28.180496 43.404024 0.737169 0.864185 0.151281 -0.049794 -372220.000000 0 0 1
23.285474 22.340362 28.943326 43.347678 0.764687 0.839679 0.185585 -0.055992 -525945.000000 0 0 1
23.113674 23.687262 29.661526 44.442485 0.797653 0.840066 0.173142 -0.061195 -481159.000000 0 0 1
22.968874 24.771262 28.759976 44.365762 0.823134 0.865516 0.130220 -0.054988 103217.000000 0 0 1
22.580274 25.980162 29.391606 45.262613 0.855298 0.864057 0.135936 -0.057251 66379.100000 0 0 1
21.107574 26.055262 29.883506 44.915814 0.889922 0.842870 0.134321 -0.050292 -697001.000000 0 0 1
20.163174 26.113462 28.833806 43.816149 0.913277 0.852552 0.124014 -0.053629 1193170.000000 0 0 1
18.837974 26.465762 29.319286 43.759872 0.952204 0.836582 0.114213 -0.048040 1763870.000000 0 0 1
17.975374 25.282162 29.978416 43.139393 0.952732 0.802488 0.106695 -0.040013 -10947.800000 0 0 1
18.254374 25.018762 31.320876 44.047224 0.940462 0.779770 0.114735 -0.042127 -12153.500000 0 0 1
17.219974 24.247262 31.876976 43.595858 0.953269 0.750728 0.092534 -0.034733 4966.460000 0 0 1
17.599374 23.729962 33.293753 44.512055 0.932659 0.725796 0.113106 -0.033186 -160786.000000 0 0 1
17.825374 24.840562 -33.705913 45.506989 0.948361 2.404872 0.098971 -0.036448 -37039.800000 0 0 1
17.752574 24.384562 -32.338953 44.221812 0.941508 2.391007 0.066218 -0.028168 -8681.900000 0 0 1
18.170974 25.439762 -31.276383 44.221917 0.950554 2.356411 0.049001 0.002262 89202.200000 0 0 1
17.338674 26.609962 -31.248453 44.555421 0.993307 2.348070 0.061342 -0.016182 49667.900000 0 0 1
17.880674 27.694362 -30.510573 44.917605 0.997490 2.317545 0.063667 -0.014058 -189378.000000 0 0 1
17.311074 28.023962 -29.144293 43.981877 1.017446 2.295139 0.074606 -0.006875 -253574.000000 0 0 1
17.677674 27.027362 -28.233173 42.896276 0.991568 2.289186 0.042790 0.003301 254070.000000 0 0 1
17.283474 27.521962 -26.968283 42.231092 1.010051 2.263459 0.044632 0.004107 146822.000000 0 0 1
17.972874 26.717162 -25.820913 41.274090 0.978622 2.246692 0.029264 0.008626 434564.000000 0 0 1
19.385674 26.734162 -25.726623 41.861425 0.943405 2.232632 0.034188 0.009081 -243982.000000 0 0 1
19.915274 26.202762 -24.536303 41.051590 0.920897 2.211418 0.026791 0.010713 1025090.000000 0 0 1
21.473474 26.318362 -24.410103 41.828452 0.886428 2.193922 0.025456 0.012720 835223.000000 0 0 1
22.061074 25.669462 -23.315203 41.100012 0.860854 2.173995 0.033492 0.005996 -1073680.000000 0 0 1
23.431574 25.917362 -23.378003 42.039022 0.835727 2.160485 0.045646 0.005810 -684177.000000 0 0 1
24.020374 25.994462 -21.985403 41.665914 0.824848 2.126639 0.058788 -0.002951 -6290.140000 0 0 1
23.912974 24.748262 -21.304103 40.474333 0.802562 2.125111 0.081103 -0.009617 -29236.900000 0 0 1
24.525574 25.021562 -20.082803 40.384419 0.795408 2.091270 0.090974 -0.014470 -49647.500000 0 0 1
24.141174 23.991362 -19.024803 38.991343 0.782286 2.080506 0.098783 -0.019712 -899793.000000 0 0 1
24.524574 22.686762 -19.233803 38.549748 0.746490 2.093165 0.092769 -0.015212 -4404.920000 0 0 1
24.098474 21.893862 -18.117703 37.260285 0.737500 2.078586 0.091283 -0.015754 -852240.000000 0 0 1
24.261774 20.368862 -18.363503 36.616150 0.698393 2.096144 0.113926 -0.024125 571819.000000 0 0 1
23.434374 19.751862 -19.374903 36.258693 0.700333 2.134537 0.108289 -0.030168 349657.000000 0 0 1
22.045374 19.938762 -19.183103 35.377170 0.735264 2.143903 0.108038 -0.041976 -503776.000000 0 0 1
21.202074 19.587762 -20.474003 35.389167 0.745842 2.187732 0.083300 -0.018587 234942.000000 0 0 1
21.295874 20.404162 -21.609603 36.562536 0.764017 2.203133 0.078273 -0.012312 -138982.000000 0 0 1
21.173874 21.779562 -21.474803 37.200127 0.799498 2.186187 0.073922 -0.016189 -49160.000000 0 0 1
20.901774 22.430262 -22.810203 38.213953 0.820657 2.210438 0.048969 -0.003252 797328.000000 0 0 1
19.541974 22.208162 -23.199503 37.593991 0.849172 2.235857 0.054500 -0.005022 135393.000000 0 0 1
19.271374 22.692062 -24.487803 38.548256 0.866734 2.259129 0.047675 -0.001235 536969.000000 0 0 1
17.759774 22.778962 -24.869503 38.115389 0.908583 2.281648 0.045349 -0.010105 484522.000000 0 0 1
17.087274 23.619662 -23.959603 37.734943 0.944515 2.258733 0.040950 -0.004847 -661.616000 0 0 1
15.703074 23.678762 -24.266903 37.365129 0.985218 2.277661 0.042828 -0.009103 434463.000000 0 0 1
14.916374 24.856762 -23.625203 37.396618 1.030308 2.254601 0.035672 -0.008045 298054.000000 0 0 1
15.163274 26.111962 -24.162303 38.672682 1.044687 2.245659 0.027630 -0.008891 580869.000000 0 0 1
14.049974 26.891262 -23.690603 38.493979 1.089332 2.233736 0.055070 -0.013087 899723.000000 0 0 1
13.985474 28.274562 -24.330203 39.837208 1.111453 2.227792 0.055581 -0.011130 47814.700000 0 0 1
13.739374 28.336962 -25.684303 40.637879 1.119336 2.254965 0.055686 -0.022422 -199965.000000 0 0 1
13.446474 29.653462 -26.191683 41.786837 1.145074 2.248226 0.089510 -0.029818 5895.220000 0 0 1
14.499074 30.793762 -26.069173 42.872843 1.130744 2.224408 0.091661 -0.026596 -31909.900000 0 0 1
15.578274 30.650962 -26.966713 43.696312 1.100573 2.235898 0.070626 -0.011605 634785.000000 0 0 1
16.531474 31.753162 -26.712813 44.666848 1.090786 2.211857 0.071794 -0.017126 -18339.400000 0 0 1
17.854074 31.611762 -27.410603 45.490797 1.056667 2.217492 0.061090 -0.001147 -961135.000000 0 0 1
18.802274 30.959562 -26.615933 44.949170 1.025014 2.204501 0.033875 0.006782 -1526850.000000 0 0 1
20.028274 30.901762 -27.208843 45.786153 0.995739 2.207141 0.025199 0.009672 -1699920.000000 0 0 1
21.060274 30.216462 -26.319503 45.269040 0.962100 2.191247 0.021492 0.014815 -650384.000000 0 0 1
21.413774 30.907462 -25.126313 45.223363 0.964895 2.159886 0.033410 0.006076 180013.000000 0 0 1
22.045974 32.208862 -25.187683 46.452719 0.970570 2.143876 0.026650 -0.000808 465902.000000 0 0 1
23.597774 32.173662 -25.417123 47.307818 0.937972 2.137995 0.014557 0.011009 380815.000000 0 0 1
23.797074 31.536662 -26.698503 47.683035 0.924368 2.165081 0.010152 0.017484 -2715.990000 0 0 1
24.892874 32.026962 -27.451163 48.979055 0.910084 2.165746 0.003603 0.026315 -504765.000000 0 0 1
25.117774 31.408462 -28.903693 49.525928 0.896230 2.193960 0.009241 0.022881 -131362.000000 0 0 1
24.177674 31.596362 -29.939583 49.792255 0.917635 2.215911 0.021044 0.008576 -155963.000000 0 0 1
22.984674 30.845962 -29.861393 48.697756 0.930410 2.230900 0.007764 0.005692 209982.000000 0 0 1
21.853674 31.421162 -30.763983 49.104940 0.963091 2.247844 0.018598 0.011178 -344978.000000 0 0 1
21.530874 32.795962 -30.404663 49.634637 0.989858 2.230104 0.039973 0.003110 212932.000000 0 0 1
20.552374 33.482562 -31.163933 50.146513 1.020275 2.241398 0.054464 -0.004250 442000.000000 0 0 1
19.055974 33.160662 -30.838593 49.130219 1.049221 2.249380 0.053144 -0.009451 92825.200000 0 0 1
18.536474 31.890562 -31.084103 48.237229 1.044276 2.271036 0.077020 -0.015986 -104875.000000 0 0 1
18.567474 31.393262 -32.393363 48.781328 1.036689 2.297022 0.091429 -0.019430 -861085.000000 0 0 1
17.856274 32.074962 -33.538963 49.724358 1.062820 2.311080 0.111144 -0.030600 -565514.000000 0 0 1
18.323374 33.424862 -33.696923 50.876812 1.069339 2.294712 0.095981 -0.027479 113373.000000 0 0 1
18.062874 -33.788292 32.858168 50.473511 -1.079861 0.861898 0.090491 -0.029377 1030380.000000 0 0 1
16.577874 -33.366492 32.499299 49.440400 -1.109678 0.853509 0.103188 -0.033164 331829.000000 0 0 1
15.669774 33.338162 32.335115 49.015656 1.131415 0.850391 0.120180 -0.035605 -671674.000000 0 0 1
14.337874 33.701862 32.549212 48.998381 1.168559 0.844251 0.104423 -0.034944 288978.000000 0 0 1
13.633374 -33.507692 31.217486 47.782484 -1.184379 0.858828 0.107670 -0.043823 -274113.000000 0 0 1
14.366574 -32.403492 30.735136 46.915172 -1.153474 0.856453 0.099345 -0.036226 529655.000000 0 0 1
13.619074 -31.734592 29.688106 45.540610 -1.165411 0.860704 0.087251 -0.037497 240135.000000 0 0 1
14.130574 -30.296392 29.344946 44.482248 -1.134379 0.850377 0.085478 -0.037912 -183215.000000 0 0 1
13.983974 -29.362292 30.381496 44.505405 -1.126324 0.819417 0.081108 -0.037774 401743.000000 0 0 1
14.332274 -28.035692 29.944936 43.452426 -1.098217 0.810491 0.102813 -0.048079 -766432.000000 0 0 1
13.924974 -26.968792 30.950976 43.349551 -1.094165 0.775621 0.097464 -0.040429 340351.000000 0 0 1
12.509874 -26.856492 30.813906 42.746519 -1.134877 0.765766 0.076761 -0.037614 677451.000000 0 0 1
11.930874 -25.988192 29.815426 41.312123 -1.140410 0.764525 0.066199 -0.042872 -407355.000000 0 0 1
12.101074 -24.464192 30.045966 40.591782 -1.111442 0.737431 0.061011 -0.033030 -210578.000000 0 0 1
11.349174 -23.984792 31.140336 40.912034 -1.128832 0.705707 0.070464 -0.032017 96192.100000 0 0 1
11.954074 -22.840892 31.684356 40.847334 -1.088634 0.683009 0.070189 -0.028559 353378.000000 0 0 1
11.061974 -22.093392 32.755343 41.029230 -1.106596 0.646260 0.059559 -0.021257 -20495.100000 0 0 1
10.889774 -22.763692 -33.804903 42.184645 -1.124591 2.500354 0.063613 -0.022506 830545.000000 0 0 1
12.139174 -23.163792 -33.217483 42.276731 -1.088088 2.474648 0.078817 -0.016168 667660.000000 0 0 1
12.920874 -22.058992 -32.515153 41.361616 -1.040927 2.475301 0.075413 -0.016818 -274455.000000 0 0 1
13.385774 -21.032492 -33.372833 41.656820 -1.004018 2.499989 0.061759 -0.017287 294717.000000 0 0 1
14.203574 -20.051592 -32.712693 40.913667 -0.954487 2.497349 0.063828 -0.018117 163524.000000 0 0 1
14.380174 -18.803192 -33.542723 41.054399 -0.917907 2.527039 0.050540 -0.016890 -917018.000000 0 0 1
15.057274 -19.108592 33.125890 41.099689 -0.903425 0.633452 0.080388 -0.006042 -98986.300000 0 0 1
14.889474 -18.213992 32.025961 39.737994 -0.885491 0.633555 0.053180 -0.002369 -86510.100000 0 0 1
15.759574 -16.924492 31.860251 39.368493 -0.821025 0.627866 0.067904 -0.006264 -329998.000000 0 0 1
15.448174 -15.950192 32.787152 39.598637 -0.801385 0.595288 0.049572 -0.004620 62052.100000 0 0 1
16.180374 -14.739192 32.762268 39.400691 -0.738821 0.588967 0.066984 -0.017767 796920.000000 0 0 1
17.605074 -14.750492 33.450019 40.576094 -0.697401 0.601695 0.072791 -0.009870 1373620.000000 0 0 1
18.648974 -15.405092 32.724770 40.694123 -0.690428 0.636528 0.093763 -0.017809 246119.000000 0 0 1
19.918974 -14.988792 33.186676 41.506444 -0.645092 0.644243 0.099714 -0.018445 -364970.000000 0 0 1
21.049874 -15.734192 32.513319 41.806434 -0.641881 0.679780 0.125871 -0.032354 -751845.000000 0 0 1
21.210674 -15.207892 31.213546 40.687322 -0.622039 0.696400 0.091945 -0.017232 -71426.300000 0 0 1
21.817474 -16.004092 30.284006 40.611011 -0.632886 0.729198 0.102670 -0.018058 -511395.000000 0 0 1
22.252474 -15.298392 29.003176 39.628243 -0.602282 0.749717 0.081782 -0.007584 -267745.000000 0 0 1
23.301274 -14.394492 29.251766 40.072642 -0.553373 0.752520 0.072562 -0.009668 217530.000000 0 0 1
23.576674 -13.675692 28.042016 39.105483 -0.525623 0.771183 0.067168 -0.015611 13010.400000 0 0 1
24.308874 -12.331492 28.241226 39.249891 -0.469457 0.767680 0.052765 -0.009310 -229719.000000 0 0 1
23.452574 -11.241692 28.473866 38.563713 -0.446981 0.740162 0.049623 -0.010750 -358893.000000 0 0 1
24.061574 -10.011992 28.590796 38.686341 -0.394307 0.739150 0.048564 -0.008806 -28462.000000 0 0 1
23.072774 -8.804692 28.479986 37.695956 -0.364549 0.714351 0.050724 -0.009545 595471.000000 0 0 1
22.181674 -8.666692 29.599836 37.990637 -0.372476 0.677512 0.057845 -0.013482 -550755.000000 0 0 1
21.238974 -7.706192 29.285636 36.988213 -0.348061 0.657118 0.063284 -0.026645 -1035400.000000 0 0 1
20.183774 -7.642592 30.394956 37.277974 -0.361967 0.617446 0.058156 -0.012032 -658442.000000 0 0 1
20.527074 -7.228192 31.719746 38.467517 -0.338571 0.601328 0.064103 -0.014902 -116855.000000 0 0 1
20.903474 -8.343892 32.507591 39.538832 -0.379785 0.605586 0.068867 -0.023972 -316482.000000 0 0 1
21.044774 -8.011092 -33.793623 40.608731 -0.363731 2.553817 0.077328 -0.039108 523695.000000 0 0 1
19.742274 -7.808092 -33.242873 39.443786 -0.376622 2.573244 0.062135 -0.045363 485788.000000 0 0 1
19.834274 -7.064292 -32.015013 38.317929 -0.342157 2.559857 0.068486 -0.046627 750647.000000 0 0 1
18.447374 -6.755592 -31.343833 36.991614 -0.351041 2.581720 0.080100 -0.049363 781373.000000 0 0 1
18.594574 -5.763192 -30.328333 36.038595 -0.300550 2.570945 0.079594 -0.042223 -156144.000000 0 0 1
17.365274 -5.392292 -29.771443 34.885074 -0.301081 2.593299 0.100684 -0.035143 -181508.000000 0 0 1
17.528374 -4.516492 -28.545143 33.800411 -0.252182 2.576466 0.091130 -0.036059 -200813.000000 0 0 1
18.079774 -5.073392 -27.329993 33.159404 -0.273576 2.539585 0.089220 -0.034485 285571.000000 0 0 1
17.373174 -6.111692 -26.652733 32.396730 -0.338268 2.536938 0.093002 -0.028939 142577.000000 0 0 1
15.969074 -5.775892 -26.089453 31.129276 -0.347053 2.564588 0.094783 -0.032258 118631.000000 0 0 1
15.863674 -4.924892 -24.991303 30.007931 -0.301017 2.554985 0.099337 -0.037923 812847.000000 0 0 1
14.488774 -4.818392 -24.529403 28.893478 -0.321055 2.584810 0.087540 -0.037212 964095.000000 0 0 1
14.181174 -3.636492 -23.617203 27.786724 -0.251022 2.586678 0.104030 -0.040931 22860.100000 0 0 1
14.152574 -2.417992 -24.383403 28.296508 -0.169218 2.609428 0.091351 -0.046812 23567.400000 0 0 1
13.734374 -1.310992 -23.596203 27.333725 -0.095165 2.612496 0.092626 -0.039590 79854.900000 0 0 1
14.231574 0.047008 -24.129403 28.013711 0.003303 2.608703 0.088849 -0.039289 -48367.400000 0 0 1
13.598874 0.446008 -25.330443 28.753428 0.032786 2.648670 0.086811 -0.034484 22687.800000 0 0 1
13.994774 1.769008 -25.592153 29.222276 0.125738 2.637836 0.096760 -0.018795 -326952.000000 0 0 1
13.366374 2.621008 -26.715973 29.987878 0.193633 2.670102 0.083635 -0.012959 15116.100000 0 0 1
12.070074 3.070008 -26.343663 29.139324 0.249067 2.699969 0.091877 -0.023928 322111.000000 0 0 1
11.524074 3.776008 -27.410463 29.973255 0.316638 2.725060 0.096163 -0.030456 -42713.600000 0 0 1
10.239074 4.607008 -27.197713 29.424119 0.422807 2.750083 0.092119 -0.032747 -52695.300000 0 0 1
10.457874 5.799008 -26.479783 29.054682 0.506300 2.717415 0.084891 -0.034081 -429138.000000 0 0 1
9.356774 6.624008 -26.587253 28.953562 0.616033 2.734491 0.087896 -0.038587 -933219.000000 0 0 1
8.531174 5.239062 -31.453763 33.008603 0.550728 2.833441 0.079401 -0.049305 -25622.100000 0 0 1
8.413174 4.549662 -30.233163 31.710015 0.495736 2.835195 0.073541 -0.030403 273684.000000 0 0 1
7.860474 3.304862 -30.459363 31.630396 0.398002 2.868634 0.067219 -0.024812 -245336.000000 0 0 1
7.566474 2.448562 -29.207443 30.270806 0.312971 2.875751 0.077732 -0.024224 -832311.000000 0 0 1
8.713674 1.825762 -28.751543 30.098384 0.206540 2.841307 0.107323 -0.034010 -290670.000000 0 0 1
8.502374 0.861562 -27.711313 28.999130 0.100987 2.842456 0.088395 -0.024010 -238390.000000 0 0 1
9.826774 0.314562 -27.161243 28.885940 0.032000 2.794286 0.098642 -0.036062 -123258.000000 0 0 1
10.445274 -0.564038 -28.067113 29.953042 -0.053947 2.784844 0.125103 -0.029507 -544840.000000 0 0 1
11.581674 -1.145838 -27.528043 29.887142 -0.098615 2.741607 0.116273 -0.035931 -308238.000000 0 0 1
12.064974 -2.414238 -28.317043 30.874699 -0.197495 2.731691 0.105112 -0.037633 131445.000000 0 0 1
11.355974 -3.554538 -27.879043 30.312273 -0.303350 2.738183 0.107414 -0.031792 249355.000000 0 0 1
12.226274 -4.692738 -27.822613 30.750632 -0.366484 2.701663 0.119782 -0.029155 67796.600000 0 0 1
11.732074 -5.901438 -27.108913 30.122445 -0.466059 2.690468 0.100299 -0.032516 -251773.000000 0 0 1
11.736074 -5.637938 -25.702563 28.812211 -0.447840 2.672706 0.111904 -0.028213 -125749.000000 0 0 1
11.214974 -6.758638 -25.013703 28.233671 -0.542361 2.659341 0.105723 -0.029151 44188.600000 0 0 1
11.043774 -6.609238 -23.487303 26.782464 -0.539285 2.640308 0.110524 -0.032940 -816694.000000 0 0 1
12.270974 -6.502038 -22.871503 26.757409 -0.487258 2.595909 0.090944 -0.031621 -903066.000000 0 0 1
12.180774 -6.538338 -21.418003 25.492194 -0.492633 2.568409 0.104661 -0.046231 205451.000000 0 0 1
13.585174 -6.457538 -20.768803 25.643711 -0.443723 2.514775 0.110889 -0.041850 150208.000000 0 0 1
14.045174 -5.196638 -20.630303 25.492771 -0.354375 2.513689 0.098737 -0.046104 368897.000000 0 0 1
15.333774 -5.161138 -19.979603 25.708880 -0.324675 2.460917 0.107739 -0.040197 661325.000000 0 0 1
15.833274 -3.783838 -19.564303 25.451364 -0.234580 2.447593 0.111099 -0.035950 -252000.000000 0 0 1
16.514374 -3.032638 -20.571903 26.554183 -0.181613 2.457059 0.095725 -0.032163 239159.000000 0 0 1
16.826174 -1.725838 -20.116603 26.282625 -0.102211 2.442452 0.098615 -0.021246 -328236.000000 0 0 1
17.922474 -1.090938 -20.976303 27.611782 -0.060795 2.433627 0.070413 -0.018552 -213963.000000 0 0 1
19.154274 -1.751838 -20.778903 28.314625 -0.091206 2.394780 0.097403 -0.028685 -364190.000000 0 0 1
20.107974 -1.172838 -21.645503 29.567448 -0.058261 2.392155 0.091912 -0.017293 138834.000000 0 0 1
21.441774 -1.953438 -21.761403 30.612485 -0.090854 2.361526 0.072231 -0.021904 -1055800.000000 0 0 1
22.285674 -1.695338 -20.689703 30.456350 -0.075927 2.317636 0.068733 -0.022845 -650171.000000 0 0 1
23.529874 -2.334038 -20.753403 31.461190 -0.098871 2.291151 0.070073 -0.022279 -130780.000000 0 0 1
24.580174 -1.625838 -21.611603 32.770256 -0.066048 2.290934 0.081785 -0.028177 -1287180.000000 0 0 1
24.214774 -1.672038 -23.006503 33.443238 -0.068941 2.329425 0.083070 -0.031792 15186.100000 0 0 1
25.088074 -0.965338 -23.853603 34.631456 -0.038459 2.330607 0.085000 -0.027742 1284550.000000 0 0 1
26.396274 -1.756138 -24.385803 35.979365 -0.066432 2.315524 0.093573 -0.030339 659823.000000 0 0 1
27.285774 -2.021038 -23.337103 35.961347 -0.073934 2.276999 0.096804 -0.028707 412713.000000 0 0 1
28.495374 -2.671338 -23.730803 37.178938 -0.093473 2.263066 0.077940 -0.023898 701962.000000 0 0 1
29.621174 -1.860338 -24.377803 38.407709 -0.062722 2.258431 0.080488 -0.028600 -631857.000000 0 0 1
29.379274 -1.786438 -25.788923 39.133127 -0.060731 2.290291 0.087432 -0.028953 466946.000000 0 0 1
30.307074 -0.906438 -26.390503 40.197003 -0.029900 2.287004 0.098612 -0.035659 -206575.000000 0 0 1
29.779274 -0.433638 -27.785793 40.731358 -0.014561 2.321525 0.101595 -0.042139 1201610.000000 0 0 1
28.470474 0.188662 -27.906513 39.866991 0.006626 2.346180 0.086751 -0.029217 1203070.000000 0 0 1
28.331874 1.420562 -27.298453 39.369006 0.050098 2.336993 0.075359 -0.026466 -842801.000000 0 0 1
26.942174 2.012462 -27.505893 38.555219 0.074557 2.365157 0.089914 -0.030409 141334.000000 0 0 1
25.896274 1.355662 -26.751003 37.256825 0.052302 2.371744 0.099850 -0.029984 209397.000000 0 0 1
24.637474 1.786162 -27.147763 36.704176 0.072371 2.403327 0.077203 -0.025539 -515739.000000 0 0 1
23.454874 1.470462 -26.214733 35.206613 0.062611 2.410727 0.076081 -0.024437 6666.090000 0 0 1
23.429474 2.262962 -25.035503 34.363319 0.096287 2.387004 0.088318 -0.023983 574704.000000 0 0 1
22.312974 1.840362 -24.258203 33.010849 0.082293 2.396250 0.090532 -0.015591 72911.100000 0 0 1
22.424374 2.348462 -22.807803 32.071229 0.104348 2.361944 0.082591 -0.006691 -232942.000000 0 0 1
22.240474 3.793462 -22.705903 32.009172 0.168940 2.359381 0.099315 -0.010388 549416.000000 0 0 1
22.412474 4.124862 -21.317303 31.205142 0.182006 2.322842 0.084093 -0.012554 -450579.000000 0 0 1
22.176974 5.598662 -20.898303 30.982290 0.247287 2.311116 0.105137 -0.008321 195512.000000 0 0 1
23.215874 6.560562 -21.175103 32.099887 0.275408 2.291166 0.081477 0.001405 669897.000000 0 0 1
22.984474 7.913662 -20.715003 31.937806 0.331592 2.276546 0.073473 0.000702 -383629.000000 0 0 1
23.317274 8.141562 -19.207703 31.287636 0.335930 2.231797 0.077290 -0.015955 525596.000000 0 0 1
24.723974 8.340362 -18.988003 32.270432 0.325351 2.199878 0.045909 -0.005420 917976.000000 0 0 1
25.097874 8.878562 -17.704803 31.971741 0.340018 2.157674 0.072624 -0.019542 -48449.100000 0 0 1
24.783774 10.323862 -17.330103 31.955439 0.394698 2.143993 0.075413 -0.028726 543544.000000 0 0 1
23.365274 10.501862 -17.237403 30.876418 0.422409 2.163096 0.088968 -0.042087 590655.000000 0 0 1
23.040474 11.882662 -17.073903 31.041573 0.476152 2.153201 0.075870 -0.040026 -211884.000000 0 0 1
21.530774 12.249262 -16.975403 30.029701 0.517252 2.171578 0.078281 -0.049653 438602.000000 0 0 1
20.735174 11.931762 -18.107803 30.003448 0.522162 2.218710 0.092930 -0.049756 71106.700000 0 0 1
20.263274 10.646462 -18.001603 29.120528 0.483766 2.237216 0.107491 -0.051537 -796135.000000 0 0 1
19.556274 10.078762 -19.250203 29.233536 0.475870 2.289617 0.129425 -0.034640 -45897.300000 0 0 1
20.403574 9.975662 -20.344203 30.491085 0.454742 2.301264 0.136838 -0.028186 59699.600000 0 0 1
19.597874 9.679062 -21.461003 30.632263 0.458742 2.347036 0.109615 -0.025654 134838.000000 0 0 1
20.303774 9.977162 -22.813503 32.128538 0.456739 2.360394 0.133394 -0.021204 -93628.400000 0 0 1
20.352474 11.381562 -23.017703 32.765497 0.509896 2.349698 0.115618 -0.027643 154156.000000 0 0 1
20.882874 11.699362 -24.280803 34.095849 0.510669 2.363329 0.145561 -0.023648 -20022.600000 0 0 1
21.051774 13.189862 -24.569503 34.940093 0.559709 2.350670 0.156017 -0.023160 80582.400000 0 0 1
21.603574 13.419462 -25.871413 36.278456 0.555839 2.364755 0.151257 -0.021013 71372.900000 0 0 1
21.689574 14.841662 -26.121153 37.054382 0.600095 2.353136 0.148101 -0.012642 339278.000000 0 0 1
20.387574 15.477662 -26.706183 36.992316 0.649345 2.377396 0.140981 -0.027650 1340660.000000 0 0 1
19.222874 15.313562 -25.859453 35.675417 0.672684 2.381618 0.107792 -0.019684 661698.000000 0 0 1
18.057674 15.748962 -26.564183 35.773806 0.717212 2.407680 0.105006 -0.024641 -315773.000000 0 0 1
16.761674 15.252762 -25.995713 34.487354 0.738301 2.424585 0.096014 -0.024706 -1060130.000000 0 0 1
16.582174 13.843762 -26.142573 33.912422 0.695637 2.451025 0.103259 -0.021454 49623.200000 0 0 1
15.277974 13.437162 -25.766183 32.830931 0.721380 2.473193 0.065951 -0.020606 195599.000000 0 0 1
15.151074 11.928562 -25.712953 32.140342 0.666954 2.498127 0.066602 -0.019429 733075.000000 0 0 1
13.791974 11.498062 -25.557993 31.235156 0.694941 2.529147 0.065454 -0.019266 760623.000000 0 0 1
13.792774 10.111062 -25.295123 30.533874 0.632577 2.547092 0.079289 -0.021128 -184759.000000 0 0 1
12.368374 9.579962 -25.066673 29.548104 0.659031 2.583628 0.103480 -0.032035 -24226.800000 0 0 1
11.768274 9.985162 -23.850303 28.408321 0.703612 2.567257 0.127150 -0.041411 1407820.000000 0 0 1
10.479574 9.301362 -23.661203 27.498897 0.725905 2.606933 0.116239 -0.037491 1401790.000000 0 0 1
9.579674 9.955062 -22.600803 26.489049 0.804612 2.592911 0.114866 -0.040403 -312254.000000 0 0 1
9.029274 11.158462 -23.033903 27.140371 0.890479 2.584310 0.115014 -0.039090 -329597.000000 0 0 1
8.331774 11.842462 -22.009003 26.344991 0.957691 2.559684 0.116094 -0.033781 314200.000000 0 0 1
9.172774 12.630962 -20.933903 26.113393 0.942693 2.500853 0.111019 -0.040122 154325.000000 0 0 1
9.828074 11.790462 -19.996003 25.208058 0.875923 2.486906 0.129520 -0.052892 895910.000000 0 0 1
10.811774 12.599062 -19.233603 25.407918 0.861595 2.429494 0.148421 -0.052097 648670.000000 0 0 1
11.940574 11.727262 -18.701703 25.097005 0.776386 2.411596 0.168182 -0.056573 6188.780000 0 0 1
13.036474 11.257862 -19.489703 26.010337 0.712318 2.417810 0.152733 -0.054861 642139.000000 0 0 1
12.708574 10.305462 -20.519203 26.244011 0.681356 2.468444 0.154153 -0.053435 -559863.000000 0 0 1
13.949174 9.652262 -21.160003 27.119944 0.605309 2.465842 0.159434 -0.050333 -100095.000000 0 0 1
14.585374 8.803962 -20.254803 26.466959 0.543074 2.442282 0.175567 -0.061083 607581.000000 0 0 1
15.757374 8.218462 -20.839903 27.388675 0.480749 2.435487 0.151623 -0.049147 444523.000000 0 0 1
16.429274 7.065562 -20.103203 26.906913 0.406148 2.414543 0.209478 -0.052781 50972.400000 0 0 1
17.195774 7.412162 -18.970703 26.655625 0.406980 2.362706 0.164752 -0.043142 101359.000000 0 0 1
17.649874 6.269662 -18.248503 26.150231 0.341321 2.343164 0.158708 -0.050102 -314101.000000 0 0 1
18.665574 6.509462 -17.139203 26.163506 0.335553 2.285086 0.210869 -0.038591 -779301.000000 0 0 1
19.948674 6.823962 -17.658703 27.501743 0.329598 2.268023 0.162885 -0.042080 10924.700000 0 0 1
20.821974 7.302962 -16.667403 27.653032 0.337328 2.217718 0.150631 -0.055322 -244718.000000 0 0 1
21.428374 6.236662 -15.736003 27.307379 0.283223 2.184935 0.116063 -0.051738 -1317100.000000 0 0 1
22.514874 5.583662 -16.329703 28.368222 0.243094 2.184175 0.089804 -0.043524 -102990.000000 0 0 1
23.071774 4.613362 -15.471703 28.159607 0.197354 2.152477 0.132948 -0.051533 -506141.000000 0 0 1
24.366674 4.022962 -15.988303 29.420144 0.163625 2.145335 0.056457 0.002374 -564656.000000 0 0 1
24.940374 2.912362 -15.350703 29.430396 0.116247 2.119514 0.074295 -0.012490 -353355.000000 0 0 1
26.228374 2.636062 -15.800003 30.732988 0.100168 2.110761 0.072642 -0.015954 -487814.000000 0 0 1
26.764474 1.304662 -15.258403 30.835987 0.048707 2.088429 0.103447 -0.034331 -105511.000000 0 0 1
26.202074 0.114062 -15.756303 30.574872 0.004353 2.112195 0.115719 -0.031773 412662.000000 0 0 1
27.233774 -0.859538 -15.874603 31.534430 -0.031551 2.098332 0.100122 -0.023589 274000.000000 0 0 1
26.651174 -2.238938 -16.156703 31.246392 -0.083812 2.114226 0.090983 -0.024374 -91494.600000 0 0 1
25.920474 -2.726238 -15.064303 30.103764 -0.104792 2.094872 0.094664 -0.028237 230360.000000 0 0 1
25.754574 -4.126838 -15.200103 30.188939 -0.158886 2.098440 0.086230 -0.023557 -1183000.000000 0 0 1
25.370474 -4.933038 -13.940503 29.365515 -0.192044 2.065446 0.091708 -0.022987 1561840.000000 0 0 1
24.016474 -4.844038 -13.400803 27.925566 -0.199026 2.071309 0.110275 -0.016540 1489470.000000 0 0 1
22.982374 -5.131338 -14.315503 27.558189 -0.219670 2.117021 0.124192 -0.021840 -150517.000000 0 0 1
21.549074 -5.008438 -13.686703 26.014859 -0.228366 2.124817 0.147289 -0.031584 423771.000000 0 0 1
21.181174 -6.070638 -12.820303 25.492253 -0.279123 2.097758 0.162793 -0.031510 441755.000000 0 0 1
21.121874 -5.674838 -11.484303 24.702765 -0.262473 2.054317 0.175356 -0.029096 -207719.000000 0 1 0
20.834574 -6.909538 -10.471103 24.320058 -0.320224 2.015903 0.162098 -0.029781 340732.000000 0 1 0
19.545374 -7.483138 -10.666703 23.490372 -0.365644 2.042145 0.154635 -0.024847 901756.000000 0 1 0
19.466374 -8.506338 -11.667503 24.236917 -0.411971 2.073041 0.150110 -0.028564 340834.000000 0 1 0
18.091174 -9.295238 -11.587003 23.408346 -0.474626 2.088625 0.164757 -0.030291 1282180.000000 0 1 0
17.039174 -8.332838 -11.847003 22.363388 -0.454841 2.129102 0.143435 -0.028689 291168.000000 0 1 0
15.797274 -9.001138 -11.973203 21.769978 -0.517910 2.153145 0.144364 -0.029990 680216.000000 0 1 0
14.611274 -7.946038 -12.042803 20.534312 -0.498093 2.197493 0.101997 -0.024835 179938.000000 0 1 0
14.402774 -7.206938 -13.256103 20.859150 -0.463956 2.259459 0.088867 -0.028354 265528.000000 0 1 0
15.367874 -6.196538 -13.449903 21.341709 -0.383274 2.252629 0.088148 -0.023297 -226925.000000 0 1 0
15.176474 -5.162338 -14.589103 21.675263 -0.327877 2.309157 0.071617 -0.019455 475776.000000 0 1 0
14.051274 -4.309738 -14.279703 20.492000 -0.297606 2.341782 0.078865 -0.021496 713645.000000 0 1 0
13.890074 -3.357738 -15.336603 20.962346 -0.237186 2.391501 0.074237 -0.020565 123917.000000 0 1 0
14.931874 -2.188838 -15.471603 21.613014 -0.145552 2.368632 0.091165 -0.027888 -599359.000000 0 1 0
16.128474 -2.650138 -16.006403 22.876972 -0.162859 2.345736 0.092930 -0.032747 -279401.000000 0 1 0
17.112374 -1.604038 -16.088503 23.542434 -0.093462 2.323183 0.101577 -0.022029 456515.000000 0 1 0
18.236874 -1.769938 -15.036403 23.702525 -0.096750 2.258002 0.120830 -0.025930 -458396.000000 0 1 0
17.769174 -1.831638 -13.716803 22.522192 -0.102717 2.225640 0.110102 -0.018169 363226.000000 0 1 0
18.714374 -2.556538 -12.940103 22.895632 -0.135768 2.171445 0.105505 -0.016028 168979.000000 0 1 0
18.257274 -2.786438 -11.468203 21.739641 -0.151452 2.126481 0.105467 -0.015358 -179539.000000 0 1 0
18.264474 -1.591138 -10.717903 21.236671 -0.086897 2.099817 0.116426 -0.016782 807221.000000 0 1 0
17.834574 -1.844438 -9.358903 20.225307 -0.103053 2.051871 0.108137 -0.017525 -650364.000000 0 1 0
17.877374 -0.686038 -8.414603 19.770602 -0.038356 2.010434 0.109889 -0.014752 -51174.800000 0 1 0
19.112074 -0.169338 -7.917503 20.687845 -0.008860 1.963527 0.132483 -0.017863 1095450.000000 0 1 0
19.993374 0.481062 -8.825703 21.859997 0.024056 1.986395 0.127318 -0.013153 -241796.000000 0 1 0
19.456974 1.815462 -9.430703 21.698108 0.093037 2.020426 0.120168 -0.023503 -388281.000000 0 1 0
19.495674 2.939462 -8.571403 21.498621 0.149648 1.980890 0.109163 -0.015691 495614.000000 0 1 0
18.689774 3.931862 -9.196803 21.197839 0.207351 2.019564 0.097049 -0.031627 -373029.000000 0 1 0
19.028474 5.404962 -8.897403 21.690095 0.276757 1.993476 0.121440 -0.010777 40412.200000 0 1 0
18.242574 6.293762 -9.704403 21.600426 0.332217 2.036743 0.094885 -0.017509 720952.000000 0 1 0
18.722174 7.619962 -9.564703 22.362182 0.386528 2.012763 0.120278 -0.004944 36577.200000 0 1 0
-27.374026 -29.603408 5.879597 40.746395 0.824506 1.425993 0.090235 -0.008859 273507.000000 0 0 1
-27.326716 -28.318258 6.216497 39.841159 0.803215 1.414124 0.101972 -0.014122 -1456760.000000 0 0 1
-26.016676 -27.931568 6.133997 38.660908 0.820878 1.411462 0.097461 -0.010609 -1288940.000000 0 0 1
-25.593776 -26.743568 7.093797 37.690606 0.807364 1.381456 0.106317 -0.005985 -8979.690000 0 0 1
-26.182426 -25.465628 6.890297 37.168452 0.771521 1.384338 0.130314 -0.018477 836848.000000 0 0 1
-27.572206 -25.306148 7.241297 38.119077 0.742570 1.379670 0.091172 -0.020742 961933.000000 0 0 1
-27.953606 -24.843338 8.668097 38.389210 0.726556 1.343037 0.084244 -0.020148 -174570.000000 0 0 1
-27.574496 -25.841808 9.557597 38.980758 0.752972 1.323083 0.086445 -0.023074 338911.000000 0 0 1
-28.248376 -25.729908 10.846097 39.719475 0.738775 1.294216 0.071097 -0.026125 496631.000000 0 0 1
-27.626486 -26.739938 11.858697 40.235254 0.769093 1.271619 0.054936 -0.016886 432201.000000 0 0 1
-26.361466 -26.393858 12.378797 39.303909 0.786012 1.250392 0.066332 -0.014941 40431.800000 0 0 1
-26.493566 -25.647208 13.585997 39.297171 0.769167 1.217785 0.065253 -0.014165 -734798.000000 0 0 1
-25.127706 -25.197928 14.088697 38.273079 0.786794 1.193821 0.071877 -0.021285 82589.000000 0 0 1
-24.297626 -26.335058 14.476897 38.645704 0.825616 1.186825 0.067081 -0.021565 422863.000000 0 0 1
-23.040926 -25.924348 14.987197 37.783226 0.844217 1.162918 0.088393 -0.034345 -149919.000000 0 0 1
-22.251326 -27.143988 15.440097 38.344676 0.884127 1.156369 0.088457 -0.038344 -797156.000000 0 0 1
-22.873326 -27.893718 16.464997 39.652802 0.883968 1.142602 0.098497 -0.026903 -40383.500000 0 0 1
-22.252126 -29.105618 16.801197 40.306009 0.918061 1.140829 0.094661 -0.026494 -543412.000000 0 0 1
-23.078426 -29.907558 17.798997 41.759790 0.913577 1.130483 0.101277 -0.030834 -621090.000000 0 0 1
-24.103526 -30.582078 17.170697 42.556742 0.903318 1.155482 0.101016 -0.031562 -189023.000000 0 0 1
-24.857726 -31.445868 18.023197 43.949798 0.901880 1.148248 0.094260 -0.024135 69050.900000 0 0 1
-25.930246 -32.295188 17.347897 44.903300 0.894281 1.174137 0.080753 -0.025764 -283316.000000 0 0 1
-25.317126 -33.182378 16.518297 44.887428 0.919047 1.193946 0.085839 -0.027851 -165378.000000 0 0 1
-26.229416 33.608640 16.097297 45.570230 -0.908099 1.209763 0.084695 -0.029476 -735371.000000 0 0 1
-25.711426 32.690558 14.945197 44.193992 -0.904336 1.225822 0.089073 -0.036148 56551.300000 0 0 1
-24.526326 31.977521 15.240697 43.085744 -0.916512 1.209241 0.072941 -0.035176 53619.000000 0 0 1
-23.422426 32.764446 14.860797 42.929736 -0.950158 1.217315 0.068837 -0.034405 -492303.000000 0 0 1
-21.999826 32.149129 14.948297 41.725417 -0.970681 1.204399 0.066141 -0.037723 413634.000000 0 0 1
-21.744626 31.278916 13.839197 40.530515 -0.963309 1.222336 0.041403 -0.021698 844229.000000 0 0 1
-20.394226 30.779326 13.820597 39.424614 -0.985618 1.212630 0.042554 -0.022863 678929.000000 0 0 1
-20.090226 29.889496 12.632297 38.165089 -0.979007 1.233443 0.035079 -0.029102 13683.000000 0 0 1
-20.074226 30.482286 11.348797 38.222238 -0.988431 1.269335 0.020092 -0.017790 -88467.400000 0 0 1
-20.001526 29.463246 10.369697 37.090086 -0.974397 1.287438 0.034579 -0.024806 123836.000000 0 0 1
-19.897626 29.958216 8.974497 37.066856 -0.984518 1.326250 0.033400 -0.020490 -97721.500000 0 0 1
-18.605626 30.476436 8.761497 36.766102 -1.022698 1.330177 0.033943 -0.022434 -372683.000000 0 0 1
-18.378226 30.887886 7.395697 36.694918 -1.034063 1.367861 0.061008 -0.028711 425484.000000 0 0 1
-17.802326 29.814196 6.404197 35.310378 -1.032505 1.388418 0.068613 -0.031354 271714.000000 0 0 1
-18.801326 28.830776 6.128297 34.960828 -0.992927 1.394596 0.051790 -0.022988 341295.000000 0 0 1
-18.556826 27.585786 6.794597 33.933728 -0.978632 1.369202 0.035348 -0.022380 -222837.000000 0 0 1
-19.600226 26.529686 6.416697 33.603081 -0.934500 1.378661 0.043609 -0.017280 -107019.000000 0 0 1
-19.469826 26.081836 5.086597 32.942522 -0.929545 1.415768 0.049534 -0.026252 -166583.000000 0 0 1
-20.678926 25.576806 4.600397 33.210760 -0.890892 1.431828 0.057998 -0.024448 -1125830.000000 0 0 1
-20.634426 24.790576 3.288397 32.421686 -0.876639 1.469196 0.080844 -0.041092 -1152870.000000 0 0 1
-20.357026 25.514076 2.051397 32.704507 -0.897353 1.508030 0.093490 -0.043349 414346.000000 0 0 1
-19.231226 26.396816 1.940497 32.716929 -0.941169 1.511450 0.094705 -0.039070 1020480.000000 0 0 1
-17.828326 25.703946 2.253697 31.362735 -0.964377 1.498875 0.088752 -0.045293 82725.500000 0 0 1
-17.397526 24.564766 1.502797 30.139011 -0.954568 1.520913 0.141468 -0.054988 217433.000000 0 0 1
-17.213526 24.774676 0.127997 30.167970 -0.963567 1.566553 0.142652 -0.053181 -357609.000000 0 0 1
-16.710326 23.506376 -0.659303 28.848212 -0.952802 1.593653 0.145941 -0.052428 -79792.800000 0 0 1
-17.653126 22.459116 -0.818503 28.578220 -0.904643 1.599441 0.152645 -0.060920 137020.000000 0 0 1
-17.225726 21.353316 -1.618303 27.482879 -0.891983 1.629714 0.148133 -0.053331 -665143.000000 0 0 1
-16.002426 20.560216 -1.239503 26.083260 -0.909415 1.618335 0.140341 -0.050469 -567260.000000 0 0 1
-16.273626 19.795116 -0.088303 25.625871 -0.882722 1.574242 0.142370 -0.049046 534809.000000 0 0 1
-15.210526 18.882716 0.214997 24.247954 -0.892695 1.561930 0.136191 -0.050097 363538.000000 0 1 0
-15.686726 17.747916 1.205797 23.717416 -0.846969 1.519934 0.110890 -0.049244 333857.000000 0 1 0
-16.385626 16.696516 0.566597 23.400500 -0.794795 1.546581 0.097159 -0.050569 426391.000000 0 1 0
-16.983726 15.798616 1.517997 23.245376 -0.749263 1.505447 0.110634 -0.069307 114669.000000 0 1 0
-17.645126 14.507216 0.973697 22.863898 -0.688111 1.528197 0.101331 -0.063238 -464300.000000 0 1 0
-18.829726 14.802916 0.268997 23.953230 -0.666236 1.559566 0.150390 -0.067284 -19878.900000 0 1 0
-19.297826 13.576416 -0.301703 23.596952 -0.613085 1.583582 0.127038 -0.056885 -324436.000000 0 1 0
-20.597826 13.715216 -1.119503 24.771573 -0.587442 1.616005 0.122857 -0.050104 -1135530.000000 0 1 0
-21.300526 12.564716 -1.461203 24.773364 -0.532944 1.629813 0.109872 -0.055336 336712.000000 0 1 0
-22.230826 12.146716 -0.475903 25.337300 -0.500068 1.589580 0.140530 -0.063756 -787297.000000 0 0 1
-23.558526 12.906216 -0.578403 26.868366 -0.501181 1.592325 0.168332 -0.064722 -1530680.000000 0 0 1
-23.688826 14.268316 -0.207203 27.654805 -0.542126 1.578289 0.191038 -0.069847 -223747.000000 0 0 1
-25.002626 14.765416 -0.304603 29.038622 -0.533445 1.581286 0.182671 -0.056162 -122982.000000 0 0 1
-25.190586 16.116416 0.373497 29.907256 -0.569157 1.558307 0.195589 -0.064409 -87026.700000 0 0 1
-25.042476 15.982516 1.818197 29.763606 -0.568047 1.509670 0.199751 -0.066282 24825.700000 0 0 1
-24.917326 17.206216 2.570797 30.389735 -0.604343 1.486101 0.174912 -0.063292 601554.000000 0 0 1
-26.262126 18.004516 2.727497 31.957801 -0.600975 1.485346 0.177456 -0.053439 -825338.000000 0 0 1
-27.193606 17.342816 3.575297 32.450704 -0.567718 1.460396 0.181787 -0.054620 240696.000000 0 0 1
-28.380086 18.075816 3.816797 33.863436 -0.567124 1.457845 0.167583 -0.053404 -153389.000000 0 0 1
-29.252756 18.306216 2.599597 34.606345 -0.559170 1.495606 0.146504 -0.055192 -2551400.000000 0 0 1
-30.443406 18.910716 2.985897 35.962921 -0.555845 1.487674 0.118732 -0.052131 -354280.000000 0 0 1
-31.232836 19.147816 1.839697 36.681240 -0.549972 1.520622 0.106265 -0.045206 -204602.000000 0 0 1
-32.628546 19.745316 2.079597 38.194557 -0.544201 1.516322 0.104220 -0.044740 -1191490.000000 0 0 1
-33.668036 18.831016 2.332997 38.646949 -0.509966 1.510393 0.112673 -0.037821 -606994.000000 0 0 1
-34.855752 19.547616 2.431097 40.036770 -0.511108 1.510037 0.116302 -0.038581 -617829.000000 0 0 1
-35.167464 20.257316 3.782897 40.760516 -0.522604 1.477855 0.096936 -0.042841 -1041180.000000 0 0 1
-34.245893 21.266016 4.108697 40.520439 -0.555703 1.469224 0.100888 -0.048736 155451.000000 0 0 1
-34.419785 21.552316 5.442197 40.973667 -0.559434 1.437581 0.087474 -0.047288 124553.000000 0 0 1
-33.226636 22.397916 5.972397 40.513522 -0.593128 1.422840 0.109306 -0.046788 -19447.300000 0 0 1
-33.327206 23.665146 5.428697 41.233633 -0.617462 1.438756 0.080121 -0.043035 526221.000000 0 0 1
-32.334946 24.543066 5.955197 41.028955 -0.649253 1.425136 0.083965 -0.045387 50310.700000 0 0 1
-32.623536 26.043266 5.702897 42.131577 -0.673702 1.435020 0.075389 -0.038539 -615939.000000 0 0 1
-33.599886 26.561766 6.529797 43.325719 -0.668941 1.419506 0.090655 -0.028378 -376157.000000 0 0 1
-34.085008 27.840606 6.165297 44.439824 -0.684901 1.431614 0.078423 -0.023987 -323762.000000 0 0 1
-35.155535 28.234236 7.197497 45.660570 -0.676643 1.412506 0.075786 -0.014846 -1185760.000000 0 0 1
-34.633554 28.552886 8.466397 45.677458 -0.689460 1.384367 0.102368 -0.022982 74693.400000 0 0 1
-35.494052 29.087806 9.457697 46.854841 -0.686526 1.367549 0.095791 -0.018844 444421.000000 0 0 1
-36.729386 28.300526 10.032697 47.440726 -0.656502 1.357709 0.071796 -0.014926 452141.000000 0 0 1
-36.361666 27.069586 10.634197 46.561995 -0.639942 1.340375 0.099382 -0.024248 -639618.000000 0 0 1
-37.366106 26.567436 11.407397 47.245986 -0.618073 1.326940 0.073842 -0.020983 -839469.000000 0 0 1
-36.893746 25.348586 12.182797 46.390945 -0.601995 1.305069 0.118091 -0.021868 -39254.500000 0 0 1
-35.911589 25.723626 13.132797 46.084894 -0.621585 1.281822 0.161819 -0.036377 107069.000000 0 0 1
-35.257768 24.586116 13.702097 45.114684 -0.608928 1.262205 0.159320 -0.037841 -473103.000000 0 0 1
-33.978146 24.906026 14.443797 44.535915 -0.632533 1.240506 0.162734 -0.038462 -643871.000000 0 0 1
-34.132078 25.758746 15.572397 45.508365 -0.646489 1.221552 0.145694 -0.042280 1199730.000000 0 0 1
-32.842936 26.050426 16.196097 44.939923 -0.670570 1.202106 0.160479 -0.034972 1368760.000000 0 0 1
-33.094536 27.228296 17.195297 46.176906 -0.688456 1.189226 0.142269 -0.037837 -79472.500000 0 0 1
-33.228616 28.454876 16.490297 46.752013 -0.708161 1.210322 0.160933 -0.039560 -117505.000000 0 0 1
-33.490216 29.496166 17.382597 47.893350 -0.722072 1.199371 0.129136 -0.039839 -19676.300000 0 0 1
-33.215456 30.850266 16.750597 48.327920 -0.748497 1.216849 0.112857 -0.031118 13074.000000 0 0 1
-31.861236 31.034566 16.421097 47.412393 -0.772255 1.217123 0.104964 -0.023748 -464611.000000 0 0 1
-31.758096 32.147626 15.524497 47.781340 -0.791493 1.239883 0.089520 -0.007632 665964.000000 0 0 1
-30.344956 32.366062 14.841997 46.783150 -0.817616 1.247967 0.107456 -0.017137 1079690.000000 0 0 1
-29.810216 31.458806 13.875697 45.506487 -0.812299 1.260945 0.105637 -0.016623 333319.000000 0 0 1
-29.502236 30.106896 14.322597 44.519028 -0.795542 1.243252 0.115123 -0.022271 -177652.000000 0 0 1
-30.661516 29.198096 13.883697 44.557989 -0.760955 1.253933 0.141751 -0.022929 86242.200000 0 0 1
-30.803396 29.131456 12.464297 44.191058 -0.757509 1.284861 0.150856 -0.032343 -253127.000000 0 0 1
-31.641126 28.050946 12.184397 44.005408 -0.725326 1.290246 0.154708 -0.032751 -105709.000000 0 0 1
-31.684646 27.876546 10.694697 43.536136 -0.721549 1.322605 0.135164 -0.025433 -379966.000000 0 0 1
-30.580426 27.253876 10.131697 42.197008 -0.727943 1.328323 0.114092 -0.014049 -532752.000000 0 0 1
-30.649386 27.236196 8.720797 41.919536 -0.726502 1.361229 0.111209 -0.021047 484642.000000 0 0 1
-29.366496 26.567086 8.136497 40.427759 -0.735391 1.368152 0.118394 -0.027476 474378.000000 0 0 1
-29.271626 26.649756 6.725797 40.153130 -0.738548 1.402499 0.106518 -0.036384 -50550.100000 0 0 1
-28.080906 26.084016 6.194997 38.823847 -0.748548 1.410545 0.098612 -0.034219 -39416.500000 0 0 1
-27.844426 26.549826 4.739097 38.764214 -0.761602 1.448235 0.073433 -0.031264 -62928.000000 0 0 1
-27.179646 27.813306 4.522997 39.150614 -0.796920 1.455010 0.052334 -0.022860 357267.000000 0 0 1
-26.982566 27.953796 3.114997 38.976618 -0.803076 1.490791 0.039842 -0.016012 -396090.000000 0 0 1
-26.041706 29.101446 2.686797 39.144392 -0.840829 1.502104 0.035342 -0.009173 -353664.000000 0 0 1
-24.729626 28.735306 3.030697 38.032319 -0.860180 1.491024 0.037650 -0.010563 -441607.000000 0 0 1
-23.768326 29.672746 2.581197 38.106006 -0.895437 1.503007 0.036467 -0.005019 796785.000000 0 0 1
-22.298226 29.243586 2.889097 36.888278 -0.919343 1.492396 0.035316 -0.016305 625235.000000 0 0 1
-21.353626 30.294706 2.909297 37.178092 -0.956814 1.492463 0.050350 -0.021574 -1244070.000000 0 0 1
-20.100826 29.749976 3.074697 36.035510 -0.976594 1.485368 0.079635 -0.032917 -303395.000000 0 0 1
-18.899726 30.690066 2.701197 36.143827 -1.018822 1.495992 0.082081 -0.031741 543477.000000 0 0 1
-18.783626 31.808196 3.554597 37.110929 -1.037371 1.474866 0.091861 -0.032565 269082.000000 0 0 1
-17.664726 32.558920 3.070997 37.169299 -1.073694 1.488080 0.115068 -0.033937 521756.000000 0 0 1
-17.337426 33.842876 3.906797 38.225510 -1.097364 1.468414 0.116789 -0.036658 12160.000000 0 0 1
-18.290826 -32.881458 3.809997 37.818787 1.063155 1.469882 0.109684 -0.033752 -228382.000000 0 0 1
-18.040726 -31.806558 4.662797 36.862808 1.054843 1.443966 0.086309 -0.039049 65834.100000 0 0 1
-19.195426 -30.773728 4.759297 36.580563 1.013089 1.440322 0.090132 -0.026989 65573.600000 0 0 1
-19.254726 -29.883718 3.621697 35.733706 0.998423 1.469270 0.106719 -0.027080 156309.000000 0 0 1
-20.329626 -28.988888 3.809497 35.611256 0.959205 1.463617 0.102893 -0.028299 -333754.000000 0 0 1
-20.501226 -28.053218 2.591397 34.842483 0.939698 1.496353 0.100077 -0.031689 -44519.000000 0 0 1
-19.560726 -27.019008 2.693197 33.464938 0.944169 1.490231 0.108772 -0.030072 -150634.000000 0 0 1
-19.758626 -26.057398 1.683097 32.744833 0.922021 1.519373 0.100741 -0.026900 -370104.000000 0 0 1
-18.643126 -25.042638 1.553397 31.258805 0.930853 1.521081 0.092316 -0.024530 118560.000000 0 0 1
-17.441226 -25.537318 0.983997 30.940576 0.971591 1.538988 0.116849 -0.029938 -85222.400000 0 0 1
-16.378526 -24.610838 1.018297 29.580169 0.983601 1.536365 0.103803 -0.017330 88480.700000 0 0 1
-15.085326 -25.151158 0.358397 29.330466 1.030534 1.558577 0.089178 -0.018706 -273982.000000 0 0 1
-14.931026 -25.239348 -1.069503 29.344575 1.036593 1.607251 0.077196 -0.016565 -236166.000000 0 0 1
-14.929926 -23.942438 -1.621703 28.262571 1.013222 1.628208 0.084385 -0.012497 -247679.000000 0 0 1
-15.205926 -24.009238 -3.150103 28.593475 1.006225 1.681189 0.065679 -0.005320 -430868.000000 0 0 1
-14.085526 -24.350938 -3.889203 28.398875 1.046382 1.708177 0.081896 -0.003695 -674886.000000 0 0 1
-14.303926 -24.267038 -5.293003 28.661949 1.038179 1.756532 0.070799 -0.003917 -276889.000000 0 0 1
-13.096926 -24.704838 -6.101303 28.619650 1.083332 1.785631 0.093992 -0.006505 -217299.000000 0 0 1
-12.722626 -26.044158 -5.927903 29.585527 1.116389 1.772527 0.065004 -0.006854 -1099370.000000 0 0 1
-11.529726 -26.337708 -6.540103 29.485291 1.158164 1.794466 0.068309 -0.006889 -842382.000000 0 0 1
23.758474 12.383062 27.960246 38.724420 0.480468 0.764062 0.072394 -0.017267 1401610.000000 0 0 1
25.050574 11.982662 28.568276 39.840455 0.446169 0.771211 0.059787 -0.020710 1705660.000000 0 0 1
25.027074 11.597062 29.926676 40.699536 0.433925 0.744676 0.078596 -0.017690 -318176.000000 0 0 1
24.905074 12.703862 30.995786 41.741941 0.471688 0.733916 0.112260 -0.050383 476007.000000 0 0 1
23.647474 13.381462 31.051086 41.260593 0.514948 0.718855 0.119184 -0.052372 492116.000000 0 0 1
23.590074 14.058762 32.280792 42.381481 0.537444 0.704907 0.123947 -0.041797 113980.000000 0 0 1
22.180774 14.543662 32.729033 42.127122 0.580363 0.681051 0.110324 -0.041123 246483.000000 0 0 1
21.330074 13.481662 33.142365 41.655056 0.563653 0.650735 0.134878 -0.026282 321932.000000 0 0 1
20.236374 14.014262 33.888676 41.884994 0.605694 0.628197 0.140333 -0.026268 289262.000000 0 0 1
19.248474 12.968562 -33.355043 40.635529 0.592887 2.533667 0.130245 -0.023054 -211106.000000 0 0 1
18.267174 12.581662 33.560141 40.227739 0.603141 0.584018 0.102215 -0.016606 -376777.000000 0 0 1
17.167474 12.191562 -33.485873 39.555784 0.617509 2.580263 0.080854 -0.008617 85534.200000 0 0 1
15.803774 12.163962 33.622246 39.091901 0.655982 0.535366 0.070086 -0.006759 234667.000000 0 0 1
15.700174 10.989562 32.841751 38.024289 0.610702 0.528222 0.067457 -0.001247 -818550.000000 0 0 1
14.391074 10.793562 32.443113 37.096625 0.643512 0.506275 0.087839 -0.005001 -713714.000000 0 0 1
14.252274 9.726862 31.373016 35.805102 0.598869 0.502842 0.099896 -0.004540 -143865.000000 0 0 1
14.732674 8.446762 31.742086 35.999438 0.520582 0.491262 0.074509 -0.007790 166054.000000 0 0 1
15.163074 7.692762 30.581566 34.990422 0.469499 0.507426 0.069361 -0.033198 -80046.900000 0 0 1
15.591574 6.262562 30.959796 35.225358 0.381939 0.497231 0.108031 -0.034984 371436.000000 0 0 1
14.572474 5.419862 31.496586 35.125018 0.356072 0.458540 0.108621 -0.028317 344266.000000 0 0 1
15.186874 4.184262 31.665276 35.367201 0.268848 0.461627 0.102336 -0.034180 -130828.000000 0 0 1
14.195874 3.116662 32.186311 35.315649 0.216118 0.424149 0.072431 -0.032825 -344289.000000 0 0 1
14.757874 1.897262 32.367962 35.624141 0.127858 0.430885 0.075647 -0.040351 -264922.000000 0 0 1
13.788774 0.923862 32.771341 35.566060 0.066901 0.399073 0.086444 -0.043468 -55497.300000 0 0 1
14.300374 -0.478038 33.268084 36.214564 -0.033416 0.406176 0.080711 -0.047895 -438171.000000 0 0 1
14.832674 -1.270038 32.213759 35.487287 -0.085416 0.432895 0.081846 -0.044578 179304.000000 0 0 1
15.433274 -2.484138 32.653551 36.202366 -0.159591 0.446479 0.103234 -0.052313 -219457.000000 0 0 1
15.719074 -3.567538 31.610756 35.483187 -0.223175 0.471549 0.106639 -0.050137 -1070960.000000 0 0 1
15.978074 -4.895038 32.159657 36.242293 -0.297281 0.479227 0.116398 -0.050633 534127.000000 0 0 1
17.178274 -5.064938 32.920422 37.476672 -0.286721 0.498241 0.087985 -0.048456 1092070.000000 0 0 1
18.557574 -4.738438 32.232320 37.493451 -0.249996 0.536156 0.096331 -0.041687 -95310.600000 0 0 1
18.680274 -3.312438 32.202241 37.375249 -0.175499 0.532397 0.098984 -0.042429 60101.200000 0 0 1
19.727174 -2.887638 31.333776 37.139001 -0.145346 0.566677 0.111462 -0.049949 34271.600000 0 0 1
19.829174 -1.372538 31.114756 36.921648 -0.069108 0.568473 0.125345 -0.048525 -221092.000000 0 0 1
19.986374 -0.685838 32.301498 37.990951 -0.034302 0.554352 0.102501 -0.042492 103105.000000 0 0 1
19.822274 0.740762 32.114355 37.746564 0.037353 0.553312 0.099860 -0.034778 -284191.000000 0 0 1
20.894874 1.520962 31.341616 37.698886 0.072663 0.589233 0.123020 -0.030329 -365524.000000 0 0 1
20.743674 1.455662 29.939526 36.452630 0.070059 0.607063 0.125139 -0.038184 629123.000000 0 0 1
21.754974 2.201762 29.220576 36.496147 0.100864 0.642420 0.110790 -0.024451 525301.000000 0 0 1
21.537374 3.719762 29.159266 36.441157 0.171025 0.643211 0.112248 -0.018163 -218978.000000 0 0 1
21.272774 4.316962 30.430136 37.378607 0.200215 0.619609 0.117653 -0.018211 193419.000000 0 0 1
20.862074 5.659362 30.365126 37.273253 0.264900 0.618649 0.129926 -0.016062 -270915.000000 0 0 1
20.273774 6.082862 31.707116 38.123069 0.291490 0.588626 0.133718 -0.016010 -264120.000000 0 0 1
19.066574 5.470762 32.073614 37.711805 0.279423 0.553875 0.108201 -0.006341 -33343.800000 0 0 1
18.807874 5.794662 33.435070 38.797141 0.298869 0.532004 0.093034 -0.011214 -294065.000000 0 0 1
17.650374 4.968262 -33.861323 38.507253 0.274382 2.645290 0.097849 -0.017130 -684724.000000 0 0 1
17.961774 3.597562 -33.676213 38.336081 0.197674 2.643399 0.088210 -0.007772 365043.000000 0 0 1
16.928974 2.847262 -33.036613 37.230564 0.166629 2.662366 0.077430 -0.007740 60570.700000 0 0 1
17.156674 1.316862 -33.169143 37.366799 0.076605 2.663042 0.082367 -0.034091 -385813.000000 0 0 1
18.255874 0.881862 -32.411413 37.209600 0.048268 2.628132 0.067821 -0.029202 -126338.000000 0 0 1
18.508174 -0.464038 -32.643983 37.528622 -0.025067 2.625679 0.083207 -0.037146 -267466.000000 0 0 1
19.553574 -1.036938 -31.661693 37.227413 -0.052981 2.587720 0.095265 -0.033678 -339493.000000 0 0 1
19.330374 -1.087138 -30.283263 35.943306 -0.056181 2.572757 0.104220 -0.035532 30645.400000 0 0 1
18.920774 0.086162 -29.654573 35.176652 0.004554 2.573667 0.084847 -0.029070 -123144.000000 0 0 1
18.489774 -0.022838 -28.160563 33.688122 -0.001235 2.560603 0.087516 -0.026523 -435153.000000 0 0 1
17.324474 -0.772438 -28.038483 32.968024 -0.044557 2.587684 0.100087 -0.032054 -585475.000000 0 0 1
16.858974 -0.896938 -26.724493 31.610568 -0.053152 2.578164 0.094046 -0.029652 -93043.700000 0 0 1
17.547474 -1.979738 -25.839373 31.297067 -0.112347 2.542090 0.099325 -0.029276 -22164.200000 0 0 1
18.817174 -1.499738 -25.416103 31.659336 -0.079532 2.502772 0.106799 -0.023927 22816.800000 0 0 1
19.760874 -2.524538 -25.161603 32.093172 -0.127066 2.471908 0.090183 -0.025455 318795.000000 0 0 1
20.678674 -2.840738 -26.345443 33.611899 -0.136521 2.471579 0.099646 -0.037798 -215917.000000 0 0 1
21.539574 -1.783938 -26.782123 34.415372 -0.082633 2.462595 0.096205 -0.031218 119149.000000 0 0 1
22.167774 -2.098838 -28.035173 35.802043 -0.094398 2.470368 0.085860 -0.033105 6315.620000 0 0 1
23.593274 -1.559638 -28.120383 36.740046 -0.066009 2.442440 0.066432 -0.036756 173639.000000 0 0 1
24.633274 -2.362538 -27.563213 37.042010 -0.095616 2.409993 0.070269 -0.032229 880443.000000 0 0 1
25.920474 -1.975638 -28.069663 38.258072 -0.076072 2.394537 0.070422 -0.032804 194489.000000 0 0 1
27.066674 -2.915338 -27.829373 38.930426 -0.107296 2.367204 0.089402 -0.030053 -956698.000000 0 0 1
27.021774 -4.074238 -28.614533 39.567249 -0.149649 2.379203 0.101171 -0.034038 431665.000000 0 0 1
28.174174 -4.917138 -28.554393 40.414301 -0.172786 2.355396 0.096603 -0.033788 320384.000000 0 0 1
28.223674 -5.983838 -27.461003 39.830752 -0.208921 2.331515 0.094527 -0.025988 -61432.400000 0 0 1
28.327674 -5.593738 -26.102173 38.923906 -0.194957 2.305807 0.089196 -0.019644 226467.000000 0 0 1
28.112374 -6.770638 -25.253543 38.391256 -0.236341 2.288683 0.071767 -0.020334 -72979.800000 0 0 1
28.385974 -6.542938 -23.750003 37.585053 -0.226542 2.254799 0.057899 -0.019144 591849.000000 0 0 1
29.764474 -6.287938 -23.474003 38.425134 -0.208195 2.227996 0.056240 -0.021058 657410.000000 0 0 1
29.899474 -5.836438 -22.136803 37.657411 -0.192778 2.199191 0.067525 -0.021389 207265.000000 0 0 1
31.334074 -5.450138 -21.655603 38.477180 -0.172214 2.168586 0.063564 -0.021024 -59088.400000 0 0 1
31.743674 -4.232538 -22.220503 38.978532 -0.132553 2.177388 0.080527 -0.032116 607330.000000 0 0 1
32.951674 -3.796138 -21.555803 39.558515 -0.114698 2.147077 0.088835 -0.030449 810358.000000 0 0 1
33.463574 -2.552038 -22.291703 40.289499 -0.076116 2.157103 0.097601 -0.030862 375634.000000 0 0 1
32.687874 -1.364438 -21.998903 39.424745 -0.041717 2.162767 0.088019 -0.028309 827119.000000 0 0 1
33.359074 -0.240738 -22.561603 40.272965 -0.007216 2.165444 0.101308 -0.023628 45727.700000 0 0 1
32.467674 1.012362 -22.438503 39.479883 0.031171 2.175299 0.094348 -0.021834 484509.000000 0 0 1
31.310274 0.926462 -23.280103 39.027616 0.029581 2.209934 0.074484 -0.020751 1046770.000000 0 0 1
30.152174 1.463762 -22.635503 37.731448 0.048508 2.214186 0.061118 -0.014267 -292135.000000 0 0 1
28.981774 1.658862 -23.586803 37.403641 0.057176 2.253125 0.071920 -0.016411 -678293.000000 0 0 1
27.977674 2.455262 -22.985303 36.291910 0.087534 2.256664 0.062636 -0.015985 -326212.000000 0 0 1
27.028374 2.648762 -23.985403 36.233251 0.097687 2.294243 0.088437 -0.021282 -456751.000000 0 0 1
25.994074 3.758062 -23.679103 35.362619 0.143579 2.304478 0.083999 -0.010246 -168636.000000 0 0 1
26.582874 5.039662 -23.630803 35.923004 0.187359 2.288714 0.067387 -0.000599 117136.000000 0 0 1
25.641274 6.055062 -23.328003 35.189976 0.231897 2.295503 0.082651 -0.004746 -148252.000000 0 0 1
26.242174 7.359562 -22.782503 35.522631 0.273424 2.267055 0.092235 -0.000785 427926.000000 0 0 1
27.109274 8.149262 -23.645303 36.883920 0.292014 2.266692 0.083903 -0.006205 604748.000000 0 0 1
27.244974 9.412662 -23.063903 36.916533 0.332645 2.245618 0.097636 -0.007337 -122947.000000 0 0 1
28.117074 10.386362 -23.902303 38.337533 0.353849 2.243969 0.123758 -0.005185 8220.570000 0 0 1
27.668374 10.703562 -25.215953 38.935196 0.369121 2.275278 0.157856 -0.012442 157365.000000 0 0 1
26.468874 11.445762 -25.339013 38.388440 0.408142 2.291707 0.164192 -0.015933 196222.000000 0 0 1
26.235474 11.789162 -26.877333 39.365918 0.422321 2.322325 0.173902 -0.019651 10324.400000 0 0 1
25.811574 10.661562 -27.670413 39.313586 0.391709 2.351583 0.162523 -0.020829 439646.000000 0 0 1
26.874574 9.775262 -27.946163 39.984828 0.348859 2.344681 0.148440 -0.028691 126932.000000 0 0 1
27.858374 10.081062 -29.097853 41.525918 0.347209 2.347196 0.146421 -0.030205 -596631.000000 0 0 1
28.829674 11.096862 -28.844923 42.264880 0.367431 2.321946 0.135856 -0.030574 768596.000000 0 0 1
29.553674 11.526162 -30.010853 43.668334 0.371863 2.328486 0.143517 -0.033198 769295.000000 0 0 1
30.536274 10.458562 -30.635703 44.501594 0.329974 2.330102 0.110667 -0.032420 -433060.000000 0 0 1
29.860374 9.459462 -31.438873 44.379343 0.306788 2.358042 0.100237 -0.027705 -179318.000000 0 0 1
30.500974 8.279162 -31.700113 44.763279 0.265053 2.357702 0.085614 -0.027264 -422424.000000 0 0 1
29.536474 7.285362 -32.409313 44.450460 0.241829 2.387818 0.087800 -0.030979 531523.000000 0 0 1
28.383174 6.937862 -31.664683 43.085852 0.239735 2.396346 0.108669 -0.037958 101551.000000 0 0 1
27.307474 6.622062 -32.529003 42.984717 0.237907 2.429135 0.077228 -0.026386 201177.000000 0 0 1
25.937274 6.632162 -31.804203 41.572047 0.250336 2.441897 0.108013 -0.021463 -569132.000000 0 0 1
25.463074 7.889462 -31.376063 41.171217 0.300459 2.437327 0.127057 -0.010445 569032.000000 0 0 1
24.296174 7.874462 -30.549303 39.819231 0.313420 2.445260 0.130511 -0.016168 -86349.000000 0 0 1
22.970074 7.556662 -31.202903 39.475924 0.317826 2.482305 0.154755 -0.015762 -1202760.000000 0 0 1
22.585274 8.613362 -32.070973 40.160079 0.364344 2.495726 0.155971 -0.018142 -701318.000000 0 0 1
21.376774 8.417362 -32.722353 39.982131 0.375117 2.529460 0.145032 -0.012581 -445570.000000 0 0 1
21.047574 9.537662 -33.733633 40.889184 0.425469 2.541001 0.147933 -0.011575 137154.000000 0 0 1
21.814374 9.439062 32.902950 40.590232 0.408374 0.625599 0.125954 -0.015429 34151.200000 0 0 1
21.504274 10.471562 31.989855 39.942938 0.453155 0.642018 0.120225 -0.025437 69120.600000 0 0 1
20.208574 10.305062 31.161906 38.544068 0.471564 0.629240 0.113297 -0.024896 94759.500000 0 0 1
20.173274 9.115762 30.433196 37.632932 0.424411 0.628883 0.102548 -0.021694 -67997.500000 0 0 1
21.068174 8.997862 29.324596 37.212383 0.403634 0.663189 0.117137 -0.026521 -456957.000000 0 0 1
20.659574 9.851662 28.083896 36.229525 0.444962 0.683819 0.116116 -0.027637 955711.000000 0 0 1
19.482574 9.337462 27.414406 34.904277 0.446929 0.667427 0.100569 -0.012108 1380500.000000 0 0 1
18.221974 9.786062 27.929366 34.754235 0.492844 0.637435 0.099093 -0.024443 305491.000000 0 0 1
17.026574 9.053562 27.277656 33.405714 0.488709 0.615376 0.119071 -0.022948 -247335.000000 0 0 1
16.739174 9.326962 25.920966 32.234898 0.508349 0.636590 0.121354 -0.018821 420566.000000 0 0 1
15.518274 8.764562 25.456316 31.075045 0.514127 0.610802 0.129141 -0.021554 200621.000000 0 0 1
15.297874 7.282662 25.175906 30.346143 0.444310 0.592361 0.135517 -0.024659 -214628.000000 0 0 1
15.444274 6.538162 26.383046 31.262410 0.400463 0.566243 0.125475 -0.028019 52535.900000 0 0 1
15.430774 5.130262 26.055566 30.713530 0.320973 0.557951 0.131976 -0.031615 -52414.000000 0 0 1
15.834274 4.307362 27.285716 31.840036 0.265601 0.541450 0.106264 -0.037492 184039.000000 0 0 1
17.108174 4.661762 27.857956 33.022528 0.266029 0.566835 0.113844 -0.028938 1141650.000000 0 0 1
17.570674 3.816862 28.983576 34.107840 0.213906 0.555261 0.118417 -0.033531 -191761.000000 0 0 1
17.922674 2.348262 28.543386 33.785522 0.130280 0.564529 0.127309 -0.034534 -266315.000000 0 0 1
16.760774 1.555962 28.273156 32.904649 0.092568 0.537004 0.119576 -0.048577 697944.000000 0 0 1
16.047974 1.048462 29.369506 33.484394 0.065240 0.500984 0.101210 -0.047133 -214375.000000 0 0 1
16.213574 -0.476638 29.630806 33.780051 -0.029389 0.500862 0.115661 -0.045520 -779768.000000 0 0 1
15.517474 -1.224738 28.706016 32.654668 -0.078763 0.496871 0.114691 -0.039343 -15880.600000 0 0 1
16.086774 -1.459938 27.389656 31.797940 -0.090506 0.532844 0.147736 -0.038562 -288971.000000 0 0 1
17.246474 -2.553038 27.412696 32.487148 -0.146965 0.566469 0.129203 -0.023967 1575200.000000 0 0 1
18.545674 -2.115138 27.899346 33.567683 -0.113560 0.589647 0.136185 -0.041105 1152330.000000 0 0 1
19.181274 -1.176738 27.064766 33.193487 -0.061271 0.617439 0.136826 -0.039015 -1448880.000000 0 0 1
20.645174 -0.880538 27.371956 34.296101 -0.042625 0.646650 0.145236 -0.022291 -373477.000000 0 0 1
21.567574 -1.655338 26.641046 34.316844 -0.076601 0.681981 0.130027 -0.025317 541170.000000 0 0 1
22.914074 -1.308438 27.023216 35.454492 -0.057040 0.704100 0.115339 -0.020202 1791220.000000 0 0 1
24.007674 -1.930738 26.017406 35.454218 -0.080249 0.746852 0.105368 -0.018539 592660.000000 0 0 1
24.083774 -1.293138 24.783806 34.582329 -0.053642 0.771793 0.113349 -0.005626 211036.000000 0 0 1
23.343674 -1.969338 23.786966 33.386003 -0.084164 0.777766 0.130126 -0.008847 -46949.800000 0 0 1
23.377674 -1.340838 22.361916 32.378524 -0.057293 0.808422 0.122971 -0.019862 -217114.000000 0 0 1
22.642174 -0.164738 22.384116 31.839345 -0.007276 0.791143 0.114507 -0.019142 -180195.000000 0 0 1
22.635774 0.519862 21.184716 31.007108 0.022962 0.818631 0.094141 -0.006136 -13113.600000 0 0 1
-31.383376 -27.016692 -9.864003 42.568961 0.710765 1.804640 0.043396 0.025372 197262.000000 0 0 1
-31.584166 -25.876292 -9.107203 41.833995 0.686387 1.790252 0.057912 0.025962 -187748.000000 0 0 1
-31.841246 -26.161192 -7.732703 41.929316 0.687782 1.756280 0.063012 0.012184 -653517.000000 0 0 1
-32.114056 -24.881192 -6.879303 41.203290 0.659170 1.738542 0.092138 0.000352 -117836.000000 0 0 1
-31.006706 -24.117592 -6.481003 39.813031 0.661069 1.734310 0.129435 -0.011407 -485066.000000 0 0 1
-30.024636 -24.802692 -5.730503 39.363574 0.690441 1.716894 0.119899 -0.012486 4988.060000 0 0 1
-28.823236 -23.944792 -5.226403 37.834472 0.693209 1.709378 0.108747 -0.016737 -132841.000000 0 0 1
-28.878226 -22.973392 -4.219003 37.142006 0.672007 1.684633 0.128460 -0.023690 -358454.000000 0 0 1
-29.722106 -21.909492 -4.544803 37.203288 0.635223 1.693264 0.159585 -0.030390 -253911.000000 0 0 1
-29.721846 -20.884292 -3.444103 36.488404 0.612508 1.665326 0.133824 -0.034524 -657202.000000 0 0 1
-28.583716 -20.110192 -3.505903 35.124635 0.613107 1.670776 0.142710 -0.038704 -497612.000000 0 0 1
-28.594796 -19.095792 -2.470003 34.473359 0.588791 1.642507 0.153434 -0.034496 -399574.000000 0 0 1
-27.562486 -17.987692 -2.652403 33.019432 0.578211 1.651212 0.143054 -0.027906 -237957.000000 0 0 1
-27.841626 -17.201592 -3.814103 32.948418 0.553432 1.686816 0.141898 -0.030213 -136442.000000 0 0 1
-26.933236 -16.163392 -4.046703 31.670652 0.540514 1.698921 0.119569 -0.027176 -235827.000000 0 0 1
-27.280226 -15.380592 -5.332603 31.768065 0.513376 1.739455 0.121195 -0.037578 487960.000000 0 0 1
-28.414196 -14.546792 -5.080603 32.323183 0.473166 1.728632 0.111676 -0.025908 263534.000000 0 0 1
-28.699906 -13.621992 -6.129403 32.354487 0.443151 1.761393 0.134661 -0.040019 -429656.000000 0 0 1
-30.026226 -12.920792 -5.848803 33.207372 0.406365 1.747850 0.133694 -0.034181 -170558.000000 0 0 1
-31.147486 -13.728792 -6.228303 34.604008 0.415150 1.751770 0.136066 -0.030243 -57146.500000 0 0 1
-32.290066 -12.959692 -6.011503 35.309207 0.381672 1.741883 0.107212 -0.028381 -921556.000000 0 0 1
-33.534786 -13.398092 -6.765603 36.740497 0.380100 1.755999 0.082951 -0.030195 -415597.000000 0 0 1
-34.271217 -14.480692 -6.216703 37.720739 0.399779 1.736360 0.080508 -0.024408 180956.000000 0 0 1
-34.372160 -15.471192 -7.230603 38.380786 0.422944 1.760320 0.094258 -0.031251 -485544.000000 0 0 1
-35.382347 -16.639092 -6.905403 39.704589 0.439578 1.745605 0.094805 -0.026223 1225870.000000 0 0 1
-36.787526 -16.370192 -6.887303 40.850216 0.418682 1.740204 0.093728 -0.037345 713128.000000 0 0 1
-37.216246 -15.398192 -5.952503 40.713456 0.392303 1.717527 0.099154 -0.045789 -36456.500000 0 0 1
36.184741 -15.473092 -5.656803 39.758665 -0.404082 1.713559 0.125277 -0.042177 661483.000000 0 0 1
35.345411 -14.869392 -6.633003 38.915210 -0.398213 1.742080 0.150205 -0.045735 832117.000000 0 0 1
33.939051 -15.088492 -6.598603 37.723511 -0.418334 1.746621 0.164279 -0.046488 1042500.000000 0 0 1
33.145811 -14.441592 -5.381903 36.553649 -0.410898 1.718567 0.176995 -0.051094 -410921.000000 0 0 1
33.411441 -14.934492 -4.091903 36.825359 -0.420346 1.682143 0.159148 -0.055053 523435.000000 0 0 1
32.602281 -14.201692 -3.175803 35.702696 -0.410818 1.659865 0.179904 -0.047484 -621714.000000 0 0 1
32.475291 -14.797592 -1.750503 35.730624 -0.427548 1.619808 0.173885 -0.052484 -883283.000000 0 0 1
33.611261 -14.603892 -0.945103 36.659020 -0.409885 1.596580 0.202386 -0.048733 896483.000000 0 0 1
34.879041 -15.217792 -1.243903 38.074611 -0.411404 1.603472 0.161450 -0.052154 336131.000000 0 0 1
34.823221 -16.724392 -1.737703 38.670164 -0.447736 1.615748 0.140092 -0.044102 -1400920.000000 0 0 1
34.723351 -17.689592 -0.656303 38.975165 -0.471174 1.587636 0.142078 -0.039155 208588.000000 0 0 1
34.597581 -19.064592 -0.993303 39.515034 -0.503640 1.595936 0.124603 -0.033971 -296718.000000 0 0 1
35.723541 -19.777992 -1.758903 40.870944 -0.505634 1.613845 0.102858 -0.044802 -246048.000000 0 0 1
35.849461 -19.369792 -3.105203 40.865817 -0.495373 1.646855 0.078914 -0.042184 -423974.000000 0 0 1
36.803671 -20.147792 -3.730503 42.123157 -0.500875 1.659474 0.083243 -0.031754 -543315.000000 0 0 1
36.969751 -19.610692 -5.195603 42.170321 -0.487712 1.694315 0.116396 -0.034555 -224540.000000 0 0 1
35.790191 -19.769192 -5.940803 41.316484 -0.504656 1.715084 0.104617 -0.036821 1584.570000 0 0 1
35.784131 -18.811992 -7.003803 41.029847 -0.484002 1.742337 0.111624 -0.036705 -118968.000000 0 0 1
34.547591 -18.842392 -7.924903 40.141946 -0.499308 1.769524 0.136176 -0.043280 -11806.000000 0 0 1
34.578971 -20.020392 -8.650703 40.882221 -0.524817 1.784009 0.143779 -0.046542 422109.000000 0 0 1
33.407051 -20.112792 -9.442903 40.121364 -0.541927 1.808384 0.133461 -0.046994 9243.250000 0 0 1
33.105901 -21.434292 -10.135703 40.720535 -0.574578 1.822350 0.121812 -0.034637 -292195.000000 0 0 1
32.798201 -22.498592 -9.307303 40.847699 -0.601248 1.800669 0.117304 -0.031954 103636.000000 0 0 1
32.816991 -23.767492 -9.985803 41.732060 -0.626812 1.812424 0.082693 -0.022682 -287983.000000 0 0 1
32.145731 -24.848892 -9.148803 41.647521 -0.658064 1.792275 0.092659 -0.021738 1533290.000000 0 0 1
30.713881 -24.638092 -8.993603 40.388896 -0.676069 1.795354 0.088023 -0.024920 1310280.000000 0 0 1
29.924141 -25.808092 -9.000203 40.527959 -0.711678 1.794737 0.068891 -0.024794 -266842.000000 0 0 1
28.459641 -25.570592 -8.650303 39.225426 -0.731978 1.793152 0.067683 -0.027205 -396342.000000 0 0 1
27.853641 -24.707792 -9.638203 38.460307 -0.725619 1.824098 0.067326 -0.025176 -437678.000000 0 0 1
26.513341 -24.503992 -9.273703 37.274716 -0.746033 1.822231 0.063529 -0.026006 -148820.000000 0 0 1
25.727641 -23.663292 -10.361703 36.458576 -0.743626 1.858973 0.088308 -0.029920 -170372.000000 0 0 1
25.446041 -24.529192 -11.458903 37.154928 -0.767054 1.884316 0.076769 -0.026000 -73426.600000 0 0 1
25.012741 -23.831692 -12.587703 36.770056 -0.761223 1.920198 0.086095 -0.010770 -229101.000000 0 0 1
24.114541 -24.812592 -13.382203 37.097967 -0.799664 1.939843 0.088267 -0.030098 228612.000000 0 0 1
24.856541 -25.950092 -13.876803 38.520391 -0.806919 1.939328 0.077576 -0.028803 662645.000000 0 0 1
24.104241 -27.170092 -13.723603 38.827382 -0.845120 1.932055 0.095224 -0.016381 12077.400000 0 0 1
24.730341 -28.390492 -14.439603 40.325078 -0.854192 1.937007 0.085652 -0.016794 -93107.200000 0 0 1
24.555841 -28.334792 -15.881303 40.719351 -0.856725 1.971448 0.096011 -0.011816 422884.000000 0 0 1
25.020241 -29.571292 -16.403203 42.065887 -0.868571 1.971364 0.081975 -0.016665 -113968.000000 0 0 1
24.865141 -29.523892 -17.897703 42.547188 -0.870846 2.004964 0.091710 -0.021105 508394.000000 0 0 1
23.502141 -29.419492 -18.304303 41.867704 -0.896749 2.023272 0.098280 -0.016025 345578.000000 0 0 1
23.397041 -29.738892 -19.666003 42.644752 -0.904188 2.050097 0.093612 -0.009434 356826.000000 0 0 1
21.931141 -29.712892 -20.183703 42.085778 -0.934954 2.070978 0.082545 -0.003177 237992.000000 0 0 1
21.842941 -29.997192 -21.558503 42.915203 -0.941416 2.097112 0.062212 -0.006991 -210038.000000 0 0 1
20.542141 -29.851492 -22.073703 42.430407 -0.968071 2.117920 0.072356 -0.013344 -577827.000000 0 0 1
20.502241 -30.071392 -23.589303 43.371485 -0.972400 2.145862 0.071487 -0.017036 -426148.000000 0 0 1
20.834541 -28.884492 -24.335503 43.134773 -0.945914 2.170228 0.075727 -0.019325 494123.000000 0 0 1
20.712941 -29.087692 -25.748743 44.024056 -0.952005 2.195527 0.071699 -0.018100 -336660.000000 0 0 1
21.064541 -27.816392 -26.570093 43.856999 -0.922658 2.221611 0.083295 -0.018899 -165995.000000 0 0 1
20.174641 -26.728492 -26.546013 42.733116 -0.924231 2.241075 0.083913 -0.025162 -243216.000000 0 0 1
19.268941 -26.802092 -27.612463 43.035942 -0.947476 2.267397 0.113542 -0.026505 -586685.000000 0 0 1
18.464541 -25.533092 -27.821913 42.034948 -0.944694 2.294115 0.106783 -0.024132 -511363.000000 0 0 1
17.586141 -25.297792 -26.751663 40.803212 -0.963323 2.285808 0.088224 -0.013646 -471504.000000 0 0 1
16.951541 -24.086992 -26.964283 39.932574 -0.957549 2.312094 0.077670 -0.009329 -216051.000000 0 0 1
15.821941 -23.853692 -25.927383 38.620741 -0.985134 2.306802 0.081126 -0.006834 -184278.000000 0 0 1
14.706841 -24.727792 -26.107023 38.850116 -1.034246 2.307694 0.112110 -0.018373 326612.000000 0 0 1
13.626341 -24.230392 -25.288863 37.580788 -1.058509 2.308945 0.081446 -0.017354 499415.000000 0 0 1
13.627641 -24.486892 -23.760803 36.740934 -1.062955 2.274062 0.069035 -0.015780 -350199.000000 0 0 1
14.648741 -23.780292 -23.072703 36.227579 -1.018693 2.261244 0.047620 -0.015991 -177135.000000 0 0 1
14.619441 -24.002892 -21.708203 35.512152 -1.023734 2.228485 0.062385 -0.022861 603766.000000 0 0 1
15.927241 -23.557392 -20.977203 35.336536 -0.976289 2.206372 0.052394 -0.031390 504802.000000 0 0 1
15.941741 -22.134592 -20.872003 34.347049 -0.946629 2.223932 0.040655 -0.033873 80542.200000 0 0 1
17.169241 -21.732892 -20.307203 34.343615 -0.902175 2.203460 0.055407 -0.030134 -240577.000000 0 0 1
17.088441 -20.296592 -19.678703 33.033586 -0.871002 2.208956 0.075862 -0.010635 356429.000000 0 0 1
16.259641 -20.120192 -18.513103 31.810895 -0.891120 2.191950 0.076170 -0.025378 1486990.000000 0 0 1
14.904241 -19.709492 -18.843803 31.075543 -0.923341 2.222305 0.059338 -0.028949 517976.000000 0 0 1
13.966141 -19.791592 -17.672703 29.984740 -0.956282 2.201100 0.070592 -0.027668 -367225.000000 0 0 1
14.294941 -18.683192 -16.843203 28.932689 -0.917687 2.192168 0.095312 -0.026945 409428.000000 0 0 1
13.542541 -18.777692 -15.637503 27.938032 -0.945981 2.164845 0.100966 -0.034735 142195.000000 0 0 1
13.583341 -17.469092 -14.824303 26.635245 -0.909886 2.161044 0.109293 -0.034123 -243156.000000 0 0 1
12.756141 -16.497592 -15.419303 25.935392 -0.912604 2.207474 0.105896 -0.041738 87888.900000 0 0 1
12.782041 -15.233392 -14.780303 24.776887 -0.872676 2.209974 0.095931 -0.038732 -350959.000000 0 1 0
11.388441 -14.826792 -14.283403 23.527557 -0.915812 2.223193 0.093364 -0.027524 -145970.000000 0 1 0
10.545141 -14.477192 -15.374903 23.604591 -0.941265 2.280162 0.106039 -0.017160 155133.000000 0 1 0
9.338741 -13.868992 -14.930803 22.416286 -0.978178 2.299723 0.104166 -0.020467 131029.000000 0 1 0
8.475241 -13.296792 -16.058403 22.505703 -1.003337 2.365314 0.081223 -0.013404 -244905.000000 0 1 0
8.807741 -12.096692 -16.738603 22.451884 -0.941452 2.412129 0.072992 -0.009474 490542.000000 0 1 0
10.110941 -12.083692 -17.361703 23.445158 -0.874049 2.404646 0.102515 -0.016591 1023030.000000 0 1 0
10.520141 -10.763992 -18.128903 23.562555 -0.796855 2.448689 0.110825 -0.020158 5610.540000 0 1 0
9.693441 -10.708092 -19.254203 24.069698 -0.835091 2.497984 0.108848 -0.026103 15420.300000 0 1 0
9.751241 -9.510692 -19.955303 24.161003 -0.772910 2.542647 0.097262 -0.034453 -38651.400000 0 1 0
9.458141 -9.572892 -21.466503 25.335892 -0.791428 2.581633 0.094868 -0.036180 -133669.000000 0 0 1
10.343741 -10.369592 -22.196603 26.593431 -0.786646 2.558320 0.094610 -0.017446 -543546.000000 0 0 1
10.058441 -10.362992 -23.569903 27.642434 -0.800310 2.591873 0.089696 -0.015317 632732.000000 0 0 1
11.182141 -11.059192 -24.437503 29.060928 -0.779870 2.569751 0.091505 -0.010927 591143.000000 0 0 1
11.375341 -12.442592 -24.130603 29.436414 -0.830177 2.531777 0.081176 -0.009537 -347176.000000 0 0 1
12.425141 -13.038692 -24.844703 30.686330 -0.809488 2.514325 0.069882 -0.013530 -76680.500000 0 0 1
12.568041 -14.503992 -24.443103 31.077109 -0.856788 2.475967 0.059029 -0.009709 6033.600000 0 0 1
11.401441 -15.176692 -24.823403 31.249418 -0.926498 2.488756 0.050491 -0.013218 -343523.000000 0 0 1
11.586941 -16.562892 -24.521703 31.778932 -0.960357 2.452202 0.043684 -0.011859 342598.000000 0 0 1
10.382941 -17.474192 -24.857903 32.110250 -1.034662 2.456155 0.037267 -0.016212 152991.000000 0 0 1
10.283941 -17.897892 -26.172813 33.333318 -1.049271 2.473791 0.040882 -0.014549 146730.000000 0 0 1
9.160841 -18.761992 -26.316123 33.592732 -1.116580 2.470894 0.040320 -0.020727 233966.000000 0 0 1
9.154541 -19.461992 -27.692433 35.063451 -1.131124 2.481248 0.049722 -0.013895 -498077.000000 0 0 1
9.990541 -20.565592 -27.682853 35.903967 -1.118582 2.451245 0.038502 -0.016770 -264292.000000 0 0 1
10.034041 -21.332792 -28.871063 37.273426 -1.131143 2.456839 0.044440 -0.019442 -359402.000000 0 0 1
11.030841 -22.469492 -28.694953 38.078312 -1.114435 2.424284 0.045852 -0.007986 -277158.000000 0 0 1
11.095541 -23.508692 -29.634163 39.420213 -1.129818 2.421509 0.053656 -0.008801 181868.000000 0 0 1
11.794541 -24.678892 -29.143563 39.968815 -1.124968 2.387886 0.088060 -0.024002 276354.000000 0 0 1
10.941041 -25.767792 -28.420763 39.892671 -1.169263 2.363752 0.085233 -0.022143 324417.000000 0 0 1
10.307641 -25.310292 -27.225063 38.575412 -1.184055 2.354295 0.089327 -0.024995 -224837.000000 0 0 1
9.948541 -26.363092 -26.347363 38.576801 -1.209953 2.322637 0.084823 -0.020228 188135.000000 0 0 1
9.108041 -25.747292 -25.183303 37.149404 -1.230787 2.315688 0.062404 -0.012789 -269747.000000 0 0 1
9.722441 -24.711892 -24.454803 36.100427 -1.195965 2.315033 0.069211 -0.012383 -322335.000000 0 0 1
9.278541 -23.346792 -24.766503 35.278090 -1.192514 2.349049 0.048334 -0.003782 508406.000000 0 0 1
10.395141 -22.206492 -24.771003 34.853835 -1.132982 2.361305 0.046026 0.000840 393569.000000 0 0 1
10.851241 -21.982992 -23.465803 33.935899 -1.112266 2.334324 0.051338 -0.012969 151159.000000 0 0 1
11.756141 -20.889292 -23.379503 33.483884 -1.058192 2.343720 0.050702 -0.020970 29177.800000 0 0 1
12.369141 -20.498292 -22.018703 32.526895 -1.027864 2.314391 0.043160 -0.019733 118625.000000 0 0 1
11.450341 -20.012092 -21.037603 31.211774 -1.051091 2.310444 0.048792 -0.020663 -39888.600000 0 0 1
11.284841 -18.630792 -20.983103 30.244746 -1.026190 2.337516 0.051354 -0.016627 411685.000000 0 0 1
12.530641 -17.770992 -20.534503 29.908041 -0.956644 2.327582 0.052785 -0.014986 679630.000000 0 0 1
13.583541 -17.759492 -21.486803 31.009592 -0.917852 2.336311 0.051061 -0.011108 -126551.000000 0 0 1
14.660041 -16.953492 -21.035303 30.737951 -0.857818 2.324499 0.065731 -0.012589 -517535.000000 0 0 1
15.679341 -16.743092 -22.130903 31.873966 -0.818196 2.338278 0.053515 0.003222 -904780.000000 0 0 1
16.840641 -17.506792 -21.977403 32.758223 -0.804790 2.306214 0.060385 0.008741 -257305.000000 0 0 1
17.835041 -17.065892 -22.859703 33.643712 -0.763364 2.317829 0.066939 0.003899 101081.000000 0 0 1
19.298241 -17.298792 -22.401703 34.256482 -0.730818 2.283578 0.071889 -0.002845 138544.000000 0 0 1
19.664241 -18.655692 -22.302803 35.101741 -0.759085 2.259292 0.079491 -0.011860 -663370.000000 0 0 1
20.977841 -18.663192 -21.843903 35.574438 -0.727074 2.231957 0.065454 -0.017956 -519905.000000 0 0 1
21.533041 -20.076992 -21.670803 36.556547 -0.750420 2.205330 0.095176 -0.030250 -274405.000000 0 0 1
20.923441 -20.762992 -20.615503 35.970699 -0.781549 2.181104 0.087684 -0.031734 68817.300000 0 0 1
21.351541 -22.096292 -20.508103 36.942072 -0.802538 2.159330 0.106659 -0.034132 -226900.000000 0 0 1
-16.702426 12.915962 29.167546 36.007483 -0.658246 0.626574 0.104297 -0.023053 201247.000000 0 0 1
-17.907226 13.343262 28.528406 36.229564 -0.640379 0.664161 0.108485 -0.024339 393651.000000 0 0 1
-17.724226 13.370062 27.130816 35.056924 -0.646272 0.685808 0.103998 -0.027445 269438.000000 0 0 1
-18.930626 13.978462 26.359266 35.335208 -0.636039 0.728795 0.113363 -0.019043 383266.000000 0 0 1
-19.097926 15.393562 26.686756 36.247420 -0.678409 0.743301 0.115118 -0.014788 383641.000000 0 0 1
-20.207826 15.906862 25.933076 36.522718 -0.666865 0.781222 0.112300 -0.019021 6563.770000 0 0 1
-20.475326 17.430962 26.052786 37.440954 -0.705257 0.801212 0.101464 -0.011222 60959.900000 0 0 1
-19.400726 18.211262 25.601246 36.925087 -0.753784 0.804697 0.079822 -0.008804 992874.000000 0 0 1
-18.227226 18.277762 26.473156 36.974807 -0.786783 0.772772 0.059696 -0.000343 1415900.000000 0 0 1
-17.032126 19.138262 25.912006 36.438969 -0.843561 0.779725 0.070422 -0.002127 483549.000000 0 0 1
-17.198826 20.584862 25.884956 37.276898 -0.874776 0.803215 0.082909 -0.010960 185687.000000 0 0 1
-16.145926 21.304262 25.234676 36.760731 -0.922275 0.814190 0.113584 -0.023028 250846.000000 0 0 1
-16.215026 22.846562 25.314166 37.758436 -0.953566 0.836016 0.099917 -0.026684 -111069.000000 0 0 1
-15.696826 23.523562 26.420556 38.701345 -0.982369 0.819375 0.098202 -0.025637 -28673.200000 0 0 1
-15.988226 24.884062 26.162736 39.488336 -0.999705 0.846587 0.088214 -0.028368 11966.300000 0 0 1
-15.412526 25.921662 27.153256 40.580510 -1.034371 0.837771 0.066673 -0.016867 -427308.000000 0 0 1
-14.025326 26.087062 27.152406 40.180813 -1.077496 0.828807 0.074863 -0.022455 -461462.000000 0 0 1
-13.614526 26.858262 28.289416 41.316009 -1.101642 0.816593 0.086038 -0.018272 -370763.000000 0 0 1
-12.103526 27.002962 28.407276 41.019857 -1.149416 0.805813 0.102296 -0.021815 -408429.000000 0 0 1
-11.522326 27.791662 27.404846 40.696020 -1.177770 0.831993 0.086358 -0.019668 -953635.000000 0 0 1
-10.196526 27.431962 27.256926 39.992771 -1.214920 0.820923 0.073212 -0.006311 -970441.000000 0 0 1
-9.293026 28.190362 26.303236 39.660019 -1.252362 0.845686 0.074935 -0.012587 948415.000000 0 0 1
-7.888826 27.861762 26.427216 39.203432 -1.294877 0.831044 0.073241 -0.012292 1457020.000000 0 0 1
-7.138726 28.419562 25.331506 38.733940 -1.324697 0.857953 0.089771 -0.019139 506775.000000 0 0 1
-5.661826 27.971062 25.203856 38.074545 -1.371078 0.847365 0.081313 -0.022158 72353.900000 0 0 1
-4.806126 28.572562 26.149346 39.029200 -1.404149 0.836595 0.104020 -0.025730 2546830.000000 0 0 1
-3.348326 28.402862 25.906136 38.588363 -1.453451 0.834773 0.095769 -0.021738 2871430.000000 0 0 1
-2.664626 29.351162 24.860386 38.556838 -1.480260 0.870071 0.095068 -0.023482 -260265.000000 0 0 1
-3.033126 28.977262 23.546566 37.460944 -1.466503 0.891092 0.090513 -0.019295 161808.000000 0 0 1
-2.684526 30.025762 22.630916 37.694979 -1.481626 0.926833 0.088520 -0.019812 -298530.000000 0 0 1
-3.072026 29.658862 21.171016 36.569077 -1.467586 0.953378 0.069764 -0.011162 814494.000000 0 0 1
-4.457226 29.649862 20.805216 36.494358 -1.421585 0.964176 0.070761 -0.005476 866578.000000 0 0 1
-5.199626 28.543662 21.349716 36.022037 -1.390608 0.936408 0.086940 -0.007963 155109.000000 0 0 1
-6.689526 28.451662 20.904816 35.934081 -1.339872 0.949912 0.078603 -0.011972 375674.000000 0 0 1
-6.926626 28.338962 19.509716 35.095640 -1.331076 0.981349 0.076357 -0.010635 62944.700000 0 0 1
-7.715826 27.190462 19.170316 34.151958 -1.294296 0.974811 0.058957 -0.010747 -757710.000000 0 0 1
-6.970126 25.817262 19.044416 32.829917 -1.307104 0.951953 0.058072 -0.007651 453691.000000 0 0 1
-6.071826 25.648362 17.955016 31.891819 -1.338342 0.972788 0.063797 -0.015988 672356.000000 0 0 1
-4.953626 26.537562 17.944516 32.415834 -1.386255 0.984148 0.086098 -0.018889 -389651.000000 0 0 1
-4.142026 26.654262 16.635216 31.691268 -1.416631 1.018181 0.079252 -0.027364 156052.000000 0 0 1
-3.386426 25.532962 16.230416 30.443824 -1.438936 1.008504 0.097165 -0.036314 153024.000000 0 0 1
-2.573726 25.887762 15.105216 30.082683 -1.471703 1.044744 0.105964 -0.048553 241680.000000 0 0 1
-1.808526 24.621462 14.595616 28.679595 -1.497475 1.036867 0.110793 -0.046045 -462947.000000 0 0 1
-0.656026 24.302762 15.306616 28.728855 -1.543809 1.008895 0.097496 -0.047403 -398020.000000 0 0 1
-0.059526 23.125262 14.799316 27.455437 -1.568222 1.001511 0.075742 -0.041525 -262199.000000 0 0 1
1.326674 22.758962 15.350816 27.484140 1.512570 0.978179 0.059894 -0.040915 337298.000000 0 0 1
2.340374 23.761162 15.284716 28.349475 1.472617 1.001365 0.063456 -0.047273 895682.000000 0 0 1
3.582374 23.228862 15.778016 28.308289 1.417781 0.979589 0.069313 -0.041057 -55158.200000 0 0 1
4.745974 24.175162 15.706716 29.217523 1.376945 1.003233 0.058780 -0.040430 -590220.000000 0 0 1
5.986074 23.504062 15.702116 28.893433 1.321415 0.996256 0.065909 -0.039626 -206312.000000 0 0 1
7.042374 24.438462 15.693916 29.885322 1.290230 1.017919 0.088382 -0.040996 -408992.000000 0 0 1
8.447274 23.891462 16.051516 29.996826 1.230946 1.006162 0.119781 -0.040494 -99743.200000 0 0 1
9.085274 23.356662 14.933216 29.173221 1.199826 1.033423 0.102942 -0.026616 -177048.000000 0 0 1
9.644574 24.200062 13.929616 29.541412 1.191553 1.079773 0.114956 -0.036066 -615980.000000 0 0 1
9.961874 23.450462 12.641516 28.442416 1.169091 1.110225 0.100768 -0.026622 481243.000000 0 0 1
11.073974 22.545162 12.792816 28.188178 1.114221 1.099731 0.102336 -0.025913 499294.000000 0 0 1
11.315774 21.815462 11.643416 27.194306 1.092297 1.128345 0.084655 -0.026160 -1090260.000000 0 0 1
12.686074 21.209762 11.684416 27.337082 1.031757 1.129159 0.109062 -0.032683 -987512.000000 0 0 1
12.844274 20.417662 12.803116 27.308901 1.009271 1.082835 0.095771 -0.018841 449176.000000 0 0 1
14.137374 19.796962 12.779916 27.479289 0.950658 1.087078 0.080683 -0.015875 356390.000000 0 0 1
14.503574 19.230762 14.215816 27.969006 0.924621 1.037621 0.081149 -0.014923 -45271.400000 0 0 1
15.625674 18.360562 14.213316 27.987324 0.865696 1.038111 0.082060 -0.007472 282971.000000 0 0 1
15.906174 17.962262 15.561116 28.597160 0.846032 0.995422 0.073040 -0.005668 533913.000000 0 0 1
17.206974 17.087062 15.634816 28.852992 0.781902 0.998126 0.057464 -0.003361 523719.000000 0 0 1
17.575774 16.604162 16.917516 29.509463 0.756979 0.960279 0.054039 -0.006183 -46142.900000 0 0 1
18.624774 15.669562 16.920516 29.643233 0.699438 0.963310 0.046758 -0.005723 -4384.090000 0 0 1
19.005074 15.210762 18.336816 30.476203 0.674956 0.925198 0.049952 -0.008024 -101693.000000 0 0 1
19.606574 16.189262 19.212416 31.868902 0.690220 0.923718 0.067510 -0.007077 145249.000000 0 0 1
18.782174 17.220162 19.752116 32.240505 0.742039 0.911388 0.058578 0.001035 -496155.000000 0 0 1
19.434174 18.282962 20.624116 33.723997 0.754885 0.912770 0.071422 0.007647 147081.000000 0 0 1
18.505774 19.219662 21.196516 34.075672 0.804319 0.899448 0.056124 0.004515 513925.000000 0 0 1
19.231274 20.222162 21.872416 35.456739 0.810508 0.906029 0.070547 0.005398 195569.000000 0 0 1
18.349674 21.258662 22.597716 36.045777 0.858710 0.893206 0.069532 -0.001565 -152276.000000 0 0 1
17.606674 20.815562 23.675126 36.108091 0.868721 0.855722 0.074561 -0.000690 165364.000000 0 0 1
16.838974 21.877962 24.280686 36.766126 0.914820 0.849433 0.080704 -0.012684 464105.000000 0 0 1
16.057274 21.389562 25.520326 36.968047 0.926843 0.808845 0.102192 -0.018467 598279.000000 0 0 1
14.956974 20.511462 25.254466 35.808089 0.940740 0.787989 0.093623 -0.024007 122067.000000 0 0 1
14.164374 20.297462 26.401326 36.189038 0.961522 0.753148 0.085726 -0.028980 -93349.000000 0 0 1
13.110674 19.214962 26.093856 34.957029 0.972038 0.728077 0.087782 -0.029477 -177447.000000 0 0 1
13.553774 17.844162 25.988236 34.314827 0.921203 0.711555 0.084899 -0.036377 68758.100000 0 0 1
14.395274 17.514462 24.903396 33.677284 0.882839 0.738511 0.094402 -0.031572 -215073.000000 0 0 1
13.665874 17.377662 23.573636 32.318038 0.904400 0.753313 0.112667 -0.030406 -750892.000000 0 0 1
13.208674 18.530162 22.931386 32.306106 0.951518 0.781560 0.107679 -0.022534 -211698.000000 0 0 1
14.092074 19.223962 22.080816 32.491687 0.938233 0.823602 0.093534 -0.012398 -291990.000000 0 0 1
14.835974 18.468662 20.992516 31.652541 0.894043 0.845687 0.095136 -0.010809 -310304.000000 0 0 1
13.976874 18.051362 19.956116 30.322455 0.911934 0.852464 0.083753 -0.012809 285570.000000 0 0 1
14.540374 16.956162 19.204716 29.457682 0.861948 0.860653 0.063525 -0.008982 484681.000000 0 0 1
13.430574 16.328962 18.314116 27.971810 0.882486 0.856965 0.063755 0.002530 369348.000000 0 0 1
13.073274 17.091362 17.138516 27.509160 0.917824 0.898210 0.078641 -0.005747 -50339.500000 0 0 1
12.006774 16.413962 16.523716 26.203320 0.939242 0.888475 0.059677 -0.003213 114414.000000 0 0 1
11.415874 17.107662 15.215916 25.583557 0.982358 0.933837 0.059988 -0.002701 635476.000000 0 0 1
10.685174 18.360762 15.402116 26.239583 1.043749 0.943473 0.070517 -0.011049 479983.000000 0 0 1
10.352274 18.976962 14.147816 25.835158 1.071401 0.991281 0.082383 -0.008358 400734.000000 0 0 1
9.188574 20.039662 14.254816 26.252957 1.140880 0.996815 0.087033 -0.009868 -309617.000000 0 0 1
7.971874 19.563062 14.667316 25.717588 1.183844 0.963898 0.072315 -0.014815 -663320.000000 0 0 1
6.965774 20.593462 14.567116 26.168943 1.244626 0.980440 0.068546 -0.019372 605.210000 0 0 1
5.772274 20.290262 15.440016 26.142073 1.293634 0.938970 0.061349 -0.028509 -356842.000000 0 0 1
4.810374 19.422962 14.841916 24.913322 1.328017 0.932607 0.053236 -0.028817 334077.000000 0 1 0
3.697974 19.167162 15.696216 25.048479 1.380205 0.893570 0.048916 -0.027952 688583.000000 0 0 1
2.421774 18.633362 15.012516 24.050838 1.441551 0.896690 0.034649 -0.021441 18674.700000 0 1 0
1.767274 19.558062 14.202716 24.235474 1.480681 0.944646 0.039591 -0.028728 -444298.000000 0 1 0
0.708174 18.893962 13.556116 23.264815 1.533332 0.948765 0.029016 -0.028473 -275399.000000 0 1 0
-0.147726 19.786662 12.669816 23.495916 -1.563331 1.001268 0.036722 -0.036153 -370460.000000 0 1 0
-1.031126 20.680662 13.259116 24.587744 -1.520978 1.001242 0.057528 -0.029116 -81577.400000 0 1 0
-2.007626 21.070162 12.284716 24.472363 -1.475800 1.044906 0.047047 -0.025255 1620310.000000 0 1 0
-3.318626 21.762362 12.903516 25.516943 -1.419468 1.040621 0.047005 -0.031912 1471060.000000 0 0 1
-4.196826 20.854362 13.587816 25.241761 -1.372204 1.002369 0.053315 -0.032993 564244.000000 0 0 1
-5.512926 21.402362 13.659316 25.981346 -1.318692 1.017217 0.066555 -0.026434 244787.000000 0 0 1
-6.294926 20.779362 14.807716 26.280724 -1.276643 0.972248 0.053170 -0.028756 -903976.000000 0 0 1
-7.013826 19.610662 14.499716 25.377423 -1.227319 0.962631 0.048791 -0.028455 271145.000000 0 0 1
-7.703426 19.002162 15.612516 25.771604 -1.185646 0.920022 0.039324 -0.015393 561526.000000 0 0 1
-8.759426 19.754762 16.475716 27.174020 -1.153438 0.919392 0.028635 -0.005092 213279.000000 0 0 1
-10.027926 19.931662 15.854016 27.371158 -1.104660 0.953021 0.017011 -0.017623 -196315.000000 0 0 1
-11.010326 20.016762 16.848216 28.385919 -1.067911 0.935344 0.000801 0.000243 1079390.000000 0 0 1
-12.458426 19.649062 16.282016 28.397219 -1.005718 0.960187 0.013239 -0.019299 1039940.000000 0 0 1
-13.146626 20.643062 15.554416 28.998442 -1.003718 1.004645 0.003448 -0.005602 -21379.600000 0 0 1
-14.126126 20.158562 14.681716 28.661260 -0.959567 1.032994 0.002163 -0.009432 11744.400000 0 0 1
-15.215126 21.187062 14.200216 29.699121 -0.948004 1.072265 0.008877 -0.019618 -408679.000000 0 0 1
-16.249326 21.208062 15.097116 30.687870 -0.917016 1.056460 0.005529 -0.024440 -606052.000000 0 0 1
-17.265726 22.152962 14.788516 31.742073 -0.908751 1.086149 0.026301 -0.036638 164618.000000 0 0 1
-18.614726 21.994362 15.493016 32.715341 -0.868430 1.077456 0.085373 -0.035525 -763609.000000 0 0 1
-19.433426 21.020662 14.929916 32.286664 -0.824614 1.090077 0.070281 -0.031780 239403.000000 0 0 1
-20.653426 20.695262 15.580816 33.130344 -0.786410 1.081179 0.101257 -0.035816 496261.000000 0 0 1
-21.814626 21.699962 15.532716 34.467833 -0.782763 1.103310 0.096125 -0.031987 -862090.000000 0 0 1
-22.351026 21.881162 14.225116 34.361425 -0.774776 1.143969 0.119994 -0.033556 -6914.790000 0 0 1
-23.416726 22.775962 14.381016 35.691751 -0.771528 1.156088 0.133092 -0.039978 -237531.000000 0 0 1
-23.060526 24.180562 13.829016 36.162537 -0.809103 1.178390 0.117426 -0.032833 460367.000000 0 0 1
-21.936826 24.768662 14.497816 36.123367 -0.845956 1.157815 0.071109 -0.035928 542660.000000 0 0 1
-21.588926 26.023662 13.922216 36.566936 -0.878272 1.180208 0.056727 -0.026974 136821.000000 0 0 1
-20.099326 26.397262 14.143416 36.067084 -0.920028 1.167837 0.033675 -0.021696 236677.000000 0 0 1
-19.152726 25.743462 13.337916 34.748421 -0.931157 1.176842 0.028803 -0.013120 -103101.000000 0 0 1
-17.862226 26.284962 13.542016 34.544819 -0.973920 1.167978 0.002670 -0.017138 434964.000000 0 0 1
-16.794626 25.657362 12.569316 33.141324 -0.991213 1.181795 0.002638 -0.016103 58484.900000 0 0 1
-15.502526 26.144362 12.762816 32.965822 -1.035570 1.173255 -0.003319 -0.013990 -562889.000000 0 0 1
-14.529626 25.611062 11.919916 31.766664 -1.054754 1.186148 -0.002820 -0.012440 53665.600000 0 0 1
-13.113626 26.227462 12.129516 31.732824 -1.107152 1.178578 -0.002921 -0.011148 -330005.000000 0 0 1
-12.143326 25.242462 11.787116 30.390432 -1.122409 1.172492 0.012104 -0.010012 556737.000000 0 0 1
-10.796326 25.693262 11.956216 30.325822 -1.172998 1.165535 0.041693 -0.016798 718503.000000 0 0 1
-10.239026 26.818562 10.998116 30.741364 -1.206087 1.204925 0.053087 -0.024539 -998309.000000 0 0 1
-9.288326 27.632962 11.606816 31.377886 -1.246529 1.191890 0.078387 -0.038648 -126084.000000 0 0 1
-8.977626 28.754962 10.771016 31.991567 -1.268174 1.227404 0.077985 -0.043152 -361179.000000 0 0 1
-7.816626 29.521462 11.407516 32.599813 -1.311958 1.213304 0.072201 -0.038847 -592843.000000 0 0 1
-6.543426 28.975162 11.284016 31.775863 -1.348693 1.207762 0.095763 -0.045005 -312876.000000 0 0 1
-5.659126 29.495162 12.293816 32.451937 -1.381234 1.182263 0.134743 -0.050697 123992.000000 0 0 1
-4.195426 29.087062 12.052616 31.763569 -1.427547 1.181597 0.122355 -0.061737 -242340.000000 0 0 1
-3.619526 29.734062 10.931116 31.885807 -1.449662 1.220878 0.131416 -0.059301 -209719.000000 0 0 1
-2.385126 29.229962 10.522216 31.157608 -1.489378 1.226314 0.137006 -0.050329 -235979.000000 0 0 1
-1.840526 29.971262 9.289016 31.431670 -1.509464 1.270786 0.127035 -0.041948 -237759.000000 0 0 1
-2.601326 29.687462 8.161116 30.898481 -1.483396 1.303498 0.136014 -0.041237 -224082.000000 0 0 1
-2.093926 30.208662 6.981316 31.075498 -1.501592 1.344206 0.132992 -0.036500 -100278.000000 0 0 1
12.376974 -33.716892 -27.093823 44.989927 -1.218983 2.217075 0.147037 -0.043706 15712.400000 0 0 1
12.879374 -33.589792 -25.777403 44.256377 -1.204654 2.192543 0.138062 -0.041344 487241.000000 0 0 1
13.605074 -32.353892 -25.588363 43.435431 -1.172736 2.200757 0.136588 -0.029689 218323.000000 0 0 1
14.396774 -32.390392 -24.238603 42.940825 -1.152545 2.170582 0.110227 -0.033508 -667961.000000 0 0 1
13.607874 -32.046192 -23.135003 41.801447 -1.169236 2.157297 0.118997 -0.036351 10549.400000 0 0 1
14.141774 -32.084192 -21.814003 41.294502 -1.155644 2.127340 0.083795 -0.026287 -696179.000000 0 0 1
15.539674 -31.553992 -21.481303 41.213860 -1.113184 2.119071 0.052714 -0.019176 -131687.000000 0 0 1
16.518874 -32.567392 -21.665903 42.460800 -1.101388 2.106279 0.070846 -0.019320 154371.000000 0 0 1
17.849574 -32.080692 -21.602103 42.596114 -1.063056 2.102657 0.057150 -0.020641 143708.000000 0 0 1
18.871874 -33.225092 -21.698603 43.941822 -1.054238 2.087254 0.035103 -0.013709 -342739.000000 0 0 1
20.253974 -33.005292 -21.623903 44.352744 -1.020394 2.080071 0.034630 -0.003392 -95812.200000 0 0 1
20.925974 33.550262 -21.830003 45.167084 1.013118 2.075236 0.028401 0.005934 -101788.000000 0 0 1
22.444374 33.593362 -21.567603 45.797657 0.981789 2.061144 0.052041 0.015710 349267.000000 0 0 1
23.334174 -33.414492 -22.410403 46.510624 -0.961195 2.073543 0.047108 0.005604 -218042.000000 0 0 1
24.630274 -33.542692 -21.902203 47.026259 -0.937422 2.055272 0.032396 0.006007 -400685.000000 0 0 1
25.581974 -32.814992 -22.884303 47.486339 -0.908630 2.073633 0.053927 -0.002579 -221296.000000 0 0 1
25.661274 -31.362192 -22.867503 46.529676 -0.885042 2.084562 0.066207 -0.007000 140496.000000 0 0 1
24.554674 -30.651592 -23.451903 45.743238 -0.895391 2.109106 0.049901 -0.004338 441873.000000 0 0 1
24.435874 -29.151492 -23.196903 44.553538 -0.873171 2.118411 0.065778 -0.017158 75864.400000 0 0 1
25.498474 -28.480192 -23.860403 45.062316 -0.840581 2.128805 0.081670 -0.013853 145524.000000 0 0 1
25.278874 -27.105492 -23.777703 44.035308 -0.820254 2.141197 0.093496 -0.008505 1451.720000 0 0 1
25.823974 -26.287992 -24.951103 44.502738 -0.794302 2.165984 0.089353 -0.013518 -79193.300000 0 0 1
25.230474 -26.428892 -26.202893 44.962815 -0.808592 2.192927 0.087024 -0.013323 -303941.000000 0 0 1
25.799174 -25.493592 -27.134243 45.296664 -0.779441 2.213091 0.079017 -0.011134 -383662.000000 0 0 1
24.943274 -25.355192 -28.399143 45.514437 -0.793587 2.244595 0.078107 -0.009711 -142796.000000 0 0 1
24.011174 -24.331092 -28.335123 44.400650 -0.792016 2.262914 0.090983 -0.013992 280354.000000 0 0 1
22.703274 -24.716292 -27.852843 43.613239 -0.827824 2.263517 0.083798 -0.012926 564516.000000 0 0 1
21.821474 -23.470292 -27.553983 42.264090 -0.821786 2.280947 0.089621 -0.013733 -99645.300000 0 0 1
21.390274 -22.791292 -28.717633 42.446310 -0.817098 2.313882 0.095100 -0.013907 105929.000000 0 0 1
20.805974 -21.549992 -28.424753 41.294761 -0.802962 2.329992 0.089654 -0.003295 -795593.000000 0 0 1
19.815874 -21.081092 -29.460503 41.291676 -0.816325 2.365239 0.109712 -0.012714 -481298.000000 0 0 1
18.538774 -21.650392 -29.320573 40.891584 -0.862668 2.370331 0.099152 -0.016858 -189339.000000 0 0 1
17.558274 -21.008292 -30.073463 40.670069 -0.874617 2.403049 0.086242 -0.016861 -1151130.000000 0 0 1
16.244574 -21.721892 -30.101783 40.519676 -0.928677 2.408178 0.090142 -0.021110 -1127970.000000 0 0 1
16.327474 -22.961592 -30.808503 41.749071 -0.952674 2.400816 0.095877 -0.012778 -346544.000000 0 0 1
15.500674 -23.880492 -30.218443 41.517503 -0.995059 2.385975 0.106554 -0.024187 -700943.000000 0 0 1
15.720074 -25.322592 -30.657073 42.757578 -1.015228 2.370282 0.134775 -0.026824 -250909.000000 0 0 1
14.917474 -26.275092 -30.027473 42.597660 -1.054434 2.353091 0.125980 -0.031096 -313267.000000 0 0 1
15.293574 -27.567692 -30.366793 43.772287 -1.064303 2.337472 0.160872 -0.029182 -58129.300000 0 0 1
14.467774 -28.720692 -29.744693 43.805723 -1.104161 2.317215 0.148756 -0.036150 -65732.200000 0 0 1
14.697274 -29.054692 -28.345143 43.169806 -1.102481 2.287094 0.176388 -0.042936 136246.000000 0 0 1
14.450674 -27.953992 -27.398343 41.724295 -1.093685 2.287167 0.150743 -0.038684 -473884.000000 0 0 1
15.550374 -27.921192 -26.356093 41.425243 -1.062642 2.260402 0.111181 -0.025731 -497568.000000 0 0 1
15.501974 -28.974392 -25.398763 41.532201 -1.079524 2.228807 0.107349 -0.032616 207084.000000 0 0 1
16.433374 -28.898092 -24.324603 41.192740 -1.053735 2.202483 0.108438 -0.038799 -402213.000000 0 0 1
15.977274 -27.827592 -23.228703 39.613392 -1.049599 2.197385 0.090478 -0.032914 561194.000000 0 0 1
14.819474 -28.097092 -22.467303 38.908136 -1.085440 2.186392 0.080653 -0.030092 151001.000000 0 0 1
13.592274 -28.047492 -23.175303 38.839495 -1.119531 2.210172 0.092284 -0.027678 -226054.000000 0 0 1
12.346074 -28.061092 -22.252203 37.881538 -1.156314 2.198658 0.066547 -0.020116 112191.000000 0 0 1
11.999874 -26.757692 -21.858203 36.575293 -1.149220 2.211328 0.049131 -0.019663 260291.000000 0 0 1
10.680174 -26.672692 -21.328803 35.782907 -1.189931 2.209383 0.059379 -0.021308 212494.000000 0 0 1
10.365474 -25.167492 -21.188103 34.493208 -1.180108 2.232255 0.060919 -0.022460 -235771.000000 0 0 1
11.075274 -24.589492 -20.127703 33.651586 -1.147604 2.211950 0.053488 -0.024713 41930.000000 0 0 1
10.779874 -23.173092 -20.014603 32.462012 -1.135383 2.235155 0.058840 -0.034309 -234524.000000 0 0 1
11.256074 -22.402092 -18.770403 31.319019 -1.105186 2.213459 0.062514 -0.039251 16641.600000 0 0 1
10.532774 -22.732892 -17.588103 30.611518 -1.136915 2.182861 0.081043 -0.040793 226796.000000 0 0 1
10.691874 -21.741092 -16.520603 29.324419 -1.113745 2.169260 0.080902 -0.042051 89902.500000 0 0 1
9.803074 -22.074292 -15.253303 28.566377 -1.152864 2.134074 0.084008 -0.031972 559681.000000 0 0 1
10.335374 -23.212592 -14.609803 29.310249 -1.151901 2.092611 0.085746 -0.026057 251451.000000 0 0 1
9.503174 -23.645992 -13.542203 28.858872 -1.188659 2.059245 0.080636 -0.029375 213882.000000 0 0 1
9.614974 -25.149692 -13.253203 30.010034 -1.205632 2.028206 0.099132 -0.026683 -220365.000000 0 0 1
10.908774 -25.452992 -12.822103 30.516593 -1.165893 2.004427 0.093731 -0.033471 -579885.000000 0 0 1
11.238674 -26.807892 -13.097603 31.882880 -1.173823 1.994132 0.095021 -0.040428 -167005.000000 0 0 1
12.572074 -27.385192 -12.555903 32.644394 -1.140415 1.965600 0.098316 -0.041541 791488.000000 0 0 1
13.811074 -26.946992 -13.117903 32.999477 -1.097177 1.979607 0.100503 -0.034288 325541.000000 0 0 1
14.078474 -27.332592 -14.438503 33.966813 -1.095158 2.009843 0.093913 -0.029639 -714287.000000 0 0 1
15.444574 -26.844792 -14.962903 34.395729 -1.048715 2.020859 0.074146 -0.028967 682692.000000 0 0 1
16.565274 -27.612692 -14.478803 35.305875 -1.030439 1.993356 0.092342 -0.026020 762414.000000 0 0 1
17.764374 -27.164892 -15.089903 35.793987 -0.991652 2.005979 0.101860 -0.031431 914581.000000 0 0 1
19.110674 -27.911592 -14.878303 36.954549 -0.970422 1.985164 0.097588 -0.027104 664775.000000 0 0 1
19.221874 -29.060592 -15.700603 38.216585 -0.986420 1.994163 0.082093 -0.010990 -466954.000000 0 0 1
20.513574 -29.635192 -15.801903 39.354180 -0.965322 1.983984 0.085477 -0.005480 229231.000000 0 0 1
20.705974 -30.595192 -16.991603 40.663469 -0.975830 2.001884 0.076880 -0.005495 -42064.700000 0 0 1
20.264474 -31.958592 -16.752903 41.384300 -1.005690 1.987571 0.063261 0.005396 -131331.000000 0 0 1
20.400374 -32.728592 -17.893903 42.515030 -1.013406 2.005216 0.058622 -0.003848 55241.800000 0 0 1
20.281974 33.527362 -17.467203 42.901581 1.026754 1.990123 0.036873 0.006279 344561.000000 0 0 1
21.264474 33.101862 -16.511703 42.667874 0.999786 1.968153 0.054047 0.006492 131228.000000 0 0 1
21.110574 31.784262 -16.066403 41.400784 0.984515 1.969333 0.046904 -0.000508 -322231.000000 0 0 1
21.976374 31.382562 -14.868203 41.096103 0.959887 1.940985 0.057945 -0.005865 -114788.000000 0 0 1
23.355074 31.179762 -15.155703 41.801105 0.927906 1.941817 0.049418 0.000906 577592.000000 0 0 1
24.224374 31.038262 -14.037803 41.800167 0.908079 1.913284 0.038129 0.000883 342269.000000 0 0 1
24.045374 29.736362 -13.175003 40.447645 0.890822 1.902580 0.042514 -0.003267 -818778.000000 0 0 1
24.423574 28.509262 -13.784703 39.991337 0.862432 1.922707 0.042524 0.005518 -39183.300000 0 0 1
24.188574 27.341862 -12.981203 38.745015 0.846515 1.912446 0.039529 0.004288 361104.000000 0 0 1
22.738274 27.042362 -12.510403 37.481044 0.871645 1.911106 0.053436 -0.000872 438719.000000 0 0 1
21.817274 26.653162 -13.548203 37.012678 0.884839 1.945549 0.058817 -0.002012 1752300.000000 0 0 1
20.397974 26.612262 -13.242903 36.050857 0.916826 1.946943 0.066779 -0.002500 1608200.000000 0 0 1
19.676874 28.020762 -13.253503 36.715090 0.958579 1.940117 0.064806 -0.007911 -82850.900000 0 0 1
19.444274 28.607762 -14.518103 37.513453 0.973835 1.968184 0.060957 -0.004718 215975.000000 0 0 1
18.836074 27.809662 -15.564903 37.019470 0.975454 2.004740 0.054245 0.000417 -110359.000000 0 0 1
18.859774 28.497762 -16.967003 38.153541 0.986172 2.031639 0.043911 0.011290 867414.000000 0 0 1
17.915074 29.601862 -17.190003 38.635687 1.026561 2.031887 0.043512 0.009404 584121.000000 0 0 1
18.151974 30.178562 -18.438403 39.751912 1.029285 2.053118 0.036209 0.015100 -678009.000000 0 0 1
17.180474 31.191462 -18.956303 40.341262 1.067334 2.059972 0.032018 0.009565 -631295.000000 0 0 1
17.099374 32.407362 -18.222303 40.922830 1.085283 2.032288 0.036465 -0.001314 -386926.000000 0 0 1
16.143674 33.273262 -18.737403 41.458635 1.119071 2.039751 0.042058 -0.001332 -341269.000000 0 0 1
15.993774 -33.297092 -17.750003 40.982432 -1.123004 2.018739 0.050400 -0.003720 187875.000000 0 0 1
15.232574 -32.203592 -18.285703 40.043346 -1.128974 2.045020 0.044389 -0.003981 185268.000000 0 0 1
14.824874 -31.383492 -17.185403 38.730331 -1.129489 2.030541 0.056316 -0.006065 -203434.000000 0 0 1
13.868674 -30.251292 -17.564803 37.629816 -1.140938 2.056441 0.065879 -0.010211 -312727.000000 0 0 1
12.579374 -30.760192 -17.780603 37.690581 -1.182598 2.062073 0.075442 -0.002855 -471595.000000 0 0 1
11.546574 -29.876592 -18.130503 36.805560 -1.202003 2.085874 0.063656 -0.000039 1376590.000000 0 0 1
10.183574 -30.626392 -18.480003 37.191283 -1.249787 2.090808 0.072547 -0.004593 -127699.000000 0 0 1
9.528674 -31.097792 -17.309403 36.844046 -1.273469 2.059863 0.084712 0.000168 -136660.000000 0 0 1
8.477974 -32.014992 -17.499103 37.457367 -1.311926 2.056888 0.113934 0.000257 592366.000000 0 0 1
7.205074 -31.432892 -18.215903 37.037264 -1.345468 2.084982 0.109015 0.000730 -618618.000000 0 0 1
7.346974 -31.009492 -19.560503 37.392244 -1.338159 2.121300 0.091261 0.004373 -316224.000000 0 0 1
7.236874 -32.065092 -20.545903 38.764373 -1.348822 2.129421 0.092920 -0.012547 -866865.000000 0 0 1
7.403074 -31.557392 -22.063703 39.210732 -1.340372 2.168439 0.091107 -0.006630 610627.000000 0 0 1
8.775974 -31.169992 -22.276203 39.304139 -1.296349 2.173370 0.080672 -0.004633 1208380.000000 0 0 1
9.763074 -32.188092 -22.397203 40.410711 -1.276303 2.158245 0.084974 -0.007834 -161414.000000 0 0 1
9.507974 -33.295692 -23.514203 41.855972 -1.292638 2.167342 0.110575 -0.028713 -247848.000000 0 0 1
8.516274 33.512662 -23.129503 41.600473 1.321943 2.160352 0.121517 -0.038383 169715.000000 0 0 1
8.179374 32.543662 -24.110303 41.319472 1.324561 2.193840 0.124977 -0.053952 319054.000000 0 0 1
6.989174 31.579462 -23.684403 40.088177 1.352987 2.202856 0.125260 -0.063013 1381710.000000 0 0 1
5.669074 32.119962 -23.652103 40.289606 1.396099 2.198209 0.126618 -0.058832 500686.000000 0 0 1
5.415574 33.059062 -22.651603 40.439153 1.408423 2.165352 0.096554 -0.052028 954172.000000 0 0 1
4.011574 33.819262 -22.940003 41.061892 1.452730 2.163576 0.094744 -0.047957 1733030.000000 0 0 1
2.859774 33.005662 -22.833503 40.235816 1.484367 2.174253 0.088376 -0.049898 -419511.000000 0 0 1
1.782074 33.745162 -23.318103 41.056615 1.518036 2.174809 0.080533 -0.042728 -396852.000000 0 0 1
0.435074 33.259162 -22.729903 40.286594 1.557716 2.170267 0.065091 -0.045289 -44650.500000 0 0 1
0.184074 33.604262 -21.367003 39.822470 1.565319 2.137147 0.055959 -0.037171 415551.000000 0 0 1
-1.059926 33.106262 -20.863703 39.146419 -1.538791 2.132898 0.055746 -0.050633 613848.000000 0 0 1
-1.358726 33.513162 -19.405303 38.749760 -1.530275 2.095302 0.066991 -0.043036 549210.000000 0 0 1
-0.453626 32.913262 -18.468003 37.743287 -1.557015 2.082090 0.072873 -0.046133 271745.000000 0 0 1
-1.099226 32.769562 -17.218703 37.034257 -1.537265 2.054363 0.045879 -0.032594 98927.400000 0 0 1
-0.425726 31.704862 -16.344503 35.672430 -1.557369 2.046746 0.037820 -0.021213 84201.500000 0 0 1
0.740074 32.267362 -15.794303 35.933137 1.547865 2.025891 0.036810 -0.012437 -465621.000000 0 0 1
1.379074 31.282562 -14.987603 34.714965 1.526740 2.017210 0.043115 -0.003937 201543.000000 0 0 1
2.582874 31.768662 -14.156003 34.875658 1.489672 1.988759 0.063810 -0.013117 -84697.700000 0 0 1
3.671674 32.187362 -14.938003 35.674240 1.457215 2.002847 0.073813 -0.014911 -298132.000000 0 0 1
4.561174 33.006062 -14.218603 36.226690 1.433474 1.974133 0.083915 -0.025680 -33062.600000 0 0 1
5.960274 33.183762 -14.823803 36.829771 1.393077 1.985037 0.094364 -0.034400 49814.500000 0 0 1
6.804374 32.054062 -14.799903 35.955521 1.361623 1.995024 0.095389 -0.022887 -166942.000000 0 0 1
8.015174 32.305062 -15.503203 36.717970 1.327598 2.006694 0.099066 -0.007870 895376.000000 0 0 1
8.974774 31.044762 -15.447803 35.818409 1.289377 2.016709 0.078239 -0.017722 699112.000000 0 0 1
9.676774 30.816062 -14.227703 35.294435 1.266530 1.985714 0.073900 -0.021979 -226434.000000 0 0 1
10.464074 29.661562 -14.148303 34.488833 1.231645 1.993501 0.072541 -0.021854 -36914.500000 0 0 1
9.707674 28.330462 -13.835303 32.988932 1.240677 2.003572 0.062892 -0.023870 -303811.000000 0 0 1
9.012874 27.867362 -14.967803 32.891593 1.257994 2.043241 0.076712 -0.026859 -476308.000000 0 0 1
8.456974 26.691062 -14.508703 31.534674 1.263956 2.048890 0.067251 -0.023105 -512645.000000 0 0 1
7.799774 25.872162 -15.669303 31.236714 1.277988 2.096279 0.084412 -0.020259 -109099.000000 0 0 1
8.703374 25.406162 -16.595503 31.569487 1.240756 2.124313 0.086518 -0.018035 -395710.000000 0 0 1
8.012274 24.458162 -17.403603 31.069014 1.254223 2.165375 0.084028 -0.011779 744966.000000 0 0 1
8.951774 23.713862 -18.433103 31.341040 1.209843 2.199561 0.087960 -0.006543 641152.000000 0 0 1
8.289774 22.643562 -19.181403 30.811970 1.219852 2.242769 0.113603 -0.010964 312741.000000 0 0 1
9.216874 21.649462 -19.573603 30.606795 1.168306 2.264668 0.090662 -0.009044 107322.000000 0 0 1
8.648174 20.800462 -20.713803 30.602480 1.176771 2.314294 0.082693 -0.015314 768713.000000 0 0 1
7.492574 20.047762 -20.302403 29.499813 1.213134 2.329831 0.100300 -0.008968 377938.000000 0 0 1
7.205874 19.041862 -21.242103 29.423529 1.209028 2.377402 0.096727 -0.008897 187451.000000 0 0 1
26.277774 -11.914638 -9.671403 30.430512 -0.425687 1.894225 0.083106 -0.005057 -445401.000000 0 0 1
26.443474 -11.457538 -8.356503 30.006060 -0.408866 1.853022 0.101073 -0.011018 -115230.000000 0 0 1
25.380374 -11.653138 -7.478703 28.911763 -0.430428 1.832445 0.087714 -0.003410 -708635.000000 0 0 1
25.799674 -11.180038 -6.043703 28.760090 -0.408914 1.782517 0.067922 -0.010360 -290341.000000 0 0 1
25.778974 -9.788638 -5.748503 28.167681 -0.362897 1.776322 0.083769 -0.022676 -195380.000000 0 0 1
26.562374 -8.995838 -6.556103 28.800474 -0.326544 1.800448 0.054980 -0.030709 -1588860.000000 0 0 1
26.832374 -7.567138 -6.006503 28.518695 -0.274876 1.783002 0.101534 -0.034039 -251128.000000 0 0 1
27.723774 -7.475038 -4.957503 29.138646 -0.263363 1.741763 0.142964 -0.049086 358497.000000 0 0 1
29.071474 -7.901938 -5.087103 30.552739 -0.265399 1.738078 0.139337 -0.052577 -29005.100000 0 0 1
29.880274 -7.876438 -3.756703 31.128474 -0.257737 1.691775 0.152412 -0.061604 -113793.000000 0 0 1
30.125674 -6.569238 -3.238503 31.003210 -0.214700 1.675444 0.163362 -0.054898 183628.000000 0 0 1
30.859474 -6.769838 -2.049603 31.659734 -0.215955 1.635580 0.166090 -0.047040 103495.000000 0 0 1
31.609174 -5.501338 -1.589103 32.123665 -0.172316 1.620285 0.161304 -0.052703 87141.900000 0 0 1
30.667474 -4.457238 -1.317403 31.017681 -0.144330 1.613282 0.210135 -0.047722 519402.000000 0 0 1
31.280274 -3.255738 -0.884803 31.461695 -0.103709 1.598923 0.187477 -0.021301 -519587.000000 0 0 1
31.900474 -3.285938 0.513497 32.073374 -0.102644 1.554786 0.172930 -0.031330 -761514.000000 0 0 1
31.008874 -3.361038 1.567597 31.229861 -0.107968 1.520580 0.223159 -0.051010 58477.300000 0 0 1
31.707874 -3.050338 2.744197 31.972245 -0.095906 1.484860 0.172991 -0.036564 -193137.000000 0 0 1
31.034774 -3.660338 3.988797 31.503425 -0.117401 1.443841 0.196851 -0.041310 -136761.000000 0 0 1
31.280874 -5.076638 3.992497 31.940654 -0.160889 1.445471 0.169877 -0.040264 28244.100000 0 0 1
30.969374 -5.660338 5.224097 31.912893 -0.180777 1.406358 0.159512 -0.045793 -128458.000000 0 0 1
31.514174 -7.099238 5.379097 32.748695 -0.221573 1.405795 0.131689 -0.029276 317199.000000 0 0 1
32.930174 -7.072938 5.333897 34.100928 -0.211572 1.413736 0.148499 -0.035384 28265.200000 0 0 1
33.523274 -8.347538 5.250597 34.943670 -0.244044 1.419966 0.151210 -0.028498 -773643.000000 0 0 1
35.015774 -8.345138 5.473097 36.410171 -0.233961 1.419907 0.188618 -0.040388 -595152.000000 0 0 1
35.798874 -7.726438 4.457697 36.893473 -0.212568 1.449674 0.187650 -0.036976 1132790.000000 0 0 1
37.193174 -7.673638 4.847897 38.284710 -0.203464 1.443828 0.188935 -0.031435 985355.000000 0 0 1
-36.701292 -7.295638 3.831097 37.615003 0.196226 1.468769 0.174663 -0.034172 -196047.000000 0 0 1
-36.497992 -8.455938 3.026397 37.586772 0.227666 1.490191 0.220794 -0.039060 -17750.400000 0 0 1
-35.300292 -8.314038 2.301497 36.339108 0.231308 1.507420 0.227425 -0.042986 -225463.000000 0 0 1
-34.947892 -9.437038 1.265897 36.221752 0.263741 1.535841 0.225657 -0.040609 72494.300000 0 0 1
-34.338492 -10.548238 1.897197 35.972166 0.298035 1.518031 0.229928 -0.033790 209107.000000 0 0 1
-34.029692 -11.663538 1.056097 35.988518 0.330198 1.541447 0.237142 -0.045556 -84323.600000 0 0 1
-33.494792 -12.899238 1.830197 35.939408 0.367606 1.519850 0.173173 -0.041555 -176297.000000 0 0 1
-32.256592 -12.914338 2.465597 34.833131 0.380819 1.499954 0.181159 -0.030964 400928.000000 0 0 1
-31.147692 -13.332938 1.665197 33.922247 0.404456 1.521688 0.177514 -0.024070 222699.000000 0 0 1
-29.839892 -13.726338 2.365097 32.930612 0.431138 1.498914 0.169563 -0.021408 -28881.900000 0 0 1
-29.059592 -12.589538 2.685397 31.783136 0.408822 1.486204 0.144520 -0.016975 592596.000000 0 0 1
-27.663692 -12.862038 2.793097 30.635164 0.435211 1.479497 0.137122 -0.010735 413750.000000 0 0 1
-26.915092 -11.695238 3.429997 29.545992 0.409909 1.454444 0.146315 -0.011916 8788.890000 0 0 1
-25.543892 -11.959038 3.692497 28.445449 0.437866 1.440619 0.133963 -0.004737 426748.000000 0 0 1
-24.967692 -10.984138 4.492597 27.644536 0.414452 1.407559 0.129984 -0.009167 -140064.000000 0 0 1
-23.507092 -11.294138 4.890297 26.534053 0.447891 1.385434 0.111828 -0.004140 -79383.700000 0 0 1
-23.310992 -12.367438 5.788697 27.016012 0.487781 1.354853 0.110964 -0.003521 255252.000000 0 0 1
-21.926492 -12.559038 6.047397 25.982138 0.520164 1.335890 0.087595 -0.003637 -19258.100000 0 0 1
-21.527592 -12.229938 7.489497 25.866990 0.516637 1.277051 0.102707 -0.021446 -711473.000000 0 0 1
-21.432392 -10.836438 7.703997 25.221566 0.468126 1.260382 0.096216 -0.014534 182458.000000 0 0 1
-22.528992 -10.271238 8.394197 26.144146 0.427759 1.243933 0.100516 -0.014462 -623043.000000 0 0 1
-22.864092 -10.509638 9.907497 27.043996 0.430856 1.195716 0.106392 -0.007451 -484579.000000 0 0 1
-23.418892 -11.788238 10.308997 28.172371 0.466336 1.196169 0.094050 -0.012858 849954.000000 0 0 1
-24.807292 -11.928938 10.075397 29.312368 0.448222 1.219915 0.095275 -0.015346 -64510.000000 0 0 1
-25.839592 -11.312738 11.014697 30.281779 0.412668 1.198516 0.104947 -0.015151 -542724.000000 0 0 1
-26.009892 -11.972838 12.267297 31.150440 0.431402 1.166025 0.094432 -0.018415 393067.000000 0 0 1
-27.313992 -11.781238 12.783297 32.376912 0.407217 1.164916 0.090228 -0.025866 -1713.230000 0 0 1
-27.591092 -12.518938 14.121797 33.427793 0.425952 1.134642 0.090051 -0.028721 -267798.000000 0 0 1
-27.587392 -13.926238 14.048797 33.946620 0.467484 1.144118 0.094291 -0.020298 573325.000000 0 0 1
-27.995592 -14.570338 15.265197 35.058154 0.479874 1.120286 0.073379 -0.012229 -94860.300000 0 0 1
-27.936092 -16.107038 15.074897 35.596551 0.523011 1.133498 0.069518 -0.019146 88203.500000 0 0 1
-28.988992 -16.834338 15.694297 37.014424 0.526119 1.132933 0.074208 -0.015257 134454.000000 0 0 1
-28.798692 -18.244838 15.612997 37.496726 0.564710 1.141333 0.058774 -0.015167 534480.000000 0 0 1
-29.911192 -19.074938 16.390697 39.079248 0.567693 1.137988 0.045157 -0.004064 396110.000000 0 0 1
-29.897092 -18.873738 17.785297 39.577404 0.563110 1.104725 0.045830 -0.003622 -98907.600000 0 0 1
-30.176392 -20.001638 18.599897 40.701798 0.585338 1.096200 0.057986 -0.003301 157067.000000 0 0 1
-29.133992 -21.202238 18.532197 40.518721 0.629108 1.095757 0.032157 -0.001828 655357.000000 0 0 1
-27.907892 -20.753238 19.128497 39.691898 0.639414 1.067947 0.052183 -0.001666 -58798.000000 0 0 1
-27.139492 -21.875138 19.323897 39.855824 0.678405 1.064610 0.056851 0.002343 -995121.000000 0 0 1
-25.732592 -21.674638 19.865897 39.071858 0.700009 1.037418 0.070034 0.004519 -399102.000000 0 0 1
-24.779792 -21.240538 18.913797 37.721748 0.708643 1.045577 0.078690 -0.007568 -860365.000000 0 0 1
-23.570892 -21.015338 19.549897 37.140677 0.728144 1.016466 0.087046 -0.003132 -976471.000000 0 0 1
-22.548292 -20.523238 18.527597 35.677733 0.738417 1.024760 0.079850 -0.017765 -394089.000000 0 0 1
-22.151292 -21.605038 17.691997 35.643571 0.772915 1.051397 0.076116 -0.026542 -471094.000000 0 0 1
-21.026092 -21.363038 16.932397 34.426473 0.793347 1.056592 0.070285 -0.019697 -461653.000000 0 0 1
-20.687792 -22.456138 15.880297 34.415792 0.826362 1.091196 0.077195 -0.024792 -354198.000000 0 0 1
-20.727392 -23.835738 16.363597 35.574352 0.855037 1.092820 0.072590 -0.033336 460496.000000 0 0 1
-19.589292 -24.363638 17.031397 35.600502 0.893598 1.071961 0.074938 -0.036752 1123530.000000 0 0 1
-18.226092 -24.566738 16.253997 34.639681 0.932499 1.082377 0.078201 -0.043493 1350090.000000 0 0 1
-17.464792 -23.341838 16.049197 33.278178 0.928436 1.067548 0.085568 -0.043446 685216.000000 0 0 1
-16.222192 -23.650738 15.388497 32.547239 0.969592 1.078325 0.082171 -0.040786 199787.000000 0 0 1
-15.422392 -22.365238 15.136397 31.099270 0.967105 1.062474 0.078439 -0.034404 -642120.000000 0 0 1
-15.935992 -21.373938 14.288797 30.248484 0.930130 1.078807 0.088236 -0.031545 -335319.000000 0 0 1
-16.984892 -20.580238 14.841497 30.533634 0.880817 1.063209 0.084828 -0.034215 -192296.000000 0 0 1
-16.695192 -19.495738 15.896497 30.191255 0.862627 1.016287 0.095830 -0.030105 -360605.000000 0 0 1
-15.894192 -18.478938 15.342597 28.800899 0.860454 1.008994 0.095043 -0.030623 110865.000000 0 0 1
-15.808792 -17.401838 16.291697 28.603519 0.833329 0.964814 0.090657 -0.032196 -163698.000000 0 0 1
-15.174692 -16.102838 15.698297 27.129490 0.815064 0.953732 0.087791 -0.027050 116768.000000 0 0 1
-15.945592 -15.343538 14.776297 26.608740 0.766159 0.982052 0.090250 -0.029555 141949.000000 0 0 1
-16.054492 -15.961738 13.509797 26.363581 0.782501 1.032771 0.116066 -0.032590 83853.300000 0 0 1
-17.058992 -15.285438 12.518397 26.102952 0.730620 1.070623 0.096532 -0.018315 561599.000000 0 0 1
-18.423492 -15.542338 12.825797 27.303670 0.700776 1.081793 0.092899 -0.016926 222683.000000 0 0 1
-19.246492 -14.474238 12.407297 27.090073 0.644809 1.095050 0.119098 -0.016733 133667.000000 0 0 1
-20.758192 -14.842538 12.471997 28.403419 0.620736 1.116197 0.098094 -0.019702 229479.000000 0 0 1
-21.350592 -15.813838 11.602297 28.992043 0.637506 1.159073 0.107585 -0.018414 228552.000000 0 0 1
-21.208692 -15.687038 10.197397 28.282127 0.636845 1.201928 0.132072 -0.010993 -468605.000000 0 0 1
-21.893292 -16.799138 9.379597 29.146254 0.654493 1.243154 0.122292 -0.004844 47641.700000 0 0 1
-21.287892 -18.078438 9.488597 29.496402 0.704050 1.243286 0.129282 0.001523 -13830.500000 0 0 1
-21.891792 -19.024038 8.607597 30.253187 0.715423 1.282292 0.139294 -0.014291 9216.480000 0 0 1
-21.445992 -20.431738 8.706197 30.873684 0.761183 1.284924 0.138618 -0.005579 90355.300000 0 0 1
-20.174292 -20.680338 8.148297 30.017881 0.797784 1.295899 0.153718 -0.001073 -112567.000000 0 0 1
-19.672592 -22.009938 8.313397 30.668564 0.841414 1.296289 0.127512 -0.004798 438975.000000 0 0 1
-18.334692 -22.368738 7.599997 29.904537 0.884184 1.313836 0.105659 -0.005479 402631.000000 0 0 1
-17.263792 -21.663938 8.197197 28.888731 0.897954 1.283093 0.086319 -0.013948 -465519.000000 0 0 1
-16.048692 -21.980438 7.587597 28.253704 0.940130 1.298907 0.100693 -0.009116 -694457.000000 0 0 1
-14.780692 -21.488538 8.298297 27.369470 0.968278 1.262752 0.042409 -0.006816 356944.000000 0 0 1
-13.668392 -21.939638 7.481297 26.909895 1.013637 1.289072 0.051085 0.007566 524295.000000 0 0 1
-12.433892 -21.628338 8.112397 26.233522 1.049046 1.256405 0.046106 0.007052 75573.800000 0 0 1
-11.236092 -22.341838 7.484297 26.104065 1.104818 1.280005 0.028144 0.015012 -213219.000000 0 0 1
-11.220692 -23.782538 7.622897 27.379219 1.129959 1.288649 0.025136 0.017860 -327350.000000 0 0 1
-10.017892 -24.364138 7.160497 27.299123 1.180695 1.305394 0.047057 0.006851 234888.000000 0 0 1
-10.074192 -25.919028 7.285497 28.746545 1.200087 1.314563 0.044404 0.002154 88351.000000 0 0 1
-10.764292 -26.472368 6.169397 29.235556 1.184593 1.358174 0.055459 -0.001491 -146314.000000 0 0 1
-10.810192 -27.883948 6.245997 30.551388 1.200951 1.364902 0.089341 -0.010044 333441.000000 0 0 1
-9.673392 -28.586668 5.387097 30.656042 1.244503 1.394152 0.108439 -0.023529 910039.000000 0 0 1
-8.378392 -28.242428 5.918697 30.047682 1.282407 1.372523 0.100949 -0.029006 970848.000000 0 0 1
-7.335392 -29.181698 5.588597 30.604116 1.324529 1.387157 0.121133 -0.025431 645477.000000 0 0 1
-7.414392 -30.558158 6.350597 32.079656 1.332764 1.371517 0.140822 -0.034074 -521489.000000 0 0 1
-7.370392 -30.461758 7.759797 32.287085 1.333403 1.328083 0.140789 -0.032972 164848.000000 0 0 1
-7.166392 -31.696338 8.349597 33.551912 1.348440 1.319297 0.164067 -0.042630 -97781.800000 0 0 1
-7.369392 -31.768818 9.852797 34.068216 1.342858 1.277397 0.134599 -0.036981 106665.000000 0 0 1
-6.432392 -30.975048 10.596197 33.363283 1.366043 1.247598 0.126039 -0.028856 586524.000000 0 0 1
-6.632392 -31.143848 11.978797 34.020868 1.360971 1.210981 0.102938 -0.023163 -176543.000000 0 0 1
-5.669392 -30.290698 12.835797 33.383021 1.385771 1.176129 0.093740 -0.028057 19254.300000 0 0 1
-5.936392 -28.895298 12.829397 32.167879 1.368171 1.160560 0.092556 -0.025080 284337.000000 0 0 1
-5.068392 -28.115838 13.663297 31.668196 1.392444 1.124695 0.070219 -0.028945 51783.200000 0 0 1
-5.736392 -27.606818 14.954697 31.916854 1.365923 1.083146 0.071335 -0.024233 337333.000000 0 0 1
-6.410392 -28.566088 15.838197 33.286078 1.350048 1.074900 0.071776 -0.022949 460756.000000 0 0 1
-5.571392 -29.600748 16.287897 34.242376 1.384755 1.075077 0.057404 -0.022216 -529100.000000 0 0 1
-6.330392 -30.703658 16.913097 35.620799 1.367468 1.076049 0.047818 -0.014263 -240172.000000 0 0 1
-7.302392 -31.281498 16.055697 35.911592 1.341462 1.107287 0.054263 -0.014670 49733.400000 0 0 1
-7.648392 -32.598008 16.361897 37.267140 1.340337 1.116262 0.064701 -0.016738 -488044.000000 0 0 1
-6.679392 -33.723918 15.994997 37.917765 1.375266 1.135329 0.065181 -0.025976 -300695.000000 0 0 1
-6.601392 -33.813928 14.577697 37.409482 1.377994 1.170513 0.070446 -0.038434 125996.000000 0 0 1
-5.770392 32.895520 14.164097 36.277187 -1.397147 1.169686 0.081108 -0.042136 198488.000000 0 0 1
-4.489392 33.292072 13.383197 36.161120 -1.436756 1.191681 0.112438 -0.045336 168604.000000 0 0 1
-4.743392 33.477422 12.005597 35.879965 -1.430044 1.229611 0.114362 -0.042978 -203896.000000 0 0 1
-3.715392 -33.663558 11.310197 35.706580 1.460873 1.248491 0.132984 -0.047675 -802551.000000 0 0 1
-4.084392 -33.565938 9.783597 35.200472 1.449709 1.289148 0.130698 -0.044204 -700380.000000 0 0 1
-4.270392 33.050429 8.924897 34.499578 -1.442300 1.309124 0.132736 -0.052237 605841.000000 0 0 1
-5.190392 32.022708 9.315797 33.751712 -1.410109 1.291156 0.142628 -0.056487 496203.000000 0 0 1
-6.672392 32.396800 9.577997 34.435613 -1.367678 1.288937 0.143828 -0.051576 9498.420000 0 0 1
-7.428392 32.840430 8.452697 34.714881 -1.348343 1.324835 0.148862 -0.043111 -983947.000000 0 0 1
-8.778392 32.848892 8.767897 35.113899 -1.309663 1.318427 0.127385 -0.044875 -810315.000000 0 0 1
-9.687392 32.856792 7.548797 35.077040 -1.284083 1.353893 0.138708 -0.060558 -294281.000000 0 0 1
-9.758392 -33.661538 6.915897 35.723312 1.288634 1.375970 0.150018 -0.052401 -150578.000000 0 0 1
-10.633092 -33.725538 5.812697 35.836602 1.265378 1.407877 0.134746 -0.044755 75766.000000 0 0 1
-11.094492 -32.353528 5.176297 34.592378 1.240448 1.420595 0.117610 -0.046611 -26641.700000 0 0 1
-12.077192 -31.784138 5.985397 34.524122 1.207671 1.396547 0.129421 -0.048128 -662037.000000 0 0 1
-12.675992 -30.704308 5.364397 33.648359 1.179270 1.410688 0.125408 -0.044995 -108024.000000 0 0 1
-13.803992 -30.002558 6.180597 33.599159 1.139580 1.385792 0.101396 -0.038587 -91482.800000 0 0 1
-14.938592 -30.791308 6.377397 34.812891 1.119094 1.386565 0.109700 -0.031044 -511403.000000 0 0 1
-15.905692 -30.198108 7.179997 34.877918 1.086009 1.363453 0.094185 -0.028760 -193031.000000 0 0 1
34.929271 -12.224038 -11.986703 38.899384 -0.336644 1.884040 0.117255 -0.036407 -764955.000000 0 0 1
33.887901 -12.745538 -11.222603 37.904952 -0.359742 1.871374 0.134034 -0.038734 -203032.000000 0 0 1
33.814211 -14.215638 -11.143103 38.336066 -0.397972 1.865722 0.133954 -0.038867 237060.000000 0 0 1
34.888031 -14.805638 -10.179403 39.242857 -0.401342 1.833192 0.119223 -0.040750 1577890.000000 0 0 1
36.244121 -14.788438 -10.673303 40.574051 -0.387404 1.836986 0.128849 -0.040668 735509.000000 0 0 1
37.198781 -15.393438 -9.839903 41.443105 -0.392359 1.810517 0.099906 -0.040216 163770.000000 0 0 1
-36.360466 -15.468538 -10.526503 40.892131 0.402228 1.831149 0.084087 -0.041956 21472.000000 0 0 1
-35.854885 -14.178238 -10.830403 40.048631 0.376564 1.844637 0.091220 -0.041931 695410.000000 0 0 1
-34.434388 -14.185638 -11.009303 38.835089 0.390775 1.858226 0.084865 -0.035252 1032380.000000 0 0 1
-33.704526 -12.829538 -11.274803 37.785093 0.363713 1.873805 0.074098 -0.042443 -161134.000000 0 0 1
-33.886726 -11.954538 -10.192903 37.351257 0.339149 1.847195 0.089003 -0.035569 348657.000000 0 0 1
-33.362126 -10.680738 -10.552703 36.585094 0.309835 1.863396 0.095339 -0.030204 -320264.000000 0 0 1
-33.726766 -9.639338 -9.504103 36.341980 0.278385 1.835392 0.100394 -0.038375 -385649.000000 0 0 1
-33.051306 -9.695538 -8.297203 35.429308 0.285343 1.807182 0.116655 -0.036100 -98987.400000 0 0 1
-33.715156 -8.926238 -7.318603 35.636377 0.258816 1.777637 0.151996 -0.048755 -33563.300000 0 0 1
-33.007266 -8.748838 -5.949603 34.661499 0.259100 1.743299 0.127833 -0.041553 -1296900.000000 0 0 1
-31.798836 -8.078138 -5.969403 33.347504 0.248776 1.750772 0.131648 -0.056501 -472904.000000 0 0 1
-31.143976 -8.019138 -4.709703 32.502848 0.252012 1.716209 0.143526 -0.049915 -401299.000000 0 0 1
-30.430126 -9.291438 -4.183003 32.090822 0.296346 1.701517 0.140382 -0.036701 -364272.000000 0 0 1
-31.224996 -10.464238 -3.850703 33.156124 0.323361 1.687198 0.154154 -0.039383 540893.000000 0 0 1
-31.951586 -10.427538 -2.627603 33.712634 0.315456 1.648817 0.141926 -0.039937 -139.254000 0 0 1
-32.758966 -11.711238 -2.390303 34.871428 0.343338 1.639396 0.154358 -0.036680 91683.100000 0 0 1
-34.002906 -11.808238 -3.073203 36.125845 0.334242 1.655969 0.168969 -0.050732 376143.000000 0 0 1
-34.607325 -13.074738 -2.779903 37.099105 0.361225 1.645798 0.173682 -0.049582 -650382.000000 0 0 1
-36.109966 -12.876138 -2.667803 38.429698 0.342526 1.640273 0.154753 -0.047783 -796077.000000 0 0 1
-36.614866 -12.077938 -1.575503 38.587656 0.318625 1.611637 0.187322 -0.059919 127652.000000 0 0 1
36.923911 -12.074238 -1.638603 38.882482 -0.316043 1.612951 0.226055 -0.055126 -191395.000000 0 0 1
36.335431 -11.339538 -0.440203 38.066290 -0.302502 1.582361 0.222025 -0.057199 -166521.000000 0 0 1
36.608851 -12.004938 0.783097 38.534916 -0.316875 1.550473 0.245761 -0.055556 168583.000000 0 0 1
35.668821 -11.754538 1.835197 37.600557 -0.318339 1.521969 0.257358 -0.039990 185240.000000 0 0 1
36.019731 -12.180538 3.270597 38.163901 -0.326091 1.484992 0.244982 -0.048138 -319383.000000 0 0 1
35.024141 -11.885738 4.203197 37.224026 -0.327163 1.457639 0.222614 -0.055400 -155206.000000 0 0 1
35.412951 -12.410938 5.488097 37.923972 -0.337087 1.425573 0.234555 -0.053949 251236.000000 0 0 1
34.224571 -12.475938 6.478597 36.999223 -0.349561 1.394788 0.191400 -0.038685 39440.800000 0 0 1
33.712921 -11.183138 6.764697 36.157776 -0.320295 1.382599 0.175638 -0.036674 -108598.000000 0 0 1
33.564601 -11.097138 8.165597 36.282308 -0.319307 1.343795 0.126219 -0.029072 -312798.000000 0 0 1
32.853081 -9.765938 8.577697 35.330940 -0.288942 1.325564 0.119434 -0.038819 -119097.000000 0 0 1
31.471671 -9.719538 8.303197 33.968788 -0.299542 1.323858 0.136628 -0.034130 -75310.400000 0 0 1
30.797191 -8.757038 9.055797 33.274016 -0.277034 1.295161 0.143141 -0.021706 1369330.000000 0 0 1
29.219441 -8.813738 8.836397 31.773253 -0.292960 1.288972 0.122611 -0.022774 1465830.000000 0 0 1
28.657341 -8.284838 7.630697 30.791383 -0.281427 1.320368 0.150997 -0.025257 517040.000000 0 0 1
27.907341 -9.341638 6.978297 30.245372 -0.323014 1.337976 0.168035 -0.042668 168378.000000 0 0 1
26.979541 -8.783238 5.881197 28.976359 -0.314731 1.366411 0.181223 -0.037635 46902.900000 0 0 1
26.018141 -7.860238 6.392497 27.921157 -0.293388 1.339799 0.194140 -0.041183 692224.000000 0 0 1
25.051841 -7.435538 5.428897 26.689977 -0.288524 1.365961 0.205719 -0.046857 171339.000000 0 0 1
25.351541 -6.097838 4.741697 26.502225 -0.236047 1.390911 0.204605 -0.046178 178084.000000 0 0 1
26.424141 -6.134138 3.779797 27.388862 -0.228101 1.432350 0.194399 -0.042506 797521.000000 0 0 1
26.666341 -4.822238 3.407797 27.312283 -0.178903 1.445699 0.194918 -0.046509 323059.000000 0 0 1
27.622441 -4.854338 2.148297 28.127905 -0.173963 1.494346 0.197037 -0.057459 196048.000000 0 0 1
26.986341 -5.326238 0.979197 27.524357 -0.194863 1.535213 0.224244 -0.065123 505147.000000 0 0 1
27.688441 -4.940238 -0.230203 28.126655 -0.176564 1.578981 0.204908 -0.071556 242924.000000 0 0 1
26.838241 -5.375738 -1.472803 27.410926 -0.197685 1.624553 0.228779 -0.065404 575083.000000 0 0 1
25.682041 -4.559538 -1.592603 26.132221 -0.175707 1.631778 0.265184 -0.059411 458285.000000 0 0 1
24.912141 -4.828838 -2.784803 25.528172 -0.191460 1.680101 0.254285 -0.058634 204931.000000 0 0 1
23.577141 -4.070038 -2.878003 24.098334 -0.170942 1.690510 0.207202 -0.047379 -254701.000000 0 1 0
23.669041 -2.645338 -2.907803 23.993262 -0.111302 1.692287 0.191445 -0.052607 60846.500000 0 1 0
24.065941 -2.007538 -4.118603 24.498216 -0.083226 1.739717 0.188171 -0.052674 -30098.200000 0 1 0
22.912341 -1.417438 -4.999303 23.494202 -0.061785 1.785225 0.173531 -0.031717 315674.000000 0 1 0
22.454341 -0.135838 -4.561603 22.913404 -0.006049 1.771215 0.146688 -0.020152 166546.000000 0 1 0
21.742441 0.481562 -5.605203 22.458494 0.022145 1.823043 0.161419 -0.012904 -379681.000000 0 1 0
21.481841 2.033062 -5.439103 22.252790 0.094360 1.817721 0.145674 -0.000186 490126.000000 0 1 0
22.729941 2.709062 -5.297803 23.495871 0.118625 1.798230 0.174299 -0.006245 930264.000000 0 1 0
23.341441 2.617862 -4.001903 23.826273 0.111688 1.739558 0.177903 0.001360 390845.000000 0 1 0
24.456541 3.682662 -3.679803 25.004506 0.149457 1.718498 0.167537 -0.008649 400456.000000 0 0 1
23.968441 4.986562 -3.687203 24.757775 0.205121 1.720284 0.149950 -0.001570 865974.000000 0 1 0
25.014441 5.927262 -3.420003 25.933590 0.232663 1.703057 0.143341 -0.001505 331081.000000 0 0 1
24.465841 7.365762 -3.504003 25.789724 0.292432 1.707086 0.122982 -0.007265 -471548.000000 0 0 1
23.645641 7.670062 -2.431803 24.977186 0.313667 1.668312 0.147431 -0.016802 -102963.000000 0 1 0
22.890341 8.808562 -2.661903 24.670715 0.367348 1.678904 0.144677 -0.014259 -819342.000000 0 1 0
21.896841 9.116362 -1.547203 23.769172 0.394506 1.635935 0.123205 -0.010676 -446502.000000 0 1 0
22.426341 9.462562 -0.288903 24.342644 0.399276 1.582665 0.097915 -0.016514 1313370.000000 0 1 0
21.317541 9.979462 0.490297 23.542888 0.437831 1.549969 0.068125 -0.015644 917326.000000 0 1 0
21.774241 10.549962 1.902097 24.270089 0.451184 1.492344 0.082766 -0.016430 -494148.000000 0 1 0
22.543741 11.697262 1.886397 25.467718 0.478629 1.496658 0.084627 -0.026675 125141.000000 0 0 1
21.985241 12.923962 1.371497 25.539393 0.531436 1.517069 0.094386 -0.020129 -366843.000000 0 0 1
20.948941 13.669162 2.250997 25.115157 0.578130 1.481049 0.091286 -0.008969 335933.000000 0 0 1
19.624441 13.116562 2.060697 23.694078 0.589187 1.483715 0.112465 -0.008662 1016720.000000 0 1 0
18.692841 13.716162 2.949497 23.372097 0.633030 1.444262 0.111081 -0.015207 -228438.000000 0 1 0
18.826841 13.519062 4.468797 23.604769 0.622753 1.380329 0.117460 -0.010864 -824354.000000 0 1 0
18.565541 12.210262 4.874797 22.749362 0.581758 1.354839 0.109458 -0.008956 349239.000000 0 1 0
18.779541 12.098862 6.277597 23.204781 0.572328 1.296852 0.125414 -0.018008 17221.600000 0 1 0
18.509141 10.694162 6.846797 22.446203 0.523919 1.260825 0.054968 -0.020993 -518999.000000 0 1 0
19.553541 9.870962 6.432397 22.828767 0.467494 1.285161 0.051936 -0.025444 206099.000000 0 1 0
19.519141 8.574062 6.928797 22.416950 0.413890 1.256563 0.053201 -0.023249 -385546.000000 0 1 0
20.508941 7.770062 6.088897 22.761045 0.362152 1.299984 0.070463 -0.027373 -79952.600000 0 1 0
20.006441 7.531462 4.750797 21.898645 0.360043 1.352113 0.046006 -0.024562 483807.000000 0 1 0
20.943041 6.866962 3.990097 22.398370 0.316841 1.391698 0.056848 -0.029131 -243735.000000 0 1 0
20.505641 6.716762 2.517697 21.724065 0.316543 1.454641 0.062543 -0.016698 -47987.800000 0 1 0
21.610641 6.116062 1.880797 22.538044 0.275799 1.487249 0.066080 -0.011363 543924.000000 0 1 0
21.457641 5.973362 0.505297 22.279289 0.271505 1.548114 0.089528 0.002134 -348557.000000 0 1 0
22.498141 4.988462 -0.043703 23.044587 0.218198 1.572693 0.129854 -0.012517 26902.400000 0 1 0
22.325941 3.658662 0.545297 22.630307 0.162431 1.546698 0.121318 -0.014871 33931.000000 0 1 0
23.295041 2.827762 0.007697 23.466044 0.120798 1.570468 0.139134 -0.020691 -437977.000000 0 1 0
23.143341 1.283462 0.204997 23.179809 0.055400 1.561952 0.178916 -0.026282 264772.000000 0 1 0
22.048841 0.702962 -0.546003 22.066800 0.031871 1.595542 0.117793 -0.028160 1166380.000000 0 1 0
22.209541 -0.613538 -1.053003 22.242953 -0.027618 1.618155 0.154682 -0.036750 -1586210.000000 0 1 0
22.130941 -1.820938 -0.059603 22.205808 -0.082095 1.573480 0.178531 -0.033686 199941.000000 0 1 0
23.121141 -2.021638 0.941297 23.228435 -0.087215 1.530262 0.184164 -0.032653 677170.000000 0 1 0
24.452141 -2.225538 0.499497 24.558292 -0.090766 1.550456 0.212704 -0.047386 -361848.000000 0 1 0
25.491941 -1.988738 1.596597 25.619197 -0.077857 1.508436 0.214436 -0.041537 -592834.000000 0 0 1
25.539041 -0.628538 2.009397 25.625677 -0.024606 1.492302 0.200898 -0.042972 636106.000000 0 0 1
26.357741 -0.387738 3.160997 26.549440 -0.014710 1.451452 0.208562 -0.044533 -293200.000000 0 0 1
26.287641 1.056462 3.691097 26.566527 0.040167 1.431408 0.186775 -0.034518 -182807.000000 0 0 1
26.845341 2.065662 2.892197 27.079588 0.076795 1.463789 0.218757 -0.027929 -101840.000000 0 0 1
28.209541 2.025862 2.570597 28.398773 0.071692 1.480154 0.224439 -0.029576 -407548.000000 0 0 1
28.581541 3.270262 1.695097 28.817919 0.113923 1.511941 0.232460 -0.032845 139770.000000 0 0 1
28.055641 3.032162 0.380297 28.221581 0.107659 1.557321 0.233258 -0.025336 447494.000000 0 0 1
28.362741 4.152962 -0.481903 28.669224 0.145390 1.587606 0.209898 -0.018368 302570.000000 0 0 1
29.700541 4.007562 -1.279803 29.997009 0.134122 1.613474 0.201078 -0.015204 21817.400000 0 0 1
30.814201 4.242462 -0.459403 31.108271 0.136819 1.585565 0.203364 -0.022529 -13354.000000 0 0 1
31.998571 3.966362 -1.182403 32.265130 0.123325 1.607451 0.161011 -0.015147 1138100.000000 0 0 1
33.443661 4.234462 -0.597703 33.715966 0.125945 1.588525 0.116578 -0.015897 1213990.000000 0 0 1
33.816191 3.485762 0.534897 33.999580 0.102717 1.555063 0.132279 -0.023639 109997.000000 0 0 1
33.173321 3.949962 1.730197 33.452429 0.118512 1.519052 0.137699 -0.012401 97003.100000 0 0 1
33.362051 3.072062 2.993497 33.636662 0.091824 1.481683 0.151715 -0.016634 253487.000000 0 0 1
32.430131 1.978362 2.918597 32.621243 0.060928 1.481207 0.180928 -0.024060 528972.000000 0 0 1
32.576441 0.905362 3.873597 32.818424 0.027785 1.452489 0.181128 -0.026184 -53314.300000 0 0 1
33.790821 -0.048838 3.776797 34.001267 -0.001445 1.459488 0.164252 -0.022069 -350474.000000 0 0 1
35.017961 0.512962 4.097297 35.260581 0.014647 1.454333 0.148339 -0.027317 -882052.000000 0 0 1
36.064621 -0.365038 4.248597 36.315846 -0.010121 1.453538 0.121078 -0.026814 -116497.000000 0 0 1
37.399681 0.307762 4.750797 37.701471 0.008229 1.444450 0.130501 -0.045038 1000500.000000 0 0 1
-36.821596 1.171062 3.866697 37.042579 -0.031793 1.466221 0.133020 -0.044484 519375.000000 0 0 1
-36.093166 0.530562 2.819797 36.207035 -0.014699 1.492838 0.153936 -0.037588 -205553.000000 0 0 1
-35.519229 1.591962 1.851797 35.603077 -0.044790 1.518761 0.187141 -0.036512 22899.200000 0 0 1
-34.461231 2.415062 2.333797 34.624494 -0.069966 1.503342 0.194172 -0.064885 392766.000000 0 0 1
-34.183377 3.310862 1.267697 34.366730 -0.096555 1.533901 0.219877 -0.032613 -367037.000000 0 0 1
-33.241936 4.431362 1.705997 33.579364 -0.132525 1.519970 0.242279 -0.033070 -671652.000000 0 0 1
-31.974616 3.969262 2.084597 32.287407 -0.123506 1.506188 0.232570 -0.045229 -528150.000000 0 0 1
-31.421966 4.697562 3.089997 31.921076 -0.148400 1.473843 0.257857 -0.041588 -437600.000000 0 0 1
-31.925816 4.329562 4.503997 32.531351 -0.134791 1.431899 0.249300 -0.037806 -1006530.000000 0 0 1
-33.097456 4.952562 4.915997 33.825086 -0.148534 1.424944 0.230502 -0.011485 -487896.000000 0 0 1
-34.234918 4.156462 5.074197 34.857614 -0.120819 1.424708 0.212620 -0.008822 -469151.000000 0 0 1
-34.213516 3.226362 6.324597 34.942447 -0.094023 1.388793 0.173255 -0.009650 -937475.000000 0 0 1
-34.396898 4.014762 7.477997 35.428595 -0.116193 1.358124 0.169351 -0.010268 428202.000000 0 0 1
-34.212581 3.395862 8.784697 35.485257 -0.098934 1.320636 0.148415 -0.008048 352135.000000 0 0 1
-35.298419 2.293262 9.093997 36.523119 -0.064877 1.319156 0.131950 -0.005517 256343.000000 0 0 1
-35.092154 1.175962 8.228797 36.063212 -0.033498 1.340591 0.136487 -0.017685 183387.000000 0 0 1
-36.068586 0.160762 8.323197 37.016811 -0.004457 1.344008 0.119231 -0.011684 -140190.000000 0 0 1
-35.954858 -0.806438 9.549697 37.210198 0.022425 1.311250 0.133728 -0.007444 407550.000000 0 0 1
-34.861314 -1.733338 9.390197 36.145421 0.049680 1.307992 0.135961 -0.016222 709938.000000 0 0 1
-34.715415 -2.561738 10.535197 36.369120 0.073659 1.276910 0.121279 -0.003782 562756.000000 0 0 1
-33.467166 -3.524238 10.496997 35.251360 0.104918 1.268435 0.139059 0.003482 539179.000000 0 0 1
-33.643406 -4.566038 9.567397 35.274106 0.134894 1.296126 0.142554 -0.016779 305671.000000 0 0 1
-32.409646 -5.244238 9.363897 34.140441 0.160421 1.292960 0.162540 -0.023070 406762.000000 0 0 1
-32.416626 -6.387838 8.336897 34.075592 0.194562 1.323628 0.165448 -0.017876 715794.000000 0 0 1
-33.325776 -7.441838 8.774497 35.255923 0.219701 1.319273 0.176609 -0.027333 636159.000000 0 0 1
-33.380936 -8.522838 7.829997 35.330362 0.249980 1.347318 0.197283 -0.030985 -70652.900000 0 0 1
-34.385520 -9.596238 8.291797 36.649770 0.272153 1.342576 0.200658 -0.028838 770901.000000 0 0 1
-35.717619 -9.102338 8.110897 37.741058 0.249530 1.354198 0.187654 -0.039430 634933.000000 0 0 1
-36.768396 -10.014838 8.380897 39.018602 0.265925 1.354317 0.185718 -0.039828 212828.000000 0 0 1
8.092374 -24.003238 10.672197 27.487047 -1.245627 1.172051 0.143111 -0.043037 145013.000000 0 0 1
7.407374 -24.662038 9.606097 27.483857 -1.279014 1.213740 0.127883 -0.044336 214302.000000 0 0 1
6.128074 -25.169158 9.975797 27.758897 -1.331968 1.203200 0.130655 -0.044448 700609.000000 0 0 1
5.680174 -26.176688 8.884197 28.220779 -1.357115 1.250539 0.110731 -0.036320 -186264.000000 0 0 1
5.135974 -25.536858 7.750297 27.176763 -1.372324 1.281601 0.103513 -0.028549 -225761.000000 0 0 1
4.890874 -26.499358 6.759197 27.781709 -1.388284 1.325033 0.080541 -0.019724 -635817.000000 0 0 1
4.251274 -25.880568 5.519097 26.801820 -1.407985 1.363390 0.069301 -0.013749 631125.000000 0 0 1
2.853274 -25.611678 5.463097 26.342829 -1.459849 1.361896 0.083866 -0.026710 163240.000000 0 0 1
2.106174 -26.775088 5.171397 27.351136 -1.492296 1.380577 0.079288 -0.025738 -853906.000000 0 0 1
0.595074 -26.614488 5.007297 27.087970 -1.548441 1.384874 0.098795 -0.032067 -793603.000000 0 0 1
0.053974 -26.209818 6.263597 26.947915 -1.568737 1.336217 0.100743 -0.034592 171856.000000 0 0 1
-1.364826 -26.229448 6.388397 27.030692 1.518809 1.332200 0.101693 -0.035578 811277.000000 0 0 1
-2.062526 -27.596038 6.381997 28.399388 1.496195 1.344138 0.113124 -0.028879 -589328.000000 0 0 1
-1.752826 -28.314818 7.580797 29.364431 1.508970 1.309677 0.096713 -0.034375 293055.000000 0 0 1
-2.320526 -29.636418 7.546297 30.669997 1.492656 1.322195 0.115997 -0.032585 54936.300000 0 0 1
-2.222026 -30.343898 8.931297 31.708952 1.497699 1.285268 0.106934 -0.032980 -1007890.000000 0 0 1
-0.946826 -30.568488 9.375297 31.987891 1.539832 1.273340 0.109723 -0.026382 -1229430.000000 0 0 1
-0.909826 -30.960178 10.715097 32.774590 1.541418 1.237740 0.109255 -0.019712 1070910.000000 0 0 1
0.545574 -31.132558 11.314797 33.129420 -1.553274 1.222249 0.090489 -0.022717 856345.000000 0 0 1
1.261374 -32.265908 10.906797 34.082813 -1.531723 1.245058 0.090089 -0.019047 905622.000000 0 0 1
2.666574 -32.171788 11.238897 34.182560 -1.488100 1.235774 0.108643 -0.014865 1321130.000000 0 0 1
3.118774 -32.733958 12.612697 35.218161 -1.475807 1.204532 0.110539 -0.014307 -356088.000000 0 0 1
2.817074 -32.031538 13.794997 34.989388 -1.483075 1.165531 0.105422 -0.024693 89622.300000 0 0 1
3.699274 -32.423408 14.829197 35.845043 -1.457195 1.144279 0.107348 -0.023209 -31467.600000 0 0 1
3.389974 -31.721418 16.242697 35.798960 -1.464333 1.099861 0.117082 -0.031964 79945.900000 0 0 1
3.633474 -30.327068 16.217797 34.582512 -1.451555 1.082684 0.133146 -0.038772 107060.000000 0 0 1
4.987074 -30.047088 16.501197 34.640842 -1.406320 1.074296 0.121341 -0.027572 -72004.100000 0 0 1
5.585174 -28.807788 15.844597 33.348674 -1.379295 1.075697 0.133325 -0.030919 -123378.000000 0 0 1
5.898474 -28.693578 14.476797 32.675543 -1.368053 1.111802 0.119805 -0.025387 567697.000000 0 0 1
4.759874 -28.484668 13.607797 31.924988 -1.405223 1.130461 0.116588 -0.012169 479103.000000 0 0 1
5.116274 -28.620748 12.071797 31.480975 -1.393904 1.177253 0.102000 -0.018227 86089.200000 0 0 1
5.394474 -29.895698 11.586997 32.513253 -1.392274 1.206408 0.093011 -0.017491 401124.000000 0 0 1
6.802474 -30.088138 11.457597 32.906629 -1.348449 1.215162 0.093436 -0.019882 140957.000000 0 0 1
7.233474 -31.454618 10.802597 34.035456 -1.344761 1.247818 0.077187 -0.012852 42045.800000 0 0 1
6.946074 -32.634338 11.593897 35.322322 -1.361080 1.236366 0.071420 -0.022415 198923.000000 0 0 1
7.164574 -33.822668 10.898297 36.250198 -1.362054 1.265432 0.072986 -0.013039 -26495.100000 0 0 1
6.997974 32.780708 11.869597 35.558877 1.360475 1.230463 0.071901 -0.011164 1724650.000000 0 0 1
5.611474 32.488407 12.251797 35.172315 1.399761 1.215001 0.078723 -0.014857 1533940.000000 0 0 1
5.481574 31.227966 12.838897 34.206297 1.397032 1.186036 0.081806 -0.017860 130808.000000 0 0 1
4.143974 31.082416 13.599197 34.179339 1.438256 1.161594 0.097926 -0.024596 355798.000000 0 0 1
4.264574 31.611506 14.915297 35.212781 1.436700 1.133407 0.101130 -0.023644 -1003080.000000 0 0 1
3.100674 31.317686 15.546197 35.101223 1.472111 1.111970 0.115411 -0.029497 -1023920.000000 0 0 1
3.253574 31.324086 17.056697 35.815011 1.467299 1.074418 0.108581 -0.031785 45625.200000 0 0 1
3.700574 32.593609 17.530397 37.193446 1.457744 1.079998 0.119715 -0.025991 175696.000000 0 0 1
4.124774 32.488685 18.887497 37.805634 1.444512 1.047665 0.121732 -0.022297 -84159.500000 0 0 1
4.331174 33.811476 19.549597 39.295823 1.443392 1.050084 0.114097 -0.025341 502063.000000 0 0 1
3.170574 -33.117138 19.609997 38.617993 -1.475349 1.038174 0.106183 -0.026511 176311.000000 0 0 1
3.456774 -31.964988 20.298097 38.022658 -1.463072 1.007658 0.102386 -0.028617 491410.000000 0 0 1
2.139074 -31.188718 20.653297 37.468259 -1.502319 0.986969 0.109299 -0.019973 424098.000000 0 0 1
1.303474 -32.001498 21.443997 38.544000 -1.530087 0.980808 0.116636 -0.014326 -515304.000000 0 0 1
0.277374 -31.216688 22.003897 38.193325 -1.561911 0.956824 0.103406 -0.015896 -750472.000000 0 0 1
-0.715226 -32.049988 22.752697 39.311557 1.548484 0.953566 0.117562 -0.011326 -1552850.000000 0 0 1
-1.557626 -32.812428 21.929797 39.496805 1.523361 0.982157 0.115706 -0.015509 -145270.000000 0 0 1
-2.252126 -33.784628 22.692497 40.760552 1.504234 0.980356 0.111101 -0.019522 -762908.000000 0 0 1
-3.441626 -33.380588 23.535897 40.988375 1.468057 0.959159 0.122350 -0.019249 -844414.000000 0 0 1
-4.483026 -32.926348 22.692797 40.239346 1.435475 0.971641 0.106027 -0.022028 82851.900000 0 0 1
-5.713326 -32.676618 23.373797 40.580018 1.397702 0.956978 0.097062 -0.026859 151679.000000 0 0 1
-6.769326 -31.990218 22.536697 39.712725 1.362266 0.967338 0.070980 -0.013989 -7381.090000 0 0 1
-7.556326 -32.911898 21.744597 40.163648 1.345115 0.998695 0.053107 -0.003955 500803.000000 0 0 1
-8.500226 -32.299448 20.838297 39.366773 1.313462 1.012977 0.061161 -0.014938 700467.000000 0 0 1
-9.631926 -33.356658 20.633597 40.387943 1.289687 1.034582 0.045400 -0.022792 152167.000000 0 0 1
-10.364726 -33.610588 21.807897 41.384581 1.271672 1.015780 0.063235 -0.026326 313989.000000 0 0 1
-11.717226 33.782704 21.510597 41.728530 -1.236939 1.029218 0.061553 -0.023846 1046440.000000 0 0 1
-12.633426 33.594356 22.740497 42.488991 -1.211098 1.006041 0.060393 -0.026723 150502.000000 0 0 1
-13.044026 -32.985248 23.477397 42.536589 1.194218 0.986114 0.062501 -0.027694 764163.000000 0 0 1
-11.935726 -32.400888 24.203797 42.167557 1.217845 0.959425 0.063444 -0.027418 500773.000000 0 0 1
-12.233926 -31.126888 24.997797 41.754544 1.196310 0.928939 0.059856 -0.032689 -201868.000000 0 0 1
-12.754926 -31.315418 26.286797 42.829187 1.184008 0.909983 0.052860 -0.024399 350590.000000 0 0 1
-13.577126 -30.180198 26.584997 42.449320 1.148052 0.894029 0.074850 -0.027330 351885.000000 0 0 1
-14.369826 -30.113208 27.911397 43.501072 1.125560 0.874181 0.072761 -0.022146 29872.100000 0 0 1
-13.537126 -29.783578 29.012597 43.726949 1.144193 0.845316 0.053544 -0.013031 396923.000000 0 0 1
-14.319026 -29.418318 30.129297 44.477483 1.117814 0.826566 0.073784 -0.017991 -58552.400000 0 0 1
-13.507526 -28.975588 31.360897 44.783299 1.134578 0.795005 0.064331 -0.014175 -211406.000000 0 0 1
-14.311426 -28.233448 32.260797 45.196278 1.101647 0.775897 0.077525 -0.017104 454515.000000 0 0 1
-13.673326 -27.914638 33.473897 45.680287 1.115321 0.748388 0.069540 -0.013197 -531309.000000 0 0 1
-13.237426 -29.029158 -33.426322 46.208662 1.142960 2.379478 0.071098 -0.011149 -6481.950000 0 0 1
-11.942926 -29.528578 -33.702822 46.372951 1.186457 2.384415 0.069706 -0.011382 22190.300000 0 0 1
-11.632826 -30.562448 -32.781722 46.303641 1.207103 2.357420 0.068930 -0.011467 317401.000000 0 0 1
-10.176826 -31.058648 -32.991322 46.439581 1.254156 2.360882 0.067615 -0.023831 644248.000000 0 0 1
-9.169126 -30.277158 -32.330022 45.232836 1.276736 2.367058 0.102200 -0.032544 66084.800000 0 0 1
-7.905126 -30.872098 -32.468122 45.494575 1.320122 2.365520 0.131245 -0.046466 -268887.000000 0 0 1
-6.889426 -30.203748 -31.526122 44.199852 1.346535 2.364939 0.153255 -0.041300 -232968.000000 0 0 1
-7.204426 -30.425398 -30.130322 43.421710 1.338289 2.337687 0.155396 -0.045061 107658.000000 0 0 1
-6.275526 -29.792758 -29.282122 42.242553 1.363192 2.336702 0.150353 -0.038941 63064.200000 0 0 1
-6.682126 -29.982868 -27.778322 41.415678 1.351515 2.305975 0.156982 -0.041511 -16245.500000 0 0 1
-6.496426 -31.249378 -27.195922 41.932629 1.365826 2.276490 0.132509 -0.034510 -632183.000000 0 0 1
-7.303626 -31.591518 -26.138922 41.648652 1.343599 2.249270 0.148573 -0.036225 -405784.000000 0 0 1
-6.873626 -32.872408 -25.358122 42.081781 1.364666 2.217541 0.134744 -0.038030 252212.000000 0 0 1
-5.701226 -32.616008 -24.615822 41.258292 1.397746 2.210088 0.090168 -0.042118 -37703.700000 0 0 1
-5.392226 -33.706458 -23.730822 41.573469 1.412164 2.178296 0.107067 -0.049685 22775.200000 0 0 1
-4.294126 -33.420518 -22.656022 40.603767 1.443009 2.162744 0.119586 -0.061459 223479.000000 0 0 1
-4.685026 -32.666708 -21.505422 39.389674 1.428349 2.148338 0.128690 -0.049941 25360.200000 0 0 1
-4.767126 -31.279878 -21.792622 38.419717 1.419558 2.173929 0.092643 -0.031722 -579262.000000 0 0 1
-5.162526 -30.428658 -20.610622 37.112702 1.402737 2.159583 0.143326 -0.049625 -1091050.000000 0 0 1
-6.477726 -30.628728 -20.199922 37.257439 1.362376 2.143816 0.139763 -0.056251 -394551.000000 0 0 1
-7.281026 -29.452718 -20.271022 36.488221 1.328445 2.159820 0.132655 -0.046240 203482.000000 0 0 1
-7.686326 -28.824988 -21.673722 36.874243 1.310205 2.199101 0.173297 -0.060080 -416267.000000 0 0 1
-6.568926 -28.384088 -22.432122 36.769652 1.343370 2.226947 0.168076 -0.037555 -217737.000000 0 0 1
-6.886826 -27.762648 -23.603322 37.085170 1.327644 2.260700 0.220709 -0.044971 1196600.000000 0 0 1
-5.537826 -27.278128 -24.410122 37.021856 1.370505 2.290742 0.194898 -0.044993 2094480.000000 0 0 1
-4.791526 -26.198738 -23.868922 35.763921 1.389904 2.301511 0.164737 -0.047333 112355.000000 0 0 1
-4.101526 -26.564438 -22.677722 35.167755 1.417607 2.271616 0.116348 -0.037505 -1235300.000000 0 0 1
-2.579026 -26.716188 -22.894222 35.278201 1.474560 2.277016 0.104220 -0.036193 179769.000000 0 0 1
-1.755826 -25.574078 -23.131022 34.527678 1.502247 2.304907 0.098084 -0.042608 394185.000000 0 0 1
-1.792726 -24.617538 -22.081922 33.118701 1.498102 2.300637 0.106777 -0.049116 -1235680.000000 0 0 1
-1.446826 -23.205138 -22.608122 32.429908 1.508528 2.342194 0.125902 -0.051151 -243809.000000 0 0 1
-2.266626 -22.598738 -23.568922 32.731249 1.470832 2.374705 0.187337 -0.060155 432839.000000 0 0 1
-3.626026 -22.392638 -23.137422 32.402447 1.410260 2.366083 0.172881 -0.063653 717039.000000 0 0 1
-4.617626 -21.859138 -24.238722 32.964527 1.362612 2.396901 0.165792 -0.070287 349204.000000 0 0 1
-4.415026 -20.515938 -24.644122 32.368641 1.358829 2.436201 0.176011 -0.057632 291287.000000 0 0 1
-5.081026 -20.259238 -25.916722 33.285583 1.325064 2.463255 0.218787 -0.068579 34349.200000 0 0 1
-4.402326 -20.748138 -27.192022 34.485820 1.361718 2.479160 0.182546 -0.059017 11184.400000 0 0 1
-5.288426 -20.897838 -28.293222 35.569558 1.322939 2.490519 0.185999 -0.054471 410596.000000 0 0 1
-4.626426 -21.600438 -29.358922 36.741380 1.359802 2.496543 0.188454 -0.046294 588817.000000 0 0 1
-5.597826 -21.747138 -30.544422 37.910887 1.318860 2.507636 0.180405 -0.045578 65981.100000 0 0 1
-6.003726 -20.625238 -31.346622 38.000735 1.287537 2.540813 0.158814 -0.045848 -93727.400000 0 0 1
-6.991426 -21.061838 -32.244722 39.143367 1.250293 2.538807 0.152585 -0.039689 -146697.000000 0 0 1
-7.096426 -20.242338 -33.535822 39.809080 1.233611 2.572549 0.131135 -0.032920 -70870.300000 0 0 1
-6.152526 -20.648038 33.334697 39.691272 1.281202 0.573790 0.122173 -0.024554 -372094.000000 0 0 1
-6.355626 -20.237138 32.032397 38.418878 1.266493 0.584900 0.110549 -0.019956 -153559.000000 0 0 1
-5.186626 -20.602238 31.113997 37.675378 1.324171 0.599098 0.109793 -0.023043 -972213.000000 0 0 1
-5.075526 -21.966838 30.781197 38.154751 1.343727 0.632172 0.097769 -0.020149 470851.000000 0 0 1
-3.890626 -22.395338 30.099097 37.717950 1.398788 0.646819 0.105939 -0.018773 395960.000000 0 0 1
-2.534526 -22.240938 30.782497 38.061073 1.457328 0.628746 0.095151 -0.022498 -1046130.000000 0 0 1
-1.842626 -21.049638 30.512897 37.114949 1.483482 0.605674 0.106766 -0.013525 264689.000000 0 0 1
-0.772126 -20.691738 31.388897 37.603285 1.533498 0.583139 0.113220 -0.020469 39171.200000 0 0 1
-1.078226 -20.429738 32.860397 38.708429 1.518068 0.556856 0.099454 -0.021584 -401421.000000 0 0 1
-1.897926 -19.285738 33.007097 38.275453 1.472701 0.530890 0.091362 -0.016519 -59568.700000 0 0 1
-2.114326 -18.954038 -33.448122 38.503283 1.459705 2.623385 0.101079 -0.019949 -182972.000000 0 0 1
-3.135526 -17.837538 -33.376922 37.974046 1.396792 2.644432 0.110640 -0.032820 -127715.000000 0 0 1
-2.665226 -16.557038 -33.851322 37.777651 1.411193 2.681626 0.105431 -0.037238 234299.000000 0 0 1
-3.719126 -15.601938 -33.803022 37.415193 1.336788 2.698563 0.118542 -0.047139 506181.000000 0 0 1
-3.190626 -14.169738 33.702297 36.698861 1.349318 0.406912 0.107801 -0.045254 245753.000000 0 0 1
-2.392226 -13.509638 -33.171422 35.896745 1.395538 2.749415 0.110295 -0.048519 -62565.900000 0 0 1
-2.535526 -12.146738 -33.080222 35.330910 1.365010 2.782730 0.099267 -0.049650 -25975.500000 0 0 1
-1.846126 -11.259238 33.662397 35.543433 1.408277 0.326789 0.091461 -0.046533 -220691.000000 0 0 1
-2.470826 -11.210938 32.371897 34.347196 1.353870 0.340792 0.086472 -0.035613 -158690.000000 0 0 1
-1.750026 -10.602538 31.309797 33.102565 1.407214 0.330618 0.084950 -0.030411 366130.000000 0 0 1
-0.603826 -11.535438 30.750797 32.848782 1.518499 0.359332 0.072042 -0.035650 557259.000000 0 0 1
-1.176226 -12.674138 30.132297 32.710436 1.478256 0.399687 0.074879 -0.038107 834969.000000 0 0 1
-0.159326 -13.529938 29.535297 32.487203 1.559021 0.429591 0.063017 -0.045136 628858.000000 0 0 1
-0.198626 -14.973638 30.100397 33.619685 1.557532 0.461646 0.091338 -0.035128 734060.000000 0 0 1
-1.211526 -15.779838 29.444497 33.428274 1.494170 0.493192 0.078354 -0.043135 586666.000000 0 0 1
-1.917126 -16.520138 30.398297 34.650351 1.455265 0.500616 0.103115 -0.039120 -219151.000000 0 0 1
-2.562126 -17.837038 29.902297 34.912344 1.428131 0.542353 0.097519 -0.018488 -94352.300000 0 0 1
-3.382826 -17.577938 28.776297 33.889566 1.380673 0.556480 0.105512 -0.027432 7321.380000 0 0 1
-3.796426 -18.764838 28.204197 34.088249 1.371175 0.596356 0.116625 -0.031580 283271.000000 0 0 1
-4.739226 -18.654038 26.967297 33.131081 1.322001 0.619864 0.100977 -0.039193 -121490.000000 0 0 1
-5.428426 -19.806838 26.496797 33.524005 1.303297 0.659363 0.113390 -0.039951 -528063.000000 0 0 1
-4.675626 -20.869538 26.041897 33.698361 1.350395 0.687564 0.123999 -0.038956 -505368.000000 0 0 1
-30.381106 -33.135692 -0.402903 44.957179 0.828739 1.579758 0.048951 -0.019463 -340180.000000 0 0 1
-29.484856 -32.118892 -0.072303 43.600288 0.828130 1.572455 0.066501 -0.025298 -445052.000000 0 0 1
-29.785746 -31.559392 1.198997 43.412250 0.814303 1.543174 0.056560 -0.014298 82649.300000 0 0 1
-28.890786 -30.384992 1.627997 41.959213 0.810601 1.531987 0.078158 -0.018492 896109.000000 0 0 1
-27.506756 -30.731592 1.784897 41.282420 0.840715 1.527547 0.093971 -0.014362 705343.000000 0 0 1
-26.696576 -29.568992 1.958897 39.885708 0.836405 1.521664 0.106598 -0.012051 143950.000000 0 0 1
-25.186826 -29.762392 2.175997 39.050110 0.868476 1.515044 0.069906 -0.006621 5839.290000 0 0 1
-24.954826 -30.440292 3.385897 39.507202 0.884101 1.484988 0.062328 0.000554 536299.000000 0 0 1
-23.571526 -30.439992 3.754797 38.682146 0.911886 1.473575 0.053128 0.001870 288268.000000 0 0 1
-23.235826 -31.016792 5.128197 39.092753 0.927848 1.439237 0.056614 -0.000560 -22553.100000 0 0 1
-23.807126 -30.305892 6.246597 39.041597 0.904922 1.410107 0.045425 0.010548 183187.000000 0 0 1
-23.516126 -30.935992 7.488997 39.574346 0.920828 1.380410 0.031401 -0.000133 -91908.500000 0 0 1
-24.145226 -30.164392 8.683797 39.601651 0.895778 1.349721 0.036774 -0.002503 -279152.000000 0 0 1
-23.422826 -28.987892 8.925697 38.322248 0.891184 1.335726 0.051878 -0.004906 37732.900000 0 0 1
-23.845226 -28.401692 10.146097 38.447291 0.872388 1.303737 0.046392 -0.012107 1422.120000 0 0 1
-23.004526 -27.212692 10.687997 37.201775 0.869002 1.279392 0.050933 -0.017460 1099440.000000 0 0 1
-21.716626 -27.661492 11.176797 36.901094 0.905216 1.263078 0.035043 -0.018162 679199.000000 0 0 1
-21.081926 -26.595692 11.890097 35.960434 0.900534 1.233811 0.057767 -0.030570 -380700.000000 0 0 1
-19.736426 -26.968592 12.484397 35.674804 0.939026 1.213279 0.067491 -0.031087 -728694.000000 0 0 1
-19.842626 -27.989392 13.488497 36.865640 0.954100 1.196215 0.078642 -0.035820 154033.000000 0 0 1
-18.673926 -27.921392 14.305897 36.509975 0.981316 1.168171 0.083059 -0.041376 361831.000000 0 0 1
-18.607326 -28.946492 15.432197 37.713190 0.999487 1.149220 0.090430 -0.042208 -173124.000000 0 0 1
-18.416526 -30.187992 14.811697 38.338879 1.023012 1.174140 0.089915 -0.037966 -94321.600000 0 0 1
-18.443026 -31.261892 15.680497 39.538956 1.037798 1.163004 0.089912 -0.031664 134801.000000 0 0 1
-18.306426 -32.628992 15.036597 40.322147 1.059511 1.188651 0.077509 -0.032755 139505.000000 0 0 1
-18.246626 -33.603392 16.048197 41.468927 1.073344 1.173428 0.077131 -0.030262 4298.210000 0 0 1
-17.856026 32.908262 15.530697 40.533861 -1.073652 1.177588 0.061154 -0.027651 -326160.000000 0 0 1
-17.939126 31.677962 16.391097 39.924598 -1.055527 1.147738 0.071721 -0.030006 -315487.000000 0 0 1
-19.222926 31.318362 16.869397 40.434357 -1.020298 1.140429 0.073130 -0.034871 50880.600000 0 0 1
-19.193326 30.168962 17.729397 39.910920 -1.004188 1.110488 0.055210 -0.021378 -231502.000000 0 0 1
-19.853326 30.427562 19.086897 41.040233 -0.992681 1.087074 0.052378 -0.026544 -535278.000000 0 0 1
-19.300226 31.369862 19.939797 41.882723 -1.019241 1.074597 0.060449 -0.025979 -219929.000000 0 0 1
-20.024626 31.535562 21.135997 42.920947 -1.005049 1.055905 0.063732 -0.018594 -222512.000000 0 0 1
-19.364826 32.668962 21.970197 43.874219 -1.035718 1.046327 0.055892 -0.015930 375234.000000 0 0 1
-18.175226 32.288962 22.640097 43.422228 -1.058108 1.022312 0.037420 -0.018152 -249718.000000 0 0 1
-17.909326 33.218962 23.637397 44.530550 -1.076337 1.011237 0.041236 -0.021106 -264968.000000 0 0 1
-18.476126 32.912362 25.051297 45.300754 -1.059263 0.984836 0.036357 -0.020435 -745234.000000 0 0 1
-19.863126 33.007462 25.064697 45.959497 -1.029071 0.993972 0.024404 -0.021738 -633460.000000 0 0 1
-20.508426 31.851162 25.604897 45.724204 -0.998733 0.976428 0.031002 -0.017156 8466.640000 0 0 1
-22.024826 31.970062 25.334497 46.357465 -0.967545 0.992613 0.107201 -0.032259 -82844.800000 0 0 1
-22.358626 31.392462 24.090497 45.450488 -0.951910 1.012151 0.091009 -0.018095 252828.000000 0 0 1
-23.730926 31.654562 23.833297 46.186515 -0.927497 1.028595 0.075072 -0.025347 249321.000000 0 0 1
-24.168026 31.302862 22.411597 45.455938 -0.913319 1.055216 0.069833 -0.025580 -188038.000000 0 0 1
-23.482926 32.109562 21.511497 45.224067 -0.939347 1.075077 0.073750 -0.022274 -31244.000000 0 0 1
-23.705826 31.782162 20.132997 44.468073 -0.929934 1.100947 0.043459 -0.015722 -151697.000000 0 0 1
-23.326126 32.925462 19.166697 44.671652 -0.954420 1.127347 0.063377 -0.016045 11557.300000 0 0 1
-21.960026 33.249562 19.312997 44.280560 -0.987103 1.119480 0.063657 -0.018985 -391409.000000 0 0 1
-21.539226 -33.698992 18.287497 43.977185 1.002076 1.141929 0.084526 -0.017939 -173754.000000 0 0 1
-20.237726 -33.000592 18.677997 42.982231 1.020689 1.121256 0.072976 -0.021113 -436551.000000 0 0 1
-20.540926 -31.941792 19.567697 42.721218 0.999306 1.095016 0.089180 -0.028778 2269.960000 0 0 1
-19.451926 -31.175092 19.993997 41.833284 1.012947 1.072483 0.063369 -0.031428 -550930.000000 0 0 1
-19.803026 -30.010192 20.932697 41.604678 0.987509 1.043576 0.059256 -0.018675 285571.000000 0 0 1
-20.621526 -29.029592 20.238097 40.957845 0.953150 1.053974 0.091465 -0.025774 571993.000000 0 0 1
-21.193126 -28.164692 21.165297 41.114088 0.925715 1.030029 0.104262 -0.023043 237745.000000 0 0 1
-22.193226 -27.159192 20.500097 40.625299 0.885683 1.041861 0.102984 -0.028220 148081.000000 0 0 1
-21.396626 -26.097192 19.998997 39.228037 0.884049 1.035828 0.084009 -0.013184 1079730.000000 0 0 1
-22.163226 -24.910692 19.702197 38.728900 0.843697 1.037098 0.080951 0.003554 -58633.600000 0 0 1
-23.288926 -24.923392 18.654497 38.878526 0.819287 1.070353 0.075774 -0.013311 508745.000000 0 0 1
-24.514826 -25.439092 19.190097 40.204277 0.803898 1.073200 0.082493 -0.012704 572876.000000 0 0 1
-25.628566 -25.455592 18.305197 40.495565 0.782012 1.101757 0.074096 -0.016487 -22142.200000 0 0 1
-26.883986 -25.819192 19.112097 41.888562 0.765197 1.097008 0.057334 -0.012843 -429343.000000 0 0 1
-27.243546 -27.161392 19.375897 43.074092 0.783888 1.104225 0.052543 -0.004783 -31614.400000 0 0 1
-27.416066 -28.024292 18.295797 43.263585 0.796369 1.134163 0.065213 -0.014314 -521890.000000 0 0 1
-28.314196 -29.208992 18.712497 44.777410 0.800952 1.139663 0.077703 -0.018193 -146391.000000 0 0 1
-29.669506 -28.889292 18.861697 45.504224 0.772075 1.143398 0.038513 -0.013812 -635685.000000 0 0 1
-30.475246 -29.323592 17.817597 45.892052 0.766142 1.172064 0.040128 -0.005471 -648570.000000 0 0 1
-31.900616 -28.786292 18.007897 46.589529 0.734125 1.173938 0.033344 -0.012109 -236106.000000 0 0 1
-32.065746 -27.373792 17.839297 45.779658 0.706625 1.170515 0.038309 -0.013184 -315609.000000 0 0 1
-33.411796 -26.976292 17.887297 46.519069 0.679230 1.176114 0.058081 0.002731 -254816.000000 0 0 1
-33.746836 -25.714592 16.984197 45.700679 0.651128 1.190021 0.075228 -0.018038 -314999.000000 0 0 1
-33.833736 -25.960992 15.570697 45.399795 0.654488 1.220721 0.089892 -0.037126 354043.000000 0 0 1
-34.449091 -24.907492 14.803497 45.014070 0.626011 1.235696 0.104541 -0.043613 410120.000000 0 0 1
-33.526186 -23.649192 14.597097 43.547269 0.614337 1.228978 0.095940 -0.036375 335731.000000 0 0 1
-33.545116 -22.846492 15.766797 43.541117 0.597906 1.200263 0.068234 -0.023910 -79389.000000 0 0 1
-32.642536 -21.808392 15.698497 42.279829 0.588992 1.190388 0.075186 -0.024940 -476719.000000 0 0 1
-33.320326 -20.509492 16.172497 42.337135 0.551757 1.178844 0.101259 -0.035136 -88091.700000 0 0 1
-33.679096 -20.476792 17.533697 43.139437 0.546279 1.152239 0.090961 -0.026777 113322.000000 0 0 1
-34.571513 -19.421992 17.723597 43.434193 0.511851 1.150472 0.084085 -0.023729 -319249.000000 0 0 1
-35.164262 -19.155592 19.097697 44.364220 0.498801 1.125777 0.082096 -0.016865 -1339100.000000 0 0 1
-36.386856 -19.714992 19.336097 45.678976 0.496538 1.133707 0.080473 -0.009282 -981751.000000 0 0 1
-36.895506 -19.391492 20.607597 46.497111 0.483901 1.111629 0.086512 -0.007246 -611515.000000 0 0 1
36.589501 -19.712492 20.944997 46.541023 -0.494163 1.103994 0.083781 -0.002750 -658454.000000 0 0 1
36.124341 -20.984092 21.084797 46.796034 -0.526246 1.103395 0.089537 -0.006449 -120056.000000 0 0 1
36.808871 -21.819692 22.015297 48.121359 -0.535096 1.095620 0.082992 -0.004541 -612455.000000 0 0 1
36.069381 -23.090592 22.335497 48.301657 -0.569435 1.090077 0.089869 0.000974 -373274.000000 0 0 1
35.155891 -22.904692 23.400197 48.043010 -0.577442 1.062067 0.078638 -0.012825 99604.900000 0 0 1
34.761761 -24.219092 23.896897 48.641609 -0.608519 1.057232 0.075419 -0.026868 -446894.000000 0 0 1
33.802271 -24.106892 25.070397 48.500109 -0.619513 1.027554 0.075490 -0.028413 175545.000000 0 0 1
32.412561 -24.047092 24.804397 47.371878 -0.638301 1.019713 0.076635 -0.021267 284967.000000 0 0 1
31.652291 -24.273192 25.968197 47.596246 -0.654211 0.993699 0.035220 -0.017333 -384177.000000 0 0 1
30.182831 -24.630892 25.769197 46.709053 -0.684455 0.986400 0.048846 -0.020404 -401369.000000 0 0 1
29.334441 -23.568292 25.402797 45.401276 -0.676831 0.976993 0.066656 -0.018002 323227.000000 0 0 1
27.997141 -24.071492 25.335297 44.778945 -0.710147 0.969410 0.068572 -0.007950 752204.000000 0 0 1
26.925541 -23.063992 24.814397 43.274551 -0.708304 0.960125 0.060289 -0.003260 -213637.000000 0 0 1
26.867341 -22.512692 23.516797 42.210367 -0.697439 0.979867 0.058803 -0.000917 -64381.500000 0 0 1
27.977041 -21.735892 23.076597 42.281120 -0.660508 0.993465 0.056620 0.005213 -394414.000000 0 0 1
27.879241 -21.018592 21.721897 41.120239 -0.646002 1.014254 0.061483 0.003491 -573062.000000 0 0 1
27.039441 -19.931492 21.772197 40.030292 -0.635211 0.995727 0.058365 0.000300 -346299.000000 0 0 1
26.788841 -19.299792 20.544797 38.887178 -0.624314 1.014178 0.040495 0.003387 204772.000000 0 0 1
25.953741 -17.995492 20.760097 37.794391 -0.606261 0.989281 0.050680 0.006941 195870.000000 0 0 1
26.745941 -16.808392 21.062597 37.967096 -0.561074 0.982723 0.058512 -0.012241 490474.000000 0 0 1
27.063741 -16.840692 22.406297 38.962766 -0.556627 0.958107 0.055650 -0.002820 -179141.000000 0 0 1
26.886641 -15.431492 23.029697 38.618510 -0.521042 0.931865 0.082588 0.005019 76734.600000 0 0 1
25.542041 -14.999592 23.039497 37.526018 -0.530993 0.909728 0.053721 0.001648 -175942.000000 0 0 1
25.411841 -13.670992 23.537997 37.238354 -0.493566 0.886549 0.050265 -0.000841 424636.000000 0 0 1
24.014841 -13.031692 23.275597 35.892771 -0.497184 0.865216 0.047351 -0.005899 274824.000000 0 0 1
22.978041 -13.565192 24.051097 35.922974 -0.533297 0.837236 0.062522 -0.007820 279658.000000 0 0 1
21.734341 -12.934592 23.723597 34.677000 -0.536825 0.817385 0.062988 -0.010265 492208.000000 0 0 1
20.475541 -13.681192 24.179697 34.512035 -0.589044 0.794535 0.063731 -0.002057 -193686.000000 0 0 1
20.133241 -14.851692 23.439697 34.283225 -0.635563 0.817965 0.070508 -0.007204 47456.800000 0 0 1
18.812341 -15.258992 23.738897 33.915723 -0.681482 0.795486 0.095543 -0.005787 104623.000000 0 0 1
18.386741 -16.486592 22.883997 33.668342 -0.730965 0.823458 0.100282 -0.014846 190184.000000 0 0 1
19.277641 -17.577292 23.126597 34.862991 -0.739295 0.845501 0.080978 -0.006921 525062.000000 0 0 1
18.982341 -18.577592 22.196897 34.614425 -0.774622 0.874655 0.102684 -0.015636 33462.700000 0 0 1
19.492441 -20.000192 22.583197 35.916065 -0.798254 0.890817 0.084976 -0.014529 -311754.000000 0 0 1
18.644641 -20.500092 23.571697 36.379957 -0.832762 0.865932 0.097293 -0.020830 155977.000000 0 0 1
18.913041 -21.866492 23.963197 37.551051 -0.857697 0.878704 0.091947 -0.020489 -390041.000000 0 0 1
18.439841 -22.957392 22.964697 37.342293 -0.894095 0.908438 0.093376 -0.021875 -192266.000000 0 0 1
19.170041 -23.087392 21.745097 37.058972 -0.877836 0.943732 0.079757 -0.009319 -762934.000000 0 0 1
20.278441 -23.879792 21.955597 38.255821 -0.866774 0.959517 0.069831 -0.012496 -1030020.000000 0 0 1
21.165041 -24.079592 20.719997 38.172031 -0.849727 0.997022 0.045915 -0.003955 -372992.000000 0 0 1
20.492041 -24.676392 19.629097 37.605179 -0.877773 1.021627 0.050303 -0.021204 -103163.000000 0 0 1
21.366141 -25.018292 18.592997 37.790560 -0.863973 1.056410 0.050668 -0.007831 -33872.900000 0 0 1
20.634441 -25.759792 17.424497 37.322381 -0.895426 1.085054 0.046439 -0.020005 204495.000000 0 0 1
20.217241 -26.993392 17.948097 38.203589 -0.927955 1.081731 0.073713 -0.035162 -55963.900000 0 0 1
19.492341 -27.777492 17.031797 37.968704 -0.958909 1.105626 0.078352 -0.036733 32522.500000 0 0 1
18.809041 -29.021092 17.662097 38.832376 -0.995747 1.098616 0.071111 -0.026318 695789.000000 0 0 1
17.676741 -28.668092 18.487897 38.420424 -1.018260 1.068774 0.095611 -0.034325 151669.000000 0 0 1
17.051041 -29.815092 18.904497 39.205327 -1.051300 1.067641 0.115455 -0.036056 -255482.000000 0 0 1
15.922441 -29.430692 19.905897 38.935003 -1.074878 1.034146 0.112490 -0.037346 443102.000000 0 0 1
14.936641 -28.668992 19.196297 37.596704 -1.090488 1.034932 0.098407 -0.038002 37325.000000 0 0 1
13.699141 -28.586592 19.864597 37.409383 -1.123914 1.011009 0.077031 -0.035535 -84615.000000 0 0 1
12.600041 -27.832492 19.113797 36.038117 -1.145691 1.011751 0.080411 -0.041696 -107536.000000 0 0 1
12.072441 -28.516792 18.013297 35.824993 -1.170328 1.043946 0.100326 -0.051845 -161204.000000 0 0 1
11.322441 -27.691992 17.152397 34.485487 -1.182666 1.050220 0.115530 -0.049119 -63540.400000 0 0 1
10.944141 -28.400492 15.868397 34.324455 -1.202982 1.090202 0.126986 -0.046824 -528116.000000 0 0 1
9.885041 -29.287992 15.859597 34.742299 -1.245290 1.096747 0.138793 -0.042992 -477704.000000 0 0 1
9.976641 -29.972992 14.611297 34.805224 -1.249477 1.137569 0.123561 -0.026610 394544.000000 0 0 1
8.760541 -30.907392 14.316597 35.170711 -1.294596 1.151563 0.120100 -0.025843 295490.000000 0 0 1
8.701941 -31.952592 15.256597 36.461701 -1.304906 1.139082 0.113981 -0.033314 -186994.000000 0 0 1
7.764541 -32.921492 14.862097 36.945834 -1.339179 1.156804 0.087922 -0.033729 -241024.000000 0 0 1
7.550941 33.757162 15.942097 38.088228 1.350735 1.138940 0.107135 -0.033058 -72128.800000 0 0 1
8.604941 32.872662 16.186797 37.638668 1.314775 1.126240 0.105693 -0.028624 -408072.000000 0 0 1
8.148441 31.874762 17.026297 37.044464 1.320517 1.093231 0.101919 -0.040474 164452.000000 0 0 1
9.325441 30.992762 17.486097 36.786937 1.278522 1.075452 0.127586 -0.037809 -52188.700000 0 0 1
9.775841 30.099062 16.506397 35.692881 1.256755 1.090033 0.100432 -0.034498 -18900.600000 0 0 1
10.860741 29.347062 17.039797 35.630891 1.216347 1.072157 0.114673 -0.038076 682138.000000 0 0 1
11.740941 28.667362 15.896497 34.819046 1.182078 1.096687 0.100409 -0.031828 304557.000000 0 0 1
11.219241 27.551862 15.275097 33.441068 1.184095 1.096428 0.125970 -0.042694 -357021.000000 0 0 1
12.209041 26.944162 14.491897 32.940304 1.145348 1.115260 0.114087 -0.036717 -6305.150000 0 0 1
-9.515526 -8.960938 18.964316 23.032345 0.755391 0.603459 0.060799 -0.031837 -14097.600000 0 1 0
-9.882726 -9.229438 17.651516 22.235710 0.751230 0.653705 0.064141 -0.033261 12720.800000 0 1 0
-9.567226 -10.554138 17.330416 22.433568 0.834407 0.687994 0.063437 -0.037993 -5031.270000 0 1 0
-9.915026 -10.937338 15.884316 21.685124 0.834385 0.748812 0.066147 -0.030890 -412936.000000 0 1 0
-11.310726 -10.949038 15.752616 22.270134 0.769151 0.785064 0.066361 -0.025065 -263288.000000 0 1 0
-11.783826 -11.389738 14.502016 21.883628 0.768394 0.846394 0.078912 -0.030392 -22557.500000 0 1 0
-11.763326 -12.917038 14.291416 22.571448 0.832110 0.885163 0.064263 -0.030480 -83617.600000 0 1 0
-10.481426 -13.418638 13.904716 21.983204 0.907681 0.886000 0.070929 -0.031201 538286.000000 0 1 0
-10.272826 -14.809738 14.170716 22.927461 0.964343 0.904514 0.070033 -0.031262 56351.100000 0 1 0
-9.982426 -15.341538 15.597116 24.047487 0.993944 0.865057 0.085458 -0.035170 333670.000000 0 1 0
-11.122626 -15.126938 16.427616 24.948019 0.936779 0.852007 0.105050 -0.035412 315690.000000 0 1 0
-10.798926 -15.162238 17.799116 25.754976 0.951913 0.807794 0.120443 -0.035920 -245494.000000 0 0 1
-11.968326 -14.636538 18.654216 26.560287 0.885354 0.792124 0.092161 -0.035526 -129073.000000 0 0 1
-12.395526 -13.321638 18.471416 25.928909 0.821394 0.777903 0.084254 -0.032129 651430.000000 0 0 1
-13.437226 -13.036338 17.505916 25.631275 0.770256 0.818947 0.092953 -0.039882 1070430.000000 0 0 1
-14.897626 -13.136038 18.055316 26.841930 0.722642 0.833007 0.061988 -0.030000 112623.000000 0 0 1
-15.268326 -14.416438 18.445016 27.949492 0.756708 0.850056 0.072766 -0.030638 110123.000000 0 0 1
-16.518826 -14.396238 19.119616 29.080629 0.716847 0.853341 0.083275 -0.027682 61506.000000 0 0 1
-16.997526 -15.694038 19.654816 30.356721 0.745547 0.866547 0.077830 -0.022962 -34975.000000 0 0 1
-18.128726 -16.223938 18.978916 30.855569 0.730007 0.908298 0.075474 -0.023020 209094.000000 0 0 1
-18.574226 -17.418338 19.594316 32.130011 0.753295 0.914932 0.066679 -0.018956 550968.000000 0 0 1
-19.907726 -17.882538 18.896616 32.759500 0.731859 0.955955 0.078735 -0.021028 306387.000000 0 0 1
-19.858426 -18.294238 17.531116 32.192798 0.744423 0.994924 0.080857 -0.025287 -22325.800000 0 0 1
-20.236326 -17.309638 16.637316 31.399566 0.707606 1.012363 0.080010 -0.031156 -509125.000000 0 0 1
-19.846826 -17.556038 15.185016 30.540067 0.724228 1.050409 0.097093 -0.040124 -7042.960000 0 0 1
-20.501826 -18.678238 14.545616 31.317350 0.738888 1.087773 0.102407 -0.034740 398391.000000 0 0 1
-20.135426 -18.656838 13.196616 30.457571 0.747301 1.122669 0.123671 -0.040943 171657.000000 0 0 1
-20.523926 -19.964038 12.476516 31.232320 0.771571 1.159853 0.121271 -0.033961 -34204.700000 0 0 1
-19.764326 -21.016738 13.033316 31.657530 0.816099 1.146481 0.108893 -0.033458 44432.900000 0 0 1
-19.342426 -21.981638 12.093716 31.679328 0.849178 1.179103 0.098847 -0.023576 -263749.000000 0 0 1
-18.638826 -23.210738 12.706616 32.366685 0.894213 1.167358 0.075821 -0.028877 -167205.000000 0 0 1
-18.452826 -24.308838 11.858716 32.742259 0.921497 1.200187 0.073129 -0.040687 -344068.000000 0 0 1
-17.462826 -24.231238 10.887016 31.790412 0.946329 1.221260 0.060800 -0.033109 -762297.000000 0 0 1
-17.589326 -25.411478 9.848116 32.436291 0.965338 1.262313 0.062611 -0.026269 -139512.000000 0 0 1
-18.739926 -25.321848 9.028816 32.770418 0.933681 1.291669 0.054738 -0.019004 -141492.000000 0 0 1
-18.944326 -26.472658 8.279016 33.589153 0.949665 1.321751 0.071680 -0.016515 1031680.000000 0 0 1
-20.200926 -26.314248 7.330816 33.974371 0.916076 1.353311 0.055398 -0.018715 1037860.000000 0 0 1
-19.901226 -25.260148 6.451616 32.798738 0.903508 1.372802 0.071555 -0.019763 -73141.300000 0 0 1
-20.907826 -25.154338 5.486216 33.165893 0.877329 1.404615 0.091542 -0.018513 -10196.700000 0 0 1
-20.792526 -23.822738 4.707716 31.968963 0.853213 1.423000 0.107215 -0.020576 -470616.000000 0 0 1
-21.860126 -23.633738 3.845316 32.422294 0.824364 1.451916 0.108415 -0.024568 -290864.000000 0 0 1
-21.800326 -22.391838 3.182816 31.413038 0.798782 1.469301 0.118157 -0.024932 132471.000000 0 0 1
-22.717126 -22.329238 1.962316 31.914156 0.776788 1.509270 0.117144 -0.027662 171112.000000 0 0 1
-22.173226 -23.318038 1.077016 32.195385 0.810558 1.537338 0.108120 -0.036081 484997.000000 0 0 1
-22.753726 -23.260938 -0.199784 32.539871 0.796421 1.576936 0.108059 -0.029498 -406608.000000 0 0 1
-21.929026 -24.049438 -1.203684 32.568489 0.831483 1.607763 0.106606 -0.026620 152960.000000 0 0 1
-20.549926 -23.702438 -1.227184 31.394442 0.856517 1.609895 0.108585 -0.028266 723205.000000 0 0 1
-19.735526 -24.128838 -2.321484 31.258296 0.885222 1.645133 0.094961 -0.021448 439473.000000 0 0 1
-19.373326 -25.669578 -2.586884 32.263679 0.924282 1.651062 0.111366 -0.021325 -121173.000000 0 0 1
-20.414726 -26.446008 -3.148484 33.556897 0.913401 1.664760 0.156149 -0.029041 -99192.100000 0 0 1
-19.902426 -27.706538 -3.522284 34.295266 0.947874 1.673682 0.150199 -0.027030 -223469.000000 0 0 1
-20.919126 -28.762998 -4.082684 35.799276 0.941987 1.685089 0.145060 -0.022611 165995.000000 0 0 1
-21.304926 -28.413658 -5.402784 35.922498 0.927415 1.721770 0.130596 -0.018659 105531.000000 0 0 1
-22.245926 -29.295128 -5.999284 37.270325 0.921324 1.732466 0.132682 -0.037210 16426.100000 0 0 1
-23.090426 -28.549848 -7.037184 37.386943 0.890727 1.760152 0.130486 -0.008660 3137.270000 0 0 1
-22.279226 -28.071868 -8.134884 36.750102 0.899940 1.794002 0.151553 -0.018068 531808.000000 0 0 1
-22.880426 -28.326148 -9.408584 37.608589 0.891348 1.823653 0.144934 -0.012283 165484.000000 0 0 1
-23.916026 -27.249578 -9.819384 37.562429 0.850458 1.835284 0.118028 -0.001100 -306320.000000 0 0 1
-23.446926 -25.938728 -10.164584 36.412837 0.835811 1.853703 0.101576 0.001243 305705.000000 0 0 1
-22.836426 -25.116828 -9.126284 35.151763 0.832917 1.833430 0.079875 0.001420 -18552.400000 0 0 1
-22.319726 -23.803438 -9.682084 34.036988 0.817556 1.859237 0.050463 -0.003120 -120824.000000 0 0 1
-23.336626 -22.918238 -10.123084 34.239167 0.776353 1.870941 0.076464 -0.004248 36309.000000 0 0 1
-22.902826 -21.624938 -10.371684 33.162467 0.756707 1.888887 0.064741 -0.002425 81806.900000 0 0 1
-24.106526 -20.643138 -10.421184 33.404563 0.708157 1.888061 0.086951 0.000315 105851.000000 0 0 1
-24.845426 -20.740938 -11.659084 34.400813 0.695603 1.916564 0.093214 0.003049 -426576.000000 0 0 1
-25.989076 -19.983938 -11.761684 34.829973 0.655510 1.915256 0.097615 -0.003814 -820280.000000 0 0 1
-25.869266 -18.461338 -11.794084 33.898972 0.619822 1.926146 0.108233 -0.016259 -1320180.000000 0 0 1
-25.382046 -17.852938 -12.944584 33.623472 0.612983 1.965990 0.124857 -0.003326 377082.000000 0 0 1
-25.024716 -16.426138 -12.862584 32.580676 0.580859 1.976638 0.113973 -0.024586 677272.000000 0 0 1
-23.716126 -16.171138 -12.029684 31.123522 0.598449 1.967645 0.085616 -0.020972 -131863.000000 0 0 1
-24.012226 -16.262938 -10.659884 30.898273 0.595313 1.923034 0.131257 -0.023783 528920.000000 0 0 1
-22.916226 -16.519838 -9.771784 29.892243 0.624602 1.903818 0.096063 -0.017620 172405.000000 0 0 1
-23.428426 -16.783938 -8.357284 30.007264 0.621643 1.853037 0.073126 -0.023864 -2834.560000 0 0 1
-24.043426 -18.034638 -8.154384 31.142069 0.643556 1.835729 0.100781 -0.017442 131760.000000 0 0 1
-24.582826 -18.128638 -6.837684 31.300427 0.635421 1.791026 0.114371 -0.006582 -30621.300000 0 0 1
-25.382836 -19.455038 -6.688084 32.672884 0.653955 1.776952 0.132053 -0.010590 -103230.000000 0 0 1
-26.442426 -19.561938 -7.599284 33.758264 0.636937 1.797851 0.115463 -0.022544 -561490.000000 0 0 1
-27.019556 -20.850738 -7.583784 34.961743 0.657239 1.789451 0.126328 -0.010430 -172281.000000 0 0 1
-26.322946 -22.083438 -8.245084 35.334928 0.698039 1.806308 0.100651 -0.003900 -471831.000000 0 0 1
-27.081836 -23.263138 -8.209084 36.633161 0.709693 1.796804 0.110367 0.002816 -164132.000000 0 0 1
-26.431826 -24.317838 -8.914484 37.006306 0.743767 1.814080 0.090773 0.013736 -35166.700000 0 0 1
-27.107916 -25.676128 -8.716384 38.341596 0.758279 1.800136 0.099799 0.002140 -86686.500000 0 0 1
-26.843326 -26.245538 -7.430784 38.270210 0.774139 1.766204 0.128009 -0.021491 26348.200000 0 0 1
-27.079126 -27.614078 -7.308984 39.360356 0.795179 1.757574 0.116434 -0.023507 -52178.900000 0 0 1
-26.803206 -28.248308 -5.944884 39.391882 0.811642 1.722292 0.146329 -0.033157 208488.000000 0 0 1
-27.817056 -27.776068 -5.047984 39.633076 0.784661 1.698511 0.100114 -0.023092 430921.000000 0 0 1
-27.511706 -27.894328 -3.662184 39.349702 0.792304 1.663999 0.111053 -0.037610 197.332000 0 0 1
-28.030366 -29.268868 -3.039884 40.639992 0.807009 1.645667 0.093092 -0.019249 -192065.000000 0 0 1
-27.415286 -30.395448 -3.614884 41.091952 0.836903 1.658881 0.111217 -0.024484 -53675.800000 0 0 1
-27.497446 -31.635278 -2.934784 42.018012 0.855260 1.640699 0.095845 -0.030992 -286870.000000 0 0 1
-26.629816 -31.844458 -1.680284 41.545637 0.874341 1.611252 0.106378 -0.028882 -917233.000000 0 0 1
-25.281346 -31.808928 -1.999684 40.681115 0.899242 1.619971 0.123336 -0.036628 -467121.000000 0 0 1
-24.456126 -31.785768 -0.791184 40.113129 0.914991 1.590521 0.153790 -0.014902 1468260.000000 0 0 1
-23.167926 -30.876228 -0.962484 38.613736 0.927072 1.595725 0.150059 -0.013964 800410.000000 0 0 1
-23.298626 -29.479118 -0.696284 37.580968 0.901971 1.589325 0.121157 -0.017336 -21569.100000 0 0 1
-23.955426 -28.745428 -1.742384 37.459284 0.876040 1.617327 0.148434 -0.030820 171701.000000 0 0 1
-24.567726 -27.369768 -1.317984 36.802370 0.839296 1.606616 0.079399 -0.024653 -44116.000000 0 0 1
-25.743796 -27.452298 -0.558284 37.638854 0.817504 1.585630 0.110985 -0.027801 -221639.000000 0 0 1
-26.355116 -26.264248 -0.119884 37.207758 0.783671 1.574018 0.121829 -0.039705 94951.300000 0 0 1
-25.581216 -25.560548 1.010416 36.176804 0.784994 1.542863 0.130601 -0.030881 -189816.000000 0 0 1
-25.624546 -26.159158 2.262116 36.688364 0.795722 1.509100 0.110258 -0.024099 121271.000000 0 0 1
-25.047916 -25.262358 3.250816 35.723278 0.789661 1.479670 0.123033 -0.020583 498848.000000 0 0 1
-26.052166 -24.188238 3.770516 35.749168 0.748315 1.465128 0.129706 -0.028103 85820.700000 0 0 1
-26.156316 -23.034038 2.889416 34.972396 0.722010 1.488082 0.122196 -0.029748 583841.000000 0 0 1
-27.259776 -22.181838 3.249616 35.294324 0.683051 1.478594 0.123609 -0.027130 521767.000000 0 0 1
-27.389856 -20.958738 2.334116 34.567629 0.653159 1.503222 0.114450 -0.025485 104045.000000 0 0 1
-26.330306 -20.035138 2.432916 33.175455 0.650451 1.497396 0.126365 -0.026515 -77610.700000 0 0 1
-26.327926 -19.149238 1.363016 32.583904 0.628837 1.528953 0.100843 -0.027743 -394185.000000 0 0 1
-25.077126 -18.310838 1.499016 31.086912 0.630696 1.522557 0.115394 -0.022729 -791343.000000 0 0 1
-23.888026 -18.945538 1.132616 30.509900 0.670518 1.533665 0.131068 -0.027428 -376922.000000 0 0 1
-22.773526 -18.154238 1.465416 29.160886 0.673009 1.520522 0.129814 -0.023199 1243920.000000 0 0 1
-21.385826 -18.947838 1.333816 28.603377 0.725026 1.524148 0.121781 -0.024383 1247010.000000 0 0 1
-20.990426 -19.350938 0.030416 28.549215 0.744780 1.569731 0.079366 -0.019972 460527.000000 0 0 1
-19.739226 -20.028438 0.127316 28.121017 0.792671 1.566269 0.109878 -0.021071 363888.000000 0 0 1
-19.206126 -20.650438 -1.230584 28.228181 0.821620 1.614404 0.107752 -0.017200 -91476.000000 0 0 1
-18.621926 -19.712738 -2.073084 27.196798 0.813845 1.647096 0.113611 -0.020412 116168.000000 0 0 1
-18.184826 -20.365738 -3.282584 27.499573 0.841911 1.690450 0.093020 -0.009548 -86389.700000 0 0 1
-17.652626 -19.514438 -4.388884 26.677533 0.835449 1.736064 0.114978 -0.002159 -1077110.000000 0 0 1
-16.394926 -19.001538 -4.186784 25.443687 0.858906 1.736099 0.143945 -0.019378 -1000650.000000 0 0 1
-15.941426 -18.387538 -5.371384 24.921524 0.856533 1.788033 0.149780 -0.009606 400453.000000 0 1 0
-14.404226 -18.167438 -5.249484 23.771719 0.900425 1.793461 0.167597 -0.024764 964511.000000 0 1 0
-13.519626 -19.281838 -5.520584 24.187732 0.959293 1.801065 0.129126 -0.023902 1330330.000000 0 1 0
-12.163826 -18.878238 -5.785084 23.190811 0.998417 1.822915 0.114787 -0.032210 1284310.000000 0 1 0
-11.098826 -20.013138 -5.658484 23.573885 1.064446 1.813195 0.102701 -0.038969 380810.000000 0 1 0
-11.225126 -20.966038 -6.658784 24.696510 1.079235 1.843799 0.095400 -0.028964 -215594.000000 0 1 0
-10.042826 -21.695438 -6.889384 24.879992 1.137266 1.851368 0.087050 -0.021671 13622.000000 0 1 0
-10.311326 -22.801938 -7.881684 26.236859 1.146104 1.875914 0.095956 -0.001582 -173958.000000 0 0 1
-10.799326 -22.373838 -9.127884 26.467571 1.121103 1.922897 0.091914 -0.019379 -41760.600000 0 0 1
-10.884926 -23.453338 -10.013884 27.727577 1.136271 1.940300 0.104071 -0.012995 -334570.000000 0 0 1
-11.681826 -23.238538 -11.276284 28.348709 1.104997 1.979882 0.127775 -0.016160 -396454.000000 0 0 1
-11.058426 -22.387038 -12.194784 27.788145 1.111988 2.025113 0.120503 -0.016620 -253269.000000 0 0 1
-11.842126 -22.198638 -13.320984 28.468651 1.080739 2.057729 0.131061 -0.019769 -571395.000000 0 0 1
-11.302826 -21.012338 -14.176284 27.753184 1.077280 2.106910 0.105360 -0.014457 5989.430000 0 0 1
-11.430526 -19.844438 -13.425384 26.546178 1.048206 2.101032 0.104628 -0.014256 88308.200000 0 0 1
-11.281026 -18.682138 -14.212084 26.043563 1.027558 2.148026 0.087301 -0.002416 -159142.000000 0 0 1
-10.596126 -17.594738 -13.382884 24.514369 1.028737 2.148283 0.100940 -0.002577 -224925.000000 0 1 0
-11.406926 -16.913238 -12.426884 23.887298 0.977433 2.117916 0.105066 -0.017739 30099.900000 0 1 0
-10.722726 -15.976238 -11.607184 22.470953 0.979684 2.113603 0.083065 -0.020410 -56063.500000 0 1 0
-10.422426 -14.625538 -12.291884 21.762898 0.951652 2.170998 0.080841 -0.005853 9708.340000 0 1 0
-11.558326 -13.899238 -12.710484 22.098419 0.877094 2.183616 0.077244 -0.000540 -133342.000000 0 1 0
-11.868726 -14.007838 -14.073384 23.133229 0.867877 2.224792 0.094406 -0.009058 -347496.000000 0 1 0
-13.044526 -13.174438 -14.585384 23.589381 0.790353 2.237378 0.089216 -0.012937 -270628.000000 0 1 0
-12.910426 -11.756438 -14.498384 22.695728 0.738649 2.263754 0.065397 0.001874 28135.300000 0 1 0
-14.006126 -11.137438 -15.130084 23.433598 0.671797 2.272681 0.082627 -0.017909 -85832.300000 0 1 0
-13.795626 -9.646538 -14.831784 22.435614 0.610220 2.293056 0.056476 -0.014051 472919.000000 0 1 0
-12.734026 -9.021938 -15.562084 22.039266 0.616402 2.354782 0.043898 0.015593 379123.000000 0 1 0
-13.012226 -7.642038 -15.752784 21.814421 0.531027 2.377669 0.055899 -0.016345 -908564.000000 0 1 0
-11.871126 -6.732638 -15.436984 20.604672 0.515910 2.417647 0.034351 -0.018338 -345007.000000 0 1 0
-10.781726 -6.857138 -16.352684 20.752740 0.566468 2.478313 0.039092 -0.005205 617144.000000 0 1 0
-9.529626 -6.533338 -15.767984 19.548084 0.600984 2.509217 0.014349 0.001747 186309.000000 0 1 0
11.652574 22.190262 16.116016 29.797923 1.087254 0.999357 0.134908 -0.026759 -518946.000000 0 0 1
12.693974 22.198562 17.071216 30.746375 1.051342 0.982160 0.128042 -0.031779 -79676.400000 0 0 1
13.392374 20.988262 17.114116 30.211849 1.002840 0.968580 0.100665 -0.015379 730356.000000 0 0 1
14.598874 20.921462 18.129616 31.297247 0.961552 0.952961 0.101281 -0.021587 638456.000000 0 0 1
15.844174 21.408262 17.727016 31.993728 0.933664 0.983541 0.090238 -0.017011 411499.000000 0 0 1
16.952574 20.850662 18.484716 32.616324 0.888150 0.968262 0.093940 -0.017199 830844.000000 0 0 1
18.300374 21.311362 17.909216 33.313929 0.861265 1.003221 0.064562 -0.006426 -1260380.000000 0 0 1
18.575474 22.637362 18.199816 34.477989 0.883640 1.014708 0.070473 -0.004923 209985.000000 0 0 1
19.839574 23.054362 17.693416 35.187630 0.860206 1.043926 0.060048 -0.005676 311381.000000 0 0 1
21.099574 22.555062 18.395516 35.948823 0.818727 1.033618 0.054233 -0.003437 -1184240.000000 0 0 1
21.419374 21.196262 18.105416 35.155045 0.780163 1.029770 0.066497 0.001955 210444.000000 0 0 1
22.695874 20.935062 18.684116 36.089829 0.745063 1.026623 0.079730 -0.004547 284205.000000 0 0 1
23.022474 19.462062 18.383116 35.309278 0.701789 1.023206 0.081219 -0.008509 -83986.300000 0 0 1
23.296374 19.150162 17.028216 34.632498 0.688026 1.056775 0.066209 -0.002613 117729.000000 0 0 1
22.864074 17.863162 16.600816 33.428215 0.663219 1.051107 0.055327 0.003410 262678.000000 0 0 1
23.783574 16.636562 16.979216 33.626290 0.610389 1.041485 0.067699 -0.005700 -435907.000000 0 0 1
25.024674 16.588762 16.368316 34.195659 0.585388 1.071661 0.082610 -0.020063 -688607.000000 0 0 1
25.766374 15.470962 16.777916 34.420273 0.540737 1.061638 0.065669 -0.017741 -472482.000000 0 0 1
27.127474 15.397162 16.044516 35.077043 0.516244 1.095718 0.167851 -0.043694 -446620.000000 0 0 1
27.921274 16.541362 16.358416 36.342977 0.534834 1.103905 0.148741 -0.042354 714697.000000 0 0 1
28.969474 16.256362 17.305616 37.456429 0.511367 1.090525 0.157294 -0.053866 1024490.000000 0 0 1
30.266774 15.506562 16.808416 37.934865 0.473463 1.111758 0.162319 -0.062153 -56111.000000 0 0 1
31.093174 16.288262 16.002416 38.576810 0.482548 1.143052 0.203853 -0.052078 46198.400000 0 0 1
32.023074 15.673362 15.120416 38.726716 0.455164 1.169688 0.184764 -0.041776 309683.000000 0 0 1
31.379874 15.209662 13.766416 37.490593 0.451329 1.194803 0.154665 -0.042341 -54529.500000 0 0 1
31.080074 16.257962 12.916516 37.378185 0.481956 1.217958 0.166849 -0.033632 -168461.000000 0 0 1
30.340774 15.863362 11.792216 36.211396 0.481752 1.239098 0.157173 -0.029838 520789.000000 0 0 1
28.842074 16.310062 11.825416 35.181300 0.514662 1.227994 0.150003 -0.035547 157914.000000 0 0 1
28.553874 17.666062 11.590416 35.521138 0.554051 1.238414 0.137963 -0.028044 216687.000000 0 0 1
29.101674 18.688062 12.461716 36.762011 0.570847 1.224960 0.137273 -0.036705 -331580.000000 0 0 1
28.463474 18.708862 13.875116 36.779203 0.581486 1.183966 0.140671 -0.036462 1203780.000000 0 0 1
27.121474 19.270662 13.830716 36.030841 0.617759 1.176826 0.140876 -0.032469 1745540.000000 0 0 1
26.309874 19.147762 15.020716 35.839478 0.629127 1.138330 0.120661 -0.027531 273207.000000 0 0 1
26.839774 19.859262 16.308416 37.158151 0.637018 1.116431 0.123158 -0.033143 -258489.000000 0 0 1
26.852574 21.254562 16.065716 37.827561 0.669554 1.132156 0.097984 -0.025418 619888.000000 0 0 1
25.624774 21.922462 16.385016 37.492561 0.707689 1.118513 0.073835 -0.018281 349032.000000 0 0 1
25.577974 23.453862 16.054716 38.237028 0.742104 1.137490 0.071064 -0.012704 -211151.000000 0 0 1
25.443874 23.789162 14.675616 37.797998 0.751801 1.172049 0.091501 -0.025591 373024.000000 0 0 1
25.933574 25.107462 14.411316 38.866708 0.769214 1.190939 0.100000 -0.031099 -180655.000000 0 0 1
25.517774 25.514162 13.006916 38.357648 0.785327 1.224841 0.098554 -0.032427 823029.000000 0 0 1
24.103274 25.761962 12.853516 37.548094 0.818649 1.221410 0.094605 -0.024400 839835.000000 0 0 1
23.742174 25.910162 11.476016 36.969261 0.829034 1.255161 0.091788 -0.047299 -158690.000000 0 0 1
23.191574 24.650662 10.769916 35.517536 0.815887 1.262718 0.108274 -0.046593 229043.000000 0 0 1
21.838074 24.280562 11.089716 34.488099 0.838310 1.243428 0.101072 -0.040970 533696.000000 0 0 1
21.439974 23.014262 10.656616 33.209821 0.820797 1.244130 0.096726 -0.033387 -13431.500000 0 0 1
21.266274 22.843762 9.131616 32.518891 0.821145 1.286159 0.114379 -0.031963 -1229410.000000 0 0 1
20.108874 23.273662 8.527816 31.917923 0.858220 1.300331 0.119078 -0.034689 -737204.000000 0 0 1
20.345774 23.617462 7.121616 31.975811 0.859680 1.346194 0.108298 -0.039332 -85901.600000 0 0 1
19.087574 23.718762 6.236016 31.077372 0.893168 1.368764 0.099753 -0.038023 -861532.000000 0 0 1
18.399974 22.480162 6.107316 29.685283 0.884877 1.363581 0.106224 -0.026523 327907.000000 0 0 1
17.738274 22.314662 4.867916 28.918629 0.899163 1.401660 0.112358 -0.032265 489024.000000 0 0 1
16.388974 23.092562 4.624016 28.692271 0.953585 1.408931 0.065334 -0.015055 339751.000000 0 0 1
16.569274 24.485262 4.600116 29.920394 0.975877 1.416439 0.063266 -0.017285 364146.000000 0 0 1
15.390374 25.045962 5.175716 29.848817 1.019794 1.396518 0.063026 -0.022438 197999.000000 0 0 1
15.225074 26.563362 5.076316 31.035207 1.050345 1.406492 0.049799 -0.022140 -428466.000000 0 0 1
14.855374 26.946562 3.800616 31.003936 1.066963 1.447902 0.049144 -0.014311 275220.000000 0 0 1
14.713674 28.358062 3.618916 32.152270 1.092180 1.458002 0.042783 -0.013344 -21661.600000 0 0 1
13.826874 28.673962 2.350916 31.920297 1.121482 1.497080 0.056132 -0.016891 -193456.000000 0 0 1
14.439074 28.330062 1.144916 31.818078 1.099440 1.534805 0.078914 -0.025319 -202263.000000 0 0 1
14.284674 26.953162 0.780116 30.514479 1.083452 1.545228 0.055678 -0.017144 255823.000000 0 0 1
15.388274 26.395862 -0.183584 30.554447 1.042985 1.576805 0.063030 -0.022848 255650.000000 0 0 1
15.421374 27.039762 -1.476284 31.163230 1.052485 1.618187 0.063665 -0.020295 -302637.000000 0 0 1
16.530974 26.678562 -2.244984 31.465199 1.016064 1.642205 0.071568 -0.013391 -425035.000000 0 0 1
16.479374 27.473462 -3.586284 32.236971 1.030503 1.682275 0.091731 -0.025244 658614.000000 0 0 1
15.428674 26.973762 -4.458484 31.392768 1.051228 1.713301 0.104900 -0.023839 600579.000000 0 0 1
15.669974 27.426462 -5.796184 32.114711 1.051713 1.752275 0.104176 -0.020915 62290.400000 0 0 1
14.492474 27.234662 -6.758084 31.582120 1.081774 1.786448 0.113005 -0.033845 123807.000000 0 0 1
14.185774 25.871162 -7.143784 30.357649 1.069241 1.808345 0.087947 -0.019843 843012.000000 0 0 1
12.827174 25.817562 -7.631184 29.821433 1.109681 1.829571 0.070402 -0.035857 1164980.000000 0 0 1
12.329574 24.383062 -7.988484 28.466963 1.102630 1.855239 0.078414 -0.017615 147262.000000 0 0 1
13.027974 23.787762 -9.079784 28.601192 1.069740 1.893848 0.078848 -0.021310 293006.000000 0 0 1
12.495574 22.516662 -9.492384 27.445305 1.064162 1.923957 0.087314 -0.014254 79713.200000 0 0 1
12.953174 22.123462 -10.988484 27.892276 1.041111 1.975734 0.092896 -0.017525 420015.000000 0 0 1
12.115874 21.052362 -11.425384 26.842797 1.048578 2.010466 0.101201 -0.017994 15134.300000 0 0 1
12.370874 20.553362 -12.760284 27.171751 1.028988 2.059652 0.098014 -0.022756 503754.000000 0 0 1
13.616874 19.665562 -13.159484 27.300652 0.965174 2.073756 0.117845 -0.016619 183218.000000 0 0 1
14.834874 20.276662 -12.891384 28.238348 0.939161 2.044877 0.094554 -0.014205 -1199590.000000 0 0 1
15.790974 19.708262 -13.745584 28.752592 0.895302 2.069246 0.078615 -0.012278 -215067.000000 0 0 1
17.155974 20.415662 -13.599284 29.934382 0.871941 2.042386 0.099927 -0.009491 -238154.000000 0 0 1
17.407374 21.619162 -14.334584 31.239160 0.892903 2.047515 0.090990 -0.016071 -88821.100000 0 0 1
16.486674 22.673062 -14.120484 31.388951 0.942082 2.037400 0.085661 -0.009983 28681.400000 0 0 1
17.060074 24.026162 -14.651784 32.908621 0.953349 2.032223 0.085982 -0.016612 72791.600000 0 0 1
17.202874 24.110162 -16.029484 33.677636 0.951060 2.066861 0.068846 -0.014356 311704.000000 0 0 1
15.995874 24.266762 -16.797784 33.569469 0.988003 2.094844 0.051978 -0.009332 571131.000000 0 0 1
16.318274 24.287862 -18.300484 34.512230 0.979200 2.129705 0.039416 0.004107 195101.000000 0 0 1
16.727274 23.010062 -18.749384 34.070574 0.942208 2.153532 0.034481 0.012981 -289379.000000 0 0 1
16.948374 23.041862 -20.138984 34.982188 0.936609 2.184247 0.024094 0.012463 -188777.000000 0 0 1
17.244474 21.665062 -20.725084 34.587222 0.898525 2.213313 0.044453 0.004261 -196077.000000 0 0 1
16.174374 20.757362 -20.766784 33.522198 0.908860 2.238894 0.052368 0.002283 -201834.000000 0 0 1
16.480574 19.769062 -21.675884 33.649206 0.875868 2.270737 0.060262 0.001154 299637.000000 0 0 1
15.394674 18.652862 -21.609384 32.432865 0.880803 2.300006 0.062483 -0.007637 -487118.000000 0 0 1
15.309374 18.023762 -20.303184 31.168128 0.866651 2.280236 0.063486 -0.010258 167336.000000 0 0 1
14.519374 16.827762 -20.289484 30.094002 0.858905 2.310682 0.059338 -0.016556 513490.000000 0 0 1
13.016074 16.977762 -20.671184 29.748284 0.916721 2.339035 0.072050 -0.013437 -248313.000000 0 0 1
12.194074 17.048962 -19.501684 28.630023 0.949916 2.320145 0.068357 -0.011591 -429163.000000 0 0 1
10.873274 17.353262 -19.836384 28.510453 1.011059 2.340271 0.078896 -0.010195 -146696.000000 0 0 1
9.797974 16.974562 -18.796384 27.155848 1.047299 2.335284 0.090993 -0.019621 80984.600000 0 0 1
9.395474 15.592162 -18.840584 26.198436 1.028484 2.373373 0.113722 -0.035704 -142489.000000 0 0 1
8.160374 15.211062 -18.286384 25.146768 1.078395 2.385010 0.124083 -0.035701 163418.000000 0 0 1
7.933574 15.328162 -16.735784 24.041227 1.093183 2.340787 0.128293 -0.043020 -129098.000000 0 1 0
7.803274 16.620362 -16.282884 24.540983 1.131844 2.296280 0.119903 -0.040386 -552440.000000 0 1 0
6.914974 16.692662 -15.219284 23.623895 1.178064 2.270816 0.111500 -0.045276 -417948.000000 0 1 0
6.488474 18.130862 -14.823484 24.301525 1.227128 2.226834 0.099602 -0.034918 -80593.400000 0 1 0
7.528774 19.080062 -14.523584 25.132960 1.194964 2.186913 0.088093 -0.032404 114932.000000 0 0 1
8.027474 19.647862 -15.746384 26.427777 1.182926 2.209091 0.109819 -0.021025 -138100.000000 0 0 1
9.282874 20.531162 -15.513084 27.356099 1.146168 2.173752 0.083103 -0.004034 -31745.000000 0 0 1
9.191574 21.812662 -14.921884 27.981063 1.171990 2.133276 0.084149 -0.011917 -336590.000000 0 0 1
8.881374 21.809262 -13.555884 27.171395 1.184073 2.093129 0.070159 -0.014696 -218221.000000 0 0 1
8.484874 23.193162 -12.982184 27.900770 1.220085 2.054768 0.071537 -0.020548 -318190.000000 0 0 1
7.144874 23.556962 -13.221984 27.942808 1.276313 2.063694 0.065216 -0.020299 -374379.000000 0 0 1
6.658174 24.551062 -12.333384 28.270095 1.305969 2.022245 0.054714 -0.022179 -55351.000000 0 0 1
6.346074 24.205262 -10.849184 27.274020 1.314390 1.979897 0.044860 -0.020396 -544067.000000 0 0 1
7.409974 23.853662 -10.024884 26.914739 1.269604 1.952463 0.048625 -0.018882 -202668.000000 0 0 1
6.807274 23.151262 -8.929784 25.730545 1.284821 1.925220 0.056927 -0.025669 344775.000000 0 0 1
7.680674 23.064462 -7.666284 25.489882 1.249338 1.876284 0.051207 -0.027145 -38328.900000 0 0 1
7.729974 24.327162 -6.966084 26.459207 1.263135 1.837213 0.051069 -0.029498 -118092.000000 0 0 1
8.592274 24.201362 -5.887384 26.347569 1.229645 1.796150 0.056987 -0.030654 -315808.000000 0 0 1
8.742274 25.565262 -5.197084 27.513990 1.241303 1.760827 0.046716 -0.026656 199649.000000 0 0 1
9.498774 26.502362 -5.986084 28.782549 1.226647 1.780302 0.056412 -0.027332 272777.000000 0 0 1
9.694574 27.730162 -5.278984 29.846513 1.234474 1.748603 0.065354 -0.033389 113814.000000 0 0 1
10.055174 28.895262 -6.247284 31.226131 1.235916 1.772221 0.067807 -0.032515 -386015.000000 0 0 1
11.348674 28.937062 -6.744384 31.806173 1.197045 1.784465 0.070844 -0.031410 -890453.000000 0 0 1
11.519574 30.043262 -7.581584 33.057202 1.204653 1.802203 0.069588 -0.029237 219953.000000 0 0 1
12.798774 30.052862 -8.488784 33.749705 1.168184 1.825049 0.100502 -0.035220 1044410.000000 0 0 1
13.915374 30.499862 -7.700584 34.397358 1.142762 1.796581 0.094508 -0.031086 388974.000000 0 0 1
15.055174 30.721562 -8.549384 35.264211 1.115138 1.815674 0.096394 -0.027284 373372.000000 0 0 1
16.300074 31.241562 -7.827384 36.097030 1.089906 1.789376 0.098522 -0.031403 -246158.000000 0 0 1
16.945974 30.178962 -7.150484 35.342117 1.059155 1.774525 0.086082 -0.020405 552246.000000 0 0 1
18.134374 30.660162 -6.467784 36.204051 1.036677 1.750409 0.080427 -0.016556 594784.000000 0 0 1
19.212674 29.639462 -6.200884 35.861895 0.995679 1.744580 0.074994 -0.013703 -641353.000000 0 0 1
18.994974 28.717762 -5.082384 34.804447 0.986423 1.717347 0.088045 -0.013291 -42974.300000 0 0 1
20.042574 27.790962 -4.822184 34.601962 0.945990 1.710613 0.077286 -0.010432 -112393.000000 0 0 1
20.111974 26.608062 -5.874184 33.867189 0.923555 1.745126 0.074305 -0.006484 35811.100000 0 0 1
20.593074 26.914862 -7.185484 34.642686 0.917689 1.779730 0.066663 -0.005242 294274.000000 0 0 1
20.603074 25.733162 -8.013684 33.924938 0.895663 1.809268 0.063469 -0.006333 -555841.000000 0 0 1
21.216874 25.899762 -9.434984 34.784657 0.884462 1.845477 0.061119 -0.005279 1480590.000000 0 0 1
22.661274 26.001962 -9.590084 35.799512 0.853940 1.841991 0.060631 -0.001050 1304340.000000 0 0 1
23.336574 24.795862 -9.412584 35.327428 0.815707 1.840492 0.072788 -0.002315 -721888.000000 0 0 1
24.855274 24.987762 -9.302484 36.451462 0.788056 1.828853 0.035946 0.008231 -173831.000000 0 0 1
25.493874 25.186262 -10.518284 37.348624 0.779329 1.856283 0.041555 0.006758 484965.000000 0 0 1
26.908474 25.407862 -10.447084 38.454740 0.756723 1.845926 0.037268 0.018315 1243580.000000 0 0 1
27.752474 25.187062 -11.741584 39.274072 0.736977 1.874404 0.025045 0.014873 301483.000000 0 0 1
27.590674 26.323562 -12.531484 40.139922 0.761900 1.888299 0.031783 0.018388 -57675.200000 0 0 1
28.583174 26.456962 -13.518784 41.227736 0.746787 1.904882 0.036194 0.013101 -10213.900000 0 0 1
28.292874 27.591162 -14.498684 42.094783 0.772842 1.922427 0.049159 0.008475 -167164.000000 0 0 1
28.521374 28.896162 -13.987884 42.943193 0.791925 1.902580 0.054351 0.007421 47349.300000 0 0 1
28.264674 29.846262 -15.008484 43.760093 0.812608 1.920875 0.061155 0.008258 -258407.000000 0 0 1
28.717174 31.287962 -14.758484 44.960266 0.828215 1.905253 0.071418 -0.004117 486078.000000 0 0 1
30.130374 31.475662 -14.675784 45.977553 0.807232 1.895676 0.064059 -0.006592 344266.000000 0 0 1
30.326674 32.844062 -14.585184 47.023049 0.825228 1.886169 0.060344 -0.021437 -187751.000000 0 0 1
16.406974 -31.733492 -28.042693 45.415811 -1.093623 2.236313 0.100083 -0.033005 -188901.000000 0 0 1
17.543274 -32.435092 -27.599903 46.060355 -1.074987 2.213312 0.076746 -0.022388 11973.800000 0 0 1
17.936974 -31.932492 -26.337833 45.112088 -1.059003 2.194236 0.084833 -0.032523 212899.000000 0 0 1
19.116874 -32.754092 -25.678703 45.800450 -1.042487 2.165985 0.031363 -0.024035 1377250.000000 0 0 1
20.458774 -32.545492 -26.134443 46.484186 -1.009597 2.167867 0.047405 -0.023118 1028670.000000 0 0 1
20.783474 -32.886192 -27.493123 47.637446 -1.007192 2.186009 0.052395 -0.015839 -902117.000000 0 0 1
22.250774 -32.655292 -27.858343 48.348240 -0.972674 2.184870 0.064379 -0.016202 -367283.000000 0 0 1
22.568374 -31.297792 -28.072133 47.717166 -0.946059 2.199754 0.075215 -0.018993 -216274.000000 0 0 1
23.902874 -31.036292 -27.744323 48.003607 -0.914518 2.187027 0.043476 -0.007956 -609586.000000 0 0 1
24.393174 -29.756792 -28.374683 47.808119 -0.884127 2.206212 0.034841 -0.001728 -207948.000000 0 0 1
24.625074 -29.877992 -29.751273 48.828546 -0.881480 2.225975 0.034057 -0.004331 212113.000000 0 0 1
25.269974 -28.721792 -30.320893 48.814644 -0.849244 2.240997 0.042126 -0.013091 231614.000000 0 0 1
25.685374 -28.899192 -31.813603 50.070022 -0.844208 2.259300 0.048704 -0.012435 124960.000000 0 0 1
26.802274 -29.738192 -32.033213 51.272299 -0.837278 2.245629 0.054513 -0.026721 -24911.100000 0 0 1
27.000374 -29.940592 -33.432503 52.375486 -0.836989 2.263115 0.053292 -0.030024 791494.000000 0 0 1
28.255074 -30.714692 33.831506 53.724411 -0.827084 0.889600 0.044299 -0.030623 1270950.000000 0 0 1
29.510974 -30.061892 -33.851593 54.042070 -0.794646 2.247714 0.046993 -0.037842 678526.000000 0 0 1
30.598274 -30.917592 33.544442 54.930697 -0.790589 0.913892 0.049139 -0.031103 1225610.000000 0 0 1
31.929074 -30.100092 33.588664 55.260109 -0.755921 0.917473 0.056175 -0.038877 213950.000000 0 0 1
31.989474 -29.119092 32.589392 54.160100 -0.738461 0.925139 0.048773 -0.032096 493482.000000 0 0 1
33.312474 -28.578092 32.550618 54.644039 -0.709051 0.932678 0.050457 -0.034294 496450.000000 0 0 1
33.396474 -27.422792 31.565246 53.513538 -0.687492 0.939917 0.042112 -0.032521 -14447.000000 0 0 1
34.725974 -26.977492 31.365286 54.013513 -0.660476 0.951216 0.022658 -0.030688 395723.000000 0 0 1
34.691674 -25.963892 30.365476 52.912173 -0.642488 0.959555 0.029948 -0.025495 -8424.180000 0 0 1
35.430774 -26.338392 29.017026 52.830280 -0.639248 0.989330 0.034953 -0.023937 -175981.000000 0 0 1
34.873474 -27.404392 28.257806 52.589576 -0.666037 1.003532 0.037509 -0.024401 1243560.000000 0 0 1
33.746674 -26.904692 27.469456 51.159276 -0.673065 1.003991 0.030862 -0.020125 640829.000000 0 0 1
33.001174 -27.982792 26.680196 50.832539 -0.703293 1.018240 0.013201 -0.014053 228629.000000 0 0 1
31.757674 -27.539792 26.121576 49.490673 -0.714387 1.014779 0.018297 -0.001385 609217.000000 0 0 1
31.237674 -28.684792 25.451456 49.460956 -0.742821 1.030282 0.027554 0.003525 240585.000000 0 0 1
29.861474 -28.414592 24.770686 48.090369 -0.760575 1.029688 0.025849 0.007578 784504.000000 0 0 1
28.768574 -28.257792 25.651306 47.792501 -0.776441 1.004249 0.040461 0.003888 475668.000000 0 0 1
27.475174 -28.167092 25.083686 46.663279 -0.797833 1.003271 0.053778 0.010702 822851.000000 0 0 1
26.300074 -28.007492 26.081576 46.436646 -0.816828 0.974406 0.080939 -0.000183 248117.000000 0 0 1
26.305774 -26.727392 26.747856 46.062947 -0.793348 0.951232 0.094385 -0.017693 -199259.000000 0 0 1
25.065974 -26.526592 27.364156 45.615350 -0.813701 0.927434 0.114103 -0.031294 -389574.000000 0 0 1
24.942374 -25.496592 28.499296 45.655319 -0.796386 0.896654 0.115260 -0.029464 828147.000000 0 0 1
23.565674 -25.240392 28.890386 45.023025 -0.819698 0.874109 0.127139 -0.024000 1358940.000000 0 0 1
23.320774 -24.192092 29.836656 44.937088 -0.803735 0.844687 0.119046 -0.027123 -310994.000000 0 0 1
23.144974 -22.845092 29.160686 43.679900 -0.778878 0.839816 0.114138 -0.021936 -1029700.000000 0 0 1
24.150974 -22.399092 28.316066 43.437179 -0.747782 0.860728 0.114180 -0.021133 -368408.000000 0 0 1
23.974174 -21.043892 27.931796 42.400373 -0.720399 0.851623 0.120270 -0.014101 -113051.000000 0 0 1
24.471574 -19.981892 28.947706 42.849780 -0.684742 0.829069 0.111663 -0.016065 -160526.000000 0 0 1
23.927874 -20.067392 30.243056 43.472817 -0.697875 0.801434 0.131333 -0.018382 170052.000000 0 0 1
24.540074 -19.004792 30.967706 43.845139 -0.658960 0.786542 0.100316 -0.018843 10305.700000 0 0 1
23.925274 -18.691692 32.356268 44.370330 -0.663205 0.753597 0.116526 -0.019001 -10103.900000 0 0 1
24.254874 -19.688792 33.280835 45.646045 -0.681862 0.753781 0.100609 -0.012287 409460.000000 0 0 1
23.606974 -19.420892 -33.298163 45.202079 -0.688416 2.398901 0.109187 -0.014989 203056.000000 0 0 1
23.554974 -20.587792 -32.346093 44.999597 -0.718281 2.372883 0.082872 -0.008811 -834212.000000 0 0 1
24.762574 -20.876192 -31.764963 45.365332 -0.700448 2.346479 0.065754 -0.003392 -772251.000000 0 0 1
24.535674 -22.061092 -31.028523 45.293049 -0.732342 2.325484 0.075645 -0.006647 1073850.000000 0 0 1
25.770474 -22.442692 -30.099313 45.538559 -0.716485 2.292898 0.069234 -0.004655 1442040.000000 0 0 1
26.959474 -22.828192 -30.790523 46.861454 -0.702610 2.287701 0.060420 -0.005993 954405.000000 0 0 1
27.896274 -23.497992 -29.905013 47.166381 -0.700027 2.257553 0.066006 -0.016950 252534.000000 0 0 1
29.082374 -24.320492 -30.418453 48.606101 -0.696464 2.246973 0.054825 -0.014237 119236.000000 0 0 1
30.063674 -23.517192 -31.093693 49.231093 -0.663821 2.254394 0.048233 -0.011707 322025.000000 0 0 1
29.767474 -23.274792 -32.470983 49.821513 -0.663598 2.280681 0.044917 -0.012079 -347554.000000 0 0 1
29.946974 -24.482692 -33.353243 51.075065 -0.685342 2.282367 0.044903 -0.022132 -131545.000000 0 0 1
29.150474 -25.620592 -33.047153 50.973318 -0.721039 2.276176 0.054003 -0.029821 1427.450000 0 0 1
29.504074 -26.810492 -33.782613 52.254740 -0.737604 2.273782 0.063292 -0.037629 -89062.500000 0 0 1
29.316674 -26.944092 32.480931 51.385430 -0.743252 0.886531 0.054741 -0.036824 -115312.000000 0 0 1
30.046074 -26.044392 31.650076 50.821297 -0.714175 0.898516 0.027926 -0.039586 39621.000000 0 0 1
29.816874 -26.164092 30.277766 49.903395 -0.720240 0.918859 0.032839 -0.035361 -530339.000000 0 0 1
30.861074 -25.398492 29.443566 49.642853 -0.688606 0.935883 0.032798 -0.031846 -316331.000000 0 0 1
30.979474 -23.951192 29.454086 48.999292 -0.658141 0.925904 0.035479 -0.030023 82256.600000 0 0 1
31.213074 -23.375092 30.739356 49.654395 -0.642789 0.903243 0.033083 -0.022098 -1458580.000000 0 0 1
31.648274 -21.879992 30.567746 49.139947 -0.604896 0.899432 0.026234 -0.016395 256381.000000 0 0 1
32.914574 -21.670192 29.963626 49.505407 -0.582241 0.920704 0.030972 -0.015767 -109739.000000 0 0 1
33.943574 -22.022492 30.849036 50.880442 -0.575529 0.919391 0.026985 -0.013258 -2100310.000000 0 0 1
35.306174 -21.586292 30.372436 51.332045 -0.548762 0.937648 0.023292 -0.014166 -873679.000000 0 0 1
35.788774 -22.253592 29.209146 51.276046 -0.556298 0.964722 0.032614 -0.022155 -35089.700000 0 0 1
36.912074 -21.599092 28.673636 51.489799 -0.529429 0.980172 0.036731 -0.023881 -118297.000000 0 0 1
37.117774 -22.044492 27.220656 51.035800 -0.535927 1.008224 0.059581 -0.022812 -59602.200000 0 0 1
-37.246192 -23.364492 27.162046 51.681283 0.560251 1.017413 0.048626 -0.018269 459108.000000 0 0 1
-37.013592 -23.672992 25.790506 50.946705 0.569012 1.039994 0.060102 -0.013022 142646.000000 0 0 1
-36.605792 -25.159492 25.502156 51.218591 0.602158 1.049611 0.048317 -0.022176 374053.000000 0 0 1
37.110774 -25.878392 25.463456 51.916166 -0.608931 1.058164 0.054281 -0.027023 603219.000000 0 0 1
37.214874 -27.252592 25.135886 52.530595 -0.632079 1.071851 0.052251 -0.021408 81479.100000 0 0 1
-37.070192 -28.148092 26.255956 53.440523 0.649438 1.057201 0.059671 -0.028789 -705320.000000 0 0 1
-36.768192 -29.454492 25.763676 53.695755 0.675403 1.070360 0.058244 -0.027843 1318850.000000 0 0 1
-35.565392 -30.073692 26.284236 53.480699 0.701927 1.057018 0.070234 -0.037414 864139.000000 0 0 1
-34.216392 -29.350892 26.235976 52.159014 0.709006 1.043730 0.074984 -0.033481 -1213770.000000 0 0 1
-33.763392 -29.289092 24.939706 51.184045 0.714555 1.061852 0.075458 -0.032805 127439.000000 0 0 1
-32.363692 -29.040392 24.911006 50.112984 0.731329 1.050547 0.059079 -0.029098 389863.000000 0 0 1
-31.718892 -28.958692 23.487606 48.952646 0.739940 1.070367 0.059973 -0.024210 -77986.700000 0 0 1
-31.713892 -30.241392 22.860816 49.426002 0.761635 1.089954 0.068062 -0.028832 342208.000000 0 0 1
-31.424892 -30.142992 21.491216 48.559203 0.764580 1.112325 0.054004 -0.020632 -458626.000000 0 0 1
-31.387492 -31.580692 20.884016 49.179842 0.788466 1.132226 0.071464 -0.016757 1046520.000000 0 0 1
-30.323692 -32.507592 21.294916 49.292426 0.820142 1.124074 0.094775 -0.032997 2050380.000000 0 0 1
-29.032892 -32.303292 20.675616 48.102937 0.838667 1.126503 0.111904 -0.030194 913503.000000 0 0 1
-28.052592 -33.482692 20.746016 48.357375 0.873414 1.127395 0.104019 -0.021427 -127298.000000 0 0 1
-28.235292 33.224762 19.835216 47.901486 -0.866403 1.143861 0.094275 -0.020300 744932.000000 0 0 1
-29.356292 32.314662 20.015916 48.027765 -0.833332 1.140921 0.099591 -0.018723 705936.000000 0 0 1
-29.180992 31.276162 21.139616 47.713855 -0.820040 1.111799 0.106665 -0.019316 -72431.600000 0 0 1
-28.077692 30.431662 20.907416 46.384943 -0.825609 1.103205 0.085211 -0.014445 -47464.900000 0 0 1
-28.028292 29.358962 21.835016 46.090148 -0.808582 1.077257 0.081484 -0.017953 479469.000000 0 0 1
-27.049592 28.201462 21.411916 44.558647 -0.806243 1.069534 0.060084 -0.010771 -143056.000000 0 0 1
-25.688092 28.451262 21.326216 43.865247 -0.836392 1.063088 0.065864 -0.008505 -678296.000000 0 0 1
-24.966092 27.334062 20.865816 42.495164 -0.830644 1.057540 0.050039 -0.011031 182644.000000 0 0 1
-23.432292 27.552062 20.929316 41.787854 -0.866028 1.046219 0.041050 -0.004316 -104257.000000 0 0 1
-23.048592 27.686162 22.252416 42.343018 -0.876553 1.017461 0.050443 -0.013331 -192363.000000 0 0 1
-21.661692 27.917162 22.247216 41.755664 -0.910907 1.008896 0.064545 -0.027462 -335754.000000 0 0 1
-21.072892 28.259862 23.621006 42.433931 -0.930064 0.980444 0.061587 -0.022183 -496245.000000 0 0 1
-20.690992 27.102962 24.389366 41.922892 -0.918760 0.949897 0.064573 -0.029134 249898.000000 0 0 1
-20.522492 27.292162 25.752716 42.769582 -0.926045 0.924634 0.075647 -0.031208 -409572.000000 0 0 1
-19.069592 27.653062 26.109566 42.544690 -0.967083 0.910061 0.087262 -0.030629 -815509.000000 0 0 1
-18.737092 28.950262 25.667386 42.988498 -0.996380 0.930946 0.050847 -0.022962 108891.000000 0 0 1
-17.405692 29.342862 25.947976 42.863261 -1.035404 0.920570 0.050666 -0.010820 45749.300000 0 0 1
-17.136392 29.809662 27.350586 43.935480 -1.049067 0.898841 0.032385 -0.005762 -424339.000000 0 0 1
-17.273792 28.759662 28.283486 43.880037 -1.029917 0.870344 0.056756 -0.011816 129986.000000 0 0 1
-17.182892 29.241962 29.602616 45.018430 -1.039536 0.853212 0.046608 -0.006369 -277290.000000 0 0 1
-17.234092 28.168662 30.697286 45.086703 -1.021732 0.821874 0.054763 0.000490 721957.000000 0 0 1
-15.989892 27.436262 30.808336 44.244533 -1.043119 0.800539 0.059717 0.000159 885352.000000 0 0 1
-15.894692 26.296662 31.720556 44.162760 -1.027120 0.769491 0.075933 -0.008110 -292828.000000 0 0 1
-16.341392 26.374662 33.197530 45.439409 -1.016099 0.751612 0.061072 -0.013048 -636686.000000 0 0 1
-17.721592 26.338062 33.327822 46.027080 -0.978524 0.761080 0.052354 -0.017487 -988423.000000 0 0 1
-18.190992 26.988062 -33.330853 46.585550 -0.977708 2.368102 0.066720 -0.017038 217965.000000 0 0 1
-19.564392 26.390362 -32.962593 46.537610 -0.932857 2.357883 0.045043 -0.018196 -108439.000000 0 0 1
-20.623992 26.648362 -33.858953 47.769372 -0.912154 2.358593 0.040042 -0.015372 575159.000000 0 0 1
-21.809092 26.045762 -33.266603 47.546662 -0.873700 2.345721 0.068050 -0.016190 879157.000000 0 0 1
-23.046292 26.028762 33.634950 48.372905 -0.846097 0.801923 0.070737 -0.025847 -90440.000000 0 0 1
-23.020692 25.021962 32.523349 47.051239 -0.827030 0.807603 0.078091 -0.019998 -55131.300000 0 0 1
-22.972492 23.697762 32.966471 46.648768 -0.800937 0.785980 0.074802 -0.016198 -257485.000000 0 0 1
-23.074992 22.733162 31.771146 45.372433 -0.777936 0.795076 0.074453 -0.018165 642353.000000 0 0 1
-24.465392 22.536562 31.510206 45.818611 -0.744384 0.812458 0.085009 -0.014829 377295.000000 0 0 1
-24.580392 21.979962 30.212966 44.722899 -0.729605 0.829073 0.106732 -0.023098 -645455.000000 0 0 1
-25.962392 21.615362 29.717416 44.993272 -0.694284 0.849331 0.103615 -0.019462 -695227.000000 0 0 1
-26.487392 20.474962 30.322726 45.169389 -0.658064 0.834820 0.104806 -0.019924 -555477.000000 0 0 1
-27.735392 20.198362 29.758376 45.417912 -0.629437 0.856333 0.092677 -0.016707 -476175.000000 0 0 1
-28.360192 18.983562 30.491736 45.764857 -0.589874 0.841601 0.112443 -0.014208 -604698.000000 0 0 1
-28.995192 19.241562 31.689296 47.065596 -0.585885 0.832132 0.093565 -0.003102 105550.000000 0 0 1
-29.492092 18.141962 32.469587 47.467761 -0.551482 0.817517 0.075725 0.003463 309710.000000 0 0 1
-30.396192 17.037062 31.875245 47.225218 -0.510869 0.829883 0.055278 0.003092 651361.000000 0 0 1
-31.738192 17.374762 31.483546 47.962578 -0.500876 0.854734 0.056775 0.003577 1123950.000000 0 0 1
-32.492292 16.195062 31.175106 47.853070 -0.462389 0.861269 0.060630 0.015990 -776134.000000 0 0 1
-33.988392 16.275462 31.246606 48.953568 -0.446588 0.878521 0.051856 0.010867 -1228610.000000 0 0 1
-34.466392 16.458862 32.547724 50.181477 -0.445514 0.865052 0.043440 0.012501 -170340.000000 0 0 1
-35.867492 16.444062 32.569053 51.162754 -0.429873 0.880744 0.067528 0.003512 -496789.000000 0 0 1
-36.397692 17.035462 33.877276 52.561096 -0.437752 0.870386 0.054559 0.010977 568229.000000 0 0 1
37.115174 17.052162 -33.872603 53.062846 0.430676 2.263148 0.063792 -0.004562 645348.000000 0 0 1
36.774274 17.689162 -32.625213 52.246131 0.448349 2.245226 0.063311 -0.010357 -553596.000000 0 0 1
35.283474 17.728862 -32.358053 51.051735 0.465621 2.257290 0.087297 -0.022048 -629764.000000 0 0 1
34.757274 16.444962 -32.100913 50.089655 0.441927 2.266426 0.092290 -0.022761 -46725.700000 0 0 1
33.461974 16.471862 -31.541513 48.845604 0.457433 2.272787 0.091452 -0.031164 -59750.900000 0 0 1
32.670974 15.152662 -31.691163 47.972133 0.434267 2.292435 0.089369 -0.033616 -269.973000 0 0 1
32.096074 14.984362 -32.980403 48.398306 0.436786 2.320521 0.094170 -0.036874 -182070.000000 0 0 1
31.335774 13.804462 -33.110633 47.632005 0.414954 2.339403 0.094418 -0.037452 -355720.000000 0 0 1
32.015774 12.532162 -33.547943 48.036750 0.373103 2.343929 0.081728 -0.028063 58632.000000 0 0 1
32.948374 11.929862 -32.643323 47.890537 0.347393 2.320776 0.080734 -0.015609 158522.000000 0 0 1
33.746174 10.993962 -33.276053 48.651487 0.314941 2.323984 0.080572 -0.011368 -524653.000000 0 0 1
18.043674 -20.802438 10.038797 29.310289 -0.856297 1.221219 0.041055 -0.023198 565.488000 0 0 1
17.873774 -22.114638 10.554097 30.330150 -0.891056 1.215387 0.034069 -0.021555 -627858.000000 0 0 1
19.068674 -22.796538 10.666097 31.576290 -0.874208 1.226230 0.025205 -0.025366 -1267040.000000 0 0 1
19.027374 -24.043738 11.543497 32.762702 -0.901343 1.210730 0.040812 -0.029139 -68834.500000 0 0 1
18.256174 -25.151408 11.146297 33.016983 -0.942931 1.226438 0.038827 -0.026000 -855256.000000 0 0 1
16.891574 -25.022028 11.301397 32.235830 -0.977000 1.212601 0.044585 -0.024105 -1307110.000000 0 0 1
16.044474 -25.924038 10.420497 32.219058 -1.016593 1.241448 0.074566 -0.019985 -259897.000000 0 0 1
15.832974 -25.460878 9.091297 31.330354 -1.014462 1.276386 0.074562 -0.025892 -125581.000000 0 0 1
15.012674 -26.356658 8.397897 31.473457 -1.053032 1.300700 0.087537 -0.021327 -302255.000000 0 0 1
14.752174 -25.849938 6.940097 30.561592 -1.052211 1.341712 0.090700 -0.023346 180261.000000 0 0 1
13.760974 -24.810338 6.966197 29.213784 -1.064393 1.330021 0.094715 -0.028284 333530.000000 0 0 1
13.435074 -24.240638 5.704997 28.295879 -1.064705 1.367785 0.094846 -0.015906 244156.000000 0 0 1
12.559674 -22.946338 5.759197 26.785224 -1.069990 1.354090 0.099067 -0.014104 127922.000000 0 0 1
12.192674 -22.291438 4.548897 25.812051 -1.070285 1.393640 0.108400 -0.016510 454311.000000 0 0 1
11.475974 -21.023738 4.714897 24.411592 -1.071139 1.376433 0.113986 -0.019462 55084.700000 0 1 0
10.651974 -20.631738 3.516397 23.483999 -1.094201 1.420495 0.093527 -0.019997 -479132.000000 0 1 0
11.370874 -20.307638 2.334197 23.391140 -1.060361 1.470840 0.083412 -0.018581 -443604.000000 0 1 0
10.544874 -19.641638 1.446997 22.340146 -1.078095 1.505980 0.064123 -0.003599 -672863.000000 0 1 0
11.290474 -19.011238 0.279697 22.112897 -1.034886 1.558147 0.065567 -0.010432 -193921.000000 0 1 0
12.056774 -17.898038 0.739397 21.592876 -0.977984 1.536547 0.066563 -0.011342 -2709.330000 0 1 0
12.891074 -17.578438 -0.375803 21.801892 -0.938039 1.588034 0.086088 -0.016562 534338.000000 0 1 0
14.124174 -16.660538 0.021397 21.841847 -0.867603 1.569817 0.088138 -0.005225 1386030.000000 0 1 0
15.203274 -17.467338 0.546297 23.163460 -0.854587 1.547210 0.095324 -0.009667 173879.000000 0 1 0
16.413574 -16.768738 0.563197 23.471540 -0.796101 1.546799 0.089039 -0.016474 394853.000000 0 1 0
17.641074 -17.491338 1.227597 24.872905 -0.781136 1.521421 0.077309 -0.008838 561231.000000 0 1 0
18.040774 -18.624938 0.491897 25.934530 -0.801329 1.551828 0.070064 -0.017916 -113096.000000 0 0 1
19.316974 -19.004038 0.953997 27.114739 -0.777232 1.535605 0.058960 -0.012868 130597.000000 0 0 1
19.817674 -20.390538 0.434497 28.437705 -0.799645 1.555517 0.044973 -0.013843 -143471.000000 0 0 1
19.136774 -21.439138 1.036397 28.756337 -0.842080 1.534748 0.058665 -0.008397 -19579.400000 0 0 1
18.717974 -22.451238 0.094997 29.230629 -0.875832 1.567546 0.052770 -0.012532 -171569.000000 0 0 1
17.570474 -23.338338 0.573297 29.218629 -0.925468 1.551174 0.062252 -0.013562 -459061.000000 0 0 1
17.963574 -24.173638 1.643397 30.162154 -0.931722 1.516284 0.051122 -0.005817 236573.000000 0 0 1
16.896374 -24.997198 2.078197 30.243450 -0.976408 1.502027 0.058407 -0.006186 -232672.000000 0 0 1
17.250074 -25.789968 3.366297 31.209285 -0.981272 1.462724 0.057214 -0.012631 217791.000000 0 0 1
18.289374 -26.734338 3.339997 32.563501 -0.970811 1.468047 0.052213 -0.014518 525159.000000 0 0 1
19.615074 -26.199098 3.455897 32.910289 -0.928132 1.465593 0.056999 -0.002130 656637.000000 0 0 1
20.672074 -27.371708 3.569597 34.486042 -0.923953 1.467102 0.077354 -0.007700 334198.000000 0 0 1
20.875474 -28.052608 2.329297 35.045112 -0.931047 1.504282 0.078791 -0.015605 -153862.000000 0 0 1
21.751374 -29.159228 2.392797 36.456938 -0.929891 1.505116 0.118626 -0.020611 234291.000000 0 0 1
21.088874 -30.504598 2.926397 37.199932 -0.965910 1.492048 0.113270 -0.024353 338056.000000 0 0 1
20.951874 -30.562218 4.389597 37.313520 -0.969836 1.452882 0.123809 -0.025904 51504.700000 0 0 1
20.173674 -31.713828 4.666197 37.875024 -1.004243 1.447283 0.106856 -0.040976 -191822.000000 0 0 1
20.065674 -32.108648 6.172497 38.362694 -1.012247 1.409195 0.115147 -0.047461 305737.000000 0 0 1
21.230474 -32.712378 6.768797 39.580921 -0.995121 1.398940 0.106507 -0.056410 620753.000000 0 0 1
20.907574 -33.408758 7.952797 40.205954 -1.011614 1.371682 0.101604 -0.047727 -646313.000000 0 0 1
22.063874 33.505256 8.441397 40.996023 0.988455 1.363405 0.108086 -0.052883 -806143.000000 0 0 1
23.011474 -33.468398 9.081797 41.618994 -0.968469 1.350814 0.107871 -0.053100 -737165.000000 0 0 1
24.167074 33.518870 9.248597 42.344996 0.946116 1.350611 0.121901 -0.056738 -318039.000000 0 0 1
25.304774 -33.568208 10.026397 43.216719 -0.924848 1.336660 0.102052 -0.049495 -247905.000000 0 0 1
25.976074 -32.531758 9.340097 42.665081 -0.896981 1.350092 0.095456 -0.048636 194951.000000 0 0 1
26.978774 -32.047668 10.246497 43.126535 -0.871063 1.330911 0.081949 -0.038275 461458.000000 0 0 1
27.732874 -30.788838 9.753897 42.569982 -0.837570 1.339616 0.085425 -0.041284 -378480.000000 0 0 1
26.871574 -29.673928 9.612597 41.170688 -0.834917 1.335140 0.078651 -0.041360 60386.900000 0 0 1
27.031374 -29.002748 8.393797 40.525429 -0.820565 1.362162 0.077131 -0.035324 -364312.000000 0 0 1
26.331574 -27.666448 8.261897 39.077399 -0.810114 1.357765 0.067985 -0.024563 -337802.000000 0 0 1
26.885774 -26.802198 9.188997 39.059446 -0.783841 1.333314 0.062875 -0.038495 -101296.000000 0 0 1
26.420774 -25.494758 9.028897 37.809536 -0.767563 1.329667 0.050761 -0.029112 -448901.000000 0 0 1
27.192574 -24.446538 9.827997 37.863688 -0.732271 1.308227 0.063840 -0.047852 474080.000000 0 0 1
28.591374 -24.321438 9.559497 38.734778 -0.704875 1.321426 0.086751 -0.038448 359897.000000 0 0 1
29.207674 -23.389338 10.408597 38.839262 -0.675225 1.299489 0.060202 -0.044431 277872.000000 0 0 1
30.710374 -23.135038 10.127397 39.760800 -0.645629 1.313251 0.078120 -0.046842 355945.000000 0 0 1
30.878374 -22.411738 8.863897 39.170508 -0.627837 1.342529 0.094099 -0.037921 -173443.000000 0 0 1
32.226374 -22.267538 8.467097 40.075855 -0.604642 1.357915 0.109777 -0.045802 61975.800000 0 0 1
32.378774 -21.457038 7.187597 39.502545 -0.585243 1.387824 0.116697 -0.031451 -160497.000000 0 0 1
31.972074 -20.141838 7.356797 38.497138 -0.562174 1.378514 0.104270 -0.022973 -107872.000000 0 0 1
32.093274 -19.438538 6.163397 38.023973 -0.544592 1.407986 0.092223 -0.030539 -96325.500000 0 0 1
31.798574 -17.931038 6.305197 37.046281 -0.513448 1.399766 0.103637 -0.031081 -292791.000000 0 0 1
32.648274 -17.226138 7.143697 37.598964 -0.485505 1.379637 0.111767 -0.024992 -117175.000000 0 0 1
32.165774 -15.879338 7.342897 36.615687 -0.458572 1.368888 0.112372 -0.023687 93731.200000 0 0 1
32.825674 -15.233938 8.565097 37.188152 -0.434506 1.338392 0.114724 -0.045638 -1133950.000000 0 0 1
34.163874 -14.971438 8.454397 38.246452 -0.413018 1.347905 0.107471 -0.037123 -1322240.000000 0 0 1
34.754174 -14.506238 9.650597 38.876955 -0.395412 1.319939 0.094067 -0.037011 334797.000000 0 0 1
36.255674 -14.804938 9.886797 40.390703 -0.387682 1.323505 0.086202 -0.042824 66163.200000 0 0 1
37.105174 -13.978538 9.140097 40.690722 -0.360284 1.344240 0.131078 -0.034530 -181593.000000 0 0 1
-36.585692 -14.628138 8.986297 40.413473 0.380362 1.346563 0.134663 -0.046383 605672.000000 0 0 1
-35.588492 -13.708938 8.186497 39.006339 0.367689 1.359348 0.154292 -0.042977 -199966.000000 0 0 1
-36.104792 -13.451338 6.894997 39.141225 0.356633 1.393715 0.189847 -0.048177 -163687.000000 0 0 1
-35.271692 -12.669038 6.117197 37.973898 0.344833 1.409002 0.193856 -0.036434 287477.000000 0 0 1
-34.056792 -13.434838 5.479197 37.018665 0.375742 1.422239 0.171319 -0.029141 407096.000000 0 0 1
-33.200792 -14.050538 6.393397 36.614010 0.400344 1.395280 0.160723 -0.024456 -25146.600000 0 0 1
-32.306692 -15.020638 5.829897 36.101657 0.435207 1.408601 0.148054 -0.014097 611038.000000 0 0 1
-31.644792 -15.919438 6.935697 36.096056 0.466098 1.377448 0.112422 -0.019264 1130650.000000 0 0 1
-32.633392 -16.866138 7.456697 37.483426 0.477026 1.370527 0.102228 -0.029300 878508.000000 0 0 1
-32.219892 -17.339638 8.748797 37.620818 0.493712 1.336096 0.084136 -0.017974 80658.300000 0 0 1
-33.373892 -18.072838 9.465697 39.115771 0.496314 1.326378 0.041763 -0.015313 -1496220.000000 0 0 1
-34.509992 -17.262538 9.644497 39.773749 0.463822 1.325871 0.075060 -0.014953 159539.000000 0 0 1
-35.466592 -17.839638 10.529797 41.073209 0.466043 1.311535 0.083349 -0.017307 216845.000000 0 0 1
-35.952692 -19.312138 10.350497 42.103296 0.492927 1.322414 0.093569 -0.021459 -1373450.000000 0 0 1
-34.992492 -20.324838 10.612697 41.835426 0.526208 1.314316 0.096472 -0.012124 -166316.000000 0 0 1
-34.880492 -20.729838 11.967897 42.303729 0.536225 1.283976 0.100368 -0.035320 958182.000000 0 0 1
-36.194192 -21.447238 12.521597 43.895261 0.534931 1.281518 0.106230 -0.060538 1070450.000000 0 0 1
-36.235592 -22.814338 12.170697 44.515593 0.561908 1.293867 0.148755 -0.071288 -1285300.000000 0 0 1
37.454574 -23.220138 11.855997 45.635344 -0.554963 1.307983 0.141286 -0.048424 -1397180.000000 0 0 1
37.278574 -24.699138 12.309897 46.381819 -0.585151 1.302174 0.142359 -0.047512 -395866.000000 0 0 1
37.070474 -24.849938 13.686197 46.680312 -0.590544 1.273235 0.169849 -0.052915 70718.400000 0 0 1
36.457274 -26.068058 14.043097 46.966851 -0.620742 1.267152 0.154995 -0.050647 -201772.000000 0 0 1
34.937774 -25.955038 14.249197 45.796853 -0.638937 1.254405 0.161723 -0.041230 -671107.000000 0 0 1
34.323774 -25.614628 13.031397 44.766594 -0.641106 1.275424 0.129587 -0.041262 -369841.000000 0 0 1
33.057574 -25.008598 13.129497 43.481225 -0.647659 1.264051 0.113020 -0.024638 -42347.100000 0 0 1
33.143174 -23.497138 13.311397 42.752530 -0.616713 1.254173 0.139286 -0.031666 -157002.000000 0 0 1
33.837974 -23.106338 14.474397 43.455949 -0.599124 1.231226 0.150654 -0.040761 -384281.000000 0 0 1
34.573574 -21.926638 14.307197 43.368253 -0.565189 1.234598 0.140171 -0.055027 -367337.000000 0 0 1
35.752874 -21.924038 15.270997 44.633338 -0.550077 1.221599 0.117174 -0.043282 -537434.000000 0 0 1
35.984174 -20.751838 16.007797 44.516841 -0.523106 1.202968 0.117077 -0.020974 230104.000000 0 0 1
35.074374 -20.535238 17.089897 44.090502 -0.529672 1.172759 0.105447 -0.021376 217135.000000 0 0 1
35.197574 -19.117838 17.690897 43.787313 -0.497575 1.154890 0.087782 -0.001942 -223915.000000 0 0 1
34.571274 -18.112438 16.936997 42.545215 -0.482597 1.161358 0.085165 -0.011297 -189485.000000 0 0 1
34.548074 -16.798738 17.507497 42.217052 -0.452581 1.143181 0.068445 -0.006194 1551310.000000 0 0 1
35.954374 -16.008438 17.697897 43.153247 -0.418891 1.148214 0.052155 -0.014652 1563640.000000 0 0 1
36.564174 -16.354238 18.927697 44.301892 -0.420585 1.129354 0.048574 -0.000778 167144.000000 0 0 1
-37.258592 -15.510538 19.141297 44.667312 0.394474 1.127931 0.061063 -0.011027 -55374.600000 0 0 1
-36.849392 -15.501238 20.635397 44.988729 0.398193 1.094288 0.053076 -0.005840 -203897.000000 0 0 1
-35.980592 -16.571038 20.988597 44.829940 0.431597 1.083563 0.067725 -0.007863 366869.000000 0 0 1
-35.547692 -16.469438 22.349197 45.103962 0.433863 1.052381 0.057463 -0.006402 -198800.000000 0 0 1
-34.413592 -17.385738 22.781297 44.783331 0.467799 1.037122 0.066535 -0.006427 -838381.000000 0 0 1
-34.810292 -18.740738 22.902797 45.689275 0.493869 1.045727 0.066527 -0.012351 33697.100000 0 0 1
-33.935992 -19.546738 23.636197 45.742719 0.522577 1.027780 0.051776 -0.010398 -980800.000000 0 0 1
-32.741092 -20.098838 22.889897 44.720127 0.550557 1.033462 0.055203 -0.007798 -758091.000000 0 0 1
-31.654092 -19.208838 22.834097 43.501230 0.545431 1.018191 0.062586 0.002727 -317010.000000 0 0 1
-30.502592 -19.879338 22.388797 42.741718 0.577588 1.019472 0.059521 -0.001533 -424496.000000 0 0 1
-29.261192 -18.991238 22.422097 41.468481 0.575689 0.999525 0.070614 0.007135 -395345.000000 0 0 1
-28.856092 -18.633738 23.752797 41.762251 0.573380 0.965796 0.066452 0.005102 457162.000000 0 0 1
-27.566092 -18.036338 23.701597 40.582812 0.579388 0.947111 0.075861 -0.000059 131348.000000 0 0 1
-27.133292 -17.404838 25.035797 40.815868 0.570346 0.910458 0.066411 -0.011355 -581754.000000 0 0 1
-26.079492 -16.453338 24.909397 39.640009 0.562825 0.891314 0.072091 -0.014992 284677.000000 0 0 1
-25.744092 -15.976938 26.219697 40.068608 0.555433 0.857447 0.065310 -0.021484 -23730.300000 0 0 1
-24.783492 -16.820338 27.055197 40.362470 0.596281 0.836176 0.062249 -0.009097 -1428020.000000 0 0 1
-25.314092 -18.027738 27.368197 41.410395 0.618842 0.848777 0.065690 -0.014050 -554256.000000 0 0 1
-24.383492 -18.849338 28.054897 41.676486 0.658082 0.832324 0.059870 -0.013351 -313527.000000 0 0 1
-24.900292 -20.166438 28.682297 43.004464 0.680741 0.840674 0.054992 -0.003397 260324.000000 0 0 1
-25.932192 -19.936338 29.664597 44.157949 0.655417 0.834182 0.052328 -0.015891 788404.000000 0 0 1
-26.598792 -21.145638 30.043297 45.356736 0.671675 0.846808 0.045904 -0.016249 -432564.000000 0 0 1
-27.825092 -20.939538 30.908697 46.562298 0.645126 0.844890 0.065493 -0.022960 -1151010.000000 0 0 1
-27.485192 -20.518438 32.193997 47.041424 0.641275 0.817049 0.075497 -0.026061 779603.000000 0 0 1
-28.594592 -20.217138 33.065397 48.163304 0.615426 0.814095 0.079749 -0.032065 1475100.000000 0 0 1
-29.682492 -19.119538 32.604497 48.058925 0.572241 0.825176 0.070068 -0.032843 577832.000000 0 0 1
-30.573392 -19.593838 31.634897 48.160331 0.569936 0.854141 0.079311 -0.041944 -1647670.000000 0 0 1
-31.826292 -19.109138 31.766197 48.858605 0.540728 0.862994 0.083451 -0.048044 -1112960.000000 0 0 1
-32.867792 -19.897838 30.891497 49.300105 0.544373 0.893612 0.074004 -0.021153 -17349.300000 0 0 1
-32.934592 -19.448738 29.550097 48.333725 0.533424 0.912998 0.061415 -0.033363 325971.000000 0 0 1
-34.066792 -19.933438 28.847697 48.888423 0.529413 0.939648 0.057606 -0.029586 226653.000000 0 0 1
-34.431292 -18.976638 27.619997 48.046758 0.503722 0.958367 0.061912 -0.022610 493738.000000 0 0 1
-35.739692 -19.283438 27.137097 48.842590 0.494787 0.981708 0.047332 -0.021090 746984.000000 0 0 1
-36.197892 -18.258438 26.234697 48.289930 0.467166 0.996464 0.045560 -0.015748 -672932.000000 0 0 1
-37.382092 -18.764738 25.425997 48.949132 0.465223 1.024604 0.037144 -0.018306 -109763.000000 0 0 1
36.452574 -18.979238 26.331297 48.809209 -0.480035 1.000984 0.036590 -0.018200 272582.000000 0 0 1
35.372874 -19.416938 25.532697 47.751192 -0.502015 1.006640 0.072858 -0.012338 -419427.000000 0 0 1
34.097074 -19.854638 26.252797 47.392262 -0.527301 0.983699 0.070078 -0.020470 -444762.000000 0 0 1
33.317374 -18.777138 26.685597 46.634209 -0.513213 0.961571 0.058502 -0.032209 58276.000000 0 0 1
32.238374 -19.269738 27.468997 46.531510 -0.538746 0.939327 0.048643 -0.024330 -124042.000000 0 0 1
-30.012026 -5.317138 33.757355 45.481344 0.175347 0.734413 0.084088 -0.025892 359983.000000 0 0 1
-31.201376 -5.384038 32.962137 45.705757 0.170875 0.765290 0.088326 -0.022130 676417.000000 0 0 1
-31.315196 -4.303038 32.038388 45.006843 0.136555 0.778659 0.084200 -0.028484 -49279.800000 0 0 1
-32.202756 -4.639838 30.823846 44.818022 0.143097 0.812403 0.091087 -0.035874 136283.000000 0 0 1
-31.688306 -5.636138 29.922446 43.946189 0.176021 0.821821 0.065651 -0.036669 -404048.000000 0 0 1
-30.500766 -5.335338 29.264576 42.604905 0.173173 0.813605 0.068495 -0.038684 -368476.000000 0 0 1
-30.073656 -6.297938 28.112366 41.646055 0.206434 0.829790 0.070487 -0.035479 -592905.000000 0 0 1
-30.877236 -6.185538 27.012336 41.488925 0.197710 0.861799 0.068250 -0.037818 -750806.000000 0 0 1
-30.443996 -6.900938 25.906786 40.566259 0.222910 0.878081 0.084262 -0.036294 -107335.000000 0 0 1
-31.046096 -6.621538 24.493616 40.095412 0.210132 0.913621 0.089484 -0.035859 135224.000000 0 0 1
-30.631466 -5.293538 24.114126 39.342081 0.171124 0.911027 0.091133 -0.033102 -5972.130000 0 0 1
-31.269716 -4.947538 22.930066 39.090423 0.156921 0.943954 0.100377 -0.024362 209663.000000 0 0 1
-30.563566 -3.753738 22.176016 37.947303 0.122205 0.946668 0.104607 -0.021406 237348.000000 0 0 1
-29.320156 -4.042338 21.578116 36.628229 0.137005 0.940837 0.115346 -0.018215 -121851.000000 0 0 1
-28.651386 -2.821238 21.267616 35.793474 0.098151 0.934556 0.126603 -0.016971 -335169.000000 0 0 1
-27.361436 -3.068638 20.507816 34.331257 0.111685 0.930602 0.136196 -0.017219 -564971.000000 0 0 1
-27.459646 -3.500138 19.133516 33.650773 0.126781 0.966005 0.142050 -0.016969 -26929.000000 0 0 1
-26.157716 -3.655238 18.595216 32.301222 0.138839 0.957359 0.156463 -0.020166 102218.000000 0 0 1
-26.135386 -4.232738 17.140516 31.540002 0.160560 0.996251 0.140269 -0.017570 -41166.000000 0 0 1
-26.531286 -3.288638 16.172416 31.245341 0.123324 1.026759 0.155709 -0.016539 100975.000000 0 0 1
-26.445456 -3.897538 14.899816 30.603226 0.146327 1.062293 0.149963 -0.017357 446617.000000 0 0 1
-27.786126 -4.130038 14.110716 31.436258 0.147556 1.105299 0.172350 -0.015595 854802.000000 0 0 1
-28.390226 -2.931738 13.574916 31.605037 0.102901 1.126838 0.179232 -0.013765 525627.000000 0 0 1
-29.639116 -3.149638 12.929216 32.489414 0.105869 1.161513 0.188473 -0.012402 269306.000000 0 0 1
-30.025536 -1.909838 12.146116 32.445468 0.063522 1.187095 0.176155 -0.006181 -77288.300000 0 0 1
-29.308746 -1.743838 10.920316 31.325658 0.059429 1.214713 0.191220 -0.013888 444255.000000 0 0 1
-29.548556 -0.499438 10.256216 31.281889 0.016901 1.236754 0.191575 -0.013885 238116.000000 0 0 1
-30.878196 -0.401338 9.452516 32.295110 0.012997 1.273756 0.180937 -0.006686 473850.000000 0 0 1
-30.768616 -0.984838 8.150916 31.845173 0.031997 1.311961 0.186768 -0.009210 -6870.490000 0 0 1
-32.082006 -1.125038 7.675416 33.006557 0.035053 1.336106 0.166510 -0.018056 -168689.000000 0 0 1
-32.118116 -2.044538 6.447816 32.822672 0.063571 1.373066 0.188849 -0.026418 -378496.000000 0 0 1
-31.704106 -1.592438 5.186716 32.165015 0.050186 1.408836 0.199733 -0.044683 592092.000000 0 0 1
-32.540436 -0.560238 4.643916 32.874911 0.017215 1.429062 0.201427 -0.033271 34655.400000 0 0 1
-32.024916 -0.069938 3.293516 32.193903 0.002184 1.468315 0.173691 -0.023135 -219845.000000 0 0 1
-32.365356 -0.948638 2.228516 32.455854 0.029302 1.502079 0.151997 -0.047176 393658.000000 0 0 1
-32.323306 -0.256338 0.959816 32.338569 0.007930 1.541112 0.164159 -0.054096 -371635.000000 0 0 1
-33.101556 -1.028038 -0.147084 33.117842 0.031047 1.575238 0.156455 -0.060200 -737736.000000 0 0 1
-34.464584 -0.980238 0.101916 34.478671 0.028434 1.567840 0.147777 -0.049314 -795084.000000 0 0 1
-35.183470 -1.582938 -0.951984 35.231924 0.044961 1.597820 0.135126 -0.049207 -586783.000000 0 0 1
-36.692866 -1.446838 -0.818884 36.730509 0.039411 1.593093 0.132096 -0.043911 -587517.000000 0 0 1
-37.320156 -2.324338 0.107216 37.392620 0.062201 1.567929 0.120319 -0.041743 2083.770000 0 0 1
36.243001 -2.068538 0.194016 36.302501 -0.057012 1.565452 0.120513 -0.037474 -191657.000000 0 0 1
35.461111 -3.062838 1.063316 35.609016 -0.086158 1.540931 0.141118 -0.046319 -568870.000000 0 0 1
35.839321 -3.135238 2.431516 36.058271 -0.087258 1.503312 0.144547 -0.034266 173573.000000 0 0 1
35.238471 -4.286438 2.985016 35.623499 -0.121046 1.486904 0.133294 -0.025734 17664.900000 0 0 1
35.127711 -4.154338 4.523616 35.660590 -0.117717 1.443602 0.136563 -0.006204 918836.000000 0 0 1
34.111281 -3.215238 4.994516 34.624593 -0.093980 1.426044 0.160920 -0.018939 758775.000000 0 0 1
34.098841 -3.226938 6.401916 34.844348 -0.094354 1.386018 0.160043 -0.025082 88558.700000 0 0 1
33.397861 -1.994538 7.012116 34.184281 -0.059650 1.364203 0.185045 -0.024998 1119120.000000 0 0 1
31.957011 -1.959238 7.130316 32.801381 -0.061232 1.351668 0.194314 -0.031299 1194550.000000 0 0 1
31.552261 -0.697538 7.705216 32.486952 -0.022104 1.331336 0.211972 -0.026813 -294830.000000 0 0 1
30.053021 -0.713138 8.012416 31.110954 -0.023725 1.310318 0.193930 -0.030738 -992226.000000 0 0 1
29.234041 -0.554538 6.902316 30.042946 -0.018967 1.338977 0.207342 -0.040240 -247023.000000 0 0 1
27.864041 -0.588338 7.200516 28.785384 -0.021111 1.317966 0.201953 -0.030224 -396913.000000 0 0 1
27.239941 -1.968938 7.079116 28.213560 -0.072156 1.317174 0.216148 -0.039237 -770947.000000 0 0 1
27.529741 -2.908138 8.112716 28.847185 -0.105246 1.285720 0.187439 -0.041369 510417.000000 0 0 1
26.935741 -4.120038 7.679616 28.310517 -0.151782 1.296091 0.187719 -0.052483 -79009.900000 0 0 1
27.149841 -5.352738 8.569616 28.969018 -0.194659 1.270482 0.172392 -0.029332 -299363.000000 0 0 1
26.438741 -5.253438 9.760916 28.668469 -0.196147 1.223374 0.172281 -0.026632 183831.000000 0 0 1
26.873841 -6.197938 10.654016 29.565619 -0.226668 1.202152 0.147072 -0.022457 -168682.000000 0 0 1
26.014241 -6.177738 11.941416 29.283145 -0.233156 1.150762 0.129693 -0.018753 -1701120.000000 0 0 1
24.711041 -6.408638 11.679216 28.073302 -0.253753 1.141726 0.155227 -0.031096 -2150230.000000 0 0 1
23.915941 -6.108638 12.785816 27.798647 -0.250074 1.092864 0.160411 -0.034237 -356192.000000 0 0 1
22.777541 -7.124138 12.882716 27.120732 -0.303131 1.075817 0.155875 -0.040792 -546286.000000 0 0 1
23.232141 -8.413038 13.224216 28.024837 -0.347439 1.079380 0.137698 -0.032952 354599.000000 0 0 1
22.179141 -9.374838 13.353216 27.533802 -0.399910 1.064461 0.190384 -0.062981 149071.000000 0 0 1
22.584441 -10.647938 14.094016 28.671883 -0.440566 1.056913 0.141497 -0.049582 -225069.000000 0 0 1
22.617341 -10.434438 15.491616 29.332777 -0.432250 1.014396 0.119122 -0.033082 227327.000000 0 0 1
23.177041 -11.481838 16.205216 30.522399 -0.459958 1.011100 0.115359 -0.030407 -259132.000000 0 0 1
22.871741 -11.259738 17.723316 31.048578 -0.457468 0.963286 0.123534 -0.028927 665744.000000 0 0 1
21.453741 -11.237738 17.959116 30.150947 -0.482516 0.932734 0.102456 -0.029721 719867.000000 0 0 1
21.139041 -11.767338 19.227116 30.903257 -0.507945 0.899283 0.110805 -0.027290 62218.400000 0 0 1
21.470541 -10.926138 20.517016 31.643523 -0.470734 0.865342 0.097057 -0.027615 -313521.000000 0 0 1
20.588941 -9.882538 20.877216 30.942321 -0.447514 0.830219 0.105927 -0.028031 39957.500000 0 0 1
20.784641 -8.643038 20.128116 30.196763 -0.394085 0.841205 0.117791 -0.027864 -864402.000000 0 0 1
21.693441 -7.596238 20.798816 30.998370 -0.336820 0.835287 0.120562 -0.018038 505957.000000 0 0 1
23.077141 -7.829538 20.996116 32.166644 -0.327090 0.859615 0.118206 -0.027834 662538.000000 0 0 1
23.861141 -7.873438 19.793716 31.986501 -0.318720 0.903563 0.119027 -0.033615 -475622.000000 0 0 1
25.193141 -8.617438 19.995316 33.298157 -0.329579 0.926679 0.142925 -0.026534 32645.800000 0 0 1
25.038941 -10.010738 20.103416 33.634964 -0.380340 0.930175 0.123409 -0.029307 312992.000000 0 0 1
26.324441 -10.600238 19.969516 34.700473 -0.382812 0.957602 0.120642 -0.031546 323031.000000 0 0 1
26.358741 -12.163738 19.966916 35.233755 -0.432350 0.968303 0.102364 -0.024371 18670.900000 0 0 1
25.543641 -12.746838 18.968716 34.274942 -0.462865 0.984322 0.102125 -0.032287 117050.000000 0 0 1
25.411341 -14.137638 19.206516 34.849667 -0.507707 0.987085 0.083400 -0.015677 -141720.000000 0 0 1
24.404541 -14.833438 18.307416 33.923060 -0.546146 1.000746 0.077212 -0.012338 -394413.000000 0 0 1
24.887541 -14.738638 16.941616 33.520673 -0.534671 1.040942 0.096333 -0.015421 1128990.000000 0 0 1
23.973841 -15.299638 15.946016 32.605205 -0.568021 1.059781 0.070265 -0.016948 395173.000000 0 0 1
23.476941 -16.769638 16.065116 33.022348 -0.620261 1.062726 0.053123 -0.013468 -519683.000000 0 0 1
24.483541 -17.728238 15.977916 34.191052 -0.626710 1.084547 0.091020 -0.013593 -139815.000000 0 0 1
23.991441 -19.025638 16.190216 34.636502 -0.670469 1.084412 0.061390 -0.006141 38466.400000 0 0 1
25.115641 -20.043638 15.909316 35.855951 -0.673553 1.111072 0.045237 0.000954 -53304.500000 0 0 1
25.535841 -19.962238 14.599016 35.548578 -0.663504 1.147599 0.051756 -0.017535 117802.000000 0 0 1
26.675941 -20.761838 14.343316 36.720437 -0.661367 1.169504 0.059805 -0.025867 -75445.400000 0 0 1
27.122341 -20.732838 12.884816 36.489594 -0.652666 1.209904 0.055072 -0.043256 68864.200000 0 0 1
26.095441 -21.118038 11.982016 35.644246 -0.680363 1.227964 0.062102 -0.040850 480669.000000 0 0 1
26.468841 -20.729238 10.661316 35.269881 -0.664386 1.263715 0.090486 -0.039228 263780.000000 0 0 1
25.410441 -21.097138 9.558716 34.382391 -0.692919 1.289072 0.050275 -0.036036 225129.000000 0 0 1
24.965041 -22.411138 9.531716 34.876439 -0.731543 1.293975 0.036554 -0.032207 761652.000000 0 0 1
23.525741 -22.434538 9.620716 33.901728 -0.761660 1.283060 0.011307 -0.010685 823758.000000 0 0 1
22.831641 -23.286938 8.586316 33.723733 -0.795270 1.313354 0.017090 -0.011172 -573366.000000 0 0 1
23.236841 -24.657738 8.751816 34.993558 -0.815057 1.318015 0.013568 -0.011614 183771.000000 0 0 1
22.939441 -25.485558 7.623016 35.126087 -0.837928 1.352037 0.024959 -0.005340 101913.000000 0 0 1
21.451141 -25.926218 7.664616 34.511832 -0.879575 1.346842 0.026669 0.007353 522749.000000 0 0 1
20.468741 -24.917238 7.520716 33.111921 -0.883101 1.341667 0.023817 0.005667 142359.000000 0 0 1
19.138641 -25.414848 7.528116 32.693648 -0.925346 1.338449 0.044045 -0.010139 367759.000000 0 0 1
18.080541 -24.298938 7.495716 31.201444 -0.931090 1.328187 0.050003 -0.014690 -672948.000000 0 0 1
17.790741 -23.833738 6.186116 30.378044 -0.929570 1.365724 0.058145 -0.015700 165815.000000 0 0 1
17.123941 -22.587838 6.221416 29.019748 -0.922129 1.354734 0.078912 -0.013249 -155310.000000 0 0 1
16.762641 -22.007338 4.834216 28.083424 -0.919859 1.397797 0.086201 -0.010432 -331807.000000 0 0 1
16.116641 -20.776938 4.989016 26.764109 -0.911050 1.383293 0.119245 -0.013512 3095.400000 0 0 1
15.801641 -20.208838 3.719216 25.921450 -0.907179 1.426819 0.115670 -0.010775 -80925.900000 0 0 1
14.951841 -18.945938 3.699716 24.417085 -0.902685 1.418689 0.128467 -0.012242 -235683.000000 0 1 0
15.643141 -17.901538 4.290116 24.157360 -0.852622 1.392259 0.089075 -0.006703 229627.000000 0 1 0
14.869641 -16.699638 4.276216 22.765548 -0.843301 1.381837 0.072644 -0.003594 284331.000000 0 1 0
15.728241 -15.414538 4.466616 22.470786 -0.775325 1.370689 0.055854 -0.009828 -874466.000000 0 1 0
16.314541 -15.448738 5.753216 23.193259 -0.758147 1.320124 0.078667 -0.014814 162750.000000 0 1 0
17.361641 -14.519538 5.948516 23.401462 -0.696486 1.313782 0.084764 -0.019232 109634.000000 0 1 0
18.698541 -14.911538 5.279016 24.491987 -0.673197 1.353551 0.104771 -0.034841 -971936.000000 0 1 0
19.580341 -13.807638 5.226016 24.522477 -0.614193 1.356038 0.125217 -0.036863 -565307.000000 0 1 0
20.882241 -14.287638 5.283416 25.847999 -0.600043 1.364942 0.134665 -0.030723 -549199.000000 0 0 1
22.011141 -13.283938 4.955516 26.182255 -0.542996 1.380378 0.126172 -0.034579 96761.700000 0 0 1
22.092241 -12.378138 6.026116 26.030741 -0.510712 1.337177 0.148579 -0.047027 -205195.000000 0 0 1
23.171241 -11.510438 5.936016 26.544922 -0.461049 1.345268 0.147505 -0.043944 -462442.000000 0 0 1
23.533041 -10.735038 7.248316 26.862300 -0.427972 1.297577 0.167621 -0.048768 -153218.000000 0 0 1
24.038641 -11.543138 8.270516 27.919558 -0.447675 1.270057 0.166315 -0.031162 218854.000000 0 0 1
24.170041 -10.749638 9.389216 28.069609 -0.418480 1.229724 0.189915 -0.050981 318941.000000 0 0 1
24.809441 -11.606638 10.577616 29.361682 -0.437583 1.202258 0.159200 -0.044793 365900.000000 0 0 1
23.860241 -12.587838 10.921016 29.103837 -0.485456 1.186137 0.163307 -0.047655 555689.000000 0 0 1
24.379841 -13.448638 11.936916 30.294100 -0.504093 1.165779 0.156778 -0.045409 -101429.000000 0 0 1
23.411341 -14.582338 12.285116 30.193700 -0.557070 1.151764 0.109861 -0.042496 -218231.000000 0 0 1
22.231241 -14.114538 12.886016 29.317191 -0.565684 1.115712 0.100156 -0.037569 147021.000000 0 0 1
21.282741 -15.159538 13.087016 29.223905 -0.618928 1.106472 0.068323 -0.041448 -107323.000000 0 0 1
19.906441 -14.818238 13.624816 28.310461 -0.639904 1.068700 0.067906 -0.043765 -822682.000000 0 0 1
19.988241 -14.372538 14.965516 28.810871 -0.623397 1.024601 0.077839 -0.044789 194411.000000 0 0 1
19.673341 -13.032738 15.185316 28.062189 -0.585082 0.999015 0.108042 -0.049761 532685.000000 0 0 1
18.148741 -12.650738 15.258616 26.874585 -0.608749 0.967001 0.133773 -0.055689 641523.000000 0 0 1
17.511341 -12.977738 13.967816 25.887615 -0.637784 1.000887 0.155235 -0.069786 1127410.000000 0 0 1
16.080541 -12.848438 14.051916 24.922329 -0.674134 0.971782 0.205486 -0.070352 652681.000000 0 1 0
15.383041 -11.519638 13.840416 23.683267 -0.642767 0.946660 0.162737 -0.063380 -612555.000000 0 1 0
15.458441 -10.710638 14.933016 24.014082 -0.605922 0.899701 0.140417 -0.044002 158171.000000 0 1 0
14.940441 -9.436038 14.628016 22.939801 -0.563315 0.879327 0.127050 -0.043561 -732611.000000 0 1 0
15.396841 -8.280238 15.558116 23.402565 -0.493419 0.843565 0.131826 -0.039120 59771.700000 0 1 0
16.797241 -8.095738 15.592016 24.306362 -0.449118 0.874372 0.124103 -0.044431 140262.000000 0 1 0
17.453541 -8.959738 16.504616 25.637967 -0.474269 0.871399 0.131091 -0.037384 68982.200000 0 0 1
19.004741 -8.880638 16.347016 26.594564 -0.437135 0.908822 0.112327 -0.030381 969927.000000 0 0 1
19.677141 -7.636338 16.682816 26.903901 -0.370190 0.901940 0.100506 -0.028140 2265740.000000 0 0 1
21.133741 -7.711438 16.509516 27.904577 -0.349876 0.937702 0.099400 -0.019632 1777220.000000 0 0 1
21.847541 -6.376238 16.745316 28.255567 -0.283964 0.936467 0.089077 -0.003518 -217813.000000 0 0 1
21.883741 -6.049138 18.139716 29.060962 -0.269687 0.896695 0.109658 -0.013081 588394.000000 0 0 1
22.537341 -4.739138 18.239216 29.377886 -0.207260 0.900972 0.133045 -0.015089 454416.000000 0 0 1
-5.469926 -32.674892 -6.764803 33.813181 1.404930 1.772220 0.053770 -0.026098 143086.000000 0 0 1
-6.314926 -31.561792 -6.455403 32.828299 1.373323 1.768728 0.041125 -0.032531 209869.000000 0 0 1
-5.753726 -30.831692 -5.387503 31.823321 1.386301 1.740910 0.044087 -0.030676 -596780.000000 0 0 1
-6.531226 -29.497192 -5.229403 30.660853 1.352893 1.742191 0.037923 -0.025047 -322446.000000 0 0 1
-7.840126 -29.552792 -4.805403 30.950395 1.311478 1.726688 0.025580 -0.024492 -923472.000000 0 0 1
-8.773326 -30.061892 -5.723503 31.834683 1.286841 1.751568 0.026522 -0.029513 -967401.000000 0 0 1
-10.253926 -29.891592 -5.314603 32.045206 1.240338 1.737413 0.063545 -0.017444 261968.000000 0 0 1
-11.122826 -30.504792 -6.245003 33.064477 1.221152 1.760811 0.049728 -0.022001 -1108870.000000 0 0 1
-12.443726 -30.227092 -5.945403 33.224557 1.180266 1.750711 0.055361 -0.015263 -205169.000000 0 0 1
-13.509526 -30.821592 -6.928503 34.358142 1.157703 1.773844 0.063578 -0.016478 433695.000000 0 0 1
-13.642026 -30.145792 -8.163003 34.080907 1.145836 1.812666 0.082330 -0.027704 -16981.500000 0 0 1
-14.750026 -30.599092 -8.917803 35.119722 1.121619 1.827533 0.091728 -0.025692 167161.000000 0 0 1
-15.040826 -29.751792 -10.220403 34.869072 1.102724 1.868272 0.129359 -0.026233 -693283.000000 0 0 1
-15.633626 -28.506492 -10.006603 34.017090 1.069164 1.869377 0.137874 -0.027203 148204.000000 0 0 1
-14.716426 -27.438192 -9.685803 32.607397 1.078495 1.872391 0.114210 -0.023950 -65558.900000 0 0 1
-15.306426 -26.003592 -9.537603 31.645526 1.038781 1.876945 0.107732 -0.009240 90713.700000 0 0 1
-15.756726 -25.321092 -10.713203 31.689191 1.014158 1.915663 0.125790 -0.021522 230607.000000 0 0 1
-16.227226 -24.034492 -10.442303 30.822416 0.976934 1.916426 0.082234 -0.001266 -346881.000000 0 0 1
-16.819526 -23.195592 -11.589203 30.906982 0.943411 1.955161 0.107304 -0.003071 255981.000000 0 0 1
-18.096526 -23.773792 -11.884403 32.154571 0.920168 1.949377 0.119891 -0.019479 314800.000000 0 0 1
-18.668426 -23.189092 -13.055803 32.506893 0.892982 1.984094 0.128501 -0.025649 1390440.000000 0 0 1
-20.186926 -23.641592 -13.304103 33.814730 0.864058 1.975168 0.111286 -0.009643 1363190.000000 0 0 1
-20.399826 -25.003392 -13.594303 35.016104 0.886446 1.969507 0.154192 -0.027611 -58537.400000 0 0 1
-20.175026 -25.907092 -12.497103 35.133839 0.909151 1.934459 0.165911 -0.020878 -1417940.000000 0 0 1
-19.994226 -27.433692 -12.790503 36.276349 0.940989 1.931129 0.172016 -0.030632 137377.000000 0 0 1
-18.873526 -27.819892 -13.545303 36.244056 0.974702 1.953818 0.164936 -0.039416 -260372.000000 0 0 1
-17.625126 -27.459192 -13.002703 35.124387 1.000160 1.950010 0.161289 -0.037326 -912703.000000 0 0 1
-16.539126 -28.487792 -13.447003 35.579753 1.044787 1.958366 0.150317 -0.042531 -88357.500000 0 0 1
-16.453426 -28.598392 -14.855703 36.183907 1.048716 1.993866 0.163235 -0.047296 -10592.600000 0 0 1
-15.651326 -29.649092 -15.364403 36.879500 1.085090 2.000510 0.159471 -0.049894 260405.000000 0 0 1
-16.359126 -31.058592 -15.327603 38.303949 1.086003 1.982485 0.163191 -0.054225 33525.900000 0 0 1
-16.624126 -31.598592 -14.047203 38.368691 1.086485 1.945623 0.153841 -0.047896 123196.000000 0 0 1
-17.197526 -32.875192 -14.166503 39.714266 1.088828 1.935541 0.129279 -0.042439 -904150.000000 0 0 1
-17.866326 -33.465692 -12.907903 40.072086 1.080421 1.898761 0.155104 -0.038026 208124.000000 0 0 1
-19.182326 -33.045692 -12.564603 40.222489 1.044854 1.888491 0.194378 -0.047132 311215.000000 0 0 1
-19.515826 -31.665492 -12.456503 39.226716 1.018469 1.893943 0.203999 -0.048173 -549242.000000 0 0 1
-18.763426 -30.724292 -11.447903 37.777013 1.022544 1.878676 0.183183 -0.045405 -343217.000000 0 0 1
-19.141126 -30.780492 -10.111803 37.630704 1.014459 1.842851 0.186889 -0.049387 38241.200000 0 0 1
-18.564726 -29.761792 -9.283803 36.285015 1.013077 1.829531 0.166436 -0.041714 -190749.000000 0 0 1
-18.787626 -30.020392 -7.713703 36.245000 1.011601 1.785258 0.178036 -0.041832 255307.000000 0 0 1
-17.886026 -30.997392 -7.216803 36.507951 1.047447 1.769784 0.162679 -0.032112 209235.000000 0 0 1
-18.110426 -31.225892 -5.829603 36.565395 1.045227 1.730909 0.176531 -0.033900 -161566.000000 0 0 1
-17.207426 -32.349492 -5.282103 37.020072 1.081938 1.713967 0.159454 -0.021029 1473840.000000 0 0 1
-15.865726 -32.009192 -4.840103 36.051854 1.110625 1.705457 0.156412 -0.019040 1340830.000000 0 0 1
-15.976426 -31.583992 -3.476903 35.565202 1.102488 1.668714 0.130893 -0.025116 -382421.000000 0 0 1
-14.721026 -30.966792 -2.826603 34.404076 1.127037 1.653048 0.124408 -0.026434 174645.000000 0 0 1
-13.675726 -31.943092 -2.752103 34.856286 1.166279 1.649834 0.069940 -0.011981 107810.000000 0 0 1
-12.499126 -31.292592 -2.303603 33.775154 1.190783 1.639053 0.066141 -0.018257 -167484.000000 0 0 1
-11.227926 -32.096592 -2.119503 34.069779 1.234285 1.633047 0.060909 -0.021488 -719366.000000 0 0 1
-11.363926 -33.078992 -1.118703 34.994428 1.239889 1.602770 0.075396 -0.019004 559604.000000 0 0 1
-10.132826 -33.782292 -0.828903 35.278952 1.279390 1.594294 0.080828 -0.027149 628524.000000 0 0 1
-9.086526 -32.965692 -0.013403 34.195058 1.301839 1.571188 0.084467 -0.038603 -488652.000000 0 0 1
-9.531226 -32.690192 1.320397 34.076918 1.287098 1.532039 0.103340 -0.036353 -251396.000000 0 0 1
-8.604726 -32.184892 2.252697 33.391364 1.309553 1.503282 0.083513 -0.039031 731182.000000 0 0 1
-7.410526 -33.065092 2.789397 33.999955 1.350320 1.488663 0.109922 -0.044690 424478.000000 0 0 1
-7.855326 33.759462 3.720697 34.860450 -1.342179 1.463861 0.134617 -0.056868 55605.500000 0 0 1
-6.994626 32.626962 3.909297 33.596518 -1.359611 1.454172 0.133807 -0.046053 -112494.000000 0 0 1
-6.048126 32.811262 5.095797 33.750939 -1.388512 1.419234 0.134737 -0.043388 -439279.000000 0 0 1
-5.033826 33.706162 4.720097 34.405291 -1.422548 1.433171 0.147933 -0.044077 -646570.000000 0 0 1
-4.149026 -33.839492 5.808497 34.584162 1.448796 1.402044 0.132226 -0.045618 -447111.000000 0 0 1
-2.989826 -32.964292 5.387797 33.535234 1.480345 1.409436 0.160851 -0.042720 -777035.000000 0 0 1
-3.276726 -31.645092 4.953197 32.197561 1.467618 1.416345 0.146539 -0.030826 242654.000000 0 0 1
-3.984426 -31.456792 3.704097 31.923749 1.444804 1.454505 0.127619 -0.040112 101598.000000 0 0 1
-3.886926 -30.006292 3.235697 30.429516 1.441977 1.464261 0.125487 -0.043511 -342047.000000 0 0 1
-2.636726 -29.505592 2.853897 29.760326 1.481669 1.474753 0.103744 -0.028268 -349082.000000 0 0 1
-2.753226 -28.230592 2.170797 28.447477 1.473577 1.494413 0.103488 -0.028348 207982.000000 0 0 1
-2.927726 -26.915792 2.946797 27.234446 1.462449 1.462383 0.121615 -0.030951 35380.700000 0 0 1
-3.451626 -25.905492 2.089597 26.217831 1.438337 1.491010 0.122960 -0.023791 -119390.000000 0 0 1
-3.433926 -24.589492 2.633197 24.967352 1.432044 1.465134 0.104617 -0.022951 502765.000000 0 1 0
-4.656226 -24.167392 3.517897 24.861996 1.380463 1.428823 0.091414 -0.022710 318382.000000 0 1 0
-4.635126 -24.850092 4.749997 25.721079 1.386392 1.385057 0.123519 -0.026673 238407.000000 0 0 1
-5.664126 -24.361892 5.607197 25.632494 1.342355 1.350260 0.080511 -0.019122 175733.000000 0 0 1
-6.170726 -25.513492 6.493797 27.040442 1.333492 1.328275 0.092161 -0.026583 -98100.200000 0 0 1
-5.177526 -25.934392 7.387197 27.458517 1.373748 1.298409 0.089230 -0.032453 284707.000000 0 0 1
-5.784526 -26.874892 8.236997 28.697886 1.358792 1.279677 0.091727 -0.032642 755697.000000 0 0 1
-4.850426 -27.036592 9.502497 29.065467 1.393282 1.237739 0.089039 -0.032970 422112.000000 0 0 1
-4.820526 -26.034492 10.467997 28.471234 1.387711 1.194295 0.075684 -0.037328 -668261.000000 0 0 1
-6.033526 -25.768392 11.066097 28.685745 1.340795 1.174754 0.069704 -0.036668 -747863.000000 0 0 1
-5.715726 -24.642192 12.045197 28.017743 1.342878 1.126400 0.068804 -0.036249 413129.000000 0 0 1
-4.914526 -25.064392 13.130397 28.719046 1.377177 1.095950 0.087682 -0.037869 -231807.000000 0 0 1
-4.092626 -24.078392 13.689497 27.998587 1.402434 1.059928 0.070841 -0.035820 -173199.000000 0 0 1
-3.027226 -24.676492 14.595797 28.829336 1.448730 1.039927 0.079156 -0.038934 -537624.000000 0 0 1
-3.536526 -25.030192 15.820697 29.821334 1.430435 1.011587 0.086031 -0.037911 -87302.500000 0 0 1
-2.555726 -25.639292 16.644997 30.675087 1.471444 0.997240 0.106132 -0.038608 299555.000000 0 0 1
-3.151426 -26.131192 17.998397 31.885937 1.450776 0.971015 0.131176 -0.026598 181686.000000 0 0 1
-3.188326 -25.033992 18.932997 31.548765 1.444118 0.927147 0.138600 -0.027802 -424451.000000 0 0 1
-3.874026 -25.368092 20.081597 32.585560 1.419255 0.906795 0.182954 -0.033909 -331866.000000 0 0 1
-3.379026 -24.661392 21.372297 32.808187 1.434627 0.861326 0.161003 -0.035955 353012.000000 0 0 1
-2.097226 -25.189892 21.762297 33.354559 1.487731 0.859979 0.109339 -0.038771 570903.000000 0 0 1
-1.389426 -24.398592 22.670097 33.333993 1.513911 0.822912 0.090234 -0.032843 149310.000000 0 0 1
-0.706926 -23.058292 22.171097 31.995970 1.540148 0.805246 0.093896 -0.031273 -182410.000000 0 0 1
-1.604926 -22.016892 21.913297 31.104853 1.498030 0.789081 0.132927 -0.027910 -297829.000000 0 0 1
-0.872726 -20.839392 21.578397 30.011150 1.528942 0.768416 0.139291 -0.032442 93427.900000 0 0 1
-1.735526 -19.542092 21.338597 28.986913 1.482219 0.743438 0.108779 -0.015829 -364065.000000 0 0 1
-2.482726 -19.108092 22.444397 29.580975 1.441590 0.709413 0.104288 -0.034254 196048.000000 0 0 1
-3.700926 -19.811092 22.687297 30.346164 1.386114 0.726330 0.136331 -0.041257 161916.000000 0 0 1
-4.873026 -19.258192 21.779297 29.478163 1.322962 0.739467 0.137060 -0.035179 -510960.000000 0 0 1
-5.165426 -19.839892 20.491397 28.986209 1.316095 0.785640 0.133998 -0.033538 -52879.300000 0 0 1
-5.726226 -21.149692 20.506997 30.010599 1.306388 0.818489 0.134832 -0.030618 53116.200000 0 0 1
-5.976126 -21.729792 19.123597 29.556893 1.302412 0.867140 0.104078 -0.031555 141977.000000 0 0 1
-6.461226 -23.075292 19.031297 30.600765 1.297782 0.899601 0.093985 -0.033016 -141146.000000 0 0 1
-6.359826 -23.453192 17.692497 30.058677 1.305993 0.941472 0.090711 -0.042645 43583.400000 0 0 1
-6.919926 -24.866492 17.373597 31.113818 1.299380 0.978354 0.084337 -0.047896 464774.000000 0 0 1
-8.323126 -24.861492 17.606497 31.580958 1.247745 0.979421 0.089365 -0.044380 -223523.000000 0 0 1
-8.849126 -26.143392 17.287197 32.567332 1.244417 1.011236 0.092156 -0.041810 -592829.000000 0 0 1
-10.354526 -26.208292 17.410397 33.124201 1.194533 1.017365 0.071753 -0.043345 -1594020.000000 0 0 1
-11.085826 -25.567092 16.368497 32.318716 1.161666 1.039709 0.086225 -0.046920 160215.000000 0 0 1
-12.474826 -25.856592 16.459697 33.092390 1.121277 1.050213 0.084765 -0.048063 402179.000000 0 0 1
-13.227726 -25.130992 17.587497 33.404484 1.086291 1.016317 0.084936 -0.037067 -1280230.000000 0 0 1
-13.587626 -23.828592 17.271497 32.414965 1.052559 1.008861 0.080457 -0.047875 -105615.000000 0 0 1
-13.920626 -23.072392 18.461497 32.664139 1.027920 0.970131 0.081571 -0.031762 137308.000000 0 0 1
-12.670426 -22.378692 19.077597 32.020310 1.055614 0.932539 0.069098 -0.037672 406316.000000 0 0 1
-11.834326 -23.326892 19.715297 32.754970 1.101306 0.924915 0.076254 -0.034541 -92409.200000 0 0 1
-10.506826 -22.843792 19.729397 31.960621 1.139705 0.905486 0.110386 -0.044281 549350.000000 0 0 1
-9.453526 -23.684592 20.526997 32.736625 1.191029 0.893056 0.115475 -0.045103 516978.000000 0 0 1
-9.562626 -23.542092 21.945497 33.574972 1.184963 0.858430 0.111472 -0.045954 83135.100000 0 0 1
-8.469926 -24.230992 22.510797 34.141128 1.234523 0.850848 0.127134 -0.045287 111118.000000 0 0 1
-8.089326 -23.726892 23.967297 34.681896 1.242220 0.807841 0.135805 -0.046538 682216.000000 0 0 1
-7.008426 -24.519992 24.504897 35.367188 1.292394 0.805333 0.139632 -0.040635 414134.000000 0 0 1
-6.694426 -24.052992 25.771597 35.882265 1.299346 0.769546 0.126298 -0.032880 258402.000000 0 0 1
-5.418726 -24.673592 26.421597 36.554747 1.354612 0.762958 0.141172 -0.019555 -300966.000000 0 0 1
-4.237026 -24.138392 25.921797 35.672874 1.397036 0.757359 0.140363 -0.025384 -1169750.000000 0 0 1
-3.215826 -24.546592 26.776397 36.467138 1.440529 0.746219 0.134253 -0.020374 12936.200000 0 0 1
-1.842926 -23.848192 26.517897 35.711784 1.493672 0.733922 0.120514 -0.021853 166679.000000 0 0 1
-1.895026 -22.427192 26.777697 34.980210 1.486500 0.698963 0.129409 -0.026587 762180.000000 0 0 1
-0.660326 -21.760892 26.395897 34.215725 1.540461 0.689671 0.117486 -0.030777 905608.000000 0 0 1
0.206874 -21.570392 27.640097 35.061369 -1.561206 0.662699 0.111139 -0.015307 -61162.600000 0 0 1
0.910074 -22.735992 28.124597 36.176602 -1.530790 0.680235 0.104046 -0.016776 207134.000000 0 0 1
1.554074 -22.462892 29.330897 36.976995 -1.501722 0.654717 0.086115 -0.023009 -150284.000000 0 0 1
2.167274 -23.731992 29.959697 38.281692 -1.479726 0.671946 0.129267 -0.038986 -746525.000000 0 0 1
3.113574 -24.400692 29.182897 38.167127 -1.443880 0.700363 0.100348 -0.034115 -182838.000000 0 0 1
3.784974 -25.421092 29.849097 39.389422 -1.422991 0.710870 0.102179 -0.033886 -487329.000000 0 0 1
4.940774 -25.062692 30.817597 40.028416 -1.376156 0.692123 0.073360 -0.034574 -75833.400000 0 0 1
6.165374 -24.648692 30.251797 39.506216 -1.325695 0.698593 0.086022 -0.032639 851607.000000 0 0 1
6.999574 -25.621792 29.558997 39.739207 -1.304115 0.732022 0.081509 -0.035616 43026.300000 0 0 1
8.256074 -25.015392 28.908397 39.110459 -1.252013 0.738993 0.077963 -0.025509 -68681.700000 0 0 1
7.984974 -24.316992 27.719197 37.728369 -1.253519 0.745566 0.075982 -0.031861 71729.800000 0 0 1
9.156274 -24.299792 26.941197 37.418516 -1.210444 0.766999 0.077203 -0.019811 -165473.000000 0 0 1
9.111574 -23.142492 25.879497 35.893510 -1.195719 0.765541 0.076832 -0.011962 -158450.000000 0 0 1
8.406474 -23.307492 24.679497 34.971210 -1.224642 0.787373 0.067730 -0.010966 -90800.500000 0 0 1
8.326274 -22.072892 24.025697 33.671554 -1.210083 0.776271 0.073147 -0.011634 234942.000000 0 0 1
7.613274 -21.977092 22.646897 32.462847 -1.237316 0.798719 0.063113 -0.003457 590125.000000 0 0 1
8.264074 -22.864292 21.675197 32.571229 -1.223966 0.842672 0.053847 -0.004262 613484.000000 0 0 1
7.541874 -22.815092 20.458397 31.558744 -1.251539 0.865494 0.061729 -0.003491 374172.000000 0 0 1
8.268474 -23.644692 19.331497 31.640890 -1.234392 0.913517 0.098424 -0.021374 689256.000000 0 0 1
9.621674 -23.307292 19.093197 31.628415 -1.179289 0.922697 0.103467 -0.016836 115650.000000 0 0 1
10.255374 -24.170692 18.163197 31.926428 -1.169528 0.965619 0.111447 -0.028453 -43140.900000 0 0 1
11.685574 -23.895692 17.711297 31.956952 -1.115968 0.983366 0.112030 -0.025485 -102119.000000 0 0 1
11.687774 -22.778492 16.802697 30.623429 -1.096719 0.990003 0.130192 -0.019800 -43780.800000 0 0 1
13.006174 -22.516592 16.360397 30.721655 -1.046991 1.009202 0.123394 -0.025543 197400.000000 0 0 1
-12.738526 22.324662 11.224697 28.047360 -1.052273 1.159056 0.030067 -0.015670 154658.000000 0 0 1
-13.827326 21.471162 10.879197 27.759010 -0.998654 1.168083 0.003973 -0.022597 206190.000000 0 0 1
-13.403126 20.240162 10.348697 26.389457 -0.985889 1.167826 0.044408 -0.028594 467980.000000 0 0 1
-14.405926 19.690362 9.257997 26.095049 -0.939160 1.208118 0.042656 -0.023404 -247979.000000 0 0 1
-14.570926 20.636162 8.267997 26.580497 -0.955997 1.254493 0.048106 -0.021460 293222.000000 0 0 1
-15.366426 20.165462 7.163097 26.345452 -0.919649 1.295439 0.059754 -0.017422 580500.000000 0 0 1
-16.890826 19.923062 7.314397 27.124321 -0.867579 1.297754 0.044291 -0.023456 -300815.000000 0 0 1
-17.179026 18.785762 8.152797 26.729981 -0.830044 1.260852 0.028828 -0.023408 638287.000000 0 0 1
-18.584226 18.739262 8.420997 27.702826 -0.789552 1.261933 0.044810 -0.013736 633370.000000 0 0 1
-19.031026 17.634362 9.413297 27.600015 -0.747324 1.222751 0.047652 -0.015984 -86854.800000 0 0 1
-18.733426 16.363262 8.874497 26.409360 -0.717968 1.228091 0.052975 -0.015159 299284.000000 0 0 1
-19.153726 15.297562 9.713697 26.367338 -0.673931 1.193510 0.064640 -0.027233 402308.000000 0 0 1
-18.052426 14.880162 10.775297 25.756869 -0.689368 1.139172 0.042175 -0.021862 -548455.000000 0 0 1
-17.001626 14.210462 10.274297 24.424448 -0.696210 1.136628 0.020608 -0.004666 -799100.000000 0 1 0
-16.210026 13.349662 11.133497 23.768323 -0.688933 1.083298 0.013140 -0.011137 563111.000000 0 1 0
-16.968226 12.236262 11.942197 24.088646 -0.624766 1.052086 0.027212 -0.011826 13382.600000 0 1 0
-17.779226 11.302562 11.218397 23.868414 -0.566269 1.081494 0.011764 -0.012649 185230.000000 0 1 0
-18.537126 10.509562 12.113297 24.511383 -0.515761 1.053893 0.035429 -0.008656 -8333.080000 0 1 0
-19.671626 9.832162 11.297997 24.724259 -0.463499 1.096222 0.051049 -0.014195 -147637.000000 0 1 0
-19.174226 8.907062 10.342897 23.536402 -0.434874 1.115818 0.040251 -0.012795 235836.000000 0 1 0
-18.936726 9.402562 9.017597 22.985317 -0.460864 1.167644 0.063142 -0.016772 -592115.000000 0 1 0
-20.123626 9.782762 8.114597 23.801458 -0.452493 1.222892 0.078262 -0.022783 -306402.000000 0 1 0
-20.707526 8.585762 7.653497 23.687401 -0.393046 1.241789 0.070461 -0.021921 115975.000000 0 1 0
-21.705426 8.826562 6.693597 24.368790 -0.386228 1.292540 0.099090 -0.019715 -170375.000000 0 1 0
-21.863226 7.569262 5.758197 23.842215 -0.333294 1.326872 0.100854 -0.024700 -332325.000000 0 1 0
-22.466526 6.475662 6.366797 24.232521 -0.280630 1.304938 0.117307 -0.029538 320595.000000 0 1 0
-22.072826 5.308562 5.707097 23.408576 -0.236020 1.324510 0.116493 -0.031284 -69132.300000 0 1 0
-23.112126 4.140662 5.661297 24.152965 -0.177275 1.334202 0.134013 -0.032658 -96150.500000 0 1 0
-24.220126 4.325362 4.824397 25.071858 -0.176722 1.377166 0.173554 -0.035263 -139506.000000 0 0 1
-25.102726 3.243862 4.929197 25.786944 -0.128511 1.378462 0.200428 -0.036386 -490492.000000 0 0 1
-26.264076 3.292462 3.946197 26.762183 -0.124709 1.422802 0.209594 -0.040249 -294920.000000 0 0 1
-25.867526 3.116862 2.587597 26.182807 -0.119915 1.471807 0.212778 -0.030036 258923.000000 0 0 1
-27.031686 3.077262 1.805697 27.266135 -0.113351 1.504523 0.215006 -0.034302 -119594.000000 0 0 1
-26.759636 2.838162 0.326397 26.911704 -0.105666 1.558668 0.241357 -0.037360 -240070.000000 0 0 1
-26.108806 3.958362 -0.263003 26.408475 -0.150464 1.580756 0.223308 -0.035739 227445.000000 0 0 1
-26.229856 4.088362 -1.671803 26.599153 -0.154623 1.633690 0.241306 -0.034739 282224.000000 0 0 1
-27.610166 4.498162 -2.284603 28.067314 -0.161498 1.652284 0.253807 -0.047566 567579.000000 0 0 1
-28.625056 3.524562 -2.131103 28.919854 -0.122512 1.644553 0.246824 -0.050731 1285210.000000 0 0 1
-29.908376 4.119662 -1.779003 30.243138 -0.136881 1.629654 0.210381 -0.026207 1041900.000000 0 0 1
-31.056476 3.100862 -1.672803 31.255692 -0.099516 1.624342 0.215503 -0.028226 -282561.000000 0 0 1
-31.402636 2.569162 -2.939903 31.644417 -0.081632 1.663835 0.205157 -0.033950 1031800.000000 0 0 1
-32.521136 1.659862 -2.886203 32.691124 -0.050995 1.659198 0.218152 -0.042716 711727.000000 0 0 1
-32.985086 1.149762 -4.292303 33.283054 -0.034843 1.700120 0.214995 -0.058078 351001.000000 0 0 1
-31.847746 0.577662 -4.963703 32.237415 -0.018136 1.725385 0.244266 -0.062863 779884.000000 0 0 1
-32.041576 -0.027238 -6.230603 32.641748 0.000850 1.762853 0.256863 -0.062216 -517052.000000 0 0 1
-32.497676 0.914862 -7.377503 33.337118 -0.028144 1.793944 0.240822 -0.063140 848603.000000 0 0 1
-33.877006 1.316162 -7.233703 34.665693 -0.038832 1.781012 0.241878 -0.061140 902085.000000 0 0 1
-34.326912 1.970762 -8.371703 35.387938 -0.057349 1.809630 0.200911 -0.044600 652947.000000 0 0 1
-35.894653 2.107862 -8.378203 36.919689 -0.058656 1.799721 0.179279 -0.038804 664432.000000 0 0 1
-36.381056 2.834662 -7.321703 37.218595 -0.077759 1.768809 0.166216 -0.028671 -276962.000000 0 0 1
37.163891 2.871262 -7.306203 37.983938 0.077106 1.764352 0.153610 -0.015307 -457849.000000 0 0 1
36.433661 3.453862 -6.093603 37.100846 0.094516 1.735788 0.180061 -0.024259 -563227.000000 0 0 1
35.052901 3.354562 -6.272403 35.767331 0.095409 1.747075 0.160750 -0.028406 -337325.000000 0 0 1
34.403381 3.741762 -5.081203 34.977307 0.108336 1.716584 0.166584 -0.031509 1050100.000000 0 0 1
32.954421 3.190762 -4.794703 33.453908 0.096523 1.714614 0.155671 -0.021372 910117.000000 0 0 1
33.130461 1.907162 -4.365203 33.471177 0.057502 1.701586 0.153866 -0.030044 -556727.000000 0 0 1
32.070891 1.055162 -4.571203 32.412209 0.032889 1.712301 0.131545 -0.033137 -898574.000000 0 0 1
32.119641 -0.298838 -3.845103 32.350355 -0.009304 1.689936 0.175978 -0.035255 533678.000000 0 0 1
33.336581 -0.988238 -4.183503 33.612586 -0.029636 1.695582 0.121581 -0.034531 757664.000000 0 0 1
33.383951 -2.142138 -3.475003 33.632612 -0.064079 1.674303 0.134001 -0.029208 -173656.000000 0 0 1
34.640711 -3.022838 -3.621003 34.960378 -0.087042 1.674557 0.113492 -0.027046 127395.000000 0 0 1
34.481601 -4.256138 -3.006303 34.873104 -0.122811 1.657110 0.091703 -0.032474 124262.000000 0 0 1
35.783721 -4.773038 -2.822903 36.210846 -0.132603 1.648833 0.125109 -0.031800 279952.000000 0 0 1
35.710041 -6.238638 -2.488503 36.336212 -0.172957 1.639335 0.126023 -0.036993 -193205.000000 0 0 1
35.070481 -6.446738 -1.246303 35.679859 -0.181793 1.605734 0.129372 -0.040758 -77718.500000 0 0 1
35.067141 -7.720538 -0.766803 35.915165 -0.216707 1.592148 0.165042 -0.045066 -54549.300000 0 0 1
34.366681 -7.939738 0.585997 35.276785 -0.227047 1.554184 0.167713 -0.032583 -71700.800000 0 0 1
32.967271 -7.785938 0.502597 33.877934 -0.231922 1.555960 0.144280 -0.028736 -6513.950000 0 0 1
32.301011 -7.803038 1.754297 33.276422 -0.237031 1.518053 0.178694 -0.046415 -436467.000000 0 0 1
31.739881 -9.177738 2.181297 33.112067 -0.281478 1.504872 0.163168 -0.035447 -195241.000000 0 0 1
30.607191 -9.764038 1.560797 32.164774 -0.308806 1.522252 0.151131 -0.038638 -631088.000000 0 0 1
29.437941 -9.205238 2.024297 30.909975 -0.303067 1.505259 0.146226 -0.041758 -1689760.000000 0 0 1
28.227941 -10.174738 1.822697 30.061007 -0.345953 1.510126 0.135927 -0.042306 -3222.240000 0 0 1
26.925241 -9.793238 2.226097 28.737286 -0.348845 1.493255 0.141836 -0.048745 812685.000000 0 0 1
26.345541 -8.670038 1.559697 27.779304 -0.317926 1.514621 0.166744 -0.053515 -378034.000000 0 0 1
25.729941 -8.905238 0.133497 27.227761 -0.333200 1.565893 0.138558 -0.043557 387625.000000 0 0 1
26.812941 -9.239138 -0.753603 28.370114 -0.331836 1.597363 0.140956 -0.053142 1128030.000000 0 0 1
26.314941 -9.613238 -2.014203 28.088209 -0.350253 1.642568 0.138272 -0.049761 -323304.000000 0 0 1
25.539641 -10.916138 -2.239403 27.864857 -0.403918 1.651250 0.117124 -0.030759 111000.000000 0 0 1
24.175341 -10.828738 -1.835403 26.553293 -0.421127 1.639973 0.106072 -0.019949 4230.760000 0 0 1
23.640941 -12.070938 -1.907303 26.612768 -0.472087 1.642527 0.093322 -0.016516 186780.000000 0 0 1
22.102341 -12.110338 -1.654703 25.256916 -0.501246 1.636358 0.108095 -0.022294 576893.000000 0 0 1
21.264241 -11.695938 -2.715703 24.420032 -0.502865 1.682235 0.119137 -0.019267 377188.000000 0 1 0
19.887741 -11.783838 -2.399603 23.240894 -0.534900 1.674230 0.139332 -0.029719 -122012.000000 0 1 0
19.043041 -11.246738 -3.531803 22.396432 -0.533476 1.729152 0.137102 -0.022816 -430895.000000 0 1 0
18.983141 -12.144138 -4.626303 23.005269 -0.569124 1.773275 0.126236 -0.020420 571599.000000 0 1 0
18.073441 -11.710038 -5.637803 22.261156 -0.574907 1.826842 0.116578 -0.020420 79113.000000 0 1 0
18.096841 -12.630838 -6.894603 23.120754 -0.609354 1.873602 0.120388 -0.022133 -205592.000000 0 1 0
17.375241 -13.817238 -6.770003 23.208791 -0.671823 1.866800 0.110854 -0.027675 426880.000000 0 1 0
17.687741 -14.490738 -7.978203 24.217543 -0.686371 1.906506 0.115713 -0.029509 -61714.300000 0 1 0
16.754641 -15.685138 -8.364103 24.427439 -0.752441 1.920273 0.105465 -0.032211 43075.300000 0 1 0
15.556941 -15.249938 -8.970503 23.559477 -0.775433 1.961414 0.117435 -0.023716 107541.000000 0 1 0
15.022441 -16.223038 -9.827303 24.195797 -0.823804 1.989041 0.107173 -0.023525 45897.300000 0 1 0
14.417141 -15.620938 -11.166003 24.011399 -0.825452 2.054464 0.110209 -0.041982 -490405.000000 0 1 0
13.236241 -14.890638 -11.073403 22.793627 -0.844150 2.078088 0.088593 -0.039482 -229867.000000 0 1 0
13.528941 -13.539438 -10.779303 21.966839 -0.785786 2.083698 0.089308 -0.031367 -146914.000000 0 1 0
13.651041 -12.566038 -11.981303 22.086372 -0.744036 2.144177 0.100870 -0.020517 -441015.000000 0 1 0
14.756841 -12.745738 -12.809703 23.330381 -0.712404 2.152032 0.120806 -0.022013 -259970.000000 0 1 0
14.665941 -12.014838 -14.000803 23.568382 -0.686359 2.206881 0.140047 -0.023189 738215.000000 0 1 0
16.064541 -11.679438 -14.651903 24.681106 -0.628639 2.206382 0.149082 -0.033753 427482.000000 0 1 0
16.851541 -12.717738 -15.075603 25.942033 -0.646498 2.190909 0.144250 -0.030241 198933.000000 0 0 1
17.991041 -12.210738 -15.788503 26.871109 -0.596295 2.198842 0.132388 -0.024491 101513.000000 0 0 1
19.081441 -13.242138 -16.030503 28.221138 -0.606674 2.174909 0.112517 -0.019325 -229150.000000 0 0 1
19.900041 -13.455238 -14.882903 28.258731 -0.594533 2.125470 0.099700 -0.030643 663985.000000 0 0 1
21.047241 -14.267838 -15.144003 29.595580 -0.595736 2.107956 0.076906 -0.017539 314836.000000 0 0 1
22.146441 -14.111638 -14.073603 29.793782 -0.567322 2.062771 0.063374 -0.014914 -375398.000000 0 0 1
22.921841 -12.976938 -14.265803 29.955381 -0.515149 2.067164 0.079067 -0.022472 92101.600000 0 0 1
23.885441 -12.867538 -13.201903 30.172472 -0.494141 2.023666 0.063687 -0.016654 435196.000000 0 0 1
24.529141 -11.467938 -13.021503 30.045830 -0.437330 2.019045 0.076739 -0.019464 -173562.000000 0 0 1
23.634841 -10.415238 -12.603303 28.738931 -0.415071 2.024775 0.069474 -0.011778 618276.000000 0 0 1
24.193541 -9.087638 -12.595403 28.749900 -0.359316 2.024283 0.082946 -0.020615 -4777.240000 0 0 1
25.404441 -8.727038 -11.725703 29.309366 -0.330894 1.982386 0.088961 -0.013109 655786.000000 0 0 1
26.557541 -9.560838 -11.916603 30.638506 -0.345560 1.970279 0.082719 -0.011563 1404530.000000 0 0 1
27.734641 -9.100238 -11.218703 31.271136 -0.317050 1.937731 0.104033 -0.016987 1025920.000000 0 0 1
29.021441 -9.950438 -11.426403 32.738631 -0.330304 1.927320 0.138536 -0.021366 156596.000000 0 0 1
29.894741 -9.585438 -12.481403 33.784043 -0.310283 1.949210 0.127822 -0.023409 -253724.000000 0 0 1
30.849891 -10.591538 -12.603703 34.967839 -0.330716 1.939533 0.124981 -0.024826 -3379.550000 0 0 1
31.887611 -10.160738 -13.708803 36.166166 -0.308471 1.959566 0.103269 -0.026407 219361.000000 0 0 1
31.271671 -10.154438 -15.005603 36.141363 -0.313976 1.998950 0.088237 -0.014770 437039.000000 0 0 1
32.110821 -9.734138 -16.085603 37.210279 -0.294337 2.017826 0.065231 -0.020549 -133982.000000 0 0 1
31.779401 -10.351738 -17.481803 37.718725 -0.314899 2.052713 0.031411 -0.008315 462980.000000 0 0 1
30.581251 -10.014738 -18.200003 36.969555 -0.316473 2.085523 0.048921 -0.005173 707235.000000 0 0 1
30.370901 -8.679538 -18.632303 36.672724 -0.278365 2.103739 0.033801 -0.010486 -758343.000000 0 0 1
28.923841 -8.453238 -19.065203 35.658488 -0.284339 2.134903 0.015279 -0.014523 -462627.000000 0 0 1
28.624441 -8.909138 -20.329303 36.221705 -0.301739 2.166687 0.025802 -0.012033 594517.000000 0 0 1
27.227541 -8.971438 -20.592603 35.297039 -0.318295 2.193716 0.079991 -0.011865 430465.000000 0 0 1
26.643341 -9.470238 -21.904303 35.768023 -0.341517 2.229888 0.098377 -0.017032 -27448.100000 0 0 1
26.872641 -10.859638 -22.065903 36.427663 -0.384049 2.221499 0.101031 -0.019156 420212.000000 0 0 1
25.901941 -11.377238 -22.972403 36.442878 -0.413872 2.252823 0.116389 -0.022882 -260462.000000 0 0 1
26.298641 -12.847138 -23.504103 37.538118 -0.454413 2.247389 0.116389 -0.013269 534206.000000 0 0 1
27.544141 -12.935038 -24.146303 38.846349 -0.439042 2.241561 0.108895 -0.012855 -970.638000 0 0 1
28.753341 -12.728438 -23.458303 39.230852 -0.416747 2.211744 0.080336 -0.010404 -371248.000000 0 0 1
29.935851 -13.509938 -24.065003 40.716065 -0.423931 2.203149 0.073375 -0.005109 -83855.900000 0 0 1
30.488201 -12.994238 -25.218773 41.645733 -0.402891 2.221259 0.071120 -0.012784 1464060.000000 0 0 1
31.876541 -13.389338 -25.455393 42.934430 -0.397660 2.205439 0.036291 -0.009964 1504680.000000 0 0 1
32.377131 -12.704638 -26.771393 43.890704 -0.373934 2.226801 0.056673 -0.019030 -26162.000000 0 0 1
32.010981 -13.365738 -27.964143 44.557145 -0.395532 2.249265 0.058970 -0.021952 571865.000000 0 0 1
33.007161 -13.171038 -28.983103 45.858142 -0.379675 2.254949 0.046655 -0.027115 421536.000000 0 0 1
32.679431 -13.881138 -30.309453 46.682910 -0.401673 2.277410 0.061935 -0.029192 -122468.000000 0 0 1
33.128861 -15.211338 -30.321783 47.416418 -0.430442 2.264616 0.070807 -0.028063 -154047.000000 0 0 1
33.014151 -15.951938 -31.526363 48.356076 -0.450105 2.280966 0.052561 -0.025146 674123.000000 0 0 1
31.566151 -16.384238 -31.949193 47.808117 -0.478767 2.302690 0.055419 -0.020744 597069.000000 0 0 1
31.008891 -15.623738 -32.998323 47.901376 -0.466721 2.330740 0.058799 -0.023704 984195.000000 0 0 1
29.811941 -16.304538 -33.509563 47.722957 -0.500470 2.349235 0.050431 -0.021953 1136790.000000 0 0 1
29.038141 -15.419538 33.293340 46.791263 -0.488147 0.779124 0.066607 -0.022284 -362384.000000 0 0 1
28.337641 -14.347238 33.892936 46.449933 -0.468672 0.752963 0.068376 -0.021437 4764.620000 0 0 1
29.106441 -13.235438 -33.557443 46.351523 -0.426777 2.380347 0.071272 -0.028936 -885174.000000 0 0 1
28.280741 -12.073938 -33.042413 45.137361 -0.403505 2.392110 0.081665 -0.018423 73844.500000 0 0 1
27.577141 -11.356938 33.771281 45.055279 -0.390658 0.723411 0.079735 -0.029869 -74641.100000 0 0 1
26.905341 -10.294738 -33.487353 44.173315 -0.365441 2.431176 0.052840 -0.020349 -134922.000000 0 0 1
21.106474 -29.251892 9.387897 37.273168 -0.945758 1.316187 0.045744 -0.025437 10734.100000 0 0 1
21.720274 -29.050892 8.093497 37.164894 -0.928793 1.351265 0.053441 -0.027510 724859.000000 0 0 1
22.833174 -29.913692 7.875797 38.447509 -0.918836 1.364491 0.077234 -0.028705 410587.000000 0 0 1
23.403074 -29.807692 6.436097 38.439898 -0.905185 1.402571 0.081011 -0.025177 29304.800000 0 0 1
23.755074 -28.487492 6.052197 37.582840 -0.875737 1.409056 0.073592 -0.018950 -320718.000000 0 0 1
24.516074 -28.535292 4.913397 37.939982 -0.861015 1.440927 0.090395 -0.015765 -288579.000000 0 0 1
24.859674 -27.103192 4.316997 37.030027 -0.828547 1.453950 0.085908 -0.022781 -108891.000000 0 0 1
25.689374 -26.292092 5.102697 37.111394 -0.796992 1.432863 0.074375 -0.021041 75377.200000 0 0 1
25.457074 -24.949892 4.844397 35.972600 -0.775337 1.435717 0.069060 -0.009842 -15347.900000 0 0 1
26.300374 -24.027492 5.755897 36.085460 -0.740267 1.410605 0.062232 -0.002447 -326003.000000 0 0 1
27.559874 -23.692592 5.259997 36.722652 -0.710085 1.427066 0.086653 -0.015545 52725.500000 0 0 1
28.447674 -23.054392 6.200397 37.137852 -0.681059 1.403055 0.083400 -0.009664 273172.000000 0 0 1
28.229674 -21.534792 6.600597 36.114120 -0.651670 1.386993 0.070995 -0.005202 -240460.000000 0 0 1
28.428374 -20.615292 5.524297 35.548285 -0.627417 1.414761 0.086378 -0.010077 71298.500000 0 0 1
27.927074 -19.365592 5.851597 34.484617 -0.606306 1.400284 0.095572 -0.020886 -227357.000000 0 0 1
27.831474 -18.450792 4.581297 33.704762 -0.585423 1.434450 0.097004 -0.019897 -121196.000000 0 0 1
29.040274 -17.874892 4.173597 34.355032 -0.551754 1.449011 0.122643 -0.019826 36220.500000 0 0 1
28.740074 -17.047792 3.010797 33.551214 -0.535383 1.480938 0.115916 -0.018153 -168049.000000 0 0 1
29.786774 -15.981492 2.802997 33.919269 -0.492443 1.488065 0.122848 -0.033356 -350094.000000 0 0 1
29.823474 -15.156892 3.911597 33.681918 -0.470202 1.454400 0.121697 -0.035992 924630.000000 0 0 1
30.974874 -14.284892 3.869797 34.328943 -0.432110 1.457829 0.137689 -0.038763 870321.000000 0 0 1
30.639674 -13.125792 4.771897 33.672646 -0.404740 1.428603 0.142306 -0.040222 173751.000000 0 0 1
30.499074 -13.527792 6.117497 33.920767 -0.417475 1.389457 0.130587 -0.040664 40324.400000 0 0 1
30.250474 -12.405092 6.936297 33.422892 -0.389165 1.361746 0.123361 -0.035832 -277543.000000 0 0 1
30.144974 -12.699892 8.449497 33.784623 -0.398727 1.318014 0.136319 -0.029104 -37574.200000 0 0 1
28.864074 -13.220392 8.799897 32.944677 -0.429505 1.300402 0.111041 -0.018386 368558.000000 0 0 1
28.493074 -13.447392 10.184597 33.112138 -0.440959 1.258149 0.125623 -0.020245 -70355.600000 0 0 1
29.239074 -14.534792 11.008697 34.458309 -0.461326 1.245617 0.123159 -0.022727 -872323.000000 0 0 1
30.582274 -14.260792 11.220897 35.560571 -0.436333 1.249767 0.104889 -0.021219 -605653.000000 0 0 1
31.082174 -15.354792 12.023397 36.693777 -0.458841 1.236961 0.111680 -0.024533 -91516.700000 0 0 1
31.912074 -15.085692 13.274297 37.711610 -0.441592 1.211095 0.107505 -0.021755 -417239.000000 0 0 1
33.240374 -14.768492 12.965197 38.615116 -0.418099 1.228390 0.077172 -0.017238 -480606.000000 0 0 1
34.016874 -14.803092 14.125197 39.696353 -0.410452 1.206993 0.067300 -0.014888 1193000.000000 0 0 1
35.565774 -14.459992 14.005897 40.867846 -0.386158 1.220994 0.073466 -0.009823 1238500.000000 0 0 1
35.861974 -13.163992 13.686197 40.579353 -0.351804 1.226781 0.080551 -0.017810 747146.000000 0 0 1
37.247174 -13.169892 13.317097 41.691044 -0.339861 1.245675 0.084897 -0.019087 524964.000000 0 0 1
-37.051092 -11.777092 12.969197 40.983941 0.307761 1.248816 0.100382 -0.024723 -974478.000000 0 0 1
-35.734892 -11.916992 12.553197 39.706170 0.321886 1.249125 0.121143 -0.027057 -475721.000000 0 0 1
-35.045392 -10.677092 12.752297 38.791763 0.295731 1.235830 0.124719 -0.029142 164620.000000 0 0 1
-33.855192 -10.481192 11.770597 37.344027 0.300231 1.250136 0.142229 -0.021755 593270.000000 0 0 1
-32.741992 -11.362492 11.916697 36.649037 0.334028 1.239618 0.128159 -0.024340 612574.000000 0 0 1
-32.957592 -12.674592 11.405097 37.106932 0.367137 1.258381 0.116022 -0.019249 -605110.000000 0 0 1
-31.960292 -13.783192 11.831997 36.761839 0.407161 1.243108 0.081459 -0.015183 -281963.000000 0 0 1
-30.696692 -13.650592 11.253197 35.429649 0.418432 1.247577 0.101311 -0.017081 -712089.000000 0 0 1
-29.996492 -14.843492 11.387897 35.352553 0.459512 1.242824 0.099799 -0.011288 -515237.000000 0 0 1
-28.613092 -14.704992 10.748597 33.918699 0.474726 1.248345 0.107399 -0.003442 -515986.000000 0 0 1
-28.633292 -14.764192 9.293197 33.529245 0.476073 1.289952 0.108102 -0.003723 590069.000000 0 0 1
-27.315692 -14.703392 8.742597 32.229951 0.493798 1.296098 0.101393 0.000691 429849.000000 0 0 1
-27.245592 -14.607392 7.177797 31.736713 0.492138 1.342655 0.139643 -0.005291 -41123.300000 0 0 1
-27.680192 -15.833692 6.623497 32.569457 0.519594 1.366003 0.142218 0.004945 270881.000000 0 0 1
-27.578492 -15.747392 5.236797 32.186606 0.518825 1.407369 0.157317 -0.000915 -204798.000000 0 0 1
-28.117892 -17.006892 4.466297 33.163203 0.543972 1.435710 0.133771 -0.001015 1037190.000000 0 0 1
-29.553792 -17.133492 4.502797 34.456615 0.525389 1.439741 0.085949 -0.010056 977956.000000 0 0 1
-30.050492 -18.004692 3.528497 35.208682 0.539793 1.470411 0.092985 -0.014660 501917.000000 0 0 1
-31.599292 -18.193092 3.648497 36.644445 0.522393 1.471066 0.110481 -0.029299 130227.000000 0 0 1
-32.344192 -17.238692 3.008297 36.774572 0.489679 1.488901 0.130785 -0.030969 -1336440.000000 0 0 1
-33.662792 -17.425292 3.357697 38.053889 0.477662 1.482446 0.140615 -0.034125 -1008580.000000 0 0 1
-34.690292 -16.379892 2.850397 38.468714 0.441141 1.496632 0.146486 -0.042989 186647.000000 0 0 1
-35.009192 -16.603592 1.503097 38.776051 0.442847 1.532023 0.126909 -0.040036 195317.000000 0 0 1
-35.894592 -15.612392 0.957097 39.154624 0.410269 1.546350 0.172381 -0.043734 186094.000000 0 0 1
-36.512192 -16.056792 -0.364603 39.888516 0.414310 1.579937 0.149709 -0.045619 -340976.000000 0 0 1
-35.558492 -16.245092 -1.397203 39.118558 0.428540 1.606521 0.150346 -0.038675 611709.000000 0 0 1
-36.000092 -17.271692 -2.265803 39.993147 0.447331 1.627481 0.128704 -0.029201 498908.000000 0 0 1
-34.711292 -17.723892 -3.000503 39.089809 0.472099 1.647631 0.111243 -0.030796 475449.000000 0 0 1
-35.017192 -18.805892 -3.840803 39.932657 0.492844 1.667127 0.098122 -0.032120 264459.000000 0 0 1
-33.834892 -19.287892 -4.458303 39.200755 0.518113 1.684773 0.104597 -0.025826 113278.000000 0 0 1
-34.066892 -20.353492 -5.533903 40.067965 0.538547 1.709352 0.113892 -0.024132 -196692.000000 0 0 1
-34.566292 -21.546792 -4.984403 41.035802 0.557410 1.692562 0.101310 -0.025375 -146696.000000 0 0 1
-35.043492 -22.417492 -5.967503 42.026199 0.569104 1.713273 0.104599 -0.025092 85225.500000 0 0 1
-35.708992 -23.692092 -5.366103 43.188452 0.585791 1.695367 0.075465 -0.022002 535313.000000 0 0 1
-34.778392 -24.556592 -4.659103 42.828378 0.614800 1.679797 0.085389 -0.020817 409154.000000 0 0 1
-35.385492 -25.832192 -4.429603 44.034720 0.630592 1.671560 0.061814 -0.010074 413828.000000 0 0 1
-34.413392 -26.893292 -3.824003 43.842373 0.663344 1.658129 0.064440 -0.014431 -48689.900000 0 0 1
-33.474792 -27.380792 -4.850303 43.517754 0.685592 1.682484 0.053184 -0.013226 740512.000000 0 0 1
-32.904392 -28.629892 -4.498103 43.847493 0.716044 1.673562 0.045502 -0.014031 293272.000000 0 0 1
-31.757992 -28.527392 -3.419603 42.826112 0.731861 1.650730 0.065125 -0.023989 -256693.000000 0 0 1
-32.261792 -28.030492 -2.222003 42.795666 0.715333 1.622741 0.056355 -0.023726 -154166.000000 0 0 1
-31.309692 -28.238392 -1.202803 42.179975 0.733867 1.599316 0.076138 -0.026828 33165.300000 0 0 1
-31.933692 -28.193192 0.213597 42.598854 0.723268 1.565782 0.063126 -0.021018 9144.300000 0 0 1
-32.629692 -29.387292 0.529397 43.915715 0.733163 1.558741 0.050343 -0.015947 -44911.000000 0 0 1
-33.262292 -29.126892 1.772097 44.248121 0.719211 1.530737 0.071810 -0.016392 -460605.000000 0 0 1
-33.893492 -30.360892 2.395597 45.566341 0.730475 1.518198 0.055480 -0.013557 -268416.000000 0 0 1
-34.777892 -30.140592 3.492397 46.153590 0.714087 1.495055 0.059437 -0.011488 374038.000000 0 0 1
-35.451992 -31.267092 3.955097 47.435404 0.722756 1.487321 0.055903 -0.002592 1490490.000000 0 0 1
-36.776892 -31.725492 3.130497 48.670799 0.711791 1.506432 0.033572 -0.004046 1221800.000000 0 0 1
-37.409692 -32.811992 3.774697 49.903509 0.720017 1.495084 0.044568 -0.001836 -199944.000000 0 0 1
36.650474 -33.478392 2.907997 49.724405 -0.740197 1.512281 0.036527 0.001403 -646215.000000 0 0 1
35.620374 33.345762 3.615697 48.926722 0.752429 1.496829 0.043222 0.002951 646813.000000 0 0 1
34.611774 -33.807492 4.434497 48.585864 -0.773643 1.479398 0.048722 0.000068 943762.000000 0 0 1
33.926674 -32.569392 4.109897 47.208853 -0.764990 1.483628 0.049312 -0.009521 -198790.000000 0 0 1
32.955974 -32.557592 2.906097 46.417006 -0.779317 1.508147 0.059235 -0.009116 -208697.000000 0 0 1
33.586074 -32.785992 1.606097 46.963019 -0.773344 1.536590 0.063263 -0.001833 -24061.700000 0 0 1
32.795874 -32.445092 0.488297 46.135580 -0.780021 1.560212 0.069736 -0.004027 -482856.000000 0 0 1
33.348274 -33.139192 -0.769703 47.020271 -0.782253 1.587167 0.081142 -0.006351 746869.000000 0 0 1
34.588574 -32.811992 -1.364003 47.695459 -0.759046 1.599398 0.053144 -0.002037 -73755.700000 0 0 1
35.770974 -33.083392 -0.645403 48.728739 -0.746385 1.584042 0.048637 0.002977 -799283.000000 0 0 1
36.981574 -32.848692 -1.533703 49.487631 -0.726282 1.601793 0.041999 0.003087 -1041700.000000 0 0 1
37.290874 33.717162 -2.260403 50.324604 0.735112 1.615728 0.046921 -0.005231 384433.000000 0 0 1
-36.888692 -33.733892 -3.413903 50.103950 0.740757 1.638986 0.049733 -0.003559 -555998.000000 0 0 1
-36.084892 32.909562 -4.079203 49.008148 -0.739408 1.654128 0.051638 -0.008577 483533.000000 0 0 1
-34.784792 32.637262 -3.550103 47.830700 -0.753557 1.645087 0.054701 -0.008131 515954.000000 0 0 1
-34.173092 31.598662 -4.312203 46.742601 -0.746276 1.663182 0.072341 -0.018844 -319196.000000 0 0 1
-32.892192 31.050262 -3.697103 45.383738 -0.756600 1.652350 0.079130 -0.021653 -532521.000000 0 0 1
-31.783892 31.969362 -3.767803 45.237730 -0.788307 1.654182 0.054211 -0.026376 288080.000000 0 0 1
-30.572692 31.375462 -3.350603 43.935585 -0.798356 1.647132 0.064931 -0.027217 98335.600000 0 0 1
-30.382292 31.039162 -1.850103 43.473396 -0.796092 1.613366 0.053548 -0.018856 -627583.000000 0 0 1
-31.251292 30.017562 -1.381403 43.354418 -0.765265 1.602665 0.037804 -0.013496 -31212.600000 0 0 1
-31.173592 30.023362 0.016597 43.280427 -0.766605 1.570413 0.034463 -0.004745 670647.000000 0 0 1
-32.438292 29.344062 0.677697 43.746726 -0.735357 1.555304 0.039895 -0.007329 461800.000000 0 0 1
-32.574292 27.952962 0.321397 42.925003 -0.709195 1.563309 0.046218 -0.022153 -254086.000000 0 0 1
-33.607692 27.729062 -0.596803 43.574465 -0.689848 1.584493 0.060225 -0.024641 -355552.000000 0 0 1
-33.793592 26.236962 -0.922403 42.792942 -0.660177 1.592353 0.075988 -0.015011 -103332.000000 0 0 1
-34.312192 25.505462 0.167597 42.753751 -0.639222 1.566876 0.094447 -0.025384 129519.000000 0 0 1
-34.666192 24.158762 -0.281503 42.254821 -0.608640 1.577458 0.095397 -0.019234 -328852.000000 0 0 1
-34.517692 23.060462 0.864597 41.521121 -0.588978 1.549972 0.100967 -0.029788 -157061.000000 0 0 1
-33.209392 22.748862 1.278797 40.274182 -0.600597 1.539039 0.106131 -0.033554 -43004.300000 0 0 1
-32.789392 23.618762 2.312997 40.476414 -0.624232 1.513621 0.100143 -0.038692 455141.000000 0 0 1
-31.224792 23.582862 2.579297 39.214688 -0.646860 1.504975 0.097571 -0.044545 790467.000000 0 0 1
-30.457192 24.279462 1.667297 38.986058 -0.673011 1.528017 0.091952 -0.040385 -293310.000000 0 0 1
-30.456992 25.709462 1.865197 39.900924 -0.701073 1.524034 0.048299 -0.034501 -582800.000000 0 0 1
-29.811092 26.429962 0.699197 39.846367 -0.725352 1.553248 0.031421 -0.024149 1640930.000000 0 0 1
-28.359492 26.207462 0.615297 38.619560 -0.745980 1.554863 0.035366 -0.022218 1751500.000000 0 0 1
-27.851092 27.084962 -0.419403 38.851697 -0.771453 1.581592 0.032138 -0.008162 -206968.000000 0 0 1
-26.702292 26.409962 -1.155203 37.574366 -0.779894 1.601546 0.030458 -0.012539 -1035220.000000 0 0 1
-27.085792 25.412162 -2.071903 37.198265 -0.753529 1.626524 0.057471 -0.020237 27044.400000 0 0 1
-26.064792 24.744162 -2.828503 36.050622 -0.759412 1.649336 0.061177 -0.007966 159938.000000 0 0 1
-25.157992 23.804562 -2.074203 34.697032 -0.757763 1.630612 0.062329 -0.011120 -549118.000000 0 0 1
-25.678292 22.557562 -1.864303 34.230015 -0.720791 1.625287 0.068674 -0.013264 -159587.000000 0 0 1
-24.770292 21.706962 -1.161103 32.956149 -0.719583 1.606035 0.077631 -0.034870 -436249.000000 0 0 1
-25.410992 20.307962 -0.872403 32.540635 -0.674241 1.597609 0.114549 -0.048150 -84605.700000 0 0 1
-26.386292 20.263762 0.168397 33.269879 -0.654900 1.565735 0.102273 -0.044252 5375.720000 0 0 1
-27.633392 20.855162 -0.023003 34.619975 -0.646508 1.571461 0.086188 -0.045349 -659866.000000 0 0 1
-28.542692 20.149362 -1.058903 34.954304 -0.614700 1.601095 0.102514 -0.045643 -855166.000000 0 0 1
-29.004592 18.882662 -0.621403 34.615133 -0.577094 1.588749 0.122820 -0.049271 -321784.000000 0 0 1
-29.902892 18.327462 -1.517303 35.105285 -0.549850 1.614031 0.142501 -0.044803 -444671.000000 0 0 1
-30.234292 16.859062 -1.271203 34.640386 -0.508670 1.607502 0.159137 -0.042339 33189.400000 0 0 1
-31.091792 16.556462 -0.182403 35.225690 -0.489310 1.575974 0.151628 -0.050734 363824.000000 0 0 1
-31.334492 15.172262 -0.106103 34.814640 -0.450931 1.573844 0.154520 -0.056931 300172.000000 0 0 1
-30.095092 14.407162 0.461697 33.369058 -0.446480 1.556960 0.197024 -0.055880 192210.000000 0 0 1
-29.807692 14.515762 1.870897 33.207019 -0.453178 1.514426 0.200187 -0.052817 595942.000000 0 0 1
-28.420592 14.469562 2.203197 31.967990 -0.470919 1.501823 0.241828 -0.054089 820578.000000 0 0 1
-27.691192 13.085462 2.221197 30.707738 -0.441447 1.498400 0.235766 -0.057085 -104905.000000 0 0 1
-27.501992 12.479562 0.959397 30.216212 -0.425984 1.539040 0.223596 -0.063228 258760.000000 0 0 1
-26.875692 11.223162 1.032097 29.143222 -0.395582 1.535374 0.237125 -0.050064 -106726.000000 0 0 1
-26.764692 10.647762 -0.331303 28.806828 -0.378633 1.582297 0.217801 -0.043210 623069.000000 0 0 1
-28.042192 10.192862 -0.822003 29.848529 -0.348636 1.598339 0.228727 -0.046394 1099460.000000 0 0 1
-27.925492 9.601362 -2.093003 29.604052 -0.331159 1.641555 0.228603 -0.042280 -309323.000000 0 0 1
-29.226492 8.963962 -2.593203 30.680045 -0.297598 1.655421 0.223334 -0.050254 -230319.000000 0 0 1
-29.053592 8.088862 -3.697703 30.384435 -0.271535 1.692796 0.210056 -0.044074 818194.000000 0 0 1
-30.327892 7.878662 -4.330003 31.632314 -0.254165 1.708113 0.203160 -0.037945 775677.000000 0 0 1
-11.508826 18.585362 -20.158303 29.735936 -1.016349 2.315713 0.135640 -0.017229 488948.000000 0 0 1
-11.831526 17.754062 -21.285303 30.137283 -0.982970 2.355023 0.131960 -0.017805 -903919.000000 0 0 1
-10.816326 16.852762 -21.422603 29.324672 -1.000198 2.389897 0.118361 -0.030887 -661790.000000 0 0 1
-11.181626 15.776262 -22.438103 29.620730 -0.954214 2.430292 0.116820 -0.024618 384789.000000 0 0 1
-10.398126 14.563262 -22.288503 28.582984 -0.950738 2.465114 0.125513 -0.032180 153745.000000 0 0 1
-10.390226 13.683462 -23.363603 29.000894 -0.921352 2.507512 0.112913 -0.032209 -154288.000000 0 0 1
-9.573726 12.404562 -23.137903 27.944444 -0.913494 2.546322 0.087529 -0.023362 -838325.000000 0 0 1
-8.202726 12.601662 -23.089703 27.553965 -0.993772 2.564369 0.077476 -0.020145 -868329.000000 0 0 1
-7.587626 11.419162 -22.588003 26.423232 -0.984320 2.596066 0.059784 -0.015259 745452.000000 0 0 1
-6.026626 11.399062 -22.597603 26.017503 -1.084457 2.623073 0.046164 -0.008807 558159.000000 0 0 1
-5.401026 11.035662 -23.788703 26.774228 -1.115652 2.664846 0.033719 -0.015623 -480819.000000 0 0 1
-4.015026 10.924762 -23.547703 26.267188 -1.218603 2.682530 0.035148 -0.015455 151599.000000 0 0 1
-3.186126 10.843662 -24.874803 27.322010 -1.285015 2.715121 0.059697 -0.025205 40532.000000 0 0 1
-3.259726 9.528862 -25.487553 27.405116 -1.241186 2.765288 0.056347 -0.027804 -71222.400000 0 0 1
-2.716426 9.536162 -26.792893 28.568802 -1.293291 2.787142 0.060088 -0.027184 -172124.000000 0 0 1
-2.505726 8.153862 -27.434043 28.729616 -1.272651 2.840135 0.070649 -0.005271 -361596.000000 0 0 1
-1.500126 7.296962 -26.957443 27.967834 -1.368039 2.871976 0.066023 -0.020060 -285121.000000 0 0 1
-1.673626 6.799462 -25.649483 26.588149 -1.329453 2.875083 0.079872 -0.030031 -372950.000000 0 0 1
-0.507726 5.898762 -25.222423 25.907987 -1.484935 2.911032 0.017830 -0.014236 454941.000000 0 0 1
0.537874 6.629062 -24.547703 25.432725 1.489835 2.877009 0.051923 -0.002393 407935.000000 0 0 1
1.284774 5.774662 -23.710403 24.437278 1.351877 2.897080 0.046763 0.009041 -23226.300000 0 1 0
1.493174 6.337962 -22.246503 23.179867 1.339423 2.856850 0.047961 0.004887 211878.000000 0 1 0
2.407274 7.413662 -22.134403 23.466767 1.256829 2.803001 0.053597 -0.005847 166270.000000 0 1 0
2.309874 7.946262 -20.853803 22.435679 1.287905 2.763832 0.059067 -0.008791 189058.000000 0 1 0
3.035474 9.323362 -20.813703 23.007595 1.256042 2.701342 0.061891 -0.017543 202578.000000 0 1 0
2.789174 9.996562 -19.565403 22.147590 1.298703 2.653886 0.059951 -0.021993 -25335.300000 0 1 0
3.308674 11.283662 -19.663903 22.911513 1.285565 2.602655 0.072127 -0.022664 224868.000000 0 1 0
4.549374 11.549662 -18.762203 22.496928 1.195562 2.557095 0.072821 -0.025524 527718.000000 0 1 0
5.721374 10.869462 -19.198603 22.791790 1.086275 2.572420 0.082493 -0.026662 -28689.700000 0 1 0
6.614974 10.717862 -18.113503 22.061945 1.017832 2.534008 0.079765 -0.027322 508319.000000 0 1 0
7.740574 9.651962 -18.383203 22.158949 0.894856 2.549198 0.119232 -0.047548 255980.000000 0 1 0
7.284374 8.317662 -18.556203 21.600423 0.851529 2.604240 0.098057 -0.040000 -38825.100000 0 1 0
6.986974 8.061562 -19.942703 22.616763 0.856685 2.650390 0.089805 -0.027341 191673.000000 0 1 0
6.535474 6.593962 -20.262003 22.287699 0.789853 2.711942 0.089528 -0.023569 893127.000000 0 1 0
7.719474 5.762362 -20.312503 22.480945 0.641239 2.698764 0.094775 -0.020422 1061740.000000 0 1 0
7.521974 4.481562 -20.940803 22.697615 0.537323 2.745561 0.082441 -0.005811 -96949.900000 0 1 0
7.804474 4.446062 -22.459603 24.189069 0.517828 2.761155 0.099312 -0.012906 -615147.000000 0 1 0
6.799774 5.099462 -23.189403 24.697973 0.643466 2.790273 0.104189 -0.017279 -143590.000000 0 1 0
7.040174 5.042762 -24.563303 26.045141 0.621571 2.802645 0.103808 -0.016581 -578195.000000 0 0 1
5.887774 5.514862 -25.496543 26.742350 0.752706 2.835156 0.087815 -0.024635 -51971.200000 0 0 1
5.629574 6.929762 -25.605893 27.117807 0.888554 2.806095 0.082458 -0.033824 464225.000000 0 0 1
5.114574 7.521662 -24.383603 26.024880 0.973634 2.784549 0.098596 -0.030008 -1227720.000000 0 0 1
4.938074 9.031062 -24.383603 26.467050 1.070423 2.742159 0.103628 -0.038064 429004.000000 0 0 1
3.967074 9.563662 -25.309963 27.345850 1.177591 2.753283 0.102214 -0.041543 485900.000000 0 0 1
2.649174 9.244762 -24.903403 26.695753 1.291715 2.773069 0.091983 -0.016411 -1629550.000000 0 0 1
1.617574 9.775362 -25.819723 27.655602 1.406808 2.775174 0.088644 -0.009698 -863416.000000 0 0 1
1.426674 11.181262 -25.659583 28.026241 1.443887 2.727684 0.100783 -0.035883 -360069.000000 0 0 1
0.445374 11.660662 -26.515263 28.969442 1.532620 2.727008 0.108332 -0.039111 -254630.000000 0 0 1
0.276974 13.196862 -26.587413 29.683740 1.549812 2.680776 0.101701 -0.043769 70240.300000 0 0 1
-0.002926 13.934562 -25.436353 29.003104 -1.570586 2.640424 0.098038 -0.038763 51028.400000 0 0 1
-0.408526 15.270662 -25.704723 29.901384 -1.544050 2.605380 0.106089 -0.045328 -296209.000000 0 0 1
-1.039726 15.905662 -24.481803 29.213520 -1.505521 2.564459 0.108765 -0.036676 -152724.000000 0 0 1
-2.242926 15.281662 -24.098803 28.623630 -1.425064 2.571628 0.094357 -0.033875 -526795.000000 0 0 1
-2.571726 15.652562 -22.767503 27.748435 -1.407951 2.533076 0.088448 -0.038822 -369680.000000 0 0 1
-3.872026 14.963862 -22.255203 27.096195 -1.317592 2.534553 0.075894 -0.031183 652268.000000 0 0 1
-5.075526 15.459562 -22.843203 28.045872 -1.253574 2.522653 0.081921 -0.032995 -57032.100000 0 0 1
-5.288126 14.973462 -24.122403 28.880082 -1.231303 2.559403 0.083350 -0.034875 -1218240.000000 0 0 1
-6.739126 15.100262 -24.587603 29.630794 -1.151030 2.549544 0.061227 -0.031691 -245263.000000 0 0 1
-7.284826 16.438862 -24.544003 30.425531 -1.153656 2.509328 0.073636 -0.033519 825491.000000 0 0 1
-8.634826 16.354262 -25.062173 31.146984 -1.085011 2.505869 0.084717 -0.029806 975063.000000 0 0 1
-9.295826 17.705662 -25.424243 32.346483 -1.087334 2.475104 0.093888 -0.029810 -142743.000000 0 0 1
-9.781726 18.446062 -24.345803 32.072690 -1.083213 2.432698 0.098559 -0.034659 -574437.000000 0 0 1
-10.849926 19.248162 -24.721703 33.156828 -1.057506 2.412230 0.095247 -0.025736 -153480.000000 0 0 1
-11.462926 20.151062 -23.613603 33.091784 -1.053596 2.365390 0.094504 -0.028632 171594.000000 0 0 1
-10.745926 21.340962 -23.199703 33.303720 -1.104325 2.341458 0.106341 -0.030278 79780.100000 0 0 1
-11.101326 22.569362 -23.797803 34.625871 -1.113669 2.328540 0.100292 -0.035622 -278250.000000 0 0 1
-10.754126 22.872562 -25.249433 35.725889 -1.131291 2.355696 0.094452 -0.027112 -169317.000000 0 0 1
-11.415026 22.063462 -26.192833 36.099358 -1.093348 2.382668 0.093487 -0.032312 30063.000000 0 0 1
-11.398526 22.755162 -27.496883 37.467350 -1.106413 2.394826 0.098990 -0.028845 -113351.000000 0 0 1
-12.141226 22.023862 -28.658853 38.128594 -1.066974 2.421336 0.100863 -0.028073 -153913.000000 0 0 1
-11.505526 20.907262 -29.309263 37.795815 -1.067713 2.458245 0.101925 -0.027895 -26889.900000 0 0 1
-11.341726 19.781862 -28.463423 36.470855 -1.050211 2.466170 0.104308 -0.025262 -262210.000000 0 0 1
-10.161626 18.930162 -28.983743 36.078623 -1.078147 2.503695 0.083226 -0.026378 -1023590.000000 0 0 1
-8.884826 19.486962 -28.743063 35.844741 -1.143016 2.501226 0.076809 -0.026086 -302932.000000 0 0 1
-7.881426 18.679862 -29.333513 35.658226 -1.171537 2.536817 0.077295 -0.028254 244947.000000 0 0 1
-7.581826 17.300662 -28.685273 34.345915 -1.157766 2.559270 0.092151 -0.037631 -382203.000000 0 0 1
-8.624926 16.335262 -28.968093 34.356666 -1.085005 2.573926 0.069072 -0.030641 529053.000000 0 0 1
-8.387426 15.105062 -28.254213 33.118157 -1.063914 2.592759 0.061602 -0.028604 -302559.000000 0 0 1
-9.582426 14.152362 -28.371673 33.121957 -0.975612 2.599405 0.066853 -0.025935 -352375.000000 0 0 1
-10.456326 14.456162 -27.317643 32.627733 -0.944595 2.563035 0.083133 -0.024949 -616758.000000 0 0 1
-11.747526 13.957362 -27.570943 33.060085 -0.871157 2.557050 0.118690 -0.030049 44395.700000 0 0 1
-12.795526 14.409862 -26.541403 32.799629 -0.844668 2.513583 0.105904 -0.024037 -9254.490000 0 0 1
-13.067926 15.769062 -26.551443 33.532270 -0.878795 2.484576 0.091714 -0.026384 -440491.000000 0 0 1
-13.977726 16.073662 -25.513773 33.236908 -0.855030 2.445937 0.083193 -0.028735 429481.000000 0 0 1
-15.064326 17.092662 -25.886173 34.484590 -0.848391 2.419856 0.068541 -0.024532 144762.000000 0 0 1
-14.454726 18.324562 -26.187843 35.078936 -0.902912 2.413643 0.069673 -0.018166 300529.000000 0 0 1
-15.456226 19.243462 -26.592823 36.282006 -0.894111 2.393442 0.066918 -0.018162 -178965.000000 0 0 1
-14.930926 20.639662 -26.665623 36.877956 -0.944532 2.379044 0.069579 -0.021493 -9017.590000 0 0 1
-15.906026 21.599062 -27.056353 38.099440 -0.936042 2.360509 0.051813 -0.017009 316993.000000 0 0 1
-15.379526 22.920362 -27.121453 38.696847 -0.979801 2.347413 0.059403 -0.023652 -162328.000000 0 0 1
-15.150026 23.598262 -25.784323 38.095046 -1.000067 2.314260 0.043619 -0.026095 85321.400000 0 0 1
-14.745426 24.929362 -25.925343 38.871893 -1.036659 2.300895 0.066701 -0.026368 6939.800000 0 0 1
-14.495226 25.560862 -24.678303 38.373009 -1.054929 2.269357 0.074570 -0.025128 28323.400000 0 0 1
-13.898226 26.970862 -24.839503 39.212102 -1.094980 2.256820 0.090950 -0.033866 124980.000000 0 0 1
-14.885526 27.955962 -25.039103 40.374142 -1.081517 2.239764 0.093046 -0.035955 21613.100000 0 0 1
-15.529126 28.570362 -23.929303 40.373641 -1.072927 2.205199 0.095954 -0.035186 908926.000000 0 0 1
-16.910426 29.175962 -24.357003 41.598832 -1.045511 2.196319 0.082657 -0.034598 1558200.000000 0 0 1
-17.991026 28.308262 -24.752403 41.685923 -1.004654 2.206549 0.068848 -0.030199 707318.000000 0 0 1
-19.190526 28.990762 -25.080123 42.869023 -0.986064 2.195727 0.066194 -0.023437 123651.000000 0 0 1
-20.437026 28.123262 -25.275243 42.981714 -0.942378 2.199438 0.065691 -0.006036 -199516.000000 0 0 1
-20.746626 27.524962 -24.049903 42.029083 -0.924907 2.180007 0.064904 -0.012812 -559040.000000 0 0 1
-21.857926 26.692762 -24.242103 42.165768 -0.884654 2.183307 0.059155 -0.022267 -300364.000000 0 0 1
-22.365226 26.243062 -22.876203 41.379008 -0.865007 2.156572 0.057028 -0.022150 -267759.000000 0 0 1
-22.976826 27.240962 -22.104803 41.935985 -0.870108 2.125990 0.065235 -0.020810 -262426.000000 0 0 1
-23.316226 26.761562 -20.815303 41.147350 -0.854090 2.101189 0.057876 -0.023673 -770051.000000 0 0 1
-24.363126 27.693662 -20.226303 42.066663 -0.849290 2.072381 0.042987 -0.022411 -793723.000000 0 0 1
-25.672906 27.412762 -20.633503 42.852060 -0.818161 2.073168 0.075538 -0.031888 -884442.000000 0 0 1
-26.463356 28.516662 -20.364803 43.911666 -0.822727 2.053039 0.071820 -0.032591 -703473.000000 0 0 1
-27.944046 28.243962 -20.619703 44.763414 -0.790736 2.049510 0.069715 -0.030586 -422628.000000 0 0 1
-28.281736 27.865562 -21.957103 45.370260 -0.777986 2.075963 0.066166 -0.030266 -520789.000000 0 0 1
-29.667946 27.814562 -22.164903 46.315438 -0.753167 2.069815 0.077814 -0.032313 -300203.000000 0 0 1
-30.080216 27.281662 -23.497303 46.917286 -0.736649 2.095347 0.069613 -0.030962 -85054.200000 0 0 1
-30.093746 25.880662 -23.711303 46.234923 -0.710272 2.109291 0.074270 -0.017686 -101354.000000 0 0 1
-30.512446 25.556662 -25.046503 47.026371 -0.697240 2.132472 0.065324 -0.010009 50552.700000 0 0 1
-30.774066 24.108462 -25.386793 46.612770 -0.664538 2.146746 0.054336 -0.010446 -615857.000000 0 0 1
-29.626586 23.289162 -25.428663 45.461374 -0.666201 2.164394 0.082346 -0.016225 -259749.000000 0 0 1
-29.917436 22.060762 -25.978573 45.349933 -0.635381 2.180771 0.067845 -0.005913 -390969.000000 0 0 1
-28.793746 21.014962 -25.940723 44.086614 -0.630476 2.199879 0.085377 -0.007612 -189932.000000 0 0 1
-28.640836 20.399262 -24.656103 42.945905 -0.618896 2.182325 0.075567 -0.007750 -74489.400000 0 0 1
-27.831426 19.226162 -24.681503 41.873740 -0.604530 2.201145 0.099682 -0.015371 -128520.000000 0 0 1
-28.560146 17.861962 -24.722103 41.784135 -0.558898 2.203916 0.082734 -0.015934 78096.800000 0 0 1
-29.196286 17.575862 -25.975623 42.849352 -0.541881 2.222080 0.071443 -0.017929 271258.000000 0 0 1
-29.773376 16.273362 -25.945393 42.713459 -0.500209 2.223616 0.054990 -0.010875 406191.000000 0 0 1
-30.595236 15.867162 -27.236733 43.928065 -0.478429 2.239578 0.024699 -0.003402 196694.000000 0 0 1
-31.853406 16.452962 -27.393883 45.119444 -0.476777 2.223254 0.020095 0.001486 -535768.000000 0 0 1
-32.543106 15.859362 -28.461853 46.050517 -0.453464 2.237065 0.019098 0.006254 381641.000000 0 0 1
-33.856096 16.563462 -28.886043 47.486703 -0.454996 2.224710 0.021068 0.001669 424761.000000 0 0 1
-34.936037 16.480362 -27.951733 47.680482 -0.440777 2.197194 0.018010 0.002664 -352172.000000 0 0 1
-36.032886 17.041062 -28.614103 49.066623 -0.441759 2.193420 0.039569 0.001832 -105922.000000 0 0 1
-37.409146 16.708262 -27.987623 49.617711 -0.420053 2.170097 0.059356 -0.004638 137937.000000 0 0 1
37.154301 17.437062 -26.816313 49.026603 0.438799 2.149542 0.059570 -0.020664 -385624.000000 0 0 1
35.959971 16.969362 -26.253433 47.647891 0.440913 2.154344 0.057015 -0.018451 -173457.000000 0 0 1
35.415031 17.879562 -25.129203 46.961473 0.467526 2.135425 0.061179 -0.004819 -14245.000000 0 0 1
34.887691 19.066962 -25.647163 47.312546 0.500171 2.143706 0.063991 -0.020498 -93577.700000 0 0 1
34.266331 19.904362 -24.691303 46.690743 0.526236 2.128014 0.077612 -0.012791 -15472.600000 0 0 1
33.628221 21.159762 -25.361693 47.136061 0.561633 2.138922 0.095273 -0.024918 850288.000000 0 0 1
32.356151 21.039662 -26.027243 46.551104 0.576553 2.164110 0.100122 -0.029280 249318.000000 0 0 1
31.369031 21.707962 -25.290843 45.769842 0.605349 2.156236 0.092157 -0.020572 25928.700000 0 0 1
29.951041 21.645362 -25.916263 45.135786 0.625793 2.182404 0.067567 -0.022805 526201.000000 0 0 1
29.434741 20.275862 -25.939453 44.162991 0.603198 2.198586 0.088783 -0.038120 253570.000000 0 0 1
28.359241 20.147962 -26.879863 43.962642 0.617708 2.228657 0.108175 -0.041659 607596.000000 0 0 1
27.733241 18.676062 -26.968953 42.956401 0.592662 2.249548 0.121983 -0.030543 -237028.000000 0 0 1
28.460141 17.772162 -27.712343 43.517850 0.558209 2.261142 0.114937 -0.040989 -1173390.000000 0 0 1
29.462841 17.231462 -26.934533 43.479321 0.529208 2.238875 0.102880 -0.031499 -679785.000000 0 0 1
30.482271 16.508262 -27.863463 44.475433 0.496347 2.247839 0.088860 -0.026030 -217133.000000 0 0 1
30.104321 15.280962 -28.459483 44.155635 0.469709 2.271200 0.105836 -0.038726 -32758.900000 0 0 1
29.588441 14.215562 -27.656373 42.923571 0.447880 2.270926 0.111259 -0.027306 -115631.000000 0 0 1
30.547241 13.577562 -26.631663 42.740257 0.418252 2.243503 0.094825 -0.017282 -131766.000000 0 0 1
30.712001 14.305262 -25.432783 42.363828 0.435905 2.214725 0.094575 -0.021566 -216207.000000 0 0 1
31.679181 13.636862 -24.676303 42.408188 0.406493 2.191830 0.061035 -0.012751 -197375.000000 0 0 1
-16.009626 -31.186092 -23.930303 42.444550 1.096520 2.169778 0.139817 -0.018030 230164.000000 0 0 1
-15.475226 -29.861192 -24.209603 41.440056 1.092664 2.194700 0.151070 -0.035204 355226.000000 0 0 1
-15.282126 -29.609892 -25.602753 42.021304 1.094340 2.225949 0.120878 -0.026843 -123433.000000 0 0 1
-14.351826 -28.454892 -26.001633 41.130775 1.103658 2.255147 0.130567 -0.031048 -288812.000000 0 0 1
-14.950626 -27.197592 -25.800633 40.359669 1.068180 2.264342 0.141668 -0.024342 14322.300000 0 0 1
-14.249526 -26.098092 -26.349833 39.730002 1.071030 2.295913 0.131304 -0.023928 -390234.000000 0 0 1
-14.626026 -24.739692 -25.736483 38.579004 1.036875 2.301120 0.081097 -0.018696 -238484.000000 0 0 1
-14.134426 -24.500392 -24.403603 37.357556 1.047531 2.282658 0.109226 -0.035440 334052.000000 0 0 1
-14.580126 -23.228492 -23.901503 36.378905 1.010270 2.287649 0.072979 -0.027954 -160198.000000 0 0 1
-13.851026 -22.736792 -22.611003 34.929501 1.023647 2.274876 0.087872 -0.031481 996646.000000 0 0 1
-12.495926 -22.327592 -22.854103 34.307135 1.060565 2.299847 0.121619 -0.039616 1137480.000000 0 0 1
-11.703826 -22.023392 -21.645703 33.023412 1.082324 2.285595 0.105295 -0.035380 1808560.000000 0 0 1
-10.177326 -21.784792 -21.947003 32.554970 1.133751 2.310613 0.111582 -0.043170 770453.000000 0 0 1
-9.888626 -20.542092 -22.541203 32.060385 1.122152 2.350524 0.124618 -0.048591 374522.000000 0 0 1
-8.567626 -20.494892 -23.082203 32.034870 1.174838 2.375368 0.154322 -0.057062 385120.000000 0 0 1
-8.349726 -19.251192 -24.015803 31.891771 1.161559 2.423468 0.180738 -0.047269 -373084.000000 0 0 1
-8.631026 -18.047092 -23.382103 30.771982 1.124699 2.433879 0.117720 -0.037334 -140931.000000 0 0 1
-8.694126 -16.899092 -24.236503 30.798948 1.095638 2.476608 0.112933 -0.030150 -101481.000000 0 0 1
-7.364726 -16.286292 -24.748303 30.528036 1.146111 2.516100 0.132892 -0.034114 74807.700000 0 0 1
-6.847126 -17.046092 -25.799193 31.670976 1.188840 2.522836 0.140930 -0.048719 -799695.000000 0 0 1
-5.711326 -16.485592 -26.358043 31.609182 1.237293 2.556884 0.131434 -0.048447 -718918.000000 0 0 1
-5.396626 -17.120892 -27.706793 33.013859 1.265447 2.566694 0.149903 -0.049193 -194304.000000 0 0 1
-6.386526 -16.927292 -28.691713 33.919542 1.210018 2.579001 0.157687 -0.049537 -89842.600000 0 0 1
-6.201326 -17.741892 -29.838803 35.264505 1.234540 2.579502 0.154945 -0.050605 31103.700000 0 0 1
-7.046226 -17.253292 -31.055773 36.218592 1.183071 2.601097 0.141562 -0.045099 122019.000000 0 0 1
-6.661926 -16.085892 -31.787313 36.243212 1.178154 2.640495 0.108581 -0.041945 -237170.000000 0 0 1
-6.809826 -14.822492 -31.149973 35.162491 1.140132 2.659198 0.093816 -0.035628 216156.000000 0 0 1
-7.718626 -13.931192 -32.065573 35.803020 1.064846 2.680599 0.072755 -0.037091 107515.000000 0 0 1
-7.131526 -13.613392 -33.287913 36.664264 1.088243 2.709071 0.095319 -0.045620 -65280.300000 0 0 1
-7.983926 -12.846392 33.709304 36.947125 1.014724 0.421769 0.093764 -0.042654 -390688.000000 0 0 1
-8.255126 -11.361692 -33.693603 36.503342 0.942456 2.746674 0.062810 -0.033110 401009.000000 0 0 1
-7.174426 -10.407392 -33.815543 36.100930 0.967248 2.783864 0.049742 -0.033849 263234.000000 0 0 1
-6.721526 -10.241492 32.709176 34.927886 0.990003 0.358348 0.036963 -0.029292 149584.000000 0 0 1
-5.348526 -9.482192 32.741921 34.504378 1.057223 0.320999 0.052379 -0.022492 475238.000000 0 0 1
-4.976626 -8.885092 31.523886 33.128040 1.060225 0.312470 0.040240 -0.013196 401427.000000 0 0 1
-3.854926 -8.013092 31.807473 33.027041 1.122400 0.272602 0.039360 -0.030734 -292075.000000 0 0 1
-3.806326 -6.825092 30.775766 31.752445 1.062064 0.248669 0.036016 -0.028062 422361.000000 0 0 1
-4.868526 -5.877692 30.874136 31.803492 0.879033 0.242344 0.048405 -0.026236 942928.000000 0 0 1
-6.176426 -6.336192 30.498136 31.755816 0.798166 0.282379 0.035552 -0.021677 243096.000000 0 0 1
-7.203826 -5.234192 30.258946 31.541967 0.628346 0.286201 0.029668 -0.011484 744317.000000 0 0 1
-8.498826 -5.717492 29.876266 31.583398 0.592195 0.330290 0.050285 -0.010043 149908.000000 0 0 1
-9.474126 -4.714392 29.794626 31.618101 0.461731 0.341277 0.046315 -0.015386 89065.500000 0 0 1
-10.753026 -5.160892 29.054966 31.407856 0.447478 0.389534 0.058251 -0.021797 -115384.000000 0 0 1
-10.478726 -5.533792 27.736616 30.162003 0.485872 0.403766 0.042067 -0.013620 539814.000000 0 0 1
-11.587226 -6.196592 27.121586 30.137053 0.491081 0.451161 0.056153 -0.022689 267669.000000 0 0 1
-11.442826 -6.214992 25.595486 28.717474 0.497557 0.470623 0.035382 -0.022910 -269548.000000 0 0 1
-10.258526 -6.803092 25.131086 27.983761 0.585574 0.455458 0.040531 -0.019396 -54761.600000 0 0 1
-9.697826 -6.325992 23.928736 26.582897 0.577998 0.450670 0.039219 -0.009503 82256.200000 0 0 1
-10.560826 -6.570892 22.647716 25.838473 0.556580 0.502230 0.042304 -0.016062 338401.000000 0 0 1
-11.769026 -5.872192 22.471216 26.037438 0.462810 0.529549 0.019183 -0.009395 -227967.000000 0 0 1
-12.411426 -5.991492 21.263916 25.339605 0.449745 0.575064 0.016476 -0.013967 -270571.000000 0 0 1
-13.567426 -4.961692 21.152516 25.614886 0.350598 0.599195 0.024345 -0.009877 83093.800000 0 0 1
-13.167026 -3.583092 21.116816 25.142177 0.265692 0.573705 0.008863 -0.001746 176654.000000 0 0 1
-14.320726 -2.780992 20.898216 25.486321 0.191806 0.609424 0.028495 -0.008104 227893.000000 0 0 1
-14.025126 -1.372992 20.450416 24.835635 0.097584 0.603366 0.017974 -0.006351 -473522.000000 0 1 0
-13.385026 -0.582992 21.393016 25.242027 0.043528 0.559509 0.014677 -0.004287 -220399.000000 0 0 1
-13.267426 0.750008 20.967616 24.823941 -0.056470 0.564880 0.029800 -0.012368 98193.400000 0 1 0
-12.565426 1.214008 19.630216 23.339004 -0.096316 0.571500 0.042467 -0.016291 106877.000000 0 1 0
-13.274426 0.937008 18.437116 22.737977 -0.070471 0.625191 0.053340 -0.018401 329707.000000 0 1 0
-14.463326 1.656008 18.111716 23.237134 -0.114001 0.677041 0.062235 -0.024021 329379.000000 0 1 0
-15.390726 0.801008 17.236016 23.121339 -0.051998 0.729573 0.068624 -0.019906 -291278.000000 0 1 0
-15.890826 -0.334992 17.892416 23.932595 0.021078 0.726330 0.065098 -0.017988 192328.000000 0 1 0
-16.870226 -0.996992 17.143116 24.072493 0.059029 0.778247 0.080702 -0.017719 -328277.000000 0 1 0
-16.778626 -2.526992 17.308616 24.238320 0.149484 0.775457 0.069880 -0.015759 -262094.000000 0 1 0
-17.411826 -2.891292 18.511616 25.577552 0.164552 0.761583 0.090237 -0.019341 199155.000000 0 0 1
-17.516726 -4.294992 18.612016 25.916979 0.240450 0.769671 0.103541 -0.020114 32235.400000 0 0 1
-18.073926 -4.759992 19.999416 27.373362 0.257515 0.751573 0.108782 -0.017035 377527.000000 0 0 1
-17.183026 -4.444992 21.059416 27.541121 0.253136 0.700293 0.083829 -0.015049 828976.000000 0 0 1
-17.914626 -4.417192 22.329916 28.966715 0.241747 0.690572 0.084122 -0.014548 279731.000000 0 0 1
-18.097526 -5.764092 23.132216 29.930664 0.308343 0.687460 0.118876 -0.011718 745871.000000 0 0 1
-16.914526 -6.190592 23.839276 29.878683 0.350851 0.647044 0.037872 -0.016918 984210.000000 0 0 1
-16.004326 -6.909792 23.002946 28.862072 0.407570 0.648492 0.072569 -0.015860 223096.000000 0 0 1
-14.709826 -7.399692 23.724006 28.878416 0.466080 0.606736 0.084985 -0.013445 76625.400000 0 0 1
-14.721926 -8.700392 24.258336 29.679939 0.533762 0.614033 0.086534 -0.021968 44032.500000 0 0 1
-15.165126 -8.704292 25.622846 31.020574 0.521058 0.598831 0.081435 -0.021777 799196.000000 0 0 1
-16.458126 -9.561092 25.893496 32.136545 0.526283 0.633883 0.088891 -0.019807 197983.000000 0 0 1
-16.245226 -10.969192 25.738236 32.352548 0.593905 0.650873 0.092417 -0.025976 57537.000000 0 0 1
-15.530526 -11.650892 26.760996 33.061933 0.643625 0.627632 0.085531 -0.029894 -68322.900000 0 0 1
-15.570926 -13.158492 26.564046 33.485044 0.701624 0.654568 0.068107 -0.032744 418910.000000 0 0 1
-16.781626 -13.734292 27.059906 34.676970 0.685868 0.675583 0.083987 -0.029104 327367.000000 0 0 1
-16.974326 -15.069692 26.670966 35.022333 0.726030 0.705108 0.092977 -0.023479 -94296.200000 0 0 1
-16.056226 -16.173492 27.233716 35.511400 0.789037 0.696799 0.086050 -0.020139 645681.000000 0 0 1
-14.674626 -16.040292 26.859316 34.555151 0.829832 0.680452 0.109592 -0.031288 467147.000000 0 0 1
-13.942326 -17.048992 27.484346 35.219964 0.885308 0.675551 0.124711 -0.030281 -682145.000000 0 0 1
-12.501526 -17.016992 26.962406 34.246715 0.937192 0.664380 0.107713 -0.036446 -424229.000000 0 0 1
-11.691226 -17.982992 27.618136 34.969046 0.994332 0.660333 0.102395 -0.036147 256962.000000 0 0 1
-10.489326 -18.190892 26.898966 34.124608 1.047742 0.662825 0.097399 -0.033330 -434797.000000 0 0 1
-9.323226 -18.851192 27.616546 34.712586 1.111502 0.650836 0.115727 -0.030503 -335529.000000 0 0 1
-9.492626 -20.094392 28.251776 35.945200 1.129470 0.666536 0.119004 -0.020497 -252166.000000 0 0 1
-8.242426 -20.591792 28.672536 36.250156 1.190051 0.658415 0.123917 -0.015563 77868.500000 0 0 1
-8.308126 -21.933092 29.440486 37.640772 1.208703 0.672698 0.120467 -0.014218 -50002.500000 0 0 1
-8.551726 -23.142292 28.676156 37.828820 1.216832 0.710478 0.116718 -0.022329 19566.200000 0 0 1
-9.118626 -24.157092 29.426566 39.148911 1.209860 0.720225 0.102311 -0.023099 -392125.000000 0 0 1
-9.423526 -25.460292 28.665626 39.480975 1.216305 0.758219 0.103781 -0.019167 353.214000 0 0 1
-10.506526 -25.408092 27.748886 39.063524 1.178697 0.780797 0.085874 -0.022822 245216.000000 0 0 1
-10.667326 -26.658692 27.082936 39.471042 1.190165 0.814617 0.089101 -0.018621 281497.000000 0 0 1
-12.005326 -26.884892 26.293526 39.474989 1.150819 0.841855 0.083923 -0.025889 271149.000000 0 0 1
-12.201126 -26.112992 25.117356 38.231367 1.133696 0.853986 0.090106 -0.032739 153725.000000 0 0 1
-12.140926 -24.695592 25.107136 37.251075 1.113873 0.831189 0.089462 -0.015235 -436759.000000 0 0 1
-12.507126 -24.205092 23.713376 36.119785 1.093867 0.854600 0.091504 -0.042181 99779.900000 0 0 1
-13.870026 -24.515792 23.471246 36.664711 1.055935 0.876091 0.074520 -0.028599 249827.000000 0 0 1
-14.229226 -24.072392 22.199516 35.703913 1.036946 0.899799 0.075152 -0.034835 -442957.000000 0 0 1
-15.615926 -24.319992 21.608616 36.086721 0.999993 0.928798 0.066510 -0.029775 -554370.000000 0 0 1
-15.838026 -25.622692 21.123416 36.790815 1.017156 0.959232 0.079140 -0.025991 -660367.000000 0 0 1
-17.078326 -25.666792 20.517016 37.032437 0.983681 0.983601 0.072096 -0.027942 -685095.000000 0 0 1
-17.341426 -27.082592 19.918916 37.827966 1.001259 1.016240 0.068814 -0.031411 -86343.900000 0 0 1
-16.425626 -27.419292 18.916716 37.141094 1.031073 1.036401 0.061960 -0.034535 -255460.000000 0 0 1
-16.339026 -28.820492 18.629816 38.008612 1.055053 1.058538 0.083094 -0.027679 -314252.000000 0 0 1
-15.196326 -29.126792 17.680216 37.308020 1.089916 1.077084 0.090199 -0.036344 -520686.000000 0 0 1
-15.450026 -28.680892 16.383116 36.465098 1.076680 1.104835 0.083593 -0.047874 221769.000000 0 0 1
-14.349926 -28.919492 15.501816 35.812898 1.110191 1.123138 0.078886 -0.045060 154249.000000 0 0 1
-14.682426 -28.351392 14.134216 34.916344 1.092953 1.154034 0.074307 -0.040120 -88846.800000 0 0 1
-14.816726 -26.952792 14.208916 33.880402 1.068161 1.138029 0.064741 -0.045950 -23701.900000 0 0 1
-15.127526 -26.347392 12.961616 33.030752 1.049596 1.167545 0.067910 -0.042869 272184.000000 0 0 1
-14.099026 -26.610792 11.800616 32.344572 1.083575 1.197335 0.058600 -0.035633 242731.000000 0 0 1
-14.473326 -26.048692 10.582116 31.622661 1.063644 1.229576 0.039006 -0.025335 -191344.000000 0 0 1
-13.761326 -26.573192 9.476516 31.389695 1.092959 1.264112 0.047108 -0.020007 -29239.600000 0 0 1
-13.972726 -25.805292 8.181216 30.464446 1.074528 1.298909 0.056662 -0.010805 67622.500000 0 0 1
-14.971326 -26.413392 7.382716 31.245997 1.055140 1.332264 0.048447 -0.014794 -61806.600000 0 0 1
-15.184926 -25.641592 6.227016 30.444194 1.036133 1.364804 0.050186 -0.010673 354481.000000 0 0 1
-16.131226 -26.322692 5.173716 31.302841 1.020999 1.404755 0.059171 -0.019035 600698.000000 0 0 1
-15.485426 -27.393892 4.453616 31.781416 1.056292 1.430201 0.061232 -0.019786 212162.000000 0 0 1
-16.341826 -28.023892 3.527316 32.631821 1.042867 1.462490 0.093869 -0.018704 134827.000000 0 0 1
-15.653526 -29.290792 2.959816 33.342823 1.079995 1.481910 0.094983 -0.026184 -124047.000000 0 0 1
-14.508726 -29.122292 2.185716 32.609636 1.108590 1.503719 0.066504 -0.015064 -513929.000000 0 0 1
-13.878426 -30.275292 1.679716 33.347045 1.140973 1.520404 0.069531 -0.021154 41968.000000 0 0 1
-12.462826 -29.932592 1.182716 32.445044 1.176264 1.534335 0.055576 -0.022399 -141236.000000 0 0 1
-12.425726 -29.258192 -0.096784 31.787573 1.169186 1.573841 0.052198 -0.010746 -46824.400000 0 0 1
-12.669726 -27.853092 -0.049684 30.599332 1.143894 1.572420 0.042160 -0.014084 -388877.000000 0 0 1
-12.500526 -27.200392 -1.391984 29.967684 1.140011 1.617263 0.047032 -0.007713 520346.000000 0 0 1
-11.108526 -27.097792 -1.733284 29.337586 1.181749 1.629911 0.041175 -0.009569 292617.000000 0 0 1
-10.811626 -26.643192 -2.995384 28.908878 1.185306 1.674597 0.061199 -0.003709 349736.000000 0 0 1
-9.299326 -26.653892 -3.325184 28.424712 1.235109 1.688047 0.044225 -0.007229 337462.000000 0 0 1
-8.955326 -26.053292 -4.585684 27.928487 1.239717 1.735737 0.042111 -0.001650 -239585.000000 0 0 1
-7.541226 -26.121192 -4.689384 27.589438 1.289737 1.741596 0.047278 -0.002416 438235.000000 0 0 1
-6.910726 -24.989592 -5.535084 26.511789 1.300995 1.781122 0.040147 -0.008061 42872.900000 0 0 1
-7.161426 -24.958492 -6.915884 26.870835 1.291370 1.831101 0.053187 -0.004486 -181448.000000 0 0 1
-6.576526 -23.804392 -7.458984 25.797988 1.301246 1.864115 0.049770 -0.006096 -197961.000000 0 0 1
-6.852926 -23.718392 -9.002184 26.278585 1.289527 1.920445 0.063392 -0.010719 169092.000000 0 0 1
-6.074826 -24.665392 -9.777384 27.219153 1.329313 1.938217 0.045892 -0.013601 264758.000000 0 0 1
-6.147326 -24.505692 -11.167784 27.623141 1.325015 1.987000 0.037436 -0.001120 682008.000000 0 0 1
-7.471126 -25.052092 -11.836384 28.697125 1.280970 1.995948 0.048419 -0.005225 834931.000000 0 0 1
-7.430626 -24.969392 -13.211284 29.209977 1.281553 2.040124 0.065511 -0.006147 94592.100000 0 0 1
-8.660826 -25.482992 -13.674084 30.188960 1.243177 2.040868 0.086312 -0.007859 -352483.000000 0 0 1
-8.866426 -25.449792 -15.220584 30.951116 1.235557 2.084909 0.090267 -0.013507 412629.000000 0 0 1
-7.952926 -26.193992 -16.060784 31.738352 1.276025 2.101380 0.084656 -0.023136 2316190.000000 0 0 1
-6.597626 -25.609892 -16.131784 30.977890 1.318659 2.118527 0.088413 -0.024482 1389980.000000 0 0 1
-5.586826 -26.408192 -16.980184 31.889369 1.362314 2.132314 0.077309 -0.018307 -600265.000000 0 0 1
-5.731626 -26.396292 -18.412184 32.689819 1.356978 2.169097 0.129448 -0.026494 1017230.000000 0 0 1
-4.624626 -27.098592 -19.055084 33.448723 1.401765 2.176913 0.113852 -0.029806 834592.000000 0 0 1
-26.074506 13.993062 -4.565303 29.942071 -0.492541 1.723865 0.161367 -0.052818 -108360.000000 0 0 1
-25.879896 12.727162 -3.973503 29.112512 -0.457048 1.707711 0.169330 -0.047049 415522.000000 0 0 1
-24.547726 12.259262 -4.134503 27.748413 -0.463172 1.720353 0.160310 -0.034781 16458.600000 0 0 1
-24.364726 10.714062 -4.268903 26.956530 -0.414286 1.729828 0.161997 -0.047174 -62980.900000 0 0 1
-24.810926 10.106062 -5.475103 27.343944 -0.386803 1.772390 0.143711 -0.037126 582631.000000 0 0 1
-26.221006 9.858362 -5.544903 28.556512 -0.359622 1.766211 0.158089 -0.052160 460153.000000 0 0 1
-26.538296 9.200662 -6.872903 28.916606 -0.333726 1.810773 0.159548 -0.047022 -220130.000000 0 0 1
-26.496646 10.136362 -7.965603 29.466403 -0.365376 1.844530 0.181939 -0.036726 34385.600000 0 0 1
-26.433796 9.470562 -9.178803 29.541285 -0.344027 1.886737 0.166631 -0.041863 -212126.000000 0 0 1
-26.924186 10.407562 -10.256203 30.633622 -0.368859 1.912192 0.169979 -0.037507 -19785.200000 0 0 1
-26.031526 11.462562 -10.578203 30.346812 -0.414787 1.926849 0.158355 -0.046160 505354.000000 0 0 1
-26.533856 12.179462 -11.687703 31.448167 -0.430326 1.951582 0.172283 -0.050058 276074.000000 0 0 1
-25.435246 13.164162 -12.201503 31.130749 -0.477593 1.973540 0.152980 -0.039995 250292.000000 0 0 1
-25.177126 14.219262 -11.265403 31.031989 -0.514111 1.942309 0.142629 -0.040804 246951.000000 0 0 1
-24.406426 15.208562 -11.920303 31.129850 -0.557259 1.963754 0.118497 -0.035876 -130889.000000 0 0 1
-24.386626 16.576062 -11.275703 31.569207 -0.596985 1.936037 0.123896 -0.033783 -294071.000000 0 0 1
-23.470526 16.601762 -10.205903 30.506467 -0.615639 1.911923 0.111437 -0.018307 -37496.400000 0 0 1
-23.530126 17.866462 -9.583103 31.059832 -0.649428 1.884451 0.062085 -0.003518 -306105.000000 0 0 1
-22.424826 18.242962 -8.599403 30.160043 -0.682928 1.859934 0.076777 -0.005520 -503667.000000 0 0 1
-22.465826 17.692462 -7.287103 29.509971 -0.667090 1.820314 0.111609 -0.019558 54742.200000 0 0 1
-23.592626 18.014262 -6.487403 30.384404 -0.652120 1.785964 0.134724 -0.028226 71849.200000 0 0 1
-23.826226 17.265562 -5.161903 29.873632 -0.627076 1.744459 0.151310 -0.017372 481804.000000 0 0 1
-22.724526 17.543462 -4.290003 29.027250 -0.657437 1.719132 0.120899 -0.033712 730795.000000 0 0 1
-22.959226 16.848462 -3.009403 28.636571 -0.633080 1.676080 0.134141 -0.031786 186274.000000 0 0 1
-21.745926 16.760062 -2.035903 27.530526 -0.656632 1.644815 0.132108 -0.054047 -39651.900000 0 0 1
-21.298826 17.931562 -1.394603 27.876976 -0.699775 1.620844 0.120541 -0.045941 568706.000000 0 0 1
-20.217726 17.783862 -0.474003 26.930408 -0.721439 1.588398 0.158380 -0.070758 371469.000000 0 0 1
-19.921826 19.167462 0.194397 27.646130 -0.766102 1.563765 0.140753 -0.062494 -420666.000000 0 0 1
-20.990926 19.623762 0.955397 28.751066 -0.751749 1.537560 0.135454 -0.057466 -182405.000000 0 0 1
-21.117626 21.040962 0.767697 29.820556 -0.783580 1.545050 0.151165 -0.055706 22031.500000 0 0 1
-22.213526 21.612362 1.683197 31.038171 -0.771682 1.516540 0.108237 -0.050560 34839.900000 0 0 1
-21.801026 21.567662 3.054497 30.818480 -0.780017 1.471521 0.139701 -0.045536 297328.000000 0 0 1
-22.898826 21.490762 3.919597 31.647627 -0.753688 1.446626 0.102219 -0.030800 -34488.000000 0 0 1
-22.350526 21.306462 5.371697 31.342726 -0.761488 1.398560 0.109827 -0.031617 416032.000000 0 0 1
-21.502426 22.371362 5.833197 31.573063 -0.805201 1.384976 0.097068 -0.026344 949809.000000 0 0 1
-20.605726 22.051362 6.926297 30.965014 -0.819275 1.345206 0.081928 -0.020002 464888.000000 0 0 1
-21.289526 21.813562 8.267997 31.582197 -0.797555 1.305917 0.085494 -0.021894 -536856.000000 0 0 1
-21.896126 20.531662 8.515097 31.200903 -0.753250 1.294378 0.096839 -0.028834 667484.000000 0 0 1
-22.356126 20.223162 9.838597 31.710734 -0.735346 1.255329 0.112270 -0.026889 24750.200000 0 0 1
-23.219826 21.239162 10.590397 33.202693 -0.740877 1.246162 0.134066 -0.026856 -632255.000000 0 0 1
-24.431126 21.621962 9.950397 34.108643 -0.724475 1.274765 0.152418 -0.028069 552928.000000 0 0 1
-25.256226 22.198862 10.975497 35.371287 -0.721061 1.255294 0.156243 -0.030490 -598185.000000 0 0 1
-26.563596 22.716562 10.401297 36.467160 -0.707492 1.281557 0.150070 -0.035139 -209072.000000 0 0 1
-27.406646 23.375962 11.363597 37.771566 -0.706193 1.265212 0.137980 -0.027628 541086.000000 0 0 1
-27.111436 24.758562 11.387897 38.440871 -0.740068 1.270038 0.128132 -0.030102 -64131.400000 0 0 1
-27.809406 25.546462 12.538497 39.789429 -0.743011 1.250212 0.134658 -0.029706 424948.000000 0 0 1
-27.095936 25.326462 13.760097 39.559571 -0.751657 1.215538 0.098271 -0.029697 131240.000000 0 0 1
-27.751186 25.958862 14.833997 40.792625 -0.752040 1.198619 0.105594 -0.025066 130253.000000 0 0 1
-26.936956 26.155662 16.155397 40.874382 -0.770684 1.164462 0.083743 -0.026275 -86934.700000 0 0 1
-26.627306 24.968762 16.782497 40.175922 -0.753264 1.139856 0.083171 -0.021444 171895.000000 0 0 1
-25.431016 25.113662 17.535797 39.811264 -0.779120 1.114671 0.066227 -0.012359 77179.500000 0 0 1
-24.925826 23.762562 18.015797 38.865474 -0.761511 1.088807 0.071390 -0.009576 -108434.000000 0 0 1
-23.692226 23.772662 18.702497 38.421926 -0.787093 1.062412 0.072697 -0.026097 312524.000000 0 0 1
-23.195626 22.504362 19.101697 37.541420 -0.770273 1.036987 0.082969 -0.034305 247637.000000 0 0 1
-21.779426 22.651462 19.731597 37.104825 -0.805022 1.010096 0.090037 -0.037295 -719667.000000 0 0 1
-20.798826 22.964162 18.813797 36.247798 -0.834837 1.025077 0.091991 -0.043495 1013380.000000 0 0 1
-19.425526 22.601362 19.142997 35.420714 -0.860822 0.999829 0.077704 -0.044705 1589030.000000 0 0 1
-19.062326 21.089362 19.188197 34.297527 -0.835840 0.977059 0.087674 -0.029210 -563012.000000 0 0 1
-19.720426 20.363562 20.237397 34.829902 -0.801442 0.950796 0.093090 -0.023367 -174659.000000 0 0 1
-19.046926 20.403662 21.454797 35.205158 -0.819775 0.915465 0.085048 -0.014619 -529116.000000 0 0 1
-19.794326 20.022962 22.727797 36.184072 -0.791140 0.891667 0.087680 -0.015682 -634813.000000 0 0 1
-20.825826 20.876162 23.103997 37.460964 -0.786605 0.906191 0.072086 -0.015190 -280831.000000 0 0 1
-21.259026 20.664062 24.424897 38.412566 -0.771207 0.881678 0.068147 -0.016049 -58315.100000 0 0 1
-22.464526 21.556962 24.805397 39.807854 -0.764785 0.898060 0.068412 -0.020200 -531510.000000 0 0 1
-22.183126 22.888862 25.162397 40.609571 -0.801055 0.902541 0.079086 -0.025987 344638.000000 0 0 1
-23.329326 23.726862 25.367697 41.841863 -0.793846 0.919428 0.079548 -0.032033 251862.000000 0 0 1
-23.984026 24.282962 24.093897 41.778124 -0.791591 0.956100 0.064157 -0.031954 234924.000000 0 0 1
-24.796026 23.321062 23.396797 41.305265 -0.754754 0.968621 0.057101 -0.027742 332217.000000 0 0 1
-25.354876 23.771362 22.166697 41.222686 -0.753176 1.003053 0.046654 -0.022210 -344000.000000 0 0 1
-26.435066 22.855662 21.626797 41.096379 -0.712907 1.016617 0.048953 -0.021646 111772.000000 0 0 1
-27.670796 22.948462 22.361597 42.336106 -0.692376 1.014326 0.075716 -0.024336 1006570.000000 0 0 1
-28.597616 22.040862 21.729897 42.140380 -0.656633 1.029024 0.090214 -0.027915 1757950.000000 0 0 1
-30.135886 22.307662 22.059297 43.501908 -0.637223 1.038993 0.090172 -0.018941 559655.000000 0 0 1
-30.702966 23.470262 21.481397 44.215107 -0.652672 1.063474 0.107814 -0.024489 1256230.000000 0 0 1
-32.132826 23.606962 21.635997 45.364342 -0.633616 1.073628 0.112261 -0.024291 1072730.000000 0 0 1
-33.004406 22.650762 20.811197 45.116003 -0.601469 1.091357 0.118380 -0.032386 -1712370.000000 0 0 1
-32.927956 21.268062 21.201097 44.565314 -0.573485 1.075002 0.106693 -0.031046 340839.000000 0 0 1
-33.773276 20.410062 20.465897 44.452871 -0.543594 1.092356 0.113317 -0.027726 563744.000000 0 0 1
-35.302668 20.688662 20.339597 45.694620 -0.530089 1.109488 0.146264 -0.029956 -207905.000000 0 0 1
-35.953397 19.880762 19.425297 45.444841 -0.505112 1.129129 0.126849 -0.025247 -812988.000000 0 0 1
-37.342076 19.943662 19.545397 46.628348 -0.490539 1.138261 0.155851 -0.029947 -113269.000000 0 0 1
36.831111 19.098362 18.467197 45.412724 0.478368 1.152009 0.133938 -0.029738 167153.000000 0 0 1
36.890291 17.691162 18.721997 44.993154 0.447163 1.141636 0.155551 -0.039099 97286.900000 0 0 1
36.125391 17.110162 17.699097 43.715667 0.442332 1.153961 0.179458 -0.056474 -21943.400000 0 0 1
36.053601 15.603362 17.820797 43.138241 0.408444 1.144931 0.185061 -0.069603 160042.000000 0 0 1
35.320911 15.016662 16.717097 41.863208 0.401997 1.160014 0.219812 -0.066956 227224.000000 0 0 1
35.631691 13.644262 16.487197 41.564540 0.365700 1.162915 0.189877 -0.058454 -63308.600000 0 0 1
34.694641 12.839762 15.571597 40.137915 0.354450 1.172387 0.175960 -0.061296 -195548.000000 0 0 1
34.932381 13.091762 14.193097 39.913775 0.358573 1.207247 0.174087 -0.054761 123719.000000 0 0 1
34.088361 12.321862 13.376097 38.636312 0.346855 1.217273 0.179010 -0.041750 -302603.000000 0 0 1
34.240791 12.571862 11.907597 38.370227 0.351880 1.255252 0.188317 -0.038658 542552.000000 0 0 1
35.473941 12.160862 11.285197 39.161751 0.330256 1.278482 0.172127 -0.034809 837235.000000 0 0 1
35.430961 12.353162 9.885497 38.803049 0.335476 1.313196 0.151837 -0.028893 -120232.000000 0 0 1
36.901871 12.465162 9.431797 40.076017 0.325758 1.333220 0.116613 -0.015983 -631057.000000 0 0 1
-37.300896 11.317862 9.709697 40.171246 -0.294592 1.326671 0.163839 -0.029395 127788.000000 0 0 1
-35.939815 11.456562 9.305897 38.852578 -0.308587 1.328927 0.165074 -0.029175 540386.000000 0 0 1
-35.559903 11.279162 7.779097 38.108274 -0.307150 1.365220 0.157252 -0.044778 -930702.000000 0 0 1
-36.066356 12.258662 6.980097 38.726975 -0.327642 1.389567 0.143744 -0.046954 -219472.000000 0 0 1
-35.820570 12.009462 5.609397 38.194315 -0.323490 1.423398 0.153442 -0.054936 -521978.000000 0 0 1
-36.640146 12.808462 4.615197 39.087812 -0.336296 1.452448 0.165065 -0.060554 -1432460.000000 0 0 1
37.044101 12.265662 4.445497 39.274347 0.319748 1.457362 0.178049 -0.059089 -1219440.000000 0 0 1
35.996671 13.148362 4.279697 38.561062 0.350210 1.459582 0.139647 -0.055984 -404821.000000 0 0 1
35.455111 13.741262 5.599397 38.434885 0.369743 1.424591 0.151852 -0.043526 -1318200.000000 0 0 1
34.443971 14.694362 5.370697 37.830620 0.403239 1.428348 0.131589 -0.029437 227646.000000 0 0 1
33.910071 15.240562 6.589997 37.757061 0.422389 1.395361 0.113301 -0.028042 305640.000000 0 0 1
32.728781 14.447362 7.231297 36.499192 0.415702 1.371355 0.180913 -0.043492 -322083.000000 0 0 1
33.101641 13.267462 7.892897 36.524540 0.381204 1.352980 0.205377 -0.036525 551256.000000 0 0 1
32.105561 12.206162 7.936697 35.252639 0.363312 1.343712 0.214238 -0.025675 301764.000000 0 0 1
31.951981 11.369862 6.628697 34.556366 0.341870 1.377777 0.209980 -0.032285 12929.200000 0 0 1
31.377721 11.999762 5.463997 34.035436 0.365268 1.409560 0.201635 -0.048870 431894.000000 0 0 1
31.482721 11.182262 4.324997 33.688430 0.341289 1.442059 0.198108 -0.049851 46032.100000 0 0 1
30.635371 11.672662 3.085197 32.928641 0.364037 1.476965 0.159947 -0.057717 600813.000000 0 0 1
29.271041 11.287262 3.246297 31.539413 0.368042 1.467685 0.127285 -0.050881 111435.000000 0 0 1
28.486341 11.860562 2.263297 30.939733 0.394529 1.497579 0.146841 -0.051999 -39262.000000 0 0 1
27.074841 11.225462 2.113297 29.385779 0.393036 1.498819 0.174961 -0.036530 323763.000000 0 0 1
27.087641 9.840662 1.773197 28.874264 0.348465 1.509347 0.129522 -0.028561 1430160.000000 0 0 1
25.740241 9.270862 1.728497 27.413438 0.345706 1.507702 0.132010 -0.035521 1217570.000000 0 0 1
25.867241 7.758962 1.413297 27.042800 0.291414 1.518511 0.143025 -0.025892 448153.000000 0 0 1
26.507041 6.981662 2.443697 27.519783 0.257540 1.481881 0.156516 -0.021934 1457840.000000 0 0 1
27.947341 7.065562 2.523897 28.936933 0.247628 1.483465 0.191489 -0.034878 675344.000000 0 0 1
28.493941 6.236362 3.709697 29.403380 0.215469 1.444294 0.199756 -0.042698 850775.000000 0 0 1
29.934471 6.245862 3.775597 30.811337 0.205700 1.447948 0.239584 -0.043815 1020120.000000 0 0 1
30.335691 5.552662 4.894797 31.225714 0.181037 1.413392 0.227339 -0.036095 175520.000000 0 0 1
31.868911 5.752862 5.123297 32.786751 0.178593 1.413892 0.227872 -0.039894 345920.000000 0 0 1
32.205121 7.040462 5.531197 33.426517 0.215227 1.404558 0.227598 -0.045279 -434506.000000 0 0 1
33.511471 6.960362 6.039197 34.755391 0.204789 1.396147 0.190626 -0.029656 -223202.000000 0 0 1
33.945441 8.115662 6.893997 35.576455 0.234675 1.375783 0.171435 -0.034775 167600.000000 0 0 1
33.251641 7.961262 8.129097 35.144495 0.235001 1.337377 0.185150 -0.042048 534772.000000 0 0 1
33.856011 8.803262 9.105097 36.147333 0.254387 1.316165 0.180356 -0.038557 -18093.100000 0 0 1
33.245211 8.530362 10.442097 35.875458 0.251171 1.275456 0.185862 -0.033010 -512730.000000 0 0 1
31.980201 9.093462 10.613197 34.900777 0.277035 1.261807 0.188018 -0.038054 -368354.000000 0 0 1
31.448981 8.767862 11.867797 34.738428 0.271892 1.222142 0.173083 -0.044012 414754.000000 0 0 1
29.996921 9.285762 12.169197 33.676847 0.300202 1.201079 0.166331 -0.044414 376308.000000 0 0 1
29.827241 10.677662 12.384897 34.015620 0.343769 1.198136 0.195856 -0.049072 261936.000000 0 0 1
30.018951 11.525162 11.258397 34.069316 0.366576 1.234010 0.200488 -0.052095 -482179.000000 0 0 1
28.804241 11.719162 10.335797 32.769677 0.386402 1.249910 0.161070 -0.039254 -198562.000000 0 0 1
29.033341 12.786162 9.441297 33.099228 0.414838 1.281537 0.135174 -0.021131 402080.000000 0 0 1
27.911941 12.949962 8.582597 31.944310 0.434400 1.298780 0.114847 -0.016750 218021.000000 0 0 1
27.882041 14.284362 7.814197 32.287968 0.473450 1.326353 0.113145 -0.023107 -81547.900000 0 0 1
27.468141 15.341362 8.661797 32.632543 0.509357 1.302142 0.110982 -0.006568 243271.000000 0 0 1
27.739341 16.636962 8.144097 33.355447 0.540243 1.324142 0.109317 -0.003838 -773860.000000 0 0 1
26.944141 17.809862 8.755697 33.464013 0.584064 1.306070 0.126251 -0.018053 1516000.000000 0 0 1
25.542841 18.072562 8.439197 32.407935 0.615768 1.307354 0.133969 -0.027292 1586730.000000 0 0 1
24.629041 17.070162 8.853097 31.246718 0.606074 1.283533 0.139578 -0.023839 -295459.000000 0 0 1
23.229741 17.737962 8.958497 30.569770 0.652141 1.273380 0.140815 -0.036358 -116615.000000 0 0 1
22.633341 18.227562 7.790197 30.086530 0.677989 1.308886 0.144275 -0.039141 -88646.100000 0 0 1
21.627641 19.172962 8.052897 30.003441 0.725308 1.299066 0.186325 -0.047725 -11943.100000 0 0 1
21.041141 19.766662 6.739897 29.645855 0.754177 1.341444 0.166724 -0.036462 96004.100000 0 0 1
21.952741 20.621962 6.067497 30.724626 0.754151 1.372010 0.110817 -0.017529 92688.300000 0 0 1
21.513741 20.974162 4.791197 30.425517 0.772699 1.412665 0.122103 -0.026552 -207039.000000 0 0 1
18.377174 17.097162 32.731710 41.248010 0.749331 0.654201 0.131930 -0.047866 669689.000000 0 0 1
17.010974 17.418962 32.416873 40.541918 0.797247 0.644186 0.115820 -0.040488 944790.000000 0 0 1
16.691674 16.561962 31.322006 39.166040 0.781497 0.643962 0.122122 -0.050840 -215152.000000 0 0 1
16.322174 17.211762 29.988876 38.235989 0.811920 0.669213 0.120518 -0.048763 -165289.000000 0 0 1
17.470074 17.732162 29.344856 38.480562 0.792843 0.703490 0.119492 -0.035189 -51284.100000 0 0 1
17.106274 18.116862 28.053866 37.521523 0.814081 0.726244 0.109501 -0.037412 349588.000000 0 0 1
18.251174 18.348462 27.008106 37.406005 0.788056 0.764070 0.102395 -0.029310 474023.000000 0 0 1
18.970574 19.595162 27.203106 38.520930 0.801592 0.786693 0.111605 -0.036552 -181149.000000 0 0 1
19.843374 19.767362 26.145356 38.315633 0.783479 0.819799 0.104876 -0.021591 -641800.000000 0 0 1
20.679174 21.083762 26.284436 39.535109 0.795086 0.843520 0.125425 -0.026625 300214.000000 0 0 1
19.939374 22.310962 26.115726 39.716355 0.841471 0.853226 0.089961 -0.028315 372735.000000 0 0 1
20.789374 23.396162 26.372046 40.927537 0.844326 0.870611 0.101922 -0.034151 -133787.000000 0 0 1
20.093374 24.760362 26.273886 41.317506 0.889074 0.881620 0.106205 -0.036348 -42134.800000 0 0 1
19.976874 25.210862 24.937606 40.700704 0.900712 0.911315 0.091322 -0.031688 268327.000000 0 0 1
19.121674 26.334562 24.948946 41.007286 0.942764 0.916750 0.095114 -0.033880 -108729.000000 0 0 1
19.082974 27.157562 23.647396 40.754048 0.958276 0.951765 0.072073 -0.031237 -428584.000000 0 0 1
20.289374 27.859262 23.485346 41.705619 0.941341 0.972638 0.083934 -0.035090 -10728.900000 0 0 1
20.174574 28.732262 22.436816 41.664938 0.958624 1.002133 0.067614 -0.030097 -1312630.000000 0 0 1
21.420574 29.480562 22.224016 42.683152 0.942440 1.023156 0.073454 -0.026883 -1675290.000000 0 0 1
22.452174 28.790262 21.589016 42.415386 0.908461 1.036785 0.072633 -0.033624 -480416.000000 0 0 1
23.560474 29.651062 21.389316 43.494646 0.899362 1.056676 0.096107 -0.042775 118927.000000 0 0 1
23.942974 29.907962 19.904016 43.173164 0.895717 1.091644 0.108764 -0.037036 -226411.000000 0 0 1
23.056374 30.801662 19.296416 43.042891 0.928228 1.105926 0.082394 -0.021035 8485.630000 0 0 1
23.157274 30.813862 17.886816 42.493431 0.926322 1.136325 0.084358 -0.007215 -244074.000000 0 0 1
22.699674 32.113762 17.094516 42.881131 0.955487 1.160753 0.101263 -0.011469 -312979.000000 0 0 1
23.585774 33.195762 17.165716 44.191732 0.953054 1.171861 0.104020 -0.011648 -75334.300000 0 0 1
23.653674 -33.721392 16.047416 44.205748 -0.959102 1.199293 0.101971 -0.012550 251297.000000 0 0 1
24.661774 33.616462 14.902816 44.275993 0.937860 1.227504 0.079371 -0.007065 181361.000000 0 0 1
24.328174 32.502562 14.092716 42.975356 0.928256 1.236689 0.099842 -0.014524 -5339.570000 0 0 1
23.406874 32.887462 13.090016 42.436016 0.952244 1.257218 0.082136 -0.022731 -93060.500000 0 0 1
22.919574 31.715262 12.191016 40.985188 0.945019 1.268776 0.082335 -0.035695 -484578.000000 0 0 1
23.951074 31.038762 11.500816 40.857404 0.913582 1.285453 0.117457 -0.061150 -281227.000000 0 0 1
23.562774 29.919362 10.701316 39.558700 0.903698 1.296866 0.115514 -0.060198 -618302.000000 0 0 1
24.806574 29.291362 9.999116 39.665254 0.868110 1.315959 0.125044 -0.063070 248576.000000 0 0 1
25.694774 28.684262 10.887316 40.019270 0.840318 1.295272 0.120080 -0.060727 464789.000000 0 0 1
26.518574 29.530862 11.749916 41.392839 0.839090 1.282975 0.111838 -0.055507 -888424.000000 0 0 1
27.944174 29.049762 11.979516 42.050854 0.804794 1.281913 0.115553 -0.049231 -261051.000000 0 0 1
28.052374 27.872362 12.727316 41.542615 0.782179 1.259421 0.112734 -0.042007 -250194.000000 0 0 1
29.407674 27.628062 13.039316 42.404538 0.754207 1.258234 0.101023 -0.028122 73256.600000 0 0 1
29.686074 26.598662 14.185416 42.308130 0.730600 1.228885 0.092479 -0.035576 -314210.000000 0 0 1
30.864174 26.941462 14.852316 43.577872 0.717642 1.223005 0.080992 -0.038746 -452176.000000 0 0 1
31.007874 26.140762 15.989816 43.594747 0.700437 1.195248 0.090365 -0.046649 -108178.000000 0 0 1
32.277574 26.420162 16.812016 44.972332 0.685938 1.187661 0.097220 -0.057583 534810.000000 0 0 1
33.488774 26.121262 16.078016 45.412784 0.662427 1.208907 0.101474 -0.043988 578227.000000 0 0 1
34.580274 26.133062 16.980616 46.551838 0.647153 1.197413 0.097741 -0.046371 -343481.000000 0 0 1
35.958774 26.173662 16.349516 47.385659 0.629193 1.218525 0.113293 -0.050699 -690609.000000 0 0 1
36.220974 27.414562 15.771916 48.086074 0.647883 1.236618 0.102701 -0.043715 -738813.000000 0 0 1
-37.360592 27.662762 15.579616 49.028223 -0.637346 1.247421 0.137062 -0.044521 -120364.000000 0 0 1
-37.018792 28.821362 14.621816 49.141219 -0.661531 1.268674 0.098020 -0.036623 131525.000000 0 0 1
-37.381292 30.161462 15.114116 50.353861 -0.678910 1.265938 0.091851 -0.033137 95031.500000 0 0 1
37.430074 30.977262 14.000116 50.562876 0.691347 1.290245 0.081630 -0.010671 308002.000000 0 0 1
36.290274 32.035562 14.211416 50.450229 0.723208 1.285239 0.066606 -0.013586 -391288.000000 0 0 1
36.212574 33.058362 13.179316 50.773026 0.739895 1.308216 0.041525 -0.008244 1085810.000000 0 0 1
35.027074 33.881962 13.336416 50.524680 0.768782 1.303672 0.040838 -0.001756 802728.000000 0 0 1
33.640874 33.304862 13.069216 49.109334 0.780379 1.301426 0.060251 -0.004096 -698086.000000 0 0 1
33.207274 32.270562 13.941816 48.357900 0.771093 1.278340 0.057477 -0.024752 -284798.000000 0 0 1
32.093774 31.613762 13.396716 46.999067 0.777864 1.281746 0.077346 -0.021641 -499837.000000 0 0 1
31.415774 30.543462 14.244816 46.073514 0.771320 1.256470 0.100130 -0.026086 -592690.000000 0 0 1
30.662674 30.950662 15.307516 46.178600 0.790072 1.232919 0.100059 -0.026049 -359681.000000 0 0 1
30.240974 29.955262 16.190316 45.540757 0.780652 1.207334 0.097088 -0.031567 -308470.000000 0 0 1
29.290074 30.582862 17.196116 45.704773 0.806987 1.185058 0.091132 -0.034068 -341954.000000 0 0 1
28.819074 29.725862 18.223316 45.235552 0.800886 1.156164 0.086378 -0.034869 -174443.000000 0 0 1
29.624274 29.715262 19.372616 46.215719 0.786931 1.138256 0.086325 -0.036421 -155619.000000 0 0 1
29.313374 28.555662 20.365016 45.710323 0.772305 1.109038 0.096825 -0.043798 -330243.000000 0 0 1
28.117074 28.622862 21.078516 45.322643 0.794312 1.087075 0.104051 -0.051763 -419826.000000 0 0 1
28.132274 27.723962 22.150516 45.284526 0.778088 1.059692 0.099023 -0.047349 533684.000000 0 0 1
26.867474 27.823662 23.098556 45.050645 0.802880 1.032442 0.109243 -0.048630 871299.000000 0 0 1
25.746374 27.143462 22.518316 43.665981 0.811807 1.028978 0.101308 -0.044977 442557.000000 0 0 1
24.656774 27.067962 23.446236 43.478237 0.831980 1.001234 0.093018 -0.047716 290637.000000 0 0 1
24.529774 25.792362 24.308426 43.102846 0.810483 0.971619 0.117777 -0.050825 -352787.000000 0 0 1
25.589074 25.702062 25.236746 44.184727 0.787601 0.962873 0.106497 -0.052505 -39022.100000 0 0 1
25.327374 24.863162 26.299286 44.173580 0.776149 0.933080 0.118649 -0.050031 751965.000000 0 0 1
26.702574 24.436662 27.011586 45.164186 0.741118 0.929699 0.122657 -0.056906 1490210.000000 0 0 1
27.377374 25.461762 27.679576 46.518608 0.749160 0.933504 0.142217 -0.054679 236060.000000 0 0 1
28.088874 26.389962 26.860966 46.977936 0.754223 0.962124 0.102324 -0.035404 -679687.000000 0 0 1
28.303274 27.703662 27.609726 48.279035 0.774693 0.962003 0.079682 -0.031332 -351162.000000 0 0 1
29.217074 27.636762 28.684286 49.398546 0.757609 0.951244 0.092042 -0.034084 62433.100000 0 0 1
29.227574 28.861062 29.425096 50.527698 0.779089 0.949173 0.095981 -0.033830 69705.800000 0 0 1
30.659074 29.048662 29.967166 51.786433 0.758433 0.953701 0.080239 -0.026836 -188500.000000 0 0 1
31.608574 29.091062 28.964176 51.810379 0.743947 0.977566 0.052369 -0.021265 -233320.000000 0 0 1
32.912674 29.497462 29.384616 53.073535 0.730731 0.984045 0.078371 -0.029153 575394.000000 0 0 1
33.743974 29.952062 28.190746 53.202443 0.725937 1.012341 0.072459 -0.024540 -207772.000000 0 0 1
33.310474 31.243262 27.751926 53.440607 0.753386 1.024760 0.051043 -0.022842 146509.000000 0 0 1
33.961374 31.571762 26.541716 53.428586 0.748950 1.050923 0.053777 -0.019682 -97279.400000 0 0 1
33.599974 32.898062 25.915606 53.692266 0.774843 1.067096 0.039426 -0.023726 -242196.000000 0 0 1
34.472574 -33.874292 26.402296 55.071837 -0.776645 1.070808 0.055334 -0.023269 -25128.000000 0 0 1
34.071074 -32.600692 26.131376 53.911891 -0.763348 1.064770 0.047830 -0.018632 -370451.000000 0 0 1
34.883474 -31.474092 26.841416 54.110414 -0.734064 1.051754 0.045142 -0.022332 33545.300000 0 0 1
34.919274 -31.424292 28.222246 54.802710 -0.732767 1.029813 0.045958 -0.030726 350750.000000 0 0 1
35.996574 -30.607592 28.613296 55.238562 -0.704663 1.026291 0.049754 -0.038485 -126857.000000 0 0 1
35.691674 -30.129492 30.086206 55.559533 -0.701094 0.998561 0.044965 -0.032576 -84603.600000 0 0 1
35.736974 -31.035192 31.133166 56.653230 -0.715099 0.988984 0.069681 -0.032183 529184.000000 0 0 1
34.555174 -31.817692 31.221156 56.402005 -0.744178 0.984179 0.068543 -0.040169 -148144.000000 0 0 1
34.648574 -32.769192 32.382661 57.645298 -0.757529 0.974288 0.097896 -0.042879 -218683.000000 0 0 1
34.569774 -32.027592 33.594231 57.874073 -0.747244 0.951489 0.079700 -0.042239 108279.000000 0 0 1
34.721474 -32.731092 -33.031023 58.034073 -0.755899 2.176288 0.095135 -0.038590 -224939.000000 0 0 1
33.805474 33.807562 -32.723853 57.936274 0.785429 2.171017 0.095239 -0.035008 -39876.800000 0 0 1
34.018974 32.684962 -33.586113 57.910485 0.765402 2.189483 0.110111 -0.040752 -191152.000000 0 0 1
33.152674 31.598262 -33.377873 56.671266 0.761397 2.200584 0.122174 -0.036353 -111884.000000 0 0 1
33.357774 30.412462 33.442908 56.179062 0.739245 0.933168 0.118129 -0.032193 31366.300000 0 0 1
34.583774 29.719262 33.471847 56.565330 0.709892 0.937583 0.110427 -0.036779 -245812.000000 0 0 1
34.819674 28.986062 32.297104 55.639055 0.694224 0.951484 0.093384 -0.031547 968563.000000 0 0 1
36.327074 28.504862 32.246334 56.320596 0.665325 0.961184 0.089017 -0.024601 1141350.000000 0 0 1
36.790274 27.499362 33.143205 56.641074 0.641875 0.945738 0.086485 -0.016019 612080.000000 0 0 1
-36.824592 27.019162 32.927065 56.305216 -0.633004 0.946168 0.071627 -0.018310 710195.000000 0 0 1
-36.557292 25.714862 33.626120 55.932153 -0.613013 0.925801 0.069366 -0.015107 -29235.500000 0 0 1
-37.083192 24.598562 32.980734 55.389360 -0.585692 0.932990 0.061915 -0.012335 -90066.200000 0 0 1
-37.154092 23.518562 33.838926 55.485334 -0.564332 0.914898 0.043150 -0.010350 28717.400000 0 0 1
37.464974 22.192062 33.161137 54.733655 0.534769 0.919945 0.040305 -0.017945 -506289.000000 0 0 1
-36.424992 21.657362 32.424383 53.358804 -0.536420 0.917677 0.053382 -0.010824 -586622.000000 0 0 1
-36.751792 20.551862 31.622786 52.659984 -0.509884 0.926659 0.049844 -0.006865 -545036.000000 0 0 1
-35.678092 19.902362 30.761846 51.140214 -0.508836 0.925394 0.043477 -0.006971 -477839.000000 0 0 1
-35.339292 20.613762 29.619826 50.508681 -0.528057 0.944151 0.044671 -0.005620 129061.000000 0 0 1
-34.366292 19.875162 28.865336 49.084333 -0.524336 0.942118 0.079211 -0.011202 289387.000000 0 0 1
-34.986492 19.007562 27.740896 48.527305 -0.497671 0.962274 0.091955 -0.004013 -454335.000000 0 0 1
-35.769592 17.968762 28.290526 49.017283 -0.465524 0.955557 0.086592 -0.010197 312238.000000 0 0 1
-36.366192 17.081562 27.323386 48.588549 -0.439123 0.973581 0.089873 -0.018957 -277029.000000 0 0 1
-36.958692 15.840562 27.963026 48.977537 -0.404917 0.963151 0.065057 -0.029806 -381584.000000 0 0 1
-35.998492 14.997262 28.516036 48.311216 -0.394741 0.939419 0.078119 -0.015619 -223339.000000 0 0 1
-36.571692 13.982762 29.316676 48.912921 -0.365189 0.928089 0.083801 -0.027760 -86329.000000 0 0 1
-35.721992 12.701162 29.619416 48.111226 -0.341616 0.907593 0.085751 -0.012443 -853995.000000 0 0 1
-34.535692 12.905062 30.279586 47.708574 -0.357607 0.883204 0.087446 -0.002099 -832128.000000 0 0 1
-33.958792 11.671662 30.589536 47.171464 -0.331052 0.865216 0.064198 0.007719 -448295.000000 0 0 1
-32.435192 11.781362 30.736536 46.212302 -0.348410 0.843147 0.062654 0.010984 -896548.000000 0 0 1
-31.757792 11.874362 29.457056 44.914096 -0.357809 0.855484 0.057486 0.008379 -95917.400000 0 0 1
-30.434792 12.299562 29.501066 44.134666 -0.384060 0.838696 0.061481 0.010648 -538732.000000 0 0 1
-29.373792 11.379262 30.091906 43.564092 -0.369593 0.808270 0.062458 0.006699 -877549.000000 0 0 1
-29.018392 10.327762 29.181266 42.429660 -0.341925 0.812403 0.072943 0.003715 -152969.000000 0 0 1
-28.067892 9.427462 29.675056 41.920074 -0.324041 0.784281 0.059563 0.003117 -561639.000000 0 0 1
-27.796692 8.207662 28.758316 40.829677 -0.287116 0.789292 0.051929 -0.005112 -131846.000000 0 0 1
-28.763892 7.198762 28.769676 41.314379 -0.245234 0.800483 0.068633 -0.012388 777041.000000 0 0 1
-30.022092 7.555962 28.131216 41.830418 -0.246559 0.833206 0.080559 -0.016328 685336.000000 0 0 1
-30.930492 6.316662 27.987886 42.189067 -0.201451 0.845454 0.090405 -0.023775 -260053.000000 0 0 1
-31.568992 5.978062 29.206316 43.420587 -0.187149 0.833029 0.099353 -0.022535 -47778.900000 0 0 1
-32.134392 4.693462 29.113706 43.614856 -0.145032 0.839926 0.118720 -0.030918 -453658.000000 0 0 1
-32.709192 4.230862 30.464966 44.898838 -0.128634 0.825044 0.100638 -0.023598 252230.000000 0 0 1
-33.926892 4.941762 30.697056 46.019173 -0.144642 0.840555 0.104300 -0.026782 -127854.000000 0 0 1
-34.584592 4.448062 31.816573 47.203534 -0.127912 0.831146 0.108103 -0.026057 -106083.000000 0 0 1
-36.021392 4.999962 31.915573 48.385371 -0.137924 0.850494 0.099096 -0.023411 -107673.000000 0 0 1
-36.277492 6.331262 32.279483 48.970464 -0.172783 0.851092 0.087725 -0.016231 664647.000000 0 0 1
37.294374 6.714662 32.092031 49.657381 0.178136 0.868111 0.095601 -0.011218 970439.000000 0 0 1
37.048574 8.164062 32.612562 50.028272 0.216895 0.860732 0.074856 -0.004482 -51858.500000 0 0 1
37.382474 8.358362 -33.863063 51.127474 0.219972 2.294716 0.077038 -0.003808 240057.000000 0 0 1
37.212374 9.662562 -33.408593 50.933879 0.254049 2.286198 0.076130 -0.005516 -242348.000000 0 0 1
37.108974 9.724362 -31.862483 49.868397 0.256286 2.263905 0.074231 -0.003598 1405150.000000 0 0 1
35.837774 9.324262 -31.242213 48.449601 0.254536 2.271610 0.076388 -0.009468 1461930.000000 0 0 1
35.907474 9.554362 -29.871953 47.675634 0.260057 2.247936 0.071385 -0.003494 -249839.000000 0 0 1
34.621474 9.028562 -29.268763 46.225771 0.255098 2.256438 0.079877 -0.005750 -298838.000000 0 0 1
34.658374 7.638762 -29.187223 45.950490 0.216933 2.259049 0.088842 -0.012841 1896010.000000 0 0 1
33.307274 7.217362 -28.791453 44.614040 0.213391 2.272271 0.112963 -0.028767 1535400.000000 0 0 1
36.441211 6.077062 -19.642903 41.841799 0.165243 2.059471 0.093256 -0.014154 -226233.000000 0 0 1
36.176991 7.041362 -18.603503 41.284934 0.192233 2.038248 0.100670 -0.014807 107951.000000 0 0 1
36.822601 8.276662 -18.649503 42.097637 0.221097 2.029745 0.070545 -0.010033 -249301.000000 0 0 1
-36.663786 8.313662 -18.098403 41.724122 -0.222983 2.019462 0.075047 -0.006950 740294.000000 0 0 1
-35.676424 7.653762 -18.895403 41.090431 -0.211330 2.048622 0.081830 -0.010024 337062.000000 0 0 1
-35.156357 8.439562 -19.976703 41.306952 -0.235600 2.075578 0.070465 0.001637 -816131.000000 0 0 1
-34.171306 7.617062 -20.763703 40.704166 -0.219322 2.106112 0.050965 0.007754 -740447.000000 0 0 1
-34.692765 6.508562 -21.441903 41.300175 -0.185450 2.116678 0.048074 0.011664 375917.000000 0 0 1
-35.416932 6.794562 -22.671303 42.597102 -0.189542 2.132025 0.057155 0.010766 436231.000000 0 0 1
-35.434513 5.631762 -23.652103 42.973752 -0.157616 2.153621 0.081878 0.001176 369306.000000 0 0 1
-34.201307 5.573662 -24.347003 42.350580 -0.161546 2.183268 0.067783 -0.001358 142591.000000 0 0 1
-34.225514 4.409862 -25.099653 42.671129 -0.128141 2.199642 0.072101 -0.006607 340263.000000 0 0 1
-32.861716 4.202062 -25.815823 42.000076 -0.127181 2.232753 0.075046 -0.002517 934719.000000 0 0 1
-31.763306 4.028362 -24.900703 40.560822 -0.126151 2.231801 0.073222 -0.004885 447956.000000 0 0 1
-30.544726 3.771362 -25.589323 40.025203 -0.122848 2.264423 0.073028 -0.003839 587322.000000 0 0 1
-29.306686 4.286062 -24.804603 38.633152 -0.145219 2.267972 0.056848 -0.009682 -18692.200000 0 0 1
-29.151466 5.686662 -24.681803 38.617839 -0.192654 2.264162 0.030546 -0.000250 461838.000000 0 0 1
-27.852336 6.093262 -24.247003 37.427231 -0.215377 2.275547 0.044849 -0.003847 461405.000000 0 0 1
-27.459256 7.579562 -24.565503 37.615481 -0.269323 2.282426 0.039400 -0.004014 12401.900000 0 0 1
-28.045596 8.544762 -23.677503 37.685442 -0.295739 2.250154 0.039333 -0.002365 -148037.000000 0 0 1
-27.775486 9.882062 -24.065503 38.056290 -0.341818 2.255400 0.027480 -0.007772 354242.000000 0 0 1
-26.349846 10.421562 -23.716603 36.951327 -0.376628 2.267683 0.053278 -0.011703 460915.000000 0 0 1
-26.214146 10.734762 -22.331203 36.070752 -0.388671 2.238385 0.057393 -0.017029 487834.000000 0 0 1
-24.840626 10.879362 -21.967003 34.899376 -0.412802 2.251626 0.082147 -0.015927 337181.000000 0 0 1
-24.503926 11.218762 -20.463603 33.838765 -0.429351 2.220234 0.098397 -0.036257 -775225.000000 0 0 1
-24.921326 12.500262 -19.957903 34.287708 -0.464918 2.192070 0.115982 -0.040251 1164880.000000 0 0 1
-26.310906 12.822662 -19.800103 35.337353 -0.453478 2.165564 0.097204 -0.028860 424208.000000 0 0 1
-27.232586 11.918962 -18.978903 35.268600 -0.412555 2.139007 0.089607 -0.019695 -824697.000000 0 0 1
-27.043546 12.097162 -17.606303 34.462684 -0.420624 2.107005 0.097820 -0.030760 321082.000000 0 0 1
-27.931756 11.293062 -16.856903 34.523490 -0.384216 2.080907 0.113673 -0.029144 -747484.000000 0 0 1
-27.412226 11.127862 -15.408703 33.356972 -0.385621 2.050970 0.140774 -0.032940 271289.000000 0 0 1
-26.592706 9.980362 -15.230903 32.229800 -0.359038 2.063003 0.158139 -0.037158 122055.000000 0 0 1
-25.279226 10.141362 -15.681703 31.429322 -0.381518 2.093185 0.138069 -0.029986 -986075.000000 0 0 1
-24.298326 8.992162 -15.328203 30.103512 -0.354444 2.105032 0.099920 -0.027317 346565.000000 0 0 1
-22.918226 9.332962 -15.300503 29.093893 -0.386723 2.124570 0.089014 -0.025803 699488.000000 0 0 1
-22.133826 8.214662 -14.939503 27.938784 -0.355379 2.134976 0.105070 -0.028905 121977.000000 0 0 1
-20.607426 8.468162 -14.779203 26.735755 -0.389891 2.156502 0.136041 -0.037363 264834.000000 0 0 1
-19.966626 8.497462 -16.027903 26.977151 -0.402365 2.206978 0.138918 -0.048111 451763.000000 0 0 1
-18.594026 8.859262 -15.977103 26.067070 -0.444637 2.230551 0.137896 -0.048982 -306691.000000 0 0 1
-17.976326 9.171262 -17.314103 26.590195 -0.471763 2.279890 0.108072 -0.034572 -307712.000000 0 0 1
-17.857326 8.129162 -18.300003 26.830159 -0.427193 2.321384 0.148414 -0.044400 263093.000000 0 0 1
-17.106826 6.989162 -17.924403 25.744438 -0.387864 2.340947 0.160023 -0.044918 -813870.000000 0 0 1
-16.694026 5.985462 -18.995203 25.987189 -0.344262 2.390502 0.131965 -0.048552 -733008.000000 0 0 1
-17.665826 5.323262 -19.734703 27.016236 -0.292677 2.389815 0.131591 -0.029855 -807450.000000 0 0 1
-18.429726 6.164962 -20.548803 28.282766 -0.322811 2.384082 0.110864 -0.025300 -716704.000000 0 0 1
-19.502626 5.380762 -21.303603 29.379389 -0.269202 2.382006 0.096797 -0.004619 -424428.000000 0 0 1
-20.389326 4.743562 -20.407603 29.235188 -0.228583 2.343466 0.089270 -0.008655 -505358.000000 0 0 1
-21.187526 3.873662 -21.085403 30.141511 -0.180830 2.345560 0.064292 0.007794 -579780.000000 0 0 1
-22.182126 3.149162 -20.122603 30.114499 -0.141026 2.302587 0.070234 -0.001716 67588.100000 0 0 1
-22.776026 1.982862 -20.678603 30.826672 -0.086840 2.306086 0.067972 0.004519 -79777.900000 0 0 1
-23.472326 1.372662 -19.682003 30.662934 -0.058413 2.267747 0.077041 -0.003308 -593931.000000 0 0 1
-24.103826 -0.059238 -19.899903 31.257064 0.002458 2.260946 0.078813 0.014740 261182.000000 0 0 1
-23.071726 -1.013338 -20.087903 30.608091 0.043893 2.286693 0.060440 0.008098 365066.000000 0 0 1
-23.535926 -2.295238 -20.459803 31.269977 0.097213 2.284047 0.074862 0.000169 -212822.000000 0 0 1
-24.137026 -2.473438 -21.899703 32.685025 0.102118 2.305035 0.074175 -0.006471 470481.000000 0 0 1
-23.191626 -2.451538 -22.970703 32.734000 0.105317 2.348631 0.049026 -0.004424 456481.000000 0 0 1
-22.328226 -3.604538 -23.041503 32.287044 0.160053 2.365485 0.047556 -0.014517 -42779.000000 0 0 1
-21.399026 -3.399438 -24.260903 32.527925 0.157543 2.412604 0.053034 -0.013221 -711530.000000 0 0 1
-21.956726 -3.413938 -25.547343 33.858817 0.154250 2.425727 0.056314 -0.017610 -195117.000000 0 0 1
-21.102126 -3.417338 -26.678023 34.186179 0.160549 2.466061 0.058339 -0.020342 -515694.000000 0 0 1
-21.887626 -3.620438 -27.981903 35.709419 0.163926 2.471236 0.063128 -0.023105 -25302.300000 0 0 1
-22.539726 -4.873438 -27.979903 36.258304 0.212938 2.452279 0.073932 -0.026684 53610.200000 0 0 1
-23.322226 -5.068738 -29.132533 37.660626 0.214007 2.455227 0.050033 -0.018275 -494244.000000 0 0 1
-22.894326 -6.254338 -30.042453 38.285975 0.266676 2.472985 0.065305 -0.025220 131626.000000 0 0 1
-21.584326 -5.975938 -30.518053 37.854280 0.270099 2.508494 0.053930 -0.027384 248755.000000 0 0 1
-20.894226 -7.152838 -30.878393 37.963231 0.329831 2.520729 0.057598 -0.027824 340450.000000 0 0 1
-19.474326 -6.930438 -31.503263 37.679383 0.341900 2.560909 0.067154 -0.029274 217320.000000 0 0 1
-19.432126 -6.374238 -32.807803 38.659932 0.316966 2.584178 0.069554 -0.034888 223681.000000 0 0 1
-19.916626 -7.259838 -33.801083 39.898502 0.349544 2.581445 0.066274 -0.033679 -538398.000000 0 0 1
-19.759026 -6.771438 32.569052 38.691273 0.330158 0.570247 0.067652 -0.029582 -5155.180000 0 0 1
-18.462826 -6.708638 32.008015 37.555223 0.348526 0.550445 0.081542 -0.033621 -200776.000000 0 0 1
-17.769226 -5.538538 32.289871 37.270049 0.302149 0.522897 0.067604 -0.032845 -4310.120000 0 0 1
-16.352626 -5.491338 31.645966 36.042063 0.323976 0.499069 0.062033 -0.031847 186810.000000 0 0 1
-16.403926 -5.465238 30.255266 34.847363 0.321600 0.519188 0.054655 -0.033967 678312.000000 0 0 1
-15.236126 -4.926338 29.602326 33.655699 0.312723 0.495852 0.050753 -0.023642 612655.000000 0 0 1
-15.439726 -4.893038 28.050236 32.390472 0.306899 0.523644 0.052255 -0.020226 136045.000000 0 0 1
-16.383226 -3.871838 27.754346 32.460822 0.232071 0.545225 0.044455 -0.024636 130778.000000 0 0 1
-16.822926 -3.828038 26.387316 31.527054 0.223739 0.579067 0.056434 -0.021265 118329.000000 0 0 1
-15.776526 -3.425938 25.311086 30.021441 0.213834 0.567774 0.051578 -0.015852 60849.800000 0 0 1
-15.691526 -2.056238 25.285206 29.829411 0.130299 0.559237 0.046247 -0.012448 -131896.000000 0 0 1
-14.813426 -1.659938 24.265646 28.478317 0.111591 0.550860 0.037918 -0.015622 -337281.000000 0 0 1
-14.736726 -0.138338 24.235606 28.364676 0.009387 0.546345 0.031163 -0.004976 -158533.000000 0 0 1
-15.882926 0.484662 23.703536 28.536991 -0.030505 0.590567 0.028818 -0.011937 -231606.000000 0 0 1
-15.945726 1.798462 24.201956 29.038514 -0.112312 0.585487 0.018901 -0.007552 -231887.000000 0 0 1
-16.686926 2.761162 23.256816 28.756860 -0.163983 0.628790 0.037311 -0.011462 48930.600000 0 0 1
-15.894626 3.123262 22.154516 27.444790 -0.194026 0.631336 0.044228 -0.009354 847781.000000 0 0 1
-16.689826 3.997162 21.327716 27.375154 -0.235069 0.677583 0.062522 -0.010013 42143.800000 0 0 1
-15.802226 4.641562 20.280116 26.125420 -0.285693 0.682085 0.056324 -0.009678 -141665.000000 0 0 1
-14.886126 5.554162 20.850516 26.214299 -0.357113 0.651150 0.066288 -0.008218 140628.000000 0 0 1
-13.758026 5.724362 20.013516 24.951802 -0.394286 0.640015 0.054564 -0.004800 232455.000000 0 1 0
-12.663026 6.699662 20.531316 25.035428 -0.486634 0.609227 0.046285 -0.002816 262693.000000 0 0 1
-12.903126 8.092962 20.212616 25.308823 -0.560187 0.645766 0.052518 -0.001392 498882.000000 0 0 1
-11.834526 8.891562 20.728816 25.471547 -0.644348 0.620130 0.045178 0.001159 395471.000000 0 0 1
-12.162426 10.364362 20.787016 26.219166 -0.705748 0.655378 0.030571 0.004537 -87920.400000 0 0 1
-12.490126 10.963562 19.537716 25.650054 -0.720401 0.704859 0.033294 0.000564 247835.000000 0 0 1
-13.047026 12.228562 19.842016 26.710826 -0.753028 0.733486 0.022907 0.006002 -287862.000000 0 0 1
-13.566426 13.032862 18.633016 26.478155 -0.765342 0.790187 0.035571 0.003772 -350816.000000 0 0 1
-12.545326 13.610062 17.863116 25.723723 -0.826084 0.803180 0.026664 -0.003344 -189853.000000 0 0 1
-12.398626 15.022162 18.056116 26.559642 -0.880785 0.823262 0.035964 -0.005521 -685224.000000 0 0 1
-13.284726 16.089762 17.415116 27.178128 -0.880602 0.875287 0.032578 -0.008824 -490638.000000 0 0 1
-13.221926 16.375562 15.997716 26.436817 -0.891548 0.920867 0.014236 -0.023295 -47882.700000 0 0 1
-13.813626 15.414862 15.163516 25.658652 -0.840127 0.938534 0.042203 -0.018845 -225719.000000 0 0 1
-14.188926 15.909462 13.728616 25.355699 -0.842500 0.998646 0.025536 -0.024996 -405304.000000 0 0 1
-15.186226 16.882862 13.812016 26.578643 -0.838255 1.024336 0.017638 -0.020329 -453989.000000 0 0 1
-15.496426 17.426262 12.552916 26.483760 -0.843948 1.076985 0.002495 -0.013017 611819.000000 0 0 1
-16.873326 18.201762 12.553716 27.813828 -0.823254 1.102521 0.021544 -0.018377 535934.000000 0 0 1
-17.955326 17.384262 12.926816 28.137321 -0.769240 1.093456 0.038669 -0.020900 54231.300000 0 0 1
-19.082626 18.179562 13.295416 29.519674 -0.761168 1.103592 0.071506 -0.025269 -196487.000000 0 0 1
-20.345226 17.424962 13.645416 30.062516 -0.708235 1.099657 0.095396 -0.025588 -317884.000000 0 0 1
-20.913626 16.903562 12.444216 29.630536 -0.679755 1.137374 0.103711 -0.026237 -417726.000000 0 0 1
-22.222126 16.434462 12.628316 30.387313 -0.636782 1.142218 0.156205 -0.042083 143309.000000 0 0 1
-22.920426 15.851662 11.326116 30.081589 -0.605063 1.184767 0.145879 -0.033303 847175.000000 0 0 1
-22.237026 14.666362 10.817016 28.750571 -0.583057 1.185065 0.117697 -0.031003 719659.000000 0 0 1
-22.933726 14.299562 9.627616 28.690142 -0.557532 1.228584 0.139385 -0.027613 213539.000000 0 0 1
-22.419226 12.941362 9.031216 27.416480 -0.523519 1.235119 0.143106 -0.025272 -619805.000000 0 0 1
-22.603226 11.740362 9.750616 27.272998 -0.479055 1.205186 0.137177 -0.026401 593812.000000 0 0 1
-23.929626 11.405062 10.168216 28.391813 -0.444760 1.204522 0.173959 -0.027511 488192.000000 0 0 1
-24.852826 10.877362 9.045116 28.597099 -0.412554 1.248975 0.195385 -0.025416 -664939.000000 0 0 1
-25.163406 11.944762 8.124216 29.015120 -0.443194 1.287003 0.195343 -0.030684 498881.000000 0 0 1
-26.163646 11.463762 7.199716 29.458277 -0.412961 1.323891 0.235921 -0.037563 207024.000000 0 0 1
-26.607166 12.575662 6.167616 30.068722 -0.441523 1.364213 0.214233 -0.039691 -6614.230000 0 0 1
-25.695516 12.721662 5.087516 29.120148 -0.459714 1.395187 0.227665 -0.049164 1109610.000000 0 0 1
-24.409626 13.324062 5.248216 28.300251 -0.499654 1.384269 0.217969 -0.050099 152517.000000 0 0 1
-24.392026 14.789062 5.714016 29.091876 -0.545044 1.373098 0.205160 -0.044328 24954.600000 0 0 1
-23.039126 15.260062 5.833816 28.243658 -0.585011 1.362746 0.150821 -0.048475 1055060.000000 0 0 1
-22.990526 16.536262 6.362016 29.025635 -0.623538 1.349816 0.150435 -0.044282 -9308.900000 0 0 1
-21.512826 16.974562 6.435016 28.148656 -0.668025 1.340148 0.119895 -0.033369 -61372.800000 0 0 1
-21.151826 17.567462 5.171116 27.977775 -0.693088 1.384898 0.145221 -0.055348 235779.000000 0 0 1
-19.785726 17.904462 5.187416 27.183708 -0.735526 1.378791 0.121267 -0.040883 -413033.000000 0 0 1
-19.425326 18.930462 4.136016 27.437425 -0.772497 1.419476 0.113843 -0.037477 141662.000000 0 0 1
-18.020826 19.176062 4.071616 26.627985 -0.816446 1.417287 0.093682 -0.039222 509309.000000 0 0 1
-17.749326 20.198962 3.153016 27.073569 -0.849861 1.454070 0.106076 -0.032562 169930.000000 0 0 1
-18.113226 21.681362 3.586316 28.478625 -0.874823 1.444531 0.112452 -0.047383 3637.190000 0 0 1
-17.277826 22.006762 4.674216 28.366690 -0.905198 1.405263 0.084330 -0.042163 37864.800000 0 0 1
-17.404026 23.358062 5.083816 29.569314 -0.930440 1.398009 0.063452 -0.043284 -281454.000000 0 0 1
-16.638926 23.897762 6.308816 29.795269 -0.962589 1.357443 0.036359 -0.024402 -294278.000000 0 0 1
-17.010626 23.241062 7.512116 29.764748 -0.938966 1.315654 0.040044 -0.017840 259138.000000 0 0 1
-16.175326 23.633562 8.595616 29.901020 -0.970602 1.279213 0.026722 -0.025725 -78381.400000 0 0 1
-16.537526 23.035162 9.971116 30.058802 -0.948141 1.232670 0.007272 -0.006181 -236984.000000 0 0 1
-17.780626 23.490762 10.422416 31.250493 -0.922881 1.230770 0.015444 -0.017917 -400669.000000 0 0 1
-18.592726 22.491262 11.006216 31.187868 -0.880007 1.210127 0.017376 -0.014210 757490.000000 0 0 1
-19.936926 23.035362 11.612416 32.603023 -0.857377 1.206624 0.043378 -0.019835 717130.000000 0 0 1
-20.899226 23.638162 10.745716 33.331828 -0.846818 1.242547 0.080738 -0.014634 258583.000000 0 0 1
-20.600826 24.916962 10.227316 33.909394 -0.879939 1.264418 0.031072 -0.012978 221783.000000 0 0 1
-21.871026 25.697162 9.686416 35.107158 -0.865660 1.291260 0.055406 -0.020988 497652.000000 0 0 1
-22.644726 26.172462 10.758716 36.242673 -0.857537 1.269402 0.091125 -0.035689 660298.000000 0 0 1
-23.856926 26.676062 10.145516 37.198074 -0.841128 1.294553 0.092528 -0.025639 358393.000000 0 0 1
-24.724726 27.501162 11.087216 38.607672 -0.838510 1.279518 0.101369 -0.032902 -631504.000000 0 0 1
-24.075526 28.688162 11.529816 39.186455 -0.872597 1.272147 0.095798 -0.036189 81177.700000 0 0 1
-24.716826 29.361662 12.541916 40.377324 -0.871079 1.254953 0.095318 -0.031716 -546324.000000 0 0 1
9.649474 -32.387392 27.441746 43.532803 -1.281231 0.888767 0.065294 -0.039597 -1286080.000000 0 0 1
11.007374 -32.168992 27.497406 43.727722 -1.241111 0.890746 0.066614 -0.045471 -591712.000000 0 0 1
11.447974 -31.766592 26.178426 42.725665 -1.224906 0.911312 0.082058 -0.039116 -677239.000000 0 0 1
12.932174 -31.904492 25.899016 43.080120 -1.185695 0.925816 0.042287 -0.032934 -841190.000000 0 0 1
13.394374 -33.212892 25.696816 44.077566 -1.187458 0.948391 0.068714 -0.039522 190820.000000 0 0 1
14.809274 -33.262992 25.649186 44.537871 -1.151926 0.957096 0.078862 -0.037091 31576.300000 0 0 1
15.400374 33.081762 25.522336 44.530486 1.135107 0.960460 0.106219 -0.030210 -177486.000000 0 0 1
15.466474 32.528062 24.224276 43.406246 1.126956 0.978723 0.088779 -0.030556 133924.000000 0 0 1
16.319474 31.427262 24.123116 42.847669 1.091846 0.972788 0.091125 -0.029449 -284337.000000 0 0 1
16.642474 30.929362 22.636916 41.785492 1.077151 0.998289 0.089290 -0.035781 345026.000000 0 0 1
15.690674 30.025062 22.025316 40.408120 1.089244 0.994322 0.089186 -0.030266 376079.000000 0 0 1
15.778774 28.649562 22.298916 39.585462 1.067377 0.972409 0.091505 -0.026454 -234902.000000 0 0 1
15.471874 28.126662 23.773186 39.945618 1.067893 0.933358 0.091610 -0.034551 -864749.000000 0 0 1
16.329074 28.497962 24.790526 41.150245 1.050473 0.924243 0.087232 -0.031300 -356751.000000 0 0 1
15.857574 28.178162 26.083626 41.543074 1.058209 0.891984 0.093909 -0.033048 346359.000000 0 0 1
16.882274 28.634962 27.201236 42.952060 1.038082 0.884996 0.109867 -0.039584 545060.000000 0 0 1
16.654874 30.024062 27.562156 44.028418 1.064338 0.894372 0.118901 -0.047232 293746.000000 0 0 1
17.321074 30.379762 28.752076 45.272855 1.052613 0.882679 0.132134 -0.046973 79115.500000 0 0 1
17.022774 31.887562 29.039306 46.366720 1.080447 0.894003 0.131408 -0.043954 331081.000000 0 0 1
17.794774 32.757762 28.224336 46.758295 1.073171 0.922760 0.117595 -0.038833 390466.000000 0 0 1
17.292074 -33.719192 28.445396 47.382911 -1.096941 0.926882 0.117532 -0.028610 -138642.000000 0 0 1
18.115774 -32.649492 27.711586 46.498415 -1.064232 0.932325 0.096745 -0.032168 -803813.000000 0 0 1
17.924974 -32.619392 26.301396 45.575134 -1.068323 0.955623 0.107717 -0.030529 138530.000000 0 0 1
18.442874 -31.449192 25.656016 44.580516 -1.040412 0.957583 0.114065 -0.038211 575563.000000 0 0 1
19.975874 -31.118692 25.598636 44.974423 -1.000119 0.965286 0.130968 -0.033712 449092.000000 0 0 1
20.397474 -30.535292 26.800386 45.461211 -0.981873 0.940329 0.125085 -0.036110 -1190.810000 0 0 1
21.148674 -29.367692 26.637546 44.936473 -0.946685 0.936287 0.131305 -0.035240 -264049.000000 0 0 1
21.267574 -28.583092 27.933486 45.272315 -0.931107 0.905858 0.119030 -0.037758 161725.000000 0 0 1
20.029374 -27.938592 28.184056 44.453141 -0.948813 0.884059 0.133897 -0.036746 479022.000000 0 0 1
20.147974 -27.194692 29.426296 44.848624 -0.933158 0.855124 0.140981 -0.037981 -442100.000000 0 0 1
18.800474 -26.611592 29.804936 44.158452 -0.955737 0.829894 0.151143 -0.043025 -746776.000000 0 0 1
18.307874 -25.694592 28.871556 42.766308 -0.951718 0.829695 0.134708 -0.038148 -205068.000000 0 0 1
17.065174 -25.200392 29.283156 42.234857 -0.975551 0.804681 0.124151 -0.030321 -537058.000000 0 0 1
16.305174 -24.560992 28.101266 40.728150 -0.984736 0.809347 0.116272 -0.030596 -627630.000000 0 0 1
15.938274 -25.486292 27.093196 40.467529 -1.011933 0.837255 0.100442 -0.029831 738671.000000 0 0 1
15.048674 -25.079792 26.049646 39.166856 -1.030353 0.843176 0.101135 -0.034476 -759203.000000 0 0 1
13.611874 -24.693592 26.336336 38.583147 -1.067008 0.819500 0.059394 -0.022419 -544635.000000 0 0 1
12.710474 -25.690092 26.824316 39.256603 -1.111348 0.818514 0.057173 -0.024836 491935.000000 0 0 1
12.267974 -26.551292 25.828076 39.020044 -1.137968 0.847421 0.051115 -0.030381 -1111480.000000 0 0 1
11.413074 -27.752692 26.233586 39.858139 -1.180636 0.852406 0.065403 -0.033817 -905988.000000 0 0 1
10.083874 -27.460892 26.480796 39.459063 -1.218874 0.835111 0.053685 -0.039106 -1165240.000000 0 0 1
9.293874 -28.538592 26.780216 40.224462 -1.255968 0.842272 0.048953 -0.041118 2800.550000 0 0 1
7.788474 -28.200992 27.037326 39.836833 -1.301336 0.824803 0.047556 -0.039866 205637.000000 0 0 1
6.991374 -28.083692 25.912846 38.846476 -1.326808 0.840544 0.056765 -0.034917 -172741.000000 0 0 1
7.131574 -26.850592 25.187866 37.499897 -1.311188 0.834324 0.066074 -0.031392 166421.000000 0 0 1
5.933674 -26.653092 24.146746 36.450804 -1.351743 0.846715 0.070895 -0.022032 116378.000000 0 0 1
5.917974 -27.526192 23.032866 36.376182 -1.359026 0.885135 0.072129 -0.017803 -144542.000000 0 0 1
5.261274 -28.748692 23.298656 37.376405 -1.389790 0.897774 0.071810 -0.022313 -615981.000000 0 0 1
3.749674 -28.674292 23.531996 37.283105 -1.440766 0.887735 0.101323 -0.020293 -1028890.000000 0 0 1
3.014074 -28.141092 22.402916 36.095656 -1.464097 0.901220 0.108700 -0.021461 613514.000000 0 0 1
1.636974 -27.893392 22.645516 35.965823 -1.512177 0.889707 0.130102 -0.016571 377388.000000 0 0 1
1.333074 -26.566292 23.393706 35.423304 -1.520659 0.849439 0.126153 -0.022448 -598389.000000 0 0 1
1.758674 -26.636092 24.768316 36.414884 -1.504866 0.822802 0.098741 -0.018699 209391.000000 0 0 1
1.601974 -25.346392 25.356046 35.887811 -1.507677 0.786204 0.097207 -0.017991 -59232.100000 0 0 1
2.840474 -24.808292 26.120386 36.135775 -1.456796 0.762893 0.098386 -0.020680 -21914.100000 0 0 1
3.894174 -24.373392 25.277636 35.329672 -1.412364 0.773487 0.087605 -0.019948 464740.000000 0 0 1
5.019774 -23.871592 25.995766 35.648715 -1.363534 0.753615 0.071034 -0.018720 367705.000000 0 0 1
4.864074 -22.357592 26.333576 34.885217 -1.356576 0.715350 0.075053 -0.016168 -278136.000000 0 0 1
4.797874 -21.477392 25.195646 33.453229 -1.351013 0.717943 0.064653 -0.011078 378619.000000 0 0 1
3.965274 -20.342492 25.421376 32.799188 -1.378285 0.683984 0.084981 -0.024511 164984.000000 0 0 1
4.148274 -19.362492 24.243266 31.302559 -1.359744 0.684901 0.088366 -0.025865 -137063.000000 0 0 1
5.437574 -18.816892 24.247946 31.170588 -1.289486 0.679462 0.073800 -0.014592 -551927.000000 0 0 1
5.578574 -17.960492 23.109786 29.795335 -1.269641 0.683103 0.076458 -0.015701 255064.000000 0 0 1
6.952074 -17.346092 22.695816 29.399291 -1.189612 0.688838 0.101449 -0.017836 -712673.000000 0 0 1
7.646574 -18.281492 21.963216 29.581513 -1.174641 0.734055 0.104789 -0.015961 -972838.000000 0 0 1
8.760374 -17.759492 21.333016 29.107410 -1.112540 0.748212 0.095435 -0.013656 -309038.000000 0 0 1
10.087174 -17.596992 22.110016 30.004300 -1.050291 0.742331 0.109003 -0.006600 -526598.000000 0 0 1
10.052574 -16.648792 23.226946 30.294018 -1.027586 0.697084 0.123935 -0.002198 67921.900000 0 0 1
11.288174 -16.637092 23.912756 31.241569 -0.974650 0.699111 0.129508 -0.006397 77471.700000 0 0 1
11.288674 -15.674092 25.111356 31.681091 -0.946633 0.655687 0.140983 -0.024336 -138745.000000 0 0 1
11.240574 -14.277592 24.913416 30.836317 -0.903855 0.630175 0.165829 -0.025563 293026.000000 0 0 1
11.547174 -13.616992 26.142196 31.657134 -0.867466 0.599192 0.144833 -0.025661 -44487.800000 0 0 1
11.678474 -12.062392 25.942886 30.901803 -0.801568 0.574385 0.152326 -0.026945 584964.000000 0 0 1
10.395374 -11.476892 25.674406 29.982628 -0.834805 0.542715 0.154670 -0.016370 751549.000000 0 0 1
10.426574 -10.122092 25.249576 29.132650 -0.770582 0.522227 0.160036 -0.013320 -833252.000000 0 0 1
9.136274 -9.706392 24.574826 27.957247 -0.815646 0.497005 0.154957 -0.011554 -794192.000000 0 0 1
8.129774 -9.437992 25.520656 28.398465 -0.859728 0.454084 0.129322 -0.014728 -713543.000000 0 0 1
6.956674 -9.338392 24.776396 27.376462 -0.930532 0.439357 0.115240 -0.008825 -847797.000000 0 0 1
5.631774 -9.109392 25.495386 27.653438 -1.017074 0.397683 0.081682 -0.018740 -1132810.000000 0 0 1
5.543874 -7.863392 26.158186 27.871458 -0.956707 0.352451 0.097866 -0.012647 45122.400000 0 0 1
4.304174 -7.643892 26.796406 28.195787 -1.057961 0.316376 0.075853 -0.020068 1144360.000000 0 0 1
2.965474 -7.643292 25.941066 27.205751 -1.200691 0.306107 0.048153 -0.014475 317401.000000 0 0 1
2.783074 -6.588492 25.055646 26.056461 -1.171118 0.278057 0.062290 -0.016239 -780266.000000 0 0 1
1.588874 -6.727092 24.365416 25.326899 -1.338857 0.276426 0.054730 -0.017763 -424448.000000 0 0 1
1.496174 -5.571092 23.379976 24.081090 -1.308427 0.241897 0.043985 -0.028852 -18745.500000 0 1 0
1.285774 -4.352392 24.021736 24.446684 -1.283549 0.186726 0.050398 -0.027668 -72878.500000 0 1 0
1.699474 -3.241892 23.275096 23.561158 -1.087959 0.155987 0.047511 -0.028620 -769212.000000 0 1 0
0.673174 -2.647992 22.284616 22.451484 -1.321849 0.121997 0.031864 -0.032184 -29048.500000 0 1 0
-0.381326 -1.883992 22.786516 22.867448 1.371091 0.084157 0.039961 -0.033165 -211691.000000 0 1 0
-1.432526 -2.596992 23.417056 23.604131 1.066718 0.125984 0.044128 -0.027784 -459708.000000 0 1 0
-2.445726 -1.566992 23.964566 24.139956 0.569814 0.120618 0.051573 -0.029839 -275461.000000 0 1 0
-1.881526 -0.758992 24.981166 25.063417 0.383427 0.081037 0.057647 -0.034513 42676.900000 0 0 1
-2.632326 0.389008 25.321826 25.461252 -0.146719 0.104700 0.060980 -0.028877 -446146.000000 0 0 1
-2.071026 1.228008 26.491156 26.600348 -0.535217 0.090639 0.097413 -0.039650 -239857.000000 0 0 1
-2.172226 0.595008 27.796546 27.887642 -0.267359 0.080849 0.112687 -0.037520 66903.200000 0 0 1
-1.312426 -0.507992 28.076986 28.112234 0.369305 0.050081 0.111082 -0.041055 -567754.000000 0 0 1
0.002474 -0.070992 28.742176 28.742264 -1.535956 0.002471 0.126713 -0.043331 53965.500000 0 0 1
0.994074 0.639008 27.955346 27.980313 0.571309 0.042247 0.101618 -0.041249 706253.000000 0 0 1
1.712274 -0.060992 26.967326 27.021700 -0.035605 0.063449 0.096333 -0.042618 -62211.900000 0 0 1
2.804374 -1.078992 27.434026 27.598089 -0.367294 0.109093 0.093976 -0.046871 -572342.000000 0 0 1
2.345474 -2.144992 28.219406 28.397837 -0.740782 0.112159 0.110373 -0.045028 -347625.000000 0 0 1
3.171374 -3.281792 28.387746 28.752251 -0.802507 0.159401 0.128780 -0.034815 -86009.800000 0 0 1
3.730574 -4.028292 27.126666 27.676711 -0.823751 0.199700 0.114101 -0.035873 -438665.000000 0 0 1
4.780874 -3.391992 26.501356 27.141928 -0.617068 0.217689 0.115631 -0.025254 -646709.000000 0 0 1
5.224974 -4.136292 25.387736 26.247789 -0.669622 0.256699 0.093609 -0.022190 -722471.000000 0 0 1
6.448974 -3.583092 24.607826 25.689938 -0.507137 0.291277 0.088754 -0.019593 857672.000000 0 0 1
7.712574 -3.721292 25.287286 26.697915 -0.449547 0.326523 0.098360 -0.011164 593529.000000 0 0 1
8.203374 -4.988792 25.569016 27.312231 -0.546383 0.359211 0.123911 -0.014835 -707463.000000 0 0 1
9.140274 -5.550892 24.438916 26.676162 -0.545770 0.412471 0.111096 -0.026335 -249819.000000 0 0 1
8.536574 -5.824192 23.226136 25.421403 -0.598723 0.418634 0.105603 -0.021283 -367229.000000 0 0 1
9.372274 -5.648192 22.089516 24.651335 -0.542365 0.459943 0.102221 -0.016980 38976.600000 0 1 0
9.347374 -4.289492 21.398416 23.741638 -0.430229 0.448028 0.100212 -0.026389 837988.000000 0 1 0
8.052874 -3.976892 20.852616 22.704538 -0.458713 0.406693 0.076535 -0.038284 326758.000000 0 1 0
8.021974 -2.671992 20.256116 21.949985 -0.321526 0.395431 0.063236 -0.032415 1428160.000000 0 1 0
6.618674 -1.896992 20.281216 21.418057 -0.279129 0.327276 0.072486 -0.020801 1384090.000000 0 1 0
6.201774 -1.333992 21.551316 22.465546 -0.211870 0.286265 0.082922 -0.018793 -606010.000000 0 1 0
5.048574 -0.615992 21.329916 21.927902 -0.121413 0.234074 0.042580 -0.006142 -876256.000000 0 1 0
4.304274 -0.266992 22.642116 23.049154 -0.061950 0.188211 0.037962 -0.019925 -198358.000000 0 1 0
3.066574 0.332008 22.328716 22.540756 0.107847 0.137271 0.037952 -0.020545 -176577.000000 0 1 0
2.363074 0.607008 23.546406 23.672470 0.251436 0.103248 0.054692 -0.025744 852690.000000 0 1 0
0.883074 1.032008 23.236866 23.276529 0.863011 0.058386 0.058588 -0.040740 570848.000000 0 1 0
0.851274 2.430008 23.175666 23.318257 1.233839 0.110646 0.060653 -0.020571 -317205.000000 0 1 0
-0.461726 2.880008 23.087446 23.270965 -1.411828 0.125671 0.058165 -0.020939 -569086.000000 0 1 0
-0.739626 4.331008 22.662716 23.084700 -1.401654 0.191498 0.062971 -0.015430 -210796.000000 0 1 0
-0.671126 5.351008 23.668276 24.274905 -1.446027 0.224030 0.072133 -0.017476 92981.400000 0 1 0
-1.372126 6.505008 23.202186 24.135851 -1.362910 0.279055 0.065980 -0.015634 106635.000000 0 1 0
-1.231026 7.770008 23.985726 25.242890 -1.413669 0.316928 0.087167 -0.017621 382574.000000 0 0 1
-0.036826 8.483008 23.664256 25.138811 -1.566455 0.344207 0.078274 -0.015872 214258.000000 0 0 1
-0.016826 9.794008 24.163626 26.073046 -1.569078 0.385085 0.085971 -0.016818 -623648.000000 0 0 1
0.835474 10.773008 23.347526 25.726693 1.493399 0.433452 0.084810 -0.025145 734716.000000 0 0 1
2.255274 10.769008 23.465406 25.916850 1.364357 0.438449 0.074088 -0.025195 242846.000000 0 0 1
2.728974 11.301008 24.656396 27.259823 1.333852 0.440600 0.083888 -0.024676 -705790.000000 0 0 1
4.114474 12.002008 24.625616 27.701951 1.240536 0.475751 0.076570 -0.029567 968621.000000 0 0 1
5.316774 11.261008 24.381116 27.377312 1.129684 0.472223 0.071900 -0.027127 666526.000000 0 0 1
5.346974 10.686008 23.030126 25.945474 1.106852 0.478611 0.077442 -0.029581 -2162150.000000 0 0 1
6.663874 10.286008 22.481116 25.604878 0.995928 0.499126 0.073189 -0.022854 -1059010.000000 0 0 1
7.480574 11.360008 22.007816 25.871853 0.988468 0.553581 0.070013 -0.022440 -306239.000000 0 0 1
8.701474 10.893008 21.544216 25.661772 0.896780 0.574351 0.073777 -0.017125 -540276.000000 0 0 1
9.534974 11.978008 20.778816 25.809836 0.898475 0.634997 0.070040 -0.031071 -312793.000000 0 0 1
9.091874 12.236008 19.476116 24.732594 0.931763 0.664107 0.065923 -0.030915 -24221.400000 0 1 0
9.861674 13.198008 18.810616 25.005586 0.929084 0.719316 0.079487 -0.028509 -420025.000000 0 0 1
11.238674 12.773008 18.302516 24.988790 0.849211 0.748913 0.069481 -0.025716 131109.000000 0 1 0
12.305574 12.690008 19.270616 26.149955 0.800777 0.742283 0.070566 -0.028041 415289.000000 0 0 1
13.503074 12.316008 18.633416 26.100216 0.739454 0.775719 0.070677 -0.023906 -667052.000000 0 0 1
14.622474 12.023008 19.584616 27.238331 0.688148 0.768420 0.075622 -0.009928 -787158.000000 0 0 1
15.179374 13.128008 20.230116 28.495888 0.713057 0.781396 0.073203 -0.007887 277909.000000 0 0 1
16.387074 12.683008 20.870716 29.410571 0.658663 0.781819 0.070335 -0.008685 390276.000000 0 0 1
17.211774 13.839008 21.407316 30.757707 0.677201 0.800987 0.072419 -0.008665 -628669.000000 0 0 1
16.594874 14.586008 22.419416 31.476526 0.721061 0.778086 0.080374 -0.014265 -205515.000000 0 0 1
17.265674 15.765008 22.764816 32.632436 0.739997 0.798736 0.085675 -0.011652 -245569.000000 0 0 1
-21.489826 13.167062 -23.918003 34.745575 -0.549714 2.330043 0.046605 -0.005467 80850.700000 0 0 1
-21.666326 12.991962 -25.304763 35.756842 -0.540154 2.357020 0.059519 -0.024915 300379.000000 0 0 1
-22.347226 14.083462 -26.004573 37.067239 -0.562338 2.348369 0.062553 -0.028819 417808.000000 0 0 1
-22.201026 14.075962 -27.535173 38.068412 -0.565062 2.379377 0.070432 -0.021929 398258.000000 0 0 1
-20.889826 14.420962 -27.959583 37.763570 -0.604209 2.404439 0.087107 -0.024730 112007.000000 0 0 1
-20.948726 14.898262 -29.331383 39.001761 -0.618188 2.421967 0.091924 -0.028471 -284288.000000 0 0 1
-19.541226 15.356162 -29.757993 38.771244 -0.666043 2.445771 0.079139 -0.024537 116360.000000 0 0 1
-18.683226 14.209862 -29.872203 37.991204 -0.650230 2.475582 0.073921 -0.020839 225498.000000 0 0 1
-17.333826 14.660362 -29.967543 37.595762 -0.702031 2.493272 0.071643 -0.014946 330905.000000 0 0 1
-16.324426 14.082962 -28.996543 36.133311 -0.711817 2.502249 0.095868 -0.013725 -227053.000000 0 0 1
-16.587326 14.344362 -27.628743 35.273893 -0.713011 2.470694 0.092233 -0.019676 194018.000000 0 0 1
-17.458226 13.388562 -26.976683 34.810697 -0.654224 2.457438 0.100422 -0.019230 337640.000000 0 0 1
-17.915326 13.838562 -25.584843 34.162097 -0.657710 2.417234 0.088599 -0.021730 -25537.500000 0 0 1
-16.915226 13.944462 -24.599703 32.950239 -0.689427 2.413690 0.130800 -0.033922 400924.000000 0 0 1
-17.616526 14.118162 -23.358003 32.484777 -0.675604 2.373223 0.112262 -0.031922 157072.000000 0 0 1
-16.749526 14.877362 -22.389103 31.672613 -0.726272 2.355890 0.113402 -0.028967 -141059.000000 0 0 1
-16.695526 16.250562 -22.690203 32.521787 -0.771893 2.342968 0.100598 -0.028408 -92917.900000 0 0 1
-15.897526 16.834262 -21.663403 31.708464 -0.814009 2.322940 0.105999 -0.022759 -102262.000000 0 0 1
-15.626126 18.311562 -21.975203 32.594457 -0.864362 2.310678 0.096833 -0.025095 266655.000000 0 0 1
-16.777426 19.138262 -21.954303 33.611702 -0.851036 2.282565 0.080299 -0.022559 325314.000000 0 0 1
-17.581226 19.048362 -23.135003 34.744322 -0.825430 2.299448 0.064008 -0.023219 291858.000000 0 0 1
-18.886126 19.871762 -23.210703 35.920877 -0.810823 2.273341 0.052558 -0.016585 291991.000000 0 0 1
-18.549726 21.202962 -23.434003 36.644378 -0.852043 2.264641 0.053148 -0.009533 716111.000000 0 0 1
-19.760426 21.960862 -23.299303 37.624611 -0.838091 2.238592 0.075547 -0.020634 798932.000000 0 0 1
-19.603826 23.467262 -23.652703 38.658411 -0.874858 2.229179 0.063120 -0.024616 -161091.000000 0 0 1
-18.971026 24.081662 -22.580003 38.074700 -0.903552 2.205631 0.069971 -0.031606 -309098.000000 0 0 1
-18.348326 25.310962 -22.886903 38.744240 -0.943543 2.202744 0.064171 -0.020981 -38758.400000 0 0 1
-17.268826 25.674262 -21.782503 37.839893 -0.978689 2.184194 0.061896 -0.025996 1016440.000000 0 0 1
-16.057626 24.888862 -21.851503 36.807485 -0.997822 2.206408 0.072666 -0.043431 417183.000000 0 0 1
-16.152026 23.457462 -21.666003 35.784859 -0.967785 2.221130 0.092183 -0.027588 -600545.000000 0 0 1
-14.806326 22.658262 -21.595503 34.626433 -0.991991 2.244227 0.107926 -0.027970 796791.000000 0 0 1
-14.100826 22.786862 -20.354603 33.650917 -1.016658 2.220405 0.128576 -0.041349 -151539.000000 0 0 1
-13.035826 21.874162 -20.222603 32.517155 -1.033363 2.241970 0.124764 -0.037509 -6251.660000 0 0 1
-12.137826 22.276762 -19.004303 31.697704 -1.071904 2.213733 0.123968 -0.048455 314227.000000 0 0 1
-12.757626 22.246862 -17.705803 31.163686 -1.050122 2.175058 0.146690 -0.048368 155101.000000 0 0 1
-13.856526 23.101662 -17.418103 32.079283 -1.030519 2.144767 0.144474 -0.053101 25277.500000 0 0 1
-14.409326 22.883462 -15.997603 31.419815 -1.008837 2.105001 0.156015 -0.054506 134282.000000 0 0 1
-13.578326 23.291062 -14.919703 30.813017 -1.042982 2.076246 0.146160 -0.060079 -211954.000000 0 0 1
-14.353926 23.275462 -13.779303 30.621096 -1.018189 2.037555 0.155676 -0.050459 153676.000000 0 0 1
-13.489426 23.651562 -12.529903 29.972645 -1.052471 2.002088 0.186805 -0.046240 187098.000000 0 0 1
-12.906026 24.915262 -12.702303 30.800719 -1.092855 1.995886 0.171772 -0.052370 310179.000000 0 0 1
-11.891426 25.170262 -11.741503 30.212762 -1.129439 1.969938 0.110470 -0.040546 213596.000000 0 0 1
-11.360726 26.591962 -11.743903 31.210860 -1.167043 1.956570 0.142681 -0.041871 288244.000000 0 0 1
-10.672426 27.012962 -12.933703 31.794362 -1.194534 1.989736 0.133463 -0.046591 50118.200000 0 0 1
-10.907026 28.399862 -13.069703 33.110912 -1.204113 1.976565 0.103214 -0.034560 -660115.000000 0 0 1
-10.282226 28.975462 -14.353903 33.931344 -1.229799 2.007581 0.122880 -0.052448 -309675.000000 0 0 1
-8.886426 28.975162 -14.359903 33.537075 -1.273212 2.013274 0.112090 -0.055096 -249046.000000 0 0 1
-8.244326 27.672062 -14.563503 32.338948 -1.281240 2.037942 0.116296 -0.054804 -154634.000000 0 0 1
-6.781726 27.730462 -15.049003 32.271393 -1.330945 2.055930 0.119156 -0.057925 167457.000000 0 0 1
-5.768426 28.063162 -14.146203 31.952008 -1.368069 2.029441 0.106700 -0.053646 -40760.000000 0 0 1
-4.496726 27.959862 -14.804403 31.955356 -1.411334 2.052494 0.117315 -0.054889 437687.000000 0 0 1
-3.486126 28.986962 -14.302003 32.510680 -1.451106 2.026303 0.095260 -0.042760 -496879.000000 0 0 1
-3.624726 30.351462 -14.601403 33.875520 -1.451934 2.016432 0.082020 -0.028723 -311009.000000 0 0 1
-4.767626 31.032462 -14.144903 34.435770 -1.418355 1.994086 0.067037 -0.027155 -216579.000000 0 0 1
-4.670926 32.514262 -14.498303 35.905369 -1.428115 1.986454 0.061461 -0.028930 -165085.000000 0 0 1
-3.684826 33.230562 -13.787303 36.165424 -1.460361 1.961921 0.041648 -0.030673 -199840.000000 0 0 1
-3.724726 -33.183992 -13.992003 36.205345 1.459020 1.967589 0.041031 -0.026184 93031.100000 0 0 1
-2.905926 -32.356592 -12.987903 34.986841 1.481227 1.951122 0.040599 -0.027283 -84531.600000 0 0 1
-3.342226 -32.292392 -11.616303 34.480538 1.467665 1.914413 0.041035 -0.033770 -67486.900000 0 0 1
-2.362426 -31.696492 -10.793503 33.567072 1.496401 1.898163 0.037750 -0.036256 -70347.500000 0 0 1
-2.769226 -31.676892 -9.314003 33.133740 1.483597 1.855740 0.035086 -0.032716 185903.000000 0 0 1
-1.702526 -31.084992 -8.552403 32.284964 1.516081 1.838900 0.040750 -0.027067 470092.000000 0 0 1
-2.031326 -31.067992 -7.188303 31.953374 1.505506 1.797701 0.044171 -0.043410 -228824.000000 0 0 1
-0.842526 -30.693292 -6.298503 31.344204 1.543353 1.773120 0.068090 -0.035756 -148485.000000 0 0 1
-1.135026 -30.759592 -4.902403 31.168483 1.533913 1.728739 0.090273 -0.034712 -1021760.000000 0 0 1
-0.133026 -30.233592 -4.132403 30.514988 1.566396 1.706636 0.081855 -0.022882 -887749.000000 0 0 1
-0.273026 -30.388592 -2.589003 30.499901 1.561812 1.655784 0.095009 -0.014373 -611382.000000 0 0 1
-0.172026 -31.745592 -2.075803 31.813851 1.565377 1.636091 0.104355 -0.026270 -38989.300000 0 0 1
1.098074 -32.345692 -2.215303 32.440054 -1.536861 1.639139 0.084841 -0.024614 -14218.100000 0 0 1
2.320874 -31.743392 -1.522803 31.864531 -1.497813 1.618604 0.096407 -0.022691 -1061210.000000 0 0 1
2.536174 -31.950492 -0.135003 32.051277 -1.491584 1.575008 0.077843 -0.017196 912717.000000 0 0 1
3.834774 -31.643892 0.434497 31.878365 -1.450199 1.557166 0.069406 -0.013620 1179700.000000 0 0 1
4.398774 -30.188992 0.469597 30.511391 -1.426107 1.555405 0.049304 -0.012468 -748529.000000 0 0 1
4.733074 -29.801692 -0.805703 30.185957 -1.413293 1.597491 0.060004 -0.018485 34565.900000 0 0 1
4.722074 -28.418392 -0.946803 28.823591 -1.406138 1.603650 0.075779 -0.013513 -566319.000000 0 0 1
4.186374 -27.763792 -2.211603 28.164606 -1.421138 1.649401 0.085318 -0.011966 1252830.000000 0 0 1
2.830474 -28.122992 -2.624603 28.386666 -1.470488 1.663388 0.097848 -0.015166 1643130.000000 0 0 1
2.193974 -27.259792 -3.591103 27.582708 -1.490486 1.701361 0.102965 -0.021207 350668.000000 0 0 1
2.782374 -27.300692 -5.040903 27.901256 -1.469231 1.752463 0.081486 -0.022301 -4338.460000 0 0 1
2.406574 -28.405292 -5.858203 29.102762 -1.486275 1.773475 0.076754 -0.023706 126624.000000 0 0 1
2.960374 -28.270292 -7.176203 29.316738 -1.466460 1.818091 0.089545 -0.041933 148434.000000 0 0 1
2.039074 -28.928892 -8.243203 30.149444 -1.500427 1.847734 0.072774 -0.038273 -215986.000000 0 0 1
0.818974 -28.249492 -8.373703 29.475810 -1.541814 1.858851 0.075061 -0.035599 -686695.000000 0 0 1
0.360674 -28.192792 -9.686803 29.812711 -1.558004 1.901725 0.080239 -0.033974 450329.000000 0 0 1
-1.073426 -27.591892 -9.808103 29.302963 1.531912 1.912098 0.050266 -0.029399 -142391.000000 0 0 1
-1.291026 -26.293792 -9.287403 27.915696 1.521736 1.909956 0.050756 -0.020528 283376.000000 0 0 1
-2.647926 -25.847192 -9.416503 27.636197 1.468707 1.918490 0.061955 -0.023273 1320690.000000 0 0 1
-3.695926 -26.464892 -8.434303 28.021203 1.432040 1.876534 0.051826 -0.017268 -309640.000000 0 0 1
-3.451426 -26.290392 -7.008703 27.426610 1.440262 1.829207 0.058950 -0.019472 85505.000000 0 0 1
-2.561626 -27.291692 -6.455303 28.161486 1.477210 1.802077 0.072604 -0.021040 594189.000000 0 0 1
-2.300726 -27.015692 -4.972903 27.565752 1.485839 1.752191 0.077693 -0.013948 -164803.000000 0 0 1
-3.282926 -27.419292 -4.072403 27.913789 1.451633 1.717211 0.085054 -0.019772 -183408.000000 0 0 1
-2.861126 -27.066992 -2.725103 27.353871 1.465482 1.670586 0.087126 -0.005404 595696.000000 0 0 1
-4.052026 -27.196492 -1.714203 27.550074 1.422894 1.633058 0.108461 -0.010623 546614.000000 0 0 1
-5.099126 -26.284992 -2.025103 26.851497 1.379183 1.646287 0.093680 0.001541 8786.810000 0 0 1
-5.907426 -26.191892 -0.864003 26.863719 1.348964 1.602964 0.109289 -0.008414 -97952.800000 0 0 1
-6.899426 -25.020792 -0.860503 25.968877 1.301735 1.603938 0.061636 -0.006671 -39394.100000 0 0 1
-6.211626 -23.810692 -0.701403 24.617581 1.315608 1.599292 0.066509 -0.008966 84582.500000 0 1 0
-6.833626 -23.015792 0.281897 24.010510 1.282177 1.559055 0.063735 -0.011129 -157667.000000 0 1 0
-6.058226 -21.718892 0.484197 22.553199 1.298773 1.549326 0.042422 -0.015054 -166408.000000 0 1 0
-4.926226 -21.847992 1.309897 22.434756 1.349028 1.512376 0.041434 -0.013643 -279150.000000 0 1 0
-4.546426 -20.562692 1.648897 21.123758 1.353196 1.492658 0.017880 -0.009421 -61606.200000 0 1 0
-3.449826 -20.388792 2.739797 20.859305 1.403182 1.439069 0.026236 -0.005880 -13575.200000 0 1 0
-3.795826 -20.644092 4.089797 21.384884 1.388958 1.378364 0.015425 0.011436 -432486.000000 0 1 0
-2.832326 -20.195492 5.012197 21.000049 1.431460 1.329795 0.031313 -0.005216 -550288.000000 0 1 0
-1.991726 -21.327792 5.555397 22.129259 1.477680 1.317039 0.049334 -0.018718 -830623.000000 0 1 0
-1.047726 -21.664592 4.603697 22.173098 1.522473 1.361650 0.074602 -0.019709 -917204.000000 0 1 0
-0.296526 -22.745692 5.093497 23.310902 1.557761 1.350516 0.084385 -0.025376 210322.000000 0 1 0
0.783474 -23.221392 4.035897 23.582522 -1.537070 1.398810 0.097417 -0.028432 1105550.000000 0 1 0
1.792974 -22.296492 3.607397 22.657485 -1.490554 1.410902 0.054483 -0.032522 499377.000000 0 1 0
2.939674 -22.461692 4.418497 23.080130 -1.440661 1.378166 0.079492 -0.038989 371665.000000 0 1 0
4.094174 -21.395892 4.328997 22.210058 -1.381729 1.374629 0.080406 -0.037523 676711.000000 0 1 0
4.967174 -21.459592 3.213397 22.260117 -1.343336 1.425933 0.048785 -0.021870 -123053.000000 0 1 0
6.189374 -20.864992 3.627197 22.063835 -1.282426 1.405651 0.066012 -0.015856 315230.000000 0 1 0
7.122074 -20.478892 2.465697 21.821746 -1.236104 1.457562 0.075927 -0.013591 -337131.000000 0 1 0
7.602874 -21.639692 1.796697 23.006696 -1.232929 1.492622 0.069415 -0.009464 -46806.500000 0 1 0
7.138274 -21.584792 0.462197 22.739213 -1.251410 1.550469 0.058707 -0.017665 71283.500000 0 1 0
8.034974 -22.382192 -0.500003 23.785990 -1.226135 1.591819 0.060745 -0.012575 542470.000000 0 1 0
9.322574 -21.815892 -0.751603 23.736226 -1.166954 1.602466 0.067673 -0.011515 -116288.000000 0 1 0
10.073074 -22.709992 -1.531103 24.890858 -1.153317 1.632348 0.069071 -0.006989 -260505.000000 0 1 0
11.421474 -22.059692 -1.856503 24.910373 -1.093047 1.645393 0.081298 -0.010524 -240513.000000 0 1 0
11.369674 -21.065092 -2.894703 24.111966 -1.075864 1.691139 0.082340 -0.007012 -202139.000000 0 1 0
12.616774 -20.932492 -3.538703 24.695640 -1.028367 1.714584 0.088649 -0.008896 -48364.400000 0 1 0
12.723674 -19.612692 -4.362303 23.781910 -0.995302 1.755270 0.085389 -0.025209 -170972.000000 0 1 0
12.878074 -18.418992 -3.603903 22.761638 -0.960625 1.729798 0.097055 -0.026972 189502.000000 0 1 0
13.317974 -17.392092 -4.451603 22.353301 -0.917292 1.771284 0.110582 -0.031990 -380035.000000 0 1 0
13.718274 -16.045292 -3.788303 21.447463 -0.863423 1.748360 0.121079 -0.025575 1052340.000000 0 1 0
15.013874 -15.812492 -3.213203 22.040326 -0.811299 1.717105 0.110788 -0.028069 978962.000000 0 1 0
16.103774 -15.721592 -4.105103 22.876885 -0.773390 1.751217 0.119868 -0.034005 -190666.000000 0 1 0
17.473074 -15.258292 -3.614803 23.477449 -0.717836 1.725380 0.112532 -0.031877 -107034.000000 0 1 0
18.313574 -16.210292 -3.036003 24.645038 -0.724551 1.694299 0.121912 -0.029242 -229930.000000 0 1 0
19.676474 -15.916392 -3.095403 25.496602 -0.680147 1.692501 0.077285 -0.012464 -329598.000000 0 0 1
20.502174 -17.145592 -2.598903 26.852649 -0.696476 1.667732 0.079633 -0.021852 305104.000000 0 0 1
21.911274 -16.984892 -2.563103 27.841695 -0.659414 1.662987 0.059400 -0.011775 463538.000000 0 0 1
22.501774 -17.735992 -1.530703 28.692130 -0.667507 1.624171 0.062125 -0.010652 163279.000000 0 0 1
24.035674 -17.579992 -1.408503 29.811971 -0.631499 1.618060 0.073159 -0.016663 87290.700000 0 0 1
24.494274 -16.403692 -0.785403 29.490124 -0.590096 1.597432 0.059062 -0.013361 -261385.000000 0 0 1
25.854574 -16.391092 -0.473703 30.616193 -0.565026 1.586269 0.111015 -0.028834 -100680.000000 0 0 1
26.515674 -15.079792 0.042597 30.503818 -0.517096 1.569400 0.094787 -0.024262 663760.000000 0 0 1
25.760974 -14.579592 1.185797 29.624288 -0.515011 1.530758 0.073394 -0.019523 604719.000000 0 0 1
26.427674 -13.482392 1.735397 29.718823 -0.471744 1.512369 0.064864 -0.021283 16343.100000 0 0 1
25.672474 -12.729292 2.877097 28.799106 -0.460309 1.470727 0.085986 -0.025554 -323662.000000 0 0 1
25.363774 -13.387692 4.059197 28.965987 -0.485661 1.430197 0.103688 -0.018517 -630147.000000 0 0 1
26.394974 -13.907392 4.815597 30.220857 -0.484932 1.410767 0.110787 -0.021350 -694924.000000 0 0 1
25.926774 -14.585692 6.183697 30.383847 -0.512445 1.365845 0.110876 -0.019689 331226.000000 0 0 1
25.304674 -15.812692 5.825497 30.402371 -0.558522 1.377991 0.110526 -0.026707 29780.800000 0 0 1
24.594874 -16.390292 6.912097 30.353362 -0.587825 1.341060 0.092175 -0.023283 -33481.200000 0 0 1
23.814474 -17.657792 6.525197 30.356301 -0.638022 1.354152 0.081181 -0.017126 53849.400000 0 0 1
24.700474 -18.735592 6.231597 31.622281 -0.648926 1.372435 0.085955 -0.018419 18914.800000 0 0 1
24.069274 -19.986392 6.185797 31.891220 -0.692987 1.375593 0.054682 -0.004373 -88150.100000 0 0 1
1.585774 23.036162 -3.301603 23.325523 1.502066 1.712818 0.040023 -0.020531 -193953.000000 0 1 0
2.606974 23.830562 -2.775203 24.132835 1.461833 1.686048 0.050776 -0.024091 -384529.000000 0 1 0
3.285274 24.463762 -3.821903 24.977502 1.437304 1.724414 0.069992 -0.027325 232776.000000 0 1 0
4.274374 25.579962 -3.328603 26.147358 1.405227 1.698444 0.049451 -0.020468 316233.000000 0 0 1
5.295474 25.067062 -2.517503 25.743688 1.362605 1.668744 0.045420 -0.025939 -174986.000000 0 0 1
6.086074 26.019662 -1.824303 26.784159 1.341024 1.638960 0.037981 -0.024226 727704.000000 0 0 1
7.336374 25.445762 -1.049103 26.503015 1.290095 1.610391 0.033369 -0.035011 423776.000000 0 0 1
8.320274 25.102062 -1.971003 26.518396 1.250735 1.645191 0.044463 -0.036134 -125940.000000 0 0 1
9.312374 24.168562 -1.492803 25.943557 1.203018 1.628369 0.034667 -0.037936 514046.000000 0 0 1
10.491974 23.989062 -2.477103 26.300050 1.158499 1.665122 0.045225 -0.027497 -1338070.000000 0 0 1
11.369374 25.069062 -2.318503 27.624192 1.145017 1.654825 0.043965 -0.028912 -354910.000000 0 0 1
12.420174 25.158962 -3.260303 28.246481 1.112227 1.686477 0.065552 -0.028808 1248830.000000 0 0 1
13.567974 24.048162 -3.148503 27.790594 1.057116 1.684334 0.062213 -0.025353 -15314.800000 0 0 1
13.114974 22.715362 -3.427903 26.452613 1.047189 1.700748 0.067820 -0.024637 -139126.000000 0 0 1
12.914274 22.392962 -4.770403 26.286498 1.047677 1.753285 0.080582 -0.026651 -66722.200000 0 0 1
11.938474 21.223562 -5.065403 24.872174 1.058399 1.775889 0.081786 -0.025659 -891605.000000 0 1 0
10.612174 21.507762 -4.857603 24.470357 1.112433 1.770633 0.078705 -0.021564 -871493.000000 0 1 0
9.815874 20.303962 -4.783203 23.053878 1.120479 1.779794 0.058792 -0.014381 803393.000000 0 1 0
8.274074 20.511462 -4.769503 22.625838 1.187373 1.783189 0.051967 -0.019491 394878.000000 0 1 0
7.943774 21.050962 -3.507803 22.771720 1.209959 1.725454 0.051561 -0.020210 459720.000000 0 1 0
6.553174 21.384262 -3.470303 22.633465 1.273434 1.724730 0.049714 -0.018151 658134.000000 0 1 0
6.103774 22.064862 -2.202203 22.999215 1.300917 1.666694 0.048301 -0.023629 -138306.000000 0 1 0
5.788974 21.268262 -1.071103 22.068041 1.305046 1.619352 0.041112 -0.021952 -79422.000000 0 1 0
4.794674 21.942862 -0.339503 22.463155 1.355670 1.585911 0.040986 -0.018188 -21094.900000 0 1 0
4.443374 21.094262 0.864097 21.574479 1.363188 1.530734 0.027652 -0.015982 218565.000000 0 1 0
3.539274 21.718462 1.792697 22.077858 1.409255 1.489508 0.024542 -0.016175 396207.000000 0 1 0
3.357774 20.875862 2.939697 21.347554 1.411317 1.432651 0.030661 -0.015411 39769.700000 0 1 0
2.365874 21.488262 3.951997 21.976375 1.461137 1.389983 0.030405 -0.009543 -269153.000000 0 1 0
1.074574 21.660062 3.444897 21.958604 1.521226 1.413264 0.027389 -0.007918 -541265.000000 0 1 0
0.169874 22.015962 4.454997 22.462823 1.563081 1.371145 0.035934 -0.016474 692715.000000 0 1 0
-1.266326 22.401162 3.997497 22.790253 -1.514327 1.394480 0.026441 -0.006370 927761.000000 0 1 0
-2.230726 22.689962 5.025797 23.346716 -1.472798 1.353830 0.048860 -0.017989 442581.000000 0 1 0
-3.477926 22.888862 4.348797 23.556485 -1.420001 1.385120 0.063762 -0.018708 1026430.000000 0 1 0
-4.721526 22.937162 5.310997 24.012765 -1.367786 1.347778 0.077651 -0.034291 527340.000000 0 1 0
-5.066126 24.250262 5.698497 25.420734 -1.364848 1.344708 0.109192 -0.030489 -16152.900000 0 0 1
-6.153526 24.202462 6.605197 25.831254 -1.321820 1.312219 0.118419 -0.036401 60162.400000 0 0 1
-6.639226 25.498062 7.117097 27.292555 -1.316071 1.306976 0.136396 -0.043252 457078.000000 0 0 1
-5.643526 26.140862 7.952597 27.900499 -1.358171 1.281754 0.129398 -0.047429 592052.000000 0 0 1
-6.095726 27.358762 8.559197 29.307330 -1.351570 1.274427 0.147853 -0.045974 -86859.200000 0 0 1
-6.331726 28.613062 7.676797 30.294080 -1.353018 1.314594 0.164283 -0.048156 -110887.000000 0 0 1
-7.504926 28.509262 6.923897 30.282706 -1.313391 1.340114 0.144834 -0.049480 -741602.000000 0 0 1
-7.653826 29.598562 5.986997 31.152850 -1.317752 1.377412 0.157278 -0.049383 -943021.000000 0 0 1
-9.051526 29.747462 5.363297 31.553234 -1.275419 1.399991 0.142060 -0.050586 -298155.000000 0 0 1
-10.037626 30.142162 6.246397 32.377791 -1.249337 1.376657 0.130733 -0.042960 -716691.000000 0 0 1
-10.572026 29.181662 7.082697 31.835542 -1.223221 1.346441 0.105772 -0.040371 -652626.000000 0 0 1
-11.693926 29.670462 8.046697 32.891238 -1.195363 1.323642 0.078095 -0.037671 -4825.390000 0 0 1
-11.283626 30.506062 9.107097 33.776904 -1.216521 1.297793 0.087649 -0.035725 -597339.000000 0 0 1
-12.335526 30.885662 9.937997 34.710994 -1.190813 1.280426 0.092385 -0.026997 -505964.000000 0 0 1
-11.908326 31.185262 11.392097 35.271924 -1.206027 1.241921 0.077116 -0.035001 -311217.000000 0 0 1
-11.121626 32.331162 11.461297 36.060448 -1.239485 1.247350 0.074691 -0.031479 -102303.000000 0 0 1
-10.485126 32.526062 12.672397 36.448213 -1.258953 1.215698 0.067691 -0.037705 64302.400000 0 0 1
-9.849926 -33.857892 12.897897 37.546420 1.287691 1.220135 0.073747 -0.039905 -141375.000000 0 0 1
-10.794626 -32.943492 13.346997 37.147543 1.254151 1.203282 0.074425 -0.024328 -177314.000000 0 0 1
-10.270426 -31.602392 13.492797 35.864305 1.256574 1.185085 0.085291 -0.015315 326108.000000 0 0 1
-11.311626 -30.564992 13.993297 35.468070 1.216342 1.165238 0.068502 -0.021544 67658.600000 0 0 1
-11.657326 -30.567292 15.381797 36.150411 1.206456 1.131288 0.060515 -0.026460 334116.000000 0 0 1
-10.595926 -30.095892 16.221097 35.793300 1.232277 1.100458 0.076134 -0.028013 454912.000000 0 0 1
-10.915526 -30.398692 17.713997 36.837683 1.226056 1.069154 0.089422 -0.034153 -143739.000000 0 0 1
-11.710326 -29.434192 18.350097 36.609144 1.192147 1.045761 0.086674 -0.040779 31457.600000 0 0 1
-12.202926 -30.061292 19.567397 37.887672 1.185184 1.028087 0.089229 -0.040405 -88012.200000 0 0 1
-12.209426 -29.218592 20.833197 37.905386 1.174985 0.988898 0.094592 -0.046702 1042900.000000 0 0 1
-10.896126 -28.928992 21.353297 37.570938 1.210579 0.966302 0.085888 -0.044987 1074600.000000 0 0 1
-11.147326 -28.081392 22.440397 37.635075 1.192909 0.931959 0.088484 -0.045037 -77547.900000 0 0 1
-9.923026 -27.936492 23.329497 37.725051 1.229497 0.904080 0.114089 -0.047236 -476213.000000 0 0 1
-9.753526 -28.955592 24.284597 39.029466 1.245889 0.899231 0.097963 -0.035845 478113.000000 0 0 1
-8.440126 -29.004092 24.843697 39.111154 1.287619 0.882519 0.126787 -0.040042 368035.000000 0 0 1
-8.308826 -30.070892 25.864697 40.525025 1.301215 0.878586 0.113644 -0.042052 -54332.900000 0 0 1
-8.358126 -31.313292 25.312097 41.122777 1.309958 0.907744 0.127072 -0.031710 308382.000000 0 0 1
-8.660026 -32.297492 26.271797 42.524479 1.308825 0.904849 0.139590 -0.031406 -291083.000000 0 0 1
-8.786326 -33.763692 25.671597 43.315324 1.316213 0.936429 0.129136 -0.028446 493704.000000 0 0 1
-7.477126 33.478962 25.354997 42.657053 -1.351064 0.934287 0.115449 -0.024587 843081.000000 0 0 1
-7.372226 32.097262 24.992897 41.342821 -1.345028 0.921623 0.089883 -0.015060 -148220.000000 0 0 1
-8.042926 31.494962 23.713497 40.236193 -1.320768 0.940533 0.089913 -0.021103 699104.000000 0 0 1
-9.398226 31.059462 23.931997 40.320681 -1.276967 0.935344 0.103301 -0.014436 1071730.000000 0 0 1
-9.992926 30.690362 22.672997 39.443905 -1.256018 0.958417 0.081765 -0.015224 39324.000000 0 0 1
-10.601126 29.251162 22.692297 38.509151 -1.223102 0.940641 0.086634 -0.024650 134455.000000 0 0 1
-9.692726 28.148462 22.552297 37.348239 -1.239170 0.922489 0.073537 -0.015795 651305.000000 0 0 1
-10.320226 26.971062 23.059997 36.955496 -1.205344 0.896953 0.060365 -0.016368 392651.000000 0 0 1
-9.458926 25.711162 22.726197 35.595156 -1.218272 0.878296 0.064255 -0.016997 -261337.000000 0 0 1
-8.110926 25.699462 23.073497 35.477256 -1.265084 0.862719 0.062045 -0.024028 -606470.000000 0 0 1
-7.656626 24.395862 22.790597 34.251910 -1.266683 0.842791 0.068209 -0.025994 241881.000000 0 0 1
-6.165526 24.256262 23.189297 34.119253 -1.321885 0.823505 0.068481 -0.026644 72100.100000 0 0 1
-5.214926 24.873162 22.354997 33.846943 -1.364129 0.849348 0.069685 -0.022399 6952.840000 0 0 1
-3.969926 24.781362 23.040197 34.069442 -1.411948 0.828107 0.091504 -0.017724 -303218.000000 0 0 1
-2.819626 25.493162 22.356797 34.024667 -1.460641 0.853863 0.092063 -0.017361 -646399.000000 0 0 1
-2.414626 24.697262 21.281897 32.691043 -1.473337 0.861894 0.078028 -0.016170 254580.000000 0 0 1
-1.393826 25.292362 20.472997 32.569770 -1.515743 0.891059 0.091404 -0.020453 673686.000000 0 0 1
-0.769526 24.357062 19.348797 31.116468 -1.539213 0.899734 0.087372 -0.030959 -37793.600000 0 0 1
0.086174 23.332562 19.816897 30.612502 1.567103 0.866698 0.073871 -0.023993 -91555.600000 0 0 1
0.301574 22.323962 18.827497 29.204878 1.557288 0.870205 0.062565 -0.023708 -315171.000000 0 0 1
1.413474 21.429062 19.389297 28.933500 1.504931 0.836408 0.058957 -0.017739 724899.000000 0 0 1
2.714374 22.035962 19.313497 29.427243 1.448234 0.854874 0.065736 -0.027661 639437.000000 0 0 1
3.777374 21.097962 19.469497 28.956068 1.393634 0.833376 0.073591 -0.023962 917656.000000 0 0 1
5.184074 21.741362 19.207997 29.470470 1.336724 0.860879 0.073147 -0.033494 -74963.700000 0 0 1
6.096374 20.736062 19.007797 28.782745 1.284854 0.849460 0.083976 -0.030109 -594013.000000 0 0 1
7.351574 21.316062 18.689397 29.286750 1.238686 0.878701 0.099484 -0.034079 214106.000000 0 0 1
8.543574 20.388262 18.394397 28.758090 1.173981 0.876786 0.098244 -0.019648 -40732.100000 0 0 1
8.930074 19.563062 19.473797 29.011866 1.142570 0.834922 0.104734 -0.026612 -501251.000000 0 0 1
9.809974 18.603462 19.040097 28.369873 1.085532 0.835054 0.088218 -0.020008 -335780.000000 0 0 1
10.571974 17.926962 20.217097 29.015059 1.037966 0.799899 0.097580 -0.022205 -514877.000000 0 0 1
9.770574 17.014062 20.861097 28.637874 1.049515 0.754748 0.105297 -0.026238 -341479.000000 0 0 1
10.217474 16.590362 22.141897 29.494076 1.018791 0.721640 0.106887 -0.035545 5875.120000 0 0 1
9.343974 15.377362 22.670297 28.943315 1.024775 0.670895 0.089560 -0.037032 856389.000000 0 0 1
8.040774 15.829862 23.073997 29.114394 1.100809 0.655852 0.092247 -0.033770 516146.000000 0 0 1
7.109474 14.807162 23.372297 28.566780 1.123165 0.612587 0.080395 -0.025112 112912.000000 0 0 1
7.434474 13.805062 24.521097 29.105590 1.076800 0.568912 0.090012 -0.027170 -812603.000000 0 0 1
7.553074 14.385862 25.770297 30.464901 1.087322 0.562544 0.095288 -0.035479 -26670.500000 0 0 1
7.768374 13.344362 26.774797 30.908080 1.043608 0.523106 0.097815 -0.035157 -229479.000000 0 0 1
8.874774 13.785462 27.796797 32.271698 0.998808 0.532901 0.068853 -0.029703 550912.000000 0 0 1
10.186074 13.873562 27.256497 32.235826 0.937479 0.563231 0.095668 -0.031984 244419.000000 0 0 1
10.484274 15.014862 26.411897 32.139608 0.961239 0.606257 0.086425 -0.028870 -981982.000000 0 0 1
11.908174 14.922662 25.853397 32.138584 0.897281 0.636073 0.106428 -0.031992 -300422.000000 0 0 1
11.938374 13.919262 24.859897 30.891506 0.861856 0.635544 0.110075 -0.033057 27147.100000 0 0 1
13.230374 13.713562 24.334397 30.907402 0.803329 0.664326 0.116491 -0.031548 -397906.000000 0 0 1
13.266974 12.685562 23.224297 29.602433 0.762999 0.668842 0.100393 -0.022787 45905.800000 0 0 1
12.906274 11.347862 23.608997 29.201552 0.721233 0.629224 0.109129 -0.019903 395853.000000 0 0 1
11.505074 11.168362 23.731197 28.640335 0.770549 0.594205 0.120515 -0.023839 -374902.000000 0 0 1
11.044974 9.827662 24.402697 28.531842 0.727143 0.544707 0.118926 -0.022888 -32291.200000 0 0 1
11.198074 8.693662 23.628597 27.555167 0.660155 0.540403 0.122228 -0.016717 212336.000000 0 0 1
10.658574 7.570262 24.270797 27.567838 0.617573 0.494086 0.128373 -0.019013 22993.500000 0 0 1
10.787474 6.281262 23.407597 26.528088 0.527283 0.489920 0.136050 -0.029226 1399590.000000 0 0 1
12.180574 5.871462 23.242497 26.889666 0.449173 0.526909 0.142623 -0.025120 1729480.000000 0 0 1
12.391474 4.755962 22.428397 26.061481 0.366471 0.534358 0.152408 -0.029311 -211269.000000 0 0 1
12.332974 3.406962 23.164697 26.463425 0.269526 0.504642 0.149673 -0.036393 -307239.000000 0 0 1
13.453974 3.044462 23.923697 27.615602 0.222539 0.523027 0.152624 -0.036320 271334.000000 0 0 1
13.197274 1.705962 24.383897 27.778639 0.128553 0.499561 0.154243 -0.032890 2031.750000 0 0 1
14.420074 1.227462 25.191397 29.052568 0.084917 0.521451 0.133904 -0.023651 15291.800000 0 0 1
15.472674 0.660662 24.468597 28.957769 0.042673 0.564277 0.156696 -0.034628 -352657.000000 0 0 1
16.686374 1.346162 24.558497 29.721491 0.080500 0.598312 0.143769 -0.035794 -768516.000000 0 0 1
17.767674 0.703562 23.702997 29.631357 0.039577 0.643619 0.135202 -0.036527 -566491.000000 0 0 1
18.053874 -0.657138 24.095697 30.116056 -0.036383 0.643343 0.133551 -0.037037 378294.000000 0 0 1
19.015374 -1.283038 23.247297 30.061062 -0.067372 0.686710 0.127850 -0.024162 313682.000000 0 0 1
19.349174 -2.749638 23.541997 30.597005 -0.141161 0.692861 0.116499 -0.021436 127942.000000 0 0 1
18.265974 -3.638138 23.270197 29.805770 -0.196603 0.674966 0.106106 -0.014366 283612.000000 0 0 1
18.596774 -5.007538 23.325797 30.249104 -0.263031 0.690192 0.104402 -0.016379 247537.000000 0 0 1
17.454274 -5.976838 22.881797 29.393042 -0.329914 0.678561 0.112336 -0.019068 299983.000000 0 0 1
17.540374 -6.100638 21.424597 28.353058 -0.334718 0.714171 0.108812 -0.016262 199869.000000 0 0 1
16.712174 -7.115138 20.877397 27.672869 -0.402502 0.716003 0.120170 -0.025593 -99613.700000 0 0 1
17.141874 -8.618438 21.033097 28.469501 -0.465862 0.739517 0.119836 -0.025713 -191586.000000 0 0 1
16.907674 -9.102038 22.299197 29.427381 -0.493845 0.710907 0.111008 -0.018091 -121498.000000 0 0 1
17.646274 -10.258638 22.545797 30.412886 -0.526592 0.735756 0.090991 -0.018485 -222896.000000 0 0 1
17.089174 -11.081238 23.722097 31.266142 -0.575275 0.709458 0.106290 -0.024711 -548361.000000 0 0 1
16.008974 -11.844838 23.315397 30.662603 -0.636998 0.706890 0.127214 -0.023363 -587362.000000 0 0 1
15.773874 -12.881238 24.239097 31.658731 -0.684792 0.698765 0.140126 -0.019702 309211.000000 0 0 1
14.642474 -13.777838 23.624097 31.021426 -0.754984 0.705108 0.169395 -0.024426 32915.000000 0 0 1
15.047174 -14.394738 22.466097 30.632523 -0.763242 0.747476 0.157709 -0.033632 135209.000000 0 0 1
14.053674 -15.171638 21.803597 30.051310 -0.823633 0.758969 0.174520 -0.024987 -158647.000000 0 0 1
14.584274 -16.209438 20.807697 30.139794 -0.838125 0.808792 0.142633 -0.039549 -212388.000000 0 0 1
15.378274 -17.208638 21.389497 31.466476 -0.841508 0.823368 0.157914 -0.042000 159978.000000 0 0 1
15.831174 -18.205738 20.475097 31.643397 -0.855050 0.867078 0.139683 -0.031492 -330656.000000 0 0 1
-24.723726 -32.077692 25.438606 47.826390 0.914150 1.009960 0.076637 -0.024911 -631534.000000 0 0 1
-25.134606 -33.430292 25.586526 49.030635 0.926111 1.021781 0.077296 -0.019034 283812.000000 0 0 1
-26.325336 -33.663692 26.320556 50.190030 0.907122 1.018765 0.084618 -0.031913 68425.200000 0 0 1
-26.371616 -33.377892 27.859116 50.849544 0.902126 0.990976 0.070918 -0.031769 -649773.000000 0 0 1
-27.659746 -33.531192 28.382456 51.913064 0.881058 0.992342 0.082129 -0.033668 -29775.400000 0 0 1
-27.605636 -33.463692 29.803436 52.632068 0.881030 0.968835 0.051367 -0.025487 -467198.000000 0 0 1
-28.646326 -32.571492 30.434476 52.988408 0.849429 0.958973 0.033810 -0.025211 -846600.000000 0 0 1
-28.519376 -31.184392 30.216566 51.950572 0.830006 0.950052 0.024965 -0.015708 472201.000000 0 0 1
-29.400556 -30.431792 31.080386 52.502162 0.802632 0.937279 0.018394 -0.007481 56946.200000 0 0 1
-29.678236 -28.989992 30.641266 51.576201 0.773668 0.934654 0.017775 -0.010110 -401294.000000 0 0 1
-30.612086 -28.813092 29.616976 51.424307 0.755134 0.957051 0.027407 -0.007983 -40576.500000 0 0 1
-31.015376 -27.460492 29.527446 50.871428 0.724681 0.951536 0.030457 -0.008520 372376.000000 0 0 1
-31.849366 -27.222092 28.185046 50.495754 0.707224 0.978622 0.025426 -0.015445 318948.000000 0 0 1
-31.104816 -27.085692 26.969006 49.279525 0.716439 0.991702 0.045787 -0.008186 273773.000000 0 0 1
-30.421616 -25.810492 26.913906 48.124989 0.703580 0.977315 0.027561 -0.006021 538305.000000 0 0 1
-29.249516 -25.842392 25.866696 46.823598 0.723632 0.985521 0.041347 0.005352 366494.000000 0 0 1
-29.714766 -25.677292 24.537936 46.307677 0.712638 1.012326 0.033187 -0.001410 490807.000000 0 0 1
-28.677456 -25.900792 23.574196 45.265773 0.734567 1.023014 0.041273 0.011544 298528.000000 0 0 1
-29.220856 -26.235392 22.189216 45.105604 0.731615 1.056481 0.025466 0.016341 112273.000000 0 0 1
-29.832106 -25.092292 21.548816 44.541319 0.699314 1.065812 0.019841 0.008656 258393.000000 0 0 1
-30.464766 -25.496392 20.360116 44.639694 0.696848 1.097190 0.009943 0.012777 -139254.000000 0 0 1
-31.141686 -24.290192 19.619316 44.099156 0.662420 1.109744 0.022770 0.002340 217513.000000 0 0 1
-32.425936 -23.994792 20.148116 45.090331 0.637062 1.107568 0.044583 -0.002636 320984.000000 0 0 1
-33.075816 -22.956492 19.398916 44.691476 0.606726 1.121798 0.076304 -0.008689 -133347.000000 0 0 1
-34.566101 -22.784192 19.757316 45.872500 0.582780 1.125527 0.100114 -0.008473 -451565.000000 0 0 1
-35.325824 -23.840392 19.242416 46.760546 0.593661 1.146686 0.095647 -0.016316 -222390.000000 0 0 1
-36.542036 -23.258292 18.811316 47.224296 0.566812 1.161090 0.101126 -0.025100 -222491.000000 0 0 1
-37.445476 -24.285292 18.081416 48.154716 0.575356 1.185875 0.115849 -0.030673 -87884.300000 0 0 1
36.933521 -25.216492 18.962916 48.575185 -0.599057 1.169749 0.114874 -0.032445 -183942.000000 0 0 1
36.481821 -26.332292 18.247816 48.551989 -0.625202 1.185492 0.114337 -0.024588 -304098.000000 0 0 1
35.986451 -27.502992 19.085416 49.149693 -0.652565 1.171997 0.098061 -0.012811 977881.000000 0 0 1
34.701231 -27.408292 19.741916 48.426575 -0.668513 1.150899 0.084480 -0.008286 857057.000000 0 0 1
34.624801 -26.384592 20.752616 48.225456 -0.651146 1.125944 0.078530 -0.007118 -1017690.000000 0 0 1
33.349811 -26.505492 21.552716 47.741707 -0.671545 1.102413 0.060690 0.000068 220719.000000 0 0 1
32.178441 -26.132892 20.781916 46.370984 -0.682090 1.106083 0.069363 0.003997 1064800.000000 0 0 1
31.017931 -25.957192 21.611816 45.858025 -0.696807 1.080059 0.067494 -0.000049 249247.000000 0 0 1
30.114491 -24.886992 20.973716 44.341196 -0.690640 1.078095 0.068383 0.010813 -405044.000000 0 0 1
30.578591 -23.549192 20.820916 43.853451 -0.656254 1.076078 0.066624 0.010351 -145030.000000 0 0 1
31.045221 -22.842292 21.965116 44.362623 -0.634335 1.052816 0.078826 0.001406 168074.000000 0 0 1
32.282351 -21.926092 21.661416 44.633179 -0.596628 1.064066 0.079115 0.000142 494325.000000 0 0 1
31.785101 -20.828392 21.001916 43.418833 -0.580084 1.065913 0.079587 -0.009833 350759.000000 0 0 1
32.809261 -19.884192 20.693516 43.589566 -0.544859 1.076133 0.076265 -0.010732 -219099.000000 0 0 1
32.244841 -18.445792 20.696716 42.524476 -0.519618 1.062487 0.065730 -0.000091 108483.000000 0 0 1
32.077011 -17.925992 22.014216 42.835751 -0.509607 1.031046 0.049118 -0.011713 289448.000000 0 0 1
30.971691 -18.455392 22.729616 42.620213 -0.537384 1.008292 0.067042 -0.007744 -293625.000000 0 0 1
30.825481 -17.870092 24.184576 43.063258 -0.525373 0.974471 0.062713 -0.005546 -876.392000 0 0 1
30.755771 -16.488492 24.312076 42.530752 -0.492117 0.962299 0.074581 -0.011813 172173.000000 0 0 1
30.906101 -16.148192 25.673336 43.302094 -0.481479 0.936155 0.070845 -0.016001 -53882.700000 0 0 1
30.481031 -14.682792 25.942156 42.634177 -0.448903 0.916649 0.086334 -0.021528 -162322.000000 0 0 1
29.103741 -14.447492 25.764556 41.467700 -0.460774 0.900375 0.091594 -0.020638 -38517.300000 0 0 1
28.607541 -13.207792 26.198776 40.978202 -0.432532 0.877164 0.084018 -0.022266 12286.200000 0 0 1
28.850641 -11.930292 25.328706 40.202422 -0.392106 0.889205 0.100532 -0.026043 -372804.000000 0 0 1
28.045641 -11.916292 24.158916 38.887134 -0.401777 0.900450 0.100521 -0.017213 215603.000000 0 0 1
28.485841 -11.045492 23.112246 38.309554 -0.369905 0.923161 0.109052 -0.010619 134805.000000 0 0 1
29.799341 -11.297292 22.300516 38.896562 -0.362371 0.960233 0.120102 -0.020043 375482.000000 0 0 1
29.750941 -12.387392 21.361216 38.663517 -0.394538 0.985447 0.097157 -0.018971 227173.000000 0 0 1
30.429161 -13.539692 21.823116 39.818406 -0.418653 0.990746 0.088526 -0.018241 -487984.000000 0 0 1
30.079491 -14.793692 21.043916 39.578725 -0.457082 1.010193 0.096890 -0.011249 -201670.000000 0 0 1
30.232831 -14.726692 19.620616 38.934151 -0.453282 1.042638 0.088540 -0.012786 98469.200000 0 0 1
30.078261 -15.915092 18.934416 38.942317 -0.486673 1.063041 0.100287 -0.022274 -303637.000000 0 0 1
30.216031 -15.799592 17.386416 38.274314 -0.481790 1.099257 0.112190 -0.026746 -348780.000000 0 0 1
29.461741 -16.669592 16.591816 37.698247 -0.514896 1.115062 0.101554 -0.026633 -225621.000000 0 0 1
28.101241 -16.339792 16.448416 36.431016 -0.526677 1.102356 0.106157 -0.025068 -436603.000000 0 0 1
27.781341 -15.318292 15.313916 35.227390 -0.503908 1.121073 0.121261 -0.028943 -585305.000000 0 0 1
27.684541 -15.723792 14.007016 34.783156 -0.516530 1.156337 0.126815 -0.034989 -48646.600000 0 0 1
26.656741 -16.616292 13.703416 34.270492 -0.557407 1.159432 0.122177 -0.043201 -776173.000000 0 0 1
26.663241 -17.217892 12.304616 34.040972 -0.573384 1.200958 0.114712 -0.028402 -156085.000000 0 0 1
26.333541 -16.281492 11.290416 32.954755 -0.553752 1.221110 0.129722 -0.033726 90815.000000 0 0 1
26.027341 -16.887892 10.060916 32.616643 -0.575568 1.257223 0.110206 -0.027209 -85991.400000 0 0 1
27.283041 -17.222992 9.234316 33.559922 -0.563096 1.292041 0.107613 -0.027506 -28697.200000 0 0 1
28.134341 -18.191192 9.799716 34.906948 -0.573969 1.286233 0.102843 -0.028647 -24580.700000 0 0 1
29.413741 -18.172192 9.177716 35.771877 -0.553414 1.311333 0.105770 -0.025794 587229.000000 0 0 1
30.433031 -19.147692 9.869216 37.285452 -0.561596 1.302910 0.108849 -0.041683 166871.000000 0 0 1
30.551761 -18.651692 11.184216 37.501765 -0.548101 1.267957 0.104360 -0.044235 145490.000000 0 0 1
31.040571 -19.656692 12.061516 38.670179 -0.564516 1.253596 0.086022 -0.041472 -37397.800000 0 0 1
31.128591 -19.161892 13.475016 38.958225 -0.551791 1.217616 0.095065 -0.033902 76002.200000 0 0 1
30.944641 -20.176092 14.495616 39.683351 -0.577784 1.196861 0.098772 -0.034033 140140.000000 0 0 1
31.040631 -19.642592 15.818016 39.994522 -0.564191 1.164179 0.106107 -0.034333 59076.200000 0 0 1
30.776181 -20.636492 17.001016 40.768525 -0.590676 1.140640 0.101684 -0.021394 -329080.000000 0 0 1
29.465641 -21.108992 16.952116 40.014844 -0.621644 1.133330 0.046879 -0.003459 -584955.000000 0 0 1
29.241341 -21.853692 18.072016 40.733741 -0.641807 1.111116 0.062707 -0.005574 1195490.000000 0 0 1
27.895441 -22.698092 17.927016 40.183789 -0.683030 1.108365 0.049657 0.006632 723763.000000 0 0 1
26.740841 -22.075992 18.387616 39.249540 -0.690129 1.083227 0.052657 0.009406 -51889.000000 0 0 1
25.634341 -22.975592 18.212516 38.944743 -0.730757 1.084166 0.043733 -0.003262 -199107.000000 0 0 1
24.378041 -22.692092 18.986216 38.336618 -0.749596 1.052674 0.025394 0.010202 -953787.000000 0 0 1
23.624941 -21.640792 18.442316 36.967293 -0.741593 1.048488 0.030177 0.004958 331648.000000 0 0 1
22.486741 -21.119592 19.144316 36.306962 -0.754056 1.015388 0.034147 0.001043 674077.000000 0 0 1
22.704341 -20.544492 20.569716 36.887348 -0.735500 0.979261 0.021305 0.006394 -417078.000000 0 0 1
22.892741 -21.548392 21.521416 38.099634 -0.755157 0.970518 0.040545 0.008324 -94454.100000 0 0 1
23.300141 -21.084892 22.807606 38.828548 -0.735530 0.942963 0.054360 0.005597 110826.000000 0 0 1
23.481541 -22.180992 23.847596 40.150803 -0.756924 0.934836 0.063926 0.001253 -942468.000000 0 0 1
22.292041 -22.653892 24.375376 40.053625 -0.793449 0.916541 0.084956 -0.006320 -630611.000000 0 0 1
22.468441 -23.610592 25.439186 41.345412 -0.810180 0.908050 0.086089 0.001327 -927973.000000 0 0 1
21.214841 -24.282592 25.925556 41.374487 -0.852723 0.893604 0.116161 -0.009212 -749164.000000 0 0 1
20.628941 -25.198492 25.019806 41.067114 -0.884782 0.915692 0.109163 -0.013824 349589.000000 0 0 1
19.580941 -25.930492 25.645006 41.394082 -0.924019 0.902648 0.117574 -0.023252 130038.000000 0 0 1
18.843741 -26.940992 24.720796 41.134187 -0.960443 0.926070 0.123040 -0.033822 10414.300000 0 0 1
18.089741 -26.253292 23.729906 39.743962 -0.967460 0.930953 0.116117 -0.028809 351079.000000 0 0 1
17.464741 -27.051292 22.750716 39.425685 -0.997509 0.955680 0.100962 -0.035083 -476817.000000 0 0 1
16.407941 -26.258792 22.000616 37.983836 -1.012301 0.953037 0.097536 -0.029719 -487612.000000 0 0 1
15.308641 -25.798892 22.748316 37.648681 -1.035256 0.922002 0.089883 -0.032297 -146294.000000 0 0 1
14.675641 -24.802992 21.953616 36.228774 -1.036511 0.919809 0.072149 -0.028786 -753024.000000 0 0 1
13.258441 -24.423692 22.310416 35.637868 -1.073458 0.894343 0.080411 -0.026776 -605028.000000 0 0 1
12.316741 -25.421692 21.983716 35.794529 -1.119628 0.909470 0.067954 -0.026893 716484.000000 0 0 1
10.956241 -24.983492 22.184616 35.162072 -1.157514 0.888052 0.067361 -0.024556 1317120.000000 0 0 1
9.910641 -26.131692 22.173416 35.675573 -1.208298 0.900103 0.053012 -0.029807 158060.000000 0 0 1
9.704341 -26.751892 20.918016 35.318569 -1.222805 0.936927 0.070941 -0.035022 459251.000000 0 0 1
8.402241 -27.326492 20.986116 35.464798 -1.272495 0.937575 0.080082 -0.036305 397876.000000 0 0 1
8.043041 -28.081092 19.656016 35.207914 -1.291843 0.978480 0.105791 -0.036862 96673.300000 0 0 1
8.700741 -29.317192 19.655116 36.352775 -1.282297 0.999554 0.107020 -0.039464 115367.000000 0 0 1
8.288041 -29.993692 18.511416 36.207536 -1.301198 1.034148 0.107917 -0.044301 -204493.000000 0 0 1
8.692541 -31.464892 18.429016 37.486375 -1.301258 1.056848 0.110916 -0.032256 -95784.700000 0 0 1
8.108541 -32.248992 19.445616 38.521136 -1.324467 1.041642 0.109462 -0.031174 265839.000000 0 0 1
8.991441 -33.295492 19.852216 39.793797 -1.307038 1.048494 0.120526 -0.032886 197118.000000 0 0 1
8.393441 33.353962 20.751116 40.168961 1.324268 1.027926 0.136196 -0.036140 7893.440000 0 0 1
7.470541 32.412962 20.275016 38.954915 1.344272 1.023390 0.121008 -0.039082 -69969.100000 0 0 1
7.679341 31.254262 20.985716 38.421367 1.329864 0.992976 0.126498 -0.049487 1676.550000 0 0 1
6.669041 30.109062 20.753916 37.171989 1.352819 0.978435 0.126071 -0.047183 103329.000000 0 0 1
5.394241 30.307662 21.348916 37.462360 1.394658 0.964441 0.116995 -0.051010 491519.000000 0 0 1
4.561041 29.199862 20.910416 36.203322 1.415848 0.955032 0.113671 -0.043376 1706110.000000 0 0 1
3.035341 29.100762 21.320516 36.202653 1.466868 0.941073 0.102627 -0.032868 1330750.000000 0 0 1
2.848541 28.723362 22.660116 36.696411 1.471948 0.905233 0.094362 -0.039511 -1353640.000000 0 0 1
1.523841 28.408062 22.784516 36.448241 1.517207 0.895511 0.079284 -0.021746 -1171790.000000 0 0 1
1.254241 27.943262 24.263706 37.028725 1.525941 0.856260 0.086822 -0.025129 -203312.000000 0 0 1
1.277141 28.959762 25.251836 38.444169 1.526724 0.854170 0.089907 -0.035959 -92977.400000 0 0 1
1.351341 28.495262 26.546846 38.968463 1.523408 0.821342 0.087867 -0.034697 107898.000000 0 0 1
2.613941 27.836862 27.192536 39.002020 1.477169 0.799300 0.073986 -0.036237 -149411.000000 0 0 1
2.869841 26.582162 26.734356 37.809696 1.463252 0.785441 0.073326 -0.035681 75045.500000 0 0 1
3.937041 26.034162 27.476986 38.056046 1.420708 0.764088 0.048537 -0.028547 15804.200000 0 0 1
4.415841 24.629762 26.977146 36.795261 1.393392 0.747826 0.041253 -0.015866 -572521.000000 0 0 1
3.490841 23.647962 27.145916 36.170607 1.424238 0.721983 0.049853 -0.012244 -533902.000000 0 0 1
3.989641 22.447762 26.597986 35.032444 1.394903 0.708654 0.060166 -0.009410 138775.000000 0 0 1
2.780041 21.496362 26.511486 34.244432 1.442184 0.685372 0.051194 -0.000707 -129185.000000 0 0 1
2.969041 20.096862 26.448956 33.350358 1.424121 0.654974 0.061501 0.001825 -425121.000000 0 0 1
3.503441 19.673162 25.235636 32.189202 1.394562 0.669748 0.063626 -0.003549 -313166.000000 0 0 1
4.077641 18.255362 25.366306 31.517216 1.351037 0.635391 0.059287 -0.014151 1179360.000000 0 0 1
5.281741 18.139862 26.179766 32.285160 1.287462 0.625122 0.065780 -0.016694 1127410.000000 0 0 1
6.449741 17.849362 25.423196 31.725980 1.224052 0.641270 0.089183 -0.021449 264112.000000 0 0 1
7.722841 17.615862 26.321886 32.600653 1.157628 0.631058 0.066203 -0.025779 550177.000000 0 0 1
8.163141 18.754862 27.050486 33.913279 1.160272 0.647429 0.065851 -0.022226 55732.700000 0 0 1
8.735341 19.786862 26.296636 34.049070 1.155057 0.688318 0.059909 -0.028105 -652310.000000 0 0 1
9.287841 20.929562 27.151306 35.517657 1.153138 0.700616 0.037902 -0.021754 -433268.000000 0 0 1
10.390541 20.582262 27.924496 36.212848 1.103292 0.690196 0.047096 -0.040981 -265142.000000 0 0 1
10.779341 21.687162 28.749936 37.591036 1.109521 0.700053 0.059243 -0.042030 377675.000000 0 0 1
11.872341 21.459162 29.855436 38.636708 1.065459 0.687678 0.075602 -0.043658 386338.000000 0 0 1
13.169841 21.256762 29.348076 38.556507 1.016118 0.705680 0.089401 -0.047554 -495684.000000 0 0 1
14.088141 21.246362 30.404736 39.677848 0.985278 0.697750 0.102014 -0.039140 879351.000000 0 0 1
15.583241 20.994462 29.959386 39.763924 0.932271 0.717531 0.083826 -0.045572 940613.000000 0 0 1
16.137941 22.143562 29.365046 40.163123 0.941010 0.750798 0.078014 -0.047047 305434.000000 0 0 1
17.516641 21.954062 29.050926 40.407547 0.897351 0.768509 0.125592 -0.033144 552227.000000 0 0 1
-8.746826 16.741762 4.461297 19.408676 -1.089346 1.338862 0.029756 -0.018030 -278129.000000 0 1 0
-8.599226 18.077362 4.856897 20.599203 -1.126785 1.332774 0.038935 -0.019072 445366.000000 0 1 0
-7.261226 18.372962 5.247097 20.440723 -1.194424 1.311192 0.037682 -0.012250 253507.000000 0 1 0
-7.146426 19.861762 5.761597 21.880516 -1.225411 1.304333 0.047272 -0.015278 -75724.900000 0 1 0
-7.333326 20.915762 4.818997 22.681920 -1.233576 1.356705 0.058942 -0.023537 261223.000000 0 1 0
-8.659726 21.104262 4.339697 23.220975 -1.181416 1.382804 0.059443 -0.029591 327065.000000 0 1 0
-8.727926 22.290762 3.374897 24.175291 -1.197596 1.430738 0.108905 -0.034709 -9259.420000 0 1 0
-8.029726 22.290962 2.166597 23.791965 -1.225043 1.479606 0.069235 -0.028062 -343244.000000 0 1 0
-8.558026 21.402462 1.137997 23.078133 -1.190409 1.521466 0.080473 -0.032452 -412012.000000 0 1 0
-7.900826 21.408862 -0.315403 22.822399 -1.217257 1.584617 0.049018 -0.007658 320143.000000 0 1 0
-6.623926 20.834062 -0.434203 21.866025 -1.262966 1.590655 0.028954 -0.004362 -121609.000000 0 1 0
-5.559926 21.631562 0.062797 22.334753 -1.319214 1.567985 0.030632 -0.011065 172287.000000 0 1 0
-4.156726 21.240762 -0.492503 21.649270 -1.377543 1.593547 0.024210 -0.010735 346458.000000 0 1 0
-4.018326 21.546062 -1.877203 21.997809 -1.386415 1.656236 0.022122 -0.012645 606170.000000 0 1 0
-2.683026 21.693262 -2.385903 21.988378 -1.447741 1.679518 0.016677 0.000517 631395.000000 0 1 0
-2.681726 21.967362 -3.886103 22.469055 -1.449320 1.744624 0.027262 -0.001026 -788655.000000 0 1 0
-1.476526 22.363462 -4.415203 22.842911 -1.504868 1.765306 0.039370 0.000294 -934743.000000 0 1 0
-1.560526 22.514362 -5.803803 23.302701 -1.501595 1.822507 0.050555 -0.010570 280264.000000 0 1 0
-0.283826 23.113262 -6.470503 24.003559 -1.558517 1.843737 0.059045 -0.018781 -113635.000000 0 1 0
0.806174 22.270262 -6.358103 23.174122 1.534613 1.848723 0.067434 -0.009777 -446029.000000 0 1 0
1.950374 22.778362 -7.041003 23.921402 1.485381 1.869560 0.068465 -0.013697 920405.000000 0 1 0
3.224374 21.873662 -6.966903 23.181704 1.424441 1.876049 0.064496 -0.006528 519849.000000 0 1 0
3.034274 20.813462 -7.898303 22.467537 1.426032 1.930015 0.065096 -0.015569 127056.000000 0 1 0
3.913674 19.716062 -7.685103 21.519776 1.374842 1.935977 0.056595 -0.021936 274409.000000 0 1 0
3.835174 18.631662 -8.755903 20.940707 1.367790 2.002180 0.050061 -0.021813 -92362.600000 0 1 0
4.439974 18.992662 -9.986003 21.912436 1.341147 2.043981 0.057845 -0.026729 -117430.000000 0 1 0
3.503574 18.908962 -11.040203 22.174534 1.387588 2.091946 0.056266 -0.027846 -196595.000000 0 1 0
3.958774 19.284462 -12.482403 23.310357 1.368326 2.135881 0.066907 -0.025420 -121293.000000 0 1 0
3.966374 20.690962 -12.682603 24.590576 1.381398 2.112680 0.114541 -0.035129 -170421.000000 0 1 0
4.307974 20.858962 -14.031003 25.505371 1.367131 2.153304 0.126018 -0.031804 106441.000000 0 0 1
4.588774 22.277762 -14.543703 26.997682 1.367657 2.139692 0.107039 -0.027905 -182827.000000 0 0 1
3.441174 23.079762 -14.544103 27.496327 1.422787 2.128156 0.134314 -0.036673 -537828.000000 0 0 1
3.652774 24.334262 -15.162303 28.903192 1.421800 2.123029 0.107941 -0.033918 388394.000000 0 0 1
2.392674 25.149362 -15.643403 29.714161 1.475943 2.125231 0.113278 -0.036858 265379.000000 0 0 1
1.518074 25.513362 -14.618703 29.443890 1.511365 2.090351 0.130496 -0.045803 -415847.000000 0 0 1
1.555174 26.920362 -14.378703 30.559312 1.513091 2.060674 0.096546 -0.037959 -924109.000000 0 0 1
0.717874 27.332362 -13.162703 30.345182 1.544538 2.019464 0.110817 -0.039469 1625770.000000 0 0 1
-0.737226 27.262162 -13.307903 30.345828 -1.543761 2.024771 0.101100 -0.045140 1643710.000000 0 0 1
-1.305326 25.970262 -13.557103 29.324962 -1.520576 2.051390 0.097304 -0.042833 -891602.000000 0 0 1
-1.246026 24.887562 -12.460203 27.860366 -1.520772 2.034471 0.133310 -0.046528 5751.890000 0 0 1
-2.037926 25.292462 -11.318203 27.784231 -1.490396 1.990359 0.122536 -0.040686 107018.000000 0 0 1
-2.050226 24.390062 -10.260303 26.539637 -1.486934 1.967742 0.127841 -0.026717 -313675.000000 0 0 1
-3.218226 24.492962 -9.275103 26.387302 -1.440151 1.929968 0.099314 -0.023651 -263011.000000 0 0 1
-2.984126 24.931162 -7.929103 26.331322 -1.451668 1.876672 0.110022 -0.025615 -196807.000000 0 0 1
-2.701726 26.332662 -7.783803 27.591593 -1.468554 1.856787 0.111756 -0.026054 -142290.000000 0 0 1
-2.646926 26.655362 -6.241203 27.503948 -1.471819 1.799711 0.092234 -0.021575 550014.000000 0 0 1
-1.490626 26.048562 -5.655103 26.696999 -1.513634 1.784239 0.078386 -0.017947 414056.000000 0 0 1
-1.127826 26.531262 -4.346603 26.908601 -1.528313 1.733039 0.073034 -0.027835 -37413.400000 0 0 1
-1.932926 25.837162 -3.169203 26.102471 -1.496124 1.692511 0.064685 -0.020813 -689545.000000 0 0 1
-3.118226 26.541162 -3.022103 26.894046 -1.453846 1.683405 0.054773 -0.020829 -725469.000000 0 0 1
-3.991626 26.037862 -2.029303 26.420095 -1.418680 1.647681 0.048534 -0.016399 324977.000000 0 0 1
-4.986326 24.950262 -2.508903 25.567041 -1.373544 1.669085 0.048854 -0.021258 40938.200000 0 0 1
-6.111226 25.375062 -3.286503 26.306690 -1.334461 1.696054 0.052758 -0.025468 552060.000000 0 0 1
-7.048126 24.351862 -3.569303 25.601351 -1.289066 1.710671 0.020540 -0.024518 522608.000000 0 0 1
-8.421426 24.845162 -4.092403 26.550899 -1.243994 1.725547 0.051269 -0.024406 -31035.300000 0 0 1
-9.151326 25.476762 -3.075803 27.244682 -1.225947 1.683933 0.089588 -0.031877 -1677800.000000 0 0 1
-10.348726 25.913162 -3.589003 28.133059 -1.190840 1.698717 0.115669 -0.037309 -756611.000000 0 0 1
-11.424426 26.185962 -2.507103 28.679394 -1.159410 1.658326 0.127273 -0.037288 -140832.000000 0 0 1
-12.012126 25.096262 -1.776503 27.879553 -1.124381 1.634560 0.128486 -0.031843 327073.000000 0 0 1
-11.056126 24.296762 -1.067203 26.715342 -1.143755 1.610754 0.140968 -0.040861 -75012.600000 0 0 1
-11.530726 22.967062 -0.463503 25.703276 -1.105506 1.588830 0.115732 -0.037535 -548370.000000 0 0 1
-12.312626 23.077162 0.673497 26.165048 -1.080677 1.545053 0.133071 -0.044696 -85105.700000 0 0 1
-12.908426 21.813962 0.990097 25.366448 -1.036465 1.531755 0.137131 -0.043969 146752.000000 0 0 1
-13.904126 21.830562 2.171497 25.973324 -1.003678 1.487094 0.134040 -0.049662 246791.000000 0 0 1
-13.318026 21.695362 3.467697 25.692089 -1.020244 1.435412 0.129550 -0.046059 3400.540000 0 0 1
-13.415026 22.872562 4.196797 26.846417 -1.040354 1.413826 0.125546 -0.049304 -68427.600000 0 0 1
-13.070726 22.638562 5.707997 26.756861 -1.047186 1.355816 0.112809 -0.047545 1074680.000000 0 0 1
-11.670826 22.343862 5.958097 25.902804 -1.089446 1.338701 0.109415 -0.036601 1186270.000000 0 0 1
-11.547426 21.670562 7.191997 25.586737 -1.081206 1.285874 0.079391 -0.039746 568150.000000 0 0 1
-10.088826 21.491862 7.746397 24.973810 -1.131906 1.255413 0.072343 -0.032431 524443.000000 0 1 0
-9.617426 22.746262 8.228897 26.030791 -1.170779 1.249158 0.085499 -0.038379 146612.000000 0 0 1
-8.476826 22.679362 9.066297 25.853583 -1.213106 1.212501 0.103269 -0.041491 60150.900000 0 0 1
-8.749726 22.300962 10.591797 26.193067 -1.196904 1.154502 0.081990 -0.036388 -206391.000000 0 0 1
-9.373426 21.097562 10.928897 25.542299 -1.152701 1.128657 0.084712 -0.033722 -62915.600000 0 0 1
-9.164226 20.778862 12.273897 25.814583 -1.155422 1.075305 0.066889 -0.025487 -124037.000000 0 0 1
-10.113526 19.663462 12.769797 25.534347 -1.095750 1.047079 0.056342 -0.026744 -57879.700000 0 0 1
-9.953826 18.473562 12.102197 24.224250 -1.076581 1.047671 0.068711 -0.033825 -16231.900000 0 1 0
-10.646126 17.396262 12.756097 24.055933 -1.021616 1.011879 0.056124 -0.033564 96079.400000 0 1 0
-10.873226 16.275362 11.780897 22.845218 -0.981817 1.028991 0.051800 -0.034165 17604.000000 0 1 0
-11.413126 15.050962 12.348497 22.567150 -0.922005 0.991794 0.044553 -0.031098 102098.000000 0 1 0
-11.816826 14.194162 11.332097 21.668595 -0.876542 1.020461 0.035857 -0.018308 -188762.000000 0 1 0
-12.156426 12.830462 11.950097 21.335516 -0.812367 0.976286 0.024749 -0.021331 261458.000000 0 1 0
-13.201826 12.798362 12.911597 22.467657 -0.769882 0.958590 0.042785 -0.015882 142303.000000 0 1 0
-13.322026 11.505862 13.402097 22.124137 -0.712378 0.920065 0.026324 -0.007566 -42998.800000 0 1 0
-14.120126 11.450962 14.714397 23.388372 -0.681393 0.890359 0.034614 -0.009173 910361.000000 0 1 0
-15.414826 12.079162 14.596197 24.424823 -0.664665 0.930296 0.057463 -0.015061 595514.000000 0 1 0
-15.958626 12.290262 15.901097 25.662680 -0.656262 0.902538 0.041490 -0.008648 721606.000000 0 0 1
-17.161426 13.313962 15.942697 26.943380 -0.659814 0.937617 0.044650 -0.005908 1365900.000000 0 0 1
-18.340026 12.864262 15.266597 27.109311 -0.611686 0.972604 0.048135 -0.010816 434469.000000 0 0 1
-19.257826 13.880462 14.954897 28.056729 -0.624530 1.008626 0.083592 -0.022636 -187818.000000 0 0 1
-20.334326 13.438762 13.901797 28.059670 -0.583993 1.052459 0.099677 -0.028209 -82709.000000 0 0 1
-21.167326 12.520062 14.544397 28.571789 -0.534132 1.036719 0.106967 -0.020719 -356267.000000 0 0 1
-22.268126 12.207062 13.721797 28.864676 -0.501449 1.075396 0.102608 -0.026365 369632.000000 0 0 1
-23.381326 11.323162 14.403997 29.704806 -0.450995 1.064542 0.117001 -0.031550 625076.000000 0 0 1
-24.100526 11.984462 15.456497 31.038137 -0.461461 1.049524 0.143784 -0.030961 5015.760000 0 0 1
-25.128726 11.172562 15.944697 31.788557 -0.418365 1.045365 0.122720 -0.029202 -215240.000000 0 0 1
-25.923326 11.899562 17.065597 33.239329 -0.430337 1.031636 0.109639 -0.026132 256763.000000 0 0 1
-27.008016 12.695162 16.605497 34.151758 -0.439403 1.063030 0.124969 -0.022999 367217.000000 0 0 1
-27.819426 13.186362 17.633197 35.478588 -0.442631 1.050647 0.112916 -0.010089 621765.000000 0 0 1
-29.039696 14.099962 17.239197 36.596486 -0.452014 1.080303 0.118391 -0.013265 605132.000000 0 0 1
-28.719216 15.390762 16.793097 36.656200 -0.491957 1.094912 0.122729 -0.014519 -295073.000000 0 0 1
-29.877716 16.159862 16.608297 37.810773 -0.495804 1.116035 0.110654 -0.012827 -126688.000000 0 0 1
-29.633696 17.667762 16.467197 38.229234 -0.537624 1.125474 0.117916 -0.011743 -313791.000000 0 0 1
-29.135396 18.354462 17.615897 38.679160 -0.562166 1.097934 0.104461 -0.011106 182580.000000 0 0 1
-29.970206 18.501362 18.764597 39.907690 -0.553061 1.081279 0.104296 -0.020403 -1124710.000000 0 0 1
-29.221406 18.963162 20.018297 40.177410 -0.575635 1.049220 0.105991 -0.031335 -11783.200000 0 0 1
-28.689976 17.960962 20.835397 39.747008 -0.559344 1.019020 0.105832 -0.024300 403337.000000 0 0 1
-27.654396 17.178162 20.245797 38.337281 -0.555843 1.014438 0.109064 -0.011990 -186388.000000 0 0 1
-27.026336 15.937262 20.921697 37.711226 -0.532807 0.982689 0.119796 -0.008860 286400.000000 0 0 1
-28.057666 14.982462 21.109097 38.174609 -0.490467 0.984882 0.102273 -0.006360 465155.000000 0 0 1
-27.569206 13.661962 21.411097 37.485269 -0.460083 0.962845 0.090987 0.004367 -52887.900000 0 0 1
-28.662486 12.589662 21.608397 38.038934 -0.413869 0.966650 0.102788 -0.004326 109370.000000 0 0 1
-29.521866 12.353362 20.501797 38.006181 -0.396308 1.001032 0.120746 -0.017210 141060.000000 0 0 1
-30.537526 11.430062 20.783497 38.667047 -0.358153 1.003328 0.142889 -0.022335 -271653.000000 0 0 1
-31.456976 11.161062 19.578897 38.696819 -0.340948 1.040306 0.148789 -0.027213 -380261.000000 0 0 1
-30.790456 10.583062 18.446197 37.420790 -0.331062 1.055331 0.169680 -0.036129 381202.000000 0 0 1
-30.603556 9.217362 18.517497 36.938260 -0.292544 1.045685 0.161376 -0.032074 379210.000000 0 0 1
-29.692416 8.621562 17.336697 35.447594 -0.282592 1.059762 0.162615 -0.044123 345381.000000 0 0 1
-30.291366 8.525262 16.038297 35.319597 -0.274345 1.099445 0.180916 -0.036722 141505.000000 0 0 1
-30.576136 9.818062 15.451897 35.637839 -0.310702 1.122333 0.189479 -0.041145 407163.000000 0 0 1
-29.368096 10.723962 14.955597 34.657731 -0.350113 1.124616 0.185153 -0.037807 547653.000000 0 0 1
-28.840136 10.241962 13.741497 33.548174 -0.341237 1.148775 0.189206 -0.043984 11780.700000 0 0 1
-27.768326 11.018262 13.284997 32.695155 -0.377738 1.152363 0.144312 -0.025519 -320384.000000 0 0 1
-27.475176 11.131262 11.766297 31.894138 -0.384929 1.192953 0.194378 -0.027750 -385157.000000 0 0 1
-27.013406 10.020862 11.010597 30.844368 -0.355223 1.205771 0.193367 -0.028007 85012.200000 0 0 1
-27.910606 8.958962 10.853597 31.258047 -0.310599 1.216185 0.209371 -0.023889 -472639.000000 0 0 1
-27.275246 7.696662 10.231197 30.130633 -0.275034 1.224346 0.212943 -0.026769 -167575.000000 0 0 1
-26.955126 8.035462 8.902397 29.502544 -0.289717 1.264268 0.221990 -0.018217 302335.000000 0 0 1
-26.180356 7.034762 8.287197 28.347426 -0.262503 1.274119 0.232338 -0.032898 -442063.000000 0 0 1
-25.693786 7.460862 6.912997 27.633759 -0.282604 1.317946 0.226173 -0.035539 189712.000000 0 0 1
-26.647876 7.541262 5.823897 28.300136 -0.275785 1.363525 0.244208 -0.045512 365718.000000 0 0 1
-25.967896 7.952262 4.698597 27.561692 -0.297167 1.399484 0.231691 -0.044018 -72531.600000 0 0 1
-26.869376 8.500562 3.540597 28.403499 -0.306403 1.445818 0.241864 -0.045192 111748.000000 0 0 1
-27.463526 7.509562 2.666897 28.596348 -0.266913 1.477401 0.261137 -0.045080 600748.000000 0 0 1
-26.608996 6.515362 2.058197 27.472254 -0.240131 1.495807 0.236485 -0.035149 477470.000000 0 0 1
-25.645286 6.973462 0.873297 26.590835 -0.265500 1.537948 0.221925 -0.032431 1550520.000000 0 0 1
-24.466226 7.574562 1.480997 25.654698 -0.300234 1.513036 0.179597 -0.034505 1221550.000000 0 0 1
-23.418926 8.010362 0.610097 24.758518 -0.329572 1.546152 0.164944 -0.021585 447237.000000 0 1 0
-22.204526 8.428762 1.477197 23.796367 -0.362794 1.508680 0.116001 -0.027870 97555.900000 0 1 0
-22.557126 9.595762 2.229297 24.614474 -0.402208 1.480104 0.131276 -0.039761 1263250.000000 0 1 0
-21.422926 10.016362 3.020397 23.840974 -0.437355 1.443766 0.114465 -0.047310 427513.000000 0 1 0
-21.619926 11.464262 3.524497 24.723927 -0.487564 1.427755 0.113164 -0.061171 -643748.000000 0 1 0
-21.459526 12.441462 2.510397 24.931974 -0.525407 1.469936 0.173520 -0.059058 282227.000000 0 1 0
-21.450026 13.801262 2.917297 25.672730 -0.571732 1.456916 0.155589 -0.062079 -313161.000000 0 0 1
-20.170926 14.378462 3.555697 25.024975 -0.619286 1.428228 0.113479 -0.055017 -294765.000000 0 0 1
-19.770326 13.683362 4.754697 24.509331 -0.605415 1.375563 0.108530 -0.053581 80407.100000 0 1 0
-18.690026 14.344062 5.380797 24.166550 -0.654589 1.346260 0.085537 -0.045035 -385726.000000 0 1 0
-18.208226 13.683162 6.642397 23.725300 -0.644449 1.287032 0.055289 -0.030788 -767923.000000 0 1 0
-17.388026 12.637262 6.284997 22.395201 -0.628474 1.286335 0.055028 -0.043648 -586607.000000 0 1 0
-16.781026 12.188362 7.444797 22.035970 -0.628172 1.226167 0.040727 -0.021855 -523336.000000 0 1 0
11.726474 -31.640292 -14.609103 36.770153 -1.215873 1.979379 0.095058 -0.013970 -286832.000000 0 0 1
12.914274 -32.036492 -13.979003 37.262955 -1.187611 1.955349 0.054818 -0.018364 -483038.000000 0 0 1
13.613374 -30.884792 -13.634503 36.401840 -1.155637 1.954713 0.055777 -0.029192 186816.000000 0 0 1
15.038574 -31.011292 -13.011903 36.839769 -1.119270 1.931788 0.112291 -0.025170 796847.000000 0 0 1
15.979374 -31.465792 -14.020603 37.973856 -1.100902 1.948963 0.088648 -0.024252 970831.000000 0 0 1
17.296374 -30.972292 -13.685203 38.022785 -1.061491 1.938980 0.110701 -0.028344 567836.000000 0 0 1
18.398574 -31.971692 -14.005403 39.456912 -1.048613 1.933662 0.092194 -0.025774 -348068.000000 0 0 1
18.321574 -33.081392 -13.130003 40.030683 -1.065015 1.904980 0.090654 -0.030399 329691.000000 0 0 1
19.236274 33.655162 -13.595303 41.079635 1.051544 1.908106 0.065576 -0.014407 525155.000000 0 0 1
19.044174 32.300362 -12.753603 39.606165 1.038062 1.898649 0.061047 -0.021707 226676.000000 0 0 1
19.854074 32.284662 -11.560503 39.624852 1.019443 1.866851 0.054983 -0.019828 219774.000000 0 0 1
19.493174 31.131062 -10.873403 38.306106 1.011360 1.858609 0.052704 -0.020796 294519.000000 0 0 1
20.423674 30.734662 -9.678403 38.149933 0.984284 1.827293 0.058247 -0.021305 218795.000000 0 0 1
21.676774 30.233362 -10.076403 38.541829 0.948764 1.835311 0.051406 -0.017898 41155.100000 0 0 1
22.419474 29.779362 -8.937103 38.331645 0.925472 1.806114 0.046432 -0.011015 -263116.000000 0 0 1
23.710574 29.046362 -9.257703 38.621076 0.886194 1.812859 0.038853 -0.002017 337716.000000 0 0 1
24.731174 29.928262 -9.830603 40.049627 0.880194 1.818791 0.046910 -0.009726 949923.000000 0 0 1
25.929474 29.163962 -9.970603 40.277627 0.844040 1.820944 0.036984 0.006013 155577.000000 0 0 1
26.966574 29.753762 -10.916903 41.613234 0.834498 1.836245 0.032081 0.009124 -169336.000000 0 0 1
27.634974 30.907962 -10.428503 42.752165 0.841247 1.817212 0.042231 -0.008716 516536.000000 0 0 1
28.798374 31.212062 -11.199103 43.919917 0.825598 1.828633 0.060518 -0.002930 526116.000000 0 0 1
29.364774 32.626962 -11.065903 45.268784 0.837973 1.817748 0.062091 -0.015747 -506350.000000 0 0 1
28.500574 33.602862 -11.545003 45.549118 0.867372 1.827055 0.063420 -0.005665 -525024.000000 0 0 1
28.923574 -32.855392 -11.322303 45.213322 -0.848956 1.823910 0.071895 -0.007924 -319466.000000 0 0 1
27.865474 -31.795292 -11.624603 43.846968 -0.851173 1.839122 0.059320 -0.009647 -527649.000000 0 0 1
26.699374 -31.956992 -10.855303 43.034213 -0.874793 1.825799 0.055001 -0.010424 398105.000000 0 0 1
25.580874 -31.081492 -11.127803 41.764438 -0.882172 1.840496 0.051884 -0.019081 918214.000000 0 0 1
25.861174 -29.582992 -10.761803 40.740277 -0.852425 1.838125 0.059915 -0.019390 94020.300000 0 0 1
26.732874 -28.946892 -11.752803 41.118092 -0.825141 1.860669 0.050352 -0.012015 490704.000000 0 0 1
27.089774 -27.598492 -11.415803 40.321870 -0.794700 1.857839 0.049140 -0.012802 -295626.000000 0 0 1
27.964774 -26.871292 -12.457303 40.734252 -0.765460 1.881595 0.060313 -0.024252 445619.000000 0 0 1
29.291074 -27.381292 -12.569703 42.020229 -0.751712 1.874582 0.044963 -0.007895 145835.000000 0 0 1
29.379174 -28.421892 -13.565503 43.069278 -0.768838 1.891221 0.055164 -0.009122 -213706.000000 0 0 1
30.797974 -28.949092 -13.874803 44.486799 -0.754463 1.887974 0.058870 -0.007513 97638.800000 0 0 1
31.398274 -29.746992 -12.883703 45.130089 -0.758399 1.860303 0.078211 -0.020243 -42328.600000 0 0 1
32.392174 -30.554492 -13.471703 46.522217 -0.756212 1.864580 0.073819 -0.017890 710.491000 0 0 1
33.017274 -31.571592 -12.441203 47.346482 -0.763019 1.836688 0.061480 -0.014985 808949.000000 0 0 1
34.074974 -32.386992 -12.979203 48.769671 -0.760006 1.840175 0.049559 -0.013311 370746.000000 0 0 1
34.852474 -33.161392 -12.116303 49.610258 -0.760539 1.817522 0.052901 -0.010108 -20384.900000 0 0 1
34.205374 33.377862 -11.427503 49.139364 0.773154 1.805498 0.059776 -0.015310 43804.200000 0 0 1
33.604874 33.702462 -10.182603 48.670617 0.786848 1.781568 0.074218 -0.018253 40383.000000 0 0 1
32.928374 32.654562 -9.509103 47.339426 0.781223 1.773043 0.079423 -0.011996 65681.900000 0 0 1
32.051374 33.010862 -8.281303 46.750268 0.800144 1.748875 0.065881 -0.014227 1659400.000000 0 0 1
30.899374 -33.871692 -8.593303 46.646626 -0.831256 1.756076 0.065266 -0.014265 894476.000000 0 0 1
30.210874 -33.508192 -7.447903 45.727094 -0.837100 1.734402 0.071964 -0.012421 566556.000000 0 0 1
29.159074 -32.374792 -7.576903 44.224294 -0.837610 1.742975 0.054549 -0.018661 106087.000000 0 0 1
29.870074 -31.162292 -7.728203 43.852422 -0.806568 1.747954 0.047344 -0.019747 526458.000000 0 0 1
29.099774 -29.962192 -8.019103 42.530410 -0.799999 1.760482 0.040893 -0.010497 379902.000000 0 0 1
28.016474 -29.497392 -7.032503 41.285289 -0.811141 1.741970 0.050813 -0.010413 -2001.700000 0 0 1
27.146174 -28.574892 -7.604703 40.140637 -0.811033 1.761400 0.049386 -0.023510 -542305.000000 0 0 1
26.078174 -28.294592 -6.748403 39.066559 -0.826139 1.744408 0.056630 -0.030589 784138.000000 0 0 1
24.902074 -27.386092 -7.365003 37.740623 -0.832869 1.767205 0.091843 -0.038896 1228160.000000 0 0 1
24.124074 -28.130292 -8.347103 37.986292 -0.861916 1.792344 0.112412 -0.037871 319333.000000 0 0 1
23.249074 -27.295192 -9.046403 36.978161 -0.865279 1.817947 0.128715 -0.043790 -271162.000000 0 0 1
22.179974 -27.975792 -9.909303 37.051187 -0.900444 1.841541 0.112638 -0.035860 -95783.100000 0 0 1
22.681874 -28.597892 -11.050403 38.136836 -0.900258 1.864769 0.113298 -0.031816 436885.000000 0 0 1
21.667374 -29.437992 -11.631903 38.358462 -0.936293 1.878890 0.102145 -0.027177 620727.000000 0 0 1
21.245574 -30.824392 -11.012103 39.022865 -0.967325 1.856879 0.094665 -0.033142 260673.000000 0 0 1
22.191674 -31.877892 -11.204003 40.425241 -0.962661 1.851627 0.072121 -0.027284 -105162.000000 0 0 1
21.818174 -33.119892 -10.617303 41.057120 -0.988285 1.832367 0.059228 -0.025738 -540499.000000 0 0 1
22.935574 33.640062 -10.481903 42.042415 0.972394 1.822772 0.045947 -0.017589 -438565.000000 0 0 1
23.818474 -33.875992 -9.416103 42.468406 -0.957988 1.794375 0.048991 -0.014789 -1190340.000000 0 0 1
24.962874 33.153562 -9.557003 42.586853 0.925412 1.797136 0.037933 -0.008838 -245813.000000 0 0 1
26.171174 33.557462 -8.623203 43.421115 0.908438 1.770720 0.037594 -0.009430 388837.000000 0 0 1
26.085974 33.199362 -7.233603 42.836908 0.904813 1.740473 0.039813 -0.016829 18372.000000 0 0 1
26.433774 31.815862 -7.067503 41.963592 0.877533 1.740023 0.046516 -0.010568 -16641.000000 0 0 1
26.547474 31.217062 -5.600903 41.359926 0.866061 1.706632 0.056976 -0.007959 -335168.000000 0 0 1
27.685274 31.743962 -4.951603 42.410752 0.853587 1.687817 0.055862 -0.001747 -169085.000000 0 0 1
28.533474 30.755562 -4.402103 42.183436 0.822860 1.675343 0.076335 -0.000309 -352408.000000 0 0 1
27.969774 29.727662 -3.395003 40.958127 0.815856 1.653781 0.078559 0.000076 -660759.000000 0 0 1
27.506474 30.229462 -2.108903 40.925224 0.832526 1.622350 0.081752 0.000554 144976.000000 0 0 1
27.141174 29.186662 -1.231003 39.875054 0.821696 1.601673 0.078630 0.001744 1371070.000000 0 0 1
25.723974 28.480262 -1.478803 38.406185 0.836204 1.609310 0.055028 0.002831 1776990.000000 0 0 1
24.615674 29.182062 -0.898403 38.188104 0.870076 1.594324 0.062632 -0.007291 427869.000000 0 0 1
23.335074 28.675162 -1.210203 36.989934 0.887713 1.603519 0.064294 0.001454 707047.000000 0 0 1
22.154774 29.306062 -0.406503 36.740230 0.923479 1.581861 0.070671 -0.007350 450505.000000 0 0 1
22.155574 28.972462 0.927797 36.484707 0.917946 1.545364 0.079106 -0.019320 287103.000000 0 0 1
21.138474 29.748562 1.559997 36.527327 0.953011 1.528076 0.079169 -0.021947 346106.000000 0 0 1
20.149474 28.970962 2.457997 35.374563 0.963093 1.501255 0.084197 -0.029689 -168712.000000 0 0 1
19.197574 28.164562 1.799197 34.132485 0.972512 1.518060 0.080323 -0.021862 107861.000000 0 0 1
18.702574 27.184762 2.669197 33.104715 0.968183 1.490080 0.080699 -0.022985 -248374.000000 0 0 1
18.460374 25.787862 1.957897 31.774716 0.949508 1.509139 0.091832 -0.019845 189327.000000 0 0 1
19.611374 25.026262 1.608697 31.835636 0.906116 1.520243 0.099891 -0.026764 275258.000000 0 0 1
20.184674 24.309862 2.681697 31.710912 0.877846 1.486128 0.109456 -0.016675 125564.000000 0 0 1
21.297174 23.370462 2.136497 31.690894 0.831781 1.503328 0.104212 -0.014958 217508.000000 0 0 1
20.734974 22.364362 1.341297 30.527085 0.823186 1.526844 0.102757 -0.013568 -565607.000000 0 0 1
21.749174 21.556162 0.910797 30.635343 0.780941 1.541062 0.068608 -0.016513 -808414.000000 0 0 1
21.525574 20.533362 -0.218803 29.749238 0.761812 1.578151 0.116075 -0.015233 -334782.000000 0 0 1
21.212274 21.096762 -1.465903 29.953010 0.782668 1.619756 0.079154 -0.002658 311301.000000 0 0 1
21.525174 20.208562 -2.538703 29.633834 0.753861 1.656571 0.125458 -0.006126 -83989.800000 0 0 1
21.542874 20.986962 -3.893403 30.326665 0.772328 1.699534 0.090963 -0.013301 -341722.000000 0 0 1
22.679774 21.800062 -3.994703 31.710763 0.765623 1.697105 0.098864 -0.003978 15107.800000 0 0 1
22.507974 22.766762 -5.025403 32.406620 0.791114 1.726498 0.062034 -0.001654 -406440.000000 0 0 1
23.708274 23.704462 -5.193003 33.925670 0.785318 1.724470 0.066377 0.007465 -303367.000000 0 0 1
23.845274 24.825762 -4.315403 34.692049 0.805541 1.695511 0.046271 0.008678 27464.800000 0 0 1
23.940474 24.738162 -2.885003 34.546291 0.801784 1.654405 0.068189 0.006173 1221080.000000 0 0 1
22.544274 24.648662 -2.097703 33.469407 0.829960 1.633513 0.058322 -0.000288 315868.000000 0 0 1
21.580174 25.615262 -2.392503 33.579304 0.870688 1.642106 0.071974 -0.011432 940010.000000 0 0 1
20.375974 25.471062 -1.602603 32.657674 0.896076 1.619889 0.071886 -0.001130 935548.000000 0 0 1
19.437674 24.250062 -1.961203 31.140568 0.895110 1.633817 0.091232 -0.015356 -541774.000000 0 0 1
18.633174 24.631262 -3.102903 31.040655 0.923158 1.670926 0.077532 -0.011553 318993.000000 0 0 1
18.076274 23.471162 -3.740703 29.860341 0.914525 1.696400 0.076963 -0.016931 209783.000000 0 0 1
17.329874 23.794262 -5.055403 29.867182 0.941314 1.740878 0.077167 -0.015178 -88102.500000 0 0 1
16.702474 22.712562 -5.649603 28.753280 0.936715 1.768569 0.085489 -0.024494 16172.800000 0 0 1
16.264774 23.069562 -6.945603 29.068694 0.956701 1.812068 0.080676 -0.020916 -52186.500000 0 0 1
15.667974 21.839062 -7.740503 27.970438 0.948469 1.851195 0.094455 -0.023274 -333868.000000 0 0 1
16.578674 20.904662 -8.251103 27.927371 0.900301 1.870721 0.085324 -0.023957 -83390.000000 0 0 1
15.921574 19.888262 -8.950503 27.002796 0.895719 1.908653 0.120688 -0.034963 79801.100000 0 0 1
16.859674 18.668662 -9.193003 26.782062 0.836271 1.921174 0.124757 -0.033572 -675059.000000 0 0 1
18.044674 18.972562 -9.815403 27.962663 0.810459 1.929455 0.116603 -0.031913 -1070690.000000 0 0 1
18.695674 17.757562 -10.096403 27.691092 0.759669 1.944008 0.125285 -0.031267 -160352.000000 0 0 1
20.202474 17.999062 -10.340703 28.966124 0.727783 1.935843 0.097409 -0.027281 -283407.000000 0 0 1
20.510274 18.616062 -11.584503 30.023821 0.737023 1.966919 0.106151 -0.022946 -331476.000000 0 0 1
21.871774 18.484162 -11.879703 31.002679 0.701651 1.964036 0.090696 -0.014607 -249088.000000 0 0 1
22.276974 18.774062 -13.372803 32.055590 0.700274 2.001131 0.096715 -0.019234 35369.500000 0 0 1
22.175874 17.646962 -14.259803 31.725804 0.672158 2.036968 0.100663 -0.022064 124186.000000 0 0 1
22.522874 18.106862 -15.540303 32.812183 0.677134 2.064186 0.109435 -0.030071 -3053.130000 0 0 1
22.533274 17.109662 -16.668503 32.837904 0.649431 2.103193 0.091620 -0.020119 205177.000000 0 0 1
23.543974 16.088762 -16.746103 33.069608 0.599463 2.101789 0.109146 -0.023967 401043.000000 0 0 1
23.697374 15.532062 -18.044603 33.591936 0.580186 2.137875 0.098626 -0.030625 -148635.000000 0 0 1
24.572274 16.386562 -19.027303 35.133379 0.588145 2.143104 0.096638 -0.026233 19212.700000 0 0 1
25.957874 16.311062 -18.723303 35.922473 0.561017 2.119069 0.102298 -0.025193 269972.000000 0 0 1
26.671874 17.036962 -19.689603 37.273683 0.568434 2.127328 0.098172 -0.031138 -490721.000000 0 0 1
28.178474 17.129762 -19.470303 38.295533 0.546210 2.104148 0.081988 -0.029802 -368454.000000 0 0 1
28.516574 18.113562 -18.532703 38.532547 0.565896 2.072548 0.083075 -0.029630 -475778.000000 0 0 1
29.853074 18.145562 -18.131103 39.359933 0.546156 2.049522 0.068489 -0.034277 -483536.000000 0 0 1
30.139974 19.162162 -16.933703 39.526659 0.566308 2.013531 0.079496 -0.036145 301284.000000 0 0 1
29.321174 18.995462 -15.773303 38.332179 0.574856 1.994884 0.073722 -0.033083 780697.000000 0 0 1
28.070974 19.697762 -15.873503 37.788219 0.611875 2.004313 0.066809 -0.028114 533713.000000 0 0 1
27.002374 19.382262 -14.789603 36.380388 0.622572 1.989446 0.068295 -0.024854 -95337.700000 0 0 1
27.224474 19.764262 -13.424403 36.221715 0.627946 1.950470 0.066977 -0.027184 -152553.000000 0 0 1
26.329474 19.225762 -12.494103 34.913805 0.630708 1.936767 0.067647 -0.022345 -256827.000000 0 0 1
26.736074 19.613262 -11.044203 34.949566 0.632914 1.892311 0.063839 -0.022511 -130151.000000 0 0 1
26.592174 20.958462 -10.773003 35.531091 0.667470 1.878845 0.066854 -0.015602 -79439.800000 0 0 1
26.849674 21.288962 -9.421303 35.537105 0.670393 1.839116 0.060360 -0.004314 3992.750000 0 0 1
25.646074 21.203862 -8.467503 34.336912 0.690863 1.819967 0.073049 -0.007461 -903667.000000 0 0 1
25.719074 19.971562 -7.741303 33.470313 0.660264 1.804198 0.091859 -0.019940 322390.000000 0 0 1
24.841574 19.841462 -6.613303 32.473423 0.673960 1.775884 0.096971 -0.023546 -433967.000000 0 0 1
23.397174 19.583362 -6.997903 31.303458 0.696896 1.796252 0.108310 -0.027215 -1058450.000000 0 0 1
22.762274 20.672262 -7.638703 31.683013 0.737317 1.814293 0.101327 -0.020049 27801.200000 0 0 1
21.432574 20.375262 -8.047703 30.647546 0.760114 1.836501 0.091435 -0.022383 391526.000000 0 0 1
20.686674 21.690962 -8.449003 31.141965 0.809092 1.845546 0.080580 -0.020377 -364491.000000 0 0 1
21.121374 22.297562 -9.671203 32.199781 0.812481 1.875856 0.100422 -0.020048 115787.000000 0 0 1
20.403474 21.931762 -10.861003 31.863228 0.821482 1.918631 0.105745 -0.013350 426965.000000 0 0 1
18.892174 22.261962 -10.923003 31.174047 0.867098 1.928781 0.096529 -0.011733 -170964.000000 0 0 1
18.659574 23.682162 -10.810003 32.029372 0.903467 1.915059 0.101656 -0.017141 969349.000000 0 0 1
17.268374 24.075662 -10.764003 31.522976 0.948584 1.919272 0.095598 -0.018466 1121600.000000 0 0 1
16.950874 25.434062 -10.096303 32.189423 0.982934 1.889834 0.090099 -0.018419 20887.700000 0 0 1
17.366474 26.518362 -10.871603 33.511337 0.990995 1.901190 0.110263 -0.022044 46615.400000 0 0 1
17.262874 27.681162 -10.044203 34.134141 1.013181 1.869474 0.111331 -0.028066 136160.000000 0 0 1
20.673374 28.628062 33.363381 48.580547 0.945367 0.813768 0.061583 -0.011573 -279344.000000 0 0 1
19.330274 28.982062 33.261265 48.165664 0.982581 0.808534 0.083426 -0.026987 -1113080.000000 0 0 1
18.585574 27.882062 32.819716 46.903802 0.982855 0.795785 0.082122 -0.028751 -381659.000000 0 0 1
17.082074 28.138062 32.956883 46.580081 1.025187 0.784797 0.112398 -0.040232 -235766.000000 0 0 1
16.613874 29.056962 31.982470 46.294776 1.051394 0.808141 0.121606 -0.041020 70322.600000 0 0 1
15.320574 29.560462 32.308063 46.393446 1.092632 0.800437 0.132890 -0.043990 1475080.000000 0 0 1
14.197074 29.351162 31.198366 45.126330 1.120276 0.807432 0.128642 -0.048735 703899.000000 0 0 1
13.868274 27.985462 30.957456 43.975894 1.110713 0.789833 0.121538 -0.054275 -633759.000000 0 0 1
12.620074 28.040862 30.344286 43.201064 1.147892 0.792037 0.120322 -0.030816 -734902.000000 0 0 1
11.852574 26.715562 30.435646 42.196366 1.153229 0.765139 0.092438 -0.033828 -237595.000000 0 0 1
12.138874 25.734062 29.429796 40.935402 1.130040 0.768531 0.098152 -0.034388 543049.000000 0 0 1
13.465774 25.220362 29.439396 41.037444 1.080379 0.770764 0.089104 -0.033824 392889.000000 0 0 1
13.900474 24.518162 28.112076 39.807691 1.055036 0.786684 0.091746 -0.028956 -153351.000000 0 0 1
13.450974 25.250562 27.011476 39.346403 1.081332 0.814126 0.086202 -0.029468 330120.000000 0 0 1
13.658074 24.550862 25.803376 38.145800 1.063116 0.827877 0.084625 -0.023493 36084.500000 0 0 1
12.515874 23.608862 25.307916 36.803751 1.083333 0.812556 0.083752 -0.021868 -114873.000000 0 0 1
12.674074 23.081062 23.994366 35.624390 1.068636 0.831812 0.093649 -0.026445 242736.000000 0 0 1
11.575474 22.285262 23.558666 34.433055 1.091731 0.817307 0.103845 -0.031640 152333.000000 0 0 1
11.560474 21.893462 22.094616 33.183434 1.084974 0.842187 0.128426 -0.040934 -117858.000000 0 0 1
11.138974 23.035962 21.373416 33.339994 1.120397 0.874899 0.126129 -0.040117 126831.000000 0 0 1
11.252774 22.793962 19.981416 32.333367 1.112223 0.904624 0.121056 -0.029359 -361829.000000 0 0 1
10.750674 24.065462 19.177716 32.596139 1.150668 0.941788 0.119750 -0.035029 340997.000000 0 0 1
9.339874 24.172462 19.202716 32.253457 1.202082 0.933071 0.117925 -0.040836 11058.500000 0 0 1
8.801574 24.859562 20.300016 33.279967 1.230516 0.914765 0.122925 -0.044200 -334991.000000 0 0 1
7.366474 25.342162 20.016916 33.123512 1.287911 0.921895 0.112645 -0.044487 -157613.000000 0 0 1
7.376274 26.380062 19.030516 33.353825 1.298144 0.963603 0.117688 -0.052729 127116.000000 0 0 1
6.081474 26.528462 18.465516 32.889495 1.345447 0.974670 0.098710 -0.053366 -87846.700000 0 0 1
5.884474 27.651262 17.471316 33.233510 1.361114 1.017242 0.105243 -0.045419 98686.300000 0 0 1
6.535574 27.475762 16.212716 32.565064 1.337269 1.049671 0.107041 -0.038077 -130983.000000 0 0 1
6.796074 28.706462 15.650016 33.394170 1.338333 1.083040 0.105709 -0.033966 -244659.000000 0 0 1
7.741574 28.685862 14.445916 33.037784 1.307202 1.118253 0.098591 -0.039489 -443353.000000 0 0 1
7.236474 28.394062 13.163116 32.122530 1.321250 1.148585 0.094067 -0.036452 -385486.000000 0 0 1
7.020674 27.042862 12.845816 30.750955 1.316791 1.139843 0.078087 -0.034838 -38140.300000 0 0 1
6.289774 26.961062 11.499516 29.978309 1.341604 1.177111 0.084560 -0.033067 -75415.600000 0 0 1
7.054674 27.465662 10.335616 30.182047 1.319377 1.221281 0.074109 -0.028808 640067.000000 0 0 1
7.425574 28.815962 10.281616 31.483495 1.318594 1.238122 0.071525 -0.024951 -6921.590000 0 0 1
7.879774 29.296862 8.855016 31.603928 1.308051 1.286807 0.044817 -0.014594 -661505.000000 0 0 1
6.886474 29.454862 7.909516 31.266162 1.341124 1.315044 0.078094 -0.029837 -729915.000000 0 0 1
6.438574 28.276562 7.283716 29.901032 1.346913 1.324726 0.080668 -0.016684 685524.000000 0 0 1
4.878374 28.120762 7.206616 29.436561 1.399026 1.323464 0.090350 -0.024096 565192.000000 0 0 1
4.387974 29.152062 6.387116 30.164421 1.421398 1.357438 0.071995 -0.020460 656175.000000 0 0 1
2.938974 29.089362 6.416316 29.933220 1.470105 1.354766 0.092817 -0.009545 1191360.000000 0 0 1
2.321874 29.983162 5.339716 30.543308 1.493511 1.395069 0.105889 -0.021775 -499485.000000 0 0 1
2.489474 29.511862 4.030216 29.889632 1.486641 1.435548 0.085621 -0.019018 384916.000000 0 0 1
1.778074 30.309662 3.035816 30.513167 1.512200 1.471139 0.060217 -0.022817 170213.000000 0 0 1
0.415474 29.796562 2.605816 29.913174 1.556854 1.483573 0.098276 -0.025580 -548980.000000 0 0 1
0.581974 28.630862 1.848816 28.696395 1.550472 1.506325 0.099193 -0.021494 -86130.600000 0 0 1
-0.614726 27.976462 1.458416 28.021194 -1.548827 1.518726 0.085475 -0.020498 303078.000000 0 0 1
-1.101926 28.362362 0.014316 28.383763 -1.531964 1.570292 0.078798 -0.021870 -254389.000000 0 0 1
-1.748726 29.569462 -0.115584 29.621352 -1.511726 1.574698 0.089214 -0.023942 -430438.000000 0 0 1
-1.640626 30.107362 -1.460384 30.187375 -1.516358 1.619193 0.087945 -0.026698 -57779.400000 0 0 1
-2.852826 30.965362 -1.955184 31.157904 -1.478926 1.633588 0.103914 -0.022421 816345.000000 0 0 1
-4.046426 30.309262 -2.382484 30.670852 -1.438077 1.648554 0.069225 -0.030315 738168.000000 0 0 1
-3.782126 29.627662 -3.620484 30.086720 -1.443828 1.691424 0.059622 -0.027238 349784.000000 0 0 1
-5.121226 29.324062 -4.395084 30.090602 -1.397898 1.717382 0.072342 -0.019510 667587.000000 0 0 1
-5.812726 30.327462 -5.081584 31.294811 -1.381427 1.733896 0.073568 -0.028355 164085.000000 0 0 1
-6.767526 29.830162 -6.000784 31.171259 -1.347704 1.764516 0.072259 -0.029530 72080.700000 0 0 1
-7.335226 30.983462 -6.855884 32.569673 -1.338330 1.782882 0.070666 -0.020190 -344998.000000 0 0 1
-8.229826 31.796262 -6.182284 33.420846 -1.317525 1.756851 0.063169 -0.014052 -520628.000000 0 0 1
-8.694726 32.844162 -6.970484 34.683207 -1.312006 1.773150 0.056287 -0.030047 359894.000000 0 0 1
-9.931126 33.497162 -6.263984 35.495417 -1.282575 1.748198 0.053464 -0.026593 112671.000000 0 0 1
-11.164026 32.917362 -6.527584 35.366616 -1.243817 1.756430 0.069821 -0.015710 -196173.000000 0 0 1
-12.251226 33.663462 -5.964384 36.316595 -1.221764 1.735777 0.070751 -0.013302 1361190.000000 0 0 1
-13.705726 33.163862 -6.252184 36.424970 -1.178900 1.743296 0.092460 -0.011158 752173.000000 0 0 1
-14.096126 33.354962 -7.582884 36.996680 -1.170952 1.777220 0.079843 -0.014188 -655464.000000 0 0 1
-15.469026 33.182662 -7.734384 37.419253 -1.134571 1.778992 0.106455 -0.016751 -1008030.000000 0 0 1
-15.858926 33.270362 -9.236684 37.996563 -1.125988 1.816349 0.128215 -0.030995 125542.000000 0 0 1
-17.218626 32.952262 -9.413784 38.352991 -1.089286 1.818781 0.175129 -0.045130 358021.000000 0 0 1
-18.162926 -33.738792 -9.354984 39.442536 1.076950 1.810258 0.175429 -0.049774 476042.000000 0 0 1
-19.654726 33.575462 -9.554484 40.061304 -1.041189 1.811614 0.188084 -0.058615 825826.000000 0 0 1
-20.299526 32.741862 -8.589684 39.470026 -1.015810 1.790177 0.174110 -0.058199 121734.000000 0 0 1
-20.397326 33.285662 -7.297584 39.714492 -1.021021 1.755598 0.154374 -0.037452 -649499.000000 0 0 1
-21.085026 32.507062 -6.222984 39.242998 -0.995385 1.730044 0.153066 -0.039260 -723131.000000 0 0 1
-20.890326 33.028962 -4.940684 39.391984 -1.006833 1.696551 0.148889 -0.031520 -241545.000000 0 0 1
-21.981126 32.859262 -4.083984 39.743929 -0.981216 1.673735 0.137533 -0.030854 111211.000000 0 0 1
-23.032726 -33.741392 -4.196184 41.068186 0.971827 1.673151 0.146317 -0.038118 -39943.900000 0 0 1
-23.738326 -33.785792 -5.392684 41.642153 0.958319 1.700662 0.145419 -0.043406 -663580.000000 0 0 1
-24.633926 -32.728192 -5.505584 41.331299 0.925581 1.704400 0.146068 -0.052476 -224457.000000 0 0 1
-25.321316 -32.866392 -6.921184 42.062709 0.914347 1.736092 0.181515 -0.054388 105784.000000 0 0 1
-24.544526 -32.403792 -8.027184 41.435192 0.922539 1.765758 0.205954 -0.052636 5916.220000 0 0 1
-25.112556 -32.863392 -9.236584 42.378738 0.918301 1.790513 0.173623 -0.043786 -90782.700000 0 0 1
-26.331576 -32.153192 -9.856284 42.712129 0.884612 1.803656 0.157530 -0.034547 -848265.000000 0 0 1
-27.476346 -32.515092 -9.155284 43.543082 0.869193 1.782635 0.154051 -0.020146 -974659.000000 0 0 1
-28.659126 -31.884792 -9.602784 43.934029 0.838626 1.791148 0.072896 -0.010739 211952.000000 0 0 1
-28.922696 -30.353892 -9.254884 42.936394 0.809538 1.788050 0.049355 0.009277 -67046.300000 0 0 1
-28.120376 -29.370192 -9.982984 41.869125 0.807134 1.811548 0.076851 0.010991 223918.000000 0 0 1
-28.398316 -29.212192 -11.349584 42.292192 0.799524 1.842488 0.066166 0.011461 -641832.000000 0 0 1
-27.465146 -28.301292 -12.096484 41.250724 0.800391 1.868413 0.127532 0.000800 -696704.000000 0 0 1
-26.179646 -28.848092 -12.231584 40.831335 0.833853 1.875032 0.130392 -0.015561 -649367.000000 0 0 1
-25.411966 -28.067992 -13.131184 40.075031 0.835021 1.904627 0.117287 -0.020229 119626.000000 0 0 1
-23.965626 -28.635092 -13.237984 39.617722 0.873938 1.911492 0.141537 -0.035350 186936.000000 0 0 1
-23.826826 -29.852892 -13.919184 40.652877 0.897190 1.920257 0.158523 -0.041451 153626.000000 0 0 1
-24.272926 -30.966692 -13.088984 41.466039 0.905987 1.891944 0.158054 -0.045585 -86219.500000 0 0 1
-24.180826 -32.326092 -13.903984 42.696713 0.928558 1.902490 0.170438 -0.047324 161031.000000 0 0 1
-24.565326 -33.512292 -13.205384 43.599439 0.938248 1.878509 0.152570 -0.054030 10208.700000 0 0 1
-24.716126 33.098462 -14.048884 43.632169 -0.929381 1.898621 0.159346 -0.056738 -356677.000000 0 0 1
-24.926026 31.843762 -13.177584 42.532113 -0.906656 1.885807 0.119399 -0.054168 -194536.000000 0 0 1
-23.907526 31.430362 -12.297184 41.360103 -0.920514 1.872681 0.114736 -0.053483 -68760.700000 0 0 1
-23.486726 32.336262 -11.314984 41.536598 -0.942618 1.846693 0.142606 -0.055454 -96472.200000 0 0 1
-22.967726 31.567462 -10.080284 40.319142 -0.941802 1.823489 0.147982 -0.058422 305259.000000 0 0 1
-24.059226 31.038162 -9.359084 40.370859 -0.911393 1.804752 0.134360 -0.054522 374352.000000 0 0 1
-23.490126 30.310662 -8.313484 39.238199 -0.911499 1.784287 0.140815 -0.047899 589930.000000 0 0 1
-24.569726 29.423362 -7.565684 39.072308 -0.875051 1.765660 0.111739 -0.041326 349270.000000 0 0 1
-25.043586 28.363762 -8.417384 38.762566 -0.847485 1.789693 0.111420 -0.025594 -61568.500000 0 0 1
-25.624906 27.272862 -7.662984 38.199033 -0.816542 1.772774 0.103903 -0.021515 -64541.200000 0 0 1
-24.737726 26.143162 -7.044684 36.674890 -0.813013 1.764082 0.098604 -0.020849 59480.500000 0 0 1
-23.717126 26.720162 -6.229584 36.266745 -0.844868 1.743424 0.105004 -0.015851 -68372.100000 0 0 1
-22.886226 25.724462 -5.682584 34.897264 -0.843719 1.734362 0.096366 -0.028722 -977411.000000 0 0 1
-21.582126 26.358762 -5.274384 34.473056 -0.884706 1.724400 0.096936 -0.043596 -905885.000000 0 0 1
-20.711426 26.680162 -6.347184 34.366858 -0.910684 1.756552 0.110505 -0.030619 667461.000000 0 0 1
-19.533026 27.352862 -5.815584 34.110690 -0.950661 1.742125 0.120010 -0.030248 1644350.000000 0 0 1
-18.283426 27.251862 -6.788484 33.511657 -0.979865 1.774779 0.139591 -0.033174 487230.000000 0 0 1
-18.333026 27.750662 -8.127784 34.238282 -0.986982 1.810473 0.135245 -0.035173 -174794.000000 0 0 1
-18.411726 29.158462 -8.254484 35.459047 -1.007582 1.805741 0.125146 -0.035980 -39800.300000 0 0 1
-18.571126 29.745862 -9.699584 36.383855 -1.012682 1.840650 0.144256 -0.040250 -526479.000000 0 0 1
-17.400626 29.490562 -10.392984 35.783923 -1.037732 1.865480 0.144490 -0.039506 -416166.000000 0 0 1
-17.457926 30.316662 -11.542884 36.839073 -1.048322 1.889497 0.150138 -0.045894 148635.000000 0 0 1
-16.039626 30.658762 -12.071184 36.646183 -1.088788 1.906462 0.135337 -0.042529 247496.000000 0 0 1
-15.857026 31.487762 -13.271184 37.670263 -1.104278 1.930822 0.132052 -0.045711 -175346.000000 0 0 1
-16.240026 30.830162 -14.486984 37.737382 -1.085972 1.964801 0.143288 -0.051746 70980.000000 0 0 1
-15.633926 31.646062 -15.694784 38.629252 -1.111941 1.989189 0.169980 -0.056735 -888803.000000 0 0 1
-14.292826 31.342662 -15.763184 37.883047 -1.142949 1.999950 0.153543 -0.065276 -1187060.000000 0 0 1
-13.717926 31.788562 -16.999584 38.570455 -1.163402 2.027220 0.138601 -0.069449 1340350.000000 0 0 1
-12.130126 31.862562 -16.985084 38.090102 -1.207036 2.032997 0.150479 -0.073499 1060220.000000 0 0 1
-11.554626 30.570862 -17.048984 36.861292 -1.209431 2.051629 0.151055 -0.083060 -493326.000000 0 0 1
-10.268926 30.508462 -17.595084 36.685202 -1.246115 2.071022 0.148368 -0.078105 -122104.000000 0 0 1
-10.109426 30.829362 -19.114284 37.656419 -1.253930 2.103190 0.154817 -0.083152 -603125.000000 0 0 1
-10.755626 29.777662 -19.796184 37.340079 -1.224181 2.129585 0.137128 -0.081033 141809.000000 0 0 1
-10.744826 29.935162 -21.161884 38.201970 -1.226182 2.157895 0.126663 -0.086183 11290.800000 0 0 1
-12.067226 29.430362 -21.830984 38.579217 -1.181676 2.172289 0.121144 -0.071712 704556.000000 0 0 1
-13.031926 30.460762 -21.997484 39.769063 -1.166534 2.156914 0.127743 -0.069700 532067.000000 0 0 1
-14.073126 30.481062 -21.000884 39.600317 -1.138255 2.129776 0.125643 -0.061012 478343.000000 0 0 1
-15.009626 31.705662 -21.118684 40.945533 -1.128650 2.112708 0.167827 -0.067879 -227160.000000 0 0 1
-15.653726 31.739262 -22.348984 41.855668 -1.112605 2.134066 0.130264 -0.049946 -375062.000000 0 0 1
-16.358326 32.922962 -22.622484 43.165878 -1.109658 2.122434 0.124471 -0.045092 179595.000000 0 0 1
-16.890626 32.898962 -24.074084 44.127049 -1.096479 2.147857 0.106673 -0.027781 -47069.800000 0 0 1
-15.848126 32.951462 -25.033184 44.312777 -1.122502 2.171133 0.120294 -0.028114 -302901.000000 0 0 1
-16.132826 32.947762 -26.435584 45.217952 -1.115464 2.195215 0.129929 -0.023656 -160445.000000 0 0 1
-16.543126 -33.437092 -26.993684 46.047509 1.111355 2.197174 0.111841 -0.013825 -614027.000000 0 0 1
-17.843226 -33.116792 -26.642584 46.096962 1.076595 2.187033 0.104495 -0.006926 -1062420.000000 0 0 1
-18.422426 -32.386892 -27.662684 46.406041 1.053616 2.209432 0.085083 -0.003176 295967.000000 0 0 1
-19.866426 -31.829792 -27.454584 46.492630 1.012812 2.202493 0.086801 -0.011061 1318840.000000 0 0 1
-20.860326 -32.861492 -27.441984 47.624503 1.005184 2.184887 0.076775 -0.008118 1358480.000000 0 0 1
-22.245826 -32.489592 -27.637384 48.106915 0.970409 2.182788 0.060805 -0.001270 2264050.000000 0 0 1
-23.375926 -33.567492 -27.453084 49.263396 0.962500 2.161892 0.035303 0.008454 386787.000000 0 0 1
-23.358626 33.589662 -26.197784 48.582040 -0.963157 2.140341 0.065501 -0.003138 -427444.000000 0 0 1
-24.512626 32.807362 -25.988284 48.503430 -0.929110 2.136255 0.047411 0.000535 38540.600000 0 0 1
-24.738326 31.542162 -26.945184 48.300473 -0.905706 2.162608 0.052101 -0.003859 -328437.000000 0 0 1
-23.815026 30.464962 -26.941884 47.128913 -0.907302 2.179328 0.054757 -0.032713 -130779.000000 0 0 1
-24.030026 29.644662 -25.817584 46.073808 -0.889624 2.165608 0.036395 -0.027824 97323.700000 0 0 1
32.632811 10.241362 -25.939063 42.925759 0.304102 2.219655 0.068047 -0.010884 9361.080000 0 0 1
32.360251 8.862562 -25.983363 42.436611 0.267317 2.229746 0.053514 -0.006129 -102312.000000 0 0 1
30.979171 8.648162 -26.152013 41.453920 0.272230 2.253470 0.074473 -0.012003 -98573.600000 0 0 1
30.585251 7.221162 -25.865063 40.701403 0.231854 2.259431 0.069879 -0.015824 -177123.000000 0 0 1
30.609661 6.898562 -24.498003 39.808211 0.221669 2.233691 0.052154 -0.002429 56212.200000 0 0 1
29.862641 5.719662 -24.285603 38.913781 0.189240 2.244759 0.054214 -0.004022 -73757.600000 0 0 1
29.822341 5.311062 -22.811903 37.920473 0.176242 2.216264 0.059058 -0.011242 569625.000000 0 0 1
31.112361 5.193262 -22.176303 38.558234 0.165395 2.183569 0.088751 -0.013626 857795.000000 0 0 1
30.991261 5.046962 -20.761803 37.642828 0.161434 2.155014 0.089771 -0.014522 -56078.700000 0 0 1
32.333051 4.850362 -20.013803 38.334117 0.148902 2.120094 0.085033 -0.013956 69323.500000 0 0 1
32.948081 3.594462 -20.282003 38.856863 0.108665 2.119952 0.110305 -0.013878 -183593.000000 0 0 1
33.976041 3.369962 -19.382003 39.260540 0.098863 2.087109 0.120427 -0.018523 -585441.000000 0 0 1
34.593531 1.937362 -19.444403 39.730977 0.055945 2.082200 0.127899 -0.024399 -391405.000000 0 0 1
33.808071 0.957362 -18.866603 38.727909 0.028310 2.079629 0.135283 -0.022739 -389704.000000 0 0 1
34.403371 -0.343138 -18.823803 39.217920 -0.009974 2.071428 0.142746 -0.027688 -459820.000000 0 0 1
33.467571 -1.531338 -18.565503 38.302757 -0.045724 2.076821 0.112735 -0.029735 -119657.000000 0 0 1
33.112191 -1.615538 -17.200203 37.348014 -0.048751 2.049398 0.110460 -0.026723 -186056.000000 0 0 1
31.813821 -1.135538 -16.942503 36.061850 -0.035678 2.059881 0.100376 -0.035594 -178941.000000 0 0 1
31.244411 -1.382838 -15.483603 34.897957 -0.044230 2.030500 0.108201 -0.029777 77917.900000 0 0 1
30.892241 -2.730638 -15.225303 34.548470 -0.088163 2.027168 0.095786 -0.029963 631474.000000 0 0 1
30.114771 -2.958438 -14.037603 33.357249 -0.097925 2.005152 0.094823 -0.034229 71508.100000 0 0 1
29.867641 -4.411138 -13.554703 33.094774 -0.146630 1.992782 0.087006 -0.041245 -312546.000000 0 0 1
29.205641 -5.197738 -14.482903 33.011216 -0.176126 2.024978 0.074806 -0.040132 191896.000000 0 0 1
29.042241 -6.458338 -13.922703 32.848189 -0.218817 2.008488 0.080669 -0.029691 -177454.000000 0 0 1
28.523841 -7.544138 -14.936203 33.069830 -0.258565 2.039417 0.052731 -0.016543 -419223.000000 0 0 1
27.203541 -7.251738 -15.277303 32.031490 -0.260515 2.067974 0.076405 -0.019569 -315622.000000 0 0 1
26.613041 -8.265938 -16.122403 32.194899 -0.301150 2.095290 0.070519 -0.015149 1102050.000000 0 0 1
25.075841 -8.087838 -16.400303 31.035155 -0.312001 2.127562 0.067709 -0.018675 627175.000000 0 0 1
24.869441 -7.012938 -17.306103 31.099382 -0.274853 2.160936 0.070193 -0.022665 -278672.000000 0 0 1
23.543541 -6.952438 -17.765503 30.302604 -0.287141 2.197243 0.105676 -0.026297 -128175.000000 0 0 1
23.377841 -7.382538 -19.230303 31.158143 -0.305881 2.235955 0.074653 -0.022330 -63852.200000 0 0 1
23.776141 -6.402638 -20.168103 31.828462 -0.263048 2.257058 0.071827 -0.023724 172898.000000 0 0 1
23.853941 -6.789738 -21.497003 32.821215 -0.277304 2.284943 0.090936 -0.028900 -115277.000000 0 0 1
24.221141 -5.605738 -22.394003 33.460115 -0.227436 2.304028 0.090393 -0.029711 -154545.000000 0 0 1
24.388741 -6.043838 -23.775403 34.592029 -0.242919 2.328574 0.105117 -0.037011 201307.000000 0 0 1
24.359941 -4.903638 -24.620403 34.980232 -0.198645 2.351582 0.097391 -0.039830 -121134.000000 0 0 1
24.365841 -5.303338 -26.086693 36.087881 -0.214312 2.378737 0.103191 -0.036483 476788.000000 0 0 1
23.161141 -5.959538 -26.505233 35.699887 -0.251845 2.407510 0.097239 -0.032467 277496.000000 0 0 1
22.998341 -5.985638 -27.906473 36.654096 -0.254615 2.436184 0.080073 -0.029237 260963.000000 0 0 1
21.607841 -6.522838 -28.306583 36.203713 -0.293175 2.468455 0.069179 -0.031450 332505.000000 0 0 1
21.677841 -7.964238 -28.125953 36.392679 -0.352083 2.454111 0.065257 -0.021257 634606.000000 0 0 1
20.382941 -8.566138 -28.177553 35.816442 -0.397849 2.476276 0.064424 -0.029565 475347.000000 0 0 1
20.525941 -10.074138 -28.032703 36.175060 -0.456261 2.457382 0.085505 -0.023811 234932.000000 0 0 1
19.338841 -10.703538 -27.556563 35.325920 -0.505506 2.465568 0.099952 -0.021861 482431.000000 0 0 1
19.536341 -12.061838 -27.227333 35.615786 -0.553119 2.441021 0.100911 -0.022359 -117179.000000 0 0 1
19.536841 -13.096538 -28.329083 36.820434 -0.590549 2.448674 0.089565 -0.016333 -69543.000000 0 0 1
18.280741 -13.326038 -28.925833 36.721555 -0.629903 2.477875 0.083078 -0.015432 83717.800000 0 0 1
18.271841 -14.499438 -29.667673 37.739431 -0.670790 2.475300 0.072903 -0.018801 631201.000000 0 0 1
16.969241 -14.727138 -30.569543 37.938644 -0.714779 2.507758 0.066484 -0.020720 1013070.000000 0 0 1
15.868541 -15.193938 -29.810213 37.031272 -0.763684 2.506474 0.053118 -0.016716 359443.000000 0 0 1
14.797841 -15.501838 -30.729943 37.464816 -0.808628 2.532618 0.051225 -0.024060 -50443.000000 0 0 1
13.652641 -16.099538 -29.920083 36.616951 -0.867456 2.527177 0.057168 -0.027850 -701413.000000 0 0 1
13.841541 -17.426838 -29.488433 36.943885 -0.899562 2.495090 0.050018 -0.018940 52663.700000 0 0 1
12.832441 -17.825438 -28.580073 36.044949 -0.946843 2.486351 0.050422 -0.017727 -61836.800000 0 0 1
13.068541 -19.165738 -27.849753 36.245289 -0.972342 2.447085 0.054620 -0.013342 468802.000000 0 0 1
14.218241 -19.137738 -26.981233 36.005532 -0.931827 2.417897 0.062852 -0.010891 586822.000000 0 0 1
14.308341 -20.345038 -26.233773 36.150519 -0.957870 2.382821 0.066295 -0.006545 94716.700000 0 0 1
15.332641 -20.280938 -25.078803 35.712080 -0.923458 2.349349 0.061552 -0.006119 454369.000000 0 0 1
16.702441 -20.471638 -25.428963 36.670037 -0.886446 2.337067 0.062581 -0.006620 487317.000000 0 0 1
17.517941 -20.271938 -24.300203 36.170839 -0.858146 2.307456 0.063086 0.001230 -444290.000000 0 0 1
18.989841 -20.653638 -24.556603 37.285568 -0.827343 2.289765 0.065427 0.000384 -121865.000000 0 0 1
19.353741 -22.055438 -24.766903 38.398035 -0.850550 2.271825 0.079533 -0.006006 363105.000000 0 0 1
18.970641 -22.857038 -23.666603 37.979435 -0.878047 2.243551 0.086782 -0.022265 -278693.000000 0 0 1
19.668141 -24.276138 -23.630803 39.173735 -0.889876 2.218342 0.077572 -0.024648 773584.000000 0 0 1
21.083041 -24.291338 -23.390503 39.770332 -0.855988 2.199553 0.088103 -0.021371 888274.000000 0 0 1
21.533441 -25.599048 -23.098903 40.651687 -0.871444 2.175131 0.095974 -0.032618 -70268.000000 0 0 1
21.570341 -25.965378 -21.562603 40.055291 -0.877594 2.139240 0.106452 -0.035601 -256707.000000 0 0 1
20.305841 -26.338318 -21.054403 39.361428 -0.914014 2.135185 0.085618 -0.030264 64374.700000 0 0 1
20.329341 -26.470168 -19.637403 38.724404 -0.915868 2.102621 0.091337 -0.037142 -502341.000000 0 0 1
19.007441 -26.918888 -19.039503 38.058009 -0.955988 2.094714 0.078771 -0.029514 -1103950.000000 0 0 1
18.774041 -28.224898 -19.422403 39.068391 -0.983838 2.091094 0.077499 -0.028784 129384.000000 0 0 1
17.592041 -28.845248 -18.947903 38.736950 -1.023146 2.081903 0.061988 -0.014238 1546450.000000 0 0 1
16.190441 -28.291158 -19.469603 37.968216 -1.051009 2.109224 0.058265 -0.014552 682105.000000 0 0 1
15.692441 -27.119388 -18.804403 36.542023 -1.046229 2.111333 0.055324 -0.022041 -18649.000000 0 0 1
14.427141 -26.795158 -19.360303 36.068604 -1.076885 2.137393 0.059125 -0.007245 197103.000000 0 0 1
13.607241 -25.812828 -18.537403 34.570137 -1.085665 2.136756 0.057090 -0.018373 -617517.000000 0 0 1
13.195041 -26.351988 -17.311203 34.179147 -1.106571 2.101899 0.058719 -0.013484 174417.000000 0 0 1
12.167941 -25.536538 -16.733103 32.865944 -1.126132 2.104972 0.071703 -0.031546 409924.000000 0 0 1
10.697741 -25.833348 -17.062003 32.755388 -1.178189 2.118691 0.086586 -0.020835 -289874.000000 0 0 1
10.091741 -26.957648 -16.381503 33.119657 -1.212591 2.088189 0.098754 -0.015863 1468650.000000 0 0 1
8.645741 -26.886538 -16.278803 32.598070 -1.259675 2.093679 0.094246 -0.015160 1513900.000000 0 0 1
7.832041 -27.586388 -17.353803 33.518713 -1.294166 2.114997 0.097955 -0.004243 -116642.000000 0 0 1
7.921441 -27.025328 -18.628803 33.766105 -1.285671 2.155199 0.087109 -0.003866 -535223.000000 0 0 1
7.166041 -27.809928 -19.468303 34.695231 -1.318603 2.166539 0.083921 -0.000498 -163192.000000 0 0 1
7.063541 -27.386808 -20.950103 35.197126 -1.318380 2.208338 0.080529 -0.014405 -158111.000000 0 0 1
6.103841 -26.364778 -21.131003 34.334788 -1.343290 2.233740 0.082385 -0.021318 -81305.700000 0 0 1
6.089741 -25.875758 -22.474503 34.810100 -1.339657 2.272646 0.058960 -0.013863 28025.900000 0 0 1
4.845241 -25.012068 -22.878503 34.241872 -1.379450 2.302508 0.046972 -0.017517 923027.000000 0 0 1
3.701341 -25.905228 -22.928303 34.792066 -1.428877 2.290297 0.049295 -0.014112 85713.600000 0 0 1
2.594741 -25.337248 -23.545303 34.685589 -1.468744 2.316952 0.052125 -0.017952 62146.500000 0 0 1
1.542341 -26.402928 -23.938403 35.672686 -1.512447 2.306430 0.021459 -0.012505 104566.000000 0 0 1
2.009041 -27.011478 -25.158463 36.967613 -1.496556 2.319315 0.022301 -0.015540 -68922.100000 0 0 1
1.021641 -27.269828 -26.122323 37.776488 -1.533350 2.334355 0.040910 -0.024822 -425212.000000 0 0 1
1.334641 -28.247268 -27.224943 39.254133 -1.523583 2.337210 0.039625 -0.024020 -756168.000000 0 0 1
2.314141 -27.716248 -28.072193 39.517005 -1.487496 2.360838 0.030281 -0.026407 -253840.000000 0 0 1
2.566941 -28.630688 -29.124143 40.920914 -1.481378 2.362737 0.046932 -0.039567 845495.000000 0 0 1
4.033941 -29.231628 -29.228943 41.534225 -1.433663 2.351432 0.041146 -0.031270 759015.000000 0 0 1
4.357741 -29.948008 -28.092093 41.292115 -1.426300 2.319003 0.043011 -0.045431 -643910.000000 0 0 1
5.527741 -30.635918 -28.423813 42.154816 -1.392284 2.310775 0.075170 -0.045587 -197679.000000 0 0 1
5.874141 -31.771988 -27.404303 42.366975 -1.387976 2.274219 0.103954 -0.062265 430215.000000 0 0 1
4.854041 -32.769728 -27.522473 43.068588 -1.423740 2.264044 0.095642 -0.070589 352650.000000 0 0 1
5.232041 33.773408 -26.959923 43.529929 1.417102 2.238701 0.105601 -0.073928 128567.000000 0 0 1
4.039541 32.803412 -26.736303 42.511312 1.448269 2.250962 0.130301 -0.071946 -15158.800000 0 0 1
3.221241 32.610610 -27.849403 43.004854 1.472337 2.275210 0.111862 -0.073319 -876284.000000 0 0 1
1.985841 32.108658 -27.485293 42.312537 1.509027 2.277826 0.078119 -0.070690 -967397.000000 0 0 1
1.008341 32.282213 -28.651713 43.174977 1.539571 2.296442 0.090484 -0.056368 -469690.000000 0 0 1
0.883641 31.209966 -29.580903 43.010145 1.542491 2.329203 0.115979 -0.057621 253267.000000 0 0 1
-0.079959 31.458686 -30.594053 43.882244 -1.568255 2.342260 0.113197 -0.051256 221836.000000 0 0 1
-0.119459 30.345946 -31.592873 43.806396 -1.566860 2.376319 0.104440 -0.047175 -63339.700000 0 0 1
1.065541 30.218146 -32.336623 44.271084 1.535549 2.389738 0.110610 -0.044091 -39111.900000 0 0 1
0.850941 29.214596 -33.313843 44.317365 1.541677 2.421449 0.124371 -0.043329 113139.000000 0 0 1
2.143141 28.893816 33.734234 44.468463 1.496759 0.709619 0.110102 -0.034101 163821.000000 0 0 1
2.488741 29.864136 32.781281 44.414782 1.487653 0.740589 0.102094 -0.044191 -144999.000000 0 0 1
3.640341 29.560216 32.023191 43.732633 1.448263 0.749177 0.079109 -0.041880 -108743.000000 0 0 1
3.413441 28.515726 30.877056 42.168600 1.451659 0.749208 0.086439 -0.041356 -145807.000000 0 0 1
3.050441 27.184666 31.216686 41.506538 1.459052 0.719568 0.100838 -0.040072 -205620.000000 0 0 1
4.193141 26.382916 31.232566 41.098830 1.413181 0.707578 0.088008 -0.032629 -314460.000000 0 0 1
3.783541 25.021456 31.796470 40.637470 1.420721 0.672218 0.093009 -0.038762 -243244.000000 0 0 1
3.007741 24.410596 30.835166 39.442758 1.448200 0.673297 0.095138 -0.026911 -375657.000000 0 0 1
2.874041 22.993636 30.940956 38.656308 1.446448 0.642815 0.069586 -0.020993 7243.630000 0 0 1
1.985341 22.309816 29.852916 37.321121 1.482041 0.643679 0.065664 -0.006313 1111290.000000 0 0 1
0.595241 22.321216 30.244436 37.594107 1.544136 0.635964 0.060774 -0.012852 875808.000000 0 0 1
-0.189059 21.580516 29.285476 36.378476 -1.562036 0.635084 0.067939 -0.007462 952139.000000 0 0 1
-1.657259 21.286916 29.730066 36.602679 -1.493100 0.622819 0.064321 -0.003326 650413.000000 0 0 1
-2.533859 22.409316 29.825656 37.392080 -1.458203 0.647414 0.081525 -0.006762 83514.700000 0 0 1
-3.859659 21.968116 30.009686 37.390859 -1.396878 0.639165 0.056820 -0.003005 -129485.000000 0 0 1
-4.762559 23.112446 30.463956 38.534656 -1.367580 0.659073 0.037013 -0.011846 -228272.000000 0 0 1
-4.619759 23.431066 31.822815 39.787543 -1.376129 0.643803 0.051640 -0.012433 -83662.500000 0 0 1
-5.565359 24.415076 32.138480 40.742497 -1.346678 0.661910 0.042511 -0.024998 -161900.000000 0 0 1
-5.544059 24.882636 33.599390 42.175836 -1.351569 0.649063 0.080821 -0.022170 357485.000000 0 0 1
-6.652059 25.764186 33.780777 43.002140 -1.318124 0.667195 0.082979 -0.015407 223092.000000 0 0 1
-6.608559 26.418956 -32.783753 42.619347 -1.325682 2.448420 0.094755 -0.018373 -332154.000000 0 0 1
-7.998859 26.704966 -32.202243 42.592504 -1.279774 2.428060 0.109993 -0.020185 -560601.000000 0 0 1
-8.493759 27.937926 -32.781663 43.901128 -1.275653 2.413907 0.107443 -0.023732 -226127.000000 0 0 1
-9.809459 28.259166 -32.405893 44.101563 -1.236685 2.396170 0.099930 -0.024167 66193.000000 0 0 1
-10.011659 28.579786 -30.876733 43.248238 -1.233849 2.365908 0.101842 -0.026204 -485188.000000 0 0 1
-9.378059 29.789136 -30.487913 43.644626 -1.265804 2.344164 0.108505 -0.026399 125835.000000 0 0 1
-9.501959 30.033446 -29.095233 42.881554 -1.264381 2.316518 0.119092 -0.030864 -646748.000000 0 0 1
-8.876259 31.338936 -28.597983 43.344682 -1.294791 2.291323 0.102727 -0.034410 327173.000000 0 0 1
-7.481359 31.275416 -28.896353 43.233339 -1.335999 2.302827 0.088565 -0.033114 240131.000000 0 0 1
-6.738459 32.438300 -28.606913 43.772201 -1.365978 2.283049 0.096674 -0.029682 1013940.000000 0 0 1
-5.177859 32.269357 -28.832363 43.582413 -1.411695 2.293693 0.101439 -0.033887 1236850.000000 0 0 1
-4.474659 33.375190 -28.272453 43.968824 -1.437520 2.269220 0.124152 -0.042023 -168407.000000 0 0 1
-4.415259 -33.157218 -28.984453 44.260526 1.438414 2.284794 0.125610 -0.038834 254907.000000 0 0 1
-3.447759 -32.991528 -30.273243 44.908765 1.466670 2.310549 0.126492 -0.049190 578074.000000 0 0 1
-3.677459 -33.843958 -31.387963 46.304875 1.462562 2.315637 0.125140 -0.037133 -184380.000000 0 0 1
-4.652359 -33.466118 -32.328473 46.762759 1.432665 2.334124 0.152357 -0.042553 -111247.000000 0 0 1
-4.269459 -32.359128 -33.372073 46.680153 1.439614 2.367291 0.121047 -0.055888 -222097.000000 0 0 1
-3.910259 -31.217728 -32.669333 45.355507 1.446188 2.375023 0.122281 -0.052329 216000.000000 0 0 1
-3.402259 -30.159498 -33.455943 45.171571 1.458462 2.404821 0.103432 -0.075586 -136973.000000 0 0 1
34.378481 18.561262 12.679616 41.075212 0.495063 1.256978 0.116089 -0.038002 -134878.000000 0 0 1
35.618291 17.923162 12.821116 41.884166 0.466205 1.259693 0.120894 -0.046906 -372230.000000 0 0 1
35.632511 16.856662 13.712116 41.735417 0.441872 1.236030 0.132082 -0.022309 15679.900000 0 0 1
37.034221 16.363262 14.181916 42.900077 0.416049 1.233878 0.107203 -0.038407 -73678.100000 0 0 1
-37.006756 15.906562 13.221616 42.394927 -0.405953 1.253638 0.098565 -0.013923 -340347.000000 0 0 1
-37.334686 14.714962 12.545116 42.045081 -0.375441 1.267809 0.136156 -0.039040 -679466.000000 0 0 1
-36.193416 13.710262 12.287816 40.606958 -0.362103 1.263373 0.147460 -0.025668 -236582.000000 0 0 1
-35.679218 12.909462 13.364716 40.227807 -0.347166 1.232134 0.138313 -0.031681 -128269.000000 0 0 1
-36.476396 11.882062 13.918416 40.809719 -0.314907 1.222756 0.148869 -0.034574 -244538.000000 0 0 1
-35.790881 11.113962 15.072616 40.394196 -0.301085 1.188407 0.188851 -0.048276 31655.600000 0 0 1
-35.625845 11.971162 16.168716 40.913774 -0.324171 1.164522 0.174392 -0.043845 -179984.000000 0 0 1
-34.786623 11.455762 17.140916 40.437045 -0.318130 1.133059 0.170864 -0.040234 -380093.000000 0 0 1
-34.768255 12.205862 18.502316 41.232879 -0.337622 1.105456 0.163886 -0.039258 -104571.000000 0 0 1
-36.060356 12.291062 19.074116 42.605649 -0.328497 1.106616 0.174346 -0.049213 203070.000000 0 0 1
-36.093306 13.258962 20.165316 43.418507 -0.352049 1.087794 0.184514 -0.046122 632731.000000 0 0 1
37.422191 13.332862 20.828816 44.855603 0.342260 1.087893 0.193905 -0.060836 720369.000000 0 0 1
37.114471 12.164162 21.441716 44.555561 0.316715 1.068733 0.157776 -0.051082 -528819.000000 0 0 1
35.882761 12.191362 22.079016 43.859831 0.327519 1.043268 0.173961 -0.055250 -544892.000000 0 0 1
35.777611 10.944362 23.019856 43.928695 0.296861 1.019223 0.147980 -0.051070 7023.040000 0 0 1
36.812291 10.748862 23.968896 45.223786 0.284093 1.012188 0.138359 -0.034996 -168706.000000 0 0 1
36.509081 11.355562 25.203016 45.793600 0.301549 0.988000 0.134368 -0.032157 -1762030.000000 0 0 1
-37.290096 11.356262 26.243126 46.991676 -0.295615 0.978264 0.106265 -0.028070 195217.000000 0 0 1
-36.278876 12.307662 25.993026 46.295494 -0.327067 0.974648 0.130428 -0.033794 144560.000000 0 0 1
-35.546697 12.062262 24.796476 44.988121 -0.327143 0.987021 0.128973 -0.037604 -2689140.000000 0 0 1
-34.641192 13.171362 24.374686 44.357888 -0.363341 0.989030 0.142037 -0.041737 462214.000000 0 0 1
-33.395196 13.327862 25.086086 43.842704 -0.379726 0.961630 0.126262 -0.036944 624248.000000 0 0 1
-33.513316 13.837962 26.390376 44.845105 -0.391585 0.941621 0.106065 -0.031099 -570757.000000 0 0 1
-32.230816 14.414462 27.035746 44.469470 -0.420545 0.917305 0.100396 -0.018703 -143665.000000 0 0 1
-31.865806 15.572362 26.393336 44.210137 -0.454555 0.931043 0.120450 -0.029298 -201528.000000 0 0 1
-31.878366 16.605962 27.327526 45.152872 -0.480240 0.920751 0.127153 -0.017321 -88386.800000 0 0 1
-31.183826 17.858662 26.783226 44.818568 -0.520096 0.930302 0.115772 -0.010544 -355280.000000 0 0 1
-32.000606 18.632462 25.986816 45.238502 -0.527268 0.958876 0.088295 -0.034473 -195988.000000 0 0 1
-31.320346 19.764362 25.528186 44.980911 -0.562930 0.967289 0.104598 -0.037197 -220705.000000 0 0 1
-32.231536 20.658662 24.680946 45.549987 -0.569984 0.998168 0.110611 -0.014281 -506138.000000 0 0 1
-33.202156 21.318862 25.431466 46.942907 -0.570796 0.998275 0.082813 -0.019722 -558728.000000 0 0 1
-33.956306 22.098162 24.618886 47.407268 -0.576925 1.024757 0.082377 -0.008181 -711962.000000 0 0 1
-34.083867 23.480062 25.255136 48.485515 -0.603231 1.022915 0.086617 -0.011172 -246258.000000 0 0 1
-34.928155 24.215462 24.414796 49.014762 -0.606211 1.049377 0.091956 -0.016433 -58794.100000 0 0 1
-34.809713 25.599962 24.566296 49.704900 -0.634108 1.053833 0.093365 -0.012707 661598.000000 0 0 1
-35.777056 26.367162 23.567676 50.305669 -0.635119 1.083216 0.112316 -0.016822 773597.000000 0 0 1
-35.401721 26.128962 22.209116 49.287415 -0.635822 1.103354 0.113894 -0.028355 244786.000000 0 0 1
-36.329386 26.810662 21.387716 49.960687 -0.635769 1.128417 0.112860 -0.036591 144118.000000 0 0 1
-36.110356 26.531762 19.905816 49.031966 -0.633664 1.152749 0.132434 -0.053370 -44471.100000 0 0 1
-36.520756 25.319162 19.374116 48.478675 -0.606203 1.159670 0.141240 -0.060774 -105276.000000 0 0 1
-35.974512 25.074762 18.131716 47.451747 -0.608720 1.178719 0.142519 -0.060395 -599754.000000 0 0 1
-36.262456 23.640462 17.614116 46.734294 -0.577728 1.184350 0.146425 -0.042974 120309.000000 0 0 1
37.440771 23.493562 16.958916 47.343042 0.560385 1.204443 0.152146 -0.053329 -362437.000000 0 0 1
37.375711 22.437762 16.057816 46.456973 0.540662 1.217866 0.125912 -0.043083 325982.000000 0 0 1
36.033981 22.198562 15.310416 45.007030 0.552134 1.223690 0.127259 -0.036989 462489.000000 0 0 1
35.012151 21.541162 16.015316 44.117601 0.551556 1.199296 0.147226 -0.049482 234560.000000 0 0 1
33.795441 21.541062 15.287416 42.893522 0.567463 1.206380 0.145761 -0.044324 435985.000000 0 0 1
32.551071 20.732062 15.756416 41.685192 0.567117 1.183176 0.126007 -0.048023 516046.000000 0 0 1
31.911941 21.289262 16.864216 41.904730 0.588320 1.156614 0.127997 -0.045586 165130.000000 0 0 1
30.798481 22.145062 16.580916 41.398997 0.623385 1.158718 0.118859 -0.035017 211409.000000 0 0 1
30.259521 22.695462 17.916816 41.853732 0.643518 1.128427 0.103154 -0.026999 42166.300000 0 0 1
31.151201 23.476462 18.683816 43.250741 0.645820 1.124100 0.074195 -0.029744 82107.300000 0 0 1
30.428271 24.113362 19.764116 43.565516 0.670130 1.099924 0.080244 -0.017983 779965.000000 0 0 1
31.394431 24.793362 20.771116 45.075052 0.668452 1.091887 0.078566 -0.024931 310644.000000 0 0 1
32.042391 25.976162 20.374216 46.006353 0.681220 1.112014 0.092571 -0.038959 296856.000000 0 0 1
33.088611 26.272462 21.297316 47.314629 0.671074 1.103895 0.097601 -0.039990 -111712.000000 0 0 1
34.278821 27.049262 20.679116 48.314863 0.668056 1.128510 0.106228 -0.045057 274052.000000 0 0 1
35.298491 27.479062 21.586016 49.669290 0.661479 1.121208 0.102871 -0.032866 502538.000000 0 0 1
34.862441 28.463062 22.534416 50.332252 0.684685 1.106590 0.069326 -0.028569 -52539.600000 0 0 1
35.954481 28.754762 23.626676 51.747279 0.674591 1.096651 0.059207 -0.024429 1232310.000000 0 0 1
37.077111 29.582062 23.239896 52.819535 0.673430 1.115212 0.082569 -0.028329 303130.000000 0 0 1
-37.304786 30.079462 24.430996 53.789354 -0.678581 1.099325 0.081312 -0.013321 -1161010.000000 0 0 1
-36.139006 30.968562 24.117246 53.354673 -0.708503 1.101771 0.095891 -0.029146 -374625.000000 0 0 1
-34.971723 30.138962 24.000856 52.032870 -0.711310 1.091378 0.095108 -0.034948 -1111780.000000 0 0 1
-33.833206 30.838162 24.163616 51.764451 -0.739119 1.085128 0.096500 -0.031022 -2477540.000000 0 0 1
-32.575436 30.129062 23.863526 50.382410 -0.746404 1.077368 0.111013 -0.034397 -1078320.000000 0 0 1
-32.066076 30.160162 22.490616 49.433758 -0.754779 1.098464 0.098228 -0.026639 281480.000000 0 0 1
-32.573716 29.200162 21.604816 48.790004 -0.730841 1.112063 0.103649 -0.028947 -48920.400000 0 0 1
-32.117596 27.700662 22.016216 47.786822 -0.711693 1.091993 0.095405 -0.020636 742293.000000 0 0 1
-30.701806 27.462862 21.987216 46.693119 -0.729770 1.080500 0.073088 -0.019981 723548.000000 0 0 1
-30.296906 26.391762 22.791216 46.193800 -0.716619 1.054822 0.074084 -0.023365 -298458.000000 0 0 1
-30.126166 26.623462 24.280576 46.967446 -0.723754 1.027493 0.091343 -0.016692 -273598.000000 0 0 1
-31.270066 26.990962 25.013936 48.291055 -0.712083 1.026305 0.079876 -0.012837 -211259.000000 0 0 1
-30.845276 27.425562 26.288766 48.935587 -0.726779 1.003669 0.085025 -0.014432 -277635.000000 0 0 1
-31.896736 27.641962 27.386486 50.314008 -0.714057 0.995228 0.082425 -0.016570 -376187.000000 0 0 1
-32.409206 26.393562 27.740196 50.164681 -0.683451 0.984857 0.062775 -0.003325 181679.000000 0 0 1
-33.585236 26.578662 28.522216 51.457848 -0.669462 0.983295 0.054534 -0.001812 351556.000000 0 0 1
-34.205690 25.300962 29.092666 51.541741 -0.636858 0.971031 0.048934 0.003300 -322694.000000 0 0 1
-33.367386 24.695962 30.003246 51.219798 -0.637150 0.944961 0.037603 0.006693 -605364.000000 0 0 1
-33.962046 23.564862 30.536156 51.392413 -0.606592 0.934555 0.031113 -0.001825 -272750.000000 0 0 1
-33.215866 22.876762 31.692116 51.293569 -0.603122 0.904781 0.039299 -0.005956 -561802.000000 0 0 1
-32.090706 22.201062 31.204566 49.964242 -0.605216 0.896257 0.055526 -0.001630 -203093.000000 0 0 1
-31.346916 21.409862 32.149003 49.745047 -0.599223 0.868103 0.052936 -0.001044 944755.000000 0 0 1
-30.307176 22.171762 33.085246 50.047432 -0.631600 0.848542 0.048150 0.001544 167682.000000 0 0 1
-30.843196 22.980562 -33.719943 51.151183 -0.640343 2.290579 0.049026 -0.005291 50906.500000 0 0 1
-31.063816 22.277962 -32.499413 50.174496 -0.622155 2.275394 0.042463 -0.000302 596638.000000 0 0 1
-29.955366 22.549962 -31.394263 48.902193 -0.645281 2.267875 0.064386 -0.007255 631873.000000 0 0 1
-30.051586 23.890962 -30.898223 49.280585 -0.671684 2.248474 0.055175 -0.003966 -91658.700000 0 0 1
-29.195786 24.096962 -29.802793 48.179497 -0.690013 2.237728 0.074366 -0.006781 -134432.000000 0 0 1
-29.305276 25.480362 -29.095983 48.524471 -0.715695 2.213816 0.062304 -0.006859 -24486.600000 0 0 1
-29.039386 26.667462 -29.859573 49.457391 -0.742845 2.218985 0.068408 -0.007132 942170.000000 0 0 1
-30.183346 27.039262 -30.672823 50.823008 -0.730509 2.218708 0.053253 0.002587 814609.000000 0 0 1
-29.867836 28.371362 -31.374843 51.782261 -0.759709 2.221692 0.064995 -0.001558 110564.000000 0 0 1
-30.048176 29.519762 -30.532023 52.024164 -0.776528 2.197998 0.061908 -0.010766 255932.000000 0 0 1
-29.305716 30.661562 -30.971173 52.518282 -0.808004 2.201511 0.068431 -0.022844 52381.700000 0 0 1
-29.727556 31.925662 -30.242833 53.081111 -0.821036 2.176995 0.052584 -0.016157 -67671.000000 0 0 1
-29.247026 32.098062 -28.942773 52.185804 -0.831840 2.158691 0.048930 -0.016716 -86826.800000 0 0 1
-29.723266 33.257362 -28.319523 52.834837 -0.841453 2.136489 0.036199 -0.016710 -625916.000000 0 0 1
-29.033896 33.408462 -26.939813 51.815499 -0.855342 2.117551 0.024794 -0.013771 428692.000000 0 0 1
-27.663036 33.779362 -27.045273 51.358890 -0.884617 2.125385 0.031801 -0.008049 214649.000000 0 0 1
-27.312476 -32.687592 -27.419103 50.658239 0.874745 2.142727 0.028544 0.007860 -732413.000000 0 0 1
-27.704176 -31.543492 -26.463583 49.626953 0.850109 2.133234 0.030903 0.000226 -325792.000000 0 0 1
-29.081586 -31.227092 -26.460093 50.209625 0.820959 2.125854 0.037485 -0.013230 -220811.000000 0 0 1
-29.405346 -30.624692 -25.228143 49.386286 0.805708 2.106950 0.039014 -0.008973 546367.000000 0 0 1
-30.935226 -30.327992 -25.160963 50.098396 0.775487 2.096973 0.025671 -0.014951 595340.000000 0 0 1
-31.424366 -29.317992 -26.082493 50.272575 0.750735 2.116268 0.029768 -0.010961 -731107.000000 0 0 1
-32.805136 -29.408392 -26.025443 51.169855 0.730854 2.104365 0.028737 -0.008472 -415785.000000 0 0 1
-33.564746 -28.504792 -27.098523 51.705370 0.704057 2.122448 0.051203 -0.010222 -182523.000000 0 0 1
-34.940639 -28.666492 -27.193653 52.745718 0.687077 2.112459 0.055452 -0.011905 -535966.000000 0 0 1
-35.553304 -27.747692 -28.079353 53.126470 0.662708 2.127674 0.064155 -0.016586 829915.000000 0 0 1
-37.075806 -27.975092 -28.371693 54.425859 0.646399 2.119159 0.049255 -0.019783 1466240.000000 0 0 1
37.010161 -27.678892 -27.223503 53.637600 -0.642138 2.103130 0.043252 -0.010855 466739.000000 0 0 1
35.648631 -27.756292 -27.590683 52.938477 -0.661560 2.119034 0.040919 -0.014392 -151761.000000 0 0 1
34.651741 -27.130092 -26.637473 51.442589 -0.664249 2.115085 0.045615 -0.006374 -379519.000000 0 0 1
34.589761 -27.760292 -25.409083 51.114644 -0.676299 2.091050 0.028881 0.000289 -172548.000000 0 0 1
33.717901 -27.139892 -24.521503 49.747107 -0.677728 2.086243 0.036539 0.001880 -274730.000000 0 0 1
33.480551 -27.936992 -23.273603 49.427557 -0.695382 2.061065 0.028683 0.001858 -78422.800000 0 0 1
32.879951 -29.215892 -23.410303 49.826717 -0.726460 2.059899 0.038719 0.000779 -77821.700000 0 0 1
32.304931 -29.704592 -22.195003 49.179157 -0.743488 2.039028 0.048496 -0.011143 33251.700000 0 0 1
33.243631 -30.080192 -20.995903 49.505402 -0.735483 2.008779 0.033727 -0.003370 -1281170.000000 0 0 1
34.195771 -31.030392 -21.391703 50.890480 -0.736907 2.004625 0.020196 -0.012575 438307.000000 0 0 1
35.466121 -30.910792 -20.734903 51.412634 -0.716877 1.985921 0.013303 -0.009625 1387780.000000 0 0 1
36.302341 -29.606692 -21.008803 51.339906 -0.684156 1.992384 0.007452 0.004187 -547474.000000 0 0 1
35.693261 -28.497992 -20.287303 49.977185 -0.673773 1.988794 0.001440 0.011306 -82026.500000 0 0 1
36.235681 -27.235792 -20.596503 49.789847 -0.644543 1.997276 -0.011260 0.014209 -886317.000000 0 0 1
35.399251 -26.070692 -20.158103 48.364626 -0.634789 2.000712 -0.004031 0.018010 -338076.000000 0 0 1
34.225431 -26.011592 -20.937603 47.815962 -0.649875 2.024034 0.013164 0.014094 -274210.000000 0 0 1
33.182051 -25.346192 -20.281003 46.419791 -0.652308 2.022950 0.029979 0.013947 -1815.580000 0 0 1
31.953561 -25.074592 -21.191703 45.813246 -0.665354 2.051685 0.052605 0.002395 239252.000000 0 0 1
31.256371 -26.232592 -21.625203 46.181804 -0.698233 2.058120 0.081853 -0.009635 -171918.000000 0 0 1
30.017641 -25.902192 -22.208103 45.444275 -0.711935 2.081382 0.099900 -0.015898 377568.000000 0 0 1
29.236641 -27.220992 -22.646403 45.919747 -0.749711 2.086530 0.105442 -0.014422 287476.000000 0 0 1
28.838041 -27.969792 -21.481903 45.556712 -0.770115 2.061835 0.096153 -0.014511 29389.600000 0 0 1
28.229341 -29.204292 -21.906803 46.148612 -0.802372 2.065421 0.088995 -0.011487 -184897.000000 0 0 1
27.480141 -29.910592 -20.774203 45.622025 -0.827722 2.043567 0.094098 -0.013943 -511698.000000 0 0 1
28.209341 -30.305992 -19.636303 45.823623 -0.821214 2.013650 0.099999 -0.020486 -295814.000000 0 0 1
29.008941 -31.443492 -19.895603 47.181001 -0.825649 2.006101 0.095808 -0.015942 241650.000000 0 0 1
30.012481 -31.826292 -18.782503 47.607187 -0.814721 1.976354 0.074137 -0.023318 104576.000000 0 0 1
29.421941 -32.386792 -17.626303 47.172465 -0.833330 1.953744 0.086010 -0.022968 -107434.000000 0 0 1
29.000741 -31.510792 -16.618403 45.936307 -0.826855 1.940963 0.072993 -0.016253 -46005.700000 0 0 1
28.383341 -32.177792 -15.392403 45.584541 -0.847971 1.915234 0.082531 -0.012706 150403.000000 0 0 1
27.106041 -32.725692 -15.712503 45.305531 -0.879048 1.924966 0.078257 -0.008004 340922.000000 0 0 1
26.416541 -33.132492 -14.520203 44.793213 -0.897704 1.900921 0.063148 -0.009683 -564953.000000 0 0 1
24.924141 -33.331892 -14.720703 44.146652 -0.928733 1.910757 0.054141 -0.002061 -333090.000000 0 0 1
24.183741 -32.106992 -14.863903 42.856130 -0.925235 1.924988 0.060749 0.000644 -878162.000000 0 0 1
22.852241 -32.365192 -14.635503 42.236578 -0.956005 1.924647 0.063163 -0.004479 -1210800.000000 0 0 1
-0.528826 -7.013938 -28.846463 29.691639 1.495542 2.902422 0.122286 -0.031569 222222.000000 0 0 1
-0.082926 -8.342138 -28.793333 29.977561 1.560856 2.859576 0.120799 -0.028887 -141033.000000 0 0 1
-0.202326 -8.988338 -30.045493 31.361805 1.548290 2.850839 0.119116 -0.039916 44679.900000 0 0 1
0.145774 -10.505238 -30.021853 31.807121 -1.556921 2.804959 0.144460 -0.029844 -388236.000000 0 0 1
1.501274 -10.696238 -29.773443 31.672089 -1.431352 2.793582 0.087052 -0.035246 -771690.000000 0 0 1
1.724274 -12.032138 -29.469433 31.877781 -1.428460 2.750388 0.101093 -0.040015 56590.300000 0 0 1
3.169174 -12.382138 -29.061053 31.747532 -1.320228 2.727247 0.083664 -0.033064 -372079.000000 0 0 1
4.140074 -12.234338 -30.090173 32.745042 -1.244495 2.736138 0.095059 -0.042951 614141.000000 0 0 1
5.466974 -12.520738 -29.646763 32.643334 -1.159113 2.709766 0.081755 -0.036699 545109.000000 0 0 1
5.932074 -13.911038 -29.174543 32.861230 -1.167716 2.663362 0.079183 -0.037047 -1125160.000000 0 0 1
5.465474 -14.381438 -27.943023 31.898428 -1.207617 2.638302 0.075538 -0.032236 -136563.000000 0 0 1
6.190574 -15.485938 -27.444833 32.114737 -1.190502 2.595551 0.079567 -0.029313 -204879.000000 0 0 1
5.792174 -16.917438 -28.040113 33.256532 -1.240927 2.573904 0.043055 -0.025825 -107645.000000 0 0 1
6.315274 -17.165038 -29.313723 34.551636 -1.218252 2.583758 0.068303 -0.042621 144666.000000 0 0 1
5.816874 -18.444338 -29.692023 35.435094 -1.265295 2.564270 0.048916 -0.032178 -45018.700000 0 0 1
6.262274 -18.934638 -31.093553 36.939757 -1.251390 2.571289 0.065815 -0.048402 495368.000000 0 0 1
7.678274 -19.060238 -31.241443 37.393533 -1.187842 2.559797 0.059092 -0.037367 515276.000000 0 0 1
7.999074 -19.646338 -32.478213 38.791727 -1.184138 2.563023 0.062366 -0.029337 2826.040000 0 0 1
9.480474 -19.679138 -32.902603 39.493406 -1.121853 2.555515 0.061051 -0.030670 -68384.800000 0 0 1
9.757174 -18.378438 -33.466143 39.407514 -1.082733 2.585326 0.062215 -0.041551 -189806.000000 0 0 1
11.027274 -18.081638 33.857256 39.935701 -1.023158 0.558984 0.065106 -0.031824 -836799.000000 0 0 1
11.111474 -16.654438 33.357642 38.904594 -0.982440 0.540558 0.067562 -0.027603 -227402.000000 0 0 1
10.198474 -16.374538 32.325192 37.643757 -1.013762 0.538043 0.084967 -0.025502 -114645.000000 0 0 1
10.087174 -14.948538 32.083897 36.804705 -0.977189 0.512067 0.084893 -0.020043 -248054.000000 0 0 1
8.933574 -14.699438 31.110416 35.549124 -1.024698 0.505074 0.116444 -0.038817 -220203.000000 0 0 1
9.143174 -15.360038 29.892576 34.829507 -1.033871 0.538938 0.136414 -0.033956 33581.300000 0 0 1
8.217474 -14.932238 28.913516 33.563225 -1.067709 0.532650 0.146398 -0.038987 -26483.700000 0 0 1
8.465874 -15.829338 27.701866 33.009580 -1.079681 0.574973 0.128993 -0.032599 -315473.000000 0 0 1
7.924974 -17.063438 27.926266 33.672578 -1.135998 0.592858 0.123679 -0.026444 107578.000000 0 0 1
8.007574 -17.875138 26.765696 33.166916 -1.149630 0.631742 0.107078 -0.018134 25788.000000 0 0 1
7.489674 -19.308638 27.035816 34.056631 -1.200771 0.653684 0.111890 -0.024056 -375049.000000 0 0 1
8.307074 -20.010838 27.942766 35.358723 -1.177316 0.659555 0.110739 -0.022703 74887.300000 0 0 1
7.712974 -21.007738 28.756106 36.438011 -1.218926 0.661326 0.098888 -0.030188 -442726.000000 0 0 1
8.371674 -21.160338 30.141756 37.767318 -1.194062 0.646676 0.095711 -0.027876 -365967.000000 0 0 1
7.874674 -20.395338 31.191036 38.090170 -1.202328 0.611350 0.128057 -0.035325 128283.000000 0 0 1
7.984174 -19.001338 30.988846 37.217019 -1.173007 0.586916 0.107877 -0.035290 -287679.000000 0 0 1
7.301574 -18.172338 32.079136 37.584809 -1.188743 0.548105 0.105480 -0.030994 924315.000000 0 0 1
5.883074 -18.363138 32.262178 37.585417 -1.260754 0.538713 0.125151 -0.035851 789586.000000 0 0 1
5.343174 -17.315338 33.015263 37.661360 -1.271486 0.501973 0.126717 -0.031490 -441213.000000 0 0 1
3.882974 -17.505438 33.398091 37.907128 -1.352515 0.492718 0.124128 -0.039228 -463661.000000 0 0 1
3.708874 -18.313838 -33.300443 38.184708 -1.370981 2.630250 0.125171 -0.041396 -658217.000000 0 0 1
2.366674 -18.613438 -33.107473 38.054776 -1.444326 2.625989 0.123562 -0.057968 -599871.000000 0 0 1
2.082674 -19.547338 -31.883913 37.456907 -1.464652 2.589094 0.080466 -0.028787 263632.000000 0 0 1
0.841674 -20.278938 -31.968493 37.867245 -1.529315 2.575915 0.095532 -0.029386 831258.000000 0 0 1
0.452674 -20.940938 -30.751623 37.207393 -1.549183 2.543644 0.090733 -0.039108 202652.000000 0 0 1
-0.166526 -19.914238 -29.743233 35.794755 1.562434 2.551588 0.092075 -0.034549 -615096.000000 0 0 1
-1.547926 -19.720138 -29.970523 35.909778 1.492462 2.558214 0.110901 -0.040312 -170756.000000 0 0 1
-2.046926 -18.506138 -29.413763 34.811442 1.460636 2.577259 0.142353 -0.044295 105989.000000 0 0 1
-1.666526 -17.144238 -30.042713 34.630432 1.473895 2.620998 0.126693 -0.041179 3054.210000 0 0 1
-2.502226 -16.045038 -29.684263 33.835778 1.416092 2.641012 0.133739 -0.042304 54868.400000 0 0 1
-1.966626 -14.835538 -30.123323 33.635924 1.439003 2.680507 0.126831 -0.038028 197607.000000 0 0 1
-2.965626 -13.735238 -29.737713 32.890474 1.358147 2.700167 0.127674 -0.022271 184796.000000 0 0 1
-3.028626 -13.467838 -28.364563 31.545264 1.349598 2.688666 0.128508 -0.029776 229083.000000 0 0 1
-4.185826 -12.803638 -27.854613 30.940810 1.254825 2.691151 0.110740 -0.026205 244928.000000 0 0 1
-4.192026 -12.610638 -26.337393 29.500162 1.249868 2.674293 0.105316 -0.025652 -269865.000000 0 0 1
-4.465026 -13.751238 -25.523453 29.333933 1.256836 2.626201 0.106432 -0.021406 113615.000000 0 0 1
-4.625226 -13.503038 -24.095503 28.005678 1.240790 2.606810 0.095191 -0.012416 284279.000000 0 0 1
-5.820626 -12.579838 -23.655403 27.417332 1.137436 2.611559 0.080278 -0.008434 -572143.000000 0 0 1
-7.050526 -13.096138 -23.968403 28.208209 1.076928 2.586205 0.068034 -0.001700 -1395810.000000 0 0 1
-8.129526 -12.263538 -23.747903 27.936472 0.985404 2.586911 0.042749 -0.006997 -34046.600000 0 0 1
-9.559526 -12.792138 -23.997003 28.824980 0.929027 2.554414 0.060508 -0.012064 183352.000000 0 0 1
-9.996126 -13.529738 -22.869903 28.390294 0.934485 2.507405 0.052326 -0.016388 336242.000000 0 0 1
-11.164126 -14.301538 -23.207403 29.457686 0.907982 2.478060 0.065591 -0.013326 585065.000000 0 0 1
-11.717126 -15.066438 -21.979003 29.109537 0.909803 2.426519 0.063637 -0.012671 -93286.300000 0 0 1
-10.916726 -16.187938 -21.647903 29.152289 0.977477 2.407710 0.070818 -0.015756 -430643.000000 0 0 1
-11.620426 -17.437838 -21.437503 29.977976 0.982984 2.367576 0.077651 -0.017491 444835.000000 0 0 1
-12.308426 -18.017638 -22.714703 31.497466 0.971481 2.376271 0.075450 -0.019615 667762.000000 0 0 1
-13.476726 -17.298738 -23.107903 31.856611 0.908956 2.382371 0.062478 -0.015137 -140792.000000 0 0 1
-14.075426 -17.982238 -24.183403 33.261321 0.906668 2.384845 0.055805 -0.018199 537821.000000 0 0 1
-15.320026 -17.243138 -24.777503 33.851937 0.844388 2.391958 0.061691 -0.015725 1066850.000000 0 0 1
-16.498426 -17.104338 -23.981703 33.762087 0.803428 2.360741 0.070654 -0.015841 887233.000000 0 0 1
-17.663026 -16.956438 -24.799303 34.849802 0.764991 2.362577 0.075690 -0.010291 1051810.000000 0 0 1
-18.590926 -15.729938 -24.413903 34.483215 0.702230 2.357450 0.084457 -0.010497 147977.000000 0 0 1
-19.299526 -15.897338 -23.224603 34.125932 0.689036 2.319317 0.088871 -0.010888 555.871000 0 0 1
-20.248226 -14.864738 -23.027803 34.076836 0.633264 2.312793 0.091729 -0.015339 184864.000000 0 0 1
-20.668626 -14.664738 -21.536803 33.257789 0.617085 2.275190 0.091734 -0.020968 97460.700000 0 0 1
-19.658226 -14.240138 -20.655503 31.872828 0.626905 2.275831 0.095998 -0.016099 76774.300000 0 0 1
-20.180726 -14.279438 -19.342803 31.389617 0.615794 2.234726 0.105491 -0.017006 382319.000000 0 0 1
-21.121726 -13.134738 -18.883903 31.229000 0.556338 2.220174 0.102264 -0.021722 -169306.000000 0 0 1
-22.366526 -12.984738 -19.505903 32.393597 0.525990 2.216991 0.104890 -0.025017 -241421.000000 0 0 1
-23.050126 -11.980938 -18.746703 32.035762 0.479344 2.195899 0.107557 -0.028440 82393.900000 0 0 1
-24.525226 -11.789638 -19.173903 33.288449 0.448101 2.184614 0.118196 -0.031171 96489.700000 0 0 1
-24.857226 -10.864538 -20.167903 33.803316 0.412056 2.210085 0.109414 -0.032255 -529349.000000 0 0 1
-26.204996 -10.543238 -20.246903 34.753399 0.382519 2.192705 0.105050 -0.034193 -722680.000000 0 0 1
-26.409326 -9.468138 -21.303703 35.227062 0.344240 2.220253 0.109156 -0.028258 -155229.000000 0 0 1
-26.000026 -9.789638 -22.612403 35.821210 0.360106 2.253970 0.085464 -0.026067 371920.000000 0 0 1
-26.837126 -9.150438 -23.556003 36.862543 0.328601 2.264023 0.067579 -0.025957 -50967.500000 0 0 1
-26.689796 -9.826038 -24.906903 37.805423 0.352758 2.290043 0.065153 -0.013964 -586486.000000 0 0 1
-25.530946 -9.481638 -25.568713 37.356254 0.355592 2.324654 0.047286 -0.019134 -209093.000000 0 0 1
-24.651826 -10.594338 -25.770963 37.203428 0.405894 2.336028 0.058827 -0.010579 376964.000000 0 0 1
-23.656126 -10.527038 -26.950603 37.373330 0.418690 2.376212 0.068256 -0.020812 277226.000000 0 0 1
-24.256526 -10.816338 -28.220933 38.752977 0.419451 2.386526 0.077758 -0.012581 65465.000000 0 0 1
-23.309926 -10.619438 -29.220913 38.858549 0.427481 2.421859 0.077550 -0.012781 -13087.800000 0 0 1
-23.895426 -10.939238 -30.601913 40.337766 0.429318 2.432022 0.068198 -0.013140 863937.000000 0 0 1
-24.929426 -10.042938 -31.095793 41.100915 0.382965 2.428851 0.055031 -0.015284 670608.000000 0 0 1
-24.445926 -9.052138 -31.964943 41.246843 0.354637 2.457459 0.051670 -0.015694 -649696.000000 0 0 1
-25.540266 -8.098038 -32.480733 42.105598 0.307042 2.451852 0.061590 -0.018893 19282.000000 0 0 1
-26.496046 -8.654638 -33.409993 43.510583 0.315713 2.446289 0.075213 -0.030989 917491.000000 0 0 1
-27.593876 -9.359838 -32.898823 43.947253 0.327021 2.416741 0.083965 -0.029090 -188284.000000 0 0 1
-28.727916 -8.531738 -32.216563 43.999893 0.288688 2.392338 0.076201 -0.012248 -116050.000000 0 0 1
-29.964256 -9.200838 -32.125083 44.883549 0.297922 2.368484 0.096656 -0.015194 322536.000000 0 0 1
-30.984346 -8.554038 -31.379173 44.920527 0.269366 2.344164 0.099473 -0.006561 572343.000000 0 0 1
-32.405546 -9.106338 -31.627023 46.187805 0.273947 2.325055 0.091224 -0.008555 68939.100000 0 0 1
-32.636896 -10.449938 -31.216363 46.355469 0.309873 2.309612 0.089989 -0.013860 -962006.000000 0 0 1
-34.003156 -10.659038 -31.198493 47.362175 0.303770 2.289915 0.071570 -0.014084 -856775.000000 0 0 1
-34.334445 -12.189438 -31.117253 47.913671 0.341141 2.277650 0.084570 -0.025135 135287.000000 0 0 1
-35.708819 -12.501438 -30.947863 48.879197 0.336758 2.256412 0.055651 -0.023813 190221.000000 0 0 1
-35.796474 -13.869338 -31.158103 49.442628 0.369641 2.252590 0.057519 -0.029343 424674.000000 0 0 1
-37.123866 -14.558138 -30.722303 50.338660 0.373721 2.227251 0.052101 -0.030842 354019.000000 0 0 1
-37.277656 -14.562338 -29.300433 49.600410 0.372416 2.202759 0.048372 -0.028720 -144817.000000 0 0 1
37.023321 -15.682138 -28.803623 49.460130 -0.400663 2.192426 0.040359 -0.025040 -208795.000000 0 0 1
37.193981 -15.729138 -27.247283 48.715628 -0.400086 2.164353 0.042980 -0.018687 344196.000000 0 0 1
-36.376506 -15.813838 -26.899363 47.926020 0.410080 2.166714 0.050595 -0.027446 466556.000000 0 0 1
-36.326536 -15.650238 -25.464833 47.042586 0.406791 2.142796 0.059955 -0.031076 576019.000000 0 0 1
-34.877912 -15.262338 -25.038903 45.567031 0.412489 2.152557 0.090753 -0.036429 1404120.000000 0 0 1
-33.806086 -16.224138 -25.175963 45.165287 0.447453 2.162069 0.086321 -0.028793 810547.000000 0 0 1
-32.530016 -15.746438 -24.850203 43.859831 0.450813 2.173149 0.104202 -0.022610 200110.000000 0 0 1
-31.318266 -16.670638 -25.086393 43.451939 0.489151 2.186259 0.092628 -0.026756 221041.000000 0 0 1
-31.266176 -17.743938 -24.191303 43.331746 0.516189 2.163109 0.103237 -0.033259 -100849.000000 0 0 1
-31.848246 -18.871338 -24.750803 44.531342 0.534916 2.160129 0.082629 -0.039316 -421760.000000 0 0 1
-31.807386 -20.080238 -23.843703 44.535917 0.563122 2.135756 0.081612 -0.038754 144334.000000 0 0 1
-30.528086 -20.696538 -23.916503 43.958046 0.595774 2.146083 0.076964 -0.027374 294063.000000 0 0 1
-30.522306 -21.900338 -23.165703 44.134859 0.622387 2.123376 0.078278 -0.029075 380226.000000 0 0 1
-29.129846 -22.608138 -23.441903 43.694377 0.660007 2.137077 0.074002 -0.026084 1789520.000000 0 0 1
-27.921366 -22.022538 -22.927803 42.311689 0.667834 2.143467 0.088430 -0.031166 601027.000000 0 0 1
-27.833146 -21.903038 -21.511503 41.438772 0.666727 2.116612 0.114029 -0.038159 -614540.000000 0 0 1
-28.064296 -23.142638 -20.583403 41.795489 0.689579 2.085732 0.113021 -0.032046 -145829.000000 0 0 1
-27.943506 -22.865138 -19.226903 40.906330 0.685778 2.060113 0.116932 -0.033937 190997.000000 0 0 1
-28.271936 -24.063138 -18.507303 41.483216 0.705151 2.033243 0.111337 -0.007025 86194.500000 0 0 1
-28.152896 -24.005838 -16.951303 40.696590 0.706057 2.000420 0.103039 -0.009148 427242.000000 0 0 1
-29.227246 -23.371738 -16.253303 40.799999 0.674531 1.980530 0.119107 -0.011776 -47087.400000 0 0 1
-28.966956 -22.014738 -15.937203 39.720620 0.649867 1.983658 0.122508 -0.021703 578609.000000 0 0 1
-30.133226 -21.149338 -15.293503 39.864734 0.611974 1.964525 0.115005 -0.001274 617493.000000 0 0 1
-31.072846 -20.697438 -16.244903 40.716121 0.587606 1.981200 0.112601 -0.007946 -212446.000000 0 0 1
-31.951796 -19.773738 -15.661603 40.708768 0.554173 1.965704 0.118500 -0.009741 -79581.300000 0 0 1
-33.009566 -19.189938 -16.620503 41.642842 0.526589 1.981354 0.123055 -0.036453 -454355.000000 0 0 1
-34.037184 -20.048838 -17.014403 43.011344 0.532312 1.977495 0.056717 -0.024271 -264408.000000 0 0 1
-34.706504 -19.336638 -18.036803 43.632250 0.508314 1.996962 0.059465 -0.026625 -351136.000000 0 0 1
-36.000036 -19.945538 -18.646003 45.182967 0.505941 1.996188 0.034903 -0.019763 850826.000000 0 0 1
-37.227656 -19.731938 -17.938503 45.793423 0.487385 1.973304 0.024678 -0.009298 582680.000000 0 0 1
-37.352346 -20.433538 -16.696703 45.732998 0.500574 1.944527 0.059711 -0.019422 -904022.000000 0 0 1
37.228851 -21.919938 -16.715003 46.323453 -0.532135 1.939957 0.032706 0.016520 775502.000000 0 0 1
35.798501 -22.087838 -16.767203 45.282937 -0.552829 1.950103 0.029720 -0.004191 772498.000000 0 0 1
35.446871 -23.410838 -16.467103 45.559999 -0.583685 1.940606 0.019772 0.003113 -414373.000000 0 0 1
34.014031 -23.597138 -15.981003 44.375350 -0.606517 1.939206 0.021043 -0.008150 -75677.100000 0 0 1
33.002871 -23.485138 -16.979103 43.920737 -0.618475 1.967722 0.015924 -0.004783 -217302.000000 0 0 1
31.782031 -23.973938 -16.475803 43.084792 -0.646263 1.963193 0.036622 -0.003954 710595.000000 0 0 1
30.652151 -23.808738 -17.595103 42.614528 -0.660396 1.996421 0.061000 -0.019572 536327.000000 0 0 1
30.386261 -22.477438 -17.914303 41.826813 -0.636892 2.013404 0.050415 -0.018535 237204.000000 0 0 1
29.170041 -22.332438 -18.636103 41.193852 -0.653407 2.040251 0.082980 -0.032671 -6278.920000 0 0 1
35.253731 29.001462 -18.602603 49.294697 0.688400 1.957757 0.082969 -0.023162 127602.000000 0 0 1
34.046221 29.239162 -19.289003 48.848126 0.709585 1.976730 0.066044 -0.043760 -230954.000000 0 0 1
34.146721 28.911362 -20.646003 49.275986 0.702564 2.003126 0.073386 -0.037519 -488683.000000 0 0 1
33.113051 29.476562 -21.601103 49.314800 0.727363 2.024197 0.077405 -0.028415 -877479.000000 0 0 1
31.901041 28.740362 -21.577903 48.055080 0.733324 2.036469 0.068490 -0.020977 319956.000000 0 0 1
30.968631 29.176162 -22.587103 48.171379 0.755604 2.058831 0.099266 -0.008491 868833.000000 0 0 1
30.252361 30.560462 -22.448503 48.508581 0.790465 2.051918 0.083982 -0.007579 -774114.000000 0 0 1
31.073071 31.658362 -22.754903 49.855523 0.794728 2.044760 0.101286 -0.031854 -540896.000000 0 0 1
30.337791 32.815062 -23.010703 50.266314 0.824605 2.046288 0.082766 -0.022342 -708875.000000 0 0 1
31.041851 -33.615292 -22.642203 51.051481 -0.825179 2.030315 0.074651 -0.015390 41277.300000 0 0 1
31.442591 -33.452492 -21.302403 50.611245 -0.816360 2.005236 0.080071 -0.029393 19617.900000 0 0 1
32.636881 33.579162 -21.073803 51.350085 0.799628 1.993683 0.072833 -0.034645 -558329.000000 0 0 1
32.969161 33.235562 -19.563503 50.737548 0.789422 1.966635 0.070102 -0.037784 -296811.000000 0 0 1
33.220111 -33.334792 -18.861003 50.700311 -0.787121 1.951969 0.061993 -0.031052 162807.000000 0 0 1
33.478731 -33.652792 -17.481903 50.586092 -0.787991 1.923661 0.050043 -0.038286 -291129.000000 0 0 1
33.451661 -32.366092 -16.577703 49.410502 -0.768906 1.912943 0.050531 -0.023805 635823.000000 0 0 1
34.526611 -31.453592 -16.883203 49.663446 -0.738857 1.917663 0.051839 -0.012552 724481.000000 0 0 1
35.708751 -31.734792 -16.124603 50.420380 -0.726543 1.896318 0.051066 -0.010391 348224.000000 0 0 1
36.941991 -30.932792 -16.583103 50.956330 -0.697095 1.902271 0.026870 0.007870 -387941.000000 0 0 1
-37.378936 -31.354892 -17.704203 51.901376 0.697978 1.918896 0.026430 0.000569 -298185.000000 0 0 1
-36.183846 -30.591192 -17.912903 50.655343 0.701840 1.932238 0.021903 0.007641 1023300.000000 0 0 1
-35.160226 -31.318292 -18.855303 50.720798 0.727670 1.951686 0.041222 -0.006228 -898772.000000 0 0 1
-34.663704 -32.524592 -18.391603 50.967367 0.753571 1.939976 0.031672 -0.009347 10583.900000 0 0 1
-33.754606 -33.242692 -19.203703 51.119782 0.777757 1.955906 0.058309 -0.013659 333223.000000 0 0 1
-32.387706 -32.552092 -19.442403 49.865912 0.787930 1.971312 0.062855 -0.016575 -1855250.000000 0 0 1
-32.444536 -31.331792 -20.194903 49.418247 0.767952 1.991774 0.064878 -0.015823 55865.600000 0 0 1
-31.192626 -30.748892 -20.562003 48.386674 0.778235 2.009705 0.083386 -0.021032 700917.000000 0 0 1
-30.109336 -31.639392 -21.213003 48.555275 0.810172 2.022928 0.088193 -0.022093 -573149.000000 0 0 1
-30.648006 -32.237992 -22.372003 49.790510 0.810676 2.036803 0.073594 -0.013570 -261588.000000 0 0 1
-29.865186 -33.289592 -22.842503 50.218584 0.839568 2.043013 0.069252 -0.018081 -163361.000000 0 0 1
-30.678006 33.629362 -23.905403 51.415390 -0.831261 2.054370 0.057949 -0.026781 557142.000000 0 0 1
-31.824836 32.896462 -23.458203 51.432331 -0.801954 2.044402 0.074138 -0.039648 729108.000000 0 0 1
-32.547436 32.209162 -24.498203 51.931952 -0.780174 2.062056 0.075573 -0.033769 869719.000000 0 0 1
-33.363536 33.022662 -25.597423 53.468213 -0.780264 2.070016 0.067044 -0.039161 26091.600000 0 0 1
-32.590766 33.818662 -26.495363 53.924615 -0.803886 2.084425 0.052699 -0.034817 -195766.000000 0 0 1
-33.455286 -33.061692 -27.156793 54.312273 0.779481 2.094409 0.059435 -0.034371 200740.000000 0 0 1
-32.740756 -32.262792 -28.292803 53.975249 0.778045 2.122550 0.052822 -0.027428 161987.000000 0 0 1
-32.458616 -32.940692 -29.474963 54.839988 0.792769 2.138233 0.053850 -0.030050 797418.000000 0 0 1
-33.607216 -33.036392 -30.344993 56.050573 0.776833 2.142881 0.062940 -0.026652 763502.000000 0 0 1
-33.319306 33.671662 -31.509303 56.892821 -0.790658 2.157761 0.076404 -0.021964 -61207.200000 0 0 1
-32.437926 -33.726192 -32.532163 56.991373 0.804866 2.178308 0.067870 -0.027558 -153794.000000 0 0 1
-32.534076 33.217362 -33.624393 57.379953 -0.795790 2.196904 0.073062 -0.033838 86156.200000 0 0 1
-31.476676 33.652862 33.156050 56.768124 -0.818799 0.947074 0.071205 -0.037813 212234.000000 0 0 1
-30.207976 33.065462 33.193891 55.746578 -0.830528 0.932980 0.066919 -0.027329 -487435.000000 0 0 1
-30.096286 31.748762 32.690809 54.611897 -0.812111 0.929041 0.075161 -0.031697 739026.000000 0 0 1
-28.629276 31.166262 32.816643 53.552809 -0.827800 0.911210 0.075248 -0.019388 724902.000000 0 0 1
-28.089546 31.025562 -33.725183 53.749382 -0.835023 2.249074 0.080604 -0.021439 487413.000000 0 0 1
-26.674746 30.822262 -33.773973 52.936142 -0.857408 2.262712 0.075307 -0.019359 491225.000000 0 0 1
-26.274296 29.320162 33.791923 51.883568 -0.840131 0.861496 0.093699 -0.024620 -496276.000000 0 0 1
-26.570646 28.487262 -32.924523 51.005367 -0.820195 2.272488 0.085096 -0.020127 189540.000000 0 0 1
-26.386266 27.119462 -33.073883 50.255168 -0.799100 2.289114 0.082598 -0.013308 -397428.000000 0 0 1
-26.405526 26.346862 -31.754113 48.987066 -0.784286 2.276033 0.095792 -0.009446 -160295.000000 0 0 1
-25.283016 26.481362 -30.894703 47.905909 -0.808544 2.271694 0.080976 -0.016887 -53745.600000 0 0 1
-25.159256 27.676562 -30.155483 48.045118 -0.833006 2.249326 0.077210 -0.024306 -454438.000000 0 0 1
-23.782626 27.859962 -29.527133 47.049361 -0.864188 2.249234 0.087280 -0.024311 -296790.000000 0 0 1
-22.727426 28.083762 -30.468153 47.260363 -0.890427 2.271410 0.077831 -0.028308 825291.000000 0 0 1
-21.391926 28.064262 -29.956873 46.288568 -0.919503 2.274671 0.061785 -0.022704 900253.000000 0 0 1
-20.987426 29.274362 -29.100743 46.306733 -0.948804 2.250335 0.061914 -0.012543 -777824.000000 0 0 1
-20.456626 30.332662 -29.830183 47.205759 -0.977453 2.254822 0.063245 0.001156 -232267.000000 0 0 1
-20.233426 31.465862 -29.027473 47.350672 -0.999338 2.230689 0.075845 -0.008162 -39952.600000 0 0 1
-19.850426 32.718162 -29.836363 48.525520 -1.025458 2.233004 0.070833 -0.001917 1312610.000000 0 0 1
-18.498526 32.597762 -30.365703 48.237801 -1.054633 2.251706 0.070451 -0.006424 941457.000000 0 0 1
-18.192626 33.661262 -31.207613 49.375776 -1.075306 2.254983 0.072179 -0.011692 -242630.000000 0 0 1
-16.690526 -33.857292 -31.393653 49.096347 1.112791 2.264552 0.050054 -0.006323 -856356.000000 0 0 1
-16.131026 -33.366992 -30.195593 47.805229 1.120482 2.254460 0.067288 -0.014237 -493475.000000 0 0 1
-14.771626 -33.049192 -30.216143 47.153635 1.150474 2.266339 0.081647 -0.012095 53325.500000 0 0 1
-13.776526 33.483562 -30.271913 47.194600 -1.180466 2.267154 0.090774 -0.019352 -254536.000000 0 0 1
-13.776726 32.644562 -29.087733 45.842794 -1.171451 2.258171 0.097711 -0.026191 -345239.000000 0 0 1
-13.173326 31.422762 -29.397733 45.001702 -1.173824 2.282676 0.098758 -0.024912 -59702.700000 0 0 1
-12.976826 30.519762 -28.101923 43.469207 -1.168761 2.273756 0.075907 -0.035944 -274120.000000 0 0 1
-12.004126 30.995862 -27.204803 42.952809 -1.201302 2.256690 0.095952 -0.032186 -336015.000000 0 0 1
-12.018926 30.357362 -25.951283 41.707230 -1.193817 2.242378 0.079838 -0.040844 1751580.000000 0 0 1
-10.659626 30.600162 -25.106413 40.991822 -1.235590 2.229982 0.100662 -0.040463 2601660.000000 0 0 1
-9.445526 30.076362 -25.680333 40.660607 -1.266499 2.254383 0.117367 -0.038733 624590.000000 0 0 1
-8.296626 30.608062 -25.019803 40.394034 -1.306097 2.238766 0.137323 -0.041966 599681.000000 0 0 1
-6.993126 30.005562 -25.601193 40.058190 -1.341823 2.264124 0.123513 -0.045016 -79703.500000 0 0 1
-6.870926 28.627562 -25.223813 38.768385 -1.335241 2.279208 0.119720 -0.056705 635332.000000 0 0 1
-5.634826 28.054862 -25.697893 38.460476 -1.372583 2.302534 0.120308 -0.060245 913866.000000 0 0 1
-5.058726 26.929862 -24.804103 36.960136 -1.385112 2.306494 0.128888 -0.048402 -138092.000000 0 0 1
-5.903326 25.835562 -24.950503 36.398532 -1.346157 2.326060 0.133741 -0.045548 61352.100000 0 0 1
-5.590326 24.796962 -24.008403 34.964903 -1.349059 2.327657 0.122934 -0.050618 -369584.000000 0 0 1
-6.451926 23.565862 -24.137803 34.345461 -1.303562 2.350115 0.112070 -0.046799 -276074.000000 0 0 1
-6.165126 22.800462 -25.287673 34.602547 -1.306717 2.390295 0.120456 -0.046983 371902.000000 0 0 1
-6.992626 21.625662 -25.375293 34.065695 -1.258059 2.411171 0.102385 -0.044271 264200.000000 0 0 1
-6.654426 20.804062 -26.680413 34.480934 -1.261219 2.455572 0.088892 -0.033259 -658425.000000 0 0 1
-5.499826 20.044962 -26.694603 33.832682 -1.303012 2.480006 0.101388 -0.037162 -1065330.000000 0 0 1
-5.584826 18.872462 -25.894333 32.525015 -1.283083 2.491679 0.101476 -0.036685 -530522.000000 0 0 1
-4.438126 17.915362 -26.160193 32.015822 -1.327958 2.527162 0.111055 -0.041637 -297354.000000 0 0 1
-4.456226 17.545462 -27.532493 32.950559 -1.322074 2.559966 0.109821 -0.044530 -186192.000000 0 0 1
-3.472726 16.590762 -27.819243 32.576425 -1.364459 2.594362 0.098845 -0.045092 -287546.000000 0 0 1
-3.201926 16.439862 -29.293963 33.744002 -1.378439 2.622206 0.093431 -0.044340 6458.370000 0 0 1
-2.560626 17.601262 -29.800463 34.704882 -1.426330 2.603489 0.103390 -0.045485 39474.300000 0 0 1
-2.106926 17.386762 -31.102853 35.694903 -1.450204 2.628749 0.101062 -0.046536 -147669.000000 0 0 1
-1.056526 18.369462 -31.633123 36.595189 -1.513344 2.614765 0.114019 -0.033328 -632877.000000 0 0 1
0.155474 18.350462 -30.942273 35.974823 1.562324 2.606280 0.126296 -0.040087 -750378.000000 0 0 1
0.933174 19.459662 -31.385283 36.940293 1.522879 2.586064 0.128515 -0.019912 90501.300000 0 0 1
0.784374 20.903362 -30.831773 37.258073 1.533290 2.545471 0.122306 -0.028124 -165483.000000 0 0 1
1.500274 21.028262 -29.629133 36.363775 1.499571 2.523177 0.136964 -0.049888 -116301.000000 0 0 1
1.100274 22.237262 -28.940753 36.514019 1.521358 2.485846 0.132068 -0.053363 593653.000000 0 0 1
2.106874 22.579162 -27.790953 35.869131 1.477755 2.457175 0.145563 -0.053264 639862.000000 0 0 1
3.225674 23.281362 -28.283333 36.774634 1.433121 2.448226 0.128945 -0.057963 326482.000000 0 0 1
4.440174 22.977862 -27.561323 36.156933 1.379912 2.437608 0.129983 -0.060988 429515.000000 0 0 1
5.301574 24.179862 -27.363963 36.899307 1.354956 2.406226 0.130806 -0.060517 -915466.000000 0 0 1
6.034574 24.618262 -28.459233 38.110403 1.330410 2.413970 0.114534 -0.065781 -257888.000000 0 0 1
6.471874 25.912162 -28.088433 38.759326 1.326042 2.381378 0.119736 -0.064963 172803.000000 0 0 1
7.354674 26.687262 -29.157053 40.204912 1.301884 2.382137 0.116552 -0.060009 837613.000000 0 0 1
8.732574 26.334862 -29.036923 40.161246 1.250609 2.378944 0.091700 -0.054992 87686.800000 0 0 1
9.522374 26.997562 -29.964143 41.441450 1.231707 2.379000 0.095340 -0.053129 -920456.000000 0 0 1
11.004574 26.809562 -29.728843 41.516953 1.181295 2.368945 0.095544 -0.049224 -691770.000000 0 0 1
11.813974 27.723362 -30.444643 42.837263 1.167962 2.361296 0.095281 -0.038335 -210010.000000 0 0 1
13.121074 27.834962 -29.923233 42.922576 1.130299 2.342203 0.092688 -0.039552 -143766.000000 0 0 1
13.932974 28.651562 -30.917203 44.394968 1.118177 2.341182 0.096231 -0.038743 -384724.000000 0 0 1
13.481874 30.044362 -30.943273 45.187507 1.148997 2.325091 0.102585 -0.033696 554489.000000 0 0 1
14.299074 30.893362 -31.755903 46.554277 1.137306 2.321463 0.136572 -0.036246 236729.000000 0 0 1
13.761174 32.340262 -31.719783 47.343501 1.168492 2.304995 0.142505 -0.040139 527957.000000 0 0 1
12.459174 32.512962 -32.270763 47.473423 1.204851 2.318238 0.127873 -0.042387 361685.000000 0 0 1
12.102774 33.852162 -32.157563 48.234374 1.227439 2.300561 0.119001 -0.037137 -358299.000000 0 0 1
10.800474 -33.548992 -32.876213 48.197826 -1.259342 2.321440 0.082011 -0.032488 -426928.000000 0 0 1
10.857174 -33.407992 33.553161 48.577637 -1.256576 0.808323 0.076224 -0.017748 -356282.000000 0 0 1
9.647274 -33.018392 32.964356 47.643813 -1.286530 0.806691 0.084020 -0.026959 -242912.000000 0 0 1
9.723274 -32.281592 31.627606 46.227143 -1.278237 0.817320 0.089030 -0.027820 -115764.000000 0 0 1
9.891074 -30.908992 31.789256 45.428581 -1.261088 0.795730 0.072323 -0.036925 94607.500000 0 0 1
10.126974 -30.151692 30.603796 44.139240 -1.246767 0.804673 0.095223 -0.036333 -409790.000000 0 0 1
9.576574 -28.732692 30.726166 43.143663 -1.249077 0.778194 0.082132 -0.049818 721980.000000 0 0 1
8.182874 -28.422792 30.865566 42.749242 -1.290479 0.764087 0.065686 -0.040633 813184.000000 0 0 1
7.654674 -28.630192 32.160936 43.733371 -1.309543 0.744559 0.057355 -0.034046 822859.000000 0 0 1
6.075874 -28.629892 32.195294 43.510044 -1.361678 0.737799 0.059699 -0.032502 1126910.000000 0 0 1
5.239774 -29.705892 31.725736 43.776907 -1.396204 0.760177 0.073610 -0.039758 296074.000000 0 0 1
5.197674 -30.023192 30.341196 42.999954 -1.399373 0.787513 0.078027 -0.036908 -139711.000000 0 0 1
4.509874 -28.960192 29.378166 41.498293 -1.416310 0.784224 0.058812 -0.034698 1036190.000000 0 0 1
3.085774 -29.113992 29.217336 41.361809 -1.465201 0.786419 0.095312 -0.040564 1207420.000000 0 0 1
2.660774 -28.573392 27.942646 40.053838 -1.477943 0.798716 0.102980 -0.040337 502994.000000 0 0 1
1.300474 -29.199692 27.473206 40.113468 -1.526288 0.816347 0.093386 -0.027629 331650.000000 0 0 1
1.348174 -30.514092 26.881166 40.688137 -1.526643 0.849094 0.111997 -0.040325 108137.000000 0 0 1
1.407974 -31.592792 27.786476 42.097211 -1.526259 0.849904 0.147482 -0.052892 -211806.000000 0 0 1
1.939874 -32.861492 27.022456 42.589364 -1.511833 0.883450 0.159979 -0.053882 -374014.000000 0 0 1
3.308374 -32.984492 26.781266 42.616408 -1.470830 0.891268 0.116821 -0.039008 -273886.000000 0 0 1
3.781874 -32.380792 25.562976 41.428058 -1.454529 0.905814 0.104230 -0.044958 -702109.000000 0 0 1
5.293374 -32.265492 25.595226 41.523456 -1.408188 0.906629 0.109952 -0.031932 -985585.000000 0 0 1
5.898574 -31.813092 24.438426 40.547536 -1.387465 0.923903 0.106985 -0.039953 119255.000000 0 0 1
7.255974 -31.493192 24.726076 40.692126 -1.344350 0.917713 0.092953 -0.036642 -323134.000000 0 0 1
8.073574 -31.479992 23.440286 40.070182 -1.319741 0.945940 0.085868 -0.031076 -662166.000000 0 0 1
9.305774 -30.841692 23.642656 39.959762 -1.277756 0.937678 0.085422 -0.022401 -257421.000000 0 0 1
9.960374 -30.625092 22.415416 39.237179 -1.256351 0.962732 0.075688 -0.025979 272184.000000 0 0 1
11.111374 -29.581592 22.541616 38.815689 -1.211484 0.951165 0.059916 -0.027038 92856.100000 0 0 1
12.178874 -29.913192 23.416096 39.892826 -1.184149 0.943479 0.068528 -0.023716 -169715.000000 0 0 1
13.146374 -28.913692 23.284726 39.382829 -1.144060 0.938200 0.073774 -0.023279 67312.500000 0 0 1
14.450974 -29.063892 24.119696 40.438845 -1.109380 0.931727 0.082825 -0.030495 126063.000000 0 0 1
14.183574 -29.091592 25.502466 41.205221 -1.117159 0.903438 0.064731 -0.031505 -161176.000000 0 0 1
15.344074 -28.742492 26.204626 41.812126 -1.080440 0.893455 0.077724 -0.039210 -324457.000000 0 0 1
-10.666126 -13.845138 25.383646 30.818559 0.914374 0.602982 0.115332 -0.045890 -622865.000000 0 0 1
-9.300026 -13.618338 25.452736 30.328063 0.971636 0.574899 0.132290 -0.044508 -1263260.000000 0 0 1
-8.740026 -14.189038 26.595456 31.385270 1.018717 0.559752 0.144352 -0.048354 -128716.000000 0 0 1
-7.195926 -14.183138 26.530436 30.932294 1.101280 0.540029 0.131427 -0.040643 -205582.000000 0 0 1
-6.641126 -15.092138 25.615816 30.463868 1.156257 0.571928 0.115814 -0.045618 -42513.400000 0 0 1
-6.770226 -14.814738 24.211546 29.180668 1.142143 0.592205 0.119220 -0.041739 -960370.000000 0 0 1
-6.297026 -15.936638 23.297236 28.920411 1.194496 0.634170 0.113967 -0.038732 57016.700000 0 0 1
-7.185326 -17.026238 23.173046 29.639699 1.171457 0.673209 0.140823 -0.039953 -32013.200000 0 0 1
-7.069826 -17.906438 24.208456 30.930120 1.194763 0.671833 0.144049 -0.043009 -393028.000000 0 0 1
-7.790426 -19.208938 23.881536 31.622805 1.185504 0.714837 0.141705 -0.044156 -391826.000000 0 0 1
-9.192626 -19.193538 23.828556 31.948339 1.124135 0.728992 0.131269 -0.038768 -441188.000000 0 0 1
-9.704226 -20.353138 23.290226 32.416923 1.125886 0.769212 0.112633 -0.037667 134983.000000 0 0 1
-11.251426 -20.426538 23.388626 33.028259 1.067321 0.783936 0.087878 -0.038682 109428.000000 0 0 1
-11.798026 -20.510838 24.680956 34.191190 1.048805 0.764323 0.094915 -0.040744 -82225.600000 0 0 1
-13.159026 -20.140338 24.555696 34.376960 0.992058 0.775163 0.094795 -0.028885 290149.000000 0 0 1
-13.859626 -20.202238 25.975916 35.706692 0.969498 0.756154 0.089569 -0.028872 -263199.000000 0 0 1
-13.673726 -21.464138 26.647236 36.847730 1.003579 0.762413 0.095658 -0.022997 671779.000000 0 0 1
-12.678626 -21.338538 27.688736 37.185305 1.034678 0.730838 0.106650 -0.024670 513651.000000 0 0 1
-12.304726 -22.597038 28.433756 38.347241 1.072164 0.735521 0.099629 -0.019171 -73277.500000 0 0 1
-13.325526 -22.945738 29.356536 39.571236 1.044658 0.734948 0.104971 -0.013365 188879.000000 0 0 1
-12.966026 -24.062538 30.025366 40.603524 1.076556 0.738503 0.093756 -0.005648 -677624.000000 0 0 1
-14.061026 -24.685838 30.868516 41.951977 1.053031 0.743940 0.093803 -0.013937 -396238.000000 0 0 1
-14.327126 -24.012838 32.048913 42.532526 1.032848 0.717403 0.117882 -0.009951 647016.000000 0 0 1
-15.468326 -24.628038 32.687678 43.752642 1.009987 0.727105 0.115957 -0.017349 475746.000000 0 0 1
-15.554426 -24.317538 -33.651383 44.336197 1.001740 2.432579 0.115688 -0.025380 52928.000000 0 0 1
-15.564626 -22.955538 -33.217203 43.273512 0.974966 2.445901 0.127596 -0.030931 487410.000000 0 0 1
-16.574626 -22.140938 -33.847663 43.710452 0.928194 2.456501 0.116039 -0.037101 129057.000000 0 0 1
-16.492526 -20.650938 -33.497353 42.667755 0.896889 2.473612 0.103459 -0.030558 47282.300000 0 0 1
-16.656226 -20.395438 -32.077953 41.501793 0.885977 2.454241 0.095745 -0.028870 209307.000000 0 0 1
-16.842626 -19.009238 -31.771923 40.675303 0.845757 2.467239 0.083725 -0.029128 -152354.000000 0 0 1
-16.927926 -18.764038 -30.234123 39.404898 0.836796 2.445367 0.080740 -0.020087 54013.600000 0 0 1
-18.163126 -19.122438 -29.644153 39.677986 0.811121 2.414513 0.077779 -0.018468 12719.000000 0 0 1
-18.201126 -18.982238 -28.229073 38.580914 0.806402 2.391587 0.075950 -0.017429 368837.000000 0 0 1
-17.382126 -20.049138 -27.380663 38.128820 0.856529 2.371878 0.060297 -0.011673 62146.300000 0 0 1
-15.990926 -19.901738 -27.433963 37.475475 0.893929 2.392124 0.055404 -0.013980 -559498.000000 0 0 1
-15.349526 -20.968538 -26.760253 37.301457 0.938898 2.370867 0.050929 -0.021529 161521.000000 0 0 1
-13.830126 -20.906038 -27.040983 36.872070 0.986353 2.394067 0.126956 -0.026121 -524363.000000 0 0 1
-13.141226 -19.872738 -26.326943 35.506696 0.986540 2.406046 0.112436 -0.026873 559207.000000 0 0 1
-11.718026 -19.984338 -26.336593 35.075661 1.040466 2.420146 0.087971 -0.035285 750458.000000 0 0 1
-11.074726 -21.196838 -25.579133 35.017817 1.089334 2.389792 0.131071 -0.058273 -1032170.000000 0 0 1
-11.035126 -22.415738 -26.283673 36.263905 1.113333 2.381524 0.144332 -0.057352 120310.000000 0 0 1
-10.733926 -23.395238 -25.311723 36.100383 1.140642 2.347803 0.197541 -0.058490 -15259.800000 0 0 1
-10.777026 -24.869338 -25.831763 37.442065 1.161878 2.332165 0.198587 -0.047434 533921.000000 0 0 1
-9.473026 -25.186938 -26.364493 37.672358 1.211054 2.345965 0.195579 -0.042965 941703.000000 0 0 1
-9.445326 -26.406908 -27.118843 39.012442 1.227293 2.339401 0.187067 -0.032767 -159371.000000 0 0 1
-9.305526 -27.728058 -26.316873 39.344832 1.247008 2.303494 0.197185 -0.025465 -157378.000000 0 0 1
-10.422826 -27.997048 -25.475953 39.261867 1.214410 2.276898 0.175836 -0.030763 391798.000000 0 0 1
-10.282426 -29.210838 -24.731003 39.631097 1.232334 2.244686 0.186048 -0.037400 367666.000000 0 0 1
-11.387826 -29.271558 -23.614703 39.295812 1.199773 2.215482 0.186723 -0.043170 579152.000000 0 0 1
-11.092926 -28.270598 -22.650903 37.885922 1.196873 2.211639 0.182562 -0.050985 574451.000000 0 0 1
-11.977926 -27.133518 -22.755703 37.383426 1.155080 2.225231 0.166436 -0.048590 284497.000000 0 0 1
-11.853826 -26.133868 -21.571403 35.900107 1.144968 2.215389 0.181790 -0.060199 -72394.200000 0 0 1
-12.494326 -26.495648 -20.358303 35.673352 1.130157 2.178138 0.132981 -0.044289 2587.580000 0 0 1
-12.507026 -25.385488 -19.424503 34.324336 1.113019 2.172334 0.121969 -0.037441 -266670.000000 0 0 1
-13.345126 -25.701288 -18.215203 34.211726 1.091876 2.132260 0.127403 -0.032424 -266399.000000 0 0 1
-14.737826 -25.867768 -18.389703 34.993229 1.052926 2.124125 0.145582 -0.039126 23682.400000 0 0 1
-15.229626 -26.217758 -17.109903 34.814668 1.044547 2.084558 0.126393 -0.034912 -678502.000000 0 0 1
-16.728326 -26.449358 -16.989103 35.609480 1.006846 2.068143 0.137446 -0.041501 -1320210.000000 0 0 1
-17.475726 -25.249218 -17.147903 35.170649 0.965372 2.080093 0.124083 -0.035180 -16437.200000 0 0 1
-18.822526 -25.387938 -16.752403 35.769790 0.932824 2.058207 0.132261 -0.030496 214022.000000 0 0 1
-19.795926 -26.106148 -17.719103 37.247500 0.922013 2.066570 0.122514 -0.023691 -1061390.000000 0 0 1
-19.590726 -27.506008 -17.789503 38.168618 0.951906 2.055647 0.119056 -0.035105 -155057.000000 0 0 1
-20.061326 -28.368958 -16.750503 38.572450 0.955283 2.020014 0.127263 -0.031724 -279801.000000 0 0 1
-21.593626 -28.483698 -16.625803 39.421099 0.922128 2.006170 0.136510 -0.027651 -86260.200000 0 0 1
-22.133526 -29.213438 -17.732803 40.715724 0.922418 2.021420 0.122899 -0.026951 -505834.000000 0 0 1
-23.241726 -29.935858 -17.304403 41.662642 0.910622 1.999119 0.127968 -0.021865 -725547.000000 0 0 1
-23.832526 -31.021998 -18.224103 43.156362 0.915720 2.006756 0.096770 -0.019063 158043.000000 0 0 1
-23.022926 -32.173758 -18.350703 43.611399 0.949690 2.005099 0.088467 -0.023524 180515.000000 0 0 1
-23.485526 -32.891758 -19.454303 44.854293 0.950720 2.019416 0.070918 -0.002055 257220.000000 0 0 1
-22.922726 33.403415 -19.261803 44.858182 -0.969366 2.014617 0.058315 -0.009316 305550.000000 0 0 1
-23.705426 32.644186 -18.357603 44.323714 -0.942718 1.997828 0.071238 -0.014981 190830.000000 0 0 1
-23.065826 31.418596 -18.062103 42.958119 -0.937519 2.004747 0.067552 -0.015013 -264964.000000 0 0 1
-24.080726 30.368606 -17.697003 42.606542 -0.900370 1.999134 0.085331 -0.038739 -408823.000000 0 0 1
-24.572726 30.388166 -16.344203 42.360269 -0.890816 1.966912 0.090414 -0.046970 -100523.000000 0 0 1
-25.117736 29.153936 -15.879903 41.629604 -0.859632 1.962168 0.091542 -0.036386 -66819.000000 0 0 1
-24.228726 27.873266 -15.666003 40.117000 -0.855235 1.971979 0.079700 -0.044392 -338947.000000 0 0 1
-23.623926 27.542856 -16.853503 40.009240 -0.861840 2.005609 0.059545 -0.032386 -459734.000000 0 0 1
-22.955026 26.311286 -16.733803 38.719983 -0.853418 2.017699 0.064821 -0.028928 322907.000000 0 0 1
-21.995526 25.791606 -17.880503 38.323915 -0.864669 2.056197 0.069860 -0.023629 -87605.400000 0 0 1
-21.820426 24.394346 -17.879303 37.294564 -0.841035 2.070776 0.088443 -0.036747 332230.000000 0 0 1
-21.127826 23.754476 -18.986703 37.029110 -0.843855 2.109182 0.091159 -0.029663 -371599.000000 0 0 1
-19.664126 24.092736 -19.243403 36.571113 -0.886264 2.124912 0.082548 -0.036909 -1427900.000000 0 0 1
-18.969726 23.567126 -18.131903 35.270750 -0.893061 2.110728 0.101821 -0.039944 -778497.000000 0 0 1
-17.680826 24.073876 -17.997103 34.872034 -0.937328 2.113076 0.111283 -0.055772 -633046.000000 0 0 1
-17.517726 25.470956 -17.355903 35.452329 -0.968337 2.082377 0.141291 -0.057450 -308204.000000 0 0 1
-18.093626 26.575586 -18.079003 36.884839 -0.973048 2.083055 0.106284 -0.050234 -1266.020000 0 0 1
-17.740026 27.800726 -17.536703 37.351369 -1.002822 2.059528 0.117613 -0.060969 -521183.000000 0 0 1
-18.776126 28.921316 -17.735603 38.775469 -0.994974 2.045857 0.092978 -0.049391 14961.200000 0 0 1
-19.084826 29.305166 -19.059603 39.828278 -0.993547 2.069793 0.065681 -0.045643 184481.000000 0 0 1
-19.905426 28.430716 -19.822403 39.968228 -0.959978 2.089729 0.059287 -0.028625 -394373.000000 0 0 1
-20.271126 28.942326 -21.192503 41.203142 -0.959804 2.111036 0.061504 -0.028107 310188.000000 0 0 1
-21.149926 30.097916 -21.188603 42.451864 -0.958258 2.093380 0.066416 -0.024602 541882.000000 0 0 1
-21.681826 30.337636 -22.476603 43.539308 -0.950283 2.113248 0.070011 -0.017897 452540.000000 0 0 1
-22.438726 31.706906 -22.701703 44.991017 -0.954927 2.099695 0.064541 -0.013447 34049.700000 0 0 1
-21.565726 32.772454 -22.686203 45.318628 -0.988787 2.095080 0.039135 -0.011250 -474004.000000 0 0 1
-22.063326 33.858936 -23.429603 46.713640 -0.993280 2.096195 0.059261 -0.000155 -371006.000000 0 0 1
-21.175726 -32.649708 -23.423803 45.421243 0.995425 2.112623 0.064440 -0.004244 12431.300000 0 0 1
-20.908026 -31.911898 -22.264503 44.172648 0.990789 2.099059 0.081500 -0.009509 328145.000000 0 0 1
-19.987326 -32.495228 -21.331703 43.708976 1.019359 2.080638 0.096127 -0.026880 -46089.700000 0 0 1
-19.590326 -31.495198 -20.201503 42.235401 1.014350 2.069523 0.109322 -0.029394 250641.000000 0 0 1
-18.469626 -30.728478 -20.637103 41.367336 1.029599 2.093096 0.117863 -0.034058 264660.000000 0 0 1
-18.243326 -29.790368 -19.637203 40.073741 1.021316 2.082917 0.112156 -0.034026 -280847.000000 0 0 1
-17.044626 -28.876558 -19.917403 39.000998 1.037571 2.106783 0.134824 -0.039816 405645.000000 0 0 1
-15.786126 -29.496338 -19.644703 38.796264 1.079395 2.101750 0.149045 -0.045250 -159202.000000 0 0 1
-14.732426 -28.698658 -20.062003 37.988700 1.096527 2.127163 0.145953 -0.048203 -717339.000000 0 0 1
-13.447126 -29.492118 -20.443903 38.321839 1.143000 2.133505 0.186197 -0.050967 342072.000000 0 0 1
-12.653426 -30.043778 -19.403603 37.937285 1.172177 2.107685 0.169635 -0.041200 538128.000000 0 0 1
-11.994326 -29.123738 -18.487403 36.521775 1.180125 2.101572 0.129386 -0.035859 180837.000000 0 0 1
-11.170626 -29.844328 -17.323903 36.270986 1.212643 2.068745 0.112137 -0.016791 277936.000000 0 0 1
-11.885426 -30.470568 -16.292603 36.539948 1.198886 2.032959 0.135780 -0.032683 -215891.000000 0 0 1
-12.256326 -31.768068 -16.563203 37.865121 1.202585 2.023531 0.146785 -0.033009 -410375.000000 0 0 1
-12.994326 -32.458608 -15.413103 38.209652 1.190001 1.986007 0.150733 -0.042604 -524472.000000 0 0 1
-12.287826 -32.966688 -14.329503 37.988522 1.214013 1.957574 0.135359 -0.036085 -31982.200000 0 0 1
-13.261526 -33.429108 -13.416303 38.384509 1.193133 1.927859 0.135207 -0.038100 383316.000000 0 0 1
-12.591626 -33.784078 -12.085303 38.025880 1.214036 1.894223 0.113179 -0.031809 364759.000000 0 0 1
-11.951926 -32.660878 -11.415603 36.604610 1.219992 1.887949 0.079083 -0.023731 282774.000000 0 0 1
-11.790626 -32.967188 -10.031703 36.421002 1.227325 1.849841 0.087602 -0.025186 -460051.000000 0 0 1
-10.460126 -32.408488 -9.550003 35.368445 1.258593 1.844205 0.079842 -0.024160 -469067.000000 0 0 1
-9.318626 -32.942778 -10.163703 35.712243 1.295125 1.859385 0.059055 -0.030949 -539499.000000 0 0 1
-8.170026 -32.506758 -9.480203 34.832641 1.324563 1.846438 0.047731 -0.033236 -83560.300000 0 0 1
-6.831926 -32.957738 -10.102503 35.141831 1.366398 1.862389 0.053919 -0.045661 218.565000 0 0 1
-6.417526 33.472734 -9.806903 35.465249 -1.381371 1.850969 0.051947 -0.032163 284404.000000 0 0 1
-5.158226 33.216920 -10.431303 35.196351 -1.416738 1.871691 0.066674 -0.027418 -14280.900000 0 0 1
-4.380326 32.182691 -9.675503 33.889942 -1.435519 1.860322 0.074534 -0.032168 -664620.000000 0 0 1
-3.985226 32.736021 -8.472503 34.048676 -1.449654 1.822274 0.089540 -0.037185 -592982.000000 0 0 1
-3.155526 31.827078 -7.817903 32.924760 -1.471973 1.810534 0.079508 -0.029691 16224.400000 0 0 1
-2.854726 32.219274 -6.302203 32.953737 -1.482424 1.763226 0.081657 -0.034769 362920.000000 0 0 1
-2.077426 33.487929 -6.271503 34.133397 -1.508841 1.755581 0.061853 -0.026779 512915.000000 0 0 1
-1.547526 33.718278 -4.989503 34.120554 -1.524933 1.717554 0.067812 -0.028943 532856.000000 0 0 1
-0.397726 32.834102 -4.414203 33.131882 -1.558684 1.704425 0.074576 -0.036031 584237.000000 0 0 1
0.943274 33.017741 -4.890303 33.391257 1.542235 1.717780 0.079182 -0.025541 859574.000000 0 0 1
1.824674 32.375883 -3.934703 32.665105 1.514497 1.691545 0.076510 -0.023270 1542220.000000 0 0 1
3.350574 32.369770 -4.363903 32.834006 1.467654 1.704099 0.076428 -0.015690 1062080.000000 0 0 1
3.909974 33.627607 -4.178603 34.111062 1.455043 1.693605 0.076611 -0.017129 -12407.800000 0 0 1
5.331174 33.526633 -4.136703 34.198959 1.413103 1.692053 0.090195 -0.019959 675953.000000 0 0 1
6.059874 -32.946038 -3.718003 33.704407 -1.388896 1.681333 0.091608 -0.020628 72109.900000 0 0 1
6.113974 -31.977548 -4.818703 32.911459 -1.381880 1.717739 0.083621 -0.024135 -187008.000000 0 0 1
6.505574 -30.750378 -4.224603 31.713649 -1.362310 1.704404 0.065277 -0.025241 23364.200000 0 0 1
6.329974 -29.483838 -5.070903 30.579067 -1.359314 1.737395 0.065345 -0.022711 -74145.400000 0 0 1
7.250674 -29.310818 -6.131203 30.810517 -1.328293 1.771131 0.091943 -0.021175 -227281.000000 0 0 1
7.054174 -28.118988 -6.867203 29.792572 -1.325000 1.803388 0.076549 -0.022482 -33097.500000 0 0 1
7.293274 -26.758618 -6.168003 28.412317 -1.304702 1.789628 0.078874 -0.021674 729815.000000 0 0 1
6.350274 -26.456128 -5.115703 27.684348 -1.335223 1.756651 0.070667 -0.022149 79146.200000 0 0 1
6.780474 -25.312088 -4.449303 26.579559 -1.309066 1.738984 0.055716 -0.021743 1217.950000 0 0 1
5.828374 -24.801238 -3.343803 25.695377 -1.339981 1.701299 0.055541 -0.016147 -139532.000000 0 0 1
4.647474 -24.289638 -3.900003 25.035885 -1.381746 1.727210 0.062910 -0.018621 -424437.000000 0 0 1
3.719674 -23.909838 -2.889503 24.369357 -1.416463 1.689647 0.061188 -0.014902 82010.400000 0 1 0
2.415174 -23.316738 -3.415103 23.688948 -1.467583 1.715465 0.083631 -0.017055 319926.000000 0 1 0
1.699974 -24.216238 -4.286103 24.651304 -1.500712 1.745554 0.102870 -0.020775 -60863.800000 0 1 0
0.368774 -23.808538 -4.524103 24.237368 -1.555308 1.758556 0.070003 -0.010085 262086.000000 0 1 0
-15.546726 23.103562 17.851016 33.077697 -0.978481 1.000752 0.005358 -0.020363 -78451.400000 0 0 1
-15.959726 22.472862 19.066516 33.515286 -0.953272 0.965641 0.031080 -0.018709 410221.000000 0 0 1
-15.432626 23.296462 20.109416 34.427891 -0.985722 0.947022 0.035739 -0.015983 -681144.000000 0 0 1
-15.614126 22.775362 21.607016 35.062532 -0.969820 0.906834 0.066645 -0.029315 -371287.000000 0 0 1
-14.707226 21.774762 22.078016 34.320279 -0.976755 0.872004 0.052727 -0.030998 2406390.000000 0 0 1
-13.286126 22.182662 22.158316 34.052645 -1.031155 0.862280 0.053663 -0.031458 1963620.000000 0 0 1
-12.876626 23.389762 23.098846 35.305030 -1.067551 0.857586 0.071752 -0.018647 -741429.000000 0 0 1
-12.366826 23.039562 24.335526 35.720829 -1.078171 0.821300 0.069646 -0.013643 -48204.000000 0 0 1
-12.113526 24.117462 25.167456 36.902443 -1.105333 0.820303 0.094294 -0.021100 279857.000000 0 0 1
-11.297126 23.802062 26.485386 37.358251 -1.127652 0.782778 0.097916 -0.023088 -664402.000000 0 0 1
-9.980826 23.477962 26.321956 36.656199 -1.168829 0.769762 0.060825 -0.016078 -1483170.000000 0 0 1
-9.525826 22.493262 27.179056 36.542979 -1.170200 0.732125 0.053739 -0.006011 1757260.000000 0 0 1
-7.937326 22.410162 27.410556 36.284364 -1.230399 0.714475 0.044785 -0.018600 2505390.000000 0 0 1
-7.199926 23.435362 28.144716 37.325329 -1.272724 0.716608 0.045333 -0.017187 340737.000000 0 0 1
-7.062126 24.711062 27.475906 37.622276 -1.292428 0.752021 0.048566 -0.011337 -463373.000000 0 0 1
-5.953626 25.554362 28.120406 38.460737 -1.341901 0.750796 0.050325 -0.019401 1422080.000000 0 0 1
-4.614826 25.060762 27.787026 37.702218 -1.388691 0.742156 0.035516 -0.021412 426614.000000 0 0 1
-3.658626 25.870562 28.352786 38.555830 -1.430308 0.744584 0.047554 -0.014382 -523088.000000 0 0 1
-2.239426 25.288762 28.213456 37.954389 -1.482473 0.732729 0.053903 -0.018096 -274902.000000 0 0 1
-1.684626 25.303262 26.925196 36.987285 -1.504317 0.755457 0.051606 -0.025065 181907.000000 0 0 1
-0.367926 24.764762 26.961926 36.611122 -1.555941 0.743002 0.070499 -0.019020 501941.000000 0 0 1
0.418174 24.632362 25.651966 35.566157 1.553821 0.765196 0.063374 -0.030935 -108910.000000 0 0 1
-0.009626 23.514462 24.933026 34.272231 -1.570387 0.756126 0.055963 -0.015243 -271725.000000 0 0 1
0.249874 23.634162 23.589136 33.392864 1.560224 0.786380 0.063834 -0.011658 -322968.000000 0 0 1
-0.252226 22.386562 22.873806 32.006762 -1.559530 0.774665 0.048515 -0.008122 -134142.000000 0 0 1
0.414674 21.167262 23.155706 31.375335 1.551208 0.740661 0.053483 -0.009111 -305209.000000 0 0 1
-0.045326 20.076462 22.442116 30.111708 -1.568539 0.729819 0.050044 -0.010232 -482680.000000 0 0 1
0.849774 18.856562 22.518916 29.383561 1.525762 0.697613 0.052475 -0.007077 -36458.500000 0 0 1
2.062374 18.923462 21.784516 28.929500 1.462240 0.718155 0.067948 -0.014740 226742.000000 0 0 1
2.803974 17.707862 21.969216 28.356253 1.413754 0.684465 0.049337 -0.018883 -46506.300000 0 0 1
4.249074 17.678262 21.447516 28.117104 1.334915 0.703176 0.068882 -0.019263 -448841.000000 0 0 1
5.119474 18.429862 22.229516 29.326101 1.299846 0.710538 0.068681 -0.016490 110809.000000 0 0 1
6.333374 18.653562 21.465216 29.134559 1.243483 0.742528 0.094309 -0.024112 141081.000000 0 0 1
7.527274 18.989862 22.330816 30.264502 1.193411 0.740909 0.100506 -0.033868 -1201000.000000 0 0 1
7.542574 20.088062 23.242836 31.633054 1.211609 0.745477 0.080423 -0.026777 -96200.000000 0 0 1
7.424674 21.348062 22.656116 32.002580 1.236090 0.784210 0.090529 -0.033051 -702400.000000 0 0 1
6.160674 22.121062 22.971186 32.480312 1.299181 0.785218 0.073369 -0.028167 -537389.000000 0 0 1
6.010974 23.473062 22.454116 33.034887 1.320104 0.823430 0.079438 -0.034328 -364659.000000 0 0 1
4.783274 24.001862 22.849786 33.482560 1.374086 0.819703 0.055659 -0.031051 -862496.000000 0 0 1
4.467274 25.411262 22.350916 34.135791 1.396776 0.856925 0.082492 -0.033474 -128358.000000 0 0 1
4.190174 25.688562 21.002416 33.444899 1.409106 0.891853 0.084134 -0.035638 -370395.000000 0 0 1
3.013574 25.026862 20.617116 32.565180 1.450960 0.885241 0.085388 -0.037092 -735123.000000 0 0 1
2.662974 25.430162 19.168916 31.956719 1.466459 0.927495 0.093542 -0.040453 -684156.000000 0 0 1
2.014074 26.682462 19.104316 32.878339 1.495456 0.950765 0.091740 -0.042700 275383.000000 0 0 1
1.475974 26.969862 17.786016 32.340290 1.516124 0.988474 0.102637 -0.039880 20511.600000 0 0 1
0.386074 28.061362 17.797116 33.231407 1.557039 1.005636 0.095544 -0.027592 -58396.100000 0 0 1
0.735474 29.357262 18.302216 34.602903 1.545749 1.013467 0.095950 -0.025165 -598498.000000 0 0 1
-0.430926 30.060862 18.505516 35.302907 -1.556462 1.019030 0.077833 -0.023241 -588238.000000 0 0 1
-0.102826 31.416062 19.130416 36.782501 -1.567523 1.023833 0.082527 -0.014395 108758.000000 0 0 1
0.293774 31.352462 20.490916 37.455852 1.561427 0.991938 0.091453 -0.012280 -34564.200000 0 0 1
0.882374 32.542862 20.922216 38.698263 1.543689 0.999587 0.099171 -0.016961 -405936.000000 0 0 1
1.339174 32.445762 22.366216 39.430553 1.529545 0.967657 0.103325 -0.030401 119526.000000 0 0 1
0.282874 32.361362 23.319346 39.888967 1.562055 0.946401 0.112840 -0.020811 191015.000000 0 0 1
0.831174 32.288462 24.636706 40.622690 1.545060 0.919175 0.115651 -0.028716 540126.000000 0 0 1
-0.226026 31.982462 25.779036 41.079042 -1.563729 0.892398 0.133128 -0.033271 -199840.000000 0 0 1
-1.247626 32.912062 25.874746 41.883922 -1.532907 0.904889 0.134325 -0.029185 -220033.000000 0 0 1
-2.058926 32.735162 27.037736 42.507284 -1.507983 0.881398 0.147357 -0.033065 109025.000000 0 0 1
-1.499026 33.252962 28.440336 43.781952 -1.525747 0.863751 0.163199 -0.044904 -225019.000000 0 0 1
-0.407226 32.429662 28.828996 43.393085 -1.558240 0.844148 0.153309 -0.044683 159431.000000 0 0 1
0.202574 33.006062 29.978836 44.588920 1.564659 0.833433 0.139010 -0.053003 -591708.000000 0 0 1
1.362274 32.161762 30.599046 44.413245 1.528465 0.810740 0.117569 -0.042644 707319.000000 0 0 1
2.611974 32.172662 29.914896 44.009131 1.489788 0.823384 0.090404 -0.043386 429325.000000 0 0 1
2.570074 31.628962 28.610426 42.726491 1.489717 0.837102 0.085020 -0.042813 -500546.000000 0 0 1
4.018474 31.478662 28.013466 42.329760 1.443826 0.847591 0.068784 -0.038084 784844.000000 0 0 1
4.651274 30.362562 28.650316 42.004287 1.418787 0.820192 0.069386 -0.040442 391561.000000 0 0 1
6.005074 30.289262 28.197766 41.816436 1.375077 0.830749 0.069264 -0.048075 365696.000000 0 0 1
6.730374 29.086662 28.875546 41.534672 1.343408 0.802077 0.065707 -0.035234 -45396.800000 0 0 1
6.903574 29.152562 30.289316 42.602510 1.338271 0.779913 0.073707 -0.040942 343002.000000 0 0 1
7.727774 28.110062 30.811316 42.417347 1.302513 0.757749 0.056090 -0.037302 196858.000000 0 0 1
7.747774 28.153862 32.389897 43.609327 1.302250 0.733660 0.083865 -0.045493 -270796.000000 0 0 1
6.448274 27.986262 32.904374 43.675038 1.344340 0.717593 0.090384 -0.049570 -330317.000000 0 0 1
6.419774 27.963862 -33.496323 44.104362 1.345133 2.433308 0.113521 -0.049470 15761.800000 0 0 1
6.618774 26.548762 -32.926623 42.811300 1.326471 2.448245 0.101869 -0.044231 -242718.000000 0 0 1
7.893074 26.055862 -33.255143 42.978054 1.276655 2.455568 0.079299 -0.043408 -231930.000000 0 0 1
7.988074 24.654862 -32.896373 41.878907 1.257473 2.474319 0.089093 -0.047388 -180018.000000 0 0 1
9.418574 24.147862 -33.138873 42.071530 1.198908 2.477829 0.071554 -0.045414 -548583.000000 0 0 1
9.709674 24.023162 33.357721 42.238935 1.186692 0.660413 0.046152 -0.028906 -14997.200000 0 0 1
10.880974 23.226362 33.251587 41.994375 1.132685 0.657029 0.060745 -0.044707 -310363.000000 0 0 1
10.721874 21.670162 33.494679 41.309176 1.111337 0.625229 0.049811 -0.043838 -1501150.000000 0 0 1
10.156274 20.967862 32.426040 39.928051 1.119728 0.623034 0.033618 -0.036131 -31287.300000 0 0 1
9.688774 19.670462 32.744042 39.407762 1.113123 0.590067 0.022452 -0.034038 655870.000000 0 0 1
8.462274 19.564962 33.730655 39.901816 1.162572 0.563593 0.052373 -0.037366 40088.600000 0 0 1
8.712974 20.209962 -32.860073 39.549246 1.163751 2.551456 0.061768 -0.035240 -655790.000000 0 0 1
7.514474 20.614362 -32.260003 39.014446 1.221240 2.544321 0.084848 -0.034970 -625939.000000 0 0 1
7.657074 21.039362 -30.830893 38.102880 1.221757 2.513498 0.096882 -0.047693 -162528.000000 0 0 1
8.265174 22.307562 -30.770533 38.894294 1.215968 2.483454 0.113478 -0.056218 78218.000000 0 0 1
8.324274 22.757162 -29.442773 38.132123 1.220127 2.452975 0.090296 -0.054476 107737.000000 0 0 1
9.799674 23.072362 -29.064783 38.381364 1.169149 2.429908 0.087469 -0.052700 762358.000000 0 0 1
10.575674 21.869462 -28.832503 37.701876 1.120369 2.441449 0.079790 -0.044223 253792.000000 0 0 1
11.969274 22.131562 -28.907333 38.323667 1.075026 2.425375 0.089545 -0.044611 -44471.500000 0 0 1
12.818374 20.902962 -28.793013 37.819071 1.020704 2.436167 0.086102 -0.054054 -503114.000000 0 0 1
12.701174 19.976062 -29.893963 38.131508 1.004454 2.471832 0.074668 -0.048227 1158620.000000 0 0 1
11.415974 19.296762 -30.072063 37.510245 1.036576 2.500935 0.082047 -0.042096 1061510.000000 0 0 1
11.250574 18.295462 -31.231353 37.903783 1.019465 2.539168 0.074255 -0.042773 -468511.000000 0 0 1
11.952374 17.108862 -30.990343 37.362732 0.961006 2.548910 0.102333 -0.032509 -38926.200000 0 0 1
11.997874 16.136562 -32.032853 37.821175 0.931455 2.581029 0.077582 -0.024207 -271528.000000 0 0 1
12.947874 16.345762 -33.214853 39.218080 0.900876 2.580975 0.058307 -0.010844 -356381.000000 0 0 1
12.712674 17.654362 -33.834533 40.225169 0.946716 2.570163 0.056653 -0.024550 -60520.700000 0 0 1
13.327374 18.002762 32.769707 39.693476 0.933535 0.599586 0.065615 -0.030162 -27340.100000 0 0 1
12.844874 17.178062 31.544816 38.146455 0.928738 0.597153 0.074115 -0.041836 -839116.000000 0 0 1
13.258474 17.772962 30.314586 37.558481 0.929866 0.631521 0.063782 -0.033048 -44387.400000 0 0 1
12.553274 17.443262 29.110816 36.184136 0.946995 0.635932 0.062402 -0.034653 902627.000000 0 0 1
10.988174 17.584062 29.087636 35.721559 1.012273 0.619295 0.040118 -0.033357 709569.000000 0 0 1
10.308474 16.690362 29.948096 35.801135 1.017514 0.579909 0.043121 -0.028239 211004.000000 0 0 1
8.944374 17.053762 30.133546 35.761197 1.087756 0.568643 0.053095 -0.025913 870397.000000 0 0 1
8.127374 16.190262 31.170696 36.052616 1.105557 0.526464 0.069702 -0.027351 376886.000000 0 0 1
8.493474 16.527062 32.496104 37.433670 1.096080 0.519438 0.079954 -0.025174 -94134.400000 0 0 1
8.061674 15.538062 33.305869 37.625827 1.092195 0.483902 0.095049 -0.030041 -354047.000000 0 0 1
8.122174 15.796962 -33.007493 37.483440 1.095885 2.647899 0.096410 -0.030042 175656.000000 0 0 1
7.094574 16.637562 -32.486883 37.182509 1.167724 2.633582 0.088826 -0.032411 290630.000000 0 0 1
7.002274 16.706362 -31.062683 35.958652 1.173901 2.613648 0.092952 -0.038334 48377.900000 0 0 1
5.989074 17.765962 -30.577673 35.867708 1.245651 2.591570 0.104278 -0.045756 -584308.000000 0 0 1
5.956474 17.743262 -29.166013 34.654859 1.246914 2.571061 0.100988 -0.048457 354280.000000 0 0 1
5.147474 18.758062 -28.522553 34.523867 1.302975 2.543070 0.119151 -0.053531 797785.000000 0 0 1
3.626874 18.442362 -28.637833 34.254932 1.376614 2.560787 0.145606 -0.061246 -962333.000000 0 0 1
3.149074 17.372162 -27.827123 32.955386 1.391472 2.576218 0.153956 -0.056640 1441780.000000 0 0 1
1.707174 17.201662 -27.828633 32.760409 1.471876 2.585756 0.140420 -0.055887 1445790.000000 0 0 1
0.717874 18.345062 -27.544213 33.101968 1.531685 2.553683 0.137050 -0.064287 -719929.000000 0 0 1
0.400374 18.608462 -26.211333 32.147615 1.549284 2.524118 0.150667 -0.064378 -5741.700000 0 0 1
-0.511226 19.690862 -26.195463 32.774894 -1.544840 2.496849 0.155048 -0.062243 3767.880000 0 0 1
-1.025926 20.243462 -24.835403 32.056942 -1.520160 2.457081 0.138527 -0.057467 -346581.000000 0 0 1
-2.032726 19.485962 -24.268703 31.189816 -1.466855 2.462427 0.130697 -0.050406 -651607.000000 0 0 1
-2.410126 19.968562 -23.027603 30.574870 -1.450681 2.423641 0.130612 -0.043742 -644798.000000 0 0 1
-3.465526 19.198662 -22.312003 29.638218 -1.392211 2.423120 0.107798 -0.044406 -316848.000000 0 0 1
-4.810426 19.574862 -22.560203 30.253564 -1.329826 2.412387 0.100840 -0.039379 -71764.100000 0 0 1
-5.686126 18.611062 -22.016603 29.384255 -1.274279 2.417748 0.085317 -0.040424 -450125.000000 0 0 1
-7.168626 18.967762 -21.967103 29.895130 -1.209453 2.396176 0.117604 -0.033439 -162162.000000 0 0 1
-7.502526 19.883362 -20.952503 29.843648 -1.209987 2.349105 0.068678 -0.029539 -210046.000000 0 0 1
-7.311226 21.205462 -21.423003 31.017264 -1.238779 2.333225 0.070186 -0.035570 -470983.000000 0 0 1
-7.890126 22.230162 -20.461003 31.226380 -1.229737 2.285306 0.069582 -0.039396 -109666.000000 0 0 1
-7.252526 22.389962 -19.206803 30.377801 -1.257543 2.255269 0.083544 -0.041904 -232532.000000 0 0 1
-7.734626 23.509862 -18.488503 30.892763 -1.252955 2.212391 0.095453 -0.051572 289030.000000 0 0 1
-6.975226 23.790862 -17.104303 30.120028 -1.285600 2.174714 0.111671 -0.047499 417261.000000 0 0 1
-5.579826 23.935062 -17.213103 30.005209 -1.341763 2.181776 0.122257 -0.053696 -636707.000000 0 0 1
-4.996026 24.060562 -15.932403 29.286727 -1.366062 2.146010 0.118649 -0.043232 869239.000000 0 0 1
-3.423326 24.046762 -15.982603 29.075927 -1.429385 2.152784 0.119977 -0.045707 751827.000000 0 0 1
-3.019726 25.251662 -16.478303 30.303459 -1.451776 2.145727 0.096866 -0.049809 -1464870.000000 0 0 1
-1.830626 25.164462 -17.158303 30.512435 -1.498178 2.168007 0.100120 -0.054504 -983718.000000 0 0 1
-1.233726 26.574962 -17.326403 31.748306 -1.524405 2.148071 0.082774 -0.068263 -529502.000000 0 0 1
-1.924926 27.407262 -18.152303 32.929765 -1.500677 2.154650 0.085986 -0.071025 -164338.000000 0 0 1
-1.224126 28.649462 -18.329503 34.033231 -1.528095 2.139543 0.093326 -0.067475 -97749.500000 0 0 1
-2.061826 29.586762 -19.231803 35.348124 -1.501221 2.146075 0.142399 -0.071815 888024.000000 0 0 1
-3.215426 30.231862 -18.693203 35.689498 -1.464836 2.122071 0.115614 -0.057944 913270.000000 0 0 1
-4.393226 29.420162 -18.575003 35.069603 -1.422565 2.128997 0.075340 -0.061746 -427016.000000 0 0 1
-5.500526 30.063562 -17.815203 35.375910 -1.389835 2.098554 0.107939 -0.049896 -421044.000000 0 0 1
-6.228926 31.121062 -18.432203 36.702399 -1.373255 2.096945 0.151096 -0.055280 89893.600000 0 0 1
-6.070226 32.380062 -17.733103 37.413620 -1.385479 2.064595 0.146680 -0.079620 -382327.000000 0 0 1
-6.741026 33.632562 -18.278203 38.867510 -1.372986 2.060392 0.147379 -0.055274 60845.700000 0 0 1
-8.147126 33.466162 -18.190303 38.951852 -1.331998 2.056685 0.146684 -0.072576 116097.000000 0 0 1
-8.795626 -33.097092 -17.806903 38.598786 1.311048 2.050294 0.197831 -0.057808 101792.000000 0 0 1
30.600674 -20.086838 -26.078853 44.944287 -0.580874 2.189830 0.096916 -0.006650 154239.000000 0 0 1
29.950174 -21.293038 -25.739953 44.865929 -0.618036 2.181822 0.106995 -0.019482 -914241.000000 0 0 1
28.572974 -21.278338 -25.893873 44.041744 -0.640101 2.199305 0.105845 -0.022911 -779365.000000 0 0 1
28.082074 -22.725038 -25.689113 44.327878 -0.680348 2.188942 0.105792 -0.017551 -134863.000000 0 0 1
28.537774 -23.691838 -26.586733 45.635097 -0.692882 2.192713 0.089375 -0.004052 -84960.700000 0 0 1
29.882074 -24.101438 -26.406103 46.595064 -0.678723 2.173309 0.090145 -0.005450 -33529.400000 0 0 1
30.265374 -25.482378 -26.908723 47.847924 -0.699811 2.168058 0.084678 -0.008277 -223147.000000 0 0 1
29.710674 -26.588118 -26.241543 47.731235 -0.729991 2.152894 0.093894 -0.009350 -310098.000000 0 0 1
30.007574 -27.888968 -26.775523 48.940553 -0.748822 2.149696 0.072542 0.001528 -277113.000000 0 0 1
28.971174 -28.532928 -27.678583 49.189032 -0.777777 2.168443 0.070640 -0.000453 -651537.000000 0 0 1
28.805374 -27.886248 -28.964853 49.460642 -0.769187 2.196434 0.059892 -0.002228 364536.000000 0 0 1
29.795874 -28.152578 -29.968663 50.778761 -0.757048 2.202079 0.032106 0.000263 -40827.900000 0 0 1
30.012374 -29.619618 -30.412463 51.990213 -0.778812 2.195633 0.044602 0.000833 -630939.000000 0 0 1
30.639974 -30.471038 -29.441563 52.288601 -0.782634 2.168879 0.052799 -0.006238 53462.300000 0 0 1
31.987374 -30.306798 -29.082233 52.796500 -0.758427 2.154162 0.058117 -0.008742 -104597.000000 0 0 1
33.090274 -30.145398 -30.148713 53.969030 -0.738862 2.163529 0.048660 -0.015704 -732607.000000 0 0 1
33.161674 -28.755258 -30.478423 53.436839 -0.714351 2.177745 0.057040 -0.023542 576867.000000 0 0 1
34.290974 -28.438128 -31.328983 54.461943 -0.692364 2.183700 0.054136 -0.020837 622627.000000 0 0 1
34.180574 -27.093078 -31.988083 54.088668 -0.670240 2.203591 0.037112 -0.017709 -15090.600000 0 0 1
34.169074 -25.942688 -31.109213 52.993696 -0.649392 2.198189 0.031460 -0.008392 -333169.000000 0 0 1
33.007174 -25.711308 -30.347793 51.686879 -0.661780 2.198326 0.046570 -0.009762 -261155.000000 0 0 1
32.781574 -24.347038 -29.637113 50.455608 -0.638816 2.198626 0.047750 -0.010290 153954.000000 0 0 1
33.794574 -24.003838 -28.676783 50.404517 -0.617597 2.176004 0.054118 0.000779 695719.000000 0 0 1
33.399574 -22.856638 -27.914673 49.164890 -0.600138 2.174599 0.046703 -0.000379 169153.000000 0 0 1
34.361174 -22.620038 -26.715293 49.051639 -0.582189 2.146751 0.040352 0.001738 -51929.800000 0 0 1
34.302274 -23.492038 -25.613013 48.831837 -0.600488 2.122941 0.041628 -0.007034 98479.600000 0 0 1
33.384274 -23.129138 -24.588403 47.476903 -0.605888 2.115193 0.073943 -0.007286 166651.000000 0 0 1
33.859974 -21.918038 -23.694303 46.779464 -0.574485 2.101930 0.062627 -0.001296 57978.800000 0 0 1
34.011574 -20.700538 -24.466703 46.732419 -0.546743 2.121807 0.062048 -0.011193 10311.700000 0 0 1
34.285174 -19.654038 -23.615803 46.037599 -0.520519 2.109435 0.040008 -0.015203 -105522.000000 0 0 1
34.334974 -18.245338 -24.340103 45.871815 -0.488445 2.130118 0.024944 -0.010160 311033.000000 0 0 1
33.102774 -17.958838 -24.993303 45.199322 -0.497080 2.156706 0.042870 -0.008412 481959.000000 0 0 1
33.271574 -16.898238 -25.917063 45.433933 -0.469938 2.177831 0.042367 -0.008585 78962.300000 0 0 1
32.192574 -16.812838 -27.012823 45.262854 -0.481295 2.210302 0.047584 -0.008560 1686740.000000 0 0 1
30.788674 -16.598738 -26.654853 43.976605 -0.494450 2.221963 0.066652 -0.007797 1580990.000000 0 0 1
30.072174 -16.192338 -27.785743 44.029252 -0.493932 2.253734 0.071757 -0.008422 142276.000000 0 0 1
28.634874 -15.793838 -27.331733 42.619537 -0.504040 2.266982 0.084250 -0.004735 520564.000000 0 0 1
27.731574 -16.776738 -26.863523 42.096888 -0.544065 2.262871 0.093890 0.003605 310087.000000 0 0 1
27.705074 -16.748838 -25.448563 41.179170 -0.543751 2.236987 0.114518 -0.003649 -238485.000000 0 0 1
26.900974 -17.879338 -24.844403 40.750184 -0.586595 2.226448 0.119119 -0.011431 -103908.000000 0 0 1
26.868574 -17.659238 -23.427103 39.781882 -0.581452 2.200480 0.125519 -0.006248 -278681.000000 0 0 1
26.124774 -18.632838 -22.777803 39.351173 -0.619547 2.188095 0.132701 -0.010827 -164711.000000 0 0 1
25.969674 -18.417638 -21.224103 38.263506 -0.616872 2.158778 0.124188 -0.022961 99752.200000 0 0 1
25.174674 -17.300338 -20.784403 36.946682 -0.602092 2.168265 0.122107 -0.018145 274593.000000 0 0 1
25.555774 -15.996738 -21.166303 36.837557 -0.559285 2.182893 0.121239 -0.016740 -47488.200000 0 0 1
26.861174 -15.412338 -20.563303 37.174081 -0.520915 2.156952 0.107386 -0.008540 130680.000000 0 0 1
26.708274 -14.541038 -19.496003 36.122954 -0.498564 2.140892 0.100800 -0.012088 77098.900000 0 0 1
27.695674 -13.547238 -19.541803 36.502878 -0.454927 2.135718 0.079110 -0.008274 -218139.000000 0 0 1
27.514774 -12.599938 -18.405603 35.420156 -0.429432 2.117222 0.081153 -0.010989 -249977.000000 0 0 1
27.848774 -13.204338 -17.155603 35.273552 -0.442750 2.078714 0.081127 -0.003194 297553.000000 0 0 1
27.667774 -12.227938 -16.155703 34.293366 -0.416144 2.061337 0.067226 -0.010952 29732.300000 0 0 1
28.257674 -12.487138 -14.741103 34.230467 -0.416100 2.016001 0.081421 -0.015730 -10195.200000 0 0 1
27.500474 -13.395238 -13.931903 33.612593 -0.453267 1.998173 0.107026 -0.018403 332446.000000 0 0 1
28.125874 -13.672938 -12.737603 33.767745 -0.452493 1.957581 0.122909 -0.021204 -401927.000000 0 0 1
27.584274 -14.964938 -12.115303 33.639592 -0.497080 1.939225 0.120478 -0.033120 -218024.000000 0 0 1
26.246474 -14.888938 -11.682803 32.358087 -0.516008 1.940187 0.100627 -0.027130 38792.400000 0 0 1
25.931674 -16.027938 -10.968403 32.398339 -0.553610 1.916170 0.076676 -0.022020 -853362.000000 0 0 1
24.462474 -16.034938 -10.596203 31.109667 -0.580226 1.918360 0.073342 -0.020971 -857266.000000 0 0 1
24.182974 -15.283738 -9.448803 30.127874 -0.563620 1.889803 0.056092 -0.020307 648508.000000 0 0 1
22.825574 -15.395538 -9.029303 28.975123 -0.593397 1.887697 0.070094 -0.022875 251801.000000 0 0 1
22.478974 -15.185438 -7.540303 28.155958 -0.594120 1.841910 0.063088 -0.018274 -372571.000000 0 0 1
22.803674 -13.886338 -7.088703 27.624041 -0.546976 1.830313 0.081787 -0.008417 315006.000000 0 0 1
22.599274 -13.598338 -5.733803 26.991082 -0.541680 1.784861 0.099217 -0.012430 -482452.000000 0 0 1
23.420274 -14.387438 -4.721803 27.889121 -0.550879 1.740922 0.078505 -0.010113 -689067.000000 0 0 1
24.795874 -14.111638 -4.763003 28.925074 -0.517398 1.736217 0.081560 -0.012408 -220867.000000 0 0 1
25.440074 -14.813038 -3.734203 29.674362 -0.527282 1.696970 0.085574 -0.022259 -1027400.000000 0 0 1
26.949374 -14.692038 -3.811903 30.929846 -0.499129 1.694354 0.101311 -0.025790 -914825.000000 0 0 1
27.313074 -13.368338 -3.440003 30.603106 -0.455171 1.683441 0.096404 -0.029717 110787.000000 0 0 1
28.653374 -13.084638 -3.784503 31.726110 -0.428372 1.690368 0.115481 -0.040684 -10031.700000 0 0 1
29.211774 -11.764338 -3.179903 31.651843 -0.382854 1.671431 0.143749 -0.046315 -722992.000000 0 0 1
29.683874 -11.990938 -1.858803 32.068211 -0.383911 1.628793 0.154651 -0.051342 265927.000000 0 0 1
30.139074 -10.766938 -1.294703 32.030720 -0.343112 1.611228 0.150961 -0.041789 46392.600000 0 0 1
31.671874 -10.614038 -1.481703 33.435922 -0.323362 1.615126 0.174662 -0.042346 -219951.000000 0 0 1
32.012674 -10.194838 -2.808303 33.713982 -0.308308 1.654191 0.177548 -0.048540 1089420.000000 0 0 1
33.242974 -10.765738 -3.320003 35.100126 -0.313191 1.665525 0.210323 -0.050460 898330.000000 0 0 1
33.560774 -10.641838 -4.826503 35.536874 -0.307062 1.707034 0.204123 -0.051201 90931.700000 0 0 1
32.465374 -11.212138 -5.510003 34.786099 -0.332532 1.729863 0.169463 -0.050418 400370.000000 0 0 1
32.664874 -11.210538 -6.927303 35.222971 -0.330603 1.768757 0.163537 -0.040400 23117.400000 0 0 1
31.316274 -11.463438 -7.627403 34.209600 -0.350904 1.795647 0.169070 -0.029616 157934.000000 0 0 1
30.966974 -12.881238 -7.583003 34.385778 -0.394195 1.793151 0.147960 -0.031221 -63478.300000 0 0 1
29.670774 -13.036238 -8.104903 33.406404 -0.413973 1.815857 0.144210 -0.027258 -137255.000000 0 0 1
29.255474 -14.544238 -8.287303 33.706038 -0.461362 1.819213 0.152624 -0.031726 65543.600000 0 0 1
29.788874 -15.290538 -9.381703 34.773466 -0.474228 1.843976 0.161028 -0.033916 157982.000000 0 0 1
29.791874 -16.721538 -9.175603 35.374529 -0.511461 1.833181 0.154222 -0.033075 -28960.300000 0 0 1
30.323274 -17.467138 -10.438503 36.517999 -0.522609 1.860685 0.137461 -0.037065 -316214.000000 0 0 1
31.655174 -17.221538 -10.802603 37.620841 -0.498252 1.862040 0.157124 -0.039504 115564.000000 0 0 1
32.004174 -17.679838 -12.103603 38.514167 -0.504701 1.890477 0.143282 -0.031601 -71256.200000 0 0 1
31.474374 -16.835438 -13.301603 38.092005 -0.491171 1.927510 0.128682 -0.028904 45898.700000 0 0 1
32.252374 -15.664538 -13.585803 38.342763 -0.452131 1.932989 0.120877 -0.025173 732775.000000 0 0 1
31.604374 -14.924638 -14.637303 37.892373 -0.441189 1.967398 0.108252 -0.023668 -268775.000000 0 0 1
32.443074 -13.766038 -15.303703 38.422132 -0.401289 1.980464 0.092530 -0.023945 1588540.000000 0 0 1
33.546874 -14.139038 -16.195503 39.844692 -0.398878 1.989379 0.059352 -0.017245 1306260.000000 0 0 1
34.735674 -14.638438 -15.657403 40.816727 -0.398838 1.964491 0.073389 -0.024111 -491219.000000 0 0 1
35.878374 -14.838238 -16.682403 42.257942 -0.392150 1.976620 0.063475 -0.019286 -27538.200000 0 0 1
37.131874 -15.191538 -16.143303 43.245406 -0.388347 1.953355 0.059575 -0.027115 144133.000000 0 0 1
-37.003892 -15.754238 -17.166503 43.728399 0.402502 1.974222 0.058126 -0.027011 -209072.000000 0 0 1
-35.487692 -15.887438 -16.925403 42.405852 0.420930 1.981363 0.074098 -0.025687 15811.400000 0 0 1
-35.028292 -16.697038 -15.857303 41.919284 0.444812 1.958736 0.070453 -0.031689 180572.000000 0 0 1
-35.416292 -16.235138 -14.568703 41.594958 0.429825 1.928636 0.069016 -0.028064 -516711.000000 0 0 1
-34.882592 -17.176538 -13.435603 41.138110 0.457557 1.903498 0.068845 -0.019679 -29477.200000 0 0 1
-33.475792 -17.245038 -13.408403 39.972556 0.475694 1.912869 0.111271 -0.024836 -4586.650000 0 0 1
-33.010592 -17.840738 -12.196903 39.455742 0.495485 1.885073 0.124185 -0.010429 80784.300000 0 0 1
-31.493292 -18.101838 -12.078503 38.280468 0.521672 1.891808 0.161254 -0.017728 318674.000000 0 0 1
-30.776092 -16.864838 -11.983003 37.083459 0.501295 1.899838 0.145222 -0.031453 359309.000000 0 0 1
-29.437792 -16.853838 -11.513203 35.821632 0.519971 1.898008 0.145649 -0.018942 431043.000000 0 0 1
-29.217392 -16.703738 -9.971703 35.101364 0.519355 1.858846 0.155611 -0.024672 -12969.400000 0 0 1
-29.752092 -17.835338 -9.275503 35.907119 0.540026 1.832078 0.167822 -0.025135 -157765.000000 0 0 1
-29.775092 -17.572838 -7.895703 35.464107 0.533172 1.795317 0.162433 -0.029421 69678.800000 0 0 1
-30.633192 -18.683438 -7.203303 36.597143 0.547673 1.768917 0.157206 -0.035983 794464.000000 0 0 1
-32.000492 -18.872438 -7.544803 37.909425 0.532852 1.771156 0.133579 -0.028638 257355.000000 0 0 1
-32.123892 -19.589838 -8.782803 38.637337 0.547610 1.800115 0.129519 -0.015719 -651128.000000 0 0 1
-33.532992 -20.168038 -8.971403 40.145951 0.541477 1.796169 0.109638 -0.018198 -285420.000000 0 0 1
-34.521992 -19.265438 -9.390803 40.633880 0.509012 1.804012 0.109288 -0.018645 -32618.800000 0 0 1
-35.765992 -19.939238 -9.380603 42.009227 0.508577 1.795994 0.095555 -0.024262 817187.000000 0 0 1
-37.026092 -19.141938 -9.910503 42.843475 0.477143 1.804229 0.097042 -0.043778 753946.000000 0 0 1
-37.072792 -19.067638 -11.332103 43.201658 0.475046 1.836209 0.086529 -0.044112 1109110.000000 0 0 1
36.613574 -18.412438 -11.646603 42.605341 -0.465953 1.847681 0.106022 -0.050768 960271.000000 0 0 1
36.154474 -18.513738 -13.075403 42.671661 -0.473259 1.882225 0.085070 -0.043777 -481241.000000 0 0 1
35.412574 -19.624338 -13.440303 42.659194 -0.506034 1.891319 0.050000 -0.029261 -309944.000000 0 0 1
34.881274 -19.301638 -14.693303 42.487053 -0.505413 1.923920 0.043566 -0.031522 716818.000000 0 0 1
33.609374 -20.160338 -15.129403 42.011047 -0.540304 1.939203 0.060029 -0.028414 936708.000000 0 0 1
32.395874 -19.929338 -14.425403 40.678784 -0.551508 1.933301 0.092778 -0.034847 629847.000000 0 0 1
31.214674 -20.518138 -14.946003 40.233480 -0.581506 1.951401 0.109632 -0.031548 525143.000000 0 0 1
30.637774 -19.870538 -16.224303 39.959223 -0.575365 1.988893 0.098860 -0.025796 -822071.000000 0 0 1
30.171474 -18.562938 -16.031503 38.883282 -0.551556 1.995771 0.083601 -0.025932 212518.000000 0 0 1
29.724274 -17.886238 -17.202903 38.721956 -0.541697 2.031153 0.071610 -0.024182 389409.000000 0 0 1
28.698674 -16.765838 -16.820803 37.251129 -0.528723 2.039300 0.082089 -0.008325 560774.000000 0 0 1
27.424074 -17.116738 -16.318003 36.212426 -0.557988 2.038255 0.089175 -0.024812 705387.000000 0 0 1
26.623574 -15.974838 -15.963803 34.912078 -0.540439 2.045705 0.076778 -0.014518 -715022.000000 0 0 1
25.235674 -16.300138 -15.388203 33.753971 -0.573499 2.044172 0.054308 -0.008130 675854.000000 0 0 1
24.185274 -16.748538 -16.291203 33.628029 -0.605681 2.076534 0.070596 -0.009409 910333.000000 0 0 1
23.875774 -15.808138 -17.325903 33.468444 -0.584834 2.114932 0.091717 -0.012962 -863871.000000 0 0 1
22.766074 -16.370938 -18.248203 33.455921 -0.623426 2.147711 0.084155 -0.018717 307883.000000 0 0 1
21.512174 -16.581738 -17.643503 32.388592 -0.656685 2.146881 0.073726 -0.010760 -25823.600000 0 0 1
20.659374 -17.404538 -18.436803 32.705403 -0.700096 2.169683 0.069200 -0.019720 985857.000000 0 0 1
19.207174 -17.631738 -17.906403 31.629622 -0.742659 2.172597 0.075828 -0.013125 849981.000000 0 0 1
18.394074 -16.474038 -17.827803 30.455976 -0.730388 2.196124 0.088472 -0.008520 -202542.000000 0 0 1
17.047074 -16.806338 -17.687403 29.764072 -0.778287 2.207133 0.094530 -0.017064 521427.000000 0 0 1
15.975474 -15.623438 -17.521103 28.395363 -0.774258 2.235773 0.103347 -0.011209 864450.000000 0 0 1
15.571474 -14.949138 -18.724703 28.575550 -0.765010 2.285336 0.095180 -0.003893 -106088.000000 0 0 1
14.399774 -14.281938 -18.320103 27.330449 -0.781290 2.305434 0.107175 -0.008588 209389.000000 0 0 1
13.507274 -13.701738 -19.455603 27.362466 -0.792545 2.361762 0.090682 -0.011253 507237.000000 0 0 1
14.121274 -12.611538 -20.100403 27.613176 -0.728983 2.386091 0.097180 -0.014809 58501.500000 0 0 1
13.225074 -12.197938 -21.091303 27.722470 -0.745018 2.435344 0.094842 -0.009809 262811.000000 0 0 1
13.634674 -10.780738 -21.578203 27.708257 -0.669035 2.463490 0.096767 -0.013486 -1283320.000000 0 0 1
14.908574 -10.618138 -22.016903 28.631354 -0.618878 2.448038 0.088364 -0.009501 -1691370.000000 0 0 1
15.103774 -9.225238 -22.293503 28.464527 -0.548316 2.470597 0.098435 -0.019241 594362.000000 0 0 1
16.411774 -8.858738 -23.083903 29.676424 -0.494962 2.462039 0.079003 -0.017058 629482.000000 0 0 1
16.481374 -9.490838 -24.367703 30.911109 -0.522475 2.478863 0.098221 -0.012665 51685.900000 0 0 1
17.778174 -9.323038 -24.904603 31.987838 -0.482984 2.463172 0.091366 -0.018437 -55112.700000 0 0 1
23.162174 5.166162 -7.451203 24.873600 0.219451 1.875031 0.221439 0.009404 -64803.700000 0 1 0
22.823474 6.517962 -7.403503 24.863762 0.278177 1.873145 0.179446 -0.001724 679163.000000 0 1 0
21.744474 6.741262 -6.512403 23.678644 0.300626 1.849420 0.146163 -0.003736 -72701.200000 0 1 0
21.336474 8.211762 -6.206603 23.689662 0.367395 1.835886 0.126096 -0.000772 -568594.000000 0 1 0
20.630674 8.838162 -7.260703 23.589312 0.404746 1.883672 0.103635 0.002440 514314.000000 0 1 0
20.321874 10.220062 -7.025603 23.807296 0.465972 1.870360 0.099522 0.002539 241541.000000 0 1 0
19.535574 10.676762 -5.730403 22.988463 0.500175 1.822726 0.101012 -0.004701 154520.000000 0 1 0
20.330074 10.918162 -4.532303 23.517227 0.492842 1.764732 0.112215 -0.002246 551178.000000 0 1 0
20.639074 12.292662 -4.478803 24.436460 0.537179 1.755122 0.153187 -0.012429 -233925.000000 0 1 0
21.516774 12.782762 -3.322403 25.246959 0.536058 1.702775 0.142225 -0.031086 -1829550.000000 0 0 1
22.818374 12.456262 -3.551703 26.238355 0.499680 1.706576 0.130721 -0.045243 -1386320.000000 0 0 1
23.567974 13.056462 -2.514203 27.059967 0.505903 1.663843 0.133571 -0.044492 110627.000000 0 0 1
24.546974 12.029662 -1.808103 27.395911 0.455670 1.636843 0.124096 -0.041702 120150.000000 0 0 1
25.837474 11.904562 -2.356303 28.545505 0.431756 1.653436 0.109820 -0.034023 342977.000000 0 0 1
26.611874 10.904962 -1.722503 28.811058 0.388907 1.630618 0.129341 -0.032225 5815.870000 0 0 1
28.063174 10.718562 -2.181003 30.119530 0.364845 1.643271 0.132150 -0.033769 -16183.100000 0 0 1
28.919774 11.784862 -1.840003 31.282934 0.386957 1.629648 0.122564 -0.045053 226694.000000 0 0 1
30.288774 11.482462 -2.014403 32.454809 0.362360 1.632904 0.114366 -0.036644 273526.000000 0 0 1
31.300474 12.546662 -1.534203 33.756365 0.381235 1.616261 0.104491 -0.036536 -401484.000000 0 0 1
31.200874 12.807962 -0.180403 33.727896 0.389525 1.576145 0.137737 -0.042564 828750.000000 0 0 1
32.151474 13.776862 0.306497 34.980182 0.404830 1.562034 0.125766 -0.044585 1408990.000000 0 0 1
33.661874 13.331062 0.505997 36.209046 0.377078 1.556822 0.134882 -0.049448 1016160.000000 0 0 1
34.632474 14.356162 0.579297 37.494576 0.392968 1.555346 0.127922 -0.052266 235914.000000 0 0 1
35.339274 14.501162 -0.656703 38.204440 0.389389 1.587986 0.135440 -0.041966 -312557.000000 0 0 1
34.763874 15.358562 -1.804703 38.048250 0.416011 1.618246 0.074450 -0.020693 462272.000000 0 0 1
33.534674 14.911562 -2.400903 36.778980 0.418405 1.636122 0.085499 -0.017976 1126260.000000 0 0 1
32.760874 16.011462 -2.987903 36.586464 0.454597 1.652554 0.057113 -0.001499 -158858.000000 0 0 1
31.474374 15.606262 -3.642403 35.319382 0.460314 1.674108 0.075334 -0.022862 -1324420.000000 0 0 1
31.644174 14.838562 -4.826903 35.282229 0.438475 1.708035 0.064449 -0.022004 484160.000000 0 0 1
30.465474 14.713762 -5.606803 34.293967 0.449927 1.735026 0.065475 -0.039167 1078550.000000 0 0 1
29.241874 13.864662 -5.030103 32.750847 0.442744 1.724994 0.094911 -0.039844 442235.000000 0 0 1
28.076874 14.084562 -5.790203 31.940761 0.464961 1.753084 0.113846 -0.045880 10288.900000 0 0 1
26.997174 13.358162 -5.250803 30.575461 0.459478 1.743384 0.111795 -0.026198 -170435.000000 0 0 1
25.910074 13.047262 -6.285103 29.682748 0.466491 1.784154 0.105774 -0.031459 -441669.000000 0 0 1
26.392174 12.098762 -7.245503 29.923640 0.429836 1.815360 0.093877 -0.020178 470729.000000 0 0 1
25.620074 11.960262 -8.436203 29.506026 0.436763 1.860757 0.105785 -0.015832 -112855.000000 0 0 1
25.423374 13.238162 -9.248203 30.118535 0.480077 1.882899 0.113786 -0.010264 -27723.500000 0 0 1
24.338074 13.936962 -8.658703 29.352238 0.520059 1.870244 0.098829 -0.017720 267167.000000 0 0 1
24.236574 15.250762 -9.176603 30.070040 0.561647 1.880918 0.101683 -0.031724 -881334.000000 0 0 1
23.239374 16.119062 -8.423603 29.510164 0.606424 1.860270 0.092319 -0.018257 581237.000000 0 0 1
21.836674 15.966462 -8.647103 28.399659 0.631345 1.880188 0.109470 -0.023325 1143210.000000 0 0 1
21.279974 14.726862 -8.112803 27.120755 0.605372 1.874584 0.114544 -0.025575 -319689.000000 0 0 1
19.758374 14.555262 -8.407403 25.940960 0.634911 1.900854 0.122135 -0.009246 6562.200000 0 0 1
19.032474 15.157862 -7.369703 25.422596 0.672555 1.864906 0.167033 -0.040340 -712587.000000 0 0 1
17.681474 15.038862 -7.705903 24.457777 0.704809 1.891326 0.177580 -0.027787 -1165210.000000 0 1 0
16.783574 15.412562 -6.575303 23.716451 0.742841 1.851723 0.160578 -0.011302 -774588.000000 0 1 0
16.801074 14.447462 -5.539203 22.840491 0.710221 1.815756 0.130263 -0.014228 335854.000000 0 1 0
16.022574 14.850862 -4.439903 22.293132 0.747464 1.771297 0.093220 -0.003527 -179351.000000 0 1 0
15.748474 13.766062 -3.448803 21.199367 0.718332 1.734207 0.076206 0.004220 -838873.000000 0 1 0
16.906274 13.375362 -2.783803 21.736421 0.669320 1.699220 0.072210 0.002347 -26797.500000 0 1 0
16.664574 12.490462 -1.729003 20.897587 0.643195 1.653628 0.064764 -0.007000 -83050.100000 0 1 0
16.683174 13.186762 -0.396603 21.269139 0.668874 1.589444 0.073254 -0.012413 -93646.800000 0 1 0
15.609374 14.075662 -0.159803 21.019095 0.733778 1.578399 0.071971 -0.013991 416107.000000 0 1 0
15.801074 14.723462 1.100297 21.625562 0.750110 1.519895 0.079333 -0.015587 354970.000000 0 1 0
14.678174 15.800462 1.419797 21.612941 0.822204 1.505057 0.083958 -0.007072 560208.000000 0 1 0
14.693274 16.878462 0.566497 22.385167 0.854501 1.545487 0.091481 -0.012310 125072.000000 0 1 0
13.590474 17.641562 0.980297 22.290955 0.914387 1.526805 0.067511 -0.020391 -228721.000000 0 1 0
13.573574 19.077662 0.267897 23.415185 0.952400 1.559355 0.060299 -0.018117 -77352.300000 0 1 0
13.136474 19.101062 -1.104203 23.208550 0.968349 1.618392 0.055502 -0.020576 -7308.960000 0 1 0
12.575174 20.319862 -1.490403 23.942704 1.016624 1.633085 0.058134 -0.027335 553464.000000 0 1 0
11.021074 20.372862 -1.358703 23.202665 1.074914 1.629388 0.046041 -0.026844 322476.000000 0 1 0
10.520974 20.452362 -0.076803 22.999911 1.095684 1.574136 0.037350 -0.030494 255142.000000 0 1 0
9.103574 20.629862 -0.063403 22.549286 1.155216 1.573608 0.035812 -0.021146 725488.000000 0 1 0
8.406074 20.697562 1.305397 22.377561 1.185009 1.512428 0.031965 -0.023236 46799.200000 0 1 0
8.588274 21.926262 1.953397 23.629117 1.197475 1.488033 0.037483 -0.021351 227110.000000 0 1 0
7.574874 22.131962 2.930997 23.575267 1.241034 1.446149 0.038386 -0.014648 347100.000000 0 1 0
7.565074 23.577762 3.472297 25.003961 1.260317 1.431476 0.044255 -0.009345 132124.000000 0 0 1
7.988974 23.629662 4.840997 25.409051 1.244770 1.379102 0.049626 -0.016605 188035.000000 0 0 1
7.689374 24.905062 5.409497 26.620504 1.271334 1.366163 0.045343 -0.008627 72128.900000 0 0 1
8.130074 24.968562 6.901697 27.150702 1.256011 1.313776 0.058198 -0.015020 296197.000000 0 0 1
7.222074 24.365062 7.802497 26.583709 1.282635 1.272903 0.056416 -0.017046 129385.000000 0 0 1
7.807074 24.444762 9.087497 27.222774 1.261659 1.230444 0.065372 -0.025028 155644.000000 0 0 1
7.229674 23.501062 10.174597 26.609970 1.272353 1.178447 0.067800 -0.022138 -561756.000000 0 0 1
6.028274 23.953762 10.714497 26.924399 1.324253 1.161518 0.066814 -0.017709 -399161.000000 0 0 1
5.504074 22.877162 11.520297 26.198790 1.334691 1.115502 0.064907 -0.016322 -150865.000000 0 0 1
4.125774 23.112262 12.162397 26.440926 1.394147 1.092819 0.055109 -0.027944 -349740.000000 0 0 1
3.127074 23.214362 11.185597 25.957711 1.436898 1.125289 0.046769 -0.024039 -22001.100000 0 0 1
1.842474 23.128862 11.811197 26.035425 1.491303 1.099930 0.061972 -0.033311 -98259.400000 0 0 1
0.725674 23.453462 10.846597 25.850341 1.539865 1.137801 0.069247 -0.026483 -792819.000000 0 0 1
0.801774 24.825962 10.446197 26.946136 1.538512 1.172694 0.073728 -0.023637 101281.000000 0 0 1
-0.122726 25.230362 9.456597 26.944637 -1.565932 1.212196 0.076351 -0.021380 103945.000000 0 0 1
-1.478326 25.771162 9.933397 27.658825 -1.513496 1.203450 0.096558 -0.040276 -13463.400000 0 0 1
-2.342426 24.838962 10.557497 27.090990 -1.476770 1.170485 0.094213 -0.043203 -337357.000000 0 0 1
-3.656626 25.230162 10.292897 27.493194 -1.426868 1.187068 0.108626 -0.048909 -56606.100000 0 0 1
-4.841226 24.324762 10.854197 27.072959 -1.374339 1.158271 0.098707 -0.051333 917700.000000 0 0 1
-5.252826 24.555662 12.227597 27.930035 -1.360057 1.117653 0.092254 -0.037709 -60687.600000 0 0 1
-6.180226 25.595362 12.328697 29.074293 -1.333872 1.132893 0.094264 -0.038333 -691561.000000 0 0 1
-6.793726 25.664962 13.700297 29.875460 -1.312023 1.094399 0.085952 -0.029614 -274990.000000 0 0 1
-7.803526 24.717662 13.934997 29.428591 -1.264993 1.077515 0.055921 -0.025805 -198629.000000 0 0 1
-8.178426 24.674362 15.272897 30.149165 -1.250738 1.039585 0.056365 -0.012198 -558665.000000 0 0 1
-9.426926 23.914762 15.680497 30.110808 -1.195310 1.023056 0.040248 -0.017096 -615948.000000 0 0 1
-10.601526 24.582062 15.291897 30.830378 -1.163626 1.051809 0.029174 -0.009204 -1139270.000000 0 0 1
-11.659226 23.699862 15.385897 30.567087 -1.113607 1.043327 0.020152 -0.009335 -662576.000000 0 0 1
-13.012026 24.405562 15.186397 31.552669 -1.080975 1.068656 0.015447 -0.014132 -163163.000000 0 0 1
-13.580826 25.133162 16.280497 32.881138 -1.075388 1.052810 0.011256 -0.017731 334642.000000 0 0 1
-14.482526 26.111162 15.728597 33.747964 -1.064391 1.085963 0.008658 -0.015023 -236301.000000 0 0 1
-15.196926 26.899662 16.779197 35.157927 -1.056549 1.073271 0.017038 -0.013890 120228.000000 0 0 1
-16.282926 26.181862 17.399997 35.403156 -1.014418 1.057006 0.018514 -0.020823 444387.000000 0 0 1
-16.717726 26.840562 18.553397 36.662333 -1.013742 1.040184 0.047140 -0.024797 -784395.000000 0 0 1
-18.027426 26.315762 19.113897 37.186671 -0.970179 1.030956 0.041271 -0.036643 -603085.000000 0 0 1
-19.094326 26.664962 18.273197 37.543617 -0.949358 1.062466 0.035913 -0.027745 -264098.000000 0 0 1
-20.319026 26.129162 18.731197 38.032271 -0.909840 1.055827 0.047677 -0.020144 275579.000000 0 0 1
-21.514126 26.240762 17.747497 38.293718 -0.884054 1.088904 0.048905 -0.021808 -21992.500000 0 0 1
-22.028026 27.536362 17.681697 39.447783 -0.896079 1.106012 0.040240 -0.027077 -238351.000000 0 0 1
-22.971326 27.685962 16.681397 39.654297 -0.878200 1.136612 0.042891 -0.028248 -641822.000000 0 0 1
-23.852226 28.947762 16.775597 41.089199 -0.881607 1.150235 0.052524 -0.031153 273995.000000 0 0 1
-25.109836 28.782562 17.413997 41.978411 -0.853442 1.143038 0.056379 -0.026267 455176.000000 0 0 1
-25.917996 29.954762 17.273597 43.213510 -0.857522 1.159578 0.058354 -0.027410 -56999.000000 0 0 1
-27.315606 29.783562 17.873197 44.188845 -0.828594 1.154394 0.070914 -0.022842 176314.000000 0 0 1
-28.266856 29.057562 17.020897 43.966669 -0.799191 1.173277 0.099249 -0.019801 876522.000000 0 0 1
-29.513596 28.856662 17.679897 44.903653 -0.774144 1.166111 0.123735 -0.027298 285614.000000 0 0 1
-29.587006 27.660162 18.673797 44.600293 -0.751753 1.138792 0.109953 -0.029264 -662226.000000 0 0 1
-29.561256 26.400562 17.986797 43.524503 -0.728979 1.144769 0.110869 -0.027021 132116.000000 0 0 1
-29.913226 25.385962 18.935997 43.563977 -0.703712 1.121123 0.104354 -0.023150 -58329.600000 0 0 1
-29.900986 23.961262 18.285897 42.456861 -0.675566 1.125535 0.099921 -0.025508 -431540.000000 0 0 1
-30.995096 23.732562 17.453497 42.761607 -0.653466 1.150361 0.119840 -0.029189 -338180.000000 0 0 1
-30.801886 22.608962 16.588697 41.654606 -0.633190 1.161195 0.127465 -0.026580 -394049.000000 0 0 1
-31.458166 21.260362 16.993697 41.598136 -0.594319 1.149964 0.116394 -0.015450 30995.100000 0 0 1
-32.839366 21.179862 16.704297 42.497577 -0.572819 1.166834 0.121896 -0.017100 -46667.300000 0 0 1
-33.229556 19.827562 16.680897 42.137725 -0.537978 1.163786 0.108863 -0.018091 -37346.300000 0 0 1
-34.663429 19.655562 16.141897 42.993665 -0.515832 1.185916 0.108314 -0.029148 -80113.400000 0 0 1
-34.717100 19.887862 14.776197 42.651378 -0.520221 1.217022 0.093266 -0.027512 118882.000000 0 0 1
-35.809639 19.205462 14.187997 43.040437 -0.492280 1.234870 0.113936 -0.035053 -51425.200000 0 0 1
-36.108996 19.701362 12.736497 43.060673 -0.499465 1.270524 0.116097 -0.032840 60614.100000 0 0 1
-36.463876 21.099862 12.593997 43.970754 -0.524574 1.280311 0.115883 -0.038634 3117.100000 0 0 1
-36.759556 21.423962 11.245897 44.008196 -0.527686 1.312389 0.072706 -0.033671 -596213.000000 0 0 1
-35.693538 21.265262 10.182497 42.777602 -0.537306 1.330456 0.093925 -0.038419 -696077.000000 0 0 1
-35.452670 19.937062 9.849997 41.849739 -0.512281 1.333201 0.099953 -0.026342 195582.000000 0 0 1
-34.174469 19.834362 9.238097 40.578796 -0.525872 1.341124 0.120629 -0.023705 -139870.000000 0 0 1
-33.391756 18.669662 9.809197 39.494126 -0.509810 1.319798 0.098420 -0.034242 -580136.000000 0 0 1
-33.064756 18.929062 11.152597 39.698462 -0.519942 1.286030 0.120445 -0.041342 78721.500000 0 0 1
-32.550366 17.797262 11.819897 38.935572 -0.500353 1.262353 0.139591 -0.048118 -176054.000000 0 0 1
-31.990866 18.067862 13.219997 39.046529 -0.514121 1.225399 0.110648 -0.028021 194296.000000 0 0 1
-30.815176 18.863462 13.297397 38.499689 -0.549304 1.218142 0.137917 -0.025410 182523.000000 0 0 1
-31.049176 20.255662 13.078897 39.311585 -0.578042 1.231633 0.136029 -0.019639 -520644.000000 0 0 1
-29.749536 21.056162 13.072997 38.720796 -0.615929 1.226407 0.135339 -0.032004 65827.000000 0 0 1
-29.128206 21.053962 14.375697 38.708944 -0.625867 1.190302 0.112831 -0.018287 340239.000000 0 0 1
-27.955966 21.868362 14.460797 38.325917 -0.663819 1.183905 0.134258 -0.022014 -39130.500000 0 0 1
-27.168656 21.734462 15.756097 38.193943 -0.674731 1.145568 0.104213 -0.023159 -471384.000000 0 0 1
-26.299446 20.618262 15.757197 36.946757 -0.664897 1.130194 0.132110 -0.034346 6277.430000 0 0 1
-26.070666 20.217062 17.079797 37.150083 -0.659605 1.093081 0.107351 -0.021747 88832.400000 0 0 1
-24.946526 19.164862 17.280297 35.891918 -0.655071 1.068484 0.128144 -0.034065 181442.000000 0 0 1
-24.609126 19.144662 18.662497 36.337528 -0.661150 1.031436 0.116128 -0.031225 295301.000000 0 0 1
-23.540026 18.229862 18.875897 35.252804 -0.658947 1.005763 0.108123 -0.024700 144725.000000 0 0 1
-23.011826 18.273662 20.299997 35.714993 -0.671132 0.966250 0.092332 -0.022645 3702.470000 0 0 1
-23.931226 17.723262 21.229697 36.572088 -0.637452 0.951467 0.099075 -0.011527 95978.600000 0 0 1
-23.695826 18.186462 22.513597 37.404567 -0.654605 0.924925 0.113503 -0.016685 497.558000 0 0 1
-24.107526 17.183462 23.656197 37.895380 -0.619254 0.896625 0.140731 -0.023819 517936.000000 0 0 1
-23.242226 16.011262 23.802297 36.920332 -0.603228 0.870174 0.122687 -0.021180 757585.000000 0 0 1
-23.815626 15.090862 24.716597 37.494377 -0.564798 0.851031 0.134895 -0.019300 174644.000000 0 0 1
21.130674 24.721062 33.331203 46.568288 0.863543 0.773100 0.132413 -0.040272 6742.960000 0 0 1
22.251974 23.953462 32.914196 46.392489 0.822206 0.782047 0.143315 -0.053933 42644.800000 0 0 1
22.240174 22.584062 33.354343 46.012796 0.793070 0.759918 0.153908 -0.056239 160226.000000 0 0 1
21.215574 21.572762 32.746602 44.585027 0.793746 0.745903 0.151301 -0.060979 176729.000000 0 0 1
21.440374 21.177062 31.377306 43.505091 0.779220 0.765216 0.162272 -0.055965 459696.000000 0 0 1
20.476174 20.174462 31.010626 42.284058 0.777976 0.747504 0.153475 -0.054274 353553.000000 0 0 1
20.766074 19.458562 29.639896 41.090010 0.752904 0.765060 0.136785 -0.038801 67736.300000 0 0 1
22.003874 18.766162 29.607996 41.388075 0.706150 0.773636 0.150756 -0.043924 84438.700000 0 0 1
22.231274 18.137062 28.355926 40.339077 0.684322 0.791275 0.127058 -0.040317 62423.400000 0 0 1
23.395374 17.093462 28.411126 40.579824 0.630991 0.795218 0.127145 -0.036592 -347426.000000 0 0 1
24.616874 17.694562 28.645406 41.709080 0.623231 0.813732 0.138725 -0.036744 -1186700.000000 0 0 1
25.600074 16.732362 28.963886 42.121757 0.578906 0.812586 0.116674 -0.025207 647447.000000 0 0 1
26.977274 17.431962 29.260246 43.448920 0.573680 0.831944 0.100774 -0.032794 779283.000000 0 0 1
27.838874 17.461862 28.102316 43.239562 0.560214 0.863315 0.080143 -0.009240 153029.000000 0 0 1
29.113274 17.917562 28.472986 44.489692 0.551697 0.876310 0.086497 0.002094 -198248.000000 0 0 1
30.225174 17.808462 27.426746 44.530090 0.532435 0.907250 0.069239 0.021442 -44881.800000 0 0 1
30.151774 18.736362 26.322136 44.193162 0.556008 0.932765 0.086671 0.010506 -535791.000000 0 0 1
31.288074 18.612462 25.546316 44.474505 0.536642 0.958921 0.083453 0.005852 -618946.000000 0 0 1
31.449474 19.785962 24.650496 44.589244 0.561567 0.985034 0.100095 -0.006863 136898.000000 0 0 1
30.773774 19.764662 23.374546 43.405489 0.570912 1.002122 0.098830 -0.012914 327141.000000 0 0 1
31.021974 20.918162 22.549916 43.685594 0.593270 1.028404 0.103137 -0.022524 74707.000000 0 0 1
31.581374 20.530262 21.104516 43.177256 0.576428 1.060097 0.104573 -0.014854 28635.600000 0 0 1
30.615274 19.834862 20.341816 41.767287 0.574880 1.062113 0.103551 -0.027102 -113609.000000 0 0 1
31.059874 19.313562 19.121316 41.271712 0.556307 1.089077 0.116839 -0.031347 994073.000000 0 0 1
32.260274 18.225362 19.215416 41.738727 0.514247 1.092380 0.145298 -0.045882 1179980.000000 0 0 1
31.810674 16.939462 19.694116 41.069728 0.489315 1.070679 0.147170 -0.040827 66395.800000 0 0 1
32.789274 15.934862 19.772316 41.472893 0.452367 1.073839 0.137578 -0.035415 -840653.000000 0 0 1
32.278974 14.466862 19.740116 40.507956 0.421341 1.061785 0.142523 -0.030202 569297.000000 0 0 1
31.390174 13.898062 20.725216 40.100296 0.416810 1.027647 0.109439 -0.041648 2595230.000000 0 0 1
30.046474 14.480462 20.896116 39.358888 0.449092 1.011120 0.113710 -0.021751 1236550.000000 0 0 1
29.318474 14.049962 22.164416 39.347627 0.446885 0.972425 0.073207 -0.015754 -143488.000000 0 0 1
28.849174 12.662062 22.040816 38.449971 0.413590 0.960350 0.077187 -0.015265 188510.000000 0 0 1
28.147174 12.254562 23.192446 38.475021 0.410625 0.923800 0.061751 0.000246 -170697.000000 0 0 1
27.521374 10.832562 22.979656 37.454440 0.374982 0.910265 0.083664 -0.012228 229572.000000 0 0 1
26.280774 10.874162 22.298016 36.140393 0.392319 0.905893 0.059292 -0.012061 21846.000000 0 0 1
25.832974 9.614162 21.871016 35.186873 0.356284 0.900054 0.065111 -0.005978 -200919.000000 0 0 1
24.448574 9.620662 21.189116 33.753053 0.374896 0.892113 0.064585 -0.006927 -41658.100000 0 0 1
23.378974 9.641062 22.118816 33.597151 0.391135 0.852167 0.038350 -0.003915 -309493.000000 0 0 1
22.204174 9.295562 21.439816 32.235052 0.396472 0.843157 0.018213 0.008470 -482457.000000 0 0 1
20.995174 9.139262 22.388016 32.024158 0.410565 0.796661 0.025936 -0.003843 -222109.000000 0 0 1
21.021874 8.105662 23.324586 32.429266 0.368016 0.768081 0.051435 0.001500 -461562.000000 0 0 1
19.790174 7.928962 23.951136 32.065189 0.381068 0.727331 0.050905 0.001679 -405791.000000 0 0 1
19.706274 6.899262 25.078766 32.632523 0.336768 0.694271 0.078426 -0.007280 -89593.600000 0 0 1
19.724274 5.591662 24.617026 32.036099 0.276243 0.694435 0.075786 -0.014583 155725.000000 0 0 1
19.680474 4.729962 25.756936 32.758409 0.235864 0.666048 0.111009 -0.038909 -89416.200000 0 0 1
20.209774 3.291462 25.471176 32.681027 0.161447 0.677109 0.102854 -0.039014 -1455380.000000 0 0 1
21.552874 3.278262 25.268416 33.373137 0.150946 0.711860 0.115039 -0.025997 -1711890.000000 0 0 1
22.122474 2.023262 25.101176 33.519644 0.091204 0.724472 0.094834 -0.025231 -740731.000000 0 0 1
23.605074 2.102462 24.805206 34.306241 0.088834 0.762586 0.097891 -0.016139 -540091.000000 0 0 1
24.363574 2.704562 25.850226 35.624887 0.110556 0.758857 0.108251 -0.022050 1042120.000000 0 0 1
25.783674 2.524862 25.735726 36.517125 0.097614 0.788715 0.108635 -0.020279 1203800.000000 0 0 1
26.697474 3.257662 26.750826 37.933813 0.121421 0.788095 0.084450 -0.017527 -628470.000000 0 0 1
26.780574 2.636162 27.965426 38.809968 0.098120 0.766168 0.063658 -0.006215 -78459.300000 0 0 1
27.556474 3.294062 28.904276 40.070779 0.118974 0.765075 0.063287 0.003543 962048.000000 0 0 1
29.121974 3.415262 28.714896 41.040208 0.116741 0.795851 0.076060 0.004940 219792.000000 0 0 1
29.477274 4.382662 27.760696 40.728045 0.147598 0.820834 0.065924 -0.001811 306803.000000 0 0 1
30.807574 4.241662 27.273766 41.363712 0.136822 0.850823 0.049765 0.000964 176130.000000 0 0 1
30.984274 3.060462 26.249216 40.723618 0.098455 0.870336 0.059522 0.007089 -624211.000000 0 0 1
30.535474 3.383462 24.997616 39.607371 0.110354 0.887780 0.059131 0.008521 57066.500000 0 0 1
30.751174 2.291262 24.125686 39.152693 0.074372 0.906894 0.068165 0.011522 -97270.900000 0 0 1
30.384774 2.769362 22.671716 38.011980 0.090892 0.931743 0.072316 0.014250 402048.000000 0 0 1
31.292174 3.716462 22.108816 38.494312 0.118213 0.958999 0.090202 0.003718 810207.000000 0 0 1
32.558474 3.181162 21.653616 39.230768 0.097397 0.986089 0.079037 0.001178 838571.000000 0 0 1
33.453974 4.344762 21.180216 39.832737 0.129150 1.010156 0.082790 -0.004799 -629560.000000 0 0 1
32.940074 4.949262 20.027516 38.867018 0.149135 1.029458 0.088917 -0.010294 -252426.000000 0 0 1
33.446074 6.219262 19.721316 39.322378 0.183849 1.045431 0.110538 -0.014622 -254756.000000 0 0 1
34.956774 6.459862 19.506416 40.548812 0.182734 1.068933 0.080135 -0.011589 84162.700000 0 0 1
35.780574 6.322462 20.695116 41.815199 0.174896 1.053055 0.074976 -0.015943 405540.000000 0 0 1
35.776174 7.510762 21.493016 42.406320 0.206932 1.039287 0.095742 -0.027840 -47858.500000 0 0 1
36.567274 7.353662 22.837226 43.735350 0.198453 1.021405 0.093957 -0.025565 180694.000000 0 0 1
35.996774 6.299562 23.521536 43.459348 0.173249 0.998896 0.084206 -0.014304 -384678.000000 0 0 1
36.655674 6.027262 24.696386 44.608047 0.162971 0.984078 0.089416 -0.013869 -70566.500000 0 0 1
35.896174 5.038162 25.661256 44.411918 0.139443 0.954764 0.085725 -0.010001 260044.000000 0 0 1
35.880374 3.726662 25.208146 44.008407 0.103492 0.960875 0.081605 -0.009392 -194858.000000 0 0 1
35.061574 2.936862 26.012586 43.756072 0.083568 0.934164 0.075193 0.000502 -199036.000000 0 0 1
35.050874 1.467762 25.690706 43.482531 0.041851 0.938711 0.058135 0.010757 147142.000000 0 0 1
34.217874 1.163462 24.574826 42.144260 0.033988 0.948242 0.059177 0.008839 268452.000000 0 0 1
34.450574 -0.179438 24.287646 42.151679 -0.005209 0.956729 0.058907 0.002593 -399233.000000 0 0 1
33.583574 -0.740638 23.208856 40.829597 -0.022050 0.966197 0.076771 0.013988 -368435.000000 0 0 1
32.265674 -1.100238 23.556476 39.964883 -0.034086 0.940444 0.070429 0.017168 -332558.000000 0 0 1
31.648974 -1.886638 22.597916 38.934340 -0.059541 0.951563 0.073696 0.007065 -728404.000000 0 0 1
30.136674 -1.930138 22.745616 37.806185 -0.063959 0.925247 0.085943 0.018067 -603749.000000 0 0 1
29.561874 -0.671338 22.427816 37.112829 -0.022706 0.921891 0.071523 0.014944 -134179.000000 0 0 1
28.178874 -0.869838 22.227416 35.900747 -0.030859 0.903155 0.079282 0.018489 -167576.000000 0 0 1
27.200474 0.252362 22.494716 35.297900 0.009278 0.879830 0.091710 0.006234 -194867.000000 0 0 1
27.248674 1.257762 21.481016 34.720401 0.046126 0.903728 0.081969 0.003255 -195977.000000 0 0 1
26.105074 2.041562 21.617116 33.955008 0.078047 0.880663 0.101594 -0.000365 -377372.000000 0 0 1
25.968374 3.194862 20.624916 33.315924 0.122414 0.903237 0.089072 -0.003151 22705.400000 0 0 1
25.529774 2.788762 19.290216 32.119449 0.108804 0.926573 0.087539 -0.002810 451333.000000 0 0 1
24.961674 3.895662 18.609416 31.377886 0.154817 0.935925 0.092493 -0.011955 158976.000000 0 0 1
24.557474 3.723062 17.112616 30.162433 0.150460 0.967514 0.104323 -0.016656 466887.000000 0 0 1
25.729374 3.603462 16.289116 30.664653 0.139147 1.010778 0.101750 -0.016789 737301.000000 0 0 1
25.511174 3.944962 14.925916 29.818882 0.153421 1.046559 0.092415 -0.019037 -622325.000000 0 0 1
25.004974 2.724662 14.082016 28.826649 0.108537 1.060419 0.088544 -0.014420 -516219.000000 0 0 1
23.663574 2.424862 14.296716 27.753212 0.102116 1.029628 0.119193 -0.012730 -387905.000000 0 0 1
23.317774 1.306362 13.444216 26.947581 0.055966 1.048464 0.111364 -0.011072 -17161.400000 0 0 1
21.882474 0.786762 13.699816 25.829182 0.035938 1.011723 0.156849 -0.018724 52815.300000 0 0 1
20.729674 1.468262 13.252116 24.647389 0.070711 1.003127 0.183228 -0.025141 685929.000000 0 1 0
20.390074 1.372562 11.867416 23.632068 0.067214 1.044685 0.166267 -0.019301 -553641.000000 0 1 0
19.990174 -0.016338 11.209716 22.918662 -0.000817 1.059729 0.154291 -0.012096 394979.000000 0 1 0
21.090674 -0.936438 11.110216 23.856453 -0.044371 1.086358 0.161971 -0.031666 411874.000000 0 1 0
22.052474 -0.596538 10.158616 24.287136 -0.027044 1.139255 0.147195 -0.036796 -320908.000000 0 1 0
23.338274 -1.464038 10.349816 25.572195 -0.062649 1.154114 0.175418 -0.047318 248078.000000 0 0 1
24.062874 -1.151838 11.530716 26.707790 -0.047831 1.124380 0.159620 -0.043451 148466.000000 0 0 1
25.109474 -2.104238 11.657916 27.763655 -0.083607 1.137463 0.108468 -0.035984 -66933.600000 0 0 1
25.721274 -2.097438 13.040516 28.914326 -0.081365 1.102905 0.113978 -0.025623 -285791.000000 0 0 1
26.436274 -0.918638 13.297616 29.606538 -0.034735 1.104989 0.092877 -0.021771 -63268.900000 0 0 1
26.599674 -0.796338 14.700716 30.402103 -0.029929 1.066099 0.084036 -0.010160 -175656.000000 0 0 1
27.772274 0.063062 15.217316 31.668121 0.002271 1.069543 0.113164 -0.009075 65923.800000 0 0 1
29.022974 -0.546038 14.987816 32.669035 -0.018812 1.094178 0.116228 -0.005359 14584.300000 0 0 1
30.102974 0.372362 15.072816 33.667752 0.012369 1.106613 0.099684 -0.007883 305516.000000 0 0 1
31.431674 -0.356738 15.409716 35.007667 -0.011349 1.114996 0.096878 -0.009207 65056.900000 0 0 1
31.910174 -1.207238 14.388116 35.024770 -0.037814 1.147467 0.129534 -0.012090 323991.000000 0 0 1
33.273874 -1.536138 14.601816 36.369266 -0.046134 1.157656 0.111070 -0.015038 205808.000000 0 0 1
33.823674 -2.292938 13.385616 36.448227 -0.067687 1.194745 0.114099 -0.021706 -333681.000000 0 0 1
34.109074 -1.479038 12.272616 36.279934 -0.043335 1.225712 0.124030 -0.019534 -27151.400000 0 0 1
34.782974 -2.284538 11.371116 36.665743 -0.065586 1.255467 0.126481 -0.022552 -163417.000000 0 0 1
34.950474 -1.612438 9.996216 36.387635 -0.046102 1.292503 0.189300 -0.022640 -11408.100000 0 0 1
35.594974 -0.325938 9.863616 36.937777 -0.009157 1.300483 0.143686 -0.012382 863025.000000 0 0 1
34.648574 0.749062 9.857116 36.031202 0.021615 1.293692 0.169900 -0.025634 -148004.000000 0 0 1
35.203574 2.058062 9.354316 36.483291 0.058395 1.311500 0.177404 -0.031237 -287066.000000 0 0 1
35.470674 2.078062 7.960916 36.412405 0.058518 1.350384 0.158914 -0.026149 366960.000000 0 0 1
35.638774 3.425462 7.480316 36.576101 0.095822 1.364829 0.164626 -0.023082 -116484.000000 0 0 1
36.030874 3.500162 6.010216 36.696018 0.096840 1.406271 0.150624 -0.021165 -147621.000000 0 0 1
36.372274 4.862962 5.676216 37.132333 0.132911 1.417330 0.135546 -0.007334 122190.000000 0 0 1
36.902674 4.871862 4.400616 37.482100 0.131260 1.453119 0.145240 -0.012857 -291519.000000 0 0 1
37.148274 6.195262 3.808216 37.853376 0.165250 1.470021 0.144280 -0.029199 -10842.400000 0 0 1
35.958074 6.920462 3.608116 36.795304 0.190134 1.472579 0.165038 -0.038806 -76311.600000 0 0 1
36.301774 8.229562 3.185816 37.358987 0.222931 1.485417 0.151489 -0.041855 -556445.000000 0 0 1
35.210574 9.344262 3.160816 36.566249 0.259403 1.484248 0.188691 -0.047275 274314.000000 0 0 1
34.217274 9.318562 2.153516 35.528792 0.265887 1.510146 0.204102 -0.051273 325190.000000 0 0 1
33.227674 8.329762 2.419616 34.341197 0.245626 1.500280 0.229283 -0.043933 34908.500000 0 0 1
31.939174 8.308762 1.525516 33.037457 0.254502 1.524605 0.231143 -0.048926 615637.000000 0 0 1
32.230374 7.928862 0.217316 33.192034 0.241216 1.564249 0.222114 -0.036671 533533.000000 0 0 1
31.037874 7.732862 -0.536684 31.991168 0.244172 1.587573 0.194121 -0.031594 222946.000000 0 0 1
31.395974 7.459762 -1.995984 32.331706 0.233277 1.632570 0.150912 -0.025829 -589976.000000 0 0 1
30.353074 6.926662 -2.759384 31.255431 0.224361 1.659196 0.169371 -0.022166 120934.000000 0 0 1
30.638674 6.720062 -4.102284 31.634101 0.215914 1.700842 0.150015 -0.023718 -302809.000000 0 0 1
29.514574 5.927062 -4.797684 30.483732 0.198182 1.728838 0.161029 -0.012527 -217390.000000 0 0 1
29.561874 4.528462 -4.637084 30.264070 0.152004 1.724623 0.169680 -0.016451 744963.000000 0 0 1
28.439874 3.847262 -5.187784 29.164036 0.134461 1.749631 0.155179 -0.019785 1233.530000 0 0 1
28.243274 2.294262 -4.883784 28.754087 0.081054 1.741470 0.178131 -0.015105 -221643.000000 0 0 1
27.805074 2.047062 -3.549984 28.105427 0.073489 1.697444 0.186811 -0.025720 649035.000000 0 0 1
27.442474 0.679262 -3.310084 27.649728 0.024747 1.690799 0.163793 -0.036494 23817.900000 0 0 1
27.940074 0.219062 -1.906684 28.005913 0.007840 1.638930 0.191088 -0.037841 419354.000000 0 0 1
29.331774 0.114262 -1.636684 29.377624 0.003895 1.626537 0.186443 -0.034520 500435.000000 0 0 1
29.707674 -0.189338 -0.326384 29.710071 -0.006373 1.581782 0.206196 -0.031296 267711.000000 0 0 1
31.109674 0.415462 0.023616 31.112457 0.013354 1.570037 0.225361 -0.032806 198515.000000 0 0 1
32.150174 -0.259938 -0.606484 32.156945 -0.008085 1.589658 0.195400 -0.031948 -249741.000000 0 0 1
33.398074 0.358462 -0.371184 33.402060 0.010733 1.581909 0.154557 -0.024859 -74971.100000 0 0 1
-3.249026 -21.313338 -8.303203 23.103197 1.419520 1.938417 0.027843 0.005192 291378.000000 0 1 0
-3.676226 -21.783538 -7.067803 23.194633 1.403610 1.880438 0.033903 -0.004234 -552907.000000 0 1 0
-2.928926 -22.903538 -6.705203 24.043927 1.443606 1.853417 0.042258 -0.001887 -122490.000000 0 1 0
-3.295226 -23.463138 -5.301403 24.279255 1.431266 1.790921 0.043894 0.001357 -282709.000000 0 1 0
-3.090126 -22.626538 -4.223503 23.223847 1.435065 1.753675 0.051097 -0.005282 -229414.000000 0 1 0
-3.510226 -23.249138 -3.053903 23.710133 1.420945 1.699957 0.055896 -0.009512 -401202.000000 0 1 0
-3.091526 -22.620638 -1.731803 22.896505 1.434969 1.646505 0.062950 -0.018720 1493380.000000 0 1 0
-1.647926 -22.791938 -1.570103 22.905312 1.498619 1.639398 0.067710 -0.012499 1225650.000000 0 1 0
-1.308926 -22.289838 -0.280203 22.329995 1.512141 1.583345 0.071215 -0.023885 262099.000000 0 1 0
0.211474 -22.394738 -0.010703 22.395739 -1.561354 1.571274 0.080406 -0.020957 208007.000000 0 1 0
0.983174 -21.376438 -0.630303 21.408317 -1.524835 1.600243 0.060341 -0.018653 44729.700000 0 1 0
2.256674 -21.280538 -0.004803 21.399858 -1.465147 1.571021 0.045662 -0.013890 224166.000000 0 1 0
3.172374 -20.266238 -0.699903 20.524966 -1.415521 1.604903 0.043914 -0.013109 360571.000000 0 1 0
3.924474 -20.818638 -1.801603 21.261772 -1.384475 1.655632 0.037367 -0.006913 -13730.300000 0 1 0
4.865474 -19.918638 -2.318003 20.634876 -1.331220 1.683368 0.049881 -0.002551 -282775.000000 0 1 0
5.642274 -20.500038 -3.507203 21.549647 -1.302214 1.734273 0.052872 -0.001209 -896165.000000 0 1 0
6.771574 -21.204538 -3.133103 22.478945 -1.261687 1.710631 0.064561 -0.008984 -632928.000000 0 1 0
7.625074 -21.561238 -4.211803 23.254420 -1.230876 1.752920 0.062088 -0.014970 333971.000000 0 1 0
8.654574 -20.625838 -4.849103 22.887565 -1.173510 1.784281 0.077821 -0.019755 -411934.000000 0 1 0
8.173974 -19.684338 -5.721403 22.068563 -1.177211 1.833048 0.067362 -0.017041 99784.200000 0 1 0
9.276374 -18.825738 -6.010603 21.830870 -1.112966 1.849725 0.081689 -0.031786 351391.000000 0 1 0
9.271774 -18.031438 -7.289203 21.546021 -1.095853 1.915915 0.070380 -0.018842 -644096.000000 0 1 0
10.515774 -17.401238 -7.348903 21.619227 -1.027212 1.917633 0.087603 -0.032255 -128086.000000 0 1 0
10.614274 -16.368338 -8.348203 21.219750 -0.995502 1.975141 0.088984 -0.022023 -84059.200000 0 1 0
10.839274 -16.776338 -9.804903 22.250202 -0.997164 2.027137 0.080240 -0.018201 -299979.000000 0 1 0
9.748974 -17.351338 -10.487803 22.496787 -1.058895 2.055777 0.075772 -0.031748 264493.000000 0 1 0
9.083274 -16.366638 -11.348603 21.889804 -1.064132 2.115825 0.059796 -0.039209 128558.000000 0 1 0
8.498974 -16.987838 -12.601003 22.794835 -1.106911 2.156518 0.068266 -0.046028 120729.000000 0 1 0
7.282174 -17.703938 -12.371503 22.792840 -1.180560 2.144540 0.057338 -0.040351 619133.000000 0 1 0
6.733074 -18.126638 -13.596303 23.638290 -1.215145 2.183622 0.064928 -0.033909 -990753.000000 0 1 0
5.426774 -18.845738 -13.541503 23.832415 -1.290424 2.175109 0.064935 -0.027240 -1109210.000000 0 1 0
5.669474 -20.190438 -13.119803 24.737137 -1.297046 2.129832 0.067193 -0.031083 -301769.000000 0 1 0
4.531174 -20.986738 -12.943803 25.070236 -1.358154 2.113323 0.082529 -0.029833 -391250.000000 0 0 1
4.801774 -22.455938 -12.611403 26.198734 -1.360138 2.073019 0.074781 -0.031761 -28421.600000 0 0 1
5.306374 -23.238638 -13.731303 27.508918 -1.346303 2.093423 0.097348 -0.032783 -47574.200000 0 0 1
5.078374 -24.625838 -13.755303 28.660603 -1.367426 2.071380 0.085794 -0.031413 220085.000000 0 0 1
3.661074 -25.177338 -14.094403 29.085289 -1.426397 2.076689 0.097358 -0.032180 172341.000000 0 0 1
2.668274 -24.689538 -13.201403 28.124189 -1.463141 2.059404 0.096891 -0.030805 -387321.000000 0 0 1
1.386574 -24.752538 -13.773703 28.360635 -1.514837 2.077917 0.083235 -0.033310 292993.000000 0 0 1
0.515174 -26.015288 -13.427403 29.280638 -1.550996 2.047189 0.068103 -0.026094 -533571.000000 0 0 1
0.982774 -27.163368 -14.040603 30.593348 -1.534632 2.047601 0.087085 -0.026424 -18596.600000 0 0 1
0.539574 -28.356368 -13.402103 31.368633 -1.551770 2.012240 0.067945 -0.018316 1244510.000000 0 0 1
-0.980126 -28.774118 -13.518603 31.806652 1.536747 2.009785 0.048064 -0.023742 1398420.000000 0 0 1
-2.023426 -28.056748 -12.867803 30.933084 1.498802 1.999826 0.047150 -0.025032 143939.000000 0 0 1
-3.272626 -28.600568 -13.248403 31.689474 1.456867 2.002115 0.051605 -0.024747 430691.000000 0 0 1
-4.493626 -27.803638 -12.620803 30.862917 1.410562 1.992079 0.032776 -0.016498 606354.000000 0 0 1
-4.763326 -28.016148 -11.274603 30.573035 1.402386 1.948488 0.027108 -0.022801 6903.610000 0 0 1
-5.157926 -29.324178 -10.907303 31.709318 1.396684 1.921946 0.016740 -0.021757 -937542.000000 0 0 1
-5.777626 -29.511288 -9.504603 31.537827 1.377465 1.876927 0.022875 -0.024014 64472.100000 0 0 1
-7.139526 -29.140258 -9.387603 31.436516 1.330524 1.874044 0.030677 -0.021867 116072.000000 0 0 1
-7.307326 -27.760518 -9.128003 30.122480 1.313408 1.878666 0.035202 -0.015294 -321406.000000 0 0 1
-8.710626 -27.297628 -8.608103 29.918806 1.261912 1.862637 0.039103 -0.014765 1038400.000000 0 0 1
-9.865026 -27.341798 -9.440603 30.561702 1.224529 1.884836 0.057351 -0.008984 293085.000000 0 0 1
-10.223226 -28.549288 -10.088603 31.958662 1.226932 1.891966 0.070871 -0.028329 -1017010.000000 0 0 1
-11.575326 -28.573808 -10.790803 32.663314 1.185899 1.907486 0.076611 -0.025377 -886184.000000 0 0 1
-11.605426 -27.698528 -11.926803 32.313201 1.174027 1.948837 0.087805 -0.029588 -71533.600000 0 0 1
-12.230626 -28.335058 -12.981303 33.481009 1.163313 1.968955 0.108835 -0.040929 -448486.000000 0 0 1
-12.105426 -27.434888 -14.249103 33.200171 1.155249 2.014389 0.124668 -0.037219 544376.000000 0 0 1
-13.252326 -26.593818 -14.464703 33.046678 1.108491 2.023841 0.107271 -0.037272 661196.000000 0 0 1
-13.541126 -25.596398 -13.500503 31.949981 1.084200 2.007055 0.113802 -0.030560 -397079.000000 0 0 1
-14.587526 -24.566538 -13.906303 31.775713 1.034951 2.023768 0.132764 -0.025195 -213553.000000 0 0 1
-14.005626 -23.691838 -14.884803 31.289265 1.036903 2.066574 0.133323 -0.031570 758035.000000 0 0 1
-15.000126 -22.768938 -15.341603 31.285669 0.988261 2.083312 0.149638 -0.036759 201823.000000 0 0 1
-14.596426 -22.055938 -16.653903 31.254960 0.986177 2.132750 0.143359 -0.031170 -55860.600000 0 0 1
-13.614926 -21.060038 -16.470103 30.002595 0.996899 2.151911 0.127176 -0.026195 202095.000000 0 0 1
-13.417826 -20.449038 -17.761103 30.226776 0.990103 2.198880 0.096655 -0.022045 -210587.000000 0 0 1
-13.417326 -18.876838 -17.817403 29.220190 0.952870 2.226558 0.090075 -0.015247 -853438.000000 0 0 1
-12.251526 -18.223138 -17.505203 28.082286 0.978900 2.243821 0.075284 -0.002972 -912861.000000 0 0 1
-12.419426 -16.844738 -17.695203 27.406341 0.935481 2.272685 0.074593 0.000883 -318884.000000 0 0 1
-11.131926 -16.050338 -17.653503 26.328298 0.964403 2.305698 0.074350 0.002431 -299597.000000 0 0 1
-10.509626 -15.869738 -16.387303 25.116618 0.985862 2.281607 0.084907 -0.010175 446371.000000 0 0 1
-9.159326 -15.457438 -16.626503 24.479915 1.035872 2.317454 0.068205 -0.000859 231889.000000 0 1 0
-8.379526 -14.832238 -15.434003 22.987392 1.056545 2.306908 0.053294 -0.007534 -95139.700000 0 1 0
-7.923326 -15.635638 -14.393703 22.681070 1.101765 2.258304 0.054062 -0.009305 -347167.000000 0 1 0
-7.007826 -16.624938 -14.727703 23.289556 1.171873 2.255410 0.057990 0.004589 -781531.000000 0 1 0
-6.615026 -17.433038 -13.482103 23.009487 1.208127 2.196832 0.052101 0.002284 58270.200000 0 1 0
-5.814826 -16.720638 -12.497103 21.669553 1.236115 2.185495 0.042614 -0.007350 654703.000000 0 1 0
-5.552926 -17.527838 -11.355403 21.610305 1.263993 2.124055 0.034542 -0.012589 -167790.000000 0 1 0
-4.473326 -18.636238 -11.475203 22.338314 1.335219 2.110289 0.042961 -0.008177 3497.790000 0 1 0
-3.195626 -18.039338 -11.639003 21.704749 1.395468 2.136775 0.039096 -0.005209 -258492.000000 0 1 0
-2.176726 -19.029738 -11.618403 22.402151 1.456906 2.116043 0.023829 -0.000076 570845.000000 0 1 0
-0.802126 -18.583838 -12.152203 22.218877 1.527661 2.149491 0.029826 -0.001271 -788396.000000 0 1 0
-0.841226 -18.387538 -13.553703 22.858523 1.525078 2.205500 0.035905 0.004000 -238625.000000 0 1 0
0.340174 -17.851638 -14.128803 22.768833 -1.551743 2.240218 0.034515 -0.001076 691116.000000 0 1 0
1.603674 -18.779138 -14.091903 23.533158 -1.485606 2.212811 0.041451 -0.011219 -321396.000000 0 1 0
1.749974 -19.748138 -15.092103 24.916319 -1.482413 2.221456 0.071340 -0.006088 48512.400000 0 1 0
0.993074 -20.940538 -14.878503 25.707240 -1.523408 2.188012 0.073060 -0.014265 -413568.000000 0 0 1
1.194974 -21.943838 -16.063203 27.221067 -1.516394 2.201981 0.090323 -0.018728 126872.000000 0 0 1
2.456274 -22.528138 -16.257703 27.890199 -1.462194 2.193112 0.101256 -0.027790 522137.000000 0 0 1
3.515874 -21.630938 -16.696303 27.550415 -1.409666 2.221853 0.105484 -0.029588 -450498.000000 0 0 1
4.859674 -22.260338 -16.900903 28.368638 -1.355858 2.209008 0.110732 -0.033081 -848298.000000 0 0 1
4.985674 -22.751238 -18.210603 29.565213 -1.355068 2.234384 0.096509 -0.030402 -280278.000000 0 0 1
6.269174 -23.290838 -18.324503 30.291139 -1.307859 2.220494 0.100050 -0.030505 -233310.000000 0 0 1
6.831374 -23.347638 -19.780403 31.353536 -1.286148 2.253487 0.083683 -0.022324 -96653.700000 0 0 1
7.290874 -22.058838 -20.122203 30.735195 -1.251580 2.284576 0.089532 -0.030419 -60637.900000 0 0 1
7.564174 -22.052538 -21.529803 31.734265 -1.240365 2.316434 0.053946 -0.022877 79853.900000 0 0 1
8.037174 -20.636038 -21.959103 31.187248 -1.199398 2.351959 0.032519 -0.023080 -111552.000000 0 0 1
6.946474 -19.741638 -21.988503 30.355890 -1.232457 2.380898 0.072761 -0.025921 -92276.700000 0 0 1
7.214574 -18.421638 -22.385203 29.874808 -1.197521 2.417801 0.074449 -0.023222 -235859.000000 0 0 1
5.910474 -17.630738 -22.616303 29.279238 -1.247334 2.453462 0.069242 -0.024897 -393577.000000 0 0 1
5.342774 -17.998638 -23.892203 30.386404 -1.282238 2.475560 0.054504 -0.027793 -155163.000000 0 0 1
4.484574 -17.107938 -24.536003 30.245800 -1.314430 2.517032 0.083711 -0.022345 894984.000000 0 0 1
3.050774 -16.927438 -23.891903 29.439232 -1.392484 2.517625 0.101557 -0.017403 547927.000000 0 0 1
3.052074 -16.343338 -22.582803 28.042875 -1.386176 2.506970 0.102967 -0.020729 -950984.000000 0 0 1
1.752074 -16.106838 -22.140203 27.435170 -1.462444 2.509852 0.101604 -0.017483 -149023.000000 0 0 1
1.753974 -15.243638 -20.858703 25.894602 -1.456237 2.507354 0.100487 -0.017985 55789.500000 0 0 1
2.419974 -14.034538 -20.855403 25.254155 -1.400045 2.542452 0.096044 -0.016333 -552357.000000 0 0 1
2.585074 -13.562938 -19.563103 23.944747 -1.382457 2.527003 0.092035 -0.018743 -242290.000000 0 1 0
3.690074 -12.522538 -19.490303 23.458528 -1.284232 2.551413 0.081321 -0.016861 -799442.000000 0 1 0
4.986374 -13.094938 -19.472803 23.990235 -1.206962 2.517848 0.070460 -0.011432 493022.000000 0 1 0
6.035674 -12.100138 -19.630603 23.837015 -1.108101 2.538410 0.067326 -0.013422 928937.000000 0 1 0
6.278174 -11.136038 -18.419303 22.420917 -1.057442 2.534874 0.071296 -0.015526 -1164870.000000 0 1 0
5.369074 -10.083738 -18.281303 21.557244 -1.081528 2.583063 0.044882 -0.007753 -346341.000000 0 1 0
5.536674 -8.909638 -19.062103 21.757761 -1.014772 2.638521 0.056986 -0.018086 -58054.100000 0 1 0
4.863074 -8.940438 -20.466403 22.857265 -1.072617 2.680126 0.075957 -0.026291 -301532.000000 0 1 0
3.474174 -9.069238 -20.483203 22.668978 -1.204967 2.698847 0.071724 -0.030815 -623984.000000 0 1 0
2.922374 -9.360238 -21.793903 23.898296 -1.268174 2.718793 0.078702 -0.030149 -97788.900000 0 1 0
1.413274 -9.190838 -21.874103 23.768576 -1.418221 2.739630 0.070251 -0.025915 -402611.000000 0 1 0
0.993174 -7.833138 -21.939103 23.316704 -1.444678 2.796127 0.066400 -0.021549 -1193420.000000 0 1 0
-0.392526 -7.842738 -22.045503 23.402282 1.520788 2.799407 0.065040 -0.021788 -511136.000000 0 1 0
-0.839026 -6.682638 -22.967703 23.934849 1.445897 2.856347 0.073387 -0.021341 68511.200000 0 1 0
-0.595226 -7.000038 -24.316403 25.310912 1.485969 2.860339 0.085475 -0.023328 30204.100000 0 0 1
-1.467126 -6.294938 -25.226743 26.041645 1.341820 2.890767 0.105791 -0.031034 652819.000000 0 0 1
-0.972526 -4.910338 -25.696903 26.179917 1.375270 2.949203 0.100974 -0.026732 232972.000000 0 0 1
-1.864426 -4.407338 -26.671043 27.096960 1.170598 2.964056 0.107353 -0.029376 -56577.100000 0 0 1
-1.467726 -3.149638 -27.190353 27.411489 1.134718 3.014485 0.081021 -0.025007 -650155.000000 0 0 1
-1.731726 -1.860438 -26.393593 26.515691 0.821214 3.045590 0.076814 -0.024238 1010400.000000 0 0 1
-3.116426 -1.579738 -26.132293 26.364833 0.469158 3.008679 0.075583 -0.031489 1101190.000000 0 0 1
-3.956926 -1.146938 -27.220633 27.530630 0.282124 2.991384 0.092590 -0.027328 1361710.000000 0 0 1
-5.500726 -1.140338 -26.858043 27.439257 0.204411 2.935403 0.091082 -0.040813 982334.000000 0 0 1
-5.992426 -0.103638 -26.049043 26.729619 0.017293 2.915450 0.097635 -0.035759 -258174.000000 0 0 1
-7.375926 -0.395538 -26.008313 27.036883 0.053574 2.864873 0.104993 -0.047870 -448315.000000 0 0 1
-8.236126 0.726562 -25.368583 26.681954 -0.087989 2.826529 0.105773 -0.039991 -506096.000000 0 0 1
-8.493026 1.884362 -26.181023 27.588553 -0.218335 2.820786 0.125273 -0.036327 212275.000000 0 0 1
-9.327826 1.673662 -27.327383 28.923958 -0.177538 2.807783 0.107940 -0.036046 -683119.000000 0 0 1
-10.776526 1.346762 -27.079193 29.175845 -0.124327 2.760174 0.103073 -0.035342 -1169080.000000 0 0 1
-11.785726 2.281862 -27.408493 29.922161 -0.191246 2.728773 0.109089 -0.043174 263350.000000 0 0 1
-13.088826 1.799862 -27.186143 30.226532 -0.136654 2.689222 0.055399 -0.024222 -62046.500000 0 0 1
-14.224226 2.698162 -27.681803 31.239252 -0.187461 2.659707 0.032565 -0.015562 601543.000000 0 0 1
-15.552426 2.179362 -27.392233 31.574705 -0.139223 2.621026 0.033293 -0.010144 1287150.000000 0 0 1
-16.557826 2.833862 -28.158503 32.788621 -0.169507 2.603697 0.037204 -0.012378 410407.000000 0 0 1
-17.117926 4.208362 -27.667473 32.805834 -0.241065 2.574322 0.042899 -0.002159 -589647.000000 0 0 1
-16.171826 5.250362 -27.763083 32.555845 -0.313925 2.592088 0.061487 -0.010224 -144715.000000 0 0 1
-15.955326 5.779662 -29.101513 33.687905 -0.347537 2.613672 0.061096 -0.020277 81059.900000 0 0 1
-17.182526 6.318362 -29.896633 35.056662 -0.352373 2.592137 0.061072 -0.016123 324327.000000 0 0 1
-17.933626 7.332662 -29.262003 35.094838 -0.388136 2.556748 0.059011 -0.013801 448926.000000 0 0 1
-18.910126 8.023462 -30.051973 36.401784 -0.401273 2.541996 0.053468 -0.015958 172609.000000 0 0 1
-19.806826 8.898962 -29.156173 36.353601 -0.422261 2.501459 0.062480 -0.016683 -518096.000000 0 0 1
-19.174126 9.935162 -28.463683 35.728641 -0.478066 2.492550 0.056637 -0.014659 -223622.000000 0 0 1
-20.061326 10.916562 -28.024023 36.152095 -0.498348 2.457781 0.078494 -0.017588 -387782.000000 0 0 1
-8.923226 25.138262 30.976416 40.879023 -1.229704 0.710926 0.077177 -0.013979 -885099.000000 0 0 1
-9.579626 26.361362 31.059576 41.849587 -1.222237 0.734492 0.083245 -0.013423 -310715.000000 0 0 1
-9.065626 27.307662 31.909465 42.966358 -1.250263 0.733760 0.080083 -0.016870 -815714.000000 0 0 1
-7.737026 27.951462 31.543266 42.850011 -1.300755 0.743459 0.084935 -0.017656 -518300.000000 0 0 1
-7.815126 28.909862 30.490246 42.737705 -1.306779 0.776419 0.093782 -0.020659 -43167.800000 0 0 1
-6.573826 29.002862 29.833836 42.124090 -1.347901 0.783799 0.097641 -0.014372 66694.200000 0 0 1
-6.500926 30.192562 28.865346 42.273645 -1.358719 0.819179 0.121709 -0.018315 -9270.220000 0 0 1
-6.763526 31.488762 29.393786 43.603693 -1.359219 0.831034 0.126833 -0.033228 365046.000000 0 0 1
-6.493526 32.605862 28.532736 43.811244 -1.374216 0.861546 0.131999 -0.038999 -83344.500000 0 0 1
-6.981526 -33.859492 29.222296 45.267532 1.367455 0.869058 0.141304 -0.047477 -347506.000000 0 0 1
-6.226726 -33.486792 30.362716 45.629287 1.386950 0.842738 0.165525 -0.049298 -161625.000000 0 0 1
-6.901026 -32.741492 31.335626 45.842676 1.363064 0.818185 0.160789 -0.057796 -73876.100000 0 0 1
-7.972026 -33.406992 32.249061 47.112443 1.336544 0.816861 0.099936 -0.044022 161541.000000 0 0 1
-7.526226 33.461362 33.231731 47.756201 -1.349555 0.801177 0.107004 -0.043164 -64549.600000 0 0 1
-7.113226 32.170362 32.755211 46.458950 -1.353186 0.788323 0.114964 -0.035009 -19995.300000 0 0 1
-7.067426 31.149762 33.880566 46.563386 -1.347688 0.755947 0.116116 -0.022692 110510.000000 0 0 1
-5.800026 30.786062 -33.435393 45.818636 -1.384581 2.388728 0.119232 -0.033297 -24011.000000 0 0 1
-5.943626 30.285462 -32.117433 44.542849 -1.377006 2.376107 0.101529 -0.028868 -200465.000000 0 0 1
-4.630126 29.800562 -31.464793 43.583767 -1.416658 2.377396 0.097907 -0.031217 564187.000000 0 0 1
-3.978126 28.586362 -31.901073 43.019577 -1.432523 2.406171 0.115494 -0.021860 301205.000000 0 0 1
-3.435426 28.650762 -33.218603 44.001635 -1.451459 2.426359 0.097715 -0.024452 -382437.000000 0 0 1
-2.525826 27.423562 -33.499133 43.366155 -1.478951 2.453521 0.102784 -0.033653 -283945.000000 0 0 1
-1.451026 27.236762 -32.579773 42.489861 -1.517572 2.444584 0.113807 -0.025323 782011.000000 0 0 1
-0.683826 25.999662 -32.667253 41.756430 -1.544501 2.469192 0.129000 -0.027648 830607.000000 0 0 1
0.062974 25.698262 33.826076 42.480679 1.568346 0.649693 0.111060 -0.027499 -641782.000000 0 0 1
-0.818226 25.208762 32.868540 41.430570 -1.538350 0.654520 0.107108 -0.025679 -386378.000000 0 0 1
-0.338526 25.148462 31.546976 40.345650 -1.557336 0.673060 0.104345 -0.026672 -46915.500000 0 0 1
-0.013526 26.494862 30.831486 40.651672 -1.570286 0.709894 0.088922 -0.029031 -598169.000000 0 0 1
-1.136826 27.218862 30.472576 40.874646 -1.529054 0.729492 0.098262 -0.030293 -366355.000000 0 0 1
-0.681726 28.480262 30.001056 41.372134 -1.546864 0.759542 0.097616 -0.028560 167284.000000 0 0 1
-1.786626 29.541062 30.115186 42.223108 -1.510391 0.776687 0.115196 -0.031499 18407.100000 0 0 1
-2.149826 29.955962 31.428746 43.471226 -1.499153 0.762693 0.127189 -0.040807 47364.700000 0 0 1
-2.920126 31.153362 31.353836 44.295848 -1.477336 0.784378 0.136726 -0.040116 98599.200000 0 0 1
-2.716826 32.066962 32.564490 45.783373 -1.486275 0.779488 0.145585 -0.034400 -401645.000000 0 0 1
-1.447826 32.632462 32.548439 46.112630 -1.526458 0.787179 0.175713 -0.053561 -827260.000000 0 0 1
-0.994526 32.999562 33.786004 47.238271 -1.540668 0.773850 0.140557 -0.043449 -412640.000000 0 0 1
0.481874 33.395762 33.875996 47.571969 1.556368 0.778312 0.143677 -0.056532 -216114.000000 0 0 1
0.735574 -33.106292 33.228383 46.911545 -1.548581 0.783681 0.169255 -0.065412 -452516.000000 0 0 1
2.099074 -32.855792 33.071698 46.665259 -1.506996 0.783142 0.125905 -0.056702 -612427.000000 0 0 1
2.444174 -31.464792 32.639979 45.402372 -1.493272 0.768571 0.130682 -0.062827 -266202.000000 0 0 1
2.209574 -30.444892 33.641866 45.426301 -1.498347 0.736861 0.124552 -0.060067 243434.000000 0 0 1
2.640374 -29.117292 33.332419 44.337777 -1.480363 0.720033 0.090925 -0.063255 -474821.000000 0 0 1
2.172374 -28.169492 -33.389333 43.738850 -1.493831 2.439325 0.097863 -0.058113 709351.000000 0 0 1
0.752774 -27.988992 -33.388053 43.574217 -1.543907 2.443756 0.099530 -0.057110 668752.000000 0 0 1
0.223574 -27.721592 -32.128173 42.435317 -1.562732 2.429673 0.091879 -0.047273 -127445.000000 0 0 1
-1.252426 -27.271392 -32.182283 42.201857 1.524904 2.438088 0.139882 -0.042927 -56381.200000 0 0 1
-1.764626 -26.815692 -30.960723 40.997092 1.505085 2.426745 0.128323 -0.031783 -656095.000000 0 0 1
-3.047926 -26.333292 -31.156933 40.908270 1.455565 2.436620 0.144458 -0.033553 -824384.000000 0 0 1
-3.564326 -25.534892 -29.976903 39.539219 1.432106 2.431277 0.150340 -0.036717 -117002.000000 0 0 1
-4.127126 -26.227992 -28.837883 39.199033 1.414720 2.397464 0.149538 -0.032172 317941.000000 0 0 1
-4.423326 -25.355892 -27.765493 37.860397 1.398085 2.394055 0.164038 -0.025971 62520.700000 0 0 1
-3.213926 -24.991792 -26.870213 36.836494 1.442899 2.388307 0.152992 -0.037219 134234.000000 0 0 1
-2.369626 -23.985392 -27.390613 36.485063 1.472321 2.419970 0.159343 -0.040894 258756.000000 0 0 1
-1.198026 -23.852792 -26.607983 35.754380 1.520613 2.410115 0.119977 -0.044952 -1176210.000000 0 0 1
-0.239526 -22.767892 -27.094913 35.391645 1.560276 2.442729 0.086326 -0.030289 198638.000000 0 0 1
0.504274 -23.087192 -28.280503 36.511088 -1.548958 2.456836 0.042133 -0.031569 476537.000000 0 0 1
1.385374 -24.205392 -28.148533 37.150507 -1.513625 2.430561 0.026750 -0.020278 -817076.000000 0 0 1
2.279674 -24.604492 -29.335403 38.355492 -1.478407 2.441573 0.017163 -0.027305 -24706.100000 0 0 1
3.122574 -23.506792 -29.631943 37.952230 -1.438732 2.466693 0.038793 -0.024288 -520386.000000 0 0 1
3.954974 -23.832592 -30.674433 39.045551 -1.406347 2.474472 0.046143 -0.021990 -301003.000000 0 0 1
5.088574 -22.777992 -30.970873 38.780478 -1.351007 2.495795 0.065684 -0.030211 -415761.000000 0 0 1
6.199374 -22.667292 -30.053133 38.150087 -1.303831 2.477961 0.037123 -0.026237 1460140.000000 0 0 1
7.265674 -23.615092 -30.260423 39.066044 -1.272317 2.456873 0.050562 -0.012137 366981.000000 0 0 1
7.895774 -23.543092 -31.671523 40.245568 -1.247209 2.476657 0.060837 -0.012445 -1758110.000000 0 0 1
7.205274 -24.422892 -32.531043 41.311770 -1.283913 2.477461 0.045560 -0.019054 101783.000000 0 0 1
7.363774 -24.225692 33.905286 42.316401 -1.275705 0.641444 0.066623 -0.023790 -195866.000000 0 0 1
6.703474 -22.954592 33.324301 41.016569 -1.286666 0.622438 0.090451 -0.020931 -781988.000000 0 0 1
5.323874 -22.992392 33.516553 40.992110 -1.343257 0.613506 0.094919 -0.027916 -561264.000000 0 0 1
4.723874 -21.947792 32.769114 39.721976 -1.358798 0.600662 0.125059 -0.038362 584856.000000 0 0 1
3.205374 -21.728792 33.076443 39.704734 -1.424335 0.586179 0.108656 -0.032901 863089.000000 0 0 1
2.229674 -22.716092 32.807988 39.966941 -1.472956 0.607849 0.103431 -0.034249 231906.000000 0 0 1
2.176874 -23.777292 33.727191 41.323381 -1.479498 0.616033 0.102672 -0.028934 -809499.000000 0 0 1
0.829074 -24.475292 33.624052 41.596925 -1.536935 0.629486 0.108970 -0.028931 -372029.000000 0 0 1
0.582774 -25.189792 32.423821 41.062993 -1.547665 0.660620 0.110658 -0.029334 -921948.000000 0 0 1
-0.735226 -25.576092 32.354334 41.249000 1.542058 0.669122 0.107331 -0.035588 -1035700.000000 0 0 1
-1.099726 -26.426192 31.106116 40.830668 1.529205 0.704660 0.108042 -0.047976 954773.000000 0 0 1
-2.497326 -26.728792 30.916226 40.944816 1.477635 0.715035 0.120435 -0.042395 994823.000000 0 0 1
-2.555326 -27.617092 29.893836 40.778363 1.478532 0.747956 0.143691 -0.049835 -280315.000000 0 0 1
-3.919526 -27.668292 29.218126 40.430137 1.430071 0.763122 0.158951 -0.049351 -963070.000000 0 0 1
-4.920126 -28.340492 29.865876 41.465186 1.398902 0.766614 0.173389 -0.044479 -699692.000000 0 0 1
-6.142326 -28.232592 29.187486 41.069657 1.356573 0.780328 0.142598 -0.041456 -242986.000000 0 0 1
-7.288926 -29.092692 29.705666 42.213028 1.325308 0.790193 0.116773 -0.036226 -209646.000000 0 0 1
-8.407626 -29.265592 28.857786 41.951578 1.291043 0.812228 0.122171 -0.030963 1194420.000000 0 0 1
-9.720126 -29.442392 29.412376 42.736672 1.251922 0.811759 0.097261 -0.026145 900327.000000 0 0 1
-10.052526 -30.518092 30.496386 44.299399 1.252594 0.811494 0.078094 -0.023839 -769920.000000 0 0 1
-9.955426 -31.830592 29.952436 44.826839 1.267672 0.839035 0.093965 -0.027167 817093.000000 0 0 1
-11.167526 -32.252792 29.308246 44.988104 1.237466 0.861280 0.077499 -0.024231 290486.000000 0 0 1
-11.077526 -33.728892 28.970286 45.821689 1.253467 0.886356 0.085100 -0.021048 -292936.000000 0 0 1
-11.082126 33.175262 30.078946 46.131925 -1.248403 0.860550 0.073521 -0.012851 177032.000000 0 0 1
-10.724326 31.834862 29.749846 44.872296 -1.245863 0.845992 0.088803 -0.018047 18395.300000 0 0 1
-11.136026 30.725962 30.786226 44.898636 -1.223091 0.815255 0.079964 -0.004696 1164760.000000 0 0 1
-12.555826 30.487262 30.608426 44.988861 -1.180126 0.822549 0.061455 0.004228 991273.000000 0 0 1
-13.052226 29.304862 31.140496 44.708680 -1.151779 0.800260 0.062588 0.001859 21646.800000 0 0 1
-13.175526 29.149462 32.679130 45.729762 -1.146281 0.774724 0.078497 -0.007124 -609674.000000 0 0 1
-14.136126 29.991262 33.241503 46.950009 -1.130337 0.784107 0.068497 -0.002863 -106037.000000 0 0 1
-14.290626 29.659662 -33.255863 46.796046 -1.121798 2.361226 0.080322 -0.013351 607711.000000 0 0 1
-15.626726 30.099962 -32.552343 47.009119 -1.091938 2.335702 0.068772 -0.011509 721201.000000 0 0 1
-15.602626 29.594562 -31.241153 45.774334 -1.085616 2.321979 0.056396 -0.017415 919262.000000 0 0 1
-16.881526 29.826862 -30.587133 45.936916 -1.055764 2.299430 0.066224 -0.011255 1157340.000000 0 0 1
-16.923126 29.156262 -29.197983 44.598229 -1.044892 2.284568 0.091811 -0.021238 -86301.300000 0 0 1
-17.403026 27.823562 -29.216963 43.939126 -1.011853 2.298212 0.079305 -0.025689 152146.000000 0 0 1
-17.390226 27.333062 -27.910293 42.760971 -1.004159 2.281946 0.090581 -0.018410 -402034.000000 0 0 1
-18.075226 26.017862 -27.737913 42.107419 -0.963620 2.289941 0.065888 -0.031017 -90771.700000 0 0 1
-19.453426 26.024262 -28.053403 42.926581 -0.928890 2.283023 0.069995 -0.032638 -194974.000000 0 0 1
-20.024426 24.786562 -27.809823 42.293469 -0.891272 2.288351 0.049588 -0.029817 399684.000000 0 0 1
-21.572126 24.733862 -28.022283 43.155172 -0.853572 2.277510 0.077535 -0.024441 456304.000000 0 0 1
-22.350326 25.039162 -26.893273 43.008660 -0.842076 2.246311 0.077405 -0.023958 -330687.000000 0 0 1
-23.663326 24.596862 -27.083983 43.571788 -0.804740 2.241573 0.083609 -0.023810 -358284.000000 0 0 1
-24.707426 24.769262 -25.982013 43.577956 -0.786648 2.209580 0.080518 -0.020907 -191735.000000 0 0 1
-25.298496 26.014162 -25.858823 44.558155 -0.799344 2.189941 0.061002 -0.013173 21661.400000 0 0 1
-26.379296 26.170162 -24.946603 44.755755 -0.781418 2.162040 0.074450 -0.010239 243014.000000 0 0 1
-26.203976 25.826062 -23.416703 43.611647 -0.778135 2.137598 0.069929 -0.018525 -724554.000000 0 0 1
-26.169686 24.439462 -23.172803 42.651126 -0.751224 2.145172 0.069957 -0.015450 555772.000000 0 0 1
-27.433066 23.746062 -23.040103 42.980169 -0.713481 2.136563 0.074081 -0.018330 806746.000000 0 0 1
-28.161616 23.925062 -21.663603 42.834529 -0.704240 2.101049 0.076413 -0.023151 -100614.000000 0 0 1
-27.436946 23.478662 -20.541803 41.545147 -0.707812 2.087993 0.077626 -0.020304 94945.800000 0 0 1
-26.455396 24.403662 -20.098303 41.223397 -0.745078 2.080073 0.066469 -0.012764 88924.600000 0 0 1
-25.573326 23.891962 -18.914203 39.781502 -0.751420 2.066274 0.059540 -0.016246 50776.800000 0 0 1
-26.246346 23.870162 -17.680603 39.639110 -0.738020 2.033132 0.048648 -0.011024 17789.700000 0 0 1
-25.354206 23.703562 -16.617403 38.481589 -0.751764 2.017314 0.082164 -0.028127 -505741.000000 0 0 1
-26.096466 23.878762 -15.332303 38.552565 -0.741051 1.979804 0.077432 -0.028476 -359603.000000 0 0 1
-26.379956 25.238362 -15.033703 39.482771 -0.763286 1.961421 0.086652 -0.031244 379213.000000 0 0 1
-27.116186 25.250562 -13.762703 39.525819 -0.749787 1.926442 0.057734 -0.037467 471475.000000 0 0 1
-27.067866 26.635062 -13.102503 40.171774 -0.777339 1.903037 0.059638 -0.028341 128343.000000 0 0 1
-25.711786 26.958062 -12.879803 39.417285 -0.809056 1.903665 0.093327 -0.043134 -251470.000000 0 0 1
-25.583156 27.913662 -11.900403 39.689923 -0.828934 1.875315 0.105424 -0.040248 609613.000000 0 0 1
-24.135626 28.373462 -11.509703 38.987883 -0.865930 1.870474 0.116008 -0.046572 980069.000000 0 0 1
-23.278426 27.349462 -11.002303 37.562333 -0.865636 1.868063 0.107743 -0.043858 -919021.000000 0 0 1
-22.048626 27.769362 -10.575003 37.001487 -0.899730 1.860637 0.093916 -0.046477 -1028690.000000 0 0 1
-21.252326 26.646762 -9.951303 35.506896 -0.897546 1.854865 0.159325 -0.037399 -113114.000000 0 0 1
-20.778926 25.706062 -10.908503 34.807482 -0.890998 1.889563 0.157208 -0.046198 -144811.000000 0 0 1
-19.869026 24.824262 -10.280903 33.417348 -0.895819 1.883520 0.165599 -0.030316 -30865.900000 0 0 1
-19.463326 23.702262 -11.177403 32.642803 -0.883286 1.920283 0.153995 -0.034893 -216812.000000 0 0 1
-18.668026 22.692962 -10.572003 31.228720 -0.882405 1.916155 0.102201 -0.020013 330236.000000 0 0 1
-18.114726 21.907562 -11.638803 30.717199 -0.879884 1.959406 0.122340 -0.012290 636562.000000 0 0 1
-17.368526 20.627462 -11.155303 29.182163 -0.870959 1.963042 0.091836 0.000292 492627.000000 0 0 1
-18.385726 19.724062 -10.780003 29.039318 -0.820502 1.951120 0.088855 0.001899 242152.000000 0 0 1
-17.821526 18.459562 -10.553303 27.744088 -0.802982 1.961004 0.113528 -0.021356 -965056.000000 0 0 1
-18.827426 17.332262 -10.241903 27.564031 -0.744073 1.951493 0.087391 -0.004159 56812.500000 0 0 1
-19.468626 16.865262 -11.410803 28.172165 -0.713869 1.987817 0.077306 -0.004171 -301471.000000 0 0 1
-20.486626 17.622362 -11.973703 29.557047 -0.710379 1.987890 0.096223 -0.008221 -1098990.000000 0 0 1
-21.145026 16.924462 -13.181503 30.121446 -0.674984 2.023737 0.097992 -0.012784 198865.000000 0 0 1
-20.326926 16.892162 -14.357703 30.077777 -0.693374 2.068436 0.080028 -0.015676 575396.000000 0 0 1
-21.088126 16.286562 -15.396303 30.773483 -0.657627 2.094754 0.083092 -0.015490 261907.000000 0 0 1
-20.315026 16.143362 -16.719803 30.868434 -0.671471 2.143192 0.089150 -0.028656 -95017.100000 0 0 1
-19.935826 17.427262 -17.262803 31.609349 -0.718359 2.148533 0.084533 -0.027313 31692.800000 0 0 1
-18.791726 17.206162 -18.052103 31.225941 -0.741381 2.187210 0.084541 -0.023456 -338266.000000 0 0 1
-18.273526 18.530862 -18.703203 32.048781 -0.792390 2.193933 0.073067 -0.016778 -1423530.000000 0 0 1
-17.171526 19.009362 -18.087203 31.358636 -0.836150 2.185584 0.096702 -0.019786 -931140.000000 0 0 1
-16.655226 20.219062 -18.640803 32.150996 -0.881747 2.189266 0.104675 -0.029573 248233.000000 0 0 1
33.960671 30.455862 1.921697 45.657197 0.731043 1.528694 0.103260 -0.005579 145865.000000 0 0 1
35.353711 30.400662 1.689697 46.657692 0.710214 1.534574 0.114361 -0.007969 201922.000000 0 0 1
35.648031 30.980662 0.444197 47.231143 0.715462 1.561391 0.113675 -0.005388 -271412.000000 0 0 1
37.021571 30.817362 -0.213003 48.170031 0.694197 1.575218 0.080213 -0.000136 -201327.000000 0 0 1
-36.857376 31.427162 0.502697 48.439502 -0.706042 1.560418 0.050428 0.006296 726256.000000 0 0 1
-35.667889 31.309162 -0.311903 47.461133 -0.720412 1.577368 0.066568 0.008391 485321.000000 0 0 1
-34.667304 32.430062 0.069897 47.471420 -0.752067 1.569324 0.035224 0.008633 -286080.000000 0 0 1
-34.039589 32.203462 1.299897 46.876927 -0.757687 1.543063 0.032300 0.002801 60916.400000 0 0 1
-33.445386 33.421662 1.757297 47.314790 -0.785043 1.533647 0.029709 0.001133 10655.800000 0 0 1
-32.832556 33.291662 3.163897 46.864930 -0.792341 1.503234 0.048400 -0.004197 -96973.600000 0 0 1
-32.377086 -33.241692 3.667797 46.548238 0.798574 1.491919 0.051991 0.002182 106150.000000 0 0 1
-31.824656 -33.482692 4.960297 46.459702 0.810781 1.463827 0.078352 -0.014195 -325955.000000 0 0 1
-31.779896 -32.171092 5.805197 45.592118 0.791515 1.443121 0.094163 -0.012816 722714.000000 0 0 1
-32.973946 -31.627692 6.404197 46.136815 0.764562 1.431538 0.094952 -0.007704 784516.000000 0 0 1
-33.552266 -32.454492 7.418997 47.266162 0.768768 1.413182 0.089469 -0.019337 -2123650.000000 0 0 1
-34.585438 -31.878592 8.313497 47.765169 0.744694 1.395856 0.116209 -0.013208 748708.000000 0 0 1
-35.885273 -31.506892 7.777297 48.383090 0.720521 1.409352 0.074441 -0.014380 1012750.000000 0 0 1
-36.619356 -32.515692 7.161897 49.492830 0.726111 1.425581 0.048297 -0.014533 -1028830.000000 0 0 1
36.804291 -32.252192 7.149497 49.455788 -0.719575 1.425725 0.044797 -0.009832 87305.100000 0 0 1
36.078871 -32.335492 8.348797 49.162703 -0.730736 1.400150 0.042503 -0.007387 1457680.000000 0 0 1
34.666171 -32.093292 8.048997 47.921907 -0.746878 1.402036 0.028900 0.001973 1720440.000000 0 0 1
33.820721 -32.173192 9.359597 47.608376 -0.760438 1.372912 0.031072 -0.009324 -489674.000000 0 0 1
32.452151 -32.463992 9.190897 46.813731 -0.785581 1.373184 0.035486 -0.013242 206509.000000 0 0 1
31.701761 -32.448792 10.395397 46.540198 -0.797043 1.345532 0.042286 -0.012209 64712.300000 0 0 1
31.474971 -31.093192 11.082397 45.610085 -0.779296 1.325358 0.057436 -0.014182 -1040100.000000 0 0 1
30.698851 -30.139492 10.406697 44.261809 -0.776204 1.333458 0.053944 -0.015869 -170838.000000 0 0 1
31.345651 -29.393492 9.382097 43.983530 -0.753269 1.355835 0.063385 -0.021661 52589.600000 0 0 1
30.497061 -28.152492 8.927997 42.454006 -0.745444 1.358916 0.058289 -0.032693 204953.000000 0 0 1
31.046611 -27.573792 7.758797 42.242218 -0.726225 1.386074 0.072679 -0.032422 324984.000000 0 0 1
30.333701 -26.352392 7.513497 40.878290 -0.715279 1.385944 0.075108 -0.037501 338112.000000 0 0 1
30.649671 -25.779092 6.111597 40.513152 -0.699298 1.419364 0.078580 -0.031026 939035.000000 0 0 1
32.026771 -25.355192 5.989997 41.285347 -0.669652 1.425195 0.092113 -0.026719 729641.000000 0 0 1
32.207421 -24.706792 4.734497 40.867579 -0.654365 1.454686 0.096077 -0.024665 562332.000000 0 0 1
33.608071 -24.054792 4.523497 41.576405 -0.621215 1.461781 0.100258 -0.028969 1204580.000000 0 0 1
34.685961 -24.966692 4.269897 42.949780 -0.623886 1.471216 0.076778 -0.018830 -581007.000000 0 0 1
35.924921 -24.385192 4.103197 43.612770 -0.596343 1.476575 0.072166 -0.014753 -765202.000000 0 0 1
36.944041 -25.484592 3.785797 45.040635 -0.603858 1.486644 0.064596 -0.013461 -397956.000000 0 0 1
37.049721 -26.358092 4.849897 45.726932 -0.618353 1.464534 0.056000 -0.009378 -67846.100000 0 0 1
-37.386026 -27.574992 4.353597 46.658857 0.635501 1.477353 0.054552 -0.017035 -534355.000000 0 0 1
37.131491 -28.729292 5.264397 47.242287 -0.658508 1.459130 0.058788 -0.017513 1632730.000000 0 0 1
35.790891 -29.310492 5.199697 46.552440 -0.686182 1.458867 0.036321 -0.017894 1749350.000000 0 0 1
34.734791 -28.482092 5.692297 45.278444 -0.686810 1.444745 0.055239 -0.015068 -133234.000000 0 0 1
33.434781 -29.249492 6.043897 44.832422 -0.718729 1.435574 0.069410 -0.019811 511314.000000 0 0 1
32.629531 -29.789192 4.989497 44.463213 -0.739925 1.458343 0.048431 -0.021501 92684.300000 0 0 1
32.005511 -28.835492 4.108897 43.274951 -0.733342 1.475704 0.070162 -0.024563 -899256.000000 0 0 1
30.543051 -29.296392 4.035897 42.514056 -0.764568 1.475722 0.069313 -0.028367 -397487.000000 0 0 1
30.383571 -30.519492 3.360497 43.195992 -0.787630 1.492921 0.071067 -0.026720 700529.000000 0 0 1
28.997041 -30.801592 3.067397 42.414330 -0.815566 1.498413 0.099415 -0.034175 988145.000000 0 0 1
28.792241 -32.302092 2.668197 43.353634 -0.842785 1.509212 0.103164 -0.025032 -463934.000000 0 0 1
28.993641 -32.567492 1.255797 43.621666 -0.843387 1.542004 0.100359 -0.021943 317691.000000 0 0 1
29.080941 33.838762 0.835797 44.625794 0.860872 1.552066 0.088701 -0.012392 -55275.100000 0 0 1
28.609941 33.561262 -0.619503 44.105224 0.864871 1.584843 0.088789 -0.012160 564709.000000 0 0 1
29.603341 -33.689092 -1.569903 44.875130 -0.849862 1.605787 0.081815 -0.009723 986069.000000 0 0 1
29.109341 -33.547292 -2.836603 44.506413 -0.856110 1.634574 0.089124 -0.009298 -421513.000000 0 0 1
30.186631 -33.032992 -3.794103 44.908868 -0.830391 1.655382 0.093072 -0.012052 30459.200000 0 0 1
30.375201 -31.645192 -3.604503 44.012083 -0.805872 1.652786 0.075131 -0.017198 636241.000000 0 0 1
31.524571 -31.140792 -4.301803 44.520254 -0.779274 1.667573 0.075175 -0.019085 507673.000000 0 0 1
31.792191 -29.614692 -4.194803 43.650541 -0.749953 1.667045 0.062239 -0.014371 -164344.000000 0 0 1
30.919721 -28.808592 -4.948103 42.549357 -0.750067 1.687351 0.074269 -0.015205 255103.000000 0 0 1
31.355711 -27.432892 -4.879103 41.946988 -0.718769 1.687376 0.075676 -0.019896 279604.000000 0 0 1
32.379871 -26.901392 -5.907103 42.509232 -0.693245 1.710208 0.074271 -0.012924 -1118800.000000 0 0 1
33.669031 -27.263192 -5.623503 43.686486 -0.680652 1.699879 0.064929 -0.002545 -872046.000000 0 0 1
34.707821 -26.847892 -6.515803 44.360994 -0.658397 1.718211 0.071357 -0.010445 571781.000000 0 0 1
34.873751 -27.739392 -7.727503 45.225730 -0.671944 1.742504 0.073290 -0.020877 -779985.000000 0 0 1
33.705951 -27.846392 -8.515003 44.542316 -0.690488 1.763147 0.079175 -0.018780 -229679.000000 0 0 1
33.648441 -28.942492 -9.413503 45.370689 -0.710354 1.779794 0.063824 -0.010826 156601.000000 0 0 1
33.549561 -30.369892 -8.869503 46.114764 -0.735694 1.764338 0.053229 -0.004023 176102.000000 0 0 1
34.731431 -30.792392 -8.218103 47.137892 -0.725354 1.746034 0.062611 -0.010897 -474867.000000 0 0 1
34.619021 -32.111492 -7.782903 47.856014 -0.747839 1.734154 0.059417 -0.017948 374863.000000 0 0 1
35.836481 -32.723792 -7.017703 49.034152 -0.740029 1.714408 0.051314 -0.015763 228832.000000 0 0 1
35.652291 33.761762 -6.347003 49.509866 0.758169 1.699347 0.054753 -0.014515 -266975.000000 0 0 1
34.830651 33.854262 -5.212403 48.851350 0.771184 1.677699 0.063726 -0.012488 -250236.000000 0 0 1
34.403251 32.501762 -4.646703 47.555652 0.756985 1.668663 0.069700 -0.012746 -464946.000000 0 0 1
33.484281 31.857962 -5.448503 46.538296 0.760514 1.688141 0.096303 -0.024056 -512777.000000 0 0 1
33.054221 30.630262 -4.945403 45.334881 0.747355 1.680100 0.105406 -0.014359 -319683.000000 0 0 1
31.787211 30.054762 -5.568503 44.099022 0.757391 1.697407 0.114816 -0.018460 -690993.000000 0 0 1
31.880111 29.698362 -6.937003 44.118660 0.749983 1.728687 0.077937 -0.011852 -91068.100000 0 0 1
30.678671 29.132462 -7.427103 42.953964 0.759552 1.744578 0.056133 -0.002967 273755.000000 0 0 1
30.903481 28.677362 -8.850203 43.078328 0.748053 1.777714 0.046764 0.005105 -56466.400000 0 0 1
31.797251 27.586162 -9.022503 43.051911 0.714603 1.781934 0.048607 0.004659 52832.500000 0 0 1
32.234971 27.342862 -10.363603 43.521600 0.703469 1.811232 0.041922 0.016417 -258565.000000 0 0 1
33.345911 28.252362 -10.861103 45.034534 0.702896 1.814370 0.057146 0.001498 -559245.000000 0 0 1
34.616561 27.918462 -10.284503 45.645567 0.678695 1.798060 0.067418 -0.005064 895458.000000 0 0 1
35.675711 28.745962 -10.770103 47.064655 0.678242 1.801678 0.078074 -0.005320 347515.000000 0 0 1
35.872811 30.036462 -9.961503 47.835961 0.697077 1.780575 0.076644 -0.011137 -640389.000000 0 0 1
36.520581 29.806862 -8.738403 47.943316 0.684521 1.754086 0.083957 -0.012277 -1586.810000 0 0 1
36.592401 31.008062 -7.954603 48.618715 0.702977 1.735147 0.074488 -0.012959 321999.000000 0 0 1
-37.136726 30.989662 -6.939403 48.863594 -0.695412 1.713294 0.068499 -0.009373 274362.000000 0 0 1
-35.940503 31.246562 -7.596103 48.226218 -0.715648 1.728965 0.066543 -0.011114 -427265.000000 0 0 1
-35.075651 30.094062 -7.739403 46.859921 -0.709106 1.736717 0.087619 -0.011722 483991.000000 0 0 1
-33.663876 30.464262 -8.263603 46.147751 -0.735545 1.750836 0.081961 -0.013143 30233.700000 0 0 1
-32.820316 30.993362 -7.252303 45.720428 -0.756776 1.730092 0.077651 -0.019928 303449.000000 0 0 1
-31.448546 31.142262 -7.565503 44.900872 -0.780505 1.740097 0.076018 -0.025271 202850.000000 0 0 1
-31.057286 32.350862 -8.444603 45.633810 -0.805796 1.756921 0.055135 -0.023435 -585250.000000 0 0 1
-31.223966 33.657962 -7.882103 46.582421 -0.822895 1.740822 0.045906 -0.018780 -104219.000000 0 0 1
-30.439676 -33.799892 -6.746803 45.983974 0.837658 1.718049 0.060843 -0.036976 149405.000000 0 0 1
-30.789666 -32.351992 -6.236803 45.094929 0.810136 1.709545 0.049562 -0.029557 519031.000000 0 0 1
-31.917566 -32.173192 -5.391603 45.638960 0.789387 1.689209 0.023743 -0.027350 216163.000000 0 0 1
-31.554666 -32.429892 -4.017403 45.426141 0.799076 1.659350 0.041834 -0.034388 539607.000000 0 0 1
-32.832656 -32.657192 -3.147803 46.415344 0.782719 1.638667 0.035032 -0.027723 411984.000000 0 0 1
-33.597806 -31.493992 -2.904403 46.142384 0.753089 1.633782 0.014975 -0.019746 -54854.600000 0 0 1
-34.607578 -31.645592 -1.935503 46.934785 0.740721 1.612046 0.035051 -0.018683 -520491.000000 0 0 1
-35.036080 -30.208092 -1.484803 46.284558 0.711534 1.602882 0.062976 -0.017776 -60882.400000 0 0 1
-35.857381 -30.198392 -0.325603 46.880706 0.699937 1.577742 0.055275 -0.018665 -150023.000000 0 0 1
-36.468286 -28.929392 -0.264503 46.550140 0.670627 1.576478 0.059103 -0.017225 -250302.000000 0 0 1
37.364021 -28.785192 0.802397 47.173098 -0.656429 1.553786 0.054925 -0.008009 -906567.000000 0 0 1
36.261981 -29.624692 0.492197 46.827298 -0.684999 1.560285 0.033169 -0.005778 -262281.000000 0 0 1
35.277841 -29.676492 1.472497 46.123622 -0.699376 1.538866 0.045972 -0.014534 -341249.000000 0 0 1
34.450851 -28.390292 1.634497 44.671483 -0.689253 1.534199 0.045057 0.001794 -1547660.000000 0 0 1
33.412321 -28.236192 0.678297 43.750723 -0.701633 1.555292 0.052053 -0.007762 -98930.000000 0 0 1
32.884211 -26.963092 0.865697 42.533858 -0.686782 1.550442 0.065942 -0.010472 -976601.000000 0 0 1
31.623501 -26.735592 0.029197 41.410609 -0.701837 1.570091 0.070728 -0.026534 -19521.400000 0 0 1
30.424711 -27.271592 0.591097 40.862601 -0.730802 1.556330 0.073434 -0.018725 464472.000000 0 0 1
30.253321 -28.661792 0.415497 41.676545 -0.758391 1.560827 0.066521 -0.019347 -689839.000000 0 0 1
29.785141 -29.150192 -0.998503 41.687952 -0.774625 1.594750 0.075187 -0.019562 -670428.000000 0 0 1
28.460141 -28.804992 -1.270303 40.513218 -0.791420 1.602157 0.088809 -0.022069 -365795.000000 0 0 1
28.201441 -29.047392 -2.624703 40.570449 -0.800174 1.635536 0.081219 -0.018695 -280456.000000 0 0 1
26.810541 -29.546592 -3.016703 40.011332 -0.833909 1.646264 0.095286 -0.024515 510376.000000 0 0 1
25.663941 -28.683192 -2.811603 38.591041 -0.840896 1.643717 0.101519 -0.035923 337670.000000 0 0 1
24.558841 -29.403492 -3.278303 38.450608 -0.874936 1.656160 0.076495 -0.029163 -476255.000000 0 0 1
23.272341 -28.550592 -3.267803 36.978597 -0.886900 1.659282 0.076435 -0.027963 -96142.700000 0 0 1
23.205941 -27.704392 -4.449603 36.412195 -0.873530 1.693303 0.077449 -0.028790 199267.000000 0 0 1
22.419341 -26.569692 -4.092703 35.004651 -0.869916 1.687983 0.085251 -0.038338 -52826.600000 0 0 1
22.001341 -25.774992 -5.273503 34.296050 -0.864220 1.725173 0.091532 -0.043781 -348350.000000 0 0 1
20.776541 -26.230792 -5.796103 33.960475 -0.900911 1.742308 0.102698 -0.035060 -182885.000000 0 0 1
20.280241 -25.504292 -6.956403 33.318893 -0.899008 1.781126 0.115884 -0.037072 -131061.000000 0 0 1
18.854741 -25.873192 -7.378703 32.853745 -0.941043 1.797321 0.118704 -0.030330 -239302.000000 0 0 1
17.928241 -25.030492 -6.727703 31.515224 -0.949243 1.785927 0.110034 -0.034782 -152442.000000 0 0 1
16.605141 -25.483192 -6.960003 31.202010 -0.993289 1.795751 0.111423 -0.037142 318140.000000 0 0 1
15.564841 -24.719192 -6.091103 29.839642 -1.008849 1.776369 0.093092 -0.026139 57587.900000 0 0 1
15.749641 -24.997892 -4.763503 29.927191 -1.008582 1.730646 0.086002 -0.015412 159817.000000 0 0 1
14.996141 -24.104692 -3.938203 28.660597 -1.014267 1.708641 0.087353 -0.017393 226966.000000 0 0 1
15.156041 -24.429692 -2.421903 28.851014 -1.015516 1.654840 0.083591 -0.014971 -301715.000000 0 0 1
14.395741 -25.581992 -2.211003 29.437462 -1.058233 1.645976 0.089904 -0.011564 74838.500000 0 0 1
14.709641 -26.252192 -1.025403 30.109842 -1.060064 1.604858 0.082343 -0.010256 -180260.000000 0 0 1
14.368741 -27.763292 -1.045503 31.278653 -1.093212 1.604228 0.075862 -0.010747 705161.000000 0 0 1
12.983041 -28.068792 -0.833803 30.937221 -1.137560 1.597751 0.079672 -0.009015 531744.000000 0 0 1
12.491041 -29.295092 -1.318403 31.874232 -1.167752 1.612171 0.079399 -0.008245 -29965.000000 0 0 1
13.151441 -30.585092 -0.786803 33.302061 -1.164702 1.594425 0.073125 -0.006708 5040.730000 0 0 1
14.443841 -30.826592 -1.322103 34.068332 -1.132623 1.609613 0.090608 -0.005491 -84957.500000 0 0 1
14.942541 -32.135292 -1.037303 35.454654 -1.135548 1.600058 0.083104 -0.008205 -213449.000000 0 0 1
16.317541 -32.209292 -1.732303 36.148326 -1.101875 1.618737 0.077225 -0.015743 81038.800000 0 0 1
17.300441 -31.391792 -1.120803 35.860926 -1.067099 1.602056 0.074099 -0.011014 -524534.000000 0 0 1
18.516141 -31.422992 -1.805803 36.517295 -1.038315 1.620267 0.074993 -0.015178 -232131.000000 0 0 1
19.494841 -30.390592 -1.148003 36.124158 -1.000437 1.602581 0.073381 -0.020641 -161041.000000 0 0 1
19.073941 -29.068792 -1.357003 34.794415 -0.990099 1.609807 0.074585 -0.016882 -50171.200000 0 0 1
19.604341 -28.097592 -0.488803 34.264322 -0.961600 1.585062 0.068852 -0.018977 -422933.000000 0 0 1
19.060641 -26.637292 -0.564903 32.759311 -0.949702 1.588041 0.068795 -0.017268 -240053.000000 0 0 1
19.450041 -25.890792 -1.737403 32.429242 -0.926506 1.624397 0.080898 -0.033254 968298.000000 0 0 1
18.446841 -25.881792 -2.799703 31.905978 -0.951575 1.658658 0.098991 -0.025908 398842.000000 0 0 1
33.329971 -29.175592 13.862797 46.414214 -0.719032 1.267492 0.077527 -0.027501 -338216.000000 0 0 1
34.063361 -29.416692 14.994697 47.439385 -0.712330 1.249200 0.085626 -0.020879 -163526.000000 0 0 1
33.432471 -30.293092 15.933897 47.846532 -0.736174 1.231291 0.064097 -0.002472 243585.000000 0 0 1
34.314681 -30.504192 17.203397 49.030194 -0.726679 1.212293 0.069231 -0.002030 105048.000000 0 0 1
33.679811 -31.274792 18.201197 49.434055 -0.748389 1.193733 0.051274 0.001877 854033.000000 0 0 1
34.564651 -31.639292 19.303197 50.679121 -0.741240 1.180037 0.031852 -0.002818 866573.000000 0 0 1
35.475401 -32.925692 19.203597 52.070946 -0.748140 1.193082 0.038284 0.003768 -66108.500000 0 0 1
36.510631 -32.823192 18.277997 52.387721 -0.732264 1.214401 0.049813 0.012663 -154706.000000 0 0 1
37.214911 33.693462 18.274697 53.424372 0.735777 1.221681 0.049199 -0.005725 222751.000000 0 0 1
-36.476806 33.642462 17.350997 52.568334 -0.744998 1.234423 0.048212 -0.005307 258506.000000 0 0 1
-35.484928 -33.176292 17.731297 51.713106 0.751787 1.220817 0.057190 -0.006258 16752.700000 0 0 1
-34.508022 -33.141292 16.720497 50.682579 0.765198 1.234592 0.069618 0.002548 -54896.900000 0 0 1
-33.237266 -32.301592 17.097997 49.400913 0.771123 1.217378 0.063964 -0.004774 420884.000000 0 0 1
-32.195156 -32.279692 16.154197 48.368013 0.786709 1.230268 0.074176 -0.009705 -127015.000000 0 0 1
-32.440396 -31.445692 15.056297 47.622504 0.769829 1.249118 0.089373 -0.012984 -972372.000000 0 0 1
-31.341106 -31.358692 14.005997 46.495165 0.785679 1.264808 0.088505 -0.014772 -408355.000000 0 0 1
-30.237766 -30.702092 14.581497 45.492428 0.793017 1.244512 0.087756 -0.018930 -436579.000000 0 0 1
-29.146816 -30.641692 13.672197 44.445237 0.810396 1.258107 0.084122 -0.011178 -103597.000000 0 0 1
-27.906396 -30.115992 14.379497 43.502986 0.823462 1.233920 0.089566 -0.018337 368548.000000 0 0 1
-26.734626 -30.134692 13.558797 42.505068 0.845114 1.246130 0.087878 -0.014792 972334.000000 0 0 1
-25.509676 -29.808292 14.248597 41.740871 0.862950 1.222435 0.063146 -0.020415 487457.000000 0 0 1
-24.234926 -29.894992 13.439497 40.763491 0.889584 1.234816 0.068779 -0.017236 -416756.000000 0 0 1
-23.736926 -31.223892 13.249597 41.399576 0.920788 1.245023 0.068465 -0.022531 -6640.200000 0 0 1
-22.467226 -31.166692 12.645697 40.448147 0.946199 1.252826 0.058888 -0.030436 15680.000000 0 0 1
-21.892326 -32.564792 12.317597 41.127397 0.978925 1.266629 0.042442 -0.024707 -95153.700000 0 0 1
-22.627626 -33.222292 11.306897 41.756150 0.972869 1.296589 0.037600 -0.026049 -135351.000000 0 0 1
-22.252926 33.223462 11.072397 41.492037 -0.980631 1.300667 0.043318 -0.016758 -311151.000000 0 0 1
-23.170326 32.321062 10.220097 41.060509 -0.948831 1.319249 0.046738 -0.008989 -75615.300000 0 0 1
-23.088526 32.686162 8.835997 40.982192 -0.955808 1.353484 0.036853 -0.005532 -307284.000000 0 0 1
-24.290726 32.445362 8.163397 41.344672 -0.928150 1.372043 0.046722 -0.015855 -741847.000000 0 0 1
-24.159426 32.933062 6.711297 41.392100 -0.937879 1.407938 0.038356 -0.006263 -237417.000000 0 0 1
-23.440526 32.126862 5.764797 40.184902 -0.940464 1.426843 0.031696 -0.005323 263832.000000 0 0 1
-22.047226 32.007662 5.983497 39.323947 -0.967619 1.418044 0.043334 -0.009103 120460.000000 0 0 1
-21.129826 33.246062 5.623297 39.791854 -1.004640 1.429004 0.060437 -0.012863 -171813.000000 0 0 1
-21.014826 -33.395992 6.495197 39.988783 1.009138 1.407648 0.057296 -0.016036 -24353.900000 0 0 1
-20.367026 -33.659592 7.714497 40.091113 1.026644 1.377164 0.048230 -0.016560 -354044.000000 0 0 1
-20.453826 -32.369192 8.585197 39.240657 1.007256 1.350229 0.041713 -0.020377 -468158.000000 0 0 1
-19.626326 -31.331792 8.098097 37.847761 1.011189 1.355164 0.060120 -0.032118 -56819.400000 0 0 1
-19.690926 -30.098592 8.867797 37.044508 0.991464 1.329067 0.056383 -0.032226 -5984.700000 0 0 1
-19.071726 -30.108992 10.292797 37.097490 1.006163 1.289655 0.047627 -0.028296 -259972.000000 0 0 1
-17.683126 -30.257092 10.153597 36.486711 1.041905 1.288791 0.054508 -0.036588 -395195.000000 0 0 1
-17.018326 -29.854492 11.364597 36.194864 1.052696 1.251410 0.074217 -0.034858 -72080.800000 0 0 1
-15.719326 -30.636192 11.619197 36.341150 1.096726 1.245356 0.065063 -0.030262 -168822.000000 0 0 1
-14.656726 -30.040492 10.920797 35.164109 1.116876 1.255007 0.067318 -0.026904 -40126.200000 0 0 1
-13.654026 -30.960792 10.482597 35.424397 1.155443 1.270383 0.083502 -0.021989 597757.000000 0 0 1
-12.405026 -30.394592 9.774797 34.252920 1.183299 1.281403 0.100409 -0.018752 559131.000000 0 0 1
-11.385026 -29.920792 10.659797 33.741723 1.207208 1.249367 0.093363 -0.027693 187424.000000 0 0 1
-10.389226 -29.219292 9.919897 32.559290 1.229176 1.261203 0.103344 -0.025588 456579.000000 0 0 1
-9.337826 -28.598292 10.878497 31.990608 1.255193 1.223823 0.099394 -0.023656 70938.900000 0 0 1
-9.848526 -27.511092 11.606897 31.441592 1.227027 1.192694 0.075256 -0.028648 -479981.000000 0 0 1
-9.040626 -27.175092 12.690097 31.325023 1.249633 1.153697 0.077846 -0.024600 -319194.000000 0 0 1
-9.502926 -25.881392 13.422697 30.664651 1.218906 1.117729 0.072504 -0.037827 150585.000000 0 0 1
-9.254626 -24.680692 12.746897 29.279140 1.212048 1.120361 0.058394 -0.033286 33293.300000 0 0 1
-10.026326 -24.483692 11.547597 28.867376 1.182118 1.159255 0.049501 -0.029690 74349.400000 0 0 1
-9.715826 -23.188492 10.817897 27.370245 1.174024 1.164464 0.037211 -0.022281 1107450.000000 0 0 1
-8.474826 -23.195592 10.056197 26.664307 1.220501 1.184089 0.023153 -0.021055 646930.000000 0 0 1
-8.022526 -21.930092 9.822897 25.333360 1.220096 1.172612 0.014993 -0.008497 803208.000000 0 0 1
-6.660126 -21.889592 9.026297 24.596454 1.275436 1.195041 0.026514 -0.016108 235025.000000 0 1 0
-5.516326 -22.368292 9.625197 24.968275 1.329007 1.175050 0.053568 -0.027227 -955018.000000 0 1 0
-4.502426 -22.478492 8.649097 24.502272 1.373113 1.210030 0.059775 -0.030244 -241714.000000 0 1 0
-3.271726 -23.195492 9.199397 25.166723 1.430671 1.196585 0.081021 -0.038867 -238567.000000 0 0 1
-2.491826 -22.525992 10.174197 24.842379 1.460624 1.148836 0.074150 -0.035040 -315467.000000 0 1 0
-1.420026 -23.388992 10.514097 25.682828 1.510157 1.149019 0.098848 -0.046031 427994.000000 0 0 1
-0.536526 -22.715292 11.614097 25.517829 1.547181 1.098271 0.092533 -0.042765 -72674.100000 0 0 1
-1.106826 -22.655792 12.883597 26.086338 1.521981 1.054247 0.089888 -0.035444 -175521.000000 0 0 1
-0.158326 -22.263492 13.869997 26.230992 1.563685 1.013653 0.124662 -0.038528 444666.000000 0 0 1
0.613474 -20.890392 13.824597 25.058019 -1.541438 0.986391 0.098706 -0.039304 557865.000000 0 0 1
1.768874 -20.954692 12.977697 24.711306 -1.486582 1.017879 0.099540 -0.043692 143925.000000 0 1 0
2.177074 -19.609292 12.700397 23.464102 -1.460227 0.998850 0.076305 -0.038337 39264.300000 0 1 0
3.692374 -19.519892 12.444097 23.441744 -1.383846 1.011191 0.080455 -0.035429 46022.000000 0 1 0
4.071874 -20.048492 11.146997 23.297591 -1.370421 1.071895 0.094366 -0.031187 718258.000000 0 1 0
5.496874 -20.271692 11.089397 23.751460 -1.306004 1.085022 0.120897 -0.030209 1242970.000000 0 1 0
5.869974 -21.163592 9.876697 24.081183 -1.300236 1.148187 0.113072 -0.037542 -381981.000000 0 1 0
5.791274 -20.500692 8.618897 22.980483 -1.295479 1.186342 0.094273 -0.031882 -485022.000000 0 1 0
6.057374 -21.353692 7.510397 23.432413 -1.294389 1.244525 0.087868 -0.032169 -706186.000000 0 1 0
7.505374 -21.828292 7.288997 24.206083 -1.239622 1.264927 0.086603 -0.021372 94547.700000 0 1 0
8.398974 -20.782192 6.810997 23.427163 -1.186724 1.275806 0.090993 -0.027810 448835.000000 0 1 0
8.669074 -19.639792 7.648697 22.789841 -1.155114 1.228534 0.089859 -0.020770 -720036.000000 0 1 0
9.679474 -19.805792 8.777797 23.727860 -1.116214 1.191856 0.089559 -0.017299 86733.200000 0 1 0
9.046374 -20.207992 10.020997 24.302679 -1.149887 1.145774 0.105363 -0.019884 -604573.000000 0 1 0
9.871774 -19.990492 11.098497 24.904785 -1.112102 1.108910 0.102904 -0.014380 -225381.000000 0 1 0
9.134474 -20.092692 12.444797 25.338269 -1.144110 1.057391 0.130266 -0.023170 -16492.700000 0 0 1
9.113374 -21.463492 12.870397 26.634230 -1.169265 1.066459 0.107280 -0.027202 -227320.000000 0 0 1
8.409474 -21.700792 14.062097 27.191657 -1.201095 1.027282 0.142355 -0.031025 101492.000000 0 0 1
8.798674 -23.109192 14.589297 28.710608 -1.207000 1.037761 0.129087 -0.034457 87245.400000 0 0 1
8.293474 -24.126892 13.782497 28.997342 -1.239706 1.075489 0.138414 -0.036514 -195960.000000 0 0 1
8.281174 -25.436392 14.369397 30.365564 -1.256054 1.077861 0.145990 -0.048749 142490.000000 0 0 1
8.290274 -26.563392 13.344797 30.861401 -1.268281 1.123632 0.148107 -0.061588 -678523.000000 0 0 1
9.538474 -26.753492 12.777997 31.144968 -1.228314 1.148041 0.135114 -0.049120 -710095.000000 0 0 1
9.596174 -27.671092 11.706897 31.540883 -1.236980 1.190532 0.125328 -0.055752 -755586.000000 0 0 1
11.033474 -28.026792 11.374097 32.196408 -1.195754 1.209730 0.110767 -0.049591 -599784.000000 0 0 1
11.756574 -28.778692 12.304797 33.434087 -1.182970 1.193905 0.102099 -0.045611 250739.000000 0 0 1
13.073874 -29.040892 11.865497 33.986609 -1.147786 1.214162 0.127863 -0.038158 -177893.000000 0 0 1
13.999674 -29.915692 12.680897 35.380004 -1.133099 1.204222 0.109374 -0.044125 -804277.000000 0 0 1
14.711174 -29.128692 13.635897 35.367174 -1.103124 1.174990 0.095600 -0.041125 49402.700000 0 0 1
15.614874 -29.913292 14.409597 36.691495 -1.089700 1.167206 0.086026 -0.038092 595747.000000 0 0 1
17.013674 -29.942092 13.741897 37.078750 -1.054073 1.191127 0.080619 -0.023452 -622623.000000 0 0 1
17.733274 -28.774992 13.610597 36.437858 -1.018497 1.187986 0.060415 -0.030697 -999264.000000 0 0 1
19.043474 -28.883492 13.234297 37.041283 -0.987897 1.205437 0.060562 -0.027724 -1056540.000000 0 0 1
19.859074 -27.588892 13.103197 36.431080 -0.946891 1.202881 0.024622 -0.029062 713072.000000 0 0 1
21.201774 -27.814092 12.628397 37.183536 -0.919490 1.224280 0.020170 -0.029562 871123.000000 0 0 1
21.785774 -26.552592 12.304197 36.483604 -0.883694 1.226799 0.005484 -0.024784 209713.000000 0 0 1
23.141974 -26.757992 11.563697 37.219084 -0.857737 1.254875 0.015304 -0.021664 -783312.000000 0 0 1
24.181574 -27.012192 12.398997 38.316343 -0.840634 1.241269 0.023817 -0.018500 -1501470.000000 0 0 1
25.118474 -27.729892 11.665297 39.191374 -0.834771 1.268567 0.027046 -0.026072 -628489.000000 0 0 1
26.319074 -28.220592 12.506897 40.564984 -0.820249 1.257372 0.039861 -0.021785 -29551.300000 0 0 1
27.282974 -27.359992 13.057797 40.785241 -0.786808 1.244898 0.021069 -0.019748 441450.000000 0 0 1
28.433874 -27.358192 12.201797 41.301813 -0.766120 1.270891 0.011467 -0.023321 432598.000000 0 0 1
29.685874 -26.591792 12.731997 41.838717 -0.730475 1.261581 0.054256 -0.035408 159704.000000 0 0 1
29.505874 -25.157792 12.804897 40.834746 -0.706023 1.251837 0.068332 -0.041358 146655.000000 0 0 1
28.757474 -24.623192 13.892497 40.327353 -0.708103 1.219097 0.067297 -0.029343 -53902.200000 0 0 1
29.520674 -24.585992 15.273197 41.342614 -0.694447 1.192401 0.057194 -0.015813 196805.000000 0 0 1
29.835274 -25.867192 15.819397 42.538318 -0.714281 1.189757 0.043050 -0.018796 -128769.000000 0 0 1
30.498674 -25.656592 17.044597 43.346835 -0.699384 1.166671 0.057531 0.002351 -222181.000000 0 0 1
31.090174 -27.007192 17.535397 44.760222 -0.715235 1.168249 0.051824 0.029438 -45356.500000 0 0 1
30.213674 -28.016592 17.997597 44.963419 -0.747685 1.158983 0.030656 0.025037 -25788.700000 0 0 1
30.929074 -28.887992 18.817197 46.316418 -0.751289 1.152423 0.052062 0.005424 -160403.000000 0 0 1
30.017074 -29.684992 19.728897 46.598851 -0.779836 1.133626 0.046487 0.018897 -699014.000000 0 0 1
29.140374 -28.881092 20.567297 45.894363 -0.780929 1.106108 0.029879 0.021223 1019650.000000 0 0 1
28.108674 -29.635292 21.201597 46.020167 -0.811830 1.092010 0.026948 0.014901 872701.000000 0 0 1
27.002174 -30.288492 20.308897 45.375781 -0.842698 1.106749 0.065192 0.003432 -417162.000000 0 0 1
27.447374 -31.455592 19.629597 46.131699 -0.853341 1.131269 0.062654 0.005232 476101.000000 0 0 1
26.550374 -31.781792 18.536797 45.371990 -0.874842 1.149930 0.083269 0.008134 432773.000000 0 0 1
26.673474 -30.949292 17.198397 44.329649 -0.859466 1.172373 0.072207 0.012485 -91038.200000 0 0 1
27.925274 -31.114992 16.571097 44.972935 -0.839372 1.193436 0.060562 0.007625 -237508.000000 0 0 1
28.208774 -29.916392 15.837597 44.063079 -0.814768 1.203139 0.058170 -0.008266 -1239350.000000 0 0 1
29.532574 -30.032092 15.145697 44.760380 -0.793784 1.225609 0.062916 -0.007405 -1226070.000000 0 0 1
29.695474 -31.061292 14.136497 45.237878 -0.807874 1.252981 0.087950 -0.003370 121087.000000 0 0 1
29.741674 -32.388892 14.680497 46.358651 -0.827980 1.248577 0.079258 -0.013961 -759374.000000 0 0 1
28.923574 -33.439892 13.906297 46.348513 -0.857691 1.266064 0.096107 -0.020981 -181920.000000 0 0 1
29.322474 -33.811092 12.587197 46.491235 -0.856376 1.296631 0.097360 -0.022227 440063.000000 0 0 1
28.587274 32.812262 12.109497 45.172079 0.854101 1.299402 0.101169 -0.030117 -59700.600000 0 0 1
28.998174 32.433362 10.724997 44.808957 0.841259 1.329101 0.105747 -0.038370 16893.000000 0 0 1
30.316474 31.910462 10.700897 45.297631 0.811008 1.332307 0.086655 -0.042008 148565.000000 0 0 1
30.647574 31.304262 9.487097 44.824498 0.795998 1.357534 0.089110 -0.051183 -269015.000000 0 0 1
32.164274 31.043762 9.477597 45.695520 0.767673 1.361872 0.054672 -0.039935 -253320.000000 0 0 1
32.428074 30.183262 10.557497 45.541959 0.749560 1.336849 0.042680 -0.020504 -257806.000000 0 0 1
33.728474 29.658462 10.579897 46.142915 0.721277 1.339453 0.042116 -0.020151 -224489.000000 0 0 1
34.068274 28.772162 11.813597 46.130746 0.701318 1.311822 0.043642 -0.015693 -133734.000000 0 0 1
33.549574 27.466762 11.787897 44.932744 0.686035 1.305344 0.053128 -0.022143 145094.000000 0 0 1
33.812574 26.691962 12.939297 44.979733 0.668250 1.279004 0.069115 -0.033149 4040.950000 0 0 1
33.700174 25.195262 12.789397 43.978082 0.641983 1.275720 0.057712 -0.027886 946918.000000 0 0 1
34.822774 24.702262 12.002497 44.349603 0.616987 1.296745 0.058031 -0.017648 623869.000000 0 0 1
34.950074 23.268662 11.871797 43.633449 0.587381 1.295242 0.070400 -0.027073 327818.000000 0 0 1
33.764074 22.433662 11.213797 42.059852 0.586448 1.300917 0.065664 -0.023841 667003.000000 0 0 1
32.672074 22.309562 12.095597 41.370091 0.599111 1.274086 0.100478 -0.040313 -413151.000000 0 0 1
31.584974 21.707762 11.438597 39.995988 0.602139 1.280753 0.100179 -0.030562 -475511.000000 0 0 1
30.302474 21.784062 12.267297 39.284499 0.623290 1.253217 0.096291 -0.028289 -549681.000000 0 0 1
29.765874 23.042962 12.490397 39.661006 0.658773 1.250415 0.103888 -0.026817 -1653280.000000 0 0 1
28.555374 22.865962 13.063997 38.844944 0.675203 1.227799 0.134422 -0.022499 -1380870.000000 0 0 1
25.380074 9.465562 25.804946 37.411767 0.356974 0.809646 0.047451 -0.005173 -516646.000000 0 0 1
25.091674 8.263662 26.468706 37.396158 0.318151 0.784428 0.046179 -0.014955 -449787.000000 0 0 1
23.702174 8.142162 26.471726 36.453260 0.330890 0.758043 0.051849 -0.018185 -698591.000000 0 0 1
23.260874 6.911962 27.319126 36.540090 0.288840 0.726283 0.066933 -0.018418 -235323.000000 0 0 1
23.359674 6.971062 28.674876 37.636666 0.290009 0.704575 0.081053 -0.018865 -553840.000000 0 0 1
24.608074 6.543062 29.126136 38.687217 0.259878 0.718397 0.060934 -0.014810 -538314.000000 0 0 1
24.809374 6.652162 30.636316 39.979247 0.261969 0.697725 0.071604 -0.016620 -97144.800000 0 0 1
24.947774 7.957362 31.130666 40.679595 0.308760 0.699344 0.108823 -0.028132 134771.000000 0 0 1
24.992574 7.933562 32.554972 41.801871 0.307376 0.678058 0.115807 -0.024935 -62652.000000 0 0 1
25.244874 9.346262 33.158826 42.710234 0.354577 0.681915 0.164624 -0.034040 -75195.000000 0 0 1
26.522374 9.913562 33.034989 43.508914 0.357702 0.708607 0.112698 -0.034435 -448763.000000 0 0 1
26.969274 10.505362 -33.598103 44.345653 0.371449 2.430488 0.131934 -0.028535 10710.900000 0 0 1
28.172274 11.454062 -33.755113 45.434351 0.386159 2.408252 0.113172 -0.034384 -377840.000000 0 0 1
28.051974 12.673462 33.359083 45.391170 0.424337 0.745241 0.115899 -0.041605 277596.000000 0 0 1
27.466874 13.647862 -33.608883 45.500004 0.461152 2.401872 0.124187 -0.047960 109053.000000 0 0 1
26.997074 15.043062 33.630808 45.674577 0.508362 0.743190 0.117932 -0.042442 -49041.500000 0 0 1
28.062374 15.939362 33.432536 46.468211 0.516556 0.767756 0.099574 -0.042740 218973.000000 0 0 1
27.542674 17.260362 33.403476 46.608060 0.559804 0.771754 0.120291 -0.049133 39244.300000 0 0 1
27.899874 18.104562 -33.193973 46.989552 0.575610 2.355212 0.107298 -0.051990 -706501.000000 0 0 1
27.232274 17.637762 -32.070773 45.620411 0.574742 2.350392 0.115425 -0.053125 55048.100000 0 0 1
28.066774 16.938162 -31.173303 45.237373 0.542985 2.331050 0.103521 -0.045021 -157449.000000 0 0 1
27.226774 16.290762 -30.027603 43.684586 0.539195 2.328662 0.111729 -0.039580 -284922.000000 0 0 1
26.536674 15.239562 -30.577793 43.260152 0.521295 2.355810 0.132181 -0.037601 -493246.000000 0 0 1
25.706074 14.659762 -29.604963 41.858866 0.518283 2.356406 0.157445 -0.035606 166734.000000 0 0 1
24.852374 13.443962 -30.115053 41.295242 0.495871 2.388039 0.142054 -0.027694 -230202.000000 0 0 1
23.845774 13.768362 -31.064183 41.511109 0.523630 2.416344 0.152627 -0.031342 186739.000000 0 0 1
23.239474 12.659762 -31.680663 41.279621 0.498805 2.445674 0.142498 -0.027285 433248.000000 0 0 1
22.201174 11.942862 -30.750343 39.763145 0.493536 2.454885 0.147113 -0.025295 -520814.000000 0 0 1
21.007374 12.600262 -30.406983 39.046907 0.540274 2.463435 0.175515 -0.024591 358762.000000 0 0 1
20.094774 11.626762 -29.879843 37.838956 0.524533 2.481048 0.157458 -0.019490 939669.000000 0 0 1
18.793474 12.155562 -29.177243 36.773141 0.574120 2.487235 0.122766 -0.010223 627586.000000 0 0 1
17.773174 12.629362 -30.010673 37.094838 0.617795 2.513289 0.095086 0.002782 415641.000000 0 0 1
16.575274 12.854262 -29.250403 35.993858 0.659628 2.519481 0.088217 -0.005852 83106.500000 0 0 1
15.443374 13.603362 -29.996653 36.377857 0.722136 2.540265 0.086856 -0.004730 -153055.000000 0 0 1
14.763274 12.825162 -30.918573 36.584111 0.715262 2.577617 0.077582 -0.004956 375267.000000 0 0 1
13.647074 12.126462 -30.319423 35.391540 0.726467 2.599606 0.062428 -0.009219 53448.300000 0 0 1
12.823874 11.392162 -31.407013 35.785941 0.726344 2.641703 0.068529 -0.009740 -66909.200000 0 0 1
12.152274 12.313162 -32.224213 36.574467 0.791974 2.648890 0.072390 -0.012131 -150041.000000 0 0 1
11.195274 11.654062 -33.019473 36.761895 0.805474 2.686450 0.072221 -0.010162 558291.000000 0 0 1
10.513374 12.565062 33.704266 37.475184 0.874066 0.452457 0.078564 -0.016701 251375.000000 0 0 1
11.432974 12.691662 32.671687 36.867741 0.837525 0.481748 0.072954 -0.012029 153758.000000 0 0 1
10.811874 13.236262 31.566866 35.896550 0.885873 0.496229 0.073627 -0.021174 -466060.000000 0 0 1
11.761674 13.222462 30.355086 35.136900 0.843800 0.527816 0.084158 -0.022242 -248829.000000 0 0 1
12.111774 11.963562 29.931126 34.433911 0.779242 0.517145 0.084900 -0.019497 77539.500000 0 0 1
12.135474 11.824162 28.498506 33.154870 0.772406 0.536394 0.104547 -0.020400 -375168.000000 0 0 1
12.778174 10.509862 27.974476 32.500927 0.688302 0.534097 0.124155 -0.012238 146681.000000 0 0 1
12.188174 9.310162 28.513296 32.376516 0.652318 0.493504 0.117255 -0.029628 533288.000000 0 0 1
12.804374 8.161462 27.937266 31.797049 0.567464 0.497849 0.113258 -0.030113 -208976.000000 0 0 1
11.882474 6.961162 28.153876 31.341533 0.529938 0.454928 0.097266 -0.027136 392155.000000 0 0 1
10.581574 6.945862 27.576046 30.342265 0.580869 0.430319 0.087726 -0.029468 622698.000000 0 0 1
9.783774 5.759162 27.746526 29.979325 0.532028 0.388384 0.078655 -0.033834 169390.000000 0 0 1
10.302074 4.461562 27.184406 29.411396 0.408690 0.391648 0.087964 -0.027734 -393504.000000 0 0 1
11.487074 3.988662 27.793206 30.336852 0.334205 0.412421 0.089535 -0.028204 308590.000000 0 0 1
11.743674 2.621962 27.433796 29.956665 0.219663 0.413344 0.078988 -0.028267 -213877.000000 0 0 1
12.276974 1.838062 28.619636 31.195932 0.148612 0.409260 0.080517 -0.022960 -510178.000000 0 0 1
11.262974 1.587862 29.534626 31.649171 0.140058 0.367613 0.072853 -0.026999 -181442.000000 0 0 1
11.296274 0.313362 30.150136 32.198365 0.027733 0.358605 0.081070 -0.026672 -222490.000000 0 0 1
10.201074 0.200662 31.207696 32.833253 0.019668 0.315986 0.089573 -0.021256 -229973.000000 0 0 1
10.453474 0.902162 32.387307 34.044481 0.086089 0.313295 0.070183 -0.032140 1058800.000000 0 0 1
9.195874 1.089862 33.088927 34.360282 0.117966 0.272878 0.092697 -0.032671 904267.000000 0 0 1
9.173874 2.452862 33.850676 35.157429 0.261263 0.273500 0.084012 -0.037123 -186671.000000 0 0 1
9.176574 3.636862 33.053242 34.495697 0.377330 0.290208 0.060003 -0.036894 -145696.000000 0 0 1
10.349374 3.865862 32.309461 34.146094 0.357486 0.329474 0.068684 -0.035386 -303798.000000 0 0 1
10.390474 5.237862 31.571956 33.647965 0.466924 0.353109 0.065938 -0.034772 76411.300000 0 0 1
10.413274 6.351562 32.455615 34.671971 0.547703 0.359490 0.067126 -0.037233 32049.800000 0 0 1
10.784774 7.516762 31.744766 34.359035 0.608696 0.392611 0.076622 -0.033957 -421017.000000 0 0 1
10.790874 8.846762 32.517022 35.384529 0.686720 0.405357 0.081156 -0.030829 83383.600000 0 0 1
9.566674 9.340762 33.052463 35.654403 0.773450 0.384401 0.071127 -0.034146 143584.000000 0 0 1
9.047274 8.578562 -33.722213 35.953199 0.758812 2.787460 0.066101 -0.029756 -464603.000000 0 0 1
7.648374 9.022162 -33.266543 35.306655 0.867620 2.799985 0.069559 -0.034703 -39889.100000 0 0 1
6.980974 8.023762 -32.498443 34.194496 0.854784 2.825315 0.073678 -0.029894 20927.600000 0 0 1
5.624074 8.374862 -32.317503 33.855421 0.979426 2.839023 0.068311 -0.032933 169574.000000 0 0 1
4.995274 7.556562 -31.172653 32.462111 0.986691 2.858793 0.068515 -0.030916 -137156.000000 0 0 1
5.716374 7.892962 -29.973703 31.518227 0.943988 2.827237 0.083391 -0.034661 557622.000000 0 0 1
5.184074 7.317762 -28.790793 30.155166 0.954439 2.839631 0.076173 -0.035158 -1050940.000000 0 0 1
3.805174 7.696062 -28.337933 29.609917 1.111614 2.847419 0.068955 -0.032695 -1052050.000000 0 0 1
2.797274 7.085962 -29.121483 30.101435 1.194813 2.885729 0.056934 -0.032515 505077.000000 0 0 1
1.485574 7.427562 -28.608713 29.594494 1.373393 2.882764 0.072492 -0.021487 879105.000000 0 0 1
0.386474 6.773762 -29.462123 30.233258 1.513804 2.915251 0.077964 -0.038601 -470081.000000 0 0 1
0.404374 7.362362 -30.735553 31.607627 1.515927 2.906142 0.072511 -0.045298 -95168.300000 0 0 1
-0.142226 6.606562 -31.761363 32.441502 -1.549272 2.936465 0.108912 -0.059337 -757783.000000 0 0 1
0.107174 7.380562 -33.047453 33.861753 1.556276 2.921844 0.121095 -0.059103 513735.000000 0 0 1
1.505274 7.595662 -33.268193 34.157467 1.375156 2.912908 0.089912 -0.040935 967139.000000 0 0 1
2.310774 6.507062 -33.761183 34.460107 1.229569 2.939845 0.090516 -0.045695 -197795.000000 0 0 1
2.116474 6.113862 32.595774 33.231661 1.237532 0.195940 0.103029 -0.045853 -17966.200000 0 0 1
0.917274 5.395962 32.320788 32.780957 1.402413 0.167754 0.120940 -0.048936 178665.000000 0 0 1
0.466174 5.353262 30.997246 31.459561 1.483933 0.171649 0.146221 -0.047075 75046.800000 0 0 1
1.167774 4.306162 30.074826 30.403978 1.305979 0.147279 0.136945 -0.051347 -12835.100000 0 0 1
0.851074 4.440862 28.717676 29.071472 1.381446 0.156171 0.125288 -0.044431 491510.000000 0 0 1
1.793874 3.646562 27.988986 28.282481 1.113621 0.144189 0.110714 -0.034991 233997.000000 0 0 1
1.786074 3.994162 26.489226 26.848138 1.150297 0.163695 0.111198 -0.028950 268666.000000 0 0 1
2.451974 5.232762 26.195746 26.825568 1.132598 0.217121 0.103226 -0.029290 141078.000000 0 0 1
2.253374 5.530162 24.838706 25.546462 1.183867 0.235939 0.091699 -0.025383 -1037450.000000 0 0 1
2.676574 6.947362 24.460446 25.568405 1.203057 0.295465 0.081393 -0.022745 882173.000000 0 0 1
4.085574 7.257562 24.515026 25.891130 1.058072 0.327497 0.076816 -0.017777 541455.000000 0 0 1
4.738274 6.731162 23.437356 24.840883 0.957437 0.337760 0.072749 -0.020924 -1232270.000000 0 1 0
6.281874 6.856762 23.446816 25.223606 0.829126 0.377583 0.081472 -0.019598 695871.000000 0 0 1
7.088074 5.991462 24.301226 26.013228 0.701752 0.364822 0.095715 -0.019227 620076.000000 0 0 1
6.857474 4.561562 24.247466 25.608054 0.586983 0.327440 0.095947 -0.027479 -914148.000000 0 0 1
7.078274 3.815662 22.862466 24.235379 0.494410 0.338208 0.090872 -0.024440 531131.000000 0 1 0
6.079474 4.024662 21.839216 23.024102 0.584771 0.322212 0.059991 -0.021542 1643460.000000 0 1 0
4.785774 3.405062 22.126316 22.892618 0.618400 0.259469 0.057088 -0.020060 1634020.000000 0 1 0
3.656674 3.696262 21.068416 21.700502 0.790782 0.241951 0.035770 -0.021561 556701.000000 0 1 0
3.293474 5.034462 21.129816 21.969568 0.991484 0.277379 0.035391 -0.019931 64202.300000 0 1 0
2.116974 5.357162 20.414716 21.211822 1.194463 0.275013 0.038558 -0.019799 -28965.100000 0 1 0
1.678674 6.844162 20.407016 21.589507 1.330273 0.332503 0.044627 -0.020781 -372247.000000 0 1 0
2.379474 7.743562 19.607516 21.215073 1.272670 0.391793 0.035190 -0.022126 -492749.000000 0 1 0
1.947174 9.072562 19.767216 21.836797 1.359381 0.438887 0.047146 -0.025950 -489461.000000 0 1 0
2.925374 10.144562 19.314016 22.011387 1.290044 0.500265 0.055894 -0.030870 -814969.000000 0 1 0
3.276674 10.206462 17.947516 20.905066 1.260151 0.538411 0.043686 -0.025369 -545012.000000 0 1 0
4.139474 11.219662 17.651716 21.321331 1.217342 0.595461 0.040779 -0.022988 -334539.000000 0 1 0
5.645074 11.102762 18.004916 21.893268 1.100421 0.605188 0.045537 -0.014532 -296985.000000 0 1 0
6.064974 9.894262 17.436216 20.945214 1.020888 0.587249 0.037948 -0.006147 -418491.000000 0 1 0
7.369474 9.603262 17.870716 21.584585 0.916256 0.595374 0.046142 0.002815 -165955.000000 0 1 0
7.534974 8.117262 18.204516 21.308923 0.822583 0.546566 0.050318 -0.006400 -110080.000000 0 1 0
7.117474 7.799062 19.509916 22.183792 0.831060 0.496055 0.054015 -0.008565 3069.250000 0 1 0
7.007774 6.406262 19.804716 21.963057 0.740586 0.447045 0.059450 -0.022671 570845.000000 0 1 0
8.367874 5.663662 20.061716 22.462654 0.595009 0.466575 0.089112 -0.020676 773724.000000 0 1 0
9.267474 5.647062 18.949216 21.836854 0.547260 0.520113 0.080011 -0.021970 783913.000000 0 1 0
10.521174 4.959362 19.154816 22.409761 0.440482 0.545721 0.101144 -0.024441 818020.000000 0 1 0
10.522974 3.404562 19.212416 22.168468 0.312907 0.522338 0.107053 -0.024265 -497590.000000 0 1 0
10.052174 2.953562 20.477316 23.001961 0.285780 0.472920 0.123350 -0.026392 134990.000000 0 1 0
10.003674 1.570462 20.438316 22.809310 0.155718 0.460002 0.110312 -0.023632 -168291.000000 0 1 0
9.103174 0.808062 21.421516 23.289528 0.088535 0.403247 0.109266 -0.030784 -138626.000000 0 1 0
9.550174 0.979362 22.726716 24.671210 0.102192 0.399685 0.126473 -0.028739 36815.300000 0 1 0
8.667174 0.341762 23.574106 25.119220 0.039411 0.352569 0.119595 -0.030823 -672526.000000 0 0 1
9.208374 0.393062 25.014616 26.658576 0.042659 0.353020 0.131545 -0.034970 354665.000000 0 0 1
10.428174 -0.295238 25.322996 27.387737 -0.028304 0.390784 0.132118 -0.031739 756473.000000 0 0 1
10.490974 -1.682138 25.058686 27.218154 -0.158988 0.401027 0.142496 -0.030332 -168638.000000 0 0 1
11.968274 -2.159838 25.003206 27.804043 -0.178542 0.452710 0.152024 -0.034575 343817.000000 0 0 1
12.097774 -3.554338 24.869126 27.883022 -0.285760 0.469246 0.148253 -0.023356 -565627.000000 0 0 1
13.417174 -3.992538 24.962646 28.619829 -0.289225 0.511083 0.142749 -0.020507 -498082.000000 0 0 1
13.533274 -5.505338 24.990666 28.948086 -0.386355 0.529039 0.149454 -0.019474 -37522.400000 0 0 1
13.207374 -6.124538 23.746926 27.854285 -0.434206 0.549968 0.147585 -0.030660 346185.000000 0 0 1
13.086074 -7.511438 23.860056 28.230645 -0.521084 0.563889 0.145854 -0.031311 33732.500000 0 0 1
12.969974 -8.273238 22.566416 27.311350 -0.567805 0.598352 0.142151 -0.028040 114445.000000 0 0 1
12.469674 -9.600238 22.752516 27.664677 -0.656108 0.605110 0.152223 -0.020993 -47428.600000 0 0 1
12.356574 -10.279538 21.504416 26.847602 -0.693897 0.641865 0.140968 -0.025946 -26401.400000 0 0 1
11.876474 -11.730238 21.739416 27.408965 -0.779204 0.654833 0.167461 -0.021053 -153058.000000 0 0 1
10.509874 -11.856438 22.002216 27.113283 -0.845531 0.624095 0.160650 -0.018521 -760064.000000 0 0 1
10.134274 -13.133638 22.343216 27.828318 -0.913597 0.638661 0.151748 -0.017234 429445.000000 0 0 1
8.625874 -13.132638 22.766816 27.662245 -0.989637 0.604074 0.112403 -0.009882 845807.000000 0 0 1
7.777574 -12.900538 21.655416 26.379378 -1.028256 0.607772 0.100528 -0.013446 161005.000000 0 0 1
6.410174 -12.655738 21.962216 26.145688 -1.101960 0.573524 0.055322 -0.009941 660170.000000 0 0 1
5.768474 -11.500338 21.195016 24.794390 -1.105876 0.545571 0.036968 -0.001241 23716.900000 0 1 0
6.069474 -10.195838 21.780116 24.802562 -1.033848 0.498837 0.046257 0.001758 -107831.000000 0 1 0
5.390074 -9.084838 21.163916 23.653721 -1.035315 0.462949 0.029277 0.001316 172163.000000 0 1 0
5.661874 -7.699838 21.782716 23.787204 -0.936754 0.413469 0.047119 -0.015460 -441675.000000 0 1 0
4.932674 -6.733838 21.175216 22.761055 -0.938576 0.375494 0.036951 -0.016858 -551707.000000 0 1 0
5.367474 -5.468738 21.614816 22.932884 -0.794743 0.340688 0.055522 -0.026498 124613.000000 0 1 0
-7.975826 -15.592238 -20.935803 27.295412 1.097971 2.444962 0.052022 0.004651 -48713.700000 0 0 1
-7.769126 -14.951938 -19.678303 25.906666 1.091587 2.433470 0.048063 0.009277 -81428.300000 0 0 1
-6.802826 -13.923538 -19.828103 25.165393 1.116323 2.478206 0.052407 -0.004785 44858.400000 0 0 1
-6.220026 -13.431038 -18.534303 23.719230 1.137095 2.467709 0.042842 -0.005977 -118540.000000 0 1 0
-5.322326 -14.398838 -18.003003 23.659286 1.216737 2.435538 0.042061 0.001462 -163426.000000 0 1 0
-4.746126 -13.859338 -16.829903 22.312611 1.240864 2.425349 0.052725 -0.007094 -360461.000000 0 1 0
-3.622726 -14.780038 -16.356303 22.340598 1.330426 2.392245 0.043737 0.002588 275112.000000 0 1 0
-2.431226 -14.702038 -17.147603 22.717858 1.406913 2.426156 0.039179 -0.004891 178290.000000 0 1 0
-1.377826 -15.399338 -16.521603 22.627447 1.481561 2.389349 0.048402 -0.002204 190564.000000 0 1 0
-0.109326 -15.588938 -17.388203 23.353298 1.563783 2.410689 0.056935 0.001668 203978.000000 0 1 0
-0.303926 -16.367238 -18.524503 24.721166 1.552229 2.417858 0.093755 -0.023454 -263279.000000 0 1 0
-0.282326 -17.796138 -18.275503 25.510316 1.554933 2.369420 0.090623 -0.015029 -185135.000000 0 0 1
-0.564126 -18.606438 -19.553803 26.997574 1.540487 2.380786 0.110914 -0.032856 134553.000000 0 0 1
-1.958926 -18.570038 -19.782303 27.203368 1.465697 2.385031 0.123353 -0.027949 -304595.000000 0 0 1
-2.240826 -18.674438 -21.170103 28.318354 1.451373 2.415200 0.119328 -0.038104 431884.000000 0 0 1
-3.409826 -17.782638 -21.704203 28.265200 1.381346 2.446317 0.126085 -0.035437 453801.000000 0 0 1
-3.132226 -16.388938 -21.687503 27.363405 1.381955 2.485814 0.117141 -0.025357 -249242.000000 0 0 1
-3.447126 -15.750538 -20.458703 26.048429 1.355336 2.474155 0.091716 -0.016329 -74517.900000 0 0 1
-2.607726 -14.483838 -20.210603 25.001005 1.392661 2.512211 0.085303 -0.015333 24012.700000 0 0 1
-2.853826 -13.484538 -21.159403 25.252671 1.362237 2.564234 0.077522 -0.020485 249844.000000 0 0 1
-1.995626 -12.338938 -20.990003 24.429739 1.410451 2.604498 0.072827 -0.016258 492680.000000 0 1 0
-1.997226 -11.562738 -22.266603 25.169176 1.399755 2.656598 0.087602 -0.015892 398261.000000 0 0 1
-3.010326 -10.560638 -22.430303 24.974139 1.293110 2.686320 0.079114 -0.017413 267779.000000 0 1 0
-3.150826 -10.085638 -23.753503 25.997629 1.267996 2.723044 0.095121 -0.017047 298165.000000 0 0 1
-4.164126 -8.869438 -23.876903 25.809172 1.131852 2.752181 0.086454 -0.012724 821578.000000 0 0 1
-5.524226 -9.287338 -23.752703 26.095260 1.034200 2.714637 0.071589 -0.013388 548751.000000 0 0 1
-6.303726 -8.102138 -23.878603 25.991715 0.909595 2.735574 0.080058 -0.019794 986677.000000 0 0 1
-7.856726 -8.269238 -23.604103 26.215684 0.810973 2.691441 0.053050 -0.023491 2058880.000000 0 0 1
-8.815026 -8.335138 -24.687103 27.506949 0.757424 2.684832 0.044906 -0.016803 662974.000000 0 0 1
-8.987026 -7.209238 -25.550033 28.027556 0.676071 2.717966 0.038418 -0.024394 -62585.500000 0 0 1
-9.807126 -7.605738 -26.802093 29.536065 0.659642 2.707938 0.033398 -0.032852 323563.000000 0 0 1
-10.503026 -6.578738 -27.493583 30.157759 0.559581 2.718099 0.039440 -0.038411 -146272.000000 0 0 1
-11.438726 -7.154938 -28.354653 31.401018 0.558960 2.697463 0.049639 -0.032390 -387106.000000 0 0 1
-12.159426 -6.091238 -29.153893 32.169928 0.464406 2.705116 0.044513 -0.040510 -142261.000000 0 0 1
-11.285626 -5.348938 -29.968163 32.466402 0.442600 2.746736 0.025709 -0.035333 -68723.400000 0 0 1
-12.067426 -4.664138 -30.905123 33.503784 0.368820 2.745140 0.052669 -0.038985 -263839.000000 0 0 1
-11.354726 -3.562338 -31.660173 33.822871 0.304007 2.782051 0.045794 -0.033626 -23615.300000 0 0 1
-10.252426 -4.099938 -32.395573 34.225646 0.380420 2.813098 0.033897 -0.024535 186970.000000 0 0 1
-9.698326 -3.078538 -33.207413 34.731357 0.307370 2.844262 0.038301 -0.023467 49591.300000 0 0 1
-8.427626 -3.531838 33.872966 35.083851 0.396845 0.263493 0.039930 -0.020367 567217.000000 0 0 1
-7.154826 -3.424238 -33.340723 34.271282 0.446375 2.908027 0.048916 -0.022573 2035.250000 0 0 1
-6.208726 -4.011838 33.635231 34.437943 0.573672 0.216333 0.044951 -0.021683 -896384.000000 0 0 1
-4.787926 -3.584838 33.879036 34.402971 0.642684 0.174746 0.076007 -0.030790 -969396.000000 0 0 1
-4.617226 -2.218238 33.559167 33.947858 0.447867 0.151470 0.109687 -0.049007 -183735.000000 0 0 1
-3.359626 -1.639438 33.828766 34.034692 0.453987 0.110060 0.112738 -0.044025 -2054.480000 0 0 1
-3.486026 -0.235138 -33.390003 33.572309 0.067350 3.037332 0.122157 -0.052991 -144053.000000 0 0 1
-3.911826 -0.236238 -32.063133 32.301744 0.060318 3.019970 0.120014 -0.050187 125844.000000 0 0 1
-4.377526 1.017262 -31.515533 31.834358 -0.228330 2.999946 0.147441 -0.052488 -433012.000000 0 0 1
-4.936226 0.858462 -30.074393 30.488890 -0.172188 2.976511 0.132079 -0.061759 119188.000000 0 0 1
-5.977726 -0.039738 -29.891303 30.483188 0.006648 2.944210 0.122453 -0.062156 -26672.900000 0 0 1
-7.264426 0.337362 -30.363573 31.222304 -0.046407 2.906515 0.131010 -0.060138 -120970.000000 0 0 1
-8.323126 -0.769938 -30.234923 31.369058 0.092243 2.871872 0.107969 -0.054363 -39227.500000 0 0 1
-8.731526 -1.048038 -28.889613 30.198471 0.119458 2.846098 0.103702 -0.054489 142125.000000 0 0 1
-9.633126 -2.150638 -28.858023 30.499309 0.219652 2.812037 0.043975 -0.039863 -6017.420000 0 0 1
-9.861826 -2.606638 -27.398373 29.235612 0.258406 2.785189 0.040118 -0.043596 -193446.000000 0 0 1
-10.822526 -1.812738 -26.750013 28.913254 0.165956 2.752310 0.045828 -0.037918 26765.800000 0 0 1
-11.217126 -2.351238 -25.531353 27.985750 0.206620 2.719658 0.047400 -0.034871 433117.000000 0 0 1
-12.111126 -1.408238 -24.616203 27.470347 0.115757 2.681702 0.058379 -0.031936 521277.000000 0 0 1
-11.383326 -0.283838 -24.204803 26.749451 0.024929 2.701873 0.072112 -0.032237 255122.000000 0 0 1
-12.131826 0.451162 -23.224703 26.206327 -0.037171 2.659928 0.083362 -0.030379 335092.000000 0 0 1
-11.452626 1.744762 -22.745903 25.526122 -0.151184 2.670523 0.096148 -0.037875 105393.000000 0 0 1
-11.354626 2.808862 -23.637603 26.373348 -0.242507 2.682080 0.076184 -0.034277 399464.000000 0 0 1
-10.310226 3.761162 -23.331903 25.784196 -0.349798 2.701921 0.089224 -0.027880 296613.000000 0 0 1
-10.218326 4.985462 -24.328903 26.854507 -0.453916 2.704420 0.115721 -0.034309 828351.000000 0 0 1
-11.446626 5.737562 -24.454203 27.603494 -0.464643 2.659248 0.109202 -0.031183 685128.000000 0 0 1
-12.304426 5.134162 -25.455163 28.735411 -0.395298 2.659112 0.089323 -0.030694 -38714.300000 0 0 1
-13.631526 5.905762 -25.535333 29.542338 -0.408832 2.614681 0.082898 -0.019117 -182123.000000 0 0 1
-13.573426 7.225962 -26.018203 30.222496 -0.489200 2.607810 0.089354 -0.021744 -29568.400000 0 0 1
-14.876926 7.724662 -26.276093 31.167714 -0.478919 2.573735 0.091949 -0.016040 134572.000000 0 0 1
-14.958826 9.267062 -26.360093 31.693838 -0.554638 2.552977 0.107892 -0.017311 -97662.400000 0 0 1
-14.905626 9.687162 -25.023603 30.695268 -0.576305 2.523917 0.137453 -0.025528 128328.000000 0 0 1
-14.902826 11.077162 -24.890503 31.053741 -0.639195 2.500646 0.123081 -0.015998 -81677.000000 0 0 1
-14.685626 11.492662 -23.426603 29.942522 -0.664028 2.469284 0.117058 -0.023606 7482.810000 0 0 1
-15.800326 11.348762 -22.566503 29.794156 -0.622877 2.430139 0.129307 -0.023859 -122494.000000 0 0 1
-15.514826 11.779362 -21.237203 28.818084 -0.649384 2.399329 0.115696 -0.017480 -756234.000000 0 0 1
-16.577326 11.680262 -20.163503 28.597257 -0.613802 2.353340 0.113664 -0.019409 -907724.000000 0 0 1
-17.733326 12.387262 -20.512103 29.810425 -0.609739 2.329643 0.092837 -0.018598 -429777.000000 0 0 1
-18.385626 12.871762 -19.378203 29.651783 -0.610793 2.283030 0.082331 -0.011739 -780769.000000 0 0 1
-19.830126 13.251462 -19.668503 30.914157 -0.589097 2.260398 0.075265 -0.020142 -664287.000000 0 0 1
-20.028726 14.523162 -20.272703 31.985224 -0.627385 2.257271 0.060512 -0.024041 401504.000000 0 0 1
-21.400226 14.802162 -20.509403 33.131696 -0.605122 2.238299 0.053589 -0.030100 287488.000000 0 0 1
-21.694426 16.130062 -21.250903 34.386449 -0.639336 2.236995 0.059012 -0.034158 -142203.000000 0 0 1
-21.339026 16.108062 -22.624703 35.024289 -0.646607 2.273092 0.066462 -0.031262 16839.800000 0 0 1
-21.561226 17.319262 -23.316003 36.172908 -0.676725 2.271258 0.065415 -0.020549 -154583.000000 0 0 1
-21.080926 17.359062 -24.785403 36.878973 -0.688876 2.307803 0.061604 -0.011678 -222922.000000 0 0 1
-19.708526 17.063962 -24.991903 36.113709 -0.713605 2.335099 0.063148 -0.021159 181552.000000 0 0 1
-19.293226 16.930762 -26.343703 36.781380 -0.720272 2.369173 0.046659 -0.024703 -14196.900000 0 0 1
-18.888726 18.284862 -26.970443 37.663310 -0.769155 2.368985 0.053554 -0.017656 -43479.700000 0 0 1
-20.053326 19.149662 -27.044493 38.733061 -0.762351 2.343715 0.050600 -0.021192 987977.000000 0 0 1
-19.824126 20.526562 -27.184743 39.412510 -0.802805 2.331939 0.050284 -0.016309 -214413.000000 0 0 1
-21.134526 21.358562 -27.308923 40.603369 -0.790670 2.308483 0.080666 -0.022571 334531.000000 0 0 1
-21.823326 21.496862 -26.074023 40.227196 -0.777862 2.275974 0.096411 -0.013553 -396371.000000 0 0 1
-22.996626 20.747562 -26.055053 40.474336 -0.734029 2.270175 0.117601 -0.022465 -432531.000000 0 0 1
-23.876726 21.022662 -24.792203 40.332415 -0.721918 2.232798 0.125047 -0.012847 69141.100000 0 0 1
-23.383926 20.431662 -23.632803 39.022688 -0.718121 2.221337 0.098154 -0.007601 -96770.800000 0 0 1
-24.228226 20.590462 -22.492403 38.947172 -0.704409 2.186472 0.092717 -0.016677 182329.000000 0 0 1
-23.618826 20.073962 -21.182103 37.543233 -0.704444 2.170267 0.075768 -0.013153 396480.000000 0 0 1
-22.434826 20.738062 -20.738403 36.925194 -0.746117 2.167154 0.081916 -0.016314 747293.000000 0 0 1
-21.549926 20.048362 -19.844903 35.498680 -0.749317 2.164014 0.075992 -0.013603 669520.000000 0 0 1
-22.195626 19.628262 -18.439703 34.898956 -0.724090 2.127481 0.081393 -0.018143 -649165.000000 0 0 1
-22.977026 18.424362 -18.511503 34.786155 -0.675874 2.131936 0.093602 -0.024903 760013.000000 0 0 1
-23.913826 18.260362 -17.423303 34.769000 -0.652142 2.095684 0.082579 -0.018336 435249.000000 0 0 1
-25.030586 19.286962 -17.238303 35.995503 -0.656515 2.070199 0.066222 -0.018711 -1192890.000000 0 0 1
-26.078946 19.211762 -18.180603 37.144818 -0.634920 2.082257 0.071261 -0.013776 -272374.000000 0 0 1
-26.900726 20.327462 -18.010603 38.226124 -0.647106 2.061401 0.066862 -0.013982 -643796.000000 0 0 1
-28.327256 20.196262 -18.590703 39.445363 -0.619373 2.061563 0.051216 -0.007943 315521.000000 0 0 1
-29.267006 19.208762 -18.187603 39.450260 -0.580811 2.049948 0.048619 -0.013502 552519.000000 0 0 1
-29.528506 19.186962 -16.775703 39.006363 -0.576219 2.015373 0.068166 -0.020697 -832835.000000 0 0 1
-30.438186 18.051562 -16.297403 38.960844 -0.535298 2.002372 0.071472 -0.020579 -217033.000000 0 0 1
-29.843456 16.760562 -16.380503 37.945608 -0.511718 2.017155 0.095021 -0.036029 116645.000000 0 0 1
-30.746816 15.741762 -15.974703 38.057337 -0.473186 2.003970 0.098830 -0.028505 105782.000000 0 0 1
-30.138076 14.318862 -15.716303 36.882727 -0.443537 2.010991 0.140411 -0.029805 -186786.000000 0 0 1
-29.281586 14.200662 -14.605403 35.670546 -0.451551 1.992650 0.140565 -0.030023 -16916.000000 0 0 1
-29.928766 14.152062 -13.358103 35.699451 -0.441699 1.954311 0.114075 -0.017683 20857.100000 0 0 1
-29.091606 14.959862 -12.326203 34.957893 -0.474969 1.931146 0.133676 -0.035765 141970.000000 0 0 1
-29.256536 16.322262 -12.241803 35.668233 -0.508889 1.921132 0.133197 -0.026504 160625.000000 0 0 1
-30.365186 16.700462 -11.419703 36.487800 -0.502833 1.889118 0.101141 -0.017801 514599.000000 0 0 1
-30.684456 18.244262 -11.409203 37.477444 -0.536422 1.880135 0.166334 -0.001367 184700.000000 0 0 1
-29.508756 18.992062 -11.078903 36.799554 -0.571868 1.876601 0.088145 -0.026771 175335.000000 0 0 1
-29.623736 20.371362 -11.040303 37.609126 -0.602403 1.868739 0.031662 -0.017685 -147183.000000 0 0 1
-28.238096 20.991062 -10.795403 36.804286 -0.639238 1.868493 0.096886 -0.014952 95200.600000 0 0 1
-28.280366 22.371262 -10.425703 37.535952 -0.669261 1.852250 0.083107 -0.017559 349639.000000 0 0 1
-26.978136 22.949362 -10.241903 36.869901 -0.704880 1.852284 0.083027 -0.009132 612269.000000 0 0 1
-27.138826 24.433062 -9.777103 37.803202 -0.732980 1.832402 0.108017 0.007856 195702.000000 0 0 1
-27.476606 24.611962 -8.399103 37.831963 -0.730458 1.794673 0.094829 0.001493 -87745.300000 0 0 1
-28.809066 24.396262 -7.989203 38.587138 -0.702648 1.779348 0.106707 -0.008106 -195475.000000 0 0 1
-28.887236 23.818962 -6.573303 38.013467 -0.689532 1.744590 0.107317 -0.002660 -145434.000000 0 0 1
-28.900406 22.413862 -6.426603 37.133757 -0.659657 1.744738 0.134303 -0.016181 256209.000000 0 0 1
-28.853896 22.007662 -5.048203 36.638352 -0.651597 1.709021 0.110507 -0.000092 -274117.000000 0 0 1
-28.732386 20.518362 -4.828003 35.635134 -0.620140 1.706699 0.143096 -0.017626 -417428.000000 0 0 1
-27.521326 19.904262 -5.143603 34.351996 -0.626147 1.721094 0.150054 -0.024934 -375740.000000 0 0 1
-27.172596 19.759862 -6.512903 34.223092 -0.628748 1.762271 0.127696 -0.016318 -712362.000000 0 0 1
-27.933896 18.750262 -7.383103 34.443941 -0.591160 1.786824 0.152215 -0.019821 -256937.000000 0 0 1
-27.369336 17.447262 -7.437303 33.298663 -0.567520 1.796048 0.144344 -0.019931 193033.000000 0 0 1
-27.811336 16.733662 -8.576803 33.571526 -0.541658 1.829139 0.111507 -0.026914 43880.200000 0 0 1
-27.412646 15.187462 -8.596503 32.496338 -0.505933 1.838521 0.154698 -0.039100 45114.100000 0 0 1
-28.251556 14.390862 -7.817403 32.655154 -0.471126 1.812537 0.145350 -0.025462 -176766.000000 0 0 1
-28.202186 13.060762 -8.269403 32.160998 -0.433704 1.830843 0.149111 -0.041999 130564.000000 0 0 1
-29.147816 12.187562 -7.403303 32.449048 -0.396037 1.800975 0.131039 -0.045976 210592.000000 0 0 1
-30.534126 12.412962 -7.660903 33.839384 -0.386121 1.799166 0.138247 -0.041666 461825.000000 0 0 1
-31.330196 11.639662 -6.744803 34.096265 -0.355713 1.769926 0.157839 -0.038336 274942.000000 0 0 1
-31.750576 10.259762 -7.302503 34.156819 -0.312545 1.786253 0.133443 -0.032068 -544663.000000 0 0 1
-30.640936 9.438262 -7.569103 32.942967 -0.298805 1.802631 0.130481 -0.028933 48651.500000 0 0 1
-31.090016 8.130862 -7.914103 33.095816 -0.255797 1.812263 0.138998 -0.030063 -737949.000000 0 0 1
-29.980206 7.228662 -8.400703 31.963074 -0.236599 1.836746 0.166796 -0.032585 -433758.000000 0 0 1
-29.436386 7.610362 -9.673103 31.905914 -0.252996 1.878820 0.151334 -0.045919 461035.000000 0 0 1
-28.665926 6.506762 -10.160103 31.101462 -0.223204 1.903581 0.161433 -0.050923 -25297.600000 0 0 1
-28.020766 6.647262 -11.571403 31.036217 -0.232921 1.952859 0.134748 -0.039171 -632459.000000 0 0 1
-27.111346 7.669562 -11.614203 30.475186 -0.275688 1.961786 0.160322 -0.040909 -453499.000000 0 0 1
-26.434756 7.677662 -12.817303 30.364882 -0.282662 2.006567 0.142435 -0.027729 -464062.000000 0 0 1
-32.561736 25.776562 -33.645713 53.448403 -0.669611 2.251705 0.039747 0.009812 284183.000000 0 0 1
-33.263486 26.978862 33.860176 54.596978 -0.681452 0.901819 0.046642 -0.004294 268814.000000 0 0 1
-32.752046 27.503662 32.643552 53.802876 -0.698516 0.918862 0.048559 -0.010470 205271.000000 0 0 1
-33.296776 28.951362 32.310461 54.688413 -0.715703 0.938734 0.065940 -0.018345 162028.000000 0 0 1
-33.206116 29.330562 30.942746 54.040554 -0.723505 0.961142 0.081515 -0.020221 123676.000000 0 0 1
-33.673886 30.671162 30.753886 54.958641 -0.738766 0.976915 0.101021 -0.026457 -127854.000000 0 0 1
-33.320966 31.244662 29.382456 54.312470 -0.753251 0.999184 0.106873 -0.035564 -603351.000000 0 0 1
-31.942396 31.179562 29.183356 53.330573 -0.773314 0.991762 0.085980 -0.028301 -564464.000000 0 0 1
-31.611866 31.957062 28.045426 52.982165 -0.790828 1.012977 0.087243 -0.027396 -602991.000000 0 0 1
-30.128646 31.885962 27.720666 51.893017 -0.813728 1.007249 0.114920 -0.026663 -742122.000000 0 0 1
-29.841326 30.652162 27.072116 50.625678 -0.798801 1.006584 0.137560 -0.031934 541993.000000 0 0 1
-28.690366 30.605562 26.208806 49.464523 -0.817686 1.012372 0.112834 -0.023602 351087.000000 0 0 1
-28.758616 31.280962 24.809456 49.204326 -0.827385 1.042326 0.127514 -0.037364 -216843.000000 0 0 1
-28.955596 32.657062 24.892586 50.244911 -0.845402 1.052472 0.110323 -0.036689 -510054.000000 0 0 1
-29.934906 33.174662 24.071246 50.755115 -0.836689 1.076670 0.117502 -0.037076 -584374.000000 0 0 1
-30.371496 -33.181592 24.441476 51.194058 0.829586 1.073071 0.119417 -0.033249 -132491.000000 0 0 1
-30.993186 -33.208992 25.712496 52.197195 0.819897 1.055718 0.114862 -0.041789 126000.000000 0 0 1
-30.931846 -31.966192 26.313776 51.682021 0.801841 1.036602 0.081651 -0.037495 -234096.000000 0 0 1
-31.279756 -32.102692 27.787426 52.736581 0.798381 1.015836 0.097811 -0.038757 -1170210.000000 0 0 1
-32.533926 -32.611292 27.979746 53.896372 0.786586 1.024952 0.093563 -0.048320 -1131270.000000 0 0 1
-32.793906 -32.713792 29.429526 54.879226 0.784175 1.004797 0.084637 -0.042109 447934.000000 0 0 1
-34.293288 -32.968592 29.779016 56.122611 0.765706 1.011481 0.100471 -0.047294 485874.000000 0 0 1
-34.486678 -33.172092 31.130866 57.086333 0.765971 0.994014 0.098182 -0.044830 -662409.000000 0 0 1
-35.850079 -33.348392 31.330026 58.128426 0.749262 1.001571 0.097545 -0.051827 -609038.000000 0 0 1
-36.342296 -33.743092 32.778728 59.445805 0.748329 0.986749 0.112451 -0.044654 40944.000000 0 0 1
-36.014116 32.759362 33.197706 58.926056 -0.738108 0.972326 0.098208 -0.037552 136764.000000 0 0 1
-36.722596 32.381262 -33.457363 59.300002 -0.722657 2.170266 0.111641 -0.036219 250094.000000 0 0 1
-36.241146 31.010962 -33.049003 58.028760 -0.707785 2.176728 0.084848 -0.034467 601060.000000 0 0 1
-34.946268 31.065662 -32.455113 56.917935 -0.726679 2.177556 0.087125 -0.029469 53673.600000 0 0 1
-34.496335 29.743662 -32.066643 55.704148 -0.711550 2.184207 0.068063 -0.019821 375865.000000 0 0 1
-33.884786 29.645662 -30.638553 54.458837 -0.718771 2.168324 0.062318 -0.021494 -158821.000000 0 0 1
-34.820641 29.829562 -29.636503 54.594891 -0.708350 2.144616 0.071761 -0.027503 -613464.000000 0 0 1
-35.118395 31.162762 -29.337903 55.363633 -0.725789 2.129294 0.066366 -0.025418 670701.000000 0 0 1
-36.215956 31.213562 -28.202053 55.508897 -0.711347 2.103731 0.069755 -0.026866 750484.000000 0 0 1
-35.673115 30.981162 -26.935503 54.386807 -0.715122 2.088928 0.072813 -0.043716 5450.690000 0 0 1
-36.742346 30.851962 -26.019153 54.578749 -0.698475 2.067724 0.114770 -0.043026 88649.400000 0 0 1
-36.331876 30.475062 -24.583103 53.414076 -0.697954 2.049058 0.110594 -0.043119 -311856.000000 0 0 1
-36.010200 31.576862 -23.711403 53.442149 -0.719898 2.030501 0.104705 -0.048898 -10913.200000 0 0 1
-36.106026 31.247662 -22.378703 52.733934 -0.713391 2.009062 0.096501 -0.049464 1183400.000000 0 0 1
37.375371 30.953762 -21.776003 53.190676 0.691693 1.992587 0.077815 -0.044600 1565560.000000 0 0 1
36.412321 31.984862 -21.721503 53.110377 0.720757 1.992141 0.080499 -0.050076 36157.900000 0 0 1
36.723651 33.069062 -20.879703 53.648405 0.733082 1.970554 0.078537 -0.055883 -390658.000000 0 0 1
36.735661 32.845662 -19.379803 52.952082 0.729551 1.945490 0.078091 -0.046645 1604190.000000 0 0 1
-36.960706 32.128062 -19.025803 52.538436 -0.715564 1.941350 0.068975 -0.046028 1615950.000000 0 0 1
-36.757426 32.146462 -17.651903 51.923916 -0.718579 1.917668 0.065392 -0.034270 779231.000000 0 0 1
-35.296527 31.636162 -17.357803 50.477568 -0.730765 1.921833 0.082044 -0.038787 656761.000000 0 0 1
-35.082456 31.073762 -16.101503 49.554170 -0.724878 1.901731 0.047388 -0.018952 -412743.000000 0 0 1
-33.789636 30.547162 -15.999703 48.278971 -0.735042 1.908585 0.078110 -0.024357 -622332.000000 0 0 1
-33.414866 30.122562 -14.585803 47.293421 -0.733628 1.884318 0.068022 -0.012890 -1004540.000000 0 0 1
-34.305972 29.268262 -13.956303 47.204970 -0.706322 1.870936 0.065999 -0.006203 -574727.000000 0 0 1
-33.825466 28.816662 -12.727403 46.222818 -0.705609 1.849749 0.090528 -0.007690 90682.300000 0 0 1
-34.924542 28.144362 -11.878603 46.399676 -0.678305 1.829685 0.089456 -0.018824 -92996.000000 0 0 1
-34.357903 27.630062 -10.718603 45.373718 -0.677287 1.809280 0.117716 -0.013643 27164.500000 0 0 1
-35.191963 26.836662 -9.916703 45.354401 -0.651503 1.791226 0.118546 -0.026428 39303.800000 0 0 1
-34.323199 26.208062 -8.810103 44.074509 -0.652128 1.772043 0.146681 -0.021065 205781.000000 0 0 1
-33.937266 27.006162 -7.707403 44.050821 -0.672155 1.746668 0.130175 -0.018851 150839.000000 0 0 1
-32.886866 26.441562 -6.966403 42.769532 -0.677185 1.734408 0.115749 -0.028271 -168722.000000 0 0 1
-32.250986 27.386762 -5.936303 42.724706 -0.704015 1.710190 0.106239 -0.027988 -36369.300000 0 0 1
-31.146796 26.794862 -5.287303 41.425150 -0.710430 1.698781 0.107081 -0.018798 120037.000000 0 0 1
-31.048686 27.279362 -3.973303 41.520737 -0.720865 1.666637 0.100169 -0.012287 8910.350000 0 0 1
-30.194316 26.247462 -3.184703 40.134378 -0.715584 1.650231 0.103331 -0.013145 212334.000000 0 0 1
-30.867036 24.969862 -3.049703 39.819199 -0.680174 1.647460 0.093386 -0.009049 -24574.900000 0 0 1
-30.301816 24.156262 -2.109203 38.809454 -0.673024 1.625171 0.122223 -0.018593 -388121.000000 0 0 1
-31.299816 23.150862 -1.517003 38.960777 -0.636843 1.609743 0.119324 -0.030833 -270937.000000 0 0 1
-31.718466 22.262062 -2.550503 38.835107 -0.611976 1.636519 0.129483 -0.029734 -215093.000000 0 0 1
-32.623506 21.324762 -2.079003 39.030255 -0.578946 1.624088 0.130837 -0.030679 -259855.000000 0 0 1
-33.181056 20.249762 -3.042503 38.990924 -0.547945 1.648907 0.146494 -0.021094 660160.000000 0 0 1
-32.131696 19.399862 -3.512803 37.698014 -0.543180 1.664114 0.150879 -0.019042 587577.000000 0 0 1
-32.648916 18.703862 -4.628803 37.910578 -0.520238 1.693200 0.138884 -0.017639 40128.800000 0 0 1
-31.601266 17.847762 -5.338703 36.683570 -0.514120 1.716849 0.134597 -0.029335 -208171.000000 0 0 1
-31.255186 16.619162 -4.673703 35.706115 -0.488704 1.702067 0.173978 -0.030005 329634.000000 0 0 1
-30.294496 15.826862 -5.365503 34.598188 -0.481433 1.726505 0.177690 -0.040750 261578.000000 0 0 1
-29.778636 14.652462 -4.409703 33.479953 -0.457264 1.702892 0.193808 -0.040915 415418.000000 0 0 1
-30.848326 13.776362 -4.002903 34.021031 -0.420009 1.688729 0.189625 -0.046607 924037.000000 0 0 1
-30.367936 12.673662 -3.244103 33.065956 -0.395362 1.669064 0.207680 -0.053555 -472440.000000 0 0 1
-31.584766 12.092462 -2.543503 33.915991 -0.365642 1.645861 0.186701 -0.054899 -231138.000000 0 0 1
-32.459296 11.572362 -3.548103 34.642668 -0.342471 1.673396 0.157528 -0.033046 -664171.000000 0 0 1
-33.505106 10.952862 -2.918703 35.370554 -0.315951 1.653408 0.162292 -0.036712 -1273610.000000 0 0 1
-34.472235 10.258762 -3.878903 36.174895 -0.289249 1.678229 0.139881 -0.026303 -287737.000000 0 0 1
-33.893456 9.318662 -4.790903 35.476141 -0.268310 1.706256 0.151770 -0.026689 -495885.000000 0 0 1
-34.866785 8.699162 -5.523103 36.357568 -0.244505 1.723297 0.136695 -0.025644 -811251.000000 0 0 1
-34.352034 7.647962 -6.536003 35.794872 -0.219062 1.754423 0.153420 -0.029960 -502629.000000 0 0 1
-33.756656 6.555262 -5.845703 34.880589 -0.191804 1.739183 0.158906 -0.031007 311227.000000 0 0 1
-33.668266 5.350662 -6.639403 34.731302 -0.157605 1.763145 0.168069 -0.035071 -621383.000000 0 0 1
-32.686386 4.293562 -6.164003 33.538477 -0.130609 1.755636 0.184754 -0.035226 -43746.700000 0 0 1
-31.345166 4.697962 -6.424603 32.339848 -0.148771 1.770786 0.197083 -0.033568 565122.000000 0 0 1
-30.408436 3.741862 -5.946303 31.209502 -0.122438 1.762497 0.184843 -0.034442 675760.000000 0 0 1
-28.947716 4.303162 -5.907103 29.856010 -0.147572 1.769964 0.205719 -0.035197 1085250.000000 0 0 1
-28.193926 4.556762 -7.140903 29.438988 -0.160236 1.815806 0.198615 -0.031664 1141690.000000 0 0 1
-26.792436 4.487162 -6.889403 28.025579 -0.165939 1.819168 0.221971 -0.044340 600333.000000 0 0 1
-25.899046 4.839662 -8.096503 27.563313 -0.184736 1.868936 0.195721 -0.039491 -65778.700000 0 0 1
-26.003136 3.883662 -9.140503 27.835134 -0.148258 1.905384 0.189501 -0.059549 715550.000000 0 0 1
-24.995726 4.050162 -10.160903 27.284319 -0.160638 1.952399 0.184463 -0.062387 396874.000000 0 0 1
-25.311956 3.306362 -11.491303 27.994235 -0.129889 1.993786 0.160753 -0.060997 -741286.000000 0 0 1
-26.371836 3.920862 -12.111703 29.283788 -0.147595 1.997198 0.153853 -0.048340 -325867.000000 0 0 1
-26.877566 3.083762 -13.176603 30.092125 -0.114234 2.024030 0.150807 -0.044385 -75214.700000 0 0 1
-27.870546 3.833162 -14.057503 31.449544 -0.136677 2.034189 0.131166 -0.033737 -258503.000000 0 0 1
-27.146936 4.718462 -14.951903 31.349313 -0.172093 2.067972 0.103644 -0.026574 609643.000000 0 0 1
-27.906536 5.660762 -15.703103 32.517786 -0.200132 2.074769 0.141017 -0.025007 5878.650000 0 0 1
-28.861896 5.131862 -16.802203 33.788445 -0.175968 2.091253 0.081361 -0.011777 -179389.000000 0 0 1
-29.994596 4.433362 -16.385503 34.464695 -0.146743 2.066248 0.095582 -0.021074 -286521.000000 0 0 1
-30.743196 3.945962 -17.508403 35.598580 -0.127654 2.084985 0.089146 -0.012432 458265.000000 0 0 1
-32.169996 3.445562 -17.133303 36.610526 -0.106698 2.057810 0.092035 -0.009294 -44009.700000 0 0 1
-32.375176 2.364062 -16.241503 36.297758 -0.072891 2.034710 0.107255 -0.027046 240646.000000 0 0 1
-31.954766 1.114262 -16.785403 36.112302 -0.034856 2.054218 0.135901 -0.036429 -278328.000000 0 0 1
-32.184756 0.025462 -15.707403 35.813149 -0.000791 2.024829 0.145903 -0.032331 -521573.000000 0 0 1
-31.641466 -1.217638 -16.054803 35.502418 0.038463 2.040046 0.152868 -0.019579 277982.000000 0 0 1
-32.076346 -2.235738 -15.149803 35.544437 0.069588 2.011108 0.172406 -0.032976 -100522.000000 0 0 1
-31.940346 -3.648538 -15.715203 35.783587 0.113737 2.025475 0.145095 -0.023278 108103.000000 0 0 1
-32.821106 -3.811438 -16.820803 37.076832 0.115610 2.041680 0.159166 -0.030129 230730.000000 0 0 1
-32.309356 -4.696738 -17.830703 37.200642 0.144357 2.070667 0.161002 -0.033485 138143.000000 0 0 1
-33.298426 -4.815138 -19.015403 38.646555 0.143610 2.085220 0.178605 -0.039141 49303.800000 0 0 1
-33.102676 -6.009538 -19.750903 39.012816 0.179586 2.101647 0.166463 -0.037670 59500.400000 0 0 1
-33.881616 -5.946338 -20.900603 40.251187 0.173734 2.116775 0.161969 -0.038850 -447802.000000 0 0 1
-33.641016 -7.218938 -21.753403 40.706775 0.211382 2.134585 0.152070 -0.040276 25898.200000 0 0 1
-32.382226 -7.178538 -22.388903 40.017533 0.218154 2.164551 0.151783 -0.033404 29618.400000 0 0 1
-32.098026 -8.161538 -23.378003 40.539178 0.248993 2.185451 0.137329 -0.021584 66819.700000 0 0 1
-30.734456 -7.858438 -24.049603 39.808858 0.250325 2.219466 0.125394 -0.014590 -130409.000000 0 0 1
-30.722336 -6.627438 -24.821503 40.048619 0.212465 2.239264 0.121282 -0.009409 15669.100000 0 0 1
-30.715726 -6.891038 -26.201723 40.956959 0.220695 2.264954 0.106889 -0.002814 -717645.000000 0 0 1
-32.086436 -7.087438 -26.803213 42.404992 0.217395 2.255027 0.122965 -0.001914 -953827.000000 0 0 1
-32.815326 -8.225938 -26.434823 42.933804 0.245613 2.234085 0.115317 -0.019099 522128.000000 0 0 1
-34.026060 -8.313138 -27.228773 44.365381 0.239623 2.231584 0.099596 -0.018520 1172600.000000 0 0 1
-34.986134 -9.398738 -26.683593 44.993111 0.262445 2.205650 0.082484 -0.025168 -395762.000000 0 0 1
-34.536130 -10.656238 -27.114093 45.182670 0.299285 2.214422 0.086196 -0.015142 -356230.000000 0 0 1
-35.355224 -11.772338 -26.939643 45.981781 0.321426 2.196757 0.067773 -0.014610 198439.000000 0 0 1
-36.667946 -11.927638 -27.789953 47.529867 0.314492 2.195287 0.055484 -0.014185 551338.000000 0 0 1
37.375941 -10.854138 -27.563733 47.692060 -0.282630 2.187013 0.053296 -0.021642 291504.000000 0 0 1
36.358651 -10.864538 -28.585033 47.508881 -0.290370 2.216396 0.061581 -0.022280 28757.100000 0 0 1
35.384891 -9.721438 -28.413453 46.410356 -0.268119 2.229664 0.073387 -0.019181 -594244.000000 0 0 1
34.458141 -9.856338 -27.362213 45.091036 -0.278599 2.222852 0.055931 -0.017936 -236344.000000 0 0 1
33.606971 -8.723938 -27.380973 44.218246 -0.253981 2.238550 0.040579 -0.015666 -19124.800000 0 0 1
32.300611 -8.963938 -26.610573 42.799582 -0.270704 2.241769 0.037944 -0.011179 -90039.900000 0 0 1
32.567121 -9.155338 -25.252693 42.215353 -0.274049 2.212034 0.019556 -0.002008 -67570.700000 0 0 1
31.383651 -9.553738 -24.604003 41.006882 -0.295505 2.214294 0.017225 -0.001300 -75941.600000 0 0 1
31.540791 -9.734838 -23.103603 40.291004 -0.299367 2.181469 0.008933 -0.001539 104461.000000 0 0 1
32.368921 -10.821638 -22.710403 40.995332 -0.322640 2.157928 -0.007512 -0.001463 238107.000000 0 0 1
32.464931 -10.869838 -21.319803 40.331862 -0.323086 2.127758 -0.008736 -0.000481 -528184.000000 0 0 1
33.356531 -11.871738 -20.635803 40.980882 -0.341925 2.098496 0.010299 -0.000548 -503751.000000 0 0 1
34.716581 -11.520438 -20.791503 42.074316 -0.320408 2.087666 0.018318 -0.006189 259959.000000 0 0 1
35.517241 -12.382138 -19.935803 42.570271 -0.335448 2.058166 0.041688 -0.007075 -78060.800000 0 0 1
36.996021 -12.380538 -20.324703 43.989508 -0.322931 2.051085 0.056243 -0.024982 -884558.000000 0 0 1
-37.243186 -11.163738 -20.324203 43.872054 0.291230 2.052467 0.092951 -0.024589 230173.000000 0 0 1
-37.277356 -10.321838 -21.524003 44.265385 0.270125 2.078588 0.096844 -0.024915 -634189.000000 0 0 1
-36.644426 -10.825038 -22.836703 44.514159 0.287238 2.109497 0.073410 -0.024800 27778.000000 0 0 1
-37.239986 -11.924438 -23.552803 45.648037 0.309889 2.112930 0.059993 -0.016865 1352620.000000 0 0 1
36.319351 -11.728038 -23.949903 45.058184 -0.312344 2.131205 0.062977 -0.013811 1146350.000000 0 0 1
35.794981 -12.899138 -24.836803 45.437157 -0.345876 2.149117 0.042642 -0.020572 -261326.000000 0 0 1
35.842901 -14.193338 -24.270403 45.554548 -0.377042 2.132675 0.027432 -0.023642 573745.000000 0 0 1
34.909941 -14.467538 -23.223603 44.354812 -0.392879 2.121852 0.011052 -0.015581 7926.470000 0 0 1
-30.239066 8.276162 -18.884103 36.599253 -0.267149 2.112936 0.067778 0.010592 528363.000000 0 0 1
-29.031556 7.612862 -19.253603 35.657932 -0.256453 2.141177 0.065308 0.009844 445438.000000 0 0 1
-28.224936 8.445962 -20.100103 35.665044 -0.290757 2.169509 0.088654 -0.005648 -34406.800000 0 0 1
-26.849466 7.825462 -20.356703 34.590852 -0.283601 2.199998 0.077181 -0.003931 -623213.000000 0 0 1
-26.031696 7.717962 -19.251903 33.284409 -0.288227 2.187570 0.086088 -0.010888 -330566.000000 0 0 1
-24.999326 6.768162 -19.414503 32.368151 -0.264396 2.214051 0.092140 -0.015595 218547.000000 0 0 1
-23.591826 7.180962 -18.940703 31.094866 -0.295473 2.225755 0.065824 -0.011994 145054.000000 0 0 1
-22.960226 8.127262 -19.798003 31.387661 -0.340208 2.253325 0.064023 -0.010571 610571.000000 0 0 1
-21.669526 8.465062 -19.266403 30.206289 -0.372415 2.262471 0.068231 -0.009658 666040.000000 0 0 1
-20.923026 9.539862 -20.100003 30.541645 -0.427791 2.289113 0.071291 -0.007799 -267372.000000 0 0 1
-20.408226 9.032362 -21.279103 30.836333 -0.416670 2.332376 0.092590 -0.016415 63787.200000 0 0 1
-19.679426 10.045662 -21.966603 31.156488 -0.471985 2.353277 0.092649 -0.015910 321463.000000 0 0 1
-18.696926 9.460862 -23.051203 31.151900 -0.468445 2.403809 0.108717 -0.015655 263988.000000 0 0 1
-19.364326 8.804662 -24.092103 32.139207 -0.426743 2.418280 0.110246 -0.019144 -156292.000000 0 0 1
-18.442926 8.187162 -24.950803 32.089152 -0.417785 2.461551 0.104554 -0.013835 -201955.000000 0 0 1
-19.135826 7.339762 -26.052653 33.148041 -0.366255 2.475025 0.079041 -0.006500 20723.900000 0 0 1
-19.566726 6.114462 -25.498323 32.717088 -0.302878 2.464437 0.086709 0.001753 503684.000000 0 0 1
-20.407626 5.279662 -26.322453 33.722656 -0.253160 2.466353 0.074285 -0.002934 -207782.000000 0 0 1
-20.915526 4.003662 -25.564243 33.271896 -0.189133 2.447045 0.061686 0.008361 -354801.000000 0 0 1
-20.079926 2.926462 -25.242213 32.387295 -0.144722 2.464482 0.058794 0.007945 -90099.000000 0 0 1
-18.995726 3.243762 -24.389003 31.083485 -0.169131 2.472894 0.056304 0.003648 -172353.000000 0 0 1
-18.084526 2.112262 -23.912403 30.055195 -0.116273 2.490821 0.049830 0.007904 -166677.000000 0 0 1
-18.473026 1.358162 -22.799703 29.375563 -0.073389 2.459326 0.058447 0.008922 94399.200000 0 0 1
-19.645426 0.576162 -22.968603 30.229645 -0.029320 2.433808 0.055126 0.013280 39766.100000 0 0 1
-19.886826 -0.179938 -21.661403 29.406370 0.009048 2.398859 0.068193 0.011214 196682.000000 0 0 1
-19.024026 -1.273138 -21.421403 28.677708 0.066823 2.414290 0.083709 0.000379 367266.000000 0 0 1
-19.679026 -2.080938 -20.459803 28.463975 0.105352 2.372866 0.080617 0.003318 125973.000000 0 0 1
-19.121826 -3.536538 -20.291403 28.105024 0.182881 2.377463 0.072186 -0.014506 -6695.230000 0 0 1
-19.538526 -4.367338 -21.336203 29.258523 0.219910 2.387993 0.074417 -0.022888 379732.000000 0 0 1
-19.292926 -5.736938 -20.961003 29.060163 0.289033 2.376469 0.082969 -0.019823 -744503.000000 0 0 1
-19.175126 -6.772438 -22.138103 30.060721 0.339513 2.398598 0.062753 -0.028104 -811782.000000 0 0 1
-17.893826 -6.914038 -22.652503 29.683814 0.368721 2.438934 0.071439 -0.022119 -596615.000000 0 0 1
-17.947926 -7.768538 -23.778703 30.788065 0.408490 2.453305 0.091593 -0.030324 -44199.200000 0 0 1
-16.602126 -7.849038 -24.515103 30.630512 0.441630 2.498674 0.067568 -0.029175 -1069580.000000 0 0 1
-16.656826 -8.617138 -25.730863 31.839947 0.477418 2.511769 0.083873 -0.054127 -407471.000000 0 0 1
-15.471426 -8.710438 -26.458213 31.863361 0.512770 2.550558 0.093410 -0.049644 205475.000000 0 0 1
-14.205826 -9.386338 -25.825743 30.933442 0.583887 2.558713 0.075431 -0.038405 80857.000000 0 0 1
-13.687326 -8.736138 -24.643703 29.512287 0.568081 2.558987 0.061584 -0.030773 -272113.000000 0 0 1
-12.760526 -9.600538 -24.060903 28.877818 0.645011 2.555660 0.051889 -0.016469 -400971.000000 0 0 1
-11.997226 -9.085238 -22.841803 27.353664 0.648143 2.559028 0.061128 -0.018875 -402847.000000 0 0 1
-12.714326 -8.837838 -21.681503 26.642992 0.607436 2.521421 0.058312 -0.022619 -265540.000000 0 0 1
-11.953726 -8.085138 -20.748603 25.273811 0.594690 2.533874 0.062919 -0.020070 -862347.000000 0 0 1
-12.738426 -7.625138 -19.543803 24.543236 0.539385 2.491952 0.061941 -0.016186 -143831.000000 0 1 0
-13.662626 -6.539538 -19.628903 24.793683 0.446418 2.484366 0.055536 -0.011960 249322.000000 0 1 0
-14.933526 -7.075238 -19.970203 25.920613 0.442454 2.450323 0.064849 -0.021177 -610816.000000 0 0 1
-16.095526 -6.103938 -19.786103 26.226206 0.362476 2.425597 0.079613 -0.010906 -1063790.000000 0 0 1
-16.344026 -5.781438 -18.400703 25.281180 0.339997 2.385966 0.069834 -0.008321 22553.900000 0 0 1
-15.543226 -4.786338 -17.847703 24.146250 0.298723 2.402604 0.071030 -0.008298 -818602.000000 0 1 0
-15.566626 -4.874538 -16.285203 23.049703 0.303468 2.355373 0.095534 -0.003678 -606232.000000 0 1 0
-16.715126 -4.541438 -15.570703 23.290918 0.265292 2.303028 0.122776 -0.019801 -607694.000000 0 1 0
-16.786926 -3.103438 -15.497003 23.056220 0.182808 2.307891 0.071865 -0.033233 -419704.000000 0 1 0
-17.909626 -2.459738 -14.681403 23.288379 0.136488 2.252887 0.062165 -0.032839 -367824.000000 0 1 0
-17.831026 -2.731938 -13.286503 22.404020 0.152030 2.205627 0.097777 -0.039215 715099.000000 0 1 0
-18.700726 -1.976138 -12.425303 22.539086 0.105281 2.154692 0.089218 -0.046759 -104268.000000 0 1 0
-18.093626 -0.730738 -11.767603 21.596059 0.040365 2.147061 0.077440 -0.041807 -327199.000000 0 1 0
-17.697426 0.250862 -12.685103 21.775528 -0.014174 2.192646 0.105270 -0.043417 823785.000000 0 1 0
-16.900426 1.279162 -12.066703 20.805431 -0.075544 2.189499 0.101217 -0.031504 -448820.000000 0 1 0
-16.452426 2.227662 -13.212203 21.218084 -0.134582 2.242967 0.113085 -0.030683 111204.000000 0 1 0
-15.731426 1.673362 -14.296503 21.322943 -0.105972 2.305645 0.102979 -0.033197 273296.000000 0 1 0
-14.416726 1.268162 -13.965403 20.111755 -0.087739 2.338368 0.090918 -0.025730 -518148.000000 0 1 0
-13.657126 0.455762 -15.041903 20.321999 -0.033359 2.404132 0.076921 -0.027485 851.102000 0 1 0
-13.463626 1.048662 -16.274503 21.147774 -0.077732 2.448950 0.092596 -0.038421 205410.000000 0 1 0
-13.111926 0.043762 -17.216403 21.640911 -0.003338 2.490709 0.064312 -0.026408 -246097.000000 0 1 0
-12.483026 0.565762 -18.472803 22.302252 -0.045292 2.546851 0.080352 -0.030084 -2186.750000 0 1 0
-11.271426 1.282262 -18.260603 21.497415 -0.113275 2.585705 0.057089 -0.020054 52082.400000 0 1 0
-10.913626 2.000262 -19.446503 22.389166 -0.181269 2.623101 0.063859 -0.016701 835007.000000 0 1 0
-9.460526 2.577262 -19.347403 21.690224 -0.265969 2.672519 0.040304 -0.013714 537772.000000 0 1 0
-8.420226 1.626962 -19.562703 21.359929 -0.190869 2.728441 0.046555 -0.010671 1073070.000000 0 1 0
-7.075626 2.092162 -19.317503 20.678673 -0.287494 2.776737 0.038250 -0.005778 1354500.000000 0 1 0
-6.478326 3.171662 -20.231403 21.478776 -0.455277 2.799114 0.039117 -0.007369 -865614.000000 0 1 0
-6.454926 2.738662 -21.582703 22.693157 -0.401256 2.827466 0.038834 -0.005936 174522.000000 0 1 0
-6.145626 3.853462 -22.392303 23.537908 -0.560054 2.828318 0.035129 -0.005976 -339788.000000 0 1 0
-5.621026 3.365962 -23.739003 24.626528 -0.539549 2.872305 0.064623 -0.019682 822934.000000 0 1 0
-4.304226 2.781462 -23.646603 24.195552 -0.573711 2.928171 0.076903 -0.023763 526791.000000 0 1 0
-3.968426 2.193362 -24.898303 25.307800 -0.504916 2.961457 0.109451 -0.028418 523324.000000 0 0 1
-2.551426 1.541262 -24.882803 25.060709 -0.543413 3.022367 0.082037 -0.025682 -258104.000000 0 0 1
-1.521726 2.449362 -24.644503 24.812629 -1.014881 3.025115 0.077823 -0.024796 -104806.000000 0 1 0
-0.207626 1.917462 -24.554603 24.630231 -1.462935 3.063207 0.075332 -0.017881 629516.000000 0 1 0
0.185174 0.890362 -23.436403 23.454040 1.365743 3.102809 0.074318 -0.024432 -634891.000000 0 1 0
-0.227026 -0.419038 -23.735703 23.740487 1.074287 3.121517 0.061050 -0.020282 -60965.300000 0 1 0
0.518374 -1.251938 -22.858303 22.898429 -1.178230 3.082383 0.059833 -0.011791 -579403.000000 0 1 0
0.222074 -2.773638 -22.872603 23.041231 -1.490901 3.020535 0.067884 -0.020062 643204.000000 0 1 0
-0.962526 -3.101938 -22.119003 22.356180 1.269919 2.995800 0.061070 -0.018687 1425310.000000 0 1 0
-2.221426 -3.036938 -22.841903 23.149735 0.939261 2.978332 0.077502 -0.022920 1123480.000000 0 1 0
-3.023826 -1.702238 -22.762903 23.025874 0.512725 2.990315 0.079196 -0.028475 -1545160.000000 0 1 0
-3.486026 -1.399038 -21.471603 21.797693 0.381650 2.968403 0.054937 -0.028532 577361.000000 0 1 0
-4.371326 -0.260038 -21.469603 21.911640 0.059417 2.940387 0.055588 -0.027682 553437.000000 0 1 0
-5.717626 -0.341138 -22.215903 22.942405 0.059594 2.889264 0.055120 -0.022314 -1011110.000000 0 1 0
-6.605726 -1.211538 -21.558303 22.580165 0.181391 2.839598 0.062626 -0.017398 523744.000000 0 1 0
-7.963326 -0.825038 -21.848803 23.269410 0.103236 2.790361 0.046709 -0.012697 1492990.000000 0 1 0
-9.041526 -1.929538 -21.516203 23.418354 0.210254 2.735763 0.050249 -0.012993 481304.000000 0 1 0
-9.108726 -2.922738 -22.541603 24.487449 0.310494 2.740249 0.078461 -0.022597 172953.000000 0 1 0
-9.748126 -4.086338 -21.988303 24.396917 0.396941 2.693497 0.067497 -0.029374 -127189.000000 0 1 0
-10.469426 -4.967038 -23.010803 25.763878 0.442985 2.675080 0.049104 -0.026400 -229902.000000 0 0 1
-11.800026 -4.581438 -23.252903 26.475039 0.370342 2.643081 0.041043 -0.026484 -279982.000000 0 0 1
-12.448926 -5.512038 -24.116903 27.694464 0.416827 2.627665 0.027999 -0.032016 -683314.000000 0 0 1
-13.953926 -5.392938 -23.927303 28.218994 0.368799 2.582836 0.056553 -0.034048 -944769.000000 0 0 1
-14.324126 -4.132638 -24.384503 28.580820 0.280881 2.592843 0.051490 -0.035827 -1029970.000000 0 0 1
-15.658026 -3.886938 -24.103903 29.004830 0.243321 2.551754 0.047943 -0.040167 -746438.000000 0 0 1
-16.098326 -2.423538 -24.275903 29.229250 0.149424 2.550863 0.051797 -0.022759 -128933.000000 0 0 1
-16.335026 -2.151438 -25.626053 30.465658 0.130953 2.570194 0.046009 -0.022740 -48223.800000 0 0 1
-16.921126 -0.917438 -25.867873 30.924311 0.054165 2.561642 0.037287 -0.010234 -1298430.000000 0 0 1
-18.380926 -0.942338 -26.240943 32.052044 0.051222 2.529936 0.047774 -0.001581 -1119030.000000 0 0 1
-18.730926 -1.468038 -27.512503 33.315770 0.078215 2.542434 0.054832 -0.021122 -7406.130000 0 0 1
-18.374826 -0.611238 -28.554073 33.960903 0.033253 2.569542 0.034403 -0.021251 -392125.000000 0 0 1
-18.448026 -1.435338 -29.872123 35.138776 0.077648 2.587007 0.045312 -0.020577 61618.600000 0 0 1
-19.724726 -1.894438 -30.259083 36.169957 0.095750 2.561808 0.056755 -0.020858 -88285.700000 0 0 1
-19.717426 -2.748238 -31.439983 37.212931 0.138489 2.577113 0.066952 -0.022735 -1582990.000000 0 0 1
-21.071026 -3.249138 -31.858703 38.334344 0.152994 2.551834 0.047331 -0.022912 -749949.000000 0 0 1
-21.980826 -2.254438 -32.283263 39.120944 0.102206 2.541382 0.048472 -0.013520 609713.000000 0 0 1
-22.728026 -1.573438 -31.268443 38.687910 0.069119 2.511924 0.040769 -0.002427 -602215.000000 0 0 1
-23.751326 -0.532838 -31.688533 39.605208 0.022430 2.498275 0.044534 0.001030 -160505.000000 0 0 1
-23.241726 0.809362 -31.864003 39.448036 -0.034810 2.511115 0.036676 -0.002254 395239.000000 0 0 1
-24.122126 1.566962 -32.687863 40.654996 -0.064868 2.504840 0.038600 -0.003486 -14022.100000 0 0 1
-23.614126 2.930462 -33.181163 40.831411 -0.123467 2.519461 0.045846 -0.003824 -535102.000000 0 0 1
-23.360826 4.002062 -32.225313 40.002693 -0.169668 2.507448 0.032474 -0.005341 906585.000000 0 0 1
-24.448126 4.380362 -31.369253 40.011604 -0.177289 2.471886 0.031623 -0.008765 420478.000000 0 0 1
-25.706566 5.096562 -31.919903 41.299911 -0.195721 2.454165 0.038397 -0.013024 393112.000000 0 0 1
-26.530486 4.190862 -32.663193 42.288464 -0.156669 2.453392 0.064278 -0.025498 -91613.200000 0 0 1
-27.741876 4.724762 -33.095743 43.442643 -0.168693 2.436924 0.077388 -0.030394 -201305.000000 0 0 1
-28.610616 3.743162 33.897486 44.515370 -0.130092 0.705206 0.084187 -0.030602 -28252.300000 0 0 1
-28.280496 3.542262 32.548732 43.263773 -0.124606 0.719201 0.109415 -0.026954 101750.000000 0 0 1
-29.338716 2.973662 31.808864 43.375186 -0.101011 0.747571 0.115254 -0.034952 -282051.000000 0 0 1
-29.401836 1.431562 31.774586 43.314451 -0.048651 0.747222 0.108944 -0.021588 -243227.000000 0 0 1
-29.700896 0.856062 33.026830 44.425753 -0.028815 0.732632 0.115036 -0.014040 258145.000000 0 0 1
-30.116266 -0.514338 32.925333 44.624338 0.017077 0.740941 0.099754 -0.009945 -462686.000000 0 0 1
-29.904276 -1.224738 -33.566923 44.972258 0.040932 2.413420 0.060008 0.000699 -316102.000000 0 0 1
-28.589866 -1.467838 -33.147683 43.798446 0.051296 2.429235 0.072131 -0.006571 -12631.600000 0 0 1
-27.863086 -0.410938 -32.574753 42.867644 0.014747 2.433942 0.065447 0.003355 -427723.000000 0 0 1
-28.091096 -0.258938 -31.033273 41.859775 0.009218 2.405895 0.081662 0.002269 -299156.000000 0 0 1
-27.231976 -1.002938 -30.162793 40.649483 0.036813 2.406877 0.069517 -0.001430 407381.000000 0 0 1
-27.379186 -0.643638 -28.790283 39.735557 0.023504 2.381173 0.073901 -0.001110 -184361.000000 0 0 1
-26.372866 -1.184538 -27.743023 38.296299 0.044885 2.381005 0.061616 0.006751 -82124.300000 0 0 1
-26.441916 -2.574438 -27.348173 38.127748 0.097056 2.370683 0.057242 0.003249 705115.000000 0 0 1
-25.376246 -2.876738 -26.416563 36.743221 0.112882 2.373088 0.059796 -0.002932 500811.000000 0 0 1
-25.540076 -4.202438 -25.607063 36.409856 0.163082 2.350826 0.065778 -0.010981 -825115.000000 0 0 1
-26.603626 -4.198338 -24.740303 36.571321 0.156520 2.313789 0.085391 -0.008258 -735885.000000 0 0 1
-26.744196 -5.379838 -24.049903 36.367465 0.198510 2.293350 0.081315 -0.012078 -715884.000000 0 0 1
-27.802216 -5.257538 -23.017803 36.474980 0.186898 2.253712 0.093980 -0.015090 -803633.000000 0 0 1
-28.041346 -6.331038 -22.117803 36.271150 0.222052 2.226593 0.110344 -0.029016 -308983.000000 0 0 1
-29.069116 -5.969438 -21.241103 36.494275 0.202538 2.192031 0.137309 -0.026594 -242749.000000 0 0 1
-29.670306 -7.164338 -20.460203 36.746084 0.236930 2.161324 0.144473 -0.043012 -350528.000000 0 0 1
-28.730896 -7.807038 -19.661403 35.678915 0.265323 2.154436 0.142094 -0.041594 -289035.000000 0 0 1
-29.311166 -8.861538 -18.949603 36.010536 0.293590 2.124950 0.144266 -0.035101 -257674.000000 0 0 1
-29.963036 -8.453538 -17.609203 35.767721 0.274985 2.085551 0.143364 -0.051334 -111509.000000 0 0 1
-29.073946 -7.997638 -16.620703 34.431153 0.268440 2.074557 0.144277 -0.044758 -125450.000000 0 0 1
-29.681256 -7.041038 -15.773003 34.341531 0.232916 2.048001 0.139009 -0.048759 240429.000000 0 0 1
-28.748376 -6.495238 -14.633303 32.905786 0.222203 2.031639 0.165092 -0.048273 110668.000000 0 0 1
-27.844366 -5.497038 -15.022903 32.112517 0.194914 2.057620 0.168809 -0.035340 468309.000000 0 0 1
-26.942176 -5.271238 -13.910603 30.776154 0.193209 2.039795 0.164474 -0.052500 216698.000000 0 0 1
-14.534226 21.173662 -4.943603 26.153525 -0.969236 1.760963 0.108039 -0.028990 73506.400000 0 0 1
-14.767526 20.574762 -6.212903 26.076825 -0.948257 1.811364 0.144793 -0.033542 170788.000000 0 0 1
-15.391126 19.293762 -6.142003 25.433446 -0.897444 1.814701 0.103974 -0.034879 -119268.000000 0 0 1
-15.642626 18.723462 -7.572503 25.546087 -0.874807 1.871744 0.132813 -0.042845 -237386.000000 0 0 1
-14.490226 18.335562 -8.307403 24.802669 -0.902010 1.912338 0.113606 -0.031159 131666.000000 0 1 0
-14.581426 17.107262 -9.043203 24.229236 -0.864938 1.953290 0.095821 -0.040013 -272139.000000 0 1 0
-14.889626 15.817762 -8.257603 23.239848 -0.815614 1.934054 0.095350 -0.041086 -622056.000000 0 1 0
-16.210226 15.795662 -7.823003 23.947311 -0.772446 1.903580 0.088598 -0.026611 -632321.000000 0 1 0
-16.621326 14.600962 -7.234103 23.276357 -0.720779 1.886822 0.087951 -0.024388 -528908.000000 0 1 0
-17.999326 14.723062 -6.588903 24.169359 -0.685608 1.846905 0.111444 -0.033588 365808.000000 0 1 0
-19.062326 14.546562 -7.562003 25.142765 -0.651836 1.876288 0.111650 -0.033376 240130.000000 0 0 1
-20.279726 15.068062 -7.109703 26.246174 -0.639013 1.845109 0.087357 -0.025813 83397.600000 0 0 1
-21.497926 14.593762 -7.958803 27.175011 -0.596387 1.868026 0.091257 -0.014050 209441.000000 0 0 1
-21.810926 13.221262 -7.684903 26.637867 -0.544948 1.863451 0.124429 -0.027829 181655.000000 0 0 1
-22.897926 12.698162 -8.425203 27.505315 -0.506334 1.882113 0.151448 -0.034854 101659.000000 0 0 1
-23.203826 11.300262 -7.922003 26.997622 -0.453194 1.868613 0.146091 -0.035277 -901343.000000 0 0 1
-22.270526 10.336662 -8.157903 25.872268 -0.434551 1.891584 0.151749 -0.030842 -625027.000000 0 0 1
-22.703226 9.146762 -7.551003 25.614788 -0.382990 1.870033 0.161819 -0.044039 259399.000000 0 0 1
-21.479626 8.262462 -7.125603 24.091841 -0.367217 1.871056 0.143471 -0.026735 454874.000000 0 1 0
-21.156226 7.212662 -8.089803 23.770849 -0.328566 1.918058 0.139439 -0.029945 839642.000000 0 1 0
-20.059926 6.438362 -7.581903 22.390587 -0.310570 1.916246 0.113209 -0.019134 182768.000000 0 1 0
-19.688626 5.257262 -8.472103 22.069375 -0.260932 1.964796 0.094654 -0.033952 149713.000000 0 1 0
-20.736126 4.266862 -8.543603 22.829502 -0.202937 1.954368 0.113223 -0.034359 802065.000000 0 1 0
-20.399126 3.279262 -9.446903 22.718315 -0.159391 1.999649 0.102157 -0.036580 -308132.000000 0 1 0
-21.291726 2.030662 -9.491603 23.399823 -0.095086 1.988461 0.102206 -0.035530 -145420.000000 0 1 0
-21.120326 1.115062 -8.412103 22.761261 -0.052747 1.949353 0.105505 -0.039349 256991.000000 0 1 0
-22.025126 0.029562 -8.479603 23.601074 -0.001342 1.938302 0.125257 -0.039093 -249145.000000 0 1 0
-21.603126 -1.141638 -9.398303 23.586574 0.052797 1.980633 0.081254 -0.055130 -139899.000000 0 1 0
-20.501126 -1.868838 -8.906203 22.430095 0.090907 1.979113 0.059049 -0.034113 286534.000000 0 1 0
-20.367926 -3.153138 -9.416903 22.659937 0.153590 1.999371 0.042252 -0.031854 -853419.000000 0 1 0
-21.422526 -4.138638 -8.945403 23.581204 0.190840 1.959884 0.055867 -0.034120 -529477.000000 0 1 0
-21.271026 -4.369438 -7.539303 22.986727 0.202599 1.904966 0.070339 -0.032660 1098860.000000 0 1 0
-22.342726 -4.978838 -6.756203 23.866975 0.219257 1.857798 0.119735 -0.034774 393567.000000 0 1 0
-22.563826 -6.536038 -6.948003 24.497362 0.281952 1.858366 0.123776 -0.040045 -772619.000000 0 1 0
-21.573226 -7.233838 -6.318703 23.614794 0.323533 1.841671 0.101841 -0.033000 5342.930000 0 1 0
-21.853726 -8.610538 -6.389703 24.342452 0.375330 1.836400 0.113570 -0.030010 -790037.000000 0 1 0
-20.806426 -9.509538 -5.781803 23.595930 0.428700 1.818351 0.111682 -0.025833 101394.000000 0 1 0
-19.489426 -9.270438 -6.323203 22.489145 0.443991 1.855806 0.102346 -0.032465 878690.000000 0 1 0
-18.517726 -9.930638 -5.544003 21.731537 0.492247 1.828761 0.098577 -0.019867 -45427.700000 0 1 0
-17.904626 -11.253238 -6.102703 22.010315 0.561119 1.851743 0.096852 -0.018810 -290072.000000 0 1 0
-16.870926 -11.269738 -7.072103 21.486037 0.588923 1.906198 0.100124 -0.021033 394220.000000 0 1 0
-17.019726 -10.667538 -8.365803 21.759000 0.559875 1.965436 0.094835 -0.028090 -171674.000000 0 1 0
-15.846126 -11.026638 -9.307003 21.431443 0.607940 2.020022 0.078564 -0.017459 405564.000000 0 1 0
-16.140726 -12.215938 -10.068703 22.608205 0.647864 2.032368 0.104579 -0.017495 228834.000000 0 1 0
-15.008326 -12.705338 -10.766403 22.418539 0.702489 2.071731 0.086476 -0.008279 209590.000000 0 1 0
-15.205326 -14.087538 -11.437603 23.674446 0.747258 2.075011 0.096308 -0.013236 237895.000000 0 1 0
-15.944526 -14.017638 -12.649803 24.713146 0.721176 2.108151 0.092788 -0.019500 180618.000000 0 1 0
-16.231626 -15.226438 -13.228003 25.889962 0.753456 2.107065 0.084704 -0.017521 201925.000000 0 0 1
-16.747226 -15.154638 -14.750003 26.975826 0.735518 2.149317 0.101373 -0.022033 217917.000000 0 0 1
-16.978026 -16.411738 -15.314603 28.144903 0.768440 2.146153 0.091554 -0.013084 108761.000000 0 0 1
-17.274926 -16.334138 -16.680303 29.042376 0.757413 2.182598 0.097990 -0.017201 -273184.000000 0 0 1
-17.785026 -17.662038 -17.325203 30.469942 0.781929 2.175599 0.097524 -0.021260 -577631.000000 0 0 1
-19.089426 -17.984538 -16.983503 31.245626 0.755605 2.145455 0.075866 -0.019700 -95654.600000 0 0 1
-20.054726 -17.813538 -18.075003 32.345323 0.726283 2.163751 0.085972 -0.023483 1152700.000000 0 0 1
-21.519726 -17.618638 -17.595903 32.910953 0.686052 2.134892 0.081554 -0.026358 206366.000000 0 0 1
-21.771326 -16.344438 -17.030603 32.111878 0.643970 2.129812 0.075886 -0.019745 175249.000000 0 0 1
-21.395326 -16.189838 -15.700103 31.086396 0.647775 2.100233 0.065688 -0.019398 -460129.000000 0 0 1
-21.590826 -14.754238 -15.323103 30.309219 0.599469 2.100826 0.079670 -0.027353 175644.000000 0 0 1
-22.936426 -14.398138 -15.061403 30.987608 0.560568 2.078356 0.093865 -0.023386 295552.000000 0 0 1
-22.998926 -13.107538 -14.471803 30.169375 0.518008 2.071092 0.105897 -0.031539 -126620.000000 0 0 1
-24.410226 -12.531238 -14.202603 30.896682 0.474279 2.048432 0.131349 -0.038877 -244666.000000 0 0 1
-25.018326 -13.267938 -13.155503 31.225343 0.487615 2.005684 0.136369 -0.036673 786275.000000 0 0 1
-26.158216 -12.462938 -12.758903 31.660175 0.444626 1.985584 0.146647 -0.038860 525282.000000 0 0 1
-26.940496 -13.066238 -11.529303 32.084914 0.451579 1.938354 0.154377 -0.038110 666856.000000 0 0 1
-27.867016 -12.103038 -10.948203 32.294229 0.409733 1.916665 0.143882 -0.042303 697606.000000 0 0 1
-28.564976 -12.562638 -9.819003 32.713767 0.414332 1.875645 0.132575 -0.030964 -16419.800000 0 0 1
-29.381546 -11.453338 -9.112703 32.825227 0.371695 1.852105 0.129451 -0.034139 -189278.000000 0 0 1
-28.631296 -10.407638 -8.594703 31.653419 0.348656 1.845774 0.142826 -0.039282 899934.000000 0 0 1
-29.531336 -9.483238 -7.865203 31.998328 0.310723 1.819142 0.158408 -0.045889 1149780.000000 0 0 1
-28.679296 -8.264038 -7.392503 30.748096 0.280553 1.813596 0.169012 -0.050992 405382.000000 0 0 1
-27.793616 -8.615438 -6.320003 29.776724 0.300587 1.784670 0.157375 -0.048354 380039.000000 0 0 1
-26.972576 -7.551138 -5.845603 28.613119 0.272968 1.776543 0.156809 -0.040030 132538.000000 0 0 1
-27.683756 -6.331838 -5.193903 28.869692 0.224853 1.751690 0.176088 -0.047307 -264958.000000 0 0 1
-28.407566 -6.489838 -3.977603 29.409677 0.224600 1.706460 0.165186 -0.045226 167258.000000 0 0 1
-27.607886 -6.632138 -2.845503 28.535548 0.235759 1.670680 0.166268 -0.032843 -543888.000000 0 0 1
-27.248616 -5.286238 -2.248603 27.847578 0.191620 1.651631 0.183479 -0.030604 513936.000000 0 0 1
-28.317366 -4.522138 -1.620503 28.721925 0.158358 1.627247 0.201955 -0.035582 835776.000000 0 0 1
-27.778696 -3.560138 -0.755803 28.016098 0.127466 1.597777 0.204311 -0.047796 -147224.000000 0 0 1
-28.869096 -2.596938 -0.169803 28.986162 0.089714 1.576654 0.208394 -0.052096 319258.000000 0 0 1
-29.788726 -3.291938 0.638697 29.976874 0.110063 1.549488 0.192977 -0.035390 -207622.000000 0 0 1
-29.366816 -3.325238 1.997797 29.621922 0.112751 1.503302 0.191585 -0.035307 12784.300000 0 0 1
-30.415606 -3.638438 3.119497 30.790884 0.119058 1.469310 0.159400 -0.028650 77006.600000 0 0 1
-30.727206 -5.010938 3.150397 31.292102 0.161655 1.469948 0.175095 -0.032825 250387.000000 0 0 1
-31.732736 -5.293738 4.122097 32.434270 0.165300 1.443361 0.187612 -0.036797 364314.000000 0 0 1
-32.280866 -6.750338 3.855197 33.203673 0.206142 1.454426 0.198683 -0.029629 563903.000000 0 0 1
-31.269656 -7.777538 4.043097 32.475038 0.243778 1.445974 0.186975 -0.015264 887848.000000 0 0 1
-31.735836 -9.060138 3.735597 33.214516 0.278089 1.458089 0.209720 -0.017898 147641.000000 0 0 1
-30.734166 -10.150238 4.245597 32.644163 0.318981 1.440370 0.205465 -0.014462 359338.000000 0 0 1
-30.755686 -10.334838 5.610397 32.927156 0.324176 1.399573 0.167687 -0.012438 -77775.300000 0 0 1
-29.776416 -11.246838 5.982897 32.387055 0.361144 1.384998 0.169357 -0.016851 -417170.000000 0 0 1
-29.797776 -11.629138 7.467297 32.846686 0.372089 1.341453 0.149058 -0.024617 -91987.400000 0 0 1
-29.485156 -10.501638 8.294597 32.379919 0.342158 1.311744 0.149831 -0.020243 499886.000000 0 0 1
-29.600186 -10.923038 9.640397 32.991226 0.353517 1.274258 0.170312 -0.022087 -360217.000000 0 0 1
-29.803176 -9.684438 10.526697 33.057964 0.314184 1.246722 0.168356 -0.026016 156743.000000 0 0 1
-28.688626 -8.808838 10.643297 31.841995 0.297912 1.229983 0.142607 -0.026530 588127.000000 0 0 1
-29.075346 -7.706238 11.461597 32.188974 0.259087 1.206735 0.156718 -0.022054 54229.200000 0 0 1
-28.080476 -6.544138 11.395197 31.003054 0.228963 1.194422 0.170387 -0.016194 -139261.000000 0 0 1
-28.269446 -5.743238 10.250797 30.614134 0.200433 1.229362 0.187003 -0.015966 -223566.000000 0 0 1
-27.338716 -4.743038 10.121897 29.535649 0.171782 1.221006 0.188170 -0.021727 -766004.000000 0 0 1
-27.447146 -3.918538 8.870397 29.109873 0.141808 1.261151 0.203010 -0.026241 -100738.000000 0 0 1
-26.714276 -4.485738 7.806297 28.190648 0.166363 1.290219 0.153271 -0.023102 319463.000000 0 0 1
-26.713146 -3.607038 6.745997 27.786892 0.134217 1.325570 0.168532 -0.031864 -501009.000000 0 0 1
-25.787586 -4.009138 5.630197 26.697788 0.154233 1.358315 0.156551 -0.018954 194358.000000 0 0 1
-24.377526 -3.893938 5.864397 25.373562 0.158397 1.337565 0.165870 -0.036605 935639.000000 0 0 1
-23.656226 -4.252638 4.716497 24.493821 0.177868 1.377027 0.155492 -0.024601 -1096130.000000 0 1 0
-22.268826 -3.685538 4.687897 23.053420 0.164015 1.366019 0.147195 -0.023705 -1048350.000000 0 1 0
-22.037826 -2.354638 4.352497 22.586596 0.106441 1.376881 0.127026 -0.029022 -695652.000000 0 1 0
-20.742326 -1.932638 4.576097 21.328850 0.092905 1.354566 0.094996 -0.021754 -1197910.000000 0 1 0
-20.613326 -0.419938 4.740397 21.155541 0.020369 1.344804 0.083248 -0.025088 -489700.000000 0 1 0
-20.856926 0.316362 3.583197 21.164847 -0.015167 1.400677 0.096521 -0.022406 -213493.000000 0 1 0
-22.104926 0.888162 3.407097 22.383585 -0.040158 1.417988 0.108602 -0.039125 -845531.000000 0 1 0
-22.042626 2.148062 2.544197 22.292700 -0.097144 1.456420 0.119041 -0.029336 -389197.000000 0 1 0
-21.370126 3.229962 3.198197 21.848190 -0.150008 1.423886 0.092503 -0.038227 285253.000000 0 1 0
-21.401526 4.420962 2.408497 21.985701 -0.203707 1.461028 0.099467 -0.020107 -111503.000000 0 1 0
-20.387526 4.390062 1.259097 20.892802 -0.212092 1.510495 0.064300 -0.011643 -967090.000000 0 1 0
-20.667226 5.223662 0.144397 21.317638 -0.247566 1.564023 0.077327 -0.009341 492102.000000 0 1 0
-21.764626 4.804262 -0.667703 22.298558 -0.217253 1.600745 0.123436 -0.014302 307969.000000 0 1 0
-21.514226 3.496262 -1.571503 21.853040 -0.161101 1.642771 0.127054 -0.017504 -270221.000000 0 1 0
-21.396826 2.311662 -0.835503 21.537548 -0.107620 1.609599 0.101100 -0.018945 382705.000000 0 1 0
-21.146926 1.226562 -1.655403 21.247053 -0.057937 1.648787 0.107408 -0.013527 -59994.300000 0 1 0
-20.197826 0.143762 -1.127303 20.229771 -0.007118 1.626550 0.093261 -0.016184 -463846.000000 0 1 0
-20.901826 -0.714638 -0.290703 20.916059 0.034177 1.584695 0.111876 -0.022629 542225.000000 0 1 0
-20.134426 -1.370538 0.712197 20.193581 0.067965 1.535521 0.096031 -0.023472 659414.000000 0 1 0
-18.983826 -2.377638 0.266297 19.133994 0.124597 1.556878 0.048132 -0.017857 263065.000000 0 1 0
-18.319626 -2.998638 1.303597 18.609134 0.162246 1.500687 0.046141 -0.015379 369702.000000 0 1 0
-17.610626 -4.220938 1.047197 18.139655 0.235244 1.513034 0.035497 -0.012946 -17797.000000 0 1 0
-18.529126 -5.375138 0.587897 19.301975 0.282342 1.540334 0.040829 -0.014562 -106951.000000 0 1 0
-19.263626 -5.834338 1.692397 20.198787 0.294086 1.486911 0.067953 -0.017020 72018.400000 0 1 0
-20.160126 -6.874838 1.444597 21.349026 0.328645 1.503079 0.075864 -0.016368 -486429.000000 0 1 0
-20.881126 -7.163438 2.734397 22.244397 0.330477 1.447559 0.092803 -0.021512 -443554.000000 0 1 0
-19.990526 -7.849538 3.570397 21.771176 0.374165 1.406056 0.065349 -0.017463 705038.000000 0 1 0
-20.676626 -8.613438 4.543997 22.855242 0.394716 1.370646 0.056867 -0.020305 -654810.000000 0 1 0
-19.816826 -9.380938 5.507397 22.606194 0.442128 1.324696 0.054586 -0.012982 -738640.000000 0 1 0
-19.167726 -10.511538 4.932897 22.410435 0.501612 1.348863 0.063519 -0.013074 340649.000000 0 1 0
-18.472026 -11.152438 5.979997 22.390913 0.543170 1.300442 0.073363 -0.014127 -836226.000000 0 1 0
-17.961426 -12.570538 5.654997 22.640897 0.610634 1.318355 0.068827 -0.010067 -162147.000000 0 1 0
-18.919526 -13.618538 5.391997 23.926694 0.623900 1.343489 0.103427 -0.013754 162069.000000 0 1 0
-18.318826 -14.763838 4.844297 24.021189 0.678351 1.367736 0.103629 -0.011006 -776930.000000 0 1 0
-19.267826 -15.905138 4.552397 25.395804 0.690084 1.390564 0.118600 -0.012257 -184487.000000 0 0 1
-18.594526 -17.165938 4.267997 25.664014 0.745471 1.403717 0.124498 -0.026306 752310.000000 0 0 1
-19.424026 -18.325138 4.565697 27.091494 0.756296 1.401459 0.125860 -0.024418 -71919.500000 0 0 1
-18.749126 -19.653838 4.560797 27.542766 0.808952 1.404440 0.131600 -0.028505 -876504.000000 0 0 1
-18.344626 -19.950638 3.213997 27.292545 0.827311 1.452761 0.133909 -0.031177 32930.800000 0 0 1
-17.429926 -20.974538 3.082397 27.445122 0.877434 1.458248 0.116023 -0.020753 805045.000000 0 0 1
-15.912626 -20.717038 3.485397 26.354417 0.915815 1.438157 0.092735 -0.015504 1039360.000000 0 0 1
-15.284026 -22.024238 3.595397 27.048020 0.964133 1.437475 0.073619 -0.015770 297726.000000 0 0 1
-13.867826 -21.904438 3.572897 26.170338 1.006389 1.433844 0.063318 -0.010274 237687.000000 0 0 1
-13.169826 -23.164538 4.119497 26.963130 1.053835 1.417413 0.059775 -0.006994 -223241.000000 0 0 1
-13.273126 -24.311638 3.231497 27.886810 1.071062 1.454656 0.065416 -0.013060 -279290.000000 0 0 1
-12.500426 -25.348918 3.686197 28.502918 1.112656 1.441106 0.065634 -0.009775 -707530.000000 0 0 1
19.249474 18.943862 -24.018403 36.142715 0.777397 2.297679 0.077172 -0.014599 -307963.000000 0 0 1
18.534274 19.035862 -25.174703 36.601216 0.798748 2.329265 0.063634 -0.019834 -975225.000000 0 0 1
19.366474 19.117962 -26.265023 37.820738 0.778941 2.338467 0.085500 -0.023624 -251800.000000 0 0 1
18.637174 19.200662 -27.658473 38.483773 0.800289 2.372734 0.079396 -0.023474 277575.000000 0 0 1
18.111074 20.519262 -27.835283 39.036574 0.847657 2.364644 0.066493 -0.022416 359624.000000 0 0 1
17.097074 20.471662 -28.841903 39.284275 0.874982 2.395261 0.057620 -0.026619 164685.000000 0 0 1
16.698374 21.876662 -29.346913 40.232640 0.918840 2.388285 0.064877 -0.020985 69486.600000 0 0 1
15.891874 22.643862 -28.440333 39.675543 0.958851 2.370031 0.059095 -0.024208 537283.000000 0 0 1
15.634874 23.921162 -28.909843 40.650342 0.991894 2.361976 0.059394 -0.020674 -166529.000000 0 0 1
14.939374 24.884762 -27.882853 40.247854 1.030125 2.336131 0.060007 -0.027645 1463010.000000 0 0 1
13.560174 24.458862 -27.671103 39.342143 1.064576 2.350889 0.064115 -0.040821 1268780.000000 0 0 1
12.863974 25.324062 -26.783783 39.040504 1.100790 2.326844 0.062890 -0.036480 -146060.000000 0 0 1
11.433674 24.886462 -26.353233 38.007338 1.140125 2.336955 0.090243 -0.042025 452297.000000 0 0 1
10.677574 25.775362 -25.574793 37.847720 1.178062 2.312749 0.086979 -0.043783 -52237.700000 0 0 1
10.373574 27.029562 -26.119603 38.992844 1.204345 2.304812 0.101632 -0.054280 -759839.000000 0 0 1
9.517374 27.923562 -25.268563 38.843352 1.242308 2.279072 0.122334 -0.052706 -14899.900000 0 0 1
10.395974 28.363562 -24.198203 38.705567 1.219476 2.246167 0.105738 -0.041519 825737.000000 0 0 1
9.815174 29.190462 -23.220103 38.569339 1.246427 2.216844 0.126486 -0.047242 -83412.700000 0 0 1
10.914774 29.572662 -22.183903 38.546079 1.217223 2.184032 0.092568 -0.036253 51325.300000 0 0 1
11.901774 30.421862 -22.727303 39.795379 1.197878 2.178647 0.075648 -0.041542 -8150.810000 0 0 1
12.675074 30.734162 -21.570803 39.630112 1.179638 2.146355 0.063137 -0.026324 -679206.000000 0 0 1
13.859374 31.661662 -21.747203 40.834837 1.158190 2.132424 0.063356 -0.019111 -423108.000000 0 0 1
14.984474 31.033762 -22.325203 41.061460 1.120967 2.145638 0.060059 -0.012832 310487.000000 0 0 1
16.033274 32.012362 -22.481703 42.276284 1.106472 2.131498 0.056785 -0.013982 664261.000000 0 0 1
17.342474 31.436062 -23.073803 42.677720 1.066668 2.142009 0.022511 0.002964 -116666.000000 0 0 1
18.111974 30.666262 -22.242403 41.990329 1.037306 2.129047 0.020961 0.014060 -486107.000000 0 0 1
19.386174 30.451862 -22.814203 42.703952 1.003887 2.134406 0.016592 0.018073 156251.000000 0 0 1
20.354174 29.585262 -21.963103 42.094632 0.968181 2.119704 0.013863 0.015003 166646.000000 0 0 1
20.849074 30.234862 -20.779403 42.197326 0.967104 2.085681 0.023312 0.016652 -200213.000000 0 0 1
21.739974 29.381962 -20.136603 41.730192 0.933785 2.074352 0.033205 0.018280 -334504.000000 0 0 1
22.560274 30.026162 -19.029803 42.103085 0.926429 2.039781 0.049290 0.013409 114052.000000 0 0 1
23.582474 30.922262 -19.491603 43.499908 0.919256 2.035417 0.045277 0.006360 248110.000000 0 0 1
24.057874 31.534762 -18.301003 43.682368 0.919090 2.003092 0.051828 0.000720 -48837.000000 0 0 1
25.310274 32.448562 -18.450403 45.099185 0.908362 1.992272 0.064345 -0.007085 -445638.000000 0 0 1
26.448974 31.761962 -18.790703 45.403315 0.876417 1.997489 0.059365 -0.002488 -937459.000000 0 0 1
27.563474 32.597662 -18.483703 46.518813 0.868882 1.979411 0.059559 -0.012500 265761.000000 0 0 1
28.897274 32.136562 -19.102603 47.251672 0.838422 1.986981 0.067634 -0.017628 -61800.000000 0 0 1
29.286474 30.951962 -18.499203 46.453655 0.813039 1.980382 0.049730 0.003626 569830.000000 0 0 1
30.616274 30.542762 -18.873303 47.184935 0.784196 1.982298 0.040223 -0.003398 747989.000000 0 0 1
31.159574 29.357362 -18.023603 46.450232 0.755627 1.969278 0.042091 -0.011972 -261974.000000 0 0 1
31.512974 29.775462 -16.715403 46.465583 0.757056 1.938783 0.041978 0.001032 10494.200000 0 0 1
31.756074 28.694062 -15.867103 45.646056 0.734788 1.925819 0.047914 0.003177 -274604.000000 0 0 1
32.281674 29.237162 -14.480703 45.897809 0.735949 1.891779 0.057087 -0.002022 -231666.000000 0 0 1
33.621974 29.647762 -14.481703 47.107820 0.722667 1.883273 0.051464 0.005683 -517826.000000 0 0 1
33.905974 31.009662 -14.724803 48.249705 0.740811 1.880923 0.049743 0.000351 717772.000000 0 0 1
35.429774 31.352762 -14.880903 49.595422 0.724425 1.875537 0.063063 -0.014463 794773.000000 0 0 1
36.114974 31.367062 -13.645903 49.743287 0.715156 1.848686 0.059688 -0.009849 234523.000000 0 0 1
-37.462592 31.690662 -13.922003 51.005549 -0.702125 1.847255 0.049033 -0.014499 477265.000000 0 0 1
-36.564892 31.852562 -12.694603 50.127138 -0.716631 1.826833 0.048307 -0.009390 -225763.000000 0 0 1
-36.956292 32.892162 -11.799503 50.861480 -0.727279 1.804922 0.054936 -0.011223 466195.000000 0 0 1
-36.016492 33.082662 -10.745003 50.071003 -0.742965 1.787074 0.040097 -0.001512 73238.300000 0 0 1
-36.573692 -33.595492 -9.818903 50.623146 0.742980 1.765994 0.034550 0.000667 35122.100000 0 0 1
-35.695892 -32.869692 -8.976803 49.347709 0.744203 1.753724 0.027626 -0.001278 -104489.000000 0 0 1
-35.289892 -33.488592 -7.794203 49.270801 0.759214 1.729655 0.036070 -0.004312 25093.000000 0 0 1
-34.810792 -32.597792 -6.733703 48.163783 0.752580 1.711064 0.049331 -0.005795 -371786.000000 0 0 1
-35.912992 -31.911392 -6.203903 48.441391 0.726467 1.699219 0.046482 -0.002660 -296809.000000 0 0 1
-35.581892 -30.818992 -5.371403 47.378616 0.713791 1.684412 0.057183 -0.009234 -298765.000000 0 0 1
-36.831792 -30.034492 -4.930803 47.780377 0.684091 1.674178 0.043981 -0.010125 286333.000000 0 0 1
37.161074 -30.809692 -4.173903 48.452080 -0.692226 1.657048 0.038074 -0.011875 484636.000000 0 0 1
35.915074 -30.147292 -4.073903 47.067488 -0.698311 1.657459 0.039123 -0.006261 105030.000000 0 0 1
35.727074 -29.296392 -2.823503 46.289033 -0.686821 1.631831 0.026256 -0.000560 -575075.000000 0 0 1
36.277674 -28.047492 -3.013403 45.954456 -0.658143 1.636417 0.040781 -0.013216 464875.000000 0 0 1
35.601874 -27.124292 -2.144003 44.808676 -0.651060 1.618663 0.045489 -0.008999 248512.000000 0 0 1
36.133574 -25.691492 -2.344203 44.398009 -0.618080 1.623621 0.050688 -0.017409 -235289.000000 0 0 1
35.594374 -25.219892 -3.532503 43.766208 -0.616432 1.651597 0.070664 -0.018286 296602.000000 0 0 1
35.550874 -23.846192 -3.533603 42.953369 -0.590833 1.653155 0.080381 -0.022978 -53592.500000 0 0 1
35.104274 -23.332892 -4.953703 42.441408 -0.586622 1.687782 0.082928 -0.021099 32251.900000 0 0 1
36.108574 -23.518992 -5.926103 43.498170 -0.577317 1.707459 0.072523 -0.022060 324971.000000 0 0 1
35.601774 -23.019892 -7.153903 42.995117 -0.573977 1.737963 0.067418 -0.022617 187765.000000 0 0 1
36.714474 -23.014192 -8.217403 44.103643 -0.559923 1.758212 0.074993 -0.030055 -43694.700000 0 0 1
37.371174 -24.206492 -8.516703 45.333135 -0.574779 1.759789 0.052277 -0.015177 -219013.000000 0 0 1
-36.665592 -23.961192 -9.564003 44.832739 0.578836 1.785775 0.068411 -0.017271 -113426.000000 0 0 1
-36.371292 -25.227092 -10.361403 45.460265 0.606417 1.800739 0.049016 -0.005415 -315228.000000 0 0 1
-35.579192 -26.238592 -9.753003 45.271003 0.635434 1.787935 0.059083 0.006669 -20754.700000 0 0 1
-36.136792 -27.000592 -8.711403 45.943316 0.641692 1.761563 0.038397 0.000884 -75108.300000 0 0 1
-35.096392 -28.004692 -8.146603 45.633175 0.673481 1.750282 0.039046 -0.000712 206252.000000 0 0 1
-34.688092 -28.915492 -9.187303 46.084443 0.694887 1.771499 0.044575 0.005758 44285.300000 0 0 1
-33.822092 -29.923292 -8.724703 45.994106 0.724312 1.761645 0.023782 -0.003004 -77115.400000 0 0 1
-33.204692 -30.807192 -9.819703 46.347181 0.747962 1.784287 0.023598 0.010212 -48722.500000 0 0 1
-32.375292 -30.131892 -10.733403 45.511497 0.749523 1.808879 0.029797 0.027623 49640.500000 0 0 1
-32.057192 -31.002292 -11.816003 46.134841 0.768671 1.829801 0.036360 0.024886 -87478.600000 0 0 1
-32.130792 -30.417092 -13.235103 46.181763 0.758007 1.861459 0.017935 0.031504 -683450.000000 0 0 1
-31.019992 -29.621692 -13.513003 44.969832 0.762344 1.876003 0.027244 0.026143 -508374.000000 0 0 1
-31.147392 -28.983392 -14.750303 45.030750 0.749425 1.904517 0.017277 0.030227 -134976.000000 0 0 1
-29.934892 -28.114292 -15.112603 43.759592 0.754045 1.923414 0.045516 0.007050 -179782.000000 0 0 1
-28.851692 -28.894692 -15.573503 43.701915 0.786143 1.935163 0.070692 -0.000695 -28073.400000 0 0 1
-27.853292 -27.985892 -16.069703 42.629231 0.787773 1.957313 0.091556 0.009049 -339153.000000 0 0 1
-26.696092 -28.666292 -16.756903 42.605533 0.820970 1.975018 0.116172 -0.004125 -1060020.000000 0 0 1
-26.909092 -29.171692 -18.077103 43.610417 0.825722 1.998204 0.103007 -0.004949 -45789.500000 0 0 1
-27.129492 -28.196492 -19.129103 43.554266 0.804681 2.025506 0.077907 0.008139 949630.000000 0 0 1
-25.770792 -27.469092 -19.478703 42.404063 0.817286 2.048070 0.087284 0.000891 957966.000000 0 0 1
-25.420292 -26.565792 -18.447003 41.136656 0.807429 2.035807 0.111862 -0.008309 555444.000000 0 0 1
-24.090892 -26.048092 -18.639903 40.078924 0.824414 2.054521 0.100961 -0.018206 932818.000000 0 0 1
-23.742792 -24.879492 -17.700203 38.678243 0.808772 2.046121 0.118843 -0.018678 -15958.000000 0 0 1
-23.720592 -25.270392 -16.355703 38.324512 0.817022 2.011713 0.123497 -0.018556 151886.000000 0 0 1
-23.298392 -24.218692 -15.496503 37.006779 0.804764 2.002862 0.121735 -0.019442 36595.100000 0 0 1
-23.987392 -24.282392 -14.110303 36.934133 0.791510 1.962799 0.107286 -0.011141 -413998.000000 0 0 1
-25.336192 -23.941992 -14.091803 37.599475 0.757113 1.954964 0.078763 0.009954 -565295.000000 0 0 1
-25.867692 -24.010192 -12.776103 37.534725 0.748174 1.918118 0.078369 0.012525 1126980.000000 0 0 1
-27.421092 -23.807692 -12.590103 38.434791 0.714980 1.904527 0.076356 0.035705 814629.000000 0 0 1
-28.171892 -24.928392 -13.054403 39.818308 0.724391 1.904822 0.090395 0.021531 548194.000000 0 0 1
-29.515892 -25.122092 -12.634203 40.766781 0.705154 1.885899 0.075114 0.024698 48745.700000 0 0 1
-30.578092 -24.141592 -13.103403 41.103958 0.668309 1.895246 0.087508 0.023429 -1272350.000000 0 0 1
-30.737992 -22.922492 -12.373703 40.291107 0.640768 1.882949 0.101129 0.013051 402687.000000 0 0 1
-31.377892 -23.048392 -11.078603 40.478833 0.633535 1.848023 0.113467 0.001833 1192460.000000 0 0 1
-32.924392 -23.413492 -11.001203 41.871633 0.618156 1.836653 0.096961 0.001078 1546930.000000 0 0 1
-33.909192 -22.448492 -11.416003 42.238528 0.584777 1.844475 0.121157 -0.020991 614021.000000 0 0 1
-33.976992 -22.199592 -12.829403 42.565848 0.578742 1.876958 0.108828 -0.003531 -493291.000000 0 0 1
-35.385092 -21.799292 -13.326403 43.645239 0.552144 1.881086 0.063755 -0.012992 706958.000000 0 0 1
-36.371992 -22.822692 -13.154903 44.909337 0.560381 1.868077 0.064765 -0.004330 266315.000000 0 0 1
37.240774 -22.380192 -13.056603 45.367644 -0.541125 1.862720 0.076407 -0.023479 -326362.000000 0 0 1
36.268174 -23.398792 -12.578203 44.956591 -0.572966 1.854367 0.060378 -0.002918 -709453.000000 0 0 1
36.299874 -24.502192 -13.465903 45.818870 -0.593745 1.869095 0.037763 0.008698 -10212.700000 0 0 1
35.551074 -25.599192 -12.973003 45.689127 -0.624068 1.858698 0.034418 0.000677 126478.000000 0 0 1
35.496374 -26.854292 -13.934003 46.640133 -0.647671 1.874185 0.026877 0.001541 364380.000000 0 0 1
34.697774 -26.794092 -15.110003 46.369937 -0.657567 1.902715 0.030870 -0.009375 -155061.000000 0 0 1
34.633074 -27.979992 -15.842303 47.257892 -0.679538 1.912647 0.020465 0.011372 154925.000000 0 0 1
33.731474 -27.966692 -17.121903 47.043679 -0.692233 1.943310 0.020176 -0.002125 450995.000000 0 0 1
32.338374 -27.896092 -16.863703 45.916738 -0.711782 1.946865 0.077068 -0.007090 -217372.000000 0 0 1
31.663074 -27.838392 -18.065203 45.868049 -0.721208 1.975614 0.064678 -0.011771 678147.000000 0 0 1
30.108874 -27.809592 -17.814103 44.690715 -0.745720 1.980796 0.072927 -0.022211 935892.000000 0 0 1
29.553974 -26.717292 -17.132303 43.367809 -0.735030 1.976915 0.065185 -0.021669 332846.000000 0 0 1
28.149574 -26.858192 -16.927903 42.430118 -0.761926 1.981178 0.098258 -0.024460 573467.000000 0 0 1
27.470074 -25.905492 -15.963003 40.994109 -0.756094 1.970774 0.081682 -0.027352 -78854.900000 0 0 1
27.170874 -24.612992 -16.475703 40.193340 -0.736043 1.993153 0.081290 -0.029811 -37525.000000 0 0 1
27.128074 -23.754892 -15.353703 39.191370 -0.719202 1.973343 0.070251 -0.025009 -304131.000000 0 0 1
26.854174 -22.236392 -15.676403 38.227652 -0.691608 1.993338 0.060023 -0.025024 242271.000000 0 0 1
25.522474 -21.967792 -16.089003 37.320726 -0.710687 2.016509 0.081832 -0.035425 70522.000000 0 0 1
25.288974 -20.591192 -16.417303 36.511056 -0.683361 2.037173 0.075914 -0.035676 361300.000000 0 0 1
23.820874 -20.077592 -16.404303 35.208591 -0.700333 2.055468 0.085863 -0.033267 313088.000000 0 0 1
23.263274 -19.941692 -15.100503 34.159570 -0.708669 2.028688 0.090375 -0.032475 472275.000000 0 0 1
22.146974 -19.045092 -15.125003 32.893308 -0.710237 2.048589 0.089511 -0.039557 315295.000000 0 0 1
22.159274 -18.094192 -13.938503 31.823185 -0.684752 2.024167 0.085145 -0.018797 -274367.000000 0 0 1
21.351274 -18.467292 -12.853203 31.018101 -0.713096 1.998055 0.060967 -0.024875 97842.300000 0 0 1
21.000374 -17.340592 -12.074103 29.790868 -0.690233 1.988098 0.063467 -0.028575 -629724.000000 0 0 1
20.071574 -17.621092 -10.933503 28.860223 -0.720477 1.959342 0.073406 -0.021024 -556460.000000 0 0 1
20.682674 -18.288892 -9.835103 29.308460 -0.724051 1.913009 0.073432 -0.028388 335520.000000 0 0 1
19.765774 -18.439492 -8.751803 28.412933 -0.750697 1.883909 0.070810 -0.034826 -12908.900000 0 0 1
20.280774 -19.205592 -7.551803 28.934310 -0.758176 1.834852 0.071090 -0.029433 -502758.000000 0 0 1
21.121074 -18.462192 -6.725803 28.847682 -0.718327 1.806111 0.062847 -0.032527 -398030.000000 0 0 1
21.600774 -19.339792 -5.795403 29.567003 -0.730228 1.768083 0.059200 -0.024671 -1265120.000000 0 0 1
22.917474 -18.899292 -5.202703 30.157287 -0.689602 1.744183 0.061365 -0.014698 -678410.000000 0 0 1
23.913374 -18.761492 -6.212903 31.023269 -0.665256 1.772426 0.055248 -0.016221 169151.000000 0 0 1
24.829474 -17.745292 -5.840403 31.072632 -0.620515 1.759881 0.069560 -0.018659 -308558.000000 0 0 1
25.738074 -17.352292 -7.036303 31.828604 -0.593191 1.793706 0.093972 -0.026993 -255637.000000 0 0 1
26.874974 -18.160792 -7.209003 33.227223 -0.594265 1.789496 0.109380 -0.036834 -32881.800000 0 0 1
26.715674 -19.372892 -7.926403 33.939123 -0.627407 1.806521 0.107309 -0.038560 -568963.000000 0 0 1
27.844274 -20.427592 -7.767303 35.396626 -0.632946 1.792033 0.121143 -0.040379 -787898.000000 0 0 1
28.958874 -20.113792 -8.496603 36.268075 -0.607068 1.807266 0.139141 -0.035888 -476913.000000 0 0 1
29.860674 -21.253392 -8.435203 37.610094 -0.618570 1.797001 0.144088 -0.030029 128383.000000 0 0 1
-30.761896 28.919662 4.239497 42.433647 -0.754540 1.470721 0.057800 -0.022193 150064.000000 0 0 1
-30.274736 29.918462 3.382097 42.697922 -0.779479 1.491503 0.057488 -0.016771 -108818.000000 0 0 1
-29.343956 30.777262 4.032497 42.714969 -0.809234 1.476251 0.053577 -0.009406 301373.000000 0 0 1
-28.896666 31.918062 3.086997 43.166069 -0.835039 1.499221 0.050247 -0.007575 -185777.000000 0 0 1
-28.174726 31.546262 1.922297 42.340017 -0.841793 1.525379 0.047086 -0.008898 169929.000000 0 0 1
-27.803106 32.622062 1.074797 42.876180 -0.864981 1.545726 0.055332 -0.021103 226450.000000 0 0 1
-26.601506 33.540162 1.478697 42.834205 -0.900262 1.536268 0.078717 -0.003954 -57398.300000 0 0 1
-25.330266 32.956262 1.384397 41.589110 -0.915496 1.537503 0.053998 -0.007634 -222810.000000 0 0 1
-24.420526 33.651762 2.228497 41.638556 -0.943040 1.517251 0.059641 -0.004374 398453.000000 0 0 1
-22.935526 33.247162 2.061197 40.443302 -0.966916 1.519809 0.068204 -0.015849 212715.000000 0 0 1
-22.362726 33.853562 0.937397 40.583665 -0.987025 1.547696 0.115721 -0.017858 136413.000000 0 0 1
-21.028926 33.391762 0.741197 39.468657 -1.008779 1.552016 0.126878 -0.026763 -84905.700000 0 0 1
-20.321526 -33.784992 -0.527503 39.429283 1.029278 1.584175 0.133469 -0.024800 139125.000000 0 0 1
-19.932726 -32.440092 -0.437203 38.077083 1.019822 1.582279 0.128764 -0.023109 234029.000000 0 0 1
-18.834626 -32.232792 0.440797 37.334840 1.041978 1.558989 0.142266 -0.024365 -469553.000000 0 0 1
-18.495326 -30.746792 0.609397 35.886120 1.029248 1.553814 0.148552 -0.031676 -576957.000000 0 0 1
-17.603926 -30.226292 -0.299303 34.980230 1.043415 1.579353 0.149986 -0.026295 -575847.000000 0 0 1
-17.624726 -28.810292 -0.429103 33.776441 1.021781 1.583501 0.117602 -0.025144 -144161.000000 0 0 1
-16.566126 -28.132992 -1.310703 32.674450 1.038615 1.610921 0.102767 -0.019053 -182212.000000 0 0 1
-16.815426 -28.353592 -2.716203 33.076615 1.035494 1.653007 0.092189 -0.020018 271171.000000 0 0 1
-15.905526 -27.505492 -3.414403 31.956157 1.046510 1.677847 0.071007 -0.002954 116080.000000 0 0 1
-16.278026 -27.376492 -4.915903 32.227512 1.034358 1.723932 0.094398 -0.017162 480418.000000 0 0 1
-17.550626 -26.782992 -5.165103 32.435033 0.990711 1.730722 0.099074 -0.012608 -186822.000000 0 0 1
-17.804626 -26.729592 -6.532503 32.774218 0.983185 1.771459 0.121900 -0.011522 369003.000000 0 0 1
-18.563926 -25.476192 -6.996703 32.289465 0.941082 1.789216 0.096497 -0.009712 324908.000000 0 0 1
-17.627426 -24.447592 -6.918603 30.923744 0.946096 1.796437 0.062779 0.008098 23204.400000 0 0 1
-18.217226 -23.301292 -7.425903 30.495271 0.907245 1.816779 0.043372 0.013553 -168220.000000 0 0 1
-17.403826 -22.036092 -7.135403 28.972340 0.902314 1.819640 0.065201 0.013448 432739.000000 0 0 1
-16.229026 -22.071492 -7.938803 28.522914 0.936774 1.852852 0.077419 0.005360 -400722.000000 0 0 1
-15.171826 -21.331092 -7.419803 27.207595 0.952557 1.847006 0.108576 -0.016573 -1018940.000000 0 0 1
-14.148626 -20.894092 -8.362803 26.583513 0.975565 1.890817 0.121975 -0.015759 -919577.000000 0 0 1
-14.632926 -19.962492 -9.332203 26.452100 0.938251 1.931354 0.113327 -0.014142 -558755.000000 0 0 1
-13.722426 -19.748192 -10.360203 26.184534 0.963522 1.977584 0.117752 -0.017886 -274573.000000 0 0 1
-14.309926 -19.084592 -11.591803 26.521039 0.927413 2.023145 0.136799 -0.020422 245111.000000 0 0 1
-15.424926 -19.713492 -12.222403 27.855650 0.906845 2.025033 0.103669 -0.005551 33005.600000 0 0 1
-15.735326 -19.116492 -13.466603 28.184927 0.882111 2.068939 0.113327 -0.015654 1047080.000000 0 0 1
-17.119226 -19.596592 -14.061303 29.577264 0.852770 2.066225 0.122873 -0.018239 272860.000000 0 0 1
-18.285826 -19.229392 -13.423803 29.737845 0.810544 2.039135 0.110917 -0.017072 -1295070.000000 0 0 1
-19.330026 -19.595392 -14.241503 30.991122 0.792215 2.048268 0.078506 -0.010662 -257828.000000 0 0 1
-20.782326 -19.313092 -13.723603 31.515676 0.748771 2.021338 0.057015 0.001530 802444.000000 0 0 1
-21.685726 -19.945892 -14.623303 32.893013 0.743631 2.031492 0.081539 -0.010681 863173.000000 0 0 1
-23.063726 -19.678492 -14.269603 33.508209 0.706362 2.010702 0.067199 -0.004742 754657.000000 0 0 1
-24.041126 -20.465692 -15.159003 35.023073 0.705236 2.018425 0.089542 -0.017164 -363941.000000 0 0 1
-24.038326 -20.175492 -16.486803 35.450053 0.698252 2.054512 0.102152 -0.029175 139237.000000 0 0 1
-24.750626 -21.061992 -17.318903 36.825879 0.705056 2.060418 0.122465 -0.033296 -207257.000000 0 0 1
-24.983426 -20.505392 -18.694503 37.338011 0.687272 2.095184 0.123285 -0.031673 307645.000000 0 0 1
-23.787026 -20.151992 -19.391703 36.714622 0.702857 2.127245 0.107178 -0.034229 461451.000000 0 0 1
-24.086426 -19.487792 -20.561103 37.184525 0.680252 2.156694 0.115341 -0.036466 111949.000000 0 0 1
-22.843326 -18.781592 -21.150303 36.357957 0.688127 2.191643 0.090501 -0.029131 330649.000000 0 0 1
-21.786326 -19.572292 -21.649703 36.420162 0.731917 2.207369 0.075660 -0.024023 270856.000000 0 0 1
-20.725226 -18.764292 -22.157003 35.673049 0.735782 2.240959 0.072510 -0.018665 270352.000000 0 0 1
-19.386726 -19.504592 -22.302803 35.407474 0.788429 2.252207 0.081973 -0.018802 -403581.000000 0 0 1
-19.409126 -20.582892 -23.178803 36.573576 0.814740 2.257198 0.051784 -0.011915 8829.090000 0 0 1
-18.238526 -21.368292 -23.089003 36.364127 0.864255 2.258726 0.049996 -0.011250 -225344.000000 0 0 1
-18.375826 -22.702792 -23.841803 37.703041 0.890345 2.255389 0.050190 -0.009357 -332140.000000 0 0 1
-18.425326 -22.572292 -25.262953 38.564462 0.886207 2.285090 0.053889 -0.008951 197287.000000 0 0 1
-18.647826 -23.814092 -25.942923 39.848308 0.906471 2.279753 0.060822 -0.021202 -211969.000000 0 0 1
-18.576026 -23.791892 -27.470193 40.813409 0.907891 2.309145 0.067095 -0.008534 -459956.000000 0 0 1
-17.279726 -23.657392 -27.969443 40.503714 0.939948 2.333032 0.065209 -0.009038 -419625.000000 0 0 1
-17.215126 -23.642092 -29.382823 41.456716 0.941423 2.358534 0.087643 -0.015361 -361143.000000 0 0 1
-15.765326 -23.448192 -29.844583 41.098203 0.978871 2.383542 0.073999 -0.027717 23720.900000 0 0 1
-14.865826 -24.463492 -29.414003 41.044351 1.024753 2.369768 0.086621 -0.026414 186810.000000 0 0 1
-13.597526 -24.266392 -30.002183 40.913096 1.060046 2.393981 0.105114 -0.030460 -143885.000000 0 0 1
-12.513926 -25.290292 -29.759703 41.010207 1.111308 2.382798 0.112082 -0.023325 -703414.000000 0 0 1
-12.777326 -26.567692 -30.343543 42.306417 1.122517 2.370619 0.103516 -0.021771 821580.000000 0 0 1
-11.824526 -27.598592 -29.892123 42.367920 1.166010 2.353977 0.106460 -0.022400 2366690.000000 0 0 1
-10.404326 -27.574592 -30.660223 42.528313 1.209997 2.375949 0.127684 -0.027212 1778920.000000 0 0 1
-9.594626 -26.482692 -30.146173 41.257503 1.223208 2.390119 0.156355 -0.040425 -322164.000000 0 0 1
-8.357726 -26.371092 -30.764803 41.373411 1.263883 2.409218 0.150342 -0.024617 -483350.000000 0 0 1
-7.533726 -25.140392 -30.262753 40.057840 1.279646 2.427177 0.191829 -0.031288 -173601.000000 0 0 1
-8.010826 -23.813792 -30.484343 39.503989 1.246293 2.452271 0.194151 -0.026874 -240545.000000 0 0 1
-8.825626 -23.490592 -29.394573 38.648939 1.211404 2.434961 0.181290 -0.019246 -231174.000000 0 0 1
-9.227226 -21.965492 -29.162903 37.657661 1.173102 2.456597 0.181338 -0.040862 431847.000000 0 0 1
-10.148426 -21.593192 -30.200893 38.488315 1.131450 2.472971 0.163500 -0.037179 310354.000000 0 0 1
-10.423826 -20.225292 -30.180373 37.796474 1.094916 2.495591 0.159677 -0.039982 218489.000000 0 0 1
-11.282926 -19.729092 -31.360893 38.730441 1.051300 2.514475 0.127188 -0.029436 392222.000000 0 0 1
-11.928926 -18.431792 -31.303673 38.235457 0.996397 2.529954 0.123235 -0.035874 540521.000000 0 0 1
-12.683826 -18.238292 -32.482443 39.352558 0.963130 2.541745 0.119020 -0.024814 311182.000000 0 0 1
-13.575326 -16.936892 -32.637993 39.196764 0.895127 2.554709 0.121442 -0.032725 654041.000000 0 0 1
-12.877826 -15.702392 -32.850273 38.620512 0.883908 2.587905 0.112263 -0.035318 169703.000000 0 0 1
-12.090526 -15.152392 -31.808213 37.249674 0.897320 2.594267 0.104928 -0.029896 321329.000000 0 0 1
-11.710026 -13.665592 -31.950343 36.670117 0.862311 2.628623 0.081918 -0.032683 357131.000000 0 0 1
-10.960326 -13.248292 -33.116203 37.313923 0.879629 2.662693 0.085087 -0.031501 218074.000000 0 0 1
-11.675426 -13.421892 33.492580 37.923814 0.854874 0.488252 0.090692 -0.033076 -281656.000000 0 0 1
-12.295426 -12.169192 32.881962 37.154948 0.780238 0.484312 0.081326 -0.030243 -5311.480000 0 0 1
-13.366826 -11.709492 33.673617 38.074883 0.719403 0.485579 0.073298 -0.021502 -720769.000000 0 0 1
-14.276726 -11.026092 32.897507 37.518603 0.657629 0.501564 0.065925 -0.029515 437253.000000 0 0 1
-15.365426 -10.155092 33.636174 38.348591 0.584003 0.500972 0.079909 -0.028885 699477.000000 0 0 1
-14.765826 -9.064592 -33.548743 37.758636 0.550570 2.664873 0.076141 -0.029791 -215380.000000 0 0 1
-15.568226 -8.488592 -32.535703 37.053985 0.499190 2.642594 0.080786 -0.034896 -249260.000000 0 0 1
-14.902326 -7.424492 -31.694703 35.801628 0.462215 2.657906 0.079125 -0.039235 -469936.000000 0 0 1
-14.854526 -6.078892 -32.250063 36.023276 0.388436 2.679802 0.074029 -0.045650 108242.000000 0 0 1
-16.040926 -5.293692 -32.268153 36.422083 0.318758 2.659335 0.078012 -0.039330 97310.700000 0 0 1
-16.425626 -4.624592 -30.943993 35.337214 0.274443 2.637633 0.079914 -0.043626 -361516.000000 0 0 1
-16.856326 -5.603492 -30.004363 34.868275 0.320934 2.607059 0.084506 -0.053210 -190852.000000 0 0 1
-17.054626 -5.114992 -28.697273 33.772131 0.291382 2.586274 0.075425 -0.051289 168692.000000 0 0 1
-15.810226 -4.609992 -27.897503 32.395770 0.283717 2.608317 0.070203 -0.049833 202757.000000 0 0 1
-15.194226 -3.541592 -28.523943 32.511885 0.228999 2.641085 0.068120 -0.043658 -703446.000000 0 0 1
-14.065326 -3.042692 -27.880273 31.375165 0.213043 2.665101 0.054462 -0.039029 -408509.000000 0 0 1
-13.888026 -1.602992 -28.390493 31.645962 0.114914 2.684022 0.037050 -0.022073 48818.400000 0 0 1
-13.676726 -1.658992 -29.844983 32.871387 0.120711 2.709119 0.032677 -0.021604 221913.000000 0 0 1
-13.595626 -0.365992 -30.366643 33.273232 0.026913 2.720505 0.020566 -0.021493 -43882.000000 0 0 1
-13.848726 -0.468992 -31.878243 34.759596 0.033852 2.731556 0.016657 -0.016010 3288.810000 0 0 1
-15.205926 -0.665992 -32.270183 35.679524 0.043770 2.700874 0.016392 -0.010618 518667.000000 0 0 1
-15.182126 -1.110992 -33.575963 36.865655 0.073047 2.715930 0.016011 -0.012742 -626048.000000 0 0 1
-16.509826 -1.480992 33.629049 37.492408 0.089464 0.457960 0.019850 -0.006392 -563584.000000 0 0 1
-16.435126 -1.665992 32.261663 36.245052 0.101023 0.473235 0.032100 -0.016849 17522.900000 0 0 1
-17.727426 -1.754992 31.715786 36.376266 0.098677 0.511765 0.037028 -0.010151 -203020.000000 0 0 1
-17.698926 -1.712992 30.154296 35.006684 0.096485 0.532803 0.048718 -0.007263 52062.300000 0 0 1
-17.280426 -0.455992 29.689176 34.355032 0.026382 0.527264 0.031796 0.003921 67785.500000 0 0 1
-17.161626 -0.370992 28.295976 33.095639 0.021614 0.545292 0.028792 -0.011530 -321090.000000 0 0 1
-16.695826 1.057008 27.930346 32.557213 -0.063225 0.539657 0.030198 -0.007015 -280871.000000 0 0 1
-17.505326 2.094008 28.410236 33.435951 -0.119055 0.555397 0.031965 -0.003255 770973.000000 0 0 1
-18.800826 2.308008 27.805626 33.644477 -0.122150 0.598016 0.047101 -0.012375 849456.000000 0 0 1
-18.866526 3.029008 26.418306 32.604411 -0.159191 0.626187 0.063470 -0.021784 -401380.000000 0 0 1
-18.592626 4.447008 26.557626 32.722609 -0.234771 0.623913 0.061672 -0.020919 318791.000000 0 0 1
-19.044626 5.226008 25.418576 32.188708 -0.267816 0.660519 0.072297 -0.017945 -630869.000000 0 0 1
-18.790826 6.745008 25.483836 32.373078 -0.344628 0.664553 0.067805 -0.013134 106800.000000 0 0 1
-17.467026 7.241008 25.389376 31.656747 -0.392989 0.640125 0.061303 -0.016028 218589.000000 0 0 1
-16.916926 7.017008 24.066036 30.242270 -0.393193 0.650510 0.051546 -0.012329 -692394.000000 0 0 1
-15.690626 7.860008 23.808636 29.577468 -0.464397 0.635191 0.056060 -0.010065 -598615.000000 0 0 1
-14.516826 7.578008 24.529896 29.493732 -0.481105 0.588636 0.051425 -0.011348 -502410.000000 0 0 1
-13.458826 8.244008 23.920586 28.658299 -0.549586 0.583240 0.065705 -0.013422 -962885.000000 0 0 1
-12.178926 8.223008 24.741396 28.776393 -0.593876 0.535956 0.045293 -0.000839 -311300.000000 0 0 1
-11.054926 8.690008 23.950146 27.772957 -0.666193 0.530894 0.032383 -0.010810 883779.000000 0 0 1
-9.892826 8.778008 24.782406 28.090730 -0.725760 0.490224 0.039451 -0.012952 133804.000000 0 0 1
-9.720226 10.045008 25.590256 29.158981 -0.801829 0.499940 0.050801 -0.025608 -600075.000000 0 0 1
-10.767526 10.301008 26.539526 30.436768 -0.763259 0.511613 0.031120 -0.022613 500655.000000 0 0 1
-10.740326 11.599008 27.044356 31.325529 -0.823817 0.528959 0.053197 -0.025575 -492037.000000 0 0 1
-11.269626 12.815008 26.194796 31.263337 -0.849475 0.577416 0.038885 -0.030310 214465.000000 0 0 1
-12.643426 12.655008 25.860386 31.444634 -0.785856 0.605162 0.054672 -0.031967 255440.000000 0 0 1
-12.796226 12.016008 24.596016 30.217410 -0.753964 0.619845 0.046474 -0.026566 -88152.600000 0 0 1
-14.290526 11.711008 24.268896 30.501576 -0.686515 0.650699 0.060155 -0.024212 92068.800000 0 0 1
-14.992026 12.873008 23.889446 31.002916 -0.709498 0.691085 0.058288 -0.030145 -145589.000000 0 0 1
-16.274526 12.643008 23.350076 31.143730 -0.660470 0.723109 0.060932 -0.016270 175.598000 0 0 1
-16.474426 11.898008 21.980616 29.935210 -0.625478 0.746201 0.042510 0.001413 -426302.000000 0 0 1
-16.074526 10.525008 21.985016 29.197724 -0.579716 0.718232 0.042212 0.002847 46468.600000 0 0 1
-16.073726 9.969008 20.641116 27.996454 -0.555144 0.741767 0.058334 -0.010036 -29147.700000 0 0 1
-16.611426 8.494008 20.553416 27.758432 -0.472675 0.737074 0.064971 -0.005060 234463.000000 0 0 1
-18.005626 8.464008 20.769316 28.761198 -0.439423 0.763920 0.060152 0.007975 -438456.000000 0 0 1
-18.497226 7.155008 20.617816 28.608318 -0.369089 0.765995 0.054343 0.008211 84621.700000 0 0 1
-20.002726 7.043008 20.957716 29.815078 -0.338547 0.791297 0.068429 -0.000978 197710.000000 0 0 1
-20.373726 7.391008 22.278616 31.081384 -0.348007 0.771618 0.069392 -0.007264 83366.200000 0 0 1
-21.785726 7.350008 22.405516 32.103701 -0.325386 0.798320 0.077392 -0.005392 382738.000000 0 0 1
-22.317226 8.050008 23.725906 33.552643 -0.346182 0.785373 0.093273 0.000902 -711014.000000 0 0 1
-22.430126 9.451008 23.687826 33.963881 -0.398778 0.798975 0.088987 -0.003405 710668.000000 0 0 1
-21.212326 10.216008 23.804086 33.480802 -0.448825 0.779910 0.072913 0.001710 1022010.000000 0 0 1
-20.358226 9.976008 25.073886 33.803519 -0.455635 0.735115 0.066814 -0.006284 -501422.000000 0 0 1
-21.166726 10.358008 26.149516 35.201077 -0.455094 0.733462 0.072785 -0.005907 -145462.000000 0 0 1
-20.463326 10.606008 27.340046 35.759100 -0.478175 0.700435 0.093223 -0.017934 -273289.000000 0 0 1
-31.819996 -14.091338 20.473816 40.376417 0.416888 1.039010 0.072045 -0.013757 87446.600000 0 0 1
-31.343286 -15.419138 20.634716 40.570222 0.457182 1.037218 0.077153 -0.012549 395117.000000 0 0 1
-31.939236 -16.344338 19.692316 40.927246 0.472989 1.068825 0.084178 -0.010337 185625.000000 0 0 1
-31.548886 -16.149238 18.229116 39.855122 0.473106 1.095745 0.096124 -0.011198 61314.200000 0 0 1
-32.251566 -15.093938 17.611016 39.725789 0.437727 1.111503 0.092739 -0.020623 86339.300000 0 0 1
-31.677286 -14.920338 16.334716 38.637933 0.440188 1.134304 0.087300 -0.018477 -849252.000000 0 0 1
-32.407256 -13.750238 15.659016 38.529262 0.401273 1.152265 0.095876 -0.016465 96242.800000 0 0 1
-33.687836 -14.145638 15.174416 39.563016 0.397546 1.177159 0.104690 -0.011769 573522.000000 0 0 1
-34.746170 -14.154538 16.116516 40.833679 0.386843 1.165069 0.089879 -0.012780 -714827.000000 0 0 1
-35.409868 -12.792838 16.455416 41.088881 0.346687 1.158752 0.095806 -0.014976 -1061530.000000 0 0 1
-36.466356 -12.923038 17.339516 42.396448 0.340574 1.149455 0.077485 -0.014386 -245799.000000 0 0 1
-37.024596 -11.640238 17.655216 42.638275 0.304608 1.143876 0.070768 -0.008352 251075.000000 0 0 1
36.941731 -11.487038 18.834316 43.027607 -0.301472 1.117728 0.068205 0.002863 15982.200000 0 0 1
-37.364106 -11.922438 20.017416 44.033145 0.308875 1.098875 0.060190 -0.001003 413272.000000 0 0 1
36.700671 -11.826138 21.147116 43.977236 -0.311726 1.069155 0.056793 -0.000513 -341693.000000 0 0 1
-37.462566 -12.136838 22.479316 45.343868 0.313302 1.052096 0.050881 -0.008865 852175.000000 0 0 1
-36.285106 -11.363538 22.773216 44.321082 0.303498 1.031161 0.053116 -0.005959 824114.000000 0 0 1
-35.178915 -12.028738 22.149716 43.276512 0.329468 1.033496 0.045752 -0.008830 -1065820.000000 0 0 1
-33.865926 -11.292038 22.291016 42.086820 0.321841 1.012616 0.067648 -0.016259 -547079.000000 0 0 1
-33.861616 -10.114138 21.502816 41.367571 0.290255 1.024181 0.086658 -0.018130 514766.000000 0 0 1
-32.511516 -9.659738 21.457116 40.133739 0.288810 1.006714 0.099032 -0.023366 365161.000000 0 0 1
-32.356296 -8.466438 20.480916 39.218342 0.255925 1.021335 0.121220 -0.018007 -7323.550000 0 0 1
-32.627986 -8.707238 19.090516 38.792387 0.260787 1.056273 0.127466 -0.010003 219549.000000 0 0 1
-33.973106 -8.877438 18.681616 39.774157 0.255593 1.081854 0.113758 -0.015764 -69632.900000 0 0 1
-34.315292 -8.734138 17.159316 39.348018 0.249234 1.119546 0.120718 -0.013961 -83527.300000 0 0 1
-35.698991 -8.666138 16.902316 40.437707 0.238149 1.139571 0.085598 -0.014438 -135806.000000 0 0 1
-36.070746 -8.361238 15.604416 40.180926 0.227778 1.171952 0.092095 -0.015431 -5924.720000 0 0 1
37.346671 -8.136338 15.537116 41.259857 -0.214508 1.184708 0.076764 -0.018661 221130.000000 0 0 1
36.655011 -9.356738 15.768816 40.985289 -0.249928 1.175867 0.070260 -0.005351 364096.000000 0 0 1
35.244741 -9.235938 15.605216 39.636058 -0.256289 1.166129 0.060386 -0.007274 481690.000000 0 0 1
34.481231 -10.555338 15.736316 39.344658 -0.297060 1.159322 0.049324 -0.003289 -74285.100000 0 0 1
34.332191 -10.960438 17.101316 39.890921 -0.309019 1.127741 0.042553 -0.008025 306835.000000 0 0 1
33.389921 -12.053938 17.125616 39.414096 -0.346445 1.121308 0.058531 -0.004642 483699.000000 0 0 1
32.994161 -12.454438 18.517016 39.832243 -0.360938 1.087303 0.058090 -0.003576 20289.300000 0 0 1
33.856031 -13.428238 19.078516 41.116155 -0.377596 1.088274 0.043262 0.002544 -64708.200000 0 0 1
33.652471 -13.547638 20.486916 41.662225 -0.382724 1.056711 0.053801 0.000764 -625464.000000 0 0 1
34.509131 -14.697938 21.058216 43.015787 -0.402645 1.059227 0.037716 0.000965 -293774.000000 0 0 1
34.410031 -14.694338 22.494316 43.657394 -0.403594 1.029501 0.037290 -0.003648 -103396.000000 0 0 1
34.713331 -15.967338 23.057186 44.627403 -0.431120 1.027851 0.038420 -0.001198 36989.200000 0 0 1
35.152951 -15.701138 24.521216 45.645873 -0.420066 1.003676 0.053779 0.000677 85639.700000 0 0 1
36.435911 -15.119538 24.547136 46.462220 -0.393338 1.014170 0.052880 -0.000458 -218157.000000 0 0 1
36.895241 -14.988338 25.870466 47.488842 -0.385874 0.994682 0.053425 -0.006587 -942914.000000 0 0 1
-36.899556 -14.034838 25.882926 47.206777 0.363455 0.990480 0.052216 -0.008906 -1190450.000000 0 0 1
-35.671745 -14.614638 25.533356 46.238656 0.388839 0.985786 0.035101 -0.011313 -433950.000000 0 0 1
-34.664662 -13.652838 25.758376 45.293848 0.375197 0.965878 0.045629 -0.012827 186684.000000 0 0 1
-33.214526 -14.152138 25.523936 44.214919 0.402787 0.955415 0.046400 -0.011653 -177913.000000 0 0 1
-32.953276 -14.613538 24.211006 43.424034 0.417404 0.979367 0.043077 -0.010776 597127.000000 0 0 1
-31.580976 -14.913938 23.936486 42.340748 0.441198 0.969963 0.054666 -0.017080 614996.000000 0 0 1
-31.111756 -16.289438 24.470606 42.803010 0.482332 0.962216 0.060062 -0.017488 -587950.000000 0 0 1
-31.110396 -16.373338 25.887016 43.658682 0.484464 0.936090 0.061872 -0.018830 87521.500000 0 0 1
-30.861146 -17.702338 26.281476 44.232331 0.520791 0.934564 0.065663 -0.028543 -187700.000000 0 0 1
-30.479326 -17.879138 27.813276 44.969225 0.530507 0.903969 0.074847 -0.034706 -147295.000000 0 0 1
-29.274766 -17.197938 28.054966 44.043866 0.531153 0.880225 0.068705 -0.034488 -598604.000000 0 0 1
-28.752536 -17.558438 29.257866 44.620957 0.548231 0.855690 0.087460 -0.038795 564995.000000 0 0 1
-27.394026 -16.822338 29.557976 43.670329 0.550714 0.827330 0.071636 -0.033200 393398.000000 0 0 1
-27.591966 -15.487038 29.917776 43.545818 0.511468 0.813387 0.087424 -0.040054 28523.000000 0 0 1
-26.350346 -14.832138 30.101876 42.666802 0.512680 0.787653 0.075944 -0.031760 -595822.000000 0 0 1
-26.466596 -13.486338 30.819496 42.804245 0.471267 0.766979 0.086009 -0.035750 -160460.000000 0 0 1
-25.782596 -13.472538 32.061215 43.291720 0.481520 0.736855 0.092696 -0.037345 278640.000000 0 0 1
-25.690646 -12.155838 32.648156 43.285977 0.441948 0.716295 0.089728 -0.027627 -366594.000000 0 0 1
-25.032336 -12.164438 -33.806923 43.789261 0.452344 2.452836 0.089183 -0.031024 -400242.000000 0 0 1
-23.645426 -12.335038 -33.679693 42.960226 0.480831 2.471838 0.058840 -0.019015 -195819.000000 0 0 1
-23.173926 -13.661838 -33.725973 43.140676 0.532689 2.468291 0.067016 -0.024043 -218470.000000 0 0 1
-23.201626 -14.561338 -32.448513 42.464738 0.560467 2.440485 0.076463 -0.025258 -309590.000000 0 0 1
-22.219226 -14.135438 -31.520923 41.073996 0.566599 2.445601 0.049124 -0.016256 80791.300000 0 0 1
-22.115326 -15.014238 -30.433113 40.505423 0.596429 2.420878 0.061152 -0.019229 -123413.000000 0 0 1
-20.828826 -14.872638 -29.596133 39.127566 0.620088 2.428590 0.056029 -0.012415 49743.700000 0 0 1
-20.672726 -13.642238 -28.891703 38.055259 0.583314 2.432885 0.069240 -0.025309 -61666.200000 0 0 1
-21.261626 -13.733938 -27.613183 37.458853 0.573523 2.399655 0.074134 -0.018278 -131684.000000 0 0 1
-20.823826 -12.706638 -26.544633 36.051462 0.547884 2.398380 0.067499 -0.019433 -133972.000000 0 0 1
-19.435926 -12.800738 -26.282383 35.105238 0.582406 2.416856 0.074864 -0.023111 -13623.600000 0 0 1
-18.995626 -11.591938 -25.684253 33.983638 0.547917 2.427645 0.078048 -0.029271 235384.000000 0 0 1
-17.543526 -11.765138 -25.172313 32.860905 0.590738 2.443432 0.094985 -0.031890 -472624.000000 0 0 1
-17.361526 -12.659438 -24.100403 32.287976 0.630034 2.413463 0.101594 -0.029499 -302035.000000 0 0 1
-16.042226 -12.743038 -23.651803 31.291306 0.671282 2.427761 0.110426 -0.030478 -636488.000000 0 0 1
-15.012226 -13.486738 -24.463003 31.712735 0.731921 2.451825 0.077117 -0.021562 -1095720.000000 0 0 1
-14.348226 -12.661138 -25.371373 31.778649 0.723016 2.495393 0.067223 -0.023294 -174254.000000 0 0 1
-13.455226 -13.456538 -26.142543 32.335028 0.785447 2.512378 0.084583 -0.021231 280791.000000 0 0 1
-12.467626 -12.550238 -26.979033 32.261717 0.788700 2.561214 0.083523 -0.023970 115427.000000 0 0 1
-13.100526 -11.763538 -27.948923 33.032513 0.731678 2.579428 0.105420 -0.030274 -482794.000000 0 0 1
-12.238626 -11.231138 -28.936803 33.365566 0.742497 2.620479 0.091938 -0.037585 -201395.000000 0 0 1
-12.903126 -10.274438 -29.981573 34.219138 0.672466 2.638641 0.062097 -0.031436 -121191.000000 0 0 1
-12.052326 -9.380138 -30.664413 34.257142 0.661359 2.679507 0.053313 -0.023440 -213575.000000 0 0 1
-11.544626 -9.858338 -31.884093 35.313745 0.706773 2.697220 0.066367 -0.017390 -146949.000000 0 0 1
-10.661426 -8.778938 -32.487073 35.300788 0.688865 2.739625 0.053330 -0.023031 -307405.000000 0 0 1
-9.420426 -8.471638 -31.899693 34.323512 0.732419 2.763534 0.045461 -0.023208 -179756.000000 0 0 1
-9.082426 -7.135938 -32.219433 34.227239 0.665952 2.797373 0.046023 -0.029669 -444859.000000 0 0 1
-7.611226 -6.801038 -31.982173 33.571480 0.729242 2.832661 0.060493 -0.021512 -318467.000000 0 0 1
-7.071126 -6.651938 -30.652183 32.152845 0.754861 2.834867 0.046241 -0.016952 295596.000000 0 0 1
-7.646526 -5.572338 -29.858153 31.321392 0.629756 2.834720 0.033570 -0.018583 257223.000000 0 0 1
-6.928626 -4.228938 -30.240583 31.311062 0.548000 2.879352 0.052388 -0.026395 -538351.000000 0 0 1
-5.584626 -4.209638 -29.921533 30.727955 0.645923 2.911986 0.094718 -0.029966 -712294.000000 0 0 1
-4.900626 -3.071038 -30.468423 31.012452 0.559794 2.954009 0.105727 -0.043606 1857380.000000 0 0 1
-3.323726 -3.003538 -30.192043 30.522579 0.734837 2.994291 0.097534 -0.032349 1680050.000000 0 0 1
-2.530026 -3.810638 -31.092443 31.427090 0.984686 2.995529 0.110779 -0.032493 596843.000000 0 0 1
-1.133226 -3.708838 -30.834583 31.077503 1.274258 3.016478 0.114270 -0.026538 983375.000000 0 0 1
-0.364126 -2.459938 -31.449643 31.547804 1.423841 3.062686 0.105725 -0.025030 855666.000000 0 0 1
0.955574 -2.199138 -30.905633 30.998508 -1.160888 3.064164 0.114395 -0.018922 890364.000000 0 0 1
1.445774 -0.985638 -31.416633 31.465323 -0.598364 3.085954 0.067755 -0.015792 -48852.400000 0 0 1
1.429274 0.173062 -30.330383 30.364534 0.120497 3.094161 0.073439 -0.028379 -589196.000000 0 0 1
0.131774 0.525262 -29.990483 29.995372 1.324996 3.123538 0.096679 -0.029179 -1108500.000000 0 0 1
0.208974 1.619262 -29.181593 29.227231 1.442450 3.085702 0.107233 -0.045716 -32130.000000 0 0 1
-0.930926 1.969862 -28.197243 28.281292 -1.129321 3.064477 0.092777 -0.042194 798868.000000 0 0 1
-2.098926 2.561462 -28.810603 29.000300 -0.884323 3.027152 0.091187 -0.059868 671464.000000 0 0 1
-2.078926 3.981162 -28.654033 29.003882 -1.089554 2.986116 0.118652 -0.052315 163572.000000 0 0 1
-3.371826 4.695062 -29.136903 29.704746 -0.947983 2.945749 0.147356 -0.056170 181842.000000 0 0 1
-3.298826 4.655262 -30.547133 31.075409 -0.954307 2.956941 0.151468 -0.062117 -327105.000000 0 0 1
-4.497126 5.117062 -31.076943 31.814852 -0.849790 2.925796 0.164369 -0.056407 -1023980.000000 0 0 1
-4.415826 5.701362 -32.546503 33.335865 -0.911785 2.923542 0.168071 -0.058704 -84981.600000 0 0 1
-4.095726 4.777662 -33.628553 34.212287 -0.862099 2.956601 0.177549 -0.057651 935672.000000 0 0 1
-2.864126 4.056762 -33.452033 33.818620 -0.956046 2.994219 0.179449 -0.064658 482024.000000 0 0 1
-2.195326 3.475662 33.094128 33.348478 -1.007445 0.123586 0.154249 -0.057612 -160260.000000 0 0 1
-3.059826 2.500862 32.531967 32.771111 -0.685214 0.120883 0.155860 -0.061082 171786.000000 0 0 1
-2.814526 2.070862 31.215416 31.410384 -0.634336 0.111477 0.144375 -0.047976 -21509.900000 0 0 1
-2.625626 3.122262 30.092496 30.367759 -0.871587 0.134744 0.137627 -0.048094 65779.300000 0 0 1
-3.836326 3.841062 29.984246 30.471727 -0.786015 0.179113 0.131885 -0.047244 147777.000000 0 0 1
-3.872326 4.664462 28.806456 29.437460 -0.877924 0.207424 0.127768 -0.042915 180053.000000 0 0 1
-5.171326 5.504062 28.771356 29.746063 -0.816557 0.256703 0.129295 -0.033018 160738.000000 0 0 1
-5.377626 6.097962 27.516086 28.692142 -0.848087 0.287304 0.130127 -0.023500 -266347.000000 0 0 1
-6.487626 6.952762 27.642546 29.232526 -0.819992 0.331334 0.113690 -0.016712 -422310.000000 0 0 1
-6.567526 7.776262 26.373596 28.269581 -0.869469 0.368324 0.101899 -0.015398 -822896.000000 0 0 1
-5.602026 8.733562 26.285206 28.258978 -1.000465 0.375964 0.117632 -0.019155 -772154.000000 0 0 1
-5.494326 9.311162 24.997056 27.234871 -1.037703 0.408210 0.100544 -0.024740 49692.200000 0 0 1
-4.750626 10.652462 25.072166 27.652430 -1.151303 0.435428 0.100227 -0.028733 -201032.000000 0 0 1
-4.537126 11.353762 23.834916 26.787995 -1.190622 0.473975 0.097419 -0.035443 6824.490000 0 0 1
-4.127126 12.684762 24.012156 27.468527 -1.256238 0.507073 0.088539 -0.025696 637460.000000 0 0 1
-2.540026 12.850362 23.923916 27.275214 -1.375650 0.500943 0.070183 -0.015823 1467540.000000 0 0 1
-1.750226 12.300162 24.984516 27.903106 -1.429452 0.461462 0.074771 -0.013816 126597.000000 0 0 1
-1.848226 12.980062 26.235696 29.329332 -1.429358 0.463438 0.083530 -0.018595 -60357.400000 0 0 1
-0.913626 12.421362 27.404176 30.101725 -1.497376 0.426581 0.083365 -0.019284 852267.000000 0 0 1
0.471574 12.701662 27.277856 30.093787 1.533686 0.436047 0.075235 -0.011835 -438221.000000 0 0 1
1.033874 12.293762 28.467546 31.025903 1.486896 0.408944 0.086661 -0.024872 598486.000000 0 0 1
2.589274 12.539462 28.434526 31.184367 1.367168 0.423101 0.077118 -0.019376 908624.000000 0 0 1
2.893474 13.926362 28.323526 31.694446 1.365941 0.465398 0.071098 -0.019518 -779005.000000 0 0 1
4.197274 14.142762 27.893686 31.554596 1.282297 0.486485 0.075754 -0.022670 -685127.000000 0 0 1
4.657774 15.586062 28.083266 32.454430 1.280402 0.525020 0.073077 -0.024070 -135656.000000 0 0 1
4.607374 15.911562 29.478056 33.813629 1.288944 0.511972 0.082223 -0.017134 3369.470000 0 0 1
3.760174 17.001562 29.756646 34.476804 1.353134 0.529437 0.068205 -0.014861 -190239.000000 0 0 1
4.099874 18.456862 29.272636 34.847553 1.352213 0.573477 0.074516 -0.010803 -188075.000000 0 0 1
5.154374 19.064262 29.980796 35.900721 1.306741 0.582477 0.098718 -0.010434 -174512.000000 0 0 1
5.515674 20.173962 29.263106 35.968608 1.303913 0.620525 0.082030 -0.011383 54478.000000 0 0 1
6.660574 21.052762 29.830696 37.114047 1.264385 0.637212 0.082499 -0.010371 -12407.300000 0 0 1
6.276074 21.799762 30.940686 38.365933 1.290480 0.632652 0.072650 -0.025673 221417.000000 0 0 1
7.312374 22.659962 31.398816 39.405969 1.258646 0.648810 0.050938 -0.027124 232486.000000 0 0 1
7.656774 23.990562 30.631066 39.653947 1.261858 0.688091 0.046079 -0.019088 149057.000000 0 0 1
8.146374 23.819862 29.303766 38.632369 1.241267 0.709744 0.035571 -0.016049 121742.000000 0 0 1
8.595274 25.003362 28.743626 39.054358 1.239687 0.743668 0.037346 -0.016674 -63999.600000 0 0 1
9.050474 24.786062 27.261476 37.940058 1.220695 0.769095 0.066151 -0.022543 -60985.300000 0 0 1
8.017874 24.500862 26.336776 36.853824 1.254532 0.774704 0.070238 -0.022635 435131.000000 0 0 1
8.519774 24.433762 25.010196 35.987570 1.235290 0.802421 0.086575 -0.031095 -103784.000000 0 0 1
28.422341 3.038362 6.681497 29.354787 0.106496 1.341172 0.211012 -0.019701 244770.000000 0 0 1
29.172441 4.016362 7.435197 30.371773 0.136816 1.323477 0.194687 -0.037070 318161.000000 0 0 1
28.644041 4.098262 8.690097 30.212491 0.142111 1.279042 0.167192 -0.025697 -666810.000000 0 0 1
29.433841 5.000362 9.653197 31.377362 0.168278 1.258076 0.151750 -0.032712 -224325.000000 0 0 1
29.265741 6.396862 9.526897 31.435095 0.215194 1.262888 0.161693 -0.033423 449843.000000 0 0 1
29.977531 6.950662 8.369497 31.890634 0.227836 1.305242 0.180078 -0.047304 169812.000000 0 0 1
29.541041 8.406062 7.934297 31.722043 0.277228 1.317993 0.205141 -0.047387 -396407.000000 0 0 1
28.281641 8.439462 7.348997 30.415185 0.289995 1.326759 0.175351 -0.045920 -517476.000000 0 0 1
28.068841 9.675462 6.661397 30.427760 0.331950 1.350084 0.194050 -0.071241 -18691.600000 0 0 1
26.819741 9.666462 5.761897 29.085021 0.345930 1.371372 0.163592 -0.055305 752536.000000 0 0 1
25.553941 9.743962 6.461997 28.101710 0.364291 1.338770 0.138172 -0.041727 705437.000000 0 0 1
24.544741 9.637662 5.478797 26.932249 0.374160 1.365938 0.167674 -0.045305 309355.000000 0 0 1
23.290441 10.535862 5.737597 26.198646 0.424822 1.350003 0.087927 -0.029556 289986.000000 0 0 1
23.571241 11.894062 5.571897 26.983664 0.467321 1.362809 0.088260 -0.020470 162542.000000 0 0 1
22.541241 12.661262 6.144997 26.573974 0.511776 1.337443 0.083751 -0.010035 -294889.000000 0 0 1
22.823241 14.177062 6.128097 27.557993 0.555839 1.346551 0.082183 0.001388 -89943.300000 0 0 1
22.667341 14.820262 4.915597 27.524745 0.579053 1.391245 0.073489 -0.009950 371398.000000 0 0 1
22.580141 16.233462 5.165897 28.285589 0.623316 1.387132 0.107050 -0.004724 -231064.000000 0 0 1
22.098741 17.043362 3.974597 28.189146 0.656955 1.429327 0.102779 -0.025340 -215484.000000 0 0 1
20.707941 17.016062 3.746897 27.062971 0.687843 1.431899 0.121620 -0.009615 86730.800000 0 0 1
20.396341 18.062662 2.845297 27.392813 0.724793 1.466738 0.124702 -0.016796 -595412.000000 0 0 1
18.898941 17.969062 2.581997 26.205417 0.760182 1.472107 0.105644 -0.013642 -333892.000000 0 0 1
18.081341 18.439562 3.684197 26.086886 0.795207 1.429095 0.111631 -0.028041 999856.000000 0 0 1
16.709641 18.207862 3.331097 24.936610 0.828279 1.436813 0.090865 -0.033341 454928.000000 0 1 0
15.788441 19.032862 4.273097 25.095499 0.878303 1.399689 0.110750 -0.046810 1196710.000000 0 0 1
14.368241 18.979662 3.966897 24.133176 0.922809 1.405672 0.113466 -0.039919 1344420.000000 0 1 0
13.719041 20.174062 4.337497 24.779401 0.973597 1.394845 0.082319 -0.039876 -721068.000000 0 1 0
12.257741 20.134362 3.901997 23.892893 1.023933 1.406749 0.064572 -0.031269 -292714.000000 0 1 0
11.525741 19.392162 4.899797 23.084771 1.034541 1.356917 0.050536 -0.029685 -374262.000000 0 1 0
10.151241 19.428462 4.606697 22.399430 1.089316 1.363657 0.036297 -0.017647 257988.000000 0 1 0
9.286841 18.759362 5.737397 21.704304 1.111116 1.303273 0.027584 -0.016793 -424931.000000 0 1 0
9.392441 19.572662 6.938197 22.791350 1.123378 1.261464 0.048840 -0.021087 -98340.600000 0 1 0
8.734441 18.873762 7.961197 22.268588 1.137364 1.205198 0.048507 -0.017849 -680942.000000 0 1 0
7.636941 19.639762 8.698097 22.796930 1.199938 1.179327 0.046099 -0.020390 276845.000000 0 1 0
6.547141 20.031162 7.862297 22.492848 1.254894 1.213709 0.040270 -0.019828 112031.000000 0 1 0
6.714341 21.267262 7.159497 23.423006 1.264987 1.260164 0.052722 -0.015199 606812.000000 0 1 0
5.452941 21.647962 6.234797 23.178471 1.324038 1.298451 0.048957 -0.003630 1638740.000000 0 1 0
4.157241 21.738862 6.817797 23.159083 1.381842 1.271979 0.044099 -0.005656 412206.000000 0 1 0
3.894641 22.744362 7.815797 24.363106 1.401206 1.244217 0.054995 -0.010182 -390151.000000 0 1 0
3.826441 24.177462 7.299297 25.543513 1.413833 1.280998 0.081858 -0.007021 253084.000000 0 0 1
2.762841 24.313862 6.345497 25.279686 1.457649 1.317071 0.061244 -0.006023 206104.000000 0 0 1
2.725141 25.466262 5.598597 26.216430 1.464192 1.355586 0.069748 -0.008516 -612845.000000 0 0 1
1.499841 25.773462 4.739297 26.248463 1.512669 1.389245 0.069215 -0.006738 -394268.000000 0 0 1
0.343741 25.967662 5.534597 26.553143 1.557560 1.360822 0.091980 -0.014176 -442253.000000 0 0 1
-0.739459 26.126262 4.664597 26.549705 -1.542501 1.394187 0.092679 -0.014496 -593011.000000 0 0 1
-2.059759 26.584062 5.278797 27.181256 -1.493470 1.375347 0.118106 -0.020900 -205886.000000 0 0 1
-2.984459 26.947562 4.272397 27.446884 -1.460495 1.414500 0.135596 -0.031397 -534243.000000 0 0 1
-4.066259 27.616462 4.852297 28.332812 -1.424606 1.398687 0.127117 -0.037478 -374916.000000 0 0 1
-5.176059 27.987162 3.852297 28.721299 -1.387919 1.436264 0.148297 -0.040067 -311425.000000 0 0 1
-4.792059 29.070262 3.010297 29.615973 -1.407422 1.468976 0.134963 -0.038944 -385678.000000 0 0 1
-5.696959 29.482962 2.043097 30.097751 -1.379920 1.502862 0.135412 -0.053752 -644260.000000 0 0 1
-5.005059 30.276162 0.908697 30.700526 -1.406965 1.541193 0.123888 -0.041586 -40439.200000 0 0 1
-4.427659 31.568362 1.122397 31.897107 -1.431449 1.535601 0.119253 -0.039019 252255.000000 0 0 1
-3.241859 31.579662 1.895097 31.802140 -1.468498 1.511171 0.118129 -0.038110 -465257.000000 0 0 1
-2.479359 32.891362 1.979597 33.044027 -1.495558 1.510853 0.115302 -0.041811 -1098850.000000 0 0 1
-1.685859 33.064062 0.851597 33.117964 -1.519853 1.545079 0.091942 -0.025532 -243639.000000 0 0 1
-0.925959 -33.525292 0.921997 33.550748 1.543184 1.543312 0.102024 -0.029146 852050.000000 0 0 1
0.467941 -33.591992 1.648297 33.635662 -1.556867 1.521772 0.088063 -0.021479 349440.000000 0 0 1
0.250541 -33.636292 3.049397 33.775164 -1.563348 1.480388 0.078684 -0.018197 425436.000000 0 0 1
1.487741 33.878362 3.710097 34.113364 1.526910 1.461823 0.075736 -0.017858 518225.000000 0 0 1
1.312841 -33.849692 5.224197 34.275610 -1.532031 1.417783 0.075137 -0.012871 467087.000000 0 0 1
0.491341 32.859962 5.751397 33.363110 1.555845 1.397543 0.096633 -0.028284 147021.000000 0 0 1
-0.022459 33.108162 7.041597 33.848707 -1.570118 1.361234 0.123032 -0.033225 171250.000000 0 0 1
0.995141 33.255062 8.250997 34.277812 1.540881 1.327699 0.112091 -0.019788 268944.000000 0 0 1
1.691541 32.044362 8.467797 33.187438 1.518058 1.312793 0.103306 -0.027902 143273.000000 0 0 1
2.517941 32.223662 9.637297 33.728058 1.492815 1.281023 0.120160 -0.032320 -176269.000000 0 0 1
3.314341 30.959862 9.883497 32.667743 1.464150 1.263434 0.116742 -0.040134 -459177.000000 0 0 1
2.599941 29.947462 10.558597 31.860542 1.484197 1.233009 0.131861 -0.042425 -351282.000000 0 0 1
3.275641 28.757762 10.578297 30.816214 1.457381 1.220400 0.102148 -0.046164 -604325.000000 0 0 1
2.824241 27.679962 11.584397 30.138926 1.469116 1.176275 0.110940 -0.051665 -726524.000000 0 0 1
2.910441 28.107162 12.894397 31.060404 1.467616 1.142700 0.101927 -0.044323 -23096.000000 0 0 1
2.538441 27.242162 13.962997 30.717167 1.477884 1.098911 0.101786 -0.041226 80520.600000 0 0 1
1.076741 26.663462 14.070997 30.167740 1.530436 1.085551 0.099274 -0.047655 388924.000000 0 0 1
0.228841 27.617862 14.717397 31.295374 1.562511 1.081195 0.105736 -0.048546 215756.000000 0 0 1
-0.317759 28.672362 13.914997 31.872127 -1.559714 1.118993 0.117437 -0.051296 -321731.000000 0 0 1
-1.078959 29.747062 14.743397 33.217760 -1.534541 1.110916 0.102478 -0.047218 869934.000000 0 0 1
-2.368459 29.392362 15.256397 33.200575 -1.490389 1.093339 0.097937 -0.041008 695633.000000 0 0 1
-3.104359 30.509762 15.666397 34.437169 -1.469396 1.098506 0.093788 -0.035156 86668.000000 0 0 1
-4.426159 30.232262 16.433997 34.693757 -1.425424 1.077323 0.074153 -0.023408 -178530.000000 0 0 1
-5.459859 29.866662 15.581597 34.126437 -1.389985 1.096644 0.091396 -0.031823 -1360680.000000 0 0 1
-6.604959 29.594862 16.284197 34.418838 -1.351216 1.077969 0.079216 -0.019745 -871674.000000 0 0 1
-7.782159 29.250062 15.300897 33.915271 -1.310764 1.102742 0.062048 -0.031146 328141.000000 0 0 1
-8.994759 28.850962 15.923797 34.159201 -1.268580 1.085846 0.051526 -0.022668 -285636.000000 0 0 1
-9.949459 28.708262 14.922397 33.850170 -1.237179 1.114266 0.053179 -0.024437 -958387.000000 0 0 1
-11.311459 28.339862 15.495097 34.222725 -1.191035 1.100924 0.040337 -0.017920 -783464.000000 0 0 1
-11.750259 29.363162 16.351197 35.603729 -1.190143 1.093640 0.032253 -0.028896 51698.400000 0 0 1
-11.950159 28.924062 17.663097 35.935952 -1.179000 1.056967 0.047414 -0.022751 -200031.000000 0 0 1
-12.864759 29.838462 18.534097 37.407868 -1.163731 1.052432 0.060985 -0.022067 866933.000000 0 0 1
-14.242359 29.826562 18.109597 37.688541 -1.125305 1.069564 0.079724 -0.017368 874106.000000 0 0 1
-15.065659 30.893062 18.486097 39.026800 -1.117060 1.077335 0.074689 -0.013079 -58910.500000 0 0 1
-15.788659 30.853362 19.830197 39.930545 -1.097807 1.051099 0.070174 -0.020229 -200233.000000 0 0 1
-14.945359 31.038762 20.940397 40.314622 -1.122053 1.024619 0.059331 -0.024665 -129580.000000 0 0 1
-15.633259 30.577362 22.069597 40.822065 -1.098174 0.999612 0.054917 -0.022434 275277.000000 0 0 1
-14.759859 30.592262 23.390697 41.241540 -1.121271 0.967739 0.036851 -0.014170 343655.000000 0 0 1
-13.854659 29.481062 23.586997 40.217298 -1.131475 0.944079 0.043568 -0.017238 868509.000000 0 0 1
-13.424959 29.286762 24.991497 40.773998 -1.140982 0.911036 0.047366 -0.012436 278974.000000 0 0 1
-12.864459 30.463762 25.857297 41.977791 -1.171226 0.907172 0.041405 -0.006838 690420.000000 0 0 1
-13.990059 31.315562 26.207697 43.165143 -1.150653 0.918328 0.039967 -0.011622 1037520.000000 0 0 1
-13.599459 32.570762 26.704097 44.259560 -1.175265 0.923099 0.037702 -0.014702 221130.000000 0 0 1
-14.757159 33.485662 27.269697 45.636605 -1.155702 0.930367 0.052519 -0.019141 384092.000000 0 0 1
-15.511759 32.928662 28.308897 46.111876 -1.130558 0.909782 0.032005 -0.017319 -233649.000000 0 0 1
-14.926659 33.021262 29.586597 46.782215 -1.146254 0.886107 0.051811 -0.003270 -405827.000000 0 0 1
-15.723359 32.329562 30.690797 47.268908 -1.118131 0.864158 0.040023 -0.007706 -640867.000000 0 0 1
-16.841159 32.984662 31.169097 48.405838 -1.098724 0.871196 0.046081 -0.008038 -992892.000000 0 0 1
-17.428059 32.291262 32.219597 48.832011 -1.075884 0.850237 0.036221 -0.007564 580187.000000 0 0 1
-18.922059 32.665362 32.485897 49.803652 -1.045759 0.860209 0.042707 -0.009222 394745.000000 0 0 1
-19.142559 -33.774892 32.897997 50.886728 1.055170 0.867816 0.063809 -0.017035 -315174.000000 0 0 1
-20.500559 -33.415792 32.822397 51.129227 1.020510 0.873758 0.065473 -0.016940 -196133.000000 0 0 1
-20.675559 -31.883192 32.945997 50.293691 0.995492 0.856518 0.076573 -0.012570 -399471.000000 0 0 1
-20.529359 -31.338992 -33.576822 50.308945 0.990862 2.301525 0.080164 -0.016592 -207798.000000 0 0 1
-21.418659 -31.768992 -32.599622 50.306691 0.977596 2.275775 0.068186 -0.021726 -370097.000000 0 0 1
-21.154759 -31.026892 -31.234722 48.844649 0.972376 2.264606 0.081769 -0.020963 119066.000000 0 0 1
-21.371859 -29.627492 -31.343022 48.134496 0.945883 2.279902 0.094595 -0.021776 155726.000000 0 0 1
-20.850359 -29.011892 -30.199722 46.780878 0.947641 2.272549 0.081699 -0.015537 -1261.470000 0 0 1
-21.005259 -27.455492 -30.247722 45.934188 0.917723 2.289622 0.094814 -0.025096 -920947.000000 0 0 1
-22.368259 -27.239692 -30.221422 46.429238 0.883283 2.279584 0.080738 -0.016889 -956484.000000 0 0 1
-22.649959 -25.884292 -30.190222 45.765344 0.851940 2.291182 0.086303 -0.016358 515328.000000 0 0 1
-23.981059 -25.571492 -29.418622 45.765136 0.817483 2.268967 0.082914 -0.021471 534045.000000 0 0 1
-23.940359 -25.805392 -28.038722 45.002544 0.822872 2.243429 0.082965 -0.018883 -46609.800000 0 0 1
-23.497359 -24.748192 -27.272522 43.685116 0.811319 2.245029 0.099448 -0.028402 -144924.000000 0 0 1
-23.221559 -25.102192 -25.808422 42.841983 0.824296 2.217313 0.097371 -0.023181 257472.000000 0 0 1
-24.448959 -25.083592 -25.101222 43.093033 0.798210 2.192584 0.085989 -0.022728 185810.000000 0 0 1
-24.321859 -25.487392 -23.733322 42.478589 0.808794 2.163629 0.088799 -0.018957 -439779.000000 0 0 1
-25.554359 -25.125392 -22.853822 42.504209 0.776934 2.138484 0.085435 -0.018657 435170.000000 0 0 1
-26.764759 -25.767192 -23.182722 43.791998 0.766411 2.128669 0.068599 -0.016023 -215595.000000 0 0 1
-26.799759 -27.221692 -23.086122 44.634254 0.793208 2.114406 0.063907 -0.003349 -1264050.000000 0 0 1
-28.200759 -27.832192 -23.016522 45.822200 0.778821 2.097054 0.049265 -0.001643 -417555.000000 0 0 1
-28.845659 -27.454092 -21.866222 45.430506 0.760686 2.072947 0.064995 -0.000772 477674.000000 0 0 1
-30.151459 -26.886092 -22.150622 46.071927 0.728211 2.072344 0.068131 0.000668 964097.000000 0 0 1
-30.785459 -26.359692 -20.849622 45.577238 0.708105 2.045930 0.080282 0.003646 -350960.000000 0 0 1
-31.289259 -27.350692 -19.993122 46.117274 0.718334 2.019200 0.075095 0.012459 281943.000000 0 0 1
-32.040259 -26.748892 -18.932822 45.831574 0.695634 1.996647 0.076413 0.014227 -546386.000000 0 0 1
-33.052559 -27.633692 -18.158322 46.752724 0.696341 1.969681 0.053924 0.009084 -277601.000000 0 0 1
-34.262759 -28.029192 -18.835322 48.107604 0.685660 1.973084 0.044381 0.019265 1276970.000000 0 0 1
-35.179659 -26.920392 -19.041122 48.217012 0.653175 1.976760 0.031375 0.018686 -496354.000000 0 0 1
-35.816959 -26.416792 -17.726222 47.905327 0.635485 1.949833 0.043626 0.012864 -1519260.000000 0 0 1
-35.013259 -25.595792 -16.897322 46.546669 0.631250 1.942302 0.039625 0.025095 -179536.000000 0 0 1
-35.673959 -25.041292 -15.797722 46.360173 0.612033 1.918522 0.037615 0.020342 -229542.000000 0 0 1
-35.268959 -25.604092 -14.428222 45.909069 0.627942 1.890493 0.067117 0.020086 146261.000000 0 0 1
-35.635759 -27.021792 -14.235822 46.933391 0.648778 1.878971 0.049503 0.028925 610701.000000 0 0 1
-34.934459 -27.521892 -13.087822 46.359056 0.667267 1.857002 0.028131 0.030410 239315.000000 0 0 1
-35.590759 -28.802192 -12.533222 47.469464 0.680362 1.837991 0.029652 0.017765 -79322.500000 0 0 1
-35.381359 -29.827392 -13.452922 48.192271 0.700431 1.853706 0.021339 0.019338 183898.000000 0 0 1
-35.896459 -31.079492 -13.061822 49.245322 0.713601 1.839249 0.000687 0.015872 -364397.000000 0 0 1
-35.746559 -32.221392 -14.051522 50.134617 0.733579 1.854878 -0.002227 0.024193 -543196.000000 0 0 1
-34.446259 -32.726292 -13.935722 49.515243 0.759799 1.856094 0.015475 0.018082 -295868.000000 0 0 1
-34.167559 -33.557292 -14.995722 50.183519 0.776387 1.874250 0.050709 -0.010605 482075.000000 0 0 1
-32.655359 -33.868792 -15.243722 49.455420 0.803637 1.884130 0.060840 -0.004400 648219.000000 0 0 1
-32.244059 33.316562 -16.497922 49.212337 -0.801756 1.912656 0.076746 -0.018733 -1236160.000000 0 0 1
-30.901359 33.005462 -16.500422 48.130224 -0.818311 1.920723 0.092339 -0.023329 -1284380.000000 0 0 1
9.808474 20.251462 -9.319903 24.355461 1.119760 1.963472 0.067490 -0.015629 846617.000000 0 1 0
8.414774 19.821062 -9.318003 23.462909 1.169318 1.979192 0.066382 -0.027118 1025520.000000 0 1 0
7.866974 19.822462 -10.600203 23.815616 1.192990 2.032076 0.071609 -0.030455 42954.800000 0 1 0
7.994874 18.544462 -11.446903 23.213071 1.163754 2.086472 0.066992 -0.022643 193035.000000 0 1 0
9.333874 18.216762 -11.800403 23.626704 1.097295 2.093762 0.093025 -0.028135 294677.000000 0 1 0
9.259874 17.007362 -12.486503 23.041449 1.072214 2.143510 0.094492 -0.037961 -327752.000000 0 1 0
10.601374 16.424262 -12.957003 23.452706 0.997612 2.156125 0.130279 -0.046221 -319485.000000 0 1 0
10.426374 15.254862 -13.730603 23.020633 0.971245 2.209864 0.137288 -0.051928 736947.000000 0 1 0
11.640174 14.963962 -14.457503 23.841837 0.909689 2.222312 0.166854 -0.057472 673890.000000 0 1 0
11.577674 13.742362 -15.392903 23.660865 0.870684 2.279123 0.149831 -0.057861 -214729.000000 0 1 0
11.521774 12.407562 -14.889603 22.547708 0.822398 2.292094 0.162889 -0.052149 324683.000000 0 1 0
12.675074 12.029362 -14.164903 22.494611 0.759267 2.251966 0.182709 -0.056239 434451.000000 0 1 0
13.922674 11.456362 -14.898703 23.389323 0.688523 2.261380 0.210981 -0.067161 369701.000000 0 1 0
14.484374 12.307962 -15.864603 24.758204 0.704343 2.266312 0.177927 -0.056513 186223.000000 0 1 0
15.318574 11.575262 -16.751703 25.480678 0.647098 2.288196 0.177428 -0.064095 58387.500000 0 0 1
15.969874 12.385562 -17.890803 26.991107 0.659659 2.295403 0.134125 -0.056335 271522.000000 0 0 1
17.054174 13.207462 -17.475403 27.760973 0.658961 2.251700 0.113381 -0.045232 178428.000000 0 0 1
17.701374 13.740862 -18.645403 29.151346 0.660097 2.264783 0.082923 -0.037106 42221.600000 0 0 1
18.901174 14.647962 -18.312903 30.119422 0.659295 2.224348 0.074936 -0.011971 -413776.000000 0 0 1
18.589974 15.954862 -17.810203 30.287755 0.709265 2.199421 0.075025 -0.015483 131100.000000 0 0 1
18.291874 16.852862 -18.818903 31.189144 0.744476 2.218529 0.072316 -0.013612 -211922.000000 0 0 1
17.897674 18.238562 -18.141703 31.338367 0.794831 2.188172 0.064933 -0.008495 306936.000000 0 0 1
18.958174 19.137562 -17.817703 32.297510 0.790107 2.155167 0.074207 -0.010365 353085.000000 0 0 1
18.420074 20.394762 -17.360903 32.506098 0.836229 2.134217 0.048970 -0.006186 219987.000000 0 0 1
19.388674 21.593462 -17.591003 33.935846 0.839145 2.115729 0.060485 -0.010743 165264.000000 0 0 1
20.527974 21.870062 -16.800703 34.379659 0.817042 2.081374 0.097362 -0.017690 -256402.000000 0 0 1
20.340074 21.985762 -15.408303 33.682461 0.824260 2.045930 0.088875 -0.013083 -532301.000000 0 0 1
21.351474 22.935862 -14.700503 34.612772 0.821158 2.009441 0.091444 -0.018569 815490.000000 0 0 1
22.665674 22.371962 -14.729803 35.088525 0.778877 2.004010 0.094591 -0.023095 -691267.000000 0 0 1
23.550774 23.258662 -14.173703 36.006918 0.779158 1.975382 0.083171 -0.032022 -16989.200000 0 0 1
25.020174 22.700662 -14.109603 36.611611 0.736831 1.966422 0.075065 -0.019657 949410.000000 0 0 1
25.672174 22.718562 -15.367903 37.568152 0.724437 1.992228 0.091113 -0.013077 -157097.000000 0 0 1
26.585874 23.770662 -15.523103 38.894984 0.729551 1.981335 0.065993 0.000009 -478192.000000 0 0 1
27.023574 23.936462 -16.985403 39.896512 0.724893 2.010572 0.077579 -0.014197 -429553.000000 0 0 1
27.766674 22.802862 -17.425703 39.932616 0.687553 2.022365 0.082982 -0.017455 54686.900000 0 0 1
27.797474 22.835962 -18.845303 40.611897 0.687721 2.053340 0.078818 -0.019375 -357562.000000 0 0 1
28.642874 21.779262 -19.601003 40.974990 0.650107 2.069588 0.073699 -0.021151 76406.700000 0 0 1
30.014074 22.076662 -19.479803 42.043863 0.634185 2.052535 0.066394 -0.005145 -752237.000000 0 0 1
30.780474 21.389962 -20.399403 42.674392 0.607308 2.069200 0.075765 -0.011232 737957.000000 0 0 1
32.237474 21.993262 -20.519403 44.090863 0.598698 2.054870 0.087230 -0.012244 941908.000000 0 0 1
32.276174 23.228862 -21.187303 45.058110 0.623819 2.060338 0.077406 -0.005859 189260.000000 0 0 1
33.566974 23.830162 -21.120003 46.267406 0.617359 2.044828 0.076335 -0.005911 376700.000000 0 0 1
33.594074 25.280862 -21.615003 47.274646 0.645124 2.045665 0.095183 -0.004484 21127.900000 0 0 1
33.786074 25.510962 -22.990003 48.175183 0.646740 2.068281 0.087451 -0.001806 -62450.500000 0 0 1
32.677574 25.099962 -23.755803 47.562276 0.654991 2.093780 0.089418 -0.008726 -216271.000000 0 0 1
32.817574 25.621262 -25.195683 48.664820 0.662872 2.115003 0.097188 -0.008048 -486140.000000 0 0 1
32.575674 26.997062 -25.443723 49.370021 0.692027 2.112233 0.099185 -0.015760 97036.900000 0 0 1
31.196974 27.314162 -25.575133 48.717575 0.719135 2.123473 0.086379 -0.008281 242138.000000 0 0 1
30.621374 27.039462 -26.964413 48.947734 0.723358 2.154217 0.089130 -0.001541 -570061.000000 0 0 1
30.499074 25.648062 -27.320563 48.315937 0.699214 2.171783 0.080491 -0.004336 -187537.000000 0 0 1
30.164774 25.699562 -28.682523 48.918996 0.705638 2.197313 0.093614 -0.014095 -126241.000000 0 0 1
29.401674 24.437662 -29.116963 48.056792 0.693458 2.221676 0.113631 -0.028145 -890737.000000 0 0 1
28.146874 24.339562 -28.557033 46.905916 0.712986 2.225363 0.103491 -0.021613 -1203100.000000 0 0 1
27.496974 23.193162 -28.999843 46.206030 0.700697 2.249289 0.112465 -0.036850 8621.450000 0 0 1
26.035574 23.117562 -28.491803 44.989506 0.726102 2.256605 0.097817 -0.033041 59634.600000 0 0 1
25.964674 23.104462 -27.103453 44.074682 0.727175 2.233111 0.094154 -0.016994 -563964.000000 0 0 1
24.647574 23.049862 -26.653243 43.002261 0.751914 2.239297 0.056297 -0.009343 -623889.000000 0 0 1
24.534974 23.061662 -25.131483 42.016623 0.754454 2.211964 0.061637 -0.004719 -339517.000000 0 0 1
24.879874 21.937562 -24.428103 41.194623 0.722634 2.205567 0.072128 -0.016051 -92183.800000 0 0 1
24.945974 22.104262 -23.002903 40.497328 0.725074 2.174883 0.090966 -0.019569 -306584.000000 0 0 1
25.571474 20.886062 -22.329803 39.859102 0.684884 2.165446 0.090209 -0.019659 150866.000000 0 0 1
26.766874 20.536962 -23.015403 40.840435 0.654452 2.169467 0.078543 -0.013429 -359335.000000 0 0 1
27.574674 19.710962 -22.279703 40.561926 0.620604 2.152294 0.091289 -0.025234 -342033.000000 0 0 1
28.845174 19.284762 -23.030003 41.645254 0.589313 2.156762 0.105281 -0.028944 1044100.000000 0 0 1
29.957974 18.746762 -22.236803 41.754002 0.559152 2.132427 0.095567 -0.027443 1043670.000000 0 0 1
30.865974 18.086662 -23.114403 42.592386 0.530043 2.144431 0.084798 -0.017487 -528180.000000 0 0 1
32.087274 17.638062 -22.356703 42.901242 0.502605 2.118959 0.058327 -0.013086 -550881.000000 0 0 1
32.821874 18.701862 -21.747103 43.588663 0.517917 2.093144 0.061730 -0.009889 -128723.000000 0 0 1
34.048174 18.240062 -21.254003 44.087534 0.491808 2.073831 0.076031 -0.013589 511051.000000 0 0 1
34.999674 19.139262 -20.361003 44.786817 0.500415 2.042742 0.053833 -0.019840 579502.000000 0 0 1
34.310274 19.379962 -19.177003 43.823912 0.514168 2.023715 0.063296 -0.021420 39220.800000 0 0 1
35.052374 20.098962 -18.222003 44.324695 0.520630 1.994460 0.042342 -0.023602 -229325.000000 0 0 1
34.258174 20.345162 -16.926303 43.290274 0.535906 1.972509 0.039786 -0.016780 -107801.000000 0 0 1
34.322274 19.271062 -16.035603 42.503328 0.511610 1.957652 0.041053 -0.028477 266189.000000 0 0 1
33.966274 19.628062 -14.734603 41.905574 0.523988 1.930091 0.035770 -0.025299 -313296.000000 0 0 1
34.388274 18.453162 -13.798703 41.394164 0.492506 1.910650 0.033680 -0.020689 -208228.000000 0 0 1
35.792874 18.276362 -13.815303 42.497269 0.472103 1.901900 0.028788 -0.024891 124152.000000 0 0 1
36.262274 17.293862 -12.871603 42.186590 0.445006 1.880852 0.026678 -0.008574 152570.000000 0 0 1
36.068774 17.611462 -11.392703 41.724259 0.454223 1.847356 0.046799 -0.019663 -662687.000000 0 0 1
36.951974 18.635062 -10.941903 42.806999 0.467086 1.829275 0.033658 -0.017275 180712.000000 0 0 1
36.675374 19.013462 -9.633303 42.419280 0.478279 1.799892 0.034628 -0.013928 -336680.000000 0 0 1
35.395374 19.841562 -9.522103 41.679618 0.510922 1.801291 0.029749 -0.015265 -237442.000000 0 0 1
34.185374 19.155662 -9.699003 40.368922 0.510752 1.813429 0.062081 -0.033571 -415904.000000 0 0 1
33.038174 19.898962 -9.319503 39.677989 0.542111 1.807890 0.028074 -0.019741 206030.000000 0 0 1
31.762774 19.141562 -9.740903 38.342645 0.542359 1.827660 0.016741 -0.010353 -224764.000000 0 0 1
31.527974 19.166762 -11.169903 38.550547 0.546229 1.864759 0.030251 -0.021526 118486.000000 0 0 1
30.347274 18.430462 -11.430203 37.299980 0.545783 1.882247 0.044727 -0.024652 -33499.700000 0 0 1
30.322174 17.859162 -12.879803 37.473634 0.532277 1.921654 0.046088 -0.028508 -192734.000000 0 0 1
31.339274 16.923462 -13.136903 37.962243 0.495140 1.924156 0.047307 -0.030491 143811.000000 0 0 1
30.929174 16.131562 -14.189303 37.658697 0.480750 1.957121 0.032255 -0.028628 -18175.100000 0 0 1
32.139774 15.507862 -14.911403 38.675688 0.449560 1.966600 0.041365 -0.032790 31943.400000 0 0 1
32.865174 14.597462 -14.100203 38.626692 0.417988 1.944470 0.031955 -0.028341 329986.000000 0 0 1
33.933474 13.987862 -14.817403 39.581516 0.390991 1.954494 0.037369 -0.024300 233287.000000 0 0 1
34.800674 13.072162 -13.912703 39.692967 0.359322 1.928910 0.043575 -0.038022 -517171.000000 0 0 1
35.624774 13.761562 -12.979303 40.335684 0.368633 1.898407 0.043845 -0.016351 59943.600000 0 0 1
36.283274 12.827262 -12.151103 40.356709 0.339817 1.876634 0.047291 -0.014775 100086.000000 0 0 1
37.328474 13.494962 -11.222503 41.248922 0.346900 1.846338 0.077262 -0.015698 667631.000000 0 0 1
-36.360192 13.822962 -11.827103 40.657327 -0.363293 1.865961 0.072420 -0.016118 20318.800000 0 0 1
-35.537392 14.296462 -10.811003 39.801669 -0.382482 1.845874 0.072574 -0.015860 684396.000000 0 0 1
-34.042592 14.581562 -11.258103 38.707427 -0.404690 1.865913 0.104980 -0.021769 1863400.000000 0 0 1
-33.082792 13.529362 -11.520103 37.552996 -0.388202 1.882593 0.126712 -0.029890 829386.000000 0 0 1
-32.777192 12.564262 -10.523103 36.646155 -0.366048 1.862051 0.145107 -0.029172 -928579.000000 0 0 1
-31.633492 11.646762 -10.882103 35.422381 -0.352777 1.883056 0.169984 -0.037081 -619796.000000 0 0 1
-31.775292 10.851962 -12.037603 35.669849 -0.329102 1.915027 0.160884 -0.030072 240914.000000 0 0 1
-30.910192 9.731262 -11.886903 34.517183 -0.305000 1.922371 0.161449 -0.034767 10006.000000 0 0 1
-30.912592 8.685462 -13.050503 34.660370 -0.273906 1.956839 0.151241 -0.036842 437334.000000 0 0 1
-32.142892 7.980962 -13.283303 35.683433 -0.243375 1.952233 0.130719 -0.029028 686028.000000 0 0 1
-32.015392 7.162562 -14.444303 35.845858 -0.220098 1.985541 0.128849 -0.021217 -260144.000000 0 0 1
-33.315792 6.864262 -15.209903 37.261257 -0.203193 1.991274 0.116147 -0.014512 -590459.000000 0 0 1
-34.156092 5.950062 -14.591303 37.615794 -0.172471 1.969152 0.123595 -0.025158 -601667.000000 0 0 1
-35.151392 5.562962 -15.486603 38.812392 -0.156956 1.981235 0.105779 -0.029983 -476270.000000 0 0 1
-36.356292 5.038162 -14.677803 39.529748 -0.137700 1.951216 0.108436 -0.028960 406136.000000 0 0 1
-37.445092 4.417762 -15.388203 40.724051 -0.117437 1.958286 0.109134 -0.026668 703463.000000 0 0 1
36.500674 3.961262 -14.506803 39.477059 0.108103 1.947088 0.110305 -0.027683 750974.000000 0 0 1
35.413174 3.010762 -15.144003 38.632867 0.084814 1.973599 0.102217 -0.023998 315398.000000 0 0 1
35.941974 1.725562 -15.310603 39.105212 0.047973 1.973083 0.114713 -0.027506 839428.000000 0 0 1
34.990174 0.605562 -15.248903 38.173394 0.017305 1.981729 0.109394 -0.033363 1122400.000000 0 0 1
34.292174 0.347862 -13.836203 36.979923 0.010144 1.954281 0.103308 -0.032891 47138.300000 0 0 1
35.156974 -0.336338 -12.939003 37.463899 -0.009566 1.923432 0.109064 -0.031853 386973.000000 0 0 1
34.726874 -0.342438 -11.599003 36.614341 -0.009861 1.893138 0.105816 -0.023258 -564603.000000 0 0 1
34.943774 0.959862 -10.699903 36.557853 0.027462 1.867829 0.112334 -0.038543 13260.000000 0 0 1
34.053374 2.028762 -11.002903 35.844275 0.059506 1.882798 0.105660 -0.019129 784674.000000 0 0 1
34.485374 3.263662 -10.407103 36.169052 0.094358 1.862657 0.124561 -0.028517 -15640.900000 0 0 1
33.550874 4.367362 -10.926303 35.554453 0.129443 1.883163 0.125354 -0.032483 -9437.030000 0 0 1
33.644774 4.603662 -12.303203 36.118324 0.135987 1.918390 0.110363 -0.023067 883943.000000 0 0 1
32.573774 5.439262 -12.773603 35.409056 0.165456 1.939862 0.119181 -0.026837 325483.000000 0 0 1
32.864274 6.078062 -14.192803 36.310316 0.182878 1.972379 0.096524 -0.018541 -302924.000000 0 0 1
32.641474 5.270162 -15.329903 36.445115 0.160075 2.004936 0.093264 -0.014051 -19756.200000 0 0 1
33.044474 5.942562 -16.468903 37.396204 0.177933 2.026829 0.088894 -0.014763 -253559.000000 0 0 1
32.065474 7.020662 -17.126203 37.024197 0.215546 2.051686 0.088483 -0.018288 1140230.000000 0 0 1
30.835374 6.694762 -17.776703 36.216727 0.213795 2.083853 0.070654 -0.014973 639094.000000 0 0 1
29.871874 6.076362 -16.956803 34.882434 0.200676 2.078433 0.062244 -0.010505 -610140.000000 0 0 1
28.482374 6.106262 -17.650703 34.059938 0.211191 2.115570 0.044811 -0.009135 -96078.700000 0 0 1
28.273274 5.289162 -18.774903 34.348948 0.184935 2.149087 0.060878 -0.008082 -217396.000000 0 0 1
27.016874 5.520162 -19.344303 33.683612 0.201549 2.182538 0.042463 -0.002628 -207550.000000 0 0 1
26.444374 4.341162 -20.185803 33.550220 0.162711 2.216373 0.061072 0.006840 -28414.600000 0 0 1
25.943374 3.330562 -19.347403 32.534187 0.127680 2.207663 0.062774 -0.006518 78094.200000 0 0 1
25.391074 2.235962 -20.012803 32.407074 0.087834 2.236413 0.066641 -0.009498 -481776.000000 0 0 1
24.392374 1.366362 -19.213503 31.080759 0.055957 2.237221 0.068455 -0.012015 -670390.000000 0 0 1
23.268874 2.134062 -18.989903 30.109984 0.091457 2.253231 0.070671 -0.014108 -912712.000000 0 0 1
22.252974 1.383762 -18.361503 28.883463 0.062103 2.259724 0.086303 -0.014806 32194.000000 0 0 1
20.910374 2.119462 -18.105103 27.740415 0.101014 2.281888 0.098756 -0.027468 -920965.000000 0 0 1
20.144374 1.986262 -19.258303 27.939636 0.098284 2.331295 0.096490 -0.021277 -128031.000000 0 0 1
19.002374 2.820762 -19.363703 27.276362 0.147366 2.360164 0.102199 -0.016235 262686.000000 0 0 1
17.781374 2.490562 -18.505703 25.784515 0.139160 2.371299 0.147092 -0.033047 -1298200.000000 0 0 1
17.937574 2.754762 -17.139103 24.961854 0.152384 2.327615 0.154574 -0.035694 -91495.100000 0 1 0
16.859274 2.284462 -16.355803 23.600131 0.134682 2.336492 0.120883 -0.022219 674776.000000 0 1 0
15.627174 3.251462 -16.231303 22.764792 0.205138 2.364564 0.127783 -0.032116 282969.000000 0 1 0
15.025174 3.542162 -17.476303 23.317889 0.231521 2.418073 0.127036 -0.020306 -156790.000000 0 1 0
13.881574 4.318062 -17.226403 22.540912 0.301576 2.440640 0.122441 -0.032488 -76434.400000 0 1 0
-19.730626 -21.367038 -17.199603 33.788670 0.825195 2.104859 0.107248 -0.031249 94565.000000 0 0 1
-19.849926 -21.939438 -18.454103 34.869936 0.835358 2.128485 0.105978 -0.028043 -724333.000000 0 0 1
-21.172626 -21.925938 -18.875303 35.851135 0.802875 2.125264 0.117326 -0.030402 -802766.000000 0 0 1
-21.281426 -22.452938 -20.311603 37.008036 0.812179 2.151776 0.095900 -0.020950 -105553.000000 0 0 1
-21.149126 -23.873638 -20.283103 37.797359 0.845839 2.137232 0.083328 -0.017696 154588.000000 0 0 1
-20.659326 -24.364538 -21.480503 38.494811 0.867508 2.162783 0.072307 -0.013243 -289504.000000 0 0 1
-20.562326 -25.925318 -21.514103 39.468823 0.900254 2.147294 0.071366 -0.008797 -311080.000000 0 0 1
-21.831826 -26.490878 -21.647503 40.583366 0.881516 2.133421 0.085287 -0.013126 -223787.000000 0 0 1
-21.594326 -27.928608 -21.566303 41.369403 0.912613 2.119182 0.100959 -0.013300 -364532.000000 0 0 1
-22.809826 -28.860418 -21.568803 42.642996 0.901967 2.101105 0.094260 -0.003754 -69342.800000 0 0 1
-23.644226 -28.845058 -22.716403 43.670605 0.884160 2.117853 0.068554 -0.004745 435849.000000 0 0 1
-23.035826 -29.481008 -23.833103 44.359846 0.907514 2.137990 0.063368 -0.008660 -600733.000000 0 0 1
-23.626426 -28.928618 -25.165673 45.037585 0.885946 2.163699 0.051434 0.001153 -246408.000000 0 0 1
-24.959526 -29.329218 -25.342293 46.102199 0.865715 2.152799 0.046817 0.005993 59428.600000 0 0 1
-25.642096 -28.787678 -26.494443 46.778232 0.843126 2.172908 0.043379 0.005314 44469.300000 0 0 1
-25.054876 -29.023778 -27.928693 47.435623 0.858658 2.200333 0.060349 -0.005969 -364761.000000 0 0 1
-25.301846 -30.298898 -28.419833 48.640451 0.875031 2.194794 0.037463 0.000012 35317.500000 0 0 1
-24.849126 -30.336038 -29.730013 49.210039 0.884500 2.219489 0.076686 -0.011611 -22168.000000 0 0 1
-25.380266 -31.572218 -30.499433 50.706787 0.893694 2.216156 0.049004 -0.007340 -315226.000000 0 0 1
-24.742326 -32.744328 -30.188763 50.948357 0.923707 2.205000 0.050822 -0.012841 228147.000000 0 0 1
-25.480986 33.871656 -30.718383 52.346812 -0.925837 2.197928 0.055441 -0.012266 284697.000000 0 0 1
-24.639426 32.595726 -30.702213 51.109769 -0.923524 2.215187 0.066489 -0.010356 -472224.000000 0 0 1
-23.674426 32.537520 -31.694153 51.221948 -0.941783 2.237961 0.071960 -0.028214 -491861.000000 0 0 1
-23.126926 31.220456 -31.595493 50.078406 -0.933234 2.253535 0.070062 -0.019211 -462022.000000 0 0 1
-21.898426 30.977466 -32.476473 49.938619 -0.955445 2.278812 0.064454 -0.015747 -186704.000000 0 0 1
-22.180126 30.613316 -33.820123 50.724095 -0.943799 2.300631 0.064119 -0.003771 99829.700000 0 0 1
-21.198826 29.656996 33.672829 49.626475 -0.950206 0.825043 0.049062 0.002912 80101.400000 0 0 1
-21.212526 29.401806 32.196946 48.487945 -0.945806 0.844614 0.045323 -0.004980 -155017.000000 0 0 1
-20.550226 30.386816 31.480346 48.339244 -0.976163 0.861582 0.044935 -0.007697 -69531.300000 0 0 1
-20.736426 30.211636 30.101176 47.421757 -0.969275 0.883105 0.071294 -0.006907 -276484.000000 0 0 1
-20.479626 31.568316 29.311096 47.698155 -0.995307 0.909029 0.055034 -0.024432 -130233.000000 0 0 1
-21.503126 32.510160 29.491496 48.877840 -0.986429 0.923074 0.051267 -0.017369 -152685.000000 0 0 1
-21.277126 33.698283 28.713026 49.119530 -1.007607 0.946466 0.049363 -0.027750 677089.000000 0 0 1
-22.414126 -32.968928 28.826156 49.196448 0.973718 0.944757 0.072396 -0.030813 545708.000000 0 0 1
-22.344926 -32.415068 30.114486 49.567274 0.967262 0.917827 0.058385 -0.022140 509512.000000 0 0 1
-23.489526 -31.651258 30.512476 49.845473 0.932347 0.912031 0.073662 -0.020218 313283.000000 0 0 1
-23.418326 -30.218758 29.913646 48.542945 0.911511 0.906849 0.083480 -0.018432 -255215.000000 0 0 1
-23.536726 -30.150488 28.528856 47.717136 0.907971 0.929950 0.050693 -0.009731 -23852.900000 0 0 1
-23.457226 -28.799118 28.018436 46.525943 0.887269 0.924529 0.064661 -0.012899 878085.000000 0 0 1
-24.860726 -28.277738 27.472776 46.609437 0.849614 0.940449 0.073865 -0.001432 281476.000000 0 0 1
-25.895876 -28.135558 28.411776 47.638588 0.826826 0.931784 0.089648 -0.004981 72872.000000 0 0 1
-26.680166 -29.318638 28.499716 48.822614 0.832480 0.947469 0.073978 -0.007171 -356804.000000 0 0 1
-27.761436 -29.533128 27.390256 48.919619 0.816311 0.976527 0.068301 0.007433 -200751.000000 0 0 1
-27.146116 -29.883178 26.131936 48.091517 0.833355 0.996339 0.070463 0.002639 -289064.000000 0 0 1
-28.067666 -29.858848 25.132276 48.072611 0.816310 1.020666 0.065900 -0.000125 -856036.000000 0 0 1
-27.435266 -30.025948 23.727426 47.087600 0.830453 1.042689 0.065903 -0.002598 -373908.000000 0 0 1
-26.672156 -28.939998 23.325606 45.749440 0.826155 1.035779 0.054282 -0.008317 211562.000000 0 0 1
-26.174066 -28.989008 21.975316 44.814717 0.836383 1.058294 0.084648 -0.015855 1225700.000000 0 0 1
-24.759326 -29.638988 21.662816 44.280599 0.874861 1.059605 0.087567 -0.015571 784165.000000 0 0 1
-24.881226 -31.051198 21.604216 45.276864 0.895265 1.073378 0.094057 -0.029792 -93421.500000 0 0 1
-23.703426 -31.679798 21.216816 44.895604 0.928436 1.078579 0.088128 -0.016642 -104847.000000 0 0 1
-22.787326 -32.390988 22.268516 45.434845 0.957720 1.058569 0.081175 -0.013542 523633.000000 0 0 1
-21.987426 -31.568818 23.129406 44.888825 0.962429 1.029486 0.093423 -0.020867 132476.000000 0 0 1
-21.472926 -32.300688 24.150646 45.691079 0.984099 1.013889 0.080379 -0.025447 -808836.000000 0 0 1
-20.701326 -31.458138 25.190926 45.307197 0.988776 0.981227 0.067003 -0.012669 -463722.000000 0 0 1
-19.432426 -31.032118 24.729346 44.183165 1.011332 0.976772 0.083664 -0.017233 362641.000000 0 0 1
-18.757726 -30.248808 25.715336 43.910377 1.015718 0.945136 0.103256 -0.013829 313092.000000 0 0 1
-17.862826 -31.063798 26.709606 44.692764 1.048934 0.930258 0.081744 -0.026712 -530883.000000 0 0 1
-18.595826 -31.796098 27.687196 46.080120 1.041594 0.926233 0.082204 -0.026975 203707.000000 0 0 1
-17.860126 -32.080658 28.879936 46.714060 1.062804 0.904310 0.074987 -0.024307 -114239.000000 0 0 1
-18.342126 -31.347698 30.155256 47.206474 1.041391 0.877865 0.102031 -0.024460 -95709.800000 0 0 1
-17.961726 -29.966628 30.189936 46.174177 1.030825 0.858165 0.097853 -0.022998 203329.000000 0 0 1
-18.499126 -29.304328 31.296006 46.694767 1.007696 0.836284 0.107163 -0.020539 -200368.000000 0 0 1
-18.254226 -27.760308 31.449146 45.748227 0.989121 0.812839 0.110301 -0.023538 164418.000000 0 0 1
-19.005926 -26.886968 30.568756 44.928645 0.955466 0.822509 0.119032 -0.022118 435363.000000 0 0 1
-18.785926 -27.034528 29.137606 43.963358 0.963511 0.846284 0.120467 -0.014093 -110379.000000 0 0 1
-17.416626 -26.720888 28.488956 42.766404 0.993158 0.841758 0.106346 -0.014537 -20193.600000 0 0 1
-17.109826 -25.321368 28.496486 41.784776 0.976561 0.820326 0.101818 -0.006228 402872.000000 0 0 1
-15.909926 -25.152838 27.739116 40.684758 1.006800 0.820568 0.097416 -0.008120 239444.000000 0 0 1
-15.853726 -23.843338 26.974316 39.337757 0.984009 0.815217 0.089832 -0.005260 247993.000000 0 0 1
-16.712226 -23.905138 25.787466 38.932602 0.960671 0.846830 0.116166 -0.007251 574884.000000 0 0 1
-16.638626 -22.755338 24.958636 37.650801 0.939438 0.846114 0.074830 -0.011998 90388.800000 0 0 1
-17.315626 -21.449338 25.509526 37.558500 0.891632 0.824132 0.084103 -0.010933 -224949.000000 0 0 1
-17.099426 -20.289938 24.680746 36.238256 0.870524 0.821575 0.066451 -0.011961 82392.300000 0 0 1
-17.742226 -19.089338 25.075056 36.165562 0.821957 0.804682 0.074272 -0.006572 -35680.600000 0 0 1
-17.553626 -17.942538 24.064086 34.772758 0.796354 0.806487 0.067114 -0.018056 -793781.000000 0 0 1
-16.224126 -17.559138 24.098166 33.945062 0.824895 0.781416 0.080261 -0.025244 -857618.000000 0 0 1
-15.891426 -16.658538 23.087316 32.604731 0.808961 0.783997 0.078234 -0.024835 -253642.000000 0 0 1
-14.437726 -16.196338 23.287946 31.829196 0.842742 0.750052 0.114641 -0.034416 -600996.000000 0 0 1
-13.451826 -17.142438 22.992576 31.677648 0.905449 0.758557 0.079964 -0.034512 -531228.000000 0 0 1
-12.161626 -16.664338 23.204646 31.049330 0.940349 0.726735 0.081055 -0.034146 -426503.000000 0 0 1
-11.394026 -15.788338 22.167716 29.504289 0.945672 0.720708 0.106329 -0.034314 -153053.000000 0 0 1
-10.951426 -16.529038 21.018616 28.895070 0.985644 0.756254 0.121556 -0.031407 326674.000000 0 0 1
-9.616026 -17.004638 21.169316 28.805653 1.056135 0.745275 0.107043 -0.029246 10826.600000 0 0 1
-9.216626 -18.228838 20.333416 28.821599 1.102673 0.787679 0.101386 -0.024784 32284.900000 0 0 1
-9.040226 -18.052038 18.913316 27.664332 1.106519 0.818015 0.095794 -0.030545 -146369.000000 0 0 1
-8.702726 -19.223538 18.187616 27.858055 1.145689 0.859433 0.086233 -0.032831 53213.000000 0 0 1
-8.403526 -18.805038 16.700116 26.516836 1.150543 0.889510 0.077891 -0.034222 325423.000000 0 0 1
-7.166126 -18.123338 16.592016 25.594995 1.194254 0.865509 0.072780 -0.028949 -28014.400000 0 0 1
-6.928626 -17.667538 15.263416 24.354048 1.197061 0.893446 0.073024 -0.030745 625920.000000 0 1 0
-5.855326 -16.516338 15.156916 23.169082 1.230103 0.857689 0.050807 -0.032426 860635.000000 0 1 0
-6.410826 -15.285338 15.603616 22.764294 1.173670 0.815585 0.066778 -0.040348 -466181.000000 0 1 0
-5.381126 -14.395338 15.735716 21.995341 1.213069 0.773584 0.043110 -0.026188 -802581.000000 0 1 0
-5.652926 -13.290638 16.780216 22.139835 1.168645 0.710678 0.036542 -0.018990 -225409.000000 0 1 0
-5.369426 -13.619838 18.141416 23.311836 1.195269 0.678992 0.053913 -0.018258 -259283.000000 0 1 0
-6.129526 -14.652138 18.726716 24.554962 1.174583 0.703404 0.071920 -0.027271 1210930.000000 0 1 0
-7.539326 -14.150338 19.265016 25.064205 1.081253 0.694105 0.100379 -0.035563 824731.000000 0 0 1
-7.256626 -13.231138 20.318216 25.309120 1.069143 0.638816 0.098542 -0.035874 -47665.800000 0 0 1
-8.367226 -12.655138 20.974116 25.885837 0.986607 0.626210 0.098913 -0.026554 62593.700000 0 0 1
-7.894626 -11.728238 22.096116 26.231947 0.978333 0.569193 0.094371 -0.023062 -729071.000000 0 0 1
-7.537826 -10.394338 21.694316 25.209213 0.943366 0.534407 0.074574 -0.022349 170003.000000 0 0 1
-7.098826 -9.675238 22.833616 25.794914 0.937802 0.483876 0.067871 -0.017207 420906.000000 0 0 1
-5.693426 -10.070238 23.389186 26.093655 1.056228 0.459317 0.065133 -0.016100 -123227.000000 0 0 1
-5.627326 -11.248638 24.146236 27.225712 1.106935 0.480225 0.076202 -0.012859 -438016.000000 0 0 1
-4.285826 -11.653038 24.238286 27.233364 1.218365 0.473403 0.057615 -0.009268 -518083.000000 0 0 1
-4.066826 -12.859738 25.187826 28.571639 1.264503 0.491624 0.063078 -0.021605 -394649.000000 0 0 1
-2.740426 -12.962138 25.695726 28.910159 1.362447 0.476048 0.033304 -0.016627 330681.000000 0 0 1
-2.545026 -14.008838 26.640666 30.206784 1.391084 0.490827 0.037666 -0.026285 -145381.000000 0 0 1
-2.566226 -15.476738 26.076066 30.431500 1.406480 0.541615 0.051254 -0.036371 227359.000000 0 0 1
-1.420026 -15.893638 25.308446 29.918918 1.481687 0.562544 0.043005 -0.034498 504174.000000 0 0 1
-1.586326 -17.220938 24.871636 30.293158 1.478939 0.607581 0.071290 -0.030921 21012.800000 0 0 1
-0.303726 -18.117738 24.995246 30.872431 1.554034 0.627275 0.077044 -0.036513 573912.000000 0 0 1
0.044474 -18.558238 26.320646 32.205382 -1.568400 0.614131 0.084751 -0.035037 178499.000000 0 0 1
0.509574 -17.525638 27.217026 32.375518 -1.541729 0.572283 0.100022 -0.040268 -238390.000000 0 0 1
1.522074 -17.985238 28.318376 33.581482 -1.486368 0.567451 0.091814 -0.033811 167770.000000 0 0 1
2.781474 -18.344838 27.755326 33.386042 -1.420321 0.589273 0.087637 -0.030549 1149030.000000 0 0 1
3.853674 -18.378938 28.754626 34.343336 -1.364112 0.578526 0.100531 -0.039204 906135.000000 0 0 1
4.570174 -17.089138 29.036906 34.000986 -1.309480 0.547167 0.112733 -0.037228 -489442.000000 0 0 1
3.719674 -16.158638 29.711916 34.025513 -1.344541 0.509016 0.100241 -0.043343 430902.000000 0 0 1
4.441174 -14.998138 30.096976 33.918965 -1.282908 0.479296 0.122647 -0.050601 602776.000000 0 0 1
3.464274 -13.995338 30.828126 34.032985 -1.328143 0.437460 0.109030 -0.050283 393733.000000 0 0 1
3.029374 -14.493538 32.083310 35.335231 -1.364747 0.432384 0.111191 -0.053480 -374082.000000 0 0 1
2.335074 -13.473438 32.716855 35.459536 -1.399191 0.395891 0.102800 -0.050826 -287818.000000 0 0 1
1.626074 -14.120338 -33.867413 36.729140 -1.456143 2.744232 0.097185 -0.047038 468254.000000 0 0 1
2.501374 -14.509638 -32.822793 35.973910 -1.400080 2.719920 0.102937 -0.040102 33003.900000 0 0 1
1.714974 -15.055938 -31.766083 35.195261 -1.457378 2.696491 0.112927 -0.046678 381729.000000 0 0 1
2.468574 -15.672938 -30.555833 34.429548 -1.414574 2.662663 0.103438 -0.038571 -178794.000000 0 0 1
1.594374 -16.161238 -29.570053 33.735970 -1.472460 2.639369 0.104694 -0.037412 -271516.000000 0 0 1
2.086774 -16.097238 -28.226073 32.560511 -1.441880 2.619707 0.090472 -0.030995 -8580.140000 0 0 1
1.799374 -17.410238 -27.505643 32.602370 -1.467810 2.574879 0.096638 -0.034781 -204902.000000 0 0 1
2.658574 -18.417538 -27.962033 33.587929 -1.427436 2.554406 0.076665 -0.030006 -50627.700000 0 0 1
2.436774 -19.587538 -27.251533 33.649005 -1.447028 2.514738 0.083082 -0.032726 -761102.000000 0 0 1
3.497574 -20.684238 -27.593893 34.662568 -1.403287 2.491573 0.060208 -0.027843 -800184.000000 0 0 1
4.823274 -20.400138 -27.380293 34.483475 -1.338626 2.488177 0.055345 -0.018136 -918272.000000 0 0 1
5.175474 -20.310538 -25.982143 33.382259 -1.321289 2.462785 0.077121 -0.025524 -1027870.000000 0 0 1
6.146174 -21.364638 -25.396633 33.752217 -1.290680 2.422560 0.028739 -0.017991 -595254.000000 0 0 1
5.807874 -22.728638 -25.451463 34.613572 -1.320619 2.396910 0.036891 -0.012969 117190.000000 0 0 1
5.907074 -23.300738 -26.779053 35.985214 -1.322513 2.410085 0.020994 -0.004967 -243800.000000 0 0 1
5.278574 -24.718138 -26.961583 36.956416 -1.360406 2.388461 0.033236 0.000119 -128770.000000 0 0 1
5.930374 -25.716858 -26.245513 37.220331 -1.344156 2.353416 0.043026 -0.007760 31884.600000 0 0 1
5.292974 -26.967148 -26.485323 38.166936 -1.376985 2.337734 0.049771 -0.010775 -34099.500000 0 0 1
5.812274 -28.036628 -25.534063 38.364351 -1.366382 2.299050 0.074062 -0.013952 -996261.000000 0 0 1
7.156974 -28.292018 -25.706693 38.890804 -1.323026 2.292943 0.097907 -0.025456 -981889.000000 0 0 1
7.530374 -29.438228 -24.902903 39.287026 -1.320364 2.257344 0.102984 -0.033008 597357.000000 0 0 1
9.046774 -29.788718 -25.051913 39.960107 -1.275950 2.248394 0.119242 -0.041467 532691.000000 0 0 1
9.383274 -30.225688 -26.359273 41.187975 -1.269789 2.265262 0.119768 -0.036980 -1256920.000000 0 0 1
10.718774 -30.238228 -26.643813 41.702941 -1.230138 2.263858 0.137638 -0.030191 -1232210.000000 0 0 1
11.099674 -29.879228 -28.112213 42.500207 -1.215111 2.293561 0.136165 -0.040262 107583.000000 0 0 1
10.632874 -30.882498 -29.039253 43.704289 -1.239208 2.297552 0.139427 -0.044403 242298.000000 0 0 1
10.697674 -30.438518 -30.385033 44.319227 -1.232829 2.326217 0.129412 -0.033920 -164241.000000 0 0 1
-35.733511 -4.773338 -5.664703 36.493251 0.132795 1.726653 0.185552 -0.044095 228901.000000 0 0 1
-35.252659 -4.068738 -4.501503 35.771051 0.114908 1.696973 0.175031 -0.050591 385635.000000 0 0 1
-34.509338 -2.862738 -4.735403 34.950160 0.082766 1.706704 0.197881 -0.062213 185350.000000 0 0 1
-35.301840 -1.607438 -5.253903 35.726842 0.045503 1.718389 0.207626 -0.047474 -507450.000000 0 0 1
-36.053336 -0.958838 -4.284303 36.319659 0.026589 1.689033 0.154600 -0.039238 -517186.000000 0 0 1
-36.972836 -0.152738 -4.952303 37.303340 0.004131 1.703947 0.135113 -0.036222 -188811.000000 0 0 1
36.944881 0.459862 -3.970603 37.160481 0.012447 1.677851 0.156258 -0.029875 239928.000000 0 0 1
-37.390896 1.297962 -2.984903 37.532298 -0.034699 1.650409 0.169801 -0.028675 71840.500000 0 0 1
36.570271 1.812062 -2.124603 36.676726 0.049510 1.628757 0.165197 -0.029374 -775571.000000 0 0 1
37.118691 2.733762 -1.029103 37.233449 0.073516 1.598439 0.164507 -0.031026 106180.000000 0 0 1
-37.241326 3.996962 -1.409803 37.481723 -0.106917 1.608418 0.194958 -0.051143 1120090.000000 0 0 1
-35.973116 3.773562 -2.059003 36.229053 -0.104517 1.627660 0.177572 -0.020156 118402.000000 0 0 1
-35.119354 5.002162 -2.500603 35.561829 -0.141482 1.641171 0.172143 -0.032339 245643.000000 0 0 1
-34.592031 5.740562 -1.400103 35.093061 -0.164452 1.610704 0.194533 -0.037627 111080.000000 0 0 1
-33.788136 6.767562 -1.940903 34.513839 -0.197678 1.627062 0.203495 -0.049533 -20683.900000 0 0 1
-33.102556 7.657662 -0.864503 33.987738 -0.227333 1.596235 0.197046 -0.047008 522761.000000 0 0 1
-31.711476 7.407362 -0.609303 32.570814 -0.229472 1.589504 0.227029 -0.041573 1021960.000000 0 0 1
-31.190696 7.846762 0.651897 32.169180 -0.246459 1.550530 0.242144 -0.050807 208322.000000 0 0 1
-31.243826 9.357362 1.020497 32.630940 -0.290993 1.539517 0.249230 -0.053097 85688.200000 0 0 1
-32.610726 9.695362 1.229697 34.043672 -0.288983 1.534667 0.212640 -0.052363 288800.000000 0 0 1
-32.817916 10.979662 1.742897 34.649766 -0.322857 1.520475 0.213960 -0.047060 -460251.000000 0 0 1
-34.285025 11.393162 1.664197 36.166789 -0.320827 1.524766 0.197573 -0.045383 -1164270.000000 0 0 1
-34.673873 11.778162 0.315697 36.621062 -0.327455 1.562176 0.164227 -0.043559 272723.000000 0 0 1
-35.861215 12.537362 0.240597 37.990394 -0.336325 1.564463 0.158430 -0.041134 646284.000000 0 0 1
-37.202686 11.773362 0.522897 39.024675 -0.306493 1.557397 0.159962 -0.055661 -130636.000000 0 0 1
37.397371 10.907262 -0.513003 38.958887 0.283787 1.583965 0.169821 -0.047391 224945.000000 0 0 1
36.071011 10.408862 -0.379303 37.544721 0.280934 1.580899 0.184782 -0.052757 473637.000000 0 0 1
35.764371 9.247762 -1.346703 36.965185 0.253033 1.607236 0.186998 -0.045769 65729.400000 0 0 1
35.425361 9.723662 -2.640303 36.830381 0.267886 1.642546 0.175987 -0.047736 22615.700000 0 0 1
35.220111 8.577562 -3.419403 36.410481 0.238891 1.664848 0.161548 -0.046897 -258579.000000 0 0 1
34.487621 8.923162 -4.736803 35.936835 0.253183 1.702990 0.133476 -0.036132 -658767.000000 0 0 1
33.176811 9.298662 -4.444803 34.740785 0.273265 1.699090 0.155668 -0.030762 -542736.000000 0 0 1
32.682461 10.013562 -5.570303 34.632975 0.297308 1.732336 0.130402 -0.017596 -527415.000000 0 0 1
31.205821 10.395262 -5.401203 33.332232 0.321558 1.733555 0.152578 -0.028060 -226909.000000 0 0 1
30.223401 9.385162 -5.630703 32.144051 0.301086 1.746876 0.137704 -0.015559 786777.000000 0 0 1
29.042741 10.066862 -6.032503 31.324329 0.333663 1.764589 0.156587 -0.019608 220724.000000 0 0 1
27.721141 9.300462 -6.264203 29.903185 0.323700 1.781842 0.160323 -0.009618 112986.000000 0 0 1
27.848841 8.239362 -7.277403 29.940034 0.287654 1.816322 0.163035 -0.018351 578515.000000 0 0 1
26.642941 7.492062 -7.439503 28.658742 0.274123 1.833393 0.173841 -0.018500 459815.000000 0 0 1
26.881441 6.414562 -8.482103 28.908555 0.234244 1.868590 0.177737 -0.030410 240550.000000 0 0 1
27.834941 5.452962 -8.020503 29.476214 0.193454 1.846372 0.163596 -0.029626 557534.000000 0 0 1
28.021741 4.416462 -8.943603 29.744094 0.156322 1.876207 0.144386 -0.025815 -109355.000000 0 0 1
28.983141 3.246762 -8.575603 30.399093 0.111557 1.856779 0.105726 -0.017005 -468351.000000 0 0 1
30.288381 3.441662 -9.068603 31.803626 0.113144 1.859953 0.134205 -0.013052 321363.000000 0 0 1
31.237861 2.665862 -8.321403 32.436962 0.085134 1.830238 0.102315 -0.010917 -56969.000000 0 0 1
31.339211 1.121762 -8.331103 32.447061 0.035779 1.830464 0.093026 -0.011500 -589898.000000 0 0 1
30.185121 0.409362 -7.886703 31.201109 0.013561 1.826338 0.124632 -0.026253 556775.000000 0 0 1
30.450921 -0.943038 -7.457103 31.364889 -0.030959 1.810848 0.115375 -0.032970 -163434.000000 0 0 1
30.527571 -2.036638 -8.562203 31.770927 -0.066616 1.843668 0.112511 -0.026094 -492390.000000 0 0 1
31.683171 -1.965138 -9.331603 33.087216 -0.061945 1.856706 0.101677 -0.020890 -252028.000000 0 0 1
31.656881 -3.093538 -10.226603 33.411248 -0.097412 1.881872 0.087741 -0.036434 -391594.000000 0 0 1
32.762351 -3.176838 -11.286803 34.797354 -0.096664 1.901129 0.091715 -0.037031 -1240070.000000 0 0 1
33.925111 -3.695438 -10.759903 35.781908 -0.108501 1.876231 0.103140 -0.017407 -824487.000000 0 0 1
34.819331 -4.120138 -11.756503 36.980761 -0.117781 1.894319 0.112104 -0.043829 402023.000000 0 0 1
36.254891 -4.422138 -11.200903 38.202521 -0.121374 1.868366 0.144424 -0.034279 299735.000000 0 0 1
36.335521 -5.569638 -10.382103 38.197893 -0.152100 1.846057 0.142352 -0.042437 -620721.000000 0 0 1
-37.408586 -5.601638 -9.714403 39.053172 0.148638 1.822184 0.162504 -0.045170 -833951.000000 0 0 1
-37.229966 -6.788138 -8.792303 38.851689 0.180349 1.799078 0.159825 -0.049311 10328.700000 0 0 1
37.008551 -6.594238 -7.576003 38.347264 -0.176331 1.769668 0.161069 -0.045264 427766.000000 0 0 1
36.503671 -7.811438 -7.050203 37.990024 -0.210811 1.757459 0.171696 -0.045088 -92697.800000 0 0 1
36.309661 -7.680738 -5.485903 37.516401 -0.208461 1.717549 0.176150 -0.040544 354642.000000 0 0 1
-37.364526 -7.699638 -4.819403 38.452813 0.203223 1.696460 0.174637 -0.034279 895013.000000 0 0 1
-37.116846 -8.786638 -3.933703 38.345003 0.232450 1.673564 0.205122 -0.040005 -397531.000000 0 0 1
-36.577916 -10.060438 -4.697903 38.225994 0.268405 1.694006 0.195133 -0.044745 -430753.000000 0 0 1
37.381781 -10.800238 -5.393803 39.282767 -0.281258 1.708539 0.183304 -0.047784 129055.000000 0 0 1
-37.050126 -11.824738 -6.188403 39.380612 0.308936 1.728594 0.144520 -0.042595 -216373.000000 0 0 1
37.109581 -11.995838 -7.486503 39.712326 -0.312652 1.760450 0.143747 -0.046397 -16777.700000 0 0 1
37.403101 -10.944038 -8.330003 39.851636 -0.284651 1.781375 0.158563 -0.052664 194049.000000 0 0 1
37.436531 -11.309138 -9.682503 40.288228 -0.293372 1.813503 0.167660 -0.039632 -355515.000000 0 0 1
-37.416986 -10.123138 -10.628903 40.193063 0.264224 1.838426 0.146870 -0.040061 -593770.000000 0 0 1
36.308391 -9.506538 -10.952003 39.097569 -0.256079 1.854715 0.133746 -0.042041 62600.800000 0 0 1
36.461771 -8.506938 -11.874103 39.278786 -0.229211 1.877904 0.126918 -0.043387 -117994.000000 0 0 1
35.106721 -8.047738 -12.483003 38.119199 -0.225343 1.904424 0.124268 -0.044908 27435.900000 0 0 1
35.292651 -7.233938 -13.625903 38.517091 -0.202170 1.932387 0.120705 -0.042635 612052.000000 0 0 1
34.127171 -6.564638 -14.091703 37.501125 -0.190037 1.956021 0.102718 -0.047360 176988.000000 0 0 1
34.473441 -5.727838 -15.370003 38.176737 -0.164648 1.985153 0.097819 -0.049580 49543.800000 0 0 1
35.347631 -4.652438 -15.059503 38.702569 -0.130867 1.970460 0.105115 -0.049280 192933.000000 0 0 1
35.532761 -3.561438 -15.960103 39.115033 -0.099896 1.991091 0.108051 -0.046342 91943.800000 0 0 1
36.905791 -2.850538 -15.812303 40.251607 -0.077085 1.974510 0.108990 -0.047835 -962434.000000 0 0 1
-37.129636 -3.197238 -16.827803 40.890184 0.085898 1.994936 0.125093 -0.043053 -457829.000000 0 0 1
-35.786909 -2.848238 -16.697403 39.593163 0.079421 2.006143 0.146194 -0.033967 -568055.000000 0 0 1
-35.497432 -1.378038 -16.254603 39.066338 0.038801 1.999923 0.144872 -0.027454 -2013930.000000 0 0 1
-35.844546 -0.475538 -17.245403 39.780165 0.013266 2.019189 0.120854 -0.028758 146709.000000 0 0 1
-35.625919 0.804262 -16.725003 39.364688 -0.022571 2.009618 0.127255 -0.025646 -375835.000000 0 0 1
-35.967941 1.941162 -17.710703 40.138882 -0.053917 2.027771 0.117257 -0.025172 -151142.000000 0 0 1
-35.116860 2.034262 -18.817403 39.892690 -0.057864 2.062015 0.104202 -0.017852 45548.600000 0 0 1
-35.216556 3.324562 -19.314203 40.302567 -0.094124 2.070574 0.096465 -0.001233 -232064.000000 0 0 1
-34.274854 3.665162 -20.483103 40.096839 -0.106530 2.106959 0.084725 0.004914 6467.650000 0 0 1
-32.896056 3.738862 -20.168503 38.767229 -0.113171 2.117936 0.091161 0.004168 336378.000000 0 0 1
-32.136706 3.806862 -21.384003 38.788344 -0.117909 2.154718 0.068970 0.006393 -432330.000000 0 0 1
-30.714026 4.301162 -21.176903 37.554129 -0.139134 2.169901 0.080356 -0.003294 -616651.000000 0 0 1
-29.809376 3.268462 -20.824103 36.509245 -0.109209 2.177763 0.081738 0.005256 -326619.000000 0 0 1
-28.517246 3.825562 -20.920103 35.574133 -0.133353 2.199468 0.060901 0.006691 65929.200000 0 0 1
-27.432916 2.907662 -20.260403 34.227230 -0.105597 2.204258 0.084960 0.002622 135455.000000 0 0 1
-27.216846 3.130962 -18.902403 33.284538 -0.114534 2.174753 0.081676 0.004562 -92101.000000 0 0 1
-26.624466 2.074062 -18.204003 32.319493 -0.077744 2.169112 0.088121 0.002875 -575486.000000 0 0 1
-25.947306 2.638262 -16.919303 31.088356 -0.101329 2.146271 0.096268 -0.003595 117286.000000 0 0 1
-24.706426 3.301362 -17.159603 30.261501 -0.132837 2.173709 0.091447 -0.012214 263825.000000 0 0 1
-24.187226 3.648362 -15.882803 29.164977 -0.149710 2.146690 0.105616 -0.029170 -570026.000000 0 0 1
-23.039226 4.647162 -16.029803 28.449194 -0.199036 2.169357 0.121116 -0.039580 -534862.000000 0 0 1
-21.980326 4.022762 -16.689303 27.889965 -0.181013 2.212297 0.134259 -0.042170 425440.000000 0 0 1
-20.833326 4.888162 -16.867503 27.247646 -0.230463 2.238322 0.122404 -0.039338 138148.000000 0 0 1
-19.577726 4.245362 -17.401103 26.535049 -0.213540 2.286009 0.161952 -0.042836 -1004640.000000 0 0 1
-19.150326 3.238062 -16.497203 25.482891 -0.167502 2.274943 0.197717 -0.044167 -184263.000000 0 0 1
-18.065626 2.537862 -17.038903 24.962608 -0.139567 2.322079 0.153463 -0.047498 -693835.000000 0 1 0
-17.973426 1.107662 -16.382203 24.344353 -0.061550 2.308968 0.173883 -0.039340 444338.000000 0 1 0
-18.871126 0.092162 -16.871603 25.313610 -0.004884 2.300305 0.115232 -0.027339 2030350.000000 0 0 1
-20.300226 0.333862 -16.682203 26.277491 -0.016445 2.258608 0.120483 -0.030648 1015750.000000 0 0 1
-21.172126 -0.768438 -17.252703 27.322247 0.036279 2.254221 0.086372 -0.022743 -441537.000000 0 0 1
-21.196826 -1.895138 -16.442303 26.893239 0.089170 2.228614 0.090060 -0.021142 673560.000000 0 0 1
-22.150426 -2.820038 -16.975203 28.049091 0.126632 2.220809 0.084633 -0.011927 233577.000000 0 0 1
-22.166526 -4.144038 -16.217603 27.776583 0.184817 2.194270 0.104546 -0.023804 -39636.300000 0 0 1
-22.708626 -3.881938 -14.940603 27.458564 0.169309 2.146130 0.102740 -0.032482 257303.000000 0 0 1
-22.984626 -5.064438 -14.250703 27.514071 0.216875 2.115240 0.109673 -0.043830 -120132.000000 0 0 1
-23.172326 -4.826338 -12.791403 26.904836 0.205345 2.066251 0.123720 -0.057630 -340719.000000 0 0 1
-24.255726 -3.956738 -12.562203 27.600814 0.161702 2.043324 0.118267 -0.057734 173609.000000 0 0 1
-24.255926 -3.299338 -11.312203 26.966674 0.135192 2.003678 0.133239 -0.068110 -159688.000000 0 0 1
-25.431666 -2.278338 -11.172703 27.870948 0.089348 1.983266 0.197839 -0.067158 131004.000000 0 0 1
-25.321696 -1.679838 -9.899603 27.239902 0.066243 1.942736 0.204410 -0.072847 533178.000000 0 0 1
-25.850156 -0.374738 -9.981903 27.712982 0.014496 1.939266 0.226110 -0.071892 -387167.000000 0 0 1
-26.151946 0.256362 -8.607903 27.533361 -0.009802 1.888763 0.253314 -0.064293 -525542.000000 0 0 1
-25.109246 0.356962 -7.693103 26.263767 -0.014215 1.868073 0.210473 -0.064680 -20262.500000 0 0 1
-25.658156 0.838362 -6.451403 26.470066 -0.032663 1.817001 0.218130 -0.060809 371284.000000 0 0 1
-24.560926 1.268362 -5.439803 25.188078 -0.051596 1.788479 0.162717 -0.044230 168195.000000 0 0 1
-23.940226 2.500062 -5.750303 24.747741 -0.104052 1.805296 0.169394 -0.037798 461821.000000 0 1 0
-22.597526 2.529562 -5.306503 23.349643 -0.111476 1.800062 0.141965 -0.025194 -115976.000000 0 1 0
-22.016026 3.960262 -5.270803 22.981959 -0.177978 1.802201 0.119531 -0.024085 -381394.000000 0 1 0
-22.604626 4.820562 -4.326603 23.514387 -0.210108 1.755849 0.123798 -0.024569 385658.000000 0 1 0
-22.079326 6.116362 -4.417503 23.332827 -0.270241 1.761272 0.100838 -0.030389 -506857.000000 0 1 0
-22.813826 7.269762 -3.652203 24.221038 -0.308483 1.722160 0.123152 -0.027005 -421693.000000 0 1 0
-22.446026 7.673662 -2.379903 23.840577 -0.329415 1.670789 0.119037 -0.027866 176317.000000 0 1 0
-21.081826 8.015962 -2.251903 22.666497 -0.363349 1.670310 0.120453 -0.025227 -244146.000000 0 1 0
-20.595126 9.489962 -2.521303 22.816125 -0.431788 1.681528 0.104680 -0.026865 -392303.000000 0 1 0
-20.463926 9.782062 -3.901303 23.014803 -0.445905 1.741132 0.091371 -0.022382 703216.000000 0 1 0
-19.959926 11.095862 -4.020303 23.187920 -0.507367 1.745056 0.100265 -0.018980 -190692.000000 0 1 0
-19.868226 11.381062 -5.511703 23.551090 -0.520200 1.807019 0.103989 -0.025477 -208409.000000 0 1 0
-18.770826 10.820962 -6.192203 22.533985 -0.522944 1.849172 0.084137 -0.029782 -262441.000000 0 1 0
-18.898026 11.108462 -7.574903 23.192940 -0.531409 1.903504 0.102612 -0.029508 31981.800000 0 1 0
-17.570726 10.933062 -8.344503 22.313515 -0.556606 1.954078 0.089096 -0.019187 19169.200000 0 1 0
-17.108026 9.611062 -8.574303 21.414381 -0.511847 1.982749 0.072095 -0.026924 843602.000000 0 1 0
-17.954426 8.755962 -9.404703 22.078875 -0.453741 2.010818 0.081230 -0.029194 241702.000000 0 1 0
-18.250126 9.124562 -10.902403 23.134111 -0.463626 2.061526 0.104699 -0.034381 -479473.000000 0 1 0
-17.111326 8.933862 -11.654003 22.548329 -0.481173 2.113958 0.101300 -0.027401 -707567.000000 0 1 0
-17.148226 9.820262 -12.737103 23.510274 -0.520081 2.143335 0.112592 -0.034287 121233.000000 0 1 0
-15.827326 9.648662 -13.534203 22.951592 -0.547463 2.201465 0.069618 -0.025925 -103356.000000 0 1 0
-15.777026 8.489862 -14.330903 22.942691 -0.493673 2.245466 0.087359 -0.040629 23939.300000 0 1 0
-15.493526 7.346562 -13.597303 21.883966 -0.442771 2.241243 0.078735 -0.035061 -653130.000000 0 1 0
-15.471826 5.996162 -14.376003 21.954517 -0.369731 2.284725 0.088444 -0.041127 -1430030.000000 0 1 0
-14.392626 5.863862 -15.199703 21.738526 -0.386888 2.345082 0.080148 -0.041432 -508969.000000 0 1 0
-14.426126 4.620962 -15.938103 21.988395 -0.309992 2.381601 0.088362 -0.044980 -147074.000000 0 1 0
33.407481 -15.070438 28.516046 46.436438 -0.423776 0.909567 0.075393 -0.024524 -363727.000000 0 0 1
32.456041 -14.055038 28.732096 45.568323 -0.408668 0.888563 0.087847 -0.020458 117351.000000 0 0 1
31.416181 -14.368838 29.652716 45.527173 -0.428966 0.861475 0.091066 -0.020190 319662.000000 0 0 1
31.883741 -14.445538 31.109676 46.830102 -0.425403 0.844227 0.087017 -0.032095 -342243.000000 0 0 1
32.316211 -13.206238 31.622586 47.103399 -0.387947 0.834776 0.077362 -0.031096 53064.200000 0 0 1
32.553541 -13.225738 33.037268 48.229807 -0.385905 0.816197 0.070886 -0.031988 -320216.000000 0 0 1
32.795011 -11.790438 33.573851 48.391432 -0.345130 0.804048 0.086034 -0.029723 -31967.200000 0 0 1
32.762911 -11.647738 -32.846143 47.832491 -0.341580 2.327724 0.072854 -0.040729 53140.700000 0 0 1
32.898761 -10.309538 -32.498863 47.379227 -0.303679 2.326678 0.082484 -0.030668 -441528.000000 0 0 1
32.396701 -10.087038 -31.090483 46.020785 -0.301846 2.312540 0.085394 -0.028477 1086900.000000 0 0 1
31.013011 -10.515138 -30.972323 45.073937 -0.326892 2.328348 0.120578 -0.030387 1389180.000000 0 0 1
30.504771 -10.472938 -29.639823 43.803454 -0.330713 2.314006 0.103626 -0.025597 -199951.000000 0 0 1
29.366241 -9.433738 -29.367043 42.588669 -0.310831 2.331665 0.105276 -0.016126 405953.000000 0 0 1
28.883441 -9.397638 -28.007673 41.315838 -0.314561 2.315688 0.098381 -0.018228 695693.000000 0 0 1
28.092341 -10.520438 -27.570523 40.743011 -0.358328 2.314058 0.124618 -0.019037 -590069.000000 0 0 1
27.490741 -10.343038 -26.138323 39.318331 -0.359855 2.298005 0.122360 -0.016662 -465732.000000 0 0 1
26.455741 -9.443438 -25.811713 38.148778 -0.342855 2.313941 0.115205 -0.015716 1054230.000000 0 0 1
25.239341 -9.441638 -26.600053 37.864649 -0.357968 2.349706 0.105939 -0.020335 802926.000000 0 0 1
24.305641 -10.636738 -26.448643 37.462449 -0.412515 2.354636 0.105242 -0.016353 -721067.000000 0 0 1
24.919741 -11.711138 -27.130723 38.655147 -0.439323 2.348810 0.101221 -0.013044 266833.000000 0 0 1
24.082041 -12.858838 -27.097753 38.465343 -0.490445 2.352475 0.110562 -0.019796 397406.000000 0 0 1
24.774141 -14.081138 -27.791853 39.804819 -0.516845 2.343681 0.106456 -0.008302 252068.000000 0 0 1
24.798941 -13.878138 -29.158393 40.716115 -0.510204 2.369051 0.105802 -0.019436 102507.000000 0 0 1
25.831841 -14.604038 -29.783733 42.043224 -0.514552 2.358036 0.097932 -0.015510 -175629.000000 0 0 1
25.846841 -14.489338 -31.352583 43.139130 -0.510933 2.384416 0.102478 -0.023596 -703206.000000 0 0 1
24.710941 -15.070338 -31.908573 43.080189 -0.547642 2.404876 0.101963 -0.019845 -347925.000000 0 0 1
24.851841 -15.412038 -33.298013 44.315940 -0.555109 2.420944 0.094867 -0.022628 74081.100000 0 0 1
24.884741 -14.110338 33.610306 44.136206 -0.515822 0.705152 0.068524 -0.022979 -17006.300000 0 0 1
23.706841 -13.337838 33.678910 43.291815 -0.512477 0.679398 0.075059 -0.019870 -25212.900000 0 0 1
23.845941 -12.351638 32.684089 42.301791 -0.477925 0.687806 0.062958 -0.016006 -766919.000000 0 0 1
22.752941 -11.287638 32.945172 41.599176 -0.460519 0.656773 0.067662 -0.020322 561738.000000 0 0 1
21.423841 -11.658938 32.579127 40.697805 -0.498382 0.642645 0.060043 -0.019576 503558.000000 0 0 1
21.250641 -11.852138 31.205906 39.571094 -0.508759 0.662262 0.052668 -0.017513 -1936790.000000 0 0 1
19.796041 -12.057938 30.818006 38.561984 -0.547090 0.644865 0.063671 -0.014350 -201338.000000 0 0 1
18.974841 -10.902838 30.906016 37.869490 -0.521529 0.616133 0.064258 -0.019202 191067.000000 0 0 1
18.035541 -10.948538 31.965558 38.300759 -0.545590 0.583402 0.045837 -0.004241 31310.500000 0 0 1
17.212141 -9.671938 32.278525 37.837909 -0.511953 0.548948 0.050421 -0.009279 -488475.000000 0 0 1
16.350541 -9.428338 31.191246 36.457202 -0.523064 0.544169 0.084849 -0.014567 37835.000000 0 0 1
15.470641 -8.312438 31.366046 35.948104 -0.493044 0.510425 0.094280 -0.005454 704487.000000 0 0 1
14.445241 -8.208038 32.545628 36.541138 -0.516722 0.472008 0.112220 -0.020420 -1464460.000000 0 0 1
13.500741 -9.202838 32.443406 36.325430 -0.598307 0.466535 0.115559 -0.016658 -849164.000000 0 0 1
12.391341 -9.108038 33.277047 36.658745 -0.633853 0.432902 0.114197 -0.021543 723669.000000 0 0 1
11.260441 -8.113138 32.753932 35.573032 -0.624352 0.400793 0.138751 -0.026803 3026.760000 0 0 1
11.642141 -6.783138 33.044151 35.685660 -0.527554 0.387178 0.135930 -0.027726 115891.000000 0 0 1
10.878441 -5.877138 32.287505 34.574040 -0.495331 0.365723 0.162971 -0.022218 -5257.430000 0 0 1
11.314541 -4.402638 32.511015 34.704008 -0.371086 0.357403 0.168375 -0.030718 50442.700000 0 0 1
11.149341 -3.913238 33.809196 35.814564 -0.337551 0.336225 0.157107 -0.043043 248017.000000 0 0 1
11.500341 -2.497938 33.902256 35.886774 -0.213883 0.334116 0.117849 -0.040289 -409478.000000 0 0 1
11.060741 -1.717338 -32.685463 34.548932 -0.154034 2.811656 0.103794 -0.040685 -390361.000000 0 0 1
9.682141 -1.450138 -32.630383 34.067413 -0.148669 2.850107 0.098979 -0.021559 -389928.000000 0 0 1
9.329541 -0.663038 -31.591823 32.947279 -0.070949 2.853755 0.100377 -0.014989 251854.000000 0 0 1
7.779041 -0.606638 -31.476753 32.429423 -0.077826 2.898604 0.094156 -0.014215 460739.000000 0 0 1
7.134741 0.172562 -32.471783 33.246819 0.024181 2.925247 0.100283 -0.017886 -117336.000000 0 0 1
5.740541 0.290062 -32.284743 32.792416 0.050486 2.965402 0.114264 -0.019406 167680.000000 0 0 1
5.182941 1.357262 -33.281343 33.709833 0.256120 2.981980 0.110234 -0.029218 -44580.500000 0 0 1
5.501241 2.687062 -32.948453 33.512453 0.454362 2.957870 0.093018 -0.031630 14038.400000 0 0 1
5.063441 3.485562 33.783065 34.337779 0.602883 0.179991 0.089582 -0.032441 -83544.000000 0 0 1
6.103341 4.513262 33.388223 34.240236 0.636730 0.223550 0.073594 -0.033864 -474757.000000 0 0 1
5.565241 5.381262 32.418543 33.330044 0.768593 0.234407 0.095486 -0.048965 388256.000000 0 0 1
6.455641 6.459962 32.080044 33.354695 0.785733 0.277348 0.087544 -0.042244 -19265.600000 0 0 1
5.824841 7.527162 31.159446 32.580639 0.912210 0.296451 0.094454 -0.036516 -545333.000000 0 0 1
4.884041 8.175462 32.037064 33.422530 1.032289 0.288938 0.097946 -0.043565 344661.000000 0 0 1
4.345441 9.364562 31.506946 33.155174 1.136336 0.316638 0.096430 -0.047357 175195.000000 0 0 1
3.677141 9.381762 30.053316 31.697644 1.197253 0.323513 0.100525 -0.043924 -62809.600000 0 0 1
2.510341 8.587362 29.903036 31.212757 1.286391 0.290716 0.103189 -0.046026 104820.000000 0 0 1
2.283441 8.396462 28.495646 29.794572 1.305265 0.296367 0.085876 -0.029407 -434517.000000 0 0 1
0.915341 7.928862 28.025456 29.139851 1.455861 0.277450 0.100217 -0.035490 211603.000000 0 0 1
-0.201759 8.808762 28.313246 29.652570 -1.547896 0.301700 0.104110 -0.032675 257082.000000 0 0 1
-1.214659 8.500162 27.381876 28.696608 -1.428859 0.303872 0.109593 -0.027885 848582.000000 0 0 1
-2.647059 8.661162 28.044286 29.470403 -1.274188 0.312368 0.119502 -0.027902 950062.000000 0 0 1
-2.819459 10.016162 28.437596 30.281508 -1.296406 0.350772 0.113923 -0.027284 90603.300000 0 0 1
-4.094359 10.042262 29.069186 31.026253 -1.183659 0.357078 0.098355 -0.019060 87029.500000 0 0 1
-4.506059 11.336262 29.750706 32.154625 -1.192455 0.389132 0.085541 -0.010622 -56073.900000 0 0 1
-4.641059 12.557162 28.972796 31.916213 -1.216773 0.432843 0.075767 -0.015171 551335.000000 0 0 1
-5.751559 12.567362 28.064386 31.283043 -1.141592 0.457608 0.064685 -0.024381 443431.000000 0 0 1
-6.060259 13.990062 27.561606 31.497472 -1.162015 0.505274 0.054617 -0.016563 308782.000000 0 0 1
-5.108259 14.356562 26.580306 30.638503 -1.228952 0.520550 0.053131 -0.015331 67152.200000 0 0 1
-5.346359 15.694062 26.222626 31.024398 -1.242465 0.563808 0.037566 -0.009542 390082.000000 0 0 1
-4.166959 16.379762 25.466426 30.564669 -1.321684 0.585930 0.058666 -0.013671 180473.000000 0 0 1
-3.983959 15.908062 24.126916 29.172700 -1.325407 0.596979 0.041544 -0.004313 -210366.000000 0 0 1
-2.977459 16.687462 23.525766 28.996523 -1.394229 0.624372 0.046307 -0.005062 1991.970000 0 0 1
-2.776259 16.272062 22.014816 27.516172 -1.401808 0.643387 0.052405 -0.010229 -274371.000000 0 0 1
-2.093459 15.110962 21.733616 26.553226 -1.433133 0.612014 0.045722 -0.014066 -218515.000000 0 0 1
-1.825759 14.991662 20.353716 25.344765 -1.449608 0.638360 0.056615 -0.021144 280411.000000 0 0 1
-1.051359 13.718062 19.924716 24.213321 -1.494305 0.604331 0.061270 -0.024538 -44223.700000 0 1 0
-1.839459 12.560262 19.991316 23.681143 -1.425379 0.565749 0.059166 -0.022939 153620.000000 0 1 0
-1.203159 11.489462 19.296016 22.489810 -1.466458 0.539454 0.057809 -0.025327 45449.700000 0 1 0
-2.137559 10.233362 19.185316 21.848735 -1.364876 0.498925 0.046937 -0.019436 -208412.000000 0 1 0
-2.321259 9.492762 20.410616 22.629495 -1.330973 0.446538 0.074340 -0.029547 335502.000000 0 1 0
-3.318959 10.090762 21.236716 23.745254 -1.253031 0.463806 0.087580 -0.025729 634048.000000 0 1 0
-4.838059 10.059662 20.860516 23.659348 -1.122515 0.491337 0.075099 -0.019580 99489.700000 0 1 0
-5.378059 8.784762 20.931116 23.328249 -1.021452 0.457310 0.059215 -0.019942 162444.000000 0 1 0
-6.797659 8.917362 20.882716 23.702644 -0.919473 0.492763 0.057218 -0.016333 808851.000000 0 1 0
-7.620559 7.573962 20.892216 23.493031 -0.782331 0.474997 0.062422 -0.013032 207461.000000 0 1 0
-7.633459 6.923062 22.168416 24.446619 -0.736634 0.435145 0.060918 -0.013566 -188247.000000 0 1 0
-8.373959 5.741062 22.208816 24.419552 -0.600986 0.428792 0.058153 -0.008660 -36264.800000 0 1 0
-8.367559 5.041162 23.582126 25.525400 -0.542230 0.392727 0.064344 -0.013632 7442.610000 0 0 1
-9.199059 5.640662 24.557496 26.823691 -0.550053 0.414010 0.046794 -0.009738 124401.000000 0 0 1
-9.099059 4.887462 25.743536 27.738238 -0.492916 0.381551 0.052911 -0.000589 -14685.000000 0 0 1
-10.055259 5.401762 26.848926 29.174511 -0.492969 0.401983 0.048858 -0.003235 4156.810000 0 0 1
-9.674159 6.670962 27.356186 29.773344 -0.603688 0.405730 0.055920 -0.009443 -211609.000000 0 0 1
-10.446659 7.067162 28.475466 31.143693 -0.594779 0.416958 0.050473 -0.014676 -235290.000000 0 0 1
-9.813159 8.178662 29.297266 31.961202 -0.694800 0.411177 0.063948 -0.010819 -349539.000000 0 0 1
-8.816559 7.660062 30.130046 32.314516 -0.715323 0.369800 0.082079 -0.021006 -387649.000000 0 0 1
-8.353759 8.584362 31.044356 33.275045 -0.799012 0.368241 0.086890 -0.020517 -577934.000000 0 0 1
-7.218359 8.142362 31.954381 33.756262 -0.845479 0.328210 0.107945 -0.028099 -1941270.000000 0 0 1
-6.004759 8.202062 31.371716 32.977500 -0.938848 0.313349 0.121196 -0.032433 -2197620.000000 0 0 1
-5.126259 7.478362 32.171148 33.424351 -0.969883 0.274701 0.145071 -0.039763 243887.000000 0 0 1
-3.624759 7.414462 31.738916 32.794389 -1.116087 0.254396 0.124595 -0.039611 606949.000000 0 0 1
-3.028859 8.669962 31.866088 33.163079 -1.234700 0.280596 0.108765 -0.041613 572709.000000 0 0 1
-1.591559 8.576462 31.839164 33.012439 -1.387311 0.267406 0.105709 -0.047963 1281260.000000 0 0 1
-0.831159 9.939262 31.667716 33.201265 -1.487367 0.305121 0.106064 -0.042478 120673.000000 0 0 1
-0.993459 10.790862 32.738191 34.485052 -1.478990 0.319653 0.095041 -0.050465 191186.000000 0 0 1
-1.685559 11.942662 32.226098 34.409151 -1.430585 0.358124 0.086136 -0.039902 -79757.400000 0 0 1
-1.713959 13.109662 33.226171 35.760024 -1.440794 0.378709 0.073175 -0.041273 -353482.000000 0 0 1
-0.553659 13.894562 33.226311 36.018789 -1.530970 0.396362 0.116628 -0.047626 -457894.000000 0 0 1
-0.540159 14.750262 -33.492013 36.600231 -1.534192 2.726494 0.109114 -0.045376 -270786.000000 0 0 1
0.870041 15.053962 -32.993403 36.275934 1.513066 2.712905 0.097735 -0.043837 -917166.000000 0 0 1
1.591041 15.950862 -33.744373 37.358320 1.471379 2.698110 0.108248 -0.046351 167003.000000 0 0 1
2.856041 16.129562 -33.094843 36.926797 1.395544 2.681989 0.108344 -0.041319 140387.000000 0 0 1
3.896641 16.904962 -33.874253 38.058200 1.344250 2.668283 0.111583 -0.031752 -368953.000000 0 0 1
3.675141 18.291062 -33.901503 38.696014 1.372511 2.638505 0.098607 -0.021922 -9809.180000 0 0 1
4.560941 18.936762 33.059214 38.370754 1.334447 0.532436 0.079267 -0.006736 84853.100000 0 0 1
4.260541 20.428662 33.201863 39.215382 1.365187 0.561130 0.089954 -0.020003 88441.200000 0 0 1
4.485541 20.897662 -33.324563 39.589883 1.359361 2.571303 0.111567 -0.038638 -20893.600000 0 0 1
4.349641 22.302262 -33.348653 40.353970 1.378183 2.543486 0.093510 -0.035951 -53989.100000 0 0 1
4.200241 22.979462 -32.004023 39.622660 1.390010 2.511071 0.106290 -0.040192 48547.900000 0 0 1
3.906641 24.385562 -32.020033 40.437606 1.411943 2.484609 0.121015 -0.043826 226059.000000 0 0 1
3.556341 24.856062 -30.722053 39.677650 1.428683 2.456391 0.126889 -0.048054 4571.790000 0 0 1
2.959941 26.299862 -30.704523 40.536548 1.458722 2.430199 0.127986 -0.053259 -23094.500000 0 0 1
3.906441 27.339462 -30.632963 41.244210 1.428870 2.407922 0.135687 -0.050944 -531.686000 0 0 1
3.337641 28.558562 -30.199523 41.698231 1.454454 2.380728 0.132801 -0.052542 123555.000000 0 0 1
4.358541 29.763262 -30.136123 42.579743 1.425390 2.357115 0.144998 -0.063837 988906.000000 0 0 1
5.451641 29.366362 -29.275123 41.822678 1.387244 2.346169 0.139794 -0.074446 446417.000000 0 0 1
6.167041 30.566162 -28.916473 42.526287 1.371709 2.318514 0.148975 -0.078978 531814.000000 0 0 1
7.351441 30.259262 -27.913653 41.819118 1.332465 2.301623 0.154957 -0.068897 1138920.000000 0 0 1
8.524041 29.750962 -28.567843 42.117700 1.291758 2.316224 0.154901 -0.061250 463689.000000 0 0 1
9.743141 30.440462 -28.551113 42.856931 1.261028 2.299893 0.159926 -0.058615 43172.400000 0 0 1
9.811641 31.820762 -29.285493 44.344890 1.271705 2.292151 0.172257 -0.062676 -1085660.000000 0 0 1
9.200141 32.822562 -28.462483 44.408063 1.297510 2.266506 0.178258 -0.063088 382781.000000 0 0 1
9.025141 -33.771992 -29.267193 45.591328 -1.309661 2.267831 0.160138 -0.054121 -372792.000000 0 0 1
7.869241 -33.740592 -30.271753 46.007950 -1.341665 2.288913 0.126968 -0.045427 -609031.000000 0 0 1
8.009041 33.190962 -31.420013 46.400451 1.334021 2.314677 0.109599 -0.040513 -787036.000000 0 0 1
6.723341 32.855362 -31.804883 46.219354 1.368949 2.329704 0.097084 -0.040979 -873293.000000 0 0 1
6.588841 32.086562 -33.116543 46.579670 1.368266 2.361667 0.105445 -0.055262 -8982.780000 0 0 1
6.479441 32.904462 33.553896 47.439970 1.376367 0.785137 0.096596 -0.043419 141527.000000 0 0 1
6.241541 32.165462 32.345496 46.041339 1.379133 0.791848 0.103732 -0.040397 89187.900000 0 0 1
5.779341 32.956862 31.127926 45.700146 1.397201 0.821486 0.085108 -0.046239 -19758.500000 0 0 1
6.844041 33.793662 30.741056 46.193777 1.370975 0.842659 0.084643 -0.039200 150667.000000 0 0 1
6.677841 -33.364392 29.475106 45.017309 -1.373258 0.856944 0.067963 -0.045561 -136220.000000 0 0 1
18.468774 -21.523338 29.042456 40.593275 -0.861629 0.773528 0.124136 -0.017148 -96912.300000 0 0 1
17.582174 -20.553438 29.600136 40.096692 -0.863154 0.740370 0.125715 -0.013578 820425.000000 0 0 1
16.216274 -20.980338 29.590826 39.733602 -0.912783 0.730665 0.124302 -0.011418 572189.000000 0 0 1
15.767374 -21.571638 30.958056 40.894338 -0.939612 0.712048 0.116278 -0.015906 -504749.000000 0 0 1
16.201874 -22.887138 31.292316 42.018221 -0.954786 0.730663 0.149925 -0.021071 210851.000000 0 0 1
15.917374 -23.116638 32.666431 43.067824 -0.967784 0.709806 0.125240 -0.025469 -139052.000000 0 0 1
16.889274 -24.128438 33.287925 44.446767 -0.960088 0.724337 0.139001 -0.035184 -94302.800000 0 0 1
16.866874 -25.415538 32.707608 44.723916 -0.984889 0.750537 0.142430 -0.038008 -179326.000000 0 0 1
17.748474 -26.234758 33.408129 46.036659 -0.976000 0.758766 0.142412 -0.037028 -215868.000000 0 0 1
17.498874 -27.751188 33.211091 46.683141 -1.008207 0.779287 0.132939 -0.031979 -114418.000000 0 0 1
17.897774 -28.266788 31.991789 46.290563 -1.006341 0.807775 0.129015 -0.037604 -14599.000000 0 0 1
17.355574 -29.522878 31.792576 46.728837 -1.039345 0.822538 0.123876 -0.036860 -339551.000000 0 0 1
18.070174 -30.301438 30.665536 46.744876 -1.033067 0.855264 0.132695 -0.041432 426413.000000 0 0 1
19.384474 -30.681558 31.051296 47.762944 -1.007325 0.863064 0.128245 -0.042613 512443.000000 0 0 1
20.136074 -31.295308 30.000086 47.800240 -0.999060 0.892312 0.102330 -0.042804 477858.000000 0 0 1
21.595874 -31.708968 30.426646 48.965511 -0.972892 0.900282 0.092972 -0.034768 628400.000000 0 0 1
22.499174 -30.626558 30.272526 48.586261 -0.937205 0.898138 0.098733 -0.039561 253354.000000 0 0 1
23.822174 -31.138868 30.422796 49.625312 -0.917745 0.910881 0.077014 -0.030611 -278330.000000 0 0 1
24.802174 -29.998518 30.390166 49.382397 -0.879938 0.907897 0.075517 -0.033573 -773610.000000 0 0 1
26.165474 -30.337008 30.428936 50.307915 -0.859094 0.921214 0.083846 -0.039533 -311227.000000 0 0 1
26.965774 -29.198688 30.353846 50.010722 -0.825134 0.918583 0.076004 -0.033601 -115198.000000 0 0 1
28.080074 -29.295238 29.285406 50.043347 -0.806574 0.945669 0.052041 -0.021630 -453536.000000 0 0 1
29.152874 -30.093988 29.698846 51.357177 -0.801281 0.954177 0.034785 -0.014454 -432507.000000 0 0 1
30.199774 -29.982068 28.771626 51.368835 -0.781781 0.976291 0.019737 -0.029865 86364.400000 0 0 1
31.312974 -31.054858 28.865146 52.707715 -0.781260 0.991249 0.009273 -0.020240 410040.000000 0 0 1
30.754174 -32.375248 28.666816 53.063757 -0.811071 1.000082 0.003600 -0.019333 490311.000000 0 0 1
31.671674 -33.342768 29.152356 54.449013 -0.811096 1.005807 0.035435 -0.019262 -425065.000000 0 0 1
30.997274 33.081125 29.496846 54.085634 0.817907 0.993962 0.032062 -0.019062 19257.100000 0 0 1
30.272674 33.085036 30.733336 54.365360 0.829758 0.969986 0.050382 -0.016686 303782.000000 0 0 1
29.121774 33.836396 31.012266 54.357521 0.860144 0.963653 0.031313 -0.011890 1125410.000000 0 0 1
27.768374 33.623423 30.186336 53.036139 0.880482 0.965306 0.039593 -0.011412 1381340.000000 0 0 1
27.037274 32.453919 30.593636 52.155936 0.876197 0.943967 0.034994 -0.007928 1010820.000000 0 0 1
25.687374 32.493695 30.070066 51.184864 0.901854 0.942855 0.035546 -0.004226 1197970.000000 0 0 1
25.080374 31.079446 29.955976 49.923117 0.891816 0.927242 0.049356 -0.022178 -46317.300000 0 0 1
25.742274 30.229506 29.029466 49.185339 0.865397 0.939483 0.044535 -0.024165 163435.000000 0 0 1
25.141474 28.958386 28.949286 48.049381 0.855835 0.924179 0.088950 -0.051518 -276272.000000 0 0 1
24.404774 28.566306 27.658076 46.654003 0.863799 0.936223 0.078204 -0.049859 283273.000000 0 0 1
23.176474 29.263206 27.453426 46.337617 0.900952 0.936681 0.095994 -0.049956 479972.000000 0 0 1
22.542974 28.824376 26.240056 45.028556 0.907078 0.948697 0.085597 -0.044903 -447021.000000 0 0 1
21.167774 29.433856 26.046786 44.641478 0.947324 0.947806 0.110352 -0.037295 -711371.000000 0 0 1
21.231174 30.813226 25.798746 45.450995 0.967472 0.967188 0.105081 -0.043077 334875.000000 0 0 1
19.952474 31.421256 25.601856 45.175785 1.005039 0.968281 0.105514 -0.037070 103861.000000 0 0 1
19.975074 32.861671 25.026076 45.882431 1.024622 0.993883 0.120880 -0.033883 -300410.000000 0 0 1
20.474474 33.082713 23.737786 45.575788 1.016605 1.022959 0.127803 -0.031650 831944.000000 0 0 1
21.904874 33.114319 23.609946 46.193194 0.986384 1.034317 0.120953 -0.034502 565169.000000 0 0 1
22.315274 33.264750 22.174716 45.784638 0.979911 1.065203 0.124155 -0.034858 -256893.000000 0 0 1
22.024574 -33.272768 21.573716 45.360602 -0.986073 1.075145 0.134783 -0.023570 387206.000000 0 0 1
22.514074 -33.150228 20.238116 44.893235 -0.974199 1.103129 0.139504 -0.027197 52022.900000 0 0 1
22.107574 -31.759948 19.701616 43.423413 -0.962704 1.099873 0.124658 -0.022154 -463956.000000 0 0 1
22.809574 -30.731738 20.310216 43.326912 -0.932296 1.082902 0.116298 -0.020460 6031.090000 0 0 1
22.586274 -29.426728 19.829316 42.062738 -0.916162 1.079893 0.114437 -0.027409 4473.730000 0 0 1
23.315174 -28.932668 18.499716 41.508266 -0.892503 1.108854 0.086907 -0.017229 33921.600000 0 0 1
22.876874 -29.555068 17.328416 41.196207 -0.912085 1.136655 0.064953 -0.023671 -2942.670000 0 0 1
23.486674 -28.955058 16.264916 40.676366 -0.889298 1.159430 0.050482 -0.021827 -543901.000000 0 0 1
23.003374 -29.413928 14.878416 40.195792 -0.907092 1.191627 0.030706 -0.018645 -46327.700000 0 0 1
23.518074 -30.738628 14.629716 41.376221 -0.917702 1.209403 0.067982 -0.022398 45693.000000 0 0 1
23.723674 -30.983918 13.226316 41.203778 -0.917337 1.244014 0.060652 -0.023671 128392.000000 0 0 1
22.537074 -31.116008 12.212216 40.314562 -0.943952 1.263038 0.056846 -0.029803 354253.000000 0 0 1
21.663774 -32.208328 12.377616 40.741881 -0.978688 1.262112 0.071311 -0.027991 -717113.000000 0 0 1
20.500174 -32.204588 11.649616 39.913735 -1.003927 1.274615 0.077343 -0.025778 -901612.000000 0 0 1
19.438174 -33.050138 12.343816 40.280567 -1.039142 1.259339 0.091632 -0.024249 -465714.000000 0 0 1
19.032274 -32.465268 13.592716 40.012286 -1.040560 1.224184 0.084376 -0.013197 196154.000000 0 0 1
19.478374 -33.219678 14.675516 41.210737 -1.040474 1.206696 0.076748 -0.020516 -661228.000000 0 0 1
19.443774 -32.355488 15.967916 40.986733 -1.029684 1.170613 0.084048 -0.028563 708124.000000 0 0 1
18.144474 -31.937038 16.398916 40.225872 -1.054138 1.150894 0.096474 -0.037426 1321570.000000 0 0 1
17.081174 -32.812108 16.810016 40.632224 -1.090824 1.144269 0.095279 -0.026868 489603.000000 0 0 1
17.374774 -33.516538 18.190016 41.906059 -1.092542 1.121795 0.088203 -0.027370 -165334.000000 0 0 1
18.330674 33.203624 18.164116 42.052697 1.066366 1.124157 0.075250 -0.020784 86274.100000 0 0 1
18.525674 32.701578 19.458816 42.323036 1.055368 1.093061 0.059571 -0.017586 -26009.500000 0 0 1
19.475274 31.512806 19.448516 41.840029 1.017238 1.087353 0.068030 -0.014821 23960.600000 0 0 1
18.808174 30.296286 19.065816 40.436589 1.015217 1.079806 0.044031 -0.014876 284042.000000 0 0 1
19.764974 29.303496 18.730916 40.002454 0.977396 1.083494 0.049467 -0.022860 143143.000000 0 0 1
19.193374 27.868346 18.578316 38.602903 0.967684 1.068696 0.047688 -0.021535 88185.500000 0 0 1
18.947474 27.164596 19.782016 38.577846 0.961746 1.032374 0.041838 -0.026554 -82110.000000 0 0 1
18.357674 25.911136 19.444916 37.235681 0.954398 1.021354 0.054939 -0.027372 -212540.000000 0 0 1
18.083874 25.085346 20.717516 37.222527 0.946185 0.980526 0.063220 -0.018750 -873763.000000 0 0 1
16.918874 25.392126 21.388916 37.262502 0.983045 0.959406 0.062321 -0.015919 -812261.000000 0 0 1
15.979174 24.348426 21.198116 36.021382 0.990025 0.941610 0.076782 -0.023233 126074.000000 0 0 1
14.623974 24.574746 21.922716 36.033099 1.034001 0.916747 0.100172 -0.043115 167714.000000 0 0 1
14.019574 25.771716 21.517516 36.383146 1.072578 0.937985 0.106301 -0.042777 -204882.000000 0 0 1
12.766774 26.039576 22.106116 36.465469 1.114952 0.919497 0.112884 -0.044162 -258192.000000 0 0 1
11.958874 27.060516 21.347816 36.483084 1.154673 0.945740 0.120747 -0.048272 -389500.000000 0 0 1
12.542974 28.342996 21.432116 37.682718 1.154162 0.965809 0.100912 -0.048498 50497.900000 0 0 1
11.909674 29.212286 20.528716 37.638095 1.183675 0.993902 0.110586 -0.049469 29495.300000 0 0 1
12.340474 30.651556 20.776916 39.031851 1.188046 1.009473 0.114476 -0.043519 -257495.000000 0 0 1
11.561974 31.319016 21.712616 39.824587 1.217149 0.994161 0.100316 -0.035030 -252647.000000 0 0 1
11.967674 31.229766 23.086466 40.638755 1.204844 0.966613 0.092263 -0.035056 122565.000000 0 0 1
11.260774 32.328877 23.937606 41.772842 1.235619 0.960583 0.088205 -0.034343 235533.000000 0 0 1
9.912274 32.018644 24.204986 41.344021 1.270576 0.945357 0.088152 -0.042104 -243126.000000 0 0 1
9.736274 32.423216 25.525116 42.398013 1.279076 0.924748 0.075666 -0.033207 2732.880000 0 0 1
8.374374 32.021500 26.194146 42.209476 1.315002 0.901321 0.132532 -0.049678 643494.000000 0 0 1
7.197874 32.724224 25.791466 42.283377 1.354288 0.914777 0.129939 -0.043025 793507.000000 0 0 1
6.649774 32.396004 24.473766 41.142263 1.368343 0.933708 0.129313 -0.054226 99376.200000 0 0 1
5.701974 31.134306 24.468076 40.006803 1.389662 0.912718 0.124979 -0.051131 -62761.600000 0 0 1
6.376674 29.944916 24.859016 39.437680 1.360983 0.888810 0.098388 -0.051199 -382224.000000 0 0 1
5.688074 28.724086 24.633356 38.265252 1.375301 0.871404 0.095345 -0.047190 -1078230.000000 0 0 1
6.634074 27.533686 24.574946 37.497237 1.334359 0.856110 0.088561 -0.047886 -628000.000000 0 0 1
7.535274 27.485866 23.480166 36.926567 1.303220 0.881673 0.099383 -0.047652 469097.000000 0 0 1
8.607774 28.400176 23.492016 37.848891 1.276508 0.901188 0.115505 -0.044895 -764391.000000 0 0 1
9.853674 28.112936 24.346536 38.473184 1.233673 0.885609 0.100649 -0.052886 -1003780.000000 0 0 1
9.676474 28.305976 25.745596 39.467685 1.241398 0.860154 0.092730 -0.045535 454482.000000 0 0 1
10.754774 27.826146 26.573856 39.951588 1.201983 0.843100 0.101548 -0.030883 491434.000000 0 0 1
11.940674 28.803546 26.621786 40.999310 1.177805 0.864103 0.099986 -0.033110 -387097.000000 0 0 1
11.577774 29.939456 27.390546 42.197842 1.201802 0.864398 0.100585 -0.042284 -82983.000000 0 0 1
12.628974 30.850556 27.482576 43.203469 1.182247 0.881338 0.093952 -0.033087 -565462.000000 0 0 1
12.276874 32.065930 28.384826 44.549342 1.205150 0.879995 0.079563 -0.036081 74265.000000 0 0 1
11.933374 31.852867 29.799786 45.222094 1.212341 0.851354 0.081638 -0.049398 -175662.000000 0 0 1
10.645474 31.341596 29.946406 44.636409 1.243363 0.835379 0.094524 -0.049877 -774115.000000 0 0 1
10.191874 31.241176 31.398806 45.450747 1.255450 0.808158 0.136654 -0.042113 452020.000000 0 0 1
10.835774 30.102646 32.104766 45.324379 1.225275 0.783662 0.093514 -0.042851 588840.000000 0 0 1
11.030074 30.311326 33.495341 46.501364 1.221799 0.766549 0.123296 -0.039224 -80603.300000 0 0 1
11.124274 28.916896 -33.668603 45.754903 1.203550 2.397713 0.107279 -0.038743 -193328.000000 0 0 1
12.295174 28.212106 33.849566 45.748086 1.159804 0.737857 0.115719 -0.036953 -144215.000000 0 0 1
12.143374 26.830606 -33.679603 44.739899 1.145787 2.423082 0.117867 -0.040552 413796.000000 0 0 1
13.451874 25.999806 33.913596 44.800389 1.093339 0.712097 0.111282 -0.042253 566703.000000 0 0 1
13.472974 24.662196 -33.573983 43.783070 1.070798 2.444677 0.084782 -0.044444 -345146.000000 0 0 1
13.608874 24.360976 -32.222733 42.625850 1.061348 2.427890 0.082073 -0.039768 -233774.000000 0 0 1
13.596174 22.819696 -32.094903 41.661460 1.033464 2.450224 0.076888 -0.054304 -181736.000000 0 0 1
14.763874 22.199916 -32.591833 42.107432 0.983919 2.455956 0.062360 -0.036353 19046.000000 0 0 1
14.748774 20.811416 -32.491813 41.308102 0.954264 2.476035 0.061618 -0.034378 -570254.000000 0 0 1
16.029074 20.136616 -32.953733 41.813431 0.898489 2.478535 0.084448 -0.051236 -942922.000000 0 0 1
17.130874 20.431416 -32.173663 41.785813 0.873042 2.449584 0.102464 -0.054559 -502394.000000 0 0 1
18.289874 19.823316 -32.755423 42.431133 0.825610 2.452726 0.116718 -0.052284 896499.000000 0 0 1
19.540174 19.957716 -31.798393 42.323358 0.795969 2.420857 0.101187 -0.044967 432725.000000 0 0 1
20.175474 21.199216 -32.038423 43.392592 0.810136 2.401400 0.113776 -0.039382 -182661.000000 0 0 1
21.261774 21.631916 -31.264563 43.560024 0.794027 2.371341 0.101343 -0.031540 -19007.600000 0 0 1
20.903274 21.998516 -29.799893 42.531343 0.810922 2.347115 0.082766 -0.032638 -99969.800000 0 0 1
20.208074 23.228426 -29.826073 42.866311 0.854821 2.340320 0.068211 -0.023779 -295367.000000 0 0 1
19.864374 23.733336 -28.578003 42.125608 0.873909 2.316379 0.053087 -0.014894 -99581.200000 0 0 1
20.987774 24.257756 -27.624013 42.332156 0.857545 2.281746 0.046323 -0.015391 280864.000000 0 0 1
21.813174 25.285536 -28.109723 43.650079 0.858990 2.270484 0.031454 -0.001770 -288636.000000 0 0 1
21.178474 26.553986 -28.128363 44.100416 0.897543 2.262468 0.029027 -0.000717 -286291.000000 0 0 1
21.985774 27.576176 -28.978363 45.646087 0.897720 2.258609 0.019429 0.002707 -261753.000000 0 0 1
21.960874 27.473136 -30.387763 46.480849 0.896447 2.283352 0.043505 -0.002646 -116801.000000 0 0 1
22.491474 26.301886 -31.018803 46.473882 0.863333 2.301570 0.061748 -0.012875 183632.000000 0 0 1
23.914674 25.833466 -30.603143 46.645814 0.823949 2.286402 0.074955 -0.015014 -633173.000000 0 0 1
24.839674 26.786176 -30.975533 47.895639 0.823084 2.274085 0.064788 -0.008257 -781819.000000 0 0 1
26.121074 26.501966 -30.469053 48.093949 0.792636 2.256906 0.105208 -0.018406 634895.000000 0 0 1
27.316774 27.385386 -30.997273 49.568099 0.786652 2.246373 0.084004 -0.008185 657354.000000 0 0 1
27.358974 28.624796 -30.313213 49.867658 0.808005 2.224176 0.047495 -0.004341 -434896.000000 0 0 1
28.499774 29.293446 -30.741123 51.140588 0.799130 2.215686 0.060732 -0.010433 -273430.000000 0 0 1
28.819674 30.484086 -29.828683 51.474299 0.813457 2.188895 0.045520 0.002180 -114558.000000 0 0 1
28.956974 30.068206 -28.503203 50.547363 0.804222 2.169886 0.073008 -0.006587 255732.000000 0 0 1
28.798074 31.234856 -27.736733 50.737281 0.825967 2.149183 0.042478 -0.000324 -788854.000000 0 0 1
29.272774 31.134546 -26.287813 50.172745 0.816209 2.122274 0.064432 -0.004693 -29559.000000 0 0 1
28.611674 30.283366 -25.343343 48.764692 0.813775 2.117304 0.049492 -0.000565 735098.000000 0 0 1
27.228974 30.585576 -25.133573 48.047799 0.843391 2.121275 0.030099 0.004706 223173.000000 0 0 1
26.631574 29.982386 -23.844003 46.655339 0.844516 2.107222 0.030498 0.018609 -160704.000000 0 0 1
26.990374 30.644926 -22.693003 46.717921 0.848722 2.078012 0.049404 0.005575 468010.000000 0 0 1
26.119474 30.274026 -21.597503 45.444424 0.858936 2.066045 0.041511 0.008061 544128.000000 0 0 1
3.381874 -25.712638 -19.495103 32.444350 -1.440021 2.215396 0.095187 -0.018994 -136448.000000 0 0 1
3.324574 -26.906168 -18.769603 32.974121 -1.447858 2.176356 0.108827 -0.014799 178030.000000 0 0 1
3.080274 -26.643638 -17.432403 31.988439 -1.455697 2.147137 0.110906 -0.016768 -150017.000000 0 0 1
2.929074 -27.957648 -16.597403 32.644806 -1.466409 2.104150 0.110414 -0.022389 -108628.000000 0 0 1
4.169774 -28.480978 -16.201703 33.031020 -1.425424 2.083459 0.113163 -0.022994 -182419.000000 0 0 1
4.061574 -29.136198 -14.961203 33.003818 -1.432289 2.041280 0.109109 -0.023382 180996.000000 0 0 1
5.314474 -29.967648 -14.593903 33.753305 -1.395281 2.017915 0.149621 -0.014213 403225.000000 0 0 1
6.467974 -29.201348 -14.305603 33.154241 -1.352820 2.016936 0.115784 -0.013581 483838.000000 0 0 1
7.709074 -29.908728 -14.166503 33.980165 -1.318534 2.000834 0.124237 -0.013345 912951.000000 0 0 1
8.024874 -30.401498 -12.716103 33.916795 -1.312720 1.955107 0.114606 -0.019998 -590503.000000 0 0 1
8.536574 -29.362278 -11.929103 32.822553 -1.287863 1.942757 0.106261 -0.032381 -20355.600000 0 0 1
8.780774 -29.628808 -10.558703 32.656615 -1.282683 1.900038 0.109636 -0.030371 395806.000000 0 0 1
9.827074 -30.683858 -10.066903 33.755193 -1.260850 1.873637 0.111606 -0.020195 965367.000000 0 0 1
11.194074 -30.275638 -10.058903 33.809808 -1.216646 1.872884 0.113837 -0.034725 628755.000000 0 0 1
12.113374 -31.334778 -9.789703 34.992005 -1.201913 1.854351 0.115153 -0.030635 620565.000000 0 0 1
13.434974 -30.868498 -9.138203 34.883656 -1.160291 1.835851 0.119437 -0.035961 -437921.000000 0 0 1
14.378274 -30.157278 -9.846403 34.830272 -1.125900 1.857401 0.128579 -0.055457 -669515.000000 0 0 1
15.385574 -29.841148 -8.940003 34.743829 -1.094761 1.831036 0.114285 -0.037827 337455.000000 0 0 1
16.720474 -29.255318 -9.568903 35.028728 -1.051569 1.847486 0.111050 -0.046443 833482.000000 0 0 1
16.872974 -27.861838 -9.866103 34.034090 -1.026273 1.864907 0.125553 -0.047842 339586.000000 0 0 1
15.899974 -27.401088 -10.810703 33.473872 -1.045012 1.899651 0.113289 -0.049047 -93199.400000 0 0 1
15.690774 -25.885848 -10.791603 32.136214 -1.025865 1.913259 0.117798 -0.045388 -629247.000000 0 0 1
14.783174 -25.476538 -9.750403 31.026869 -1.045013 1.890470 0.101512 -0.047493 752270.000000 0 0 1
14.096474 -24.225938 -9.978603 29.751961 -1.043810 1.912819 0.085072 -0.035714 297840.000000 0 0 1
13.491074 -23.823638 -11.317503 29.625339 -1.055533 1.962779 0.062917 -0.033001 -447353.000000 0 0 1
14.448174 -23.667438 -12.380403 30.367281 -1.022717 1.990718 0.061412 -0.031509 144364.000000 0 0 1
13.851974 -23.383838 -13.655203 30.416207 -1.036003 2.036381 0.073106 -0.033108 203731.000000 0 0 1
14.865274 -22.680938 -14.554503 30.777181 -0.990629 2.063375 0.067601 -0.036299 240810.000000 0 0 1
15.904274 -23.468238 -15.110803 32.125387 -0.975199 2.060506 0.068403 -0.031328 83378.600000 0 0 1
16.232774 -22.992438 -16.400303 32.574915 -0.956052 2.098400 0.067314 -0.034172 -371429.000000 0 0 1
17.357774 -23.761438 -17.123903 34.045944 -0.939891 2.097822 0.076494 -0.035789 951001.000000 0 0 1
18.663174 -23.608038 -16.552103 34.345679 -0.901848 2.073649 0.107549 -0.041227 711671.000000 0 0 1
19.497874 -22.590338 -17.128103 34.407301 -0.858742 2.091862 0.110600 -0.042363 -196498.000000 0 0 1
20.958774 -22.670938 -16.683003 35.093650 -0.824621 2.066198 0.098062 -0.031199 -141309.000000 0 0 1
21.702474 -23.595638 -17.476903 36.512925 -0.827167 2.069913 0.120975 -0.031892 -565148.000000 0 0 1
22.966274 -23.823538 -16.926403 37.168721 -0.803718 2.043611 0.122367 -0.009412 -134684.000000 0 0 1
23.749274 -24.915938 -17.721903 38.715602 -0.809367 2.046254 0.112447 -0.012734 35552.600000 0 0 1
24.203874 -24.479838 -18.990803 39.315908 -0.791067 2.074909 0.124799 -0.015699 -74161.300000 0 0 1
24.866674 -25.548368 -19.622303 40.695275 -0.798919 2.073934 0.116204 -0.021850 579887.000000 0 0 1
26.285674 -25.204768 -20.213103 41.650769 -0.764409 2.077502 0.107238 -0.028125 757096.000000 0 0 1
26.325574 -24.449738 -21.395103 41.815978 -0.748471 2.107899 0.128639 -0.035774 -392695.000000 0 0 1
26.439374 -23.060638 -21.044303 40.910833 -0.717247 2.111098 0.134836 -0.032845 -417917.000000 0 0 1
25.196474 -22.107938 -21.080403 39.598063 -0.720200 2.132182 0.154984 -0.031432 441257.000000 0 0 1
24.680274 -21.611138 -22.359403 39.700128 -0.719195 2.169058 0.162111 -0.026132 311771.000000 0 0 1
24.319274 -22.612338 -23.296703 40.564533 -0.749043 2.182560 0.123247 -0.029330 -358486.000000 0 0 1
23.498874 -21.982738 -24.436503 40.405204 -0.752075 2.220293 0.109586 -0.024434 28288.800000 0 0 1
24.337374 -21.386338 -25.361573 41.144776 -0.720947 2.234957 0.105513 -0.019465 11158.000000 0 0 1
23.519574 -20.596038 -26.182293 40.778421 -0.719225 2.267982 0.103538 -0.010464 229529.000000 0 0 1
24.325674 -19.758438 -27.261393 41.536946 -0.682164 2.286723 0.094031 -0.009574 41048.200000 0 0 1
23.539874 -18.782238 -27.874683 41.035303 -0.673453 2.317585 0.086722 -0.007391 11129.000000 0 0 1
24.132974 -18.268038 -29.048303 41.951467 -0.647950 2.335643 0.083097 -0.009552 97649.900000 0 0 1
23.141474 -17.341538 -29.775873 41.507341 -0.643098 2.370808 0.102007 -0.014325 841207.000000 0 0 1
21.903574 -17.847238 -30.326703 41.448756 -0.683706 2.391561 0.102786 -0.012467 814711.000000 0 0 1
21.132974 -16.844238 -30.912353 41.059768 -0.672945 2.423197 0.103025 -0.018764 405158.000000 0 0 1
19.903374 -17.522538 -31.620703 41.268057 -0.721869 2.443745 0.089982 -0.014517 491778.000000 0 0 1
20.328374 -18.206838 -32.789113 42.659790 -0.730399 2.447475 0.098800 -0.013557 697105.000000 0 0 1
19.237074 -18.944438 -33.318743 42.884675 -0.777734 2.460584 0.100942 -0.013674 288214.000000 0 0 1
19.676974 -19.695638 33.232598 43.353282 -0.785872 0.697340 0.121323 -0.017315 -149589.000000 0 0 1
20.417574 -20.824338 33.531337 44.439633 -0.795261 0.715848 0.128503 -0.017292 -382901.000000 0 0 1
20.995974 -21.422738 32.405860 44.157722 -0.795459 0.746800 0.135979 -0.022043 144555.000000 0 0 1
21.813974 -22.626438 33.006149 45.576431 -0.803678 0.760932 0.121179 -0.020362 -140297.000000 0 0 1
21.002874 -23.486238 33.745595 46.168055 -0.841160 0.751113 0.126885 -0.021441 -13877.500000 0 0 1
21.114874 -23.306338 -32.702863 45.370701 -0.834692 2.375741 0.122319 -0.024305 -132695.000000 0 0 1
20.144074 -24.231838 -31.910803 44.847130 -0.877256 2.362493 0.119264 -0.026561 14638.100000 0 0 1
20.385874 -25.638598 -31.826483 45.671070 -0.899035 2.341811 0.128508 -0.035378 -235557.000000 0 0 1
21.569774 -26.020188 -31.181993 45.985020 -0.878643 2.315957 0.105471 -0.027534 -143096.000000 0 0 1
21.723574 -27.578728 -31.048963 46.867238 -0.903605 2.294931 0.100515 -0.031009 -111776.000000 0 0 1
20.739174 -28.052678 -30.148263 46.108392 -0.934182 2.283466 0.099087 -0.030310 167115.000000 0 0 1
20.668974 -29.453878 -30.317233 47.051802 -0.958903 2.270953 0.094762 -0.021212 -43788.100000 0 0 1
19.235374 -29.867588 -29.906453 46.437790 -0.998635 2.270526 0.116467 -0.023411 169879.000000 0 0 1
18.141574 -29.602538 -30.737323 46.370357 -1.020990 2.295436 0.126341 -0.033903 -88345.200000 0 0 1
18.019774 -30.484988 -31.851973 47.629769 -1.036944 2.303310 0.131371 -0.034171 -42465.600000 0 0 1
16.580974 -30.899338 -32.271233 47.656377 -1.078289 2.314699 0.142856 -0.046343 504445.000000 0 0 1
15.763274 -29.988798 -32.973433 47.276380 -1.086849 2.342645 0.146131 -0.040273 -124282.000000 0 0 1
14.511974 -30.526458 -33.311803 47.456699 -1.127030 2.348915 0.109652 -0.027239 -135944.000000 0 0 1
13.570774 -29.543788 33.816766 46.910287 -1.140199 0.765723 0.098684 -0.012586 -196033.000000 0 0 1
12.740874 -28.817168 -33.194573 45.767223 -1.154508 2.382254 0.116312 -0.024367 -250338.000000 0 0 1
11.606074 -28.303148 -33.835873 45.613983 -1.181645 2.406528 0.093630 -0.027627 269173.000000 0 0 1
10.637574 -27.424368 -32.989453 44.199072 -1.200775 2.413407 0.111029 -0.028107 345920.000000 0 0 1
9.745974 -28.093808 -32.136793 43.783782 -1.236878 2.394972 0.099356 -0.022574 -145768.000000 0 0 1
8.705074 -27.283538 -31.661203 42.691938 -1.261947 2.406279 0.060991 -0.023264 10641.800000 0 0 1
7.719574 -28.075768 -30.778903 42.369582 -1.302472 2.383922 0.042292 -0.021930 347124.000000 0 0 1
6.657374 -28.893688 -31.295793 43.111396 -1.344339 2.383180 0.048754 -0.029263 837567.000000 0 0 1
7.097474 -30.065548 -31.955783 44.446410 -1.338974 2.373120 0.058218 -0.025620 -412957.000000 0 0 1
5.917074 -30.971328 -32.284873 45.128128 -1.382021 2.367999 0.085608 -0.039058 2977.730000 0 0 1
5.301074 -31.683318 -31.221643 44.796484 -1.405018 2.341955 0.089638 -0.056789 -507786.000000 0 0 1
4.206674 -32.398518 -31.649463 45.486796 -1.441677 2.340322 0.115628 -0.080981 -1067070.000000 0 0 1
3.163874 -32.731128 -30.538533 44.876930 -1.474433 2.319234 0.096989 -0.078218 -336999.000000 0 0 1
2.274174 -31.721168 -30.214233 43.866892 -1.499226 2.330588 0.095122 -0.070744 209178.000000 0 0 1
0.991074 -31.918828 -30.825323 44.384618 -1.539756 2.338527 0.085242 -0.043737 172477.000000 0 0 1
0.035574 -30.769028 -30.523213 43.340522 -1.569640 2.352184 0.065481 -0.026569 -270344.000000 0 0 1
-0.734526 -30.861068 -29.328643 42.580680 1.547000 2.330599 0.039936 -0.025255 389968.000000 0 0 1
-1.530826 -29.693078 -29.129303 41.623774 1.519287 2.345947 0.093099 -0.019152 -51165.500000 0 0 1
-2.367026 -29.743148 -27.834803 40.804827 1.491381 2.321488 0.094946 -0.021005 -388228.000000 0 0 1
-1.640526 -29.609298 -26.615793 39.847237 1.515447 2.302241 0.064344 -0.019564 -440648.000000 0 0 1
-2.239026 -30.046538 -25.426393 39.424728 1.496415 2.271735 0.087722 -0.025925 -7493.140000 0 0 1
-1.209826 -30.404568 -24.304603 38.943744 1.531026 2.244769 0.048984 -0.026248 236392.000000 0 0 1
-1.776426 -30.420318 -23.031503 38.196879 1.512467 2.218013 0.095175 -0.036038 -285581.000000 0 0 1
-0.812426 -30.805788 -22.067203 37.902745 1.544430 2.192236 0.078038 -0.034967 287821.000000 0 0 1
-1.308726 -30.543618 -20.626203 36.879067 1.527975 2.164329 0.036273 -0.014252 -93844.300000 0 0 1
-1.409126 -29.161808 -20.232603 35.521190 1.522513 2.176806 0.025884 -0.012818 380313.000000 0 0 1
-0.238426 -28.610328 -19.618903 34.691628 1.562463 2.171863 0.059745 -0.024125 523649.000000 0 0 1
-0.516926 -27.158358 -19.151203 33.235707 1.551765 2.184897 0.068277 -0.034474 -299947.000000 0 0 1
-1.443226 -27.006868 -18.133303 32.561795 1.517408 2.161432 0.052490 -0.028556 -375082.000000 0 0 1
-1.248326 -25.798178 -17.472703 31.183323 1.522446 2.165571 0.064244 -0.027423 292524.000000 0 0 1
-2.254726 -25.663248 -16.282803 30.476479 1.483163 2.134445 0.053956 -0.018950 -199060.000000 0 0 1
-2.172626 -24.453138 -15.627203 29.101301 1.482180 2.137665 0.045278 -0.016957 354013.000000 0 0 1
-3.093626 -24.468638 -14.535503 28.628056 1.445031 2.103351 0.046143 -0.011824 49863.800000 0 0 1
-2.837526 -23.429438 -13.418403 27.148548 1.450274 2.087778 0.042528 -0.003990 142378.000000 0 0 1
-1.633226 -23.650338 -12.697503 26.892982 1.501849 2.062524 0.047333 -0.011048 35626.900000 0 0 1
-1.410526 -22.628038 -11.739103 25.530849 1.508542 2.048567 0.051119 -0.011211 428492.000000 0 0 1
-0.116226 -22.701838 -10.878703 25.174057 1.565677 2.017660 0.059256 -0.019227 464684.000000 0 0 1
0.236774 -21.411938 -10.385203 23.798731 -1.559739 2.022364 0.048542 -0.016230 191490.000000 0 1 0
1.502274 -21.424538 -9.705103 23.568129 -1.500792 1.995213 0.046343 -0.016075 625393.000000 0 1 0
1.825074 -19.982238 -9.547903 22.221233 -1.479714 2.014929 0.040070 -0.017936 -1153400.000000 0 1 0
2.282674 -19.414738 -10.762803 22.315479 -1.453759 2.074077 0.042059 -0.007098 -188364.000000 0 1 0
2.861374 -18.117738 -10.684503 21.227305 -1.414158 2.098253 0.023586 -0.009997 -294423.000000 0 1 0
4.326474 -18.262038 -10.215403 21.367613 -1.338174 2.069262 0.043046 -0.030735 -655139.000000 0 1 0
4.503974 -18.803138 -8.914503 21.291128 -1.335693 2.002805 0.049988 -0.025118 -570427.000000 0 1 0
5.691374 -19.538838 -8.764903 22.158101 -1.287354 1.977476 0.067067 -0.017672 -180361.000000 0 1 0
5.477974 -20.548238 -7.617003 22.588869 -1.310265 1.914739 0.066232 -0.027564 -101370.000000 0 1 0
4.649974 -21.608438 -8.020703 23.513369 -1.358836 1.918896 0.069556 -0.036064 -126380.000000 0 1 0
4.506074 -22.696638 -7.166003 24.223825 -1.374810 1.871115 0.084514 -0.025443 -431891.000000 0 1 0
3.470574 -23.648038 -7.700803 25.111291 -1.425077 1.882486 0.087293 -0.020229 -510287.000000 0 0 1
3.899074 -24.254138 -8.919203 26.134616 -1.411401 1.919074 0.093892 -0.030503 -117917.000000 0 0 1
2.954774 -25.092538 -9.529903 27.003430 -1.453581 1.931481 0.075624 -0.022711 152191.000000 0 0 1
3.655374 -25.959848 -10.645403 28.294877 -1.430907 1.956521 0.068079 -0.025725 574044.000000 0 0 1
4.569374 -26.951038 -10.157403 29.161798 -1.402850 1.926566 0.079366 -0.030784 59628.800000 0 0 1
5.026274 -27.795648 -11.138503 30.363263 -1.391900 1.946408 0.093745 -0.028251 -109954.000000 0 0 1
4.766174 -29.330818 -11.016303 31.691832 -1.409707 1.925814 0.092471 -0.028634 515966.000000 0 0 1
3.386774 -29.701078 -11.144203 31.903253 -1.457258 1.927634 0.104501 -0.023499 610407.000000 0 0 1
3.212174 -31.096108 -11.126603 33.182635 -1.467863 1.912735 0.107709 -0.026913 -504978.000000 0 0 1
1.856474 -31.584488 -11.613403 33.703079 -1.512086 1.922588 0.083081 -0.032562 -573842.000000 0 0 1
1.676374 -31.396718 -13.013003 34.027965 -1.517454 1.963211 0.095025 -0.034854 323115.000000 0 0 1
0.968074 -32.452218 -13.637403 35.214520 -1.540974 1.968461 0.081859 -0.027394 -140914.000000 0 0 1
0.581674 -32.249418 -15.118803 35.622205 -1.552762 2.009118 0.081135 -0.019321 -148359.000000 0 0 1
-0.474326 -31.357358 -15.322203 34.903851 1.555671 2.025263 0.079361 -0.017939 -200066.000000 0 0 1
-0.953226 -31.193458 -16.657703 35.375409 1.540247 2.061089 0.041128 -0.015934 -28693.100000 0 0 1
-2.156926 -30.276898 -16.795003 34.690273 1.499676 2.076178 0.040077 -0.002999 -401685.000000 0 0 1
-3.367226 -30.763948 -16.310403 34.982681 1.461777 2.055835 0.051005 -0.013943 -266101.000000 0 0 1
-4.528026 -30.216648 -16.916103 34.924252 1.422051 2.076434 0.066508 -0.009963 1179310.000000 0 0 1
-5.855626 -30.445288 -16.110103 34.939080 1.380784 2.050021 0.069778 -0.013251 214013.000000 0 0 1
-6.051726 -29.489988 -15.077303 33.669093 1.368393 2.035109 0.046810 -0.005371 350495.000000 0 0 1
-7.413826 -29.213148 -14.779503 33.567939 1.322260 2.026714 0.060189 -0.006148 303378.000000 0 0 1
-8.122926 -30.199438 -13.847603 34.201522 1.308039 1.987647 0.057561 -0.014932 -295592.000000 0 0 1
-8.237126 -31.476908 -14.340403 35.556900 1.314848 1.985926 0.070264 -0.022359 -271984.000000 0 0 1
-8.747426 -32.201048 -13.240903 35.899115 1.305547 1.948553 0.070824 -0.024407 56322.700000 0 0 1
-9.057626 -33.681778 -13.628703 37.446553 1.308094 1.943302 0.111119 -0.037564 727434.000000 0 0 1
-7.893926 33.283659 -13.932703 36.935568 -1.337928 1.957585 0.113724 -0.034521 577638.000000 0 0 1
-8.297926 32.042004 -14.432003 36.108562 -1.317393 1.981968 0.130607 -0.048081 -425587.000000 0 0 1
-6.910526 -21.845138 -3.293703 23.147654 1.264415 1.713572 0.039903 -0.015564 -9253.030000 0 1 0
-7.025426 -20.914738 -4.313003 22.480767 1.246730 1.763846 0.042305 -0.014824 -235892.000000 0 1 0
-5.843126 -20.678738 -5.024603 22.068053 1.295409 1.800498 0.033850 -0.019833 -285894.000000 0 1 0
-6.085226 -19.614138 -6.126403 21.430754 1.269965 1.860710 0.050985 -0.022527 171896.000000 0 1 0
-7.013726 -20.016738 -7.146503 22.381570 1.233771 1.895790 0.058852 -0.022448 216138.000000 0 1 0
-7.227326 -18.992338 -8.040003 21.853713 1.207178 1.947547 0.050142 -0.025326 205590.000000 0 1 0
-8.256226 -19.308338 -9.160803 22.910641 1.166726 1.982149 0.060812 -0.026079 484301.000000 0 1 0
-7.651026 -20.167838 -10.098903 23.817383 1.208202 2.008669 0.068009 -0.013530 277659.000000 0 1 0
-8.581926 -20.377138 -11.152703 24.764087 1.172187 2.037963 0.090212 -0.015569 175677.000000 0 1 0
-8.003626 -21.272638 -12.190803 25.791449 1.210939 2.063113 0.074797 -0.003494 571143.000000 0 0 1
-6.914126 -20.619738 -12.894603 25.283384 1.247263 2.105985 0.061290 0.007468 536370.000000 0 0 1
-6.577026 -21.463638 -13.983703 26.447854 1.273454 2.127897 0.044288 0.006667 390626.000000 0 0 1
-5.494026 -20.919738 -14.982503 26.311502 1.313972 2.176606 0.035406 0.010801 689943.000000 0 0 1
-4.232526 -20.628338 -14.392503 25.506602 1.368425 2.170340 0.036972 0.001274 964534.000000 0 0 1
-3.185226 -20.087638 -15.228503 25.407994 1.413539 2.213496 0.048762 0.003191 785942.000000 0 0 1
-3.296626 -18.584338 -15.559503 24.461061 1.395235 2.260220 0.058585 0.006329 -1068520.000000 0 1 0
-4.435626 -18.276838 -16.292303 24.882860 1.332708 2.284661 0.053289 0.014038 -394447.000000 0 1 0
-4.308826 -18.347538 -17.736903 25.880415 1.340131 2.325868 0.076930 -0.001770 69671.300000 0 0 1
-5.754126 -18.224238 -18.297303 26.457969 1.264962 2.334444 0.061056 0.012203 523150.000000 0 0 1
-6.523626 -19.349138 -17.969903 27.200446 1.245612 2.292477 0.041238 0.007503 -193509.000000 0 0 1
-7.908426 -19.163538 -18.177303 27.571702 1.179406 2.290649 0.040297 0.007031 361687.000000 0 0 1
-8.781326 -20.375138 -17.770203 28.426010 1.163869 2.246106 0.080849 -0.006943 9898.710000 0 0 1
-8.533726 -21.532338 -18.498703 29.642336 1.193465 2.244729 0.079885 -0.001996 9929.990000 0 0 1
-9.264326 -22.628938 -18.017603 30.373189 1.182211 2.205834 0.119460 -0.000403 38720.400000 0 0 1
-8.844326 -23.993038 -18.691103 31.674048 1.217630 2.201989 0.130126 -0.021847 -655812.000000 0 0 1
-9.089426 -23.883238 -20.028503 32.467948 1.207145 2.235556 0.113976 -0.027697 347058.000000 0 0 1
-8.319826 -24.727538 -20.903903 33.431180 1.246234 2.246289 0.123629 -0.048951 -689596.000000 0 0 1
-6.821826 -24.535138 -21.005003 33.010914 1.299603 2.260495 0.106002 -0.032285 -1331230.000000 0 0 1
-6.433326 -23.304238 -21.595403 32.416610 1.301447 2.299876 0.139120 -0.055517 50988.100000 0 0 1
-6.247326 -22.166438 -20.719903 30.978935 1.296085 2.303442 0.106690 -0.044675 -376344.000000 0 0 1
-5.197026 -22.210838 -19.575103 30.058527 1.340945 2.280004 0.107698 -0.024860 158078.000000 0 0 1
-3.833026 -22.235938 -19.933603 30.107766 1.400094 2.294381 0.090801 -0.039384 49979.100000 0 0 1
-3.021926 -21.888038 -18.824803 29.027426 1.433601 2.276432 0.052915 -0.029912 946661.000000 0 0 1
-1.555526 -22.445338 -18.816603 29.330486 1.501604 2.267297 0.088576 -0.038131 360510.000000 0 0 1
-0.634826 -21.823138 -19.637703 29.364804 1.541715 2.303322 0.131553 -0.043556 -1407040.000000 0 0 1
0.573674 -22.484538 -19.529303 29.787199 -1.545288 2.285810 0.095828 -0.040047 -650018.000000 0 0 1
1.715874 -21.816138 -20.304403 29.852251 -1.492306 2.318782 0.089945 -0.038578 -74705.900000 0 0 1
1.426874 -21.850538 -21.692503 30.822827 -1.505587 2.351501 0.086498 -0.047743 -1070830.000000 0 0 1
2.450774 -21.472238 -22.512503 31.206988 -1.457151 2.376608 0.086454 -0.044440 -1024530.000000 0 0 1
2.014574 -21.530038 -24.022803 32.321759 -1.477498 2.408696 0.116292 -0.050942 748031.000000 0 0 1
1.289474 -20.338638 -24.486703 31.857834 -1.507481 2.447484 0.114719 -0.044990 1463230.000000 0 0 1
-0.101726 -20.279938 -24.064803 31.470637 1.565780 2.441333 0.137884 -0.046869 717938.000000 0 0 1
-0.922726 -19.272438 -24.836703 31.450598 1.522955 2.481125 0.147804 -0.054138 -49063.900000 0 0 1
-0.502526 -17.928638 -24.587003 30.433687 1.542774 2.511355 0.111437 -0.040896 135094.000000 0 0 1
-1.342326 -17.048038 -25.300293 30.537555 1.492221 2.547216 0.125707 -0.051238 265539.000000 0 0 1
-0.882226 -15.599638 -24.933703 29.424761 1.514302 2.581812 0.121001 -0.029893 470088.000000 0 0 1
0.412974 -15.278638 -25.405233 29.648494 -1.543773 2.599985 0.119985 -0.030796 -426585.000000 0 0 1
0.919174 -14.024838 -25.058593 28.731064 -1.505351 2.630433 0.108711 -0.027386 -45549.000000 0 0 1
0.485574 -12.731638 -25.763203 28.741486 -1.532676 2.682324 0.108275 -0.022322 -247387.000000 0 0 1
1.194474 -11.602438 -25.358963 27.912727 -1.468207 2.710498 0.098234 -0.022150 -276610.000000 0 0 1
0.868574 -10.478638 -26.132353 28.168354 -1.488095 2.759055 0.094961 -0.025817 -79781.100000 0 0 1
1.805574 -9.261738 -25.793133 27.464988 -1.378261 2.790879 0.102464 -0.030476 153935.000000 0 0 1
3.162174 -9.233538 -26.092363 27.858014 -1.240849 2.783650 0.082021 -0.021920 -786128.000000 0 0 1
3.426974 -9.267238 -27.485493 29.207502 -1.216597 2.796494 0.084457 -0.027517 117056.000000 0 0 1
4.918974 -8.981138 -27.884603 29.705357 -1.069720 2.789654 0.085566 -0.026221 649363.000000 0 0 1
5.277974 -7.633138 -27.589903 29.108840 -0.965828 2.817119 0.073636 -0.034168 749467.000000 0 0 1
6.419774 -7.126138 -28.316643 29.896950 -0.837497 2.815002 0.082193 -0.025653 1435890.000000 0 0 1
7.788074 -7.017038 -27.504933 29.434916 -0.733366 2.777458 0.090447 -0.024415 1059280.000000 0 0 1
8.327274 -8.190438 -26.949063 29.371394 -0.777114 2.732614 0.081337 -0.029087 329440.000000 0 0 1
9.018874 -8.980138 -27.914363 30.678895 -0.783246 2.713811 0.089598 -0.034805 -489931.000000 0 0 1
9.311174 -10.400238 -27.443013 30.789314 -0.840592 2.671036 0.079112 -0.029954 916070.000000 0 0 1
8.172674 -11.321038 -27.452763 30.799557 -0.945522 2.671081 0.085222 -0.032455 1171110.000000 0 0 1
8.474774 -12.531938 -26.789093 30.765675 -0.976186 2.627514 0.084357 -0.030012 445116.000000 0 0 1
9.561174 -13.546838 -27.308953 31.948580 -0.956197 2.595920 0.077654 -0.035593 346991.000000 0 0 1
9.096474 -14.224538 -28.456633 33.088718 -1.001844 2.606086 0.089025 -0.044123 -119849.000000 0 0 1
9.928474 -15.277638 -28.885093 34.151565 -0.994513 2.578843 0.075977 -0.036117 -296807.000000 0 0 1
9.310374 -16.031538 -30.060833 35.317799 -1.044649 2.588973 0.072372 -0.042937 -174391.000000 0 0 1
9.148374 -15.157238 -31.162003 35.839992 -1.027760 2.624936 0.086368 -0.041431 -37174.700000 0 0 1
8.461274 -15.743838 -32.201893 36.829655 -1.077652 2.634885 0.104304 -0.037521 -901430.000000 0 0 1
7.187074 -15.028738 -32.655383 36.659119 -1.124722 2.669865 0.116551 -0.043088 -390098.000000 0 0 1
7.323474 -13.800838 -33.434213 36.904512 -1.082927 2.704451 0.129214 -0.040853 -863087.000000 0 0 1
6.109274 -13.292438 -33.844313 36.870715 -1.139983 2.733599 0.112516 -0.055452 -781102.000000 0 0 1
6.250374 -11.964738 33.217210 35.855337 -1.089390 0.385998 0.153349 -0.042317 -7192.410000 0 0 1
6.795074 -12.101738 31.897421 34.786069 -1.059170 0.410404 0.154338 -0.038702 327700.000000 0 0 1
6.919274 -10.898338 31.131726 33.702144 -1.005115 0.393086 0.160138 -0.037164 -436531.000000 0 0 1
7.251574 -11.093438 29.631306 32.460191 -0.991837 0.420584 0.173906 -0.031133 6472.830000 0 0 1
6.308674 -11.831538 28.856436 31.819469 -1.080936 0.434977 0.151809 -0.026634 210136.000000 0 0 1
6.772074 -12.074238 27.504896 30.792329 -1.059646 0.466298 0.139473 -0.024711 221053.000000 0 0 1
5.702974 -12.765338 26.591346 30.042927 -1.150644 0.484062 0.110001 -0.045935 247463.000000 0 0 1
5.501074 -14.073138 27.090076 31.019144 -1.198166 0.508791 0.111678 -0.037685 -27604.500000 0 0 1
4.995874 -14.939638 26.082836 30.470738 -1.248083 0.543322 0.062620 -0.029990 490608.000000 0 0 1
3.455774 -15.205638 26.070126 30.377710 -1.347323 0.539045 0.060353 -0.041574 476015.000000 0 0 1
2.704374 -14.043738 25.735526 29.442444 -1.380557 0.507224 0.063609 -0.043136 382438.000000 0 0 1
1.498274 -14.415838 25.066856 28.955284 -1.467236 0.524231 0.045061 -0.033525 285779.000000 0 0 1
0.531774 -13.297438 24.691386 28.049406 -1.530827 0.494340 0.036361 -0.032423 -511493.000000 0 0 1
1.116974 -12.390038 23.704706 26.770763 -1.480888 0.483292 0.017417 -0.010937 436225.000000 0 0 1
0.347774 -11.221438 23.353446 25.911871 -1.539814 0.448117 0.025047 -0.006312 -370.960000 0 0 1
-1.042026 -11.432138 22.745216 25.477921 1.479899 0.467401 0.029297 -0.015169 -667658.000000 0 0 1
-1.014926 -12.006838 21.457916 24.609681 1.486468 0.511666 0.027726 -0.012182 320475.000000 0 1 0
-2.183826 -12.822738 21.324616 24.978610 1.402106 0.547718 0.042325 -0.019726 546528.000000 0 1 0
-2.249226 -13.433738 19.920416 24.131874 1.404904 0.599742 0.061889 -0.023587 210102.000000 0 1 0
-1.251626 -14.426238 19.699116 24.448683 1.484253 0.633884 0.077186 -0.030811 -71622.800000 0 1 0
-1.397526 -15.208238 18.527416 24.010596 1.479161 0.689389 0.084095 -0.031432 339846.000000 0 1 0
-2.400526 -16.393938 18.700516 24.984656 1.425402 0.725029 0.082396 -0.028200 291701.000000 0 1 0
-2.584426 -17.240838 17.613316 24.782144 1.422003 0.780267 0.067938 -0.028427 -167132.000000 0 1 0
-3.611426 -18.158238 17.947416 25.785146 1.374472 0.800933 0.088337 -0.023640 223633.000000 0 0 1
-3.437826 -19.568638 17.232316 26.300247 1.396891 0.856329 0.090108 -0.030728 -354092.000000 0 0 1
-2.286526 -20.152338 17.741216 26.946163 1.457817 0.852112 0.106153 -0.033746 -579734.000000 0 0 1
-2.277926 -21.472438 17.269116 27.649176 1.465106 0.896203 0.109852 -0.052048 341984.000000 0 0 1
-1.113326 -22.272738 17.934616 28.617561 1.520852 0.893486 0.130119 -0.043857 -132909.000000 0 0 1
0.090574 -22.070738 17.283016 28.032630 -1.566693 0.906466 0.129810 -0.052908 -1205220.000000 0 0 1
1.043274 -22.992838 17.757616 29.070465 -1.525454 0.913666 0.142315 -0.034015 289909.000000 0 0 1
2.419374 -22.955838 17.046016 28.694783 -1.465791 0.934717 0.139873 -0.046766 339750.000000 0 0 1
3.196774 -21.798438 17.336516 28.034730 -1.425183 0.904099 0.141492 -0.037469 240125.000000 0 0 1
4.136974 -21.551238 16.269016 27.317601 -1.381143 0.932845 0.134170 -0.042143 376620.000000 0 0 1
5.131274 -20.452638 16.646516 26.865347 -1.324984 0.902528 0.112642 -0.027703 -849783.000000 0 0 1
6.246174 -20.832938 17.412916 27.861006 -1.279503 0.895675 0.110916 -0.016531 -51776.500000 0 0 1
7.056674 -19.770038 17.877416 27.572687 -1.227954 0.865349 0.117096 -0.016414 183455.000000 0 0 1
7.957174 -19.006138 16.965316 26.690295 -1.174305 0.881964 0.114678 -0.022935 -690253.000000 0 0 1
7.142574 -18.197238 16.128616 25.343404 -1.196765 0.880970 0.094784 -0.021315 582796.000000 0 0 1
7.917474 -17.339838 15.273716 24.426273 -1.142462 0.895282 0.128902 -0.028880 157214.000000 0 1 0
7.004174 -16.518438 14.372016 22.988521 -1.169755 0.895431 0.076954 -0.023003 20557.600000 0 1 0
6.171774 -17.255938 13.496316 22.759806 -1.227313 0.936030 0.087520 -0.028591 171941.000000 0 1 0
5.466874 -16.421938 12.599416 21.408224 -1.249435 0.941555 0.053689 -0.024658 -14721.900000 0 1 0
6.089774 -16.515338 11.193516 20.859927 -1.217530 1.004389 0.056975 -0.027497 61807.100000 0 1 0
7.464374 -16.196738 11.192316 21.055146 -1.138951 1.010341 0.065909 -0.021804 -232688.000000 0 1 0
8.044274 -16.443038 9.943616 20.831691 -1.115809 1.073181 0.069720 -0.023068 976632.000000 0 1 0
9.602274 -16.191138 10.023716 21.326779 -1.035497 1.081499 0.074816 -0.011854 1057630.000000 0 1 0
10.235774 -16.598438 8.833416 21.408140 -1.018209 1.145468 0.074967 -0.010295 -48557.800000 0 1 0
11.557574 -16.055038 8.796916 21.650116 -0.946857 1.152371 0.072709 -0.011407 625216.000000 0 1 0
12.533974 -16.846338 7.878816 22.427112 -0.931135 1.211829 0.076683 -0.018069 -93709.700000 0 1 0
13.059874 -17.967738 8.455216 23.767428 -0.942276 1.207082 0.104201 -0.025861 -259781.000000 0 1 0
13.669274 -18.829338 7.543416 24.460093 -0.942862 1.257289 0.082965 -0.025781 30473.400000 0 1 0
14.303674 -20.047138 8.205516 25.957915 -0.951066 1.249172 0.082560 -0.029235 -166354.000000 0 0 1
13.323574 -20.830038 8.805516 26.247766 -1.001744 1.228685 0.087719 -0.023917 -179239.000000 0 0 1
13.930174 -22.002838 9.228616 27.628645 -1.006388 1.230227 0.068507 -0.018229 219128.000000 0 0 1
12.955874 -22.915338 10.002616 28.160606 -1.056222 1.207669 0.094569 -0.022988 130107.000000 0 0 1
12.746974 -22.444238 11.328916 28.188181 -1.054284 1.157202 0.107796 -0.023751 -496336.000000 0 0 1
11.783074 -22.999338 12.162516 28.561113 -1.097340 1.130904 0.129841 -0.031537 -565076.000000 0 0 1
12.108674 -24.438638 12.590616 30.039818 -1.110777 1.138308 0.102143 -0.031236 -672085.000000 0 0 1
13.147274 -24.547238 13.479816 30.937407 -1.079083 1.119967 0.088629 -0.029303 -746530.000000 0 0 1
13.261174 -25.925568 13.855916 32.248725 -1.097984 1.126683 0.095559 -0.046138 -226622.000000 0 0 1
14.497874 -26.166778 14.723516 33.341724 -1.064844 1.113421 0.072606 -0.033290 -280601.000000 0 0 1
14.570774 -25.408738 15.908716 33.331647 -1.050124 1.073233 0.073258 -0.029589 -61941.600000 0 0 1
15.619874 -25.896588 16.708316 34.551144 -1.028054 1.066054 0.078904 -0.032422 -227850.000000 0 0 1
15.558574 -25.394438 18.169916 34.886854 -1.021108 1.022980 0.100893 -0.030955 78097.600000 0 0 1
15.969674 -24.022838 18.278816 34.150291 -0.984108 1.005997 0.077494 -0.028676 493740.000000 0 0 1
17.278074 -23.925938 18.846216 35.016599 -0.945360 1.002487 0.072348 -0.027693 496728.000000 0 0 1
17.745774 -22.480838 19.202416 34.482363 -0.902569 0.980176 0.071779 -0.027008 -104429.000000 0 0 1
17.853874 -21.617338 18.030116 33.333995 -0.880458 0.999298 0.069063 -0.022993 149074.000000 0 0 1
16.671574 -20.904938 17.756416 32.097479 -0.897585 0.984592 0.090365 -0.025781 -545553.000000 0 0 1
16.999974 -19.790438 16.679916 30.965790 -0.861101 1.001955 0.068946 -0.021200 21794.500000 0 0 1
17.719274 -18.703538 17.152916 30.951859 -0.812415 0.983418 0.058465 -0.022498 332986.000000 0 0 1
19.123374 -18.874938 17.305816 31.960257 -0.778860 0.998601 0.047950 -0.018410 -158310.000000 0 0 1
19.900474 -17.592638 17.551916 31.837078 -0.723922 0.986870 0.057505 -0.019448 -383274.000000 0 0 1
19.901474 -17.183138 18.909416 32.386648 -0.712228 0.947316 0.055249 -0.006595 158894.000000 0 0 1
20.675374 -16.011138 19.028016 32.340270 -0.658939 0.941756 0.056793 -0.010226 -283925.000000 0 0 1
21.335674 -15.901938 20.399216 33.529251 -0.640500 0.916753 0.044757 -0.006191 -422855.000000 0 0 1
22.292274 -16.905238 20.583716 34.733585 -0.648821 0.936492 0.050649 0.000920 -393461.000000 0 0 1
22.781574 -16.915038 21.882516 35.832432 -0.638676 0.913864 0.065651 -0.001083 -146825.000000 0 0 1
34.433051 -1.177838 -7.522703 35.264903 -0.034193 1.785768 0.118534 -0.022536 373252.000000 0 0 1
35.721591 -0.783038 -7.998603 36.614517 -0.021917 1.791027 0.135347 -0.032555 535188.000000 0 0 1
36.574671 -1.880638 -8.170403 37.523310 -0.051374 1.790297 0.172859 -0.049896 1432480.000000 0 0 1
-36.911566 -1.503038 -8.703703 37.953620 0.040697 1.802180 0.157969 -0.045337 920174.000000 0 0 1
-36.012146 -2.535538 -8.748303 37.146149 0.070292 1.808540 0.190245 -0.037404 236242.000000 0 0 1
-34.708587 -2.078738 -9.142103 35.952541 0.059820 1.827902 0.287479 -0.051864 501441.000000 0 0 1
-33.576726 -3.102238 -9.142903 34.937273 0.092131 1.835574 0.262539 -0.043748 -148348.000000 0 0 1
-33.191726 -3.522238 -7.852603 34.289360 0.105722 1.801857 0.243571 -0.050600 591681.000000 0 0 1
-31.874946 -4.072938 -7.841303 33.076986 0.127090 1.810137 0.230881 -0.063188 317028.000000 0 0 1
-31.420436 -4.426638 -6.402703 32.370256 0.139963 1.769905 0.208540 -0.080134 -116892.000000 0 0 1
-31.137096 -3.255938 -5.632703 31.809546 0.104189 1.748811 0.214168 -0.074350 522089.000000 0 0 1
-30.361666 -3.601738 -4.484003 30.901611 0.118076 1.716416 0.212962 -0.063191 -31903.400000 0 0 1
-30.093396 -2.385638 -3.593503 30.400937 0.079109 1.689277 0.232439 -0.065066 652069.000000 0 0 1
-28.917266 -1.642438 -4.016703 29.241063 0.056737 1.708597 0.226012 -0.062829 1152440.000000 0 0 1
-28.902476 -0.374238 -3.409103 29.105242 0.012948 1.688196 0.246256 -0.074339 -291908.000000 0 0 1
-27.579176 0.218162 -2.886503 27.730677 -0.007910 1.675076 0.284043 -0.052717 -194584.000000 0 0 1
-27.041086 -0.385938 -1.701303 27.097300 0.014271 1.633623 0.259947 -0.051974 -49349.400000 0 0 1
-25.654606 -0.186738 -1.766903 25.716057 0.007279 1.639559 0.234686 -0.047571 -312596.000000 0 0 1
-24.917526 -0.747538 -0.487003 24.933493 0.029991 1.590330 0.216927 -0.044991 111668.000000 0 1 0
-24.958226 -2.140038 -0.354303 25.052312 0.085536 1.584939 0.207045 -0.040639 635844.000000 0 0 1
-24.015126 -2.517738 0.677697 24.156253 0.104458 1.542738 0.174071 -0.034577 533430.000000 0 1 0
-23.974026 -4.048338 0.936197 24.331449 0.167285 1.532310 0.167891 -0.025366 -23651.100000 0 1 0
-25.139776 -4.320738 1.677297 25.563459 0.170206 1.505136 0.175123 -0.036884 199437.000000 0 0 1
-25.356186 -5.753538 1.660197 26.053706 0.223130 1.507031 0.150734 -0.018536 217193.000000 0 0 1
-26.649626 -6.255038 2.368497 27.476132 0.230541 1.484487 0.162100 -0.021792 237296.000000 0 0 1
-26.572976 -6.334838 3.726997 27.570704 0.234026 1.435202 0.162893 -0.024886 -213464.000000 0 0 1
-27.663066 -7.077038 4.199797 28.861184 0.250458 1.424761 0.167800 -0.009925 -205899.000000 0 0 1
-27.538186 -7.599238 5.640797 29.119043 0.269252 1.375849 0.167474 -0.009758 537961.000000 0 0 1
-26.516526 -8.623638 5.844097 28.489414 0.314429 1.364198 0.162692 -0.004954 748914.000000 0 0 1
-26.423116 -9.108538 7.164297 28.852620 0.331962 1.319865 0.160076 -0.022378 -180586.000000 0 0 1
-25.854586 -8.146638 8.202297 28.321458 0.305247 1.276973 0.127751 -0.020186 311095.000000 0 0 1
-24.453626 -7.912038 8.033097 26.927882 0.312922 1.267865 0.131757 -0.018635 354720.000000 0 0 1
-24.084526 -6.663938 8.445597 26.378032 0.269936 1.244882 0.139240 -0.024053 435987.000000 0 0 1
-22.672726 -6.180638 7.972697 24.815654 0.266136 1.243719 0.113160 -0.027145 703828.000000 0 1 0
-21.584926 -6.850438 8.566397 24.211995 0.307317 1.209157 0.097565 -0.028250 -993460.000000 0 1 0
-20.383026 -6.381638 8.099197 22.842724 0.303419 1.208349 0.089661 -0.019366 -750096.000000 0 1 0
-19.236626 -6.761838 9.065797 22.314993 0.338018 1.152434 0.084819 -0.010729 -57369.600000 0 1 0
-19.232626 -5.898038 10.218597 22.563255 0.297563 1.100796 0.086064 -0.002502 64258.400000 0 1 0
-17.952126 -5.945038 10.780297 21.767800 0.319794 1.052685 0.075775 -0.019559 -367618.000000 0 1 0
-17.746926 -4.787638 11.746597 21.814156 0.263500 1.002158 0.077770 -0.016427 39806.700000 0 1 0
-18.751026 -4.840838 12.732297 23.176412 0.252647 0.989193 0.100589 -0.024612 132632.000000 0 1 0
-19.283426 -3.602538 13.114097 23.596786 0.184691 0.981522 0.130384 -0.024619 -397861.000000 0 1 0
-20.564726 -3.674038 13.924197 25.105572 0.176792 0.982883 0.132827 -0.035299 -665609.000000 0 0 1
-20.384126 -4.265738 15.214697 25.791396 0.206291 0.939844 0.140727 -0.036010 -608510.000000 0 0 1
-21.541726 -4.277738 15.963797 27.151203 0.196029 0.942263 0.138893 -0.025520 -728847.000000 0 0 1
-21.369826 -4.935338 17.337097 27.957145 0.226969 0.901886 0.131598 -0.021371 187933.000000 0 0 1
-22.496526 -4.681038 18.165197 29.291299 0.205151 0.901854 0.129659 -0.022369 764403.000000 0 0 1
-22.276526 -5.271538 19.418897 30.018765 0.232366 0.867295 0.133547 -0.010895 -616504.000000 0 0 1
-23.187426 -4.778738 20.489497 31.309943 0.203246 0.857396 0.134806 -0.016895 -886671.000000 0 0 1
-23.094526 -3.376838 20.739797 31.223378 0.145189 0.844320 0.142713 -0.030036 400776.000000 0 0 1
-23.676926 -2.987338 21.984697 32.447618 0.125508 0.826378 0.139879 -0.027405 -96139.100000 0 0 1
-23.694326 -1.497838 22.135797 32.460100 0.063131 0.820386 0.125594 -0.017405 -146106.000000 0 0 1
-24.864026 -1.035338 21.506697 32.891180 0.041616 0.858103 0.132228 -0.027238 -60389.300000 0 0 1
-25.035766 0.334162 21.587397 33.059294 -0.013347 0.859270 0.124233 -0.021241 269542.000000 0 0 1
-26.499216 0.753462 21.272297 33.989510 -0.028426 0.894577 0.126002 -0.029444 165963.000000 0 0 1
-27.363906 0.646962 22.352197 35.338684 -0.023638 0.886002 0.129507 -0.027001 -1118020.000000 0 0 1
-28.664706 1.016862 22.033597 36.168754 -0.035459 0.915759 0.108728 -0.025362 -714595.000000 0 0 1
-29.468526 1.002762 23.346097 37.609039 -0.034015 0.901088 0.092085 -0.016911 -698128.000000 0 0 1
-29.131156 2.032462 24.198297 37.925093 -0.069656 0.878827 0.087949 -0.020186 115879.000000 0 0 1
-29.907336 1.997762 25.397097 39.286796 -0.066699 0.867869 0.083672 -0.025466 -195996.000000 0 0 1
-29.624836 3.029962 26.466297 39.840638 -0.101923 0.844234 0.105213 -0.030755 644378.000000 0 0 1
-28.349536 2.705962 27.063897 39.287058 -0.095162 0.810860 0.092824 -0.037276 1042780.000000 0 0 1
-28.089636 3.562162 28.145597 39.923568 -0.126141 0.788391 0.085403 -0.030682 137364.000000 0 0 1
-26.754406 3.154562 28.829997 39.457803 -0.117366 0.751517 0.111668 -0.031223 145770.000000 0 0 1
-26.919166 2.074962 29.693997 40.133283 -0.076929 0.737898 0.104633 -0.032445 749035.000000 0 0 1
-25.674446 1.717062 30.300997 39.752684 -0.066779 0.704033 0.093365 -0.031093 500679.000000 0 0 1
-25.702896 0.477662 31.211897 40.435746 -0.018582 0.688990 0.094391 -0.034691 180831.000000 0 0 1
-26.293066 -0.690138 30.615497 40.362238 0.026242 0.709760 0.075221 -0.032590 262448.000000 0 0 1
-26.771816 -1.631238 31.532097 41.396427 0.060856 0.704847 0.066449 -0.027783 -681642.000000 0 0 1
-27.529666 -2.736638 30.812297 41.409773 0.099081 0.731636 0.069907 -0.022655 -8891.790000 0 0 1
-28.838326 -2.544138 30.303297 41.909563 0.087993 0.762569 0.082449 -0.032507 311511.000000 0 0 1
-29.004756 -1.651338 29.197597 41.188620 0.056872 0.782894 0.078676 -0.034295 -854067.000000 0 0 1
-30.477546 -1.525838 28.835097 41.984185 0.050023 0.813707 0.078374 -0.049097 -346333.000000 0 0 1
-31.256316 -0.837838 29.781397 43.180908 0.026799 0.809737 0.097347 -0.039605 -451040.000000 0 0 1
-32.577716 -0.567138 29.374097 43.868745 0.017407 0.837139 0.090922 -0.044446 227545.000000 0 0 1
-33.489166 -0.186438 30.572197 45.345542 0.005567 0.830908 0.093293 -0.036012 10103.800000 0 0 1
-33.637766 -1.234638 31.482897 46.089005 0.036687 0.818812 0.101278 -0.034618 -37003.200000 0 0 1
-34.308550 -0.938938 32.686997 47.396181 0.027361 0.809784 0.118691 -0.032008 42445.200000 0 0 1
-34.419832 -2.253038 33.481397 48.070833 0.065364 0.800286 0.123005 -0.032172 180850.000000 0 0 1
-35.390149 -3.180038 33.000297 48.493246 0.089616 0.822333 0.120481 -0.030766 278031.000000 0 0 1
-35.510358 -4.367638 33.785097 49.208684 0.122382 0.814038 0.102600 -0.023057 469923.000000 0 0 1
-36.802486 -5.220538 33.526497 50.056997 0.140913 0.836902 0.096669 -0.020876 933308.000000 0 0 1
36.937711 -4.626838 -33.819322 50.294618 -0.124612 2.308276 0.092668 -0.031656 -180657.000000 0 0 1
35.843311 -5.248138 33.463097 49.315969 -0.145386 0.825016 0.097567 -0.029023 -633937.000000 0 0 1
34.412521 -4.748138 33.813497 48.478026 -0.137111 0.798891 0.106374 -0.030641 319193.000000 0 0 1
33.789791 -5.322238 -32.869722 47.439380 -0.156227 2.336270 0.107894 -0.026842 244624.000000 0 0 1
33.266321 -6.602138 -33.075522 47.373268 -0.195917 2.343662 0.116437 -0.032273 -624114.000000 0 0 1
31.817691 -6.669838 -33.580322 46.738530 -0.206635 2.372399 0.105940 -0.035738 -173937.000000 0 0 1
30.815411 -6.692438 -32.580622 45.341760 -0.213857 2.372521 0.110874 -0.031245 357438.000000 0 0 1
29.517341 -6.745038 -33.153422 44.898979 -0.224654 2.401492 0.092101 -0.023693 771244.000000 0 0 1
28.329741 -6.664238 -32.134822 43.354735 -0.231038 2.405663 0.096534 -0.026469 158801.000000 0 0 1
27.082241 -7.076338 -32.606522 42.973336 -0.255577 2.432206 0.078004 -0.021384 67381.300000 0 0 1
26.042041 -6.680338 -31.700622 41.566143 -0.251107 2.438204 0.070161 -0.022407 356183.000000 0 0 1
24.597841 -7.094538 -32.104622 41.062063 -0.280800 2.468434 0.053149 -0.022891 273057.000000 0 0 1
24.327341 -8.475838 -32.158922 41.205043 -0.335256 2.466199 0.060542 -0.024461 97677.200000 0 0 1
24.236141 -8.957138 -30.812722 40.212494 -0.354008 2.443777 0.066234 -0.025469 -566664.000000 0 0 1
24.028641 -10.494338 -30.757122 40.416671 -0.411775 2.435651 0.084039 -0.026382 -87717.300000 0 0 1
22.808641 -10.932738 -31.298222 40.240993 -0.446971 2.461906 0.088037 -0.029841 -151178.000000 0 0 1
22.688341 -12.328538 -31.107922 40.428412 -0.497751 2.448787 0.084407 -0.025588 -653052.000000 0 0 1
21.594841 -13.070438 -31.930622 40.703048 -0.544276 2.472649 0.072059 -0.021723 568363.000000 0 0 1
20.251441 -12.723738 -31.619022 39.645642 -0.560960 2.494004 0.063089 -0.019899 115808.000000 0 0 1
19.845341 -11.472138 -32.148222 39.483613 -0.524144 2.522175 0.059962 -0.021518 -832534.000000 0 0 1
18.424641 -11.112938 -31.679322 38.295486 -0.542737 2.544963 0.049892 -0.027446 338562.000000 0 0 1
17.333141 -11.793938 -32.317222 38.521910 -0.597469 2.566112 0.035858 -0.013355 -407734.000000 0 0 1
16.176241 -11.288038 -31.710722 37.345153 -0.609259 2.585124 0.076000 -0.023778 -52673.600000 0 0 1
14.928241 -11.529438 -32.614422 37.675998 -0.657636 2.617254 0.076952 -0.018982 -275091.000000 0 0 1
14.564241 -12.905638 -32.801622 38.139468 -0.725092 2.606152 0.086050 -0.014493 -199829.000000 0 0 1
13.358141 -12.974138 -33.510822 38.337232 -0.770816 2.634390 0.075348 -0.017238 -590043.000000 0 0 1
12.114441 -13.183738 -32.662422 37.247878 -0.827641 2.640157 0.063313 -0.025145 -1027970.000000 0 0 1
11.932741 -12.078338 -31.813522 36.060737 -0.791462 2.651354 0.130980 -0.020297 -166703.000000 0 0 1
10.874941 -12.293538 -30.880022 34.971005 -0.846551 2.653050 0.124776 -0.031193 520226.000000 0 0 1
9.523841 -11.747238 -31.390022 34.843000 -0.889547 2.692633 0.117734 -0.028063 -337462.000000 0 0 1
9.600641 -10.307238 -31.573122 34.572728 -0.820877 2.721958 0.116462 -0.018698 933646.000000 0 0 1
8.290641 -9.776538 -31.837622 34.321270 -0.867456 2.758827 0.110941 -0.017330 563232.000000 0 0 1
8.459841 -8.296938 -32.171922 34.284700 -0.775677 2.788696 0.133610 -0.028889 -116935.000000 0 0 1
8.653441 -7.441838 -31.041722 33.073426 -0.710263 2.789259 0.122070 -0.034046 334986.000000 0 0 1
9.110741 -6.123338 -31.513922 33.371067 -0.591755 2.806405 0.120083 -0.014240 31478.300000 0 0 1
9.022941 -4.894238 -30.579722 32.256572 -0.497006 2.817736 0.103820 -0.025218 277642.000000 0 0 1
7.762741 -4.571638 -30.020222 31.342842 -0.532233 2.850050 0.105575 -0.024072 79722.100000 0 0 1
8.020841 -3.469638 -29.208122 30.487484 -0.408272 2.850868 0.114637 -0.019639 750932.000000 0 0 1
6.698041 -2.943038 -28.559622 29.481812 -0.413994 2.890816 0.097928 -0.013803 -182310.000000 0 0 1
5.899741 -2.211138 -29.457022 30.123284 -0.358583 2.930880 0.093956 -0.011182 -395384.000000 0 0 1
4.698641 -1.699038 -28.969122 29.396836 -0.346973 2.970800 0.096437 -0.014712 159930.000000 0 0 1
3.529241 -2.722438 -28.826522 29.169086 -0.657054 2.988184 0.081027 -0.017109 -447764.000000 0 0 1
3.782241 -3.788938 -27.851422 28.361296 -0.786283 2.951688 0.081838 -0.019392 -74751.800000 0 0 1
2.689641 -4.687638 -27.767822 28.288868 -1.049885 2.949366 0.089241 -0.020213 330473.000000 0 0 1
2.888941 -5.702938 -26.623222 27.380019 -1.101906 2.905929 0.072445 -0.032686 76631.300000 0 0 1
2.736941 -5.216938 -25.342722 26.018471 -1.087643 2.913185 0.077590 -0.030637 -182816.000000 0 0 1
3.197841 -6.160838 -24.420522 25.387871 -1.092018 2.864655 0.080262 -0.035974 125480.000000 0 0 1
3.088341 -5.533738 -22.968822 23.827020 -1.061761 2.872386 0.100981 -0.046128 -26149.000000 0 1 0
4.016541 -4.475838 -22.830422 23.609191 -0.839429 2.884032 0.094603 -0.039992 13826.100000 0 1 0
3.896841 -3.861638 -21.547322 22.234763 -0.780861 2.892281 0.079029 -0.035740 37025.700000 0 1 0
4.730141 -2.572138 -21.251422 21.922889 -0.498052 2.893455 0.079722 -0.031866 -437059.000000 0 1 0
6.070741 -2.879238 -21.041922 22.088603 -0.442862 2.832515 0.078457 -0.030615 -876215.000000 0 1 0
6.774641 -1.699738 -20.702722 21.849201 -0.245823 2.816207 0.084809 -0.019947 810374.000000 0 1 0
8.266541 -1.988738 -20.296122 22.005075 -0.236090 2.744885 0.099250 -0.030113 384650.000000 0 1 0
9.062841 -2.456938 -21.349322 23.323061 -0.264737 2.727232 0.105624 -0.041017 169123.000000 0 1 0
10.245241 -3.171538 -21.060322 23.633890 -0.300206 2.670575 0.090862 -0.045850 682943.000000 0 1 0
11.481341 -2.447738 -20.465822 23.593696 -0.210048 2.620805 0.096269 -0.039898 -315830.000000 0 1 0
11.480841 -2.377438 -19.063222 22.380088 -0.204193 2.590196 0.092365 -0.028527 262518.000000 0 1 0
12.740241 -1.999138 -18.543222 22.586752 -0.155646 2.533918 0.095648 -0.031785 -37741.800000 0 1 0
13.146341 -0.503638 -18.529822 22.725189 -0.038291 2.524194 0.103829 -0.028025 -241449.000000 0 1 0
13.408841 0.046562 -19.773722 23.891406 0.003472 2.545704 0.105705 -0.033307 128241.000000 0 1 0
13.366041 1.452962 -19.644122 23.804488 0.108280 2.541401 0.121357 -0.041048 -56302.400000 0 1 0
13.866041 2.183362 -20.883622 25.162667 0.156179 2.549805 0.116499 -0.031127 245490.000000 0 0 1
15.273641 2.087462 -21.079422 26.114816 0.135829 2.510160 0.133865 -0.026992 536371.000000 0 0 1
15.584641 2.990962 -22.156122 27.252901 0.189612 2.520052 0.137684 -0.029698 423095.000000 0 0 1
17.065041 2.889262 -22.627422 28.487957 0.167718 2.488618 0.120788 -0.018247 446072.000000 0 0 1
17.176841 1.762262 -23.495422 29.157920 0.102238 2.507820 0.101665 -0.010801 233401.000000 0 0 1
18.535041 1.480862 -23.755922 30.167607 0.079726 2.477481 0.098740 -0.014570 -108245.000000 0 0 1
10.073074 27.099962 3.257697 29.094456 1.214921 1.458591 0.028528 -0.013520 -41696.000000 0 0 1
10.225274 27.073262 4.657297 29.312253 1.209670 1.411234 0.035665 -0.008125 1000380.000000 0 0 1
11.543274 27.475762 5.081297 30.232173 1.173061 1.401919 0.034314 -0.005273 340482.000000 0 0 1
11.512374 27.974662 6.541097 30.949999 1.180391 1.357846 0.039099 -0.013323 -85925.400000 0 0 1
11.383974 26.994862 7.557897 30.256227 1.171717 1.318326 0.046218 -0.017388 211102.000000 0 0 1
11.383274 27.646562 8.816097 31.171059 1.180208 1.284053 0.051272 -0.013564 -363194.000000 0 0 1
11.277874 26.718262 10.020497 30.683323 1.171382 1.238116 0.072830 -0.020066 364759.000000 0 0 1
12.454874 26.046462 10.450797 30.704417 1.124757 1.223488 0.062981 -0.018634 47884.600000 0 0 1
12.998474 25.021362 9.698197 29.817510 1.091675 1.239518 0.071472 -0.022700 -425140.000000 0 0 1
14.312674 24.493362 10.289097 30.176861 1.041964 1.222859 0.092320 -0.027168 -222490.000000 0 0 1
15.366574 25.398862 10.269597 31.411756 1.026701 1.237738 0.079551 -0.024089 -1497640.000000 0 0 1
16.552274 24.971662 10.772197 31.837115 0.985446 1.225630 0.080165 -0.027293 -666203.000000 0 0 1
17.638474 26.061562 10.967997 33.325932 0.975811 1.235432 0.071690 -0.024697 -574484.000000 0 0 1
18.269774 26.486562 9.794197 33.634044 0.966966 1.275316 0.060131 -0.025138 930874.000000 0 0 1
19.708774 26.499962 9.848197 34.462599 0.931321 1.280992 0.077033 -0.038424 1276910.000000 0 0 1
20.484374 27.422062 10.854397 35.908175 0.929216 1.263711 0.069992 -0.036480 -880300.000000 0 0 1
20.487874 28.805262 10.585597 36.899200 0.952557 1.279829 0.071548 -0.047140 -515070.000000 0 0 1
19.314474 29.465862 10.938697 36.890934 0.990574 1.269755 0.058908 -0.023574 -507354.000000 0 0 1
19.440974 31.008062 11.083597 38.239999 1.010785 1.276734 0.062911 -0.018790 -755816.000000 0 0 1
19.702074 31.768762 9.912697 38.674120 1.015677 1.311590 0.084110 -0.046562 -59008.600000 0 0 1
18.662074 31.754762 8.972397 37.909654 1.039475 1.331851 0.090361 -0.046775 27991.800000 0 0 1
17.284974 32.365262 9.352997 37.865011 1.080274 1.321204 0.081743 -0.038851 -314019.000000 0 0 1
17.417774 33.690762 9.721497 39.152954 1.093650 1.319876 0.079285 -0.043301 -238515.000000 0 0 1
16.203974 -33.380392 9.841797 38.388544 -1.118869 1.311528 0.088438 -0.033912 -218643.000000 0 0 1
16.385774 -31.860392 10.271697 37.270443 -1.095775 1.291584 0.095596 -0.023149 303865.000000 0 0 1
17.098474 -31.222892 9.169097 36.760021 -1.069777 1.318703 0.102891 -0.032266 517789.000000 0 0 1
17.195474 -29.868792 9.249997 35.684612 -1.048436 1.308587 0.072445 -0.036829 -34584.900000 0 0 1
17.712774 -29.359492 7.854097 35.176824 -1.027949 1.345624 0.072185 -0.030717 123253.000000 0 0 1
16.839874 -29.630892 6.753497 34.744508 -1.053996 1.375175 0.078505 -0.029507 -8209.450000 0 0 1
17.334274 -29.098692 5.533997 34.319616 -1.033540 1.408840 0.064272 -0.018106 -121048.000000 0 0 1
16.557074 -29.326392 4.221897 33.941102 -1.056829 1.446084 0.072133 -0.027854 -132128.000000 0 0 1
16.562674 -30.630992 3.760397 35.024569 -1.075109 1.463224 0.085420 -0.030662 25866.800000 0 0 1
16.728274 -30.653092 2.357297 35.000058 -1.071238 1.503394 0.073226 -0.025416 -39380.000000 0 0 1
17.080774 -32.123692 1.908897 36.432517 -1.082097 1.518377 0.068354 -0.024377 85116.400000 0 0 1
18.442774 -32.504792 2.029597 37.427486 -1.054703 1.516542 0.075051 -0.021868 394792.000000 0 0 1
18.634474 -33.847092 1.469097 38.665585 -1.067532 1.532792 0.085953 -0.026260 1076170.000000 0 0 1
20.134274 33.418362 1.675097 39.051016 1.028547 1.527888 0.107596 -0.034495 1318850.000000 0 0 1
20.414574 33.162562 3.023697 39.059610 1.018992 1.493306 0.102954 -0.053500 577621.000000 0 0 1
21.818074 33.054362 3.276697 39.741112 0.987377 1.488252 0.117477 -0.042194 502495.000000 0 0 1
22.151274 32.512462 4.634497 39.613353 0.972720 1.453534 0.129190 -0.039900 -132054.000000 0 0 1
21.755674 31.164162 4.693997 38.295534 0.961347 1.447914 0.114023 -0.055689 221106.000000 0 0 1
22.343274 30.521662 5.829197 38.272357 0.938885 1.417893 0.094145 -0.054857 765623.000000 0 0 1
21.319674 29.803362 6.809997 37.271235 0.949846 1.387050 0.087476 -0.059193 -233239.000000 0 0 1
20.757174 28.651162 6.267797 35.930971 0.943830 1.395459 0.095057 -0.049502 407149.000000 0 0 1
19.493874 28.361862 6.869697 35.094146 0.968626 1.373774 0.088910 -0.052784 386664.000000 0 0 1
18.310174 28.969962 6.106897 34.811139 1.007151 1.394454 0.071775 -0.044227 -1082240.000000 0 0 1
18.125574 30.381262 6.218597 35.919750 1.032878 1.396795 0.071153 -0.040160 149843.000000 0 0 1
18.078674 31.025262 4.962797 36.249617 1.043188 1.433459 0.086311 -0.048768 -102229.000000 0 0 1
18.003574 32.564462 5.013897 37.546132 1.065760 1.436857 0.097762 -0.048582 -466357.000000 0 0 1
16.752674 32.998662 5.451897 37.407044 1.101026 1.424530 0.070619 -0.038688 -590062.000000 0 0 1
16.589874 -33.316992 5.507297 37.624144 -1.108798 1.423892 0.076230 -0.040959 -1734080.000000 0 0 1
15.262874 -32.750792 5.858997 36.604611 -1.134692 1.410043 0.076311 -0.035629 -1515880.000000 0 0 1
14.322474 -33.175792 4.917297 36.468428 -1.163252 1.435547 0.071042 -0.024005 320288.000000 0 0 1
13.421974 -32.059692 4.569197 35.054968 -1.174312 1.440081 0.066876 -0.023216 612381.000000 0 0 1
12.394074 -32.269192 3.462097 34.740465 -1.204086 1.470975 0.061133 -0.020485 -314122.000000 0 0 1
11.493374 -31.220992 3.291097 33.431711 -1.218062 1.472194 0.065731 -0.019482 -56177.200000 0 0 1
10.880874 -31.200692 2.006097 33.104396 -1.235246 1.510160 0.066164 -0.010290 -214745.000000 0 0 1
9.942574 -29.975692 1.794497 31.632532 -1.250527 1.514036 0.063985 -0.006507 69695.500000 0 0 1
9.416974 -29.624792 0.514197 31.089743 -1.263022 1.554256 0.079313 -0.006699 91311.600000 0 0 1
8.366974 -30.461292 0.090297 31.589630 -1.302732 1.567938 0.067700 -0.005397 -137070.000000 0 0 1
8.807974 -31.099592 -1.292603 32.348661 -1.294806 1.610765 0.093757 -0.013993 417336.000000 0 0 1
9.917774 -31.976892 -1.126003 33.498533 -1.270050 1.604416 0.084640 -0.011860 27822.500000 0 0 1
10.109874 -32.849592 -2.220403 34.441769 -1.272233 1.635309 0.094845 -0.013456 -436710.000000 0 0 1
11.445474 -33.576992 -2.147103 35.539039 -1.242276 1.631248 0.080098 -0.014589 -553914.000000 0 0 1
11.610674 33.314262 -1.032103 35.294660 1.235441 1.600043 0.068304 -0.010995 -697067.000000 0 0 1
12.779174 32.585162 -1.000403 35.015723 1.197051 1.599370 0.080207 -0.017481 -988024.000000 0 0 1
12.960974 31.681262 0.158097 34.230311 1.182465 1.566178 0.062646 -0.020826 -715570.000000 0 0 1
13.164474 32.242262 1.461897 34.856907 1.183156 1.528844 0.053810 -0.014575 360822.000000 0 0 1
14.382474 32.941162 1.736997 35.986009 1.159132 1.522509 0.062426 -0.018485 1951150.000000 0 0 1
15.673274 31.923862 1.754497 35.607060 1.114408 1.521503 0.056359 -0.025018 644497.000000 0 0 1
16.149974 31.537162 0.509597 35.435490 1.097521 1.556415 0.070326 -0.028430 -218008.000000 0 0 1
16.819174 30.285262 0.633797 34.647993 1.063848 1.552503 0.077229 -0.022323 -169352.000000 0 0 1
17.568574 29.834462 -0.639503 34.628874 1.038602 1.589265 0.075540 -0.019997 78071.100000 0 0 1
18.670374 30.605262 -1.030503 35.865399 1.023029 1.599533 0.060838 -0.013575 -44498.800000 0 0 1
18.261174 31.687862 -1.858603 36.620288 1.047998 1.621572 0.077947 -0.026335 -399988.000000 0 0 1
19.410974 32.471962 -2.483503 37.912821 1.032013 1.636349 0.076587 -0.019989 110785.000000 0 0 1
20.234374 33.144562 -1.503703 38.861974 1.022700 1.609499 0.072173 -0.018898 319160.000000 0 0 1
21.284274 33.835562 -2.141203 40.030617 1.009290 1.624311 0.069971 -0.012562 -601159.000000 0 0 1
22.268174 -33.142892 -1.179603 39.946393 -0.979191 1.600330 0.079790 -0.012071 -898360.000000 0 0 1
23.109674 33.827462 -0.348603 40.969205 0.971460 1.579305 0.085226 -0.017743 535079.000000 0 0 1
24.088974 32.996362 -0.938503 40.864647 0.940186 1.593764 0.081656 -0.011336 -116440.000000 0 0 1
25.024774 33.635962 -1.996603 41.971463 0.931154 1.618385 0.072449 -0.009420 -963213.000000 0 0 1
24.280674 -33.681292 -3.155603 41.640586 -0.946184 1.646651 0.067170 -0.013413 91722.300000 0 0 1
25.163074 -33.040592 -4.058403 41.729266 -0.919925 1.668206 0.057560 -0.011302 68598.900000 0 0 1
24.518874 -32.629092 -5.426003 41.173709 -0.926373 1.702964 0.053052 -0.014454 -242147.000000 0 0 1
23.479774 -31.702492 -5.234203 39.796290 -0.933320 1.702703 0.068895 -0.016812 -83719.400000 0 0 1
23.050474 -31.332192 -6.526303 39.441390 -0.936523 1.737029 0.074915 -0.022782 -384242.000000 0 0 1
22.116174 -30.107492 -6.570503 37.930960 -0.937241 1.744897 0.090492 -0.023053 138626.000000 0 0 1
20.815474 -30.360392 -6.078903 37.309388 -0.969792 1.734458 0.108936 -0.020365 -479174.000000 0 0 1
20.123974 -29.204092 -5.917803 35.956553 -0.967436 1.736131 0.115894 -0.026458 -59593.600000 0 0 1
18.882874 -29.155892 -4.992603 35.093519 -0.996073 1.713546 0.102515 -0.015400 168084.000000 0 0 1
17.762174 -29.823492 -5.497503 35.144815 -1.033636 1.727866 0.110317 -0.023502 -671944.000000 0 0 1
16.680874 -29.648092 -4.627503 34.331832 -1.058309 1.705995 0.082388 -0.015963 300418.000000 0 0 1
15.325574 -30.294192 -5.036703 34.321708 -1.102447 1.718078 0.072419 -0.017489 483268.000000 0 0 1
15.371874 -31.714392 -5.082803 35.608034 -1.119466 1.714029 0.075117 -0.003705 -163603.000000 0 0 1
14.125974 -32.277292 -5.434103 35.649631 -1.158265 1.723824 0.082951 -0.000616 130760.000000 0 0 1
14.194774 -33.844492 -5.446703 37.102666 -1.173669 1.718130 0.082998 -0.012730 11806.300000 0 0 1
14.112574 33.326162 -4.116103 36.424444 1.170224 1.684042 0.091357 -0.025897 -17908.600000 0 0 1
14.398474 31.940162 -4.180703 35.284108 1.147281 1.689562 0.086145 -0.027146 723873.000000 0 0 1
13.193374 31.041262 -4.716503 34.056871 1.168903 1.709732 0.078598 -0.026560 878737.000000 0 0 1
12.270674 30.560062 -3.719503 33.140934 1.188975 1.683266 0.077148 -0.027457 549380.000000 0 0 1
12.820274 29.417862 -3.030603 32.232818 1.159815 1.664958 0.079876 -0.032162 -261523.000000 0 0 1
11.736174 28.538962 -2.440903 30.954291 1.180644 1.649733 0.070723 -0.030063 -81075.600000 0 0 1
10.927174 29.146662 -1.434303 31.160685 1.212111 1.616842 0.073490 -0.030370 -201077.000000 0 0 1
10.149474 28.210262 -0.748703 29.989853 1.225436 1.595764 0.055716 -0.024919 288201.000000 0 0 1
8.970974 28.939662 -0.035103 30.298245 1.270201 1.571955 0.037132 -0.009143 886593.000000 0 0 1
7.975274 28.171962 0.661497 29.286550 1.294922 1.548207 0.030144 -0.009353 47166.800000 0 0 1
6.908874 28.967962 1.074297 29.799823 1.336670 1.534738 0.052397 -0.003715 -405989.000000 0 0 1
5.872874 28.164362 1.861797 28.830335 1.365221 1.506174 0.059498 -0.011013 -74715.800000 0 0 1
5.153274 27.244762 1.082497 27.748966 1.383857 1.531776 0.059628 -0.015006 -1013120.000000 0 0 1
4.063474 26.726062 1.714297 27.087507 1.419910 1.507467 0.063913 -0.023134 -519981.000000 0 0 1
3.212574 25.796462 0.815297 26.008514 1.446899 1.539444 0.068007 -0.024200 606250.000000 0 0 1
1.883774 25.435262 1.174097 25.531934 1.496870 1.524795 0.066173 -0.019443 493413.000000 0 0 1
1.297774 24.692262 0.132397 24.726697 1.518287 1.565442 0.046096 -0.012890 428156.000000 0 1 0
-0.034026 23.942762 0.466997 23.947340 -1.569375 1.551294 0.046149 -0.013543 508285.000000 0 1 0
-1.076526 24.866062 0.651597 24.897882 -1.527530 1.544623 0.053838 -0.017279 -586234.000000 0 1 0
-2.289126 24.185762 0.888997 24.310111 -1.476430 1.534219 0.044583 -0.013110 -551834.000000 0 1 0
-3.362526 25.088062 1.506097 25.357164 -1.437561 1.511366 0.080443 -0.030311 149212.000000 0 0 1
-4.587926 24.338462 1.358197 24.804324 -1.384478 1.516012 0.076681 -0.024757 216869.000000 0 1 0
-5.679126 24.925162 2.018497 25.643527 -1.346774 1.492001 0.078276 -0.029935 -68902.100000 0 0 1
-6.843426 25.323762 1.097797 26.255105 -1.306863 1.528971 0.088970 -0.031591 -135502.000000 0 0 1
-6.642926 26.505462 0.335597 27.327287 -1.325230 1.558515 0.091229 -0.033605 444811.000000 0 0 1
-7.806326 26.644062 -0.478203 27.768209 -1.285787 1.588018 0.093729 -0.029743 360000.000000 0 0 1
-7.616426 27.725662 -1.566203 28.795403 -1.302703 1.625214 0.084443 -0.027726 -82876.500000 0 0 1
-7.457926 29.009762 -1.015303 29.970282 -1.319162 1.604680 0.122175 -0.043100 -92082.900000 0 0 1
-7.672426 30.044262 -1.970003 31.070962 -1.320769 1.634242 0.112909 -0.039745 -116689.000000 0 0 1
-7.404926 31.425162 -1.292603 32.311678 -1.339381 1.610811 0.092905 -0.039471 -769570.000000 0 0 1
-7.772626 32.583662 -1.981703 33.556458 -1.336629 1.629886 0.082190 -0.022322 -582907.000000 0 0 1
-7.126326 32.973462 -3.174103 33.883752 -1.357947 1.664610 0.072637 -0.024032 -1189860.000000 0 0 1
-5.634826 33.204862 -3.336503 33.844444 -1.402699 1.669540 0.088965 -0.022647 -722971.000000 0 0 1
-5.096526 -33.470292 -2.614303 33.956878 1.419687 1.647861 0.090461 -0.026925 59429.500000 0 0 1
-4.859926 -33.802892 -1.240303 34.172982 1.428002 1.607099 0.111461 -0.037415 -810433.000000 0 0 1
-4.656826 -32.597492 -0.284103 32.929671 1.428898 1.579424 0.111750 -0.033453 379504.000000 0 0 1
-5.772426 -31.706692 -0.146403 32.228196 1.390712 1.575339 0.095584 -0.031632 231683.000000 0 0 1
-5.816526 -30.692592 -1.137303 31.259568 1.383508 1.607187 0.108528 -0.026172 690354.000000 0 0 1
-7.242626 -30.030592 -1.229703 30.916084 1.334141 1.610582 0.112312 -0.032685 682133.000000 0 0 1
-7.538926 -29.357892 -0.048003 30.310452 1.319434 1.572380 0.104408 -0.023884 202564.000000 0 0 1
-8.746026 -28.589092 -0.101203 29.897147 1.273916 1.574181 0.039809 -0.014512 403902.000000 0 0 1
-8.957026 -27.848092 1.220497 29.278561 1.259608 1.529099 0.058149 -0.012272 -565632.000000 0 0 1
-7.849726 -27.092992 1.571797 28.250999 1.288785 1.515131 0.068299 -0.017747 -848189.000000 0 0 1
-7.856526 -26.600892 2.884597 27.886436 1.283613 1.467170 0.081715 -0.011306 764842.000000 0 0 1
-8.912826 -25.498592 3.387097 27.222951 1.234530 1.446052 0.062633 -0.003781 637363.000000 0 0 1
-8.549026 -24.168792 2.925097 25.802568 1.230810 1.457188 0.067408 -0.008511 -207374.000000 0 0 1
-9.322326 -23.146292 3.512997 25.199161 1.187916 1.430931 0.059905 -0.012337 -220771.000000 0 0 1
-8.494926 -21.855192 3.648297 23.730218 1.200077 1.416444 0.031735 0.001608 308508.000000 0 1 0
-7.655426 -21.937792 4.805897 23.726966 1.235048 1.366835 0.030677 0.001567 -408742.000000 0 1 0
-6.866226 -20.809992 5.000797 22.476850 1.252095 1.346432 0.013587 0.002980 -200625.000000 0 1 0
-7.541726 -19.594292 5.724197 21.761901 1.203380 1.304627 0.013936 -0.004258 102781.000000 0 1 0
-8.060326 -19.894992 7.000497 22.578452 1.185864 1.255548 0.010027 -0.006424 209388.000000 0 1 0
-8.638426 -18.737892 7.614297 21.993374 1.138821 1.217269 0.001727 -0.009912 -581507.000000 0 1 0
-28.743606 29.475662 -5.604003 41.550143 -0.797972 1.706082 0.090491 0.000976 -449397.000000 0 0 1
-27.729146 30.029162 -4.837503 41.158930 -0.825199 1.688601 0.083634 -0.015966 77158.600000 0 0 1
-26.637936 29.189462 -4.454403 39.767399 -0.831070 1.683043 0.064951 -0.007941 753362.000000 0 0 1
-25.594626 29.953262 -3.610003 39.564060 -0.863704 1.662168 0.054726 -0.012350 -264608.000000 0 0 1
-26.182796 30.331062 -2.350103 40.137702 -0.858669 1.629381 0.035805 -0.017872 723926.000000 0 0 1
-25.290946 31.057062 -1.473903 40.079239 -0.887374 1.607579 0.032595 -0.019851 233727.000000 0 0 1
-24.097126 30.303762 -0.873703 38.726642 -0.898998 1.593359 0.036553 -0.008587 -468207.000000 0 0 1
-23.132026 29.976162 -1.817003 37.907287 -0.913563 1.618748 0.083562 -0.023123 -753426.000000 0 0 1
-21.873326 29.850362 -1.220603 37.026698 -0.938417 1.603768 0.083750 -0.018255 -1147000.000000 0 0 1
-20.708826 29.509862 -2.089503 36.111680 -0.958890 1.628691 0.101028 -0.021699 -335815.000000 0 0 1
-19.513826 29.434262 -1.321403 35.339939 -0.985362 1.608196 0.117474 -0.018860 317714.000000 0 0 1
-18.459926 28.654562 -1.872603 34.137361 -0.998493 1.625679 0.116758 -0.017139 313694.000000 0 0 1
-17.075726 28.924762 -1.254303 33.612431 -1.037503 1.608122 0.125367 -0.023896 -188215.000000 0 0 1
-16.854726 28.637362 0.120897 33.229428 -1.038833 1.567158 0.123006 -0.035598 -269270.000000 0 0 1
-15.601926 29.114662 0.535197 33.035890 -1.078859 1.554595 0.131633 -0.046344 42429.400000 0 0 1
-15.016826 28.389562 1.787697 32.166258 -1.084253 1.515191 0.132967 -0.046019 -469820.000000 0 0 1
-15.812026 28.566862 2.906497 32.780077 -1.065263 1.482013 0.114467 -0.042163 -519470.000000 0 0 1
-15.452526 27.960862 4.123997 32.211763 -1.065922 1.442416 0.112017 -0.054540 901520.000000 0 0 1
-14.186626 28.484462 4.971197 32.207728 -1.108712 1.415829 0.123910 -0.046188 1200920.000000 0 0 1
-14.223026 29.696862 5.708997 33.418419 -1.124138 1.399120 0.098531 -0.048716 -260023.000000 0 0 1
-14.233126 30.876562 4.897097 34.350044 -1.138858 1.427744 0.113887 -0.046090 -92861.100000 0 0 1
-13.887526 32.128162 5.744797 35.469492 -1.162798 1.408115 0.110922 -0.041809 162281.000000 0 0 1
-15.012026 32.551662 6.506697 36.432248 -1.138688 1.391236 0.097998 -0.033083 41410.200000 0 0 1
-14.797026 33.746162 7.256197 37.555397 -1.157563 1.376360 0.113762 -0.047322 310487.000000 0 0 1
-16.037726 -33.468192 8.021897 37.969453 1.123932 1.357920 0.086240 -0.034651 383262.000000 0 0 1
-16.305326 33.456062 9.124097 38.319980 -1.117307 1.330384 0.057091 -0.033175 13113.200000 0 0 1
-17.369426 -33.847692 9.945797 39.322793 1.096673 1.315092 0.070423 -0.031246 -601011.000000 0 0 1
-17.622526 33.162062 11.269897 39.208243 -1.082341 1.279247 0.059722 -0.023840 358165.000000 0 0 1
-16.768726 33.469762 12.363897 39.424372 -1.106340 1.251803 0.056712 -0.028637 1244170.000000 0 0 1
-15.362226 33.155362 12.197697 38.523497 -1.136904 1.248622 0.061893 -0.026376 813222.000000 0 0 1
-14.494926 33.322162 13.436697 38.742924 -1.160492 1.216621 0.054284 -0.022108 -357722.000000 0 0 1
-14.855126 32.480862 14.546397 38.565254 -1.141847 1.184037 0.041972 -0.019655 95060.700000 0 0 1
-14.048226 31.347362 14.850797 37.424002 -1.149484 1.162741 0.027419 -0.015528 -261453.000000 0 0 1
-14.671026 30.105162 14.229397 36.387299 -1.117339 1.169020 0.022221 -0.022879 -24879.900000 0 0 1
-14.705026 30.111562 12.802797 35.872769 -1.116511 1.205855 0.022399 -0.021824 61432.800000 0 0 1
-15.854326 29.517262 12.247097 35.673797 -1.077895 1.220360 0.004792 -0.025231 -134893.000000 0 0 1
-15.873826 29.428762 10.697397 35.106476 -1.076129 1.261159 0.019216 -0.021465 178211.000000 0 0 1
-15.034226 28.354962 10.257197 33.693351 -1.083270 1.261459 0.006886 -0.018328 540612.000000 0 0 1
-15.243726 28.162862 8.837797 33.220846 -1.074680 1.301522 0.036835 -0.020570 -256224.000000 0 0 1
-14.674626 26.827062 8.474597 31.730974 -1.070253 1.300438 0.044619 -0.025563 -188526.000000 0 0 1
-13.266826 26.789362 8.402697 31.052921 -1.110974 1.296788 0.060333 -0.031664 47779.600000 0 0 1
-12.807126 25.532162 8.087197 29.686976 -1.105863 1.294894 0.065941 -0.035082 -987965.000000 0 0 1
-11.470626 25.519062 7.409397 28.942995 -1.148365 1.311915 0.100275 -0.044978 -1063830.000000 0 0 1
-11.689026 25.753562 6.004397 28.912490 -1.144721 1.361599 0.120278 -0.042790 595090.000000 0 0 1
-10.589226 25.502062 5.126097 28.084938 -1.177230 1.387246 0.140510 -0.035268 -17546.000000 0 0 1
-10.882226 25.781862 3.697697 28.227650 -1.171394 1.439423 0.142428 -0.039894 -106225.000000 0 0 1
-10.597626 27.107362 3.293697 29.291077 -1.198116 1.458111 0.146953 -0.037374 65735.800000 0 0 1
-11.029326 27.309262 1.983997 29.519113 -1.186960 1.503535 0.146848 -0.046754 -56925.300000 0 0 1
-10.645326 28.713862 1.445297 30.657751 -1.215767 1.523636 0.158071 -0.038963 129295.000000 0 0 1
-11.345726 29.751562 2.077797 31.909218 -1.206471 1.505634 0.146145 -0.046623 -143004.000000 0 0 1
-10.851926 31.015562 1.788497 32.907873 -1.234223 1.516421 0.132252 -0.049984 -199822.000000 0 0 1
-11.394026 31.984162 2.864397 34.073673 -1.228574 1.486632 0.113625 -0.049666 470128.000000 0 0 1
-12.681026 32.524262 2.563097 35.002935 -1.199032 1.497506 0.142082 -0.050894 147265.000000 0 0 1
-12.755726 33.501462 1.521797 35.879971 -1.206993 1.528370 0.126068 -0.039778 -1124900.000000 0 0 1
-14.220026 33.722062 1.170697 36.616350 -1.171738 1.538819 0.136203 -0.039708 -312118.000000 0 0 1
-14.853226 32.608762 0.578197 35.836908 -1.143380 1.554662 0.113261 -0.025965 -165402.000000 0 0 1
-15.315726 32.773262 -0.721703 36.182579 -1.133630 1.590744 0.115918 -0.021243 280890.000000 0 0 1
-14.227426 32.592162 -1.833703 35.609425 -1.159201 1.622314 0.118232 -0.019858 180868.000000 0 0 1
-13.667926 31.336462 -1.960803 34.243697 -1.159505 1.628088 0.119320 -0.021701 72447.900000 0 0 1
-12.297826 31.424862 -2.318303 33.825035 -1.197777 1.639388 0.104328 -0.020219 104437.000000 0 0 1
-11.607926 30.048762 -2.342703 32.297992 -1.202153 1.643394 0.073239 -0.028251 -127087.000000 0 0 1
-11.718826 29.307862 -3.573203 31.765538 -1.190417 1.683522 0.084841 -0.032817 476606.000000 0 0 1
-10.714626 29.609462 -4.570803 31.818480 -1.223591 1.714947 0.082425 -0.027558 519586.000000 0 0 1
-11.038826 29.020362 -5.966403 31.617006 -1.207315 1.760643 0.081335 -0.022408 -60259.900000 0 0 1
-11.226626 27.596162 -6.023203 30.395135 -1.184426 1.770280 0.083624 -0.020636 35514.500000 0 0 1
-11.044126 27.102362 -7.372203 30.180459 -1.183844 1.817564 0.068943 -0.015849 81411.100000 0 0 1
-11.548426 25.602162 -7.347803 29.031484 -1.147051 1.826677 0.085247 -0.021127 356941.000000 0 0 1
-10.847326 24.702462 -6.516203 27.754945 -1.157028 1.807785 0.056683 -0.012392 -174966.000000 0 0 1
-11.367226 23.406762 -6.685403 26.866055 -1.118704 1.822281 0.105012 -0.029006 200680.000000 0 0 1
-10.718326 22.287162 -5.718203 25.383025 -1.122529 1.798023 0.091924 -0.029788 1546550.000000 0 0 1
-9.374726 21.926662 -6.173703 24.632876 -1.166769 1.824126 0.082118 -0.030613 1399560.000000 0 1 0
-8.716326 20.801762 -5.611503 23.241699 -1.174003 1.814647 0.074444 -0.024004 -16002.700000 0 1 0
-8.412226 20.723962 -4.034703 22.727230 -1.185199 1.749270 0.064369 -0.029494 224700.000000 0 1 0
-9.547626 20.643262 -3.172403 22.964441 -1.137591 1.709384 0.082981 -0.031056 616097.000000 0 1 0
-10.349226 19.441662 -3.245403 22.262465 -1.081627 1.717097 0.078024 -0.025621 833670.000000 0 1 0
-11.669926 19.423462 -2.396003 22.785936 -1.029777 1.676144 0.079878 -0.023377 502487.000000 0 1 0
-11.547626 19.476062 -1.001603 22.664242 -1.035604 1.615004 0.074841 -0.024462 38850.100000 0 1 0
-11.352826 18.235662 -0.417603 21.484888 -1.013952 1.590235 0.068248 -0.017501 -201113.000000 0 1 0
-11.050826 18.223362 1.116797 21.341483 -1.025677 1.518443 0.065416 -0.021006 537223.000000 0 1 0
-12.172526 18.360662 2.014497 22.121087 -0.985359 1.479603 0.090685 -0.025679 495461.000000 0 1 0
-11.776126 18.379162 3.375797 22.087705 -1.000964 1.417359 0.078845 -0.024206 -286942.000000 0 1 0
-12.928426 18.335662 4.393897 22.861475 -0.956658 1.377396 0.095913 -0.032511 79334.400000 0 1 0
-13.571626 17.072662 4.394897 22.248144 -0.899153 1.371949 0.048978 -0.032075 -706050.000000 0 1 0
-14.822926 17.149662 4.967297 23.205690 -0.858043 1.355072 0.069312 -0.039771 -797331.000000 0 1 0
-15.262426 15.767862 5.550797 22.635778 -0.801685 1.323047 0.039824 -0.033118 -153490.000000 0 1 0
-14.540026 15.248262 6.699897 22.109058 -0.809169 1.262917 0.043945 -0.026407 46520.600000 0 1 0
-15.110726 15.697562 7.889897 23.173216 -0.804444 1.223374 0.034960 -0.020470 -527871.000000 0 1 0
-14.107526 15.641062 9.107397 22.947980 -0.836902 1.162691 0.028223 -0.010005 1351240.000000 0 1 0
-12.940926 16.489062 9.031397 22.823734 -0.905381 1.163964 0.036519 -0.017354 1033490.000000 0 1 0
-12.020426 16.241162 7.975597 21.722710 -0.933648 1.194848 0.040091 -0.025097 -967018.000000 0 1 0
-10.860626 17.207162 7.785597 21.786581 -1.007773 1.205359 0.054929 -0.026060 -204978.000000 0 1 0
-9.886626 17.202562 8.779497 21.696845 -1.049174 1.154207 0.058614 -0.028083 -639668.000000 0 1 0
-9.161126 18.362162 8.915697 22.373754 -1.108019 1.160927 0.064672 -0.025021 -476372.000000 0 1 0
-7.817626 18.194762 9.616597 22.014622 -1.164982 1.118727 0.062629 -0.032889 -11192.900000 0 1 0
-6.795626 17.489862 8.888997 20.762709 -1.200202 1.128381 0.051549 -0.025913 1183650.000000 0 1 0
-5.455826 17.712462 9.364697 20.765233 -1.271996 1.102934 0.041530 -0.026518 965204.000000 0 1 0
-4.718026 18.876062 8.737097 21.328440 -1.325867 1.148731 0.031622 -0.024774 -1122270.000000 0 1 0
-5.129826 20.140262 9.191397 22.725031 -1.321394 1.154407 0.050282 -0.029883 133653.000000 0 1 0
-4.585126 21.130862 8.312797 23.165476 -1.357122 1.203767 0.050850 -0.032125 -252770.000000 0 1 0
-3.179926 21.686662 8.553197 23.528290 -1.425203 1.198744 0.051689 -0.024827 -253095.000000 0 1 0
-2.144626 20.745162 8.330297 22.457850 -1.467783 1.190786 0.034459 -0.010812 538214.000000 0 1 0
-0.885826 21.440862 8.223497 22.980887 -1.529505 1.204842 0.028785 -0.008767 655354.000000 0 1 0
0.378574 20.636862 7.942997 22.115935 1.552454 1.203436 0.014257 -0.002084 26778.200000 0 1 0
0.735574 19.841562 9.017797 21.807093 1.533741 1.144473 0.017206 -0.013934 -558066.000000 0 1 0
2.039474 19.322862 8.946997 21.391148 1.465638 1.139271 0.005406 -0.016517 -131399.000000 0 1 0
2.523474 18.634462 10.265097 21.423896 1.436195 1.071119 0.003532 -0.036971 1149590.000000 0 1 0
3.969074 18.527962 10.268697 21.551916 1.359765 1.074169 0.018767 -0.010703 1254370.000000 0 1 0
4.452974 18.241562 11.620997 22.082372 1.331367 1.016604 0.017707 -0.012104 255417.000000 0 1 0
5.959374 18.425462 11.886097 22.722040 1.257984 1.020302 0.038438 -0.013596 -59621.000000 0 1 0
6.794074 17.504362 11.220097 21.873562 1.200559 1.032176 0.028195 -0.010212 728319.000000 0 1 0
7.847574 17.157662 12.187297 22.461077 1.141822 0.997271 0.031055 0.003602 855592.000000 0 1 0
9.011174 16.312862 11.567997 21.934659 1.066115 1.015277 0.035537 -0.002951 244134.000000 0 1 0
9.723874 17.145462 10.684097 22.420315 1.054889 1.074085 0.051162 -0.022909 -1513780.000000 0 1 0
10.859774 16.549062 10.234197 22.283288 0.990063 1.093615 0.052997 -0.020870 -1452170.000000 0 1 0
11.683774 17.645262 9.588997 23.233913 0.985929 1.145363 0.048193 -0.017502 -173115.000000 0 1 0
12.773174 17.052662 8.875697 23.080842 0.927908 1.176078 0.065806 -0.015667 915160.000000 0 1 0
13.757174 18.015162 8.382297 24.167516 0.918620 1.216595 0.088874 -0.021298 1349770.000000 0 1 0
14.743474 17.434962 7.309297 23.974440 0.868847 1.260985 0.108410 -0.026508 1097430.000000 0 1 0
15.906074 16.738462 7.825697 24.380747 0.810891 1.244034 0.121637 -0.032756 719958.000000 0 1 0
16.789074 16.495262 6.751097 24.485588 0.776571 1.291461 0.119852 -0.026200 990944.000000 0 1 0
18.324774 16.607262 7.117297 25.734304 0.736270 1.290575 0.126631 -0.024071 1180810.000000 0 0 1
18.792874 15.459862 7.874597 25.577114 0.688397 1.257836 0.141950 -0.024594 -273831.000000 0 0 1
19.868074 15.794462 8.677797 26.823676 0.671664 1.241357 0.135231 -0.024708 -605391.000000 0 0 1
20.313274 14.743262 9.684397 26.903168 0.627829 1.202558 0.132999 -0.022016 -95498.800000 0 0 1
20.913774 13.596762 9.183297 26.581776 0.576470 1.218053 0.134850 -0.026438 133828.000000 0 0 1
20.935674 12.585162 10.128797 26.443927 0.541253 1.177723 0.129095 -0.034384 -142244.000000 0 0 1
21.763774 11.298962 9.738897 26.385120 0.478861 1.192750 0.105760 -0.026531 -1003630.000000 0 0 1
23.116874 11.642262 9.863997 27.698927 0.466544 1.206690 0.109713 -0.033399 -113446.000000 0 0 1
24.011974 10.900162 9.086097 27.891676 0.426131 1.238977 0.131403 -0.029559 -297673.000000 0 0 1
24.191874 9.408362 9.447197 27.622701 0.370906 1.221743 0.144869 -0.044019 -475981.000000 0 0 1
23.043274 8.604862 9.116597 26.232584 0.357386 1.215861 0.142496 -0.044759 741275.000000 0 0 1
22.982274 7.262962 9.525497 25.916609 0.306093 1.194429 0.125561 -0.043630 30956.900000 0 0 1
24.038274 6.223362 8.976597 26.403563 0.253332 1.223904 0.144187 -0.046790 483961.000000 0 0 1
23.746174 5.899662 7.661097 25.639407 0.243516 1.267360 0.127488 -0.034034 1213250.000000 0 0 1
24.985674 5.508662 7.050397 26.539355 0.217001 1.301910 0.144982 -0.041298 736353.000000 0 0 1
24.792874 5.105762 5.571697 25.919090 0.203097 1.354140 0.161704 -0.043747 -745617.000000 0 0 1
23.880874 4.112562 5.375097 24.821382 0.170539 1.352516 0.146247 -0.036478 -212497.000000 0 1 0
23.777974 3.728162 3.975897 24.394651 0.155524 1.407084 0.169450 -0.034854 1122490.000000 0 1 0
22.566574 2.680062 3.775497 23.036653 0.118209 1.406163 0.151679 -0.028447 990565.000000 0 1 0
22.975474 1.404562 4.112197 23.382801 0.061057 1.394013 0.166795 -0.029579 -364502.000000 0 1 0
22.044774 0.499862 3.739597 22.365297 0.022671 1.402802 0.150609 -0.027025 -1118030.000000 0 1 0
22.406374 -0.928238 4.111997 22.799468 -0.041404 1.389449 0.162285 -0.033329 -398315.000000 0 1 0
22.563074 -1.301638 5.501097 23.260453 -0.057625 1.332034 0.147166 -0.033331 777684.000000 0 1 0
22.698274 -2.699238 5.608197 23.536130 -0.118362 1.330202 0.140620 -0.033358 -324232.000000 0 1 0
22.987674 -3.241838 7.006597 24.249435 -0.140101 1.277678 0.187490 -0.037012 -117005.000000 0 1 0
22.924174 -4.667138 6.992797 24.417190 -0.200845 1.280341 0.168201 -0.040802 565209.000000 0 1 0
22.980374 -5.086738 8.378897 24.983563 -0.217839 1.228792 0.187187 -0.042828 -92787.100000 0 1 0
22.776974 -6.597238 8.735197 25.270888 -0.281930 1.217852 0.188964 -0.046014 238638.000000 0 0 1
21.431574 -7.004138 8.564497 24.118892 -0.315872 1.207781 0.192769 -0.047953 600970.000000 0 1 0
21.198474 -8.312338 9.088497 24.516751 -0.373695 1.191028 0.182421 -0.038306 -103195.000000 0 1 0
-27.221676 -32.977292 5.059697 43.059516 0.880718 1.453019 0.056291 -0.008786 -101571.000000 0 0 1
-28.180076 -33.840892 5.581497 44.390041 0.876419 1.444725 0.057527 -0.018241 -327187.000000 0 0 1
-28.192846 -33.802092 7.025397 44.573245 0.875632 1.412522 0.062993 -0.006719 86344.600000 0 0 1
-29.042266 32.840762 7.656697 44.503863 -0.846703 1.397890 0.080470 -0.018708 116061.000000 0 0 1
-30.435816 32.903462 7.495897 45.444088 -0.824338 1.405091 0.089212 -0.018215 -351055.000000 0 0 1
-31.090186 31.704262 7.903797 45.102438 -0.795177 1.394646 0.098503 -0.027852 1143890.000000 0 0 1
-32.645886 31.891862 8.029397 46.339140 -0.773715 1.396643 0.102713 -0.020577 785235.000000 0 0 1
-33.303306 31.941762 6.783597 46.641221 -0.764533 1.424837 0.084554 -0.016655 -299851.000000 0 0 1
-34.699825 31.836962 6.917297 47.597468 -0.742398 1.424951 0.065777 -0.013381 -230237.000000 0 0 1
-35.349237 31.763562 5.522797 47.843429 -0.732021 1.455104 0.037149 -0.005659 -358340.000000 0 0 1
-35.084665 30.565462 4.817197 46.780194 -0.716669 1.467638 0.040997 -0.007924 156845.000000 0 0 1
-35.900881 30.436462 3.669197 47.209262 -0.703211 1.492996 0.049841 0.004916 80631.100000 0 0 1
-35.531261 29.193162 2.789797 46.070535 -0.687785 1.510204 0.063047 -0.008177 44141.000000 0 0 1
-35.863034 28.011262 3.528197 45.642482 -0.663086 1.493418 0.088890 -0.022091 147800.000000 0 0 1
-35.379639 26.853262 2.899697 44.510951 -0.649238 1.505604 0.096485 -0.019593 -252564.000000 0 0 1
-35.944533 25.578862 3.616597 44.264742 -0.618482 1.489001 0.112653 -0.028808 294067.000000 0 0 1
-37.353836 25.531862 3.436397 45.376137 -0.599575 1.494992 0.111730 -0.026002 -109403.000000 0 0 1
36.999411 24.741062 4.431697 44.729369 0.589401 1.471555 0.117448 -0.028465 -111860.000000 0 0 1
35.546621 24.408062 4.042997 43.308909 0.601709 1.477308 0.131657 -0.030124 -362576.000000 0 0 1
35.189701 23.505862 3.033097 42.426881 0.588908 1.499245 0.126486 -0.042286 114006.000000 0 0 1
35.637311 22.126762 3.148697 42.065732 0.555637 1.495874 0.118735 -0.040632 -880103.000000 0 0 1
34.805901 21.069662 2.415397 40.758012 0.544342 1.511500 0.125287 -0.038182 -596711.000000 0 0 1
33.535851 20.934162 2.996997 39.646871 0.558047 1.495132 0.124643 -0.050018 10265.700000 0 0 1
33.418221 20.126862 4.160397 39.232346 0.542088 1.464551 0.107865 -0.033705 -740747.000000 0 0 1
33.555581 18.625762 3.942397 38.580286 0.506729 1.468431 0.120934 -0.048320 -357671.000000 0 0 1
32.527751 17.982062 3.214697 37.306077 0.505007 1.484518 0.101910 -0.061067 198326.000000 0 0 1
32.592531 16.602362 3.213897 36.718396 0.471133 1.483156 0.101774 -0.061037 486194.000000 0 0 1
31.452631 15.863562 4.026097 35.456030 0.467132 1.456999 0.136639 -0.062446 -100400.000000 0 0 1
30.177251 15.853262 3.462597 34.263420 0.483712 1.469565 0.121251 -0.048526 -303255.000000 0 0 1
29.316141 15.024362 4.234797 33.212965 0.473593 1.442944 0.114201 -0.051501 -552504.000000 0 0 1
27.858841 15.395662 3.983397 32.078168 0.504861 1.446297 0.104408 -0.044106 -781921.000000 0 0 1
27.354841 14.813662 2.801197 31.234254 0.496323 1.480992 0.104294 -0.041705 37281.000000 0 0 1
26.031541 15.296762 2.630097 30.307581 0.531270 1.483907 0.078779 -0.026706 -145590.000000 0 0 1
25.416941 14.696662 1.313397 29.389416 0.524253 1.526092 0.076759 -0.029721 -548191.000000 0 0 1
25.993841 14.938062 0.066397 29.980491 0.521591 1.568582 0.094603 -0.030465 -935596.000000 0 0 1
27.196641 14.283162 -0.038403 30.719171 0.483589 1.572046 0.099944 -0.031156 -1520350.000000 0 0 1
28.133041 14.862862 -1.143503 31.838346 0.486035 1.606720 0.125868 -0.036131 141417.000000 0 0 1
28.529141 16.237662 -1.020803 32.842283 0.517435 1.601883 0.112285 -0.032262 416725.000000 0 0 1
29.266041 16.540462 0.138797 33.617068 0.514420 1.566668 0.097723 -0.034970 -786697.000000 0 0 1
29.797441 17.955462 0.330097 34.790732 0.542317 1.561308 0.114271 -0.031155 422828.000000 0 0 1
30.872911 18.143362 -0.611703 35.814695 0.531311 1.587877 0.099787 -0.029099 413245.000000 0 0 1
31.306201 19.472862 -0.517603 36.871920 0.556448 1.584835 0.091144 -0.015403 -146521.000000 0 0 1
32.366971 19.660262 -1.607003 37.904210 0.545856 1.613205 0.091612 -0.015634 -245234.000000 0 0 1
32.977141 20.932162 -1.862103 39.103896 0.565578 1.618434 0.032860 -0.009309 925769.000000 0 0 1
32.090011 21.933762 -2.453103 38.947098 0.599571 1.633824 0.079180 -0.010068 36653.200000 0 0 1
32.792271 23.253862 -2.839503 40.300594 0.616825 1.641313 0.072738 -0.010258 -203521.000000 0 0 1
33.125231 24.146862 -1.776603 41.030576 0.629897 1.614109 0.105136 -0.005315 878653.000000 0 0 1
34.118621 23.729062 -0.811403 41.566898 0.607691 1.590318 0.119366 -0.002822 -358486.000000 0 0 1
34.534131 24.731762 0.208697 42.477168 0.621486 1.565883 0.136322 -0.023797 -101332.000000 0 0 1
35.320051 25.816862 -0.312503 43.750589 0.631191 1.577939 0.164286 -0.015484 1237410.000000 0 0 1
36.619811 25.850162 0.330597 44.825782 0.614679 1.563421 0.143553 -0.018274 688908.000000 0 0 1
-37.471206 27.005362 -0.154503 46.188794 -0.624482 1.574141 0.109348 -0.017029 -582689.000000 0 0 1
-37.067756 26.970662 -1.530303 45.866948 -0.629013 1.604166 0.113909 -0.025524 772137.000000 0 0 1
36.848281 27.380162 -2.471103 45.973638 0.639039 1.624573 0.101599 -0.022677 514991.000000 0 0 1
36.876271 26.764362 -3.863303 45.728717 0.627825 1.655380 0.106327 -0.021210 319000.000000 0 0 1
-37.029106 27.321262 -4.699903 46.256838 -0.635668 1.672576 0.102142 -0.016108 564990.000000 0 0 1
-37.000556 26.742362 -6.045003 46.051461 -0.625836 1.702443 0.087031 -0.015887 -54340.000000 0 0 1
36.711321 26.976362 -6.947903 46.083821 0.633718 1.722140 0.072873 0.002197 1117550.000000 0 0 1
35.494401 26.391862 -6.439203 44.697273 0.639360 1.715362 0.082735 -0.005605 1277260.000000 0 0 1
34.296991 26.639562 -7.218803 44.023414 0.660391 1.735517 0.066484 -0.003358 1369380.000000 0 0 1
33.097441 25.790062 -6.668603 42.485740 0.661939 1.728409 0.057004 -0.003245 -386318.000000 0 0 1
33.156291 24.371962 -6.745103 41.699263 0.633873 1.733266 0.045092 -0.005173 -15135.600000 0 0 1
34.309241 23.773762 -6.152803 42.192093 0.605962 1.717147 0.040733 -0.007637 3781.660000 0 0 1
34.585331 22.280662 -6.339503 41.626462 0.572303 1.723686 0.033899 -0.008632 -11848.800000 0 0 1
33.714671 21.363262 -5.647303 40.310793 0.564795 1.711353 0.044893 -0.013100 294872.000000 0 0 1
34.091461 20.021862 -5.713103 39.946742 0.531028 1.714306 0.044961 -0.019959 -494380.000000 0 0 1
32.967071 19.018862 -5.425203 38.444475 0.523265 1.712387 0.061419 -0.012862 -409979.000000 0 0 1
31.876481 19.121762 -6.310203 37.703720 0.540324 1.738951 0.029949 -0.021725 -255405.000000 0 0 1
30.764581 18.616762 -5.594003 36.391429 0.544188 1.725126 0.113154 -0.035667 -146627.000000 0 0 1
29.446741 18.535662 -6.377003 35.374390 0.561803 1.752059 0.082141 -0.036825 -97365.600000 0 0 1
29.427041 17.414862 -7.275803 34.959483 0.534367 1.780450 0.068469 -0.035801 -599748.000000 0 0 1
28.198041 17.312962 -7.900603 34.018931 0.550634 1.805178 0.085592 -0.037869 -624900.000000 0 0 1
28.234741 16.169862 -8.917003 33.736893 0.520099 1.838285 0.074333 -0.031550 -325268.000000 0 0 1
27.692341 16.504362 -10.145203 33.796225 0.537466 1.875685 0.066427 -0.031574 -20120.900000 0 0 1
27.793541 15.459662 -11.069003 33.674989 0.507615 1.905724 0.052513 -0.019354 -401023.000000 0 0 1
27.125641 15.596362 -12.416203 33.663170 0.521810 1.948553 0.064187 -0.012621 -673833.000000 0 0 1
25.720941 15.584162 -12.435003 32.543236 0.544742 1.962872 0.069100 -0.018099 66359.700000 0 0 1
25.074641 15.581262 -13.697403 32.544311 0.556003 2.005217 0.061374 -0.023623 -92819.700000 0 0 1
25.076341 14.214062 -14.395903 32.219628 0.515674 2.033988 0.057337 -0.024664 69690.100000 0 0 1
26.344741 13.858962 -14.968403 33.319203 0.484279 2.036714 0.064267 -0.030049 631421.000000 0 0 1
26.634441 14.426062 -16.244403 34.371286 0.496396 2.063053 0.064899 -0.029609 -633827.000000 0 0 1
28.064341 14.070762 -16.672703 35.546766 0.464747 2.058995 0.070073 -0.024713 -205143.000000 0 0 1
28.299241 12.641862 -16.777503 35.244124 0.420124 2.066939 0.065727 -0.032600 -137149.000000 0 0 1
29.532741 12.411362 -17.406203 36.458203 0.397847 2.068523 0.059747 -0.014316 -166238.000000 0 0 1
29.591841 10.947162 -17.931203 36.291121 0.354326 2.087588 0.039728 -0.014733 17326.000000 0 0 1
28.815441 10.581762 -19.090103 36.148794 0.351937 2.127155 0.054493 -0.012376 226358.000000 0 0 1
29.007841 9.252562 -19.604703 36.213383 0.308766 2.142858 0.056073 -0.008659 1554640.000000 0 0 1
30.461511 8.825262 -20.175003 37.587493 0.281998 2.137374 0.064770 -0.010438 1130210.000000 0 0 1
30.850591 9.684262 -21.244203 38.689275 0.304168 2.152081 0.057728 -0.013035 395112.000000 0 0 1
31.627911 8.979262 -22.206103 39.674461 0.276624 2.164829 0.061083 -0.008800 431320.000000 0 0 1
33.147591 8.693862 -22.091403 40.772247 0.256500 2.143403 0.073424 -0.006811 157136.000000 0 0 1
34.023441 9.785362 -22.181103 41.777376 0.280048 2.130501 0.074835 -0.009430 -639524.000000 0 0 1
35.343601 9.348762 -22.144703 42.742921 0.258589 2.115413 0.061374 -0.006759 -546944.000000 0 0 1
36.363121 10.472362 -21.892503 43.717601 0.280406 2.095286 0.082298 -0.005938 -237065.000000 0 0 1
36.336571 11.066862 -20.629903 43.225163 0.295640 2.068337 0.056545 -0.005621 -42961.900000 0 0 1
37.223061 12.124062 -20.459803 44.171854 0.314877 2.052384 0.038731 -0.001243 -51058.700000 0 0 1
36.852691 12.653162 -19.060403 43.376518 0.330733 2.025746 0.036411 -0.011646 347854.000000 0 0 1
-37.450656 11.828662 -18.123503 43.254251 -0.305931 2.003139 0.050438 -0.002546 323526.000000 0 0 1
37.061561 12.393662 -16.877203 42.567618 0.322717 1.978476 0.055780 -0.003365 10589.000000 0 0 1
37.425701 11.610962 -15.657603 42.197844 0.300825 1.950938 0.054814 -0.006208 -441598.000000 0 0 1
36.664411 10.410962 -15.559103 41.167376 0.276670 1.958375 0.039573 -0.013246 115224.000000 0 0 1
37.310811 9.538362 -14.702503 41.221845 0.250286 1.935495 0.031169 -0.019799 -235664.000000 0 0 1
36.612341 8.162562 -14.588303 40.248099 0.219358 1.941702 0.088224 -0.011145 238742.000000 0 0 1
35.427501 8.199762 -13.801603 38.895092 0.227447 1.933541 0.105885 -0.013664 911811.000000 0 0 1
35.751451 7.933862 -12.409603 38.666661 0.218378 1.897516 0.108128 -0.021204 -464581.000000 0 0 1
34.633611 8.498562 -11.538503 37.481323 0.240630 1.883725 0.120204 -0.026958 -379714.000000 0 0 1
34.531861 9.944062 -11.476203 37.723163 0.280382 1.879918 0.117392 -0.030818 194514.000000 0 0 1
33.593681 10.309162 -10.470503 36.666683 0.297755 1.860386 0.103684 -0.029960 -364355.000000 0 0 1
33.940841 10.176462 -8.954903 36.547658 0.291300 1.818337 0.125259 -0.026979 92469.300000 0 0 1
34.997781 11.009062 -8.452803 37.649621 0.304765 1.797239 0.122239 -0.023980 432541.000000 0 0 1
34.638891 12.350762 -8.209803 37.680166 0.342505 1.790439 0.115982 -0.030401 -327261.000000 0 0 1
34.411691 12.719862 -6.723703 37.298358 0.354061 1.752055 0.110582 -0.034370 -288634.000000 0 0 1
35.593621 12.684962 -5.953503 38.252559 0.342350 1.727068 0.131701 -0.032454 193868.000000 0 0 1
35.380261 12.883562 -4.554403 37.927452 0.349221 1.691169 0.121493 -0.028548 35985.300000 0 0 1
36.732601 12.732062 -3.818903 39.063709 0.333656 1.668714 0.139671 -0.028549 -322566.000000 0 0 1
-37.360136 13.794662 -4.068103 40.032760 -0.353707 1.672591 0.133933 -0.027452 -506371.000000 0 0 1
-36.194276 13.549062 -3.315303 38.789095 -0.358194 1.656371 0.144269 -0.038101 95056.100000 0 0 1
-35.303838 14.797662 -2.924403 38.391195 -0.396907 1.647044 0.144684 -0.031915 435650.000000 0 0 1
-35.898008 15.762962 -2.026903 39.258709 -0.413756 1.622449 0.141830 -0.029459 55934.600000 0 0 1
-35.118492 16.904462 -1.770203 39.015420 -0.448621 1.616184 0.147164 -0.030364 -279334.000000 0 0 1
-35.848408 17.864362 -0.859203 40.062226 -0.462311 1.592245 0.134347 -0.022900 549188.000000 0 0 1
-36.959196 18.518462 -1.494803 41.366049 -0.464488 1.606940 0.111451 -0.018254 468135.000000 0 0 1
37.081441 19.097662 -0.616303 41.714911 0.475591 1.585571 0.103838 -0.019415 -28733.500000 0 0 1
36.205191 20.166062 -1.309803 41.463255 0.508197 1.602391 0.111355 -0.018926 74629.300000 0 0 1
36.989511 21.298462 -1.670303 42.715785 0.522433 1.609909 0.104117 -0.019611 295750.000000 0 0 1
36.431011 21.956762 -2.745903 42.624616 0.542398 1.635262 0.096807 -0.013157 -305233.000000 0 0 1
37.361671 23.112362 -3.205603 44.049422 0.553992 1.643634 0.104724 -0.025180 1343880.000000 0 0 1
-36.270046 22.699562 -3.691103 42.946601 -0.559209 1.656849 0.116193 -0.019980 1252760.000000 0 0 1
-35.598197 23.874462 -4.101403 43.058600 -0.590766 1.666193 0.128693 -0.019523 -687723.000000 0 0 1
-34.169583 23.701162 -4.576403 41.835976 -0.606440 1.680405 0.148791 -0.026285 -521633.000000 0 0 1
-34.003916 22.979862 -5.791603 41.447352 -0.594299 1.710989 0.118976 -0.013977 18532.600000 0 0 1
-32.650176 22.959162 -6.240703 40.399300 -0.612861 1.725893 0.130365 -0.011623 378505.000000 0 0 1
-32.460416 22.070962 -7.467003 39.957003 -0.597132 1.758777 0.132575 -0.023829 160314.000000 0 0 1
-33.226556 22.480062 -8.625003 41.033497 -0.594827 1.782570 0.138358 -0.031108 172326.000000 0 0 1
-33.032396 21.773562 -9.851103 40.770963 -0.582786 1.814832 0.099811 -0.021707 244331.000000 0 0 1
-34.131671 22.003262 -10.955703 42.061169 -0.572611 1.834306 0.093652 -0.017054 375033.000000 0 0 1
-34.019676 23.316762 -11.475103 42.809902 -0.600853 1.842163 0.090639 -0.021641 -27945.100000 0 0 1
-34.489341 23.367062 -12.810403 43.584867 -0.595476 1.869120 0.062046 -0.018453 -808937.000000 0 0 1
-34.579724 24.790962 -13.376003 44.601194 -0.621993 1.875387 0.056785 -0.012360 -28426.100000 0 0 1
-33.427346 25.590862 -13.362703 44.168331 -0.653390 1.878153 0.060050 -0.012630 -772276.000000 0 0 1
-32.463026 25.274062 -14.327003 43.564771 -0.661524 1.905900 0.074423 -0.021744 -383280.000000 0 0 1
-31.097616 25.898562 -13.956903 42.808788 -0.694432 1.902896 0.072735 -0.024695 -306690.000000 0 0 1
-30.347496 25.346862 -12.869503 41.581943 -0.695851 1.885461 0.056839 -0.025829 -82539.600000 0 0 1
-30.731756 25.375562 -11.496003 41.479128 -0.690223 1.851625 0.082109 -0.019306 -405092.000000 0 0 1
-30.763576 26.772562 -10.784503 42.183802 -0.716144 1.829322 0.087515 -0.007640 143131.000000 0 0 1
-29.516686 27.424062 -10.616503 41.665622 -0.748664 1.828440 0.090021 -0.012355 -286326.000000 0 0 1
-29.626506 28.631062 -9.908603 42.375086 -0.768313 1.806812 0.077092 -0.008514 445175.000000 0 0 1
-28.263556 29.308062 -9.602603 41.833014 -0.803539 1.802408 0.085236 -0.022971 347674.000000 0 0 1
-28.493666 30.682162 -9.251603 42.882120 -0.822364 1.788251 0.078615 -0.040601 166174.000000 0 0 1
-27.309306 31.305562 -8.753203 42.455329 -0.853471 1.778460 0.112398 -0.036013 50783.200000 0 0 1
35.955131 -24.562138 33.512438 54.946825 -0.599316 0.914853 0.027083 -0.010225 -222959.000000 0 0 1
35.384591 -23.246438 33.668238 54.092665 -0.581256 0.898968 0.026107 -0.013229 452852.000000 0 0 1
34.300721 -23.295038 -33.262213 53.156120 -0.596589 2.246883 0.027672 -0.015602 201339.000000 0 0 1
33.677321 -21.932538 -32.905853 51.942211 -0.577257 2.256876 0.024527 -0.014931 107042.000000 0 0 1
33.149791 -21.249338 33.811686 51.900608 -0.570029 0.861276 0.016145 -0.013837 81735.400000 0 0 1
32.801561 -19.914838 -33.693523 51.066590 -0.545646 2.291343 0.020722 -0.012543 194285.000000 0 0 1
32.472831 -19.121138 32.893628 50.020930 -0.532169 0.853171 0.025189 -0.015608 1068600.000000 0 0 1
33.682781 -18.873538 32.122714 50.225581 -0.510741 0.876859 0.041061 -0.020473 909311.000000 0 0 1
33.402051 -18.187838 30.947916 49.033335 -0.498620 0.887748 0.047203 -0.021574 -60529.100000 0 0 1
34.584021 -18.030538 29.964406 49.183538 -0.480585 0.915699 0.046530 -0.022006 -70046.000000 0 0 1
35.618751 -17.156438 30.379386 49.859261 -0.448875 0.915615 0.051885 -0.030013 -548775.000000 0 0 1
36.739531 -17.385638 29.604456 50.283967 -0.441990 0.941290 0.059966 -0.030026 -425974.000000 0 0 1
-37.153126 -16.252138 29.872886 50.367411 0.412357 0.935893 0.059482 -0.033020 1028150.000000 0 0 1
-35.819359 -16.572738 29.417196 49.224522 0.433345 0.930276 0.067487 -0.024655 730090.000000 0 0 1
-34.959040 -15.547738 29.784176 48.486739 0.418472 0.909330 0.072656 -0.026913 525186.000000 0 0 1
-33.517026 -16.037638 30.189666 47.874970 0.446294 0.888478 0.076456 -0.031740 470696.000000 0 0 1
-32.659596 -14.995038 30.557596 47.172736 0.430421 0.866128 0.080482 -0.029248 -144193.000000 0 0 1
-31.419986 -15.576038 30.914226 46.749522 0.460231 0.848281 0.087125 -0.033349 -525495.000000 0 0 1
-30.403816 -14.597138 31.412866 46.089441 0.447608 0.820900 0.088398 -0.041936 -677914.000000 0 0 1
-30.820856 -14.047638 32.671837 47.060708 0.427653 0.803421 0.100241 -0.043452 429034.000000 0 0 1
-29.977676 -12.996238 33.143324 46.540769 0.409074 0.778261 0.102751 -0.042436 47258.900000 0 0 1
-30.430726 -12.424838 -33.342703 46.820311 0.387640 2.363341 0.099562 -0.024132 -158365.000000 0 0 1
-30.214326 -13.227538 -32.203373 46.096968 0.412654 2.344236 0.105727 -0.025665 183007.000000 0 0 1
-30.416046 -12.536238 -31.000433 45.203097 0.390944 2.326503 0.110243 -0.017351 -398410.000000 0 0 1
-30.680466 -13.499938 -29.807963 44.855924 0.414521 2.297657 0.110473 -0.020887 14430.400000 0 0 1
-31.881926 -14.233038 -29.879023 45.954244 0.419881 2.278632 0.104368 -0.022053 -143140.000000 0 0 1
-32.240146 -14.642538 -28.587843 45.509292 0.426317 2.250003 0.100659 -0.012451 630767.000000 0 0 1
-33.458126 -15.640338 -28.640783 46.737146 0.437278 2.230402 0.085152 -0.020208 419161.000000 0 0 1
-33.214876 -16.894538 -29.197883 47.340994 0.470539 2.235412 0.086263 -0.011529 -185913.000000 0 0 1
-34.354152 -17.702438 -29.183663 48.427990 0.475807 2.217576 0.073394 -0.011458 -54749.700000 0 0 1
-33.947546 -19.034438 -29.888013 49.071774 0.511022 2.225680 0.068630 -0.008445 -163584.000000 0 0 1
-35.067256 -19.815338 -30.148843 50.312154 0.514337 2.213343 0.047464 -0.011479 -312567.000000 0 0 1
-34.756752 -21.103038 -30.691183 50.944271 0.545670 2.217359 0.043027 -0.010611 74252.100000 0 0 1
-36.033346 -21.919638 -30.989663 52.337670 0.546511 2.204471 0.040730 -0.003824 64718.300000 0 0 1
-36.731316 -22.379638 -29.864193 52.363229 0.547215 2.177701 0.040518 -0.007666 478008.000000 0 0 1
37.092281 -23.250638 -30.114963 53.135115 -0.559916 2.173367 0.050380 -0.007496 683924.000000 0 0 1
37.439121 -24.699538 -30.254193 54.102413 -0.583182 2.164220 0.048213 -0.011306 80579.400000 0 0 1
-37.103216 -25.059788 -31.586413 54.793641 0.594030 2.185188 0.055561 -0.009138 -380519.000000 0 0 1
-36.216246 -26.138598 -31.622563 54.725033 0.625166 2.186882 0.053876 -0.012458 -98190.200000 0 0 1
-36.331236 -27.040418 -32.806343 55.923153 0.639827 2.197691 0.055023 -0.018071 -800913.000000 0 0 1
37.338401 -27.533518 -32.990303 56.926364 -0.635391 2.188943 0.060605 -0.018450 -1128120.000000 0 0 1
37.157961 -28.699158 -33.817603 57.861784 -0.657656 2.195004 0.056553 -0.020404 119299.000000 0 0 1
-37.280556 -30.088928 -33.144033 58.255561 0.679052 2.176015 0.069908 -0.030020 608632.000000 0 0 1
36.914451 -30.553168 -32.041793 57.644161 -0.691390 2.160187 0.081834 -0.032101 309213.000000 0 0 1
-37.120116 -31.330518 -31.275133 57.772297 0.701018 2.142840 0.078457 -0.037109 351077.000000 0 0 1
37.202161 -31.998818 -30.029083 57.529740 -0.710348 2.119961 0.072109 -0.031673 353878.000000 0 0 1
36.233821 -33.031028 -30.273743 57.623243 -0.739191 2.123951 0.096549 -0.028763 518123.000000 0 0 1
35.597921 -33.319048 -29.057843 56.760278 -0.752343 2.108238 0.084620 -0.026990 -12077.400000 0 0 1
34.433341 33.418898 -29.027243 56.080821 0.770449 2.114836 0.092846 -0.040573 -191711.000000 0 0 1
33.278711 -33.842258 -29.630603 55.953049 -0.793794 2.128880 0.100251 -0.037917 -761351.000000 0 0 1
32.216921 33.044731 -29.384303 54.711255 0.798082 2.137768 0.089321 -0.039477 -163395.000000 0 0 1
30.865531 33.521313 -29.959223 54.533608 0.826622 2.152408 0.054878 -0.023468 -65119.000000 0 0 1
30.665071 33.152446 -31.267703 54.928139 0.824355 2.176387 0.069806 -0.020046 57239.900000 0 0 1
29.429541 33.589953 -31.815333 54.832456 0.851320 2.189805 0.058761 -0.008555 207506.000000 0 0 1
29.150641 32.994745 -33.165653 55.121444 0.847176 2.216403 0.059807 -0.017052 93898.200000 0 0 1
29.054341 31.566966 -33.164113 54.226252 0.826822 2.228862 0.042113 -0.007704 -54731.700000 0 0 1
28.893141 30.973836 33.392358 53.937387 0.820139 0.903207 0.054514 -0.013418 210198.000000 0 0 1
28.879041 29.447606 33.289108 53.003068 0.795146 0.891739 0.066458 -0.032100 -194153.000000 0 0 1
30.214301 29.050406 33.266377 53.511512 0.765762 0.899926 0.075443 -0.020629 -717536.000000 0 0 1
30.299611 27.661426 33.473996 52.950253 0.739913 0.886435 0.074814 -0.029725 73551.400000 0 0 1
31.684041 27.060116 33.797346 53.650619 0.706847 0.889304 0.101799 -0.028682 -73461.000000 0 0 1
32.192961 27.414216 -32.789043 53.507451 0.705399 2.230388 0.107537 -0.021380 -385702.000000 0 0 1
33.200321 26.475006 -32.433453 53.433286 0.673173 2.223063 0.105804 -0.022560 571226.000000 0 0 1
33.917641 26.702386 -31.033473 53.164840 0.666931 2.194101 0.105750 -0.023242 -313251.000000 0 0 1
34.666231 27.867306 -30.922333 54.171256 0.677099 2.178307 0.093343 -0.024658 -482341.000000 0 0 1
34.144701 29.164116 -30.991783 54.560946 0.706889 2.174896 0.126342 -0.029851 -400024.000000 0 0 1
33.173981 29.539906 -29.850693 53.518061 0.727516 2.162491 0.144122 -0.027809 494279.000000 0 0 1
33.869421 29.868446 -28.656933 53.483469 0.722708 2.136262 0.118680 -0.026113 536498.000000 0 0 1
32.897781 29.852166 -27.619123 52.309002 0.736900 2.127039 0.102805 -0.026416 45728.400000 0 0 1
33.380561 30.220166 -26.212743 52.102093 0.735748 2.097982 0.111880 -0.037671 -342802.000000 0 0 1
33.728541 31.574436 -26.044703 53.036648 0.752424 2.084114 0.108416 -0.039322 -59832.300000 0 0 1
34.013011 31.903044 -24.772903 52.805168 0.753399 2.059111 0.079459 -0.047451 -13442.700000 0 0 1
34.626221 33.269710 -24.523103 53.918747 0.765422 2.042962 0.084839 -0.042895 -103040.000000 0 0 1
33.697531 -33.469588 -24.794003 53.576856 -0.782005 2.051919 0.076691 -0.029367 241009.000000 0 0 1
34.141401 -32.119968 -24.419703 52.854985 -0.754901 2.051060 0.054095 -0.024733 -886164.000000 0 0 1
34.516141 -31.265698 -25.650203 53.168043 -0.736026 2.074230 0.050751 -0.021811 330024.000000 0 0 1
35.727521 -31.652418 -26.305183 54.500403 -0.724992 2.074486 0.060910 -0.026742 -847380.000000 0 0 1
36.762221 -31.013788 -25.704433 54.534703 -0.700786 2.061607 0.064567 -0.026261 -1454870.000000 0 0 1
-36.766106 -31.544518 -26.101513 55.028103 0.709108 2.065000 0.059721 -0.022713 207539.000000 0 0 1
-36.375906 -32.842978 -25.689223 55.333569 0.734402 2.053596 0.056488 -0.023515 -260572.000000 0 0 1
-36.394486 -33.065988 -24.266303 54.834037 0.737515 2.029226 0.058850 -0.027271 -84077.100000 0 0 1
-35.252577 -32.391458 -23.414203 53.293298 0.743127 2.025667 0.046720 -0.022697 400759.000000 0 0 1
-35.300131 -30.964138 -23.510103 52.512875 0.720056 2.034990 0.004501 -0.016659 209054.000000 0 0 1
-34.509321 -30.376498 -22.428403 51.153280 0.721790 2.024675 0.041511 -0.021939 12538.000000 0 0 1
-34.525307 -28.826878 -22.395003 50.244620 0.695691 2.032774 0.041623 -0.005160 -230787.000000 0 0 1
-35.749734 -28.139658 -22.453503 50.735033 0.666843 2.029252 0.019532 0.005838 -440382.000000 0 0 1
-36.161786 -27.943458 -23.779703 51.516850 0.657893 2.050584 0.041364 -0.004318 -149860.000000 0 0 1
-37.303986 -26.967538 -24.058303 51.938785 0.625939 2.052404 0.033292 0.000144 -224393.000000 0 0 1
-36.890126 -25.628088 -23.920403 50.890726 0.607170 2.060126 0.020120 0.010373 -255993.000000 0 0 1
37.117421 -24.702338 -24.351603 50.802648 -0.587207 2.070696 0.027823 0.009403 -306645.000000 0 0 1
-37.322146 -24.074838 -25.700603 51.313364 0.572891 2.095384 0.043215 0.000568 970284.000000 0 0 1
-36.186706 -23.192938 -25.505413 49.979157 0.569969 2.106354 0.030506 0.000397 643999.000000 0 0 1
-35.740713 -22.497138 -26.692143 49.959886 0.561796 2.134442 0.037804 -0.011508 631294.000000 0 0 1
-34.434105 -21.708538 -26.302153 48.464125 0.562500 2.144461 0.043728 -0.010400 260877.000000 0 0 1
-34.443593 -20.581038 -25.384183 47.479437 0.538600 2.134872 0.056467 -0.023752 -33421.600000 0 0 1
-35.396868 -19.501538 -25.567053 47.821778 0.503564 2.134869 0.048848 -0.020716 960007.000000 0 0 1
-36.692226 -19.497138 -24.671803 48.323448 0.488427 2.106627 0.050817 -0.020434 685007.000000 0 0 1
-36.498516 -19.072038 -23.310303 47.320762 0.481519 2.085874 0.037937 -0.024844 -54524.400000 0 0 1
-35.786213 -19.958938 -22.442403 46.719093 0.508756 2.071872 0.026908 -0.023864 220444.000000 0 0 1
-36.488666 -21.321138 -22.111803 47.696388 0.528812 2.052844 0.036671 -0.018218 363319.000000 0 0 1
37.387581 -21.268638 -21.192303 47.951015 -0.517215 2.028576 0.028594 -0.019904 -264308.000000 0 0 1
36.804951 -22.501238 -20.955803 47.958897 -0.548734 2.023005 0.032344 -0.014711 -520972.000000 0 0 1
35.630521 -22.365038 -19.996103 46.578676 -0.560534 2.014511 0.014571 -0.013735 -670113.000000 0 0 1
34.527381 -21.749738 -20.598503 45.710934 -0.562135 2.038262 0.040950 -0.006979 -190956.000000 0 0 1
33.434201 -21.675538 -19.689003 44.444702 -0.575182 2.029739 0.048381 -0.012590 543497.000000 0 0 1
32.147771 -21.051938 -20.281403 43.451105 -0.579777 2.056424 0.049369 -0.014908 -92578.500000 0 0 1
31.426231 -21.777838 -21.284103 43.759516 -0.606001 2.078747 0.058309 -0.007604 1995030.000000 0 0 1
30.114761 -21.268538 -21.694203 42.777190 -0.614908 2.102664 0.103933 -0.016967 1542630.000000 0 0 1
30.246761 -19.982538 -22.585003 42.711248 -0.583826 2.127963 0.096129 -0.009635 -401832.000000 0 0 1
30.668011 -18.903638 -21.791103 42.103760 -0.552388 2.114790 0.085039 -0.007663 66488.600000 0 0 1
30.848361 -17.693938 -22.525003 42.095992 -0.520765 2.135407 0.081345 -0.007001 -393421.000000 0 0 1
31.687671 -16.606538 -21.882403 41.937157 -0.482717 2.119745 0.051716 -0.003274 -978020.000000 0 0 1
31.067041 -15.914938 -20.832303 40.650106 -0.473421 2.108865 0.048440 -0.007394 -78602.500000 0 0 1
31.861811 -15.253938 -19.864703 40.527325 -0.446506 2.083065 0.036692 -0.005559 -54124.200000 0 0 1
32.772131 -16.113038 -18.913603 41.126232 -0.456961 2.048669 0.053140 -0.009895 303353.000000 0 0 1
33.775521 -16.706038 -19.730103 42.534157 -0.459334 2.053149 0.032768 -0.012512 -210650.000000 0 0 1
34.552021 -17.699038 -19.017803 43.229329 -0.473394 2.026315 0.028368 -0.021469 -131629.000000 0 0 1
35.751711 -17.978038 -19.914403 44.698749 -0.465931 2.032557 0.021224 -0.026718 -505168.000000 0 0 1
36.557021 -16.798638 -20.139903 44.991396 -0.430742 2.034920 0.029346 -0.028813 58355.000000 0 0 1
-37.401906 -17.203638 -21.047803 46.237190 0.431111 2.043409 0.036828 -0.027758 -99996.100000 0 0 1
-36.455526 -16.061138 -21.553703 45.293792 0.414983 2.066743 0.045297 -0.033471 121466.000000 0 0 1
-35.711161 -15.284038 -20.665903 43.999640 0.404401 2.059729 0.071222 -0.032303 -296154.000000 0 0 1
-35.137742 -14.229338 -21.388703 43.527136 0.384774 2.084479 0.087431 -0.033343 -238699.000000 0 0 1
-33.784006 -13.727038 -20.738603 41.950927 0.385941 2.087888 0.097890 -0.033607 1193880.000000 0 0 1
-32.693066 -14.633638 -20.974003 41.507694 0.420862 2.100531 0.114905 -0.036950 590855.000000 0 0 1
-32.709026 -15.770738 -20.107503 41.507929 0.449268 2.076503 0.093366 -0.038885 -871668.000000 0 0 1
-31.720976 -16.823838 -20.609903 41.400844 0.487647 2.091872 0.081208 -0.045834 -16578.200000 0 0 1
-31.798916 -17.935538 -19.801103 41.532376 0.513551 2.067765 0.097105 -0.059093 374834.000000 0 0 1
-30.945176 -18.942238 -20.348403 41.598916 0.549285 2.081919 0.107013 -0.061551 80633.500000 0 0 1
-31.075956 -20.311738 -19.671303 42.014782 0.578913 2.058048 0.096205 -0.025744 -119199.000000 0 0 1
-32.232356 -20.990738 -20.097803 43.398819 0.577241 2.052281 0.072988 -0.030618 203421.000000 0 0 1
-32.258706 -22.217638 -19.408703 43.714360 0.603124 2.030842 0.073222 -0.000864 327849.000000 0 0 1
-33.183496 -23.187638 -20.215503 45.249061 0.609900 2.033938 0.037081 -0.010983 307005.000000 0 0 1
-32.638646 -23.552738 -21.494503 45.629227 0.625090 2.061298 0.040853 -0.015766 863554.000000 0 0 1
-33.533376 -24.439138 -22.232303 47.074771 0.629795 2.062668 0.034961 -0.006010 454912.000000 0 0 1
-33.171066 -24.505538 -23.747803 47.589906 0.636270 2.093251 0.036015 0.001096 -273888.000000 0 0 1
-31.910806 -25.023728 -24.033803 47.139264 0.665018 2.105803 0.034187 -0.009692 -847352.000000 0 0 1
-31.829176 -24.972838 -25.451563 47.796664 0.665273 2.132344 0.038152 0.003858 511116.000000 0 0 1
-30.437406 -25.369278 -26.034313 47.411195 0.694831 2.152104 0.047827 -0.001835 540407.000000 0 0 1
-29.404746 -24.406138 -26.005763 46.223353 0.692772 2.168337 0.056226 -0.011912 -759858.000000 0 0 1
-28.189136 -25.028108 -26.288033 45.957526 0.726069 2.179747 0.045385 -0.012865 -338757.000000 0 0 1
-27.102326 -23.956438 -26.529413 44.858185 0.723863 2.203598 0.058416 -0.014401 -409796.000000 0 0 1
-27.370226 -23.248638 -27.697803 45.351921 0.704153 2.227779 0.059229 -0.012879 -44929.400000 0 0 1
-26.563226 -22.086138 -27.828203 44.360019 0.693629 2.248911 0.071026 -0.019556 32268.500000 0 0 1
-26.489656 -21.636238 -29.283763 45.026297 0.684890 2.278868 0.053020 -0.011332 204402.000000 0 0 1
-25.778606 -22.596938 -30.073463 45.602317 0.719723 2.290913 0.067594 -0.015033 242716.000000 0 0 1
-25.386196 -22.068638 -31.316703 45.958890 0.715602 2.320479 0.067729 -0.013517 92640.500000 0 0 1
-24.752626 -23.178838 -32.217283 46.775040 0.752576 2.330589 0.067945 -0.020429 313677.000000 0 0 1
-25.739546 -24.036838 -32.806983 48.130987 0.751204 2.320769 0.047693 -0.019433 67394.700000 0 0 1
-25.217816 -25.199318 -33.427823 48.870883 0.785031 2.324032 0.064218 -0.015571 -226928.000000 0 0 1
-19.964826 -14.459738 -11.692303 27.283479 0.626823 2.013682 0.053598 0.005072 320231.000000 0 0 1
-20.417726 -13.949238 -10.419003 26.833196 0.599357 1.969569 0.059489 -0.004914 132396.000000 0 0 1
-19.576626 -14.460938 -9.410103 26.094310 0.636219 1.939728 0.047643 -0.012564 -148167.000000 0 0 1
-19.937826 -13.908838 -8.041103 25.605312 0.609121 1.890242 0.094876 -0.030695 -184747.000000 0 0 1
-21.133226 -14.407738 -7.504203 26.655379 0.598378 1.856181 0.102300 -0.026600 -195228.000000 0 0 1
-21.581426 -13.775338 -6.312303 26.369737 0.568103 1.812520 0.110330 -0.031858 851316.000000 0 0 1
-22.999026 -14.233738 -5.797603 27.661646 0.554189 1.781952 0.105755 -0.025028 573315.000000 0 0 1
-23.031326 -15.572038 -5.328103 28.307579 0.594522 1.760148 0.088961 -0.022244 173627.000000 0 0 1
-22.484626 -15.785738 -4.049503 27.769523 0.612113 1.717144 0.107451 -0.026889 -374216.000000 0 0 1
-22.365526 -17.260738 -3.551603 28.473913 0.657280 1.695854 0.083336 -0.012943 -585318.000000 0 0 1
-23.508826 -18.008838 -3.293303 29.796459 0.653692 1.681549 0.084709 -0.010901 -389098.000000 0 0 1
-23.246826 -19.073038 -2.364803 30.162692 0.687091 1.649278 0.083413 -0.015075 646065.000000 0 0 1
-24.427426 -20.124138 -2.327503 31.734797 0.689106 1.644205 0.079957 -0.026086 615148.000000 0 0 1
-24.454126 -21.056838 -3.381803 32.447362 0.710889 1.675210 0.062692 -0.028985 171392.000000 0 0 1
-25.523386 -21.984238 -3.211003 33.838742 0.711039 1.665831 0.083279 -0.027572 205967.000000 0 0 1
-25.379136 -23.177838 -4.161503 34.621248 0.740095 1.691289 0.082490 -0.028002 -258118.000000 0 0 1
-24.234126 -23.983938 -3.984703 34.327831 0.780210 1.687137 0.083864 -0.024296 -473914.000000 0 0 1
-23.908326 -24.700138 -5.148103 34.759284 0.801686 1.719450 0.087045 -0.020038 911559.000000 0 0 1
-22.336426 -24.619238 -5.232503 33.651180 0.833976 1.726922 0.073829 -0.012451 1023000.000000 0 0 1
-21.843626 -23.366138 -5.827703 32.512805 0.819062 1.751014 0.045630 0.000144 291916.000000 0 0 1
-21.715626 -22.309738 -4.869103 31.511918 0.798892 1.725934 0.043493 0.000030 -634914.000000 0 0 1
-21.667326 -20.899938 -5.477403 30.598731 0.767372 1.750774 0.034475 0.016515 507879.000000 0 0 1
-20.632926 -20.667938 -6.463203 29.910772 0.786246 1.788597 0.012757 0.018343 635678.000000 0 0 1
-20.871126 -19.469538 -7.163503 29.427582 0.750668 1.816695 0.003870 0.012164 2418.890000 0 0 1
-19.704826 -19.004938 -8.067303 28.540308 0.767320 1.857366 0.013824 0.012440 -79030.100000 0 0 1
-19.525726 -19.554738 -9.384003 29.183921 0.786141 1.898159 0.005690 0.014252 468195.000000 0 0 1
-18.249326 -19.396538 -10.024003 28.456005 0.815863 1.930785 0.050657 0.008455 463382.000000 0 0 1
-17.889026 -17.984838 -10.617503 27.499146 0.788069 1.967200 0.053949 0.010272 -215877.000000 0 0 1
-17.620726 -16.938638 -9.679403 26.288748 0.765664 1.947864 0.071701 -0.005503 -80425.400000 0 0 1
-16.348026 -17.092738 -9.102003 25.342969 0.807664 1.938156 0.113236 -0.009995 -607888.000000 0 0 1
-16.141426 -15.873238 -8.203603 24.079128 0.777021 1.918451 0.109331 -0.012929 195439.000000 0 1 0
-16.825026 -15.963138 -6.921703 24.203579 0.759118 1.860824 0.094041 -0.014148 501756.000000 0 1 0
-16.617726 -14.785738 -6.159503 23.080432 0.727127 1.840941 0.093145 -0.017243 -90626.300000 0 1 0
-17.286826 -14.917438 -4.812903 23.335131 0.711957 1.778539 0.096461 -0.017339 -155921.000000 0 1 0
-17.864826 -13.826138 -4.177003 22.973059 0.658642 1.753635 0.118084 -0.018478 305382.000000 0 1 0
-18.543726 -14.191538 -2.962403 23.538168 0.653222 1.696986 0.118027 -0.016381 76297.500000 0 1 0
-19.412426 -13.012838 -2.454003 23.498901 0.590538 1.675418 0.130644 -0.015160 724457.000000 0 1 0
-20.755326 -13.069138 -2.999103 24.709928 0.561955 1.692469 0.158976 -0.027553 1289840.000000 0 1 0
-21.429226 -11.895138 -2.545203 24.641105 0.506742 1.674272 0.161530 -0.022928 -207122.000000 0 1 0
-22.951526 -11.843638 -2.741803 25.972327 0.476388 1.676560 0.136852 -0.015322 -78041.100000 0 0 1
-23.322326 -11.398538 -4.060403 26.274406 0.454599 1.725956 0.141349 -0.030737 993779.000000 0 0 1
-24.743926 -11.485838 -4.241203 27.607501 0.434590 1.725032 0.124674 -0.018684 656086.000000 0 0 1
-25.229556 -10.834538 -5.540503 28.010978 0.405624 1.769907 0.132782 -0.033205 -112450.000000 0 0 1
-24.855426 -11.525938 -6.733803 28.213180 0.434204 1.811798 0.126300 -0.036940 100947.000000 0 0 1
-25.334146 -10.861638 -7.875103 28.667252 0.405030 1.849082 0.138085 -0.039215 -805722.000000 0 0 1
-24.644826 -11.272538 -9.108103 28.590122 0.428991 1.895022 0.156693 -0.046285 -1130770.000000 0 0 1
-23.432926 -10.598638 -9.121403 27.287967 0.424762 1.911621 0.155028 -0.043760 -584691.000000 0 0 1
-22.504526 -11.149538 -10.038403 27.046911 0.459989 1.951041 0.119278 -0.039365 -1570940.000000 0 0 1
-21.173926 -10.548638 -9.826703 25.615874 0.462199 1.964507 0.127289 -0.042459 -1816350.000000 0 0 1
-21.072926 -9.202838 -10.250303 25.175963 0.411750 1.990124 0.130964 -0.052342 522923.000000 0 0 1
-19.809326 -8.686738 -9.870903 23.776112 0.413264 1.998916 0.128231 -0.037940 -89794.100000 0 1 0
-19.486826 -7.347938 -10.466903 23.308467 0.360586 2.036509 0.087823 -0.043559 -225256.000000 0 1 0
-19.350926 -7.467238 -11.849403 23.887786 0.368280 2.089834 0.116594 -0.036273 398514.000000 0 1 0
-19.318526 -6.185638 -12.462003 23.806912 0.309877 2.121705 0.120089 -0.050344 -172821.000000 0 1 0
-18.766326 -6.180438 -13.917103 24.167303 0.318149 2.184458 0.142399 -0.033857 -130690.000000 0 1 0
-19.633826 -6.772038 -14.829903 25.520063 0.332139 2.190885 0.144209 -0.045658 375466.000000 0 0 1
-19.029626 -6.484738 -16.067203 25.735841 0.328429 2.245047 0.140907 -0.046775 -251416.000000 0 0 1
-19.645626 -7.321438 -17.165603 27.096346 0.356731 2.256868 0.129801 -0.044829 305547.000000 0 0 1
-21.012226 -7.073738 -17.476003 28.230517 0.324731 2.238324 0.117346 -0.048924 531966.000000 0 0 1
-21.475226 -7.835138 -18.543603 29.435351 0.349838 2.252320 0.111962 -0.053013 -975952.000000 0 0 1
-22.882926 -7.478038 -18.962003 30.644851 0.315855 2.237968 0.100249 -0.045857 -1221030.000000 0 0 1
-23.154426 -6.177038 -19.508103 30.900636 0.260704 2.254047 0.084197 -0.040413 358788.000000 0 0 1
-24.291026 -6.133338 -20.370303 32.289642 0.247325 2.253460 0.073773 -0.037653 1636360.000000 0 0 1
-25.659726 -5.879338 -19.579703 32.807818 0.225239 2.210303 0.114738 -0.035455 665479.000000 0 0 1
-25.732936 -4.525538 -19.104303 32.367250 0.174085 2.202147 0.108014 -0.026422 556750.000000 0 0 1
-26.914916 -4.247138 -18.352803 32.852340 0.156508 2.163548 0.130986 -0.025395 141692.000000 0 0 1
-26.905786 -2.882438 -17.799503 32.389073 0.106724 2.152625 0.111515 -0.016514 -1293.770000 0 0 1
-27.064386 -1.825938 -18.727603 32.962678 0.067364 2.175047 0.108308 -0.011833 1388880.000000 0 0 1
-28.452426 -1.552138 -19.055803 34.279342 0.054498 2.160239 0.122257 -0.010854 1192390.000000 0 0 1
-28.618006 -0.474538 -20.169303 35.014514 0.016580 2.184656 0.123116 -0.000567 -308057.000000 0 0 1
-27.899016 -0.739238 -21.337903 35.131292 0.026491 2.223550 0.112022 -0.001725 165699.000000 0 0 1
-28.590656 -1.484038 -22.380603 36.338951 0.051860 2.234305 0.126361 0.003455 332954.000000 0 0 1
-27.913476 -1.301438 -23.794803 36.702159 0.046590 2.276174 0.119998 0.001894 -356953.000000 0 0 1
-28.025836 0.058462 -24.373803 37.142067 -0.002086 2.286610 0.116010 0.004416 82433.500000 0 0 1
-27.394616 1.158462 -23.725503 36.258881 -0.042263 2.284101 0.080309 0.005892 464212.000000 0 0 1
-25.848826 0.984362 -23.555303 34.985469 -0.038063 2.309443 0.067945 0.005706 341462.000000 0 0 1
-25.149916 0.992662 -24.816103 35.346041 -0.039449 2.349125 0.059017 0.008135 -176057.000000 0 0 1
-23.774926 0.795462 -24.592703 34.215214 -0.033446 2.372821 0.055180 0.007054 112927.000000 0 0 1
-22.875326 0.412862 -25.800643 34.483679 -0.018046 2.416139 0.050140 0.003626 127388.000000 0 0 1
-22.753826 1.484462 -26.696333 35.108893 -0.065148 2.434705 0.034258 0.011185 -25190.200000 0 0 1
-22.221226 0.949162 -27.881383 35.665884 -0.042688 2.468245 0.033175 0.017044 -78681.500000 0 0 1
-21.985226 1.985362 -28.948473 36.404751 -0.090060 2.490107 0.032971 0.013243 -413166.000000 0 0 1
-21.075226 3.055262 -28.759233 35.785377 -0.143966 2.504215 0.039703 0.012061 293322.000000 0 0 1
-20.883526 3.915162 -29.893593 36.675292 -0.185325 2.523678 0.033585 0.000633 -49665.400000 0 0 1
-20.154126 3.211662 -31.097523 37.196229 -0.158026 2.560821 0.033822 0.003539 -1508120.000000 0 0 1
-18.885726 2.854362 -30.721553 36.175017 -0.150003 2.585355 0.018801 0.009145 -1269220.000000 0 0 1
-18.298226 2.212062 -31.842253 36.791947 -0.120306 2.616880 0.010206 0.008211 721440.000000 0 0 1
-16.736026 2.291162 -31.901093 36.097420 -0.136054 2.654612 0.009587 0.001333 665503.000000 0 0 1
-16.180726 3.585362 -32.095823 36.122189 -0.218059 2.664938 0.014655 -0.002244 484910.000000 0 0 1
-14.778426 3.461362 -32.327073 35.713058 -0.230070 2.702621 0.007931 -0.000108 471546.000000 0 0 1
-13.994126 4.692262 -32.752993 35.925081 -0.323522 2.718206 0.033957 -0.010768 -286835.000000 0 0 1
-13.883626 5.627362 -31.674333 35.038345 -0.385087 2.699809 0.054806 -0.025741 86304.600000 0 0 1
-13.444626 6.873062 -32.153423 35.522381 -0.472577 2.702551 0.094138 -0.021026 -136327.000000 0 0 1
-12.838426 7.762162 -31.020713 34.458104 -0.543798 2.691127 0.102024 -0.025645 29384.000000 0 0 1
-11.647526 7.343162 -30.371693 33.347063 -0.562508 2.715955 0.133755 -0.045069 298007.000000 0 0 1
-11.809826 6.417562 -29.378943 32.307574 -0.497769 2.712519 0.113205 -0.037707 939771.000000 0 0 1
-10.439126 5.658562 -29.052253 31.385157 -0.496722 2.753595 0.122454 -0.046488 1016090.000000 0 0 1
-9.940926 4.774862 -30.046153 32.006134 -0.447783 2.789817 0.114860 -0.050113 42909.300000 0 0 1
-10.746826 3.632662 -30.347223 32.398216 -0.325964 2.783863 0.111642 -0.046795 -366894.000000 0 0 1
-10.272826 2.647162 -31.403043 33.146486 -0.252199 2.815814 0.097028 -0.039953 -598615.000000 0 0 1
-11.247926 1.756062 -31.833143 33.807522 -0.154873 2.798145 0.086711 -0.030591 -119820.000000 0 0 1
-10.759926 1.007162 -32.961283 34.687700 -0.093331 2.824769 0.080019 -0.026705 -209052.000000 0 0 1
-11.226726 1.592762 33.472221 35.340711 -0.140932 0.326629 0.074901 -0.019782 737637.000000 0 0 1
-12.632226 1.437862 33.239130 35.587643 -0.113337 0.365325 0.015273 -0.007984 395054.000000 0 0 1
-12.975826 1.743962 31.909064 34.490605 -0.133600 0.389360 0.013666 -0.007603 1104630.000000 0 0 1
-14.511726 1.712562 31.517556 34.740170 -0.117469 0.434129 0.013793 -0.002248 1006840.000000 0 0 1
-15.294626 2.787662 32.011767 35.587215 -0.180285 0.452104 0.010333 0.006898 -256163.000000 0 0 1
-16.596126 2.436862 31.588646 35.766077 -0.145791 0.488151 0.014115 0.011506 -452454.000000 0 0 1
-17.381526 3.711762 31.222226 35.926620 -0.210386 0.517506 0.016907 0.000431 -458301.000000 0 0 1
-17.788126 4.425062 32.404236 37.229466 -0.243816 0.514798 0.018021 -0.004784 64163.100000 0 0 1
-17.069326 5.597462 32.616333 37.235986 -0.316875 0.503424 0.030732 -0.004005 -741382.000000 0 0 1
-17.479826 6.351862 33.907966 38.673513 -0.348547 0.501682 0.037679 -0.004110 212313.000000 0 0 1
-18.775826 6.929162 33.880096 39.349788 -0.353541 0.533567 0.045040 -0.010882 -289157.000000 0 0 1
-19.705226 6.107662 -33.340413 39.206920 -0.300561 2.587486 0.034383 -0.012123 236246.000000 0 0 1
-21.190126 6.630962 -33.323793 40.043305 -0.303274 2.553849 0.030278 -0.008262 806713.000000 0 0 1
-21.406626 7.784662 -32.570743 39.745413 -0.348789 2.531307 0.043396 -0.019381 271230.000000 0 0 1
-21.339126 8.949062 -33.383103 40.618660 -0.397095 2.535475 0.053752 -0.007784 -345617.000000 0 0 1
-21.663526 10.198762 -32.564213 40.419686 -0.440000 2.507572 0.061049 -0.014694 -1270660.000000 0 0 1
-20.683926 10.453862 -31.615793 39.200336 -0.467966 2.509036 0.065331 -0.021807 -262280.000000 0 0 1
-20.339326 11.826362 -31.469883 39.292551 -0.526670 2.499613 0.077161 -0.016934 -176229.000000 0 0 1
-19.419326 12.397462 -32.546733 39.876021 -0.568183 2.525596 0.082206 -0.029775 -1013280.000000 0 0 1
-19.899826 12.261262 -33.876683 41.157882 -0.552209 2.537629 0.100902 -0.036745 -254256.000000 0 0 1
-19.012326 12.585762 32.957285 40.075586 -0.584750 0.605218 0.099851 -0.041546 -444562.000000 0 0 1
-19.609526 12.244162 31.572466 39.131491 -0.558167 0.632030 0.109085 -0.035962 11601.300000 0 0 1
-19.920726 10.881162 31.406566 38.750579 -0.499939 0.625825 0.083849 -0.026993 450172.000000 0 0 1
-18.754726 10.097662 31.188246 37.767833 -0.493899 0.599197 0.079578 -0.021950 102308.000000 0 0 1
-18.977026 8.596662 31.186286 37.504860 -0.425349 0.588946 0.085821 -0.020960 -25034.500000 0 0 1
-19.589026 8.166362 29.971146 36.724501 -0.394977 0.616153 0.084752 -0.021189 174502.000000 0 0 1
-19.683926 6.787262 29.924276 36.455262 -0.332046 0.607900 0.063898 -0.014907 -129546.000000 0 0 1
-20.295026 6.178862 28.626316 35.630498 -0.295536 0.637776 0.059928 -0.013024 13286.600000 0 0 1
-21.703126 6.277162 28.539006 36.399221 -0.281546 0.669624 0.088836 -0.017910 -107322.000000 0 0 1
-22.143126 5.264262 27.700876 35.852043 -0.233405 0.687800 0.087323 -0.017063 313199.000000 0 0 1
-23.666526 5.382862 27.362806 36.575987 -0.223642 0.725589 0.088711 -0.013983 536063.000000 0 0 1
-23.929426 6.121162 26.141696 35.964904 -0.250431 0.757048 0.098345 -0.015247 -321993.000000 0 0 1
-25.314016 6.249662 26.096666 36.890292 -0.242045 0.784965 0.088069 -0.013243 -800536.000000 0 0 1
-25.869886 6.801762 24.732806 36.431122 -0.257103 0.824543 0.083291 -0.006178 -67275.800000 0 0 1
-26.154236 5.977562 23.626366 35.748853 -0.224691 0.848781 0.084661 -0.004697 822966.000000 0 0 1
-27.213556 5.013362 23.758656 36.471704 -0.182180 0.861332 0.087466 -0.006542 251832.000000 0 0 1
-27.505186 4.390662 22.348916 35.711164 -0.158295 0.894608 0.096350 -0.011792 -141183.000000 0 0 1
-28.041456 5.272162 21.415016 35.675227 -0.185844 0.926949 0.081732 -0.007550 -121043.000000 0 0 1
-28.207056 4.593462 20.223916 35.010637 -0.161431 0.954949 0.119838 -0.015148 178200.000000 0 0 1
-29.082526 5.256462 19.114816 35.196589 -0.178812 0.996687 0.111736 -0.021789 1043780.000000 0 0 1
-30.489406 5.151562 19.361816 36.483179 -0.167381 1.011364 0.116017 -0.023710 754906.000000 0 0 1
-31.334596 5.588262 18.296516 36.713050 -0.176486 1.049084 0.133510 -0.026728 -12894.900000 0 0 1
-32.786946 5.727662 18.760816 38.206781 -0.172948 1.057520 0.132923 -0.019910 -321904.000000 0 0 1
-33.119336 6.960762 19.334116 38.976283 -0.207157 1.051755 0.117137 -0.028256 445321.000000 0 0 1
-34.345792 6.833362 20.060716 40.357906 -0.196393 1.050577 0.106251 -0.027814 297570.000000 0 0 1
-34.709976 7.976962 20.995116 41.342584 -0.225895 1.038129 0.117552 -0.031279 16225.400000 0 0 1
-34.195137 7.839662 22.318516 41.579849 -0.225368 1.004201 0.095914 -0.025992 166034.000000 0 0 1
-34.403387 8.928362 23.146636 42.415509 -0.253918 0.993558 0.129842 -0.020429 -281069.000000 0 0 1
-0.533526 32.447062 12.028197 34.608872 -1.554355 1.215843 0.124327 -0.032080 -11252.100000 0 0 1
-0.653426 32.636662 13.449397 35.305310 -1.550778 1.179978 0.115202 -0.037668 112636.000000 0 0 1
-0.188326 -33.830792 13.856797 36.559113 1.565230 1.182054 0.102041 -0.038377 -62321.400000 0 0 1
-0.369226 -33.690192 15.335097 37.017976 1.559837 1.143666 0.097940 -0.025662 523901.000000 0 0 1
-1.711226 -33.605392 15.787897 37.168647 1.519919 1.132095 0.072324 -0.017439 44543.700000 0 0 1
-1.620326 -33.498992 17.203297 37.692988 1.522465 1.096845 0.055648 -0.014507 711784.000000 0 0 1
-2.923526 -33.207092 18.040897 37.904247 1.482984 1.074741 0.062422 -0.010266 309871.000000 0 0 1
-3.744226 33.452962 18.242997 38.287424 -1.459335 1.074155 0.062869 -0.006819 -190140.000000 0 0 1
-4.656526 33.740862 19.287097 39.142319 -1.433654 1.055557 0.066243 -0.006265 519334.000000 0 0 1
-5.661826 32.582762 19.635797 38.461112 -1.398747 1.034988 0.063583 -0.013110 503021.000000 0 0 1
-6.688926 32.366962 18.703197 37.975934 -1.367006 1.055835 0.057405 -0.017264 895822.000000 0 0 1
-7.740926 31.452262 19.182597 37.644903 -1.329476 1.036115 0.057411 -0.029475 1035530.000000 0 0 1
-8.887726 31.354662 18.162797 37.309432 -1.294584 1.062356 0.039753 -0.026738 -286398.000000 0 0 1
-9.709526 32.521362 18.092597 38.461096 -1.280663 1.081038 0.049420 -0.028193 221610.000000 0 0 1
-10.511526 32.446762 16.906297 38.067143 -1.257503 1.110607 0.050749 -0.019883 -30324.100000 0 0 1
-11.356726 33.680462 16.595397 39.226980 -1.245579 1.133976 0.077277 -0.033863 -257375.000000 0 0 1
-12.440226 33.788462 17.491097 40.029462 -1.218018 1.118585 0.065778 -0.027921 -691149.000000 0 0 1
-13.278526 -32.967892 17.085897 39.435124 1.187903 1.122683 0.046380 -0.027552 -419591.000000 0 0 1
-14.615026 -32.962292 17.886397 40.249657 1.153456 1.110307 0.076821 -0.033628 242327.000000 0 0 1
-14.568026 -32.573792 19.262397 40.550206 1.150247 1.075803 0.074156 -0.022919 -37974.800000 0 0 1
-15.825026 -32.832492 19.851697 41.502938 1.121658 1.072055 0.063737 -0.034151 247407.000000 0 0 1
-15.833926 -32.403492 21.341097 41.906347 1.116271 1.036475 0.073513 -0.035146 8020.090000 0 0 1
-15.870126 -31.005792 21.527597 40.947008 1.097719 1.017208 0.078087 -0.032964 81049.800000 0 0 1
-15.727826 -30.691192 22.920697 41.408599 1.097235 0.984205 0.074405 -0.026847 138090.000000 0 0 1
-15.707126 -29.137092 23.132997 40.383406 1.076378 0.960837 0.094231 -0.031484 -155693.000000 0 0 1
-15.667226 -28.729092 24.466097 40.858446 1.071535 0.928793 0.094889 -0.038504 -56525.800000 0 0 1
-15.617926 -27.359192 24.624597 39.985194 1.052088 0.907341 0.074694 -0.024799 -203721.000000 0 0 1
-16.875226 -26.552192 24.259097 39.727773 1.004647 0.913936 0.096218 -0.022900 -919995.000000 0 0 1
-17.974526 -26.767892 25.074397 40.845183 0.979458 0.909819 0.110571 -0.012076 -513406.000000 0 0 1
-19.013726 -25.956792 24.551597 40.472926 0.938580 0.918997 0.108248 -0.006638 -697287.000000 0 0 1
-20.211126 -25.781892 25.480697 41.502548 0.905933 0.909735 0.104872 0.004097 -409957.000000 0 0 1
-21.013026 -26.880792 25.857897 42.810689 0.907307 0.922279 0.111159 0.003062 609614.000000 0 0 1
-21.847626 -27.496492 24.869597 43.033390 0.899381 0.954626 0.111082 -0.005589 578860.000000 0 0 1
-23.177626 -26.754292 24.457697 43.025265 0.856907 0.966176 0.086614 0.007152 226358.000000 0 0 1
-23.078926 -25.548492 23.679697 41.786245 0.836140 0.968318 0.092855 0.007818 -1025100.000000 0 0 1
-24.205826 -25.329992 22.948697 41.882851 0.808088 0.990914 0.082837 0.004189 -1098930.000000 0 0 1
-24.573226 -23.796592 22.805997 41.112464 0.769343 0.982767 0.083031 0.017427 177333.000000 0 0 1
-25.218206 -23.319592 23.986397 41.894015 0.746302 0.961184 0.075008 0.019117 574917.000000 0 0 1
-25.915556 -22.057392 23.800197 41.528231 0.705147 0.960502 0.056279 0.014658 641277.000000 0 0 1
-26.513916 -21.337692 25.060897 42.265037 0.677645 0.936084 0.061705 0.014512 -202152.000000 0 0 1
-27.724696 -21.868392 25.498597 43.555295 0.667855 0.945385 0.056550 0.016364 -300885.000000 0 0 1
-28.025966 -21.176992 26.717897 44.133499 0.647088 0.920543 0.050888 0.002765 -263975.000000 0 0 1
-29.313276 -21.694292 27.451897 45.645559 0.637125 0.925526 0.050833 -0.006613 803182.000000 0 0 1
-30.533056 -21.199092 26.892497 45.878921 0.606890 0.944482 0.053525 -0.012784 590327.000000 0 0 1
-31.009226 -21.987792 25.815497 45.950788 0.616789 0.974227 0.049587 -0.000272 -538751.000000 0 0 1
-32.513936 -22.371492 25.953697 47.235940 0.602667 0.989093 0.043486 -0.005561 472493.000000 0 0 1
-33.117806 -22.918192 24.790297 47.292615 0.605350 1.019033 0.038778 -0.007055 158724.000000 0 0 1
-32.827996 -24.243592 24.578697 47.639704 0.636103 1.028705 0.034935 -0.005283 -627187.000000 0 0 1
-33.092166 -24.825192 23.181697 47.421226 0.643618 1.060029 0.038019 -0.008554 -214769.000000 0 0 1
-34.395733 -25.296892 22.969197 48.482813 0.634134 1.077241 0.055775 -0.012867 -208409.000000 0 0 1
-34.504279 -26.040892 21.735997 48.385193 0.646512 1.104895 0.073990 -0.007485 -337314.000000 0 0 1
-35.886792 -26.686692 21.640797 49.682647 0.639415 1.120113 0.078157 -0.012285 -501424.000000 0 0 1
-36.172086 -27.808192 22.399497 50.827677 0.655409 1.114424 0.052113 -0.018745 12320.300000 0 0 1
-35.471027 -29.014592 22.156797 50.901512 0.685609 1.120439 0.041923 -0.017074 -492740.000000 0 0 1
-35.999975 -29.930692 21.025697 51.321773 0.693601 1.148689 0.053103 -0.013513 -151441.000000 0 0 1
-36.013788 -29.404792 19.726897 50.505298 0.684713 1.169523 0.055889 -0.013414 387911.000000 0 0 1
-36.271116 -30.395092 18.770797 50.909707 0.697484 1.193178 0.054436 -0.004765 -417155.000000 0 0 1
-36.442676 -29.846692 17.330397 50.191994 0.686222 1.218257 0.069823 0.003000 62632.000000 0 0 1
-35.282352 -29.363692 16.662097 48.833351 0.694098 1.222600 0.064768 -0.010109 500869.000000 0 0 1
-35.641741 -28.783392 15.395497 48.330515 0.679343 1.246601 0.083024 -0.017030 174010.000000 0 0 1
-36.407406 -29.598892 14.315897 49.056483 0.682612 1.274662 0.086248 -0.016358 163248.000000 0 0 1
-35.634137 -30.637992 13.721797 48.956776 0.710152 1.286706 0.087916 -0.026521 222129.000000 0 0 1
-36.379996 -31.423092 12.803597 49.747833 0.712421 1.310497 0.095471 -0.023932 268682.000000 0 0 1
-36.788796 -30.655692 11.455397 49.238329 0.694712 1.335993 0.103015 -0.023942 823463.000000 0 0 1
37.110511 -29.676392 11.678997 48.931352 -0.674543 1.329789 0.109385 -0.025786 611739.000000 0 0 1
36.806651 -28.982092 10.452697 47.999480 -0.667020 1.351270 0.086487 -0.023008 231150.000000 0 0 1
35.642521 -27.962392 10.580297 46.521257 -0.665232 1.341359 0.128531 -0.014919 115601.000000 0 0 1
35.524281 -27.281592 9.395097 45.766010 -0.654903 1.364041 0.143905 -0.060655 47936.600000 0 0 1
34.424611 -26.401892 9.232497 44.354850 -0.654260 1.361112 0.120437 -0.051562 57067.300000 0 0 1
34.578661 -25.202392 8.231197 43.572892 -0.629822 1.380748 0.115644 -0.044407 -424370.000000 0 0 1
35.502021 -24.286292 8.694497 43.884071 -0.599963 1.371352 0.130677 -0.052862 -280239.000000 0 0 1
35.908381 -23.463592 7.603197 43.563294 -0.578782 1.395366 0.122345 -0.043797 282097.000000 0 0 1
36.507791 -22.030492 7.918297 43.368892 -0.542950 1.387186 0.131303 -0.043760 656364.000000 0 0 1
35.476441 -21.166892 8.422997 42.161144 -0.537950 1.369662 0.111457 -0.053208 591666.000000 0 0 1
35.830011 -19.803592 8.133697 41.738818 -0.504921 1.374670 0.126914 -0.040707 834930.000000 0 0 1
34.978011 -18.885892 9.101297 40.779551 -0.495084 1.345718 0.121764 -0.034416 858533.000000 0 0 1
35.646311 -18.810092 10.360897 41.615228 -0.485551 1.319181 0.103147 -0.045638 345158.000000 0 0 1
34.866011 -18.136392 11.334597 40.902818 -0.479656 1.290011 0.105971 -0.039481 103331.000000 0 0 1
35.370981 -18.391692 12.788297 41.867662 -0.479492 1.260390 0.090061 -0.043708 -971680.000000 0 0 1
36.496681 -17.707592 13.137297 42.639830 -0.451724 1.257602 0.077942 -0.028493 -871595.000000 0 0 1
36.932781 -18.277692 14.359797 43.638379 -0.459552 1.235485 0.072230 -0.014296 -384453.000000 0 0 1
-36.672726 -17.657992 14.800797 43.310011 0.448740 1.222028 0.083341 -0.026225 -386137.000000 0 0 1
-35.586770 -18.127792 14.057197 42.339577 0.471137 1.232362 0.082331 -0.018984 316375.000000 0 0 1
-34.386010 -17.437292 14.372897 41.146531 0.469315 1.213962 0.083539 -0.019599 801974.000000 0 0 1
-33.141686 -17.509292 13.426597 39.814823 0.486043 1.226827 0.083250 -0.019067 529630.000000 0 0 1
-32.439836 -18.742792 13.515297 39.828362 0.523914 1.224583 0.073611 -0.019498 203662.000000 0 0 1
-31.278506 -18.656792 12.710097 38.574180 0.537822 1.235025 0.066173 -0.021613 465923.000000 0 0 1
-30.577766 -20.074692 12.489197 38.651948 0.580940 1.241772 0.066296 -0.029893 501645.000000 0 0 1
-31.218356 -20.862692 11.488997 39.266203 0.589121 1.273859 0.082397 -0.028294 -242274.000000 0 0 1
-30.256556 -21.632192 10.843797 38.742726 0.620695 1.287114 0.076209 -0.025479 -92773.600000 0 0 1
-30.946836 -22.497992 9.689497 39.468375 0.628610 1.322761 0.094632 -0.029750 894145.000000 0 0 1
-31.711406 -23.607492 10.186497 40.825135 0.639938 1.318617 0.112891 -0.029532 -556607.000000 0 0 1
-33.062666 -23.330592 10.375197 41.774407 0.614506 1.319807 0.132478 -0.044621 -722125.000000 0 0 1
-33.814896 -24.709892 10.540897 43.187225 0.631060 1.324231 0.155940 -0.046293 15633.400000 0 0 1
-34.215348 -25.286492 9.325697 43.555313 0.636449 1.355014 0.145703 -0.036164 -118738.000000 0 0 1
-34.628626 -26.613492 9.498697 44.695021 0.655262 1.356641 0.156707 -0.029978 -156291.000000 0 0 1
-34.789012 -27.400192 8.168297 45.030733 0.667141 1.388393 0.145187 -0.021398 464516.000000 0 0 1
-33.564596 -27.765992 7.527497 44.206285 0.691132 1.399681 0.137997 -0.022141 288620.000000 0 0 1
-33.779136 -28.396992 6.249097 44.569837 0.699051 1.430124 0.125323 -0.030156 339445.000000 0 0 1
-32.446376 -28.687492 5.486797 43.655978 0.723989 1.444780 0.127689 -0.025145 418384.000000 0 0 1
-31.953396 -27.566092 4.780597 42.470731 0.711819 1.457995 0.121199 -0.023288 -1375320.000000 0 0 1
-30.873246 -27.945492 4.064597 41.840516 0.735663 1.473498 0.099449 -0.024697 -1268510.000000 0 0 1
-29.908086 -26.819692 3.624197 40.335149 0.731009 1.480823 0.108383 -0.017086 -9157.180000 0 0 1
-30.379826 -25.940792 2.641897 40.035461 0.706744 1.504759 0.103612 -0.014078 -172952.000000 0 0 1
-29.394006 -25.005192 2.267997 38.657612 0.704895 1.512094 0.113553 -0.032491 -94606.700000 0 0 1
-29.732516 -24.407192 0.902497 38.477890 0.687351 1.547339 0.106112 -0.030547 -86951.600000 0 0 1
-29.770306 -25.358492 -0.164403 39.106921 0.705541 1.575000 0.100434 -0.032008 378.823000 0 0 1
-29.846166 -24.689492 -1.417903 38.760483 0.691122 1.607386 0.104894 -0.033040 979122.000000 0 0 1
-31.312736 -24.421192 -1.950003 39.757824 0.662372 1.619863 0.102360 -0.031108 859935.000000 0 0 1
-31.926696 -23.277192 -1.417603 39.536706 0.629979 1.606659 0.097273 -0.029011 240626.000000 0 0 1
-33.230436 -23.194792 -1.984803 40.573386 0.609381 1.619735 0.094464 -0.026154 327098.000000 0 0 1
-34.032732 -21.882892 -1.796103 40.500787 0.571435 1.615158 0.087224 -0.024829 -95804.900000 0 0 1
-34.441062 -21.646792 -0.413103 40.680966 0.561124 1.580951 0.085441 -0.035018 83182.900000 0 0 1
-35.361737 -20.568492 -0.334003 40.909984 0.526825 1.578961 0.087524 -0.029113 -134125.000000 0 0 1
-35.445565 -20.001392 1.060897 40.713256 0.513744 1.544736 0.094256 -0.035724 -359931.000000 0 0 1
-36.224976 -20.883692 1.818797 41.853142 0.522961 1.527326 0.083486 -0.040059 -29150.600000 0 0 1
-36.437566 -20.299792 3.063397 41.822986 0.508287 1.497484 0.094178 -0.046027 -797191.000000 0 0 1
37.403521 -21.043392 3.861397 43.090116 -0.512469 1.481064 0.110820 -0.029027 514915.000000 0 0 1
36.133141 -20.847192 3.242397 41.841635 -0.523302 1.493226 0.103330 -0.033104 20670.900000 0 0 1
35.437201 -19.745692 3.777897 40.742607 -0.508356 1.477937 0.111744 -0.043762 -535065.000000 0 0 1
34.116331 -19.496292 3.032197 39.410958 -0.519174 1.493782 0.108515 -0.031936 -38622.300000 0 0 1
33.041831 -20.392792 3.236497 38.962847 -0.552957 1.487634 0.098490 -0.027564 -170209.000000 0 0 1
31.928831 -19.940792 2.480797 37.725850 -0.558268 1.504990 0.117214 -0.041312 -365106.000000 0 0 1
30.651191 -20.626492 2.929297 37.061145 -0.592335 1.491674 0.113178 -0.026479 -675972.000000 0 0 1
30.442991 -21.869592 2.266297 37.552508 -0.622954 1.510410 0.098576 -0.023635 1229000.000000 0 0 1
29.139541 -22.464192 2.565397 36.882706 -0.656755 1.501185 0.108151 -0.021475 1360160.000000 0 0 1
28.864241 -23.745792 1.808497 37.420284 -0.688413 1.522448 0.095650 -0.023637 -310873.000000 0 0 1
28.492841 -23.560092 0.484597 36.975056 -0.690916 1.557690 0.096775 -0.023045 46790.500000 0 0 1
28.152141 -24.876592 -0.038403 37.568462 -0.723707 1.571819 0.095093 -0.030009 -173139.000000 0 0 1
27.075841 -24.677492 -1.126803 36.651732 -0.739089 1.601545 0.104717 -0.036425 -304473.000000 0 0 1
27.436841 -23.937192 -2.295903 36.483428 -0.717382 1.633768 0.095165 -0.032782 258949.000000 0 0 1
28.255441 -24.615992 -3.283903 37.617828 -0.716671 1.658204 0.092744 -0.037350 62131.800000 0 0 1
27.435441 -25.411592 -4.386403 37.652263 -0.747121 1.687559 0.089462 -0.038915 555471.000000 0 0 1
26.725541 -24.620892 -5.355003 36.730354 -0.744432 1.717110 0.086302 -0.049235 544233.000000 0 0 1
25.486441 -24.149192 -4.849903 35.443810 -0.758463 1.708061 0.090086 -0.044448 -428779.000000 0 0 1
24.800641 -23.142792 -5.824903 34.417875 -0.750833 1.740855 0.084684 -0.050974 -193970.000000 0 0 1
24.149041 -23.735592 -6.939403 34.564574 -0.776764 1.772936 0.061932 -0.045019 431655.000000 0 0 1
23.039541 -22.986092 -7.437603 33.384110 -0.784237 1.795470 0.059794 -0.035953 144198.000000 0 0 1
23.264741 -21.599792 -8.064803 32.754240 -0.748305 1.819576 0.052140 -0.033075 -750544.000000 0 0 1
23.757441 -21.537892 -9.353003 33.403225 -0.736436 1.854594 0.053542 -0.030150 -37930.500000 0 0 1
23.759741 -20.217892 -9.860103 32.718650 -0.705034 1.876915 0.047828 -0.018538 -225315.000000 0 0 1
24.190541 -19.947092 -11.331103 33.338606 -0.689551 1.917585 0.045403 -0.015574 13761.600000 0 0 1
25.589541 -20.072792 -11.462703 34.483839 -0.665165 1.909652 0.069527 -0.020297 -158051.000000 0 0 1
25.931841 -19.572592 -12.776703 34.911185 -0.646547 1.945479 0.057638 -0.021548 742462.000000 0 0 1
27.477641 -19.733692 -13.011303 36.245460 -0.622819 1.937968 0.071628 -0.022810 888909.000000 0 0 1
27.985241 -21.060292 -13.067703 37.382810 -0.645131 1.927903 0.036050 -0.019439 -223048.000000 0 0 1
28.696341 -21.350792 -11.893003 37.693233 -0.639666 1.891802 0.067698 -0.027520 -384180.000000 0 0 1
29.208141 -22.788892 -11.937403 38.922367 -0.662566 1.882518 0.057116 -0.015461 631382.000000 0 0 1
30.353141 -22.921792 -12.821703 40.138731 -0.646802 1.895929 0.051279 -0.024246 923709.000000 0 0 1
30.644541 -24.323592 -13.003103 41.228700 -0.670908 1.891663 0.046473 -0.017973 -164086.000000 0 0 1
-3.715726 -8.987338 -27.740813 29.396115 1.178758 2.804408 0.073253 -0.017159 151588.000000 0 0 1
-3.721526 -7.681638 -27.247663 28.553326 1.119649 2.838014 0.083458 -0.018084 -153274.000000 0 0 1
-4.819226 -6.930338 -27.724203 28.980786 0.963177 2.846038 0.084453 -0.023913 22768.400000 0 0 1
-4.958826 -5.514238 -27.073543 28.070866 0.838381 2.874231 0.084933 -0.028504 -96101.800000 0 0 1
-5.424826 -5.631538 -25.717413 26.879886 0.804092 2.846424 0.071406 -0.030095 215273.000000 0 0 1
-5.446826 -4.346338 -25.216953 26.162058 0.673495 2.871983 0.082760 -0.031663 140022.000000 0 0 1
-6.098326 -4.309338 -23.823103 24.965981 0.615170 2.837846 0.068520 -0.028395 312330.000000 0 1 0
-5.291626 -5.050238 -22.879103 24.019982 0.762062 2.832148 0.068744 -0.037477 691224.000000 0 1 0
-5.770526 -4.981438 -21.553903 22.862293 0.712139 2.801641 0.058149 -0.024970 -105761.000000 0 1 0
-5.009926 -6.003038 -20.711503 22.138251 0.875332 2.780617 0.051258 -0.020419 -160791.000000 0 1 0
-5.379426 -7.367338 -20.902303 22.806187 0.940106 2.730085 0.045940 -0.012176 431162.000000 0 1 0
-4.553726 -8.251238 -20.118203 22.216243 1.066508 2.703501 0.051501 -0.018955 -719614.000000 0 1 0
-5.095326 -9.691438 -20.065003 22.858054 1.086757 2.642065 0.055695 -0.013853 -561155.000000 0 1 0
-6.271826 -9.905338 -19.382803 22.652694 1.006339 2.597604 0.047502 -0.003291 -305285.000000 0 1 0
-7.451626 -9.382038 -20.006903 23.320067 0.899575 2.602016 0.036623 -0.002742 -486441.000000 0 1 0
-8.671426 -9.247638 -19.099203 22.923612 0.817543 2.555607 0.034404 0.005903 -319234.000000 0 1 0
-9.354626 -10.425638 -18.729403 23.387892 0.839491 2.499453 0.053956 -0.000398 78088.400000 0 1 0
-10.218326 -10.186038 -17.620003 22.773538 0.783816 2.455465 0.070164 -0.001488 -154679.000000 0 1 0
-11.162626 -11.350738 -17.309003 23.516910 0.793754 2.397974 0.059368 0.008635 190374.000000 0 1 0
-12.312326 -11.580238 -18.130203 24.787084 0.754767 2.391224 0.083962 -0.007207 582113.000000 0 1 0
-11.950826 -11.963038 -19.431903 25.759180 0.785909 2.425487 0.078236 -0.016888 -668226.000000 0 0 1
-13.197926 -11.972838 -20.372003 27.065709 0.736765 2.422930 0.083615 -0.022842 1194590.000000 0 0 1
-14.112026 -13.101338 -20.289903 27.972745 0.748276 2.382332 0.090012 -0.021840 657110.000000 0 0 1
-14.857126 -13.151238 -19.050503 27.506561 0.724567 2.335856 0.087040 -0.013788 -166458.000000 0 0 1
-16.158726 -13.999538 -19.146003 28.699493 0.713925 2.301132 0.082876 -0.010682 221975.000000 0 0 1
-15.914826 -15.403738 -19.263103 29.353432 0.769081 2.286630 0.086720 -0.016908 -275035.000000 0 0 1
-16.487626 -16.016238 -20.382603 30.721526 0.770897 2.296234 0.101778 -0.015690 -70670.800000 0 0 1
-15.934926 -17.408038 -20.737503 31.416646 0.829550 2.291722 0.062661 -0.013102 -132282.000000 0 0 1
-16.347426 -18.455838 -19.886303 31.675248 0.845905 2.249544 0.074799 -0.010934 18787.400000 0 0 1
-16.116126 -19.742538 -20.422303 32.658349 0.886186 2.246353 0.062435 -0.012069 -307924.000000 0 0 1
-16.814926 -20.871538 -19.675603 33.248942 0.892626 2.204045 0.076137 -0.014905 -142908.000000 0 0 1
-16.295426 -22.107038 -20.111603 34.040250 0.935593 2.202869 0.069496 -0.016948 566934.000000 0 0 1
-17.186426 -23.181838 -19.732803 34.959324 0.932838 2.170564 0.090244 -0.014405 236576.000000 0 0 1
-16.883826 -24.552338 -20.313803 36.062882 0.968396 2.169157 0.086591 -0.023079 -270493.000000 0 0 1
-17.184826 -24.788838 -21.668503 37.139315 0.964616 2.193752 0.061528 -0.018068 178129.000000 0 0 1
-16.728326 -26.057948 -22.160003 38.077805 1.000089 2.191941 0.075430 -0.018305 -216520.000000 0 0 1
-17.129826 -26.208938 -23.649303 39.238105 0.991904 2.217693 0.079134 -0.020538 87717.100000 0 0 1
-18.412326 -26.771158 -23.920503 40.347232 0.968328 2.205409 0.095167 -0.011243 162196.000000 0 0 1
-18.490326 -28.160268 -23.889303 41.298809 0.989788 2.187624 0.106570 -0.009322 155240.000000 0 0 1
-19.602926 -28.905518 -24.729303 42.794183 0.974870 2.186908 0.106915 -0.007980 153568.000000 0 0 1
-19.379626 -28.928628 -26.152233 43.547385 0.980551 2.214981 0.104263 -0.010230 84795.900000 0 0 1
-19.182726 -27.647858 -26.795753 43.016199 0.964228 2.243269 0.107610 -0.017087 1124970.000000 0 0 1
-17.787526 -27.514808 -27.556483 42.811453 0.996906 2.270082 0.123637 -0.023662 855211.000000 0 0 1
-17.814426 -27.764838 -28.950033 43.890140 1.000336 2.291086 0.124114 -0.028366 -528237.000000 0 0 1
-16.538326 -27.586038 -29.476193 43.627419 1.030731 2.312621 0.094037 -0.018221 -465315.000000 0 0 1
-16.416126 -27.909898 -30.986663 44.817685 1.039111 2.334213 0.109786 -0.027944 -17379.300000 0 0 1
-16.550026 -29.309488 -31.295903 45.960668 1.056764 2.319825 0.082626 -0.023603 379442.000000 0 0 1
-17.417326 -29.434608 -32.412513 47.120382 1.036480 2.329341 0.091099 -0.022296 94742.200000 0 0 1
-17.178226 -30.771318 -33.113983 48.358053 1.061638 2.325080 0.085477 -0.021805 -224607.000000 0 0 1
-15.923326 -30.999978 -33.697443 48.477506 1.096284 2.339376 0.073186 -0.018624 -221916.000000 0 0 1
-16.023326 -32.094768 33.313054 48.954884 1.107749 0.822372 0.066823 -0.017333 413676.000000 0 0 1
-14.623426 -32.512008 32.782658 48.431167 1.148121 0.827265 0.048812 -0.017477 504342.000000 0 0 1
-13.849326 -33.345998 33.616763 49.334027 1.177152 0.821107 0.054917 -0.017969 -444221.000000 0 0 1
-12.696626 -33.782478 32.978677 48.888171 1.211294 0.830409 0.062081 -0.018670 -280515.000000 0 0 1
-11.778726 32.988621 33.758302 48.647820 -1.227851 0.803860 0.066388 -0.021311 404482.000000 0 0 1
-10.930326 33.659814 -33.171043 48.505393 -1.256809 2.323840 0.080674 -0.023667 -293871.000000 0 0 1
-10.232726 32.835698 -32.305923 47.186485 -1.268700 2.324911 0.083591 -0.027751 -33125.400000 0 0 1
-9.448726 33.670171 -31.291223 46.926532 -1.297207 2.300720 0.076157 -0.028561 -163842.000000 0 0 1
-10.357526 -33.509968 -30.411663 46.422683 1.271023 2.285116 0.089365 -0.029025 -221320.000000 0 0 1
-9.719226 -32.559258 -29.640323 45.090103 1.280708 2.288103 0.099799 -0.032188 -694130.000000 0 0 1
-10.689526 -31.593568 -28.915433 44.142063 1.244542 2.285050 0.100652 -0.026396 181060.000000 0 0 1
-10.930626 -31.847148 -27.543843 43.501525 1.240173 2.256438 0.143672 -0.034848 97623.800000 0 0 1
-11.534826 -33.124148 -27.286823 44.439083 1.235699 2.231950 0.120002 -0.035443 -391493.000000 0 0 1
-11.942126 -33.350818 -25.813593 43.831872 1.226945 2.200522 0.144726 -0.039438 -2476.950000 0 0 1
-10.834526 -33.384758 -24.945403 43.060448 1.256985 2.188680 0.156896 -0.055335 -400219.000000 0 0 1
-11.198426 -33.526228 -23.598703 42.500723 1.248428 2.159465 0.164257 -0.061128 872978.000000 0 0 1
-10.008726 -33.595888 -22.540203 41.676361 1.281253 2.142231 0.171810 -0.066859 824368.000000 0 0 1
-9.237626 32.982242 -22.533703 40.999143 -1.297715 2.152698 0.148251 -0.068714 -864227.000000 0 0 1
-8.280626 33.192892 -21.551203 40.432551 -1.326317 2.132958 0.164214 -0.067661 -738054.000000 0 0 1
-7.434426 31.915472 -21.402603 39.139998 -1.341936 2.149360 0.162523 -0.069567 -673152.000000 0 0 1
-6.446426 31.740136 -22.383403 39.370158 -1.370422 2.175523 0.138349 -0.080780 -217910.000000 0 0 1
-5.735026 30.510266 -22.129103 38.124323 -1.384994 2.190072 0.113523 -0.067392 1609790.000000 0 0 1
-4.182026 30.625766 -22.472003 38.215413 -1.435083 2.199424 0.106985 -0.068891 1361460.000000 0 0 1
-3.950226 30.962666 -23.839403 39.276050 -1.443902 2.223039 0.122263 -0.060694 501564.000000 0 0 1
-2.743626 30.386946 -24.380003 39.054814 -1.480751 2.244969 0.115212 -0.065968 659280.000000 0 0 1
-2.487526 30.905566 -25.820413 40.348922 -1.490482 2.265201 0.111918 -0.035483 -151402.000000 0 0 1
-1.610726 31.985983 -26.070193 41.295913 -1.520482 2.254027 0.107746 -0.055729 -28949.400000 0 0 1
-2.086226 33.253425 -25.756663 42.113516 -1.508141 2.228879 0.111305 -0.052216 229743.000000 0 0 1
-1.284526 -33.450978 -26.625953 42.773348 1.532415 2.242716 0.044178 -0.026090 839412.000000 0 0 1
0.061974 -33.305248 -26.190913 42.369887 -1.568936 2.237182 0.079105 -0.042982 -81813.900000 0 0 1
0.699374 -32.266418 -26.846073 41.980025 -1.549125 2.264639 0.045850 -0.025836 -106276.000000 0 0 1
2.059474 -31.794568 -26.299753 41.313593 -1.506112 2.260863 0.060613 -0.024389 -203902.000000 0 0 1
1.914574 -31.166058 -25.071313 40.044469 -1.509442 2.247321 0.046994 -0.015828 -187127.000000 0 0 1
3.109574 -30.521728 -24.736203 39.409708 -1.469266 2.249350 0.031035 -0.016864 -583483.000000 0 0 1
3.088074 -29.640998 -23.436803 37.913173 -1.466988 2.237209 0.053112 -0.014074 -330317.000000 0 0 1
3.176674 -30.422548 -22.226803 37.810758 -1.466755 2.199187 0.066250 -0.015018 354458.000000 0 0 1
3.480674 -29.614818 -21.086603 36.521191 -1.453802 2.186312 0.072418 -0.007513 -153474.000000 0 0 1
3.705374 -30.379918 -19.761603 36.430621 -1.449428 2.144141 0.073784 -0.009069 -276102.000000 0 0 1
2.512874 -30.931108 -19.261403 36.524644 -1.489733 2.126279 0.065960 -0.017177 81406.000000 0 0 1
2.283974 -32.242738 -19.740203 37.874613 -1.500078 2.119051 0.059172 -0.015854 -304115.000000 0 0 1
2.643874 -33.485868 -18.821603 38.503846 -1.492005 2.081537 0.046836 -0.014503 261276.000000 0 0 1
4.021274 -33.814968 -18.891003 38.942171 -1.452432 2.077278 0.062060 -0.005081 66378.700000 0 0 1
4.258274 32.722803 -18.214803 37.692092 1.441392 2.075163 0.068952 -0.019742 17643.600000 0 0 1
5.422374 31.954428 -18.817003 37.477556 1.402707 2.096807 0.071154 -0.013109 -611410.000000 0 0 1
6.699074 32.506084 -18.812303 38.150043 1.367555 2.086461 0.092104 -0.016322 -479072.000000 0 0 1
7.559674 31.619886 -19.532503 37.927358 1.336122 2.111801 0.085364 -0.035250 426894.000000 0 0 1
8.987474 32.170487 -19.776703 38.817945 1.298372 2.105369 0.085008 -0.030902 230021.000000 0 0 1
9.817174 32.260445 -18.640503 38.530268 1.275390 2.075775 0.086379 -0.030380 -57672.600000 0 0 1
10.903674 33.148387 -18.867303 39.669645 1.253009 2.066454 0.087325 -0.012065 -541102.000000 0 0 1
11.777274 33.309535 -17.706003 39.518753 1.230944 2.035369 0.082174 -0.011046 -886602.000000 0 0 1
12.541174 32.183756 -17.350903 38.653965 1.199223 2.036305 0.074355 -0.021339 -244697.000000 0 0 1
13.100174 32.389925 -16.103303 38.471264 1.186458 2.002678 0.072932 -0.021449 328292.000000 0 0 1
14.394174 31.579236 -15.712403 38.096194 1.143120 1.995927 0.056313 -0.016676 866626.000000 0 0 1
14.232874 30.322466 -15.154903 36.765442 1.131940 1.995669 0.069587 -0.014945 -731931.000000 0 0 1
15.503274 29.963616 -14.686403 36.794839 1.093323 1.981378 0.070165 -0.006328 -112650.000000 0 0 1
15.545574 28.849436 -13.611003 35.485408 1.076552 1.964451 0.081200 -0.015572 -378759.000000 0 0 1
15.264574 29.305226 -12.311803 35.261650 1.090583 1.927466 0.070911 -0.017860 175435.000000 0 0 1
13.903274 29.267506 -11.891303 34.515084 1.127314 1.922529 0.096440 -0.019047 394528.000000 0 0 1
13.306374 27.876726 -11.610703 32.999695 1.125449 1.930335 0.088811 -0.022952 -937488.000000 0 0 1
12.704974 27.265886 -12.783803 32.684408 1.134745 1.972654 0.064405 -0.022444 120210.000000 0 0 1
12.312274 25.904746 -12.535403 31.301506 1.127111 1.982829 0.078484 -0.026263 684138.000000 0 0 1
11.314374 25.682986 -11.316503 30.260437 1.155837 1.954083 0.063092 -0.018871 184451.000000 0 0 1
10.085174 26.404616 -11.380703 30.470229 1.205949 1.953578 0.064691 -0.019994 386551.000000 0 0 1
9.488374 26.456876 -10.102603 29.867342 1.226449 1.915852 0.051021 -0.012147 592507.000000 0 0 1
8.382774 27.586076 -10.050303 30.533114 1.275786 1.906211 0.063203 -0.010840 823082.000000 0 0 1
9.045774 28.828156 -10.210903 31.892807 1.266743 1.896698 0.062830 -0.025172 644106.000000 0 0 1
8.103574 29.901176 -10.376503 32.671395 1.306142 1.893996 0.058357 -0.011899 779733.000000 0 0 1
8.835474 31.169936 -10.932403 34.192805 1.294581 1.896239 0.086825 -0.019185 381525.000000 0 0 1
9.704674 31.883182 -10.061003 34.812954 1.275324 1.863980 0.065521 -0.021965 53508.100000 0 0 1
10.119274 33.168427 -10.629503 36.270243 1.274679 1.868226 0.095127 -0.022977 406427.000000 0 0 1
11.217474 33.173326 -11.734603 36.932400 1.244719 1.894133 0.085521 -0.022833 -351941.000000 0 0 1
12.474574 32.829622 -11.238103 36.874029 1.207667 1.880493 0.085634 -0.015247 -1290770.000000 0 0 1
13.474774 33.076924 -12.135703 37.721714 1.183947 1.898338 0.099436 -0.020570 -952858.000000 0 0 1
14.891874 32.965371 -11.597803 37.986743 1.146494 1.881062 0.096576 -0.027485 -302634.000000 0 0 1
15.326274 33.833656 -10.565803 38.616669 1.145460 1.847938 0.109473 -0.029432 75278.400000 0 0 1
16.736274 -33.795698 -10.584103 39.169827 -1.110981 1.844408 0.096540 -0.035205 150173.000000 0 0 1
17.334774 -32.790868 -9.586403 38.309719 -1.084495 1.823718 0.108455 -0.035882 -14021.900000 0 0 1
17.290874 -33.331308 -8.269703 38.449167 -1.092255 1.787572 0.107741 -0.034726 -92110.500000 0 0 1
17.911574 -32.506408 -7.322303 37.829977 -1.067173 1.765584 0.101477 -0.031363 -500702.000000 0 0 1
18.302274 -33.229158 -5.977803 38.404223 -1.067347 1.727087 0.094480 -0.027652 1048470.000000 0 0 1
19.317374 33.519108 -6.204203 39.181420 1.047979 1.729811 0.079401 -0.025316 12971.300000 0 0 1
20.639974 -33.788018 -6.190103 40.074382 -1.022425 1.725883 0.083540 -0.025396 -807737.000000 0 0 1
21.595874 32.910072 -6.811203 39.948055 0.990069 1.742135 0.057628 -0.013373 125127.000000 0 0 1
21.722874 31.676776 -6.114003 38.893218 0.969687 1.728651 0.062557 -0.006700 366338.000000 0 0 1
22.606874 31.732166 -4.954003 39.275224 0.951778 1.697269 0.065943 -0.004771 240689.000000 0 0 1
22.916074 30.312196 -4.490203 38.264051 0.923465 1.688415 0.049939 -0.008152 -256514.000000 0 0 1
23.662274 29.624796 -5.448703 38.304309 0.896829 1.713528 0.043184 -0.006430 -235924.000000 0 0 1
23.870474 28.240846 -5.029703 37.318130 0.869068 1.705987 0.045926 0.002875 -415252.000000 0 0 1
24.849274 27.516166 -5.922103 37.545933 0.836283 1.729187 0.041435 0.011892 6270.860000 0 0 1
26.145174 28.111896 -6.065003 38.866863 0.821631 1.727482 0.054903 0.010243 741378.000000 0 0 1
27.030474 27.249066 -6.790303 38.977767 0.789425 1.745899 0.036853 0.012385 867983.000000 0 0 1
27.884274 26.237066 -5.864003 38.733744 0.754972 1.722773 0.049599 0.016855 -145731.000000 0 0 1
28.944474 26.811986 -5.172403 39.792197 0.747170 1.701151 0.070780 0.010022 -116530.000000 0 0 1
29.564874 25.954036 -4.203603 39.564682 0.720452 1.677244 0.084073 0.004560 395194.000000 0 0 1
30.846474 26.459686 -3.506803 40.791146 0.708997 1.656872 0.090664 -0.000882 192174.000000 0 0 1
30.556774 27.480326 -2.528303 41.173742 0.732439 1.632241 0.101715 -0.003042 333654.000000 0 0 1
31.658074 27.651816 -1.648403 42.066303 0.717953 1.609992 0.117767 -0.009475 455886.000000 0 0 1
31.483574 29.056186 -1.025503 42.854743 0.745324 1.594728 0.146950 -0.011244 247302.000000 0 0 1
31.867774 30.088896 -1.932203 43.870606 0.756694 1.614854 0.117177 -0.009391 70756.700000 0 0 1
31.495174 31.357236 -1.439203 44.466769 0.783204 1.603168 0.134572 -0.008725 -40940.100000 0 0 1
34.380731 22.423262 19.013616 45.236655 0.577923 1.137005 0.144580 -0.030098 93257.700000 0 0 1
34.821151 22.326962 20.340516 46.094928 0.570157 1.113778 0.127045 -0.031222 708448.000000 0 0 1
35.720211 23.423862 20.705816 47.469375 0.580413 1.119433 0.138008 -0.031999 672361.000000 0 0 1
35.753981 23.501262 22.246716 48.224194 0.581493 1.091316 0.107281 -0.014430 335024.000000 0 0 1
34.512141 23.892462 22.821416 47.778182 0.605534 1.072814 0.102688 -0.012116 431390.000000 0 0 1
34.650011 24.120862 24.221256 48.673489 0.608123 1.049935 0.096405 -0.012857 -547661.000000 0 0 1
33.315541 24.513862 24.836906 48.246519 0.634357 1.030032 0.112195 -0.020702 -364678.000000 0 0 1
33.097331 25.892362 24.694486 48.740798 0.663861 1.039503 0.096707 -0.023425 931583.000000 0 0 1
31.798141 26.250362 25.204976 48.326950 0.690116 1.022128 0.092937 -0.031822 676610.000000 0 0 1
31.589531 27.728062 25.176356 48.995845 0.720392 1.031134 0.079364 -0.024428 -90974.600000 0 0 1
31.194961 28.279062 23.918696 48.424528 0.736409 1.054184 0.081205 -0.036913 340397.000000 0 0 1
30.825041 29.651462 24.040496 49.064629 0.765995 1.058734 0.070693 -0.027910 -135419.000000 0 0 1
31.293331 30.552162 22.893486 49.364146 0.773415 1.088553 0.066355 -0.029330 134718.000000 0 0 1
32.694571 30.757462 22.858366 50.373220 0.754879 1.099794 0.033696 -0.023391 19723.300000 0 0 1
32.995731 31.600362 21.792916 50.618498 0.763800 1.125713 0.027969 -0.010975 135927.000000 0 0 1
34.460511 32.098062 21.756716 51.876460 0.749919 1.138018 0.007890 -0.026557 191109.000000 0 0 1
34.715431 33.175562 22.627516 53.082799 0.762721 1.130433 0.022169 -0.014639 988789.000000 0 0 1
36.110721 33.500962 22.431816 54.124717 0.747925 1.143461 0.029631 -0.015747 1040770.000000 0 0 1
36.393731 -32.938192 23.213476 54.298192 -0.735599 1.129050 0.027532 -0.010360 -336067.000000 0 0 1
35.647021 -31.827392 22.813696 52.954298 -0.728850 1.125397 0.011139 -0.001423 -39578.100000 0 0 1
35.914381 -30.648692 23.575626 52.773054 -0.706454 1.107683 0.030085 -0.001213 -229635.000000 0 0 1
34.895081 -29.538992 23.153356 51.247406 -0.702464 1.102019 0.022383 -0.006688 655856.000000 0 0 1
33.527481 -29.740192 23.472506 50.591793 -0.725608 1.088337 0.012727 0.000509 451032.000000 0 0 1
32.815791 -30.363992 22.389516 50.001386 -0.746611 1.106518 0.024835 0.008810 -237165.000000 0 0 1
32.341371 -31.836292 22.736116 50.758691 -0.777528 1.106353 0.012954 0.010124 -430431.000000 0 0 1
31.255171 -31.863392 23.617086 50.496814 -0.795034 1.084116 0.005171 0.003422 -133968.000000 0 0 1
30.892781 -33.206292 23.883186 51.258446 -0.821475 1.086103 0.007662 0.006467 274834.000000 0 0 1
29.923041 -33.255292 25.120076 51.306150 -0.838093 1.059152 0.009523 -0.002243 238012.000000 0 0 1
29.499141 33.195562 25.402576 51.160879 0.844289 1.051207 0.023118 -0.014052 -15105.800000 0 0 1
28.803941 33.008862 26.581416 51.242791 0.853320 1.025426 0.027941 -0.008081 -980150.000000 0 0 1
28.407641 31.501862 26.787386 50.168969 0.837001 1.007539 0.045865 -0.021646 243410.000000 0 0 1
27.619741 30.838562 25.840756 48.801759 0.840404 1.012780 0.045547 -0.019066 -530282.000000 0 0 1
26.309941 31.307562 25.725376 48.313263 0.871920 1.009280 0.040196 -0.011697 -840291.000000 0 0 1
25.687841 30.973662 24.335246 47.025920 0.878417 1.026886 0.078743 -0.032263 7584.010000 0 0 1
25.956441 31.856162 23.202036 47.189897 0.887095 1.056785 0.097318 -0.038037 -182822.000000 0 0 1
27.292041 31.795462 22.787716 47.697871 0.861467 1.072703 0.066941 -0.026994 -538571.000000 0 0 1
27.626941 32.678962 21.591616 47.930787 0.868976 1.103499 0.076974 -0.013922 -259825.000000 0 0 1
28.994341 32.833662 21.317216 48.714935 0.847415 1.117879 0.072999 -0.010660 -185796.000000 0 0 1
29.180641 33.597362 20.131516 48.842302 0.855637 1.145958 0.062071 -0.015572 -73607.000000 0 0 1
30.644831 -33.852392 19.764016 49.756471 -0.835089 1.162316 0.066667 -0.017903 381596.000000 0 0 1
31.352371 32.813862 19.142316 49.255954 0.808171 1.171653 0.080569 -0.035547 323336.000000 0 0 1
32.224161 33.214362 18.090716 49.687668 0.800529 1.198142 0.071052 -0.018374 -83015.100000 0 0 1
33.008201 32.002162 17.583916 49.222696 0.769924 1.205494 0.062505 -0.028964 156771.000000 0 0 1
33.987021 31.433062 18.473116 49.843866 0.746379 1.191120 0.050812 -0.027948 399724.000000 0 0 1
34.912851 30.668062 17.741416 49.741281 0.720762 1.206091 0.066651 -0.038777 -97490.200000 0 0 1
35.922841 29.911462 18.621216 50.317947 0.694340 1.191711 0.080387 -0.051750 3176.390000 0 0 1
36.934261 30.768562 19.113016 51.731532 0.694579 1.192363 0.086424 -0.042695 -49746.300000 0 0 1
-37.115116 30.124362 19.968316 51.804852 -0.681802 1.175098 0.099794 -0.045170 -249599.000000 0 0 1
-36.079416 31.037762 20.615316 51.865771 -0.710422 1.162033 0.094566 -0.040136 -467753.000000 0 0 1
-35.218785 31.670262 19.726316 51.307854 -0.732397 1.176163 0.089594 -0.038822 -214293.000000 0 0 1
-34.207035 32.485662 20.288116 51.352187 -0.759593 1.164644 0.073653 -0.026395 103299.000000 0 0 1
-34.601989 33.811962 21.044416 52.758069 -0.773851 1.160495 0.056956 -0.023660 -303682.000000 0 0 1
-34.899479 33.656462 22.442816 53.426688 -0.767269 1.137277 0.066193 -0.025363 163491.000000 0 0 1
-34.291435 -33.117092 23.220126 53.026583 0.767979 1.117539 0.075695 -0.023543 -202754.000000 0 0 1
-34.458466 -33.325392 24.712596 53.932180 0.768684 1.094809 0.081568 -0.034603 -371063.000000 0 0 1
-35.763685 -33.324392 25.215296 55.003340 0.750106 1.094566 0.067355 -0.018406 -512318.000000 0 0 1
-35.773014 33.842762 26.499166 55.921792 -0.757678 1.077126 0.090050 -0.025476 -266895.000000 0 0 1
-37.197206 33.705362 26.998956 56.996729 -0.736189 1.077317 0.069803 -0.034119 -447843.000000 0 0 1
-37.071876 33.146662 28.270316 57.203461 -0.729556 1.053875 0.094479 -0.032618 -170332.000000 0 0 1
36.588821 32.978762 28.817076 57.068068 0.733552 1.041461 0.104842 -0.039206 -337635.000000 0 0 1
36.640501 31.821162 29.890556 56.996123 0.715119 1.018749 0.108270 -0.030678 -99827.600000 0 0 1
36.733511 30.477462 29.374066 56.045181 0.692585 1.019122 0.093235 -0.031010 187966.000000 0 0 1
-36.942216 30.108462 28.872076 55.721123 -0.683830 1.026106 0.084023 -0.026882 -297713.000000 0 0 1
-36.930696 28.584762 28.453916 54.686289 -0.658692 1.023580 0.085351 -0.014774 -541279.000000 0 0 1
37.161961 28.345562 27.381116 54.168328 0.651616 1.040856 0.074639 -0.017895 -49898.100000 0 0 1
37.022711 27.020462 26.843036 53.116241 0.630470 1.040993 0.070193 -0.018096 109788.000000 0 0 1
36.453291 25.908662 27.828716 52.673889 0.617895 1.014175 0.079091 -0.017664 93872.500000 0 0 1
37.393261 25.390562 28.782276 53.585035 0.596502 1.003762 0.067268 -0.009758 70834.600000 0 0 1
37.070651 24.118062 29.377646 53.093881 0.576795 0.984457 0.062579 -0.005962 -81029.900000 0 0 1
37.420111 22.842762 28.536346 52.310415 0.548061 0.993788 0.056281 0.011401 -28534.200000 0 0 1
36.673091 22.835262 27.352836 51.132597 0.556923 1.006360 0.074985 -0.003161 -45413.300000 0 0 1
37.293111 22.141062 26.269946 50.706142 0.535777 1.026189 0.068796 -0.013791 -66080.000000 0 0 1
37.191431 20.558062 26.317576 49.984510 0.504962 1.016301 0.061824 -0.010914 -128654.000000 0 0 1
35.830811 20.146962 26.207706 48.750292 0.512223 1.003219 0.108685 -0.005693 404997.000000 0 0 1
35.571261 18.882262 26.751306 48.347562 0.488006 0.984461 0.105161 0.001579 -710830.000000 0 0 1
35.240771 18.916062 28.257926 48.971826 0.492626 0.955716 0.079914 -0.006914 304552.000000 0 0 1
34.000321 19.506162 28.667756 48.562871 0.520861 0.939338 0.082396 -0.008576 601989.000000 0 0 1
33.821911 20.860262 28.353506 48.815914 0.552658 0.951054 0.084376 -0.020011 -1246940.000000 0 0 1
32.902681 21.590662 29.369156 49.104892 0.580720 0.929680 0.097134 -0.031111 791718.000000 0 0 1
31.477721 21.476962 29.205476 48.011110 0.598742 0.916871 0.115473 -0.038532 913377.000000 0 0 1
30.965051 22.170162 28.089326 47.321884 0.621366 0.935296 0.118207 -0.033833 -664901.000000 0 0 1
31.004171 23.744362 28.198506 48.168549 0.653564 0.945407 0.121751 -0.030434 -546491.000000 0 0 1
32.241991 24.407562 28.040356 49.209111 0.647973 0.964509 0.122796 -0.029613 -209845.000000 0 0 1
32.428221 25.612362 28.772496 50.353144 0.668501 0.962568 0.096760 -0.028061 62678.000000 0 0 1
32.752631 25.563162 30.294546 51.419545 0.662732 0.940772 0.090231 -0.031917 831999.000000 0 0 1
34.055851 25.019462 30.604776 52.176880 0.633611 0.943994 0.062094 -0.026749 713380.000000 0 0 1
34.374911 24.747562 31.950893 53.055969 0.623978 0.924528 0.081238 -0.024453 -141987.000000 0 0 1
33.660681 23.567062 32.643217 52.478829 0.610817 0.899468 0.092301 -0.024659 -601857.000000 0 0 1
33.918421 23.619762 -33.832593 53.413451 0.608285 2.256748 0.083312 -0.033703 162838.000000 0 0 1
33.434101 22.476862 -33.161003 52.179503 0.591874 2.259475 0.077557 -0.026767 -126872.000000 0 0 1
33.887291 22.406362 -31.662483 51.506372 0.584210 2.232839 0.057781 -0.022031 126362.000000 0 0 1
33.275981 23.470162 -30.878183 51.103831 0.614286 2.219588 0.049611 -0.025288 168707.000000 0 0 1
33.498601 23.453262 -29.442213 50.389043 0.610811 2.194811 0.080096 -0.032809 -245093.000000 0 0 1
34.840521 23.981562 -28.932933 51.245408 0.602847 2.170740 0.085423 -0.008953 -139794.000000 0 0 1
35.235151 23.455962 -27.684073 50.577721 0.587332 2.149999 0.084587 -0.015401 -377873.000000 0 0 1
36.372861 24.027362 -27.083323 51.320615 0.583780 2.126720 0.091022 -0.006524 118880.000000 0 0 1
37.012301 23.056062 -26.026723 50.782701 0.557109 2.108904 0.068655 -0.005120 -132485.000000 0 0 1
-37.228746 22.017762 -26.648923 50.802819 -0.534086 2.122990 0.047697 0.001068 -319296.000000 0 0 1
-37.028046 21.083562 -25.674663 49.747171 -0.517611 2.113091 0.031588 0.001063 -25879.200000 0 0 1
-36.025776 19.947562 -26.061023 48.733342 -0.505681 2.135029 0.036260 0.013765 64362.000000 0 0 1
-34.683344 20.310262 -25.887623 47.808055 -0.529757 2.143006 0.041009 0.007626 -962195.000000 0 0 1
-33.870816 19.230262 -25.668383 46.646554 -0.516371 2.153489 0.021892 0.003792 -358958.000000 0 0 1
-32.519206 19.541062 -25.020503 45.446423 -0.541087 2.153819 0.022355 0.001754 -258580.000000 0 0 1
-32.603436 20.066362 -23.689203 45.020231 -0.551715 2.124910 0.034475 0.002371 -812413.000000 0 0 1
-31.351076 20.087762 -23.094003 43.814850 -0.569835 2.125959 0.049861 -0.008116 -761769.000000 0 0 1
-31.352296 20.495362 -21.590003 43.233720 -0.578980 2.093678 0.043700 -0.020266 -90419.400000 0 0 1
-32.155516 19.687062 -20.796403 43.058657 -0.549375 2.074849 0.052070 -0.013912 -220834.000000 0 0 1
-32.514286 20.265462 -19.528003 43.002449 -0.557361 2.042174 0.050055 -0.014577 -81268.900000 0 0 1
-33.436226 19.228762 -18.765603 42.893756 -0.521900 2.023602 0.056715 -0.011472 319395.000000 0 0 1
-34.119446 19.612762 -17.606703 43.113722 -0.521704 1.991473 0.056581 -0.016767 224013.000000 0 0 1
-35.214577 20.472762 -17.920403 44.501025 -0.526610 1.985257 0.039056 -0.012900 -314116.000000 0 0 1
-36.370926 20.526762 -16.878703 45.045342 -0.513811 1.954875 0.034575 -0.019050 -229147.000000 0 0 1
-36.184446 21.036362 -15.605803 44.669718 -0.526604 1.927684 0.046252 -0.026185 267842.000000 0 0 1
-37.278026 20.706762 -14.738203 45.118021 -0.507032 1.903563 0.045969 -0.013770 -135682.000000 0 0 1
37.472681 21.593262 -13.486803 45.303031 0.522766 1.873081 0.050656 -0.012927 -296870.000000 0 0 1
37.199031 22.957762 -13.697503 45.808823 0.552942 1.874456 0.063096 -0.021376 705273.000000 0 0 1
35.849211 23.198262 -14.116003 44.973179 0.574339 1.890069 0.054557 -0.004693 597630.000000 0 0 1
35.457151 24.669962 -14.505203 45.565529 0.607880 1.894771 0.073821 -0.008909 16670.700000 0 0 1
35.553691 25.661562 -13.497203 45.877611 0.625187 1.869415 0.065900 -0.000998 -200762.000000 0 0 1
35.439951 26.938962 -14.020303 46.671905 0.649953 1.875910 0.055185 0.004117 -591074.000000 0 0 1
36.674861 27.648662 -14.544503 48.177137 0.645983 1.877478 0.086266 -0.002278 -362330.000000 0 0 1
37.151891 27.237562 -15.795703 48.699610 0.632624 1.901120 0.084270 -0.005965 -726483.000000 0 0 1
-36.586816 27.791762 -16.184103 48.712445 -0.649624 1.909471 0.094239 -0.024259 -911915.000000 0 0 1
-36.097306 27.392362 -17.578503 48.604123 -0.649140 1.940852 0.112121 -0.037053 -5308.130000 0 0 1
-35.484549 26.098162 -17.799203 47.508724 -0.634143 1.954817 0.110881 -0.041133 611838.000000 0 0 1
-34.081839 26.074662 -17.569003 46.369490 -0.653070 1.959394 0.116428 -0.038833 -17103.100000 0 0 1
-33.444536 24.931362 -18.300503 45.552367 -0.640585 1.984220 0.100667 -0.036785 -349786.000000 0 0 1
-33.480686 25.144562 -19.693503 46.271367 -0.644152 2.010431 0.078451 -0.028222 510473.000000 0 0 1
-32.591246 24.192262 -20.292603 45.378900 -0.638551 2.034408 0.064575 -0.021988 333478.000000 0 0 1
-32.582416 24.334762 -21.821803 46.151766 -0.641494 2.063293 0.056946 -0.017160 -109595.000000 0 0 1
-33.675036 23.601962 -22.335103 46.796554 -0.611312 2.068354 0.064332 -0.014695 60365.800000 0 0 1
-33.705626 23.465362 -23.719203 47.426712 -0.608161 2.094537 0.046378 -0.005092 -945485.000000 0 0 1
-34.565593 24.387662 -24.561103 48.916112 -0.614439 2.096829 0.050801 -0.008452 -500092.000000 0 0 1
-34.100031 25.721462 -24.677903 49.329551 -0.646244 2.094702 0.054423 -0.009585 31147.100000 0 0 1
-34.893014 26.322062 -25.703473 50.705442 -0.646289 2.102401 0.072093 -0.012171 133225.000000 0 0 1
-34.489362 27.752562 -26.247433 51.465022 -0.677582 2.105987 0.066287 -0.015824 535431.000000 0 0 1
-33.165386 27.764062 -26.787423 50.875848 -0.696980 2.125305 0.042777 -0.004110 306285.000000 0 0 1
-32.631896 29.111462 -26.918063 51.350754 -0.728443 2.122572 0.042398 -0.009902 719168.000000 0 0 1
-31.180546 29.144162 -27.473533 50.758286 -0.751654 2.142734 0.045939 -0.010131 952563.000000 0 0 1
-30.214376 28.732062 -26.483193 49.394325 -0.760257 2.136676 0.036218 -0.012801 703353.000000 0 0 1
-28.884916 28.520062 -26.950293 48.724230 -0.779042 2.156900 0.069615 -0.003530 1805790.000000 0 0 1
-27.785886 29.679562 -26.770463 48.678430 -0.818340 2.153095 0.055452 -0.015884 383901.000000 0 0 1
-27.418436 29.972362 -25.442123 47.931354 -0.829869 2.130345 0.042211 -0.019932 116219.000000 0 0 1
-28.323686 30.737862 -24.622703 48.511079 -0.826251 2.103157 0.048710 -0.014907 -34998.500000 0 0 1
-27.763826 31.133462 -23.273103 47.767769 -0.842548 2.079692 0.020473 -0.019930 -254147.000000 0 0 1
-26.827046 32.174662 -23.303103 47.936769 -0.875786 2.078443 0.014065 -0.021831 -11498.000000 0 0 1
-26.647246 32.699362 -21.993103 47.571215 -0.887026 2.051406 0.027918 0.007580 -329225.000000 0 0 1
-26.060226 -33.683492 -21.999703 47.934329 0.912312 2.047615 0.021227 0.026358 -11010.500000 0 0 1
-26.908886 -32.700192 -22.643003 48.021831 0.882249 2.061804 0.011321 -0.003677 177081.000000 0 0 1
-26.234766 -31.461392 -22.798603 46.881322 0.875740 2.078652 0.026126 -0.006490 -15846.500000 0 0 1
17.228474 8.081862 -24.549303 31.061312 0.438623 2.482176 0.098046 -0.003329 1375940.000000 0 0 1
15.798774 7.825662 -24.506003 30.189177 0.459907 2.517935 0.090880 -0.007740 1330970.000000 0 0 1
15.674574 6.469062 -24.769803 30.018064 0.391415 2.541287 0.097870 -0.016250 98678.100000 0 0 1
14.220774 5.958662 -24.836403 29.233251 0.396787 2.586012 0.080380 -0.019432 116601.000000 0 0 1
13.475674 5.943762 -23.633303 27.846995 0.415406 2.584289 0.104232 -0.039135 -73309.500000 0 0 1
12.173574 5.476062 -23.849703 27.331145 0.422714 2.631338 0.098695 -0.035662 -920189.000000 0 0 1
11.414974 5.493762 -22.547803 25.862840 0.448557 2.629707 0.118435 -0.040648 -749221.000000 0 0 1
12.018274 4.805062 -21.474903 25.073871 0.380345 2.599179 0.110407 -0.035415 -111389.000000 0 0 1
11.429974 5.048062 -20.222703 23.771516 0.415889 2.588134 0.121638 -0.037677 -200777.000000 0 1 0
11.528174 6.450162 -19.558103 23.601330 0.510117 2.547553 0.121842 -0.049912 20026.200000 0 1 0
11.110674 6.564062 -18.188403 22.301390 0.533619 2.524514 0.108313 -0.047473 -311007.000000 0 1 0
11.224274 7.899262 -17.733603 22.424615 0.613249 2.482927 0.114365 -0.049637 93653.100000 0 1 0
12.654574 8.377862 -17.401903 23.090107 0.584794 2.424397 0.109372 -0.047933 -16125.700000 0 1 0
13.102374 7.821162 -16.200703 22.255461 0.538157 2.386113 0.113412 -0.057395 -336672.000000 0 1 0
14.489774 7.907062 -16.064003 23.033180 0.499535 2.342600 0.116920 -0.055580 -449326.000000 0 1 0
15.125874 7.564162 -14.688503 22.400016 0.463712 2.285954 0.116728 -0.056604 82038.700000 0 1 0
16.522874 7.779462 -14.729503 23.462388 0.440040 2.249510 0.109413 -0.057041 117332.000000 0 1 0
17.198174 7.574962 -13.546603 23.166089 0.414885 2.195381 0.110588 -0.057103 -258289.000000 0 1 0
18.138674 8.767962 -13.285403 24.132770 0.450267 2.153775 0.148933 -0.057593 -365000.000000 0 1 0
17.444674 9.943562 -12.957403 23.897393 0.518073 2.143861 0.187355 -0.047871 424679.000000 0 1 0
18.284874 11.017462 -12.579703 24.778418 0.542289 2.103295 0.217708 -0.060510 38796.700000 0 1 0
17.393674 12.296962 -12.344503 24.619950 0.615394 2.096015 0.239371 -0.046440 546910.000000 0 1 0
16.590574 12.248362 -11.157103 23.446758 0.635953 2.066725 0.265159 -0.034266 580888.000000 0 1 0
15.926574 13.441362 -10.748003 23.448786 0.700976 2.046946 0.162577 -0.021988 166191.000000 0 1 0
14.490174 13.629862 -11.280003 22.868685 0.754813 2.086619 0.117942 -0.037265 22996.300000 0 1 0
13.689274 14.726062 -10.780703 22.813958 0.821869 2.062977 0.150008 -0.041323 363049.000000 0 1 0
14.024874 16.049262 -11.139003 24.048977 0.852610 2.052376 0.163239 -0.037595 -174201.000000 0 1 0
13.055674 17.071962 -10.494403 23.917253 0.917926 2.025036 0.148426 -0.029091 149086.000000 0 1 0
13.181174 16.966462 -9.093803 23.330269 0.910303 1.971195 0.133341 -0.011611 417323.000000 0 1 0
12.107174 17.617662 -8.430803 22.979211 0.968700 1.946458 0.107330 0.002394 214420.000000 0 1 0
12.280974 17.562062 -6.917203 22.518793 0.960547 1.883019 0.084366 0.004159 952344.000000 0 1 0
13.329974 18.423762 -6.383303 23.619267 0.944458 1.844458 0.094022 0.005083 760682.000000 0 1 0
13.674674 17.915862 -5.142103 23.117440 0.918855 1.795107 0.090594 -0.005999 -800600.000000 0 1 0
14.806374 18.634362 -4.453803 24.213726 0.899373 1.755787 0.084663 -0.017512 -898621.000000 0 1 0
16.009574 18.593962 -5.178403 25.077036 0.859945 1.778793 0.096487 -0.030647 -333280.000000 0 0 1
16.852174 19.606062 -4.715803 26.279883 0.860790 1.751219 0.074905 -0.027745 -308990.000000 0 0 1
18.256074 19.757062 -5.353503 27.427828 0.824864 1.767242 0.071468 -0.022733 364598.000000 0 0 1
19.188674 18.838662 -4.768703 27.310088 0.776194 1.746309 0.088281 -0.042219 271801.000000 0 0 1
19.552774 17.791062 -5.576903 27.017304 0.738258 1.778711 0.106789 -0.041671 192190.000000 0 0 1
20.663674 16.856862 -4.956603 27.123959 0.684285 1.754568 0.124282 -0.052301 375796.000000 0 0 1
21.986174 17.320362 -5.032003 28.437789 0.667248 1.748681 0.112982 -0.056644 226793.000000 0 0 1
22.887474 16.333862 -4.530703 28.480850 0.619835 1.730554 0.122847 -0.060970 654509.000000 0 0 1
24.425374 16.526062 -4.674103 29.858950 0.594844 1.727982 0.125805 -0.058005 837520.000000 0 0 1
25.001174 17.567962 -3.822103 30.794488 0.612526 1.695234 0.126127 -0.055735 997840.000000 0 0 1
26.430474 17.599362 -3.924503 31.995456 0.587454 1.693764 0.113928 -0.048556 531158.000000 0 0 1
27.074074 18.758762 -3.189203 33.091807 0.605923 1.667321 0.136011 -0.034632 -362736.000000 0 0 1
27.146274 19.949262 -3.951503 33.919134 0.633754 1.687559 0.130058 -0.035393 274715.000000 0 0 1
27.309274 21.095662 -3.118103 34.648896 0.657729 1.660910 0.160570 -0.013002 -310693.000000 0 0 1
27.201374 22.440162 -3.901103 35.478081 0.689779 1.680977 0.112499 -0.008326 34118.100000 0 0 1
28.238074 22.870162 -4.778903 36.650662 0.680752 1.701559 0.103283 0.002627 239516.000000 0 0 1
28.568074 22.025262 -5.853003 36.544557 0.656790 1.731650 0.083887 0.003962 -265744.000000 0 0 1
29.678374 22.589962 -6.747503 37.903048 0.650605 1.749770 0.055051 0.007774 -309057.000000 0 0 1
29.292074 23.622162 -7.679003 38.405719 0.678653 1.772097 0.030787 0.015671 -208531.000000 0 0 1
30.357374 24.356762 -8.243503 39.784135 0.676163 1.779514 0.019766 0.020077 -249935.000000 0 0 1
31.136574 23.533362 -9.324803 40.128012 0.647210 1.805317 0.016155 0.004358 20347.800000 0 0 1
30.389174 23.388362 -10.521303 39.764497 0.655945 1.838575 0.006312 0.014249 96852.700000 0 0 1
31.138174 22.648362 -11.465703 40.174576 0.628847 1.860217 -0.007594 0.002049 123005.000000 0 0 1
30.344274 22.099862 -12.670203 39.619603 0.629471 1.896311 0.021358 0.010696 135397.000000 0 0 1
30.601474 22.947762 -13.773003 40.653974 0.643431 1.916423 0.011366 0.006871 22389.700000 0 0 1
30.692574 22.263262 -15.012503 40.780660 0.627546 1.947791 0.033271 -0.003262 -144807.000000 0 0 1
31.008374 23.173162 -16.178103 41.955282 0.641783 1.966658 0.033125 -0.004444 1072550.000000 0 0 1
32.307074 23.813162 -16.246503 43.298529 0.635186 1.955431 0.041047 0.002752 915930.000000 0 0 1
32.383174 24.489562 -17.445303 44.189899 0.647485 1.976625 0.064063 -0.005642 220098.000000 0 0 1
33.714574 25.264162 -17.678703 45.689024 0.643088 1.968102 0.069753 -0.008925 386645.000000 0 0 1
34.673474 24.356962 -18.206003 46.119085 0.612380 1.976604 0.069662 -0.003375 -196735.000000 0 0 1
35.978074 24.931162 -18.208803 47.408282 0.605982 1.965013 0.086578 -0.012448 198675.000000 0 0 1
37.033774 23.821162 -18.368003 47.710918 0.571600 1.965988 0.068607 -0.024098 -260850.000000 0 0 1
37.038174 23.121662 -19.560803 47.844149 0.558071 1.991984 0.055120 -0.016165 -724113.000000 0 0 1
-36.712792 23.305162 -20.242003 47.965596 -0.565613 2.006459 0.079786 -0.010153 -467120.000000 0 0 1
-36.537892 22.346062 -21.417903 47.886226 -0.548895 2.034503 0.070366 -0.008086 75138.500000 0 0 1
-36.169092 21.019262 -21.008903 46.812248 -0.526435 2.036208 0.061440 -0.007418 57738.800000 0 0 1
-35.685192 20.214162 -22.078603 46.577999 -0.515391 2.064640 0.052607 0.001950 191969.000000 0 0 1
-35.694092 18.776462 -21.665503 45.782286 -0.484261 2.063749 0.048878 0.005712 308350.000000 0 0 1
-36.989392 18.204962 -21.661003 46.570751 -0.457362 2.054567 0.053412 -0.005953 218880.000000 0 0 1
-36.803192 16.788362 -21.577203 45.846480 -0.427970 2.060813 0.044946 -0.008494 150821.000000 0 0 1
36.824574 15.981662 -21.499703 45.537896 0.409464 2.062499 0.038669 -0.010915 56917.500000 0 0 1
36.010074 16.096762 -22.673203 45.496212 0.420362 2.092495 0.056031 -0.001058 -59582.700000 0 0 1
34.971674 15.157862 -22.760403 44.393859 0.408991 2.109114 0.083537 -0.008905 -416489.000000 0 0 1
35.306074 13.765262 -23.303303 44.486461 0.371755 2.122136 0.062899 -0.011044 -477856.000000 0 0 1
35.418874 13.804162 -24.717503 45.343208 0.371631 2.147329 0.088900 -0.013870 -91042.000000 0 0 1
36.118374 12.694062 -25.180203 45.822689 0.337972 2.152579 0.073583 -0.002880 -316400.000000 0 0 1
36.058374 12.422362 -26.694863 46.552520 0.331773 2.181489 0.067073 0.006020 1468850.000000 0 0 1
34.713774 12.189262 -27.240133 45.778260 0.337687 2.208118 0.059513 -0.000603 1365910.000000 0 0 1
34.209574 13.111262 -28.172903 46.215935 0.365995 2.226343 0.069953 0.002601 -79104.800000 0 0 1
34.834774 13.122362 -29.615923 47.568485 0.360263 2.242851 0.068766 -0.010640 85620.500000 0 0 1
36.163874 13.624962 -29.588493 48.671802 0.360309 2.224233 0.073078 -0.000599 -39068.300000 0 0 1
36.695274 13.739162 -30.873643 49.884763 0.358255 2.238137 0.074140 -0.010159 903916.000000 0 0 1
-36.700692 14.062362 -30.868273 49.975405 -0.365908 2.236572 0.066230 -0.002849 1213840.000000 0 0 1
-35.779292 13.107062 -30.393083 48.741074 -0.351149 2.244087 0.067704 0.003157 89713.400000 0 0 1
-35.765692 12.817762 -29.021293 47.809154 -0.344122 2.223106 0.058631 0.007464 -518279.000000 0 0 1
-34.720992 11.734862 -28.703283 46.552473 -0.325923 2.235186 0.061984 -0.000403 309738.000000 0 0 1
-35.092092 10.487262 -29.306513 46.907454 -0.290401 2.245637 0.064768 -0.004819 261781.000000 0 0 1
-34.023892 9.591762 -29.139633 45.812065 -0.274781 2.260189 0.064175 -0.006097 161190.000000 0 0 1
-34.409192 8.088862 -29.589323 46.097182 -0.230886 2.267757 0.072289 -0.007477 -269591.000000 0 0 1
-34.559192 7.991262 -31.013443 47.117212 -0.227240 2.289247 0.075484 -0.007122 105148.000000 0 0 1
-34.911692 6.786362 -31.669363 47.621733 -0.191992 2.298316 0.088007 -0.009708 -873688.000000 0 0 1
-36.298792 6.242962 -31.423603 48.415077 -0.170322 2.277126 0.099955 -0.012041 -976060.000000 0 0 1
-36.396092 5.764462 -30.089783 47.574148 -0.157077 2.255549 0.103206 -0.020721 130181.000000 0 0 1
37.276774 5.231262 -29.773943 47.993871 0.139425 2.240010 0.088009 -0.008173 30259.800000 0 0 1
37.330974 4.392862 -28.518113 47.182429 0.117135 2.219837 0.093440 -0.011415 -165395.000000 0 0 1
-36.895892 3.214662 -28.627693 46.810103 -0.086908 2.228841 0.106288 -0.007483 -16745.500000 0 0 1
-37.065792 2.489562 -27.376243 46.146826 -0.067065 2.205877 0.101970 -0.008222 -42611.000000 0 0 1
-36.205492 1.202962 -27.312433 45.367982 -0.033214 2.216825 0.119329 -0.009560 867402.000000 0 0 1
-34.808592 1.476162 -27.080793 44.126936 -0.042383 2.231537 0.116277 -0.005025 580833.000000 0 0 1
-34.145792 0.295562 -26.785813 43.399335 -0.008656 2.235968 0.134268 -0.007817 -262569.000000 0 0 1
-32.943992 0.477462 -25.845253 41.874953 -0.014492 2.235976 0.131467 -0.011934 21699.900000 0 0 1
-33.295292 0.792562 -24.529103 41.362804 -0.023800 2.205605 0.119697 -0.003562 121429.000000 0 0 1
-32.127692 0.627862 -23.785103 39.978919 -0.019540 2.207989 0.130951 0.005673 123084.000000 0 0 1
-32.586792 0.282262 -22.333503 39.506506 -0.008662 2.171608 0.124996 0.006878 -116979.000000 0 0 1
-32.639792 -1.128638 -22.100403 39.434219 0.034565 2.165710 0.142518 -0.007313 168494.000000 0 0 1
-33.005992 -1.397238 -20.766403 39.020396 0.042308 2.131986 0.147921 -0.012213 305938.000000 0 0 1
-34.486792 -1.198938 -20.316803 40.044335 0.034751 2.102912 0.138416 -0.015149 -317790.000000 0 0 1
-35.281792 -2.316638 -20.578303 40.910124 0.065567 2.097877 0.140928 -0.023892 237040.000000 0 0 1
-36.622292 -1.897938 -20.316303 41.923104 0.051778 2.076712 0.120057 -0.023249 351911.000000 0 0 1
37.248074 -2.955638 -20.026603 42.393628 -0.079184 2.062804 0.118338 -0.034586 -20803.000000 0 0 1
36.816274 -3.625938 -21.211903 42.644229 -0.098171 2.091413 0.111316 -0.027384 130556.000000 0 0 1
-37.337992 -4.771538 -21.442303 43.320498 0.127104 2.088595 0.106396 -0.028756 -414151.000000 0 0 1
37.097774 -5.758438 -22.458803 43.747026 -0.153994 2.109914 0.097679 -0.033961 -562635.000000 0 0 1
36.117674 -6.643638 -21.937603 42.777129 -0.181911 2.109280 0.101031 -0.033857 217525.000000 0 0 1
35.667974 -7.426438 -23.033103 43.103134 -0.205277 2.134561 0.099153 -0.024159 -544688.000000 0 0 1
34.355174 -6.991338 -23.667703 42.300319 -0.200760 2.164598 0.078927 -0.020185 -1084550.000000 0 0 1
34.337874 -5.766038 -24.383803 42.507725 -0.166369 2.181730 0.090676 -0.020300 234414.000000 0 0 1
33.000374 -5.506538 -24.793003 41.641802 -0.165340 2.208544 0.074323 -0.023738 308539.000000 0 0 1
32.763274 -4.391238 -25.892363 41.989636 -0.133235 2.235260 0.102449 -0.033730 -4934.340000 0 0 1
32.937074 -4.791038 -27.236323 43.007234 -0.144447 2.256601 0.106774 -0.035020 265830.000000 0 0 1
32.706474 -3.708538 -28.215163 43.353917 -0.112906 2.279447 0.102206 -0.032916 75773.000000 0 0 1
32.282874 -4.089538 -29.675473 44.040231 -0.126007 2.310172 0.111394 -0.028356 275895.000000 0 0 1
31.685374 -3.002538 -30.357743 43.983755 -0.094479 2.332567 0.098471 -0.037447 318924.000000 0 0 1
30.903574 -3.429338 -31.476803 44.244552 -0.110517 2.362324 0.106167 -0.036459 -264895.000000 0 0 1
30.453674 -2.325638 -32.488833 44.591021 -0.076218 2.387066 0.105528 -0.037275 -175642.000000 0 0 1
29.562774 -1.312738 -31.947723 43.546962 -0.044376 2.394457 0.091081 -0.038667 885651.000000 0 0 1
28.252074 -1.717338 -31.569383 42.399940 -0.060712 2.410675 0.099840 -0.045454 -23736.300000 0 0 1
27.312374 -1.953538 -32.767343 42.702235 -0.071404 2.445487 0.084652 -0.039938 -1321630.000000 0 0 1
27.640874 -3.130138 -33.535823 43.571402 -0.112763 2.449128 0.102175 -0.037769 22083.500000 0 0 1
27.134974 -3.150038 32.971239 42.817429 -0.115570 0.691889 0.077352 -0.034053 -1067670.000000 0 0 1
27.427874 -4.435038 32.225507 42.549279 -0.160311 0.711522 0.070737 -0.029221 1944420.000000 0 0 1
28.863374 -4.667538 31.913320 43.282101 -0.160324 0.741683 0.079731 -0.024775 2265270.000000 0 0 1
29.320074 -3.954338 30.736166 42.661639 -0.134059 0.766325 0.077576 -0.024943 -272910.000000 0 0 1
29.897274 -2.566438 31.099396 43.215808 -0.085632 0.767527 0.076109 -0.023333 -597608.000000 0 0 1
31.174374 -2.677938 31.710206 44.548290 -0.085692 0.778715 0.075557 -0.031158 177751.000000 0 0 1
31.857074 -1.459038 31.702316 44.967086 -0.045768 0.788357 0.079173 -0.028074 624071.000000 0 0 1
33.327374 -1.437238 32.223035 46.379991 -0.043098 0.802708 0.078479 -0.031923 668635.000000 0 0 1
34.340374 -2.007738 31.431666 46.596588 -0.058399 0.830443 0.091899 -0.032440 -186541.000000 0 0 1
35.599774 -1.825938 32.042481 47.931186 -0.051246 0.838593 0.098375 -0.033123 272257.000000 0 0 1
36.742874 -2.446438 31.173006 48.247074 -0.066485 0.868317 0.104729 -0.028501 191007.000000 0 0 1
37.003374 -1.760938 29.960376 47.644252 -0.047553 0.890742 0.095401 -0.027831 151587.000000 0 0 1
-36.745492 -2.261538 29.399256 47.113289 0.061468 0.896930 0.089645 -0.027743 59881.000000 0 0 1
-36.320492 -1.784938 28.018996 45.906735 0.049105 0.914299 0.084693 -0.027630 -135779.000000 0 0 1
-37.257692 -2.050438 26.997506 46.056544 0.054978 0.944458 0.086812 -0.029307 -58538.200000 0 0 1
-37.020592 -1.176638 25.875056 45.182156 0.031773 0.961021 0.077801 -0.025271 126177.000000 0 0 1
-27.401116 14.592262 11.652997 33.159427 -0.489342 1.211705 0.180195 -0.037096 41393.600000 0 0 1
-28.365236 14.079862 12.522697 34.053591 -0.460745 1.194224 0.145736 -0.025081 169693.000000 0 0 1
-29.404386 14.950562 12.923997 35.428335 -0.470382 1.197386 0.145143 -0.020756 -96744.600000 0 0 1
-30.572776 14.184062 13.550997 36.325084 -0.434389 1.188504 0.137072 -0.019785 26370.200000 0 0 1
-31.685126 15.031162 13.838797 37.701397 -0.442952 1.194946 0.120569 -0.017069 488584.000000 0 0 1
-32.788996 14.272062 14.341697 38.529135 -0.410537 1.189386 0.133413 -0.029333 513750.000000 0 0 1
-33.750926 15.098062 15.217597 39.983143 -0.420638 1.180351 0.111081 -0.027940 31155.200000 0 0 1
-33.209976 15.444362 16.490797 40.166867 -0.435300 1.147731 0.103940 -0.018843 382864.000000 0 0 1
-34.217331 15.675962 17.456197 41.488315 -0.429594 1.136525 0.104272 -0.029678 291529.000000 0 0 1
-33.510066 16.034762 18.765797 41.619626 -0.446305 1.103036 0.144142 -0.019998 658646.000000 0 0 1
-32.616576 15.073362 19.359797 40.814813 -0.432902 1.076591 0.143622 -0.024473 352662.000000 0 0 1
-31.894726 15.538162 20.490497 40.970337 -0.453331 1.047047 0.128127 -0.021610 239244.000000 0 0 1
-32.689146 15.792862 21.818597 42.356179 -0.450055 1.029646 0.124482 -0.036238 -246129.000000 0 0 1
-33.562126 16.903262 21.716997 43.402356 -0.466556 1.046777 0.139128 -0.040747 118727.000000 0 0 1
-33.874546 17.587562 22.930397 44.526512 -0.478887 1.029809 0.137384 -0.048153 -1106240.000000 0 0 1
-34.669662 16.853362 23.991697 45.405096 -0.452476 1.014091 0.106176 -0.040536 1097320.000000 0 0 1
-36.047546 16.483362 23.706197 46.185610 -0.428881 1.031793 0.127147 -0.028102 1221380.000000 0 0 1
-36.970636 17.511562 23.456697 47.156117 -0.442356 1.050167 0.118640 -0.029983 -1827810.000000 0 0 1
36.648331 16.928362 23.089997 46.506102 0.432717 1.051241 0.114838 -0.037139 -1133730.000000 0 0 1
35.952311 16.428262 24.195897 46.345419 0.428615 1.021511 0.118333 -0.026270 -189767.000000 0 0 1
34.687651 15.915062 23.850897 45.004307 0.430157 1.012232 0.122110 -0.022493 495560.000000 0 0 1
33.808011 15.259362 24.965297 44.711249 0.423979 0.978380 0.067604 -0.006552 464005.000000 0 0 1
33.449371 16.090262 26.155297 45.407670 0.448359 0.956956 0.115078 -0.013374 336817.000000 0 0 1
33.705611 15.391562 27.443797 46.109981 0.428368 0.933305 0.096000 -0.009640 61954.000000 0 0 1
33.016681 14.003362 27.682197 45.304519 0.401133 0.913441 0.089499 -0.001227 168492.000000 0 0 1
33.489861 12.898362 26.927497 44.866788 0.367633 0.927088 0.087480 -0.013625 208689.000000 0 0 1
32.617421 11.782562 27.161897 44.051034 0.346649 0.906379 0.084204 -0.008712 300447.000000 0 0 1
33.163041 10.425562 26.747197 43.862195 0.304590 0.914987 0.095716 -0.011777 -544454.000000 0 0 1
34.078321 9.900262 27.641597 44.982275 0.282732 0.909045 0.094475 -0.009278 -448057.000000 0 0 1
34.635771 8.735862 27.163797 44.875648 0.247068 0.920638 0.084868 -0.011657 -313183.000000 0 0 1
35.684431 8.017062 28.045697 46.089185 0.220996 0.916616 0.069431 -0.013142 276406.000000 0 0 1
36.942231 8.659762 27.927897 47.113558 0.230256 0.936292 0.088056 -0.016119 -483599.000000 0 0 1
-36.952116 7.966562 28.491597 47.335991 -0.212341 0.924916 0.088929 -0.021239 244298.000000 0 0 1
-35.600486 8.757162 28.524697 46.451489 -0.241196 0.909583 0.088228 -0.017923 439578.000000 0 0 1
-34.898761 8.830462 27.317497 45.190112 -0.247829 0.921656 0.077840 -0.015344 -96410.200000 0 0 1
-33.699516 9.532562 27.555197 44.562495 -0.275668 0.904155 0.085118 0.002407 91257.700000 0 0 1
-32.919746 10.172162 26.392297 43.402026 -0.299692 0.917145 0.095508 -0.002060 68324.200000 0 0 1
-32.291416 9.210262 25.563697 42.202690 -0.277846 0.920106 0.083952 -0.008157 559080.000000 0 0 1
-31.226036 9.746562 24.773397 41.033913 -0.302547 0.922625 0.084120 -0.006189 119910.000000 0 0 1
-30.599686 8.745462 23.832897 39.759664 -0.278381 0.928015 0.083700 -0.004554 211181.000000 0 0 1
-29.477626 9.313362 23.166197 38.630840 -0.306022 0.927693 0.090894 -0.007922 192648.000000 0 0 1
-28.752776 8.390762 22.404797 37.404571 -0.283939 0.928563 0.076966 0.001708 175249.000000 0 0 1
-27.714436 9.030962 21.439297 36.184136 -0.315007 0.936631 0.087927 0.004165 -778592.000000 0 0 1
-26.526226 9.418962 22.066297 35.767009 -0.341194 0.905941 0.087397 0.001021 178733.000000 0 0 1
-25.538136 10.026762 21.234897 34.693705 -0.374127 0.912124 0.074077 0.004613 595510.000000 0 0 1
-24.806026 9.225762 20.130397 33.251864 -0.356064 0.920539 0.062459 0.002262 -885060.000000 0 0 1
-25.551456 9.037162 18.971397 33.082640 -0.339954 0.960080 0.071146 -0.001318 87563.800000 0 0 1
-24.966426 8.208062 17.923997 31.811387 -0.317633 0.972245 0.072073 -0.010357 -54342.400000 0 0 1
-24.806826 6.705562 18.158197 31.465271 -0.264002 0.955639 0.067910 -0.010339 -324841.000000 0 0 1
-23.643626 6.396262 18.906897 30.941945 -0.264204 0.913417 0.066400 -0.009383 359179.000000 0 0 1
-23.584226 5.130962 19.623397 31.106594 -0.214221 0.888156 0.075227 -0.016740 -172104.000000 0 0 1
-23.594826 3.901962 18.680097 30.346122 -0.163890 0.907690 0.093645 -0.021505 -706774.000000 0 0 1
-24.821626 3.703862 18.030397 30.901892 -0.148126 0.947799 0.119993 -0.022952 -12360.800000 0 0 1
-24.857026 2.827062 16.870497 30.174123 -0.113246 0.977491 0.116634 -0.018161 -151958.000000 0 0 1
-24.959826 1.346062 17.188097 30.335383 -0.053877 0.968420 0.118071 -0.020002 -404258.000000 0 0 1
-23.694126 0.884162 17.572297 29.512353 -0.037298 0.933006 0.114440 -0.020313 11902.100000 0 0 1
-23.719726 -0.408738 18.022797 29.792846 0.017230 0.921109 0.131579 -0.022593 -133831.000000 0 0 1
-22.348826 -1.098538 18.245297 28.871572 0.049115 0.886734 0.127902 -0.023887 -27790.600000 0 0 1
-21.628626 -0.561638 19.344797 29.022992 0.025962 0.841247 0.114287 -0.025095 383954.000000 0 0 1
-20.534026 -1.422138 19.658997 28.463044 0.069147 0.808360 0.107160 -0.022660 961342.000000 0 0 1
-19.424626 -0.870838 20.637797 28.354772 0.044802 0.755626 0.113380 -0.023308 764961.000000 0 0 1
-19.774426 -0.861838 22.017797 29.606656 0.043556 0.732242 0.108431 -0.021560 -526972.000000 0 0 1
-18.651926 -0.632038 22.809897 29.471770 0.033873 0.685729 0.078446 -0.021073 -816996.000000 0 0 1
-18.979626 -0.807038 24.362697 30.893665 0.042496 0.662270 0.083010 -0.018170 273312.000000 0 0 1
-19.795426 0.172162 24.986497 31.878105 -0.008697 0.670013 0.070225 -0.020909 177891.000000 0 0 1
-21.167026 -0.007138 24.675797 32.510583 0.000337 0.709008 0.149413 -0.029249 111576.000000 0 0 1
-22.213526 0.876662 25.429097 33.776445 -0.039445 0.718392 0.118662 -0.032689 327828.000000 0 0 1
-22.031026 2.226662 25.110397 33.479190 -0.100727 0.722689 0.096549 -0.029052 880077.000000 0 0 1
-23.219526 2.669562 24.425797 33.806693 -0.114468 0.763365 0.098459 -0.023352 -14493.700000 0 0 1
-22.964426 3.810062 23.374397 32.988541 -0.164414 0.783339 0.099600 -0.021173 -48299.600000 0 0 1
-22.305526 3.439262 22.196797 31.655376 -0.152984 0.793715 0.102753 -0.021190 -280581.000000 0 0 1
-20.944126 3.189662 22.360897 30.803248 -0.151133 0.758416 0.099272 -0.021452 -1404560.000000 0 0 1
-20.235426 2.497862 21.247597 29.447787 -0.122819 0.764780 0.090788 -0.024834 -499723.000000 0 0 1
-19.900126 3.336462 20.155397 28.519941 -0.166115 0.785956 0.077244 -0.014745 242011.000000 0 0 1
-19.269726 2.507862 19.183597 27.306082 -0.129418 0.791837 0.087623 -0.023586 16767.500000 0 0 1
-19.030826 3.180962 17.846297 26.282716 -0.165617 0.824379 0.075252 -0.022536 -953981.000000 0 0 1
-17.975026 4.042962 17.858297 25.658641 -0.221239 0.800991 0.100479 -0.035324 -857862.000000 0 0 1
-17.703326 4.651762 16.634797 24.733845 -0.256953 0.833145 0.104599 -0.025392 658339.000000 0 1 0
-16.208726 5.130962 16.401897 23.623543 -0.306575 0.803345 0.112044 -0.024332 1235070.000000 0 1 0
-15.828626 6.306162 17.237097 24.236967 -0.379128 0.779606 0.104788 -0.028319 211003.000000 0 1 0
-16.362926 7.595162 16.850297 24.685306 -0.434574 0.819476 0.107765 -0.030207 -92038.700000 0 1 0
-15.916026 8.327362 15.523697 23.741314 -0.482040 0.858110 0.064200 -0.029737 -21556.600000 0 1 0
-16.159726 7.695662 14.249197 22.877927 -0.444447 0.898434 0.096875 -0.030903 1642280.000000 0 1 0
-17.558526 7.496862 13.872897 23.600043 -0.403533 0.942418 0.070941 -0.039759 1307640.000000 0 1 0
-17.769826 6.480362 12.744397 22.807487 -0.349696 0.977881 0.077167 -0.037602 -208654.000000 0 1 0
-17.540626 5.164962 13.129597 22.510813 -0.286364 0.948063 0.078390 -0.027780 181613.000000 0 1 0
-17.858626 4.184862 12.164997 22.009787 -0.230180 0.985186 0.062147 -0.034293 97219.400000 0 1 0
-17.536026 2.767962 12.636997 21.791455 -0.156553 0.952183 0.065271 -0.006503 -608206.000000 0 1 0
-18.406626 2.324762 13.678997 23.050452 -0.125635 0.935474 0.083569 -0.025808 386065.000000 0 1 0
-18.151926 1.000662 14.158197 23.042315 -0.055071 0.909116 0.082674 -0.010959 -1271590.000000 0 1 0
-19.268026 0.511562 15.017297 24.434355 -0.026544 0.908921 0.106201 -0.023428 -1321580.000000 0 1 0
-20.364626 0.249562 14.191897 24.823179 -0.012254 0.962196 0.114262 -0.025596 611115.000000 0 1 0
-21.575426 0.126562 14.995497 26.275082 -0.005866 0.963424 0.126059 -0.035644 843241.000000 0 0 1
-22.862826 0.030562 14.155697 26.890398 -0.001337 1.016410 0.130451 -0.027574 -232183.000000 0 0 1
-22.880326 -1.187738 13.327997 26.505764 0.051864 1.043922 0.150437 -0.041124 1131040.000000 0 0 1
-24.167926 -1.321938 12.689997 27.328962 0.054644 1.087904 0.158024 -0.030259 872240.000000 0 0 1
-24.208226 -2.569638 11.827897 27.065483 0.105751 1.118524 0.159979 -0.040278 -92415.400000 0 0 1
-24.065226 -3.768738 12.543497 27.398500 0.155343 1.095258 0.141347 -0.032326 137077.000000 0 0 1
-23.542226 -4.760738 11.774297 26.749488 0.199530 1.115009 0.123456 -0.027709 -249474.000000 0 0 1
-23.382826 -6.100338 12.503397 27.208557 0.255201 1.093320 0.114499 -0.024003 1196770.000000 0 0 1
-24.712526 -6.602838 12.801497 28.603928 0.261087 1.106780 0.122172 -0.021795 1390710.000000 0 0 1
-24.713826 -7.928438 13.202497 29.119396 0.310437 1.100229 0.122074 -0.023903 -142722.000000 0 0 1
-25.534586 -8.248938 14.469097 30.486305 0.312467 1.076276 0.125705 -0.016103 1261590.000000 0 0 1
-26.942186 -7.946238 14.277897 31.510037 0.286805 1.100532 0.150068 -0.025054 1162480.000000 0 0 1
-27.706646 -8.298938 15.388697 32.761908 0.291024 1.081831 0.139134 -0.013471 -308321.000000 0 0 1
-29.150286 -7.700438 15.399697 33.855377 0.258264 1.098573 0.152506 -0.025241 944727.000000 0 0 1
-30.132576 -8.214838 14.471597 34.422127 0.266155 1.136893 0.137881 -0.026275 878258.000000 0 0 1
-30.363836 -9.631038 14.355797 34.940068 0.307150 1.147389 0.129883 -0.028131 -716717.000000 0 0 1
-30.840426 -10.474838 15.579197 36.104923 0.327421 1.124644 0.126708 -0.023156 -326463.000000 0 0 1
-29.926586 -10.478138 16.663497 35.819883 0.336789 1.086933 0.123218 -0.017290 369823.000000 0 0 1
-30.432076 -11.181938 17.846997 37.008949 0.352126 1.067593 0.102987 -0.012868 -53743.500000 0 0 1
-29.339026 -11.309038 18.911997 36.692457 0.367910 1.029300 0.121601 -0.015165 23234.200000 0 0 1
-28.253806 -12.101938 18.456497 35.852151 0.404687 1.030028 0.109202 -0.015846 297740.000000 0 0 1
-27.097936 -11.867738 19.274697 35.308006 0.412794 0.993331 0.106818 -0.017847 362284.000000 0 0 1
-25.919746 -12.698538 18.710697 34.397329 0.455549 0.995650 0.095221 -0.012484 -157931.000000 0 0 1
-25.433666 -12.293238 17.424297 33.190378 0.450235 1.018104 0.090629 -0.010935 255704.000000 0 0 1
-24.316026 -13.064038 17.045497 32.442059 0.493010 1.017595 0.083948 -0.023797 -79659.200000 0 0 1
-24.007626 -12.864238 15.560597 31.368565 0.491907 1.051745 0.085898 -0.016670 -14424.600000 0 0 1
-23.139426 -11.765338 15.300897 30.132601 0.470388 1.038184 0.077344 -0.015564 73800.900000 0 0 1
-22.777026 -11.850638 13.940097 29.215695 0.479747 1.073394 0.080054 -0.009919 1109290.000000 0 0 1
-21.417726 -11.088438 13.599197 27.687734 0.477725 1.057372 0.080837 -0.018379 357027.000000 0 0 1
-21.479226 -9.723538 13.752697 27.295439 0.425093 1.042751 0.083379 -0.027087 608653.000000 0 0 1
-20.204326 -9.098838 13.564397 25.980695 0.423138 1.021491 0.083321 -0.024314 718918.000000 0 0 1
-19.579826 -9.153538 12.119997 24.780056 0.437310 1.059735 0.083494 -0.012393 -536186.000000 0 1 0
-19.252726 -10.399438 11.658597 24.793924 0.495253 1.081256 0.084141 -0.021895 2563.740000 0 1 0
-18.949526 -10.371638 10.313197 23.937783 0.500791 1.125380 0.092888 -0.014342 -315836.000000 0 1 0
-18.205426 -11.715938 9.784497 23.757885 0.571821 1.146322 0.069772 -0.005967 449344.000000 0 1 0
-16.804326 -11.728538 9.872597 22.746695 0.609347 1.121842 0.083744 -0.019007 200401.000000 0 1 0
-16.190526 -11.790238 11.151797 22.923905 0.629415 1.062751 0.082391 -0.018104 622981.000000 0 1 0
-14.640826 -12.068138 11.018297 21.940752 0.689371 1.044674 0.083513 -0.022559 789859.000000 0 1 0
-14.330126 -13.417638 10.752997 22.383308 0.752525 1.069683 0.087868 -0.025568 286649.000000 0 1 0
-12.925226 -13.564038 10.813297 21.632660 0.809509 1.047359 0.091226 -0.031107 78780.900000 0 1 0
-12.506726 -15.043238 10.762697 22.328297 0.877209 1.067837 0.097356 -0.033741 -103075.000000 0 1 0
-12.722826 -15.729738 9.522297 22.359989 0.890689 1.130881 0.078993 -0.029623 219235.000000 0 1 0
-12.416826 -17.072438 9.722497 23.241615 0.941981 1.139198 0.079340 -0.019984 254407.000000 0 1 0
-12.889626 -17.839838 8.424997 23.566562 0.945116 1.205209 0.072710 -0.007462 524267.000000 0 1 0
-11.954426 -17.622638 7.370697 22.534259 0.974745 1.237575 0.054424 -0.011142 367727.000000 0 1 0
-12.220826 -18.504038 6.261497 23.042447 0.987116 1.295598 0.022898 -0.008143 374184.000000 0 1 0
-11.384726 -18.159338 4.981497 22.004292 1.010807 1.342429 0.037816 -0.013786 387829.000000 0 1 0
-11.895726 -18.904238 3.891897 22.672128 1.009138 1.398282 0.053562 -0.017865 692145.000000 0 1 0
-11.031426 -18.723638 2.746697 21.904596 1.038377 1.445072 0.066319 -0.034531 506635.000000 0 1 0
-11.311526 -19.625738 1.535697 22.704153 1.047939 1.503105 0.074500 -0.027117 -217764.000000 0 1 0
-10.962026 -20.961238 1.769197 23.720657 1.088945 1.496142 0.057203 -0.025929 -26331.100000 0 1 0
-11.496326 -21.844038 0.728597 24.695310 1.086338 1.541289 0.060391 -0.021831 -129130.000000 0 1 0
-10.848126 -21.953638 -0.692703 24.497426 1.111849 1.599077 0.076775 -0.020267 -163082.000000 0 1 0
-10.998726 -20.817238 -1.595703 23.598213 1.084729 1.638468 0.084407 -0.043862 58056.100000 0 1 0
-12.172026 -20.756438 -2.379603 24.179546 1.040421 1.669370 0.108364 -0.036214 558264.000000 0 1 0
-13.462626 -20.087438 -1.825803 24.250382 0.980351 1.646157 0.137161 -0.032162 171362.000000 0 1 0
-14.014326 -20.680538 -0.707503 24.991729 0.975223 1.599110 0.127591 -0.023515 -833623.000000 0 1 0
-15.280126 -20.190138 -0.460703 25.324616 0.922950 1.588989 0.154843 -0.001611 -735628.000000 0 0 1
26.950074 -19.706938 -3.477203 33.567259 -0.631385 1.674572 0.093605 -0.036074 -65868.100000 0 0 1
25.802174 -19.976238 -2.710403 32.743680 -0.658815 1.653668 0.095980 -0.044952 64717.000000 0 0 1
25.861174 -21.351738 -2.304703 33.615602 -0.690174 1.639411 0.092880 -0.032313 -645199.000000 0 0 1
24.598174 -21.885538 -1.642603 32.965817 -0.727108 1.620644 0.089345 -0.030818 128001.000000 0 0 1
23.556874 -22.166438 -2.597103 32.450304 -0.754998 1.650915 0.089271 -0.043251 -334092.000000 0 0 1
22.313374 -22.284738 -1.999603 31.598966 -0.784756 1.634119 0.069086 -0.036208 -685723.000000 0 0 1
21.291474 -23.003838 -2.878303 31.476786 -0.824037 1.662366 0.076130 -0.043586 -176329.000000 0 0 1
20.639774 -22.119238 -3.771103 30.487410 -0.819984 1.694808 0.079147 -0.046203 161948.000000 0 0 1
19.597774 -22.811338 -4.462703 30.403053 -0.861029 1.718113 0.089590 -0.036523 1027070.000000 0 0 1
18.613074 -21.877938 -5.334803 29.215592 -0.865856 1.754428 0.081946 -0.023709 610272.000000 0 0 1
17.586674 -21.181838 -4.649303 27.920913 -0.877868 1.738092 0.089602 -0.023490 399146.000000 0 0 1
17.968874 -20.208738 -3.688603 27.292478 -0.844001 1.706362 0.075631 -0.029391 -458623.000000 0 0 1
16.711674 -19.810038 -2.905503 26.079870 -0.870032 1.682436 0.089420 -0.015585 168851.000000 0 0 1
16.231574 -20.796238 -1.973903 26.454561 -0.908056 1.645481 0.084377 -0.020433 -67873.500000 0 0 1
15.265074 -20.228838 -1.142903 25.367984 -0.924345 1.615865 0.089557 -0.012808 -424183.000000 0 0 1
14.989574 -20.963838 0.193497 25.772219 -0.950060 1.563288 0.082241 -0.016441 -538290.000000 0 0 1
14.259374 -22.134838 0.086097 26.330367 -0.998506 1.567526 0.094288 -0.021003 -52545.100000 0 0 1
13.649074 -22.277338 1.402397 26.163787 -1.021099 1.517170 0.079016 -0.012256 324679.000000 0 0 1
12.653374 -23.488438 1.621797 26.729101 -1.076665 1.510084 0.081985 -0.020870 300715.000000 0 0 1
13.137874 -24.777138 1.979897 28.114592 -1.083249 1.500316 0.074386 -0.020666 -137186.000000 0 0 1
12.208874 -25.787128 1.662897 28.579675 -1.128615 1.512579 0.063663 -0.010604 -196890.000000 0 0 1
12.371674 -27.161938 2.382597 29.941710 -1.143396 1.491138 0.076125 -0.015953 -96762.200000 0 0 1
11.994074 -27.144968 3.745097 29.912086 -1.154738 1.445263 0.084603 -0.020136 298038.000000 0 0 1
12.322174 -28.398228 4.366097 31.262728 -1.161406 1.430680 0.079425 -0.020472 -2671.150000 0 0 1
12.226774 -28.341868 5.871797 31.420272 -1.163515 1.382812 0.088214 -0.029574 -304531.000000 0 0 1
12.603874 -29.555838 6.509997 32.783918 -1.167704 1.370895 0.077294 -0.024176 -23713.400000 0 0 1
12.366674 -29.663728 7.888297 33.092244 -1.175810 1.330106 0.078917 -0.030969 143725.000000 0 0 1
13.127674 -30.914438 8.464397 34.636460 -1.169226 1.323918 0.081708 -0.029827 248317.000000 0 0 1
12.670574 -31.377818 9.701797 35.202781 -1.187013 1.291585 0.079977 -0.022997 447014.000000 0 0 1
11.569974 -32.298218 9.775597 35.673541 -1.226814 1.293216 0.073909 -0.015045 495332.000000 0 0 1
11.293274 -32.470598 11.290097 36.184860 -1.236083 1.253487 0.085718 -0.019136 582848.000000 0 0 1
12.395374 -33.101808 12.009497 37.330993 -1.212497 1.243269 0.083299 -0.026972 904874.000000 0 0 1
12.160674 -33.429728 13.352997 37.996464 -1.221909 1.211701 0.092351 -0.022867 -138027.000000 0 0 1
11.057374 33.307505 13.666497 37.662030 1.250266 1.199448 0.093992 -0.022234 -264537.000000 0 0 1
11.417874 32.051731 13.231197 36.506792 1.228580 1.199921 0.105767 -0.022494 -76619.100000 0 0 1
10.394574 31.098256 13.178897 35.338817 1.248222 1.188632 0.090485 -0.013890 -375377.000000 0 0 1
10.964974 29.983726 12.273297 34.203630 1.220206 1.203782 0.090435 -0.017712 231248.000000 0 0 1
10.792874 30.154556 10.903697 33.833031 1.227085 1.242660 0.094552 -0.012914 -189498.000000 0 0 1
11.450274 31.252126 10.305097 34.842491 1.219601 1.270543 0.062011 -0.010369 -184458.000000 0 0 1
10.903874 31.601256 8.919097 34.598903 1.238542 1.310067 0.043579 -0.006306 -4012.550000 0 0 1
9.550574 32.021290 8.876597 34.574130 1.280939 1.311148 0.051167 -0.006975 -116498.000000 0 0 1
9.102874 32.256013 7.564597 34.358926 1.295742 1.348814 0.045262 -0.003995 -211650.000000 0 0 1
9.641274 33.467259 6.771797 35.480541 1.290310 1.378759 0.054763 -0.002239 -525295.000000 0 0 1
9.227274 -33.014828 7.189497 35.025852 -1.298262 1.364064 0.055670 -0.005077 -154498.000000 0 0 1
9.474874 -31.959778 6.292097 33.923313 -1.282588 1.384236 0.068340 -0.016404 40482.900000 0 0 1
8.534874 -30.747138 6.532997 32.571623 -1.300031 1.368853 0.066627 -0.016144 57721.200000 0 0 1
8.690674 -30.183458 7.813997 32.367075 -1.290451 1.326969 0.085381 -0.021052 -31565.400000 0 0 1
8.122774 -28.882838 8.006197 31.053132 -1.296646 1.310028 0.090295 -0.020439 -439822.000000 0 0 1
8.875374 -27.664578 7.535497 30.014744 -1.260349 1.317021 0.098138 -0.026649 -352496.000000 0 0 1
9.848674 -27.109598 8.424797 30.048359 -1.222330 1.286612 0.100996 -0.034227 759503.000000 0 0 1
10.706274 -26.051998 7.991397 29.277864 -1.180879 1.294338 0.097665 -0.041350 1228.270000 0 0 1
9.984074 -24.875638 7.315797 27.784888 -1.189118 1.304354 0.089066 -0.034806 -417782.000000 0 0 1
9.623174 -25.289858 5.995997 27.715238 -1.207199 1.352729 0.084364 -0.027789 -708779.000000 0 0 1
8.788174 -24.417438 5.349897 26.496503 -1.225317 1.367489 0.088481 -0.021064 -305867.000000 0 0 1
8.406974 -24.838738 3.910397 26.512852 -1.244437 1.422766 0.077740 -0.015779 73798.800000 0 0 1
7.551074 -25.953498 3.879597 27.306667 -1.287666 1.428239 0.053704 -0.018556 -17140.400000 0 0 1
8.189274 -27.194658 4.162197 28.704312 -1.278298 1.425281 0.059513 -0.016632 -423811.000000 0 0 1
7.289674 -28.242538 3.593797 29.388700 -1.318200 1.448204 0.058272 -0.014038 -477959.000000 0 0 1
6.165874 -28.405648 4.422297 29.401625 -1.357047 1.419813 0.050020 -0.010336 -776926.000000 0 0 1
5.139874 -29.195458 3.923797 29.902998 -1.396532 1.439199 0.048912 -0.003796 -117824.000000 0 0 1
5.305474 -30.728008 4.148397 31.457396 -1.399823 1.438538 0.051732 -0.000708 279613.000000 0 0 1
6.286174 -31.295448 3.246397 32.085201 -1.372569 1.469442 0.056872 -0.003086 542779.000000 0 0 1
6.539274 -32.617388 3.536097 33.453850 -1.372935 1.464898 0.055725 -0.002334 279105.000000 0 0 1
7.572474 -33.357268 2.621497 34.306296 -1.347568 1.494307 0.056547 -0.002669 396331.000000 0 0 1
7.043274 -33.712828 1.378597 34.468290 -1.364839 1.530790 0.064486 -0.004081 -306241.000000 0 0 1
7.957574 33.198260 0.754497 34.146987 1.335536 1.548699 0.058924 -0.004426 -593933.000000 0 0 1
7.499074 32.578070 -0.584003 33.435128 1.344550 1.588264 0.081459 -0.006766 512283.000000 0 0 1
6.380674 31.694946 -0.597403 32.336349 1.372136 1.589272 0.059194 -0.002988 694559.000000 0 0 1
5.121774 32.373215 -0.480703 32.779394 1.413887 1.585462 0.063164 -0.006321 647785.000000 0 0 1
3.871174 31.535346 -0.061203 31.772122 1.448651 1.572723 0.071562 -0.009654 633174.000000 0 0 1
3.429574 30.693476 -1.108203 30.904361 1.459522 1.606663 0.078432 -0.012106 -363804.000000 0 0 1
2.431074 29.765256 -0.828303 29.875854 1.489302 1.598525 0.071810 -0.018051 -177173.000000 0 0 1
2.388774 28.712946 -1.946203 28.877798 1.487792 1.638242 0.064963 -0.015507 81282.900000 0 0 1
1.914874 29.238196 -3.171703 29.471996 1.505398 1.678623 0.074959 -0.025786 50845.600000 0 0 1
2.010274 28.295786 -4.255103 28.684466 1.499870 1.719688 0.076616 -0.031836 -224387.000000 0 0 1
1.878574 28.889726 -5.670203 29.500788 1.505862 1.764205 0.083304 -0.030611 -423299.000000 0 0 1
0.602674 29.361696 -5.972603 29.969057 1.550273 1.771432 0.091509 -0.032470 -549795.000000 0 0 1
0.555574 30.138266 -7.143203 30.978203 1.552364 1.803478 0.084105 -0.029034 -36368.600000 0 0 1
0.405974 29.421866 -8.486803 30.624121 1.556999 1.851600 0.094499 -0.026828 121848.000000 0 0 1
-0.966026 29.191966 -8.807703 30.507043 -1.537716 1.863676 0.101614 -0.027740 423999.000000 0 0 1
-1.142026 28.675596 -10.156003 30.442378 -1.530992 1.910931 0.108616 -0.027718 -50796.900000 0 0 1
-1.212026 29.774326 -11.309703 31.873011 -1.530112 1.933535 0.084068 -0.028114 -245518.000000 0 0 1
0.012074 30.466256 -11.437403 32.542389 1.570400 1.929928 0.085419 -0.022509 -159356.000000 0 0 1
-0.133126 31.887558 -11.651503 33.949839 -1.566622 1.921115 0.068021 -0.032504 -93188.700000 0 0 1
-0.515926 32.757146 -10.456003 34.389312 -1.555048 1.879735 0.068514 -0.035006 -401495.000000 0 0 1
0.506974 33.100748 -9.551203 34.454927 1.555481 1.851684 0.068832 -0.042637 -376031.000000 0 0 1
0.186774 -33.735158 -8.504503 34.791125 -1.565260 1.817743 0.071473 -0.031592 489458.000000 0 0 1
1.460874 -33.488568 -7.592903 34.369616 -1.527201 1.793553 0.069965 -0.026239 1238130.000000 0 0 1
2.498774 -32.716508 -8.188303 33.818073 -1.494568 1.815355 0.079143 -0.028364 -238243.000000 0 0 1
3.365474 -32.225218 -7.194203 33.189571 -1.466738 1.789292 0.081503 -0.027914 -1308470.000000 0 0 1
4.544874 -31.473318 -7.869103 32.758944 -1.427384 1.813381 0.057818 -0.025762 126904.000000 0 0 1
5.522174 -32.278028 -8.511903 33.835159 -1.401355 1.825098 0.076109 -0.025593 297423.000000 0 0 1
6.218274 -33.137348 -7.618003 34.565658 -1.385302 1.793013 0.087206 -0.017238 -1365300.000000 0 0 1
6.716374 33.254500 -8.264503 34.918096 1.371508 1.809746 0.079420 -0.018458 738753.000000 0 0 1
5.721674 32.230630 -8.495803 33.819073 1.395104 1.824730 0.074688 -0.015211 216512.000000 0 0 1
4.716874 32.536814 -9.439803 34.205307 1.426829 1.850400 0.082516 -0.028323 704652.000000 0 0 1
3.727574 31.331146 -9.684503 33.004925 1.452380 1.868605 0.073537 -0.034231 449658.000000 0 0 1
4.368274 30.390516 -10.506003 32.450599 1.428036 1.900491 0.059314 -0.023659 67219.500000 0 0 1
3.605374 29.262586 -10.778603 31.392291 1.448206 1.921280 0.063165 -0.027002 -109504.000000 0 0 1
4.489374 28.419926 -11.677303 31.051667 1.414125 1.956337 0.060428 -0.025851 114900.000000 0 0 1
4.497674 28.989986 -12.957403 32.070900 1.416878 1.986708 0.068212 -0.026821 -558754.000000 0 0 1
5.564174 28.642096 -13.758303 32.258651 1.378921 2.011416 0.067273 -0.027252 -764255.000000 0 0 1
5.351074 29.091226 -15.228503 33.269215 1.388889 2.046243 0.071517 -0.022809 -102637.000000 0 0 1
4.329974 28.360596 -15.853603 32.778175 1.419291 2.075632 0.066022 -0.025450 -192782.000000 0 0 1
4.130774 28.804416 -17.192203 33.798365 1.428360 2.104435 0.098932 -0.022964 -180882.000000 0 0 1
2.933374 28.170056 -17.890903 33.499867 1.467039 2.134191 0.089329 -0.032761 -300194.000000 0 0 1
3.218274 26.880526 -18.406903 32.737349 1.451638 2.167913 0.113607 -0.025974 -139522.000000 0 0 1
2.265574 26.407946 -19.340203 32.810911 1.485214 2.201167 0.107622 -0.037930 -91285.200000 0 0 1
2.736174 25.165596 -20.106603 32.327532 1.462495 2.242046 0.131684 -0.035593 122650.000000 0 0 1
2.985974 24.043506 -19.293003 30.971376 1.447238 2.243279 0.130788 -0.037576 709804.000000 0 0 1
4.106674 23.311906 -19.859403 30.898311 1.396423 2.268858 0.141757 -0.030118 1014190.000000 0 0 1
4.751174 22.294516 -18.904103 29.613919 1.360828 2.263152 0.136515 -0.022457 52131.100000 0 0 1
3.963974 21.152016 -18.670103 28.490237 1.385541 2.285397 0.161903 -0.019495 -416645.000000 0 0 1
4.606374 20.212216 -17.840003 27.349919 1.346723 2.281394 0.141088 -0.015403 -33890.500000 0 0 1
3.850974 18.897516 -17.679803 26.163362 1.369767 2.312773 0.129700 -0.026968 553227.000000 0 0 1
2.697074 19.023816 -16.843003 25.551253 1.429961 2.290531 0.127302 -0.026715 497128.000000 0 0 1
1.865674 17.893316 -16.583703 24.467748 1.466905 2.315533 0.085948 -0.018769 632792.000000 0 1 0
2.457774 16.885116 -15.485803 23.042523 1.426253 2.307774 0.063308 -0.012724 16125.500000 0 1 0
3.483174 16.004116 -15.863703 22.801783 1.356496 2.340221 0.082074 -0.021145 -561454.000000 0 1 0
3.202674 14.935216 -16.736703 22.659104 1.359558 2.401833 0.088250 -0.028499 -323235.000000 0 1 0
3.216874 15.145916 -18.214503 23.906383 1.361514 2.437053 0.099654 -0.025173 -120466.000000 0 1 0
4.421274 15.607016 -18.802003 24.832276 1.294742 2.429751 0.113965 -0.025376 -284003.000000 0 1 0
4.344874 16.005716 -20.178303 26.119433 1.305726 2.453628 0.115938 -0.028129 -211892.000000 0 0 1
4.410074 14.888616 -21.247003 26.316435 1.282825 2.510471 0.110515 -0.037598 549738.000000 0 0 1
3.342874 13.968616 -21.450103 25.814801 1.335901 2.551560 0.103270 -0.030987 690258.000000 0 0 1
2.132074 14.414316 -22.090403 26.463260 1.423947 2.558488 0.105087 -0.032923 627160.000000 0 0 1
1.350774 13.279116 -22.737003 26.365333 1.469423 2.610753 0.095183 -0.025399 -211887.000000 0 0 1
0.589874 12.563116 -21.780203 25.150687 1.523878 2.617920 0.098507 -0.017250 -73591.500000 0 0 1
-0.056226 11.481116 -22.410203 25.180079 -1.565899 2.668136 0.059612 -0.009701 -26040.600000 0 0 1
-0.815026 10.604916 -21.384703 23.883761 -1.494094 2.680048 0.036763 -0.007493 -601126.000000 0 1 0
-1.820226 11.294316 -20.657903 23.614058 -1.411007 2.635848 0.035535 -0.001734 -36162.200000 0 1 0
-2.360626 10.486416 -19.631103 22.381190 -1.349375 2.640639 0.021167 0.003435 -9376.960000 0 1 0
-3.354226 9.394816 -19.994703 22.345056 -1.227873 2.678814 0.026297 -0.002187 -430419.000000 0 1 0
-2.671726 8.274316 -20.592003 22.352472 -1.258471 2.742054 0.020521 -0.007964 405830.000000 0 1 0
-3.665126 7.423316 -21.131403 22.695263 -1.112176 2.768194 0.022320 0.001421 522528.000000 0 1 0
-2.991826 6.247616 -21.900703 22.970078 -1.124191 2.835256 0.026850 -0.005044 559700.000000 0 1 0
-2.235326 5.338516 -21.087303 21.867116 -1.174260 2.873729 0.032561 -0.006003 158683.000000 0 1 0
-2.120226 4.120316 -21.721503 22.210269 -1.095554 2.931414 0.053072 -0.014861 125338.000000 0 1 0
-1.179126 3.136316 -20.950703 21.216945 -1.211185 2.983006 0.052525 -0.011674 219766.000000 0 1 0
0.217274 3.369416 -20.978303 21.248279 1.506401 2.982013 0.043295 -0.008134 -314017.000000 0 1 0
0.777974 2.347716 -20.176803 20.327823 1.250809 3.019622 0.041359 -0.005323 201600.000000 0 1 0
2.325174 2.349016 -20.210203 20.478687 0.790499 2.979487 0.034511 -0.009358 425487.000000 0 1 0
2.996174 1.872716 -21.392903 21.682722 0.558625 2.977909 0.053843 -0.009440 -111206.000000 0 1 0
4.378274 2.080716 -21.264103 21.809648 0.443641 2.917455 0.074657 -0.013209 86147.800000 0 1 0
5.198574 1.386416 -22.418503 23.055077 0.260626 2.906055 0.082486 -0.009068 6608.280000 0 1 0
6.599774 1.427016 -22.288203 23.288568 0.212944 2.847428 0.087308 -0.019863 204739.000000 0 1 0
7.170974 0.668116 -23.435403 24.517083 0.092901 2.843439 0.088394 -0.018867 99975.000000 0 1 0
8.700974 0.539416 -23.281803 24.860416 0.061916 2.783312 0.093261 -0.030327 56126.900000 0 1 0
9.317274 1.809816 -23.547803 25.388699 0.191854 2.758442 0.090364 -0.036783 -1713950.000000 0 0 1
10.665774 1.696616 -23.436603 25.805263 0.157749 2.709784 0.099301 -0.032946 -1724680.000000 0 0 1
13.581874 -19.991438 22.505316 33.024448 -0.974041 0.821021 0.109900 -0.009928 -242904.000000 0 0 1
12.855974 -21.242838 22.351316 33.408316 -1.026569 0.837887 0.098325 -0.005188 -34282.900000 0 0 1
11.639974 -21.009138 21.687916 32.361066 -1.064854 0.836338 0.089734 0.001877 -186437.000000 0 0 1
11.705474 -20.835538 20.151816 31.260734 -1.058936 0.870248 0.113647 -0.018179 -387859.000000 0 0 1
12.080174 -19.521238 19.806216 30.319887 -1.016652 0.858938 0.128271 -0.022654 -104438.000000 0 0 1
12.144874 -19.381738 18.389316 29.348198 -1.011037 0.893625 0.137042 -0.024010 24616.700000 0 0 1
11.935774 -17.914738 18.005816 28.064390 -0.983079 0.874228 0.165256 -0.041508 579969.000000 0 0 1
10.750174 -17.322238 18.555516 27.566889 -1.015368 0.832392 0.187865 -0.045169 191145.000000 0 0 1
10.667174 -15.927938 18.190816 26.427138 -0.980687 0.811600 0.200263 -0.043356 758006.000000 0 0 1
9.417474 -15.139038 18.722116 25.853374 -1.014310 0.760973 0.176209 -0.038238 603993.000000 0 0 1
8.170674 -15.495338 18.180516 25.246715 -1.085549 0.766830 0.145586 -0.029636 333613.000000 0 0 1
7.124174 -14.723438 18.820616 24.934897 -1.120139 0.715462 0.106655 -0.017968 1872180.000000 0 1 0
5.635374 -15.100138 18.418216 24.474524 -1.213605 0.718876 0.043090 -0.000159 839838.000000 0 1 0
5.408674 -14.818938 17.037816 23.219429 -1.220836 0.746936 0.019633 -0.010465 -173761.000000 0 1 0
4.069574 -15.064638 16.678716 22.840410 -1.306953 0.752140 0.000424 -0.007303 -107408.000000 0 1 0
3.554074 -16.507538 16.629516 23.699601 -1.358733 0.793045 0.000506 -0.001978 -386095.000000 0 1 0
2.170474 -16.539138 16.335416 23.347374 -1.440309 0.795863 0.000314 -0.001994 -229093.000000 0 1 0
1.736174 -17.862938 16.231316 24.198233 -1.473906 0.835557 0.023670 -0.008925 1150430.000000 0 1 0
0.178274 -17.935138 15.981316 24.022977 -1.560857 0.842966 0.031224 0.004195 964989.000000 0 1 0
-0.202326 -17.464638 14.676816 22.813668 1.559212 0.871951 0.040890 -0.012223 -1091800.000000 0 1 0
-1.567226 -17.604538 14.545216 22.889720 1.482006 0.882208 0.038214 -0.006301 -1097080.000000 0 1 0
-1.980926 -18.244938 13.189516 22.600114 1.462646 0.947637 0.033907 -0.013589 -796287.000000 0 1 0
-3.346426 -18.493438 13.183516 22.956718 1.391781 0.959076 0.026836 -0.013731 -720238.000000 0 1 0
-3.568026 -19.566438 12.341716 23.407141 1.390424 1.015420 0.054898 -0.027921 -1164290.000000 0 1 0
-4.963326 -20.091638 12.314816 24.082426 1.328611 1.034028 0.036863 -0.022869 -1210920.000000 0 1 0
-5.405626 -20.731838 13.490916 25.318664 1.315735 1.008838 0.028684 -0.021928 432861.000000 0 0 1
-6.797626 -20.966338 13.252716 25.718272 1.257274 1.029435 0.026754 -0.026718 529307.000000 0 0 1
-7.500426 -21.871838 14.303016 27.188416 1.240437 1.016823 0.049646 -0.030630 27519.900000 0 0 1
-8.899026 -21.726238 14.293216 27.486690 1.182043 1.023940 0.047160 -0.035120 -635287.000000 0 0 1
-9.511626 -22.506038 15.233616 28.793330 1.170939 1.013295 0.053566 -0.035693 -98791.700000 0 0 1
-10.984426 -22.082538 15.411416 29.082776 1.109210 1.012295 0.071438 -0.037262 83417.900000 0 0 1
-11.006326 -20.847038 16.004516 28.493556 1.085035 0.974371 0.061823 -0.034688 -297716.000000 0 0 1
-12.260626 -20.233238 15.850816 28.477276 1.026003 0.980493 0.081432 -0.035705 -175816.000000 0 0 1
-12.434426 -18.916438 16.696616 28.128697 0.989282 0.935297 0.089962 -0.031689 -227635.000000 0 0 1
-12.640226 -19.261938 18.031616 29.256397 0.990055 0.906722 0.085565 -0.032770 -29931.700000 0 0 1
-12.855726 -18.134238 18.854316 29.147993 0.954109 0.867353 0.092584 -0.034454 -119134.000000 0 0 1
-13.473126 -18.564838 20.213916 30.574184 0.943007 0.848455 0.089922 -0.031265 -282339.000000 0 0 1
-14.765326 -19.090738 20.106616 31.412532 0.912469 0.876190 0.075206 -0.024543 -217946.000000 0 0 1
-15.221726 -19.737138 21.300816 32.786893 0.913851 0.863640 0.070130 -0.020792 -274531.000000 0 0 1
-16.551626 -20.451038 21.047116 33.692468 0.890393 0.896071 0.078494 -0.020833 -786057.000000 0 0 1
-16.488526 -21.577138 20.207416 33.849432 0.918290 0.931066 0.078560 -0.023254 887149.000000 0 0 1
-17.769926 -21.808638 19.600616 34.286603 0.887089 0.962257 0.075499 -0.017137 1671270.000000 0 0 1
-18.933826 -22.477938 20.461016 35.810622 0.870772 0.962625 0.081533 -0.016401 494296.000000 0 0 1
-19.537226 -21.561338 21.362716 36.096539 0.834609 0.937479 0.080046 -0.014110 129395.000000 0 0 1
-20.366826 -22.227038 22.311116 37.505129 0.829044 0.933678 0.078721 -0.003393 76447.000000 0 0 1
-20.890726 -21.210338 23.368886 37.847136 0.792990 0.905294 0.064898 0.002181 -567732.000000 0 0 1
-21.802426 -20.384838 22.755016 37.532361 0.751809 0.919425 0.081398 0.002236 -396154.000000 0 0 1
-22.112226 -19.263738 23.547106 37.609950 0.716663 0.894271 0.075364 -0.003294 -34709.100000 0 0 1
-23.092026 -18.287338 22.855996 37.283575 0.669803 0.910905 0.073149 -0.002139 191814.000000 0 0 1
-22.573526 -17.458038 21.826016 35.926622 0.658301 0.917866 0.072093 -0.003449 32652.300000 0 0 1
-23.584126 -16.519838 21.518116 35.946423 0.611038 0.929024 0.082898 -0.011782 164352.000000 0 0 1
-23.284426 -15.720938 20.196516 34.600746 0.593866 0.947516 0.091795 -0.008423 247674.000000 0 0 1
-22.139626 -14.913638 20.389816 33.590538 0.592799 0.918503 0.090682 -0.011310 -269216.000000 0 0 1
-21.500326 -14.746038 19.161016 32.355126 0.601167 0.936998 0.090584 -0.016326 -218563.000000 0 0 1
-20.662526 -13.453238 19.041116 31.152748 0.577144 0.913198 0.081950 -0.022566 120591.000000 0 0 1
-20.133126 -13.509138 17.698916 30.018181 0.590990 0.940225 0.089908 -0.030989 -112456.000000 0 0 1
-19.523226 -12.350938 17.283816 28.851903 0.564066 0.928479 0.088349 -0.030423 -1034160.000000 0 0 1
-18.809426 -12.578438 15.908516 27.660305 0.589430 0.958022 0.073554 -0.030814 187748.000000 0 0 1
-18.073426 -11.472038 15.448616 26.399169 0.565577 0.945678 0.067940 -0.029579 73700.000000 0 0 1
-16.931026 -11.102738 16.170216 25.911509 0.580416 0.896874 0.069867 -0.037530 -1216610.000000 0 0 1
-16.276826 -9.748638 15.688116 24.618854 0.539631 0.879885 0.063383 -0.031685 -21907.000000 0 1 0
-17.061826 -8.544538 15.781016 24.761977 0.464286 0.879796 0.077132 -0.033516 217959.000000 0 1 0
-16.768826 -7.618038 14.720116 23.577740 0.426422 0.896532 0.072119 -0.029247 -779099.000000 0 1 0
-16.939626 -6.165538 15.267016 23.623009 0.349067 0.868100 0.089889 -0.029778 597957.000000 0 1 0
-16.087726 -5.781638 16.373216 23.671174 0.345008 0.806964 0.072014 -0.026479 597995.000000 0 1 0
-14.692526 -5.951638 16.192516 22.660315 0.384877 0.774779 0.058051 -0.018936 -879458.000000 0 1 0
-13.914426 -6.037238 17.462716 23.130196 0.409371 0.715181 0.044079 -0.017719 -477335.000000 0 1 0
-14.035326 -7.182638 18.269016 24.131672 0.473007 0.712002 0.039993 -0.017801 51222.500000 0 1 0
-13.432526 -8.349738 17.725316 23.755793 0.556155 0.728540 0.038271 -0.017090 -556243.000000 0 1 0
-13.581526 -9.580738 18.699916 25.018698 0.614357 0.726600 0.052517 -0.021277 48195.200000 0 0 1
-14.887526 -10.073738 18.911516 26.091456 0.594887 0.760028 0.067850 -0.026491 -157340.000000 0 0 1
-15.429126 -9.468438 20.082416 27.037246 0.550413 0.733600 0.048591 -0.023310 205718.000000 0 0 1
-16.891526 -9.981338 20.414716 28.314508 0.533707 0.765554 0.059966 -0.023991 2066690.000000 0 0 1
-17.923526 -9.877638 19.383216 28.187401 0.503687 0.812542 0.088497 -0.026581 1001180.000000 0 0 1
-18.253826 -8.536938 18.996716 27.693983 0.437458 0.814886 0.084278 -0.028450 -67725.700000 0 0 1
-19.364226 -8.522538 17.852316 27.682343 0.414605 0.869905 0.116530 -0.033364 -4961.170000 0 0 1
-20.620026 -8.729938 18.440116 29.007502 0.400491 0.881879 0.120880 -0.039895 -745574.000000 0 0 1
-21.498126 -8.901938 17.339116 29.018250 0.392585 0.930386 0.131705 -0.027818 361613.000000 0 0 1
-22.938326 -9.327238 17.757216 30.471017 0.386202 0.948678 0.115636 -0.018172 235221.000000 0 0 1
-23.782226 -8.389238 18.352016 31.189262 0.339125 0.941708 0.117890 -0.015549 166128.000000 0 0 1
-25.118846 -8.856938 18.303416 32.317438 0.338990 0.968710 0.116394 -0.009793 -437918.000000 0 0 1
-26.046846 -7.895538 19.018916 33.203868 0.294324 0.960888 0.114899 -0.008968 -589782.000000 0 0 1
-26.087296 -7.875138 20.424416 34.054685 0.293177 0.927603 0.113708 -0.014150 -23995.100000 0 0 1
-26.794836 -6.807338 20.964916 34.696265 0.248791 0.921983 0.101884 -0.021534 -904730.000000 0 0 1
-26.843286 -6.793238 22.529216 35.696998 0.247866 0.887795 0.109065 -0.024581 720915.000000 0 0 1
-25.649396 -6.274338 23.125956 35.100836 0.239908 0.851516 0.112787 -0.029519 765264.000000 0 0 1
-24.493526 -7.083138 23.030576 34.358566 0.281505 0.836182 0.123740 -0.020724 -688942.000000 0 0 1
-23.437826 -6.790938 24.113776 34.306307 0.282020 0.791335 0.132359 -0.023822 -101789.000000 0 0 1
-22.676526 -5.604838 23.881786 33.406268 0.242308 0.774330 0.128572 -0.033227 367086.000000 0 0 1
-22.103326 -5.221638 25.139246 33.879259 0.231985 0.734711 0.116909 -0.024658 217997.000000 0 0 1
-21.308226 -3.884538 24.998506 33.076509 0.180322 0.713955 0.114123 -0.026433 245071.000000 0 0 1
-20.401426 -3.479538 26.028816 33.253942 0.168928 0.671758 0.096360 -0.028735 273182.000000 0 0 1
-20.850026 -3.412638 27.416496 34.612627 0.162237 0.656562 0.100702 -0.036401 413728.000000 0 0 1
-21.835926 -2.264538 27.909536 35.508844 0.103338 0.666503 0.107407 -0.035366 2127880.000000 0 0 1
-23.225426 -2.479538 27.521686 36.097254 0.106357 0.703734 0.130416 -0.041258 1268100.000000 0 0 1
-24.040726 -1.472438 28.132396 37.034528 0.061171 0.708058 0.107881 -0.025407 639058.000000 0 0 1
-25.361746 -1.164338 27.389766 37.346661 0.045877 0.747497 0.101821 -0.035657 -292871.000000 0 0 1
-25.038746 -0.461338 26.181216 36.229928 0.018423 0.763181 0.094004 -0.033412 902457.000000 0 0 1
-26.173596 -0.007838 25.390996 36.465873 0.000299 0.800574 0.103479 -0.035272 569894.000000 0 0 1
-27.064456 -1.128238 24.828626 36.745318 0.041663 0.828889 0.090979 -0.030957 -234942.000000 0 0 1
-28.070136 -1.614438 25.736596 38.117074 0.057451 0.829562 0.076744 -0.031389 700739.000000 0 0 1
-28.637576 -2.939138 25.475956 38.441821 0.102274 0.846358 0.072935 -0.029000 -166491.000000 0 0 1
-27.726286 -4.182238 25.469196 37.880311 0.149712 0.833404 0.077229 -0.029744 -443865.000000 0 0 1
-27.275006 -4.274838 26.773436 38.457991 0.155466 0.800743 0.071481 -0.036749 1946.810000 0 0 1
-26.493846 -5.471838 26.901196 38.151530 0.203669 0.788212 0.078299 -0.038808 178003.000000 0 0 1
-25.884006 -5.719138 28.275166 38.757907 0.217459 0.753158 0.059276 -0.029390 330809.000000 0 0 1
-26.875526 -6.245338 29.157626 40.143060 0.228328 0.757810 0.076833 -0.032962 991278.000000 0 0 1
-26.195236 -6.813938 30.276996 40.611779 0.254482 0.729478 0.072099 -0.029759 -109863.000000 0 0 1
-27.184046 -7.261038 31.335166 42.113984 0.261013 0.731675 0.083162 -0.030822 -170395.000000 0 0 1
-28.096616 -8.210338 30.837616 42.518091 0.284302 0.759352 0.077482 -0.028429 326783.000000 0 0 1
-29.290116 -8.366938 31.589706 43.884235 0.278247 0.767222 0.072668 -0.030056 452503.000000 0 0 1
-30.447826 -8.956438 30.739686 44.183891 0.286088 0.801372 0.064782 -0.024433 -161817.000000 0 0 1
-30.204006 -10.266438 30.279256 43.983123 0.327652 0.811476 0.063093 -0.021548 806495.000000 0 0 1
-31.279136 -10.784338 29.453936 44.296960 0.332015 0.843410 0.059740 -0.026989 490555.000000 0 0 1
-30.971616 -12.129638 28.726866 43.949994 0.373276 0.858430 0.061938 -0.024485 -836664.000000 0 0 1
-29.961306 -11.963138 27.824886 42.603061 0.379891 0.859100 0.065981 -0.021715 -891006.000000 0 0 1
-29.087496 -13.063138 27.734876 42.260518 0.422104 0.854914 0.061651 -0.023652 257964.000000 0 0 1
-27.700646 -12.628038 27.150796 40.791652 0.427729 0.842503 0.072066 -0.026972 496715.000000 0 0 1
-26.820346 -11.864138 28.014226 40.557189 0.416479 0.808293 0.069518 -0.026649 551915.000000 0 0 1
-27.233926 -10.567538 28.489586 40.804609 0.370144 0.797923 0.076402 -0.019476 -847719.000000 0 0 1
-27.385056 -9.438838 27.459216 39.912924 0.331920 0.812097 0.071499 -0.016845 1006160.000000 0 0 1
-26.169716 -8.924038 26.830336 38.527385 0.328640 0.800432 0.076334 -0.024776 1259380.000000 0 0 1
-25.564566 -9.717438 25.797706 37.596506 0.363246 0.814581 0.070159 -0.020807 -25555.900000 0 0 1
-26.277846 -9.749438 24.418256 37.172947 0.355271 0.854120 0.087173 -0.019296 12458.100000 0 0 1
-27.407836 -10.610238 24.365846 38.176709 0.369358 0.878588 0.076349 -0.021750 216574.000000 0 0 1
-28.030636 -10.670938 23.070726 37.839713 0.363748 0.915119 0.093873 -0.020944 -429303.000000 0 0 1
-29.178506 -11.712238 22.992696 38.951583 0.381712 0.939379 0.088314 -0.024943 -49512.300000 0 0 1
-30.438886 -11.331438 23.481676 40.078877 0.356374 0.944823 0.083267 -0.017564 -113144.000000 0 0 1
-30.484616 -11.030038 24.873766 40.861691 0.347169 0.916337 0.078755 -0.017404 -1940890.000000 0 0 1
-31.844216 -10.692238 25.411046 42.120058 0.323939 0.923163 0.055185 -0.015138 -1323540.000000 0 0 1
-32.392206 -9.458938 25.050826 42.027020 0.284113 0.932205 0.064822 -0.021782 -870018.000000 0 0 1
-33.713486 -9.103338 25.223476 43.077763 0.263731 0.945258 0.056497 -0.013581 -634512.000000 0 0 1
-34.356929 -9.185438 26.671616 44.453863 0.261243 0.927315 0.048644 -0.016147 -559347.000000 0 0 1
-34.671864 -10.476538 27.165686 45.275495 0.293440 0.927284 0.050803 -0.025482 142793.000000 0 0 1
-35.186137 -10.359338 28.464376 46.428448 0.286325 0.910842 0.063685 -0.027902 -1062270.000000 0 0 1
-35.508206 -11.757238 29.078446 47.377435 0.319751 0.909980 0.082910 -0.020019 706936.000000 0 0 1
-36.749626 -12.394338 28.713906 48.256015 0.325284 0.933490 0.060854 -0.019102 738385.000000 0 0 1
37.070071 -11.739838 29.240696 48.652156 -0.306700 0.926025 0.072173 -0.011752 -1109480.000000 0 0 1
35.753121 -12.154138 28.589416 47.364158 -0.327690 0.922777 0.073082 -0.012352 -306720.000000 0 0 1
35.565141 -11.731538 27.246016 46.312565 -0.318622 0.941832 0.065181 -0.009314 -1229390.000000 0 0 1
34.407731 -12.253738 26.748316 45.271608 -0.342128 0.938696 0.068986 0.001432 -1052050.000000 0 0 1
34.275021 -11.832238 25.247576 44.183923 -0.332405 0.962561 0.058693 -0.003435 69476.000000 0 0 1
33.971031 -10.464938 25.155976 43.547319 -0.298830 0.954925 0.073322 -0.024100 16773.100000 0 0 1
33.902411 -10.104438 23.760956 42.615211 -0.289662 0.979341 0.070467 -0.018674 -76273.500000 0 0 1
33.618851 -8.552638 23.543546 41.924615 -0.249116 0.974516 0.089946 -0.008744 224359.000000 0 0 1
32.211791 -8.370038 23.586656 40.792001 -0.254222 0.954254 0.095683 -0.011659 78932.300000 0 0 1
31.989551 -7.038638 23.207706 40.143137 -0.216578 0.954369 0.095821 -0.004598 -598865.000000 0 0 1
30.503541 -6.736938 23.064026 38.830422 -0.217368 0.934814 0.091418 0.000074 -321111.000000 0 0 1
29.890341 -7.560338 22.058616 37.910074 -0.247740 0.949774 0.087483 -0.000321 -1270800.000000 0 0 1
28.562441 -7.261538 21.944016 36.743473 -0.248959 0.930763 0.106089 -0.017295 -1382180.000000 0 0 1
15.707874 -17.225538 25.437676 34.504085 -0.831448 0.741825 0.107377 0.000772 -63022.700000 0 0 1
15.134174 -18.529938 25.316276 34.832681 -0.885930 0.757150 0.124370 -0.003178 251735.000000 0 0 1
16.023174 -19.550838 25.701066 36.048886 -0.884239 0.777100 0.090760 -0.004911 -982959.000000 0 0 1
15.367574 -20.936938 25.721206 36.552677 -0.937618 0.790240 0.094033 -0.007965 392343.000000 0 0 1
14.392674 -21.247238 26.720716 37.048494 -0.975406 0.765211 0.078396 -0.011653 800145.000000 0 0 1
13.168274 -20.535138 26.630956 36.115138 -1.000593 0.741598 0.088682 -0.012742 -399131.000000 0 0 1
12.284474 -20.749538 27.875266 36.857592 -1.036253 0.713163 0.070380 -0.009597 324528.000000 0 0 1
12.905774 -20.098638 28.999696 37.569890 -0.999979 0.688993 0.074076 -0.018990 1050980.000000 0 0 1
11.896874 -19.509238 29.854066 37.595362 -1.023197 0.653289 0.064930 -0.019413 731392.000000 0 0 1
11.534274 -18.061438 29.440636 36.414367 -1.002468 0.629215 0.084642 -0.014757 358385.000000 0 0 1
12.590374 -17.147138 29.745256 36.569415 -0.937448 0.620837 0.073578 -0.001071 -7590.610000 0 0 1
12.333074 -15.792138 29.434086 35.607047 -0.907772 0.597692 0.097197 -0.004601 213544.000000 0 0 1
13.631074 -14.927538 29.589906 35.835738 -0.830764 0.599338 0.083622 0.001367 396861.000000 0 0 1
13.470874 -13.546038 29.361626 35.029483 -0.788180 0.576827 0.130579 -0.004777 75008.200000 0 0 1
14.599774 -12.709938 29.626326 35.389478 -0.716308 0.578743 0.113427 -0.000204 158792.000000 0 0 1
14.372974 -11.181538 29.555116 34.714753 -0.661154 0.552204 0.108662 0.000295 -93800.900000 0 0 1
14.191474 -10.312738 28.460016 33.432365 -0.628412 0.552393 0.160156 -0.005354 473202.000000 0 0 1
15.379574 -10.184538 27.673966 33.258150 -0.584912 0.587921 0.136025 -0.011378 266609.000000 0 0 1
15.483974 -8.802438 26.938316 32.294106 -0.516926 0.584196 0.135381 -0.009102 -20049.200000 0 0 1
15.891474 -7.799738 27.875646 33.021607 -0.456271 0.565793 0.141469 -0.021338 -369919.000000 0 0 1
17.247974 -7.581938 28.098236 33.830301 -0.414159 0.590676 0.127199 -0.023322 -847625.000000 0 0 1
17.815674 -6.298538 27.422266 33.302410 -0.339824 0.603363 0.127428 -0.027266 -433783.000000 0 0 1
19.207174 -6.149038 27.451706 34.063505 -0.309832 0.633606 0.104405 -0.038412 -381081.000000 0 0 1
19.566174 -4.893038 26.881806 33.606674 -0.245051 0.643676 0.108877 -0.035564 -906742.000000 0 0 1
21.078374 -4.803438 26.698826 34.354013 -0.224058 0.680644 0.104082 -0.031962 -1341850.000000 0 0 1
21.472174 -5.665138 25.650256 33.927625 -0.257958 0.713572 0.105267 -0.026442 1231260.000000 0 0 1
22.864774 -5.715838 25.268446 34.553771 -0.244964 0.750601 0.095675 -0.027460 745287.000000 0 0 1
23.984674 -5.961038 26.245866 36.050577 -0.243600 0.755354 0.071045 -0.023606 -1136650.000000 0 0 1
24.208774 -4.814938 27.055376 36.622968 -0.196330 0.739576 0.086140 -0.027839 -130195.000000 0 0 1
25.231974 -5.069838 27.987206 38.021566 -0.198289 0.743524 0.086232 -0.029074 -11999.500000 0 0 1
25.886174 -3.862738 28.775256 38.897688 -0.148127 0.738071 0.095490 -0.022810 266491.000000 0 0 1
26.723574 -3.077138 27.922086 38.771911 -0.114642 0.766759 0.085609 -0.012119 419219.000000 0 0 1
27.068674 -1.855638 28.623946 39.439661 -0.068446 0.758650 0.075433 -0.015910 -52610.500000 0 0 1
27.991874 -0.882238 27.806666 39.465606 -0.031507 0.788966 0.074501 -0.009425 491546.000000 0 0 1
29.364974 -1.158638 27.963346 40.565908 -0.039436 0.810231 0.078289 -0.005756 -126342.000000 0 0 1
30.234574 -0.663938 26.976856 40.525561 -0.021956 0.842398 0.061459 0.010017 510024.000000 0 0 1
31.733774 -0.711838 27.376016 41.916410 -0.022428 0.859113 0.049218 0.002446 152760.000000 0 0 1
32.072174 0.263262 28.282876 42.762305 0.008208 0.848116 0.041241 0.009340 -144850.000000 0 0 1
33.445174 0.216962 28.590436 44.000452 0.006487 0.863507 0.057521 -0.000522 -187680.000000 0 0 1
33.729574 1.322562 29.613676 44.904378 0.039191 0.850665 0.074758 -0.016215 -323785.000000 0 0 1
33.735574 2.604462 29.017166 44.574299 0.077049 0.861916 0.053806 -0.008341 168081.000000 0 0 1
33.870074 3.613462 29.980376 45.376888 0.106284 0.849049 0.045786 -0.012694 -16521.400000 0 0 1
33.931374 5.036662 29.289506 45.106333 0.147361 0.864075 0.051434 -0.004535 -226515.000000 0 0 1
34.063174 6.112662 30.166806 45.909701 0.177561 0.853844 0.062014 -0.009840 649899.000000 0 0 1
32.838474 6.667062 30.674326 45.428289 0.200303 0.829526 0.053138 -0.009555 261778.000000 0 0 1
33.016474 7.412062 32.008266 46.578486 0.220835 0.813182 0.036644 -0.011620 -209964.000000 0 0 1
33.410274 6.594362 33.113969 47.500179 0.194871 0.799405 0.043026 -0.006121 240985.000000 0 0 1
33.728874 7.390762 -33.601583 48.180148 0.215713 2.342581 0.056236 -0.015185 -131933.000000 0 0 1
34.156374 6.460762 -32.386343 47.510784 0.186944 2.320829 0.081179 -0.019634 -213115.000000 0 0 1
33.082774 5.745462 -31.847033 46.278654 0.171954 2.329744 0.059459 -0.013572 -150727.000000 0 0 1
32.882274 4.477562 -32.418253 46.392194 0.135337 2.344496 0.076879 -0.020470 31647.700000 0 0 1
33.545074 3.281362 -31.674693 46.252843 0.097509 2.325148 0.083933 -0.030427 38774.000000 0 0 1
33.201074 2.042962 -32.251343 46.331783 0.061456 2.340741 0.088351 -0.033314 195072.000000 0 0 1
33.494874 1.021462 -31.274053 45.836845 0.030487 2.321688 0.080813 -0.033261 102291.000000 0 0 1
33.812774 -0.383138 -31.883383 46.475807 -0.011331 2.326802 0.094715 -0.050259 -103786.000000 0 0 1
35.089774 -0.489938 -32.477403 47.815416 -0.013962 2.317502 0.103504 -0.039624 79112.100000 0 0 1
35.903474 -1.564238 -32.054433 48.155924 -0.043540 2.299145 0.109246 -0.031003 481863.000000 0 0 1
36.722674 -1.486738 -30.758643 47.925560 -0.040463 2.267640 0.103494 -0.027118 -455784.000000 0 0 1
35.894174 -1.504138 -29.618763 46.560985 -0.041880 2.260266 0.088202 -0.026818 -145274.000000 0 0 1
36.589974 -1.569138 -28.449343 46.375139 -0.042858 2.231232 0.099536 -0.024941 -339869.000000 0 0 1
35.568274 -1.251038 -27.341443 44.880082 -0.035158 2.225862 0.108379 -0.025645 85794.200000 0 0 1
35.338174 0.149062 -27.310323 44.661645 0.004218 2.228744 0.098402 -0.022703 88261.200000 0 0 1
34.521674 0.539062 -26.250603 43.372004 0.015614 2.220867 0.104421 -0.023005 -183390.000000 0 0 1
34.013874 2.015862 -26.350513 43.073854 0.059197 2.229070 0.086533 -0.023107 326121.000000 0 0 1
33.210574 2.349462 -27.481753 43.170696 0.070627 2.260856 0.111237 -0.038158 564707.000000 0 0 1
32.308574 3.414462 -27.221123 42.385045 0.105292 2.268206 0.083222 -0.018864 -298216.000000 0 0 1
31.456274 3.759062 -28.418353 42.558554 0.118937 2.301975 0.098661 -0.028660 -52689.600000 0 0 1
30.279674 4.414962 -27.922223 41.424644 0.144786 2.310472 0.081210 -0.025577 660334.000000 0 0 1
29.633874 5.079562 -29.016143 41.784028 0.169761 2.338426 0.077768 -0.028920 -115013.000000 0 0 1
28.406174 5.888262 -28.550603 40.702817 0.204393 2.348213 0.073426 -0.021944 -299308.000000 0 0 1
27.247174 5.096562 -28.425243 39.703626 0.184912 2.368760 0.097576 -0.028874 1085620.000000 0 0 1
26.150774 5.886062 -27.878403 38.674463 0.221392 2.375821 0.104067 -0.031396 1110060.000000 0 0 1
24.772874 5.206162 -27.662713 37.497001 0.207141 2.400500 0.127717 -0.027100 418398.000000 0 0 1
23.993774 4.968162 -28.835143 37.839785 0.204175 2.437242 0.145197 -0.024668 -734449.000000 0 0 1
22.694174 4.713362 -28.469153 36.711497 0.204779 2.458277 0.138315 -0.014245 -1367520.000000 0 0 1
21.756874 4.472862 -29.624873 37.027033 0.202759 2.498238 0.135035 -0.013831 -586516.000000 0 0 1
21.950474 3.176662 -30.253743 37.512711 0.143722 2.508993 0.126868 -0.022929 -50924.800000 0 0 1
21.256474 2.822062 -31.442063 38.057917 0.131991 2.543060 0.088370 -0.021611 -325878.000000 0 0 1
21.595374 3.649262 -32.670333 39.332276 0.167402 2.551024 0.094832 -0.019879 -532037.000000 0 0 1
22.933774 3.491662 -33.020353 40.354596 0.151089 2.529165 0.102527 -0.025902 -681216.000000 0 0 1
23.098974 3.964462 33.511484 40.893754 0.169973 0.610299 0.095130 -0.026940 260536.000000 0 0 1
24.532274 3.608962 33.030325 41.302052 0.146063 0.643958 0.091547 -0.019822 364315.000000 0 0 1
24.826174 2.216762 32.937623 41.305448 0.089055 0.647796 0.104931 -0.024586 -105285.000000 0 0 1
26.141874 2.046162 32.453996 41.723450 0.078112 0.679581 0.099865 -0.016603 -369042.000000 0 0 1
26.523974 0.526462 32.264620 41.770852 0.019846 0.688154 0.078250 -0.015298 -412858.000000 0 0 1
25.895674 -0.195238 31.209866 40.554652 -0.007539 0.692620 0.074247 -0.009181 161431.000000 0 0 1
24.501874 -0.361338 31.137866 39.623719 -0.014746 0.666745 0.082105 -0.018407 -45642.500000 0 0 1
23.826574 -1.294338 32.187235 40.067432 -0.054270 0.637936 0.065381 -0.030933 -399846.000000 0 0 1
24.067574 -2.647038 31.884043 40.035574 -0.109543 0.649489 0.058037 -0.031559 282641.000000 0 0 1
23.189374 -3.531138 32.583252 40.148280 -0.151113 0.623957 0.063747 -0.036739 -61906.600000 0 0 1
23.193274 -5.023738 32.127757 39.941942 -0.213308 0.636196 0.063824 -0.035008 -37135.500000 0 0 1
24.468974 -5.626938 32.175190 40.812204 -0.226032 0.662638 0.065244 -0.025746 -352406.000000 0 0 1
24.435574 -6.981638 31.841363 40.739575 -0.278301 0.673597 0.068830 -0.030222 -622017.000000 0 0 1
25.801174 -7.586938 31.576856 41.477224 -0.285993 0.705471 0.059495 -0.026595 -464098.000000 0 0 1
26.314074 -7.321038 30.314286 40.804216 -0.271355 0.733374 0.077348 -0.026702 -1028220.000000 0 0 1
27.572974 -7.814738 30.047956 41.523713 -0.276177 0.761744 0.068745 -0.012797 -818502.000000 0 0 1
27.956074 -7.694138 28.567966 40.704675 -0.268573 0.792826 0.082858 -0.023364 -175109.000000 0 0 1
27.095674 -8.327138 27.648946 39.597740 -0.298162 0.797853 0.083280 -0.018675 -221148.000000 0 0 1
27.467274 -8.005238 26.310846 38.868955 -0.283591 0.827238 0.102791 -0.018384 -96808.300000 0 0 1
26.776074 -8.825838 25.254266 37.850119 -0.318402 0.840329 0.083690 -0.019258 -51307.500000 0 0 1
25.478674 -8.389638 24.895166 36.596696 -0.318099 0.822683 0.072624 -0.015949 -96155.700000 0 0 1
24.779674 -9.422138 24.263516 35.937824 -0.363354 0.829625 0.085510 -0.026148 -1029710.000000 0 0 1
23.378774 -9.188238 23.763896 34.579092 -0.374471 0.813123 0.066902 -0.019575 -785732.000000 0 0 1
22.438374 -9.281838 24.818746 34.721799 -0.392226 0.774475 0.051396 -0.013407 146230.000000 0 0 1
21.170274 -8.792438 24.405136 33.482804 -0.393643 0.754103 0.072688 -0.014113 289944.000000 0 0 1
20.064074 -8.840638 25.469766 33.607037 -0.415026 0.710754 0.083087 -0.018659 -86622.100000 0 0 1
19.431874 -10.056038 25.893316 33.899638 -0.477551 0.701581 0.097644 -0.012181 944521.000000 0 0 1
20.156974 -10.835338 26.882726 35.304237 -0.493233 0.705235 0.063976 -0.014228 537811.000000 0 0 1
19.105174 -11.829838 27.419036 35.450759 -0.554414 0.686546 0.078692 -0.013762 496988.000000 0 0 1
18.506474 -12.771638 26.519766 34.769273 -0.604062 0.703263 0.089175 -0.010441 519746.000000 0 0 1
17.684674 -13.753438 27.192776 35.232823 -0.660997 0.689126 0.083950 -0.003356 190250.000000 0 0 1
18.406074 -14.926738 27.916706 36.618760 -0.681393 0.703843 0.083396 0.005573 -397299.000000 0 0 1
17.456674 -15.899338 28.326756 36.877223 -0.738744 0.694870 0.079472 0.001888 140891.000000 0 0 1
17.956374 -17.088438 28.857336 38.041976 -0.760637 0.709687 0.083452 0.006821 -264335.000000 0 0 1
18.859974 -17.931738 27.911646 38.161576 -0.760174 0.750413 0.094103 -0.005047 518627.000000 0 0 1
20.086574 -17.313238 27.514556 38.213473 -0.711380 0.766962 0.101573 -0.008315 331634.000000 0 0 1
20.521174 -18.026638 26.384466 37.976550 -0.720775 0.802715 0.099491 -0.002936 239757.000000 0 0 1
21.753374 -17.326438 25.715076 37.877169 -0.672600 0.824523 0.070254 -0.017672 969087.000000 0 0 1
22.973474 -17.469738 26.448046 39.146793 -0.650143 0.829002 0.064879 -0.012543 346607.000000 0 0 1
24.065374 -16.917638 25.768276 39.106940 -0.612728 0.851417 0.072215 -0.009757 -944650.000000 0 0 1
25.313074 -16.647538 26.628026 40.335394 -0.581745 0.849758 0.087934 -0.012446 47807.500000 0 0 1
25.956374 -17.897238 26.932286 41.465559 -0.603652 0.863857 0.086392 -0.012913 31588.500000 0 0 1
26.885474 -18.288838 25.943646 41.597874 -0.597347 0.897358 0.070595 -0.016323 -835556.000000 0 0 1
27.491174 -19.657738 26.263966 42.801720 -0.620760 0.910160 0.046645 -0.017546 33586.400000 0 0 1
28.383674 -19.593338 27.373756 44.032424 -0.604188 0.899920 0.051456 -0.019199 304260.000000 0 0 1
29.006374 -20.833438 27.731516 45.215472 -0.622861 0.910540 0.040453 -0.014677 -703.174000 0 0 1
28.094874 -21.931238 28.368996 45.553278 -0.662808 0.898524 0.049683 -0.014325 120586.000000 0 0 1
27.497674 -21.548438 29.595046 45.785631 -0.664689 0.867962 0.057390 -0.015531 -101097.000000 0 0 1
27.028574 -22.713738 30.251776 46.493308 -0.698871 0.862331 0.083569 -0.025892 -147187.000000 0 0 1
26.406274 -22.557638 31.655076 46.991299 -0.706958 0.831677 0.074218 -0.026290 -193332.000000 0 0 1
26.205174 -23.870538 32.262033 47.930706 -0.738810 0.832407 0.078459 -0.025607 186529.000000 0 0 1
26.105974 -23.845138 33.731351 48.866313 -0.740168 0.808923 0.096807 -0.019690 -528412.000000 0 0 1
25.956674 -25.233528 -33.523573 49.338725 -0.771272 2.317819 0.093247 -0.024890 1379050.000000 0 0 1
24.658074 -25.912328 -33.642133 49.104608 -0.810195 2.325553 0.120494 -0.033402 1367280.000000 0 0 1
24.237874 -26.250878 32.883369 48.558203 -0.825247 0.826853 0.111016 -0.033187 38196.000000 0 0 1
22.918374 -27.079308 32.868565 48.362003 -0.868429 0.823530 0.128766 -0.035115 405038.000000 0 0 1
22.965674 -28.448478 33.220468 49.399773 -0.891637 0.833239 0.125859 -0.032892 512268.000000 0 0 1
21.613274 -28.904638 33.277400 49.091721 -0.928741 0.825946 0.139381 -0.035925 510740.000000 0 0 1
21.401774 -30.411088 33.595112 50.114886 -0.957559 0.836100 0.105039 -0.036610 -168795.000000 0 0 1
21.919374 -30.864898 -33.018693 50.232808 -0.953276 2.288044 0.074426 -0.032527 180003.000000 0 0 1
23.114374 -31.599578 -33.198263 51.331592 -0.939256 2.274101 0.041279 -0.019041 -397844.000000 0 0 1
23.801574 -31.979018 -31.888753 51.049634 -0.930961 2.245495 0.030584 -0.009176 -889689.000000 0 0 1
24.820474 -32.936838 -32.225523 52.339044 -0.925009 2.234079 0.018354 -0.006430 505743.000000 0 0 1
25.507174 -33.523838 -31.155273 52.393842 -0.920377 2.207609 0.015147 0.006790 -64832.700000 0 0 1
26.391574 -32.556818 -30.328073 51.732520 -0.889606 2.197216 0.019643 0.001534 -1161070.000000 0 0 1
27.005074 -33.182778 -29.273293 51.839140 -0.887680 2.170860 0.038855 0.010335 148485.000000 0 0 1
27.606474 -32.192938 -28.346503 51.010067 -0.861946 2.160006 0.043347 0.005214 -492348.000000 0 0 1
27.851474 -32.651688 -26.912373 50.656818 -0.864571 2.130894 0.044954 -0.002124 583903.000000 0 0 1
29.041274 -33.380428 -26.607653 51.629602 -0.854800 2.112220 0.038233 0.005271 -100416.000000 0 0 1
30.215374 -32.642228 -26.670753 51.863407 -0.823988 2.110929 0.046148 -0.010768 -867726.000000 0 0 1
-27.556846 -30.963192 9.517697 42.528644 0.843541 1.345090 0.076665 -0.009993 -276527.000000 0 0 1
-27.516556 -32.175692 10.245797 43.559297 0.863293 1.333357 0.076957 -0.013509 380416.000000 0 0 1
-26.206576 -32.298692 10.800297 42.972509 0.889154 1.316742 0.063574 -0.010007 479624.000000 0 0 1
-26.086216 -33.376192 11.866697 43.991810 0.907387 1.297665 0.071226 -0.015379 -85289.900000 0 0 1
-26.107606 32.988362 11.451997 43.600313 -0.901310 1.305020 0.080242 -0.004441 -642590.000000 0 0 1
-27.402326 32.475162 11.394097 43.992602 -0.869917 1.308809 0.070576 -0.025401 -297649.000000 0 0 1
-27.340136 31.001362 10.922997 42.753705 -0.848071 1.312445 0.069271 -0.022712 -125210.000000 0 0 1
-27.016606 30.851762 9.609397 42.119695 -0.851575 1.340624 0.096381 -0.031857 -217762.000000 0 0 1
-27.170106 29.513462 9.186197 41.153922 -0.826716 1.345684 0.113402 -0.029286 -93336.400000 0 0 1
-26.710366 29.363662 7.721097 40.438640 -0.832681 1.378683 0.091921 -0.009798 151447.000000 0 0 1
-25.313236 29.185262 7.711897 39.395593 -0.856327 1.373769 0.068528 -0.007035 163137.000000 0 0 1
-24.639926 29.013362 6.458697 38.608495 -0.866731 1.402719 0.049357 -0.005281 1499360.000000 0 0 1
-23.293326 28.156362 6.468597 37.110679 -0.879638 1.395596 0.081950 -0.004030 1179550.000000 0 0 1
-23.468026 26.759062 6.667597 36.211220 -0.850828 1.385609 0.079534 -0.013358 123201.000000 0 0 1
-24.126926 26.036262 5.647097 35.942804 -0.823442 1.413029 0.062826 -0.019371 -536786.000000 0 0 1
-24.380226 24.600262 6.131697 35.173371 -0.789890 1.395573 0.086902 -0.014715 253360.000000 0 0 1
-25.655766 24.330562 6.729397 35.992768 -0.758893 1.382724 0.089790 -0.020928 424745.000000 0 0 1
-25.812806 22.958362 7.045797 35.256639 -0.726938 1.369599 0.108463 -0.030363 61986.700000 0 0 1
-26.328456 21.953762 5.926897 34.789127 -0.695038 1.399595 0.107999 -0.041690 457425.000000 0 0 1
-27.721046 22.115362 5.610397 35.902955 -0.673387 1.413888 0.105532 -0.043583 779019.000000 0 0 1
-28.081586 21.685862 4.315197 35.741754 -0.657587 1.449768 0.102775 -0.036412 -73438.200000 0 0 1
-27.750166 22.681462 3.230497 35.985504 -0.685228 1.480903 0.075952 -0.039462 -814590.000000 0 0 1
-26.392056 23.005762 3.157197 35.153571 -0.716954 1.480864 0.073640 -0.040454 -281494.000000 0 0 1
-26.074556 23.781362 1.972197 35.345794 -0.739434 1.514970 0.058006 -0.034739 784690.000000 0 0 1
-24.742126 24.609362 2.046297 34.956842 -0.782708 1.512225 0.051799 -0.024918 785101.000000 0 0 1
-24.409026 25.238062 0.805297 35.119920 -0.802095 1.547864 0.030485 -0.020997 300274.000000 0 0 1
-23.184926 25.997062 0.858697 34.844302 -0.842514 1.546150 0.060712 -0.023639 381098.000000 0 0 1
-22.642526 26.472162 -0.560103 34.839246 -0.863214 1.586874 0.083803 -0.018183 202370.000000 0 0 1
-22.288726 25.416162 -1.450103 33.835948 -0.850862 1.613666 0.085039 -0.022817 541145.000000 0 0 1
-21.065726 24.727562 -1.159103 32.504779 -0.865193 1.606463 0.092852 -0.041184 326482.000000 0 0 1
-20.686726 23.630562 -2.148803 31.479540 -0.851727 1.639110 0.109950 -0.052270 -818677.000000 0 0 1
-21.679226 22.715662 -2.204003 31.477734 -0.808740 1.640871 0.087042 -0.032950 -784333.000000 0 0 1
-21.254726 21.730162 -3.130103 30.557501 -0.796458 1.673410 0.096639 -0.032903 -83111.900000 0 0 1
-22.384226 21.088862 -3.944003 31.005625 -0.755610 1.698345 0.099930 -0.024030 -1074.780000 0 0 1
-22.938226 21.961862 -4.946703 32.139624 -0.763656 1.725323 0.093676 -0.013642 1011960.000000 0 0 1
-24.278526 21.683162 -5.399503 32.996378 -0.728990 1.735175 0.098053 -0.009179 1016070.000000 0 0 1
-24.382826 22.345562 -6.797303 33.764621 -0.741828 1.773496 0.101137 -0.004484 45777.300000 0 0 1
-23.644326 21.705662 -7.828803 33.037555 -0.742675 1.810039 0.106134 -0.013577 146128.000000 0 0 1
-23.251726 22.679062 -8.791003 33.649136 -0.772931 1.835118 0.097939 -0.023923 -114542.000000 0 0 1
-22.725826 22.031962 -10.059003 33.212257 -0.769897 1.878499 0.090072 -0.028098 37661.000000 0 0 1
-23.691426 21.254662 -10.733503 33.589468 -0.731236 1.896051 0.061572 -0.015331 -33881.800000 0 0 1
-23.086126 20.808862 -11.896803 33.279301 -0.733565 1.936368 0.055225 -0.004243 565087.000000 0 0 1
-24.091926 20.507162 -13.087703 34.238174 -0.705193 1.963031 0.040675 -0.012360 286713.000000 0 0 1
-24.872226 19.405462 -12.810703 34.048696 -0.662554 1.956538 0.045761 -0.005343 -603630.000000 0 0 1
-26.029206 19.419562 -13.610103 35.211842 -0.640980 1.967652 0.063620 -0.020968 220237.000000 0 0 1
-26.644386 18.019862 -13.874103 35.030407 -0.594649 1.978017 0.125146 -0.029328 312971.000000 0 0 1
-25.842026 17.326562 -14.810003 34.458036 -0.590638 2.015066 0.101850 -0.031430 79827.500000 0 0 1
-26.467076 16.068562 -15.122303 34.458509 -0.545635 2.025121 0.146921 -0.049458 187545.000000 0 0 1
-25.899866 15.265462 -16.314103 34.205077 -0.532591 2.067977 0.149138 -0.041276 874205.000000 0 0 1
-24.670526 14.556662 -16.060303 32.839984 -0.533066 2.081793 0.128062 -0.041012 714451.000000 0 0 1
-24.143126 14.031162 -17.243703 32.819343 -0.526456 2.123997 0.126570 -0.048562 -104088.000000 0 0 1
-23.102126 12.899062 -17.151203 31.531853 -0.509231 2.145913 0.122936 -0.036719 -326878.000000 0 0 1
-21.917926 13.231862 -16.500303 30.458786 -0.543136 2.143285 0.103409 -0.039885 -343937.000000 0 0 1
-21.190226 12.059762 -16.175303 29.259254 -0.517403 2.156549 0.098089 -0.038338 602991.000000 0 0 1
-19.876826 12.357962 -15.357603 27.993988 -0.556242 2.151489 0.087967 -0.033953 709853.000000 0 0 1
-18.917226 13.138862 -16.051603 28.073922 -0.607055 2.179448 0.071649 -0.022415 -236978.000000 0 0 1
-17.840526 13.411762 -15.214503 27.011864 -0.644625 2.169113 0.077674 -0.012398 -400779.000000 0 0 1
-17.054726 14.712462 -15.558703 27.375051 -0.711799 2.175300 0.060565 -0.002973 309976.000000 0 0 1
-16.221826 14.481162 -16.714603 27.426805 -0.728765 2.226133 0.089886 -0.015955 340047.000000 0 0 1
-15.473026 15.642262 -17.034403 27.825631 -0.790837 2.229616 0.086407 -0.010918 85485.100000 0 0 1
-14.730026 15.497062 -18.407503 28.212918 -0.810769 2.281608 0.105278 -0.018506 350976.000000 0 0 1
-13.832126 14.406862 -18.308003 27.093696 -0.805748 2.312750 0.104209 -0.015504 -34256.400000 0 0 1
-12.771126 14.489162 -19.254803 27.272420 -0.848338 2.354655 0.126175 -0.022230 736819.000000 0 0 1
-11.851926 13.215462 -19.183403 26.136555 -0.839739 2.394943 0.110790 -0.021486 715743.000000 0 0 1
-12.423026 12.064862 -19.770503 26.282413 -0.770773 2.422241 0.120198 -0.020241 37176.200000 0 0 1
-11.311626 11.232862 -19.891003 25.490823 -0.781904 2.465974 0.094379 -0.004045 118230.000000 0 0 1
-11.658426 9.973762 -20.700803 25.766607 -0.707677 2.503774 0.105266 -0.017121 52273.500000 0 0 1
-11.352926 10.088662 -22.090103 26.807511 -0.726503 2.539278 0.115323 -0.026155 -210046.000000 0 0 1
-11.646326 8.943262 -22.880303 27.186892 -0.654862 2.571023 0.107347 -0.006367 -93946.700000 0 0 1
-11.378426 9.209962 -24.353503 28.414522 -0.680460 2.600370 0.091936 -0.018570 222091.000000 0 0 1
-10.030826 9.022462 -24.767203 28.203486 -0.732524 2.642801 0.093329 -0.020651 1014.900000 0 0 1
-9.874926 8.494262 -26.118053 29.185944 -0.710377 2.678969 0.073664 -0.033811 -113025.000000 0 0 1
-9.780026 9.593762 -27.244393 30.495018 -0.775784 2.675664 0.115538 -0.040424 386290.000000 0 0 1
-8.464326 10.089162 -27.471043 30.464638 -0.872751 2.694564 0.092320 -0.045843 162487.000000 0 0 1
-8.064826 11.153562 -26.699203 30.038156 -0.944753 2.665610 0.078137 -0.030124 -521183.000000 0 0 1
-6.594626 11.564962 -26.759063 29.887872 -1.052558 2.679934 0.064965 -0.030217 -441942.000000 0 0 1
-6.157226 11.987062 -28.041353 31.111389 -1.096284 2.693606 0.068356 -0.035430 819211.000000 0 0 1
-4.778426 12.384562 -27.910473 30.906394 -1.202558 2.697649 0.084540 -0.035249 653395.000000 0 0 1
-4.158226 12.699062 -29.295813 32.199405 -1.254356 2.713658 0.094045 -0.040125 -787954.000000 0 0 1
-2.784626 12.875162 -29.235573 32.066223 -1.357798 2.718260 0.097989 -0.052334 -545158.000000 0 0 1
-2.161726 12.801462 -30.527123 33.173117 -1.403509 2.739481 0.102354 -0.053414 241119.000000 0 0 1
-0.661926 12.459462 -30.549053 32.998802 -1.517720 2.753844 0.108528 -0.062036 -407223.000000 0 0 1
-0.353426 11.198162 -30.086123 32.104494 -1.539246 2.785113 0.074652 -0.038827 792573.000000 0 0 1
1.040774 10.852562 -30.169563 32.079025 1.475187 2.794825 0.086445 -0.049661 1112140.000000 0 0 1
1.645974 10.470562 -31.571073 33.302771 1.414872 2.817693 0.094203 -0.050643 -268546.000000 0 0 1
1.854274 11.578862 -32.420143 34.475702 1.412002 2.794532 0.107347 -0.055232 83824.400000 0 0 1
2.026774 11.022562 -33.722433 35.535998 1.388952 2.820735 0.104260 -0.047925 -162598.000000 0 0 1
2.236474 12.087362 33.019470 35.233387 1.387840 0.356385 0.112500 -0.054840 492675.000000 0 0 1
3.494874 12.769162 33.207546 35.749221 1.303642 0.379358 0.103228 -0.049052 600894.000000 0 0 1
3.745474 13.626262 32.099835 35.072824 1.302549 0.414708 0.102176 -0.044093 209031.000000 0 0 1
5.235074 13.589562 31.681116 34.867970 1.203089 0.430871 0.099648 -0.042801 -128891.000000 0 0 1
5.729774 12.335562 31.330356 34.155345 1.135956 0.409575 0.097016 -0.042590 -437659.000000 0 0 1
7.108374 12.432362 31.123656 34.260394 1.051398 0.431249 0.091410 -0.029800 -517923.000000 0 0 1
7.774274 11.092762 30.750746 33.602040 0.959505 0.414928 0.077610 -0.025783 -110858.000000 0 0 1
7.453674 10.671862 29.434686 32.184572 0.961117 0.416380 0.075288 -0.032616 198068.000000 0 0 1
8.186874 9.487662 29.098546 31.682267 0.858862 0.406655 0.086033 -0.024900 427629.000000 0 0 1
7.582874 8.748362 27.831946 30.143839 0.856643 0.394199 0.078079 -0.019793 417409.000000 0 0 1
6.539374 7.850362 28.173576 29.969017 0.876253 0.347902 0.068476 -0.023127 99394.200000 0 0 1
6.181874 7.013362 27.065496 28.634663 0.848329 0.332588 0.086858 -0.026652 -68160.500000 0 0 1
5.277074 5.849162 27.484566 28.591285 0.836771 0.279144 0.109966 -0.041638 -554926.000000 0 0 1
5.947174 4.753562 28.026536 29.042245 0.674312 0.265252 0.092669 -0.034190 -3900.940000 0 0 1
5.259774 4.169662 29.109406 29.873213 0.670302 0.226619 0.099070 -0.040148 -316836.000000 0 0 1
6.138774 3.102162 29.817556 30.600566 0.467910 0.226707 0.102640 -0.032142 284242.000000 0 0 1
6.166274 1.790462 29.215326 29.912606 0.282593 0.216341 0.101871 -0.026976 -125043.000000 0 0 1
7.457374 1.592562 28.700946 29.696683 0.210395 0.259690 0.107676 -0.026829 -289006.000000 0 0 1
7.677474 0.215862 28.112566 29.142865 0.028109 0.266697 0.106871 -0.026896 -186122.000000 0 0 1
7.862574 -0.776638 29.103606 30.156975 -0.098457 0.265084 0.090901 -0.031282 141828.000000 0 0 1
7.821374 -2.101038 28.559686 29.685753 -0.262432 0.276316 0.106987 -0.030656 -339172.000000 0 0 1
8.440874 -3.156938 29.535736 30.879999 -0.357899 0.296147 0.099516 -0.026695 -283966.000000 0 0 1
9.813474 -3.028938 29.735766 31.459411 -0.299374 0.332557 0.095311 -0.026106 -89834.700000 0 0 1
10.654574 -3.754838 28.829186 30.963539 -0.338825 0.373465 0.116241 -0.020910 513159.000000 0 0 1
12.192274 -3.534438 29.012426 31.668039 -0.282157 0.412448 0.104640 -0.018075 772957.000000 0 0 1
13.043474 -4.453138 28.378176 31.548115 -0.328999 0.452126 0.123929 -0.022007 96408.600000 0 0 1
13.400274 -5.617838 29.138846 32.560710 -0.396976 0.462571 0.132195 -0.022640 -336314.000000 0 0 1
12.701374 -6.949638 28.819646 32.252045 -0.500657 0.465548 0.144188 -0.015430 1130560.000000 0 0 1
11.275274 -7.000138 29.081886 31.967012 -0.555602 0.428123 0.146033 -0.012610 1195220.000000 0 0 1
10.680174 -8.235938 28.636036 31.653110 -0.656896 0.440161 0.144106 -0.004998 45170.300000 0 0 1
9.205774 -8.073138 28.237686 30.778057 -0.719942 0.409144 0.138078 -0.012889 -372923.000000 0 0 1
8.487574 -7.581738 29.337166 31.467300 -0.729087 0.370058 0.156392 -0.017024 -1017930.000000 0 0 1
7.194474 -7.225638 28.988486 30.729508 -0.787559 0.338229 0.146512 -0.023641 -693041.000000 0 0 1
6.472374 -6.626938 30.245326 31.632068 -0.797197 0.297200 0.120658 -0.028644 116935.000000 0 0 1
6.096974 -7.495538 31.352846 32.807883 -0.887930 0.298938 0.128058 -0.035526 103061.000000 0 0 1
5.344974 -6.803338 32.317796 33.455853 -0.904873 0.261577 0.129361 -0.033097 37874.000000 0 0 1
6.203674 -5.909438 33.276996 34.362269 -0.761112 0.251996 0.126034 -0.023244 247891.000000 0 0 1
6.636874 -4.680538 32.711254 33.704327 -0.614229 0.243352 0.130093 -0.023582 51221.500000 0 0 1
6.963074 -3.658638 33.622787 34.530593 -0.483787 0.229808 0.116787 -0.010108 70019.000000 0 0 1
6.994174 -2.340138 32.855099 33.672723 -0.322876 0.220818 0.123035 -0.018289 1030330.000000 0 0 1
5.646874 -1.956238 32.508604 33.053342 -0.333490 0.181802 0.124190 -0.030366 850362.000000 0 0 1
5.700874 -0.838438 31.653266 32.173471 -0.146025 0.180069 0.118758 -0.025850 -1069910.000000 0 0 1
4.391074 -0.379038 31.096166 31.406954 -0.086107 0.140797 0.126809 -0.042104 -860855.000000 0 0 1
3.507874 0.116362 32.087742 32.279125 0.033159 0.108948 0.109554 -0.035606 -24465.800000 0 0 1
2.251074 0.415762 31.470876 31.554021 0.182637 0.072611 0.123121 -0.044265 387885.000000 0 0 1
1.249874 0.789262 32.610952 32.644438 0.563241 0.045298 0.122705 -0.040141 -104053.000000 0 0 1
1.692574 1.832862 33.396535 33.489592 0.825170 0.074565 0.103915 -0.036339 -266609.000000 0 0 1
0.789374 2.185662 -33.426313 33.506994 1.224214 3.072183 0.084749 -0.035559 -517248.000000 0 0 1
1.291174 3.297462 -32.507633 32.699948 1.197582 3.033085 0.075906 -0.033388 450917.000000 0 0 1
2.276374 2.850462 -31.542053 31.752293 0.896911 3.026453 0.057204 -0.018511 351063.000000 0 0 1
2.759874 3.941162 -30.819573 31.192880 0.959890 2.986727 0.050070 -0.020891 83535.900000 0 0 1
3.783874 3.691562 -29.682643 30.149703 0.773050 2.965345 0.059443 -0.018294 455766.000000 0 0 1
3.135474 3.061462 -28.583733 28.917703 0.773455 2.989466 0.066337 -0.023962 775037.000000 0 0 1
4.083774 3.088562 -27.530523 28.002609 0.647521 2.957711 0.088448 -0.028398 147185.000000 0 0 1
3.643874 2.205562 -26.352893 26.694892 0.544292 2.981350 0.071986 -0.023324 -9613.200000 0 0 1
3.786074 0.823162 -26.584723 26.865581 0.214086 2.996869 0.086039 -0.021638 97622.500000 0 0 1
3.421174 0.181862 -25.410243 25.640163 0.053108 3.007573 0.092084 -0.020356 -261581.000000 0 0 1
3.893974 -1.304938 -25.332923 25.663649 -0.323355 2.980877 0.090661 -0.023565 -327296.000000 0 0 1
5.277274 -1.435038 -25.196923 25.783597 -0.265508 2.927861 0.080450 -0.024746 -510612.000000 0 0 1
5.624374 -2.799138 -25.080523 25.855394 -0.461790 2.896153 0.082995 -0.023416 -147396.000000 0 0 1
7.052674 -3.035238 -24.577203 25.748627 -0.406408 2.838793 0.099818 -0.033577 -233345.000000 0 0 1
8.062174 -2.541738 -25.399283 26.769062 -0.305404 2.820306 0.102292 -0.033771 -564593.000000 0 0 1
9.328074 -2.903738 -24.873003 26.722854 -0.301782 2.767327 0.096219 -0.033518 366943.000000 0 0 1
-30.803186 -4.097138 18.176316 36.000018 0.132234 1.041533 0.169798 -0.010557 -750590.000000 0 0 1
-32.035906 -3.923438 18.763416 37.333074 0.121863 1.044199 0.158488 0.007127 -991068.000000 0 0 1
-32.591446 -5.200838 19.047716 38.105991 0.158243 1.047358 0.139537 -0.010724 875379.000000 0 0 1
-34.125820 -5.297338 19.380916 39.601178 0.154001 1.059392 0.124983 -0.007426 1149110.000000 0 0 1
-34.927184 -5.148238 18.179116 39.710110 0.146345 1.095282 0.117836 -0.009687 854841.000000 0 0 1
-36.320776 -5.172038 18.452816 41.066472 0.141448 1.104770 0.090898 -0.011928 603216.000000 0 0 1
-37.301156 -4.803438 17.306716 41.400141 0.128070 1.139515 0.081188 -0.007882 569388.000000 0 0 1
36.268231 -4.828138 17.629716 40.614066 -0.132345 1.121781 0.051419 0.000647 -22043.900000 0 0 1
35.415511 -4.380338 16.607516 39.360581 -0.123059 1.135220 0.038535 -0.006866 60908.200000 0 0 1
33.978191 -4.913538 16.815416 38.228504 -0.143613 1.115347 0.040653 -0.000708 145345.000000 0 0 1
33.335081 -4.241138 17.908216 38.077803 -0.126548 1.081159 0.049972 -0.006667 429709.000000 0 0 1
32.084631 -4.811038 18.257616 37.227815 -0.148839 1.058214 0.085697 -0.009200 142510.000000 0 0 1
31.435561 -4.175538 19.504116 37.229560 -0.132055 1.019387 0.085272 -0.000981 -335049.000000 0 0 1
30.653171 -3.013538 19.403216 36.403064 -0.097996 1.008642 0.093369 0.001078 -97955.000000 0 0 1
31.252061 -1.846638 18.908016 36.573412 -0.059020 1.027468 0.074205 0.003257 -472944.000000 0 0 1
30.345931 -0.617338 19.016416 35.817324 -0.020341 1.011101 0.092328 0.011805 60645.800000 0 0 1
30.930191 0.610562 18.492916 36.042162 0.019737 1.032014 0.084914 0.001619 303366.000000 0 0 1
30.178651 1.754862 18.857716 35.629257 0.058084 1.013049 0.094320 -0.001256 56161.800000 0 0 1
30.509241 2.996862 18.074216 35.587529 0.097914 1.038074 0.083397 -0.008581 -83010.900000 0 0 1
30.192001 2.872862 16.720816 34.632296 0.094867 1.066936 0.093086 -0.007973 144246.000000 0 0 1
29.675041 4.063162 16.142016 34.024727 0.136076 1.076491 0.106565 -0.011316 127622.000000 0 0 1
29.156741 3.973762 14.681816 32.885590 0.135455 1.108001 0.113761 -0.011918 -154238.000000 0 0 1
28.704441 5.281262 14.250916 32.479613 0.181953 1.116573 0.135640 -0.026765 405865.000000 0 0 1
28.118241 5.216462 12.923916 31.382711 0.183433 1.146350 0.123257 -0.025870 -101773.000000 0 0 1
27.418741 6.508962 12.503916 30.830210 0.233077 1.153190 0.139102 -0.028547 -192917.000000 0 0 1
26.347741 6.953962 13.301316 30.323028 0.258046 1.116696 0.094622 -0.023909 -49289.200000 0 0 1
25.771741 8.117862 12.812416 29.903851 0.305152 1.128016 0.129383 -0.041467 -904288.000000 0 0 1
24.518041 8.639162 13.473816 29.279911 0.338775 1.092607 0.127402 -0.037268 78603.700000 0 0 1
23.255141 8.002062 13.269316 27.944755 0.331408 1.076013 0.123310 -0.025938 1022960.000000 0 0 1
23.083541 6.725462 13.856316 27.750301 0.283505 1.047981 0.127924 -0.029270 -860142.000000 0 0 1
21.700441 6.109462 13.599516 26.328340 0.274433 1.027997 0.140981 -0.026534 -472200.000000 0 0 1
21.495741 5.886562 12.196416 25.406122 0.267295 1.070075 0.158485 -0.040067 222526.000000 0 0 1
20.396541 5.053462 11.984116 24.190399 0.242870 1.052492 0.142143 -0.033818 -510253.000000 0 1 0
20.079741 4.889262 10.500216 23.180928 0.238844 1.100705 0.151651 -0.037063 -464270.000000 0 1 0
20.996141 4.090762 9.824416 23.539146 0.192423 1.140253 0.157463 -0.039364 268457.000000 0 1 0
20.577841 3.839262 8.512116 22.597424 0.184452 1.184581 0.167434 -0.037655 6526.480000 0 1 0
21.708941 3.135162 7.746616 23.261931 0.143426 1.231295 0.157080 -0.033293 -1017190.000000 0 1 0
22.101141 1.853762 8.221116 23.653406 0.083680 1.215822 0.152564 -0.032618 455147.000000 0 1 0
22.913941 1.130562 7.325616 24.083013 0.049299 1.261717 0.143805 -0.026254 -591043.000000 0 1 0
24.375941 1.566962 7.255916 25.481173 0.064195 1.282044 0.144734 -0.033273 -872699.000000 0 0 1
25.257341 1.341762 8.360116 26.638790 0.053074 1.251570 0.151093 -0.025279 802390.000000 0 0 1
25.245741 2.449662 9.313416 27.020141 0.096730 1.218894 0.141002 -0.027240 -474572.000000 0 0 1
25.971141 1.840762 10.505916 28.076019 0.070759 1.187267 0.108404 -0.019076 429566.000000 0 0 1
27.393541 1.937462 10.486416 29.395999 0.070609 1.206032 0.130023 -0.029904 581882.000000 0 0 1
27.981741 1.103762 11.467516 30.260536 0.039425 1.182125 0.106249 -0.020745 354218.000000 0 0 1
29.530141 0.997162 11.501316 31.706527 0.033755 1.199587 0.154781 -0.017742 546173.000000 0 0 1
30.247741 2.141062 11.989716 32.607718 0.070666 1.194266 0.137724 -0.020276 273392.000000 0 0 1
31.630051 1.893562 11.883616 33.841779 0.059795 1.211995 0.151572 -0.018889 -349567.000000 0 0 1
32.481891 2.805262 12.747316 35.006239 0.086150 1.198083 0.134293 -0.015545 -780150.000000 0 0 1
32.308321 4.188762 12.384516 34.853258 0.128930 1.207526 0.153229 -0.024029 498631.000000 0 0 1
33.290501 5.130462 12.815816 36.039204 0.152909 1.207232 0.143458 -0.026690 1935790.000000 0 0 1
34.768481 5.003162 12.202116 37.185623 0.142918 1.236462 0.134823 -0.020788 1142790.000000 0 0 1
35.575491 4.011962 12.763616 38.008174 0.112299 1.228329 0.112423 -0.019883 923059.000000 0 0 1
36.916141 4.175162 12.250416 39.119127 0.112620 1.252281 0.113653 -0.011314 1186860.000000 0 0 1
-36.901546 3.260962 12.827716 39.203421 -0.088140 1.237448 0.140305 -0.003811 -130159.000000 0 0 1
-36.841616 1.921062 12.497716 38.951098 -0.052097 1.244163 0.130746 -0.005082 600065.000000 0 0 1
36.990151 1.107262 12.881016 39.184408 0.029925 1.235840 0.116211 -0.005784 51665.200000 0 0 1
36.707741 0.874462 14.355016 39.424477 0.023818 1.198115 0.105658 -0.003070 -511430.000000 0 0 1
-37.472006 -0.079638 15.023216 40.371457 0.002125 1.189499 0.090317 0.004638 170292.000000 0 0 1
37.019681 -0.283238 16.376316 40.481116 -0.007651 1.154318 0.079746 -0.005511 -284929.000000 0 0 1
-36.920926 -1.121338 17.190816 40.742316 0.030362 1.135212 0.085924 0.002196 -789127.000000 0 0 1
-35.715342 -0.451938 17.367316 39.716666 0.012653 1.118224 0.116712 -0.006031 -173988.000000 0 0 1
-34.683903 -1.151938 18.076316 39.128676 0.033200 1.090580 0.098654 -0.002480 612602.000000 0 0 1
-34.801261 -1.123538 19.639816 39.976399 0.032273 1.057232 0.092515 -0.010779 -361376.000000 0 0 1
-35.762643 -1.958438 20.257716 41.148234 0.054707 1.056054 0.079669 -0.018692 54687.300000 0 0 1
-35.735830 -1.911838 21.663916 41.833359 0.053448 1.026446 0.074642 -0.021021 36564.400000 0 0 1
-36.175546 -3.214038 22.391316 42.665808 0.088613 1.018308 0.066890 -0.016185 -2339.170000 0 0 1
-35.310967 -4.334138 22.273116 41.973096 0.122131 1.011426 0.087312 -0.019577 87701.100000 0 0 1
-35.623724 -5.468638 23.109056 42.813364 0.152322 1.000641 0.081988 -0.029353 -316031.000000 0 0 1
-35.685442 -5.345638 24.663636 43.707225 0.148693 0.971221 0.078055 -0.036207 29284.600000 0 0 1
-34.407890 -4.999938 25.161866 42.918781 0.144304 0.944353 0.090399 -0.033843 -234884.000000 0 0 1
-34.344676 -4.754138 26.561786 43.677077 0.137550 0.917081 0.094575 -0.043411 99729.300000 0 0 1
-33.156586 -3.879738 27.029996 42.953838 0.116483 0.890170 0.095021 -0.042237 -84189.900000 0 0 1
-33.149316 -2.462138 26.670536 42.617564 0.074138 0.894626 0.085661 -0.038076 -118975.000000 0 0 1
-32.706316 -2.269238 25.344506 41.439070 0.069271 0.912704 0.086884 -0.030605 -75841.800000 0 0 1
-32.462386 -0.771538 24.993586 40.976592 0.023763 0.914801 0.070134 -0.023590 755816.000000 0 0 1
-33.737536 -0.101338 24.992606 41.986450 0.003004 0.933214 0.084602 -0.031371 862253.000000 0 0 1
-33.681926 1.283062 24.648026 41.756958 -0.038075 0.939399 0.062518 -0.019461 134056.000000 0 0 1
-35.095972 1.881362 24.417386 42.795742 -0.053555 0.963613 0.073384 -0.015778 494427.000000 0 0 1
-35.839702 1.588662 23.245376 42.747580 -0.044298 0.995859 0.075780 -0.003251 414730.000000 0 0 1
-36.829386 2.604662 22.944726 43.470086 -0.070605 1.014755 0.076654 0.001925 649342.000000 0 0 1
-36.367946 3.951262 22.251116 42.817661 -0.108222 1.024330 0.072865 0.010170 99637.500000 0 0 1
-35.773327 3.693162 20.968916 41.630107 -0.102873 1.042925 0.058038 -0.004531 3302.930000 0 0 1
-36.748426 3.314362 20.011016 41.974666 -0.089947 1.073854 0.077710 -0.010336 178974.000000 0 0 1
-36.157886 2.498762 18.838116 40.847413 -0.068997 1.091469 0.087103 -0.007359 332113.000000 0 0 1
-35.145000 3.226662 18.134616 39.679298 -0.091553 1.096144 0.103101 -0.015972 149384.000000 0 0 1
-34.893823 2.584762 16.892516 38.853790 -0.073940 1.121012 0.132637 -0.011487 -107161.000000 0 0 1
-33.902236 3.399062 16.042916 37.660196 -0.099927 1.130739 0.135571 -0.017092 -155365.000000 0 0 1
-34.384241 4.656762 15.636816 38.058790 -0.134614 1.147400 0.155520 -0.030382 -280519.000000 0 0 1
-33.500886 5.298162 14.764716 36.991576 -0.156851 1.160221 0.185415 -0.025213 -357937.000000 0 0 1
-34.054191 6.644062 14.195516 37.487920 -0.192682 1.182438 0.210418 -0.040394 -115186.000000 0 0 1
-33.288706 7.246462 13.188816 36.532096 -0.214341 1.201435 0.220580 -0.032788 -104365.000000 0 0 1
-33.591546 8.635262 13.007616 37.042648 -0.251618 1.211995 0.200280 -0.042170 -3703.620000 0 0 1
-32.683686 9.274162 11.920216 36.004513 -0.276487 1.233353 0.219264 -0.040376 100129.000000 0 0 1
-32.848456 10.650862 11.738416 36.472624 -0.313547 1.243122 0.199038 -0.037218 -257560.000000 0 0 1
-32.012196 11.221662 10.772216 35.591390 -0.337159 1.263310 0.178918 -0.041781 -136177.000000 0 0 1
-32.188836 12.757762 10.664616 36.230038 -0.377348 1.272012 0.155616 -0.033966 -104649.000000 0 0 1
-31.606966 13.238862 9.481116 35.555018 -0.396658 1.300870 0.158328 -0.031374 85447.500000 0 0 1
-31.844006 14.623162 9.334816 36.263154 -0.430488 1.310446 0.139376 -0.028464 120686.000000 0 0 1
-30.863526 15.265862 8.316816 35.422778 -0.459338 1.333797 0.147477 -0.030503 44619.300000 0 0 1
-29.524116 15.468662 8.687816 34.444609 -0.482610 1.315817 0.181038 -0.021687 -364124.000000 0 0 1
-28.793606 16.107362 7.697416 33.878740 -0.510037 1.341590 0.175461 -0.040854 -1161630.000000 0 0 1
-27.310316 16.147962 8.018216 32.724636 -0.533981 1.323255 0.190142 -0.027220 -865614.000000 0 0 1
-27.046436 16.766962 9.284716 33.148856 -0.554947 1.286907 0.177221 -0.031230 86714.300000 0 0 1
-27.287276 18.144462 9.359916 34.079685 -0.586808 1.292573 0.170373 -0.042494 -531745.000000 0 0 1
-27.063776 18.685762 10.801416 34.616127 -0.604277 1.253463 0.175215 -0.021589 443226.000000 0 0 1
-25.744356 18.573862 11.337016 33.708873 -0.624993 1.227788 0.158948 -0.019824 505054.000000 0 0 1
-25.534626 18.887162 12.687716 34.201172 -0.636856 1.190740 0.167822 -0.027913 104937.000000 0 0 1
-26.090926 17.875862 13.769416 34.494632 -0.600681 1.160179 0.147150 -0.022744 79315.300000 0 0 1
-25.251646 16.766462 13.913516 33.351848 -0.586137 1.140463 0.157551 -0.033308 83100.500000 0 0 1
-25.674526 16.065962 15.057616 33.823486 -0.559142 1.109419 0.149723 -0.031501 -109254.000000 0 0 1
-24.570526 15.142362 15.604916 32.810292 -0.552305 1.075139 0.135885 -0.017337 -135111.000000 0 0 1
-23.511426 15.927062 16.164216 32.676296 -0.595409 1.053333 0.124306 -0.015512 -56409.600000 0 0 1
-22.351926 15.159662 16.384416 31.589128 -0.595963 1.025499 0.115469 -0.041283 -440442.000000 0 0 1
-22.300426 13.981962 17.389416 31.546728 -0.560023 0.986962 0.119154 -0.017698 -807047.000000 0 0 1
-22.399126 14.521762 18.683816 32.583545 -0.575192 0.960131 0.113830 -0.006730 314480.000000 0 0 1
-22.968726 13.538962 19.596916 33.089348 -0.532628 0.936957 0.101270 -0.003231 -150872.000000 0 0 1
-22.851126 13.821962 21.156116 34.070542 -0.543993 0.900842 0.090295 0.003014 538435.000000 0 0 1
-21.526826 13.756462 21.697316 33.517428 -0.568631 0.866701 0.099854 0.002910 592288.000000 0 0 1
-20.889326 15.035862 21.680816 33.652620 -0.623883 0.870750 0.106528 0.015115 260203.000000 0 0 1
-19.415626 15.034262 22.202216 33.104893 -0.658897 0.835695 0.104315 0.000168 930721.000000 0 0 1
-18.371026 14.653862 21.329316 31.735942 -0.673313 0.833773 0.085947 -0.003725 163456.000000 0 0 1
-17.863526 15.744162 20.535816 31.443663 -0.722420 0.859127 0.074572 -0.015934 -267167.000000 0 0 1
-16.603526 15.335762 19.679516 29.969084 -0.745726 0.854414 0.071334 -0.005596 1030570.000000 0 0 1
-15.459526 14.932462 20.420816 29.647683 -0.768058 0.810987 0.065632 -0.001265 842247.000000 0 0 1
-14.782126 15.934562 21.281416 30.419076 -0.822899 0.795948 0.060363 -0.009224 -699735.000000 0 0 1
-13.690626 15.470862 22.191216 30.318821 -0.846370 0.749648 0.039524 -0.014074 -723081.000000 0 0 1
-12.498526 15.065862 21.583816 29.138539 -0.878270 0.736639 0.021600 0.003217 178081.000000 0 0 1
-11.541926 14.604862 22.570116 29.256250 -0.902011 0.689659 0.027629 -0.003525 1064210.000000 0 0 1
-10.401226 13.663462 22.075816 27.968149 -0.920138 0.661096 0.027422 -0.006756 174018.000000 0 0 1
-9.702226 12.959062 23.130436 28.232739 -0.928139 0.610647 0.032682 -0.015230 608095.000000 0 0 1
-8.570026 12.167162 22.812446 27.237710 -0.957152 0.578046 0.041608 0.002682 881782.000000 0 0 1
-7.227426 12.939262 22.585716 27.014344 -1.061401 0.580727 0.052400 -0.005375 -485569.000000 0 0 1
-7.173226 13.811262 21.495816 26.538203 -1.091769 0.626652 0.035045 -0.003001 -430931.000000 0 0 1
-6.446626 15.001162 21.699016 27.155868 -1.164916 0.645075 0.038030 -0.001861 -436611.000000 0 0 1
-7.092326 16.139062 22.519116 28.598619 -1.156750 0.664185 0.043244 -0.013609 1279610.000000 0 0 1
-8.233326 16.802662 21.881116 28.790630 -1.115180 0.707471 0.019067 -0.013022 866506.000000 0 0 1
-7.760026 17.600262 20.778716 28.315054 -1.155532 0.746839 0.022429 -0.006432 -799692.000000 0 0 1
-8.754726 17.967762 19.640216 28.021845 -1.117404 0.794153 0.024259 -0.001763 1010260.000000 0 0 1
-9.950726 18.716562 19.886616 29.065515 -1.082148 0.817291 0.017088 -0.002904 578461.000000 0 0 1
-10.956326 17.959562 20.562216 29.417540 -1.023016 0.796829 0.023760 -0.010279 -214630.000000 0 0 1
-12.284826 18.751262 20.659616 30.485185 -0.990812 0.826175 0.029784 -0.012132 -67408.800000 0 0 1
-12.918326 19.013562 19.439016 30.104386 -0.974012 0.868830 0.027991 -0.011669 609889.000000 0 0 1
-14.286226 19.352662 19.746016 31.121165 -0.934887 0.883450 0.020491 -0.015020 833828.000000 0 0 1
-15.171726 19.523462 18.485616 30.871748 -0.910174 0.928810 0.032839 -0.011855 -550457.000000 0 0 1
-15.635726 18.288962 18.045716 30.076734 -0.863449 0.927309 0.049221 -0.011294 116889.000000 0 0 1
-16.498926 18.484462 16.939216 30.013779 -0.842094 0.971113 0.069730 -0.025701 -809368.000000 0 0 1
-17.253626 17.233662 16.442916 29.411838 -0.784819 0.977547 0.073563 -0.028070 480240.000000 0 0 1
-18.208226 16.660662 17.345816 30.166115 -0.741045 0.958180 0.076796 -0.029492 849350.000000 0 0 1
-19.416826 17.427562 17.494516 31.413232 -0.731460 0.980129 0.097029 -0.029015 55345.500000 0 0 1
35.836881 -9.594438 11.181697 38.747460 -0.261590 1.278054 0.084606 -0.031679 -316053.000000 0 0 1
34.463301 -9.902238 11.275997 37.588849 -0.279790 1.266122 0.094631 -0.026788 132420.000000 0 0 1
34.315041 -10.946138 12.135897 38.008157 -0.308786 1.245809 0.074400 -0.023214 -429337.000000 0 0 1
32.849301 -11.367038 12.318897 36.878738 -0.333139 1.230212 0.106376 -0.014701 -305821.000000 0 0 1
32.015561 -10.435538 12.987497 36.091158 -0.315093 1.202686 0.106506 -0.010331 1621420.000000 0 0 1
30.585351 -10.612238 12.811997 34.817101 -0.333974 1.193961 0.116858 -0.020011 1650860.000000 0 0 1
29.951541 -11.634138 13.845497 34.987794 -0.370494 1.163941 0.106477 -0.008442 -880999.000000 0 0 1
29.961481 -11.201038 15.234297 35.429330 -0.357760 1.126313 0.126803 -0.009326 94154.500000 0 0 1
28.954141 -11.807438 16.009597 35.129262 -0.387211 1.097600 0.127962 -0.012055 576647.000000 0 0 1
27.547841 -11.154338 15.791397 33.655178 -0.384730 1.082399 0.134506 -0.030311 -44106.000000 0 0 1
27.370141 -9.805938 16.294497 33.328541 -0.344024 1.059962 0.119969 -0.019670 -183794.000000 0 0 1
26.353041 -9.137838 15.576397 31.946940 -0.333774 1.061491 0.144054 -0.018999 71084.800000 0 0 1
26.208141 -7.654838 15.963297 31.627362 -0.284174 1.041726 0.152566 -0.027522 -536063.000000 0 0 1
27.367641 -6.922538 15.790297 32.345676 -0.247750 1.060801 0.134570 -0.019759 -631883.000000 0 0 1
27.097941 -5.535738 15.872097 31.888341 -0.201514 1.049805 0.120546 -0.016822 513132.000000 0 0 1
28.340841 -4.648038 15.517797 32.643675 -0.162558 1.075413 0.123714 -0.010518 484380.000000 0 0 1
28.499741 -4.509338 14.123797 32.125551 -0.156923 1.115594 0.120552 -0.012205 92592.500000 0 0 1
29.621641 -3.674638 13.962997 32.953146 -0.123422 1.133245 0.125221 -0.003246 -159318.000000 0 0 1
29.878441 -3.338538 12.476797 32.550538 -0.111276 1.177424 0.125721 -0.021842 -123766.000000 0 0 1
30.398331 -4.418038 11.769497 32.895268 -0.144328 1.204899 0.131345 -0.032466 424988.000000 0 0 1
30.993561 -3.926938 10.552197 32.975302 -0.126030 1.245064 0.136421 -0.032078 275488.000000 0 0 1
31.634601 -4.898338 9.500097 33.391519 -0.153621 1.282305 0.166889 -0.025424 19041.000000 0 0 1
32.967781 -5.214838 9.810097 34.789468 -0.156880 1.284934 0.152141 -0.033869 -200950.000000 0 0 1
33.516531 -6.016338 8.803497 35.171803 -0.177612 1.317806 0.157552 -0.037252 1593450.000000 0 0 1
35.070011 -6.411938 8.932497 36.753342 -0.180835 1.325299 0.141143 -0.033350 1491180.000000 0 0 1
35.941301 -5.379338 8.584497 37.341773 -0.148567 1.338832 0.154053 -0.034276 -441119.000000 0 0 1
37.240281 -5.941338 8.557297 38.669954 -0.158207 1.347659 0.145843 -0.039087 277831.000000 0 0 1
-36.603796 -4.892838 8.227897 37.834852 0.132883 1.351576 0.145801 -0.041654 27505.000000 0 0 1
-36.752286 -4.272038 6.977697 37.651946 0.115719 1.384398 0.150856 -0.038761 983387.000000 0 0 1
-35.567325 -3.502338 6.649097 36.352599 0.098154 1.386855 0.135793 -0.029368 768239.000000 0 0 1
-35.656646 -3.037138 5.168397 36.157059 0.084972 1.427362 0.139393 -0.032914 -206311.000000 0 0 1
-35.303122 -3.948138 4.215697 35.772480 0.111373 1.452674 0.153715 -0.039441 9536.700000 0 0 1
-35.487914 -3.285638 2.993397 35.765177 0.092322 1.487002 0.153891 -0.027805 61555.100000 0 0 1
-34.828111 -4.037638 1.826197 35.108899 0.115415 1.518758 0.183968 -0.040964 -14725.100000 0 0 1
-35.380674 -5.309038 1.537897 35.809818 0.148943 1.527837 0.164681 -0.027639 462356.000000 0 0 1
-36.447396 -5.314838 0.546497 36.836922 0.144802 1.555960 0.128206 -0.026633 649735.000000 0 0 1
-35.958147 -5.448138 -0.883103 36.379258 0.150370 1.595074 0.178012 -0.035866 -1318160.000000 0 0 1
-35.448705 -6.698838 -1.276403 36.098674 0.186770 1.606162 0.179006 -0.046719 294650.000000 0 0 1
-34.670780 -6.653738 -2.471803 35.389900 0.189607 1.640698 0.163781 -0.042917 -107266.000000 0 0 1
-33.332546 -5.880838 -2.395703 33.932024 0.174632 1.641458 0.162293 -0.046242 -1044370.000000 0 0 1
-32.584456 -6.507838 -1.401703 33.257533 0.197128 1.612956 0.168211 -0.041171 -331518.000000 0 0 1
-31.324266 -5.932638 -1.114803 31.900605 0.187177 1.605750 0.172050 -0.049495 647824.000000 0 0 1
-30.483056 -6.817038 -0.086103 31.236135 0.220014 1.573553 0.170245 -0.038275 232141.000000 0 0 1
-30.210616 -8.093238 -0.524103 31.280289 0.261748 1.587552 0.153272 -0.030010 266353.000000 0 0 1
-29.580146 -8.885138 0.463597 30.889248 0.291801 1.555787 0.165019 -0.021584 -76765.200000 0 0 1
-29.101586 -10.238638 -0.122503 30.850397 0.338299 1.574767 0.129307 -0.015008 -240136.000000 0 0 1
-28.056626 -10.238338 -1.066203 29.885358 0.349902 1.606480 0.123969 -0.021750 102375.000000 0 0 1
-27.557326 -11.560438 -1.290003 29.911771 0.397207 1.613937 0.105997 -0.001838 -10718.100000 0 0 1
-28.349396 -12.552938 -2.203603 31.082477 0.416845 1.641751 0.103638 -0.010264 -320073.000000 0 0 1
-29.442816 -13.174438 -1.580603 32.294636 0.420738 1.619759 0.129552 -0.025509 162900.000000 0 0 1
-29.833076 -14.269238 -2.335603 33.152354 0.446140 1.641305 0.119136 -0.018371 -534501.000000 0 0 1
-30.842806 -15.203838 -1.670703 34.427120 0.457989 1.619344 0.137228 -0.024729 -344436.000000 0 0 1
-30.307426 -16.004638 -0.656103 34.280008 0.485856 1.589937 0.106121 -0.021680 251359.000000 0 0 1
-31.294316 -16.660638 0.113797 35.453124 0.489219 1.567587 0.122911 -0.019561 75503.900000 0 0 1
-31.714796 -18.075338 -0.336803 36.505610 0.518019 1.580023 0.120759 -0.016350 -534694.000000 0 0 1
-30.782456 -19.008938 0.095797 36.178840 0.553206 1.568148 0.132407 -0.028067 -128975.000000 0 0 1
-31.004246 -20.387838 -0.108703 37.107129 0.581687 1.573726 0.112696 -0.024840 38078.800000 0 0 1
-31.912666 -21.075338 1.008097 38.257083 0.583656 1.544443 0.102997 -0.030083 11118.800000 0 0 1
-31.158226 -21.354038 2.183897 37.836482 0.600820 1.513045 0.113778 -0.033453 451449.000000 0 0 1
-32.038636 -21.878938 3.146897 38.923837 0.599152 1.489860 0.103805 -0.026769 -200562.000000 0 0 1
-31.329646 -22.279238 4.396197 38.694156 0.618152 1.456936 0.108863 -0.026564 -236031.000000 0 0 1
-30.903576 -21.078138 5.032897 37.744522 0.598585 1.437057 0.094950 -0.022411 -130951.000000 0 0 1
-30.393206 -21.287038 6.296997 37.636912 0.610986 1.402697 0.097905 -0.022282 -127282.000000 0 0 1
-29.877016 -19.977538 6.862797 36.590109 0.589381 1.382120 0.107594 -0.018756 -6281.860000 0 0 1
-28.844376 -20.150138 7.808797 36.041690 0.609773 1.352404 0.099374 -0.026293 -202866.000000 0 0 1
-28.272596 -18.947738 8.268597 35.024651 0.590431 1.332467 0.114199 -0.023959 -265569.000000 0 0 1
-27.183726 -19.270938 9.273697 34.587938 0.616684 1.299356 0.117333 -0.026492 -300661.000000 0 0 1
-27.687176 -19.741738 10.542197 35.601318 0.619416 1.270170 0.102468 -0.035003 41358.200000 0 0 1
-26.661746 -19.812238 11.514297 35.156116 0.639068 1.237120 0.097314 -0.028615 -22542.000000 0 0 1
-26.384426 -18.549838 12.335397 34.531094 0.612777 1.205500 0.088185 -0.024263 -893871.000000 0 0 1
-25.728026 -17.619638 11.494997 33.234288 0.600480 1.217622 0.099105 -0.014665 115837.000000 0 0 1
-25.339356 -16.400038 12.141097 32.533835 0.574416 1.188358 0.096310 -0.007638 229118.000000 0 0 1
-24.174326 -16.570038 13.155097 32.125080 0.600887 1.148895 0.081404 -0.002756 -784312.000000 0 0 1
-24.583026 -17.207238 14.324397 33.250602 0.610702 1.125416 0.074933 -0.024372 -381101.000000 0 0 1
-23.695526 -17.200938 15.396797 33.081892 0.627908 1.086693 0.085247 -0.029420 -609734.000000 0 0 1
-24.314026 -17.896938 16.631597 34.468569 0.634529 1.067273 0.077400 -0.002927 477184.000000 0 0 1
-25.402386 -17.248338 17.283997 35.235251 0.596496 1.058097 0.077271 -0.014637 270440.000000 0 0 1
-26.071856 -18.053838 18.213697 36.570774 0.605651 1.049460 0.055611 -0.007665 -97898.200000 0 0 1
-27.209626 -17.243538 18.861497 37.329069 0.564852 1.041094 0.070617 -0.010578 -94342.900000 0 0 1
-26.751866 -16.414238 19.912397 37.169787 0.550340 1.005443 0.089532 -0.007706 231545.000000 0 0 1
-27.823396 -15.628038 20.377097 37.862950 0.511772 1.002520 0.098178 -0.012823 496.069000 0 0 1
-27.524166 -14.940238 21.719397 38.111975 0.497302 0.964432 0.089909 -0.014050 -206685.000000 0 0 1
-26.458106 -14.035838 21.633797 36.946682 0.487743 0.945249 0.081514 -0.012814 -19324.800000 0 0 1
-26.017006 -13.628638 22.938797 37.266778 0.482534 0.907739 0.071031 -0.016061 -538436.000000 0 0 1
-24.632126 -12.971338 22.825297 35.999881 0.484702 0.884032 0.082791 -0.010675 -285846.000000 0 0 1
-24.559026 -11.729738 22.108897 35.064738 0.445579 0.888578 0.103653 -0.015451 230521.000000 0 0 1
-23.258326 -11.536938 21.587597 33.764997 0.460470 0.877146 0.131393 -0.022839 -142258.000000 0 0 1
-22.737426 -10.048838 21.415497 32.811480 0.416141 0.859676 0.146330 -0.024835 160609.000000 0 0 1
-22.295226 -9.502138 22.656997 33.176908 0.402883 0.819051 0.130556 -0.024043 -427201.000000 0 0 1
-20.915726 -9.602138 22.789997 32.389082 0.430385 0.790300 0.090265 -0.021898 -510766.000000 0 0 1
-20.235726 -9.617538 24.223997 32.996722 0.443673 0.746407 0.088913 -0.019176 506370.000000 0 0 1
-20.558126 -10.824138 24.897097 34.053839 0.484633 0.750849 0.101684 -0.017307 -79705.600000 0 0 1
-19.788526 -10.770338 26.064697 34.452204 0.498435 0.712780 0.099740 -0.020875 -1065470.000000 0 0 1
-19.974026 -11.929338 27.063597 35.689061 0.538390 0.710070 0.088150 -0.027604 809180.000000 0 0 1
-21.269026 -12.213538 27.623897 36.940786 0.521263 0.726071 0.081716 -0.021597 114190.000000 0 0 1
-22.224126 -12.633638 26.654497 36.932138 0.516909 0.764519 0.077208 -0.019887 439550.000000 0 0 1
-23.577226 -13.028438 27.390497 38.416990 0.504826 0.777059 0.064902 -0.016448 754310.000000 0 0 1
-23.678726 -14.074338 28.361697 39.536754 0.536282 0.770805 0.069091 -0.014993 261918.000000 0 0 1
-22.648826 -13.945038 29.373797 39.626422 0.551889 0.735839 0.053462 -0.009807 408641.000000 0 0 1
-22.894226 -14.888338 30.549397 40.976504 0.576593 0.729460 0.046527 -0.012432 -505878.000000 0 0 1
-22.816626 -16.248138 30.140397 41.146615 0.618813 0.748791 0.048409 -0.012253 -135631.000000 0 0 1
-22.802926 -17.114238 31.247897 42.300138 0.643839 0.739629 0.043416 -0.015002 476514.000000 0 0 1
-24.196926 -17.694738 31.688997 43.620953 0.631413 0.757636 0.068145 -0.022869 548861.000000 0 0 1
-24.964726 -16.724538 32.356497 44.157566 0.590256 0.748441 0.083446 -0.030214 -357572.000000 0 0 1
-26.150676 -17.260138 32.895697 45.430134 0.583391 0.761076 0.087792 -0.032910 -184348.000000 0 0 1
-27.005346 -16.192538 33.606097 46.052761 0.540129 0.752869 0.091924 -0.036391 80864.200000 0 0 1
-26.436966 -15.793338 -33.001922 45.138338 0.538503 2.390771 0.104322 -0.035432 -170536.000000 0 0 1
-27.264676 -14.842038 -32.390122 44.863890 0.498510 2.377433 0.105226 -0.028643 -161625.000000 0 0 1
-26.676346 -14.125438 -31.149822 43.375878 0.486977 2.371918 0.099174 -0.018402 -184814.000000 0 0 1
-26.615156 -14.946538 -30.000922 42.799776 0.511690 2.347539 0.107321 -0.011253 96352.100000 0 0 1
-26.179726 -14.294738 -28.807322 41.467811 0.499785 2.338787 0.111320 0.001503 -86052.900000 0 0 1
-26.372256 -15.196538 -27.528022 41.039282 0.522760 2.306046 0.093450 -0.000726 819953.000000 0 0 1
-27.676466 -15.232938 -26.911222 41.499916 0.503145 2.276362 0.103986 -0.008462 881106.000000 0 0 1
-28.113016 -14.144938 -26.101522 40.886555 0.466161 2.263200 0.110672 -0.011147 48582.000000 0 0 1
-27.256716 -13.918038 -24.820422 39.404234 0.472114 2.252211 0.106421 -0.015884 704919.000000 0 0 1
-25.919326 -13.391338 -25.057522 38.458013 0.476882 2.280429 0.087349 -0.004933 1728480.000000 0 0 1
-25.023776 -13.598938 -23.956622 37.216128 0.497793 2.270141 0.083086 -0.007474 102506.000000 0 0 1
-24.484326 -15.019738 -23.838622 37.327666 0.550245 2.263515 0.082101 -0.007289 -374342.000000 0 0 1
-23.542826 -15.377938 -24.887922 37.552021 0.578614 2.295293 0.080577 0.000855 647275.000000 0 0 1
-23.190626 -16.727538 -24.767722 37.829297 0.624883 2.284613 0.088561 -0.005019 -144452.000000 0 0 1
-22.345526 -17.202438 -25.978122 38.342003 0.656077 2.315205 0.076853 0.001032 -134071.000000 0 0 1
-22.871226 -17.199738 -27.279322 39.535874 0.644796 2.332270 0.078295 -0.003739 154843.000000 0 0 1
-23.784926 -18.269238 -27.570022 40.738113 0.654986 2.314152 0.079767 -0.006761 394745.000000 0 0 1
-24.588726 -18.172138 -28.897422 42.070097 0.636452 2.327994 0.080365 -0.010001 42723.100000 0 0 1
-23.814426 -18.511738 -30.038122 42.568769 0.660766 2.354119 0.079667 -0.008707 272190.000000 0 0 1
-24.424526 -18.151738 -31.266822 43.630920 0.639120 2.369741 0.070364 -0.012041 61353.500000 0 0 1
-23.535626 -18.467738 -32.557822 44.215323 0.665324 2.398452 0.068691 -0.018581 880466.000000 0 0 1
-22.328226 -17.661138 -32.635122 43.307235 0.669216 2.424275 0.068591 -0.014951 1505120.000000 0 0 1
-21.111126 -18.254838 -32.164422 42.584842 0.712968 2.426911 0.064666 -0.013587 712362.000000 0 0 1
-20.557526 -19.379838 -33.167522 43.569192 0.755918 2.436052 0.070252 -0.017689 -695732.000000 0 0 1
-20.180126 -18.907738 33.362297 43.333392 0.752858 0.692115 0.072196 -0.018655 48231.600000 0 0 1
-20.023326 -19.958038 32.437297 43.028306 0.783765 0.716880 0.075144 -0.018811 -231479.000000 0 0 1
-21.308626 -20.636838 31.907997 43.566695 0.769384 0.748965 0.073969 -0.016632 19626.700000 0 0 1
-22.080826 -21.324938 32.901997 44.998414 0.767985 0.750744 0.057689 -0.020444 469339.000000 0 0 1
-23.326126 -21.822638 32.392697 45.493104 0.752110 0.778404 0.056826 -0.007715 582389.000000 0 0 1
-23.351426 -23.073138 31.493797 45.491956 0.779404 0.806133 0.073158 0.001191 -353532.000000 0 0 1
-22.895726 -24.199838 32.263697 46.376638 0.813082 0.801418 0.071697 -0.001778 85668.200000 0 0 1
-23.130526 -25.325518 31.455897 46.538979 0.830666 0.828605 0.080171 0.003366 87799.800000 0 0 1
-22.548626 -26.684548 31.992297 47.371011 0.869208 0.829349 0.101926 -0.002302 -144178.000000 0 0 1
-23.474826 -27.305548 32.824297 48.724685 0.860693 0.831634 0.072777 -0.012469 -234522.000000 0 0 1
-22.883426 -28.312868 33.588997 49.532721 0.891055 0.825598 0.076173 -0.020224 -367297.000000 0 0 1
-23.939226 -29.238438 -33.576722 50.550658 0.884721 2.297245 0.071026 -0.017745 -275039.000000 0 0 1
-24.691326 -29.923218 33.266797 51.105189 0.880903 0.861964 0.056021 -0.011962 976545.000000 0 0 1
-25.926106 -29.352878 32.795997 51.081619 0.847309 0.873652 0.047777 -0.008441 60037.400000 0 0 1
-27.088796 -29.174088 33.773197 52.206888 0.822445 0.867270 0.027535 -0.015517 -1082990.000000 0 0 1
-27.990326 -28.214948 33.284597 51.840197 0.789395 0.873612 0.029923 -0.008375 156748.000000 0 0 1
-28.866566 -27.681248 -33.559722 52.209051 0.764440 2.268938 0.030169 -0.002007 463832.000000 0 0 1
-30.079396 -26.806748 33.910197 52.661877 0.727932 0.871181 0.024950 -0.004587 -140875.000000 0 0 1
-31.139726 -27.469428 33.286097 53.218571 0.722857 0.895075 0.027600 -0.006318 90462.100000 0 0 1
-32.151386 -26.502328 32.916397 53.099663 0.689382 0.902183 0.037258 -0.010570 426702.000000 0 0 1
