# x y z rho theta phi s1 s2 stress_xx np intf bulk
-0.849197 -10.754864 -14.409328 18.000471 1.492001 2.498921 -0.003227 0.002178 454678.000000 1 0 0
1.961003 -13.343564 -13.083028 18.789940 -1.424878 2.340996 -0.003621 0.009372 571705.000000 1 0 0
2.014303 -11.055864 -14.687728 18.493753 -1.390580 2.488485 -0.004211 0.003704 1197650.000000 1 0 0
-5.544597 -6.329964 -16.618928 18.627929 0.851441 2.672881 0.004080 0.008685 -197533.000000 1 0 0
4.409603 -14.141864 -11.604528 18.817598 -1.268538 2.235321 -0.005468 0.009188 1226990.000000 1 0 0
13.975103 -10.685964 -7.935128 19.299212 -0.652807 1.994526 0.022288 -0.002412 -342511.000000 1 0 0
6.992603 10.826736 -10.773928 16.798578 0.997334 2.267065 0.010597 -0.015230 210100.000000 1 0 0
5.591803 -4.235564 -12.636728 14.453206 -0.648258 2.634829 -0.006211 0.000333 501772.000000 1 0 0
13.522603 0.587736 -10.240928 16.973003 0.043436 2.218511 -0.000346 0.003882 1227650.000000 1 0 0
13.904403 5.096236 -10.562928 18.190093 0.351315 2.190381 0.007364 -0.005739 -769030.000000 1 0 0
3.966203 4.420636 -13.417828 14.673476 0.839529 2.724887 -0.002094 0.001000 1604060.000000 1 0 0
10.305103 -4.952364 -13.823728 17.939245 -0.447986 2.450556 0.016308 -0.004410 -798788.000000 1 0 0
2.505503 -7.503664 -12.121828 14.474848 -1.248532 2.563380 0.000002 0.001537 963982.000000 1 0 0
-5.691397 -1.942164 -15.154028 16.303636 0.328855 2.763818 -0.001663 0.000806 595186.000000 1 0 0
10.553503 0.011936 -9.782228 14.389877 0.001131 2.318285 0.003445 0.002009 1837120.000000 1 0 0
-1.799597 -9.529964 -16.904828 19.489278 1.384158 2.620732 -0.000925 0.000297 1300190.000000 1 0 0
8.579303 1.582236 -18.040128 20.038815 0.182375 2.691161 0.002811 0.002441 948093.000000 1 0 0
16.345103 -5.867264 -9.113628 19.612379 -0.344636 2.054078 0.012478 0.001441 -1458700.000000 1 0 0
10.003503 7.542636 -9.993328 16.025855 0.646056 2.244104 0.003821 -0.005549 126647.000000 1 0 0
13.679703 -2.282664 -10.844728 17.605481 -0.165342 2.234433 0.009679 0.001860 -1283830.000000 1 0 0
7.077603 -1.928764 -13.780328 15.611215 -0.266056 2.652415 0.000770 -0.002385 -314406.000000 1 0 0
-2.960197 6.763036 -13.752228 15.608497 -1.158216 2.648923 0.000612 0.006518 2109490.000000 1 0 0
11.074103 1.719336 -14.168028 18.064465 0.154028 2.472369 -0.001969 -0.002712 651630.000000 1 0 0
-2.362197 10.858936 -12.923528 17.044472 -1.356599 2.431381 0.002273 0.006774 -1656830.000000 1 0 0
2.804803 -1.055164 -15.304128 15.594763 -0.359821 2.948228 0.001484 -0.000680 1084130.000000 1 0 0
-9.199697 0.490436 -15.292828 17.853446 -0.053260 2.599393 -0.006209 0.012956 -530658.000000 1 0 0
2.147603 -1.840964 -18.041028 18.261436 -0.708670 2.986068 0.010222 -0.009926 2185720.000000 1 0 0
0.950903 7.985436 -13.171028 15.432024 1.452275 2.593436 0.004985 0.001415 -1486260.000000 1 0 0
9.309203 -9.079264 -9.914228 16.351948 -0.772894 2.222199 0.014467 -0.001123 238047.000000 1 0 0
3.788303 7.321536 -13.455828 15.780223 1.093311 2.591932 -0.002911 -0.000789 849835.000000 1 0 0
-2.831297 9.202136 -15.483328 18.232635 -1.272310 2.585283 -0.008850 0.012700 102276.000000 1 0 0
5.426403 -7.648164 -15.358228 17.994872 -0.953720 2.593420 -0.001944 0.000850 200682.000000 1 0 0
4.116503 7.365436 -16.362228 18.409719 1.061150 2.665477 0.000876 0.001907 195106.000000 1 0 0
-0.380697 5.226136 -13.460028 14.444022 -1.498080 2.770345 0.007324 -0.002609 1501210.000000 1 0 0
8.631003 4.222536 -16.711528 19.276908 0.454994 2.619785 -0.001273 -0.001787 -291839.000000 1 0 0
5.229303 0.324836 -14.442528 15.363520 0.062039 2.793583 -0.001581 0.002589 -345513.000000 1 0 0
6.242403 7.924236 -11.638328 15.401681 0.903563 2.427447 -0.001990 -0.004712 -84758.600000 1 0 0
2.653203 -8.251764 -15.168628 17.470500 -1.259705 2.622445 -0.000794 0.000124 -273689.000000 1 0 0
3.976103 11.500236 -13.789428 18.390572 1.237921 2.418571 0.002503 -0.014883 -379878.000000 1 0 0
0.559403 -4.479764 -13.781528 14.502128 -1.446566 2.825029 0.002832 -0.000793 1350590.000000 1 0 0
8.338003 -0.042064 -11.767528 14.422163 -0.005045 2.525139 -0.005616 0.001134 -22700.500000 1 0 0
-1.081697 -5.046264 -16.258828 17.058263 1.359636 2.834231 -0.001126 -0.004655 152605.000000 1 0 0
4.379703 0.865836 -11.747228 12.566974 0.195176 2.778407 -0.005490 0.000006 -513836.000000 1 0 0
-2.950597 -7.194764 -15.509128 17.349458 1.181611 2.676825 -0.001984 0.000733 1867460.000000 1 0 0
11.247803 -3.734164 -11.462528 16.487771 -0.320542 2.339514 0.017109 -0.005178 385637.000000 1 0 0
6.395003 -7.025864 -12.567528 15.754415 -0.832370 2.494292 -0.002348 0.001301 -1128500.000000 1 0 0
3.354503 -3.950764 -14.753728 15.637574 -0.866838 2.803772 0.002037 -0.001519 2293530.000000 1 0 0
-0.825797 -1.543064 -18.324228 18.407615 1.079413 3.046372 0.004356 -0.005996 748874.000000 1 0 0
14.715103 2.962936 -8.641728 17.320298 0.198697 2.093167 -0.007624 0.005582 -815132.000000 1 0 0
6.767803 4.393736 -14.390128 16.497995 0.575821 2.630550 -0.006459 0.000879 2178070.000000 1 0 0
10.016603 -9.680364 -14.061428 19.793068 -0.768329 2.360894 0.015972 -0.008269 -965610.000000 1 0 0
8.779403 -3.288664 -15.696228 18.282910 -0.358410 2.603171 0.008788 -0.005838 -1133120.000000 1 0 0
-5.458997 -2.109064 -18.055128 18.979895 0.368681 2.828146 -0.009428 0.009597 -152765.000000 1 0 0
4.961003 -9.018264 -11.176528 15.193927 -1.067872 2.397336 -0.003298 0.002634 2175090.000000 1 0 0
-2.440997 4.006336 -17.029328 17.663725 -1.023578 2.872772 -0.003088 0.007871 1332110.000000 1 0 0
9.328103 9.381036 -14.534328 19.653601 0.788227 2.403161 0.023172 -0.014332 -1428920.000000 1 0 0
9.735503 10.036736 -11.646628 18.197803 0.800632 2.265297 0.015424 -0.013964 -125287.000000 1 0 0
11.891303 -5.950164 -9.791928 16.513310 -0.463951 2.205541 0.022004 -0.005598 -739016.000000 1 0 0
7.972003 6.957536 -13.768328 17.364533 0.717552 2.486349 -0.000872 -0.002059 -1008630.000000 1 0 0
3.928103 -4.193264 -17.630028 18.542690 -0.818036 2.826541 0.009399 -0.006798 1370440.000000 1 0 0
9.231303 -7.431164 -12.454628 17.191769 -0.677780 2.381037 0.014759 -0.005279 851797.000000 1 0 0
11.969403 -8.659864 -8.883328 17.238717 -0.626324 2.112169 0.024577 -0.004609 1587890.000000 1 0 0
-3.030197 -2.548464 -13.889828 14.443132 0.699259 2.863901 0.002144 -0.001598 -363353.000000 1 0 0
-0.516097 6.193436 -17.655128 18.717065 -1.487659 2.803122 0.001010 0.011747 1846550.000000 1 0 0
0.918903 -8.425064 -17.593628 19.528488 -1.462158 2.692684 -0.005178 -0.000156 1325920.000000 1 0 0
-0.071797 8.606736 -15.995328 18.164018 -1.562455 2.647934 -0.001796 0.009341 -1565140.000000 1 0 0
1.683503 3.444836 -14.917728 15.402587 1.116227 2.890015 0.007722 0.001761 1035600.000000 1 0 0
-1.981897 -0.425064 -15.765128 15.894900 0.211273 3.013721 0.005442 -0.000710 1638000.000000 1 0 0
13.973403 -4.246664 -8.646428 16.972061 -0.295041 2.105343 0.014735 -0.000811 919593.000000 1 0 0
0.474103 0.609136 -14.560828 14.581273 0.909415 3.088631 0.003461 -0.001580 1463020.000000 1 0 0
8.684903 2.802136 -12.731928 15.664658 0.312100 2.519705 -0.009113 0.001691 2167050.000000 1 0 0
5.757403 1.010936 -17.233928 18.198295 0.173817 2.814585 0.007523 0.006171 1234810.000000 1 0 0
15.087503 1.573436 -12.643328 19.747460 0.103912 2.265621 -0.002769 -0.003151 -260536.000000 1 0 0
8.702103 -11.158764 -11.998028 18.552555 -0.908467 2.274053 0.012709 -0.003589 475985.000000 1 0 0
-4.685397 0.815436 -15.099928 15.831162 -0.172312 2.836471 0.001031 0.003662 1702410.000000 1 0 0
2.273803 5.211736 -17.277028 18.188679 1.159406 2.823642 0.006741 0.007306 1522890.000000 1 0 0
5.828303 -11.648164 -12.446728 18.015823 -1.106859 2.333498 0.002807 0.002619 121089.000000 1 0 0
12.688203 7.233536 -8.810228 17.056807 0.518143 2.113581 0.004071 -0.004274 1203380.000000 1 0 0
-5.126797 3.726236 -15.649128 16.883841 -0.628497 2.756784 -0.004745 0.004964 2366950.000000 1 0 0
-0.737397 -4.422164 -19.064028 19.584086 1.405566 2.910623 0.001591 -0.009451 -151943.000000 1 0 0
9.644103 4.433736 -10.376128 14.843543 0.430920 2.344841 -0.009350 0.001188 137444.000000 1 0 0
13.125003 3.647836 -13.024928 18.847312 0.271088 2.333773 0.000303 -0.007608 -188819.000000 1 0 0
-6.335097 5.870236 -17.224628 19.268651 -0.747330 2.676812 -0.009786 0.018175 -366987.000000 1 0 0
-10.235597 3.223736 -15.473028 18.830149 -0.305118 2.535211 -0.013746 0.015838 -146203.000000 1 0 0
10.791903 13.391736 -8.415928 19.147627 0.892491 2.025870 0.019398 -0.006112 -205434.000000 1 0 0
7.395703 13.389536 -12.337328 19.651609 1.066151 2.249523 0.025129 -0.018850 194049.000000 1 0 0
5.240603 15.177336 -11.285628 19.626025 1.238322 2.183442 0.015007 -0.016731 -603349.000000 1 0 0
14.096303 9.487436 -9.967328 19.699361 0.592405 2.101305 0.025569 -0.009802 -1724690.000000 1 0 0
8.236703 -17.258464 -2.077428 19.235737 -1.125509 1.679006 0.022588 -0.001618 -514267.000000 1 0 0
0.710203 -16.028764 -0.022028 16.044505 -1.526517 1.572169 0.001181 -0.007422 1749490.000000 1 0 0
-9.084997 -11.709264 7.602372 16.656533 0.910936 1.096829 0.015175 -0.010231 490775.000000 1 0 0
1.927303 -15.868864 -2.644328 16.202710 -1.449936 1.734732 0.001696 -0.009185 1807810.000000 1 0 0
-1.432097 -10.957964 -9.580228 14.625616 1.440843 2.285020 0.002605 0.000143 495590.000000 1 0 0
-5.007597 -12.523364 -12.989428 18.725275 1.190410 2.337388 0.006931 0.000576 572699.000000 1 0 0
-8.349297 -17.789764 -1.733128 19.727904 1.131983 1.658761 0.003469 -0.000991 254374.000000 1 0 0
-11.416297 -7.077664 -8.733528 16.021850 0.554968 2.147306 0.007298 0.000930 1569220.000000 1 0 0
-13.556197 -11.449364 -4.503528 18.306834 0.701342 1.819350 -0.003110 0.002115 -808276.000000 1 0 0
-5.612997 -13.501764 9.777572 17.589892 1.176809 0.981395 0.011702 -0.006833 -21327.900000 1 0 0
0.040903 -13.995964 -3.642528 14.462251 -1.567874 1.825403 0.001671 -0.002977 -44308.900000 1 0 0
-14.641797 -11.613864 2.161972 18.813245 0.670580 1.455624 -0.011413 -0.003495 -280445.000000 1 0 0
-4.076297 -16.428864 -7.449628 18.493802 1.327590 1.985389 -0.006680 -0.002746 189339.000000 1 0 0
0.385703 -15.188564 -9.327528 17.828181 -1.545407 2.121386 0.001545 0.000912 1183340.000000 1 0 0
4.438303 -14.180164 -2.663628 15.095380 -1.267462 1.748178 -0.003018 0.000621 778404.000000 1 0 0
-3.541697 -18.043964 -2.449228 18.550660 1.376979 1.703212 -0.007875 -0.010185 1023340.000000 1 0 0
-0.846797 -13.498164 0.601472 13.538067 1.508144 1.526353 -0.000006 -0.003251 3460960.000000 1 0 0
-8.676697 -11.346764 -10.475428 17.713518 0.917963 2.203566 0.011073 -0.000242 2412710.000000 1 0 0
-3.743897 -14.181164 -0.365028 14.671586 1.312681 1.595679 -0.003102 -0.001843 3833750.000000 1 0 0
-1.698297 -14.824564 -7.307628 16.614853 1.456734 2.026200 -0.008089 -0.001685 199404.000000 1 0 0
-14.126897 -7.848864 -1.643928 16.244272 0.507130 1.672170 0.001165 0.000427 2230610.000000 1 0 0
-10.713297 -7.298164 -11.641828 17.423263 0.598014 2.302552 0.002216 0.004489 -16891.200000 1 0 0
-9.496197 -14.666764 6.838872 18.763313 0.996206 1.197721 0.011346 -0.007567 -325670.000000 1 0 0
-2.674097 -14.251164 -12.396528 19.076697 1.385313 2.278151 0.012170 0.001409 262876.000000 1 0 0
2.172203 -17.759264 -4.807528 18.526259 -1.449087 1.833299 0.003283 -0.008085 -1038090.000000 1 0 0
-6.660797 -9.665064 -9.193528 14.909749 0.967381 2.235228 0.002596 -0.001417 953347.000000 1 0 0
-10.883297 -15.315464 0.545372 18.796463 0.952986 1.541778 -0.002928 0.000905 274942.000000 1 0 0
-12.577797 -10.936664 4.148872 17.176284 0.715719 1.326837 0.007888 -0.007244 163715.000000 1 0 0
-16.941697 -8.909464 -1.447328 19.196208 0.484144 1.646264 -0.013221 0.000768 -987105.000000 1 0 0
-1.564597 -19.272264 -4.090628 19.763637 1.489790 1.779281 -0.010871 -0.005318 -509798.000000 1 0 0
3.203303 -14.224364 -8.927828 17.096777 -1.349293 2.120217 0.000072 0.002762 1728470.000000 1 0 0
-4.427497 -7.927464 -13.088228 15.929505 1.061450 2.535069 0.003881 0.003583 702213.000000 1 0 0
5.522903 -16.637864 1.229272 17.573619 -1.250293 1.500789 0.006852 -0.000121 2994790.000000 1 0 0
-2.874997 -13.888064 -3.228628 14.545376 1.366668 1.794630 -0.003077 -0.004533 -1149470.000000 1 0 0
-0.454597 -13.997764 3.651872 14.473432 1.538331 1.315724 -0.002694 -0.000409 -2399680.000000 1 0 0
1.319303 -16.177964 7.024572 17.686484 -1.489427 1.162363 0.002048 -0.008970 2790980.000000 1 0 0
-5.685997 -10.203464 -14.587328 18.687733 1.062395 2.466394 0.011563 0.002293 831984.000000 1 0 0
-0.485597 -17.136264 -5.919728 18.136442 1.542467 1.903288 -0.004969 -0.007475 853277.000000 1 0 0
-6.496097 -13.347864 -1.209928 14.893914 1.117864 1.652122 0.001537 -0.004324 2609490.000000 1 0 0
-1.630797 -17.864064 -0.199128 17.939452 1.479759 1.581897 -0.006502 -0.004258 2635180.000000 1 0 0
-9.513197 -9.668664 -4.729228 14.364873 0.793503 1.906276 0.013002 -0.005179 893565.000000 1 0 0
-0.779897 -16.664364 4.876172 17.380631 1.524030 1.286427 0.004595 -0.011225 2154680.000000 1 0 0
-6.890697 -9.868664 -6.260228 13.566970 0.961253 2.050404 0.007698 -0.003429 2625870.000000 1 0 0
-6.240697 -14.585664 -8.485728 17.991539 1.166501 2.061959 0.006736 -0.003452 293299.000000 1 0 0
-5.943397 -12.294064 -10.227428 17.060723 1.120487 2.213638 0.008023 -0.002243 1208740.000000 1 0 0
-10.894697 -12.052264 -8.705728 18.432069 0.835801 2.062711 0.007552 -0.008294 476813.000000 1 0 0
4.095403 -17.099264 6.568772 18.769814 -1.335717 1.213263 0.011857 -0.009786 469672.000000 1 0 0
-6.708497 -14.364964 -4.010328 16.353558 1.133892 1.818550 -0.000181 -0.005160 -681289.000000 1 0 0
-2.952097 -12.160564 -7.213428 14.443952 1.332643 2.093712 0.003410 -0.005193 2189120.000000 1 0 0
-7.042397 -12.814064 4.453872 15.285044 1.068273 1.275119 0.005880 -0.003603 1188100.000000 1 0 0
2.607003 -16.386064 2.330172 16.754977 -1.413020 1.431271 0.000440 -0.008305 2683430.000000 1 0 0
-6.150597 -11.980164 7.286972 15.311895 1.096488 1.074806 0.006828 -0.002562 1413310.000000 1 0 0
-11.331897 -12.738364 -0.811528 17.068579 0.843764 1.618359 -0.001378 0.003268 645396.000000 1 0 0
-14.263897 -8.639664 4.745372 17.338428 0.544601 1.293568 0.005364 -0.004249 66744.600000 1 0 0
-7.969697 -15.583964 4.437272 18.057281 1.098067 1.322520 0.009234 0.000238 1963980.000000 1 0 0
-16.442897 -9.255964 1.326372 18.915628 0.512705 1.500618 -0.011168 -0.001777 -1067190.000000 1 0 0
-6.580797 -17.051364 2.354872 18.428275 1.202469 1.442660 -0.001579 -0.001093 1943770.000000 1 0 0
-11.622097 -14.851764 -4.461828 19.379266 0.906793 1.803118 0.007988 0.007266 -341501.000000 1 0 0
-10.263497 -10.019764 -12.538728 19.051371 0.773382 2.289160 0.008368 0.009011 -693193.000000 1 0 0
-4.394997 -16.047964 -4.466628 17.227998 1.303484 1.833058 -0.009030 -0.001589 -917956.000000 1 0 0
-11.683597 -8.156064 0.070072 14.248955 0.609435 1.565879 0.002736 -0.003125 1787150.000000 1 0 0
-9.589097 -11.164964 3.566772 15.143615 0.861183 1.333033 0.007136 -0.004051 2462630.000000 1 0 0
-14.215797 -12.984164 -0.383828 19.256810 0.740148 1.590730 -0.008620 0.012202 -1190150.000000 1 0 0
5.458403 -14.921364 -7.189628 17.439381 -1.220106 1.995734 -0.000583 -0.003248 946667.000000 1 0 0
-7.409497 -10.540564 -1.221828 12.942063 0.958093 1.665345 0.006979 -0.003321 461925.000000 1 0 0
-11.632197 -8.122264 -5.919328 15.372625 0.609555 1.966065 0.006140 -0.003636 994511.000000 1 0 0
-14.391297 -6.652464 -9.022828 18.242152 0.432999 2.088187 -0.008319 -0.005057 1739360.000000 1 0 0
-3.787297 -16.540464 1.425672 17.028303 1.345705 1.486975 -0.000997 -0.005599 1206500.000000 1 0 0
-7.919297 -15.411164 0.198672 17.327975 1.096116 1.559331 0.006510 -0.000315 712562.000000 1 0 0
0.982303 -18.547064 3.669272 18.932038 -1.517883 1.375749 -0.000030 -0.013289 2170720.000000 1 0 0
-14.062497 -8.626364 -4.397328 17.073502 0.550236 1.831285 -0.004186 -0.002727 829137.000000 1 0 0
-3.114497 -14.475164 11.126472 18.521038 1.358866 0.926360 0.000373 -0.007837 995597.000000 1 0 0
-10.815197 -12.046464 -3.591128 16.582580 0.839203 1.789086 0.006414 -0.003403 2313900.000000 1 0 0
-9.929997 -10.623464 0.612872 14.554671 0.819125 1.528676 0.004524 -0.003035 2215570.000000 1 0 0
-0.164897 -13.120364 -11.232728 17.272676 1.558229 2.278799 0.008753 -0.000034 651706.000000 1 0 0
-5.908097 -12.651064 -6.246628 15.296254 1.133892 1.991471 -0.001986 -0.006409 2195850.000000 1 0 0
1.910103 -15.942064 9.894372 18.859918 -1.451549 1.018523 0.004427 -0.002497 69761.100000 1 0 0
-9.068997 -15.561464 -5.354828 18.790424 1.043131 1.859778 0.001527 0.002363 -818977.000000 1 0 0
-3.335997 -15.544864 5.857172 16.943381 1.359398 1.217821 0.004912 -0.001396 -518742.000000 1 0 0
-17.446697 -5.451964 -6.444828 19.381613 0.302878 1.909774 -0.005556 -0.003944 855855.000000 1 0 0
18.835503 5.506036 -2.983328 19.849253 0.284398 1.721667 -0.005000 0.017141 19112.100000 1 0 0
12.603103 -12.537964 -5.989728 18.759414 -0.782807 1.895778 0.022645 0.000473 -317307.000000 1 0 0
10.913503 -13.477864 -1.726128 17.428049 -0.890147 1.670002 0.016988 -0.001774 2596050.000000 1 0 0
18.614703 -2.968764 4.404672 19.357734 -0.158153 1.341245 -0.003496 -0.001068 -894385.000000 1 0 0
8.756603 -16.930764 4.943672 19.691845 -1.093483 1.317030 0.007438 -0.009611 -616485.000000 1 0 0
18.091103 -1.054464 6.535872 19.264411 -0.058220 1.224654 0.011628 0.001156 -1445450.000000 1 0 0
17.883103 -4.198064 -5.283628 19.114022 -0.230575 1.850870 0.011789 0.005910 201058.000000 1 0 0
5.659403 -11.672264 14.705772 19.609445 -1.119335 0.722835 -0.010743 0.007913 1129290.000000 1 0 0
15.913003 -8.966864 -1.013528 18.293594 -0.513143 1.626228 0.006196 0.001560 91057.200000 1 0 0
13.791903 -12.719464 -1.414928 18.814978 -0.744968 1.646070 0.021865 0.000234 -530708.000000 1 0 0
10.985603 -1.879064 13.813272 17.748827 -0.169408 0.678900 -0.010894 -0.004845 -403303.000000 1 0 0
16.855103 -6.228464 -1.608628 18.040952 -0.353966 1.660080 -0.000677 0.005404 -769260.000000 1 0 0
17.786903 3.516336 -1.087428 18.163729 0.195176 1.630700 -0.005578 0.009695 765927.000000 1 0 0
9.774303 -11.053864 9.461472 17.528388 -0.846755 1.000621 -0.001618 0.002169 819362.000000 1 0 0
9.001103 -11.085164 4.187972 14.880855 -0.888784 1.285509 -0.002059 -0.000708 -473131.000000 1 0 0
14.001103 -10.245264 6.705672 18.600064 -0.631716 1.201972 -0.003764 -0.004158 662061.000000 1 0 0
16.212603 -0.453964 -4.902628 16.943741 -0.027993 1.864341 0.006401 0.006256 -1669360.000000 1 0 0
15.761203 -0.452664 -1.847528 15.875572 -0.028712 1.687436 0.005067 0.004071 841120.000000 1 0 0
12.923503 -5.176664 -0.429228 13.928353 -0.380991 1.601618 0.004684 -0.000699 180915.000000 1 0 0
14.228503 -7.566064 0.901072 16.140247 -0.488727 1.514940 0.002777 0.001637 1611640.000000 1 0 0
15.627503 2.378336 3.610972 16.214637 0.151030 1.346215 0.002929 -0.001395 2256460.000000 1 0 0
15.858503 -7.153464 4.886772 18.070549 -0.423752 1.296959 0.005535 -0.002361 -90791.400000 1 0 0
13.500303 -12.229564 3.170872 18.489858 -0.736051 1.398452 0.002612 0.002136 348054.000000 1 0 0
14.041103 -1.052064 9.186172 16.812055 -0.074788 0.992732 0.002732 -0.003015 2024630.000000 1 0 0
14.150603 -2.821964 -1.720328 14.531434 -0.196841 1.689461 0.005241 0.002160 677273.000000 1 0 0
15.111003 1.730136 8.979372 17.662529 0.113999 1.037488 0.009706 -0.004256 -2774570.000000 1 0 0
14.273903 -10.321764 -3.063728 17.879305 -0.626076 1.743002 0.008241 -0.001070 -841870.000000 1 0 0
7.292803 -12.571564 6.012472 15.728288 -1.045135 1.178543 -0.005748 -0.003480 -564415.000000 1 0 0
12.431703 -4.690964 6.876572 14.961271 -0.360820 1.093224 -0.002541 -0.001828 3000300.000000 1 0 0
14.861003 -9.101364 -5.647928 18.318934 -0.549511 1.884213 0.014708 -0.000779 -954752.000000 1 0 0
14.279403 -4.598064 4.524572 15.668928 -0.311522 1.277864 0.001599 0.000073 700822.000000 1 0 0
17.125303 -4.363164 0.737472 17.687767 -0.249471 1.529090 -0.000143 0.002747 -896332.000000 1 0 0
10.173703 -14.530364 1.024372 17.767528 -0.959957 1.513110 0.015853 -0.000850 641813.000000 1 0 0
16.450803 -2.566364 8.416572 18.656201 -0.154755 1.102753 0.010461 -0.003354 524961.000000 1 0 0
16.028703 -2.649364 3.015372 16.523648 -0.163808 1.387280 0.002725 -0.000600 1355280.000000 1 0 0
7.819003 -15.365264 2.650172 17.442809 -1.100074 1.418271 0.000926 -0.002259 3083660.000000 1 0 0
16.671803 -7.137764 7.699272 19.702170 -0.404522 1.169314 0.009848 0.000233 -546601.000000 1 0 0
10.253503 -8.540164 5.045572 14.266273 -0.694484 1.209303 0.001133 -0.003504 1224670.000000 1 0 0
10.834003 -11.893464 2.025072 16.215148 -0.831980 1.445582 0.005262 0.000114 789309.000000 1 0 0
12.333803 -7.292664 12.055572 18.725450 -0.533979 0.871333 -0.007890 -0.001791 -1223170.000000 1 0 0
15.077403 -9.913764 4.111772 18.507228 -0.581647 1.346756 -0.000811 -0.006281 998241.000000 1 0 0
7.427303 -10.228564 7.695772 14.799097 -0.942746 1.023926 -0.008724 0.000079 107858.000000 1 0 0
15.166803 -3.308864 -4.546928 16.175755 -0.214799 1.855731 0.008722 0.001701 -87470.800000 1 0 0
11.862303 -8.995664 9.744772 17.793167 -0.648818 0.991220 -0.010704 -0.002775 -1903770.000000 1 0 0
16.875703 -6.709264 2.315672 18.307538 -0.378409 1.443969 0.004115 0.001791 1404160.000000 1 0 0
17.582003 3.879336 1.911172 18.106040 0.217163 1.465045 0.001126 0.003805 1169340.000000 1 0 0
14.858803 -4.987464 8.628772 17.891745 -0.323841 1.067545 0.003988 -0.004375 647831.000000 1 0 0
12.663603 -12.788064 5.958172 18.957881 -0.790288 1.251093 -0.006355 0.004387 269069.000000 1 0 0
18.213003 0.603936 -0.904928 18.245469 0.033147 1.620414 0.007207 0.005777 493796.000000 1 0 0
11.698403 -2.134164 10.958072 16.170549 -0.180448 0.826226 -0.001794 -0.002518 1883570.000000 1 0 0
5.874503 -12.475464 10.353472 17.243590 -1.130711 0.926765 -0.009738 0.004612 -1734060.000000 1 0 0
10.824403 -5.017364 11.002872 16.229752 -0.434043 0.825833 -0.004285 -0.001869 430267.000000 1 0 0
17.926003 1.307036 5.056572 18.671338 0.072784 1.296552 0.005718 0.000004 -1386040.000000 1 0 0
12.312603 -7.788264 7.049372 16.184898 -0.564006 1.120144 -0.002925 -0.005110 -1112540.000000 1 0 0
10.533603 -7.906364 14.297872 19.439561 -0.643875 0.744386 -0.015671 -0.004021 681683.000000 1 0 0
14.182703 -0.367864 3.662272 14.652530 -0.025932 1.318177 0.000868 -0.001413 1641850.000000 1 0 0
11.588503 -7.705664 2.418372 14.125126 -0.586807 1.398738 -0.000119 0.000505 2768710.000000 1 0 0
9.325003 5.964336 3.465472 11.599073 0.569034 1.267391 0.000842 -0.001998 3190850.000000 1 0 0
-3.993397 14.879936 -9.813028 18.266232 -1.308600 2.137937 0.006205 -0.004169 2018280.000000 1 0 0
8.842603 -6.417564 9.248772 14.314907 -0.627803 0.868341 -0.001860 -0.005341 276224.000000 1 0 0
5.702703 -10.491864 -8.564528 14.695277 -1.072930 2.192976 -0.005893 -0.002091 548805.000000 1 0 0
5.403903 1.079636 0.558572 5.538934 0.197192 1.469780 0.003180 -0.000986 3947140.000000 1 0 0
-0.411097 9.952836 10.997872 14.838502 -1.529515 0.735983 -0.002923 0.003105 -1048520.000000 1 0 0
-6.246497 -5.131164 1.119472 8.160930 0.687682 1.433188 0.000619 -0.000862 3436910.000000 1 0 0
-1.144197 4.052936 -10.908228 11.692943 -1.295644 2.773151 0.008158 -0.003054 1386540.000000 1 0 0
10.997203 5.725936 1.233872 12.459826 0.480048 1.471606 0.000748 0.001608 894123.000000 1 0 0
-10.223197 -1.771364 -13.650528 17.146090 0.171566 2.491670 -0.004550 0.009599 529568.000000 1 0 0
7.357103 10.866936 -6.105228 14.473806 0.975662 2.006239 -0.000624 -0.000705 781441.000000 1 0 0
-12.386597 -2.883964 -9.548728 15.903560 0.228754 2.214816 0.001912 -0.000708 624829.000000 1 0 0
-3.923197 -8.705064 2.591672 9.893755 1.147377 1.305754 0.001092 0.003079 -1762520.000000 1 0 0
7.934703 -6.556864 -6.014228 11.921532 -0.690604 2.099581 -0.000293 -0.005263 2151020.000000 1 0 0
14.201503 3.179136 -4.329928 15.183474 0.220228 1.859984 0.003835 0.006139 343251.000000 1 0 0
-2.489797 -4.964964 9.788972 11.254952 1.105971 0.516105 -0.000692 -0.000766 1571190.000000 1 0 0
3.431003 -1.876864 -4.613628 6.048137 -0.500561 2.438456 -0.000286 -0.003799 -1467070.000000 1 0 0
-3.978397 8.380136 -3.409428 9.883244 -1.127559 1.923004 -0.001801 -0.001749 -219056.000000 1 0 0
5.887403 0.104636 11.648072 13.051822 0.017771 0.468054 -0.000631 -0.006559 970458.000000 1 0 0
7.295203 4.685836 12.391372 15.123596 0.570955 0.610537 0.000325 -0.006206 1124460.000000 1 0 0
1.418403 -14.488864 12.334772 19.081029 -1.473211 0.867885 -0.002766 -0.003626 716862.000000 1 0 0
2.974303 8.670336 -9.111928 12.924722 1.240332 2.353219 0.002794 -0.003885 173760.000000 1 0 0
-4.481897 -8.971664 -4.497528 10.991174 1.107500 1.992367 0.000757 -0.003355 1745830.000000 1 0 0
5.574703 -6.564964 -4.116228 9.545648 -0.866790 2.016635 0.000349 -0.005625 2786890.000000 1 0 0
-2.996697 3.413036 8.725572 9.836901 -0.850261 0.479936 -0.001652 -0.000401 3088950.000000 1 0 0
-3.900997 3.212736 -11.086928 12.184392 -0.688947 2.713908 0.002499 -0.001440 734403.000000 1 0 0
3.047403 -6.086364 8.434272 10.838240 -1.106594 0.679009 -0.000593 -0.000192 -351520.000000 1 0 0
-4.988297 -8.662764 10.485572 14.487022 1.048337 0.761516 0.006633 -0.005024 1401620.000000 1 0 0
-13.188197 -2.470364 6.613772 14.959051 0.185170 1.112830 0.004134 -0.002587 691913.000000 1 0 0
3.832603 -5.919664 -8.418428 10.981858 -0.996226 2.444288 -0.001093 -0.003182 3386700.000000 1 0 0
3.008903 -0.554064 12.305472 12.680108 -0.182102 0.243687 -0.000014 -0.001543 1663270.000000 1 0 0
1.401803 -1.478864 -7.599328 7.867774 -0.812143 2.879617 -0.002593 -0.003507 924015.000000 1 0 0
3.637603 -3.560964 3.435572 6.141318 -0.774752 0.977111 0.004984 -0.000697 3677010.000000 1 0 0
1.477303 0.467936 -11.825128 11.926233 0.306752 3.011289 -0.000651 -0.002211 -713745.000000 1 0 0
3.995303 3.519536 -10.612028 11.872856 0.722172 2.676557 -0.006343 0.000084 618567.000000 1 0 0
2.832203 3.247536 3.373272 5.472370 0.853606 0.906610 -0.003849 0.000105 -1013390.000000 1 0 0
-5.326197 0.903636 2.622772 6.005320 -0.168058 1.118823 0.001496 -0.004961 1621560.000000 1 0 0
-9.406597 -9.258464 5.739172 14.392405 0.777462 1.160628 0.009836 -0.006139 -1381100.000000 1 0 0
-3.078497 3.851436 -0.527628 4.958739 -0.896475 1.677402 -0.002371 -0.004637 579113.000000 1 0 0
-15.908797 -6.445864 5.051172 17.892829 0.384961 1.284604 0.015986 -0.006687 999119.000000 1 0 0
0.987703 6.755436 -8.084528 10.581638 1.425616 2.440309 0.005089 -0.003420 1043520.000000 1 0 0
-1.685297 6.583136 -9.466828 11.653271 -1.320177 2.519010 0.005063 -0.001848 621735.000000 1 0 0
2.111903 -0.304764 5.253572 5.670365 -0.143318 0.385804 0.003024 -0.002226 4132210.000000 1 0 0
-3.408497 -0.510864 -6.321928 7.200389 0.148772 2.642460 -0.001510 -0.005164 -1012390.000000 1 0 0
1.781103 -1.177764 -2.449528 3.249561 -0.584247 2.424627 0.004610 -0.002028 446476.000000 1 0 0
2.295903 -8.577264 -7.675428 11.736815 -1.309254 2.283606 -0.002952 -0.000709 2941800.000000 1 0 0
-2.523197 14.071236 -5.500428 15.317340 -1.393366 1.938098 0.005810 -0.000888 2195990.000000 1 0 0
6.750303 -5.073964 -8.264728 11.815982 -0.644566 2.345429 0.000047 -0.005050 3010630.000000 1 0 0
-14.201897 -4.910164 -2.068628 15.168480 0.332875 1.707599 0.006837 -0.001732 -716466.000000 1 0 0
-2.757197 6.934736 -6.842728 10.125000 -1.192367 2.312880 0.003484 -0.002277 -754239.000000 1 0 0
-5.690697 -1.061164 -8.118328 9.970825 0.184356 2.522160 0.003922 -0.005312 446945.000000 1 0 0
-5.732397 -10.627264 3.495872 12.570610 1.076124 1.288982 0.002273 -0.000456 -3515040.000000 1 0 0
8.133603 -7.552164 6.676672 12.952553 -0.748347 1.029239 -0.003276 -0.003780 2127500.000000 1 0 0
8.820503 -5.903864 13.161072 16.907712 -0.589847 0.678673 -0.003542 0.000648 -336005.000000 1 0 0
-4.637097 9.523136 -0.733428 10.617471 -1.117660 1.639929 -0.007126 0.002207 378447.000000 1 0 0
2.862503 6.513836 12.116472 14.051081 1.156751 0.530971 0.002830 -0.007752 271751.000000 1 0 0
6.100003 -2.842564 10.888672 12.800523 -0.436075 0.553590 -0.002692 -0.003261 -1241890.000000 1 0 0
-9.587797 -6.380064 -1.044028 11.563782 0.587150 1.661204 0.008322 -0.004385 -339205.000000 1 0 0
0.885303 -13.355164 6.265872 14.778543 -1.504604 1.132956 -0.005122 -0.001247 1034370.000000 1 0 0
-0.548497 -3.072364 8.657572 9.202925 1.394132 0.345986 0.000854 -0.001758 1424100.000000 1 0 0
4.249103 0.781236 3.404572 5.500575 0.181828 0.903393 0.001831 -0.000259 1778250.000000 1 0 0
-10.141097 5.510836 8.346972 14.243704 -0.497774 0.944669 0.002617 -0.004073 806586.000000 1 0 0
9.347503 7.933236 -0.044328 12.260262 0.703739 1.574412 -0.003083 0.001940 -94968.700000 1 0 0
4.358003 2.858736 8.165872 9.687416 0.580563 0.568079 -0.001578 -0.004609 2357930.000000 1 0 0
1.194803 2.691336 -9.750728 10.185653 1.152990 2.848310 0.002832 -0.004032 2589800.000000 1 0 0
-1.359497 -10.212764 3.055372 10.746352 1.438457 1.282502 0.000210 0.001304 -570877.000000 1 0 0
-9.667497 9.499836 9.147272 16.351757 -0.776651 0.977127 0.001392 -0.006905 1042020.000000 1 0 0
9.683303 -1.940864 -7.717828 12.533881 -0.197813 2.234143 0.005200 -0.000694 1009130.000000 1 0 0
-5.228297 -1.826164 6.773472 8.749279 0.336037 0.685386 0.000643 -0.003173 750159.000000 1 0 0
3.090003 -7.837364 -4.961328 9.776869 -1.195243 2.103026 -0.004864 -0.003546 1767090.000000 1 0 0
-5.229397 5.012336 -13.018528 14.898059 -0.764208 2.633842 -0.003858 -0.000036 1642050.000000 1 0 0
-5.589297 9.662436 5.569872 12.475030 -1.046368 1.107967 -0.007229 0.004026 1190280.000000 1 0 0
-0.571697 -1.800264 -9.401928 9.589788 1.263306 2.943331 0.001170 -0.004562 183145.000000 1 0 0
-16.663897 0.163636 6.487672 17.883012 -0.009819 1.199543 -0.001561 0.000472 -555301.000000 1 0 0
-5.959197 -2.894564 4.134172 7.809091 0.452167 1.012897 -0.003632 -0.002608 3491320.000000 1 0 0
0.920503 -5.680864 -5.140228 7.716313 -1.410157 2.299832 -0.002837 -0.002161 1188650.000000 1 0 0
-7.081997 1.431736 -8.479528 11.140329 -0.199477 2.435890 -0.002738 -0.001895 -196109.000000 1 0 0
8.063903 1.867036 4.745272 9.540963 0.227521 1.050246 -0.001648 -0.002630 117246.000000 1 0 0
0.420503 -8.052564 -0.599828 8.085815 -1.518624 1.645047 -0.002868 0.001717 1105310.000000 1 0 0
5.409803 5.486836 -3.354728 8.403900 0.792467 1.981426 -0.003761 0.001989 1318710.000000 1 0 0
-0.783697 -0.374464 -1.239628 1.513632 0.445745 2.530420 0.000319 -0.002598 924015.000000 1 0 0
8.945803 6.371936 -6.477728 12.751075 0.618922 2.103674 -0.006084 -0.000633 68303.000000 1 0 0
-14.945397 -7.081864 2.606572 16.742518 0.442509 1.414475 -0.002837 -0.003702 120477.000000 1 0 0
-6.340497 6.745736 8.953072 12.878833 -0.816355 0.802130 -0.003797 0.000563 499810.000000 1 0 0
-9.361497 -3.168864 -9.592128 13.772735 0.326393 2.341246 0.003909 0.001376 1122890.000000 1 0 0
14.849803 3.429536 -1.406328 15.305428 0.226969 1.662810 -0.002639 0.003569 2266670.000000 1 0 0
11.922603 1.743236 -5.924128 13.426937 0.145184 2.027745 0.004732 0.002420 332301.000000 1 0 0
1.767703 -9.405564 12.660172 15.870393 -1.385021 0.647287 -0.008426 0.002065 554859.000000 1 0 0
-3.519197 6.230236 8.008072 10.739172 -1.056618 0.729229 -0.003946 0.001583 1685740.000000 1 0 0
-4.048297 13.232836 -12.360928 18.555031 -1.273910 2.299867 -0.000292 0.002262 855270.000000 1 0 0
-10.160897 7.755636 6.576072 14.374924 -0.651948 1.095650 0.002237 -0.003208 771118.000000 1 0 0
7.967903 -9.241564 -7.177828 14.156808 -0.859273 2.102524 0.000215 -0.001322 875880.000000 1 0 0
5.792703 -3.775364 -0.414128 6.926781 -0.577601 1.630618 0.003778 -0.002929 -107279.000000 1 0 0
-1.638097 -4.394364 4.248972 6.328314 1.213980 0.834670 -0.000161 0.001095 1242630.000000 1 0 0
9.847603 -2.021364 -2.713528 10.412706 -0.202452 1.834438 0.004859 -0.003779 -3163680.000000 1 0 0
13.564603 7.073836 1.326172 15.355662 0.480693 1.484325 0.000183 0.004805 -1631940.000000 1 0 0
5.303003 -3.711264 -3.361328 7.293411 -0.610620 2.049774 0.004064 -0.005995 -2270730.000000 1 0 0
-12.189397 -5.943364 2.027972 13.711952 0.453666 1.422354 0.003958 -0.002276 2234040.000000 1 0 0
3.725703 -5.718164 -0.316128 6.832145 -0.993328 1.617083 0.000761 -0.000896 213031.000000 1 0 0
-5.302997 3.811736 -8.682228 10.864262 -0.623225 2.496684 -0.001347 -0.001798 961724.000000 1 0 0
-1.599397 -9.299664 7.285472 11.921406 1.400478 0.913315 -0.000208 -0.000349 1677810.000000 1 0 0
-7.363097 -7.379164 2.623272 10.749363 0.786488 1.324267 0.006232 -0.003017 -3056920.000000 1 0 0
-5.771497 13.176436 -8.438428 16.677401 -1.157952 2.101314 0.008070 -0.006629 1285100.000000 1 0 0
9.072303 -13.884564 -4.221128 17.114489 -0.992028 1.820009 0.016862 0.001876 617971.000000 1 0 0
-6.445197 -5.204064 -6.671828 10.636547 0.679257 2.248820 0.003300 -0.002218 662163.000000 1 0 0
3.365103 0.414336 -6.266128 7.124602 0.122511 2.645619 -0.003546 -0.003818 769420.000000 1 0 0
-3.540197 5.727736 5.043272 8.412761 -1.017189 0.927946 -0.003257 0.002442 -1324210.000000 1 0 0
-2.603797 -10.850564 -2.887028 11.526033 1.335281 1.823971 -0.001044 -0.000170 724422.000000 1 0 0
-12.556497 -0.450464 1.764072 12.687808 0.035860 1.431308 0.000786 -0.001420 1482180.000000 1 0 0
8.254703 -11.928464 -6.100628 15.736774 -0.965448 1.968896 0.006716 -0.001343 206626.000000 1 0 0
6.132303 3.932936 1.007372 7.354450 0.570268 1.433390 0.000777 -0.000471 -1181510.000000 1 0 0
3.320103 -4.803664 -11.007728 12.460672 -0.966028 2.653860 -0.001489 -0.001211 323955.000000 1 0 0
-7.613097 4.228336 8.649372 12.273944 -0.506982 0.788805 0.001898 -0.003226 1010680.000000 1 0 0
8.209103 8.629236 4.104972 12.597773 0.810344 1.238887 0.003062 -0.000673 2614150.000000 1 0 0
0.195403 10.651236 -6.375128 12.414881 1.552453 2.110063 0.002217 0.000299 2730950.000000 1 0 0
5.407903 8.004436 3.392372 10.238389 0.976625 1.233074 0.000825 -0.000177 2195550.000000 1 0 0
8.065503 6.640236 -3.837128 11.129628 0.688781 1.922787 -0.008602 0.002869 -61504.200000 1 0 0
10.391903 2.526136 -8.363828 13.576694 0.238462 2.234506 -0.005429 0.002243 -549781.000000 1 0 0
3.274403 -12.492564 -0.348628 12.919265 -1.314455 1.597785 -0.004769 0.000227 -2979470.000000 1 0 0
0.658103 2.125236 5.207272 5.662633 1.270500 0.403773 0.002278 -0.001604 -344985.000000 1 0 0
-4.805197 13.398036 1.456072 14.307950 -1.226437 1.468853 -0.007861 0.004985 708487.000000 1 0 0
8.096103 4.045436 -8.140728 12.173080 0.463389 2.303320 -0.012432 0.002596 -370115.000000 1 0 0
-13.830797 -0.527664 -3.543428 14.287241 0.038133 1.821425 0.001667 -0.004475 874896.000000 1 0 0
-8.551897 0.142036 -0.444028 8.564594 -0.016607 1.622664 -0.000231 -0.001362 -609465.000000 1 0 0
1.741403 -3.852764 -1.183828 4.390641 -1.146290 1.843800 0.004809 -0.000068 -2098540.000000 1 0 0
8.096403 -5.602264 -0.366228 9.852474 -0.605299 1.607976 0.003972 -0.002980 3023260.000000 1 0 0
-2.314397 -1.100264 7.421472 7.851450 0.443775 0.332480 0.003803 -0.001878 2272180.000000 1 0 0
-5.911297 9.018736 -11.607628 15.843549 -0.990602 2.392990 -0.006087 0.008032 -640573.000000 1 0 0
-6.334897 9.360036 -8.790128 14.318084 -0.975809 2.231811 -0.005061 0.001274 -711813.000000 1 0 0
-1.571297 14.045936 -8.334428 16.407924 -1.459391 2.103601 0.014154 -0.002475 -977384.000000 1 0 0
-1.424097 7.207836 9.819172 12.263649 -1.375732 0.642379 -0.004809 0.000395 770198.000000 1 0 0
9.919403 2.301536 -4.087228 10.972559 0.227989 1.952493 -0.002144 0.000618 -1100550.000000 1 0 0
-3.123197 -7.581764 -6.944528 10.745416 1.180043 2.273493 0.000246 -0.001628 1129960.000000 1 0 0
-5.515597 -4.944064 -1.519328 7.561345 0.730811 1.773107 -0.000610 -0.000575 -1258490.000000 1 0 0
5.636503 7.348636 -8.863328 12.819173 0.916495 2.334238 -0.004193 -0.002337 -421778.000000 1 0 0
-9.549697 5.281636 -7.404028 13.187570 -0.505196 2.166921 -0.004572 0.001226 -100802.000000 1 0 0
-0.450297 6.205336 -5.335428 8.196081 -1.498357 2.279662 0.001934 -0.001461 -1795890.000000 1 0 0
-8.265897 2.808736 -6.322128 10.778838 -0.327557 2.197566 0.000093 0.000607 1436150.000000 1 0 0
3.579103 1.327336 -1.983528 4.301881 0.355134 2.050012 -0.001774 -0.001245 3779760.000000 1 0 0
-6.812897 12.483436 -3.394928 14.621124 -1.071218 1.805128 -0.001173 -0.001092 -101236.000000 1 0 0
-6.542997 3.144136 -2.321728 7.621471 -0.447954 1.880346 0.000309 -0.001752 -1232980.000000 1 0 0
12.095103 4.013336 -0.881728 12.774030 0.320383 1.639876 0.001276 0.000718 -1554850.000000 1 0 0
2.224603 12.401136 -5.510828 13.751591 1.393297 1.983122 0.003429 -0.002233 362501.000000 1 0 0
-9.128497 -1.407664 -4.240728 10.163402 0.153000 2.001219 0.006057 -0.001093 241130.000000 1 0 0
-1.131397 5.719236 3.487472 6.793540 -1.375495 1.031711 -0.004779 0.001194 1840410.000000 1 0 0
11.683703 2.561036 11.929372 16.893127 0.215784 0.786726 0.006390 -0.004948 233516.000000 1 0 0
-7.005197 -2.344664 -5.772028 9.374782 0.322983 2.234067 0.003792 -0.002953 -1319060.000000 1 0 0
7.569103 -7.284064 10.833072 15.089877 -0.766210 0.770011 -0.003861 -0.002620 -661710.000000 1 0 0
-5.503297 -1.831764 -10.941528 12.383806 0.321314 2.654153 0.002843 0.000326 -728879.000000 1 0 0
0.831803 -6.166364 4.412772 7.628139 -1.436712 0.953925 0.000460 0.001380 1242770.000000 1 0 0
-4.685497 -9.360364 7.427372 12.834958 1.106695 0.953683 0.000963 -0.002518 2487560.000000 1 0 0
-8.665897 9.285536 1.636172 12.806092 -0.819902 1.442681 -0.002410 -0.000934 953079.000000 1 0 0
-8.174997 7.303436 -9.035028 14.205720 -0.729149 2.260117 -0.003781 0.002617 -1408300.000000 1 0 0
-1.254097 -10.668664 -0.126328 10.742863 1.453784 1.582556 -0.002272 0.001369 -566745.000000 1 0 0
-3.873297 10.267436 7.902872 13.523241 -1.210062 0.946666 -0.004299 0.005755 888642.000000 1 0 0
-7.331897 12.005436 2.030472 14.213023 -1.022536 1.427446 -0.009572 -0.000519 245129.000000 1 0 0
-8.147397 -8.164664 -2.829228 11.876293 0.786457 1.811334 0.012756 -0.004678 -151266.000000 1 0 0
5.337203 4.608836 -8.042128 10.695930 0.712297 2.421715 -0.006118 0.001503 1099280.000000 1 0 0
-9.014097 -0.170664 -10.165628 13.587606 0.018931 2.416073 -0.002360 -0.000701 -780592.000000 1 0 0
-15.222597 -2.180764 -1.495528 15.450559 0.142290 1.667743 0.001952 -0.003073 101098.000000 1 0 0
-7.096897 -5.771364 8.824072 12.709793 0.682752 0.803386 0.004857 -0.004472 -2106730.000000 1 0 0
8.095803 3.465536 -0.997428 8.862665 0.404464 1.683578 -0.003031 0.001545 1396800.000000 1 0 0
11.695003 7.277436 -5.989628 15.020313 0.556633 1.980970 -0.006121 -0.000482 -599319.000000 1 0 0
3.787803 13.385336 -9.575128 16.887799 1.295025 2.173637 0.000031 -0.005146 1497680.000000 1 0 0
-9.779797 5.549536 -0.340428 11.249785 -0.516141 1.601062 0.001859 -0.001208 2439890.000000 1 0 0
11.210403 -1.285964 -5.253828 12.447070 -0.114212 2.006550 0.008999 -0.001809 -412472.000000 1 0 0
10.532603 1.703436 -1.287028 10.746807 0.160341 1.690844 0.001625 0.000607 196001.000000 1 0 0
14.699903 5.057336 4.718972 16.246000 0.331354 1.276079 0.003358 -0.003117 2839570.000000 1 0 0
0.872303 -0.800764 10.307372 10.375166 -0.742665 0.114379 0.004266 -0.001311 660050.000000 1 0 0
-7.998697 1.394336 -12.605328 14.993919 -0.172586 2.569364 -0.008793 0.004364 -732663.000000 1 0 0
3.023303 -11.541164 -7.997228 14.362955 -1.314595 2.161319 -0.003476 0.002408 940441.000000 1 0 0
2.882803 5.017636 -6.726728 8.873336 1.049312 2.431165 -0.002670 0.000654 -1003050.000000 1 0 0
6.462103 8.017636 0.573472 10.313590 0.892416 1.515164 0.001524 -0.001174 1393980.000000 1 0 0
-9.053297 -5.388264 6.819272 12.549823 0.536862 0.996343 0.000633 -0.002603 -2024220.000000 1 0 0
-0.342497 -6.842664 -11.835328 13.675319 1.520785 2.616848 -0.001000 0.002120 3661000.000000 1 0 0
6.278603 -13.373064 -4.677628 15.496448 -1.131848 1.877431 0.000169 0.000237 2718500.000000 1 0 0
-3.173097 -0.297264 10.089872 10.581230 0.093410 0.305943 0.003886 -0.001595 213174.000000 1 0 0
8.641603 8.409036 7.032572 13.958734 0.771759 1.042791 -0.001945 -0.000973 -1281260.000000 1 0 0
-7.937097 5.713536 -2.593228 10.117649 -0.623926 1.829996 0.000802 -0.002927 541207.000000 1 0 0
-5.449397 5.849136 -6.410828 10.247294 -0.820763 2.246712 0.001753 -0.000169 -423624.000000 1 0 0
3.300403 -13.644264 2.452172 14.250325 -1.333466 1.397857 -0.001184 -0.005406 -2294330.000000 1 0 0
-11.206097 -7.031964 6.578272 14.774938 0.560404 1.109363 0.010266 -0.006881 -1344400.000000 1 0 0
-12.917497 -3.649064 -6.725828 15.013799 0.275316 2.035297 0.010743 -0.004190 -254233.000000 1 0 0
5.950503 0.346436 -7.373728 9.481580 0.058154 2.461779 -0.001696 0.000171 -171072.000000 1 0 0
-1.497397 2.244036 -2.476328 3.661979 -0.982370 2.313425 -0.000227 -0.005022 2340770.000000 1 0 0
7.446903 0.831336 -5.045528 9.033540 0.111175 2.163412 -0.002368 -0.000614 1582530.000000 1 0 0
3.756403 -4.569564 10.751972 12.271772 -0.882755 0.502970 -0.001528 -0.001306 1209380.000000 1 0 0
6.074003 -2.560764 2.027472 6.896497 -0.398982 1.272402 0.005941 -0.001785 147118.000000 1 0 0
-6.202297 7.727536 1.168072 9.977359 -0.894458 1.453455 -0.004640 -0.000267 1414920.000000 1 0 0
6.141703 -3.465664 7.916672 10.602125 -0.513744 0.727700 0.003681 -0.006361 310222.000000 1 0 0
6.625603 -2.272364 -7.932528 10.582403 -0.330396 2.418248 -0.002639 -0.003385 35598.300000 1 0 0
12.008503 -8.190064 -5.834228 15.662679 -0.598558 1.952489 0.015216 -0.005089 1252720.000000 1 0 0
5.691803 -9.582164 9.926672 14.924923 -1.034800 0.843159 -0.008738 0.000634 989706.000000 1 0 0
-6.651497 7.550036 -4.420428 10.990252 -0.848585 1.984730 -0.000111 -0.002232 2031950.000000 1 0 0
-1.307597 -7.574764 9.703572 12.379264 1.399856 0.669943 -0.001602 -0.001455 249890.000000 1 0 0
9.904603 -9.291664 0.684472 13.597967 -0.753479 1.520439 0.003499 -0.003986 1027030.000000 1 0 0
11.140603 6.002136 9.731572 15.963777 0.494174 0.915236 -0.006412 -0.004392 1110720.000000 1 0 0
-15.279497 -4.164164 -4.883328 16.572573 0.266071 1.869899 -0.002531 -0.001172 2559210.000000 1 0 0
-4.768697 -4.592864 7.920572 10.323291 0.766618 0.696250 -0.001649 -0.002635 -1989500.000000 1 0 0
2.998903 10.888836 -11.104928 15.839179 1.302048 2.347742 0.003953 -0.005485 -738381.000000 1 0 0
9.981803 -1.295464 1.419272 10.165085 -0.129061 1.430716 0.000171 -0.003433 -471236.000000 1 0 0
-1.653697 -2.559564 0.718372 3.130837 0.997178 1.339283 0.001034 -0.003518 2107950.000000 1 0 0
1.594003 2.994236 0.829772 3.492108 1.081599 1.330888 -0.004618 -0.000640 -281226.000000 1 0 0
-8.975697 -2.366864 4.361872 10.256272 0.257828 1.131516 -0.000211 -0.003291 3224690.000000 1 0 0
9.899903 4.857736 -2.759028 11.367406 0.456168 1.815959 -0.005354 0.001675 1442020.000000 1 0 0
2.623803 8.506136 2.532972 9.254979 1.271596 1.293571 -0.002000 -0.000385 1416240.000000 1 0 0
-8.133397 -0.023164 2.537872 8.520180 0.002848 1.268340 -0.003394 -0.004215 1310780.000000 1 0 0
7.071803 1.985736 13.698472 15.543542 0.273747 0.492197 -0.001654 -0.006223 233980.000000 1 0 0
6.841903 4.260636 3.766172 8.896556 0.556963 1.133679 -0.000458 -0.001678 462727.000000 1 0 0
-0.222797 3.371136 7.761372 8.464815 -1.504803 0.410559 0.000246 -0.000597 532680.000000 1 0 0
2.835903 -10.221464 9.151272 14.009513 -1.300158 0.858969 -0.008309 -0.002674 1605400.000000 1 0 0
1.342403 -4.496464 6.827572 8.284684 -1.280674 0.602150 0.001156 -0.001468 1248400.000000 1 0 0
-0.090997 10.839336 -2.037528 11.029551 -1.562401 1.756597 0.000376 -0.001787 1337980.000000 1 0 0
8.818003 5.425936 8.000072 13.084308 0.551612 0.912936 -0.002817 -0.003226 -1025960.000000 1 0 0
2.653403 11.364536 -2.911328 12.027845 1.341424 1.815273 0.002305 -0.005981 1164620.000000 1 0 0
1.408003 2.472536 -6.672628 7.253955 1.053138 2.738521 -0.000491 -0.002472 2060830.000000 1 0 0
-13.572597 -2.196064 3.632872 14.220965 0.160411 1.312474 0.003521 -0.002543 1917850.000000 1 0 0
-1.003497 -10.639764 -5.410328 11.978449 1.476759 2.039435 -0.001978 -0.001899 932558.000000 1 0 0
-5.671197 2.877236 0.506672 6.379473 -0.469504 1.491290 0.002198 -0.003667 1951100.000000 1 0 0
3.752903 7.254136 -5.066328 9.611163 1.093368 2.126015 -0.002708 -0.000712 -1225750.000000 1 0 0
2.897703 9.775736 -6.515028 12.099888 1.282629 2.139378 0.001776 -0.001530 2733070.000000 1 0 0
-12.214797 1.781236 -2.480928 12.590832 -0.144805 1.769137 0.003870 -0.001412 529664.000000 1 0 0
-2.548997 9.620236 -5.711028 11.474413 -1.311786 2.091763 0.002736 -0.001655 652305.000000 1 0 0
-1.294397 3.375836 1.680772 3.987070 -1.204656 1.135636 -0.003467 -0.001280 -663732.000000 1 0 0
12.969403 3.661936 9.536772 16.509550 0.275188 0.954947 0.003607 -0.003970 1687260.000000 1 0 0
-2.444497 -9.587364 11.669272 15.299184 1.321145 0.703260 0.000967 -0.004723 1734810.000000 1 0 0
-0.589297 -8.914964 -7.571928 11.711445 1.504790 2.273838 -0.000573 -0.001288 1606830.000000 1 0 0
2.322603 7.671736 -0.465128 8.029095 1.276820 1.628759 -0.002843 -0.001122 1878740.000000 1 0 0
-11.807197 -1.212964 -5.521128 13.090608 0.102372 2.006185 0.006543 -0.000647 -54741.200000 1 0 0
-6.219397 -7.195064 -10.884528 14.454162 0.858003 2.423463 0.002807 0.001407 1290470.000000 1 0 0
-4.757197 -2.223264 -1.337228 5.418672 0.437186 1.820154 -0.003672 -0.001284 -135875.000000 1 0 0
-10.455797 3.702036 4.640272 12.023347 -0.340292 1.174571 -0.000867 -0.004279 3467360.000000 1 0 0
6.733803 9.293536 -3.664928 12.047639 0.943771 1.879898 -0.002520 0.000765 1019500.000000 1 0 0
1.154303 -2.637864 -11.516328 11.870828 -1.158310 2.896591 0.000126 -0.001712 -603011.000000 1 0 0
1.308903 8.839236 7.589872 11.723970 1.423786 0.866654 -0.007396 0.005025 477902.000000 1 0 0
10.389003 0.370336 10.364772 14.679818 0.035632 0.786883 -0.002948 -0.003139 1608560.000000 1 0 0
-5.282097 -0.804164 -3.955128 6.647575 0.151083 2.208028 -0.002374 -0.003608 628105.000000 1 0 0
11.782403 5.600536 5.387372 14.114348 0.443718 1.179167 0.001666 -0.001235 3049250.000000 1 0 0
9.970603 -3.408264 3.536472 11.114668 -0.329379 1.246987 0.001600 -0.003493 -514425.000000 1 0 0
7.278103 -1.740464 -3.473828 8.250302 -0.234729 2.005404 0.002555 -0.001961 -4093040.000000 1 0 0
2.454803 9.229636 10.482772 14.181000 1.310845 0.738896 -0.004811 0.001399 1721140.000000 1 0 0
2.468203 -10.909964 6.326472 12.850821 -1.348308 1.056065 -0.007001 -0.001409 353184.000000 1 0 0
5.914903 -7.559764 -1.274428 9.682989 -0.906868 1.702794 -0.000740 -0.005174 183295.000000 1 0 0
-0.374297 -5.525664 -2.401528 6.036588 1.503162 1.979945 -0.001568 0.002119 971662.000000 1 0 0
7.763003 -5.091064 2.540672 9.624873 -0.580450 1.303661 0.004638 -0.002883 1573210.000000 1 0 0
-2.680997 -12.520864 4.743972 13.655221 1.359859 1.215988 0.001302 -0.000309 182405.000000 1 0 0
4.779903 -10.274664 -1.135128 11.388798 -1.135364 1.670633 -0.005383 -0.002596 1126220.000000 1 0 0
0.962203 0.197736 1.030872 1.423950 0.202681 0.761281 -0.001813 -0.001262 -1518270.000000 1 0 0
-1.563297 8.523536 2.458872 9.007808 -1.389403 1.294316 -0.007167 0.003045 698862.000000 1 0 0
-7.526697 0.643236 -3.025428 8.137452 -0.085253 1.951733 0.000797 -0.001398 -1581060.000000 1 0 0
4.489003 -6.374564 12.865672 15.043661 -0.957253 0.544817 -0.003771 0.002452 -499455.000000 1 0 0
-4.981797 13.048636 8.505772 16.353390 -1.206089 1.023801 -0.001505 0.001863 1510360.000000 1 0 0
0.721403 6.145536 8.263572 10.323500 1.453945 0.642730 -0.004347 0.001693 724409.000000 1 0 0
7.936403 -0.525764 -0.796928 7.993624 -0.066151 1.670658 0.001557 -0.001598 3395670.000000 1 0 0
2.354003 -9.200764 -2.413828 9.799079 -1.320321 1.819690 -0.005603 -0.001065 736025.000000 1 0 0
-7.031497 12.287936 4.946872 14.996895 -1.051048 1.234641 -0.009633 0.002040 -1379320.000000 1 0 0
-14.989897 0.307136 0.287772 14.995804 -0.020487 1.551605 0.001837 -0.001234 -154160.000000 1 0 0
6.860103 -0.575064 3.936272 7.930067 -0.083632 1.051380 0.002141 -0.002429 233209.000000 1 0 0
-4.202097 -5.007964 5.201772 8.354385 0.872675 0.898685 -0.001737 -0.000406 474000.000000 1 0 0
2.990203 5.138736 6.902072 9.109694 1.043796 0.711072 -0.005785 -0.000451 417448.000000 1 0 0
2.038703 -7.141764 1.749772 7.630387 -1.292730 1.339421 -0.003068 0.001082 3333730.000000 1 0 0
-2.461297 6.391736 -1.686328 7.053791 -1.203222 1.812201 -0.002962 -0.000889 638188.000000 1 0 0
2.612903 -3.837564 -6.563328 8.039368 -0.973021 2.525943 -0.002021 -0.005395 -50683.200000 1 0 0
-5.163497 0.997536 -12.157328 13.246033 -0.190839 2.733322 0.000169 0.000767 387917.000000 1 0 0
-7.558997 6.523236 -11.817128 15.470473 -0.711979 2.440055 -0.006213 0.001954 1789750.000000 1 0 0
-1.137497 11.273436 -9.026428 14.486568 -1.470236 2.243483 0.005860 0.000781 918517.000000 1 0 0
4.650703 5.885036 -0.620328 7.526453 0.902023 1.653310 -0.002284 0.000449 2319560.000000 1 0 0
-2.655297 13.470636 3.605672 14.195404 -1.376174 1.313980 -0.007959 0.007498 448074.000000 1 0 0
1.482903 -7.935164 10.103172 12.932128 -1.386050 0.674137 -0.005089 -0.000067 -1708070.000000 1 0 0
12.966803 -0.284564 -1.188128 13.024232 -0.021942 1.662148 0.005530 0.003208 -563520.000000 1 0 0
-1.080897 3.219736 -5.423628 6.399279 -1.246909 2.582124 0.001780 -0.005794 -41204.300000 1 0 0
6.640103 1.100836 7.277172 9.912621 0.164292 0.746409 0.000841 -0.004575 653816.000000 1 0 0
5.462303 -6.148664 6.770272 10.652672 -0.844443 0.882080 0.000153 -0.002688 1240150.000000 1 0 0
12.249903 -4.916764 2.457972 13.426702 -0.381688 1.386692 -0.000347 0.000477 906741.000000 1 0 0
4.489203 -9.195464 13.830672 17.204564 -1.116635 0.636980 -0.014792 0.007480 873118.000000 1 0 0
-2.735597 -4.193464 -1.417828 5.203736 0.992772 1.846749 -0.000821 -0.000386 1382890.000000 1 0 0
-9.279597 -5.204364 -7.434728 12.979657 0.511127 2.180712 0.009072 -0.001194 1235200.000000 1 0 0
-10.575697 -3.151964 7.930772 13.589606 0.289656 0.947652 0.003836 -0.002678 -213729.000000 1 0 0
12.105203 -0.539564 1.535272 12.214096 -0.044543 1.444766 -0.000837 -0.003115 670332.000000 1 0 0
-7.484697 4.649036 4.494772 9.891269 -0.555818 1.099077 -0.000233 -0.003826 2806060.000000 1 0 0
-1.055497 10.540436 6.974172 12.682821 -1.470991 0.988562 -0.005306 0.007525 2392620.000000 1 0 0
7.282603 -10.010864 1.812672 12.511574 -0.941871 1.425405 -0.001951 -0.003604 1364400.000000 1 0 0
-4.355897 -1.705964 1.734372 4.989208 0.373283 1.215760 -0.002860 -0.001170 305662.000000 1 0 0
6.608203 -14.977664 -0.991528 16.400668 -1.155281 1.631290 0.006610 -0.000564 -2223870.000000 1 0 0
-10.468097 1.701936 2.422772 10.878762 -0.161173 1.346206 -0.003101 -0.001371 -344622.000000 1 0 0
-3.051797 8.472636 -11.367028 14.502012 -1.225069 2.471597 0.000752 0.003131 -794537.000000 1 0 0
-1.430797 -5.186264 -6.808728 8.677747 1.301610 2.472878 -0.005241 -0.001710 511851.000000 1 0 0
12.872303 -0.583364 6.410972 14.392257 -0.045288 1.109124 0.000488 -0.004786 1663550.000000 1 0 0
5.913503 -13.362564 3.612872 15.052591 -1.154161 1.328413 -0.002346 -0.003317 1394370.000000 1 0 0
-5.621897 3.509236 -4.949628 8.271594 -0.558030 2.212285 -0.000324 -0.001674 3063300.000000 1 0 0
-4.357297 8.110936 3.445372 9.830763 -1.077824 1.212725 -0.006033 0.002706 210497.000000 1 0 0
13.730903 6.120736 -4.111628 15.585461 0.419325 1.837768 -0.001560 0.006276 -632022.000000 1 0 0
-6.684097 -8.457664 5.291272 12.008613 0.901998 1.114504 0.008563 -0.002403 38660.400000 1 0 0
1.665403 11.354436 2.726972 11.795472 1.425161 1.337498 -0.002666 -0.000677 1642730.000000 1 0 0
-7.295297 7.227736 6.056572 11.922398 -0.780746 1.037936 -0.002889 -0.001250 -1047840.000000 1 0 0
-17.352997 -3.971664 5.264672 18.563873 0.224999 1.283253 0.011627 -0.006484 -315943.000000 1 0 0
7.355903 -12.995564 -8.604728 17.234713 -1.055728 2.093549 0.005034 -0.000007 -1132330.000000 1 0 0
-2.306197 12.861236 -2.738228 13.350199 -1.393368 1.777370 -0.004144 0.002561 1196510.000000 1 0 0
-5.552897 13.967036 -5.702828 16.075913 -1.192385 1.933436 0.007659 -0.000196 1846660.000000 1 0 0
-5.572997 2.451336 7.437772 9.611857 -0.414389 0.685959 0.001394 -0.003083 1844140.000000 1 0 0
-7.367497 5.095036 1.561372 9.092705 -0.605036 1.398224 0.001706 -0.002361 2515270.000000 1 0 0
10.712903 -5.733264 -5.142928 13.194178 -0.491389 1.971197 0.010584 -0.004143 2977380.000000 1 0 0
-9.462497 -0.756764 6.931772 11.754191 0.079805 0.940075 -0.000835 -0.003139 -35019.500000 1 0 0
-11.281797 -4.515464 -2.400328 12.386683 0.380716 1.765813 0.006446 -0.002777 2353280.000000 1 0 0
6.540203 -4.240064 13.513572 15.600290 -0.575185 0.523172 -0.003768 -0.003798 60654.100000 1 0 0
0.192803 10.353636 -11.578228 15.533522 1.552177 2.411887 0.004423 0.001018 667228.000000 1 0 0
-11.767097 -3.197764 1.457172 12.280619 0.265347 1.451860 0.002872 -0.002666 1854260.000000 1 0 0
5.316303 5.892636 5.470372 9.639046 0.836770 0.967303 -0.002164 -0.001070 -3675470.000000 1 0 0
-7.104497 0.032236 8.157772 10.817771 -0.004537 0.716501 -0.000271 -0.002927 852910.000000 1 0 0
1.841603 2.056236 9.597472 9.986545 0.840407 0.280055 0.001536 -0.001909 1340190.000000 1 0 0
10.484903 -4.863664 -2.183028 11.762399 -0.434331 1.757472 0.004933 -0.003081 1941930.000000 1 0 0
-9.617197 -2.286164 -1.548728 10.005777 0.233385 1.726204 0.004135 -0.002552 -671081.000000 1 0 0
-2.087297 -5.268064 -9.884828 11.393820 1.193555 2.621072 0.001125 -0.002652 1237230.000000 1 0 0
7.742203 -1.579764 6.543772 10.259548 -0.201283 0.879128 0.004096 -0.005154 1550300.000000 1 0 0
1.474003 -11.851464 -2.665428 12.236601 -1.447059 1.790381 -0.003675 0.000004 -4221910.000000 1 0 0
-0.716597 -1.402364 4.821572 5.072248 1.098394 0.315701 0.001974 -0.002737 2761070.000000 1 0 0
7.668403 1.501636 9.900372 12.612561 0.193374 0.668163 -0.000568 -0.004789 -224415.000000 1 0 0
-3.934797 10.782336 -7.869728 13.916681 -1.220883 2.171822 0.006552 0.001174 3123130.000000 1 0 0
-9.469997 12.757936 6.474972 17.157244 -0.932253 1.183820 -0.002433 0.003161 1202440.000000 1 0 0
-2.681497 -2.565264 -11.060428 11.666365 0.763249 2.817881 0.003482 -0.003373 -1376540.000000 1 0 0
1.331503 -11.907964 11.053472 16.301894 -1.459443 0.825692 -0.005620 -0.000540 2064600.000000 1 0 0
1.380603 3.472436 -1.986828 4.232182 1.192370 2.059472 -0.003565 -0.001221 2243670.000000 1 0 0
-2.042697 -9.391064 -12.107328 15.458075 1.356618 2.470651 0.001190 0.000567 2509680.000000 1 0 0
1.333003 -2.667864 1.514472 3.344850 -1.107427 1.100919 0.004947 -0.001234 3498910.000000 1 0 0
-1.143397 -2.231964 -6.584428 7.045829 1.097371 2.777688 -0.003275 -0.004643 -156783.000000 1 0 0
1.838303 5.855536 4.068172 7.363198 1.266598 0.985435 -0.007361 0.000963 -504345.000000 1 0 0
-10.849697 8.588136 3.705172 14.324814 -0.669571 1.309168 -0.003821 -0.003219 2039410.000000 1 0 0
-16.373397 -1.486464 4.023972 16.926017 0.090537 1.330759 0.005519 -0.000121 604348.000000 1 0 0
-12.181597 0.275136 6.907172 14.006285 -0.022582 1.055092 -0.002377 -0.003477 2435.450000 1 0 0
-5.010997 3.001436 4.707972 7.502247 -0.539662 0.892405 -0.000482 -0.002620 2356420.000000 1 0 0
5.287803 -6.101064 3.865272 8.951211 -0.856686 1.124292 -0.004222 -0.002741 1592270.000000 1 0 0
10.010503 3.326536 6.263572 12.268185 0.320824 1.034967 -0.001681 -0.001480 623403.000000 1 0 0
-12.108497 5.840036 3.316472 13.846324 -0.449395 1.328925 -0.001559 -0.002495 1504760.000000 1 0 0
-4.900897 12.280136 -1.243628 13.280329 -1.191073 1.664578 -0.010295 0.004590 2280890.000000 1 0 0
-1.593497 -12.163864 10.336172 16.041673 1.440536 0.870646 0.002650 -0.003689 950050.000000 1 0 0
5.330503 6.277136 13.869972 16.130494 0.866771 0.535800 0.002452 -0.008483 255490.000000 1 0 0
12.883003 -3.681364 -6.057928 14.704513 -0.278336 1.995419 0.009757 -0.003731 1370110.000000 1 0 0
3.586603 -2.563464 6.432272 7.798025 -0.620546 0.600843 0.000360 -0.001378 1094960.000000 1 0 0
7.114903 -11.860664 -0.775328 13.852738 -1.030470 1.626795 0.000400 -0.000058 -1512640.000000 1 0 0
-6.007097 -6.516164 -3.947528 9.701988 0.826026 1.989830 0.004105 -0.001959 23905.600000 1 0 0
0.359103 -8.883364 5.109172 10.254109 -1.530394 1.049210 -0.003636 0.000227 1682650.000000 1 0 0
-10.232397 2.589736 -0.320428 10.559893 -0.247886 1.601145 0.001475 0.000608 317170.000000 1 0 0
-1.788797 8.975336 -0.421828 9.161571 -1.374073 1.616856 -0.002771 -0.000604 -1123290.000000 1 0 0
-3.529997 2.374936 -6.705328 7.941197 -0.592228 2.576189 0.003307 -0.005774 891138.000000 1 0 0
-12.616397 3.072536 6.569072 14.552204 -0.238885 1.102447 -0.003780 -0.003587 -1051990.000000 1 0 0
11.505003 1.511436 7.886272 14.030069 0.130624 0.973876 -0.001545 -0.004440 -3502180.000000 1 0 0
5.926803 2.610236 -3.203928 7.225336 0.414852 2.030218 -0.005236 0.001624 830560.000000 1 0 0
10.533103 -2.454364 6.341372 12.537271 -0.228929 1.040485 0.002148 -0.007061 2876340.000000 1 0 0
-0.922497 11.055036 4.127072 11.836281 -1.487543 1.214634 -0.004739 0.004224 954539.000000 1 0 0
-1.519797 -12.250364 7.456472 14.421518 1.447366 1.027409 -0.002078 0.000008 300306.000000 1 0 0
7.954803 8.672636 -7.878828 14.162254 0.828543 2.160754 -0.002391 -0.003134 801872.000000 1 0 0
-4.801097 -5.959164 -8.706228 11.591401 0.892610 2.420513 0.001908 -0.002037 -10750.300000 1 0 0
-8.477597 -5.317764 -11.571728 15.298795 0.560232 2.428560 0.001994 0.004345 2089800.000000 1 0 0
6.003503 -0.612464 -9.996028 11.676375 -0.101666 2.598452 -0.005238 0.001098 -1265120.000000 1 0 0
-11.148497 -5.371064 -5.298928 13.461647 0.448961 1.975375 0.007358 -0.006456 -508744.000000 1 0 0
3.896403 8.842936 -2.757928 10.049161 1.155767 1.848807 -0.000887 -0.002234 546177.000000 1 0 0
11.547603 -10.456964 -4.064628 16.100200 -0.735874 1.826016 0.018007 -0.005198 -138742.000000 1 0 0
3.936303 -11.315664 3.862372 12.587957 -1.236026 1.258935 -0.005407 -0.003111 2292560.000000 1 0 0
-1.026697 0.929336 3.130972 3.423559 -0.735665 0.416434 0.001154 -0.001551 -1363970.000000 1 0 0
-10.557497 -5.097864 4.607572 12.596772 0.449847 1.196332 0.005643 -0.004574 1208840.000000 1 0 0
4.486003 -8.684964 2.692672 10.139197 -1.094016 1.302001 -0.007270 -0.000829 4574610.000000 1 0 0
-3.686597 -5.688564 2.692472 7.293844 0.995778 1.192709 0.000119 0.001443 1789000.000000 1 0 0
10.139503 4.915636 12.267372 16.657173 0.451414 0.742971 0.003223 -0.005772 284728.000000 1 0 0
1.559603 -12.332564 -5.376328 13.543611 -1.445002 1.979003 -0.003942 -0.000353 1576180.000000 1 0 0
9.677103 -10.741464 -1.859228 14.576766 -0.837478 1.698692 0.004831 -0.004928 485406.000000 1 0 0
9.529503 -4.459664 -9.233728 13.998634 -0.437709 2.291104 0.009759 -0.004390 2488380.000000 1 0 0
-7.509097 -2.959964 -13.102828 15.389347 0.375482 2.589487 -0.000324 0.005464 1428810.000000 1 0 0
0.404403 6.251836 -2.494628 6.743305 1.506201 1.949742 -0.002551 -0.002775 2676800.000000 1 0 0
-5.931597 -9.519964 1.037872 11.264579 1.013587 1.478530 0.004463 -0.000433 1030080.000000 1 0 0
-8.938797 -4.047064 0.672372 9.835288 0.425141 1.502380 -0.002303 -0.002482 4871380.000000 1 0 0
2.025103 3.774336 12.089072 12.825456 1.078341 0.340511 -0.000375 -0.003835 625346.000000 1 0 0
6.707103 4.240836 9.619572 12.470208 0.563825 0.689751 -0.001441 -0.003329 2824790.000000 1 0 0
-8.301797 9.907736 -3.573028 13.410801 -0.873363 1.840483 -0.003328 -0.002173 1609230.000000 1 0 0
16.314303 2.242636 -6.187028 17.591624 0.136608 1.930186 -0.001320 0.009682 -8535.900000 1 0 0
-10.977397 2.689936 -5.058628 12.382597 -0.240308 1.991636 -0.000103 0.001274 1006750.000000 1 0 0
-13.676197 4.061036 1.647872 14.361262 -0.288649 1.455799 -0.002029 0.001614 -1368130.000000 1 0 0
-17.214397 10.589136 3.278572 20.474723 -0.551472 1.409976 -0.002566 -0.000259 -1187170.000000 1 0 0
-14.327797 2.952636 -1.019928 14.664381 -0.203232 1.640404 0.001438 0.000493 -24039.200000 1 0 0
-14.282197 5.111336 5.252772 16.052991 -0.343679 1.237442 -0.009740 -0.001984 116358.000000 1 0 0
-17.337797 7.656036 3.174472 19.216955 -0.415830 1.404844 -0.007678 0.002772 -2470620.000000 1 0 0
-14.945997 12.784936 -3.344428 19.950504 -0.707626 1.739228 0.026087 -0.011558 -202991.000000 1 0 0
-8.522797 12.653736 -9.538928 17.992950 -0.978050 2.129572 -0.005160 -0.008559 2250690.000000 1 0 0
-12.456397 8.856036 -9.815128 18.163918 -0.618046 2.141666 -0.007238 0.000579 -1431370.000000 1 0 0
-13.747797 -3.567764 -12.222928 18.738485 0.253914 2.281398 -0.016990 0.009136 -1728690.000000 1 0 0
-14.678797 5.728836 -7.620828 17.503247 -0.372099 2.021273 -0.001358 0.008209 -956237.000000 1 0 0
-10.942697 13.582836 -8.232028 19.287362 -0.892634 2.011758 0.003054 -0.017725 1958120.000000 1 0 0
-10.830597 13.584036 3.969772 17.820969 -0.897702 1.346153 -0.001341 -0.001540 193894.000000 1 0 0
-15.130297 3.342736 3.181772 15.818452 -0.217437 1.368272 -0.003787 0.001615 -291128.000000 1 0 0
-11.145397 9.457336 -12.392128 19.163139 -0.703647 2.274000 -0.010025 -0.001904 1161620.000000 1 0 0
-13.158097 11.558636 -8.974528 19.679424 -0.720777 2.044332 0.005678 -0.020532 1316470.000000 1 0 0
-8.894997 14.632136 -3.392528 17.456506 -1.024582 1.766383 0.000991 -0.010092 1496490.000000 1 0 0
-16.650197 8.271636 -4.173428 19.054304 -0.461076 1.791615 0.010844 0.002550 -1213930.000000 1 0 0
-16.940897 6.785436 0.354572 18.252721 -0.380968 1.551369 0.000051 0.004898 -1527240.000000 1 0 0
-10.555397 2.847236 -12.577128 16.664552 -0.263472 2.426029 -0.004966 0.002486 1245400.000000 1 0 0
-16.917897 1.028736 2.455172 17.126044 -0.060733 1.426942 0.000736 -0.002473 856992.000000 1 0 0
-12.713597 1.245036 -6.963628 14.549150 -0.097618 2.069888 0.003221 -0.002024 2651300.000000 1 0 0
-12.423397 9.099336 -5.278028 16.278706 -0.632165 1.900993 0.002229 -0.001215 -1339240.000000 1 0 0
-9.473097 13.878136 1.314772 16.854401 -0.971850 1.492709 0.005191 -0.008203 -404683.000000 1 0 0
-12.092897 11.102436 2.736272 16.642999 -0.742723 1.405637 0.000733 -0.003971 1209480.000000 1 0 0
-12.582697 6.863136 -3.557628 14.767654 -0.499337 1.814096 0.002354 0.001717 970305.000000 1 0 0
-15.825197 3.620536 -9.294028 18.706258 -0.224912 2.090751 0.004751 0.001076 -1040740.000000 1 0 0
-15.117697 5.783936 -4.670228 16.846652 -0.365412 1.851696 0.006045 0.005390 2704800.000000 1 0 0
-17.705297 5.340336 7.684172 20.026063 -0.292946 1.176987 -0.010534 0.003420 -1335910.000000 1 0 0
-15.904297 10.188436 -2.131828 19.007776 -0.569745 1.683188 0.016405 -0.003769 -1223640.000000 1 0 0
-8.962697 10.062236 -8.320228 15.836815 -0.843129 2.123949 -0.000076 -0.003289 458344.000000 1 0 0
-16.941497 4.267236 -1.143028 17.508002 -0.246748 1.636129 -0.007810 0.002506 -422378.000000 1 0 0
-10.214397 5.461936 -4.513228 12.431245 -0.491043 1.942341 -0.002159 0.001231 570913.000000 1 0 0
-17.921497 2.801336 6.275072 19.193855 -0.155057 1.237742 -0.009446 0.001262 -1640270.000000 1 0 0
-10.452197 10.174436 -5.687728 15.656238 -0.771933 1.942591 -0.001150 -0.003662 1427540.000000 1 0 0
-15.434797 0.493336 -5.813528 16.500710 -0.031952 1.930845 0.006712 -0.002725 274372.000000 1 0 0
-16.349297 -4.099364 -8.741828 18.987465 0.245672 2.049242 -0.005860 -0.010665 -1285530.000000 1 0 0
-9.932397 9.642136 -1.109428 13.887192 -0.770571 1.650770 -0.000526 -0.002005 1039080.000000 1 0 0
-17.390297 -3.012664 -3.221328 17.940889 0.171536 1.751328 -0.005227 0.000094 407210.000000 1 0 0
-11.952697 5.116136 -11.534828 17.380853 -0.404436 2.296486 -0.006175 0.004496 -307589.000000 1 0 0
-16.272697 7.108036 5.965772 18.732732 -0.411829 1.246684 -0.003935 0.000741 125901.000000 1 0 0
-12.078497 6.048636 -8.754528 16.097137 -0.464269 2.145822 -0.001257 0.000935 717549.000000 1 0 0
-14.563197 8.439436 -0.114028 16.832224 -0.525213 1.577571 0.005294 -0.002588 274443.000000 1 0 0
-14.693197 11.802036 3.962272 19.258185 -0.676708 1.363572 -0.012961 -0.005731 453569.000000 1 0 0
-17.345897 4.124736 -3.968928 18.265978 -0.233457 1.789829 0.006897 0.000660 -1879400.000000 1 0 0
-13.654897 13.362736 -0.802528 19.122316 -0.774585 1.612777 0.012563 -0.018218 -1527640.000000 1 0 0
-10.111697 6.848736 -13.124928 17.928059 -0.595334 2.392179 -0.017367 0.002693 1163890.000000 1 0 0
-15.925597 -1.111864 -8.278328 17.983091 0.069703 2.049174 0.009059 -0.007285 -3951.510000 1 0 0
-11.237497 11.958636 -0.100728 16.410376 -0.816477 1.576934 0.004411 -0.006885 505228.000000 1 0 0
-11.997297 7.504736 -0.885328 14.178857 -0.558984 1.633277 -0.000947 0.001630 1898240.000000 1 0 0
-11.512797 0.150136 -11.665728 16.390736 -0.013040 2.362750 -0.005329 0.000748 -463790.000000 1 0 0
-19.085397 -1.322464 -4.802028 19.724623 0.069181 1.816721 -0.016851 -0.001656 -317679.000000 1 0 0
-18.037797 1.451836 -4.938628 18.757931 -0.080315 1.837219 -0.007109 -0.002778 549450.000000 1 0 0
-13.344197 -0.090764 -9.486428 16.372786 0.006802 2.188791 0.003712 -0.004137 -672119.000000 1 0 0
-6.156797 11.390936 -13.170728 18.469641 -1.075276 2.364709 -0.017783 0.009333 551708.000000 1 0 0
16.433903 5.787336 6.937672 18.753606 0.338596 1.191854 0.013031 -0.003562 -94056.800000 1 0 0
14.676503 10.022836 -5.705128 18.665623 0.599169 1.881416 0.007317 -0.001801 -954713.000000 1 0 0
2.587703 16.828536 4.378772 17.580372 1.418223 1.319075 0.004443 -0.006176 2170220.000000 1 0 0
-3.780097 18.363436 -5.863128 19.643858 -1.367783 1.873887 -0.000453 -0.008510 722088.000000 1 0 0
5.561303 14.483536 5.655872 16.513322 1.204181 1.221216 -0.000977 0.000388 499078.000000 1 0 0
10.024703 5.924536 15.026872 19.010568 0.533771 0.659256 0.007012 -0.004658 -1717520.000000 1 0 0
4.664303 12.682436 -1.069828 13.555236 1.218373 1.649802 0.000736 -0.006630 1629220.000000 1 0 0
3.775703 13.427236 13.026272 19.084820 1.296678 0.819555 -0.004788 -0.002030 -1375420.000000 1 0 0
-0.725797 12.398136 9.189872 15.449735 -1.512322 0.933750 -0.001720 0.006884 395888.000000 1 0 0
-7.670997 13.989336 8.471172 18.063955 -1.069224 1.082690 0.002176 -0.003261 1113120.000000 1 0 0
11.249203 12.834736 -4.260728 17.590589 0.851137 1.815446 0.003703 0.005407 -736780.000000 1 0 0
-5.738997 16.175136 0.919772 17.187701 -1.229849 1.517257 -0.012788 0.004178 94317.700000 1 0 0
3.290503 10.557936 6.819972 12.992669 1.268675 1.018188 -0.008837 0.007996 1216660.000000 1 0 0
-1.143597 15.597936 2.470872 15.833781 -1.497610 1.414105 -0.002821 -0.001651 -828519.000000 1 0 0
9.881303 8.698236 9.564472 16.272019 0.721808 0.942476 -0.007026 -0.002126 769416.000000 1 0 0
7.318703 12.159036 6.258272 15.510369 1.028970 1.155469 -0.002834 -0.001005 -334690.000000 1 0 0
11.843603 13.974136 -1.597528 18.387482 0.867734 1.657787 0.001307 0.006597 -943884.000000 1 0 0
9.681503 15.915836 -1.187228 18.666945 1.024301 1.634440 0.002112 0.004926 146970.000000 1 0 0
10.202603 13.582636 3.023872 17.254707 0.926559 1.394638 0.001033 0.002726 2775690.000000 1 0 0
-5.896097 14.571236 6.353172 16.954282 -1.186297 1.186698 -0.009958 -0.002014 -545087.000000 1 0 0
-0.817197 18.338036 -6.184128 19.369946 -1.526263 1.895749 0.022518 -0.004041 1424810.000000 1 0 0
-3.366597 15.714836 5.576572 17.011414 -1.359756 1.236808 -0.010654 0.001338 2912420.000000 1 0 0
7.038003 12.194636 10.611272 17.630704 1.047356 0.924964 -0.010659 -0.000445 2838620.000000 1 0 0
1.668503 14.584036 6.286672 15.968727 1.456885 1.166158 -0.001891 0.003788 752284.000000 1 0 0
17.346103 7.663336 -1.676428 19.037448 0.416006 1.658970 -0.009009 0.016985 962118.000000 1 0 0
2.143503 16.119736 -3.323628 16.597801 1.438598 1.772404 -0.005114 -0.001545 579887.000000 1 0 0
6.779003 11.100936 0.583772 13.020232 1.022568 1.525946 0.004629 -0.004283 1577520.000000 1 0 0
12.710503 9.236736 3.168472 16.028518 0.628422 1.371809 0.000082 0.005289 -2123900.000000 1 0 0
5.935303 14.308436 -3.378028 15.854660 1.177587 1.785504 -0.006341 0.000434 -244578.000000 1 0 0
3.177803 16.365436 1.506572 16.739047 1.379005 1.480671 0.002271 -0.013313 -1788360.000000 1 0 0
2.978603 18.799436 -2.482628 19.195164 1.413661 1.700496 0.008020 -0.014352 -1388580.000000 1 0 0
4.002203 11.836236 10.660872 16.424625 1.244734 0.864424 -0.008960 -0.000557 639157.000000 1 0 0
8.081603 11.461236 3.374072 14.424167 0.956639 1.334691 -0.001844 -0.000221 409303.000000 1 0 0
0.716203 12.427336 0.187272 12.449365 1.513229 1.555753 0.001667 -0.002694 -1921310.000000 1 0 0
11.851803 9.877036 -4.701328 16.128347 0.694765 1.866585 0.003529 0.003412 1344820.000000 1 0 0
-1.131197 16.529736 9.999172 19.351879 -1.502469 1.027801 0.001875 0.006967 -273007.000000 1 0 0
8.231903 14.675236 -8.088128 18.669349 1.059594 2.018870 0.010101 -0.003368 440239.000000 1 0 0
14.362403 7.534736 -1.509428 16.288930 0.483145 1.663595 0.000348 0.006640 364841.000000 1 0 0
12.536103 8.284436 5.989572 16.175931 0.583962 1.191489 -0.003458 0.001972 -768709.000000 1 0 0
-2.987397 14.295236 10.204972 17.816278 -1.364783 0.960892 0.006003 0.002567 1762580.000000 1 0 0
-4.537997 17.210436 -3.110028 18.068337 -1.312987 1.743784 -0.001709 -0.007234 -1227720.000000 1 0 0
-6.982397 16.422336 -1.772928 17.932938 -1.168776 1.669822 -0.006084 -0.005364 77577.500000 1 0 0
8.293403 11.220636 -1.916128 14.083847 0.934294 1.707271 -0.000414 -0.001183 -2453010.000000 1 0 0
8.430803 12.923436 -4.169228 15.983620 0.992760 1.834692 0.001269 -0.000275 2261370.000000 1 0 0
2.553503 14.814936 -7.369028 16.742320 1.400113 2.026555 -0.001945 -0.000822 17368.300000 1 0 0
11.339303 11.213436 9.927672 18.785090 0.779817 1.013979 0.001191 -0.002569 1150980.000000 1 0 0
8.663703 15.573636 1.527072 17.886583 1.063125 1.485317 0.003504 -0.001365 714138.000000 1 0 0
6.072503 9.847236 7.760772 13.931006 1.018209 0.979923 -0.001379 0.003994 3154110.000000 1 0 0
14.476203 11.371236 2.560872 18.585573 0.665844 1.432568 0.006301 0.012857 1898860.000000 1 0 0
12.180203 12.612236 1.031672 17.563889 0.802822 1.512024 0.004494 0.011636 2938860.000000 1 0 0
5.343803 15.952236 8.157672 18.696997 1.247558 1.119304 -0.000458 0.008246 -1810500.000000 1 0 0
11.601003 14.870036 5.088272 19.534374 0.908271 1.307279 0.004623 -0.000305 1509690.000000 1 0 0
6.033703 16.638436 1.723772 17.782421 1.222909 1.473707 0.002911 -0.014296 376437.000000 1 0 0
-0.657497 16.211736 -4.231728 16.767832 -1.530262 1.825927 0.006822 -0.002767 2133180.000000 1 0 0
16.087403 6.412036 2.439972 17.489203 0.379277 1.430827 -0.001265 0.006294 199230.000000 1 0 0
7.615403 16.649836 -3.107628 18.570642 1.141817 1.738928 -0.006063 0.002985 -915792.000000 1 0 0
14.882503 8.038336 7.443272 18.479882 0.495226 1.156247 0.009846 -0.006656 -93916.300000 1 0 0
2.172003 12.919636 8.625372 15.685396 1.404237 0.988554 -0.005591 0.006320 2386320.000000 1 0 0
15.758203 7.251136 -5.963628 18.342977 0.431262 1.901933 -0.003098 0.008406 -1511220.000000 1 0 0
-2.915197 17.074736 0.747272 17.337918 -1.401695 1.527683 -0.005941 -0.001187 2876140.000000 1 0 0
-2.717797 18.622536 4.717372 19.402032 -1.425878 1.325197 -0.011231 0.002614 -310144.000000 1 0 0
-0.768797 19.037236 0.931572 19.075514 -1.530434 1.521941 -0.008760 -0.005078 735594.000000 1 0 0
7.051303 16.631036 -6.070328 19.056786 1.169786 1.894984 -0.005255 -0.002958 -16915.300000 1 0 0
11.036203 10.021436 0.782272 14.927790 0.737245 1.518369 0.001072 0.004554 -1439110.000000 1 0 0
9.245703 8.579836 14.195972 18.990056 0.748061 0.726434 0.010259 -0.015159 261922.000000 1 0 0
6.339303 12.422736 -8.379528 16.270452 1.098944 2.111822 0.003991 -0.006653 133510.000000 1 0 0
6.404403 8.889836 13.295572 17.228401 0.946498 0.689249 0.001823 -0.011791 2170850.000000 1 0 0
16.686603 9.372936 2.803272 19.343035 0.511785 1.425360 0.003629 0.005895 -2855760.000000 1 0 0
2.573303 14.629936 -0.742728 14.873082 1.396684 1.620755 -0.000743 -0.006403 -746210.000000 1 0 0
9.127003 12.828536 8.445472 17.866156 0.952420 1.078435 0.000101 -0.000974 573633.000000 1 0 0
7.263203 9.253236 10.531572 15.788936 0.905308 0.840591 -0.004871 -0.004982 -265656.000000 1 0 0
4.348603 15.759636 -5.345928 17.200448 1.301563 1.886833 -0.006579 -0.000148 1195120.000000 1 0 0
0.261903 16.394436 -8.153228 18.311779 1.554823 2.032244 0.010694 -0.002026 -360017.000000 1 0 0
-2.330797 15.764436 -1.968728 16.056959 -1.424008 1.693715 -0.004876 0.000191 -481842.000000 1 0 0
13.261803 10.350736 7.806872 18.546170 0.662732 1.136312 0.004003 -0.005175 2945750.000000 1 0 0
-0.798797 15.965036 7.154472 17.513050 -1.520804 1.149962 0.000787 0.001451 1588290.000000 1 0 0
13.254503 13.245436 6.941072 19.982540 0.785056 1.216045 0.005961 -0.000111 -1195900.000000 1 0 0
5.532903 17.259236 4.496972 18.673966 1.260571 1.327591 0.007722 -0.010390 -628472.000000 1 0 0
10.677503 9.523836 -1.900528 14.433452 0.728352 1.702855 0.000286 0.006234 -380447.000000 1 0 0
3.277703 12.662836 4.746472 13.914731 1.317511 1.222697 -0.003352 0.001859 1313740.000000 1 0 0
-0.019197 17.987436 3.576972 18.339655 -1.569729 1.374498 -0.002267 -0.006081 3974000.000000 1 0 0
-7.739997 15.986936 -5.773628 18.676842 -1.119913 1.885078 0.008194 -0.014416 18489.700000 1 0 0
-12.329797 -9.097964 8.353072 17.451953 0.635702 1.071700 0.015576 -0.011542 -1454020.000000 1 0 0
-13.177197 -11.605564 6.918972 18.873256 0.722067 1.195442 0.011049 -0.009565 -1646070.000000 1 0 0
-6.382797 -12.408764 12.250872 18.568829 1.095713 0.850304 0.022030 -0.007867 -422952.000000 1 0 0
-1.641997 -10.755464 14.441372 18.081189 1.419300 0.645671 0.000561 -0.002325 1074360.000000 1 0 0
-8.830197 2.847836 11.003472 14.393017 -0.311979 0.700530 0.008474 -0.002478 754080.000000 1 0 0
0.696403 10.047336 15.225772 18.255357 1.501595 0.584399 0.005397 -0.004087 -581639.000000 1 0 0
1.155403 -6.800464 16.630372 18.004182 -1.402503 0.393181 -0.010343 0.000890 406327.000000 1 0 0
6.247703 2.265236 17.719672 18.924901 0.347830 0.358810 0.010299 -0.009476 -496082.000000 1 0 0
-4.852997 -3.014364 17.643972 18.545828 0.555815 0.313138 0.014528 -0.004539 -266946.000000 1 0 0
-4.196897 8.122236 13.145472 16.012123 -1.093865 0.607689 -0.006103 0.004679 818790.000000 1 0 0
0.260203 -4.896764 18.670972 19.304176 -1.517708 0.256836 -0.003172 -0.005372 -799622.000000 1 0 0
-11.658397 2.113236 11.317972 16.385374 -0.179316 0.808290 0.006598 -0.003293 753287.000000 1 0 0
-3.253697 -6.232364 14.403572 16.027845 1.089653 0.454093 0.009309 -0.003478 1233190.000000 1 0 0
-7.407497 -2.299964 14.711572 16.631031 0.301054 0.485191 0.015861 -0.003309 2528520.000000 1 0 0
-6.041197 -1.115064 10.643772 12.289398 0.182522 0.523462 0.005336 -0.001990 1091990.000000 1 0 0
-3.940797 2.437436 11.258872 12.175105 -0.553921 0.390430 0.001716 0.001778 2097540.000000 1 0 0
-6.386597 6.228436 13.725872 16.370144 -0.772861 0.576327 0.004206 0.000203 304985.000000 1 0 0
-8.838997 5.421736 12.662572 16.366546 -0.550206 0.686157 0.004036 -0.005787 425948.000000 1 0 0
-12.134097 -2.249464 15.835072 20.076003 0.183303 0.662013 0.008507 -0.000673 1238410.000000 1 0 0
-3.335097 -7.738664 17.011972 18.984652 1.163884 0.459914 0.011264 -0.007514 13062.800000 1 0 0
-0.363797 -5.410364 14.411372 15.397793 1.503657 0.359885 0.000365 0.002956 1303180.000000 1 0 0
-14.226697 -2.405664 13.778272 19.950612 0.167511 0.808452 0.003039 -0.001699 1026600.000000 1 0 0
-6.475197 1.447936 12.165372 13.857163 -0.219994 0.499312 0.010860 -0.001089 854934.000000 1 0 0
2.302703 -2.300064 14.440072 14.802312 -0.784825 0.221686 -0.002667 0.003575 1824150.000000 1 0 0
-12.565997 4.029836 9.307472 16.148464 -0.310332 0.956518 -0.000769 -0.003292 -985980.000000 1 0 0
-9.018297 -2.984064 12.614872 15.791432 0.319550 0.645427 0.007924 -0.002409 2189040.000000 1 0 0
-7.027597 -7.290464 15.356772 18.394794 0.803755 0.582948 0.018971 -0.004843 190352.000000 1 0 0
-3.105597 5.847236 19.754272 20.834255 -1.082562 0.323391 0.026500 -0.003171 -281201.000000 1 0 0
0.824003 5.485236 16.210672 17.133379 1.421689 0.329681 0.010482 -0.004763 146850.000000 1 0 0
3.553803 1.458936 16.810272 17.243644 0.389549 0.224670 0.007248 -0.003984 2513110.000000 1 0 0
-11.497797 11.423436 7.938972 18.047756 -0.782154 1.115324 -0.000922 -0.007185 -615273.000000 1 0 0
0.799303 -9.516464 15.450972 18.164100 -1.487001 0.553609 -0.013937 0.003836 1250400.000000 1 0 0
-2.360697 -3.768164 19.006072 19.519291 1.011130 0.229821 0.010033 -0.008781 631046.000000 1 0 0
-12.932197 2.264436 13.899972 19.120110 -0.173343 0.756880 0.008825 -0.003357 815451.000000 1 0 0
-5.290897 -0.613164 15.912972 16.780711 0.115376 0.322993 0.017701 0.003801 1607660.000000 1 0 0
-4.375897 -5.979964 11.707672 13.855614 0.939072 0.564275 0.004502 -0.001936 -428806.000000 1 0 0
2.536703 1.795036 13.954772 14.296597 0.615825 0.219114 0.001782 -0.002228 -711639.000000 1 0 0
0.209503 3.289036 14.259772 14.635667 1.507185 0.227131 0.007243 -0.002739 -1267350.000000 1 0 0
-12.858497 7.078236 12.272272 19.132460 -0.503205 0.874426 0.004744 -0.008991 32083.700000 1 0 0
1.095203 1.534636 18.330172 18.426877 0.950963 0.102495 0.013162 0.000854 928941.000000 1 0 0
-1.889997 6.414736 12.567372 14.235862 -1.284270 0.489013 -0.002656 0.002843 405192.000000 1 0 0
-13.447697 -2.743864 10.979272 17.575943 0.201277 0.896080 0.008494 -0.003795 348991.000000 1 0 0
-2.464897 3.583236 13.566272 14.246369 -0.968240 0.310235 0.002376 0.002908 415176.000000 1 0 0
3.646203 6.064436 16.263572 17.736290 1.029463 0.410389 0.006392 -0.009921 -73440.200000 1 0 0
-3.623997 12.384336 12.304172 17.829688 -1.286117 0.809177 0.002029 -0.001302 385425.000000 1 0 0
3.808303 -1.490864 16.988972 17.474296 -0.373138 0.236233 0.003007 -0.001251 -316344.000000 1 0 0
-15.809797 0.372736 9.300172 18.346166 -0.023572 1.039180 -0.000804 0.000731 45436.400000 1 0 0
-4.535197 4.562236 15.355272 16.648315 -0.788370 0.396724 0.011794 -0.003315 -152670.000000 1 0 0
-7.915497 -8.194364 10.484272 15.482980 0.802707 0.826916 0.012348 -0.009437 4022900.000000 1 0 0
-2.551197 -0.532064 14.824472 15.051800 0.205608 0.174018 0.010725 0.002538 2325480.000000 1 0 0
-1.659297 0.859736 17.298872 17.399523 -0.478048 0.107613 0.008754 -0.000816 1248190.000000 1 0 0
-0.600197 -2.498264 14.379172 14.606922 1.335019 0.176819 0.002578 0.003962 -28198.700000 1 0 0
5.140703 -8.238464 16.497272 19.143122 -1.012925 0.532017 -0.014982 0.006182 906709.000000 1 0 0
-4.297997 9.923436 10.718072 15.225782 -1.162072 0.789863 -0.006536 0.001126 -1019840.000000 1 0 0
-6.176097 2.114436 15.210872 16.552512 -0.329851 0.405396 0.025658 -0.002073 1783040.000000 1 0 0
-4.708097 6.695236 17.499972 19.319456 -0.957925 0.437482 0.005966 0.003862 -209234.000000 1 0 0
-3.882297 8.952936 15.861372 18.622847 -1.161635 0.551545 0.000886 0.000450 -1758660.000000 1 0 0
-4.429097 -9.978064 18.417872 21.410200 1.153041 0.535060 0.024595 -0.005704 -1307630.000000 1 0 0
-6.717197 -4.095864 11.195172 13.683154 0.547564 0.612572 0.005621 -0.001900 893956.000000 1 0 0
-2.073997 -0.911864 19.647172 19.777369 0.414226 0.114807 0.011001 -0.003922 -2684810.000000 1 0 0
-5.571697 -4.617464 15.298772 16.923865 0.692019 0.441817 0.014251 -0.003829 1784730.000000 1 0 0
-12.931797 -0.000264 9.874972 16.271031 0.000020 0.918636 -0.000764 -0.000038 662786.000000 1 0 0
-14.290697 8.880236 10.537772 19.852638 -0.556006 1.011253 -0.005635 -0.002153 -665894.000000 1 0 0
-8.061897 10.344336 13.003372 18.468545 -0.908772 0.789667 -0.000185 -0.007317 -1630770.000000 1 0 0
-10.329197 7.164536 10.816672 16.583826 -0.606431 0.860258 0.006190 -0.005936 -233872.000000 1 0 0
-9.812997 -6.665164 14.770172 18.944057 0.596642 0.676653 0.018884 -0.006371 -1146160.000000 1 0 0
-0.454397 -13.482164 14.420172 19.746306 1.537106 0.752076 -0.006865 -0.002299 404551.000000 1 0 0
3.877603 -5.654164 16.992272 18.323283 -0.969667 0.383503 -0.008364 0.001245 1158260.000000 1 0 0
-7.115897 9.262036 10.520072 15.719199 -0.915694 0.837597 -0.004664 -0.004026 367462.000000 1 0 0
-10.192997 -6.733164 11.819472 16.998018 0.583768 0.801898 0.009285 -0.010791 862792.000000 1 0 0
-10.866697 -3.986164 10.741372 15.790873 0.351583 0.822725 0.009058 -0.004659 -119887.000000 1 0 0
-10.038497 -10.211464 9.886572 17.400854 0.793940 0.966521 0.022493 -0.013414 939242.000000 1 0 0
-9.831697 -3.766564 15.236472 18.520242 0.365857 0.604664 0.024663 -0.009104 1207330.000000 1 0 0
5.679903 -3.400864 16.057372 17.368546 -0.539503 0.391052 -0.003903 0.001114 -89399.000000 1 0 0
-11.242097 0.475736 15.339872 19.024267 -0.042292 0.632873 0.016078 -0.006948 -687410.000000 1 0 0
-3.021297 2.996336 19.030972 19.500876 -0.781250 0.219972 0.014059 -0.003859 -596470.000000 1 0 0
0.668803 7.365936 13.921472 15.764254 1.480248 0.488359 0.003564 -0.005472 266910.000000 1 0 0
-13.057697 -7.393564 12.288772 19.395416 0.515213 0.884610 0.008575 -0.007894 455786.000000 1 0 0
-1.445997 -1.100964 12.195472 12.330149 0.650750 0.147936 0.003350 0.001865 1648660.000000 1 0 0
2.078203 -4.969764 13.024672 14.094665 -1.174725 0.392161 -0.004250 0.000154 333240.000000 1 0 0
-14.630397 -3.974964 8.719172 17.489220 0.265288 1.048876 0.009664 -0.008431 -351811.000000 1 0 0
8.194503 0.764536 16.131872 18.109989 0.093029 0.471755 -0.001586 -0.007098 -494979.000000 1 0 0
-1.180897 11.345236 13.456872 17.640757 -1.467082 0.703120 -0.000807 0.002903 914450.000000 1 0 0
2.745403 -12.214764 -13.882728 18.694059 -1.349709 2.407782 -0.003779 0.011429 -450652.000000 1 0 0
0.672003 -10.516564 -13.977528 17.504885 -1.506984 2.495584 -0.003663 0.003263 -994464.000000 1 0 0
3.054103 -14.328764 -12.409628 19.199997 -1.360794 2.273568 -0.007001 0.006446 -134225.000000 1 0 0
-5.205397 -10.122464 -16.084828 19.704875 1.095820 2.525750 0.003007 -0.001053 -503972.000000 1 0 0
-1.042597 -12.224364 -15.052228 19.418848 1.485714 2.457725 -0.001092 0.001143 -1036230.000000 1 0 0
5.663103 -14.931264 -12.272128 20.139973 -1.208280 2.226027 -0.009997 0.012378 778814.000000 1 0 0
1.730803 -11.858064 -16.078628 20.053220 -1.425860 2.501094 -0.009918 0.004932 -1042010.000000 1 0 0
1.157103 -14.263864 -14.152728 20.127007 -1.489852 2.350644 0.003276 0.016536 -526211.000000 1 0 0
-1.260797 -10.664964 -15.948928 19.227568 1.453124 2.548977 -0.002415 0.000866 -655678.000000 1 0 0
-6.116997 -5.555664 -15.315428 17.402453 0.737346 2.646812 0.008204 0.009752 632271.000000 1 0 0
-6.480797 -7.614764 -16.668328 19.437554 0.865674 2.601249 0.007861 0.012134 446708.000000 1 0 0
4.895403 -12.614764 -11.563728 17.799355 -1.200617 2.277948 -0.003792 0.009251 243201.000000 1 0 0
-2.029197 -15.469964 -13.223928 20.452621 1.440371 2.273868 0.012804 0.002761 311649.000000 1 0 0
15.970003 -7.369764 -8.669128 19.608881 -0.432356 2.028737 0.016856 0.001575 932147.000000 1 0 0
19.226403 -3.567964 -4.639928 20.097609 -0.183489 1.803768 0.000024 0.008071 1062580.000000 1 0 0
14.847503 -11.692264 -8.806828 20.849883 -0.667066 2.006879 0.025399 -0.002367 226863.000000 1 0 0
17.630603 -3.438764 -6.660228 19.157816 -0.192627 1.925861 0.016421 0.005381 314910.000000 1 0 0
9.581803 -9.213864 -15.509228 20.426512 -0.765825 2.432986 0.020957 -0.006699 36565.900000 1 0 0
1.266103 1.902736 -15.187428 15.358430 0.983663 2.992228 0.010332 -0.000103 156705.000000 1 0 0
4.698703 -4.372764 -14.000528 15.401742 -0.749483 2.711728 -0.002237 0.000284 -242064.000000 1 0 0
12.995403 -5.473164 -8.749228 16.594729 -0.398615 2.126133 0.017366 -0.002806 -807299.000000 1 0 0
2.895203 0.894936 -12.227528 12.597442 0.299793 2.898656 0.000462 -0.002708 -5118340.000000 1 0 0
0.509103 6.451436 -12.994628 14.516906 1.492046 2.679536 0.010116 -0.000585 -200156.000000 1 0 0
2.924703 -1.124764 -16.852428 17.141275 -0.367138 2.957753 0.009959 -0.004583 -99503.300000 1 0 0
12.959003 4.333936 -11.591628 17.918834 0.322741 2.274304 0.000300 -0.007183 637056.000000 1 0 0
-3.967097 9.577336 -16.570328 19.545817 -1.178094 2.582560 -0.010079 0.015788 85463.500000 1 0 0
-0.374397 -5.202464 -17.696328 18.449006 1.498955 2.854963 -0.001379 -0.004525 743078.000000 1 0 0
-0.667897 -8.576764 -17.566528 19.559905 1.493080 2.686200 -0.004942 -0.001857 -1014420.000000 1 0 0
5.563903 -10.069164 -12.209928 16.775799 -1.065983 2.385948 0.003827 0.000906 15326.100000 1 0 0
1.424103 -9.859864 -18.140528 20.695984 -1.427354 2.639389 -0.007994 0.000087 -560988.000000 1 0 0
10.782603 8.764736 -14.442828 20.041966 0.682533 2.375506 0.023685 -0.017310 -1226660.000000 1 0 0
10.838303 -3.711564 -12.990028 17.320085 -0.329932 2.418855 0.014040 -0.006640 253568.000000 1 0 0
4.845203 7.490236 -12.264028 15.165289 0.996625 2.512719 -0.005461 -0.002084 -210838.000000 1 0 0
9.595903 -5.938564 -12.794428 17.060049 -0.554175 2.418804 0.015336 -0.004498 -422986.000000 1 0 0
-3.371097 0.359036 -15.887328 16.245011 -0.106104 2.931358 0.004817 0.001932 -1294620.000000 1 0 0
-0.809797 10.901136 -12.717328 16.769644 -1.496647 2.431581 0.003842 0.003807 -1802600.000000 1 0 0
6.541203 -5.436064 -12.551028 15.161347 -0.693389 2.546026 -0.003944 0.000652 -831986.000000 1 0 0
17.876203 -5.720364 -8.764428 20.714642 -0.309702 2.007664 0.013368 0.002608 -879262.000000 1 0 0
12.843403 4.682536 -14.241428 19.740755 0.349610 2.376651 -0.008447 -0.007668 363274.000000 1 0 0
13.982703 0.877336 -11.736728 18.276665 0.062662 2.268122 0.001583 -0.000839 -502940.000000 1 0 0
14.867503 6.166036 -11.297728 19.664722 0.393142 2.182811 0.006631 -0.007600 382306.000000 1 0 0
8.077603 1.555536 -11.929028 14.490310 0.190245 2.537894 -0.009942 0.003612 675296.000000 1 0 0
9.792403 1.233736 -9.076528 13.408826 0.125329 2.314349 -0.006030 0.002481 706496.000000 1 0 0
-0.081697 -5.753064 -13.018728 14.233471 1.556597 2.725452 -0.000339 -0.000119 -46411.000000 1 0 0
10.459703 -5.730764 -9.182428 15.052044 -0.501222 2.226914 0.014672 -0.005960 -1862850.000000 1 0 0
10.045403 8.514136 -11.289228 17.344950 0.703079 2.279520 0.010489 -0.012471 423777.000000 1 0 0
8.185403 8.269136 -14.655628 18.712746 0.790487 2.470575 0.008611 -0.006293 517936.000000 1 0 0
8.575803 10.599336 -10.734028 17.352512 0.890538 2.237739 0.019690 -0.012665 -1049660.000000 1 0 0
6.969703 1.668936 -18.049228 19.420009 0.235030 2.763618 0.001580 0.007414 -222656.000000 1 0 0
12.018303 2.502236 -13.126928 17.972675 0.205270 2.389678 -0.003718 -0.003105 -990778.000000 1 0 0
2.433903 -0.898964 -19.318328 19.491788 -0.353809 3.008083 0.011039 -0.008086 -160640.000000 1 0 0
10.053003 -2.370564 -15.826128 18.898380 -0.231576 2.563366 0.005076 0.002038 -605619.000000 1 0 0
8.110503 -0.875364 -13.147428 15.472601 -0.107514 2.586256 -0.002900 -0.001415 94443.300000 1 0 0
0.478703 4.442636 -14.600528 15.268974 1.463458 2.844603 0.008064 0.002735 233150.000000 1 0 0
3.915203 -7.617064 -15.844128 18.010688 -1.096008 2.646042 -0.003347 -0.000765 -2252660.000000 1 0 0
11.399203 -5.687464 -14.666328 19.426535 -0.462795 2.426395 0.023713 -0.003850 -1603610.000000 1 0 0
-5.865197 4.398936 -16.879028 18.402520 -0.643505 2.731824 -0.012776 0.007466 -297799.000000 1 0 0
11.307503 7.952536 -9.226428 16.620151 0.612935 2.159322 0.005416 -0.007251 -1311520.000000 1 0 0
9.381303 6.251336 -13.628928 17.687163 0.587791 2.450507 0.002783 -0.001669 -1387590.000000 1 0 0
11.929203 0.617736 -10.375128 15.821845 0.051737 2.285968 0.004296 0.001943 -758951.000000 1 0 0
5.459803 -7.356564 -13.795828 16.560596 -0.932327 2.555397 -0.003610 0.001851 -982766.000000 1 0 0
8.529503 -10.178664 -10.788728 17.110064 -0.873323 2.253056 0.011075 -0.002160 296324.000000 1 0 0
9.964703 4.708136 -15.972428 19.405677 0.441391 2.537610 0.004367 -0.003585 -108515.000000 1 0 0
9.734303 -0.370164 -11.070228 14.745970 -0.038008 2.419961 -0.001280 0.001010 -1083480.000000 1 0 0
-1.857397 5.598836 -13.940428 15.137120 -1.250474 2.741290 0.001087 0.003673 400042.000000 1 0 0
1.261903 -0.736264 -14.968528 15.039658 -0.528165 3.044297 0.005104 -0.004208 -44189.000000 1 0 0
11.361603 -10.544364 -14.119328 20.967238 -0.748109 2.309594 0.019764 -0.005546 -297677.000000 1 0 0
9.276603 -7.820064 -10.891428 16.304354 -0.700409 2.302324 0.015097 -0.002362 -224445.000000 1 0 0
13.868003 -0.961664 -9.923028 17.079602 -0.069233 2.190737 0.001778 0.001649 796185.000000 1 0 0
4.030003 10.984136 -12.309328 16.982689 1.219152 2.381564 0.004265 -0.015782 -946957.000000 1 0 0
-1.326597 2.904736 -16.766928 17.068310 -1.142384 2.953393 0.002328 0.001875 -369439.000000 1 0 0
5.641003 -0.497864 -17.780128 18.660164 -0.088030 2.833253 -0.004978 0.006734 92341.800000 1 0 0
6.304803 -6.572664 -16.139028 18.531559 -0.806196 2.627815 0.004564 0.000653 -229625.000000 1 0 0
-1.904197 -5.195564 -19.885228 20.640788 1.219495 2.870186 -0.000186 -0.010227 -48216.400000 1 0 0
-0.005897 -4.369364 -15.265228 15.878242 1.569447 2.862816 -0.000177 -0.004117 105111.000000 1 0 0
0.448803 0.709736 -13.012628 13.039694 1.006927 3.077150 0.002548 -0.005299 503658.000000 1 0 0
15.388703 0.618736 -13.923228 20.761775 0.040185 2.305838 -0.000875 -0.004055 425222.000000 1 0 0
-0.211797 7.029936 -16.350428 17.798914 -1.540678 2.735369 0.001799 0.010454 -465107.000000 1 0 0
-5.245297 -0.540464 -18.242528 18.989341 0.102676 2.860208 -0.007029 0.007433 -215002.000000 1 0 0
10.278503 -8.332664 -13.251128 18.726273 -0.681224 2.356924 0.015901 -0.011870 501773.000000 1 0 0
3.901403 8.790036 -17.087428 19.607801 1.153074 2.628969 -0.002825 -0.003480 -447363.000000 1 0 0
9.111303 0.373336 -17.060728 19.344861 0.040952 2.650728 0.005263 -0.001966 375605.000000 1 0 0
3.219503 4.906036 -18.529528 19.436507 0.990052 2.834897 0.009358 0.011257 -636397.000000 1 0 0
1.455503 -7.986964 -16.173728 18.096949 -1.390539 2.676381 -0.003669 0.002726 -586594.000000 1 0 0
4.399503 7.716736 -14.847128 17.301469 1.052634 2.602437 0.000072 -0.003086 522156.000000 1 0 0
-5.773297 -0.371864 -15.272228 16.331264 0.064322 2.779487 -0.002637 0.004296 -69348.600000 1 0 0
2.798603 3.426536 -13.802928 14.494625 0.885929 2.831414 0.004619 -0.002006 -988104.000000 1 0 0
-2.609697 -10.269864 -18.115428 20.986885 1.321951 2.612328 0.011087 -0.001426 -13229.200000 1 0 0
6.097603 -9.111464 -15.587228 19.056789 -0.981026 2.528610 -0.003559 -0.000415 510134.000000 1 0 0
-1.874297 5.499036 -17.219428 18.173086 -1.242304 2.816195 -0.003038 0.006645 -102833.000000 1 0 0
9.939603 -12.165364 -11.837028 19.669952 -0.885750 2.216527 0.017325 -0.002440 92908.400000 1 0 0
10.726103 3.621436 -9.491128 14.773138 0.325611 2.268498 -0.005971 -0.001087 -1663910.000000 1 0 0
4.818803 -0.495564 -11.039028 12.055148 -0.102479 2.728069 -0.005550 -0.000295 -147250.000000 1 0 0
6.264703 9.519836 -11.361428 16.092104 0.988770 2.354666 0.002963 -0.010672 -323045.000000 1 0 0
10.733503 -9.564064 -9.333728 17.140534 -0.727847 2.146638 0.021640 -0.003892 -321974.000000 1 0 0
3.257503 -2.380464 -14.581228 15.129116 -0.631076 2.871649 0.000936 -0.001735 -385537.000000 1 0 0
9.074003 -4.547864 -14.748828 17.903869 -0.464605 2.538841 0.009035 -0.004901 228363.000000 1 0 0
-4.001497 -6.700564 -16.578628 18.323767 1.032447 2.701614 -0.007394 0.004140 -1318040.000000 1 0 0
5.794803 -7.677364 -11.293128 14.834298 -0.924236 2.436089 -0.001665 0.000711 -463875.000000 1 0 0
5.411703 6.611136 -16.887728 18.925882 0.884832 2.673230 0.002956 0.000321 -655538.000000 1 0 0
9.118703 1.338436 -19.541928 21.606228 0.145739 2.700904 0.021857 -0.006163 474674.000000 1 0 0
12.920003 5.830136 -9.553428 17.093418 0.423892 2.163849 -0.004168 -0.004641 256756.000000 1 0 0
-1.751597 -0.712064 -17.333628 17.436450 0.386117 3.032939 0.002224 -0.000235 240754.000000 1 0 0
-0.862097 -0.631364 -19.659628 19.688646 0.632115 3.087293 0.000159 -0.001389 -95367.900000 1 0 0
2.733203 6.562436 -16.516528 17.981425 1.176154 2.735149 0.003260 0.006618 -322708.000000 1 0 0
7.475303 3.789236 -15.699328 17.796274 0.469153 2.651245 -0.003701 0.001114 -43018.800000 1 0 0
2.989403 -9.833064 -14.990828 18.175549 -1.275660 2.540609 -0.002893 0.002718 115827.000000 1 0 0
8.838703 -10.562364 -13.434928 19.240153 -0.874009 2.343782 0.011866 -0.005987 -26540.400000 1 0 0
3.721003 0.170336 -14.880028 15.339169 0.045745 2.896305 0.000210 0.001437 -2579060.000000 1 0 0
-1.361497 -2.981564 -18.781928 19.065786 1.142436 2.968818 0.002292 -0.004195 67679.800000 1 0 0
9.262003 10.172136 -13.170328 19.045067 0.832196 2.334408 0.023556 -0.018136 405218.000000 1 0 0
4.573203 2.044336 -10.702628 11.816926 0.420377 2.703832 -0.008392 0.002342 -242767.000000 1 0 0
-0.686597 7.225536 -18.911228 20.256217 -1.476057 2.775131 0.000654 0.010381 148708.000000 1 0 0
0.591503 -1.778364 -17.654328 17.753528 -1.249696 3.035830 0.005537 -0.008261 -1593170.000000 1 0 0
-4.579997 -2.247364 -14.090328 14.985471 0.456173 2.794207 0.003106 -0.001401 -2599800.000000 1 0 0
9.986403 5.984736 -10.497828 15.676406 0.539896 2.304544 -0.004015 -0.002067 -150345.000000 1 0 0
8.060803 5.323036 -17.786528 20.240351 0.583624 2.644066 0.007112 -0.004482 -126266.000000 1 0 0
11.112503 0.137136 -13.796328 17.715677 0.012340 2.463489 -0.001856 0.003875 388952.000000 1 0 0
6.755703 12.022236 -11.807428 18.154587 1.058837 2.278884 0.020486 -0.019350 -338924.000000 1 0 0
-0.972397 0.657836 -15.179028 15.224362 -0.594786 3.064402 0.004533 -0.001402 -1304990.000000 1 0 0
-4.440597 -2.911764 -18.957528 19.687182 0.580382 2.868486 -0.008616 0.007912 -631534.000000 1 0 0
5.693603 -12.007664 -14.008928 19.309355 -1.128030 2.382556 -0.002420 0.003280 -190281.000000 1 0 0
2.148403 -4.661064 -13.970628 14.883534 -1.138894 2.789530 0.002712 -0.002020 -691654.000000 1 0 0
11.699003 1.963836 -15.652928 19.640201 0.166313 2.493082 0.006156 -0.002410 94637.600000 1 0 0
9.582603 2.267436 -13.982228 17.101761 0.232347 2.528009 -0.004718 -0.001323 327973.000000 1 0 0
-2.308397 -4.054364 -16.360928 17.013128 1.053210 2.863806 -0.005911 -0.002723 -1894890.000000 1 0 0
-2.927697 10.255636 -14.327628 17.861422 -1.292721 2.501692 -0.004717 0.008573 232686.000000 1 0 0
3.375003 5.816636 -13.562028 15.137784 1.045038 2.681262 -0.001119 -0.000614 -683218.000000 1 0 0
-5.158097 -2.521664 -16.517228 17.486668 0.454708 2.807052 -0.002646 0.003629 404983.000000 1 0 0
-4.481297 6.288236 -13.507928 15.559179 -0.951632 2.622288 -0.005979 0.007165 58274.900000 1 0 0
5.829803 -1.125064 -14.233028 15.421785 -0.190641 2.746386 -0.000869 0.002068 -2696610.000000 1 0 0
6.583103 -3.006064 -12.673528 14.594245 -0.428356 2.622747 -0.004802 -0.000994 596821.000000 1 0 0
2.832903 -3.272464 -18.291128 18.796269 -0.857270 2.909232 0.008682 -0.011809 -404861.000000 1 0 0
7.327403 -11.929264 -12.032128 18.459964 -1.019974 2.280746 0.007922 -0.000248 -2058110.000000 1 0 0
-5.981297 -5.430864 -17.888728 19.628468 0.737203 2.717388 0.005946 0.010477 401285.000000 1 0 0
0.428603 8.799736 -11.898428 14.805122 1.522128 2.504233 0.004959 0.001150 141822.000000 1 0 0
0.301803 8.702436 -14.434528 16.857611 1.536130 2.598785 0.001449 0.005976 298691.000000 1 0 0
7.515003 -2.538864 -15.157028 17.107209 -0.325801 2.659448 0.002911 -0.007891 -628635.000000 1 0 0
14.097303 1.539936 -9.074728 16.836153 0.108805 2.140049 -0.006906 0.006106 452949.000000 1 0 0
2.730203 10.834236 -14.574328 18.364251 1.323938 2.487540 0.004148 -0.002487 187570.000000 1 0 0
5.955603 1.036836 -15.649128 16.776157 0.172367 2.772956 -0.001569 0.003515 164973.000000 1 0 0
16.208103 -5.660164 -10.707328 20.233313 -0.335978 2.128446 0.015781 -0.003866 513597.000000 1 0 0
4.817803 -4.302864 -11.254628 12.976614 -0.729000 2.620550 -0.003877 0.000327 -1287570.000000 1 0 0
8.366503 -3.758364 -17.138428 19.438348 -0.422201 2.650210 -0.002428 -0.008261 -54128.300000 1 0 0
13.300603 -9.595264 -8.887028 18.653536 -0.624955 2.067381 0.023464 -0.002848 952307.000000 1 0 0
2.337603 -7.637364 -13.746128 15.898105 -1.273776 2.615228 0.001095 0.001413 -94611.600000 1 0 0
-6.990597 -2.485564 -18.431328 19.868576 0.341618 2.758899 -0.005077 0.008910 35613.400000 1 0 0
-1.520997 -6.478764 -15.670328 17.024893 1.340206 2.739991 -0.005444 -0.002155 224132.000000 1 0 0
1.357503 -7.305564 -18.672928 20.097072 -1.387074 2.762867 0.001191 -0.001200 -273862.000000 1 0 0
5.298603 10.969136 -14.558128 18.982524 1.120803 2.444828 0.007254 -0.018509 3669.300000 1 0 0
5.399603 -3.477264 -17.615528 18.749771 -0.572135 2.791982 0.016546 -0.003303 705032.000000 1 0 0
3.878303 13.096636 -13.878828 19.472672 1.282894 2.364184 0.004148 -0.018357 -61642.900000 1 0 0
9.417803 10.369036 -15.771928 21.094208 0.833435 2.415373 0.041221 -0.020785 219530.000000 1 0 0
2.375403 3.942836 -16.268728 16.907395 1.028569 2.865858 0.007794 0.004714 259003.000000 1 0 0
16.413403 1.678836 -11.711428 20.233038 0.101930 2.188086 -0.001777 -0.001179 163471.000000 1 0 0
9.906703 -3.651664 -10.584028 14.949885 -0.353153 2.357412 0.012354 -0.003261 182194.000000 1 0 0
14.500403 -2.180764 -12.172128 19.057233 -0.149275 2.263623 0.012856 -0.002783 -235867.000000 1 0 0
-2.750797 -8.687064 -15.976828 18.392688 1.264131 2.623269 -0.000908 0.002626 -1076560.000000 1 0 0
13.945503 8.211936 -9.077928 18.555908 0.532187 2.081992 0.023984 -0.006822 1149580.000000 1 0 0
-8.417897 -0.015664 -16.601828 18.614025 0.001861 2.672323 -0.010309 0.009074 -457154.000000 1 0 0
-3.544297 4.062036 -15.880728 16.770799 -0.853360 2.814335 -0.003017 0.007515 617570.000000 1 0 0
14.852903 4.057136 -9.790428 18.246138 0.266650 2.137170 0.001343 0.001595 458834.000000 1 0 0
5.249803 1.099336 -13.051128 14.110312 0.206422 2.751662 -0.005114 0.002499 -101098.000000 1 0 0
7.746803 -7.798164 -12.927928 16.969256 -0.788702 2.436952 0.007768 -0.000991 -1904620.000000 1 0 0
3.228803 -6.158864 -11.823728 13.717045 -1.087935 2.609946 0.001447 0.000509 -1619010.000000 1 0 0
-3.250197 3.610736 -18.399328 19.029883 -0.837899 2.883447 -0.005445 0.006050 295477.000000 1 0 0
0.798503 5.264936 -17.897728 18.673131 1.420279 2.852402 -0.000212 0.008320 402974.000000 1 0 0
6.322103 7.065536 -10.290828 13.992567 0.840872 2.397126 -0.004602 -0.003077 213315.000000 1 0 0
9.658103 3.702736 -11.794628 15.687653 0.366098 2.421647 -0.004637 0.001109 488322.000000 1 0 0
4.357603 1.763636 -17.613828 18.230361 0.384574 2.880781 0.008091 0.004583 659146.000000 1 0 0
2.498503 8.194236 -13.204828 15.740251 1.274841 2.566094 0.001789 -0.002501 -2576460.000000 1 0 0
14.221403 -3.538764 -10.038528 17.763536 -0.243881 2.171375 0.018965 -0.000718 -57681.900000 1 0 0
-1.438597 9.345736 -16.191528 18.750411 -1.418064 2.613023 -0.000846 0.009831 -3101480.000000 1 0 0
-5.330997 2.164836 -15.707328 16.728006 -0.385741 2.790460 -0.005191 0.005415 736592.000000 1 0 0
4.459503 4.370336 -11.857028 13.400601 0.775300 2.656889 -0.006840 -0.000028 714279.000000 1 0 0
9.137103 2.989936 -17.516728 19.981545 0.316248 2.639641 0.002479 -0.007337 588131.000000 1 0 0
-4.353497 14.526136 -13.282228 20.158847 -1.279614 2.290123 -0.000682 -0.000586 -442461.000000 1 0 0
15.431603 -4.823564 -8.233128 18.143471 -0.302955 2.041798 0.012835 -0.002059 1570170.000000 1 0 0
1.003103 9.361936 -16.857928 19.309111 1.464057 2.632230 -0.003110 0.011511 -1006320.000000 1 0 0
0.443403 -3.136164 -12.859028 13.243365 -1.430343 2.900086 0.002549 -0.000165 84238.800000 1 0 0
7.416603 3.690136 -13.114628 15.511820 0.461686 2.578223 -0.007287 0.002476 69021.700000 1 0 0
-3.046897 7.674936 -15.057628 17.173246 -1.192885 2.639978 -0.005932 0.011712 232940.000000 1 0 0
12.049303 -5.083064 -11.151828 17.186812 -0.399204 2.276881 0.024506 -0.004784 -1092180.000000 1 0 0
0.608603 -4.400564 -19.963728 20.452036 -1.433367 2.922634 0.006704 -0.011114 -117566.000000 1 0 0
3.389703 -4.539064 -16.202928 17.164733 -0.929356 2.805244 0.004871 -0.006161 351294.000000 1 0 0
-5.783997 4.249136 -14.282828 15.984647 -0.633596 2.675952 -0.002589 0.006959 489347.000000 1 0 0
12.137703 -7.512564 -9.992728 17.424611 -0.554233 2.181548 0.019367 -0.002762 -66820.000000 1 0 0
-2.024597 -1.755564 -14.861528 15.101192 0.714348 2.963196 0.003715 -0.001624 694227.000000 1 0 0
6.926203 5.974536 -14.407128 17.065541 0.711763 2.575911 -0.004547 0.002109 -622211.000000 1 0 0
4.136303 -5.548364 -18.505528 19.757224 -0.930182 2.783726 0.011674 -0.010871 94814.300000 1 0 0
7.563903 7.377136 -12.325928 16.234632 0.772899 2.432936 -0.004292 -0.005375 -912780.000000 1 0 0
12.118103 -2.439364 -11.151028 16.647653 -0.198644 2.304771 0.015321 -0.001919 -947399.000000 1 0 0
7.397403 -0.674964 -10.678328 13.007837 -0.090991 2.533808 -0.003886 0.002134 -2864730.000000 1 0 0
5.198203 4.153136 -14.421128 15.882027 0.674104 2.709319 -0.003989 -0.000815 -630776.000000 1 0 0
14.579303 3.024836 -13.139728 19.858453 0.204572 2.293839 -0.001640 -0.007416 -174955.000000 1 0 0
-6.497197 6.893536 -16.026728 18.616939 -0.814988 2.607770 -0.011774 0.023279 386577.000000 1 0 0
-11.158797 3.884936 -16.576628 20.356720 -0.335026 2.522331 -0.010868 0.002913 -318638.000000 1 0 0
-5.282597 6.490336 -18.334828 20.154310 -0.887627 2.713411 -0.010494 0.034215 756230.000000 1 0 0
-10.152397 1.664836 -15.712328 18.780843 -0.162538 2.561870 -0.009962 0.009461 -124931.000000 1 0 0
-7.749997 5.780736 -17.952428 20.390415 -0.640873 2.647574 -0.020537 0.013520 -939720.000000 1 0 0
-8.750497 3.857436 -15.629928 18.323363 -0.415198 2.592513 -0.016327 0.015888 -93294.300000 1 0 0
8.978703 13.429836 -12.144428 20.210510 0.981481 2.215419 0.038426 -0.022479 -1067730.000000 1 0 0
13.843003 8.980736 -11.465828 20.093471 0.575500 2.178063 0.025582 -0.016399 403590.000000 1 0 0
8.419003 15.856736 -9.139328 20.145545 1.082703 2.041670 0.018149 -0.013049 151962.000000 1 0 0
7.056803 13.647236 -13.901228 20.719306 1.093573 2.306260 0.024200 -0.018892 92852.100000 1 0 0
4.812303 16.102236 -12.535228 20.965977 1.280386 2.211655 0.022585 -0.020397 -36693.100000 1 0 0
11.085503 10.917836 -11.538028 19.370431 0.777778 2.208873 0.025038 -0.016528 443817.000000 1 0 0
15.588603 10.078636 -9.884928 21.030817 0.573938 2.060111 0.024638 -0.001785 214869.000000 1 0 0
13.069203 10.602236 -9.467528 19.309209 0.681556 2.083243 0.028327 -0.008887 -385104.000000 1 0 0
10.438703 11.842236 -8.235828 17.805447 0.848308 2.051660 0.012643 0.001078 269821.000000 1 0 0
5.283303 16.270136 -10.109028 19.870155 1.256814 2.104534 0.008451 -0.014512 38512.600000 1 0 0
6.708903 14.631136 -11.570228 19.822959 1.140867 2.194047 0.018999 -0.010406 -373588.000000 1 0 0
10.780803 13.732736 -9.993028 20.116519 0.905242 2.090655 0.030966 -0.008904 -179876.000000 1 0 0
8.164103 -18.681264 -1.320628 20.430034 -1.158788 1.635483 0.030264 0.004104 -433141.000000 1 0 0
7.389303 -17.455564 -3.442428 19.265223 -1.170349 1.750447 0.022073 0.001531 -232302.000000 1 0 0
4.550003 -18.293764 5.599772 19.665243 -1.327024 1.282046 0.008060 -0.001521 -147390.000000 1 0 0
9.743603 -17.023664 -2.558528 19.781027 -1.050951 1.700502 0.032017 -0.000424 -662419.000000 1 0 0
-9.902397 -12.174364 -9.926628 18.569075 0.887949 2.134805 0.013966 -0.003204 -666556.000000 1 0 0
-5.233297 -6.940664 -12.137428 14.929078 0.924737 2.520092 0.003327 0.002916 79045.800000 1 0 0
-10.886697 -9.436664 -5.463528 15.408469 0.714171 1.933261 0.006670 -0.002601 -1428830.000000 1 0 0
-4.738797 -11.351564 -13.996828 18.633985 1.175331 2.420591 0.012399 -0.002085 375583.000000 1 0 0
-2.956497 -15.628964 7.438572 17.559549 1.383838 1.133359 0.003114 0.001416 255188.000000 1 0 0
-5.139497 -11.941564 -11.541928 17.384806 1.164372 2.296830 0.010940 -0.000048 123546.000000 1 0 0
-14.339897 -12.694764 -3.891428 19.543103 0.724620 1.771256 -0.008485 0.001967 -369214.000000 1 0 0
-3.182697 -12.330364 -3.213128 13.133607 1.318191 1.817954 0.000538 -0.003016 699578.000000 1 0 0
-2.435197 -17.417764 -1.492228 17.650366 1.431886 1.655441 -0.009779 -0.005375 -930764.000000 1 0 0
-5.860797 -12.168664 3.610172 13.980653 1.121952 1.309611 0.003368 -0.000297 302504.000000 1 0 0
-9.077797 -10.866764 -11.940628 18.522191 0.874856 2.271383 0.014578 0.006768 -204914.000000 1 0 0
-10.007397 -11.779964 -7.367128 17.122795 0.866577 2.015569 0.007110 -0.008414 431312.000000 1 0 0
-10.919197 -14.949064 6.201572 19.523393 0.939940 1.247548 0.011747 -0.015247 -1000880.000000 1 0 0
-9.344197 -15.503264 0.876372 18.122727 1.028376 1.522420 0.008597 0.000735 -2208540.000000 1 0 0
-14.757697 -7.933764 -8.127728 18.622411 0.493275 2.022444 -0.015042 -0.000283 -289752.000000 1 0 0
-2.354497 -16.592064 5.149372 17.531580 1.429833 1.272680 -0.001145 -0.003673 -360945.000000 1 0 0
4.481203 -15.700964 5.893172 17.358887 -1.292779 1.224421 0.008045 -0.006330 -461441.000000 1 0 0
4.129803 -14.669764 -10.188828 18.332198 -1.296380 2.160108 -0.001473 0.006940 599819.000000 1 0 0
-7.587297 -13.892164 -0.199828 15.830326 1.070909 1.583420 0.006922 -0.007271 518308.000000 1 0 0
3.211203 -15.013364 9.527672 18.069020 -1.360082 1.015385 0.006070 -0.002500 364417.000000 1 0 0
2.345703 -17.411264 10.381172 20.406450 -1.436879 1.037099 0.013997 -0.001540 -506453.000000 1 0 0
-8.341697 -16.998164 -5.611928 19.748803 1.114583 1.858932 -0.000069 0.001124 -33544.200000 1 0 0
-6.518497 -9.163964 -7.680828 13.618522 0.952514 2.170016 0.008025 -0.003242 210996.000000 1 0 0
-5.995797 -13.099164 -4.724128 15.160972 1.141538 1.887671 0.001242 -0.007169 176514.000000 1 0 0
1.898203 -19.336164 -4.962128 20.052759 -1.472941 1.820848 -0.003216 -0.009917 -117301.000000 1 0 0
-5.454097 -12.984964 8.291672 16.343448 1.173141 1.038702 0.010586 -0.002231 808943.000000 1 0 0
2.219903 -17.514364 3.438572 17.986237 -1.444721 1.378434 0.002550 -0.012057 1088800.000000 1 0 0
-17.498497 -10.056164 -2.461028 20.331760 0.521599 1.692137 -0.011745 -0.002742 559696.000000 1 0 0
-3.306097 -15.549164 2.550572 16.100068 1.361294 1.411706 -0.007510 -0.001427 -271743.000000 1 0 0
-10.385797 -10.287664 -14.116028 20.321492 0.780651 2.338709 0.022912 0.005130 -492670.000000 1 0 0
5.851503 -14.539264 -5.681728 16.670703 -1.188169 1.918587 -0.003633 -0.002776 556700.000000 1 0 0
-7.483997 -12.397364 -10.678628 17.992719 1.027678 2.206193 0.008974 -0.002097 -965753.000000 1 0 0
-7.205797 -14.296764 3.923472 16.483768 1.103941 1.330469 0.007314 -0.001367 789418.000000 1 0 0
3.112103 -14.911864 -3.140328 15.553474 -1.365050 1.774099 -0.000878 -0.004425 -831730.000000 1 0 0
-7.523597 -11.423664 7.857172 15.774656 0.988401 1.049404 0.012470 -0.007900 -1071940.000000 1 0 0
-12.886297 -12.365564 -0.923328 17.883410 0.764780 1.622450 -0.000825 0.007682 -1617000.000000 1 0 0
-1.960597 -13.679864 3.971572 14.379013 1.428446 1.290952 -0.003053 0.001303 -2547330.000000 1 0 0
-3.190697 -13.998564 5.256472 15.289567 1.346695 1.219841 -0.000392 -0.000622 272295.000000 1 0 0
-14.466697 -10.185864 -4.339728 18.217310 0.613466 1.811329 -0.006244 -0.001190 494400.000000 1 0 0
-6.196697 -8.724664 -10.375928 14.905660 0.953224 2.340756 0.003725 0.000018 -19421.700000 1 0 0
0.712403 -19.427564 2.369272 19.584464 -1.534143 1.449522 0.002602 -0.011186 91025.200000 1 0 0
6.217403 -13.978764 -8.200928 17.358490 -1.152296 2.062859 0.001541 0.000719 -2921120.000000 1 0 0
-3.950997 -16.739364 -5.871928 18.174054 1.339008 1.899793 -0.009482 -0.000937 -322541.000000 1 0 0
-3.803797 -13.540264 -13.201628 19.289650 1.296930 2.324562 0.009392 0.000212 -1329950.000000 1 0 0
-8.217897 -14.540164 -4.427528 17.278692 1.056369 1.829929 0.000292 -0.005917 -1242880.000000 1 0 0
-4.290897 -14.328864 10.050672 18.020659 1.279837 0.979147 0.007555 -0.005539 -698859.000000 1 0 0
-0.411397 -12.042764 -10.054028 15.693339 1.536648 2.266148 0.004074 -0.000264 72321.400000 1 0 0
2.512203 -17.196764 6.706772 18.628491 -1.425737 1.202499 0.006565 -0.012849 -1243170.000000 1 0 0
-3.033397 -19.153764 -3.478728 19.702023 1.413730 1.748294 -0.012002 -0.007217 -819455.000000 1 0 0
0.481203 -15.400164 -3.090028 15.714480 -1.539560 1.768722 0.002684 -0.005406 -716073.000000 1 0 0
5.959403 -18.006564 0.481272 18.973204 -1.251186 1.545428 0.010146 -0.002736 -561772.000000 1 0 0
-6.999897 -16.763764 3.897672 18.579941 1.175243 1.359448 0.006022 0.002394 731938.000000 1 0 0
-5.420697 -13.625064 -9.509128 17.477123 1.192147 2.146100 0.007116 -0.003202 312382.000000 1 0 0
5.618403 -15.223964 -2.236628 16.381027 -1.217252 1.707762 0.003070 -0.000864 351036.000000 1 0 0
-8.806497 -10.298164 -0.524028 13.560279 0.863319 1.609450 0.004127 -0.002931 -353585.000000 1 0 0
-7.459697 -18.066464 -3.030428 19.779477 1.179216 1.724613 0.001875 -0.011897 -71462.100000 1 0 0
7.804303 -15.998964 -1.155228 17.838401 -1.116956 1.635602 0.012355 -0.000459 -1005480.000000 1 0 0
-8.164197 -10.093264 -9.549828 16.116057 0.890667 2.205037 0.008080 -0.000883 -606116.000000 1 0 0
-9.326897 -14.933764 -6.814928 18.879925 1.012520 1.940095 0.004199 -0.000081 -364968.000000 1 0 0
-11.667597 -10.462864 -11.932928 19.697693 0.731014 2.221571 0.017888 0.012780 -768430.000000 1 0 0
6.553503 -16.350264 2.436472 17.782462 -1.189584 1.433348 0.006981 0.000166 475543.000000 1 0 0
-2.308197 -11.166664 -6.203928 12.981174 1.366963 2.069079 0.002285 -0.002572 -250403.000000 1 0 0
-12.413897 -15.286364 -3.122428 19.938087 0.888727 1.728050 -0.003109 0.004023 71473.100000 1 0 0
-0.538297 -19.704864 -2.941728 19.930509 1.543485 1.718937 -0.002826 -0.010593 -424397.000000 1 0 0
-5.877897 -15.588464 -4.623828 17.289583 1.210215 1.841526 -0.009506 -0.005843 -2554340.000000 1 0 0
1.910703 -15.946464 -1.068128 16.096006 -1.451545 1.637205 0.002879 -0.010153 62854.900000 1 0 0
-13.085697 -11.860464 5.335872 18.449325 0.736323 1.277387 0.008417 -0.009560 143466.000000 1 0 0
1.915103 -15.195964 -8.948728 17.738790 -1.445430 2.099567 0.004033 0.003338 -1238600.000000 1 0 0
-11.439297 -16.763864 0.080272 20.295100 0.971995 1.566841 -0.002190 -0.001646 225435.000000 1 0 0
-7.878897 -16.422564 -1.054328 18.245252 1.123471 1.628615 0.001466 -0.001986 300901.000000 1 0 0
-3.062697 -14.565364 -1.776528 14.989530 1.363543 1.689593 -0.003688 -0.005482 471322.000000 1 0 0
-1.923497 -10.530464 -13.226728 17.015782 1.390128 2.461193 0.003185 0.000864 30643.800000 1 0 0
1.527003 -19.531964 4.870472 20.187889 -1.492775 1.327135 0.003715 -0.010394 243682.000000 1 0 0
-17.331097 -9.368764 2.630272 19.876091 0.495579 1.438074 -0.007458 -0.003042 -863779.000000 1 0 0
-2.883597 -15.556464 -8.081628 17.766019 1.387513 2.043048 -0.004928 -0.003929 -198234.000000 1 0 0
-10.600897 -12.029764 0.383172 16.038736 0.848453 1.546904 0.004531 0.000166 41468.600000 1 0 0
-6.901997 -11.449864 -6.460428 14.848369 1.028319 2.020938 0.001431 -0.005864 -52990.700000 1 0 0
-2.411597 -13.574964 -6.725728 15.340498 1.394980 2.024647 -0.003301 -0.003669 316702.000000 1 0 0
-14.234997 -14.577764 -0.719228 20.387830 0.797294 1.606081 -0.002860 0.013196 68381.200000 1 0 0
-9.557297 -11.150064 -4.114228 15.250991 0.862165 1.843948 0.008295 -0.006894 1354800.000000 1 0 0
9.109703 -15.261864 -5.081028 18.485888 -1.032664 1.849240 0.018060 0.003984 182142.000000 1 0 0
-5.760997 -11.004064 -9.325128 15.531791 1.088500 2.214785 0.005983 -0.002533 -356975.000000 1 0 0
-10.448397 -15.894264 -4.729728 19.600177 0.989258 1.814512 0.004640 0.005288 -2531210.000000 1 0 0
2.196103 -17.283864 -3.279828 17.728849 -1.444413 1.756868 0.002790 -0.008026 542302.000000 1 0 0
-0.508197 -14.417664 -8.244128 16.616045 1.535563 2.089961 0.000898 -0.002051 -602405.000000 1 0 0
-0.724597 -18.125964 -7.132128 19.492123 1.530842 1.945394 -0.007374 -0.010679 274346.000000 1 0 0
-2.017697 -9.886164 -10.605228 14.638244 1.369468 2.381087 0.003813 0.000120 445351.000000 1 0 0
-5.000297 -17.279064 2.167872 18.118187 1.289107 1.450857 -0.002620 -0.003631 -239000.000000 1 0 0
0.196803 -12.761764 -2.668428 13.039243 -1.555376 1.776898 -0.005134 -0.000067 -2079340.000000 1 0 0
2.690003 -14.979464 3.070972 15.525828 -1.393111 1.371686 0.004121 -0.004467 -707230.000000 1 0 0
-9.300797 -13.097364 6.783472 17.437353 0.953306 1.171229 0.013286 -0.010011 -654576.000000 1 0 0
-1.169097 -17.812464 -4.637628 18.443380 1.505257 1.824977 -0.005579 -0.009225 -303561.000000 1 0 0
-9.879497 -17.677164 -2.297528 20.380511 1.061157 1.683768 0.008040 0.004069 586844.000000 1 0 0
1.299603 -16.152164 1.449272 16.269043 -1.490509 1.481596 -0.000195 -0.011777 -255004.000000 1 0 0
-0.476497 -17.993464 4.101872 18.461234 1.544321 1.346738 0.006140 -0.014262 648140.000000 1 0 0
-17.386297 -9.349464 0.038472 19.740752 0.493389 1.568847 -0.009610 -0.001859 1042150.000000 1 0 0
-14.917097 -7.160564 -10.452328 19.571525 0.447539 2.134189 0.002826 -0.009714 671212.000000 1 0 0
2.726203 -12.692164 -9.032828 15.815031 -1.359217 2.178708 -0.004243 0.002476 536253.000000 1 0 0
-11.745797 -14.732564 1.767472 18.924485 0.897724 1.477264 -0.004296 0.002209 20794.500000 1 0 0
-1.985297 -15.498764 10.597172 18.879967 1.443396 0.974850 -0.007197 -0.001772 -110709.000000 1 0 0
-6.976597 -15.815664 1.414472 17.343842 1.155352 1.489151 0.004398 -0.003865 -1243550.000000 1 0 0
-12.617597 -14.977764 -5.691128 20.394266 0.870718 1.853606 0.003460 0.004025 -41284.800000 1 0 0
0.878403 -13.759464 -5.010528 14.669691 -1.507043 1.919369 0.000558 -0.002254 633135.000000 1 0 0
5.795003 -16.451464 -7.498528 18.985801 -1.232120 1.976815 0.007712 -0.005249 146116.000000 1 0 0
-6.512997 -12.835664 5.960372 15.578814 1.101235 1.178193 0.008816 -0.004599 -145083.000000 1 0 0
-2.496397 -13.559664 0.497672 13.796527 1.388730 1.534716 0.000758 -0.002512 3119770.000000 1 0 0
-4.296297 -15.570164 0.266372 16.154230 1.301564 1.554306 -0.004788 -0.002308 225774.000000 1 0 0
-17.600197 -7.486364 -1.870328 19.217458 0.402173 1.668275 -0.018577 0.001461 478290.000000 1 0 0
1.077903 -12.657764 -12.041628 17.503762 -1.485844 2.329450 0.002116 0.005382 -2242510.000000 1 0 0
1.118203 -16.997564 -5.735428 17.973945 -1.505105 1.895573 0.003250 -0.007027 -43412.000000 1 0 0
-12.805297 -6.450964 -9.112328 16.988969 0.466662 2.136923 0.001208 0.001125 -1290200.000000 1 0 0
-11.723197 -13.401964 -8.555428 19.754527 0.852115 2.018711 0.008872 -0.004639 65765.000000 1 0 0
-4.298897 -9.919764 3.591572 11.392174 1.161860 1.250059 0.001917 0.000359 -3303860.000000 1 0 0
-6.905897 -14.438764 9.757772 18.745224 1.124668 1.023305 0.008877 -0.003687 -643278.000000 1 0 0
-5.474597 -15.817264 -7.940428 18.525859 1.237586 2.013754 -0.004586 -0.009851 -951476.000000 1 0 0
-0.259597 -13.493564 2.113472 13.660543 1.551560 1.415459 -0.001817 -0.004224 488646.000000 1 0 0
-11.059497 -13.354464 -4.452128 17.901833 0.879125 1.822131 0.007095 0.000530 -1232130.000000 1 0 0
-9.627897 -10.540264 6.695972 15.767993 0.830605 1.132214 0.013315 -0.009172 -415329.000000 1 0 0
-15.527597 -7.958964 -4.531728 18.027421 0.473652 1.824902 0.002336 -0.002283 182731.000000 1 0 0
-14.568097 -7.246464 5.535272 17.186620 0.461582 1.242883 0.018399 -0.007002 436514.000000 1 0 0
-1.513097 -19.472764 -0.178828 19.532281 1.493249 1.579952 -0.001589 -0.006748 -594607.000000 1 0 0
-15.431297 -12.292864 -1.170828 19.763863 0.672676 1.630072 -0.010903 0.014140 82576.000000 1 0 0
-4.516997 -12.092364 -6.861028 14.618558 1.213305 2.059336 0.002425 -0.005786 -354475.000000 1 0 0
-7.369797 -18.401164 1.984372 19.921207 1.189853 1.471020 0.007318 -0.000142 50826.000000 1 0 0
-2.595497 -11.698964 -8.729628 14.825949 1.352475 2.200379 0.002649 -0.002489 370573.000000 1 0 0
-1.504197 -20.384264 -5.241828 21.101128 1.497138 1.821840 -0.008346 -0.003042 -3183.780000 1 0 0
-5.504697 -8.825364 -13.816228 17.293840 1.013107 2.496278 0.007490 0.003434 30842.700000 1 0 0
-8.104497 -19.044464 -0.743528 20.710560 1.168454 1.606705 0.002413 0.005635 156501.000000 1 0 0
-17.218997 -7.222864 5.587772 19.490685 0.397178 1.280027 0.018774 -0.008058 74242.500000 1 0 0
-3.583897 -14.673764 -4.366628 15.723584 1.331248 1.852208 -0.005932 -0.004182 -2680180.000000 1 0 0
-3.176997 -14.828364 -11.018628 18.745235 1.359736 2.199145 0.004428 0.000829 -218707.000000 1 0 0
-0.035597 -16.635664 6.256072 17.773155 1.568657 1.211094 0.004554 -0.011586 -204335.000000 1 0 0
-11.128897 -11.505864 3.932072 16.483278 0.802051 1.329925 0.006423 -0.007141 -1008210.000000 1 0 0
-0.172797 -14.706564 -0.210228 14.709082 1.559047 1.585089 -0.000133 -0.002316 255489.000000 1 0 0
-7.296197 -9.460264 -2.382328 12.182223 0.913835 1.767622 0.007474 -0.003857 -34216.700000 1 0 0
-11.146597 -14.325564 -0.675528 18.163831 0.909558 1.607996 -0.001322 -0.002061 51491.400000 1 0 0
0.152003 -14.552564 -10.751028 18.093779 -1.560352 2.207047 0.003938 0.003022 -205740.000000 1 0 0
-1.484197 -14.047264 -3.962928 14.670830 1.465530 1.844317 -0.008264 -0.001456 -3568080.000000 1 0 0
-11.403597 -8.090964 -7.523028 15.877710 0.617080 2.064409 0.006548 -0.002267 410145.000000 1 0 0
-0.126097 -17.323164 -0.311428 17.326422 1.563517 1.588771 0.004621 -0.011355 -362600.000000 1 0 0
-12.849597 -9.412164 4.687972 16.603555 0.632198 1.284556 0.010769 -0.005395 -391790.000000 1 0 0
3.976903 -16.838064 1.595672 17.374762 -1.338861 1.478828 0.004470 -0.007724 528793.000000 1 0 0
-4.042697 -17.881864 -8.137428 20.057971 1.348456 1.988536 -0.008329 -0.000799 138826.000000 1 0 0
-13.273897 -11.096964 2.756572 17.519636 0.696309 1.412798 -0.008145 -0.005957 -1151150.000000 1 0 0
-8.515597 -12.184764 4.187772 15.444135 0.960827 1.296202 0.007160 -0.005840 444873.000000 1 0 0
-8.351497 -9.400764 -5.787828 13.842717 0.844436 2.002164 0.010336 -0.004242 -461389.000000 1 0 0
3.605703 -17.592364 -5.443128 18.764861 -1.368638 1.865097 -0.004615 0.007705 -1212490.000000 1 0 0
-2.401497 -13.060464 11.377272 17.486716 1.388952 0.862391 -0.000227 -0.003014 424704.000000 1 0 0
-0.144397 -16.688964 -9.581528 19.244429 1.562144 2.091956 -0.001269 -0.000350 2264.250000 1 0 0
-7.267297 -10.606864 -14.521228 19.395495 0.970106 2.416881 0.015313 0.009562 304026.000000 1 0 0
-4.580297 -18.831664 -1.486728 19.437620 1.332206 1.647358 -0.001451 -0.008975 -338373.000000 1 0 0
-2.488697 -17.395264 1.091872 17.606278 1.428693 1.508740 -0.001299 -0.006955 544032.000000 1 0 0
3.912003 -14.608864 -7.522728 16.891244 -1.309152 2.032375 -0.002319 0.000674 194464.000000 1 0 0
-1.169897 -15.723564 -6.134928 16.918524 1.496529 1.941870 -0.006977 -0.006183 -852318.000000 1 0 0
-9.574097 -15.126864 8.373272 19.763528 1.006522 1.133300 0.016409 -0.010605 -161547.000000 1 0 0
-7.174697 -11.999564 -1.768928 14.092371 1.031913 1.696652 0.002986 -0.002245 1026310.000000 1 0 0
-7.566497 -15.253564 -9.136328 19.323446 1.110315 2.063274 0.004470 0.005774 318976.000000 1 0 0
-4.993397 -13.215964 -0.559628 14.138914 1.209546 1.610387 0.001176 -0.001505 1578900.000000 1 0 0
-6.640597 -13.737864 -7.213428 16.877795 1.120534 2.012402 0.002583 -0.005808 621993.000000 1 0 0
5.720003 -15.378464 0.248772 16.409677 -1.214703 1.555636 0.001547 0.000405 -306585.000000 1 0 0
-14.407397 -12.848464 1.190372 19.340969 0.728264 1.509211 -0.011938 -0.001402 674808.000000 1 0 0
1.025403 -15.347564 11.014072 18.918482 -1.504083 0.949382 0.008249 -0.007074 -467700.000000 1 0 0
-9.266097 -10.832364 2.052872 14.401908 0.863171 1.427767 0.006315 -0.002137 -138477.000000 1 0 0
-9.460197 -8.688164 -3.530128 13.320710 0.742884 1.839011 0.011120 -0.005129 -1022790.000000 1 0 0
-12.205997 -7.291564 -12.231128 18.755099 0.538488 2.281213 -0.001766 0.002538 -443127.000000 1 0 0
-13.224297 -8.238864 -0.397328 15.585852 0.557167 1.596292 0.000539 -0.001725 139941.000000 1 0 0
-11.105897 -9.521564 0.607072 14.641368 0.708742 1.529322 0.003689 -0.004255 696676.000000 1 0 0
-15.671897 -12.091164 3.265672 20.061635 0.657132 1.407287 -0.008224 -0.001718 -435166.000000 1 0 0
-10.526297 -12.489364 -2.103728 16.468540 0.870485 1.698889 0.006750 -0.001480 143160.000000 1 0 0
-3.571897 -8.885964 -12.154428 15.474137 1.188592 2.474247 0.003870 0.003646 -503034.000000 1 0 0
-0.290097 -15.539564 3.837272 16.008962 1.552130 1.328744 0.003637 -0.007254 -739438.000000 1 0 0
-15.672897 -7.851564 1.408872 17.586121 0.464419 1.490598 -0.009987 -0.003406 211807.000000 1 0 0
-6.370297 -13.283964 -13.359928 19.887988 1.123644 2.307377 0.017809 0.002640 -350246.000000 1 0 0
-15.397897 -10.463364 1.342872 18.664954 0.596857 1.498788 -0.000282 -0.003770 202492.000000 1 0 0
-9.959497 -8.442364 -12.389928 17.999316 0.703140 2.330016 0.004829 0.004706 -335748.000000 1 0 0
-13.282997 -11.798464 -5.995328 18.750619 0.726279 1.896252 0.000730 0.000038 -168893.000000 1 0 0
-12.208497 -11.256564 -3.664928 17.005567 0.744852 1.788014 -0.000178 0.000234 -1084350.000000 1 0 0
-11.971397 -10.846264 -8.897128 18.442198 0.736128 2.074227 0.003315 -0.008664 811491.000000 1 0 0
-13.216897 -8.263764 -5.720128 16.604096 0.558774 1.922504 0.001542 -0.003581 -455653.000000 1 0 0
-13.384797 -8.134264 -3.045728 15.956049 0.546080 1.762857 0.004151 -0.003430 103693.000000 1 0 0
-4.341897 -16.868564 -3.149128 17.700778 1.318869 1.749657 -0.008759 -0.009374 -44721.600000 1 0 0
-15.383597 -8.866264 -1.618328 17.829321 0.522845 1.661689 -0.008039 0.001452 -1831250.000000 1 0 0
-9.410797 -15.646964 3.647772 18.619797 1.029315 1.373613 0.011073 -0.003175 466098.000000 1 0 0
4.808903 -17.201564 7.985372 19.564906 -1.298194 1.150372 0.016812 -0.021668 52780.200000 1 0 0
-8.300497 -15.428164 6.032072 18.528691 1.077206 1.239200 0.012999 0.000824 757768.000000 1 0 0
1.028103 -16.078464 8.590972 18.258664 -1.506940 1.080922 -0.000198 -0.004447 128093.000000 1 0 0
-10.923697 -7.774264 -10.048728 16.755395 0.618527 2.213961 0.003155 0.002047 776829.000000 1 0 0
-4.850897 -16.031564 5.700872 17.692998 1.276970 1.242733 0.003856 -0.005035 -818937.000000 1 0 0
-1.477197 -13.214964 -12.138328 18.004344 1.459476 2.310662 0.006771 0.001947 -191691.000000 1 0 0
-6.401797 -14.328064 -2.464028 15.885461 1.150606 1.726537 -0.002773 -0.003561 195949.000000 1 0 0
-17.620497 -6.933964 -7.085228 20.217869 0.374905 1.928841 -0.011230 -0.004950 -45357.000000 1 0 0
-17.156097 -4.111064 -10.101628 20.329176 0.235192 2.090823 -0.010465 -0.008118 265344.000000 1 0 0
-15.239197 -5.290964 -8.766628 18.359771 0.334173 2.068593 -0.011818 -0.011964 22780.200000 1 0 0
-16.123297 -5.371064 -5.542728 17.875426 0.321563 1.886069 -0.000083 -0.004155 122306.000000 1 0 0
-15.025797 -4.510264 -12.366628 19.976249 0.291611 2.238350 -0.017723 0.004541 -384484.000000 1 0 0
-18.673097 -5.121064 -5.409428 20.104023 0.267667 1.843226 -0.014533 -0.001564 10978.500000 1 0 0
-17.398297 -4.343164 -7.584128 19.470049 0.244632 1.970915 -0.014317 -0.006951 246245.000000 1 0 0
12.290203 -7.875164 8.661572 16.973219 -0.569858 1.035253 -0.007670 -0.004598 305091.000000 1 0 0
16.075803 -3.462864 1.627672 16.524896 -0.212167 1.472138 0.001581 0.001203 718896.000000 1 0 0
11.938703 -2.222064 12.551772 17.464742 -0.184017 0.768877 -0.009601 -0.001459 565320.000000 1 0 0
9.687703 -10.007664 5.158772 14.853211 -0.801642 1.216088 0.000596 -0.002108 220694.000000 1 0 0
16.855103 -1.896964 7.014072 18.354569 -0.112074 1.178682 0.001777 -0.003004 -218846.000000 1 0 0
5.173603 -12.678564 8.929672 16.347820 -1.183362 0.992939 -0.006037 -0.000820 -547990.000000 1 0 0
15.040303 -9.150564 -2.302328 17.755119 -0.546575 1.700834 0.000753 -0.000182 -30154.900000 1 0 0
11.140603 -8.570164 6.357172 15.426419 -0.655722 1.146043 0.000388 -0.006256 -2721230.000000 1 0 0
19.914803 -3.336564 3.513272 20.495735 -0.166000 1.398531 0.003586 -0.002773 869491.000000 1 0 0
13.626003 -8.627864 6.740372 17.479721 -0.564468 1.174926 -0.001288 -0.004211 -1634050.000000 1 0 0
8.399903 -11.014864 8.665272 16.339295 -0.919282 1.011803 -0.003907 0.000256 -1192700.000000 1 0 0
16.712003 0.073436 -0.722128 16.727759 0.004394 1.613979 0.001586 0.004455 -1046220.000000 1 0 0
12.333203 -12.421164 2.105772 17.630301 -0.788951 1.451070 0.006517 0.000866 -1669370.000000 1 0 0
10.289403 -11.610964 3.485572 15.900803 -0.845669 1.349794 0.000948 0.000661 -1003400.000000 1 0 0
16.315103 2.939036 2.272872 16.732797 0.178231 1.434542 0.002550 0.000126 481393.000000 1 0 0
18.286403 -3.360964 0.235072 18.594190 -0.181767 1.558154 -0.003109 0.001954 406959.000000 1 0 0
13.468203 -11.659164 -0.288728 17.816060 -0.713527 1.587003 0.017058 -0.000153 -530821.000000 1 0 0
16.928303 -7.751564 -1.137528 18.653369 -0.429409 1.631817 0.012747 0.002364 20350.500000 1 0 0
10.226603 -5.779664 9.743272 15.261694 -0.514408 0.878361 -0.000032 -0.002571 -20807.600000 1 0 0
11.128303 -13.326164 6.021972 18.376342 -0.875033 1.236926 -0.007415 0.002684 46651.500000 1 0 0
13.154003 -1.728364 10.331272 16.815179 -0.130646 0.909169 0.001304 -0.000317 1350490.000000 1 0 0
15.501803 -1.953264 -1.423728 15.689109 -0.125342 1.661668 0.000725 0.000058 -131638.000000 1 0 0
10.550503 -12.387764 9.086672 18.636991 -0.865323 1.061502 -0.006598 0.000757 -20331.000000 1 0 0
14.540903 1.161236 3.389872 14.975900 0.079691 1.342462 0.002715 -0.002968 1865060.000000 1 0 0
15.047403 -5.794364 5.239072 16.954259 -0.367573 1.256642 0.005481 -0.001389 -592070.000000 1 0 0
14.294703 -3.342164 -3.190628 15.022940 -0.229679 1.784810 0.005880 0.000851 1065890.000000 1 0 0
14.238603 0.487936 9.427672 17.083820 0.034255 0.986218 0.009205 -0.004879 -67867.800000 1 0 0
15.341103 -3.460864 4.217672 16.282377 -0.221880 1.308775 0.002085 -0.000776 -808767.000000 1 0 0
18.520803 4.691436 -4.310628 19.585996 0.248088 1.792700 -0.009131 0.006801 535412.000000 1 0 0
18.188503 -5.746264 -5.527428 19.859347 -0.306005 1.852850 0.031168 0.007253 891464.000000 1 0 0
17.311403 0.077236 5.772072 18.248492 0.004462 1.248965 0.007536 -0.001108 489251.000000 1 0 0
17.048403 -6.712764 3.931572 18.739438 -0.375105 1.359424 0.009273 -0.002916 136636.000000 1 0 0
9.673203 -6.573864 14.243972 18.430336 -0.596900 0.687469 -0.008987 -0.002668 -1268270.000000 1 0 0
8.525203 -12.290564 5.060272 15.790612 -0.964353 1.244580 -0.006079 -0.002968 -1868100.000000 1 0 0
16.638903 -10.381964 -0.713328 19.625166 -0.557849 1.607152 0.001017 0.004409 -313752.000000 1 0 0
14.895303 -8.765764 0.224272 17.284646 -0.531915 1.557821 0.011886 -0.003612 -58223.800000 1 0 0
9.890703 -12.993264 1.372572 16.387034 -0.920154 1.486938 0.003838 -0.001676 97479.900000 1 0 0
17.026903 -8.334364 8.666872 20.844466 -0.455198 1.141988 0.005005 -0.001868 510430.000000 1 0 0
19.072203 -0.365764 -1.866728 19.166831 -0.019176 1.668345 0.005049 0.010472 -176785.000000 1 0 0
13.457003 -1.398664 7.692472 15.563461 -0.103564 1.053807 0.001922 -0.005990 4243.520000 1 0 0
12.734803 -9.971264 -3.063928 16.461743 -0.664285 1.758012 0.010665 -0.002309 -1233620.000000 1 0 0
8.770103 -15.307164 1.346872 17.692881 -1.050511 1.494598 0.010714 0.001470 719111.000000 1 0 0
11.455603 -8.266764 11.116172 17.976082 -0.625099 0.904108 -0.008206 -0.002364 274845.000000 1 0 0
13.984003 -4.063064 -0.734228 14.580807 -0.282765 1.621173 0.003156 -0.000433 -1626350.000000 1 0 0
7.203603 -13.368664 10.320972 18.361251 -1.076560 0.973866 -0.001587 0.003583 -464390.000000 1 0 0
15.362303 -6.838564 1.751372 16.906615 -0.418815 1.467019 -0.000350 0.000653 -449289.000000 1 0 0
15.757303 -6.207264 -2.780228 17.162529 -0.375262 1.733507 0.003808 0.004508 -4668.810000 1 0 0
11.094503 -8.555664 3.698272 14.490156 -0.656908 1.312714 0.004619 -0.005221 151724.000000 1 0 0
10.617503 -14.487364 -0.515028 17.968872 -0.938342 1.599462 0.028711 0.001348 643594.000000 1 0 0
13.172103 -13.077264 4.507072 19.100598 -0.781785 1.332585 -0.003747 0.006994 172613.000000 1 0 0
12.776703 -11.259964 6.395372 18.191529 -0.722381 1.211562 -0.004600 -0.003143 301664.000000 1 0 0
10.774403 -10.550964 1.230572 15.130265 -0.774921 1.489375 0.003015 -0.001141 562461.000000 1 0 0
13.891403 -7.483764 11.848372 19.732251 -0.494152 0.926724 -0.007248 -0.004296 -1422300.000000 1 0 0
15.295503 -1.757464 -5.073228 16.210452 -0.114399 1.889105 0.013033 0.002577 -537462.000000 1 0 0
12.809203 -11.472264 -7.168028 18.629792 -0.730394 1.965746 0.028094 -0.000588 531855.000000 1 0 0
17.658603 -5.450564 1.736172 18.562037 -0.299386 1.477126 0.004896 0.002072 585103.000000 1 0 0
10.749503 -9.824764 9.021372 17.130761 -0.740482 1.016179 -0.007392 -0.001009 -1102110.000000 1 0 0
16.499603 1.802236 9.769472 19.259480 0.108798 1.038799 0.016838 0.000469 105874.000000 1 0 0
18.166503 3.540236 0.453472 18.513799 0.192465 1.546300 -0.006114 0.005990 715279.000000 1 0 0
13.220203 -4.056864 5.612272 14.924126 -0.297746 1.185263 0.001783 -0.006088 -939240.000000 1 0 0
12.173803 -6.280264 6.518272 15.170072 -0.476274 1.126658 0.002414 -0.005747 -114407.000000 1 0 0
16.421203 -10.371764 3.319172 19.703967 -0.563337 1.401537 -0.005090 -0.000924 542214.000000 1 0 0
16.148903 -8.171164 -5.493028 18.913708 -0.468427 1.865468 0.009763 0.000951 123153.000000 1 0 0
14.009103 -0.559464 5.265672 14.976491 -0.039915 1.211521 0.002073 -0.001020 449661.000000 1 0 0
18.076903 -4.292664 5.148672 19.279788 -0.233148 1.300466 -0.003814 0.002103 -49980.600000 1 0 0
13.452203 -13.730564 7.002072 20.457741 -0.795638 1.221465 -0.011283 0.011567 85429.400000 1 0 0
14.934003 -13.618464 -0.823628 20.227837 -0.739356 1.611525 0.022118 0.002165 -84516.700000 1 0 0
17.916503 -6.122264 7.746772 20.457167 -0.329271 1.182424 0.023139 0.001724 2605.690000 1 0 0
14.451903 3.188036 9.048472 17.346352 0.217119 1.022030 0.005436 -0.008111 776134.000000 1 0 0
18.816203 3.792536 2.955672 19.420835 0.198892 1.418012 0.008760 0.001447 606826.000000 1 0 0
14.760203 -10.784964 8.015972 19.960833 -0.631020 1.157549 -0.008947 0.002338 -455514.000000 1 0 0
14.822203 -4.853364 10.214472 18.643720 -0.316436 0.990972 -0.002640 -0.005607 116681.000000 1 0 0
17.753903 -7.914264 1.735172 19.515314 -0.419336 1.481765 0.012180 -0.002041 198249.000000 1 0 0
18.287203 -5.840664 -2.259128 19.329739 -0.309145 1.687937 -0.003017 0.004934 264107.000000 1 0 0
14.061203 -13.135464 -5.657028 20.056416 -0.751373 1.856733 0.022016 -0.000474 -274569.000000 1 0 0
15.545303 -1.660164 9.303872 18.192709 -0.106392 1.033975 0.006004 -0.002309 415534.000000 1 0 0
13.072103 -10.019264 10.011272 19.274105 -0.653954 1.024629 -0.011646 -0.007710 -1201450.000000 1 0 0
16.730603 2.242236 4.741772 17.533543 0.133226 1.296946 0.004067 -0.001476 -1809330.000000 1 0 0
14.860803 2.340936 -0.234128 15.045872 0.156240 1.586358 0.000009 0.002138 -1138420.000000 1 0 0
15.013703 -9.895964 -7.036628 19.309467 -0.582766 1.943799 0.017473 -0.003219 912247.000000 1 0 0
16.280603 -0.137964 -3.320128 16.616267 -0.008474 1.771962 0.008985 0.007160 -102737.000000 1 0 0
12.142903 2.441336 13.448872 18.283391 0.198405 0.744276 0.021181 -0.008800 -350584.000000 1 0 0
17.738203 -3.117364 9.255872 20.249271 -0.173966 1.096068 0.017283 -0.006797 860579.000000 1 0 0
7.826003 -18.158864 4.491072 20.277091 -1.163876 1.347459 0.015181 -0.010156 -476013.000000 1 0 0
6.845303 -11.136264 6.520472 14.607913 -1.019648 1.108096 -0.006174 -0.000717 -79239.000000 1 0 0
18.136303 2.069636 -1.577928 18.322084 0.113624 1.657025 0.009187 0.010541 662569.000000 1 0 0
17.493303 -2.301764 3.521972 17.992167 -0.130828 1.373774 -0.003358 0.001875 -1470410.000000 1 0 0
12.502303 -13.462564 -2.012628 18.482394 -0.822364 1.679907 0.025356 0.002095 213900.000000 1 0 0
14.915403 -8.324664 4.221872 17.595269 -0.509060 1.328489 0.005126 -0.000178 32188.000000 1 0 0
11.143803 -3.035864 14.884772 18.840310 -0.265972 0.659907 -0.019850 -0.003153 184182.000000 1 0 0
11.720203 -13.792164 -6.514328 19.235993 -0.866434 1.916281 0.013441 -0.000806 -70222.600000 1 0 0
10.554403 -11.954164 -1.317628 16.001050 -0.847506 1.653236 0.012839 -0.008859 -857935.000000 1 0 0
13.119303 -8.010064 2.001772 15.501108 -0.548145 1.441297 0.005592 -0.001269 246138.000000 1 0 0
8.831203 -7.828964 9.966772 15.447310 -0.725313 0.869497 -0.001859 -0.003016 -821645.000000 1 0 0
15.710703 -3.857064 7.900872 18.003525 -0.240744 1.116476 0.009660 -0.006055 -837919.000000 1 0 0
10.209303 -17.470364 5.309172 20.919627 -1.041942 1.314201 0.009141 -0.002551 -624643.000000 1 0 0
15.312103 -6.445664 8.204672 18.528997 -0.398437 1.112075 0.007483 0.001462 29896.700000 1 0 0
16.484303 -5.134764 -0.497328 17.272678 -0.301968 1.599593 -0.001357 0.002749 -1265850.000000 1 0 0
13.816403 -10.691764 3.455872 17.808702 -0.658589 1.375502 0.005047 -0.001262 451187.000000 1 0 0
14.882703 -10.176464 -4.488728 18.579665 -0.599756 1.814804 0.014896 -0.003470 412235.000000 1 0 0
13.658403 -6.601764 -0.183628 15.171321 -0.450238 1.582900 0.000602 -0.000353 -137392.000000 1 0 0
17.674303 -0.898964 -5.297528 18.473033 -0.050819 1.861651 0.003395 0.007963 -1084430.000000 1 0 0
14.325903 0.222136 -1.779028 14.437652 0.015505 1.694332 0.006627 0.003726 -2156460.000000 1 0 0
4.972503 -12.926964 11.591272 18.060725 -1.203582 0.873960 -0.007917 0.005733 -595544.000000 1 0 0
11.934903 -7.604964 13.552572 19.594632 -0.567327 0.807029 -0.012555 -0.001083 641258.000000 1 0 0
12.075503 -5.800364 11.638972 17.746202 -0.447797 0.855479 -0.004378 -0.000239 365856.000000 1 0 0
13.387703 -4.659164 8.152472 16.352407 -0.334908 1.048872 0.003841 -0.006146 -1574900.000000 1 0 0
15.249103 -1.291164 2.875972 15.571560 -0.084470 1.385036 0.003064 -0.000136 123837.000000 1 0 0
15.128603 -10.436664 5.603772 19.214600 -0.603890 1.274854 -0.003341 -0.007294 132027.000000 1 0 0
13.605203 -8.130664 -5.583728 16.804383 -0.538663 1.909514 0.012923 -0.002317 -380904.000000 1 0 0
9.446603 -1.857564 13.363772 16.470558 -0.194161 0.624298 -0.010253 -0.010754 -813588.000000 1 0 0
9.722003 -9.186464 13.737372 19.173520 -0.757083 0.772058 -0.010282 0.004846 -116200.000000 1 0 0
20.277503 6.196636 -3.081028 21.425876 0.296579 1.715096 0.000587 0.015015 -32534.600000 1 0 0
11.264503 -3.605064 10.515472 15.825950 -0.309737 0.844045 0.000183 -0.002392 692001.000000 1 0 0
10.124203 -14.062164 -3.018728 17.588538 -0.946799 1.743281 0.017927 -0.000139 749473.000000 1 0 0
14.755903 -12.938264 2.493672 19.782663 -0.719860 1.444407 0.005955 0.006898 -402479.000000 1 0 0
11.370603 -0.459164 14.517172 18.445860 -0.040360 0.664840 0.002734 -0.003733 264733.000000 1 0 0
18.968103 -1.924864 5.541672 19.854576 -0.101133 1.287926 0.006049 -0.002056 441177.000000 1 0 0
18.959903 -0.484964 7.735872 20.483087 -0.025573 1.183516 0.016696 0.001012 159527.000000 1 0 0
18.986703 0.570536 0.489972 19.001592 0.030040 1.545008 0.004011 0.002910 51736.500000 1 0 0
18.639903 0.858736 3.698672 19.022713 0.046037 1.375115 0.007228 -0.000009 -156847.000000 1 0 0
16.583003 -4.016364 -4.364528 17.611822 -0.237622 1.821224 0.002018 0.003330 -325530.000000 1 0 0
10.902803 -8.319564 15.819972 20.936996 -0.651811 0.714228 -0.004334 -0.005479 359425.000000 1 0 0
16.532503 -7.716864 6.219172 19.275678 -0.436711 1.242275 0.001718 0.000552 343178.000000 1 0 0
18.848403 2.192036 6.063872 19.920790 0.115778 1.261489 0.012991 0.001078 205744.000000 1 0 0
15.419403 1.613536 7.448872 17.200209 0.104264 1.122902 0.009212 -0.004395 -119597.000000 1 0 0
8.823603 -15.826364 3.798572 18.513750 -1.062194 1.364153 0.003369 -0.005838 509695.000000 1 0 0
11.298303 -15.170964 1.955372 19.016658 -0.930675 1.467790 0.020406 0.004749 -373525.000000 1 0 0
8.102303 -16.167964 6.178072 19.110703 -1.106243 1.241605 0.002293 -0.003250 -75351.500000 1 0 0
14.454803 -11.852764 -2.532428 18.863789 -0.686810 1.705451 0.012936 -0.000010 374053.000000 1 0 0
13.717003 -5.050164 3.122672 14.946954 -0.352768 1.360329 0.002907 0.001959 -711369.000000 1 0 0
-1.132197 10.250336 -5.556428 11.714314 -1.460788 2.064997 0.002269 -0.000289 -1521480.000000 1 0 0
8.124803 -1.768264 -7.969628 11.517559 -0.214296 2.334989 -0.002507 -0.001665 -3183650.000000 1 0 0
3.059903 -10.164564 7.554072 13.028637 -1.278389 0.952307 -0.004798 -0.002437 558208.000000 1 0 0
-6.257897 1.363136 8.342772 10.517664 -0.214476 0.654725 -0.000296 -0.001677 -518560.000000 1 0 0
7.211003 -6.209864 -7.326528 12.009954 -0.710940 2.226905 -0.001842 -0.003851 -262454.000000 1 0 0
-11.396397 -4.461364 -4.011428 12.879176 0.373133 1.887532 0.005301 -0.004332 89422.300000 1 0 0
2.134503 -3.252064 2.807772 4.797459 -0.989968 0.945593 0.005455 -0.000321 2414000.000000 1 0 0
-3.641297 -4.244964 8.975272 10.575173 0.861796 0.557252 -0.002438 -0.001808 -2088610.000000 1 0 0
-4.892397 -1.057264 -2.424628 5.561670 0.212831 2.021893 -0.003051 -0.001627 -379660.000000 1 0 0
4.825203 -5.209564 -3.719028 8.015816 -0.823682 2.053258 0.003204 -0.004431 -3359.110000 1 0 0
2.624703 14.165036 -8.818928 16.891145 1.387580 2.120112 0.001922 -0.005300 -173416.000000 1 0 0
5.520903 -5.458664 13.653672 15.706691 -0.779730 0.517032 -0.007333 -0.000165 -921240.000000 1 0 0
-4.647397 -0.841964 9.913372 10.980990 0.179225 0.444616 0.005874 -0.000751 -2544490.000000 1 0 0
-0.995297 11.961536 -2.644028 12.290640 -1.487779 1.787616 -0.004978 -0.000168 -258088.000000 1 0 0
3.174903 9.382936 -10.526928 14.454608 1.244520 2.386597 0.001927 -0.001798 -5417.690000 1 0 0
-10.595197 2.738836 1.234272 11.012849 -0.252961 1.458485 -0.001082 -0.000686 194142.000000 1 0 0
5.648503 -8.996464 -0.738328 10.648337 -1.010144 1.640189 -0.003465 -0.003771 373089.000000 1 0 0
-7.000797 5.377936 9.501072 12.969338 -0.655041 0.748692 0.001173 -0.001803 -495965.000000 1 0 0
-5.471997 -1.858064 5.221172 7.788183 0.327343 0.836053 0.000244 -0.004418 689850.000000 1 0 0
6.496603 -3.761164 -7.420728 10.555539 -0.524793 2.350428 0.000218 -0.005089 363818.000000 1 0 0
6.420703 4.788536 11.089072 13.679292 0.640805 0.625541 -0.001111 -0.005120 -55101.400000 1 0 0
3.689803 -9.947064 3.206572 11.083359 -1.215586 1.277286 -0.008680 -0.001123 1040240.000000 1 0 0
-6.689997 6.580736 -5.698228 10.978704 -0.777165 2.116507 -0.000594 -0.001322 21618.000000 1 0 0
-10.885097 8.492536 5.329172 14.798938 -0.662550 1.202416 -0.002667 -0.002069 253129.000000 1 0 0
-9.155697 -5.448064 5.231572 11.869184 0.536769 1.114341 0.001047 -0.002229 -2572760.000000 1 0 0
3.148003 9.813036 -8.037128 13.069086 1.260370 2.233147 0.002733 -0.002430 701781.000000 1 0 0
-8.071397 -8.474164 6.045472 13.172192 0.809736 1.093975 0.007058 -0.005502 -2324740.000000 1 0 0
-7.783097 -5.796864 -7.324028 12.158191 0.640166 2.217294 0.007061 -0.000019 211330.000000 1 0 0
9.312103 -1.532764 6.913672 11.698868 -0.163136 0.938536 0.001896 -0.008328 1115960.000000 1 0 0
-4.025597 -0.384364 -4.852528 6.316660 0.095191 2.446838 -0.002076 -0.005239 -329286.000000 1 0 0
8.938303 1.077636 -4.475328 10.054010 0.119985 2.032114 -0.001293 -0.000259 -1126270.000000 1 0 0
-1.911197 -10.654564 10.611272 15.158216 1.393306 0.795351 0.000672 -0.004361 355800.000000 1 0 0
-12.947297 0.390036 -2.634328 13.218332 -0.030116 1.771433 0.004081 -0.004279 -991788.000000 1 0 0
-9.768097 -4.993564 -5.926128 12.468776 0.472577 2.066076 0.009422 -0.005258 -1729200.000000 1 0 0
-5.335397 8.268436 -0.028328 9.840442 -0.997751 1.573675 -0.005274 0.000615 -93787.400000 1 0 0
6.203603 9.606436 0.457772 11.444556 0.997396 1.530787 0.005424 -0.003423 540893.000000 1 0 0
-0.507197 -12.059764 -0.031428 12.070466 1.528764 1.573400 0.000298 0.000936 -862844.000000 1 0 0
6.177603 4.709036 2.381472 8.124605 0.651311 1.273309 0.000226 -0.001339 390477.000000 1 0 0
3.351103 -7.466264 -8.258528 11.626619 -1.148914 2.360738 -0.002024 -0.003049 784427.000000 1 0 0
-6.569597 -9.887164 4.573872 12.721475 0.984325 1.203022 0.004834 -0.000412 -3321400.000000 1 0 0
-0.136997 6.576136 -9.153228 11.271464 -1.549967 2.518488 0.006901 -0.002800 -2233870.000000 1 0 0
-17.327897 -2.770864 4.223272 18.049092 0.158565 1.334619 0.014565 -0.002503 740512.000000 1 0 0
-8.406697 0.828936 -9.105528 12.420560 -0.098287 2.393667 -0.000340 -0.002833 243011.000000 1 0 0
-10.011597 -5.779964 -11.776728 16.502465 0.523581 2.365469 0.000337 0.007346 347541.000000 1 0 0
2.248503 9.408636 6.405072 11.601860 1.336213 0.985948 -0.007272 0.005749 -49065.700000 1 0 0
-11.331697 1.718436 -1.142928 11.518101 -0.150502 1.670189 0.004144 -0.001605 -753384.000000 1 0 0
-6.079197 -5.375464 -2.868428 8.606981 0.724039 1.910563 0.000500 -0.000482 247141.000000 1 0 0
-6.869597 -8.286264 1.400672 10.854281 0.878601 1.441392 0.004872 -0.001258 -408975.000000 1 0 0
-0.041497 11.106736 -7.914628 13.638278 -1.567060 2.189923 0.004727 0.000647 357047.000000 1 0 0
-2.859297 9.196336 -4.195528 10.504790 -1.269354 1.981650 0.000377 -0.002156 153407.000000 1 0 0
3.479703 -4.811964 9.212272 10.960351 -0.944711 0.572575 -0.000122 -0.002419 -1524030.000000 1 0 0
-8.881197 1.697736 -0.370928 9.049616 -0.188882 1.611796 0.000136 0.000208 -1313810.000000 1 0 0
2.429403 3.526436 -10.398228 11.245483 0.967551 2.750933 -0.001299 -0.000974 -844471.000000 1 0 0
-13.752897 0.458436 1.219872 13.814500 -0.033321 1.482377 0.000257 -0.000511 -1350720.000000 1 0 0
9.314603 -12.635464 -5.157028 16.523067 -0.935551 1.888210 0.017752 0.001363 -2238120.000000 1 0 0
-4.869697 9.531736 -8.248028 13.512879 -1.098472 2.227340 -0.001762 -0.000401 -1341130.000000 1 0 0
-2.255297 7.161636 8.422372 11.283251 -1.265714 0.728086 -0.002878 0.003522 -332009.000000 1 0 0
-10.695497 -1.189064 -4.387628 11.621480 0.110720 1.957940 0.006558 -0.002897 -2073710.000000 1 0 0
2.722503 -7.149764 9.581372 12.261070 -1.206966 0.673815 -0.004824 0.000121 -1765010.000000 1 0 0
-16.108397 -6.436464 3.475072 17.691372 0.380137 1.373083 0.004195 -0.006308 -283608.000000 1 0 0
-10.727597 -0.003364 6.337272 12.459629 0.000314 1.037210 0.000383 -0.004540 -1885430.000000 1 0 0
-8.196597 9.944336 9.566872 16.049893 -0.881444 0.932198 -0.004278 -0.005258 -784252.000000 1 0 0
0.007803 -5.966864 -3.853828 7.103205 -1.569489 2.144263 -0.005626 0.000722 666856.000000 1 0 0
4.847203 1.461336 -2.964128 5.866595 0.292814 2.100474 -0.004113 0.000944 273636.000000 1 0 0
0.388703 5.293036 3.788372 6.520666 1.497491 0.950865 -0.004667 0.001726 -1617160.000000 1 0 0
5.885203 -11.312964 -1.601928 12.852430 -1.091106 1.695761 -0.004130 -0.002544 -2813580.000000 1 0 0
6.210803 -13.400664 5.184372 15.653421 -1.136798 1.233224 -0.003436 -0.006480 -483483.000000 1 0 0
8.144403 -8.138264 -6.038128 13.000832 -0.785021 2.053800 0.000536 -0.003701 715778.000000 1 0 0
-13.078197 -1.297264 -4.641928 13.938063 0.098869 1.910322 0.003715 -0.003389 -3630660.000000 1 0 0
-6.832197 -1.512764 -7.080328 9.954818 0.217901 2.362066 0.000525 -0.002751 104579.000000 1 0 0
-5.766097 13.011636 -4.430428 14.905678 -1.153654 1.872587 -0.000238 -0.001019 -172339.000000 1 0 0
-4.336397 6.895536 -6.797128 10.609133 -1.009419 2.266188 0.002007 -0.000283 -1931680.000000 1 0 0
-9.219497 -3.735264 -8.115128 12.837703 0.384937 2.255098 0.008768 0.000453 685891.000000 1 0 0
-2.201197 -6.388964 9.126472 11.355907 1.239002 0.637349 -0.002132 0.000087 -365035.000000 1 0 0
7.487503 -5.912964 9.979472 13.806365 -0.668436 0.762927 -0.003871 -0.003890 278664.000000 1 0 0
9.715903 -5.012264 12.133572 16.332334 -0.476273 0.733378 0.001495 -0.000122 -560875.000000 1 0 0
-6.529897 2.796436 -9.080528 11.528902 -0.404621 2.477752 -0.003215 -0.001831 408187.000000 1 0 0
7.388003 5.375036 8.724872 12.633171 0.628968 0.808434 -0.003506 -0.004427 -77065.600000 1 0 0
12.817803 3.314136 11.081372 17.264889 0.253016 0.873895 0.007831 -0.003412 23569.400000 1 0 0
-7.422697 -7.234764 -3.940328 11.088932 0.772577 1.934073 0.007929 -0.005005 -1130740.000000 1 0 0
2.317703 1.507036 -5.815728 6.439378 0.576536 2.697848 -0.002529 -0.001514 -478430.000000 1 0 0
12.672703 7.032036 -7.236228 16.199072 0.506595 2.033877 0.000166 0.001046 -34049.300000 1 0 0
0.742803 -7.684764 0.927272 7.776065 -1.474436 1.451265 -0.002019 0.003171 1674330.000000 1 0 0
-10.244697 -6.041264 -8.382928 14.550744 0.532809 2.184766 0.006392 0.000293 -44125.800000 1 0 0
-6.709797 0.301036 3.193772 7.437216 -0.044835 1.126933 -0.000066 -0.004911 -311650.000000 1 0 0
10.686203 -7.983964 1.085872 13.383488 -0.641661 1.489572 0.000584 -0.001864 313309.000000 1 0 0
6.262303 1.102836 10.507372 12.281595 0.174320 0.544207 0.002164 -0.004544 -789708.000000 1 0 0
-12.893297 5.409836 2.002772 14.124961 -0.397275 1.428527 -0.001041 0.000410 -146833.000000 1 0 0
2.049303 7.411336 3.569272 8.477455 1.301027 1.136215 -0.005633 0.001700 237130.000000 1 0 0
9.768603 -9.488264 -0.894028 13.647419 -0.770841 1.636352 0.001280 -0.004270 752964.000000 1 0 0
6.691403 -11.618564 -9.132628 16.222540 -1.048268 2.168758 -0.003278 -0.002697 -196032.000000 1 0 0
10.335503 3.400536 11.895272 16.120911 0.317859 0.740875 -0.003820 -0.004599 -1111860.000000 1 0 0
-11.007897 -3.049364 -1.841028 11.569866 0.270240 1.730598 0.002635 -0.002027 250703.000000 1 0 0
12.543403 0.935136 6.807572 14.302255 0.074414 1.074719 -0.000983 -0.004270 -465585.000000 1 0 0
-9.457197 9.065436 3.033372 13.447009 -0.764251 1.343258 -0.002545 -0.002769 596204.000000 1 0 0
-6.728297 7.812936 -8.715728 13.500957 -0.859851 2.272557 -0.001974 0.000469 -1877430.000000 1 0 0
8.661203 5.456836 12.031072 15.796842 0.562210 0.704999 0.001641 -0.003743 -1614220.000000 1 0 0
1.304303 4.923736 -2.680728 5.755926 1.311843 2.055260 -0.002805 -0.002410 331415.000000 1 0 0
1.420503 0.507636 9.569672 9.687835 0.343219 0.156345 0.003673 -0.001758 552569.000000 1 0 0
2.563203 12.572536 -3.948728 13.425018 1.369679 1.869344 0.003201 -0.004619 580410.000000 1 0 0
2.179003 0.620736 12.963972 13.160469 0.277520 0.173021 0.003065 -0.003852 -289605.000000 1 0 0
-12.195397 -1.764664 0.857872 12.352234 0.143702 1.501290 -0.001393 -0.000502 73586.500000 1 0 0
3.245303 8.703336 -1.267728 9.374816 1.213885 1.706439 -0.001560 -0.001356 231030.000000 1 0 0
3.624603 -2.864764 -5.876028 7.474779 -0.668839 2.475293 -0.000546 -0.004702 -1543980.000000 1 0 0
-7.669297 -7.170664 9.320072 14.039241 0.751810 0.844830 0.006467 -0.005087 -5672.240000 1 0 0
-7.100397 10.927336 -3.576128 13.513363 -0.994574 1.838623 -0.000678 -0.001600 -141632.000000 1 0 0
0.339203 0.567736 2.466072 2.553213 1.032241 0.262014 0.001297 -0.000658 -2557410.000000 1 0 0
-7.031897 4.582036 -1.984328 8.624394 -0.577504 1.802959 0.001946 -0.002146 -438657.000000 1 0 0
-6.877597 -3.880664 -5.947728 9.886170 0.513716 2.216325 -0.000060 -0.003179 -390550.000000 1 0 0
3.006403 -6.174664 13.404272 15.061190 -1.117689 0.473478 -0.008362 0.003603 -1547200.000000 1 0 0
-5.257597 -0.541864 -11.798828 12.928584 0.102700 2.720433 0.001949 -0.000826 -576851.000000 1 0 0
11.854203 2.399136 -0.733328 12.116755 0.199690 1.631355 0.001543 0.000911 -1153170.000000 1 0 0
6.197803 -10.931464 10.651772 16.473310 -1.055018 0.867667 -0.008571 0.003622 240534.000000 1 0 0
-8.198497 6.533136 -10.392128 14.761217 -0.672829 2.351832 -0.005955 0.003815 137600.000000 1 0 0
2.923103 7.875036 11.273772 14.059113 1.215374 0.640355 -0.002666 -0.002749 903470.000000 1 0 0
-6.143097 -10.149364 -0.365428 11.869320 1.026511 1.601589 0.005260 -0.000397 -44418.300000 1 0 0
11.360503 4.184436 5.977272 13.501790 0.352912 1.112186 0.001084 -0.002046 883729.000000 1 0 0
-7.821997 10.622636 1.466672 13.273099 -0.936087 1.460071 -0.006315 0.002230 670501.000000 1 0 0
4.269303 -2.592364 -3.557628 6.132212 -0.545704 2.189714 0.003303 -0.005102 -5454330.000000 1 0 0
6.616303 6.329636 6.179272 11.046410 0.763258 0.977144 -0.000251 -0.001265 -5748220.000000 1 0 0
-0.446297 10.388136 -10.144128 14.526385 -1.527861 2.343850 0.003947 0.000100 -138242.000000 1 0 0
13.792803 6.465736 -2.547628 15.444662 0.438358 1.736506 0.000071 0.006315 519897.000000 1 0 0
1.304203 9.473036 -6.250628 11.424084 1.433981 2.149746 0.003214 -0.001260 1545020.000000 1 0 0
0.685103 7.402936 7.269872 10.398263 1.478514 0.796598 -0.008071 0.003963 151817.000000 1 0 0
12.308203 6.315536 1.848972 13.956954 0.474085 1.437929 -0.000683 0.001534 -2379550.000000 1 0 0
-6.859397 6.736036 -3.077028 10.094236 -0.776325 1.880556 -0.000242 -0.003323 -57885.800000 1 0 0
1.164503 9.906336 11.134772 14.949071 1.453782 0.730491 -0.002640 0.001123 -1399680.000000 1 0 0
-3.655397 13.789036 -10.917228 17.963443 -1.311662 2.224017 0.002082 0.002412 -77454.200000 1 0 0
-9.940697 -5.386764 -2.224028 11.523063 0.496595 1.765022 0.008592 -0.002513 497391.000000 1 0 0
-4.191697 3.993036 -12.434028 13.715673 -0.761131 2.705848 0.000975 -0.002027 -1007740.000000 1 0 0
-3.154597 8.361836 2.415772 9.257847 -1.210045 1.306797 -0.006130 0.002573 -1431200.000000 1 0 0
7.093503 8.765036 7.132972 13.342524 0.890413 1.006757 0.001071 0.001013 -610626.000000 1 0 0
-1.444397 -2.247364 -8.151928 8.578511 0.999565 2.824908 -0.001215 -0.004693 -1615740.000000 1 0 0
0.896203 -1.327864 4.857872 5.115206 -0.977101 0.318544 0.003513 -0.002368 573526.000000 1 0 0
2.544703 -8.776164 -6.127228 11.001795 -1.288579 2.161481 -0.005440 -0.001914 106894.000000 1 0 0
5.316903 3.883336 8.855972 11.035307 0.630823 0.639302 0.000245 -0.003394 56360.000000 1 0 0
6.109803 -7.409464 -2.879728 10.026100 -0.881238 1.862123 0.000909 -0.006162 908516.000000 1 0 0
1.577203 2.224636 -8.269128 8.707184 0.954075 2.823042 0.000479 -0.001929 229542.000000 1 0 0
-5.388997 10.894136 -0.647928 12.171413 -1.111422 1.624055 -0.009260 0.003112 412472.000000 1 0 0
-5.410397 3.316736 -3.410728 7.204595 -0.549945 2.063954 0.000307 -0.001139 -157013.000000 1 0 0
2.011303 13.771836 -6.316928 15.284383 1.425777 1.996864 -0.001486 -0.000667 467677.000000 1 0 0
-5.348297 -2.523864 2.657572 6.483584 0.440916 1.148460 -0.007024 -0.002121 -382399.000000 1 0 0
10.393703 -3.330664 -2.043628 11.104000 -0.310111 1.755896 0.001949 -0.003318 -96775.800000 1 0 0
2.342503 -3.300764 7.021072 8.104186 -0.953600 0.522946 0.002452 -0.002902 -2355110.000000 1 0 0
-2.928897 10.033436 -11.676628 15.671372 -1.286775 2.411470 0.001185 0.006708 -2555020.000000 1 0 0
0.445203 -1.920964 9.173472 9.383011 -1.343057 0.211733 0.000824 -0.002891 24840.400000 1 0 0
9.478003 2.575236 4.946472 10.996908 0.265302 1.104248 -0.000130 -0.004255 -501706.000000 1 0 0
13.281103 2.133336 -5.153328 14.404708 0.159269 1.936657 0.002282 0.005243 -787378.000000 1 0 0
-6.469997 3.714736 7.680872 10.707750 -0.521194 0.770850 -0.000638 -0.001620 -366465.000000 1 0 0
10.636103 0.155936 1.600872 10.757035 0.014660 1.421420 0.000419 -0.003566 1473430.000000 1 0 0
15.117503 6.480136 -4.764828 17.124096 0.404959 1.852771 -0.009222 0.005142 -981785.000000 1 0 0
7.976303 -4.941264 -9.308428 13.216820 -0.554629 2.352214 0.000898 -0.001689 1483260.000000 1 0 0
4.331203 5.665836 -2.161328 7.452003 0.918116 1.865058 -0.002416 0.000254 921013.000000 1 0 0
-1.594997 -10.498964 1.430672 10.715367 1.420030 1.436880 -0.002922 0.003824 -681699.000000 1 0 0
-2.837897 12.346136 -12.873028 18.060885 -1.344860 2.364218 0.001584 0.004460 -563810.000000 1 0 0
8.210903 4.198736 -9.724728 13.402188 0.472695 2.382713 -0.011351 0.002900 -1415020.000000 1 0 0
4.085503 7.569436 -9.027228 12.469103 1.075867 2.380333 -0.001970 -0.004084 -2594780.000000 1 0 0
-1.846897 -4.939764 -2.516228 5.843261 1.213005 2.015976 -0.001806 0.000827 -827122.000000 1 0 0
-3.158697 -9.178164 6.996172 11.965053 1.239340 0.946265 0.001363 0.001246 -885221.000000 1 0 0
0.981003 7.276436 -1.320428 7.460055 1.436785 1.748734 -0.002666 -0.000837 1146720.000000 1 0 0
0.241103 -0.983164 -2.261328 2.477568 -1.330310 2.720690 0.004131 0.000515 -2358770.000000 1 0 0
4.025403 -6.563564 7.272572 10.591249 -1.020658 0.813914 0.003465 -0.001796 -1445400.000000 1 0 0
-13.877797 3.874236 6.161472 15.670567 -0.272237 1.166701 -0.003991 0.001308 -1518680.000000 1 0 0
4.345803 6.347936 12.628372 14.787092 0.970480 0.547145 0.002609 -0.007293 -1673930.000000 1 0 0
8.150003 10.147436 -7.279128 14.912368 0.894132 2.080739 0.001009 -0.002941 -653723.000000 1 0 0
12.482303 5.207036 9.349172 16.441659 0.395206 0.965960 -0.003726 -0.003549 1014.210000 1 0 0
7.536803 4.022936 0.335672 8.549859 0.490299 1.531526 -0.002646 0.002291 -1987140.000000 1 0 0
-10.761597 -7.496464 -0.986428 13.152261 0.608436 1.645867 0.008246 -0.003172 -1399710.000000 1 0 0
10.411303 6.756336 0.208972 12.413178 0.575631 1.553961 -0.001514 0.001793 -337739.000000 1 0 0
14.697403 3.568836 4.107372 15.672293 0.238210 1.305621 0.004727 -0.002497 584493.000000 1 0 0
2.244403 5.628236 8.216072 10.208733 1.191346 0.635444 -0.006301 0.000682 -51933.600000 1 0 0
4.315203 0.091336 11.663272 12.436287 0.021163 0.354437 0.001839 -0.004063 -1957410.000000 1 0 0
-1.659397 -1.416264 -0.348628 2.209286 0.706512 1.729260 0.004191 -0.004598 -664104.000000 1 0 0
2.974903 -5.235164 -9.535228 11.277303 -1.054047 2.578342 -0.001842 -0.002764 74114.100000 1 0 0
-3.968797 -5.163364 -1.384228 6.657910 0.915469 1.780231 -0.001250 -0.002142 -2978090.000000 1 0 0
-1.203897 -8.750964 8.695172 12.394949 1.434081 0.793283 -0.001343 -0.001439 -628802.000000 1 0 0
3.881103 8.574336 -5.985028 11.153598 1.145748 2.137200 0.001478 -0.001334 554179.000000 1 0 0
-14.290397 -1.760664 -2.668528 14.643648 0.122588 1.754051 0.003039 -0.004371 -1055860.000000 1 0 0
8.725303 -10.502864 -6.657128 15.190735 -0.877582 2.024432 0.000318 -0.002239 -49055.400000 1 0 0
14.835303 6.186236 1.511272 16.144339 0.395070 1.477049 -0.002279 0.004452 -2335940.000000 1 0 0
-5.811897 0.498636 -8.464328 10.279670 -0.085586 2.538181 0.000944 -0.003893 -851360.000000 1 0 0
-7.924197 -4.494264 -12.826728 15.732649 0.515920 2.524032 -0.000086 0.000522 670528.000000 1 0 0
1.027703 -10.671264 12.005072 16.095149 -1.474787 0.728939 -0.005375 0.000371 43130.900000 1 0 0
0.262603 11.733136 3.336372 12.201099 1.548419 1.293820 -0.004281 0.002372 -1774610.000000 1 0 0
5.039203 -13.136564 -3.682228 14.543785 -1.204506 1.826765 -0.005851 -0.000674 310080.000000 1 0 0
-7.505997 1.586136 -6.971928 10.366465 -0.208252 2.308440 -0.001311 -0.000442 680448.000000 1 0 0
1.501603 2.715836 4.035672 5.090897 1.065724 0.655533 -0.001765 -0.000938 -2632680.000000 1 0 0
17.174903 5.397236 1.764572 18.089256 0.304480 1.473093 -0.006838 -0.001037 786399.000000 1 0 0
2.474503 -8.179664 -3.538328 9.249315 -1.277030 1.963351 -0.005527 -0.000839 580861.000000 1 0 0
-0.393197 -9.420064 -0.629428 9.449254 1.529080 1.637457 -0.000717 0.003183 -1082770.000000 1 0 0
0.731103 11.869136 -5.510628 13.106407 1.509277 2.004741 0.000351 0.000122 -1095000.000000 1 0 0
5.937503 -5.058464 7.784672 11.020124 -0.705626 0.786390 0.000405 -0.004234 -1749430.000000 1 0 0
-6.041397 -1.746264 -9.491028 11.385408 0.281381 2.556414 0.002265 -0.002677 -1039300.000000 1 0 0
2.093003 -1.304964 11.173872 11.442859 -0.557512 0.217254 0.002290 -0.001280 -248708.000000 1 0 0
17.914503 2.221136 -6.000528 19.022860 0.123356 1.891714 -0.000813 0.013490 -415871.000000 1 0 0
-8.869697 4.716036 7.778472 12.705005 -0.488686 0.911910 0.003546 -0.004467 -408688.000000 1 0 0
11.299803 -7.154564 -4.921728 14.251202 -0.564444 1.923414 0.013458 -0.005525 -438540.000000 1 0 0
10.938903 0.400536 8.841372 14.070888 0.036599 0.891372 -0.002347 -0.002133 157236.000000 1 0 0
-8.456697 -7.339064 -1.511528 11.298774 0.714761 1.704977 0.008432 -0.004964 -1747650.000000 1 0 0
10.161903 -10.445364 -3.338728 14.950486 -0.799153 1.796014 0.010620 -0.004652 -780902.000000 1 0 0
7.553103 -13.762164 -3.768128 16.144514 -1.068851 1.806369 0.007795 -0.004667 -1428430.000000 1 0 0
1.690403 -1.126864 -11.575128 11.752058 -0.587973 2.967850 -0.001457 -0.003580 81980.200000 1 0 0
-11.869797 -2.521864 -6.384728 13.711915 0.209348 2.055147 0.007387 -0.002147 -191109.000000 1 0 0
2.606603 -12.122164 -6.547528 14.021817 -1.358994 2.056638 -0.004748 0.001588 313529.000000 1 0 0
-5.427397 1.463336 1.116772 5.731070 -0.263358 1.374679 -0.000028 -0.004464 539012.000000 1 0 0
0.134303 6.844536 -3.985328 7.921398 1.551177 2.097989 0.001552 -0.002868 960055.000000 1 0 0
5.453103 -11.864364 3.515872 13.522605 -1.139971 1.307774 -0.009711 -0.005343 -1252740.000000 1 0 0
-4.356997 -9.211764 1.199672 10.260567 1.128996 1.453608 0.002320 0.002854 -140192.000000 1 0 0
6.958903 -6.121564 -4.820228 10.446745 -0.721471 2.050380 0.001627 -0.006312 702832.000000 1 0 0
-6.917897 -5.954064 2.265772 9.404355 0.710659 1.327474 0.000702 -0.001156 -405663.000000 1 0 0
-6.327897 -0.765964 7.051172 9.505157 0.120460 0.735007 -0.001339 -0.003382 -2488800.000000 1 0 0
4.278203 -5.040164 3.180572 7.336370 -0.866986 1.122385 0.001294 -0.001161 -190979.000000 1 0 0
-2.587397 10.652236 -8.756028 14.029710 -1.332514 2.244783 0.004368 0.000499 195078.000000 1 0 0
-2.251597 -4.918964 2.854472 6.116691 1.141526 1.085275 0.000435 0.000794 728880.000000 1 0 0
15.200603 5.006536 6.257472 17.183705 0.318174 1.198075 0.006232 -0.006133 482534.000000 1 0 0
6.798603 0.280836 0.104372 6.805202 0.041284 1.555459 0.002079 -0.000694 4006480.000000 1 0 0
-9.644397 9.177436 0.386372 13.318746 -0.760594 1.541783 -0.003116 -0.002559 -1711720.000000 1 0 0
7.202503 10.347236 -2.599528 12.872408 0.962706 1.774140 -0.001310 -0.001270 -870633.000000 1 0 0
1.512103 -4.221664 -5.405628 7.023512 -1.226855 2.449085 -0.001525 -0.003092 112232.000000 1 0 0
0.757103 -8.062964 -7.871528 11.293606 -1.477172 2.341987 -0.002105 -0.000898 1598160.000000 1 0 0
-10.509197 0.253836 -10.427728 14.806929 -0.024149 2.352158 -0.003924 -0.000248 -4030210.000000 1 0 0
5.726303 -2.462364 0.472872 6.251192 -0.406106 1.495079 0.004278 -0.002346 370065.000000 1 0 0
-3.318997 5.326536 -1.039528 6.361473 -1.013560 1.734942 -0.000579 -0.004332 -49789.200000 1 0 0
-0.379897 4.601536 -5.177028 6.936863 -1.488424 2.413292 0.001900 -0.003409 -1974930.000000 1 0 0
4.122903 -9.571664 9.843872 14.335861 -1.164073 0.813911 -0.009052 0.001963 -2677920.000000 1 0 0
7.231503 -13.468064 -0.816628 15.308503 -1.078037 1.624166 0.004307 -0.000953 550735.000000 1 0 0
13.116803 -0.114564 0.387472 13.123025 -0.008734 1.541266 0.002207 -0.000618 223656.000000 1 0 0
9.247003 2.424836 -0.693228 9.584752 0.256455 1.643186 -0.000414 0.001384 -665396.000000 1 0 0
-0.714497 -5.714064 4.539172 7.332470 1.446400 0.903263 -0.002121 0.003632 236366.000000 1 0 0
11.489203 -3.746664 3.209472 12.503599 -0.315229 1.311207 0.000417 -0.001674 -1241530.000000 1 0 0
1.676003 -8.202864 11.626072 14.326951 -1.369251 0.624112 -0.004194 0.003319 267766.000000 1 0 0
9.347603 -5.799564 -5.967028 12.514713 -0.555309 2.067808 0.004696 -0.006843 -355277.000000 1 0 0
3.172203 6.361336 -0.109328 7.109249 1.108214 1.586175 -0.002046 -0.001326 1221830.000000 1 0 0
6.474603 -1.348264 11.291172 13.085445 -0.205305 0.529855 -0.001042 -0.005182 385993.000000 1 0 0
-4.908197 -7.632464 -3.701128 9.800166 0.999309 1.958064 0.000379 -0.001874 -177675.000000 1 0 0
-3.539597 -8.609164 -5.770128 10.951750 1.180721 2.125708 0.001671 -0.002825 -318084.000000 1 0 0
9.866103 5.201836 2.224272 11.373059 0.485204 1.373954 -0.000617 -0.001930 178060.000000 1 0 0
8.899203 -1.388364 0.181372 9.008678 -0.154762 1.550662 0.002458 -0.002213 1287230.000000 1 0 0
-3.758997 9.538836 9.280572 13.829261 -1.195410 0.835129 -0.007009 0.003530 -142937.000000 1 0 0
-14.358297 -3.521764 -6.035628 15.968478 0.240529 1.958400 -0.000026 -0.004504 -359942.000000 1 0 0
10.502503 6.268936 -6.175028 13.701573 0.538136 2.038323 -0.008454 -0.000802 -1728280.000000 1 0 0
-1.784597 4.514436 2.681572 5.545786 -1.194341 1.066110 -0.003451 -0.000697 355573.000000 1 0 0
7.032303 -3.737664 2.519972 8.353064 -0.488528 1.264340 0.002670 -0.002968 -2083730.000000 1 0 0
8.205203 -11.289464 -1.819428 14.074363 -0.942308 1.700432 0.005379 -0.004564 -2013930.000000 1 0 0
4.544303 0.541936 1.821672 4.925736 0.118695 1.191973 0.002451 -0.000531 225929.000000 1 0 0
-10.915897 2.379236 3.828672 11.810008 -0.214604 1.240642 -0.002823 -0.003571 29863.300000 1 0 0
-0.913597 -2.977464 4.364972 5.362176 1.273079 0.619739 0.001407 -0.000600 245101.000000 1 0 0
8.464503 -8.689664 -8.608528 14.874973 -0.798523 2.187961 0.007936 -0.001400 -359161.000000 1 0 0
12.139603 -4.761564 0.877072 13.069496 -0.373794 1.503638 -0.001611 -0.000156 160501.000000 1 0 0
2.945703 4.829936 3.476572 6.640181 1.023140 1.019765 -0.005771 -0.000814 16648.300000 1 0 0
5.961203 7.450636 1.998572 9.748959 0.895999 1.364329 0.000313 -0.000827 -78036.400000 1 0 0
-1.807497 -1.400464 -10.352428 10.601939 0.659191 2.924211 0.004042 -0.004680 1525060.000000 1 0 0
-0.810297 -8.546964 6.142972 10.556670 1.476274 0.949728 -0.002413 0.000583 -459193.000000 1 0 0
-4.282797 -0.282964 2.424372 4.929503 0.065974 1.056630 -0.000268 -0.003905 452146.000000 1 0 0
-8.430297 6.186436 -7.997128 13.164192 -0.633074 2.223694 -0.004637 -0.000689 -1444050.000000 1 0 0
6.349903 11.172036 -9.358128 15.896862 1.053955 2.200218 0.003226 -0.008192 -150839.000000 1 0 0
-11.099997 -5.721964 3.251972 12.904500 0.475965 1.316047 0.003615 -0.002180 752181.000000 1 0 0
1.394903 -6.243964 2.914672 7.030516 -1.351005 1.143321 0.001208 0.001592 690222.000000 1 0 0
10.277203 2.058936 7.169072 12.698650 0.197723 0.970904 -0.001445 -0.004507 -2425820.000000 1 0 0
-4.206997 -2.673164 -10.669628 11.776484 0.566050 2.704559 0.002411 -0.001829 -2636360.000000 1 0 0
-8.138497 12.011336 5.983472 15.694243 -0.975285 1.179645 -0.004421 0.005302 -1228860.000000 1 0 0
6.877303 6.000036 -2.976128 9.599743 0.717378 1.886012 -0.004963 0.002851 -2060300.000000 1 0 0
3.816003 -9.799964 -2.299028 10.765069 -1.199470 1.786018 -0.007973 -0.002696 -2165160.000000 1 0 0
8.398803 -12.832964 -7.416528 17.036131 -0.991284 2.021213 0.008774 -0.001847 665213.000000 1 0 0
-1.210997 9.507936 3.681272 10.267381 -1.444111 1.204092 -0.010163 0.004573 50483.000000 1 0 0
0.482803 -13.204464 4.724672 14.032587 -1.534249 1.227394 -0.002600 -0.001759 -965419.000000 1 0 0
-11.220797 -6.920464 -4.988728 14.095620 0.552647 1.932556 0.006622 -0.003121 -279856.000000 1 0 0
3.575303 10.226536 -3.487928 11.381145 1.234469 1.882274 0.002236 -0.005393 -320320.000000 1 0 0
11.617803 -8.097664 -7.424028 15.989425 -0.608713 2.053650 0.022234 -0.004661 657239.000000 1 0 0
11.672503 -4.742264 -6.038228 13.971278 -0.385905 2.017715 0.011521 -0.004910 495177.000000 1 0 0
1.246503 -10.310264 -2.658128 10.720119 -1.450481 1.821367 -0.006533 0.001498 -1287770.000000 1 0 0
2.291303 -12.014364 -3.998028 12.867760 -1.382346 1.886727 -0.003848 0.000594 -1907330.000000 1 0 0
-7.616697 -5.607764 7.364572 11.987411 0.634640 0.909223 0.001330 -0.001344 -3299000.000000 1 0 0
-7.125597 -0.814964 9.503972 11.906460 0.113877 0.646462 0.002757 -0.002617 -20911.500000 1 0 0
16.006603 2.659436 -7.700228 17.960441 0.164642 2.013886 -0.006317 0.010233 564584.000000 1 0 0
-1.994397 6.433236 -5.535128 8.717900 -1.270177 2.258695 0.001925 -0.002424 -1277560.000000 1 0 0
7.746703 1.318436 8.352472 11.467933 0.168578 0.754911 0.000253 -0.004264 -848914.000000 1 0 0
7.899903 8.250636 -3.874528 12.062066 0.807111 1.897810 -0.004966 0.002666 -201836.000000 1 0 0
8.080003 0.459536 3.951972 9.006426 0.056812 1.116539 0.001233 -0.002247 650938.000000 1 0 0
-6.903597 5.746836 5.567072 10.567784 -0.694211 1.015969 0.000314 -0.004359 97261.200000 1 0 0
-5.982797 -2.071964 -4.613628 7.834057 0.333393 2.200517 0.000537 -0.003085 -1214770.000000 1 0 0
-15.102997 -1.985164 3.157272 15.556663 0.130693 1.366424 0.005827 -0.001937 -166296.000000 1 0 0
0.928503 1.327636 -10.555328 10.678936 0.960496 2.989294 0.000823 -0.005261 615082.000000 1 0 0
1.571303 -9.267264 9.225872 13.170721 -1.402839 0.794722 -0.004472 -0.001133 -921014.000000 1 0 0
-0.335897 -6.743964 -1.276028 6.871836 1.521030 1.757570 -0.002689 0.002751 818701.000000 1 0 0
-0.530597 -10.247864 -8.469228 13.305190 1.519066 2.260794 0.000570 -0.001527 -187242.000000 1 0 0
-4.346997 6.560036 3.936872 8.799398 -0.985581 1.106938 -0.002846 0.000352 73953.500000 1 0 0
10.652103 -1.101564 -8.647828 13.764653 -0.103047 2.250115 0.008088 -0.000824 127581.000000 1 0 0
3.124803 -1.038964 6.276372 7.087785 -0.320991 0.483185 0.002135 -0.001369 1044490.000000 1 0 0
1.868003 -12.250964 6.800172 14.135696 -1.419484 1.068929 -0.005663 -0.001450 -676704.000000 1 0 0
2.808503 -4.982964 -1.413028 5.891882 -1.057556 1.812983 0.006312 -0.001203 -1293980.000000 1 0 0
-0.994797 9.495036 -1.710328 9.698997 -1.466407 1.748064 -0.001273 -0.003070 703032.000000 1 0 0
4.619303 -2.561864 2.657872 5.913155 -0.506368 1.104608 0.005033 -0.000241 -806416.000000 1 0 0
17.601203 6.545336 -2.777828 18.983153 0.356023 1.717655 -0.013325 0.014435 1283990.000000 1 0 0
-7.176597 3.467336 -5.390028 9.621765 -0.450073 2.165413 0.000049 -0.000747 -229014.000000 1 0 0
-13.775597 -6.064964 2.364272 15.236162 0.414732 1.414992 0.006303 -0.005430 723143.000000 1 0 0
6.715903 -6.127764 3.137472 9.617515 -0.739638 1.238489 0.000393 -0.003050 -31450.700000 1 0 0
-4.531597 1.992736 3.526872 6.078256 -0.414291 0.951768 0.001723 -0.005269 914946.000000 1 0 0
6.765303 -12.027964 -5.448228 14.836591 -1.058434 1.946810 -0.000233 0.000469 792495.000000 1 0 0
2.852703 -12.319264 3.234572 13.052381 -1.343243 1.320372 -0.001781 -0.004100 -85082.500000 1 0 0
3.243103 11.296636 -6.150528 13.265018 1.291229 2.052924 0.000815 -0.000131 -193429.000000 1 0 0
-5.565697 -8.423064 6.462472 11.987015 0.986888 1.001401 0.003415 -0.000607 259584.000000 1 0 0
-3.870197 6.457536 6.473472 9.928949 -1.030869 0.860604 -0.002233 0.002617 432500.000000 1 0 0
4.275703 4.281036 -6.940628 9.207672 0.786021 2.424603 -0.004315 0.001956 -1692490.000000 1 0 0
-0.277997 -2.616064 1.624272 3.091817 1.464928 1.017675 0.000696 -0.001073 1086280.000000 1 0 0
-13.073297 -0.958464 6.563072 14.659593 0.073184 1.106607 -0.001139 -0.001659 -569456.000000 1 0 0
-0.486097 -9.270364 -6.019528 11.063935 1.518409 2.146074 -0.001610 0.000410 106665.000000 1 0 0
1.969703 -1.607864 -4.000028 4.739745 -0.684600 2.575370 0.002516 -0.002710 -372097.000000 1 0 0
11.407603 -1.921964 1.026472 11.613828 -0.166913 1.482297 0.000688 -0.001608 215635.000000 1 0 0
0.491503 -4.258564 -2.023128 4.740252 -1.455889 2.011745 0.000284 0.000231 -2357540.000000 1 0 0
1.083603 -7.495664 -11.347828 13.643034 -1.427227 2.553080 0.000582 -0.001341 1059120.000000 1 0 0
-4.455297 4.190036 -9.945428 11.675513 -0.754725 2.590245 -0.000354 0.000109 -188035.000000 1 0 0
-1.088697 5.734336 -2.176328 6.229307 -1.383174 1.927694 -0.000695 -0.002908 -842827.000000 1 0 0
-11.342997 1.849836 -3.780928 12.098797 -0.161659 1.888625 0.003681 -0.000787 -288816.000000 1 0 0
-1.714997 -11.303564 4.214272 12.184903 1.420223 1.217641 0.002505 -0.000269 -10804.000000 1 0 0
-3.629097 -5.618764 -9.742128 11.817356 0.997317 2.539923 -0.000574 -0.001335 -1291580.000000 1 0 0
-12.880797 -3.754964 -8.314028 15.784097 0.283656 2.125551 0.006661 -0.001635 -237326.000000 1 0 0
11.420803 4.396736 0.486472 12.247559 0.367488 1.531066 0.003423 0.002287 205564.000000 1 0 0
-8.844197 -2.332964 -2.948328 9.610160 0.257910 1.882618 0.005669 -0.003770 86837.900000 1 0 0
-2.615197 -6.161264 -6.324028 9.208353 1.169385 2.327833 -0.003452 -0.001793 -17136.800000 1 0 0
-0.075097 2.771236 -1.913328 3.368414 -1.543704 2.174895 -0.000847 -0.003695 305235.000000 1 0 0
8.034303 5.977336 -5.279928 11.320610 0.639635 2.056012 -0.004557 0.000916 -542758.000000 1 0 0
-9.769697 -0.828064 -0.915928 9.847415 0.084556 1.663943 0.000967 -0.000860 -11639.700000 1 0 0
6.038803 0.572136 -8.920128 10.787176 0.094461 2.544404 -0.006225 0.001344 207361.000000 1 0 0
-4.064397 2.532836 7.965772 9.294520 -0.557287 0.541300 0.000276 -0.000963 -583714.000000 1 0 0
-10.181397 -3.347264 1.561172 10.830617 0.317631 1.426148 0.000098 -0.002734 1282610.000000 1 0 0
-1.961197 -8.218564 -7.881328 11.554498 1.336547 2.321427 0.001902 -0.003487 -898098.000000 1 0 0
-9.301997 -9.752364 4.236272 14.127341 0.809030 1.266247 0.008257 -0.004969 -1206540.000000 1 0 0
-0.983897 -10.744064 7.408372 13.087664 1.479475 0.969081 -0.001014 -0.000865 -31262.300000 1 0 0
9.406703 3.733036 -3.812528 10.814666 0.377787 1.931073 -0.004806 0.002299 -874350.000000 1 0 0
12.779703 -0.668364 2.968272 13.136901 -0.052251 1.342879 0.001208 -0.004726 -972765.000000 1 0 0
6.399803 11.925736 -6.842228 15.165643 1.078270 2.038868 0.000011 -0.000561 348737.000000 1 0 0
-11.850197 -0.040764 -6.520628 13.525805 0.003440 2.073833 0.004353 -0.001073 748468.000000 1 0 0
-7.638097 -6.660064 -11.405728 15.257379 0.717102 2.415169 0.007982 0.001614 -1866110.000000 1 0 0
4.252403 6.061436 6.660072 9.958941 0.959031 0.838266 -0.006240 -0.000242 -1316100.000000 1 0 0
-4.285497 -1.310264 -7.423028 8.670848 0.296718 2.598453 -0.001623 -0.005943 -1198650.000000 1 0 0
9.659603 9.198636 0.867472 13.366950 0.760959 1.505854 0.001999 0.001082 -1129610.000000 1 0 0
-8.861997 3.840536 4.920672 10.839636 -0.408940 1.099601 0.000335 -0.005701 2468300.000000 1 0 0
-7.050797 8.014436 -12.057128 16.103392 -0.849276 2.416944 -0.007699 0.002201 -692940.000000 1 0 0
11.118003 -3.750064 7.133372 13.731642 -0.325313 1.024549 0.000746 -0.003966 684606.000000 1 0 0
11.867103 6.860136 6.429172 15.140141 0.524146 1.132228 -0.003645 0.000092 153504.000000 1 0 0
-10.191997 -0.660964 -14.775928 17.962230 0.064761 2.536784 -0.004832 0.010687 343989.000000 1 0 0
1.912603 -13.037764 11.996972 17.820457 -1.425138 0.832250 -0.007311 -0.000395 -266315.000000 1 0 0
3.059903 3.000836 13.054572 13.740083 0.775653 0.317212 0.001905 -0.004890 -962219.000000 1 0 0
-2.487897 -1.412964 11.012272 11.377884 0.516509 0.254193 0.004359 0.001098 -91331.400000 1 0 0
2.465703 -10.051464 -8.323528 13.281293 -1.330239 2.248121 -0.004516 0.001511 -1029680.000000 1 0 0
13.676303 3.623136 -7.666028 16.091500 0.258972 2.067355 -0.001112 0.002957 -3584230.000000 1 0 0
7.432003 -1.598464 5.019172 9.109438 -0.211851 0.987251 0.003076 -0.003102 389804.000000 1 0 0
-1.046197 8.750436 10.149072 13.441292 -1.451802 0.715040 -0.005333 0.001970 50145.500000 1 0 0
-12.184097 -4.709564 0.977972 13.099185 0.368844 1.496068 0.002552 -0.003704 -53337.700000 1 0 0
-4.888697 4.892436 -5.301028 8.714137 -0.785780 2.224745 0.001311 -0.002064 239291.000000 1 0 0
-11.183797 0.346136 1.947172 11.357315 -0.030940 1.398499 -0.004110 -0.001128 -1661980.000000 1 0 0
-1.496997 2.446736 -4.077528 4.985353 -1.021721 2.528550 0.001292 -0.005508 738106.000000 1 0 0
3.284003 -9.821764 13.005072 16.624790 -1.248122 0.672495 -0.013292 0.003965 -1057120.000000 1 0 0
8.890603 4.744036 -1.513628 10.190180 0.490166 1.719886 -0.005177 0.000391 -468342.000000 1 0 0
4.054403 2.319136 3.843372 6.048809 0.519580 0.882279 -0.001513 0.001077 -26285.200000 1 0 0
-5.504897 -3.251664 7.489672 9.847456 0.533543 0.706607 -0.000121 -0.002585 -601199.000000 1 0 0
1.675603 -5.708664 7.759272 9.777668 -1.285296 0.654141 -0.002053 -0.001861 -955625.000000 1 0 0
-5.984597 -6.229964 -9.657428 12.957382 0.805484 2.411815 0.003849 -0.000025 -1832730.000000 1 0 0
-11.665797 -5.838464 5.566472 14.183233 0.464029 1.167482 0.006884 -0.004679 -1359620.000000 1 0 0
10.635103 6.115836 4.410772 13.037016 0.521880 1.225658 -0.001898 -0.000608 400063.000000 1 0 0
1.413403 -3.731964 0.344072 4.005453 -1.208760 1.484789 0.007982 -0.000013 -835751.000000 1 0 0
8.904903 4.239936 6.936972 12.058024 0.444374 0.957826 -0.001539 -0.001585 -230775.000000 1 0 0
-7.727497 12.070336 3.538872 14.762480 -1.001337 1.328718 -0.007345 -0.002092 150068.000000 1 0 0
-6.195497 13.285236 -6.961628 16.227937 -1.134434 2.014171 0.007405 -0.006527 39352.700000 1 0 0
4.527503 -6.957064 -0.888128 8.347922 -0.993874 1.677387 0.001248 -0.002166 -1285690.000000 1 0 0
-1.810497 -8.205164 11.092872 13.915978 1.353623 0.648266 -0.002348 -0.004100 -410594.000000 1 0 0
11.321403 8.832536 -5.830628 15.497873 0.662527 1.956511 0.001240 -0.001069 578493.000000 1 0 0
-3.340397 -2.809164 -1.927428 4.771229 0.699227 1.986648 -0.001177 -0.000915 -484316.000000 1 0 0
-2.008197 5.883736 4.776272 7.839897 -1.241881 0.915712 -0.003897 0.000791 -1934050.000000 1 0 0
0.248003 -11.543064 -5.768228 12.906444 -1.549315 2.034123 -0.003994 -0.004809 -673658.000000 1 0 0
-8.795997 6.256736 -1.372228 10.881145 -0.618280 1.697244 0.003175 -0.003003 -337926.000000 1 0 0
2.958103 -0.012964 3.910572 4.903378 -0.004383 0.647613 0.001134 -0.001079 -224278.000000 1 0 0
-10.175197 4.054836 -0.894328 10.989820 -0.379214 1.652264 0.003877 -0.001520 111963.000000 1 0 0
6.605703 5.425636 13.616672 16.077519 0.687628 0.560595 0.008716 -0.005362 -1249170.000000 1 0 0
-8.780197 -1.565664 5.720272 10.595502 0.176463 1.000505 -0.000906 -0.003846 -309677.000000 1 0 0
12.920103 -1.828264 -1.579728 13.144092 -0.140572 1.691273 0.006092 -0.000425 -1893880.000000 1 0 0
5.493503 -5.497264 5.308572 9.411665 -0.785740 0.971524 -0.003394 -0.002798 110887.000000 1 0 0
-8.991897 -1.219764 3.227972 9.631295 0.134829 1.229027 -0.003058 -0.002859 517358.000000 1 0 0
2.023703 5.487736 5.614572 8.107653 1.217500 0.805844 -0.005138 0.000340 -206970.000000 1 0 0
9.083103 2.948136 -7.589028 12.197853 0.313846 2.242296 -0.008349 0.001954 -1824330.000000 1 0 0
2.286803 -2.450564 -1.646428 3.734362 -0.819952 2.027382 0.002219 -0.000217 -353650.000000 1 0 0
-6.308997 0.410836 -3.954228 7.457087 -0.065027 2.129709 -0.004123 -0.000270 -3043320.000000 1 0 0
-3.914097 4.163036 5.038472 7.618216 -0.816209 0.848150 -0.000300 -0.001461 802404.000000 1 0 0
-6.514097 1.813136 -12.397528 14.121601 -0.271469 2.642281 -0.001689 0.002082 -3249300.000000 1 0 0
-0.020597 3.102036 6.215172 6.946324 -1.564157 0.462942 -0.000178 -0.000998 892481.000000 1 0 0
-8.681597 9.421636 -2.081628 12.979619 -0.826254 1.731869 -0.004553 -0.001235 -23061.900000 1 0 0
-1.418097 -3.738764 -6.092828 7.287791 1.208265 2.560807 -0.005510 -0.001767 54300.500000 1 0 0
-3.311697 7.007536 -2.910728 8.279205 -1.129316 1.930045 -0.000801 0.000706 949363.000000 1 0 0
6.924703 -0.505464 -4.415428 8.228184 -0.072865 2.137226 0.000881 -0.000955 -362885.000000 1 0 0
-5.088797 -10.815864 6.953272 13.828477 1.131031 1.043935 0.005793 -0.002597 818874.000000 1 0 0
9.689303 8.307236 -1.528528 12.854150 0.708752 1.689992 -0.003050 0.004540 311291.000000 1 0 0
13.506803 4.567736 -4.444228 14.934829 0.326107 1.872948 -0.001744 0.001920 405653.000000 1 0 0
4.649203 1.083236 -6.898828 8.389417 0.228910 2.536281 -0.005639 0.000480 -2027180.000000 1 0 0
8.979503 -4.707364 3.507572 10.728179 -0.482847 1.237723 0.003563 -0.004046 389230.000000 1 0 0
-8.757497 -3.148264 -0.571728 9.323743 0.345107 1.632154 -0.000399 -0.001990 32484.800000 1 0 0
-8.433497 -4.248964 -10.370228 14.025662 0.466699 2.402938 0.004053 0.002484 204837.000000 1 0 0
10.473603 -1.201864 10.637072 14.976253 -0.114252 0.780925 -0.001805 -0.003165 68220.100000 1 0 0
2.330603 -11.564964 9.860672 15.375727 -1.371937 0.874586 -0.008460 -0.002921 22481.900000 1 0 0
-6.419197 -10.579964 2.109772 12.553600 1.025442 1.401934 0.006035 0.001334 -1167550.000000 1 0 0
-3.774497 -1.170964 6.805772 7.869976 0.300816 0.526091 0.002697 -0.000030 -1145720.000000 1 0 0
4.656503 -7.591464 3.905972 9.724709 -1.020592 1.157474 -0.006307 -0.001297 394125.000000 1 0 0
11.384903 -9.565864 -5.378028 15.812810 -0.698791 1.917826 0.019520 -0.004113 529691.000000 1 0 0
11.452303 1.100336 11.301172 16.127073 0.095786 0.794337 -0.001032 -0.003709 261797.000000 1 0 0
-10.257597 -3.444064 4.458872 11.703051 0.323931 1.179918 0.004815 -0.003150 1408130.000000 1 0 0
2.075103 8.724136 9.048572 12.739437 1.337278 0.780900 -0.005454 0.001470 -519545.000000 1 0 0
6.576803 8.714336 4.217572 11.703927 0.924287 1.202148 0.000984 -0.000481 711731.000000 1 0 0
-4.248697 3.629236 0.501172 5.610165 -0.706927 1.481344 0.000765 -0.004748 -823314.000000 1 0 0
4.865703 6.890336 4.353272 9.492248 0.955946 1.094362 -0.000628 -0.001127 -1256000.000000 1 0 0
-8.081697 13.118636 1.177172 15.453095 -1.018661 1.494545 -0.008095 -0.001888 -267966.000000 1 0 0
8.721403 8.103936 -9.174928 15.030501 0.748716 2.227388 -0.002951 -0.005195 -1027560.000000 1 0 0
7.101703 1.907036 6.020972 9.503846 0.262343 0.884689 -0.000542 -0.003437 -510239.000000 1 0 0
11.400203 -6.193264 2.786972 13.269829 -0.497653 1.359198 -0.000794 0.000730 -81297.400000 1 0 0
11.378803 4.744236 -2.144228 12.513299 0.395021 1.743002 -0.000764 0.001218 -133826.000000 1 0 0
-4.029397 14.367836 -5.954228 16.066224 -1.297374 1.950457 0.007581 -0.002499 -1045760.000000 1 0 0
7.250703 -3.047664 6.933072 10.484677 -0.397906 0.848302 0.003336 -0.005987 -1345390.000000 1 0 0
-7.981697 -0.353364 0.976572 8.048978 0.044243 1.449168 -0.000707 -0.001689 134874.000000 1 0 0
-3.206197 1.097836 10.844072 11.361287 -0.329898 0.302899 0.004340 0.001072 -81218.000000 1 0 0
7.091503 -1.230964 -1.970428 7.462391 -0.171870 1.838013 0.001657 -0.001328 -2040190.000000 1 0 0
-7.609597 5.377836 3.107572 9.822631 -0.615220 1.248897 0.002552 -0.002481 828112.000000 1 0 0
9.541903 -2.050664 2.749872 10.139770 -0.211692 1.296160 0.000364 -0.002958 -1746220.000000 1 0 0
0.254803 3.474736 1.541372 3.809796 1.497597 1.154275 -0.004319 0.000115 -3884180.000000 1 0 0
-7.583397 -3.057064 4.057272 9.127705 0.383198 1.110179 -0.002328 -0.002460 571673.000000 1 0 0
-2.350597 8.449036 -6.791428 11.092114 -1.299449 2.229732 0.001674 -0.001913 -457914.000000 1 0 0
4.516903 9.694636 7.390372 13.000230 1.134784 0.966139 -0.006541 0.005502 -21675.200000 1 0 0
-11.755597 -3.165364 6.848372 13.968314 0.263026 1.058386 0.005379 -0.003819 -756548.000000 1 0 0
-4.680497 2.332436 -5.572628 7.642086 -0.462311 2.387952 0.001378 -0.002562 781874.000000 1 0 0
-2.781697 2.887936 -1.788428 4.390499 -0.804134 1.990336 -0.001343 -0.003415 555516.000000 1 0 0
2.444103 5.170736 11.423072 12.774848 1.129243 0.464190 -0.001077 -0.005726 68981.500000 1 0 0
-0.666997 1.701436 4.483472 4.841621 -1.197188 0.387049 0.001535 -0.002610 -435479.000000 1 0 0
5.176003 1.576336 7.676972 9.392111 0.295623 0.613939 0.002677 -0.002388 -479113.000000 1 0 0
3.217403 -8.250864 1.864272 9.050080 -1.198986 1.363316 -0.005508 -0.000064 1214790.000000 1 0 0
5.074203 6.429836 -4.613728 9.400894 0.902697 2.083776 -0.003763 0.000843 -1789410.000000 1 0 0
-4.202597 2.936236 -7.997228 9.499418 -0.609834 2.571526 0.002755 -0.005761 -948024.000000 1 0 0
-8.831597 -2.093964 -12.908328 15.779946 0.232800 2.528758 -0.001292 0.005206 -708917.000000 1 0 0
-7.732797 8.144236 1.119672 11.286203 -0.811306 1.471426 -0.000128 -0.002557 -1546500.000000 1 0 0
7.289103 0.835536 -6.615328 9.878852 0.114130 2.304528 -0.003985 -0.000134 556665.000000 1 0 0
8.958103 8.822536 5.536372 13.738128 0.777774 1.156011 -0.000603 0.002636 575455.000000 1 0 0
9.361203 -1.064564 -1.507428 9.541371 -0.113234 1.729450 0.003409 -0.002572 557001.000000 1 0 0
5.448803 0.062036 4.238472 6.903474 0.011385 0.909726 0.001625 -0.001962 -1236300.000000 1 0 0
-4.296397 -7.239464 -7.928928 11.564461 1.035193 2.326263 0.005730 -0.003778 -1336660.000000 1 0 0
-2.173697 7.453436 -0.596328 7.786801 -1.287030 1.647453 -0.002335 -0.000627 -401951.000000 1 0 0
13.271403 -3.259364 -7.561828 15.618414 -0.240827 2.076200 0.011247 -0.003082 1187750.000000 1 0 0
-4.683897 -5.025364 1.602072 7.054063 0.820553 1.341684 0.002069 0.000453 1564010.000000 1 0 0
-8.941097 1.380336 2.608972 9.415693 -0.153172 1.290035 -0.003745 -0.003218 -1630720.000000 1 0 0
-0.915297 11.226236 10.208172 15.201083 -1.489444 0.834508 -0.004733 0.002587 322577.000000 1 0 0
-8.554097 0.395736 7.574872 11.432754 -0.046230 0.846566 -0.001784 -0.004383 -359090.000000 1 0 0
-6.185897 12.858236 -1.991628 14.407155 -1.122395 1.709479 -0.005796 0.001271 551615.000000 1 0 0
-12.919097 -0.756664 3.331172 13.363095 0.058503 1.318858 0.000736 -0.002278 648521.000000 1 0 0
-6.565297 12.840236 8.791872 16.889991 -1.098144 1.023316 -0.000155 -0.000091 1136000.000000 1 0 0
-8.186997 0.777336 -14.071828 16.298696 -0.094664 2.612710 -0.011752 0.009456 -112576.000000 1 0 0
7.291403 2.763836 3.740772 8.648510 0.362320 1.123495 0.000107 -0.000508 -633205.000000 1 0 0
-1.592797 0.669836 -2.149428 2.757847 -0.398088 2.464482 -0.000952 -0.004820 572508.000000 1 0 0
-6.356697 9.847536 -10.309428 15.609800 -0.997583 2.292209 -0.005268 0.003761 -93152.100000 1 0 0
-10.042697 13.758136 5.379072 17.862712 -0.940254 1.264915 -0.002768 0.001878 830650.000000 1 0 0
-5.672197 8.226136 2.587272 10.321681 -0.967129 1.317430 -0.007594 0.001820 -1259730.000000 1 0 0
-2.421197 -10.853164 -1.260728 11.191193 1.351304 1.683690 0.000406 0.000976 341450.000000 1 0 0
-2.166097 -12.425064 8.903772 15.438632 1.398198 0.956088 0.002506 -0.002572 242307.000000 1 0 0
-14.748097 -6.355064 -1.645628 16.143150 0.406864 1.672913 0.012720 -0.001289 549202.000000 1 0 0
-2.683297 -9.380464 3.300872 10.299949 1.292185 1.244566 -0.000576 0.002316 -1028950.000000 1 0 0
4.744203 -2.729264 7.533972 9.312201 -0.522048 0.628274 0.001429 -0.002733 -120742.000000 1 0 0
-15.019197 -1.197864 -0.245628 15.068891 0.079587 1.587097 0.002640 -0.004039 65222.700000 1 0 0
5.477303 8.686536 -2.795628 10.642946 1.008215 1.836589 -0.002268 0.000622 -360663.000000 1 0 0
-5.558897 -5.736664 8.640372 11.767187 0.801135 0.746196 0.002109 -0.002204 -4617920.000000 1 0 0
3.456403 3.578936 7.016972 8.601942 0.802813 0.616784 -0.002713 -0.001845 500112.000000 1 0 0
3.391703 2.293036 9.303472 10.164461 0.594486 0.414559 0.002986 -0.004597 -575155.000000 1 0 0
9.965903 -3.223564 5.092372 11.646581 -0.312838 1.118267 0.001848 -0.004400 -495616.000000 1 0 0
6.452403 9.969236 -5.077128 12.914968 0.996370 1.974818 -0.001677 -0.001461 435146.000000 1 0 0
-4.525397 12.173436 -8.374428 15.453245 -1.214884 2.143517 0.003813 -0.004014 -562218.000000 1 0 0
-3.431197 -7.218664 2.347572 8.330265 1.127085 1.285114 -0.000745 -0.000743 841492.000000 1 0 0
-7.368897 -3.969764 1.164972 8.450848 0.494141 1.432503 0.001861 -0.001589 3053410.000000 1 0 0
-2.080897 -4.041664 -10.875128 11.787009 1.095330 2.745659 0.001531 -0.002019 -1101020.000000 1 0 0
-5.207797 8.254836 -4.335628 10.679940 -1.007981 1.988825 0.000930 -0.001529 -1441220.000000 1 0 0
-10.902597 -3.198764 -10.009128 15.142039 0.285386 2.292968 0.004499 0.003023 -1214500.000000 1 0 0
4.603203 -11.380564 -7.829628 14.560556 -1.186434 2.138537 -0.004480 -0.000589 -1686720.000000 1 0 0
-9.389297 -3.919864 7.262472 12.500709 0.395486 0.950883 0.000951 -0.002081 -985543.000000 1 0 0
-5.819797 -9.651464 -5.083028 12.363574 1.028177 1.994489 0.005743 -0.005680 140912.000000 1 0 0
4.720003 4.375236 -9.502228 11.476648 0.747510 2.546260 -0.005911 0.001816 148915.000000 1 0 0
-3.496197 -7.058864 -14.026928 16.087438 1.110922 2.629902 -0.001797 0.003557 -462519.000000 1 0 0
0.497503 -0.832664 -8.796428 8.849745 -1.032229 3.031768 0.001202 -0.005513 -85048.200000 1 0 0
-7.745897 2.210136 -2.825928 8.536362 -0.277944 1.908208 0.000534 -0.001418 -231374.000000 1 0 0
-2.373297 7.639536 -12.549128 14.882058 -1.269589 2.574076 0.000359 0.002156 119957.000000 1 0 0
-9.713397 8.799936 7.714272 15.208515 -0.736097 1.038824 0.001175 -0.004735 -359171.000000 1 0 0
-10.819897 -3.030464 -14.355728 18.230216 0.273085 2.477488 -0.003122 0.013408 -591701.000000 1 0 0
-3.081697 4.770836 7.998372 9.809775 -0.997277 0.617468 -0.001865 -0.000950 -969772.000000 1 0 0
8.694703 -2.299364 -3.675728 9.715756 -0.258537 1.958784 0.004247 -0.002187 -6757250.000000 1 0 0
1.869103 -8.214564 -1.238328 8.515050 -1.347070 1.716742 -0.000828 0.001878 -776807.000000 1 0 0
-13.597197 -2.782464 5.110772 14.790059 0.201848 1.217967 0.005650 -0.004413 -26319.200000 1 0 0
6.940203 2.815536 -1.949928 7.739243 0.385398 1.825494 -0.002614 0.000969 976698.000000 1 0 0
-11.078197 4.411136 9.050872 14.970065 -0.378938 0.921535 0.001156 -0.003702 -2864340.000000 1 0 0
-1.887797 -2.464264 8.039772 8.618255 0.917090 0.368477 0.001099 -0.002810 -737487.000000 1 0 0
3.206303 11.935136 -9.946828 15.864023 1.308349 2.248499 0.003909 -0.006130 688132.000000 1 0 0
3.556303 -5.033264 -7.088528 9.392990 -0.955681 2.425934 -0.001013 -0.005829 187201.000000 1 0 0
8.050903 -13.741564 -9.854328 18.728465 -1.040824 2.124885 0.006808 0.004086 171253.000000 1 0 0
-6.219897 -5.778264 -0.334028 8.496295 0.748606 1.610121 0.001915 -0.001845 150749.000000 1 0 0
-1.139897 -4.092364 9.773772 10.657084 1.299140 0.410014 -0.000875 -0.001860 1062780.000000 1 0 0
2.791903 3.288036 1.823072 4.682894 0.866819 1.170920 -0.003823 0.000120 -240612.000000 1 0 0
-9.003497 13.393636 7.850272 17.946565 -0.978958 1.118063 -0.004799 -0.007709 -532019.000000 1 0 0
4.038903 -11.153764 0.023272 11.862535 -1.223373 1.568834 -0.005135 -0.002155 -642477.000000 1 0 0
-12.563597 -1.379664 -9.047828 15.543829 0.109376 2.192087 0.005204 -0.001680 -276443.000000 1 0 0
-4.320497 1.043036 -13.545728 14.256274 -0.236883 2.824542 0.002614 0.001748 571943.000000 1 0 0
3.946703 -3.131964 4.980372 7.084474 -0.670805 0.791192 0.003245 0.000072 -147144.000000 1 0 0
1.776203 -1.187764 1.080072 2.394209 -0.589416 1.102778 0.003486 -0.001169 571726.000000 1 0 0
8.277603 -8.985564 7.311372 14.237810 -0.826385 1.031517 -0.002000 -0.001389 -1707120.000000 1 0 0
-0.143197 2.268136 -6.271328 6.670419 -1.507746 2.793925 0.000457 -0.004564 -356133.000000 1 0 0
-3.769697 -9.856364 -3.330428 11.065725 1.205499 1.876504 0.002549 -0.001377 341719.000000 1 0 0
-9.495097 2.312836 -5.433628 11.181698 -0.238929 2.078234 0.000230 0.000814 -1268470.000000 1 0 0
8.989103 -7.515564 5.274672 12.849508 -0.696354 1.147798 -0.000944 -0.001496 2031160.000000 1 0 0
-5.532997 -4.268464 4.760672 8.455639 0.657092 0.972764 -0.002012 -0.001702 -760189.000000 1 0 0
-0.023697 -12.425864 10.337372 16.163661 1.568889 0.876891 -0.001401 -0.002401 -859941.000000 1 0 0
-14.195797 -8.272964 3.219772 16.743044 0.527658 1.377286 -0.002338 -0.006016 -1442670.000000 1 0 0
10.836703 -1.247264 -3.725728 11.526962 -0.114592 1.899925 0.005389 -0.001169 -359337.000000 1 0 0
-13.604197 3.014636 2.845572 14.221796 -0.218072 1.369351 -0.004515 -0.000794 -1939850.000000 1 0 0
-6.271497 6.151136 1.104272 8.853675 -0.775710 1.445746 -0.001504 -0.001430 257450.000000 1 0 0
7.144103 -6.902364 -0.523028 9.947583 -0.768190 1.623399 0.005475 -0.005957 -232122.000000 1 0 0
-6.730797 7.799236 10.141472 14.456181 -0.858799 0.793251 -0.001926 -0.000947 349837.000000 1 0 0
-12.667397 -5.026464 -1.776228 13.743481 0.377748 1.700400 0.006378 -0.003107 -1946970.000000 1 0 0
-9.378797 -5.558164 0.348172 10.907623 0.534983 1.538871 0.003676 -0.003397 -1419990.000000 1 0 0
-1.835597 1.919236 2.148272 3.415839 -0.807670 0.890639 -0.000283 -0.002158 131125.000000 1 0 0
-6.953197 7.320536 7.600672 12.637540 -0.811128 0.925499 -0.004246 -0.000418 -58250.600000 1 0 0
5.682703 7.079036 -0.459528 9.089391 0.894380 1.621374 -0.000615 -0.000259 -1170790.000000 1 0 0
-0.081097 -3.864864 7.334372 8.290764 1.549816 0.485067 -0.000189 -0.001585 799454.000000 1 0 0
6.497803 0.613636 13.034272 14.577045 0.094158 0.464235 -0.003283 -0.005595 638411.000000 1 0 0
5.712203 6.126336 -7.874828 11.496703 0.820366 2.325351 -0.007732 0.000030 -915401.000000 1 0 0
9.950403 5.196036 9.076272 14.435652 0.481244 0.890864 -0.002993 -0.003607 -2064420.000000 1 0 0
-1.459297 -5.070264 -8.417828 9.934634 1.290556 2.581717 -0.002383 -0.002175 533110.000000 1 0 0
9.919003 -3.492464 -8.029228 13.230738 -0.338543 2.222902 0.010804 -0.005760 480893.000000 1 0 0
8.505003 -5.452964 1.169572 10.170438 -0.570127 1.455544 0.005332 -0.002348 1217270.000000 1 0 0
15.545803 3.198136 -5.166028 16.690953 0.202893 1.885475 -0.004922 0.006970 -904485.000000 1 0 0
-6.936597 3.562236 1.260872 7.899095 -0.474423 1.410488 0.000677 -0.004423 1021100.000000 1 0 0
-1.678097 3.790636 0.256672 4.153409 -1.154034 1.508959 -0.000461 -0.005406 -269099.000000 1 0 0
-2.577297 9.993836 7.037072 12.491581 -1.318407 0.972367 -0.006590 0.007040 -53256.800000 1 0 0
5.410203 -5.754964 -8.800028 11.824991 -0.816267 2.410116 -0.002724 -0.003589 116104.000000 1 0 0
-1.241997 -0.795864 6.241772 6.413710 0.569876 0.232071 0.006020 -0.004457 690120.000000 1 0 0
-5.812697 5.043536 -7.765128 10.932607 -0.714667 2.360681 -0.001503 -0.001509 -324743.000000 1 0 0
6.833903 -1.260964 2.514972 7.390355 -0.182464 1.223555 0.003067 -0.000531 -1071970.000000 1 0 0
8.716903 7.408336 3.238672 11.889358 0.704425 1.294909 0.002116 -0.000191 -95744.400000 1 0 0
-5.254597 -4.816564 -7.674428 10.474107 0.741932 2.393084 0.001286 -0.002718 776245.000000 1 0 0
-2.294797 7.987636 -10.016328 13.015193 -1.291037 2.448991 0.001844 0.001458 734220.000000 1 0 0
-2.896097 -2.317664 1.734872 4.094963 0.674907 1.133314 -0.000044 0.000311 -325121.000000 1 0 0
5.855903 -2.070364 -9.306928 11.189143 -0.339835 2.553107 -0.003942 -0.000829 1073200.000000 1 0 0
1.223803 -7.581064 5.082972 9.209063 -1.410748 0.986091 -0.003073 0.000723 124248.000000 1 0 0
1.754003 11.820536 1.226672 12.012757 1.423485 1.468504 0.000518 -0.003014 435168.000000 1 0 0
-1.043297 7.031836 2.538472 7.548445 -1.423503 1.227821 -0.006114 0.002317 373881.000000 1 0 0
8.525403 7.847636 -6.717228 13.393619 0.744026 2.096156 -0.001728 -0.002666 -349995.000000 1 0 0
3.695103 -11.224264 5.418572 12.999955 -1.252764 1.140858 -0.005017 -0.002268 -603628.000000 1 0 0
7.967203 -7.022464 12.409572 16.333671 -0.722455 0.707862 -0.005824 0.002021 -305431.000000 1 0 0
-8.613197 0.019736 -3.992428 9.493525 -0.002291 2.004839 0.004186 -0.000701 -1451190.000000 1 0 0
-3.128597 -5.095564 11.262972 12.751762 1.020158 0.488051 0.001524 -0.000159 343724.000000 1 0 0
-8.200497 0.178236 -11.542128 14.159824 -0.021731 2.523754 -0.004383 0.000689 -989603.000000 1 0 0
1.514103 -5.039364 5.337372 7.495015 -1.278922 0.778279 0.002896 0.000276 -507569.000000 1 0 0
6.617203 3.684836 -7.726228 10.819427 0.508092 2.366144 -0.009856 0.002171 -1093940.000000 1 0 0
16.301903 4.076336 -1.340228 16.857188 0.245028 1.650385 -0.007565 0.010940 -471549.000000 1 0 0
7.921003 7.416236 0.249572 10.853807 0.752499 1.547800 -0.002157 0.000961 -2562720.000000 1 0 0
5.707603 -10.249564 13.892972 18.183646 -1.062699 0.701249 -0.009340 0.004679 568520.000000 1 0 0
-5.055397 -9.193664 9.001872 13.824406 1.068047 0.861687 0.001241 -0.005163 492438.000000 1 0 0
-12.606397 -3.173664 2.873272 13.313492 0.246625 1.353268 0.003682 -0.002015 28873.300000 1 0 0
-2.140897 -1.225264 -5.911628 6.405627 0.519813 2.746291 -0.001233 -0.005347 -3033560.000000 1 0 0
-2.478097 13.079536 -4.283528 13.984414 -1.383552 1.882108 0.001204 0.003631 702614.000000 1 0 0
3.873703 -0.430164 -5.011028 6.348308 -0.110594 2.480543 0.000267 -0.002320 -467838.000000 1 0 0
-8.884897 3.807336 -7.386828 12.165624 -0.404846 2.223314 -0.000465 -0.000039 416060.000000 1 0 0
-4.599197 8.213936 -11.225928 14.650693 -1.060364 2.443763 -0.001615 0.004354 -2347330.000000 1 0 0
-10.089997 -6.397564 7.497472 14.104926 0.565081 1.010367 0.005821 -0.004456 -1834850.000000 1 0 0
8.126103 5.140636 4.100772 10.453517 0.564051 1.167680 -0.000727 -0.002139 -1228140.000000 1 0 0
-6.572797 -7.493464 4.019372 10.747512 0.850757 1.187498 0.006304 -0.002207 -988626.000000 1 0 0
-4.037097 11.812936 8.177172 14.923463 -1.241488 0.990896 -0.004557 0.005597 -461579.000000 1 0 0
-7.399997 10.135436 -7.870928 14.813457 -0.940146 2.130974 -0.002609 -0.002415 368344.000000 1 0 0
13.165903 5.524936 4.557272 14.987817 0.397322 1.261839 0.003261 -0.001721 647315.000000 1 0 0
5.252303 3.955436 -3.704128 7.546703 0.645473 2.083835 -0.002634 0.002367 541974.000000 1 0 0
-2.880997 -4.114164 5.228572 7.250135 0.959894 0.765308 -0.000443 0.001013 -738956.000000 1 0 0
12.367803 -2.362664 -5.354328 13.682601 -0.188759 1.972866 0.008432 -0.004727 -2026670.000000 1 0 0
-5.174097 9.732036 7.121372 13.122414 -1.082146 0.997163 -0.008657 0.005299 78906.700000 1 0 0
1.882203 3.779436 -0.523828 4.254553 1.108741 1.694231 -0.008023 -0.000186 478168.000000 1 0 0
-0.020197 9.655536 7.772672 12.395330 -1.568705 0.893017 -0.004159 0.006216 -1140970.000000 1 0 0
-5.551897 2.117336 5.891072 8.367281 -0.364345 0.789697 0.001098 -0.003814 681798.000000 1 0 0
8.871803 0.842136 10.603872 13.851361 0.094639 0.698905 -0.003670 -0.002292 -1646950.000000 1 0 0
0.272003 -2.894864 -10.197628 10.604048 -1.477111 2.863836 0.001507 -0.003397 -2753190.000000 1 0 0
1.221003 10.639436 -2.846928 11.081220 1.456534 1.830625 -0.000378 -0.002374 -1647210.000000 1 0 0
2.379003 -4.398564 11.555472 12.591107 -1.074998 0.408422 -0.003230 0.000012 -340355.000000 1 0 0
6.702203 -3.136164 9.401972 11.964620 -0.437664 0.666784 -0.000172 -0.005263 810025.000000 1 0 0
-10.619497 -8.191564 5.668772 14.560577 0.657038 1.170899 0.008205 -0.005836 -886302.000000 1 0 0
-2.990897 0.894636 -7.005328 7.669449 -0.290649 2.722373 0.002412 -0.004684 656208.000000 1 0 0
10.862203 2.714536 -5.243028 12.363070 0.244891 2.008751 0.001633 0.000246 -1996750.000000 1 0 0
-1.967397 -4.017964 0.034172 4.473908 1.115463 1.563158 -0.001381 0.000588 1397170.000000 1 0 0
-1.180397 -6.422264 -10.546828 12.404612 1.389027 2.587227 0.002580 -0.000408 752540.000000 1 0 0
0.358003 6.914736 -6.579228 9.551334 1.519069 2.330668 0.003956 -0.001982 -1677480.000000 1 0 0
1.915903 3.889436 -6.224528 7.585720 1.113093 2.533184 -0.002735 -0.001095 -2703350.000000 1 0 0
1.679003 -14.725464 6.462172 16.168427 -1.457266 1.159630 -0.000125 -0.006206 39519.000000 1 0 0
-1.795397 5.459336 -10.587828 12.046987 -1.253071 2.644301 0.005920 -0.000523 -435986.000000 1 0 0
13.611703 4.336936 -0.899228 14.314192 0.308449 1.633658 0.000593 0.001988 -1641820.000000 1 0 0
-2.376997 3.403936 -6.312128 7.555121 -0.961207 2.559796 0.003259 -0.004855 -1058070.000000 1 0 0
5.895503 7.746736 14.266872 17.271726 0.920273 0.598779 0.006623 -0.009244 502049.000000 1 0 0
15.841303 0.747036 -5.937628 16.934001 0.047123 1.929044 0.004857 0.004521 177473.000000 1 0 0
6.284103 -8.231564 10.614072 14.829266 -0.918764 0.773096 -0.006712 0.000608 327643.000000 1 0 0
-0.058997 -5.913164 -6.380828 8.699652 1.560819 2.394191 -0.004623 -0.002120 18242.000000 1 0 0
8.580503 5.513536 -7.724528 12.794235 0.571131 2.218994 -0.007624 -0.000769 -679298.000000 1 0 0
-15.981197 -0.791964 5.431672 16.897601 0.049515 1.243540 0.001557 -0.001200 -606533.000000 1 0 0
-0.510197 4.083336 -12.332628 13.001063 -1.446494 2.819535 0.006486 -0.001547 471844.000000 1 0 0
-11.308297 3.750036 5.981772 13.331239 -0.320206 1.105482 0.000227 -0.003512 -1155970.000000 1 0 0
5.050803 -9.537864 -9.683328 14.499942 -1.083787 2.302070 -0.007518 -0.001135 -66816.300000 1 0 0
1.545903 11.247436 -11.611828 16.239740 1.434207 2.367457 0.005914 -0.001840 -1194290.000000 1 0 0
5.992203 2.383636 1.256472 6.570156 0.378599 1.378372 0.002429 0.000194 -329278.000000 1 0 0
5.711803 4.516936 4.859172 8.754368 0.669110 0.982365 -0.002158 -0.001424 -152245.000000 1 0 0
0.319303 -1.612964 -6.419028 6.626275 -1.375362 2.890830 -0.003235 -0.004685 -862078.000000 1 0 0
12.507803 6.948436 -4.671028 15.051392 0.507077 1.886346 -0.000872 0.002704 -454016.000000 1 0 0
7.544303 3.197636 12.777572 15.179188 0.400894 0.570220 -0.002657 -0.005237 -963292.000000 1 0 0
-2.337297 -0.112764 8.697572 9.006855 0.048208 0.262819 0.002073 -0.002921 1035000.000000 1 0 0
2.533103 -15.320764 13.154272 20.351347 -1.406941 0.867994 -0.001434 -0.002900 -225957.000000 1 0 0
18.864303 4.486536 -1.728428 19.467368 0.233494 1.659699 0.000540 0.015607 773119.000000 1 0 0
-0.378497 -13.328764 7.281272 15.192634 1.542407 1.070981 -0.005619 -0.000497 -1202470.000000 1 0 0
4.348303 1.549436 -0.592328 4.653960 0.342304 1.698416 0.000500 -0.000782 954158.000000 1 0 0
2.679203 -0.506964 -7.390828 7.877784 -0.187011 2.788149 -0.004372 -0.001588 553026.000000 1 0 0
7.208403 -11.293664 0.754972 13.419311 -1.002712 1.514506 -0.005979 -0.001986 -146763.000000 1 0 0
-11.644597 -7.246764 1.345872 13.781277 0.556676 1.472981 0.004613 -0.003712 187001.000000 1 0 0
0.208103 -7.048864 9.883072 12.141042 -1.541282 0.619753 -0.003137 -0.001022 -1449700.000000 1 0 0
-4.588397 -7.159064 10.636372 13.617562 1.000830 0.674407 0.004679 -0.001887 -1360630.000000 1 0 0
11.797003 0.731836 -1.674428 11.937696 0.061956 1.711524 0.000152 0.002054 900492.000000 1 0 0
6.400103 -9.565364 -7.405328 13.685627 -0.981117 2.142544 -0.008578 -0.002430 489854.000000 1 0 0
-10.864797 4.860536 3.623672 12.441849 -0.420661 1.275264 -0.001879 -0.002866 904859.000000 1 0 0
5.908203 -9.169264 1.992172 11.088328 -0.998404 1.390152 -0.006863 -0.003292 2474530.000000 1 0 0
11.603203 -1.358964 5.846672 13.063870 -0.116589 1.106778 0.000274 -0.006153 -974847.000000 1 0 0
-6.396797 3.583236 4.162972 8.431425 -0.510611 1.054405 -0.000473 -0.004740 -1258330.000000 1 0 0
9.510503 6.325336 -3.282928 11.884324 0.586910 1.850676 -0.006219 0.002926 -344064.000000 1 0 0
-2.237797 6.617136 11.036272 13.061146 -1.244688 0.564288 -0.005951 -0.000159 -173349.000000 1 0 0
1.883603 9.795536 2.993872 10.414593 1.380823 1.279213 -0.004630 0.000173 -226960.000000 1 0 0
2.827203 6.117636 -5.593228 8.758010 1.137893 2.263528 -0.003311 0.000595 -2310660.000000 1 0 0
11.790103 0.129236 -5.827528 13.152312 0.010961 2.029828 0.006224 -0.000788 427536.000000 1 0 0
-2.644497 -12.622564 6.345372 14.373108 1.364278 1.113554 0.002807 0.000044 565658.000000 1 0 0
10.811403 1.851336 -2.890728 11.343289 0.169594 1.828479 0.001079 0.001202 21344.700000 1 0 0
-8.847797 5.407236 0.957672 10.413397 -0.548570 1.478701 0.002066 -0.003401 1235350.000000 1 0 0
1.282903 -10.138264 5.545972 11.627040 -1.444925 1.073570 -0.004566 -0.002168 312645.000000 1 0 0
9.366303 -5.649264 -1.354128 11.021592 -0.542731 1.693969 0.003974 -0.004124 273377.000000 1 0 0
-7.774197 8.693236 -4.441728 12.479560 -0.841150 1.934695 -0.004055 -0.002253 96976.000000 1 0 0
-7.513797 -0.037064 -1.594528 7.681213 0.004933 1.779905 -0.001702 -0.001459 -2638920.000000 1 0 0
4.190803 8.859436 2.791572 10.190452 1.128954 1.293309 0.000597 -0.001652 516170.000000 1 0 0
-1.328197 -10.568764 -3.842028 11.323606 1.445780 1.916962 0.000275 0.001157 -605805.000000 1 0 0
3.150803 7.835836 -3.706428 9.223096 1.188479 1.984348 0.000096 -0.001942 -199835.000000 1 0 0
-4.435197 1.728636 -10.981528 11.968839 -0.371643 2.732570 0.002112 -0.001751 -836992.000000 1 0 0
1.454803 2.791736 10.964072 11.407065 1.090403 0.279603 0.002825 -0.002096 447628.000000 1 0 0
2.152603 5.606136 -8.064428 10.054723 1.204182 2.501522 -0.000014 -0.001122 1053280.000000 1 0 0
15.681703 6.072936 3.920472 17.267498 0.369478 1.341756 0.004204 0.001415 485299.000000 1 0 0
-4.417297 9.159336 4.630172 11.173381 -1.121431 1.143520 -0.005749 0.006220 -387071.000000 1 0 0
-1.122897 -8.095864 -12.444328 14.888425 1.432976 2.560456 -0.001975 0.001112 -138545.000000 1 0 0
14.197203 -4.234564 -5.351028 15.752004 -0.289867 1.917399 0.007204 0.000330 -334957.000000 1 0 0
-5.830297 -5.925964 -5.424028 9.926202 0.793536 2.148898 0.003902 -0.001638 187917.000000 1 0 0
-8.972097 2.631436 -12.391028 15.522904 -0.285291 2.495167 -0.010639 0.004257 -270642.000000 1 0 0
10.662403 5.278736 13.722872 18.162299 0.459703 0.714274 0.007318 -0.005414 535778.000000 1 0 0
-0.351897 10.901236 5.587272 12.254729 -1.538527 1.097382 -0.003129 0.007205 817050.000000 1 0 0
0.388103 11.144636 -0.597528 11.167389 1.535986 1.624328 -0.001089 -0.001189 -621759.000000 1 0 0
-1.476397 -0.563164 3.634072 3.962749 0.364409 0.410157 0.002185 -0.002400 552981.000000 1 0 0
-4.764797 6.476136 8.982772 12.055448 -0.936480 0.730079 -0.005936 0.001493 -672878.000000 1 0 0
3.403203 -8.725664 -11.609528 14.916439 -1.198921 2.462757 -0.005412 0.002561 1301430.000000 1 0 0
6.775603 -3.716864 12.004972 14.277368 -0.501741 0.571964 0.000108 0.000606 -270665.000000 1 0 0
-2.509697 -2.022364 -12.496328 12.905299 0.678280 2.889168 0.005056 -0.003561 736776.000000 1 0 0
-16.057397 -4.903064 5.390772 17.633504 0.296354 1.260110 0.015393 -0.006496 245168.000000 1 0 0
-8.850497 7.157836 5.936672 12.837834 -0.680053 1.090056 -0.001144 -0.001918 -3802310.000000 1 0 0
-12.768097 1.548136 6.120772 14.243766 -0.120661 1.126618 -0.005241 -0.004653 373950.000000 1 0 0
-3.491397 3.579136 10.240172 11.395666 -0.797807 0.454223 -0.000363 0.000973 662767.000000 1 0 0
2.033203 -12.229364 -1.245728 12.459659 -1.406047 1.670945 -0.002341 0.002047 -3475240.000000 1 0 0
10.247003 -5.159564 -3.747328 12.069161 -0.466459 1.886503 0.009525 -0.003034 679316.000000 1 0 0
2.959403 -13.390964 0.897072 13.743389 -1.353292 1.505477 -0.004779 -0.000549 264773.000000 1 0 0
9.946503 -1.626764 -6.183228 11.824195 -0.162116 2.121081 0.006648 -0.001715 124135.000000 1 0 0
11.922803 -5.347464 -1.647928 13.170584 -0.421612 1.696247 0.006827 -0.001583 -466731.000000 1 0 0
1.437803 0.977736 5.975272 6.223112 0.597191 0.283171 0.003427 -0.003270 273695.000000 1 0 0
-10.586397 11.648736 6.669672 17.095302 -0.833139 1.170006 -0.004644 -0.002552 -452699.000000 1 0 0
4.743103 -14.109164 2.861372 15.157605 -1.246493 1.380882 -0.002961 -0.005164 -4179030.000000 1 0 0
5.178303 -3.422564 -1.798328 6.462411 -0.584030 1.852794 0.005533 -0.003609 -1527080.000000 1 0 0
2.039103 -2.925364 -7.773028 8.551939 -0.962058 2.711483 -0.004984 -0.003595 11996.200000 1 0 0
-2.812897 14.938136 -8.708328 17.518426 -1.384673 2.091044 0.012222 -0.005304 -1193420.000000 1 0 0
-2.411297 6.104236 -8.171828 10.481165 -1.194590 2.464932 0.004976 -0.002751 -333430.000000 1 0 0
2.473003 -3.493564 -11.374328 12.153027 -0.954805 2.781674 -0.001514 0.000655 -1411420.000000 1 0 0
14.524903 2.721536 -2.820928 15.044508 0.185223 1.759418 0.004488 0.005935 639500.000000 1 0 0
-3.461597 13.247736 2.261072 13.877954 -1.315214 1.407141 -0.008271 0.005205 -1612740.000000 1 0 0
7.948203 -4.859764 13.946272 16.771695 -0.548781 0.588929 -0.004136 0.000470 -1034810.000000 1 0 0
-11.397297 7.251836 2.990572 13.835860 -0.566667 1.352930 -0.003051 -0.001659 1288260.000000 1 0 0
-2.225197 11.997336 4.076872 12.865009 -1.387406 1.248341 -0.007132 0.005705 504532.000000 1 0 0
1.852603 1.438036 0.728572 2.455790 0.660075 1.269587 -0.004915 -0.000259 -1772070.000000 1 0 0
-6.787497 8.598136 5.361772 12.196174 -0.902543 1.115613 -0.005913 0.001501 -568349.000000 1 0 0
-1.110197 9.157336 1.021972 9.280828 -1.450149 1.460456 -0.005345 0.001963 265887.000000 1 0 0
5.031803 13.223636 -8.558728 16.535882 1.207199 2.114823 0.001201 -0.004398 -2595980.000000 1 0 0
9.066203 6.840836 7.219572 13.457909 0.646402 1.004565 -0.002943 -0.003066 -1515900.000000 1 0 0
7.265903 -13.848464 2.887172 15.903115 -1.087606 1.388236 -0.000175 -0.004027 281242.000000 1 0 0
4.120303 -13.432864 -1.294828 14.110114 -1.273174 1.662692 -0.007099 0.003997 -3680130.000000 1 0 0
11.975703 -11.903864 -4.621328 17.506460 -0.782390 1.837941 0.017630 -0.001072 -649523.000000 1 0 0
2.843803 -0.100364 -1.902728 3.423107 -0.035278 2.160179 0.001215 -0.002289 1260540.000000 1 0 0
-13.458397 -3.206864 -10.701028 17.490695 0.233918 2.229146 -0.009889 -0.000012 755263.000000 1 0 0
-6.437297 13.763236 5.069372 16.017615 -1.133307 1.248772 -0.006682 0.002495 89704.300000 1 0 0
7.306803 -4.243564 -0.713628 8.479769 -0.526159 1.655052 0.005367 -0.003379 -120471.000000 1 0 0
11.614203 2.109136 -7.452128 13.959670 0.179642 2.133923 0.003447 0.002128 -2289120.000000 1 0 0
-7.354097 -4.554064 9.807472 13.077031 0.554458 0.722769 0.006614 -0.004039 118365.000000 1 0 0
1.086103 2.861236 8.502172 9.036217 1.208006 0.345520 0.001992 -0.002081 -2068390.000000 1 0 0
1.557003 8.011336 -8.854528 12.041944 1.378839 2.396916 0.004025 -0.002784 -852711.000000 1 0 0
-8.529397 -2.103364 -5.540428 10.386101 0.241778 2.133466 0.006928 -0.002920 -1543650.000000 1 0 0
6.798903 -0.450364 7.160872 9.884635 -0.066144 0.760568 0.003470 -0.004180 188418.000000 1 0 0
-10.876297 6.463036 7.250572 14.582025 -0.536167 1.050397 0.004039 -0.003745 663332.000000 1 0 0
-5.959597 11.121336 5.052772 13.591593 -1.078866 1.189895 -0.012434 0.007012 -428998.000000 1 0 0
5.874203 -1.226464 -7.027328 9.240877 -0.205831 2.434819 -0.000683 -0.001895 -1229080.000000 1 0 0
4.589203 -5.862064 11.359972 13.582104 -0.906591 0.580128 -0.003346 -0.003845 -763635.000000 1 0 0
-8.931697 -7.231564 2.824772 11.834275 0.680599 1.329775 0.007421 -0.004796 -2356140.000000 1 0 0
-1.220497 12.818736 -9.361828 15.920220 -1.475871 2.199438 0.012871 0.000895 879137.000000 1 0 0
-4.662697 9.230336 -2.273928 10.588229 -1.103038 1.787242 -0.004885 -0.002047 616589.000000 1 0 0
-3.142997 9.751436 -0.236928 10.248174 -1.258998 1.593917 -0.005776 0.001129 -2275510.000000 1 0 0
-3.594997 10.719036 -6.300028 12.942646 -1.247201 2.079179 0.006456 0.001093 899947.000000 1 0 0
4.902103 -4.846664 0.256972 6.898319 -0.779711 1.533536 0.002415 -0.001845 -1740610.000000 1 0 0
-2.325697 2.962136 -10.938028 11.568213 -0.905181 2.809998 0.006805 -0.001737 -299280.000000 1 0 0
-3.624697 12.098436 -2.270528 12.832220 -1.279706 1.748672 -0.007485 0.002892 891314.000000 1 0 0
-0.087997 0.471836 -0.098828 0.490040 -1.386416 1.773862 -0.005097 -0.001512 -1985720.000000 1 0 0
-4.800897 -1.630464 0.169172 5.073031 0.327395 1.537443 -0.003507 -0.001428 2356.540000 1 0 0
2.474403 2.457436 -2.496428 4.288801 0.781958 2.192081 -0.006098 -0.001318 1309470.000000 1 0 0
6.160603 -9.602564 8.395472 14.164965 -1.000379 0.936398 -0.004822 -0.001690 -717226.000000 1 0 0
-4.288797 -5.486064 6.697172 9.661407 0.907275 0.804893 -0.001740 -0.002038 37333.800000 1 0 0
-6.427197 5.390936 -11.988028 14.631605 -0.697938 2.531028 -0.002464 0.001984 524571.000000 1 0 0
-12.823697 3.045036 8.122072 15.481844 -0.233136 1.018529 -0.004068 -0.003676 549226.000000 1 0 0
4.624703 -7.457364 -5.032328 10.115557 -1.015690 2.091492 -0.002535 -0.004927 -901564.000000 1 0 0
-6.044097 2.554336 -0.977528 6.634101 -0.399850 1.718684 0.002819 -0.003505 -985418.000000 1 0 0
-7.004297 -2.698464 -14.613228 16.428278 0.367734 2.667083 0.001000 0.006143 100143.000000 1 0 0
2.796403 -5.992564 0.917672 6.676288 -1.134187 1.432907 -0.000903 -0.000598 -247973.000000 1 0 0
4.869303 -7.912964 12.979772 15.962444 -1.019161 0.621262 -0.010918 0.005347 -181605.000000 1 0 0
-9.964297 -1.718064 8.116272 12.965833 0.170743 0.894417 0.005676 -0.003031 -50949.200000 1 0 0
-4.381297 13.215536 -0.073328 13.923057 -1.250673 1.576063 -0.010128 0.003393 807185.000000 1 0 0
6.658803 2.089436 -4.457728 8.281107 0.304056 2.139216 -0.005097 0.003611 -1367770.000000 1 0 0
5.067203 4.498636 0.027572 6.776063 0.726031 1.566727 -0.001237 -0.000593 -1477440.000000 1 0 0
-5.764097 12.181136 1.917772 13.611860 -1.128819 1.429436 -0.011414 0.003674 -903996.000000 1 0 0
6.534603 -7.324864 6.589472 11.822683 -0.842356 0.979595 -0.002279 -0.003928 322622.000000 1 0 0
-0.263397 4.977436 7.756172 9.219678 -1.517928 0.571181 -0.004217 0.000520 -806190.000000 1 0 0
-5.850397 -3.400564 -1.421028 6.914499 0.526521 1.777785 -0.004542 -0.001378 -349301.000000 1 0 0
2.247303 -6.496964 -5.168428 8.600788 -1.237778 2.215454 -0.002300 -0.001925 -1056730.000000 1 0 0
-14.356197 -4.740264 -3.653728 15.553784 0.318918 1.807922 0.003190 -0.002914 157614.000000 1 0 0
-12.385097 -5.072664 -6.259028 14.774910 0.388736 2.008240 0.006564 -0.006187 -887293.000000 1 0 0
-14.886197 -3.745964 -1.202428 15.397303 0.246522 1.648969 0.008521 -0.003300 107682.000000 1 0 0
11.924703 2.819736 8.723972 15.041847 0.232197 0.952092 -0.000032 -0.003926 -1460640.000000 1 0 0
8.762903 -6.513564 7.697472 13.359120 -0.639207 0.956729 0.000586 -0.006783 205747.000000 1 0 0
-8.849897 -1.678064 -9.616528 13.176273 0.187389 2.388879 -0.001256 0.000556 -650381.000000 1 0 0
-8.840297 5.142436 -3.784628 10.904994 -0.526858 1.925225 0.000240 -0.002004 -1000330.000000 1 0 0
-4.019697 -6.246564 4.143472 8.505639 0.999000 1.061980 0.002548 0.001503 -1621010.000000 1 0 0
-0.182097 -9.247364 3.634572 9.937657 1.551107 1.196371 -0.003124 0.000156 567446.000000 1 0 0
7.837003 -10.488564 3.240072 13.488020 -0.929093 1.328205 -0.003979 -0.002872 158058.000000 1 0 0
0.030603 6.511336 9.675172 11.662221 1.566096 0.592376 -0.005131 -0.001791 825868.000000 1 0 0
-0.077997 3.652636 -9.788128 10.447740 -1.549446 2.784353 0.007367 -0.005568 -427938.000000 1 0 0
4.591303 -3.213964 10.950072 12.300964 -0.610734 0.473056 0.000632 -0.003953 -2797810.000000 1 0 0
8.443403 -9.095564 1.293772 12.477748 -0.822565 1.466923 -0.000532 -0.002045 -1057470.000000 1 0 0
-0.152597 -0.425864 11.455172 11.464101 1.226727 0.039471 0.006322 0.001150 -1293750.000000 1 0 0
11.076403 5.782836 11.298372 16.845804 0.481160 0.835653 -0.000379 -0.004476 186491.000000 1 0 0
-6.471697 -2.684464 -11.890728 13.801399 0.393200 2.609130 0.002228 0.001491 -312123.000000 1 0 0
-1.507997 2.778836 8.557172 9.122564 -1.073597 0.353916 0.002753 -0.001836 1130900.000000 1 0 0
-1.776397 13.508136 -6.790728 15.222986 -1.440041 2.033181 0.008690 -0.003240 532863.000000 1 0 0
7.778803 3.051736 9.834272 12.904875 0.373863 0.704310 0.001153 -0.004293 706656.000000 1 0 0
6.381203 8.512736 -8.047028 13.339456 0.927547 2.218366 -0.000016 -0.004487 -643927.000000 1 0 0
6.653103 -3.140764 -3.900728 8.327296 -0.441059 2.058305 0.002222 -0.003308 -2248730.000000 1 0 0
2.005903 8.185036 1.026572 8.489541 1.330463 1.449578 -0.002843 0.000271 1192160.000000 1 0 0
-17.575397 6.308536 6.431872 19.749966 -0.344618 1.239081 -0.002380 0.001206 258408.000000 1 0 0
-14.588097 3.039436 -10.101428 18.002488 -0.205412 2.166526 0.003106 0.001205 -1035730.000000 1 0 0
-18.438597 0.068936 -4.296728 18.932735 -0.003739 1.799738 -0.002066 -0.002479 691955.000000 1 0 0
-13.036697 8.195436 0.103572 15.399070 -0.561215 1.564070 0.001783 0.002435 -1885140.000000 1 0 0
-12.458197 -4.344164 -12.672028 18.293680 0.335516 2.336022 -0.009207 0.010099 -1591210.000000 1 0 0
-17.423697 -0.727964 -8.749528 19.510750 0.041756 2.035823 -0.002980 -0.006504 233449.000000 1 0 0
-16.723097 -2.110964 -2.063128 16.981597 0.125566 1.692589 -0.000458 -0.003433 348452.000000 1 0 0
-15.232997 4.224136 1.874872 15.918626 -0.270505 1.452744 -0.004190 0.002558 -1885900.000000 1 0 0
-13.158697 5.920836 4.502572 15.115580 -0.422817 1.268329 -0.006287 -0.000948 -920094.000000 1 0 0
-9.884897 14.147836 2.847072 17.492234 -0.960953 1.407307 0.003522 -0.006656 -339954.000000 1 0 0
-11.912097 2.485036 -6.372028 13.735945 -0.205665 2.053182 0.002440 0.002476 542513.000000 1 0 0
-15.746197 10.590636 3.927672 19.378619 -0.592088 1.366702 -0.010393 -0.000285 -189695.000000 1 0 0
-12.785897 1.118236 -8.561428 15.428145 -0.087237 2.159066 0.000753 -0.000906 597034.000000 1 0 0
-12.182797 14.499636 3.953872 19.346655 -0.872011 1.364976 0.000120 -0.001948 833647.000000 1 0 0
-10.271097 11.191036 -1.088128 15.228878 -0.828235 1.642309 0.001547 -0.004250 -413386.000000 1 0 0
-16.915697 5.807836 9.015972 20.028967 -0.330729 1.103867 -0.012703 0.002613 233816.000000 1 0 0
-11.837997 12.524936 -9.103528 19.490675 -0.813587 2.056772 0.004076 -0.013666 975354.000000 1 0 0
-17.149597 -0.378564 3.215872 17.452616 0.022071 1.385474 0.001248 -0.002960 164059.000000 1 0 0
-13.015597 14.818836 -0.509228 19.729748 -0.850092 1.596609 0.016550 -0.016663 221673.000000 1 0 0
-16.501097 4.635836 -10.386428 20.041333 -0.273881 2.115600 0.008281 0.004603 683316.000000 1 0 0
-11.905597 7.596436 -8.949328 16.719436 -0.567933 2.135618 -0.002952 0.001065 -257101.000000 1 0 0
-14.668297 13.546236 -1.974128 20.063813 -0.745650 1.669348 0.021848 -0.022657 -289273.000000 1 0 0
-11.958597 10.659936 -5.296828 16.873015 -0.728045 1.890118 0.004442 -0.007199 1374470.000000 1 0 0
-17.570597 2.849936 -0.739128 17.815564 -0.160799 1.612296 -0.010106 0.002747 -868348.000000 1 0 0
-9.233997 15.342936 0.735172 17.922412 -1.029025 1.529765 0.000145 -0.006901 77229.400000 1 0 0
-8.181397 13.237436 -3.551628 15.961799 -1.017210 1.795183 -0.002909 -0.005184 -1333560.000000 1 0 0
-17.426797 11.753336 2.165672 21.131121 -0.593365 1.468129 0.003559 0.009471 -314796.000000 1 0 0
-8.106297 15.758036 -7.324128 19.174738 -1.095677 1.962721 0.018457 -0.021064 98917.000000 1 0 0
-6.318097 15.347836 -5.414828 17.458372 -1.180278 1.886154 0.000560 -0.004493 -361021.000000 1 0 0
-17.375997 5.306336 -0.001328 18.168172 -0.296388 1.570869 -0.002258 0.004790 611831.000000 1 0 0
-5.375197 12.354136 -12.153028 18.144241 -1.160408 2.304737 -0.017234 0.000699 -343292.000000 1 0 0
-11.125297 3.773636 -11.466228 16.416057 -0.327016 2.344063 -0.007148 0.001711 -180411.000000 1 0 0
-11.692097 11.094336 1.210672 16.163389 -0.759171 1.495824 0.003237 -0.004271 232132.000000 1 0 0
-12.972897 0.183036 -11.037728 17.034112 -0.014108 2.275723 0.001355 -0.003168 -46912.800000 1 0 0
-14.114497 -2.220264 -13.020928 19.331144 0.156025 2.309828 -0.009772 0.008104 121348.000000 1 0 0
-18.828197 -2.469064 -3.695328 19.345612 0.130392 1.762994 -0.009165 0.000366 987176.000000 1 0 0
-18.375997 4.751136 -5.020728 19.633091 -0.253011 1.829397 0.018069 0.004954 -79385.600000 1 0 0
-8.245197 15.576036 -2.290828 17.772002 -1.083944 1.700057 0.005554 -0.007374 426441.000000 1 0 0
-16.006997 9.112936 -5.373228 19.187004 -0.517547 1.854637 0.009282 0.001671 -1019060.000000 1 0 0
-18.240197 1.954836 2.206572 18.476881 -0.106764 1.451087 0.004902 -0.000938 411392.000000 1 0 0
-15.654297 -2.649664 -8.546828 18.031250 0.167672 2.064625 -0.004101 -0.009445 -242614.000000 1 0 0
-9.934397 10.514736 -7.189628 16.153719 -0.813770 2.032055 -0.002520 -0.006190 -431643.000000 1 0 0
-13.922297 12.028636 -7.626928 19.917039 -0.712556 1.963768 0.011017 -0.018368 -163355.000000 1 0 0
-11.014597 6.615636 -3.774928 13.391716 -0.540879 1.856555 -0.001632 0.000540 -498930.000000 1 0 0
-13.224597 4.916036 -12.509328 18.855785 -0.355904 2.296178 0.002145 -0.000682 419468.000000 1 0 0
-17.621497 9.154336 2.683272 20.037938 -0.479124 1.436483 0.003992 0.002045 833009.000000 1 0 0
-13.510097 8.835736 -6.429428 17.376147 -0.579189 1.949821 0.004353 -0.001124 -1168020.000000 1 0 0
-15.788797 6.970536 -3.799128 17.672234 -0.415751 1.787465 0.006706 0.004606 -615887.000000 1 0 0
-14.903697 -0.309564 -9.199128 17.516848 0.020768 2.123698 0.006090 -0.008706 -457777.000000 1 0 0
-9.921197 5.914536 -5.995928 13.013955 -0.537585 2.049615 -0.004337 0.003328 308598.000000 1 0 0
-12.521397 12.261536 -1.019028 17.554744 -0.774913 1.628878 0.013975 -0.011815 -106856.000000 1 0 0
-10.811297 3.458536 -14.012428 18.033129 -0.309612 2.460743 -0.011245 0.009721 295435.000000 1 0 0
-11.008497 6.315136 -11.904728 17.400876 -0.520827 2.324228 -0.010802 0.003424 -494210.000000 1 0 0
-5.686597 11.624836 -14.694028 19.580312 -1.115845 2.419538 -0.020093 -0.000581 -314929.000000 1 0 0
-15.424197 13.210336 3.731172 20.648013 -0.708237 1.389094 -0.009648 -0.010958 -258204.000000 1 0 0
-15.096597 11.197436 -3.027028 19.038190 -0.638180 1.730472 0.022858 -0.005054 759336.000000 1 0 0
-18.102697 7.839636 -4.674528 20.273597 -0.408681 1.803462 0.006560 0.005415 -412705.000000 1 0 0
-4.037197 16.367636 -10.415228 19.816040 -1.328966 2.124212 0.014782 -0.005993 142705.000000 1 0 0
-15.878297 4.414636 -4.412728 17.061110 -0.271181 1.832413 0.004552 0.006075 -1538300.000000 1 0 0
-18.514897 -1.752164 -6.224928 19.611762 0.094354 1.893791 -0.018723 -0.003177 -395170.000000 1 0 0
-10.957297 8.634736 -5.675928 15.061114 -0.667403 1.957200 -0.001623 0.000118 -481879.000000 1 0 0
-11.294197 13.413836 -6.650128 18.754041 -0.870976 1.933279 0.003998 -0.019553 101878.000000 1 0 0
-9.480797 10.537736 -4.483428 14.867095 -0.838147 1.877132 -0.007766 -0.002257 -637344.000000 1 0 0
-11.042797 6.496936 -0.108628 12.812702 -0.531803 1.579275 0.000055 -0.000289 -520337.000000 1 0 0
-14.737397 9.387836 -1.399728 17.529448 -0.567188 1.650731 0.011255 -0.001435 495975.000000 1 0 0
-18.436297 3.527436 4.891772 19.397661 -0.189046 1.315860 -0.011534 0.006661 586877.000000 1 0 0
-14.477197 13.021636 0.534672 19.479171 -0.732516 1.543344 -0.003028 -0.017613 114356.000000 1 0 0
-16.888897 2.483636 -8.875928 19.240202 -0.146011 2.050281 0.004587 -0.003985 313185.000000 1 0 0
-9.218597 8.513236 -8.780228 15.315029 -0.745640 2.181334 -0.002779 0.003191 -2446940.000000 1 0 0
-17.611197 4.729936 -2.514128 18.407807 -0.262384 1.707804 -0.004895 0.006096 844929.000000 1 0 0
-13.521097 5.802736 -4.367228 15.348110 -0.405390 1.859328 0.004128 0.007005 678024.000000 1 0 0
-12.031297 9.608636 3.283572 15.743565 -0.673909 1.360688 -0.003060 -0.002744 1197230.000000 1 0 0
-17.587197 2.521136 -3.846628 18.178618 -0.142381 1.784010 0.005962 -0.001950 1095290.000000 1 0 0
-11.303797 1.411136 -12.593228 16.981063 -0.124195 2.406255 -0.004886 0.003580 50356.400000 1 0 0
-11.104397 12.042936 3.592372 16.770363 -0.825922 1.354914 -0.000220 -0.005007 323127.000000 1 0 0
-16.380397 13.358836 -3.814328 21.478477 -0.684144 1.749332 0.022183 -0.011023 620041.000000 1 0 0
-11.149397 4.173436 -4.534828 12.739359 -0.358174 1.934748 -0.004891 0.001510 -170153.000000 1 0 0
-11.270397 15.099036 -8.711528 20.757973 -0.929583 2.003880 0.009300 -0.018066 -66436.600000 1 0 0
-15.498697 7.117536 -0.203728 17.056096 -0.430507 1.582741 0.004548 0.001998 -336120.000000 1 0 0
-12.935697 8.397336 -3.921628 15.913097 -0.575784 1.819802 -0.000805 -0.001870 571431.000000 1 0 0
-19.366497 1.879236 -5.792528 20.301382 -0.096733 1.860144 0.008332 -0.004307 1113490.000000 1 0 0
-12.711797 10.057036 -8.836228 18.461112 -0.669326 2.069901 0.001532 -0.011946 301110.000000 1 0 0
-16.832697 10.997436 -1.123428 20.138157 -0.578718 1.626611 0.017099 -0.005305 638817.000000 1 0 0
-10.862897 6.471036 -14.510528 19.246616 -0.537252 2.424814 -0.006925 0.000891 139119.000000 1 0 0
-13.851897 13.066136 -4.525728 19.572459 -0.756216 1.804137 0.021424 -0.012675 275307.000000 1 0 0
-18.029797 7.783336 -0.201328 19.639104 -0.407526 1.581048 0.011522 0.004724 -374767.000000 1 0 0
-12.760697 6.676336 -2.000128 14.539923 -0.482031 1.708795 -0.000241 0.003526 199754.000000 1 0 0
-13.795197 8.491636 -10.577628 19.346874 -0.551775 2.149257 -0.002509 0.001272 -1124970.000000 1 0 0
-14.920497 1.465036 -0.839828 15.015754 -0.097876 1.626755 -0.001493 0.001140 -1056620.000000 1 0 0
-13.347297 2.890236 -2.303328 13.849517 -0.213249 1.737884 0.002253 -0.000823 289331.000000 1 0 0
-11.317397 9.304936 -10.850028 18.231522 -0.688120 2.208217 -0.006182 -0.004407 5066.680000 1 0 0
-15.263597 4.342136 -7.986028 17.765364 -0.277155 2.037033 -0.002474 0.003801 654868.000000 1 0 0
-18.191897 10.849436 4.516772 21.657714 -0.537760 1.360702 0.004460 0.004251 286384.000000 1 0 0
-15.330997 6.063036 -6.228028 17.623512 -0.376600 1.931992 0.002226 0.006959 759201.000000 1 0 0
-7.773097 11.510936 -13.019928 19.037888 -0.976855 2.323885 -0.019092 0.009047 220450.000000 1 0 0
-16.862697 9.215136 -2.977528 19.445692 -0.500137 1.724521 0.009060 0.002379 956458.000000 1 0 0
-20.685597 -1.190164 -4.968328 21.307151 0.057473 1.806139 -0.012810 0.000818 609475.000000 1 0 0
-15.360597 4.357736 4.332772 16.544205 -0.276432 1.305816 -0.007894 0.001612 -70748.000000 1 0 0
-6.916297 12.626936 -9.403928 17.196178 -1.069689 2.149407 -0.001554 -0.004537 80184.400000 1 0 0
-16.900797 1.639536 5.959972 17.995729 -0.096707 1.233234 -0.009967 -0.000820 -159328.000000 1 0 0
-10.457997 14.297636 -3.076228 17.979301 -0.939274 1.742741 0.017028 -0.018381 1201220.000000 1 0 0
-10.015997 8.446936 -12.942228 18.416628 -0.700618 2.350048 -0.022566 0.002686 387256.000000 1 0 0
-13.621097 11.640836 2.797372 18.134735 -0.707169 1.415923 -0.005589 -0.006674 283740.000000 1 0 0
-16.728197 6.902636 1.927872 18.198781 -0.391351 1.464663 -0.008208 0.003224 490901.000000 1 0 0
-9.348097 13.367236 -8.371128 18.334276 -0.960521 2.044948 0.006604 -0.016517 330110.000000 1 0 0
-5.663797 9.888536 -12.892028 17.206572 -1.050644 2.417726 -0.006751 0.009772 -151264.000000 1 0 0
-15.854597 1.918236 3.227172 16.293020 -0.120404 1.371407 -0.004899 -0.000183 -934630.000000 1 0 0
-18.661597 -4.815264 4.753872 19.850473 0.252523 1.328962 0.018353 -0.002992 764500.000000 1 0 0
-5.378497 14.597636 -9.014328 17.979914 -1.217781 2.095961 0.008108 -0.005566 548264.000000 1 0 0
-15.619897 -0.807664 -6.732828 17.028343 0.051661 1.977288 0.015409 -0.004254 687706.000000 1 0 0
-9.057897 11.147636 -9.498328 17.220148 -0.888456 2.155056 -0.007476 -0.006382 224584.000000 1 0 0
-16.777197 1.333436 -5.886628 17.829884 -0.079312 1.907264 0.001519 -0.006686 -759794.000000 1 0 0
-11.111097 8.674936 -1.554928 14.181988 -0.662889 1.680658 -0.000734 -0.003861 -1041120.000000 1 0 0
-10.644297 10.981736 -12.515228 19.761844 -0.801000 2.256610 -0.010644 -0.010931 -433303.000000 1 0 0
-14.087597 11.675936 -10.286228 20.990339 -0.692063 2.082939 0.008736 -0.019560 -163631.000000 1 0 0
-13.104497 5.750036 -7.591328 16.199352 -0.413487 2.058523 -0.000265 0.006739 -1765930.000000 1 0 0
-8.853697 15.326836 -4.803528 18.340494 -1.046965 1.835795 0.007190 -0.018324 722569.000000 1 0 0
-8.689797 6.190736 -12.907228 16.746173 -0.619009 2.450825 -0.011055 0.002326 -881435.000000 1 0 0
-16.355397 7.651536 4.447472 18.596371 -0.437582 1.329298 -0.005431 0.006794 334359.000000 1 0 0
-12.573797 5.327636 -10.089728 16.979007 -0.400777 2.207126 -0.004503 0.002606 339962.000000 1 0 0
-12.540297 9.287236 -13.233328 20.460517 -0.637452 2.274143 0.007505 -0.002411 444845.000000 1 0 0
-10.776697 5.194836 -8.398428 14.617014 -0.449179 2.182869 -0.005566 0.002988 -1517740.000000 1 0 0
-17.622397 -4.504164 -2.554128 18.367360 0.250236 1.710306 -0.014765 -0.000577 68138.700000 1 0 0
-8.942397 13.262036 -10.950028 19.384302 -0.977538 2.171098 -0.001306 -0.008577 71036.400000 1 0 0
-14.949497 6.229036 6.139072 17.319831 -0.394796 1.208467 -0.007334 -0.002063 -533279.000000 1 0 0
-16.329697 -3.058264 -4.404328 17.187498 0.185138 1.829939 -0.006427 -0.002031 -739389.000000 1 0 0
-11.161297 -1.135364 -12.527628 16.816809 0.101375 2.411251 -0.005225 0.007345 -231547.000000 1 0 0
-15.326597 6.788736 -8.659528 18.867404 -0.416966 2.047629 -0.005143 0.007495 136479.000000 1 0 0
-14.961197 9.274036 1.179472 17.641890 -0.554904 1.503890 -0.001023 -0.001035 -366471.000000 1 0 0
-19.245597 5.354436 8.096072 21.554799 -0.271354 1.185748 0.004854 -0.004751 -596119.000000 1 0 0
-16.352897 0.539736 1.052472 16.395616 -0.032994 1.506560 0.001444 -0.000629 -334273.000000 1 0 0
-17.241597 3.868036 7.262772 19.104508 -0.220689 1.180827 -0.014830 0.005017 781639.000000 1 0 0
-15.374697 4.096536 -1.287528 15.963102 -0.260397 1.651541 -0.003185 0.001186 -2252600.000000 1 0 0
-10.628897 13.305036 0.427172 17.034667 -0.896749 1.545717 0.005034 -0.010870 -1651070.000000 1 0 0
-13.461297 3.503136 0.179772 13.910815 -0.254591 1.557873 0.001658 0.000666 -432073.000000 1 0 0
-15.103197 0.191636 -4.275928 15.697988 -0.012688 1.846669 0.004831 -0.004229 938325.000000 1 0 0
-18.667697 6.862036 3.532972 20.200305 -0.352257 1.394995 -0.005304 0.005522 -314785.000000 1 0 0
-14.231497 1.338336 -6.393728 15.659067 -0.093765 1.991396 0.006311 -0.000990 341895.000000 1 0 0
-14.066697 11.870736 5.422372 19.188237 -0.700936 1.284305 -0.009702 -0.010653 -223710.000000 1 0 0
17.787103 5.493936 6.099372 19.589965 0.299576 1.254181 0.016716 -0.003693 320170.000000 1 0 0
18.459203 7.647836 -0.550128 19.988352 0.392782 1.598322 -0.003532 0.015686 -150547.000000 1 0 0
16.659603 5.215236 8.424172 19.383182 0.303383 1.121188 0.013174 -0.004856 274208.000000 1 0 0
11.637303 12.189136 11.135472 20.199025 0.808555 0.986890 0.001439 -0.007035 344487.000000 1 0 0
-2.258197 16.271436 -0.456628 16.433733 -1.432894 1.598586 -0.004287 -0.000847 -318131.000000 1 0 0
14.982303 12.549236 3.480672 19.851141 0.697253 1.394547 0.001385 0.010176 -46330.700000 1 0 0
13.422103 11.686236 6.968672 19.112388 0.716373 1.197577 0.002581 0.003324 664214.000000 1 0 0
-0.442797 15.930236 8.704272 18.158547 -1.543007 1.070884 -0.002720 0.008142 90937.400000 1 0 0
0.740103 12.883536 9.379772 15.953475 1.513414 0.942280 -0.004701 0.005728 -1468860.000000 1 0 0
0.756503 15.539136 -3.876428 16.033207 1.522151 1.814991 -0.000346 -0.000570 491003.000000 1 0 0
5.468403 10.175036 13.561972 17.814654 1.077652 0.705509 0.004287 -0.009008 132433.000000 1 0 0
-1.337097 16.553636 -2.817828 16.844905 -1.490198 1.738867 -0.000528 0.000567 -1497390.000000 1 0 0
8.603903 9.947736 3.347372 13.571643 0.857709 1.321580 0.003020 -0.003038 688796.000000 1 0 0
12.181703 13.857936 -5.084128 19.138564 0.849682 1.839673 -0.000704 0.002557 41818.800000 1 0 0
2.485303 11.587336 7.772372 14.172257 1.359513 0.990321 -0.002153 0.003908 203058.000000 1 0 0
-0.360597 14.998836 -8.637328 17.311803 -1.546759 2.093157 0.012480 -0.002197 -1567300.000000 1 0 0
2.379703 15.875336 0.198672 16.053932 1.422005 1.558421 -0.000854 -0.007919 -398784.000000 1 0 0
1.959403 13.280936 5.407872 14.472996 1.424318 1.187853 -0.002718 0.005039 60273.200000 1 0 0
17.427903 9.066536 -2.421628 19.793892 0.479701 1.693446 -0.014169 0.016439 517543.000000 1 0 0
-7.033097 15.002536 7.401772 18.147362 -1.132424 1.150676 -0.001117 -0.005588 -931513.000000 1 0 0
8.647103 15.719536 -0.046228 17.940968 1.067887 1.573373 0.001057 -0.002768 -1039030.000000 1 0 0
15.665503 10.386936 2.046972 18.907314 0.585491 1.462320 0.000888 0.011460 684158.000000 1 0 0
14.186003 7.241936 8.628272 18.114508 0.472011 1.074334 0.007902 -0.008516 -1561700.000000 1 0 0
4.355003 18.288236 -1.891028 18.894486 1.337019 1.671048 0.008590 -0.013379 -1280740.000000 1 0 0
-0.276597 17.650436 -4.905928 18.321641 -1.555127 1.841871 0.008622 -0.002030 711504.000000 1 0 0
1.316703 13.630536 -0.713928 13.712582 1.474496 1.622884 0.001012 -0.006238 2304.760000 1 0 0
10.215703 14.519536 4.278972 18.261630 0.957669 1.334283 0.000406 -0.002841 1706910.000000 1 0 0
-1.749797 15.414436 -5.125328 16.338164 -1.457763 1.889887 0.007390 -0.003207 821922.000000 1 0 0
14.966403 8.591036 -6.338628 18.384160 0.521099 1.922809 0.003705 0.000070 205669.000000 1 0 0
-2.309597 18.564236 1.005272 18.734344 -1.447021 1.517111 -0.009931 0.000583 392737.000000 1 0 0
-3.610497 19.329336 3.588972 19.988487 -1.386136 1.390265 -0.005964 -0.006254 174232.000000 1 0 0
1.969403 17.533636 -2.593028 17.833416 1.458944 1.716716 -0.003949 -0.006605 599129.000000 1 0 0
2.946303 12.177336 3.294472 12.954604 1.333409 1.313663 0.000775 -0.000225 1206930.000000 1 0 0
-2.525397 16.274936 2.035972 16.595070 -1.416853 1.447801 -0.006752 0.000016 -536669.000000 1 0 0
11.744503 12.814936 -2.720528 17.594238 0.828956 1.726045 -0.002075 0.009067 578979.000000 1 0 0
7.294503 11.632436 4.741172 14.525910 1.010700 1.238310 -0.002912 0.000758 -211699.000000 1 0 0
7.124303 15.483936 1.933772 17.153642 1.139567 1.457824 0.005985 -0.007491 -577392.000000 1 0 0
5.479303 12.116236 10.214172 16.767685 1.146091 0.915798 -0.010671 0.003692 -1383870.000000 1 0 0
-1.320697 14.226036 3.249472 14.652078 -1.478225 1.347161 -0.005401 0.001976 -857125.000000 1 0 0
4.659203 15.909736 1.493872 16.645105 1.285910 1.480927 -0.001239 -0.011416 -3695140.000000 1 0 0
7.167103 12.905636 12.019172 19.036368 1.063857 0.887466 -0.005167 -0.003090 -220977.000000 1 0 0
0.752303 17.306036 -9.357128 19.688085 1.527353 2.066066 0.014171 -0.007346 275813.000000 1 0 0
9.941103 9.537936 15.250272 20.551607 0.764704 0.734676 0.020335 -0.022164 -112608.000000 1 0 0
13.424203 7.600636 -0.175528 15.427563 0.515187 1.582174 -0.001561 0.005177 546010.000000 1 0 0
12.467103 13.559836 -0.178728 18.420905 0.827358 1.580499 0.004085 0.012405 580101.000000 1 0 0
9.482503 12.217036 3.389472 15.832320 0.910755 1.355041 0.000088 0.005422 376698.000000 1 0 0
-0.677597 12.838136 0.797472 12.880715 -1.518065 1.508845 -0.002176 -0.000815 -1158690.000000 1 0 0
15.866203 7.307936 -1.092728 17.502468 0.431632 1.633270 -0.008319 0.011851 -345299.000000 1 0 0
-4.394897 18.441836 -2.151328 19.079954 -1.336849 1.683790 0.002958 -0.006709 -156189.000000 1 0 0
11.472503 9.255936 -3.237528 15.092126 0.678869 1.786994 0.001871 0.003558 271740.000000 1 0 0
14.747103 9.587036 7.825672 19.251739 0.576443 1.152185 0.007920 -0.006086 2020500.000000 1 0 0
4.478603 13.700736 4.724372 15.168643 1.254858 1.254071 -0.001189 0.002205 67973.900000 1 0 0
2.321803 15.928536 5.666772 17.065208 1.426052 1.232304 -0.003163 0.004784 148309.000000 1 0 0
6.311903 18.345836 5.390372 20.136185 1.239431 1.299796 0.005470 -0.013229 10768.300000 1 0 0
10.762703 17.092536 -0.792228 20.214307 1.008844 1.609998 0.001093 0.005781 562855.000000 1 0 0
9.852503 13.566636 -4.516328 17.364407 0.942682 1.833913 0.007228 0.000398 -780592.000000 1 0 0
16.656503 7.887936 2.191372 18.559654 0.442277 1.452448 0.002105 0.006431 368895.000000 1 0 0
3.870903 13.828036 -0.411628 14.365511 1.297851 1.599454 -0.002978 -0.008276 -1366920.000000 1 0 0
5.508203 13.056836 -2.401028 14.373107 1.171585 1.738633 0.000540 -0.006887 -352233.000000 1 0 0
-6.039497 16.801236 -2.986028 18.101751 -1.225712 1.736512 -0.002474 -0.012307 -2379530.000000 1 0 0
18.134103 9.924136 2.644172 20.840485 0.500740 1.443577 0.003898 0.010341 -1819620.000000 1 0 0
7.953403 12.929536 9.507572 17.911545 1.019323 1.011244 -0.004232 0.004046 -62122.900000 1 0 0
-2.361197 15.814736 6.857372 17.398410 -1.422588 1.165667 -0.008467 0.002950 165480.000000 1 0 0
11.362103 15.947136 6.283972 20.564456 0.951740 1.260255 0.009865 -0.004034 373673.000000 1 0 0
13.624803 11.853336 1.278972 18.104491 0.715981 1.500094 0.005792 0.012617 1656900.000000 1 0 0
17.277703 7.636436 -5.611628 19.705952 0.416166 1.859561 -0.006866 0.015012 21703.000000 1 0 0
9.462903 9.196636 8.147572 15.508307 0.771129 1.017648 -0.006371 0.001008 -584406.000000 1 0 0
-1.990197 14.203736 -1.910228 14.469138 -1.431585 1.703204 -0.005113 -0.000932 726856.000000 1 0 0
10.994103 11.575536 0.771272 15.983060 0.811154 1.522522 0.002394 0.006840 120124.000000 1 0 0
11.662803 9.800136 -0.687528 15.249142 0.698830 1.615898 -0.000275 0.008206 -1281150.000000 1 0 0
-0.107597 16.305536 11.194572 19.778790 -1.564198 0.969164 -0.001352 0.007552 -396777.000000 1 0 0
2.306703 19.907936 -1.576728 20.103056 1.455442 1.649309 0.006590 -0.015337 -633611.000000 1 0 0
9.311603 14.172936 1.851772 17.058931 0.989517 1.462031 0.001352 0.000445 -400543.000000 1 0 0
8.389603 11.616736 -5.131028 15.220428 0.945326 1.914647 0.001825 -0.001188 -874857.000000 1 0 0
10.515503 9.914836 10.394772 17.802558 0.756006 0.947282 -0.013428 -0.002999 108460.000000 1 0 0
-4.903897 15.805336 6.097872 17.636351 -1.269946 1.217752 -0.014205 0.000803 949330.000000 1 0 0
14.348203 9.010936 -2.111328 17.074121 0.560767 1.694770 0.009646 0.006817 -353460.000000 1 0 0
12.188003 9.439636 7.031472 16.943900 0.658999 1.142869 -0.005965 -0.001418 -1143620.000000 1 0 0
3.200703 12.938236 9.831072 16.561776 1.328282 0.935271 -0.011943 0.005357 -928430.000000 1 0 0
8.358303 12.612136 -2.605628 15.353062 0.985532 1.741336 -0.000563 0.001612 -963252.000000 1 0 0
9.477803 16.817936 2.182272 19.427662 1.057607 1.458231 0.000940 -0.000402 301141.000000 1 0 0
9.671503 14.206136 -7.627628 18.802473 0.973074 1.988510 0.012470 -0.009800 -842330.000000 1 0 0
6.404803 11.368236 7.354572 14.978252 1.057727 1.057540 -0.006373 0.003413 -757606.000000 1 0 0
5.529703 16.776136 -5.621828 18.537025 1.252394 1.878925 -0.009448 -0.000249 -1641850.000000 1 0 0
-4.024197 17.397736 -4.622228 18.445605 -1.343488 1.824083 -0.003501 -0.001646 396931.000000 1 0 0
-0.148497 18.586536 -0.504728 18.593981 -1.562807 1.597944 -0.007997 -0.000451 -116632.000000 1 0 0
6.407403 15.655136 -2.648828 17.121752 1.182312 1.726126 -0.004081 0.002845 833511.000000 1 0 0
-0.748797 20.605936 0.932372 20.640606 -1.534473 1.525609 -0.007128 -0.004984 20996.500000 1 0 0
-1.185497 18.806036 4.369772 19.343404 -1.507842 1.342924 -0.005748 -0.005854 -647136.000000 1 0 0
7.125903 13.846536 -4.348928 16.168433 1.095510 1.843126 -0.002465 0.004122 -303512.000000 1 0 0
-0.998297 11.878336 7.733472 14.209083 -1.486950 0.995286 -0.002295 0.006624 543031.000000 1 0 0
7.714203 10.762236 10.857972 17.123966 0.948894 0.883978 -0.004838 -0.003968 -78646.400000 1 0 0
1.489603 16.059536 -7.248228 17.682319 1.478306 1.993156 0.003410 -0.003387 -283185.000000 1 0 0
9.008003 7.110436 14.717672 18.663127 0.668211 0.662273 0.010231 -0.010928 -189458.000000 1 0 0
11.343103 11.393636 -4.946128 16.820972 0.787621 1.869253 0.002384 0.002613 67947.600000 1 0 0
-3.117497 17.031936 4.696572 17.940552 -1.389762 1.305925 -0.012717 0.001148 -62981.500000 1 0 0
3.959903 15.272436 -6.796428 17.179044 1.317099 1.977543 -0.006103 -0.005185 -785742.000000 1 0 0
-4.382897 14.225436 9.442472 17.627623 -1.271922 1.005503 0.005567 -0.001124 -778218.000000 1 0 0
6.373403 17.579636 0.448872 18.704688 1.222990 1.546796 0.002617 -0.012330 -378157.000000 1 0 0
9.744903 10.738536 -2.201628 14.667190 0.833869 1.721471 0.003041 0.005489 -2636820.000000 1 0 0
7.445403 18.119536 -2.509028 19.749603 1.180925 1.698182 -0.002457 0.006960 126489.000000 1 0 0
3.643603 10.293236 10.377772 15.064020 1.230580 0.810810 -0.007526 0.000312 -5798.160000 1 0 0
0.161803 18.487636 2.097672 18.606963 1.562045 1.457820 -0.002909 -0.010146 161871.000000 1 0 0
-0.840097 17.244936 -7.367628 18.771668 -1.522119 1.974130 0.019538 -0.003979 98265.400000 1 0 0
10.273603 8.583336 12.989172 18.653128 0.696001 0.800492 0.002035 -0.012401 -386704.000000 1 0 0
3.792603 11.372436 5.540572 13.206592 1.248904 1.137868 -0.005595 0.002170 783417.000000 1 0 0
12.782603 13.875136 8.354872 20.632941 0.826359 1.153895 0.002846 -0.008981 -397058.000000 1 0 0
-0.254797 17.425436 6.829172 18.717594 -1.556175 1.197321 -0.005369 0.000960 -464441.000000 1 0 0
12.214303 13.554336 5.813472 19.149561 0.837354 1.262346 0.002074 0.001098 -277351.000000 1 0 0
4.853603 14.527336 -4.512528 15.967588 1.248355 1.857306 -0.006140 0.000165 -1101080.000000 1 0 0
3.996803 17.557036 4.683672 18.605395 1.346964 1.316321 0.007446 -0.007258 -1260470.000000 1 0 0
7.076803 11.563536 2.130572 13.723551 1.021605 1.414916 0.006132 -0.002102 575632.000000 1 0 0
6.473003 8.570736 11.707172 15.887579 0.923947 0.742359 -0.002711 -0.009111 133888.000000 1 0 0
-5.381097 14.864936 1.790272 15.909984 -1.223472 1.458032 -0.006873 0.004686 141599.000000 1 0 0
6.916303 13.666236 6.005672 16.452032 1.102291 1.197119 -0.007244 0.002391 629968.000000 1 0 0
5.979903 15.795236 4.886072 17.581878 1.208883 1.289185 -0.002079 -0.007498 598022.000000 1 0 0
1.423503 17.947236 4.374372 18.527406 1.491646 1.332443 0.005167 -0.008285 1709080.000000 1 0 0
7.443003 18.038136 -6.838328 20.676928 1.179453 1.907865 -0.007075 -0.001589 647110.000000 1 0 0
-2.297497 18.944136 -5.989928 20.000950 -1.450108 1.874946 0.013817 -0.005527 -397746.000000 1 0 0
13.453703 10.056336 -4.729828 17.450023 0.641885 1.845280 0.004747 0.002980 -904523.000000 1 0 0
-1.406797 18.102236 9.809472 20.637242 -1.493238 1.075459 0.007498 0.001254 -159866.000000 1 0 0
3.475303 11.682636 -1.569128 12.289177 1.281657 1.698830 0.003713 -0.006194 1315570.000000 1 0 0
4.192503 14.061236 -10.956028 18.312017 1.281028 2.212171 0.004301 -0.012865 -549434.000000 1 0 0
11.658903 13.286336 2.352972 17.832365 0.850546 1.438461 0.002901 0.007132 893738.000000 1 0 0
15.725803 6.331136 -7.263928 18.443124 0.382742 1.975619 -0.002576 0.001243 276427.000000 1 0 0
2.616703 16.022636 3.014672 16.512427 1.408913 1.387197 0.000559 -0.007443 77850.300000 1 0 0
13.420603 10.603736 3.511672 17.460918 0.668681 1.368299 -0.000423 0.009118 -54750.300000 1 0 0
-4.863197 19.543836 -5.884228 20.981810 -1.326914 1.855053 -0.005388 -0.010518 219573.000000 1 0 0
5.594503 12.075136 0.084472 13.308437 1.136931 1.564449 0.001923 -0.005303 546892.000000 1 0 0
5.176103 15.325536 9.630672 18.825885 1.245082 1.033791 0.001575 0.006459 11562.100000 1 0 0
7.912503 9.308136 13.722472 18.372679 0.866266 0.727415 0.007922 -0.016373 -266287.000000 1 0 0
-4.943797 13.511036 7.031872 16.013633 -1.220020 1.116180 -0.005873 0.001447 -1363830.000000 1 0 0
-4.536797 17.164536 0.694272 17.767550 -1.312393 1.531711 -0.005936 0.001619 -348139.000000 1 0 0
-0.498797 16.455436 3.573072 16.846276 -1.540494 1.357074 -0.000935 -0.004671 -1495460.000000 1 0 0
7.829603 16.757336 -4.702928 19.084772 1.133703 1.819784 -0.005991 0.002187 343966.000000 1 0 0
3.117003 16.384536 -4.551228 17.288216 1.382802 1.837192 -0.006743 -0.001681 -180645.000000 1 0 0
9.679003 14.252836 8.257472 19.105295 0.974240 1.123856 0.011294 -0.005871 -125616.000000 1 0 0
12.712503 10.694736 9.254072 19.016387 0.699408 1.062561 0.002480 -0.010362 399291.000000 1 0 0
3.841503 12.041136 12.248872 17.600596 1.261972 0.801075 -0.006427 0.000837 226078.000000 1 0 0
-3.130297 19.317436 6.131372 20.507457 -1.410148 1.267170 -0.001177 -0.003464 218220.000000 1 0 0
-2.533097 15.823136 10.283772 19.040593 -1.412055 1.000244 0.006335 0.005631 -159891.000000 1 0 0
2.247403 14.204336 7.728572 16.326200 1.413878 1.077667 -0.005376 0.008219 -93527.700000 1 0 0
4.344303 17.161936 7.915672 19.392341 1.322868 1.150331 -0.005029 -0.000180 89847.600000 1 0 0
-1.886797 13.533536 9.357172 16.561198 -1.432273 0.970356 0.001215 0.004903 -387071.000000 1 0 0
5.969503 17.555536 3.006172 18.784804 1.243026 1.410073 0.001746 -0.016092 592647.000000 1 0 0
7.366003 15.273836 -6.885728 18.301948 1.121439 1.956519 -0.002584 -0.003207 -53742.800000 1 0 0
10.967903 7.561236 9.418872 16.315096 0.603574 0.955366 -0.009143 -0.003475 -403043.000000 1 0 0
8.995203 16.148036 -2.593328 18.665425 1.062559 1.710185 0.001147 -0.004783 -1279740.000000 1 0 0
14.371103 11.015136 -6.893828 19.374898 0.653964 1.934579 0.012811 -0.003833 449042.000000 1 0 0
11.202103 6.440036 15.991972 20.559775 0.521756 0.679594 0.024021 -0.009720 -457266.000000 1 0 0
8.509103 8.285436 10.298372 15.719725 0.772081 0.856449 -0.002823 -0.005671 -542206.000000 1 0 0
16.333303 9.215036 4.346272 19.250552 0.513670 1.343059 0.007008 0.002570 97256.900000 1 0 0
-3.303997 14.325236 4.790972 15.462283 -1.344119 1.255762 -0.009292 0.005487 -1699320.000000 1 0 0
4.831203 14.469036 12.521472 19.735268 1.248536 0.883471 -0.004270 -0.005502 -1982400.000000 1 0 0
15.978603 10.608436 -4.987128 19.817319 0.586095 1.825186 0.006405 0.003005 325084.000000 1 0 0
14.671403 13.930036 6.632372 21.290475 0.759483 1.254006 0.006386 0.005531 -172963.000000 1 0 0
6.232403 9.394536 9.333072 14.635792 0.985054 0.879303 -0.005434 -0.001766 178629.000000 1 0 0
10.395603 11.966336 8.885272 18.171676 0.855524 1.059896 -0.001233 -0.002728 328141.000000 1 0 0
8.063103 11.370036 -0.343928 13.943086 0.953953 1.595465 0.001071 -0.002826 8608.070000 1 0 0
7.514803 13.447936 -8.772228 17.727697 1.061217 2.088438 0.011599 -0.004513 -971897.000000 1 0 0
2.777503 15.134436 -2.260128 15.552294 1.389294 1.716637 -0.004819 -0.002500 303963.000000 1 0 0
12.288403 13.781636 -8.000328 20.123210 0.842613 1.979660 0.025409 -0.009887 297676.000000 1 0 0
-7.972597 14.762936 9.858672 19.460216 -1.075631 1.039552 0.008406 -0.005225 214106.000000 1 0 0
11.531203 9.385736 2.148572 15.022551 0.683185 1.427281 0.002719 0.005868 -2188510.000000 1 0 0
12.086103 8.687636 4.501772 15.550398 0.623240 1.277096 -0.002581 0.002713 441863.000000 1 0 0
14.103103 8.014736 6.026072 17.304539 0.516781 1.215107 -0.000235 -0.001118 -2213050.000000 1 0 0
16.293903 7.373136 7.078272 19.234250 0.424938 1.193935 0.018759 -0.008771 130380.000000 1 0 0
13.616603 8.259536 2.364272 16.100360 0.545242 1.423417 -0.000940 0.008561 -2484340.000000 1 0 0
-4.097497 17.556236 -7.236228 19.426113 -1.341508 1.952498 0.003039 -0.009471 182237.000000 1 0 0
3.072303 19.406936 -3.988128 20.049273 1.413790 1.771048 -0.012071 -0.008732 462760.000000 1 0 0
0.089703 14.931336 6.342672 16.222895 1.564789 1.169111 0.001051 0.003467 290949.000000 1 0 0
6.850003 16.405236 7.957772 19.477691 1.175253 1.149922 0.000850 0.008669 -1161090.000000 1 0 0
12.770603 15.121336 -2.190128 19.913306 0.869479 1.681002 0.001202 0.005482 -435840.000000 1 0 0
12.730003 15.572536 4.176472 20.542633 0.885496 1.366061 0.001023 0.000753 174890.000000 1 0 0
3.103203 17.990236 1.342072 18.305180 1.399983 1.497414 0.006506 -0.011676 -416008.000000 1 0 0
10.420203 14.545636 -1.204328 17.933392 0.949161 1.638003 0.005583 0.010450 -1469830.000000 1 0 0
-6.203197 15.766736 -0.545628 16.951912 -1.195962 1.602989 -0.010443 -0.000882 71421.700000 1 0 0
-3.822497 15.900536 -2.554828 16.551908 -1.334873 1.725768 -0.006088 -0.002202 -728659.000000 1 0 0
-6.880497 17.008436 1.697572 18.425794 -1.186387 1.478535 -0.004443 -0.000865 112090.000000 1 0 0
0.214603 19.497636 -6.588328 20.581786 1.559790 1.896636 0.016881 -0.008778 305976.000000 1 0 0
4.992403 14.829636 7.087672 17.177814 1.246063 1.145483 -0.001818 0.003512 -511113.000000 1 0 0
8.662903 12.240336 7.047572 16.569248 0.954899 1.131458 -0.003407 -0.000958 -1790690.000000 1 0 0
-7.674697 17.579436 -5.459128 19.943410 -1.159165 1.848066 0.019878 -0.015590 436405.000000 1 0 0
-7.589897 17.850836 -1.276228 19.439332 -1.168770 1.636495 0.000413 -0.002535 378900.000000 1 0 0
-13.620297 -9.158664 9.340872 18.885060 0.591980 1.053402 0.015780 -0.012541 488808.000000 1 0 0
-12.610597 -12.833764 7.747272 19.589611 0.794169 1.164207 0.022317 -0.014439 -42905.400000 1 0 0
-3.738297 -15.046964 12.485572 19.906670 1.327285 0.892836 0.004390 -0.005161 267569.000000 1 0 0
-1.674197 -14.235664 15.126272 20.838934 1.453728 0.758504 -0.001063 0.004656 -623406.000000 1 0 0
-7.028597 -13.847164 12.671672 20.042864 1.101100 0.886370 0.027170 -0.009624 37562.400000 1 0 0
-9.893297 -11.540964 8.995872 17.663434 0.862118 1.036433 0.018970 -0.013489 743270.000000 1 0 0
-10.467497 -10.578764 11.384872 18.737504 0.790685 0.917763 0.018308 -0.013293 211830.000000 1 0 0
-5.795397 -12.317964 10.799472 17.376636 1.131040 0.900148 0.019332 -0.007106 500613.000000 1 0 0
-12.371897 -10.306764 7.332472 17.693455 0.694588 1.143494 0.011523 -0.010571 -607154.000000 1 0 0
-7.494897 -11.256464 12.453172 18.383769 0.983373 0.826573 0.018767 -0.014127 120882.000000 1 0 0
-14.718697 -11.459064 7.310672 20.034872 0.661517 1.197274 0.008784 -0.007024 -595123.000000 1 0 0
-11.040497 -9.161064 9.188172 17.036437 0.692631 1.001161 0.016021 -0.013243 -2035330.000000 1 0 0
-5.150797 -12.048164 13.210072 18.606316 1.166796 0.781330 0.017712 -0.009667 -199895.000000 1 0 0
4.153003 -12.262364 14.769572 19.640603 -1.244243 0.719718 -0.016667 0.003073 -309798.000000 1 0 0
6.643703 -12.786964 14.024772 20.108195 -1.091617 0.798942 -0.009826 0.009916 435337.000000 1 0 0
6.683103 -8.540164 16.090472 19.403649 -0.906787 0.593032 -0.013970 0.005450 236206.000000 1 0 0
0.791903 -1.726464 14.316872 14.442321 -1.140743 0.131900 0.001642 0.003568 -1250260.000000 1 0 0
0.006803 -6.323064 15.616472 16.848009 -1.569720 0.384721 -0.005140 0.001744 -255982.000000 1 0 0
-1.272697 -4.727264 18.378572 19.019430 1.307807 0.260330 0.001607 -0.011369 -2522820.000000 1 0 0
-5.141397 12.651436 12.720972 18.663224 -1.184795 0.820841 0.006129 -0.004916 -608003.000000 1 0 0
-3.819997 8.903736 11.840572 15.299282 -1.165515 0.685773 -0.005502 0.008079 -366088.000000 1 0 0
-0.511297 -3.953064 14.980872 15.502086 1.442169 0.260047 0.000512 0.002715 -278556.000000 1 0 0
-4.401397 9.105736 14.385172 17.584650 -1.120545 0.612779 -0.001863 0.001532 125075.000000 1 0 0
-13.368797 -2.443164 16.842572 21.641766 0.180757 0.678932 -0.002641 0.001893 -251431.000000 1 0 0
-0.062697 0.904836 17.377972 17.401626 -1.501616 0.052146 0.009499 0.000412 -167516.000000 1 0 0
-3.131597 -7.430464 15.464672 17.440607 1.171933 0.480628 0.011258 -0.007298 391248.000000 1 0 0
-7.247997 5.528036 12.647472 15.590099 -0.651579 0.624509 0.004904 -0.002007 -1825590.000000 1 0 0
-9.462597 9.920136 13.665572 19.357110 -0.808999 0.787002 -0.001515 -0.004875 1625.190000 1 0 0
-5.563397 2.298436 11.222772 12.735180 -0.391778 0.492313 0.006219 -0.000267 -177342.000000 1 0 0
-7.025297 -7.576364 16.915872 19.821776 0.823120 0.548326 0.023493 -0.005278 -143541.000000 1 0 0
-4.583297 2.744536 18.818072 19.561670 -0.539546 0.276609 0.015076 -0.001134 -998114.000000 1 0 0
1.194903 -8.402464 16.495572 18.550825 -1.429535 0.475182 -0.009407 -0.000348 404791.000000 1 0 0
-14.960897 -3.817664 14.100572 20.910025 0.249844 0.830719 0.007513 0.001094 488729.000000 1 0 0
-14.360897 2.057736 13.146872 19.578301 -0.142319 0.834562 -0.002745 -0.001765 -173501.000000 1 0 0
-5.419897 0.961336 16.039172 16.957432 -0.175546 0.330596 0.019625 -0.001242 688101.000000 1 0 0
4.614903 5.609536 15.097572 16.754131 0.882373 0.448438 0.004993 -0.010429 57481.000000 1 0 0
-0.931397 -12.072064 13.894372 18.429754 1.493796 0.716803 -0.005066 -0.000887 -185172.000000 1 0 0
-5.509797 -4.177664 16.806072 18.172914 0.648744 0.390321 0.018913 -0.005895 167645.000000 1 0 0
-12.881497 -1.581864 10.026272 16.400042 0.122190 0.913023 0.000844 -0.001199 -624495.000000 1 0 0
-14.342397 10.470636 10.479172 20.619205 -0.630609 1.037675 -0.012785 0.007145 396199.000000 1 0 0
-3.313197 -3.276364 17.838672 18.437192 0.779809 0.255499 0.011409 -0.006788 -2377340.000000 1 0 0
-7.660797 9.206436 11.981572 16.941202 -0.876779 0.785203 -0.003729 -0.007144 -306026.000000 1 0 0
-3.871097 10.378336 16.558072 19.921471 -1.213782 0.589593 -0.006402 0.000441 301261.000000 1 0 0
-12.212897 12.779236 8.287772 19.523086 -0.808055 1.132374 -0.006192 -0.003690 -409387.000000 1 0 0
-12.602297 3.179836 10.623272 16.786398 -0.247163 0.885568 0.002053 -0.001234 264211.000000 1 0 0
-10.075597 -3.529864 13.704972 17.372503 0.336976 0.661798 0.016658 -0.006106 -824353.000000 1 0 0
-4.131497 -6.573264 17.730172 19.355518 1.009662 0.412736 0.019252 -0.007964 -555310.000000 1 0 0
0.974703 -3.659264 17.984272 18.378637 -1.310475 0.207533 -0.003116 -0.002813 -1291010.000000 1 0 0
-5.972097 1.887336 13.656472 15.024221 -0.306094 0.430005 0.017404 0.000519 -597592.000000 1 0 0
-10.336197 8.689936 10.383172 17.034148 -0.699087 0.915303 0.005124 -0.009185 51286.000000 1 0 0
4.734903 2.409436 17.381272 18.175074 0.470716 0.296638 0.009574 -0.004639 -1692440.000000 1 0 0
0.565303 -5.391764 13.133172 14.208128 -1.466332 0.391488 -0.003288 0.000903 -1923610.000000 1 0 0
-4.152697 5.487336 20.926472 22.028913 -0.922971 0.317705 0.039484 -0.010821 -33859.900000 1 0 0
-10.566297 10.811036 9.117772 17.653863 -0.796846 1.028067 0.001178 -0.009329 478083.000000 1 0 0
0.788903 4.163936 13.030972 13.702809 1.383555 0.314436 0.003369 -0.000652 -1867180.000000 1 0 0
-2.997297 7.118636 13.487472 15.542544 -1.172277 0.520084 -0.004289 0.006001 -376943.000000 1 0 0
0.874903 8.929936 14.134172 16.741686 1.473134 0.565632 0.002557 -0.002831 54596.400000 1 0 0
-4.040697 -6.745964 13.072972 15.255749 1.031127 0.541530 0.008281 -0.003889 390942.000000 1 0 0
-4.926597 8.009736 16.676572 19.145111 -1.019365 0.513437 0.009901 0.003861 603146.000000 1 0 0
1.800703 -10.740364 15.690772 19.099694 -1.404684 0.606725 -0.019236 0.003477 -543407.000000 1 0 0
-15.173397 -1.254364 14.312172 20.896020 0.082481 0.816298 -0.000888 -0.002685 229704.000000 1 0 0
-13.754297 -5.268064 8.344372 16.928134 0.365777 1.055343 0.022192 -0.010545 -208207.000000 1 0 0
-14.130697 -2.111464 12.251572 18.821155 0.148327 0.861965 0.006345 -0.004087 567842.000000 1 0 0
9.422103 1.240636 17.006472 19.481666 0.130920 0.509584 -0.001743 -0.006519 -1035230.000000 1 0 0
4.957203 -6.786664 17.011772 18.974538 -0.939936 0.458860 -0.013408 0.007126 -585309.000000 1 0 0
-6.033697 -2.643164 11.147472 12.948280 0.412886 0.533715 0.005927 -0.001480 153536.000000 1 0 0
0.717203 -6.317264 18.073472 19.159139 -1.457750 0.338258 -0.005598 -0.003991 -370389.000000 1 0 0
-8.175497 11.794436 12.384472 18.955807 -0.964672 0.858816 -0.005137 -0.000900 -106379.000000 1 0 0
-6.589897 -5.786364 15.008372 17.382750 0.720564 0.528814 0.016959 -0.005234 -574397.000000 1 0 0
-4.255997 -9.009964 17.226272 19.900689 1.129500 0.524425 0.019363 -0.007701 237623.000000 1 0 0
2.532703 -6.153164 16.282372 17.589533 -1.180322 0.387953 -0.009662 0.002901 -2171780.000000 1 0 0
2.352703 5.167136 16.144672 17.113882 1.143527 0.338159 0.008781 -0.005276 -3154690.000000 1 0 0
0.913703 -9.007664 13.902172 16.590457 -1.469706 0.577258 -0.008336 0.003585 -975349.000000 1 0 0
-9.803897 -2.826064 11.209372 15.157607 0.280651 0.738438 0.001281 -0.005613 894771.000000 1 0 0
-1.131497 10.147836 12.391572 16.056460 -1.459754 0.689208 -0.006700 0.002026 -533373.000000 1 0 0
-12.289197 -3.790564 11.387772 17.177721 0.299188 0.846059 0.007951 -0.005520 -1275990.000000 1 0 0
-1.762697 6.415836 20.410772 21.467875 -1.302670 0.315121 0.022971 -0.002174 -357157.000000 1 0 0
0.729103 -13.381464 15.497072 20.487909 -1.516364 0.713003 -0.016254 -0.005584 -606575.000000 1 0 0
4.134303 -8.615164 15.294272 18.034087 -1.123368 0.558453 -0.013463 0.006866 -189916.000000 1 0 0
4.465503 -4.409364 16.150472 17.326886 -0.779073 0.370615 -0.007237 0.003721 -1202300.000000 1 0 0
8.215403 1.583436 14.717972 16.929821 0.190405 0.516907 -0.000658 -0.002562 -134731.000000 1 0 0
-6.247197 -0.136264 11.893372 13.434967 0.021809 0.483754 0.007168 -0.001133 112736.000000 1 0 0
-3.228697 -11.094264 18.330272 21.668089 1.287595 0.562439 0.013492 -0.007272 874153.000000 1 0 0
3.381903 -1.553164 13.509072 14.012303 -0.430526 0.268814 -0.003546 0.000701 755014.000000 1 0 0
-2.429797 8.382736 15.944772 18.177182 -1.288671 0.500826 0.000238 -0.005588 -2342400.000000 1 0 0
-3.153597 3.965536 14.964872 15.799305 -0.898958 0.326454 0.007672 0.000485 -1448990.000000 1 0 0
-4.187697 -9.206064 19.782372 22.217801 1.143888 0.472608 0.021349 -0.005767 -80322.300000 1 0 0
-5.505097 -3.159964 19.145572 20.170384 0.521088 0.320137 0.025423 -0.010384 -1134370.000000 1 0 0
-6.481797 -8.663064 11.103772 15.503423 0.928441 0.772434 0.012580 -0.008865 800998.000000 1 0 0
-11.732997 2.462536 12.864272 17.584561 -0.206878 0.750180 0.011385 -0.007291 169335.000000 1 0 0
-11.533197 -7.556664 11.745372 18.112746 0.580029 0.865238 0.012065 -0.007360 -128087.000000 1 0 0
-11.001197 -7.505764 15.365672 20.333881 0.598726 0.714122 0.031677 -0.017871 -838394.000000 1 0 0
0.472303 5.629736 17.778572 18.654614 1.487098 0.307680 0.015213 -0.004765 -102131.000000 1 0 0
-2.197897 -0.173564 13.311472 13.492819 0.078805 0.164137 0.008025 0.002179 185925.000000 1 0 0
-5.829797 -10.674564 18.488172 22.130191 1.070922 0.581886 0.029462 0.000151 -1765210.000000 1 0 0
0.480903 2.746436 19.184872 19.386426 1.397453 0.144324 0.020118 -0.009298 -224436.000000 1 0 0
-0.631597 10.877436 14.881172 18.443612 -1.512797 0.632001 0.003534 0.000419 194611.000000 1 0 0
-12.692197 -2.296264 14.340172 19.287437 0.178983 0.732510 0.009275 -0.003340 963897.000000 1 0 0
-13.525197 8.480236 11.881172 19.899940 -0.560033 0.930983 0.000527 -0.005222 406391.000000 1 0 0
-18.064997 -0.520064 6.954772 19.364489 0.028781 1.203438 0.017145 -0.005607 234370.000000 1 0 0
-1.884697 -7.900964 17.747272 19.517761 1.336632 0.429226 -0.003542 -0.006251 -130927.000000 1 0 0
5.833203 2.622236 14.510972 15.857828 0.422468 0.415123 0.001153 -0.005871 -1418900.000000 1 0 0
-14.001497 -6.756764 11.179472 19.148796 0.449610 0.947369 0.013178 -0.009647 327014.000000 1 0 0
3.373303 7.685236 16.171572 18.219818 1.157184 0.478728 0.009308 -0.020137 -519425.000000 1 0 0
1.173703 2.139936 14.605372 14.807897 1.069124 0.165578 0.008521 -0.004147 -3696930.000000 1 0 0
-14.372497 0.610636 9.889272 17.456782 -0.042461 0.968544 -0.000369 -0.000634 -3317080.000000 1 0 0
-9.558297 -5.309964 15.548672 19.008366 0.507082 0.612887 0.016739 -0.001840 -137720.000000 1 0 0
-2.257097 -0.359264 18.161872 18.305113 0.157847 0.125183 0.010912 -0.002868 446664.000000 1 0 0
7.010303 3.623236 17.343572 19.054440 0.477032 0.427002 0.017374 -0.012825 -221689.000000 1 0 0
-4.117297 -0.922164 14.866872 15.454010 0.220337 0.276534 0.014963 0.003837 128158.000000 1 0 0
4.678203 -9.197964 17.698272 20.486995 -1.100282 0.527877 -0.019655 0.007890 45583.100000 1 0 0
2.034703 6.737536 13.439472 15.170821 1.277510 0.482417 0.002348 -0.005007 -1891910.000000 1 0 0
-3.427697 -0.795864 20.396672 20.697989 0.228144 0.170840 0.017562 -0.010984 -2457610.000000 1 0 0
-10.503197 1.567036 16.245872 19.408789 -0.148104 0.578951 0.019116 -0.009118 -661641.000000 1 0 0
-3.753697 6.881636 18.770372 20.341436 -1.071441 0.395600 0.019431 0.003289 -260044.000000 1 0 0
-12.631897 0.968136 14.767672 19.457293 -0.076493 0.709053 0.010528 -0.003006 -517345.000000 1 0 0
-16.149397 -4.499864 8.605872 18.844438 0.271747 1.096537 0.021563 -0.007043 -757139.000000 1 0 0
-2.221397 0.656936 15.834672 16.003219 -0.287536 0.145262 0.011097 0.003122 31547.200000 1 0 0
-13.547497 -8.870064 12.660972 20.555119 0.579699 0.907202 0.004684 -0.011761 313345.000000 1 0 0
6.063003 -3.121964 14.529772 16.050575 -0.475513 0.438830 -0.007773 0.001252 596642.000000 1 0 0
-15.684697 0.385636 7.681972 17.469148 -0.024582 1.115481 -0.000584 -0.001752 -150110.000000 1 0 0
-13.988097 5.993036 12.485272 19.684140 -0.404779 0.883718 0.004468 -0.010697 -777709.000000 1 0 0
0.568603 9.523436 16.744172 19.271389 1.511161 0.517898 0.009845 -0.006315 -182279.000000 1 0 0
-10.231797 -5.475464 10.889472 15.913861 0.491364 0.817186 0.006036 -0.009763 336925.000000 1 0 0
-3.035597 -11.164064 15.180672 19.086749 1.305307 0.651209 0.008878 -0.001268 -8892.260000 1 0 0
-3.475797 2.737436 12.750472 13.496268 -0.667116 0.333994 0.007260 0.001230 -1732830.000000 1 0 0
-12.327497 -7.689664 7.525472 16.362483 0.557723 1.092889 0.017489 -0.009067 356267.000000 1 0 0
-8.076697 -1.864864 13.297972 15.669933 0.226918 0.557407 0.012630 -0.002136 148216.000000 1 0 0
-9.704997 6.444036 9.568872 15.075672 -0.586148 0.883147 0.004757 -0.003070 -1130020.000000 1 0 0
-17.777597 -3.371064 6.616572 19.266189 0.187399 1.220231 0.010605 -0.011019 74283.800000 1 0 0
-1.075297 -0.032164 20.498572 20.526782 0.029903 0.052433 0.011901 -0.008544 -1443530.000000 1 0 0
-2.636297 2.349436 20.447272 20.749960 -0.727925 0.171015 0.022639 -0.004059 -576669.000000 1 0 0
-3.632597 11.295936 11.162272 16.290803 -1.259657 0.815934 -0.005154 0.000763 -794997.000000 1 0 0
-4.059997 -4.908864 14.796172 16.109228 0.879763 0.406550 0.012681 -0.004994 861228.000000 1 0 0
0.062703 -14.369264 13.204072 19.514795 -1.566433 0.827636 -0.004311 -0.006325 359996.000000 1 0 0
-12.149297 0.365236 8.505872 14.835386 -0.030053 0.960207 0.001087 -0.002458 -157052.000000 1 0 0
-7.783697 2.221236 15.529972 17.512848 -0.277982 0.480474 0.023622 0.000070 957320.000000 1 0 0
3.429203 -2.224664 18.350772 18.800516 -0.575490 0.219171 0.000985 -0.004239 -516109.000000 1 0 0
-2.074797 4.863336 12.693372 13.750582 -1.167554 0.394691 -0.002569 0.002470 -377938.000000 1 0 0
-10.150397 -6.255264 13.323472 17.879424 0.552288 0.729985 0.004123 -0.010478 -268381.000000 1 0 0
2.364403 -3.897964 14.198372 14.912354 -1.025557 0.310695 -0.005605 0.001965 -1366300.000000 1 0 0
6.865203 1.055136 16.935172 18.304218 0.152500 0.389218 -0.002777 -0.005156 -1542440.000000 1 0 0
-1.812997 -5.841464 13.932372 15.215803 1.269856 0.413671 0.000791 0.000919 -2379260.000000 1 0 0
-13.041297 3.511936 14.895072 20.106524 -0.263053 0.736524 0.010730 0.002293 9074.770000 1 0 0
-13.127497 -6.367564 13.525672 19.895247 0.451621 0.823246 0.005488 -0.010830 -464268.000000 1 0 0
-9.446697 6.833236 12.140272 16.832094 -0.626224 0.765180 0.004075 -0.002132 -317926.000000 1 0 0
-1.155297 -2.519964 12.900272 13.194770 1.140931 0.211673 0.002198 0.001674 194637.000000 1 0 0
0.432803 6.799636 15.414472 16.853140 1.507231 0.416192 0.005894 -0.002660 20150.400000 1 0 0
-16.475597 -0.944364 9.965772 19.278323 0.057256 1.027522 0.006779 0.000763 30403.200000 1 0 0
-1.167297 2.710836 13.901172 14.211045 -1.164189 0.209212 0.005941 0.000393 -2680060.000000 1 0 0
-11.136897 -3.453664 16.100872 19.879546 0.300706 0.626778 0.020436 -0.005203 -462128.000000 1 0 0
-5.143697 -1.521064 17.193872 18.011121 0.287520 0.302397 0.024357 0.002553 201051.000000 1 0 0
-11.774597 6.626536 11.217972 17.561179 -0.512604 0.877867 0.006182 -0.004996 -1521490.000000 1 0 0
-2.652697 4.525136 19.017672 19.727785 -1.040575 0.269123 0.021339 0.001840 259238.000000 1 0 0
5.266603 -1.946764 16.598172 17.522167 -0.354066 0.326199 -0.002153 0.005117 -1008590.000000 1 0 0
-7.962597 -4.130064 12.185172 15.130724 0.478482 0.634570 0.011280 -0.004540 -1115240.000000 1 0 0
-11.411197 -0.846364 16.211872 19.843300 0.074034 0.614616 0.020722 -0.005133 380833.000000 1 0 0
2.154303 2.056836 17.305172 17.559629 0.762257 0.170447 0.008892 -0.007130 -1676970.000000 1 0 0
-8.869797 -7.586464 11.609172 16.462096 0.707571 0.788082 0.012690 -0.010281 -72777.300000 1 0 0
-7.093797 6.902036 15.025072 17.992022 -0.771698 0.582488 -0.001276 -0.001412 -358383.000000 1 0 0
-5.455697 3.379336 15.845572 17.095809 -0.554572 0.384813 0.022014 -0.002226 -36214.400000 1 0 0
-9.204297 4.291136 11.635272 15.443849 -0.436252 0.717591 0.002594 -0.005892 87249.300000 1 0 0
-10.303797 0.080036 14.088372 17.454422 -0.007767 0.631485 0.019620 -0.006680 -389968.000000 1 0 0
8.276803 -0.843464 16.017172 18.049009 -0.101556 0.479064 -0.003663 0.001158 -102617.000000 1 0 0
-8.479397 -7.503164 14.727072 18.576445 0.724393 0.655436 0.021057 -0.007917 -1747020.000000 1 0 0
0.024103 4.234436 15.560672 16.126548 1.565104 0.265695 0.008018 -0.005521 245294.000000 1 0 0
-8.100297 3.064736 9.589672 12.921657 -0.361703 0.734539 0.004555 -0.002706 -446751.000000 1 0 0
-2.032797 -9.681364 13.234272 16.522925 1.363833 0.641892 0.000316 -0.003621 367225.000000 1 0 0
-5.862297 10.231836 10.641072 15.883621 -1.050507 0.836668 -0.000542 -0.004410 -2045400.000000 1 0 0
-8.566797 -2.891864 15.661772 18.084358 0.325556 0.523570 0.024279 -0.006074 62804.700000 1 0 0
4.552303 5.790836 17.544372 19.027933 0.904575 0.397498 0.016037 -0.005501 217844.000000 1 0 0
-6.711397 -0.994064 15.317572 16.752881 0.147047 0.416959 0.018848 0.000701 -97898.800000 1 0 0
-0.736197 -10.028664 15.500572 18.476575 1.497519 0.575480 -0.009694 -0.000278 -313319.000000 1 0 0
-4.102497 5.609736 16.479572 17.885075 -0.939360 0.399091 0.007752 0.000423 634871.000000 1 0 0
3.804403 0.011336 17.382372 17.793833 0.002980 0.215469 0.007459 -0.004528 -572936.000000 1 0 0
1.639503 0.439436 19.385772 19.459939 0.261875 0.087335 0.010131 0.000354 -515862.000000 1 0 0
-6.158097 6.268936 18.058572 20.083171 -0.794317 0.452883 0.007094 0.002689 -371120.000000 1 0 0
-12.184197 0.635436 11.118972 16.507270 -0.052105 0.831754 0.008770 -0.003375 -364192.000000 1 0 0
-5.262997 5.204636 14.126872 15.948539 -0.779823 0.482628 0.008641 0.002538 -1123870.000000 1 0 0
-8.636397 -9.476564 9.852072 16.169599 0.831750 0.915624 0.017693 -0.012783 -698248.000000 1 0 0
6.961003 -3.868064 16.908272 18.689761 -0.507191 0.440166 -0.005103 -0.000700 -642136.000000 1 0 0
-16.663197 1.722536 9.590572 19.303065 -0.103008 1.050840 -0.000110 -0.001727 356557.000000 1 0 0
-4.053197 -9.486764 11.505872 15.453550 1.167024 0.730942 0.009438 -0.009100 586536.000000 1 0 0
-11.071597 -3.931364 9.186472 14.913992 0.341198 0.907188 0.006972 -0.005053 -125008.000000 1 0 0
3.600803 -5.276364 18.537772 19.607519 -0.971953 0.331848 -0.011783 -0.000372 -613555.000000 1 0 0
2.694103 -1.936864 15.947072 16.288608 -0.623316 0.205141 -0.000666 0.001628 -474559.000000 1 0 0
-3.148397 -4.471064 20.211372 20.938061 0.957276 0.264232 0.010693 -0.015336 -1135390.000000 1 0 0
-6.185997 -3.357064 14.534472 16.148911 0.497212 0.450963 0.014533 0.000953 968138.000000 1 0 0
-9.446497 4.980336 14.075772 17.668260 -0.485182 0.649031 0.009009 -0.006153 129466.000000 1 0 0
-5.730097 -5.183664 11.879872 14.171653 0.735372 0.576668 0.005263 -0.001230 -415801.000000 1 0 0
6.448303 2.141936 19.317872 20.478005 0.320704 0.338218 0.019825 -0.014461 234983.000000 1 0 0
-2.685897 11.874036 13.525272 18.197246 -1.348341 0.732867 0.002287 -0.004505 -224104.000000 1 0 0
3.456403 1.363536 15.195472 15.643156 0.375752 0.239817 0.002178 -0.002056 -718119.000000 1 0 0
-5.554797 7.304836 12.907172 15.837029 -0.920655 0.618068 -0.001279 -0.003441 -81534.900000 1 0 0
-1.657697 -1.753964 15.285572 15.474917 0.813608 0.156593 0.009183 0.001993 -501752.000000 1 0 0
-7.022297 10.398036 14.209272 18.956139 -0.976807 0.723359 0.003177 -0.006687 -461767.000000 1 0 0
-10.174897 2.096836 10.730772 14.935686 -0.203234 0.769203 0.005769 -0.003327 -1972830.000000 1 0 0
-13.602497 5.263636 9.277472 17.285985 -0.369216 1.004269 -0.003570 -0.001832 119518.000000 1 0 0
0.501303 -4.869664 20.261072 20.844088 -1.468214 0.237072 -0.003024 -0.005516 -547614.000000 1 0 0
-14.328797 -2.785864 7.680172 16.494257 0.192028 1.086453 0.004885 -0.005756 183029.000000 1 0 0
-2.237097 2.238136 17.852672 18.130961 -0.785630 0.175432 0.009652 -0.000005 -166528.000000 1 0 0
-6.051697 -8.294364 14.551372 17.809041 0.940469 0.614472 0.014291 -0.010870 -247562.000000 1 0 0
-7.989197 1.881036 11.958972 14.504571 -0.231236 0.601484 0.008744 -0.000968 -646613.000000 1 0 0
-14.563597 -3.557464 10.208172 18.137273 0.239579 0.972993 0.010755 -0.005011 112315.000000 1 0 0
-0.474197 6.982436 12.918072 14.692034 -1.502988 0.496496 -0.002325 -0.001679 -2437360.000000 1 0 0
-1.663397 -2.460364 19.552972 19.777235 0.976307 0.150738 0.006829 -0.001993 -440382.000000 1 0 0
-12.601197 10.332636 7.554472 17.961725 -0.686801 1.136704 -0.006595 -0.008048 -136137.000000 1 0 0
-19.219797 2.211036 6.970072 20.563832 -0.114536 1.224998 0.001216 -0.002332 -272511.000000 1 0 0
-16.173297 8.375336 6.951572 19.494772 -0.477825 1.206185 -0.002088 0.003983 173624.000000 1 0 0
-12.097197 7.292536 13.686972 19.668667 -0.542497 0.801156 0.001236 -0.007383 310097.000000 1 0 0
-15.846597 8.451536 10.620772 20.864896 -0.489958 1.036744 -0.008452 0.003209 -50524.000000 1 0 0
1.964103 10.987636 15.116372 18.790704 1.393909 0.636030 0.001243 -0.005121 -1071440.000000 1 0 0
2.322503 14.122536 12.965072 19.311477 1.407802 0.834746 -0.012328 0.003731 -460159.000000 1 0 0
-3.115397 13.727236 11.707872 18.308931 -1.347627 0.876998 0.000043 0.002124 -153107.000000 1 0 0
9.349203 4.668536 15.697072 18.857383 0.463128 0.587354 0.008553 -0.007103 -377391.000000 1 0 0
-0.233397 12.557936 12.936072 18.030480 -1.552213 0.770653 -0.001235 0.000404 73070.200000 1 0 0
4.136603 13.111136 14.544172 20.013653 1.265178 0.757272 0.002405 -0.004448 88850.900000 1 0 0
-2.950797 -4.183364 -13.744328 14.666775 0.956479 2.785042 -0.000811 -0.001709 -343052.000000 1 0 0
6.179003 -11.496864 16.202772 20.805956 -1.077639 0.678115 -0.013032 0.004227 -81575.400000 1 0 0
7.812303 -13.529064 7.215572 17.208491 -1.047126 1.138119 -0.008934 -0.002500 55922.500000 1 0 0
-0.097497 15.461636 1.237572 15.511392 -1.564491 1.490927 -0.002695 -0.006789 -1775280.000000 1 0 0
-13.637497 8.272436 9.219172 18.423019 -0.545255 1.046717 -0.004736 0.000757 439954.000000 1 0 0
-15.450597 -9.709964 4.978472 18.915325 0.561078 1.304461 0.006299 -0.004182 -881833.000000 1 0 0
9.405103 -10.978764 11.037672 18.188443 -0.862447 0.918704 -0.012402 0.002455 196333.000000 1 0 0
-5.292197 -10.936464 -16.566928 20.544505 1.120108 2.508822 0.011893 -0.000730 218769.000000 1 0 0
-1.786997 -12.648464 -14.641728 19.430831 1.430444 2.424213 0.003808 0.000948 -79563.600000 1 0 0
5.490303 -15.577864 -12.946328 20.986202 -1.231947 2.235590 -0.005135 0.009388 205981.000000 1 0 0
2.484703 -11.619164 -16.604928 20.418187 -1.360124 2.520498 -0.002278 0.000279 385613.000000 1 0 0
0.257103 -14.507464 -13.970528 20.142201 -1.553076 2.337264 0.006844 0.015580 318588.000000 1 0 0
-6.676097 -6.149664 -14.828428 17.385940 0.744376 2.592307 0.009239 0.011073 -3711.100000 1 0 0
-6.124797 -8.154764 -17.364128 20.137682 0.926611 2.610532 0.003236 0.010350 77779.900000 1 0 0
-2.548297 -16.254864 -13.093628 21.027542 1.415291 2.242971 0.013655 -0.003124 345044.000000 1 0 0
16.443203 -7.966164 -9.237328 20.473567 -0.451143 2.038887 0.016469 0.002655 -64317.100000 1 0 0
19.280803 -2.742664 -4.172528 19.916867 -0.141300 1.781857 0.006109 0.008001 -10677.500000 1 0 0
15.711303 -11.338164 -8.982528 21.356143 -0.625113 2.004910 0.016132 -0.000548 196011.000000 1 0 0
18.286803 -3.678564 -7.303928 20.032134 -0.198510 1.944011 0.116453 0.002445 -262077.000000 1 0 0
8.860503 -9.739264 -15.835128 20.594005 -0.832609 2.447945 0.024114 -0.000289 261986.000000 1 0 0
-4.813697 9.778436 -16.188928 19.515913 -1.113346 2.549052 -0.007601 0.010069 534360.000000 1 0 0
2.274103 -9.787464 -18.558728 21.104321 -1.342499 2.645356 -0.003360 0.009122 406207.000000 1 0 0
10.877903 7.891936 -14.805628 19.995451 0.627637 2.404536 0.020333 -0.040359 224302.000000 1 0 0
18.212403 -6.286164 -8.079328 20.892176 -0.332355 1.967864 -0.003861 0.002896 250752.000000 1 0 0
11.956403 5.022436 -14.227428 19.250978 0.397681 2.402455 -0.009683 -0.001586 89903.100000 1 0 0
15.600803 6.439936 -10.759428 20.015572 0.391488 2.138329 -0.007071 -0.010777 223733.000000 1 0 0
3.085603 -0.239964 -19.109728 19.358725 -0.077613 2.981032 0.013260 -0.006442 230829.000000 1 0 0
10.007303 -1.596064 -15.277928 18.333265 -0.158158 2.555927 0.004003 0.003270 177878.000000 1 0 0
12.221903 -5.915964 -14.249728 19.683198 -0.450803 2.380313 0.029279 -0.000222 263777.000000 1 0 0
9.783103 6.288336 -12.768828 17.271226 0.571279 2.402845 0.003347 -0.012364 402327.000000 1 0 0
10.247503 5.541736 -16.329528 20.059303 0.495744 2.521910 -0.005187 -0.009771 419029.000000 1 0 0
11.805903 -10.444664 -14.953128 21.727089 -0.724297 2.329836 0.025046 -0.003324 285868.000000 1 0 0
-1.473197 2.117936 -17.278728 17.470272 -0.963042 2.993376 -0.001135 0.000101 333511.000000 1 0 0
6.070103 -1.153064 -17.242528 18.316126 -0.187721 2.797509 0.005622 0.008671 40052.200000 1 0 0
7.093403 -6.403164 -15.637128 18.325846 -0.734301 2.593045 0.002553 -0.002212 210944.000000 1 0 0
-2.512997 -4.561464 -20.245528 20.904629 1.067248 2.889815 0.003974 -0.020048 287481.000000 1 0 0
15.579303 -0.264064 -13.628628 20.700819 -0.016948 2.289437 -0.005310 -0.001707 92037.100000 1 0 0
-4.312997 -0.367064 -18.299128 18.804115 0.084902 2.909316 -0.006651 -0.000577 192305.000000 1 0 0
3.426503 8.768936 -17.909928 20.233652 1.198285 2.657624 -0.003592 -0.003703 263591.000000 1 0 0
9.612703 -0.299664 -17.505728 19.973592 -0.031164 2.639222 0.013514 0.000416 -189879.000000 1 0 0
3.795703 4.169636 -18.361628 19.207879 0.832309 2.843650 0.007054 0.003315 365117.000000 1 0 0
-2.076497 -10.959264 -18.493328 21.596770 1.383542 2.598860 0.008781 0.001211 346695.000000 1 0 0
5.454203 -9.770764 -15.819328 19.376979 -1.061667 2.525942 -0.008857 -0.007184 -5714.840000 1 0 0
9.899603 -12.466464 -10.936928 19.314017 -0.899664 2.172768 0.006005 0.007406 327255.000000 1 0 0
6.242903 7.052936 -17.015728 19.448721 0.846247 2.636030 0.006527 -0.006305 578535.000000 1 0 0
8.608003 1.818636 -20.183128 22.017352 0.208211 2.730518 0.015510 -0.003880 129820.000000 1 0 0
-1.673797 -0.909064 -20.067628 20.157819 0.497542 3.046961 0.001560 -0.008330 223807.000000 1 0 0
-1.312697 6.830436 -19.506528 20.709482 -1.380928 2.799077 -0.000838 0.003161 110166.000000 1 0 0
8.633803 5.982036 -18.160528 20.979325 0.605919 2.617222 0.010851 -0.010171 -8687.440000 1 0 0
11.559103 -0.090664 -12.989328 17.388034 -0.007843 2.414375 -0.029922 -0.003275 -81870.700000 1 0 0
-4.396597 -2.562664 -19.840028 20.482285 0.527732 2.890507 -0.019062 0.003911 501029.000000 1 0 0
6.393303 -11.740364 -14.593228 19.790724 -1.072141 2.399975 0.002371 0.005593 -107470.000000 1 0 0
11.094603 2.158036 -16.359728 19.884367 0.192113 2.537017 0.011008 0.001706 -443001.000000 1 0 0
-2.953797 -4.390164 -16.971928 17.777648 0.978545 2.839372 -0.008866 -0.005048 280017.000000 1 0 0
-6.910397 -5.436764 -18.086928 20.110916 0.666610 2.689097 0.008189 0.018950 61866.100000 1 0 0
3.064603 10.198036 -15.195528 18.555209 1.278872 2.530351 -0.000458 -0.013908 266521.000000 1 0 0
16.875403 -6.209864 -11.100928 21.132256 -0.352605 2.123873 0.021622 -0.006505 -73169.300000 1 0 0
9.114403 -3.779064 -17.723928 20.285248 -0.393051 2.633625 -0.012487 -0.009872 154144.000000 1 0 0
-7.496397 -1.716564 -18.666328 20.188471 0.225104 2.750789 -0.006759 0.009470 580404.000000 1 0 0
1.789903 -7.562264 -19.479028 20.971984 -1.338385 2.761990 0.005435 -0.009881 259784.000000 1 0 0
5.552603 10.098036 -14.276928 18.347545 1.068053 2.462493 0.008445 -0.017060 398795.000000 1 0 0
6.064503 -3.973064 -18.078728 19.478291 -0.579976 2.760201 0.016875 -0.012274 388975.000000 1 0 0
4.431803 13.412336 -14.583428 20.302906 1.251663 2.372141 0.005256 -0.018265 165935.000000 1 0 0
9.376003 11.253436 -15.427428 21.273335 0.876156 2.382121 0.047168 -0.028975 58718.800000 1 0 0
17.071303 1.042636 -11.966128 20.873541 0.061000 2.181285 0.015743 0.008167 169668.000000 1 0 0
14.993803 -2.970764 -12.358928 19.656619 -0.195600 2.250730 0.013103 -0.005349 31041.200000 1 0 0
-8.787897 0.208436 -17.447628 19.536895 -0.023714 2.674898 -0.011389 0.005844 384618.000000 1 0 0
-3.786097 4.273236 -18.819328 19.666270 -0.845769 2.847047 0.012143 0.001338 170961.000000 1 0 0
3.724903 1.805736 -16.906428 17.405829 0.451393 2.901468 0.005746 0.000179 498259.000000 1 0 0
-5.249197 14.565636 -13.596328 20.605143 -1.224902 2.291417 0.001037 -0.005344 12184.200000 1 0 0
0.714403 9.744936 -17.678028 20.198683 1.497617 2.636660 -0.003239 0.009086 232621.000000 1 0 0
0.694803 -5.268464 -20.340228 21.022948 -1.439673 2.886045 -0.000332 0.012393 462837.000000 1 0 0
3.284303 -5.846764 -18.801428 19.961588 -1.058992 2.798981 0.003229 0.007945 76949.600000 1 0 0
-7.096797 7.581236 -16.291328 19.319602 -0.818391 2.574105 -0.015462 0.021913 80419.200000 1 0 0
-11.820597 3.284136 -16.898328 20.882182 -0.270997 2.513624 0.002472 -0.002809 256008.000000 1 0 0
-5.024197 7.373036 -18.096628 20.176525 -0.972644 2.683539 -0.013695 0.054555 204164.000000 1 0 0
-8.115897 4.913136 -17.826728 20.194031 -0.544360 2.652527 -0.019354 0.010639 361269.000000 1 0 0
-8.496097 4.515636 -14.993928 17.815513 -0.488525 2.571076 -0.025504 -0.002896 466762.000000 1 0 0
9.463403 13.357636 -12.958228 20.878173 0.954412 2.240379 0.039787 -0.032643 279631.000000 1 0 0
13.661403 9.652936 -12.112028 20.652223 0.615131 2.197497 0.019465 -0.017152 121158.000000 1 0 0
8.810203 15.530236 -9.941128 20.436094 1.054773 2.078818 0.015163 -0.018122 36515.000000 1 0 0
7.492103 14.457636 -14.138128 21.564821 1.092686 2.285787 0.042200 -0.029696 214120.000000 1 0 0
4.192203 15.666836 -13.108428 20.853182 1.309337 2.250555 0.012685 -0.015915 154531.000000 1 0 0
10.958503 11.646036 -10.941328 19.376057 0.815804 2.170845 0.024835 -0.027994 292309.000000 1 0 0
15.925203 10.260436 -10.754428 21.784085 0.572350 2.087116 0.036881 -0.002941 192508.000000 1 0 0
13.183503 11.507736 -9.731528 20.023371 0.717633 2.078313 0.032191 -0.009815 23378.600000 1 0 0
10.983303 11.429936 -7.575628 17.568908 0.805323 2.016613 0.008445 -0.004259 195634.000000 1 0 0
5.494503 17.135736 -10.438528 20.803506 1.260508 2.096437 0.027193 -0.004624 -115048.000000 1 0 0
11.622903 13.998336 -10.343328 20.929159 0.877847 2.087718 0.038972 -0.022177 167534.000000 1 0 0
7.567103 -19.246164 -1.797128 20.758265 -1.196188 1.657479 0.018447 -0.004412 14235.800000 1 0 0
7.499503 -16.794064 -4.115328 18.847256 -1.150809 1.790921 0.022047 -0.008877 200103.000000 1 0 0
4.002803 -18.410964 4.832172 19.450859 -1.356714 1.319737 0.010155 -0.028726 -8432.950000 1 0 0
10.331803 -17.766064 -2.632828 20.719821 -1.044056 1.698209 0.033031 -0.002703 696720.000000 1 0 0
-2.114597 -15.244064 7.651872 17.187326 1.432960 1.109394 -0.000197 -0.019901 162407.000000 1 0 0
-15.265697 -12.481864 -3.892928 20.099585 0.685406 1.765710 -0.016639 -0.000167 52733.000000 1 0 0
-9.608997 -12.556464 -6.991728 17.288200 0.917598 1.987143 0.010004 -0.008555 334643.000000 1 0 0
-11.591597 -15.322164 6.759272 20.367169 0.923132 1.232510 0.015985 -0.008829 300617.000000 1 0 0
-15.695297 -8.086864 -8.128828 19.437529 0.475766 2.002262 0.061078 -0.002350 -43626.200000 1 0 0
4.743103 -15.019064 6.500572 17.038978 -1.264903 1.179365 0.003178 -0.014135 263964.000000 1 0 0
2.975503 -14.294764 8.952772 17.127348 -1.365573 1.020760 0.001711 -0.000799 413234.000000 1 0 0
3.174703 -17.680764 10.003472 20.561071 -1.393133 1.062689 0.003172 0.004470 266840.000000 1 0 0
-7.438197 -17.048664 -5.901128 19.514278 1.159400 1.878006 -0.037799 0.006121 84830.700000 1 0 0
1.746303 -19.838464 -4.170228 20.347114 -1.482996 1.777213 0.010863 -0.010421 26817.700000 1 0 0
-18.269397 -10.424064 -2.045428 21.133285 0.518503 1.667735 -0.011937 -0.004117 -193324.000000 1 0 0
-3.987497 -14.917564 2.748672 15.684038 1.309601 1.394634 -0.002814 -0.000434 181725.000000 1 0 0
-11.126097 -9.788064 -14.439928 20.690765 0.721508 2.343247 0.021371 0.001714 83942.600000 1 0 0
0.391203 -20.314064 2.485472 20.469290 -1.551541 1.449071 0.002119 -0.007875 346609.000000 1 0 0
6.885003 -18.147764 0.642272 19.420534 -1.208186 1.537718 0.020622 -0.006486 228419.000000 1 0 0
-7.757797 -18.753864 -3.614528 20.614452 1.178567 1.747047 0.002601 -0.011949 192714.000000 1 0 0
-9.519697 -15.606864 -7.456928 19.743470 1.023079 1.958097 0.003952 0.001569 -40375.000000 1 0 0
-11.759297 -11.393564 -12.100028 20.359397 0.769603 2.207218 -0.002554 0.014247 369514.000000 1 0 0
-13.105197 -14.653864 -2.965828 19.881601 0.841130 1.720530 -0.011770 -0.010707 29584.400000 1 0 0
-0.645597 -20.561664 -2.545628 20.728701 1.539409 1.693914 -0.003550 -0.009133 394956.000000 1 0 0
-12.052297 -16.577564 -0.621228 20.505107 0.942162 1.601097 0.002358 -0.003538 72484.600000 1 0 0
1.068803 -20.355164 4.992672 20.985753 -1.518337 1.330585 0.005302 -0.007711 92366.600000 1 0 0
-18.269997 -9.283364 2.513172 20.646783 0.470123 1.448772 0.014559 0.003528 54918.000000 1 0 0
-14.751097 -14.935464 -0.006328 20.991974 0.791609 1.571098 -0.016562 0.001313 -116680.000000 1 0 0
9.902303 -15.435464 -5.575128 19.167452 -1.000399 1.865926 0.024211 0.006272 -78844.600000 1 0 0
0.033603 -18.690664 -7.226228 20.038973 -1.568998 1.939717 0.001832 -0.012356 135212.000000 1 0 0
-10.158297 -16.794064 -2.509428 19.787087 1.026801 1.697960 0.006396 0.004450 523348.000000 1 0 0
-14.982297 -6.534964 -11.164328 19.794372 0.411301 2.170037 0.016747 -0.007725 184777.000000 1 0 0
-12.084897 -15.419364 2.329472 19.728861 0.906044 1.452446 -0.002421 -0.002723 335990.000000 1 0 0
-2.239397 -16.321664 10.196272 19.374612 1.434444 1.016589 -0.003489 -0.010249 359174.000000 1 0 0
-12.093197 -14.973264 -6.483228 20.309512 0.891407 1.895704 -0.016840 0.016032 132316.000000 1 0 0
5.589003 -16.939264 -6.709828 19.057739 -1.252100 1.930588 0.014345 -0.014493 -27071.500000 1 0 0
-17.286297 -7.084864 -2.672028 18.871966 0.388973 1.712861 -0.042562 -0.000122 -92278.800000 1 0 0
-12.509497 -13.345464 -9.085628 20.423946 0.817720 2.031805 0.021859 -0.015223 108133.000000 1 0 0
-7.097697 -14.719264 8.870572 18.593577 1.121486 1.073470 0.013777 -0.004738 362897.000000 1 0 0
-15.910397 -8.058964 -5.395428 18.633257 0.468852 1.864562 0.012452 0.000667 476326.000000 1 0 0
-0.626797 -19.697164 -0.436928 19.711978 1.538985 1.592964 0.006581 -0.008266 249070.000000 1 0 0
-15.274497 -11.414164 -1.495928 19.126714 0.641751 1.649088 0.004663 0.003392 25354.400000 1 0 0
-6.883997 -18.988164 1.416972 20.247163 1.222993 1.500755 0.000013 -0.006326 155452.000000 1 0 0
-2.393597 -20.670764 -5.413528 21.501537 1.455514 1.825309 -0.009183 -0.000645 194261.000000 1 0 0
-8.385997 -19.847364 -1.166228 21.577833 1.171024 1.624870 -0.012502 0.019911 276616.000000 1 0 0
-17.741997 -7.479664 4.837472 19.852581 0.398970 1.324649 0.012040 -0.007601 39556.600000 1 0 0
-2.918797 -15.732564 -10.883528 19.351592 1.387356 2.168094 0.006286 0.003987 -8779.920000 1 0 0
-3.226397 -18.330264 -7.950128 20.238892 1.396566 1.974486 -0.007601 0.003064 146525.000000 1 0 0
3.711903 -18.115764 -6.228828 19.513007 -1.368695 1.895696 0.000554 0.037023 307315.000000 1 0 0
0.553403 -17.333064 -9.557228 19.801060 -1.538880 2.074488 0.003291 0.004073 77696.600000 1 0 0
-7.778097 -10.103064 -15.143928 19.796698 0.914696 2.441795 0.012806 0.016586 636395.000000 1 0 0
-4.929897 -19.636664 -1.850228 20.330416 1.324824 1.661930 -0.006532 -0.001125 371324.000000 1 0 0
-10.336197 -15.651864 8.587772 20.629291 0.987158 1.141435 0.018380 -0.017153 34656.100000 1 0 0
-7.417797 -15.430264 -10.057828 19.856401 1.122683 2.101950 0.009527 0.005864 326946.000000 1 0 0
-12.828197 -7.927764 -11.898528 19.209035 0.553546 2.238804 0.004172 -0.008247 535496.000000 1 0 0
-15.536397 -13.009764 3.466472 20.558454 0.697118 1.401372 -0.007974 -0.003678 71134.800000 1 0 0
-6.468497 -14.173964 -13.042528 20.318716 1.142662 2.267766 0.007904 0.006783 533095.000000 1 0 0
-14.117097 -11.696064 -6.438328 19.430450 0.691881 1.908533 -0.001140 -0.005607 198032.000000 1 0 0
-12.257097 -10.445164 -8.084728 18.019453 0.705754 2.036069 0.023807 -0.001206 354600.000000 1 0 0
-9.984397 -14.929064 3.888872 18.376302 0.981326 1.357560 0.007785 -0.000242 507294.000000 1 0 0
4.972703 -18.104464 8.231172 20.500039 -1.302739 1.157621 0.019934 -0.021642 223341.000000 1 0 0
-4.833997 -16.939564 5.421972 18.431336 1.292818 1.272208 -0.000377 0.014050 457594.000000 1 0 0
-18.472897 -7.304864 -6.889028 21.025405 0.376566 1.904614 -0.013527 -0.002493 2699.190000 1 0 0
-17.003197 -3.434664 -10.750828 20.407986 0.199319 2.125622 -0.000392 -0.011220 -143108.000000 1 0 0
-15.469597 -4.336964 -13.188528 20.785931 0.273337 2.258149 -0.023419 0.005713 205743.000000 1 0 0
-19.239597 -4.424964 -5.720928 20.554109 0.226061 1.852856 -0.014242 -0.000830 -14797.500000 1 0 0
5.271503 -13.568764 8.612672 16.913847 -1.200240 1.036532 0.004280 -0.002452 264127.000000 1 0 0
20.042603 -3.101764 2.601672 20.447386 -0.153541 1.443213 0.016983 -0.000964 103148.000000 1 0 0
17.912003 -2.719764 -0.357528 18.120839 -0.150689 1.590528 -0.005104 0.002251 380654.000000 1 0 0
14.287003 -11.564864 0.183672 18.382010 -0.680487 1.560804 0.023392 0.004436 239207.000000 1 0 0
10.823903 -13.660564 5.186472 18.184262 -0.900739 1.281563 -0.011879 0.004500 433993.000000 1 0 0
10.467503 -12.536864 8.152172 18.253753 -0.875112 1.107832 0.011910 -0.016518 44052.700000 1 0 0
18.077303 5.219236 -4.964228 19.459519 0.281074 1.828753 0.005015 0.021949 -36154.400000 1 0 0
18.566903 -6.214464 -4.792528 20.157326 -0.322986 1.810851 -0.004328 0.002929 -98529.600000 1 0 0
17.373803 -10.358564 -0.111828 20.227738 -0.537634 1.576325 0.001821 0.007826 257930.000000 1 0 0
17.244503 -9.128964 8.193972 21.162516 -0.486878 1.173211 0.006934 -0.002788 -77497.800000 1 0 0
19.678403 0.125036 -2.409128 19.825718 0.006354 1.692613 -0.006112 0.013976 86630.900000 1 0 0
7.722303 -13.350464 11.116672 19.011819 -1.046388 0.946256 -0.000938 0.004655 428813.000000 1 0 0
16.163803 -6.386064 -3.620028 17.752604 -0.376261 1.776152 0.011917 0.003744 244772.000000 1 0 0
14.238703 -7.199264 11.011172 19.385974 -0.468127 0.966726 -0.006977 -0.036322 355347.000000 1 0 0
16.580803 1.412936 10.632272 19.747522 0.085010 1.002247 0.027695 -0.009346 83846.400000 1 0 0
16.325003 -10.078564 2.420672 19.337602 -0.553094 1.445288 -0.014192 -0.005500 448161.000000 1 0 0
16.182603 -7.304764 -5.881228 18.703611 -0.424014 1.890667 0.013345 0.002888 110531.000000 1 0 0
17.309103 -4.200264 5.700372 18.701378 -0.238061 1.261057 -0.019401 -0.004190 -49702.500000 1 0 0
13.021803 -13.710564 7.848772 20.473157 -0.811158 1.177355 -0.015734 0.006035 189304.000000 1 0 0
15.074803 -14.361664 -1.398328 20.867736 -0.761177 1.637856 0.019387 0.000316 162197.000000 1 0 0
18.745903 -6.381764 7.363072 21.127012 -0.328129 1.214810 0.012931 -0.005874 202746.000000 1 0 0
19.644503 3.442736 2.648872 20.119032 0.173490 1.438753 0.005280 0.003008 319603.000000 1 0 0
15.635003 -11.126264 7.871872 20.741588 -0.618486 1.181518 -0.000127 -0.010055 99329.500000 1 0 0
13.937103 -4.759664 10.546672 18.114347 -0.329092 0.949330 -0.006487 -0.007271 -464684.000000 1 0 0
18.702003 -7.895364 1.791672 20.379200 -0.399468 1.482766 0.009887 -0.003115 98470.700000 1 0 0
19.028103 -6.306864 -1.890028 20.134981 -0.320055 1.664803 0.005233 0.004496 168200.000000 1 0 0
14.252503 -13.928864 -6.143228 20.853929 -0.773915 1.869816 0.018027 0.000474 391851.000000 1 0 0
13.913903 -9.588464 10.102172 19.687286 -0.603392 1.031967 -0.007880 -0.005664 522774.000000 1 0 0
14.304003 2.511936 0.516272 14.532064 0.173838 1.535262 -0.002770 0.001874 -104588.000000 1 0 0
13.032903 2.748836 13.574872 19.018145 0.207868 0.775908 0.021296 -0.013573 -11901.000000 1 0 0
18.241903 -2.465964 9.729772 20.821059 -0.134367 1.084557 0.006181 0.005202 175953.000000 1 0 0
6.999303 -18.205864 4.956872 20.124968 -1.203764 1.321931 -0.001549 -0.019590 300598.000000 1 0 0
12.027603 -3.319064 15.087972 19.578722 -0.269253 0.690965 -0.015648 0.009342 244261.000000 1 0 0
11.051103 -13.575864 -7.153128 18.910267 -0.887561 1.958720 0.012436 -0.002130 165743.000000 1 0 0
10.371003 -18.374364 5.065872 21.698803 -1.056944 1.335159 -0.003333 0.015357 491772.000000 1 0 0
17.941203 -0.667364 -6.179328 18.987265 -0.037180 1.902280 -0.004969 0.013052 217258.000000 1 0 0
4.389003 -13.635664 11.346772 18.274133 -1.259392 0.900881 -0.009738 -0.000953 117526.000000 1 0 0
8.986703 -2.586364 13.763572 16.639893 -0.280226 0.596791 -0.011663 -0.009968 113094.000000 1 0 0
8.798703 -9.169864 13.960072 18.878221 -0.806051 0.738498 -0.017931 -0.003959 458682.000000 1 0 0
20.973703 5.627736 -2.774228 21.892099 0.262149 1.697861 0.005251 0.017846 323498.000000 1 0 0
14.496403 -13.564864 1.828472 19.937266 -0.752214 1.478956 0.007635 0.005501 186795.000000 1 0 0
11.419903 -0.505464 15.464772 19.230935 -0.044233 0.636533 0.007351 -0.001154 -47528.400000 1 0 0
18.718603 0.406636 7.957972 20.344060 0.021720 1.168895 -0.019800 0.000487 141714.000000 1 0 0
19.869403 0.901136 0.371672 19.893300 0.045322 1.552112 0.008305 0.002012 52757.900000 1 0 0
18.101703 0.388836 3.072472 18.364720 0.021477 1.402703 0.002364 0.001866 -61413.800000 1 0 0
10.163103 -8.375964 16.413372 21.043865 -0.689297 0.676194 -0.001892 0.002021 130375.000000 1 0 0
19.225803 2.955636 5.643072 20.253680 0.152539 1.288440 0.021838 0.003678 138642.000000 1 0 0
14.798803 2.115036 6.933272 16.478720 0.141958 1.136534 -0.005481 -0.007646 -68592.000000 1 0 0
11.375603 -16.117764 1.946672 19.823628 -0.956201 1.472438 0.008523 0.009337 243651.000000 1 0 0
8.457403 -16.477064 7.003172 19.800650 -1.096579 1.209290 -0.004428 0.009271 372748.000000 1 0 0
6.435203 6.569936 7.080372 11.606359 0.795758 0.914682 -0.001086 -0.001672 -1185720.000000 1 0 0
18.345403 2.023936 -6.823928 19.677808 0.109880 1.924935 -0.004488 0.016114 196332.000000 1 0 0
13.988903 4.323336 -7.105128 16.274627 0.299743 2.022587 0.002213 -0.005253 156818.000000 1 0 0
-10.473397 -3.785664 -13.895228 17.807320 0.346843 2.465957 -0.006133 0.007031 -216783.000000 1 0 0
7.456803 -14.209464 -10.429328 19.138539 -1.087524 2.147112 -0.004742 0.006573 -78265.600000 1 0 0
2.228803 -16.031264 13.706572 21.209411 -1.432653 0.868137 -0.004081 -0.005086 445280.000000 1 0 0
-9.523897 -7.926564 2.562472 12.653114 0.694117 1.366869 0.006748 -0.003289 491981.000000 1 0 0
-13.748897 3.182036 -9.679728 17.112996 -0.227435 2.172001 0.001011 0.001522 355654.000000 1 0 0
-12.622097 -5.021564 -13.317628 19.023476 0.378642 2.346282 -0.014441 0.011746 267182.000000 1 0 0
-17.885297 -0.224364 -8.089428 19.630920 0.012544 1.995527 0.023979 -0.019868 461424.000000 1 0 0
-12.010397 15.370236 4.292872 19.973045 -0.907496 1.354173 -0.003072 -0.006065 438003.000000 1 0 0
-17.257897 6.612036 9.388372 20.729099 -0.365880 1.100772 -0.005298 0.003160 205896.000000 1 0 0
-13.520797 15.307136 0.130172 20.423939 -0.847285 1.564423 0.018488 -0.029460 -7426.940000 1 0 0
-15.859597 5.303536 -10.598828 19.798723 -0.322715 2.135693 0.002693 0.002137 51196.100000 1 0 0
-18.501997 2.828136 -0.553428 18.725077 -0.151682 1.600356 0.028820 0.005690 -147087.000000 1 0 0
-9.626697 15.441136 -0.124228 18.196631 -1.013316 1.577623 -0.001121 -0.011056 -4352.180000 1 0 0
-17.852097 12.510236 2.551472 21.947969 -0.611243 1.454282 0.017754 -0.005751 -135651.000000 1 0 0
-8.696697 16.365736 -7.753828 20.089591 -1.082348 1.967047 0.029389 -0.028314 77097.000000 1 0 0
-14.784297 -1.639764 -12.678928 19.545318 0.110461 2.276663 -0.019898 -0.011465 181017.000000 1 0 0
-18.853097 5.458036 -4.602228 20.159611 -0.281799 1.801117 0.012756 0.007028 -92992.600000 1 0 0
-16.662597 9.685536 -5.753728 20.113605 -0.526537 1.860910 0.010791 0.014715 35851.500000 1 0 0
-19.048597 1.465336 2.109172 19.220948 -0.076775 1.460842 0.005707 -0.002176 330862.000000 1 0 0
-13.391297 12.072536 -6.840428 19.283786 -0.733655 1.933416 0.005122 -0.009088 -124004.000000 1 0 0
-13.984897 5.466536 -12.363428 19.450313 -0.372627 2.259636 0.030767 -0.011403 38823.200000 1 0 0
-14.050897 9.584936 -6.650328 18.262682 -0.598651 1.943515 0.006047 -0.003862 139360.000000 1 0 0
-6.400097 11.617336 -15.321128 20.264765 -1.067255 2.428050 -0.020568 -0.009314 -46848.700000 1 0 0
-14.913197 13.925036 3.369772 20.680073 -0.751146 1.407119 0.000067 -0.010148 14988.800000 1 0 0
-18.584797 8.633736 -4.873028 21.063771 -0.434895 1.804258 0.011654 0.000763 185659.000000 1 0 0
-4.104797 17.035036 -9.742528 20.048906 -1.334342 2.078233 0.011306 -0.008079 -28688.400000 1 0 0
-19.169997 -2.199964 -6.747128 20.441437 0.114261 1.907175 -0.016825 -0.004823 -179625.000000 1 0 0
-10.634597 13.817836 -6.098728 18.472187 -0.914851 1.907267 0.006076 -0.024032 109057.000000 1 0 0
-19.068697 2.963036 4.462772 19.806845 -0.154155 1.343530 -0.000125 0.003871 88522.900000 1 0 0
-14.831797 12.146936 0.641772 19.181817 -0.686207 1.537333 -0.009046 -0.016209 112364.000000 1 0 0
-17.244497 2.690136 -8.019528 19.207351 -0.154752 2.001515 -0.017292 -0.007330 207921.000000 1 0 0
-16.375297 14.294136 -3.980728 22.097938 -0.717644 1.751925 0.002362 0.034205 192839.000000 1 0 0
-10.726297 15.751336 -8.286028 20.780189 -0.972952 1.980946 0.015909 -0.021729 17365.200000 1 0 0
-19.345497 1.641436 -6.712028 20.542489 -0.084646 1.903647 0.021186 -0.010514 121461.000000 1 0 0
-17.057897 10.579736 -0.300428 20.074683 -0.555158 1.585762 0.004227 0.001971 -11209.300000 1 0 0
-11.792097 6.664336 -14.469128 19.819752 -0.514402 2.389171 -0.001238 -0.005170 411929.000000 1 0 0
-13.016197 12.761636 -4.192028 18.704380 -0.775523 1.796836 0.017595 -0.012510 184713.000000 1 0 0
-18.847397 7.362936 0.038172 20.234590 -0.372429 1.568910 0.007055 0.002752 -44531.200000 1 0 0
-14.431697 9.148136 -10.835028 20.232649 -0.564968 2.135922 -0.002030 0.012848 601055.000000 1 0 0
-18.445297 11.731236 4.762872 22.372658 -0.566471 1.356266 0.000378 0.003772 138529.000000 1 0 0
-8.090897 12.274036 -13.488028 19.950976 -0.987989 2.313197 -0.028261 0.006697 527176.000000 1 0 0
-21.020897 -1.372664 -5.838328 21.859743 0.065207 1.841159 -0.025442 0.004504 170383.000000 1 0 0
-10.520997 13.456236 -2.639728 17.283802 -0.907210 1.724125 0.008992 -0.012228 320211.000000 1 0 0
-18.814697 -4.865564 3.817672 19.805079 0.253060 1.376820 0.019675 -0.005214 44319.300000 1 0 0
-11.356897 11.600736 -12.622728 20.564275 -0.796019 2.231684 -0.000770 -0.009997 242863.000000 1 0 0
-14.999297 11.507736 -10.078928 21.424091 -0.654430 2.060595 0.001637 -0.011367 290890.000000 1 0 0
-12.734197 10.006336 -13.823028 21.292313 -0.666013 2.277332 0.016901 -0.002752 389464.000000 1 0 0
-18.386997 -4.870264 -2.982828 19.253529 0.258929 1.726347 -0.016895 -0.000450 -190546.000000 1 0 0
-9.451797 12.572136 -11.358628 19.401378 -0.926141 2.196237 -0.000653 -0.012021 -103971.000000 1 0 0
-15.419897 7.652436 -8.275128 19.100019 -0.460659 2.018895 -0.016576 0.009697 53744.200000 1 0 0
-14.732697 8.817036 1.980372 17.283355 -0.539292 1.455961 0.002329 0.000387 -211052.000000 1 0 0
-19.697297 6.142636 7.818172 22.064435 -0.302294 1.208595 0.011037 -0.003934 179898.000000 1 0 0
-18.506897 5.961236 3.788272 19.808901 -0.311615 1.378370 -0.020707 0.008702 115287.000000 1 0 0
-14.458297 12.589436 5.904672 20.059945 -0.716413 1.272020 -0.003749 -0.008345 -123253.000000 1 0 0
18.009403 6.149536 5.448772 19.795063 0.329049 1.291937 0.005336 -0.003734 204456.000000 1 0 0
18.199203 7.211236 0.252572 19.577454 0.377260 1.557895 0.000910 0.003967 -12423.500000 1 0 0
16.728403 4.267936 8.444372 19.218798 0.249802 1.115887 0.006404 -0.004705 -168140.000000 1 0 0
12.548403 12.453436 11.185972 20.920719 0.781600 1.006663 0.029516 -0.018412 203135.000000 1 0 0
15.243803 12.160836 4.307172 19.970258 0.673371 1.353409 0.003458 -0.000183 131875.000000 1 0 0
5.022403 10.210736 14.400072 18.353358 1.113670 0.668743 0.001844 -0.011584 292092.000000 1 0 0
13.002703 13.546236 -5.446328 19.550787 0.805868 1.853105 0.008802 0.008750 190962.000000 1 0 0
17.531203 9.125136 -3.364228 20.048173 0.479919 1.739401 -0.016158 0.019651 -185082.000000 1 0 0
14.385603 7.642736 9.466072 18.840476 0.488355 1.044386 0.005631 -0.011735 97987.000000 1 0 0
4.901503 19.036436 -1.681228 19.729094 1.318790 1.656115 -0.000036 -0.006452 385236.000000 1 0 0
-4.159897 18.724436 3.104472 19.430568 -1.352183 1.410336 -0.015408 -0.027281 158407.000000 1 0 0
7.187403 12.258236 12.714072 19.067531 1.040487 0.840901 0.018853 -0.009000 94712.100000 1 0 0
0.552803 17.002336 -10.234928 19.852928 1.538294 2.112431 0.009458 -0.000651 -40765.400000 1 0 0
10.609903 9.140036 15.795172 21.109187 0.711111 0.725360 0.017469 -0.015428 308199.000000 1 0 0
-1.227597 12.066536 0.865972 12.159695 -1.469410 1.499519 -0.006021 0.003875 305864.000000 1 0 0
-4.937097 19.175036 -2.417528 19.947465 -1.318795 1.692290 -0.002476 0.004756 -7842.700000 1 0 0
6.136003 18.351336 6.323972 20.357178 1.248120 1.254919 0.008741 -0.012429 154425.000000 1 0 0
11.125603 17.519636 -1.559228 20.812205 1.005012 1.645785 -0.000356 0.014088 325533.000000 1 0 0
18.337003 10.496236 3.374972 21.396427 0.519884 1.412399 0.002342 0.010759 110749.000000 1 0 0
11.877603 16.743936 6.240272 21.456417 0.953811 1.275697 0.019801 0.002494 -146072.000000 1 0 0
17.657403 8.328336 -6.140328 20.465793 0.440722 1.875519 -0.017908 0.027678 318003.000000 1 0 0
0.792803 16.124636 10.951472 19.508131 1.521669 0.974744 -0.009965 0.022293 509738.000000 1 0 0
1.475003 20.268136 -1.861428 20.406810 1.498150 1.662139 -0.004851 -0.003189 281725.000000 1 0 0
13.986603 9.653336 -1.512028 17.061600 0.604108 1.659534 -0.007873 0.006737 -252229.000000 1 0 0
9.571003 16.761236 3.125972 19.552873 1.051958 1.410235 0.004310 -0.013392 205056.000000 1 0 0
0.247903 17.727636 -0.592628 17.739271 1.556813 1.604210 -0.011886 -0.000942 28524.800000 1 0 0
-0.001697 20.966336 1.395272 21.012711 -1.570715 1.504346 -0.002602 -0.003073 172667.000000 1 0 0
6.252103 17.180636 -0.404728 18.287341 1.221789 1.592930 0.000806 -0.017307 -41636.800000 1 0 0
6.648003 18.532136 -2.819728 19.889366 1.226367 1.713046 -0.026979 0.000967 -259015.000000 1 0 0
10.674503 9.437236 12.876872 19.204694 0.723956 0.835905 0.008961 -0.008592 86812.900000 1 0 0
12.292503 14.683636 8.261972 20.856054 0.873806 1.163484 0.000339 -0.013370 141767.000000 1 0 0
0.655003 17.579436 7.055072 18.953618 1.533554 1.189388 -0.009940 -0.000750 276077.000000 1 0 0
7.281303 17.918636 -7.766828 20.842709 1.184825 1.952649 -0.008550 -0.012631 26503.300000 1 0 0
-0.859097 18.512036 9.150172 20.667829 -1.524422 1.112160 0.017731 -0.009880 186491.000000 1 0 0
16.263303 6.625936 -7.989628 19.293320 0.386883 1.997765 0.036832 0.001055 -296633.000000 1 0 0
-5.105997 19.864836 -6.744728 21.591069 -1.319206 1.888499 -0.006929 -0.012749 261417.000000 1 0 0
4.304403 15.425136 9.994872 18.877504 1.298668 1.012833 -0.006115 0.002404 171630.000000 1 0 0
9.193503 14.838136 7.688072 19.073469 1.016100 1.155920 0.005515 0.001950 132421.000000 1 0 0
-2.507297 19.994336 6.368472 21.133325 -1.446047 1.264691 -0.002118 0.001381 44676.100000 1 0 0
4.684403 17.903636 8.402072 20.324336 1.314888 1.144612 -0.005300 -0.003303 293314.000000 1 0 0
15.095703 11.510136 -7.257828 20.323374 0.651439 1.935976 0.023292 -0.017011 -160491.000000 1 0 0
11.893803 6.709536 15.399072 20.581833 0.513619 0.725470 0.033308 -0.013233 83994.200000 1 0 0
17.068703 9.310436 4.940172 20.060662 0.499357 1.321975 0.012380 0.000136 118049.000000 1 0 0
5.492303 14.601336 13.190872 20.429477 1.211017 0.868885 -0.005054 0.004640 157549.000000 1 0 0
15.740203 10.987736 -4.149428 19.639300 0.609428 1.783683 0.007249 0.015267 175744.000000 1 0 0
15.096703 14.362336 7.363572 22.099985 0.760475 1.231108 0.003193 0.027549 349348.000000 1 0 0
12.629603 14.599636 -8.342528 21.029836 0.857622 1.978715 0.034083 -0.015044 250554.000000 1 0 0
-8.049297 15.660636 9.557372 20.034721 -1.096025 1.073512 0.007224 -0.001646 208312.000000 1 0 0
-4.466897 16.700136 -7.054428 18.671172 -1.309438 1.958242 0.000356 -0.009471 116085.000000 1 0 0
2.310103 19.350436 -4.552328 20.012487 1.451976 1.800280 -0.013228 -0.018321 -1843.460000 1 0 0
7.129303 16.647536 8.832872 20.149120 1.166176 1.117006 -0.000797 0.002274 410178.000000 1 0 0
13.284103 15.618836 -1.564628 20.563645 0.866002 1.646957 0.008105 0.008112 149824.000000 1 0 0
13.633003 15.468736 4.452772 21.094259 0.848395 1.358107 0.013024 -0.008538 264781.000000 1 0 0
2.497203 18.353036 0.706672 18.535623 1.435562 1.532662 -0.002292 -0.012313 -66911.400000 1 0 0
-6.816197 17.951536 1.603172 19.268844 -1.207912 1.487500 -0.030904 0.022394 162460.000000 1 0 0
0.362903 20.212136 -5.980028 21.081339 1.552844 1.858410 0.007286 0.002997 158970.000000 1 0 0
-7.558997 18.149736 -6.210028 20.618336 -1.176165 1.876736 0.028713 -0.018521 108385.000000 1 0 0
-7.511597 18.600836 -1.854028 20.145784 -1.186992 1.662957 0.004428 -0.002751 -49078.400000 1 0 0
-14.400297 -9.561164 8.977272 19.477572 0.586124 1.091784 0.019608 0.000025 400166.000000 1 0 0
-13.304797 -13.394464 8.073172 20.533032 0.788757 1.166709 0.025016 -0.014458 56171.900000 1 0 0
-3.135197 -15.666864 12.878672 20.521703 1.373289 0.892377 -0.002331 -0.002366 239315.000000 1 0 0
-2.229597 -13.586564 15.541672 20.763174 1.408143 0.724967 0.001001 -0.026451 408673.000000 1 0 0
-7.966497 -13.865464 12.521672 20.310304 1.049295 0.906484 0.019764 -0.008335 288954.000000 1 0 0
-9.990297 -10.044964 12.009272 18.572290 0.788127 0.867647 0.029060 -0.022207 104820.000000 1 0 0
-7.143397 -10.561664 12.997372 18.207376 0.976119 0.775813 0.017328 -0.010605 371670.000000 1 0 0
-15.210497 -12.271864 7.310672 20.866331 0.678875 1.212844 0.002320 -0.006022 354798.000000 1 0 0
-4.722597 -12.837864 13.519072 19.232238 1.218296 0.791276 0.020954 -0.002077 330307.000000 1 0 0
3.807003 -12.519464 13.922972 19.107052 -1.275594 0.754400 -0.012580 0.008034 648189.000000 1 0 0
6.700503 -13.561864 14.571372 21.003471 -1.111904 0.804099 -0.009682 0.011392 277704.000000 1 0 0
7.143703 -9.069664 16.730772 20.327569 -0.903633 0.604022 -0.011032 0.008546 519592.000000 1 0 0
-5.090597 13.143836 13.531772 19.539280 -1.201287 0.805789 -0.000403 0.002546 646909.000000 1 0 0
-13.503297 -1.640464 17.332372 22.032732 0.120894 0.665408 0.006552 -0.009383 365040.000000 1 0 0
-9.673697 8.993936 13.656972 18.999584 -0.749000 0.768716 -0.007714 -0.007582 392572.000000 1 0 0
-7.103397 -8.490264 17.163072 20.423366 0.874103 0.572841 0.026929 -0.004173 100409.000000 1 0 0
-4.750997 1.931436 18.356272 19.059254 -0.386125 0.272444 0.019046 -0.004850 527168.000000 1 0 0
-15.329697 -3.740664 14.972672 21.752542 0.239337 0.811628 0.001702 -0.001528 62862.100000 1 0 0
-14.625897 2.845936 12.687472 19.570083 -0.192181 0.865434 0.000167 0.005296 227535.000000 1 0 0
-14.238297 10.730836 9.571472 20.235934 -0.645839 1.078111 -0.040748 0.009074 -99331.700000 1 0 0
-4.391597 11.044536 16.124672 20.031798 -1.192338 0.635199 0.012848 0.004798 185572.000000 1 0 0
-12.849797 13.006636 7.620472 19.808116 -0.791464 1.175898 -0.003010 -0.024007 103.199000 1 0 0
-3.822497 -6.332264 18.595572 20.012605 1.027694 0.378573 0.014530 -0.007633 253771.000000 1 0 0
0.603703 -2.898664 18.416072 18.652572 -1.365462 0.159412 -0.004403 0.003179 131167.000000 1 0 0
-4.397897 6.213236 21.488072 22.796558 -0.954837 0.340459 0.030006 -0.000655 401726.000000 1 0 0
2.503303 -10.701964 16.329072 19.683424 -1.341017 0.592432 -0.018212 -0.001495 449873.000000 1 0 0
-15.156297 -0.412164 13.872872 20.550907 0.027188 0.829765 -0.014170 0.000425 74604.900000 1 0 0
-14.316597 -5.979264 8.060872 17.484113 0.395625 1.091630 0.030018 -0.006031 150287.000000 1 0 0
9.776603 2.062036 16.687072 19.449739 0.207869 0.539514 -0.008292 0.000082 218555.000000 1 0 0
-7.454997 12.160836 11.885472 18.566835 -1.020849 0.876109 0.000728 -0.007172 -21930.500000 1 0 0
-1.827497 7.327336 20.670572 22.006866 -1.326375 0.350275 0.033767 -0.001167 487055.000000 1 0 0
1.277703 -14.156864 15.479172 21.015568 -1.480787 0.742830 -0.016002 0.009113 596920.000000 1 0 0
-3.517197 -11.873864 17.870272 21.741802 1.282817 0.606002 0.014804 -0.006147 319342.000000 1 0 0
-1.909297 8.675936 16.683472 18.901204 -1.354181 0.489289 0.005245 -0.011010 472068.000000 1 0 0
-3.346097 -9.236364 20.222072 22.481970 1.223229 0.452219 -0.003689 -0.018213 30549.500000 1 0 0
-6.453897 -3.193964 19.109572 20.421311 0.459551 0.360371 0.025902 -0.012239 292687.000000 1 0 0
-10.757897 -8.299664 15.827272 20.859514 0.657117 0.709396 0.057210 -0.011582 259993.000000 1 0 0
-0.390597 5.999936 17.922672 18.904338 -1.505788 0.323678 0.022544 -0.013413 136001.000000 1 0 0
-6.061597 -11.130964 19.288472 23.080002 1.072131 0.581350 0.041502 0.003037 310186.000000 1 0 0
0.826103 3.628336 19.109472 19.468415 1.346931 0.192323 0.021660 0.000016 -134646.000000 1 0 0
-18.385597 -0.312564 7.824572 19.983788 0.016999 1.168485 0.007260 -0.003171 231601.000000 1 0 0
-1.524697 -8.779264 17.707872 19.823444 1.398841 0.466208 -0.006486 -0.000734 453182.000000 1 0 0
6.043903 3.426036 14.971372 16.504802 0.515694 0.434473 0.003515 -0.007263 423090.000000 1 0 0
-13.623597 -6.740364 10.307972 18.365435 0.459444 0.974877 0.012409 -0.010800 95510.400000 1 0 0
4.015303 8.248936 16.587072 18.955173 1.117792 0.505219 0.014269 -0.017174 227755.000000 1 0 0
6.419203 4.352036 17.195172 18.863201 0.595788 0.423704 0.017073 -0.031143 -7324.880000 1 0 0
5.388503 -9.299064 18.320972 21.240682 -1.045611 0.530525 -0.011516 0.016060 452643.000000 1 0 0
-4.254797 -0.759964 19.930572 20.393836 0.176750 0.213553 0.015410 -0.007946 817555.000000 1 0 0
-11.043697 2.061736 16.850572 20.252303 -0.184564 0.588035 0.036664 -0.013478 34163.600000 1 0 0
-16.721797 -3.798764 8.894472 19.317369 0.223383 1.092307 0.017175 -0.010637 314411.000000 1 0 0
-13.900097 -9.343864 11.916872 20.555591 0.591834 0.952388 0.056957 -0.025130 104662.000000 1 0 0
-14.496497 6.223536 13.253972 20.604577 -0.405518 0.872056 0.000912 -0.008778 341158.000000 1 0 0
1.251803 8.936636 17.046672 19.287807 1.431626 0.486861 0.011147 -0.022165 203180.000000 1 0 0
-3.716197 -10.586064 14.856272 18.616759 1.233190 0.646818 0.014846 -0.006725 447493.000000 1 0 0
-18.719597 -3.345264 6.736772 20.174196 0.176837 1.230326 0.089150 -0.010836 -273531.000000 1 0 0
-1.225397 -0.080064 21.435472 21.470619 0.065245 0.057226 0.006320 0.004563 313817.000000 1 0 0
-1.698397 2.299336 20.589872 20.787360 -0.934601 0.137953 0.017988 -0.006547 107847.000000 1 0 0
-8.048197 2.349536 16.433372 18.448564 -0.284040 0.471766 0.016313 0.008566 433183.000000 1 0 0
2.729903 -1.732864 18.765072 19.041616 -0.565595 0.170636 -0.002989 -0.006395 40023.100000 1 0 0
-13.296597 4.280036 14.397772 20.060260 -0.311416 0.770265 0.033710 -0.005222 158554.000000 1 0 0
-12.960997 -5.452164 13.333772 19.377900 0.398188 0.811940 -0.006003 -0.009420 6894.700000 1 0 0
-17.389697 -1.104264 9.762372 19.973103 0.063416 1.060110 0.012039 -0.010889 123105.000000 1 0 0
-6.935197 7.832536 15.132272 18.396501 -0.846087 0.604894 -0.001086 0.001756 -123502.000000 1 0 0
-9.516597 0.611236 14.063572 16.991859 -0.064140 0.595862 0.025839 -0.006289 236401.000000 1 0 0
8.124903 -1.143964 15.128872 17.210621 -0.139878 0.496946 0.008937 -0.003658 4403.800000 1 0 0
4.137303 6.093136 18.343772 19.767083 0.974297 0.381799 0.017208 -0.007402 208616.000000 1 0 0
1.769303 0.783036 20.261872 20.354043 0.416656 0.095203 0.012006 0.003699 231598.000000 1 0 0
-6.846797 6.830136 17.722072 20.189136 -0.784180 0.499541 0.002763 -0.002806 537267.000000 1 0 0
7.703203 -3.372164 16.583172 18.593344 -0.412630 0.469295 -0.006659 0.003103 424435.000000 1 0 0
-16.330297 2.534236 9.226172 18.926785 -0.153958 1.061611 0.000793 -0.003114 92520.700000 1 0 0
4.022003 -5.853064 19.164272 20.437813 -0.968739 0.354883 -0.002564 -0.003576 110220.000000 1 0 0
-3.687597 -3.862264 20.702472 21.380080 0.808529 0.252437 0.012085 -0.010458 362797.000000 1 0 0
-9.484897 5.684236 14.712672 18.404796 -0.539900 0.644511 0.006093 -0.004398 -61432.700000 1 0 0
7.080103 2.713036 19.738672 21.144825 0.365933 0.366746 0.019841 -0.018567 164999.000000 1 0 0
-7.114397 11.226136 14.665772 19.792060 -1.005940 0.736249 0.001098 -0.008259 248445.000000 1 0 0
-14.488697 5.012036 9.045572 17.800708 -0.333042 1.037752 -0.003968 -0.007291 205784.000000 1 0 0
1.223503 -5.440564 20.495672 21.240746 -1.349591 0.265649 0.000673 -0.005773 270864.000000 1 0 0
-6.007797 -8.195864 13.607572 16.983281 0.938246 0.641443 0.016282 -0.010747 247498.000000 1 0 0
-12.644697 10.177336 6.618272 17.529063 -0.677703 1.183637 -0.018569 -0.012528 136769.000000 1 0 0
-19.166597 2.038136 7.902672 20.831818 -0.105940 1.181696 -0.020666 0.001239 109849.000000 1 0 0
-16.137697 9.225336 6.528872 19.701732 -0.519323 1.233024 -0.003914 0.003622 79158.300000 1 0 0
-12.549597 7.823936 14.331572 20.593696 -0.557478 0.801096 -0.001827 -0.005809 189003.000000 1 0 0
-16.280497 9.145836 11.102572 21.724824 -0.511832 1.034385 -0.016595 0.001076 211684.000000 1 0 0
2.077903 11.198436 14.197172 18.201163 1.387330 0.676107 -0.009619 -0.041490 128008.000000 1 0 0
2.135403 14.873036 13.516772 20.210648 1.428195 0.838210 -0.014547 0.003323 665254.000000 1 0 0
9.100903 4.739036 16.611372 19.524922 0.480087 0.553333 0.012078 -0.007226 81782.200000 1 0 0
-0.265297 13.320536 13.501672 18.968453 -1.550883 0.778744 0.000762 0.016612 244634.000000 1 0 0
3.866503 12.254636 14.854072 19.641014 1.265168 0.713191 -0.001707 -0.002225 -370037.000000 1 0 0
-3.792397 -4.568664 -13.958128 15.168530 0.877976 2.739395 -0.000556 -0.000442 214971.000000 1 0 0
5.795803 -12.092064 16.836272 21.523694 -1.123840 0.672574 -0.047849 0.024642 324532.000000 1 0 0
8.752403 -13.645064 7.288372 17.773934 -1.000467 1.148277 -0.008131 -0.002396 187782.000000 1 0 0
-0.421497 15.135936 0.406072 15.147247 -1.542956 1.543985 -0.001008 -0.004222 -554228.000000 1 0 0
-14.284097 7.717936 8.798372 18.466546 -0.495378 1.074185 0.007829 -0.000122 125802.000000 1 0 0
-15.742397 -9.670464 5.881672 19.389043 0.550864 1.262590 -0.007586 -0.000619 118880.000000 1 0 0
9.343503 -10.091964 11.372672 17.846189 -0.823889 0.879858 0.000256 0.005297 59159.700000 1 0 0
-25.056797 5.999836 31.560565 40.741997 -0.235024 0.684644 -0.002279 -0.010515 -653.219000 0 0 1
-23.950997 5.233036 31.092425 39.595123 -0.215109 0.667682 -0.007098 -0.011311 224124.000000 0 0 1
-23.036797 5.162436 32.180765 39.911732 -0.220453 0.632929 0.005330 -0.001240 75124.900000 0 0 1
-21.686697 4.511836 31.784845 38.742042 -0.205120 0.608647 0.013201 -0.012476 -202229.000000 0 0 1
-21.753897 3.105436 31.853635 38.697930 -0.141795 0.603886 0.017386 -0.016778 -372759.000000 0 0 1
-20.555997 2.607336 31.349215 37.578191 -0.126167 0.584044 0.009729 -0.012008 -438552.000000 0 0 1
-20.099797 1.300536 32.016655 37.825380 -0.064614 0.561546 0.003857 -0.007790 -163640.000000 0 0 1
-20.920297 0.185536 31.808075 38.071602 -0.008868 0.581790 0.004665 0.005535 -41483.100000 0 0 1
-20.924297 -0.587364 33.029225 39.103720 0.028064 0.564873 0.002611 0.005227 -201399.000000 0 0 1
-21.356497 -2.064164 32.780965 39.178468 0.096353 0.579551 0.004409 -0.013072 -299700.000000 0 0 1
-20.313197 -2.892164 32.307115 38.271925 0.141428 0.565825 0.028251 -0.022421 109048.000000 0 0 1
-20.391997 -4.267864 32.731635 38.799589 0.206313 0.566829 0.034311 -0.032632 -112918.000000 0 0 1
-21.590697 -5.180664 32.225925 39.134482 0.235497 0.603303 0.024022 -0.022255 1488840.000000 0 0 1
-22.878997 -5.046564 32.844835 40.344758 0.217100 0.619611 0.020828 -0.019471 954716.000000 0 0 1
-22.845597 -5.383164 34.255155 41.524877 0.231411 0.600716 0.020506 -0.017470 -574370.000000 0 0 1
-24.033797 -4.684964 -34.305811 42.148083 0.192518 2.521690 0.023173 -0.014240 166664.000000 0 0 1
-24.044997 -5.013764 -32.925528 41.077854 0.205570 2.500662 0.028124 -0.019518 3970.930000 0 0 1
-25.020697 -4.345764 -32.172088 40.987366 0.171971 2.473375 0.024422 -0.008188 -330284.000000 0 0 1
-25.114437 -4.977364 -30.770918 40.029470 0.195652 2.447613 0.015408 -0.006357 -328119.000000 0 0 1
-25.502237 -6.341864 -30.773728 40.467340 0.243735 2.434815 0.018733 -0.006857 650007.000000 0 0 1
-24.989797 -6.922664 -29.568638 39.328330 0.270243 2.421646 0.001849 -0.000609 -1560.970000 0 0 1
-25.255467 -8.447164 -29.491778 39.736106 0.322772 2.407130 -0.000321 -0.000354 -227940.000000 0 0 1
-26.604897 -8.741364 -29.237748 40.485527 0.317450 2.377742 0.017348 -0.002311 -312768.000000 0 0 1
-26.823457 -10.163764 -29.204778 40.935546 0.362197 2.365182 0.014386 -0.003945 268800.000000 0 0 1
-28.205037 -10.586764 -28.659678 41.581015 0.359078 2.331248 0.049187 0.000713 401634.000000 0 0 1
-28.110497 -11.493664 -27.585528 41.027621 0.388133 2.308195 0.048207 -0.008432 -579917.000000 0 0 1
-29.434917 -11.606464 -27.158928 41.698102 0.375591 2.280123 0.036838 -0.007792 -436517.000000 0 0 1
-29.597487 -12.309064 -25.832418 41.168411 0.394122 2.249111 0.022651 -0.006264 -176418.000000 0 0 1
-29.214837 -11.608664 -24.640128 39.942504 0.378224 2.235581 0.025069 0.000097 202978.000000 0 0 1
-28.973307 -12.526164 -23.605328 39.415337 0.408067 2.212907 0.010858 -0.001352 -181415.000000 0 0 1
-28.764747 -11.807564 -22.269928 38.246293 0.389514 2.192323 0.015387 -0.001144 35330.600000 0 0 1
-28.568057 -12.509164 -21.049028 37.625452 0.412723 2.164501 0.019345 0.001361 1175450.000000 0 0 1
-27.352337 -13.297564 -20.877828 36.889825 0.452513 2.172382 0.012241 0.001238 647581.000000 0 0 1
-27.200907 -13.589664 -19.376428 36.055710 0.463330 2.138150 -0.002173 -0.007013 -146226.000000 0 0 1
-26.711637 -12.504364 -18.612128 34.875234 0.437823 2.133739 0.001853 -0.008625 207263.000000 0 0 1
-26.630097 -12.901464 -17.231228 34.242153 0.451146 2.098114 0.012250 -0.009083 -33588.100000 0 0 1
-26.397167 -11.675764 -16.312928 33.154871 0.416442 2.085207 0.022785 -0.015203 -60775.300000 0 0 1
-25.111477 -11.134064 -16.544428 32.066676 0.417340 2.112899 0.005490 -0.004799 142401.000000 0 0 1
-25.058597 -9.778164 -16.087628 31.342583 0.372040 2.109803 0.013125 -0.003780 179527.000000 0 0 1
-23.677697 -9.049264 -16.010628 29.981039 0.365055 2.134151 0.012724 -0.003291 284016.000000 0 0 1
-22.787097 -9.626164 -15.110228 28.986786 0.399700 2.119146 0.008143 -0.012508 -494067.000000 0 0 1
-21.698097 -8.784264 -14.861728 27.727994 0.384672 2.136468 0.011185 -0.020381 377486.000000 0 0 1
-20.681097 -9.266764 -13.736128 26.500224 0.421255 2.115705 -0.001694 -0.010504 508810.000000 0 0 1
-19.934897 -10.357564 -14.178228 26.565041 0.479180 2.133787 -0.006934 0.003249 -280237.000000 0 0 1
-18.718197 -10.520464 -13.499428 25.363075 0.512044 2.132049 -0.000082 -0.000456 -63916.700000 0 0 1
-17.820397 -11.597164 -14.132228 25.529994 0.576924 2.157422 0.002135 0.006393 -327733.000000 0 0 1
-17.255997 -11.336564 -15.403928 25.759815 0.581255 2.211778 0.008457 0.001636 399278.000000 0 0 1
-18.149897 -11.517464 -16.509528 27.104155 0.565455 2.225740 0.005039 -0.000028 199250.000000 0 0 1
-17.446297 -11.063464 -17.823428 27.284576 0.565148 2.282655 0.007454 0.002161 -343682.000000 0 0 1
-18.137897 -11.235364 -18.999028 28.568860 0.554592 2.298325 -0.004488 0.004491 -478659.000000 0 0 1
-17.433697 -10.917864 -20.169428 28.808668 0.559498 2.346357 -0.003484 0.000575 -422464.000000 0 0 1
-18.264197 -11.195864 -21.426228 30.298704 0.549920 2.356279 0.002216 0.001275 739811.000000 0 0 1
-19.327297 -10.214964 -21.529728 30.682553 0.486207 2.348567 -0.014601 -0.002483 814355.000000 0 0 1
-20.425997 -10.690664 -22.304728 32.078225 0.482180 2.339666 -0.000467 0.005698 66753.200000 0 0 1
-21.288297 -9.540364 -22.768128 32.597512 0.421315 2.344043 -0.020426 -0.001254 -836644.000000 0 0 1
-20.692597 -8.733464 -23.744928 32.684531 0.399376 2.383994 -0.025385 -0.003062 -231806.000000 0 0 1
-21.592397 -8.239264 -24.687628 33.817097 0.364528 2.389168 -0.030371 -0.004739 -227999.000000 0 0 1
-20.858597 -7.351564 -25.760388 33.951791 0.338854 2.432164 -0.025920 -0.008260 166419.000000 0 0 1
-20.009997 -8.177064 -26.531108 34.222274 0.387940 2.457921 -0.017164 -0.017381 -163608.000000 0 0 1
-19.278997 -7.451364 -27.472518 34.379380 0.368816 2.496591 -0.024181 -0.027399 -274348.000000 0 0 1
-18.148597 -8.308164 -28.090818 34.459994 0.429309 2.523822 -0.001838 -0.026581 -250830.000000 0 0 1
-18.540497 -9.368464 -28.991728 35.665647 0.467877 2.519868 0.011505 -0.027222 42952.000000 0 0 1
-17.414497 -10.099664 -29.400638 35.632365 0.525552 2.541194 -0.001954 -0.018845 -178526.000000 0 0 1
-17.780697 -11.254364 -30.321368 36.907983 0.564299 2.534902 0.006924 -0.012197 -390809.000000 0 0 1
-18.067697 -10.936564 -31.683928 38.077833 0.544315 2.553649 -0.001266 -0.014062 266856.000000 0 0 1
-17.970497 -12.042164 -32.544058 39.077719 0.590381 2.554949 -0.000678 -0.008285 -500453.000000 0 0 1
-18.758697 -11.959664 -33.844628 40.501618 0.567575 2.560087 0.001554 -0.008563 13196.100000 0 0 1
-18.158997 -11.047364 34.522181 40.541021 0.546550 0.551886 -0.002491 -0.005950 181879.000000 0 0 1
-18.634297 -11.274864 33.169125 39.680605 0.544132 0.581021 -0.000535 -0.015307 11865.900000 0 0 1
-18.212097 -12.541864 32.396505 39.223875 0.603072 0.598932 -0.001985 -0.007046 185902.000000 0 0 1
-16.846197 -12.551964 31.999195 38.279167 0.640353 0.580948 0.009775 -0.008820 279940.000000 0 0 1
-16.517897 -13.422564 30.954165 37.565496 0.682381 0.602352 0.018073 -0.007888 18560.000000 0 0 1
-16.466897 -14.991864 31.269205 38.388512 0.738545 0.618850 0.016615 0.001208 -1118820.000000 0 0 1
-17.678897 -15.664264 31.047255 39.010827 0.725050 0.650366 -0.000612 0.002425 -276166.000000 0 0 1
-17.854697 -16.886964 31.707935 40.116741 0.757550 0.659348 0.017981 -0.003889 -399319.000000 0 0 1
-17.869997 -16.845964 33.276667 41.357706 0.755909 0.635784 -0.002852 -0.009199 52629.800000 0 0 1
-16.660097 -16.433364 33.919908 41.208912 0.778547 0.603912 0.008606 -0.007665 174998.000000 0 0 1
-16.864297 -16.119464 -33.998808 41.233003 0.762820 2.540208 0.008862 -0.002180 862662.000000 0 0 1
-15.564097 -15.511464 -33.338148 39.928420 0.783704 2.558834 -0.001933 0.000019 888119.000000 0 0 1
-15.377997 -14.115264 -33.692488 39.634672 0.742610 2.586926 -0.006246 -0.006180 -403668.000000 0 0 1
-14.385797 -13.434664 -32.977088 38.404813 0.751223 2.603467 0.000076 -0.000186 -309134.000000 0 0 1
-14.761097 -13.121464 -31.483978 37.165894 0.726661 2.581339 0.008083 -0.000093 -406146.000000 0 0 1
-14.922297 -14.279764 -30.744278 37.037781 0.763399 2.550045 0.010185 0.002991 -181488.000000 0 0 1
-15.336697 -13.974864 -29.429848 36.008708 0.738971 2.527503 0.003830 0.009814 -454082.000000 0 0 1
-15.446697 -15.217464 -28.518188 35.825392 0.777923 2.491508 0.010819 0.021968 657132.000000 0 0 1
-14.175597 -15.798864 -28.220568 35.312209 0.839500 2.496715 -0.000888 0.016087 321821.000000 0 0 1
-13.488697 -16.488064 -29.251818 36.186600 0.885123 2.512158 -0.005680 0.009242 -188310.000000 0 0 1
-12.007097 -16.689864 -28.839908 35.418388 0.947152 2.522256 -0.018784 0.019069 -195304.000000 0 0 1
-11.247997 -15.542364 -28.776878 34.585997 0.944341 2.553569 -0.027705 0.020710 66842.100000 0 0 1
-9.922197 -15.912164 -28.323058 33.968258 1.013233 2.556769 -0.024220 0.012359 1081010.000000 0 0 1
-9.015797 -14.660864 -28.403288 33.211026 1.019452 2.596804 -0.027416 0.016792 -243017.000000 0 0 1
-9.226297 -13.707864 -27.409488 32.004845 0.978377 2.599085 -0.023810 0.005480 37806.400000 0 0 1
-8.080397 -12.942464 -27.052098 31.058271 1.012677 2.628053 -0.009336 0.007414 -85615.800000 0 0 1
-7.812597 -11.582264 -27.805628 31.118137 0.977369 2.675989 -0.013427 -0.001234 -21241.400000 0 0 1
-7.426597 -11.710364 -29.207698 32.332284 1.005616 2.698337 -0.000200 -0.005970 276120.000000 0 0 1
-7.153997 -10.498064 -29.859568 32.449696 0.972623 2.739337 -0.007636 0.000503 -644395.000000 0 0 1
-6.391997 -10.551564 -31.152278 33.506082 1.026133 2.764529 -0.006112 0.011529 -873159.000000 0 0 1
-5.048997 -10.896864 -30.894138 33.146369 1.136901 2.770832 0.008087 0.011960 -67981.800000 0 0 1
-4.162797 -10.517064 -31.918878 33.863731 1.193904 2.801034 0.001233 0.011616 -174242.000000 0 0 1
-3.863297 -9.000264 -32.163278 33.621515 1.165338 2.845994 -0.010540 0.007115 -1205550.000000 0 0 1
-2.698297 -8.715464 -32.892048 34.133956 1.270557 2.871015 -0.017803 0.005319 -107794.000000 0 0 1
-2.692297 -7.311864 -33.144948 34.048486 1.217992 2.910703 -0.025254 0.002541 14115.200000 0 0 1
-1.313197 -6.926564 -33.708628 34.437964 1.383432 2.935421 -0.018855 0.000132 24915.800000 0 0 1
-1.061497 -7.319864 34.225641 35.015735 1.426784 0.212835 -0.012580 -0.009409 -970934.000000 0 0 1
0.110903 -6.722664 33.827707 34.489423 -1.554301 0.196203 -0.022794 0.010699 -761859.000000 0 0 1
0.716103 -7.275964 32.506125 33.318172 -1.472692 0.221234 -0.023377 0.012655 -258286.000000 0 0 1
0.075003 -6.913264 31.306665 32.060975 -1.559948 0.217349 -0.022000 0.018439 35667.900000 0 0 1
0.742003 -7.508964 30.257965 31.184604 -1.472300 0.244389 -0.010540 0.011783 103754.000000 0 0 1
0.144603 -6.943564 28.919285 29.741537 -1.549974 0.235690 -0.007590 0.006641 132550.000000 0 0 1
0.707703 -5.696764 28.633335 29.203113 -1.447201 0.197862 -0.000665 0.009738 167876.000000 0 0 1
0.312703 -5.283964 27.315645 27.823776 -1.511686 0.191407 0.004876 0.008284 -481134.000000 0 0 1
-0.937397 -4.410664 27.284885 27.654975 1.361383 0.163782 0.010091 0.011153 -731181.000000 0 0 1
-2.112297 -5.144864 27.386075 27.945098 1.181216 0.200357 0.010565 0.010539 -1352150.000000 0 0 1
-3.206197 -4.296664 27.271695 27.793639 0.929728 0.194105 0.001099 0.001602 26954.300000 0 0 1
-4.580497 -4.986164 27.554825 28.374481 0.827777 0.240945 -0.006752 0.004155 367675.000000 0 0 1
-5.065397 -5.731264 26.452615 27.536275 0.846994 0.281478 -0.008507 0.003734 -728130.000000 0 0 1
-6.306997 -6.243064 26.820545 28.250587 0.780304 0.319540 -0.012459 0.000008 -248500.000000 0 0 1
-6.417797 -7.807364 26.737725 28.584069 0.882773 0.361389 0.000545 -0.004624 40170.100000 0 0 1
-5.683397 -8.406464 27.772735 29.568470 0.976309 0.350304 0.001275 -0.004821 -156389.000000 0 0 1
-5.643397 -9.812964 27.756315 29.975910 1.048890 0.387242 0.003687 -0.008669 -97630.700000 0 0 1
-4.994097 -10.358564 29.000455 31.197231 1.121553 0.377513 0.003829 -0.016943 -120084.000000 0 0 1
-5.045397 -11.738464 28.953565 31.647377 1.164852 0.415585 0.009051 -0.020786 683478.000000 0 0 1
-4.143597 -12.327864 29.926515 32.630383 1.246543 0.409961 0.015289 -0.022728 445548.000000 0 0 1
-4.304997 -13.899464 29.842175 33.200655 1.270443 0.453674 0.024416 -0.022639 -228649.000000 0 0 1
-5.421697 -14.352464 30.555585 34.191107 1.209614 0.465337 0.049921 -0.035142 -291135.000000 0 0 1
-5.413197 -15.752664 30.552635 34.798170 1.239801 0.499138 0.035010 -0.033952 -48194.200000 0 0 1
-5.688097 -16.479264 31.877545 36.333159 1.238434 0.500448 0.033680 -0.026219 -1007460.000000 0 0 1
-7.007697 -16.689764 32.183095 36.924350 1.173270 0.512349 0.031788 -0.025387 -1446850.000000 0 0 1
-7.196197 -16.837764 33.522946 38.197951 1.166908 0.499940 0.025405 -0.016327 -576671.000000 0 0 1
-8.614097 -17.220664 33.944451 39.025372 1.106974 0.515990 0.020205 -0.011122 -341841.000000 0 0 1
-8.976097 -18.557064 33.621917 39.438157 1.120272 0.550004 0.012487 -0.010413 -87150.100000 0 0 1
-9.568297 -18.650964 32.312375 38.516235 1.096788 0.575485 0.016227 -0.016918 -208261.000000 0 0 1
-10.312097 -20.011964 32.172035 39.266498 1.094986 0.610563 0.024212 -0.024916 -459975.000000 0 0 1
-11.421997 -20.282464 32.952015 40.344462 1.057916 0.615012 0.025054 -0.015892 -392543.000000 0 0 1
-11.852197 -21.633564 32.847435 41.078457 1.069596 0.644123 0.016260 -0.015097 -164120.000000 0 0 1
-11.109497 -22.656764 33.780162 42.164549 1.114907 0.641581 0.020958 -0.012009 -409746.000000 0 0 1
-9.784997 -22.943364 33.354865 41.649623 1.167669 0.642093 0.008595 -0.008063 5995.400000 0 0 1
-9.095897 -23.726164 34.312177 42.696507 1.204708 0.637427 0.005032 -0.006256 390384.000000 0 0 1
-9.664597 -25.197854 34.540894 43.833887 1.204552 0.663250 0.016822 -0.001153 -288839.000000 0 0 1
-9.353397 -26.003194 33.447703 43.386645 1.225505 0.690509 0.009623 0.005157 -86297.200000 0 0 1
-9.106197 -27.334594 33.878761 44.473287 1.249221 0.704743 0.014153 0.008631 -249522.000000 0 0 1
-8.317797 -28.214374 32.866585 44.107245 1.284110 0.730034 0.031470 0.005494 388536.000000 0 0 1
-6.986597 -27.816134 32.625715 43.439465 1.324716 0.721128 0.017878 -0.004658 -270760.000000 0 0 1
-5.998097 -28.513304 33.334282 44.273695 1.363458 0.718318 0.026102 -0.004211 -491935.000000 0 0 1
-4.584297 -27.956104 33.254801 43.685711 1.408261 0.705591 0.018674 -0.003848 -405483.000000 0 0 1
-4.303797 -26.791434 33.957369 43.467304 1.411516 0.674184 0.011637 0.003178 806.781000 0 0 1
-4.646497 -25.588904 33.311486 42.261531 1.391171 0.662881 0.015426 0.007082 -150475.000000 0 0 1
-4.368497 -24.371864 34.182951 42.208360 1.393436 0.626879 0.004355 0.008251 -423377.000000 0 0 1
-3.007897 -24.146664 34.368409 42.110526 1.446867 0.616084 -0.007960 0.009363 -502797.000000 0 0 1
-2.908997 -23.070364 -33.954208 41.153277 1.445366 2.541117 -0.008848 0.009949 22493.200000 0 0 1
33.399012 -15.990664 2.530272 37.116002 -0.446525 1.502571 0.038601 -0.023779 -199043.000000 0 0 1
34.130745 -16.172464 3.722072 37.951418 -0.442500 1.472564 0.038709 -0.020144 708328.000000 0 0 1
33.306912 -16.463364 4.855872 37.469617 -0.459071 1.440836 0.051541 -0.030787 204965.000000 0 0 1
34.254951 -16.502564 6.041872 38.499876 -0.448947 1.413213 0.047869 -0.010940 -182877.000000 0 0 1
-34.710303 -17.475064 5.942972 39.312872 0.466408 1.419043 0.057480 -0.013797 -598521.000000 0 0 1
-33.819977 -17.513764 7.018872 38.727088 0.477828 1.388550 0.047817 -0.012956 -246171.000000 0 0 1
-32.655257 -18.470464 6.740272 38.117648 0.514756 1.393033 0.038591 -0.019827 -384542.000000 0 0 1
-32.865787 -19.841264 6.892972 39.004471 0.543140 1.393141 0.062129 -0.029538 -515917.000000 0 0 1
-31.662147 -20.433764 7.240472 38.372577 0.573113 1.380970 0.039508 -0.024590 -482944.000000 0 0 1
-31.841197 -21.945164 7.546672 39.400562 0.603445 1.378068 0.028742 -0.020601 -201824.000000 0 0 1
-31.969347 -22.733664 6.369372 39.742012 0.618142 1.409834 0.042207 -0.021439 270536.000000 0 0 1
-32.057147 -24.080664 6.726172 40.654402 0.644255 1.404585 0.057031 -0.020144 -217607.000000 0 0 1
-31.593707 -25.021764 5.552972 40.682754 0.669835 1.433874 0.058059 -0.016920 -28893.200000 0 0 1
-32.172367 -24.762764 4.270972 40.822749 0.655984 1.465982 0.054281 -0.014392 130535.000000 0 0 1
-31.561507 -25.525144 3.261972 40.722256 0.680049 1.490607 0.047353 -0.012821 -211069.000000 0 0 1
-32.104177 -25.231064 1.869372 40.875167 0.666092 1.525047 0.040284 -0.010187 -508898.000000 0 0 1
-33.280177 -25.932044 1.568972 42.219696 0.661931 1.533626 0.043602 -0.007733 47120.000000 0 0 1
-33.893977 -25.572844 0.314972 42.460231 0.646372 1.563378 0.034278 0.004286 18759.200000 0 0 1
-34.804483 -24.309164 0.269772 42.454214 0.609684 1.564442 0.044577 -0.000942 31580.800000 0 0 1
33.800362 -24.707964 0.567472 41.872067 -0.631228 1.557243 0.040576 -0.000317 174363.000000 0 0 1
33.028352 -23.527964 0.741472 40.558438 -0.618971 1.552514 0.047871 0.000695 368054.000000 0 0 1
31.519572 -23.781064 0.471072 39.487268 -0.646366 1.558866 0.017728 0.009877 278766.000000 0 0 1
31.292202 -23.733664 -0.946228 39.285927 -0.648889 1.594884 0.024702 -0.001790 113807.000000 0 0 1
29.933532 -23.546664 -1.279828 38.106426 -0.666536 1.604388 0.010067 0.008884 162557.000000 0 0 1
29.785412 -23.265964 -2.797728 37.898590 -0.663122 1.644685 -0.008394 0.020843 -56111.800000 0 0 1
30.414242 -22.029364 -3.087028 37.680880 -0.626856 1.652814 0.007871 0.002802 244585.000000 0 0 1
30.418622 -21.665464 -4.499728 37.615588 -0.618896 1.690707 0.003421 -0.022949 -191917.000000 0 0 1
30.418502 -20.131964 -4.715428 36.780654 -0.584649 1.699354 0.022523 -0.024021 -121710.000000 0 0 1
29.202642 -19.593564 -4.245828 35.422155 -0.590963 1.690949 0.007979 -0.020189 -149464.000000 0 0 1
28.971872 -18.199064 -4.577928 34.518585 -0.560871 1.703810 0.004563 -0.017770 317968.000000 0 0 1
27.837812 -17.744564 -3.590628 33.207016 -0.567486 1.679137 0.002625 -0.014558 107128.000000 0 0 1
28.196352 -17.529264 -2.233128 33.276061 -0.556212 1.637956 0.000186 -0.006681 42617.400000 0 0 1
28.824002 -18.621464 -1.547628 34.350795 -0.573587 1.615865 -0.000891 0.011539 131592.000000 0 0 1
27.846732 -19.833764 -1.254828 34.211011 -0.618899 1.607484 -0.015880 0.013100 629529.000000 0 0 1
26.855302 -19.457064 -0.287028 33.164242 -0.626990 1.579451 -0.021680 0.030258 320825.000000 0 0 1
26.110262 -20.642964 -0.002128 33.284797 -0.668987 1.570860 -0.038341 0.033160 -74760.300000 0 0 1
25.021222 -20.526264 1.095872 32.381939 -0.687029 1.536948 -0.045245 0.037235 -464742.000000 0 0 1
24.406282 -21.756964 1.462572 32.728752 -0.728071 1.526094 -0.044359 0.041982 529136.000000 0 0 1
23.585082 -21.639764 2.650272 32.117899 -0.742410 1.488185 -0.058653 0.049097 866435.000000 0 0 1
22.146582 -21.045264 2.474772 30.651243 -0.759905 1.489969 -0.054728 0.042389 -725944.000000 0 0 1
22.066182 -19.634464 2.183972 29.617533 -0.727150 1.496990 -0.031726 0.023065 69772.000000 0 0 1
22.364882 -18.806764 3.266172 29.403234 -0.699191 1.459485 -0.024030 0.030057 -880394.000000 0 0 1
22.623382 -17.342764 2.857872 28.648845 -0.654032 1.470875 -0.028349 0.033987 -388061.000000 0 0 1
21.459982 -16.892964 2.234272 27.402464 -0.666878 1.489170 -0.020482 0.026876 -362741.000000 0 0 1
21.604582 -15.630064 1.672872 26.718072 -0.626298 1.508143 -0.000312 0.009517 271610.000000 0 0 1
20.244882 -15.142364 1.053472 25.303285 -0.642194 1.529150 0.006302 0.006164 312491.000000 0 0 1
19.387182 -15.005964 2.163372 24.611419 -0.658694 1.482782 0.017060 0.006809 351629.000000 0 1 0
18.187582 -14.243464 1.978872 23.185779 -0.664377 1.485344 0.021453 0.001177 543639.000000 0 1 0
18.446982 -12.790064 2.384372 22.573482 -0.606243 1.464972 0.015179 0.000751 -18877.900000 0 1 0
19.185182 -12.058664 1.367172 22.701360 -0.561141 1.510536 0.005297 -0.002323 676102.000000 0 1 0
19.810782 -10.901664 1.871272 22.689535 -0.503065 1.488230 0.011260 -0.004366 156411.000000 0 1 0
20.643882 -10.206864 0.770372 23.042209 -0.459178 1.537357 0.012172 -0.001638 128213.000000 0 1 0
19.724682 -9.797064 -0.222928 22.024877 -0.460997 1.580918 0.000645 0.004054 761478.000000 0 1 0
20.366282 -8.964364 -1.158128 22.281977 -0.414639 1.622796 -0.004790 0.012672 -114140.000000 0 1 0
19.811582 -9.136664 -2.610028 21.972475 -0.432111 1.689864 -0.004193 0.012823 -405610.000000 0 1 0
20.432282 -8.270864 -3.501428 22.319169 -0.384632 1.728327 -0.005896 0.011639 636005.000000 0 1 0
21.588982 -8.812064 -4.142728 23.683302 -0.387533 1.746623 -0.005852 0.015304 -381079.000000 0 1 0
21.408282 -9.883364 -5.269028 24.161086 -0.432509 1.790642 -0.003258 0.009882 -730612.000000 0 1 0
20.816982 -9.426364 -6.436028 23.740799 -0.425197 1.845327 -0.002562 -0.001424 -43590.300000 0 1 0
19.411982 -9.482164 -6.395028 22.530709 -0.454381 1.858589 -0.010820 0.008997 -589487.000000 0 1 0
18.775482 -9.359464 -7.817628 22.388247 -0.462442 1.927497 -0.006129 0.007956 -383540.000000 0 1 0
18.844182 -10.559664 -8.552928 23.232784 -0.510768 1.947805 -0.005492 0.009769 528905.000000 0 1 0
20.096282 -10.878964 -9.119628 24.604471 -0.496172 1.950504 0.006195 0.009685 -302356.000000 0 1 0
20.145482 -12.259964 -9.761428 25.523178 -0.546698 1.963246 0.008336 0.005450 -407134.000000 0 0 1
19.188682 -12.420664 -10.766728 25.266595 -0.574469 2.011001 0.015078 0.005120 124958.000000 0 0 1
18.911582 -13.823264 -10.900928 25.837198 -0.631192 2.006345 0.010943 0.006714 -112594.000000 0 0 1
17.819082 -14.082564 -11.973528 25.674962 -0.668803 2.055957 0.025842 0.007469 106920.000000 0 0 1
17.458482 -15.444764 -12.100328 26.263230 -0.724273 2.049617 0.022948 0.002174 181579.000000 0 0 1
16.476182 -15.613464 -13.105028 26.210429 -0.758520 2.094387 0.024485 -0.000450 -339119.000000 0 0 1
16.349082 -17.147064 -13.498328 27.267547 -0.809217 2.088669 0.023270 -0.007373 -476122.000000 0 0 1
15.610082 -17.932364 -12.582828 26.899292 -0.854522 2.057569 0.023534 -0.000642 173521.000000 0 0 1
15.723382 -19.281964 -12.935428 28.041829 -0.886708 2.050245 0.015811 0.003388 -194076.000000 0 0 1
14.716782 -20.123364 -12.093728 27.709054 -0.939353 2.022450 0.008869 0.004494 671270.000000 0 0 1
13.378682 -19.924364 -12.556028 27.085480 -0.979473 2.052817 0.008370 0.002818 -52444.700000 0 0 1
12.509382 -20.688664 -11.760728 26.885315 -1.026965 2.023547 0.006425 0.004042 -49318.100000 0 0 1
11.028382 -20.266664 -11.831628 25.929718 -1.072445 2.044624 -0.000777 0.005671 79469.000000 0 0 1
10.232382 -21.118064 -11.055828 25.940424 -1.119599 2.011085 0.002114 0.004840 768111.000000 0 0 1
8.815982 -20.843264 -11.142928 25.225543 -1.170650 2.028325 -0.005382 0.012722 930267.000000 0 0 1
7.962582 -21.531464 -10.096828 25.078927 -1.216582 1.985154 -0.001747 0.003784 -553758.000000 0 0 1
7.890282 -22.966064 -10.090128 26.296527 -1.239868 1.964602 0.002508 0.002028 6213.560000 0 0 1
7.099582 -23.581864 -9.077828 26.247197 -1.278366 1.923950 0.005445 -0.021867 186644.000000 0 0 1
7.039082 -25.104754 -9.280028 27.675192 -1.297428 1.912741 0.020809 -0.010198 475036.000000 0 0 1
8.270782 -25.748154 -8.986628 28.497943 -1.259989 1.891614 0.015661 -0.002117 -146917.000000 0 0 1
8.309982 -27.040174 -9.581128 29.866785 -1.272638 1.897365 -0.001919 0.007428 -496983.000000 0 0 1
9.698082 -27.647854 -9.579628 30.825734 -1.233434 1.886796 0.000847 0.017138 -479645.000000 0 0 1
10.304082 -27.762614 -8.309628 30.756898 -1.215406 1.844367 0.015527 0.017096 -514105.000000 0 0 1
11.650282 -28.125684 -8.479028 31.601853 -1.178090 1.842432 0.027425 0.024741 -323366.000000 0 0 1
12.394182 -28.395104 -7.168528 31.800715 -1.159234 1.798171 0.018709 0.010906 -216513.000000 0 0 1
11.905282 -29.448724 -6.383828 32.399326 -1.186613 1.769130 0.036071 0.000420 -29785.800000 0 0 1
10.720782 -29.325214 -5.625628 31.726188 -1.220308 1.749057 0.037436 0.007216 52596.600000 0 0 1
10.474182 -30.403004 -4.534528 32.474807 -1.239019 1.710886 0.057343 -0.002914 2689.350000 0 0 1
10.385582 -31.751824 -5.006528 33.780230 -1.254679 1.719553 0.057025 -0.001912 247331.000000 0 0 1
9.201782 -32.169054 -5.707828 33.942601 -1.292191 1.739760 0.056656 -0.001947 665222.000000 0 0 1
9.356782 -33.655394 -6.194828 35.476905 -1.299627 1.746312 0.042686 -0.003527 68731.100000 0 0 1
9.183882 -34.556117 -5.089028 36.116023 -1.311034 1.712175 0.037718 -0.008941 -63687.200000 0 0 1
9.420082 33.434721 -5.560628 35.178674 1.296170 1.729530 0.034205 -0.004094 100194.000000 0 0 1
9.093382 32.326891 -4.455128 33.875738 1.296587 1.702692 0.025429 0.002368 -414392.000000 0 0 1
7.730882 32.106311 -4.224428 33.293055 1.334504 1.698025 0.033208 -0.004673 -844556.000000 0 0 1
7.452282 31.034221 -3.317628 32.088410 1.335127 1.674372 0.006656 -0.003822 -45256.500000 0 0 1
6.125482 30.313841 -3.610128 31.136530 1.371412 1.687003 0.005753 -0.006872 21817.400000 0 0 1
6.007782 29.704231 -4.906028 30.700226 1.371235 1.731289 -0.012418 -0.009573 -183019.000000 0 0 1
5.349182 30.579271 -5.803728 31.581463 1.397620 1.755617 0.011964 -0.015588 -211864.000000 0 0 1
5.144582 29.908501 -7.192828 31.188490 1.400453 1.803516 0.027424 -0.022997 187274.000000 0 0 1
4.275582 28.779581 -7.373528 30.015226 1.423312 1.818996 0.027633 -0.022909 235019.000000 0 0 1
4.742182 27.569121 -6.801128 28.788888 1.400453 1.809292 0.013078 -0.017835 -261045.000000 0 0 1
4.064482 26.299941 -7.392928 27.619962 1.417466 1.841766 0.010289 -0.020098 1024410.000000 0 0 1
2.671582 26.145341 -7.089328 27.220852 1.468968 1.834272 0.008871 -0.021774 496949.000000 0 0 1
1.698682 26.742841 -7.935228 27.946966 1.507362 1.858696 0.022918 -0.028066 316670.000000 0 0 1
1.254482 25.933021 -9.192028 27.542489 1.522460 1.911065 0.045013 -0.030098 885284.000000 0 0 1
2.354782 25.687481 -10.165928 27.726121 1.479381 1.946208 0.032744 -0.028741 1165390.000000 0 0 1
2.100082 24.932471 -11.352628 27.475819 1.486764 1.996746 0.035782 -0.023133 -508566.000000 0 0 1
1.922982 23.437491 -11.059128 25.986884 1.488932 2.010383 0.040466 -0.024109 -385590.000000 0 0 1
0.858282 23.045891 -10.243328 25.234411 1.533571 1.988789 0.050679 -0.027737 -313929.000000 0 0 1
0.889082 21.631991 -10.130928 23.903330 1.529719 2.008465 0.025410 -0.026203 232001.000000 0 1 0
-0.361018 21.030491 -9.383528 23.031771 -1.553632 1.990420 0.036334 -0.020236 1122920.000000 0 1 0
-1.621818 21.032391 -10.049628 23.366360 -1.493838 2.015388 0.047385 -0.022882 517358.000000 0 1 0
-2.651218 20.554091 -9.173528 22.663919 -1.442517 1.987517 0.038730 -0.018647 6282.700000 0 1 0
-3.884118 20.151191 -9.940528 22.802872 -1.380383 2.021871 0.035098 -0.028976 -341942.000000 0 1 0
-4.981918 19.620491 -9.223028 22.245166 -1.322137 1.998309 0.028392 -0.029252 149772.000000 0 1 0
-6.004118 19.135291 -10.047628 22.431309 -1.266753 2.035244 0.028173 -0.029585 -1242230.000000 0 1 0
-6.930918 18.129791 -9.389428 21.561269 -1.205646 2.021364 0.028330 -0.025245 -217269.000000 0 1 0
-7.835618 18.639691 -8.418228 21.902090 -1.172852 1.965308 0.031023 -0.022745 -6282.580000 0 1 0
-8.995718 19.165491 -9.031028 23.017351 -1.131951 1.973989 0.027209 -0.022939 -936217.000000 0 1 0
-10.146418 19.300291 -8.043628 23.241149 -1.086790 1.924201 0.040833 -0.022444 -382239.000000 0 1 0
-10.511918 18.079091 -7.445128 22.198736 -1.044135 1.912810 0.043899 -0.023237 -244442.000000 0 1 0
-11.454318 18.335991 -6.407228 22.549114 -1.012420 1.858911 0.047586 -0.021009 -319778.000000 0 1 0
-11.863518 17.068091 -5.615528 21.531302 -0.963387 1.834655 0.044720 -0.030095 -195010.000000 0 1 0
-12.678818 17.435891 -4.535728 22.030333 -0.942069 1.778165 0.045388 -0.031590 -243507.000000 0 1 0
-13.136018 16.357391 -3.829628 21.325695 -0.894190 1.751354 0.051595 -0.029479 -521892.000000 0 1 0
-14.370718 16.769091 -3.018828 22.289757 -0.862266 1.706649 0.043827 -0.027354 -421620.000000 0 1 0
-15.504118 16.970291 -3.817928 23.301181 -0.830516 1.735390 0.053867 -0.033676 -421971.000000 0 1 0
-16.626318 17.316491 -3.052428 24.199435 -0.805729 1.697270 0.052500 -0.031649 647400.000000 0 1 0
-17.993518 17.214991 -3.849228 25.197999 -0.763290 1.724156 0.049232 -0.036551 636317.000000 0 0 1
-18.000018 18.073791 -4.954728 25.984840 -0.787443 1.762649 0.053622 -0.037893 333153.000000 0 0 1
-19.307518 18.546691 -5.265628 27.285286 -0.765302 1.764999 0.028350 -0.033326 166792.000000 0 0 1
-19.253718 19.451391 -6.523028 28.135603 -0.790505 1.804768 0.007932 -0.012578 -117977.000000 0 0 1
-18.689618 20.741791 -6.252728 28.611542 -0.837395 1.791113 0.016040 -0.008555 209411.000000 0 0 1
-18.447018 21.424091 -7.434728 29.232847 -0.859927 1.827949 0.001455 0.002176 -49965.700000 0 0 1
-18.293318 22.897891 -7.045528 30.142966 -0.896721 1.806716 0.006132 0.002100 1144990.000000 0 0 1
-16.975318 23.201591 -6.514328 29.477309 -0.939147 1.793631 0.019494 -0.002360 1221130.000000 0 0 1
-17.015818 24.464551 -5.871528 30.373132 -0.963077 1.765334 0.020162 -0.001269 159825.000000 0 0 1
-15.618318 24.956321 -5.419328 29.935246 -1.011603 1.752835 0.026959 -0.003883 51072.200000 0 0 1
-15.656418 25.961441 -4.426028 30.638368 -1.028127 1.715764 0.018131 -0.007790 -291380.000000 0 0 1
-14.382718 26.490221 -4.183928 30.431886 -1.073386 1.708718 0.019708 -0.007934 122373.000000 0 0 1
-13.857718 27.667711 -5.100828 31.361713 -1.106459 1.734167 0.021759 -0.004582 407116.000000 0 0 1
-14.637418 28.829891 -4.742128 32.678807 -1.100994 1.716424 0.015827 -0.011268 306268.000000 0 0 1
-14.031418 30.050391 -5.136228 33.560208 -1.133953 1.724445 0.012883 -0.009100 -365268.000000 0 0 1
-14.678318 31.288371 -4.477828 34.849191 -1.132148 1.699644 0.017327 -0.012643 108393.000000 0 0 1
-15.936218 31.654461 -5.007128 35.791609 -1.104398 1.711153 0.029163 -0.011045 -255644.000000 0 0 1
-16.395218 32.690641 -4.173828 36.808994 -1.105928 1.684432 0.031438 -0.011988 -177954.000000 0 0 1
12.364803 -8.786764 18.827155 24.177621 -0.617823 0.678202 0.020596 0.000073 -17356.300000 0 1 0
13.026003 -9.944964 19.327055 25.339971 -0.652066 0.703303 0.035548 -0.001774 79279.600000 0 0 1
13.316003 -10.855164 18.345255 25.133621 -0.683939 0.752608 0.029545 -0.006363 -170114.000000 0 0 1
13.829903 -12.210264 18.850355 26.375986 -0.723280 0.774632 0.042983 -0.013093 -96361.000000 0 0 1
15.153603 -12.254164 19.378355 27.483029 -0.680001 0.788229 0.038396 -0.003161 663886.000000 0 0 1
15.317803 -13.362564 20.274555 28.709768 -0.717330 0.786694 0.036648 -0.014350 -229171.000000 0 0 1
15.624403 -14.705664 19.510055 29.000358 -0.755116 0.832874 0.029202 -0.012828 -501095.000000 0 0 1
14.643503 -15.081664 18.561355 28.043051 -0.800137 0.847462 0.029410 -0.012302 270853.000000 0 0 1
15.046803 -16.208964 17.836055 28.412351 -0.822563 0.892128 0.027117 -0.015138 -299917.000000 0 0 1
14.410103 -16.351664 16.432755 27.295850 -0.848431 0.924763 0.016495 -0.014687 -179751.000000 0 0 1
13.002203 -16.467464 16.488155 26.685088 -0.902448 0.904754 0.022760 -0.019192 -19012.400000 0 0 1
12.401903 -16.426364 15.156055 25.560490 -0.924103 0.936081 0.017289 -0.014434 155766.000000 0 0 1
11.908903 -17.803964 14.790555 26.030053 -0.981256 0.966467 0.010303 -0.001281 -241842.000000 0 0 1
12.961003 -18.706464 14.515455 26.992922 -0.964877 1.003030 0.004807 -0.005138 349155.000000 0 0 1
12.416203 -19.890164 13.984855 27.301225 -1.012745 1.033002 0.014228 -0.009337 -102481.000000 0 0 1
13.482703 -20.773464 13.298655 28.110040 -0.995100 1.077998 0.012900 -0.008968 -45311.400000 0 0 1
14.372103 -21.417164 14.186155 29.436360 -0.979762 1.067945 0.018788 -0.013677 17712.600000 0 0 1
14.893803 -22.621064 13.668655 30.337601 -0.988536 1.103413 0.004837 -0.014567 -152113.000000 0 0 1
15.713503 -23.360164 14.743655 31.780290 -0.978654 1.088376 0.012872 -0.013369 -32277.100000 0 0 1
17.033103 -22.884864 14.877755 32.174388 -0.930956 1.090085 -0.016875 -0.015491 -422226.000000 0 0 1
17.591303 -23.369764 16.076755 33.377566 -0.925545 1.068244 -0.008334 -0.012345 -490977.000000 0 0 1
19.054803 -22.942064 16.224755 33.950943 -0.877696 1.072547 -0.031019 -0.022042 -496104.000000 0 0 1
19.847703 -23.576464 15.278955 34.398073 -0.871056 1.110537 -0.023549 -0.017570 -2219530.000000 0 0 1
21.115603 -23.082464 15.346055 34.844946 -0.829870 1.114741 -0.025449 -0.012947 -984326.000000 0 0 1
22.142603 -24.063364 14.696355 35.851405 -0.826944 1.148425 -0.027539 -0.015132 54374.400000 0 0 1
22.371803 -25.169794 15.589855 37.108755 -0.844184 1.137227 -0.019055 -0.015439 146323.000000 0 0 1
23.399703 -26.017674 15.121555 38.119902 -0.838325 1.162895 -0.011446 -0.014998 -113848.000000 0 0 1
23.833403 -27.018114 16.199755 39.502426 -0.847944 1.148238 0.003544 -0.015686 99419.500000 0 0 1
24.572803 -26.534804 17.342555 40.108387 -0.823769 1.123652 0.000670 -0.006725 321951.000000 0 0 1
24.966403 -27.609664 18.115855 41.398056 -0.835631 1.117867 0.013410 0.001955 134377.000000 0 0 1
25.362603 -27.219184 19.538855 42.022762 -0.820692 1.087208 0.010795 0.002310 851542.000000 0 0 1
24.162703 -26.830454 20.252755 41.399077 -0.837666 1.059615 0.020331 0.006501 932375.000000 0 0 1
24.402903 -26.452694 21.575255 41.961153 -0.825682 1.030754 0.019528 0.007715 445117.000000 0 0 1
23.096203 -26.496314 22.446855 41.705522 -0.853852 1.002470 0.035238 -0.002707 591893.000000 0 0 1
22.743203 -27.813604 22.672055 42.483785 -0.885355 1.007869 0.033021 0.000879 706288.000000 0 0 1
21.454003 -27.999054 23.288255 42.267767 -0.916982 0.987271 0.033362 -0.000987 662140.000000 0 0 1
21.147503 -29.477104 23.316855 43.125309 -0.948474 0.999555 0.060397 0.000539 82781.400000 0 0 1
22.177903 -30.262304 23.939155 44.505613 -0.938358 1.002863 0.048773 -0.005317 769453.000000 0 0 1
22.108903 -31.610424 23.480755 45.159366 -0.960461 1.024000 0.055981 -0.010874 191720.000000 0 0 1
23.053203 -32.448534 24.423635 46.699802 -0.953088 1.020438 0.032104 -0.005833 335938.000000 0 0 1
22.662103 -32.443694 25.784765 47.233657 -0.961074 0.993336 0.031242 -0.008399 727939.000000 0 0 1
23.763103 -32.766924 26.653195 48.463896 -0.943346 0.988480 0.028190 -0.003803 169104.000000 0 0 1
23.256603 -33.097624 28.108225 49.258447 -0.958283 0.963527 0.017836 -0.008235 253831.000000 0 0 1
22.611503 -34.322471 28.411705 49.965359 -0.988263 0.965959 0.014376 -0.004946 -406059.000000 0 0 1
21.394203 -34.523640 27.786115 49.210384 -1.016019 0.970800 0.026222 -0.008837 -1415740.000000 0 0 1
20.682803 33.520331 28.194985 48.439118 1.017954 0.949524 0.051683 -0.027218 -472741.000000 0 0 1
20.326203 33.645604 29.541005 49.171660 1.027348 0.926329 0.039118 -0.021336 130658.000000 0 0 1
19.918103 32.391911 30.104785 48.500153 1.019486 0.901142 0.048021 -0.023805 76497.600000 0 0 1
19.539403 32.583071 31.619635 49.429203 1.030612 0.876694 0.028960 -0.021865 353757.000000 0 0 1
20.714803 32.874121 32.366785 50.570937 1.008520 0.876262 0.017447 -0.012558 517387.000000 0 0 1
20.433603 33.175381 33.678657 51.501359 1.018748 0.858019 -0.000875 -0.013908 -856610.000000 0 0 1
21.721703 33.138601 34.456735 52.509674 0.990578 0.855027 -0.013321 0.000321 -677968.000000 0 0 1
22.076203 31.800601 -34.521731 51.868939 0.963969 2.299036 -0.012236 0.001858 -40576.800000 0 0 1
23.182503 31.808261 -33.644708 51.779922 0.940989 2.278070 -0.010752 0.007474 -183864.000000 0 0 1
23.555103 30.371691 -33.348628 50.886280 0.911136 2.285450 -0.008328 0.012725 -181699.000000 0 0 1
24.046303 29.580731 -34.423929 51.363910 0.888236 2.305270 0.000886 0.005917 -59922.100000 0 0 1
23.187603 28.505141 34.585928 50.461812 0.887906 0.815660 0.006555 -0.005467 -366268.000000 0 0 1
23.372703 27.786081 33.282472 49.255177 0.871453 0.828862 0.027440 -0.016955 -696629.000000 0 0 1
24.555203 27.066241 33.178585 49.359476 0.834003 0.833643 0.018325 -0.017731 -107195.000000 0 0 1
24.571203 26.284971 31.954345 48.121969 0.819084 0.844603 0.035325 -0.030489 -705667.000000 0 0 1
25.747703 25.307951 31.880795 48.164527 0.776785 0.847426 0.022527 -0.019032 -421672.000000 0 0 1
25.871003 24.362991 32.972395 48.477242 0.755387 0.822812 0.033719 -0.018240 394156.000000 0 0 1
26.766803 24.842301 33.958304 49.867505 0.748125 0.821709 0.033918 -0.024265 -1337180.000000 0 0 1
26.592703 24.061091 -33.968358 49.395924 0.735461 2.329079 0.033991 -0.021519 -841334.000000 0 0 1
25.455603 24.378881 -33.186498 48.411375 0.763796 2.326101 0.032915 -0.016755 1583000.000000 0 0 1
24.171203 23.978691 -33.744048 47.936265 0.781400 2.351720 0.029996 -0.008716 453783.000000 0 0 1
23.841703 22.502191 -33.779198 47.072387 0.756502 2.371148 0.013689 -0.005633 -826066.000000 0 0 1
23.615503 22.002491 -32.446498 45.766547 0.750054 2.358814 -0.001300 -0.018391 395441.000000 0 0 1
23.462203 20.587491 -32.527828 45.081918 0.720230 2.376802 0.000156 -0.003045 -152618.000000 0 0 1
23.350203 19.850591 -31.160448 43.706424 0.704567 2.364491 0.007931 -0.016851 652746.000000 0 0 1
22.094003 20.102991 -30.498448 42.689935 0.738249 2.366588 0.008228 -0.009359 819964.000000 0 0 1
22.046603 19.367191 -29.287598 41.459669 0.720790 2.355212 0.010121 -0.007914 367237.000000 0 0 1
20.789603 19.556691 -28.375448 40.247209 0.754849 2.353260 0.026941 -0.010492 264786.000000 0 0 1
20.842403 18.838491 -27.184098 39.093090 0.734940 2.339729 0.026654 -0.003944 201669.000000 0 0 1
21.705203 19.416691 -26.200328 39.173727 0.729804 2.303422 0.026182 0.001736 172319.000000 0 0 1
21.919703 18.495091 -25.006528 38.050864 0.700864 2.287877 0.028578 0.008908 -154082.000000 0 0 1
22.746603 17.405791 -25.312408 38.224174 0.653161 2.294560 0.028272 -0.008149 7179.870000 0 0 1
22.869203 16.633691 -24.135428 37.177937 0.628840 2.277311 0.023654 -0.002271 -11827.000000 0 0 1
23.820403 15.408391 -24.193328 37.284678 0.574162 2.276909 0.046769 -0.010649 499275.000000 0 0 1
25.202803 15.613091 -23.928128 38.098625 0.554633 2.249851 0.060090 -0.016574 544041.000000 0 0 1
25.959603 14.454191 -23.580228 37.932200 0.508046 2.241633 0.059492 -0.027003 19221.500000 0 0 1
25.869803 13.905291 -22.140128 36.780281 0.493204 2.216745 0.063060 -0.020273 -678985.000000 0 0 1
24.665203 13.208191 -22.030328 35.611289 0.491642 2.237798 0.053984 -0.016856 -434363.000000 0 0 1
24.467003 12.577191 -20.802028 34.489772 0.474822 2.218223 0.045855 -0.022833 592949.000000 0 0 1
23.012003 11.988091 -20.706828 33.196978 0.480266 2.244336 0.035054 -0.015055 257260.000000 0 0 1
22.041003 12.954991 -20.809028 32.964424 0.531377 2.253969 0.047191 -0.012104 -767036.000000 0 0 1
20.835203 12.375991 -21.293928 32.259917 0.535992 2.291713 0.034847 -0.012606 417644.000000 0 0 1
19.681703 13.415691 -21.309928 31.960338 0.598292 2.300651 0.038823 -0.007705 -303606.000000 0 0 1
20.105203 14.576691 -22.058328 33.215493 0.627322 2.297082 0.033389 0.000823 -38011.000000 0 0 1
19.348103 15.704091 -21.846528 33.139679 0.681811 2.290585 0.022769 0.004820 -14984.000000 0 0 1
17.942903 15.808491 -22.528128 32.853808 0.722243 2.326373 0.026761 0.008351 489141.000000 0 0 1
16.962503 14.932891 -21.971228 31.519083 0.721850 2.342109 0.022453 0.001391 -273629.000000 0 0 1
15.919703 14.871591 -22.908928 31.613607 0.751372 2.381329 0.030515 -0.007694 -702670.000000 0 0 1
14.777303 14.042191 -22.318928 30.227245 0.759896 2.401448 0.020686 -0.005597 45794.300000 0 0 1
13.601003 14.189491 -23.103828 30.333411 0.806571 2.436672 0.028362 -0.005325 365735.000000 0 0 1
12.443803 13.523591 -22.601628 29.130213 0.826957 2.458909 0.043748 -0.006770 661772.000000 0 0 1
11.135403 13.971691 -23.291828 29.354976 0.897889 2.487260 0.043572 -0.006186 40956.200000 0 0 1
11.021603 15.380591 -23.257228 29.982278 0.949022 2.458619 0.020427 -0.001377 -120634.000000 0 0 1
10.404703 15.929491 -24.389828 30.933319 0.992194 2.479105 0.012367 -0.001281 -753785.000000 0 0 1
10.383403 17.469891 -24.500328 31.832031 1.034534 2.449129 -0.000788 0.009104 801500.000000 0 0 1
11.669703 18.132191 -24.481328 32.623515 0.998940 2.419493 0.006286 0.007860 1098380.000000 0 0 1
12.648903 17.791691 -25.476328 33.549699 0.952763 2.433127 0.009787 0.004483 -30766.000000 0 0 1
12.264003 18.029591 -26.925648 34.647690 0.973472 2.460884 0.011769 -0.004563 -372673.000000 0 0 1
13.269103 17.556991 -27.808588 35.463144 0.923611 2.472129 0.009870 -0.002987 -32976.000000 0 0 1
12.779103 17.414391 -29.134118 36.267938 0.937728 2.503616 0.008105 -0.014855 -494422.000000 0 0 1
13.724503 17.741691 -30.305498 37.703485 0.912378 2.504427 0.016542 -0.009365 224329.000000 0 0 1
14.837103 16.835091 -30.458178 37.832004 0.848398 2.506624 0.002728 -0.005197 244430.000000 0 0 1
15.667903 17.303591 -31.470658 39.182901 0.834967 2.503399 0.009711 0.004066 335288.000000 0 0 1
16.951703 16.462791 -31.792798 39.612697 0.770767 2.502423 0.010422 -0.002166 227205.000000 0 0 1
17.868703 16.368391 -30.738838 39.141933 0.741605 2.474005 0.016485 -0.006449 -305258.000000 0 0 1
18.905603 15.473691 -30.998238 39.468313 0.685903 2.474131 0.022473 -0.007137 662730.000000 0 0 1
20.299603 16.046391 -31.438298 40.717651 0.668908 2.452943 0.016231 -0.004429 229459.000000 0 0 1
20.241803 16.506291 -32.763888 41.900604 0.684094 2.468573 0.020143 0.004120 256081.000000 0 0 1
21.482403 16.912291 -33.303868 43.089057 0.666926 2.454207 0.021016 0.005823 -127899.000000 0 0 1
21.255403 17.463991 34.549341 44.163787 0.687789 0.672446 0.008044 0.023690 -22856.400000 0 0 1
22.263703 18.354091 34.108132 44.675607 0.689440 0.702140 0.012958 0.016142 206281.000000 0 0 1
22.104803 18.737791 32.756615 43.734688 0.703145 0.724268 0.013285 0.014321 -633069.000000 0 0 1
22.823103 20.000791 32.387325 44.383156 0.719588 0.752882 0.023535 0.011040 -759022.000000 0 0 1
24.213903 19.888091 32.330925 45.023749 0.687624 0.769748 0.012524 0.011402 -424006.000000 0 0 1
24.827603 21.170991 32.322075 45.927522 0.706071 0.790116 0.019971 0.001472 427405.000000 0 0 1
26.365603 21.146591 32.112605 46.621269 0.675991 0.810968 0.001440 0.002871 429156.000000 0 0 1
27.135703 20.792691 33.243450 47.684477 0.653819 0.799376 0.003490 0.004569 831303.000000 0 0 1
28.549203 20.896291 32.988925 48.373352 0.631842 0.820351 -0.000250 0.004066 907028.000000 0 0 1
29.404603 20.164991 34.039485 49.294463 0.601116 0.808570 -0.001001 0.002916 -112612.000000 0 0 1
29.358103 20.651891 -33.863498 49.347090 0.613036 2.327091 -0.000571 -0.002192 599872.000000 0 0 1
28.201303 20.232391 -33.121598 47.976071 0.622327 2.332807 0.000035 -0.009523 489995.000000 0 0 1
28.512203 20.535591 -31.615098 47.267014 0.624180 2.303473 0.003731 -0.009148 534537.000000 0 0 1
29.545003 19.696591 -31.096308 47.200035 0.588001 2.290045 0.004289 -0.007853 192205.000000 0 0 1
29.943903 19.970691 -29.759998 46.702498 0.588190 2.261688 -0.004983 -0.006059 155386.000000 0 0 1
31.360503 19.371291 -29.514978 47.221415 0.553331 2.245971 -0.002592 -0.000855 360991.000000 0 0 1
32.259403 20.005291 -30.427028 48.648585 0.555096 2.246498 -0.017127 0.005404 70910.200000 0 0 1
33.554703 20.153191 -29.885188 49.246255 0.540866 2.222890 -0.013391 0.009236 -19173.600000 0 0 1
34.471303 21.125691 -30.651558 50.735427 0.549813 2.219489 -0.016264 0.006400 -154680.000000 0 0 1
34.969503 20.660891 -31.897688 51.644952 0.533647 2.236527 -0.022108 0.009980 -345615.000000 0 0 1
-33.990875 21.558191 -32.298208 51.607261 -0.565212 2.247012 -0.016176 0.003394 -548839.000000 0 0 1
-33.034675 20.971391 -33.374658 51.429143 -0.565637 2.276993 -0.016067 0.003690 293036.000000 0 0 1
-32.083375 20.038291 -32.815528 50.077289 -0.558290 2.285373 0.000523 -0.001183 573272.000000 0 0 1
-31.389775 19.435691 -33.931508 50.143906 -0.554398 2.314044 0.008623 0.000989 317099.000000 0 0 1
-30.471675 18.235991 -33.629198 48.908049 -0.539284 2.328975 0.003388 0.000751 -48067.800000 0 0 1
-31.272575 17.148691 -33.248358 48.759664 -0.501585 2.321129 -0.002619 0.000583 18293.400000 0 0 1
-30.683275 15.907491 -33.583298 48.190762 -0.478292 2.341838 -0.012560 0.003293 -375317.000000 0 0 1
-31.616175 14.697791 -33.473928 48.333336 -0.435161 2.335834 -0.020762 0.005242 -495356.000000 0 0 1
-31.072275 13.416991 -33.717128 47.773911 -0.407616 2.354298 -0.013596 -0.000866 297713.000000 0 0 1
-32.137475 12.465791 -33.862478 48.320603 -0.370023 2.347297 -0.005543 -0.003327 327967.000000 0 0 1
-31.683175 10.991691 -33.631698 47.494546 -0.333933 2.357624 -0.007376 -0.000004 -267386.000000 0 0 1
-30.912875 10.520691 34.579577 47.560886 -0.328038 0.756768 -0.022048 0.001675 -24585.700000 0 0 1
-31.390775 9.193391 34.241552 47.353807 -0.284902 0.762516 -0.000555 -0.004752 227414.000000 0 0 1
-30.644575 8.411291 33.092535 45.879796 -0.267882 0.765137 0.008990 -0.006789 -94158.800000 0 0 1
-29.296075 8.174291 33.365013 45.147570 -0.272103 0.739180 -0.001713 0.008601 -631513.000000 0 0 1
-28.650675 7.301991 32.455595 43.903825 -0.249550 0.738851 0.000998 0.004273 -13049.800000 0 0 1
19.035203 -4.120264 -31.544668 37.072653 -0.213166 2.588469 0.010789 -0.013063 277570.000000 0 0 1
20.281303 -4.538764 -32.126258 38.262620 -0.220163 2.567389 0.026862 -0.015334 670323.000000 0 0 1
21.380803 -3.691564 -31.875258 38.559026 -0.170972 2.543945 0.018037 -0.015769 162691.000000 0 0 1
21.321803 -2.278564 -32.604728 39.024088 -0.106461 2.559843 0.018795 -0.016703 -816750.000000 0 0 1
22.238703 -1.377164 -32.044378 39.029459 -0.061847 2.534010 0.013600 -0.017329 -42694.500000 0 0 1
22.038303 -0.029064 -32.487898 39.257498 -0.001319 2.545542 0.008112 -0.011763 335476.000000 0 0 1
23.024503 1.067036 -31.885888 39.344328 0.046310 2.515685 0.016257 -0.015641 554415.000000 0 0 1
24.360203 0.948336 -32.349118 40.506595 0.038910 2.495784 0.019033 -0.024772 -62958.500000 0 0 1
25.204003 1.888936 -31.749508 40.581290 0.074806 2.469255 0.020531 -0.014347 -102188.000000 0 0 1
26.673903 1.760636 -32.190948 41.843208 0.065910 2.448577 0.011173 -0.020653 -79071.800000 0 0 1
27.038903 2.462036 -33.355838 43.009020 0.090805 2.458389 0.023428 -0.024507 -182460.000000 0 0 1
27.628603 1.547636 -34.226574 44.013558 0.055957 2.461695 0.016635 -0.017656 -231656.000000 0 0 1
28.523303 2.170836 33.925475 44.375998 0.075961 0.700530 0.014529 -0.021443 191316.000000 0 0 1
27.825903 2.996636 32.979675 43.254129 0.107279 0.703685 0.007322 -0.010220 458776.000000 0 0 1
27.887503 4.369936 33.396349 43.727855 0.155435 0.701722 0.010513 -0.005475 436717.000000 0 0 1
27.096403 5.360536 32.399445 42.575515 0.195310 0.705962 0.009166 -0.001212 311770.000000 0 0 1
27.217503 6.676336 32.831665 43.165775 0.240546 0.706568 0.011558 -0.011546 573214.000000 0 0 1
26.483103 7.559436 31.951715 42.183076 0.278050 0.711393 0.006435 -0.004210 -321297.000000 0 0 1
26.822703 9.021936 32.261475 42.914514 0.324467 0.720067 0.004475 0.000774 -511055.000000 0 0 1
28.061403 9.416436 31.785475 43.433029 0.323758 0.749797 0.004922 -0.004937 -703217.000000 0 0 1
28.294103 10.753236 32.089685 44.112767 0.363193 0.756203 0.005646 -0.000108 170762.000000 0 0 1
29.691703 11.150236 31.553775 44.738861 0.359239 0.787967 -0.003357 0.001735 -353299.000000 0 0 1
30.813503 10.524636 32.190815 45.787427 0.329135 0.791120 0.000962 -0.008146 659535.000000 0 0 1
32.023903 10.794436 31.498145 46.197222 0.325114 0.820550 -0.006522 -0.005996 291446.000000 0 0 1
32.573903 12.233836 31.729885 47.090461 0.359272 0.831447 0.003236 -0.001604 -1192740.000000 0 0 1
32.851703 12.512536 33.077455 48.269203 0.363915 0.815821 0.008315 -0.014042 59392.100000 0 0 1
33.188303 13.896536 33.283750 49.014133 0.396538 0.824309 0.009435 0.000804 601313.000000 0 0 1
32.041903 14.976736 33.122405 48.456990 0.437238 0.818192 0.014301 0.001321 -280400.000000 0 0 1
31.658303 15.289536 31.771765 47.386318 0.449919 0.835935 0.003714 -0.004282 -241956.000000 0 0 1
30.654403 16.239736 31.696745 46.990479 0.487178 0.830461 -0.003067 0.001817 366922.000000 0 0 1
29.209303 15.821936 32.147595 46.227534 0.496429 0.801791 0.005695 0.010061 -162092.000000 0 0 1
28.759903 14.808136 31.276505 44.995919 0.475487 0.802242 0.003841 0.017107 798771.000000 0 0 1
27.357403 14.504536 31.370675 44.078661 0.487504 0.778885 -0.006555 0.019354 675820.000000 0 0 1
26.793203 13.814036 30.146725 42.632480 0.476034 0.785365 -0.008669 0.020211 -264119.000000 0 0 1
27.001603 12.459136 29.881685 42.157226 0.432312 0.782979 -0.013260 0.012783 -121352.000000 0 0 1
26.245103 12.077236 28.761565 40.766318 0.431280 0.787636 -0.021245 -0.002334 -125113.000000 0 0 1
26.205303 10.527936 28.558835 40.164193 0.382013 0.779803 -0.014519 0.018156 -109372.000000 0 0 1
27.321903 9.966136 27.903475 40.304022 0.349769 0.806090 -0.016661 0.014885 -39145.500000 0 0 1
27.099703 8.589536 27.700225 39.692273 0.306943 0.798371 0.002952 0.011732 -530515.000000 0 0 1
28.232703 7.796036 27.062095 39.877571 0.269421 0.824901 -0.005690 0.004908 -513869.000000 0 0 1
28.533803 8.275736 25.775255 39.332296 0.282288 0.856190 -0.012818 0.009851 301188.000000 0 0 1
29.621903 7.552536 25.217345 39.628430 0.249646 0.881046 -0.015952 0.019854 189164.000000 0 0 1
30.134303 8.121536 23.875455 39.294693 0.263256 0.917761 -0.007663 0.023786 73965.500000 0 0 1
30.699403 9.462836 23.855855 40.013753 0.299001 0.932048 -0.015374 0.013705 693335.000000 0 0 1
29.792203 10.507836 23.431755 39.332393 0.339082 0.932614 -0.016154 0.014819 -154001.000000 0 0 1
29.426503 10.418836 21.926455 38.147617 0.340290 0.958462 -0.016567 0.031856 -260365.000000 0 0 1
30.444303 10.876936 21.079655 38.594238 0.343140 0.992991 -0.017437 0.019941 -38627.000000 0 0 1
30.053303 10.793636 19.738855 37.540991 0.344803 1.017147 -0.022776 0.017209 -878454.000000 0 0 1
31.061903 11.351336 18.706755 37.995228 0.350365 1.056015 -0.013161 -0.003628 810888.000000 0 0 1
32.252503 10.642136 18.347455 38.601919 0.318714 1.075492 0.001649 0.000146 607387.000000 0 0 1
33.185603 10.436436 19.369555 39.816870 0.304694 1.062756 0.002758 0.013792 -371846.000000 0 0 1
34.397903 9.533936 18.917155 40.397654 0.270379 1.083460 0.016562 -0.005117 294721.000000 0 0 1
34.036503 8.192136 18.750855 39.713842 0.236194 1.079069 0.023233 -0.012958 255455.000000 0 0 1
-34.813775 7.461536 18.236755 40.003158 -0.211133 1.097432 0.015903 -0.004521 -639597.000000 0 0 1
34.815503 6.035736 17.757155 39.545745 0.171657 1.105119 0.012734 -0.006025 -996426.000000 0 0 1
34.078103 6.006436 16.568455 38.365455 0.174463 1.124244 -0.003942 0.004947 99059.100000 0 0 1
33.878303 4.681836 16.090455 37.796319 0.137326 1.131045 -0.000993 0.001018 10527.000000 0 0 1
32.562703 4.071036 16.653255 36.799917 0.124376 1.101190 -0.013200 0.006550 -126661.000000 0 0 1
32.762203 3.336236 17.851455 37.458869 0.101482 1.074057 0.000242 0.011109 44766.800000 0 0 1
31.571303 2.695236 18.254255 36.568146 0.085163 1.048139 -0.007106 0.014890 -178014.000000 0 0 1
31.639603 1.943436 19.594755 37.266552 0.061347 1.017141 -0.004840 0.003998 -389047.000000 0 0 1
32.331203 0.737436 19.444155 37.734940 0.022805 1.029459 0.006517 0.004594 -181162.000000 0 0 1
32.069703 -0.057564 20.535755 38.081313 -0.001795 1.001237 0.015914 -0.004951 17766.500000 0 0 1
32.566603 -1.486764 20.469755 38.494220 -0.045621 1.010117 0.021017 -0.007803 -85322.200000 0 0 1
32.258803 -2.285964 21.577455 38.877276 -0.070745 0.982416 0.011821 0.004418 -90554.700000 0 0 1
32.830003 -3.580664 21.538655 39.427705 -0.108637 0.992877 0.004039 0.008834 -56193.600000 0 0 1
32.386503 -4.491764 22.707655 39.808280 -0.137813 0.963773 -0.004426 0.010888 -98167.700000 0 0 1
32.843103 -4.047364 23.955655 40.852466 -0.122615 0.944196 0.000071 0.003721 83403.800000 0 0 1
32.060803 -4.519664 25.028855 40.923906 -0.140049 0.912721 -0.010192 0.004795 197822.000000 0 0 1
32.587103 -3.984064 26.426385 42.144346 -0.121655 0.893043 -0.014725 0.009153 -141850.000000 0 0 1
31.742503 -4.312164 27.498595 42.217935 -0.135022 0.861436 -0.019330 0.011956 -382709.000000 0 0 1
32.060203 -3.687664 28.725885 43.204536 -0.114520 0.843462 -0.008488 0.009892 -143154.000000 0 0 1
31.080203 -4.075164 29.850075 43.285251 -0.130374 0.809842 -0.009429 0.002796 62298.600000 0 0 1
31.216503 -5.402564 30.249915 43.803141 -0.171370 0.808495 -0.008774 0.004967 -166153.000000 0 0 1
30.230103 -5.743664 31.193875 43.816740 -0.187760 0.778572 0.011197 -0.010514 -173594.000000 0 0 1
30.250203 -7.230664 31.441185 44.225619 -0.234626 0.779981 0.008528 -0.004060 -166121.000000 0 0 1
31.420403 -7.737164 32.026505 45.528041 -0.241443 0.790562 0.003285 -0.006174 -611456.000000 0 0 1
31.627803 -9.074264 31.797065 45.757115 -0.279403 0.802502 -0.011931 0.002393 -694078.000000 0 0 1
32.992103 -9.398464 32.359165 47.158515 -0.277519 0.814574 -0.028714 0.002161 -679251.000000 0 0 1
33.094203 -9.480864 33.750474 48.210036 -0.279008 0.795299 -0.010964 -0.005957 -961520.000000 0 0 1
34.362503 -9.819464 34.172667 49.446685 -0.278343 0.807785 -0.020749 -0.003433 -809164.000000 0 0 1
34.441703 -10.254164 -33.609318 49.203303 -0.289369 2.322755 -0.003797 -0.004439 -155696.000000 0 0 1
33.983303 -9.267464 -32.674938 48.045836 -0.266233 2.318666 0.003157 -0.002593 145044.000000 0 0 1
34.867103 -8.203264 -32.437108 48.323642 -0.231070 2.306686 0.004253 0.000887 -192968.000000 0 0 1
34.235203 -6.923264 -31.777438 47.220613 -0.199535 2.308995 0.008239 -0.007656 -346919.000000 0 0 1
34.338003 -6.947864 -30.361228 46.359200 -0.199642 2.284863 0.006292 -0.000818 39518.800000 0 0 1
33.513803 -5.989064 -29.786748 45.235984 -0.176838 2.289586 0.016506 -0.008958 -357134.000000 0 0 1
33.924703 -5.729064 -28.332708 44.569609 -0.167297 2.259706 0.027030 -0.010421 27738.400000 0 0 1
-34.710175 -5.225664 -28.172948 45.009097 0.149429 2.247131 0.025585 -0.013289 -205911.000000 0 0 1
-34.533375 -5.029364 -26.801008 44.001619 0.144621 2.225711 0.029391 -0.017467 -7296.180000 0 0 1
-33.070575 -4.752264 -26.426558 42.598238 0.142724 2.240007 0.047657 -0.016061 -778980.000000 0 0 1
-32.854375 -4.403464 -25.051928 41.549964 0.133236 2.217971 0.053935 -0.015876 1281520.000000 0 0 1
-31.461275 -4.330464 -24.638428 40.194737 0.136785 2.230619 0.056751 -0.011352 1656880.000000 0 0 1
-30.501975 -3.291264 -25.277288 39.751027 0.107487 2.259958 0.054452 -0.013261 -293124.000000 0 0 1
-30.142575 -3.583664 -26.591328 40.354878 0.118335 2.290201 0.047599 -0.007075 338645.000000 0 0 1
-29.030875 -2.783664 -27.036458 39.768210 0.095594 2.318356 0.044003 -0.013443 569798.000000 0 0 1
-28.475275 -3.372164 -28.348348 40.321726 0.117875 2.350479 0.045670 -0.003097 -124525.000000 0 0 1
-29.325075 -3.251464 -29.468618 41.700497 0.110426 2.355581 0.049810 -0.001500 -150296.000000 0 0 1
-28.931875 -4.237264 -30.380038 42.165797 0.145423 2.375305 0.038412 0.001209 -551191.000000 0 0 1
-29.965075 -4.655164 -31.459358 43.695165 0.154121 2.374560 0.016159 0.010795 -310300.000000 0 0 1
-30.996675 -5.557564 -31.051768 44.225475 0.177410 2.349172 0.015634 0.003453 914027.000000 0 0 1
-32.118175 -5.041964 -30.323788 44.458190 0.155711 2.321392 0.025193 -0.004831 199301.000000 0 0 1
-32.998975 -3.940064 -31.015248 45.457695 0.118837 2.321684 0.030690 -0.007172 -1037850.000000 0 0 1
-32.475475 -2.704764 -31.491708 45.317765 0.083095 2.339089 0.037134 -0.001572 -285925.000000 0 0 1
-32.201075 -1.753564 -30.484728 44.376828 0.054403 2.328082 0.043924 -0.001912 -106946.000000 0 0 1
-31.822875 -0.393464 -31.041428 44.456950 0.012364 2.343726 0.041358 -0.005306 350217.000000 0 0 1
-32.949975 0.330136 -31.515218 45.596258 -0.010019 2.333917 0.047383 0.001367 197749.000000 0 0 1
-32.533275 1.539236 -32.104118 45.732457 -0.047277 2.348996 0.053037 0.003808 431432.000000 0 0 1
-33.706275 2.388836 -32.692438 47.017177 -0.070754 2.339675 0.034833 0.002203 575650.000000 0 0 1
-34.406175 1.749136 -33.789498 48.255305 -0.050794 2.346507 0.036719 0.000575 -461429.000000 0 0 1
34.331503 2.393436 -33.962598 48.351202 0.069603 2.349581 0.016015 -0.001666 -1356150.000000 0 0 1
33.512103 1.819236 34.186373 47.906980 0.054233 0.776174 0.010380 -0.003077 -377567.000000 0 0 1
33.917903 2.156636 32.813955 47.242257 0.063499 0.802948 0.008585 0.001314 457437.000000 0 0 1
34.844203 1.254336 32.237995 47.486632 0.035983 0.824552 -0.006232 0.010322 -400397.000000 0 0 1
-34.860675 1.500936 30.708815 46.481725 -0.043029 0.849093 -0.000538 0.002608 -336312.000000 0 0 1
-34.143875 2.668536 30.419015 45.806569 -0.077997 0.844540 0.004909 0.001171 211401.000000 0 0 1
-34.093275 2.919536 29.050575 44.886646 -0.085425 0.866892 0.002351 0.003183 110734.000000 0 0 1
-33.451475 4.325636 28.808155 44.357886 -0.128597 0.863938 0.003599 0.011870 30344.000000 0 0 1
-33.002375 4.502536 27.472855 43.176236 -0.135594 0.881109 0.009027 0.017567 86336.600000 0 0 1
-32.338175 5.684536 27.248655 42.668029 -0.174006 0.878093 0.003997 0.021612 -935830.000000 0 0 1
-31.586675 5.740936 25.936795 41.272190 -0.179789 0.891260 0.001052 0.025236 -576538.000000 0 0 1
-30.497175 4.836436 25.852525 40.271849 -0.157277 0.873757 -0.005814 0.021206 760699.000000 0 0 1
-29.556475 5.246436 24.825205 38.953833 -0.175676 0.879809 -0.006522 0.015282 416981.000000 0 0 1
-29.977075 4.990536 23.353455 38.326418 -0.164966 0.915580 0.007882 -0.001563 -242619.000000 0 0 1
-29.926875 3.631336 22.982455 37.907752 -0.120750 0.919430 -0.002886 0.000358 -81108.900000 0 0 1
-30.513075 3.504536 21.714255 37.614337 -0.114353 0.955395 0.027750 -0.008555 -361685.000000 0 0 1
-30.522575 2.061236 21.204455 37.222375 -0.067429 0.964693 0.026269 0.009551 252428.000000 0 0 1
-29.321475 1.560036 20.614055 35.876481 -0.053154 0.958700 0.013782 0.010026 461267.000000 0 0 1
-29.049775 2.043536 19.286055 34.928747 -0.070230 0.985851 0.016317 0.006271 143938.000000 0 0 1
-27.855375 1.247436 18.676055 33.559991 -0.044753 0.980632 0.019490 0.009056 66689.300000 0 0 1
-28.182375 -0.079564 18.488955 33.705994 0.002823 0.990184 0.022326 0.004321 304982.000000 0 0 1
-27.090075 -0.796264 17.951655 32.507970 0.029385 0.985768 0.027704 0.007180 -239354.000000 0 0 1
-26.877475 -0.644864 16.428055 31.507070 0.023988 1.022296 0.029886 0.018918 -149838.000000 0 0 1
-26.525475 0.686336 16.100055 31.036811 -0.025869 1.025419 0.031831 0.016970 200726.000000 0 0 1
-26.518775 0.859036 14.699955 30.332689 -0.032382 1.064863 0.021271 0.016155 -61153.300000 0 0 1
-26.254075 2.281636 14.195155 29.933004 -0.086688 1.076706 0.026453 0.012747 -897963.000000 0 0 1
-24.899475 2.537636 14.271855 28.811617 -0.101565 1.052558 0.027732 0.008300 -872704.000000 0 0 1
-24.612175 3.788836 13.672355 28.408585 -0.152742 1.068687 0.024081 0.010250 919605.000000 0 0 1
-23.063475 3.965236 13.471755 27.002503 -0.170263 1.048458 0.016466 0.011169 658653.000000 0 0 1
-22.272575 4.208436 14.629055 26.977542 -0.186750 0.997662 0.018262 0.016415 -238744.000000 0 0 1
-20.957875 4.405536 14.176255 25.682824 -0.207192 0.986066 0.003306 0.010840 -620875.000000 0 0 1
-20.228375 5.183336 15.313855 25.895333 -0.250844 0.938033 -0.016473 0.010512 -601777.000000 0 0 1
-20.684975 6.467236 15.534155 26.664645 -0.303025 0.948903 0.005560 0.007178 467481.000000 0 0 1
-20.132375 6.975536 16.736555 27.093964 -0.333539 0.904953 -0.001766 0.007596 -264502.000000 0 0 1
-20.501575 8.451636 16.838855 27.844061 -0.391016 0.921337 0.004878 0.010200 -274253.000000 0 0 1
-19.690575 9.279736 15.979755 27.003422 -0.440407 0.937546 -0.007579 -0.003509 699761.000000 0 0 1
-19.900275 10.650336 16.110855 27.731034 -0.491398 0.950878 -0.007224 -0.001369 -314747.000000 0 0 1
-19.398075 11.320736 17.400455 28.411621 -0.528274 0.911651 0.002334 0.000598 -142093.000000 0 0 1
-20.157375 10.931036 18.536155 29.485528 -0.496900 0.890977 0.007831 0.000003 523738.000000 0 0 1
-19.440775 11.311436 19.663555 29.875537 -0.526960 0.852394 0.011668 0.001654 -226170.000000 0 0 1
-12.656597 -33.286720 -22.529728 42.140049 1.207449 2.134877 0.049548 0.000617 -145610.000000 0 0 1
-13.260397 -34.035120 -21.499028 42.384380 1.199279 2.102775 0.068191 -0.007163 163467.000000 0 0 1
-14.402897 -33.350520 -20.983728 41.952561 1.163126 2.094600 0.048449 -0.012465 422269.000000 0 0 1
-15.056897 -34.226720 -19.821128 42.320864 1.156359 2.058223 0.036418 -0.008854 -566320.000000 0 0 1
-15.620997 33.885236 -20.366028 42.508821 -1.138835 2.070427 0.037086 -0.011895 -128832.000000 0 0 1
-16.147697 32.963836 -19.447528 41.539968 -1.115293 2.058008 0.036837 -0.013747 -66881.800000 0 0 1
-17.401797 33.356936 -18.660828 41.996835 -1.089952 2.031233 0.028203 -0.015672 -871996.000000 0 0 1
-17.276297 34.400936 -17.751428 42.391131 -1.105387 2.002868 0.027390 -0.011776 936158.000000 0 0 1
-18.619697 -34.467020 -17.397428 42.864193 1.075494 1.988730 0.002734 -0.005043 1276010.000000 0 0 1
-18.979697 34.329336 -15.961028 42.349576 -1.065752 1.957230 0.013385 -0.010909 -537646.000000 0 0 1
-19.144397 32.890736 -15.787128 41.201236 -1.043672 1.964023 0.018196 -0.020723 86909.600000 0 0 1
-19.224297 32.486936 -14.448628 40.419518 -1.036462 1.936350 0.020511 -0.014802 -248435.000000 0 0 1
-19.434397 30.953036 -14.215028 39.215472 -1.010138 1.941729 0.010968 -0.011760 100053.000000 0 0 1
-18.248797 30.174136 -14.164628 38.001759 -1.026868 1.952752 0.017594 -0.015193 -271831.000000 0 0 1
-18.447097 28.790636 -14.102528 36.987530 -1.000964 1.961975 0.019646 -0.008550 355622.000000 0 0 1
-17.245097 27.862136 -13.669228 35.504081 -1.016564 1.966009 0.024512 -0.002792 354256.000000 0 0 1
-16.062497 28.208936 -14.295728 35.469926 -1.053172 1.985630 0.045850 -0.012333 -93366.700000 0 0 1
-14.890597 27.380436 -14.166728 34.236155 -1.072694 1.997414 0.050777 -0.017600 1913860.000000 0 0 1
-13.633397 28.029436 -14.879528 34.538661 -1.118091 2.016184 0.049662 -0.016931 360032.000000 0 0 1
-13.828597 28.127036 -16.253128 35.306152 -1.113853 2.049184 0.038818 -0.012074 389995.000000 0 0 1
-12.778097 28.765736 -17.009528 35.778085 -1.152766 2.066235 0.038085 -0.014326 326735.000000 0 0 1
-12.898897 28.675036 -18.558428 36.511018 -1.148084 2.104002 0.055507 -0.016940 -9322.720000 0 0 1
-12.635097 27.333536 -19.088228 35.652886 -1.137797 2.135767 0.039279 -0.021139 130552.000000 0 0 1
-13.049397 27.228036 -20.432528 36.457384 -1.123875 2.165725 0.041961 -0.020694 -328334.000000 0 0 1
-12.398597 26.069236 -21.096728 35.754750 -1.126856 2.201905 0.029055 -0.013592 -61643.700000 0 0 1
-11.016797 26.255936 -21.368828 35.600151 -1.173515 2.214604 0.036657 -0.017238 42265.200000 0 0 1
-10.577297 25.109436 -22.108728 35.087873 -1.172108 2.252473 0.035542 -0.014492 192359.000000 0 0 1
-9.259097 25.420436 -22.857428 35.417389 -1.221494 2.272308 0.038042 -0.019726 113642.000000 0 0 1
-9.410397 26.461236 -23.809928 36.819359 -1.229115 2.274005 0.037145 -0.019252 -132895.000000 0 0 1
-8.270297 26.536236 -24.630928 37.138285 -1.268676 2.295912 0.018166 -0.023148 -82681.600000 0 0 1
-8.477097 27.339836 -25.969978 38.649289 -1.270132 2.307621 0.022626 -0.018551 175266.000000 0 0 1
-9.389997 26.624136 -26.808448 38.932114 -1.231729 2.330346 0.031894 -0.015170 186584.000000 0 0 1
-9.620297 27.202036 -28.070218 40.254664 -1.230864 2.342442 0.052233 -0.012231 -377957.000000 0 0 1
-10.872197 26.624936 -28.728458 40.649922 -1.183116 2.355660 0.026079 -0.010531 -518015.000000 0 0 1
-11.220897 27.166436 -29.990668 41.992427 -1.179097 2.366266 0.024462 -0.008563 942856.000000 0 0 1
-12.551097 26.685436 -30.333478 42.305583 -1.131161 2.370298 0.019950 -0.009630 1062190.000000 0 0 1
-12.924597 26.994736 -31.778698 43.653712 -1.124267 2.386156 0.011750 -0.013157 -401867.000000 0 0 1
-12.132897 26.523636 -32.845888 43.926789 -1.141775 2.415451 0.011194 -0.010393 -175015.000000 0 0 1
-12.095097 25.113936 -33.008258 43.203544 -1.121969 2.440313 0.006528 -0.010478 -257673.000000 0 0 1
-11.115697 24.611236 -34.075187 43.478615 -1.146570 2.471434 -0.001990 0.000407 -233371.000000 0 0 1
-11.651997 24.654936 33.907621 43.512776 -1.129306 0.677317 0.004828 0.000131 -360132.000000 0 0 1
-11.035997 23.769236 33.057895 42.185237 -1.136116 0.670298 0.006763 0.003055 -565971.000000 0 0 1
-11.505597 23.783436 31.607945 41.195786 -1.120221 0.696236 0.018170 0.013854 -208943.000000 0 0 1
-12.830697 23.305336 31.489105 41.222921 -1.067533 0.701502 0.026238 -0.000130 -72515.300000 0 0 1
-13.273697 23.432936 30.124895 40.407955 -1.055408 0.729483 0.040256 -0.003418 -700309.000000 0 0 1
-14.572197 22.672036 30.025235 40.347055 -0.999543 0.731499 0.015118 0.007438 -680344.000000 0 0 1
-14.408897 21.307536 30.305805 39.750084 -0.976199 0.703769 -0.011379 -0.000948 965029.000000 0 0 1
-15.702397 20.656536 30.325645 39.911182 -0.920821 0.707747 -0.012792 -0.006955 998804.000000 0 0 1
-15.475897 19.170836 30.547975 39.245421 -0.891643 0.678710 -0.020182 -0.018290 99387.800000 0 0 1
-15.240197 18.432536 29.435465 37.927148 -0.879921 0.682330 -0.012361 -0.005090 133144.000000 0 0 1
-14.577697 17.188536 29.696135 37.280228 -0.867403 0.649204 -0.026354 -0.015959 155770.000000 0 0 1
-14.146297 16.476336 28.387615 35.741349 -0.861341 0.653022 -0.022832 -0.001474 140231.000000 0 0 1
-13.126497 17.140936 27.664395 35.091813 -0.917261 0.662685 -0.036886 0.004158 117624.000000 0 0 1
-12.685597 16.417736 26.457165 33.622135 -0.912940 0.665032 -0.041932 0.009909 472253.000000 0 0 1
-11.498497 16.973636 25.636145 32.825777 -0.975377 0.674569 -0.032430 0.016455 28628.600000 0 0 1
-11.867197 17.997436 24.724365 32.802931 -0.987853 0.717086 -0.036226 0.022379 -111963.000000 0 0 1
-12.248897 19.271936 25.164455 33.980771 -1.004624 0.736908 -0.026628 0.021063 485.631000 0 0 1
-11.105997 20.125136 25.794305 34.550115 -1.066536 0.727895 -0.031633 0.018643 321962.000000 0 0 1
-10.781197 19.711236 27.132365 35.226868 -1.070292 0.691614 -0.021338 0.016216 201515.000000 0 0 1
-11.719097 20.205536 28.095315 36.536935 -1.045217 0.693589 -0.005433 0.011090 243126.000000 0 0 1
-11.498897 19.600736 29.509915 37.245786 -1.040246 0.656223 -0.003819 0.010412 455058.000000 0 0 1
-10.230897 19.897136 30.102945 37.506727 -1.095862 0.639153 -0.015710 0.011495 230504.000000 0 0 1
-10.318697 19.888836 31.537375 38.686526 -1.092207 0.617717 -0.017210 0.000102 432874.000000 0 0 1
-9.194897 20.721736 32.243155 39.415194 -1.153167 0.612804 -0.024148 0.000688 638215.000000 0 0 1
-7.906497 20.120536 32.209855 38.792053 -1.196377 0.591113 -0.025883 0.003541 -141802.000000 0 0 1
-7.025297 20.954336 32.907665 39.640300 -1.247307 0.591407 -0.037297 0.015495 273850.000000 0 0 1
-5.757297 20.291436 33.517044 39.601529 -1.294332 0.561688 -0.029665 0.019082 25244.200000 0 0 1
-6.088297 19.451336 34.591273 40.149446 -1.267455 0.532456 -0.032242 0.012641 734408.000000 0 0 1
-4.942597 18.903136 -33.985468 39.201656 -1.315052 2.619825 -0.032528 0.016504 981835.000000 0 0 1
-4.158497 17.761236 34.550123 39.070009 -1.340806 0.485775 -0.030172 0.012215 -92109.700000 0 0 1
-4.786197 16.517636 34.549146 38.592531 -1.288758 0.461852 -0.024896 0.009165 -206707.000000 0 0 1
-4.546497 15.944336 33.245581 37.150520 -1.293020 0.462615 -0.024502 0.012137 -191272.000000 0 0 1
-5.140697 14.588436 33.023515 36.466447 -1.232001 0.438036 -0.002883 0.006649 -684329.000000 0 0 1
-4.561297 13.565636 33.780733 36.687461 -1.246433 0.400745 -0.003240 0.009819 -319185.000000 0 0 1
-5.056897 12.299136 33.494178 36.037493 -1.180708 0.377942 0.009551 0.005693 -16336.100000 0 0 1
-4.118897 11.163136 34.012074 36.033347 -1.217320 0.336532 0.002089 -0.002493 8682.270000 0 0 1
-3.974297 11.110636 -33.901808 35.896711 -1.227277 2.806642 0.015424 -0.003116 -620237.000000 0 0 1
-3.136697 10.048936 -33.651888 35.260027 -1.268237 2.838413 0.014961 -0.005557 -329685.000000 0 0 1
-3.063697 9.641636 -32.177208 33.730106 -1.263129 2.836973 0.018512 -0.004404 591893.000000 0 0 1
-4.263597 9.040236 -31.665238 33.205292 -1.130106 2.835839 0.025678 -0.002475 378439.000000 0 0 1
-4.108597 8.514536 -30.333048 31.772184 -1.121215 2.839462 0.026662 0.002682 522906.000000 0 0 1
-5.460197 8.031436 -29.720768 31.267263 -0.973720 2.825764 0.032854 -0.000495 622514.000000 0 0 1
-5.304697 7.356836 -28.523468 29.930771 -0.946078 2.833723 0.038711 -0.000791 377181.000000 0 0 1
-6.617897 6.838436 -28.314688 29.871095 -0.801786 2.817361 0.042051 -0.009165 495944.000000 0 0 1
-6.694197 5.842136 -27.035588 28.458142 -0.717535 2.824072 0.032550 -0.006305 -151671.000000 0 0 1
-6.939097 6.277836 -25.720778 27.370069 -0.735409 2.792668 0.012412 -0.000291 212121.000000 0 0 1
-6.214197 7.436836 -25.273538 27.067960 -0.874724 2.775426 0.022890 0.002932 56323.200000 0 0 1
-6.718197 7.933936 -23.902428 26.065447 -0.868182 2.731329 0.012374 -0.002097 -36174.300000 0 0 1
-6.671397 7.000836 -22.847228 24.809576 -0.809489 2.741189 0.004780 0.001582 -145741.000000 0 1 0
-7.729197 7.062736 -21.921828 24.293811 -0.740373 2.696017 -0.009493 -0.002277 -529713.000000 0 1 0
-7.348597 7.609736 -20.563528 23.125065 -0.802854 2.666458 -0.023859 0.009218 -550896.000000 0 1 0
-7.055497 8.992536 -20.520428 23.489012 -0.905520 2.633385 -0.032676 0.014888 -62244.200000 0 1 0
-6.820597 9.537336 -19.216228 22.510991 -0.949977 2.593726 -0.025463 0.026590 547544.000000 0 1 0
-8.079797 9.650736 -18.245328 22.165554 -0.873768 2.537713 -0.034221 0.022305 519224.000000 0 1 0
-7.744997 9.883136 -16.873228 21.032526 -0.906100 2.501842 -0.036586 0.021639 675239.000000 0 1 0
-8.879497 10.226536 -16.032028 20.986982 -0.855785 2.440137 -0.018947 0.010069 980071.000000 0 1 0
-9.437397 11.703436 -16.219828 22.116005 -0.892178 2.394103 -0.017910 0.010652 -1232000.000000 0 1 0
-8.450297 12.597036 -15.860728 21.946651 -0.979926 2.378489 -0.033910 0.010443 -514326.000000 0 1 0
-8.697397 13.959136 -16.213228 23.094825 -1.013592 2.349038 -0.018540 0.009509 306649.000000 0 1 0
-7.562997 14.854036 -15.625328 22.847148 -1.099852 2.323901 -0.013560 0.002112 43908.400000 0 1 0
-7.381997 14.825236 -14.231928 21.836420 -1.108802 2.280688 -0.008536 -0.005838 -262133.000000 0 1 0
-8.338297 15.432836 -13.392528 22.069422 -1.075434 2.222871 -0.009149 -0.016530 -606224.000000 0 1 0
-7.621397 16.288436 -12.321628 21.799572 -1.133155 2.171500 -0.003242 -0.014580 395650.000000 0 1 0
-7.180497 17.588036 -12.739828 22.873604 -1.183189 2.161525 0.003169 -0.011776 170319.000000 0 1 0
-6.164297 17.721536 -13.736828 23.254071 -1.236045 2.202757 0.020124 -0.007478 147860.000000 0 1 0
-5.990297 19.181036 -14.240528 24.629016 -1.268091 2.187319 0.036936 -0.002259 272605.000000 0 1 0
-5.387897 20.044536 -13.276828 24.639135 -1.308207 2.139869 0.032353 -0.014389 -105617.000000 0 1 0
-5.259597 21.333036 -13.829228 25.961689 -1.329070 2.132558 0.030026 -0.013458 -168316.000000 0 0 1
-4.855897 22.399936 -12.779528 26.242202 -1.357318 2.079429 0.036495 -0.013493 -1201690.000000 0 0 1
-4.979397 23.776136 -13.161028 27.628096 -1.364352 2.067311 0.017962 -0.013686 705934.000000 0 0 1
-6.306797 24.296936 -13.381428 28.446078 -1.316830 2.060556 0.021547 -0.016853 1336470.000000 0 0 1
-7.261197 24.235036 -12.095528 28.042178 -1.279692 2.016767 0.003583 -0.023302 -142801.000000 0 0 1
-7.559497 22.900036 -11.693228 26.800918 -1.251951 2.022278 0.011268 -0.025461 -150254.000000 0 0 1
-8.259997 22.720936 -10.430028 26.329716 -1.222109 1.978096 0.013589 -0.021629 376363.000000 0 0 1
-7.541697 23.306636 -9.204928 26.168820 -1.257844 1.930238 0.012634 -0.020458 -78887.700000 0 0 1
-7.680797 24.720936 -9.237828 27.485574 -1.269552 1.913566 0.001082 -0.018925 106070.000000 0 0 1
-7.021397 25.243436 -8.084028 27.420477 -1.299506 1.870061 0.002552 -0.016892 54635.100000 0 0 1
-6.927497 26.768336 -7.960528 28.773321 -1.317558 1.851117 -0.013509 -0.015292 250119.000000 0 0 1
-5.944597 27.470736 -8.727928 29.430533 -1.357685 1.871885 -0.022307 -0.016403 141834.000000 0 0 1
-6.256597 27.489636 -10.093028 29.944854 -1.347010 1.914582 -0.019530 -0.012864 135317.000000 0 0 1
-5.467897 28.541836 -10.900428 31.037938 -1.381515 1.929645 -0.023729 -0.007615 -117098.000000 0 0 1
-5.928597 29.879836 -10.766328 32.308925 -1.374926 1.910524 -0.028904 -0.006627 -234188.000000 0 0 1
-6.977097 30.140636 -11.656528 33.060739 -1.343318 1.931122 -0.024453 -0.010385 -112154.000000 0 0 1
-7.967397 31.283736 -11.335628 34.214733 -1.321416 1.908486 -0.017387 -0.013995 780182.000000 0 0 1
-9.011797 30.958336 -10.397728 33.878367 -1.287530 1.882745 -0.001777 -0.014145 475716.000000 0 0 1
-10.002897 31.967936 -10.328228 35.052520 -1.267543 1.869886 0.006834 -0.015156 -171787.000000 0 0 1
-11.063797 31.722936 -9.283728 34.855987 -1.235224 1.840396 0.019087 -0.014763 -312775.000000 0 0 1
-11.778197 30.535136 -9.567028 34.097631 -1.202655 1.855192 0.022115 -0.024690 206009.000000 0 0 1
-12.799697 30.203836 -8.611028 33.915391 -1.169962 1.827504 0.038430 -0.016840 761059.000000 0 0 1
-13.897197 29.201536 -9.101328 33.596070 -1.126609 1.845129 0.039398 -0.020240 319600.000000 0 0 1
-13.494297 27.866036 -9.254528 32.314985 -1.119823 1.861248 0.016433 -0.007950 -269361.000000 0 0 1
-14.535597 27.128436 -9.857828 32.317369 -1.078915 1.880768 0.035628 -0.010755 98564.400000 0 0 1
-14.878997 25.741136 -9.168628 31.113572 -1.046692 1.869920 0.031511 -0.009373 -185671.000000 0 0 1
-13.953097 24.694736 -9.436028 29.892432 -1.056492 1.891955 0.024070 -0.003096 -50194.900000 0 0 1
-14.389297 23.421136 -9.008328 28.926656 -1.019876 1.887483 0.042857 -0.005359 -673252.000000 0 0 1
-13.487597 22.240636 -9.247128 27.605625 -1.025655 1.912372 0.033138 -0.003463 -628419.000000 0 0 1
-13.330097 21.860436 -10.595228 27.709727 -1.023215 1.963151 0.019949 -0.001201 134480.000000 0 0 1
-12.683697 20.601036 -10.692728 26.450203 -1.018925 1.986965 0.021504 -0.011541 -278964.000000 0 0 1
-12.475697 20.238636 -12.167428 26.707521 -1.018384 2.043821 0.012886 -0.007423 -31651.800000 0 0 1
-13.711797 20.003836 -12.802028 27.423689 -0.969897 2.056492 0.017722 0.008583 -463231.000000 0 0 1
-13.573097 19.463436 -14.076728 27.590008 -0.961842 2.106227 0.010530 0.010111 -11481.100000 0 0 1
-14.917997 19.053936 -14.714028 28.321400 -0.906548 2.117106 0.006941 0.011205 334100.000000 0 0 1
-15.684997 20.196036 -15.071528 29.682485 -0.910464 2.103377 -0.007597 0.010996 -473710.000000 0 0 1
-16.959097 19.858736 -15.535528 30.386394 -0.863992 2.107453 -0.015343 0.014732 -625097.000000 0 0 1
-17.689497 20.947436 -16.269428 31.881149 -0.869521 2.106347 -0.014910 0.008393 -373885.000000 0 0 1
-18.155497 21.955736 -15.422228 32.396319 -0.879859 2.066953 -0.018486 0.002767 255583.000000 0 0 1
-18.717097 23.041136 -16.148128 33.793278 -0.888580 2.069002 -0.007012 -0.003388 -10886.000000 0 0 1
-19.055897 24.303636 -15.310828 34.470500 -0.905841 2.031046 -0.005703 0.010262 -47832.100000 0 0 1
-20.215597 24.027536 -14.560328 34.612078 -0.871345 2.004982 -0.005420 0.008106 -85136.400000 0 0 1
-20.631597 25.160736 -13.802428 35.344482 -0.883984 1.971984 -0.005209 -0.000396 -342378.000000 0 0 1
-25.679497 -1.093864 3.510372 25.941392 0.042571 1.435061 0.056844 -0.008759 -75986.500000 0 0 1
-25.748757 -0.353364 4.696272 26.175911 0.013723 1.390408 0.036988 -0.005609 -164822.000000 0 0 1
-26.901187 -0.697864 5.399472 27.446587 0.025936 1.372778 0.017002 -0.009367 -559909.000000 0 0 1
-27.278307 0.251136 6.521272 28.048103 -0.009206 1.336146 0.015316 -0.004197 -432065.000000 0 0 1
-27.798267 1.522336 6.149172 28.510936 -0.054709 1.353411 0.027165 -0.005791 214742.000000 0 0 1
-28.122807 2.428236 7.276572 29.150250 -0.086130 1.318505 0.027273 0.007269 -388217.000000 0 0 1
-27.043677 2.985136 8.253172 28.432136 -0.109937 1.276281 0.039168 0.003998 -146913.000000 0 0 1
-26.500067 1.981236 9.065472 28.077778 -0.074625 1.242036 0.037788 -0.003823 -329305.000000 0 0 1
-25.527457 2.466436 9.919572 27.497859 -0.096320 1.201735 0.042539 -0.010237 -235681.000000 0 0 1
-24.723797 1.300136 10.631472 26.944103 -0.052538 1.165191 0.031895 -0.004617 496898.000000 0 0 1
-23.763697 0.533936 9.850072 25.729794 -0.022465 1.177941 0.030992 -0.006583 811508.000000 0 0 1
-24.310997 -0.398164 8.872772 25.882604 0.016376 1.220892 0.019786 -0.005495 -555551.000000 0 0 1
-23.298897 -1.268664 8.139772 24.712426 0.054398 1.235150 0.026196 -0.011677 -366105.000000 0 1 0
-22.564397 -2.073964 9.021972 24.389533 0.091656 1.191882 0.024600 -0.014284 368721.000000 0 1 0
-21.512097 -2.846464 8.440072 23.283202 0.131555 1.199851 0.028623 -0.009699 366978.000000 0 1 0
-20.311697 -2.962364 9.412472 22.581746 0.144824 1.140855 0.032278 -0.004768 119388.000000 0 1 0
-19.703797 -1.651164 9.641372 21.998227 0.083604 1.117113 0.024383 -0.006986 727104.000000 0 1 0
-20.201197 -1.029164 10.833472 22.945842 0.050902 1.079088 0.009230 -0.005909 -597430.000000 0 1 0
-19.775797 0.426836 11.107972 22.685929 -0.021580 1.059118 0.001777 -0.000743 -402697.000000 0 1 0
-20.349297 1.318336 10.205772 22.803282 -0.064695 1.106765 0.009799 0.003940 374037.000000 0 1 0
-20.757697 2.480336 10.877972 23.566169 -0.118926 1.091007 0.012956 0.009123 -274272.000000 0 1 0
-21.393497 3.610536 10.061572 23.915537 -0.167192 1.136565 0.018429 -0.004030 -330307.000000 0 1 0
-21.381797 4.802536 10.788472 24.426148 -0.220942 1.113329 0.009114 -0.003298 693873.000000 0 1 0
-22.021697 5.847336 10.052872 24.903949 -0.259537 1.155276 0.011663 -0.011196 -100884.000000 0 1 0
-22.121097 7.104036 10.910672 25.668132 -0.310739 1.131761 0.016483 -0.007390 -260072.000000 0 0 1
-22.868997 6.749136 12.040372 26.711653 -0.286975 1.103187 0.000275 0.002282 123163.000000 0 0 1
-22.819097 7.740736 13.037672 27.397282 -0.327041 1.074838 0.001888 0.004404 -223190.000000 0 0 1
-23.884997 7.505136 14.115572 28.741425 -0.304451 1.057418 0.015104 0.007888 231053.000000 0 0 1
-25.213167 7.530436 13.622872 29.630962 -0.290237 1.093081 0.027203 0.011890 387047.000000 0 0 1
-26.183137 7.232636 14.641272 30.858297 -0.269512 1.076437 0.031354 0.014176 1139640.000000 0 0 1
-27.623107 7.089736 14.024972 31.780501 -0.251237 1.113741 0.033459 0.030962 527766.000000 0 0 1
-27.849747 5.832936 13.403872 31.453065 -0.206459 1.130558 0.039346 0.035531 -217075.000000 0 0 1
-28.898407 5.847336 12.484672 32.018374 -0.199646 1.170249 0.000250 0.015711 -384169.000000 0 0 1
-28.961087 4.451936 11.797772 31.587208 -0.152527 1.188019 0.014241 0.013355 -162060.000000 0 0 1
-29.435637 3.455636 12.653872 32.226055 -0.116861 1.167275 0.013111 0.010285 215828.000000 0 0 1
-29.415927 2.184636 12.036272 31.858142 -0.074131 1.183368 0.006543 0.011188 140866.000000 0 0 1
-30.617197 1.288436 12.472572 33.085312 -0.042057 1.184260 0.013538 0.019817 332591.000000 0 0 1
-30.243077 0.373936 13.496672 33.120140 -0.012364 1.151074 0.011506 0.019570 737317.000000 0 0 1
-31.447627 -0.222164 14.003572 34.425319 0.007064 1.151869 0.023018 0.022290 618205.000000 0 0 1
-31.279627 -1.465764 14.897672 34.677142 0.046826 1.126735 0.020545 0.012287 -136087.000000 0 0 1
-31.079417 -2.691764 14.258572 34.299892 0.086394 1.142081 0.011695 0.012300 248774.000000 0 0 1
-30.974507 -3.673364 15.240072 34.715608 0.118042 1.116313 0.009911 0.015920 -290848.000000 0 0 1
-31.050447 -5.131164 14.653372 34.715708 0.163772 1.135040 0.013205 0.017445 146105.000000 0 0 1
-32.227957 -5.459564 13.926272 35.530115 0.167811 1.168039 0.009118 0.011309 285751.000000 0 0 1
-32.164307 -6.773364 13.369572 35.484737 0.207554 1.184490 0.016082 0.011709 -148198.000000 0 0 1
-33.232977 -6.940164 12.221972 36.082866 0.205875 1.225241 0.021776 0.021676 1738100.000000 0 0 1
-34.632887 -6.981264 12.587772 37.505025 0.198913 1.228523 0.007658 0.026582 1224350.000000 0 0 1
34.809019 -5.698464 12.995772 37.590296 -0.162267 1.217789 0.012357 0.017953 -674391.000000 0 0 1
33.270072 -5.616764 12.858072 36.107835 -0.167246 1.206703 0.014762 0.014092 -101126.000000 0 0 1
32.593882 -6.577264 13.612172 35.929274 -0.199120 1.182232 0.013221 0.021821 -1220140.000000 0 0 1
31.260502 -6.464864 13.253172 34.563854 -0.203931 1.177278 0.006673 0.025807 -1136150.000000 0 0 1
30.382532 -7.561064 13.783672 34.209027 -0.243908 1.156086 -0.008950 0.021104 -565437.000000 0 0 1
29.951582 -7.468664 15.102772 34.365272 -0.244374 1.115779 0.001757 0.026165 -285501.000000 0 0 1
28.984332 -8.457264 15.261672 33.830983 -0.283905 1.102782 -0.000412 0.026034 -462391.000000 0 0 1
28.442812 -8.653964 16.658472 34.079163 -0.295359 1.060063 -0.023695 0.027631 -382811.000000 0 0 1
29.428342 -9.036264 17.564272 35.442701 -0.297921 1.052308 -0.035537 0.034236 -383079.000000 0 0 1
28.848502 -9.163264 18.815372 35.640142 -0.307555 1.014639 -0.035170 0.025932 -228214.000000 0 0 1
29.833962 -9.537064 19.957272 37.139111 -0.309405 1.003486 -0.038228 0.028029 264535.000000 0 0 1
30.807892 -8.587264 20.315172 37.888963 -0.271836 1.004895 -0.028942 0.030537 -611413.000000 0 0 1
32.050292 -8.820464 19.735872 38.659105 -0.268559 1.035018 -0.024502 0.027502 -331966.000000 0 0 1
33.195862 -8.005264 20.437372 39.796177 -0.236634 1.031478 -0.011178 0.021937 444489.000000 0 0 1
33.346122 -8.483464 21.736272 40.698876 -0.249121 1.007382 -0.010240 0.015297 228369.000000 0 0 1
34.614713 -8.040464 22.207072 41.904432 -0.228237 1.012260 -0.018094 0.015279 228542.000000 0 0 1
-34.964612 -8.738064 23.520272 43.035811 0.244896 0.992584 -0.014954 0.013506 -213664.000000 0 0 1
34.324561 -8.292564 24.680572 43.082163 -0.237050 0.960791 -0.012915 0.012867 -4462.960000 0 0 1
34.403572 -9.297264 25.669772 43.920178 -0.263937 0.946577 -0.009368 0.005665 -113015.000000 0 0 1
34.015010 -8.754064 27.096472 44.360718 -0.251893 0.913699 -0.012041 0.011997 -1007070.000000 0 0 1
34.943297 -7.898164 27.598672 45.222801 -0.222293 0.914380 -0.025785 -0.003688 -990473.000000 0 0 1
34.470131 -7.107264 28.634072 45.371943 -0.203337 0.887830 -0.025201 -0.001115 452074.000000 0 0 1
-34.296459 -6.585764 29.529072 45.733855 0.189715 0.868893 -0.015304 0.005764 924123.000000 0 0 1
-33.865387 -7.492064 30.554272 46.222927 0.217724 0.848619 -0.015454 0.003467 -216072.000000 0 0 1
-32.525637 -7.296864 30.937972 45.478780 0.220688 0.822662 -0.006995 0.001454 48750.400000 0 0 1
-32.093937 -8.009264 32.247872 46.196259 0.244562 0.798108 -0.014228 0.002921 -276394.000000 0 0 1
-32.147607 -9.427664 32.326572 46.554879 0.285264 0.803244 -0.016412 -0.007760 592936.000000 0 0 1
-31.377837 -10.027064 33.393372 46.906588 0.309303 0.778579 -0.014384 -0.006202 -25764.600000 0 0 1
-31.551547 -11.576864 33.365972 47.358336 0.351667 0.789018 -0.002788 -0.011967 911483.000000 0 0 1
-32.928677 -11.925964 33.656272 48.572328 0.347480 0.805279 -0.020968 -0.015827 1131880.000000 0 0 1
-33.143757 -13.351664 33.742572 49.146075 0.382953 0.814026 -0.012860 -0.020087 -105718.000000 0 0 1
-34.623723 -13.746764 33.886272 50.359261 0.377946 0.832687 -0.022471 -0.014600 -64352.800000 0 0 1
-34.816007 -15.116964 34.085072 51.014401 0.409634 0.839082 -0.020265 -0.018113 -952621.000000 0 0 1
33.788702 -15.318264 34.346472 50.556955 -0.425640 0.823904 -0.041430 -0.015200 -1143570.000000 0 0 1
33.363422 -16.794064 34.533672 50.869765 -0.466338 0.824581 -0.041708 0.000418 -45557.800000 0 0 1
33.891678 -17.304464 -33.517410 50.710029 -0.472077 2.292897 -0.035118 -0.007034 208058.000000 0 0 1
33.655952 -18.682464 -33.540010 51.055752 -0.506751 2.287535 -0.027046 -0.018409 -192794.000000 0 0 1
34.177337 -19.404464 -32.263010 50.848062 -0.516375 2.258156 -0.019921 -0.011923 -221757.000000 0 0 1
33.319612 -19.284764 -31.175310 49.537850 -0.524671 2.251478 -0.026558 -0.008061 -572160.000000 0 0 1
33.690032 -20.113364 -30.107610 49.457394 -0.538220 2.225291 -0.036777 -0.003624 -1303460.000000 0 0 1
32.767762 -20.170664 -28.858710 48.097890 -0.551785 2.214297 -0.036493 0.000924 803984.000000 0 0 1
31.505092 -20.792564 -29.139310 47.686486 -0.583355 2.228195 -0.027280 -0.003178 243881.000000 0 0 1
30.580222 -19.977864 -29.778410 47.127685 -0.578687 2.254755 -0.031162 0.000839 -1642920.000000 0 0 1
29.233832 -20.619564 -30.086210 46.743592 -0.614296 2.270046 -0.027335 0.001858 -264851.000000 0 0 1
28.466312 -19.854364 -30.999310 46.534760 -0.609025 2.299836 -0.029144 0.004722 -492670.000000 0 0 1
27.123072 -20.213164 -31.011410 45.890528 -0.640447 2.312804 -0.017975 0.000889 -545831.000000 0 0 1
26.248832 -19.534864 -32.060910 45.809541 -0.639791 2.346018 -0.016038 0.007531 52112.600000 0 0 1
26.638842 -19.869764 -33.353510 47.083883 -0.640868 2.358004 -0.018490 0.000559 131497.000000 0 0 1
25.621402 -19.449464 -34.241210 46.980830 -0.649306 2.387413 0.008875 -0.000978 6960.980000 0 0 1
25.935382 -19.822064 33.615272 46.856641 -0.652582 0.770724 0.008199 0.000135 651375.000000 0 0 1
27.002752 -19.084564 32.961572 46.688697 -0.615251 0.786982 -0.004619 -0.005713 729617.000000 0 0 1
26.991002 -19.246164 31.561872 45.772052 -0.619436 0.809936 -0.006122 -0.011342 69367.700000 0 0 1
25.844592 -18.576464 30.748172 44.254695 -0.623216 0.802654 0.006536 -0.011125 -206376.000000 0 0 1
25.911412 -17.184764 31.000572 43.906182 -0.585607 0.786872 0.012048 -0.014082 444705.000000 0 0 1
25.011012 -16.362764 30.272872 42.541010 -0.579338 0.779000 0.029871 -0.013908 -36820.000000 0 0 1
24.997582 -14.880164 30.790572 42.359860 -0.536930 0.757027 0.041776 -0.008704 6233.540000 0 0 1
26.171572 -14.153564 30.493872 42.604586 -0.495752 0.773111 0.035401 -0.008086 268312.000000 0 0 1
26.139592 -12.996564 31.377772 42.857363 -0.461404 0.749332 0.051163 -0.001594 69847.400000 0 0 1
27.418892 -12.119364 31.384772 43.401366 -0.416188 0.762475 0.019952 0.006082 122772.000000 0 0 1
27.623332 -11.632764 30.076472 42.461322 -0.398580 0.783672 0.010757 0.003851 1527590.000000 0 0 1
29.066242 -11.512764 29.879472 43.245497 -0.377129 0.808026 -0.000798 0.010887 1570420.000000 0 0 1
29.423402 -10.705464 28.603672 42.408886 -0.348952 0.830545 -0.008660 0.011265 -189295.000000 0 0 1
29.432292 -9.364664 28.750072 42.196248 -0.308048 0.821202 0.001396 0.018145 66878.600000 0 0 1
30.010702 -8.793664 27.581672 41.697954 -0.285039 0.848028 -0.009011 0.025947 11627.800000 0 0 1
29.909912 -7.256864 27.555172 41.310439 -0.238025 0.840585 -0.003450 0.018224 -375788.000000 0 0 1
28.636552 -6.752664 27.302672 40.138342 -0.231575 0.822741 0.005258 0.019882 -772094.000000 0 0 1
28.555412 -5.351364 27.312272 39.874915 -0.185254 0.816263 0.005299 0.013723 937158.000000 0 0 1
27.099482 -4.850564 26.973972 38.542250 -0.177115 0.795602 0.013954 0.014339 1058610.000000 0 0 1
26.628392 -5.089664 25.650572 37.321948 -0.188859 0.813061 0.000883 0.016085 -268063.000000 0 0 1
25.250802 -4.910464 25.467172 36.197963 -0.192070 0.790412 0.014974 0.012332 -336035.000000 0 0 1
24.871182 -5.219064 23.993572 34.950047 -0.206843 0.814117 0.015965 0.011157 -373649.000000 0 0 1
25.122562 -4.194064 23.142072 34.413497 -0.165419 0.833254 0.017865 0.016654 173829.000000 0 0 1
24.790682 -4.630864 21.835572 33.358882 -0.184670 0.857189 0.026646 0.011630 110887.000000 0 0 1
24.957112 -3.489564 20.787172 32.667124 -0.138922 0.881061 0.030416 0.008952 -198119.000000 0 0 1
23.956282 -2.499964 20.855772 31.860893 -0.103979 0.857158 0.035642 0.012849 -30569.700000 0 0 1
24.243582 -1.470064 19.956072 31.434967 -0.060563 0.882999 0.028349 0.005551 -529101.000000 0 0 1
22.994682 -0.730164 19.463872 30.135209 -0.031743 0.868615 -0.014557 0.004248 -598314.000000 0 0 1
22.200482 -1.627464 18.709172 29.078225 -0.073177 0.871854 0.022702 -0.001603 -236667.000000 0 0 1
21.327982 -0.802264 17.945872 27.885135 -0.037598 0.871651 0.020106 -0.004285 -384611.000000 0 0 1
20.270282 -1.600864 17.222472 26.646963 -0.078812 0.868044 0.017024 -0.001818 -475164.000000 0 0 1
20.788282 -2.277164 16.118672 26.403593 -0.109106 0.914139 0.014082 -0.009066 86785.700000 0 0 1
19.787082 -3.109864 15.591472 25.382944 -0.155891 0.909361 0.030297 -0.012358 -271290.000000 0 0 1
20.152782 -3.810464 14.258472 24.979157 -0.186873 0.963298 0.019382 -0.011183 -209285.000000 0 1 0
19.072182 -4.550064 13.729072 23.936136 -0.234193 0.959938 0.019302 -0.006242 572299.000000 0 1 0
19.239282 -4.923064 12.392272 23.408437 -0.250511 1.012911 0.016196 -0.005383 -69589.400000 0 1 0
18.071882 -5.822164 11.880172 22.397076 -0.311667 1.011684 -0.006049 -0.004059 23284.200000 0 1 0
18.243782 -7.162464 12.282172 23.129812 -0.374109 1.011004 0.016899 -0.008222 251468.000000 0 1 0
17.033982 -7.851564 12.184772 22.366767 -0.431910 0.994680 -0.010105 0.007610 -1082260.000000 0 1 0
17.062182 -9.383564 12.418272 23.095082 -0.502815 1.003087 0.000968 -0.006402 -594641.000000 0 1 0
17.832182 -9.987164 11.418172 23.411638 -0.510537 1.061328 -0.019165 -0.014706 546875.000000 0 1 0
17.666382 -11.373864 11.402772 23.905837 -0.572014 1.073573 -0.006187 -0.009368 116374.000000 0 1 0
18.320682 -11.908364 10.060172 24.055427 -0.576372 1.139325 -0.002703 -0.011239 319720.000000 0 1 0
17.701782 -11.481164 8.872072 22.888510 -0.575382 1.172747 -0.011235 -0.005403 114522.000000 0 1 0
18.459782 -12.086764 7.886172 23.431712 -0.579716 1.227535 -0.003014 -0.020676 -330258.000000 0 1 0
18.442982 -11.375964 6.525872 22.630580 -0.552694 1.278277 0.006974 -0.014464 -472282.000000 0 1 0
18.783382 -10.035464 6.592572 22.293227 -0.490689 1.270586 0.005050 -0.005559 561343.000000 0 1 0
19.476682 -9.692464 5.410572 22.417834 -0.461761 1.327038 0.010927 -0.008693 -310923.000000 0 1 0
19.833182 -8.206964 5.269672 22.101556 -0.392346 1.330048 0.017065 -0.004590 -644586.000000 0 1 0
20.332182 -8.026564 3.938472 22.211144 -0.375991 1.392534 0.010614 -0.010634 585014.000000 0 1 0
20.553282 -6.638864 3.672772 21.908929 -0.312429 1.402363 0.009900 -0.010419 -603137.000000 0 1 0
21.432182 -6.368164 2.456972 22.492857 -0.288823 1.461344 0.025562 -0.005827 117549.000000 0 1 0
20.659482 -6.560564 1.251872 21.712263 -0.307485 1.513107 0.013019 -0.008652 738171.000000 0 1 0
20.958782 -5.674064 0.185672 21.714051 -0.264387 1.562245 0.009146 -0.002361 -237252.000000 0 1 0
-25.155987 -15.614564 -0.104728 29.608263 0.555508 1.574333 0.027648 -0.005820 -266869.000000 0 0 1
-24.117297 -15.017464 -0.897428 28.424876 0.556932 1.602373 0.019216 -0.000725 853077.000000 0 0 1
-22.835597 -15.630764 -0.720428 27.682201 0.600241 1.596824 0.014972 0.003985 388311.000000 0 0 1
-22.066797 -15.172764 0.471172 26.783918 0.602344 1.553204 0.001950 -0.001108 -1359210.000000 0 0 1
-22.434397 -15.772564 1.662272 27.474335 0.612772 1.510257 0.011692 0.003054 -1622.010000 0 0 1
-21.738497 -15.168664 2.751872 26.650017 0.609234 1.467352 0.003609 0.014539 305640.000000 0 0 1
-22.171297 -15.783264 4.103372 27.522999 0.618654 1.421150 0.007500 0.018489 -108543.000000 0 0 1
-21.882197 -17.197364 4.210972 28.148040 0.666088 1.420632 0.008434 0.009027 171165.000000 0 0 1
-22.345297 -17.775964 5.412672 29.061903 0.671999 1.383456 0.019940 -0.001935 -301980.000000 0 0 1
-22.215997 -19.304064 5.392272 29.921130 0.715380 1.389590 0.015396 -0.001945 13423.300000 0 0 1
-22.861897 -20.017364 6.425772 31.058843 0.719157 1.362401 0.002925 -0.000268 -83473.900000 0 0 1
-22.825397 -21.362264 6.076772 31.847641 0.752298 1.378812 0.010550 -0.001472 -24030.100000 0 0 1
-23.665597 -22.216864 7.036572 33.213896 0.753834 1.357322 0.010775 0.007567 61664.300000 0 0 1
-23.106997 -22.197364 8.347772 33.111049 0.765323 1.315932 0.011924 0.017581 -510052.000000 0 0 1
-24.031397 -22.624364 9.280572 34.285549 0.755250 1.296692 0.022746 0.025337 -274823.000000 0 0 1
-23.394597 -23.020564 10.651672 34.506690 0.777340 1.256987 -0.015198 0.017179 19628.900000 0 0 1
-22.919197 -21.969664 11.394572 33.731172 0.764248 1.226212 0.023427 0.017786 -321080.000000 0 0 1
-22.145097 -22.478764 12.440272 33.918439 0.792875 1.195261 0.034012 0.016941 -507711.000000 0 0 1
-22.265597 -21.841264 13.802572 34.107310 0.775778 1.154167 0.015097 0.024211 -889773.000000 0 0 1
-23.327597 -22.388664 14.495472 35.433709 0.764863 1.149343 0.013389 0.021519 -495426.000000 0 0 1
-23.415197 -22.010864 15.886972 35.848926 0.754493 1.111671 0.007640 0.025086 -429435.000000 0 0 1
-24.628397 -22.616364 16.625272 37.342436 0.742836 1.109386 -0.007892 0.021029 466982.000000 0 0 1
-25.907827 -22.167564 16.140072 37.724240 0.707755 1.128691 -0.016106 0.012715 681205.000000 0 0 1
-26.423857 -23.027264 15.133272 38.177101 0.716820 1.163208 -0.020896 0.010964 -434467.000000 0 0 1
-27.437267 -24.099564 15.619172 39.718398 0.720725 1.166635 -0.011977 0.010983 -453394.000000 0 0 1
-26.890927 -25.146124 16.400172 40.304034 0.751881 1.151726 -0.014727 0.022552 255451.000000 0 0 1
-27.809737 -26.254084 16.514772 41.658086 0.756632 1.163165 -0.025498 0.018941 203572.000000 0 0 1
-27.719067 -27.456464 15.533672 41.994036 0.780639 1.191893 -0.023775 0.018545 -254028.000000 0 0 1
-28.215827 -27.357044 14.222672 41.795037 0.769946 1.223565 -0.017735 0.006442 -725824.000000 0 0 1
-29.475607 -27.958964 14.226072 43.045281 0.758998 1.233973 0.011075 -0.008283 -605600.000000 0 0 1
-30.011027 -28.181374 12.827272 43.120650 0.753967 1.268751 0.021772 -0.021203 -331197.000000 0 0 1
-29.448897 -29.340224 12.256972 43.339585 0.783550 1.284071 0.031081 -0.019392 255808.000000 0 0 1
-29.941107 -29.692034 10.924672 43.559560 0.781221 1.317291 0.032704 -0.013499 178542.000000 0 0 1
-29.242367 -30.990904 10.489872 43.881540 0.814419 1.329409 0.043838 -0.024603 -167367.000000 0 0 1
-29.641117 -32.185604 11.123672 45.146927 0.826530 1.321844 0.038438 -0.012957 236621.000000 0 0 1
-28.936277 -33.261054 10.485872 45.316215 0.854820 1.337287 0.052462 -0.013080 153464.000000 0 0 1
-28.942977 -34.618109 11.273772 46.510293 0.874448 1.325965 0.041807 -0.009493 83016.300000 0 0 1
-30.254997 34.153859 11.331072 47.013233 -0.845857 1.327381 0.040489 -0.011129 -41551.200000 0 0 1
-30.349727 32.782861 11.658472 46.170790 -0.823919 1.315525 0.029288 -0.015897 -380460.000000 0 0 1
-31.720227 32.439461 12.314072 47.011996 -0.796608 1.305770 0.035974 -0.013424 1407210.000000 0 0 1
-32.877477 32.401001 11.416272 47.550863 -0.778099 1.328342 0.010943 -0.018133 1089720.000000 0 0 1
-33.306997 33.645730 10.949272 48.592980 -0.790457 1.343518 0.017600 -0.015710 -1424930.000000 0 0 1
-34.741163 33.436801 10.467372 49.340996 -0.766269 1.357028 -0.004789 -0.002228 -555009.000000 0 0 1
-34.875091 32.824691 9.197772 48.768138 -0.755121 1.381058 -0.021113 -0.001709 809405.000000 0 0 1
33.709672 32.541301 8.829772 47.678539 0.767764 1.384527 -0.022335 0.002931 442198.000000 0 0 1
33.637822 32.000761 7.388072 47.012077 0.760463 1.412990 -0.023295 0.001572 -86429.100000 0 0 1
34.078083 30.625851 7.233872 46.385206 0.732094 1.414205 -0.014919 -0.001435 195245.000000 0 0 1
33.862302 30.206831 5.943072 45.764924 0.728405 1.440568 0.003898 -0.002098 -161753.000000 0 0 1
34.012768 28.705581 5.710272 44.871884 0.700980 1.443193 -0.003194 0.004438 230949.000000 0 0 1
32.974282 27.905231 6.309172 43.655593 0.702326 1.425767 0.007011 0.004767 514974.000000 0 0 1
33.352262 27.485891 7.593972 43.880702 0.689270 1.396861 -0.006490 0.012185 -367827.000000 0 0 1
32.455552 26.381691 8.170272 42.615840 0.682531 1.377883 -0.002942 0.008209 -339103.000000 0 0 1
32.592732 25.192221 7.437172 41.859834 0.658022 1.392180 0.002305 0.002843 341110.000000 0 0 1
31.418422 24.386301 7.354772 40.446280 0.660046 1.387938 0.009029 0.007452 -347343.000000 0 0 1
31.569612 23.219891 6.393472 39.707433 0.634165 1.409078 0.005120 0.008238 279955.000000 0 0 1
32.489882 22.205491 6.791372 39.934934 0.599538 1.399905 0.016720 0.001093 920067.000000 0 0 1
33.882024 22.524891 6.719872 41.237349 0.586712 1.407110 0.019397 -0.006045 281630.000000 0 0 1
34.846249 21.316791 6.809372 41.412972 0.549006 1.405620 0.010406 -0.011565 -629561.000000 0 0 1
34.838996 20.419591 5.678872 40.779467 0.530146 1.431084 0.030998 -0.019503 85319.200000 0 0 1
-34.730530 19.105491 6.110672 40.106979 -0.502925 1.417841 0.033893 -0.024048 -263163.000000 0 0 1
34.794534 18.022791 5.062972 39.510939 0.477926 1.442302 0.034485 -0.016492 99161.200000 0 0 1
-34.346730 17.923291 3.832972 38.931143 -0.480962 1.472181 0.021918 -0.016000 799977.000000 0 0 1
-34.831943 16.772891 3.129772 38.786461 -0.448769 1.490016 0.018298 -0.011145 -531814.000000 0 0 1
-33.925077 16.308091 1.947372 37.691603 -0.448096 1.519107 0.010276 0.003697 366157.000000 0 0 1
-32.787677 15.560491 2.347272 36.368535 -0.443108 1.506210 0.020332 -0.002943 450267.000000 0 0 1
-31.661707 16.339291 2.690272 35.730570 -0.476412 1.495432 0.018358 -0.008824 -692513.000000 0 0 1
-30.381927 15.588491 3.091372 34.287302 -0.474060 1.480513 0.005407 -0.009893 -245867.000000 0 0 1
-30.472227 14.851391 4.265572 34.165999 -0.453496 1.445621 0.016325 -0.013838 919296.000000 0 0 1
-29.151997 14.576491 4.752572 32.937819 -0.463661 1.426002 0.001619 -0.008046 420980.000000 0 0 1
-29.123337 13.776591 6.076372 32.785446 -0.441850 1.384381 0.007418 -0.010308 -446934.000000 0 0 1
-29.392787 12.414591 6.069572 32.479188 -0.399640 1.382815 0.004299 0.002554 297146.000000 0 0 1
-29.098977 11.828691 7.326272 32.254343 -0.386096 1.341656 -0.012584 0.006652 -387010.000000 0 0 1
-29.016027 10.224291 7.327672 31.625318 -0.338782 1.336969 -0.013272 0.009547 634790.000000 0 0 1
-30.285997 9.578891 7.520372 32.642805 -0.306326 1.338324 -0.017806 0.009265 755688.000000 0 0 1
-30.125977 8.193691 7.497272 32.107945 -0.265557 1.335119 -0.020363 0.008135 -679136.000000 0 0 1
-31.423217 7.473191 7.256172 33.104670 -0.233486 1.349813 -0.023801 0.014579 -597110.000000 0 0 1
-32.361127 7.536291 8.308072 34.249997 -0.228803 1.325781 -0.024545 0.012335 -347889.000000 0 0 1
-33.553547 6.867391 8.035372 35.179095 -0.201882 1.340349 -0.012189 0.008923 -111537.000000 0 0 1
-34.199493 6.332191 9.343172 36.013842 -0.183081 1.308361 -0.003722 0.006957 -134191.000000 0 0 1
-34.788090 7.214991 10.281572 36.986187 -0.204499 1.289101 -0.004858 0.007699 254018.000000 0 0 1
-33.892477 8.015991 11.005572 36.525042 -0.232245 1.264724 -0.005463 0.002082 -102928.000000 0 0 1
-34.714750 9.003991 11.881572 37.780385 -0.253779 1.250876 0.002589 -0.006455 -246802.000000 0 0 1
34.467364 8.432891 12.910272 37.759607 0.239949 1.221851 -0.008939 -0.010988 584732.000000 0 0 1
33.829842 9.435091 13.718372 37.705077 0.271987 1.198416 0.005460 -0.012652 -493045.000000 0 0 1
33.190132 8.900291 14.959472 37.477804 0.261997 1.160201 -0.013336 -0.013335 -343090.000000 0 0 1
31.830242 8.530791 14.877272 36.156215 0.261855 1.146728 -0.017678 -0.012648 207802.000000 0 0 1
31.469052 7.940591 16.102972 36.230649 0.247171 1.110228 -0.028990 -0.001871 727860.000000 0 0 1
29.943082 7.549891 16.197372 34.870387 0.246993 1.087724 -0.044245 0.014071 357849.000000 0 0 1
29.155762 8.691491 16.464872 34.593243 0.289718 1.074745 -0.056576 0.010128 -188477.000000 0 0 1
27.780582 8.400691 16.534072 33.402214 0.293652 1.052962 -0.045094 0.013955 6283.520000 0 0 1
27.186222 7.739091 17.798672 33.403247 0.277334 1.008840 -0.043240 0.019959 -591543.000000 0 0 1
27.178942 8.573991 18.955772 34.227613 0.305583 0.983857 -0.027506 0.010952 209329.000000 0 0 1
26.537502 8.031091 20.125372 34.260298 0.293870 0.942922 -0.018720 0.018931 -87399.200000 0 0 1
27.144232 6.891691 20.962672 34.981972 0.248638 0.928242 -0.018242 0.025902 -573800.000000 0 0 1
26.363952 6.754591 22.104472 35.061234 0.250811 0.888659 -0.018743 0.026500 87232.300000 0 0 1
26.819342 5.639291 22.829672 35.668931 0.207250 0.876241 -0.010266 0.025815 -913439.000000 0 0 1
26.050662 5.329991 24.093972 35.882660 0.201816 0.834612 0.000522 0.022023 -136884.000000 0 0 1
24.702582 4.968591 23.919072 34.742286 0.198488 0.811417 -0.019573 0.023082 -376763.000000 0 0 1
23.803082 6.049891 23.927072 34.288375 0.248894 0.798449 -0.015942 0.032699 -534719.000000 0 0 1
22.356182 5.517791 24.044272 33.292220 0.241977 0.763791 0.003169 0.027988 -32616.700000 0 0 1
21.940882 4.823791 22.909872 32.086344 0.216411 0.775592 -0.009027 0.031608 237824.000000 0 0 1
20.528282 4.821291 22.801972 31.057771 0.230680 0.746339 0.001411 0.021134 -830372.000000 0 0 1
19.917282 3.833491 21.781472 29.762834 0.190145 0.749786 0.014329 0.022452 -43454.900000 0 0 1
18.633582 4.127791 21.273972 28.580254 0.218004 0.731222 0.025111 0.010625 1072530.000000 0 0 1
17.596682 3.862491 22.282272 28.654174 0.216074 0.679913 0.035435 0.010599 156.460000 0 0 1
16.171482 3.848591 21.706672 27.340594 0.233640 0.653541 0.042809 0.009588 -320438.000000 0 0 1
15.975882 2.731991 20.860572 26.416965 0.169369 0.660532 0.028272 0.014857 -335765.000000 0 0 1
14.756382 2.787591 20.175172 25.150726 0.186707 0.639875 0.022927 -0.004428 -510099.000000 0 0 1
13.661682 1.871091 20.739172 24.904935 0.136112 0.586770 0.017343 -0.006489 -579331.000000 0 1 0
14.096082 0.490691 20.680272 25.032258 0.034796 0.598565 0.008469 0.002950 570608.000000 0 0 1
13.227282 -0.279209 21.509872 25.252991 -0.021105 0.551432 -0.014358 -0.000172 38800.800000 0 0 1
13.646582 -1.733409 21.747772 25.733237 -0.126345 0.564000 -0.025827 0.007514 -287118.000000 0 0 1
13.526782 -2.491209 20.522072 24.704967 -0.182128 0.590457 -0.010883 0.005212 164903.000000 0 1 0
13.606982 -3.870009 20.870572 25.213245 -0.277097 0.595689 0.001343 0.016597 -206003.000000 0 0 1
13.482282 -4.800609 19.604472 24.272476 -0.342070 0.630584 0.002965 0.013495 978093.000000 0 1 0
12.146882 -4.699109 19.046772 23.073966 -0.369125 0.599769 0.000404 0.006073 903725.000000 0 1 0
11.989282 -5.483709 17.888972 22.222270 -0.428978 0.635117 0.007931 0.005529 900640.000000 0 1 0
10.464482 -5.644809 17.574972 21.219069 -0.494688 0.594795 0.008495 -0.000123 1001310.000000 0 1 0
9.736782 -6.537209 18.383072 21.805443 -0.591268 0.567868 0.007047 0.005368 -1143720.000000 0 1 0
8.366582 -6.363009 18.349772 21.147144 -0.650204 0.520202 -0.002843 0.000604 -711968.000000 0 1 0
7.641782 -7.159409 19.457472 22.096316 -0.752820 0.493721 -0.012931 0.003484 -509114.000000 0 1 0
7.689882 -8.573409 19.332872 22.503279 -0.839671 0.537261 -0.016666 0.005179 -356892.000000 0 1 0
8.851682 -9.192109 19.789672 23.547362 -0.804263 0.572739 0.008118 -0.001276 -527350.000000 0 1 0
8.905082 -10.666609 19.308172 23.788286 -0.875160 0.623796 0.009812 -0.008825 125828.000000 0 1 0
9.098482 -10.789209 17.903172 22.797214 -0.870208 0.667579 -0.000107 0.007687 -185086.000000 0 1 0
9.765082 -11.926309 17.498572 23.319385 -0.884706 0.722148 0.003013 -0.002643 -156346.000000 0 1 0
9.797482 -11.895309 15.950472 22.178967 -0.881805 0.768188 0.004810 -0.001663 -116643.000000 0 1 0
10.454682 -12.853909 15.220872 22.498851 -0.887970 0.827773 0.000972 -0.004268 -328482.000000 0 1 0
10.053582 -12.810609 13.865872 21.388048 -0.905402 0.865447 -0.007590 0.000013 -232639.000000 0 1 0
10.688982 -13.919109 13.004372 21.842839 -0.915915 0.933082 -0.002340 -0.007990 86839.300000 0 1 0
12.049382 -13.857109 12.660272 22.304474 -0.855064 0.967195 -0.014732 -0.003543 -380586.000000 0 1 0
12.331082 -12.987509 11.581472 21.327481 -0.811319 0.996754 -0.024829 -0.000086 -1273570.000000 0 1 0
13.772982 -13.018709 11.119972 21.973520 -0.757252 1.040183 -0.021891 0.001061 -615910.000000 0 1 0
14.179882 -14.241409 10.602172 22.722078 -0.787563 1.085351 -0.021854 0.010139 -131376.000000 0 1 0
15.330682 -14.182709 9.789172 23.065275 -0.746521 1.132484 -0.017628 0.000336 -306409.000000 0 1 0
15.899482 -15.518009 9.334372 24.098395 -0.773257 1.173047 -0.018655 0.001703 -80091.100000 0 1 0
16.376282 -16.318909 10.451572 25.371731 -0.783643 1.146217 -0.014485 0.002628 196993.000000 0 0 1
15.546782 -17.417909 10.837272 25.739705 -0.842099 1.136212 -0.001038 0.004709 86144.800000 0 0 1
15.625582 -17.856209 12.320472 26.735688 -0.851922 1.091872 -0.014891 0.002340 482023.000000 0 0 1
16.917282 -18.428309 12.548972 27.987027 -0.828122 1.105838 0.008125 -0.003005 497810.000000 0 0 1
16.992582 -19.168909 13.794772 29.094512 -0.845509 1.076813 -0.009883 -0.007784 -1167620.000000 0 0 1
18.306982 -19.868909 13.954772 30.408137 -0.826289 1.094022 -0.024050 -0.015925 -1341820.000000 0 0 1
19.379082 -18.979209 13.850972 30.456668 -0.774974 1.098675 -0.024195 -0.011593 -1092990.000000 0 0 1
20.546182 -19.751309 13.731972 31.635847 -0.765676 1.121798 -0.036540 -0.010889 -54687.500000 0 0 1
21.496482 -19.168009 12.631972 31.449611 -0.728200 1.157470 -0.020130 -0.003214 -497719.000000 0 0 1
21.152982 -19.376709 11.272572 30.821687 -0.741600 1.196374 -0.028902 0.015472 -97949.400000 0 0 1
19.878682 -18.995809 10.796972 29.539420 -0.762691 1.196615 -0.024176 0.016949 -61935.000000 0 0 1
19.678382 -17.447009 10.676672 28.383589 -0.725367 1.185152 0.003317 0.019807 -127867.000000 0 0 1
20.550082 -16.909009 9.697972 28.324391 -0.688501 1.221337 -0.002240 0.017037 42957.600000 0 0 1
20.294582 -15.553709 9.462572 27.264045 -0.653913 1.216350 0.006076 -0.006404 11536.200000 0 0 1
-33.560137 25.626336 8.674372 43.107268 -0.652145 1.368185 0.001237 0.012724 -773564.000000 0 0 1
-32.733307 24.703836 9.230072 42.035022 -0.646503 1.349412 0.010766 -0.003915 -368231.000000 0 0 1
-31.511577 25.323836 9.573472 41.544283 -0.676954 1.338266 0.011644 0.001915 254856.000000 0 0 1
-30.434737 24.321736 10.167072 40.263996 -0.674219 1.315523 0.021539 -0.017369 479411.000000 0 0 1
-29.643177 23.713436 9.148572 39.047936 -0.674718 1.334307 0.018751 -0.010880 724614.000000 0 0 1
-28.687987 22.756736 9.626372 37.862074 -0.670611 1.313726 0.020490 -0.006066 721318.000000 0 0 1
-27.966057 22.046436 8.429972 36.595219 -0.667583 1.338352 0.023044 -0.017646 625349.000000 0 0 1
-28.925077 21.193736 7.812272 36.699674 -0.632344 1.356285 0.027969 -0.027315 940168.000000 0 0 1
-28.224747 20.407336 6.876272 35.501814 -0.626016 1.375876 0.020329 -0.028412 -84784.700000 0 0 1
-29.134807 19.498036 6.062772 35.577627 -0.589779 1.399551 0.015360 -0.025937 -682203.000000 0 0 1
-29.789537 18.506836 6.773872 35.718410 -0.555900 1.379994 0.016496 -0.023465 228448.000000 0 0 1
-30.799607 18.006736 5.928372 36.166337 -0.529050 1.406134 0.007200 -0.023067 -541887.000000 0 0 1
-31.628197 16.867436 6.447372 36.420074 -0.489934 1.392830 0.016027 -0.009668 -709329.000000 0 0 1
-32.331837 17.124336 7.654072 37.378809 -0.487080 1.364567 0.022789 -0.019655 335093.000000 0 0 1
-32.964127 15.923536 8.130272 37.500586 -0.450001 1.352257 0.029675 -0.022199 -671539.000000 0 0 1
-33.858157 16.344336 9.265772 38.721656 -0.449736 1.329160 0.027290 -0.024155 -363085.000000 0 0 1
-34.881715 17.224336 8.829372 39.891974 -0.458669 1.347616 0.036220 -0.024323 243631.000000 0 0 1
34.292202 17.707236 9.935272 39.852364 0.476652 1.318837 0.038153 -0.013563 431669.000000 0 0 1
33.340392 18.901236 9.644472 39.520302 0.515738 1.324268 0.026653 -0.011745 -442626.000000 0 0 1
32.166672 18.603136 8.972772 38.226719 0.524338 1.333861 0.023632 -0.010153 -872984.000000 0 0 1
31.405462 19.770736 8.938372 38.171711 0.561851 1.334440 0.014675 -0.003624 -588214.000000 0 0 1
29.925992 19.513836 8.614172 36.749949 0.577829 1.334195 0.010696 -0.000535 -275140.000000 0 0 1
29.276862 20.805836 8.609372 36.934249 0.617843 1.335532 0.000552 0.008763 -78899.200000 0 0 1
28.066642 20.945836 7.911672 35.903467 0.641122 1.348613 -0.002250 0.005031 -243049.000000 0 0 1
28.082802 20.767336 6.356172 35.501083 0.636750 1.390784 -0.026403 0.013122 -597214.000000 0 0 1
28.159352 19.431836 5.966772 34.729637 0.604028 1.398133 -0.015680 0.008030 52488.500000 0 0 1
27.982762 19.273136 4.548172 34.280819 0.603136 1.437730 -0.016629 -0.000379 788387.000000 0 0 1
26.546002 19.482136 3.934872 33.162133 0.633118 1.451861 -0.000704 0.005307 454658.000000 0 0 1
25.506652 18.526236 4.328272 31.820506 0.628179 1.434352 0.000201 0.000875 1825030.000000 0 0 1
24.201882 18.849036 3.829572 30.914121 0.661695 1.446600 0.014786 -0.002213 589525.000000 0 0 1
23.527282 20.117536 4.367272 31.262138 0.707432 1.430639 0.025144 -0.010305 -1136930.000000 0 0 1
24.093882 21.315936 3.813772 32.394893 0.724299 1.452795 0.021163 -0.006123 498266.000000 0 0 1
23.479282 22.484336 4.307172 32.792892 0.763755 1.439071 0.020038 -0.002837 142912.000000 0 0 1
24.398082 23.696136 3.953572 34.240385 0.770804 1.455073 0.010512 0.010085 565331.000000 0 0 1
25.696832 23.701436 4.523772 35.249819 0.745026 1.442107 -0.001098 0.007001 -12539.700000 0 0 1
26.419672 24.800636 4.094572 36.466918 0.753799 1.458277 0.022082 0.003809 -1500330.000000 0 0 1
27.698902 24.878236 4.932972 37.556491 0.731801 1.439068 0.018207 0.007206 -442473.000000 0 0 1
28.675362 23.900536 4.576472 37.609255 0.694829 1.448809 0.009201 0.001753 320179.000000 0 0 1
29.269562 23.833636 3.296772 37.889552 0.683388 1.483676 0.016767 -0.011459 -562100.000000 0 0 1
30.080152 25.057036 2.750272 39.245822 0.694547 1.500661 0.023197 -0.016490 -332492.000000 0 0 1
29.327352 26.224536 2.691272 39.434284 0.729602 1.502496 0.018817 -0.020645 -684562.000000 0 0 1
30.073702 27.186436 2.063172 40.592937 0.735017 1.519949 0.040661 -0.014732 -909668.000000 0 0 1
29.669112 28.645136 2.393072 41.310129 0.767840 1.512834 0.044261 -0.012428 279407.000000 0 0 1
28.421192 29.115436 1.905772 40.732109 0.797464 1.523991 0.062468 -0.015466 466727.000000 0 0 1
27.341272 28.618636 2.717672 39.673129 0.808221 1.502241 0.043169 -0.005945 142021.000000 0 0 1
25.953482 29.142936 2.241272 39.088582 0.843222 1.513427 0.020927 -0.002167 245440.000000 0 0 1
25.675222 30.472636 2.582372 39.930780 0.870634 1.506080 0.014789 -0.009520 1122070.000000 0 0 1
24.338482 30.848836 2.159172 39.353200 0.902824 1.515902 0.015099 -0.001258 1203450.000000 0 0 1
23.942582 32.206536 2.857972 40.232775 0.931528 1.499701 0.028404 -0.011263 -154614.000000 0 0 1
24.023182 32.315036 4.294472 40.494657 0.931529 1.464546 0.010747 -0.021557 804074.000000 0 0 1
25.342562 32.283536 4.849572 41.327841 0.905269 1.453181 0.000406 -0.021083 591041.000000 0 0 1
25.136802 32.214036 6.373672 41.354886 0.908180 1.416058 0.015009 -0.027147 101271.000000 0 0 1
24.716982 30.945536 6.822572 40.188342 0.896833 1.400205 0.027303 -0.024177 299723.000000 0 0 1
25.580582 29.852636 6.463672 39.841248 0.862313 1.407840 0.017538 -0.016449 123683.000000 0 0 1
25.140252 28.468236 6.917872 38.604788 0.847398 1.390626 0.028312 -0.013766 -538035.000000 0 0 1
23.965082 28.068136 6.293472 37.439994 0.864090 1.401900 0.020468 -0.016650 -136465.000000 0 0 1
23.348482 26.847136 6.786172 36.221160 0.854986 1.382329 0.027252 -0.016556 1154400.000000 0 0 1
22.000482 26.412836 6.040372 34.901937 0.876286 1.396854 0.028584 -0.009498 831812.000000 0 0 1
21.941582 26.241136 4.614672 34.515582 0.874397 1.436697 0.017281 -0.011774 122562.000000 0 0 1
22.155582 27.455736 3.899972 35.495028 0.891828 1.460700 0.028423 -0.017114 -314573.000000 0 0 1
22.329082 27.381036 2.429472 35.414846 0.886679 1.502142 0.027762 -0.003697 -362722.000000 0 0 1
23.423082 26.616836 2.010072 35.512492 0.849136 1.514164 0.013158 0.011919 -96844.600000 0 0 1
23.293782 26.301136 0.622472 35.138831 0.845962 1.553081 0.022731 0.009201 265150.000000 0 0 1
24.625882 25.711336 0.074872 35.602141 0.806958 1.568693 0.039341 0.003283 -950427.000000 0 0 1
25.697782 26.621736 0.122572 37.001457 0.803056 1.567484 0.034871 0.005448 70794.300000 0 0 1
26.691002 26.241336 -0.828128 37.439325 0.776903 1.592917 0.034156 0.015681 -154504.000000 0 0 1
27.632302 25.102436 -0.496828 37.335281 0.737461 1.584104 0.036494 0.005808 -1523250.000000 0 0 1
27.026582 23.864636 -0.543628 36.059014 0.723346 1.585873 0.044386 -0.000782 249998.000000 0 0 1
27.794972 22.868336 0.144472 35.993640 0.688460 1.566782 0.045192 -0.008292 479578.000000 0 0 1
26.810822 21.905736 0.933172 34.634552 0.685050 1.543850 0.041286 -0.003072 531037.000000 0 0 1
26.197482 21.069336 -0.044428 33.618848 0.677327 1.572118 0.047788 -0.018002 486730.000000 0 0 1
25.214142 20.259336 0.580072 32.350118 0.676866 1.552864 0.049196 -0.001478 -71244.400000 0 0 1
24.494682 19.196536 -0.361528 31.122775 0.664724 1.582413 0.043166 -0.008339 -549575.000000 0 0 1
23.328882 18.776236 0.244072 29.947342 0.677691 1.562646 0.039818 -0.001529 -332342.000000 0 0 1
22.674282 17.756936 -0.497228 28.804150 0.664370 1.588060 0.040624 -0.013063 182474.000000 0 0 1
21.328682 17.251136 0.070072 27.432084 0.680098 1.568242 0.030058 0.002501 -235938.000000 0 0 1
20.688782 16.249236 -0.764528 26.318204 0.665783 1.599850 0.033502 0.000368 -515522.000000 0 0 1
19.451582 15.840336 -0.329028 25.087617 0.683428 1.583912 0.030765 0.005566 -407125.000000 0 0 1
18.282982 16.787136 -0.793728 24.833553 0.742771 1.602764 0.020999 0.006783 -289955.000000 0 1 0
18.195182 18.052936 -0.199828 25.632266 0.781474 1.578592 0.011579 0.012058 -903063.000000 0 0 1
17.118182 18.766036 -0.641628 25.408816 0.831287 1.596051 -0.003362 0.010056 -884434.000000 0 0 1
17.138682 20.231836 -0.202328 26.516080 0.867980 1.578427 0.000957 0.014954 -282183.000000 0 0 1
16.731082 20.403336 1.143272 26.410836 0.883969 1.527495 0.004646 0.016501 107258.000000 0 0 1
16.983082 21.724936 1.632572 27.623598 0.907294 1.511661 0.004198 0.012797 -328568.000000 0 0 1
16.026182 22.846236 1.130372 27.929675 0.959078 1.530313 -0.008095 0.012954 243146.000000 0 0 1
14.717182 22.670236 1.640272 27.078137 0.994994 1.510184 -0.012582 0.015517 -127828.000000 0 0 1
13.848882 23.694836 1.249772 27.473600 1.041875 1.525291 -0.018966 0.011438 134916.000000 0 0 1
12.443282 23.634936 1.900172 26.777903 1.086191 1.499776 -0.013854 0.011703 178878.000000 0 0 1
12.448882 23.702836 3.295472 26.975159 1.087188 1.448323 -0.013309 0.010530 612832.000000 0 0 1
11.129682 23.616536 3.854672 26.390701 1.130399 1.424210 -0.015982 0.010318 637692.000000 0 0 1
11.121082 23.929736 5.421172 26.938816 1.135753 1.368172 -0.015634 0.013498 -361758.000000 0 0 1
11.844182 22.993536 6.157872 26.587717 1.095135 1.337068 -0.015662 -0.003768 134871.000000 0 0 1
11.117582 22.571336 7.306872 26.200309 1.113124 1.288164 -0.010017 -0.003210 -394976.000000 0 0 1
11.769682 21.410036 8.050472 25.724019 1.068162 1.252493 0.002666 -0.006784 51605.600000 0 0 1
13.020682 21.578036 8.697872 26.660884 1.027864 1.238472 0.018630 -0.005248 1170890.000000 0 0 1
14.192482 21.516136 7.844272 26.942592 0.987688 1.275370 0.009776 -0.004830 820956.000000 0 0 1
15.512282 21.673236 8.660372 28.024312 0.949588 1.256623 0.027271 -0.002789 -77656.200000 0 0 1
15.685082 20.458936 9.383372 27.434240 0.916717 1.221718 0.029262 -0.009121 -244914.000000 0 0 1
16.880582 20.406236 10.091572 28.340930 0.879673 1.206729 0.027911 -0.008860 -665010.000000 0 0 1
17.073082 21.338136 11.335072 29.585301 0.895982 1.177612 0.009702 -0.002053 -271564.000000 0 0 1
16.120782 21.079236 12.348272 29.269329 0.917909 1.135274 0.012243 -0.001241 -17351.400000 0 0 1
16.334582 21.855636 13.491472 30.438581 0.928971 1.111591 0.005643 0.020199 238906.000000 0 0 1
17.249282 21.323236 14.671772 31.104324 0.890626 1.079584 0.021601 0.014771 1225080.000000 0 0 1
18.619182 21.345536 14.265172 31.714365 0.853512 1.104253 0.020519 0.014215 149689.000000 0 0 1
19.559482 20.925036 15.236572 32.443544 0.819116 1.081921 0.002303 0.012572 613374.000000 0 0 1
20.955782 21.528236 14.889672 33.530763 0.798872 1.110671 -0.002144 0.015363 364365.000000 0 0 1
21.466182 21.057836 13.624672 33.013044 0.775796 1.145374 -0.003368 0.009486 10448.800000 0 0 1
22.722882 21.594736 13.274972 34.042427 0.759948 1.170215 0.004779 0.013468 -101542.000000 0 0 1
23.389882 21.145236 11.960572 33.723328 0.735039 1.208238 -0.003422 0.020371 -185999.000000 0 0 1
22.807982 21.499736 10.728072 33.129054 0.755880 1.241025 0.002114 0.016677 710550.000000 0 0 1
23.768782 21.282836 9.665872 33.336814 0.730274 1.276626 0.006960 -0.000183 116511.000000 0 0 1
23.677582 22.267436 8.488872 33.593564 0.754716 1.315333 0.015544 -0.003745 -459752.000000 0 0 1
24.151082 23.561736 8.661972 34.834751 0.773047 1.319501 0.026096 0.000274 1215080.000000 0 0 1
25.570512 23.700736 8.386372 35.859548 0.747468 1.334743 0.006204 -0.000449 743210.000000 0 0 1
25.951232 25.112436 8.839172 37.178378 0.768973 1.330747 0.011557 0.003417 -321102.000000 0 0 1
27.236522 25.575836 8.455472 38.307264 0.753963 1.348236 0.003915 0.002298 582487.000000 0 0 1
27.396452 26.788136 9.254072 39.418367 0.774172 1.333819 0.013796 -0.001869 177767.000000 0 0 1
28.703512 27.570836 8.950872 40.794126 0.765273 1.349581 0.001348 0.001772 166726.000000 0 0 1
28.620492 28.407436 7.819972 41.076355 0.781662 1.379251 0.014506 0.002852 333667.000000 0 0 1
29.921092 28.737636 7.370872 42.136127 0.765226 1.394962 0.010167 0.007914 -277523.000000 0 0 1
29.892792 29.722436 6.161872 42.602475 0.782541 1.425651 0.020466 0.005089 36243.300000 0 0 1
29.641732 31.091336 6.586672 43.459034 0.809262 1.418650 0.017409 0.000512 224255.000000 0 0 1
29.654982 31.977636 5.507072 43.958105 0.823066 1.445186 0.016357 -0.005323 48956.400000 0 0 1
29.735622 33.439036 6.032672 45.152735 0.843953 1.436790 -0.014857 -0.001293 -15029.800000 0 0 1
28.484292 33.864636 6.529872 44.730389 0.871479 1.424290 -0.015642 -0.009728 45219.800000 0 0 1
28.504842 -34.085520 6.928072 44.970511 -0.874325 1.416122 -0.023420 -0.003394 -698767.000000 0 0 1
27.110702 -33.647420 7.358872 43.832545 -0.892572 1.402111 0.001303 -0.010906 -802704.000000 0 0 1
26.284462 -33.621020 6.231972 43.128684 -0.907260 1.425792 0.004617 -0.021073 -760176.000000 0 0 1
25.063422 -33.026320 6.617672 41.984598 -0.921628 1.412515 0.002039 -0.025061 179455.000000 0 0 1
23.904482 -33.381320 5.620972 41.440705 -0.949344 1.434738 0.024979 -0.017736 254162.000000 0 0 1
24.137782 -32.830320 4.337372 40.978960 -0.936816 1.464754 -0.001599 0.004976 -832413.000000 0 0 1
22.988982 -32.856720 3.559872 40.258291 -0.960289 1.482255 0.006788 -0.003299 -578244.000000 0 0 1
23.389582 -32.436920 2.153972 40.048294 -0.946063 1.516986 0.005412 0.014218 -69112.100000 0 0 1
23.689282 -31.050320 2.069672 39.109947 -0.919070 1.517852 0.007847 0.020332 35836.400000 0 0 1
24.158582 -30.671320 0.767872 39.050692 -0.903625 1.551132 -0.003951 0.010546 -23852.500000 0 0 1
24.503982 -29.144520 0.809472 38.085475 -0.871682 1.549541 -0.024679 0.018401 408699.000000 0 0 1
23.372282 -28.240120 0.854672 36.667402 -0.879435 1.547485 -0.035805 0.022841 541469.000000 0 0 1
22.966982 -27.894020 -0.462028 36.135468 -0.881969 1.583583 -0.024117 0.018767 -175309.000000 0 0 1
22.069082 -26.660120 -0.598028 34.614505 -0.879336 1.588074 -0.028167 0.013972 -412407.000000 0 0 1
22.658382 -25.392220 -0.276228 34.032975 -0.842232 1.578913 -0.044126 0.012123 -294663.000000 0 0 1
22.729982 -25.062120 1.108372 33.852480 -0.834157 1.538049 -0.056106 0.027339 -171709.000000 0 0 1
21.441282 -24.645620 1.842872 32.718975 -0.854815 1.514442 -0.046987 0.026538 -195903.000000 0 0 1
21.611682 -24.132820 3.141472 32.547298 -0.840456 1.474126 -0.064431 0.038099 -780617.000000 0 0 1
20.371482 -23.838120 3.724072 31.577237 -0.863652 1.452586 -0.033675 0.034038 -458031.000000 0 0 1
20.384482 -23.245020 5.137272 31.340861 -0.850869 1.406137 -0.036285 0.036466 22827.900000 0 0 1
20.618382 -21.832420 5.235972 30.482579 -0.813989 1.398171 -0.027667 0.043378 505154.000000 0 0 1
19.429082 -21.102620 4.890972 29.098649 -0.826664 1.401912 -0.031598 0.030700 172229.000000 0 0 1
19.510182 -19.544420 5.177272 28.096898 -0.786275 1.385472 -0.033978 0.029084 -378391.000000 0 0 1
19.191882 -19.125920 6.503372 27.864367 -0.783677 1.335230 -0.013771 0.027459 693472.000000 0 0 1
17.782782 -19.079320 6.778672 26.948064 -0.820556 1.316519 -0.000525 0.023364 943524.000000 0 0 1
18.329003 -26.471754 -12.649128 34.593447 -0.965190 1.945128 0.048846 -0.015671 226636.000000 0 0 1
18.420903 -25.128794 -13.018128 33.767701 -0.938226 1.966568 0.047409 -0.010083 -992488.000000 0 0 1
17.143703 -24.679164 -13.289428 32.856911 -0.963661 1.987189 0.037449 -0.007791 -834303.000000 0 0 1
16.970003 -23.200664 -13.629428 31.812154 -0.939277 2.013556 0.027175 -0.009138 -67150.700000 0 0 1
17.317403 -22.244264 -12.579228 30.869673 -0.909296 1.990505 0.027090 -0.007362 -129095.000000 0 0 1
18.620903 -22.208464 -12.029728 31.379424 -0.873040 1.964232 0.029078 -0.011893 -618963.000000 0 0 1
18.837403 -22.866464 -10.614628 31.470514 -0.881710 1.914831 0.032251 -0.010065 175882.000000 0 0 1
18.002703 -22.366464 -9.556728 30.260322 -0.893076 1.892114 0.029367 -0.009823 1107660.000000 0 0 1
16.604503 -22.649364 -9.756328 29.730274 -0.938192 1.905153 0.023528 0.004800 354583.000000 0 0 1
15.675603 -22.092964 -8.679028 28.445547 -0.953704 1.880851 0.009965 0.006940 -1480780.000000 0 0 1
15.701203 -20.661464 -8.594628 27.336633 -0.920972 1.890620 0.005753 -0.002412 416328.000000 0 0 1
14.758603 -20.091264 -7.670428 26.082767 -0.937238 1.869289 0.001344 -0.002232 -929552.000000 0 0 1
13.303803 -20.204564 -7.957228 25.466313 -0.988500 1.888579 0.012816 0.010245 -1701330.000000 0 0 1
12.885803 -21.557564 -8.109428 26.391956 -1.032041 1.883118 0.002760 0.014722 306926.000000 0 0 1
11.444303 -21.684164 -8.135628 25.833379 -1.085178 1.891176 0.011505 0.012120 1222080.000000 0 0 1
10.891303 -23.103564 -7.738328 26.688516 -1.130279 1.864971 0.012467 0.014269 132698.000000 0 0 1
10.948803 -23.195864 -6.302728 26.413042 -1.129786 1.811743 0.017658 0.013871 18849.200000 0 0 1
10.143003 -24.255464 -5.879828 26.940312 -1.174722 1.790821 0.017156 0.014021 -275958.000000 0 0 1
10.677303 -24.906464 -4.577028 27.482466 -1.165799 1.738120 0.035844 0.006778 -142845.000000 0 0 1
9.877903 -25.843084 -3.911528 27.941690 -1.205705 1.711247 0.049767 -0.006548 -581261.000000 0 0 1
10.511803 -26.253514 -2.760128 28.414140 -1.189949 1.668089 0.050576 -0.002961 46065.000000 0 0 1
9.551203 -27.046994 -1.837328 28.742671 -1.231333 1.634763 0.052446 0.001014 472226.000000 0 0 1
8.554503 -26.234234 -1.244928 27.621811 -1.255586 1.615882 0.042370 0.001298 -577825.000000 0 0 1
7.894603 -26.912984 -0.269828 28.048285 -1.285463 1.580417 0.049448 -0.004231 19972.600000 0 0 1
6.937503 -26.005954 0.561872 26.921261 -1.310101 1.549924 0.033544 -0.004916 872722.000000 0 0 1
5.619703 -25.760214 0.062772 26.366146 -1.356007 1.568416 0.044289 -0.008522 412223.000000 0 0 1
4.877703 -25.193004 1.139972 25.686163 -1.379549 1.526401 0.043417 -0.011740 905722.000000 0 0 1
3.376603 -24.817664 0.860572 25.061095 -1.435570 1.536451 0.013104 -0.010315 883115.000000 0 0 1
2.678703 -25.984564 0.482872 26.126733 -1.468071 1.552313 0.003973 -0.006327 751179.000000 0 0 1
1.277303 -25.823994 0.202372 25.856356 -1.521375 1.562969 -0.002905 0.003794 1084070.000000 0 0 1
0.421603 -27.070694 0.007172 27.073978 -1.555223 1.570531 0.003004 0.001572 -137067.000000 0 0 1
0.220003 -27.996734 1.057472 28.017562 -1.562938 1.533044 0.000651 0.005777 51435.700000 0 0 1
0.869303 -29.261994 0.888872 29.288395 -1.541097 1.540443 -0.007441 0.009785 71676.200000 0 0 1
0.293103 -30.293214 1.910672 30.354825 -1.561121 1.507810 -0.010199 0.010587 245203.000000 0 0 1
0.566603 -29.913884 3.253372 30.095613 -1.551857 1.462483 -0.015239 0.011863 119658.000000 0 0 1
0.035203 -30.898364 4.124372 31.172433 -1.569657 1.438099 -0.018100 0.012093 -247364.000000 0 0 1
0.353903 -30.726484 5.605072 31.235539 -1.559279 1.390374 -0.024298 0.004624 -339833.000000 0 0 1
1.693103 -31.047134 5.933072 31.654265 -1.516317 1.382248 -0.029415 0.012192 112686.000000 0 0 1
1.915303 -30.865224 7.334172 31.782393 -1.508822 1.337935 -0.023620 0.015949 61226.700000 0 0 1
3.322003 -31.385714 7.663272 32.478062 -1.465345 1.332598 -0.019660 0.009914 -27161.000000 0 0 1
3.324803 -32.795674 7.546172 33.816494 -1.469762 1.345751 -0.026140 0.005621 131423.000000 0 0 1
4.632403 -33.337634 7.673672 34.521620 -1.432726 1.346638 -0.025918 0.003379 191208.000000 0 0 1
4.747103 34.443947 7.565472 35.583098 1.433838 1.356547 -0.036384 0.009963 -685507.000000 0 0 1
4.483503 34.100216 6.282572 34.962798 1.440066 1.390122 -0.026130 0.010699 -28655.100000 0 0 1
4.412203 32.771431 6.101772 33.625375 1.436965 1.388322 -0.026085 0.010048 -521503.000000 0 0 1
4.538903 32.345621 4.579872 32.982057 1.431382 1.431487 -0.023224 0.009681 -1386460.000000 0 0 1
5.833903 32.484521 4.193572 33.269575 1.393100 1.444412 -0.022029 0.011111 -1082570.000000 0 0 1
6.575803 31.246741 4.327472 32.223082 1.363375 1.436092 -0.029850 0.011678 -675929.000000 0 0 1
7.961603 31.206791 3.727572 32.421378 1.321001 1.455569 -0.026283 0.009248 -278877.000000 0 0 1
8.961003 31.801921 4.573272 33.355308 1.296142 1.433255 -0.024159 0.000124 -992081.000000 0 0 1
10.200203 31.662931 4.030272 33.508633 1.259145 1.450229 -0.019967 0.001847 -1601830.000000 0 0 1
11.335803 32.194251 4.885772 34.479574 1.232246 1.428617 -0.010132 -0.008500 -563820.000000 0 0 1
11.682203 31.368681 5.992972 34.005643 1.214293 1.393636 -0.000757 -0.010184 -213043.000000 0 0 1
12.925203 31.747361 6.531572 34.894373 1.184161 1.382504 0.027006 -0.012325 -122246.000000 0 0 1
13.677703 30.669481 7.332672 34.372441 1.151298 1.355814 0.025546 -0.016818 -399246.000000 0 0 1
13.325403 30.588931 8.725472 34.487432 1.159958 1.315012 0.012151 -0.012850 -33174.100000 0 0 1
13.851403 29.492051 9.370472 33.903513 1.131709 1.290764 0.004737 -0.013391 -210765.000000 0 0 1
13.578803 29.483961 10.904372 34.243148 1.139205 1.246713 -0.009500 -0.009209 59643.200000 0 0 1
14.348703 30.468931 11.601172 35.620616 1.130675 1.239058 0.020953 -0.018622 478680.000000 0 0 1
13.774103 30.893161 12.838772 36.179378 1.151388 1.208027 0.007120 -0.011301 -150848.000000 0 0 1
14.665303 32.010361 13.413572 37.678353 1.141192 1.206810 0.024243 -0.007822 -4933.040000 0 0 1
15.835003 31.531131 14.006772 37.962471 1.105389 1.192903 0.017730 -0.010063 -421720.000000 0 0 1
16.451103 32.446341 14.834272 39.286887 1.101545 1.183606 0.029008 -0.006434 -335386.000000 0 0 1
17.613203 31.912271 15.691572 39.684297 1.066476 1.164282 0.021668 -0.002982 595915.000000 0 0 1
18.724603 31.341021 14.969372 39.458237 1.032256 1.181678 0.024416 -0.000236 759691.000000 0 0 1
18.692303 29.905231 14.892772 38.282107 1.012160 1.171221 0.013850 0.007850 -237536.000000 0 0 1
20.052803 29.321721 14.491372 38.365064 0.970965 1.183460 0.021130 -0.000215 -416255.000000 0 0 1
21.124303 29.504201 15.378072 39.410902 0.949428 1.169949 0.008533 0.006319 -785793.000000 0 0 1
22.283503 29.208271 14.651072 39.551631 0.919079 1.191325 0.009829 0.006040 -900247.000000 0 0 1
23.459603 29.133851 15.617072 40.534272 0.892871 1.175284 0.014578 0.001857 -740436.000000 0 0 1
23.710103 28.002601 16.395272 40.188551 0.868215 1.150579 0.007552 0.004317 270756.000000 0 0 1
24.658403 28.313891 17.455672 41.405480 0.854296 1.135611 0.014320 -0.003070 617036.000000 0 0 1
25.648003 27.172861 17.853272 41.411638 0.814259 1.125066 -0.000479 0.003402 166291.000000 0 0 1
25.003003 26.065301 18.502572 40.581958 0.806197 1.097378 0.006316 0.002073 435548.000000 0 0 1
24.703103 26.177871 19.930272 41.142922 0.814375 1.065101 0.027471 0.004365 -121525.000000 0 0 1
24.148903 24.916911 20.611272 40.358971 0.801049 1.034799 0.038033 0.002101 -163955.000000 0 0 1
25.104703 23.893391 20.905172 40.474270 0.760682 1.028032 0.014424 0.005906 24839.200000 0 0 1
24.571503 22.577991 20.865272 39.355864 0.743143 1.011996 0.021274 -0.002472 -359408.000000 0 0 1
25.600003 21.466891 21.103572 39.516431 0.697809 1.007418 0.003862 0.001597 -249143.000000 0 0 1
25.033303 20.200891 20.840972 38.328689 0.678971 0.995905 -0.009294 0.009839 838808.000000 0 0 1
26.005403 19.132691 21.025272 38.527950 0.634299 0.993554 -0.006279 0.004408 734206.000000 0 0 1
26.588503 18.808291 22.475272 39.570673 0.615665 0.966749 -0.002838 0.006319 -527432.000000 0 0 1
25.688203 18.179291 23.342372 39.182098 0.615869 0.932609 -0.011095 0.012248 35136.800000 0 0 1
26.121303 18.002191 24.726172 40.221698 0.603425 0.908731 -0.007584 0.018307 -676912.000000 0 0 1
25.033303 17.247891 25.518372 39.690595 0.603304 0.872476 -0.020503 0.014822 85444.500000 0 0 1
24.816303 15.957391 24.973972 38.654709 0.571453 0.868361 -0.024532 0.006535 340054.000000 0 0 1
23.655503 15.381691 25.542872 38.060709 0.576542 0.835093 -0.015207 0.009313 -206788.000000 0 0 1
23.277203 14.047791 24.950872 36.901418 0.542989 0.828273 -0.019906 0.018671 -630103.000000 0 0 1
22.064403 13.574291 25.453572 36.317814 0.551530 0.794199 -0.007151 0.007678 -329041.000000 0 0 1
21.798003 12.368491 24.802972 35.260742 0.516114 0.790604 -0.005517 0.012966 -646076.000000 0 0 1
20.460103 11.832391 25.289472 34.614718 0.524322 0.751598 -0.009737 0.009103 -915854.000000 0 0 1
19.338803 12.584591 24.893672 33.941953 0.576897 0.747458 -0.000740 0.001374 -540721.000000 0 0 1
18.258503 11.734891 25.209472 33.265569 0.571232 0.710824 0.002766 0.007253 -448540.000000 0 0 1
16.919803 12.476591 25.351772 32.934138 0.635385 0.692313 0.004669 -0.001490 -216810.000000 0 0 1
16.723903 13.195291 26.560472 34.047957 0.668002 0.675987 0.015834 0.009024 157744.000000 0 0 1
15.333303 13.323791 26.779772 33.612346 0.715390 0.648941 0.031780 0.008400 -53677.300000 0 0 1
15.003603 13.827591 28.171172 34.783981 0.744631 0.626833 0.026181 0.018958 -188191.000000 0 0 1
14.911403 12.740691 29.094072 35.087608 0.707058 0.593151 0.020808 0.018922 141256.000000 0 0 1
14.937503 13.146491 30.501272 36.418221 0.721711 0.578054 0.007308 0.017015 -209488.000000 0 0 1
16.371303 13.202591 31.058072 37.509090 0.678660 0.595239 0.016899 0.020792 -155052.000000 0 0 1
17.094903 14.358791 30.696272 37.956182 0.698628 0.628808 0.041073 0.007002 370704.000000 0 0 1
18.464203 14.050791 30.494772 38.318177 0.650488 0.650418 0.032255 0.016254 -128177.000000 0 0 1
19.367803 15.200591 30.040072 38.840388 0.665427 0.686572 0.031287 0.013421 -337181.000000 0 0 1
19.201603 15.823991 28.749172 38.021246 0.689263 0.713410 0.038904 0.005136 108027.000000 0 0 1
19.347903 14.960891 27.612372 36.886484 0.658220 0.724883 0.035860 0.001385 -394972.000000 0 0 1
19.166003 15.629391 26.277472 36.084887 0.684106 0.755086 0.013458 0.002241 452754.000000 0 0 1
20.310503 16.425091 25.907472 36.789907 0.680023 0.789500 0.020855 0.011727 871952.000000 0 0 1
20.296003 16.806091 24.565772 36.025680 0.691612 0.820445 0.017862 -0.000718 -133458.000000 0 0 1
21.292203 17.959991 24.352172 36.999291 0.700709 0.852398 0.010940 0.000155 -210856.000000 0 0 1
21.322403 18.314691 23.007572 36.323838 0.709662 0.884855 0.007606 -0.005310 297399.000000 0 0 1
22.420503 19.140191 22.606372 37.149347 0.706633 0.916594 0.005228 -0.001507 143366.000000 0 0 1
22.537403 20.567491 23.214572 38.338918 0.739730 0.920391 0.022741 -0.004309 71615.500000 0 0 1
21.527103 21.462591 22.705972 37.942327 0.783898 0.929251 0.026256 -0.002653 628521.000000 0 0 1
21.627703 22.740691 23.360172 39.122810 0.810478 0.930917 0.027869 -0.004290 314066.000000 0 0 1
20.539403 23.801791 22.978272 38.940896 0.858840 0.939637 0.020425 -0.004522 371379.000000 0 0 1
20.863603 24.416271 21.735972 38.780107 0.863698 0.975816 0.028537 -0.002528 367415.000000 0 0 1
20.161103 25.630971 21.701272 39.170933 0.904285 0.983617 0.024096 0.003989 -101461.000000 0 0 1
20.737703 26.529411 20.574772 39.461161 0.907322 1.022314 0.018116 0.003966 -121341.000000 0 0 1
20.616503 25.978241 19.337672 38.390817 0.899966 1.042913 0.011303 0.009055 220967.000000 0 0 1
21.099003 26.853241 18.339072 38.763205 0.904826 1.077984 0.018760 0.009477 -232533.000000 0 0 1
21.232303 26.201821 16.957872 37.748054 0.889784 1.104884 0.019661 0.013400 246328.000000 0 0 1
19.967103 25.994221 16.307672 36.610448 0.915789 1.109133 0.019629 0.012742 477042.000000 0 0 1
20.159903 25.615281 14.903072 35.842236 0.904016 1.141978 0.020315 0.012254 -880803.000000 0 0 1
18.936703 25.085881 14.113272 34.454094 0.924183 1.148753 0.014636 0.020378 762359.000000 0 0 1
17.856203 26.017911 13.953072 34.503100 0.969321 1.154473 0.009270 0.023658 463323.000000 0 0 1
17.108703 26.330921 15.121472 34.852318 0.994592 1.122010 0.009420 0.024874 -669804.000000 0 0 1
15.655803 26.854821 14.830372 34.441625 1.042986 1.125645 0.002529 0.025753 363208.000000 0 0 1
14.756203 25.843311 14.403672 33.061882 1.051983 1.120027 0.005463 0.030175 323377.000000 0 0 1
14.256403 24.882301 15.326572 32.515808 1.050501 1.079967 0.019518 0.024317 -381847.000000 0 0 1
13.191603 25.400511 16.309372 32.942374 1.091794 1.052860 0.021129 0.012574 -703715.000000 0 0 1
13.723903 26.356541 17.121772 34.295304 1.090725 1.048069 0.018996 0.014902 459378.000000 0 0 1
12.794403 26.809851 18.122272 34.797724 1.125532 1.023021 0.017638 0.014409 368833.000000 0 0 1
13.414203 28.022741 18.852572 36.340533 1.124342 1.025379 0.018125 0.007278 -207198.000000 0 0 1
13.426103 29.119851 17.997372 36.771339 1.138780 1.059349 0.017797 -0.002304 407937.000000 0 0 1
14.079603 30.246391 18.604172 38.199406 1.135130 1.062113 0.020787 -0.007431 -17086.200000 0 0 1
13.906903 31.441561 17.660272 38.650471 1.154356 1.096264 0.020842 -0.015698 -710578.000000 0 0 1
12.636303 31.980071 17.722372 38.684410 1.194495 1.094909 0.022797 -0.013248 -821170.000000 0 0 1
12.632903 33.200541 17.045772 39.400819 1.207210 1.123394 0.028460 -0.014405 979432.000000 0 0 1
11.225303 33.941429 17.075472 39.618175 1.251394 1.125195 0.025378 -0.016063 767140.000000 0 0 1
11.059203 -34.086314 16.369772 39.397363 -1.257065 1.142299 0.023703 -0.012817 -88860.000000 0 0 1
11.880203 -33.007504 16.821072 38.904795 -1.225308 1.123682 0.034707 -0.019517 17168.700000 0 0 1
11.751903 -32.436274 18.241772 39.025394 -1.223200 1.084411 0.041470 -0.014145 -346836.000000 0 0 1
12.397503 -33.299044 19.130272 40.354575 -1.214388 1.076906 0.050547 -0.020869 192898.000000 0 0 1
12.033103 -32.977694 20.479772 40.641665 -1.220922 1.042676 0.049197 -0.022975 -43956.000000 0 0 1
12.991003 -33.664444 21.508372 42.007988 -1.202507 1.033277 0.054498 -0.021153 -170711.000000 0 0 1
14.224803 -33.008894 21.521072 41.893779 -1.163906 1.031298 0.054066 -0.025788 -27632.400000 0 0 1
15.125203 -33.601384 22.504672 43.177368 -1.147829 1.022523 0.054600 -0.021634 36875.400000 0 0 1
16.570403 -33.186264 22.311372 43.286300 -1.107697 1.029278 0.079068 -0.023077 -601449.000000 0 0 1
16.868503 -31.831394 22.618072 42.536587 -1.083490 1.010152 0.083817 -0.022882 824485.000000 0 0 1
18.253503 -31.555464 22.359172 42.765293 -1.046367 1.020624 0.087484 -0.017078 537612.000000 0 0 1
-4.753197 12.837636 18.897955 23.335177 -1.216192 0.626903 0.021766 0.011861 -646270.000000 0 1 0
-4.443597 14.132536 18.506755 23.705993 -1.266160 0.675046 0.025963 0.013915 479430.000000 0 1 0
-5.640597 14.850236 18.199255 24.156960 -1.207796 0.717617 0.014979 0.011413 443230.000000 0 1 0
-5.303897 16.260536 17.749555 24.649200 -1.255496 0.766869 0.017136 0.012496 -41947.400000 0 1 0
-4.746897 17.014936 18.781155 25.783189 -1.298730 0.754774 0.024220 0.013302 120747.000000 0 0 1
-4.684697 18.371636 18.443655 26.450554 -1.321121 0.799189 0.019027 0.024465 -282285.000000 0 0 1
-4.195397 19.353736 19.497055 27.790351 -1.357325 0.793189 0.017406 0.018066 -487036.000000 0 0 1
-5.083797 19.550936 20.522655 28.796935 -1.316402 0.777502 0.012754 0.018881 40287.900000 0 0 1
-4.412997 20.304436 21.584455 29.960530 -1.356783 0.766375 0.008685 0.022287 451084.000000 0 0 1
-5.362497 20.634236 22.746855 31.176072 -1.316537 0.753022 -0.007722 0.021519 -23077.800000 0 0 1
-5.772697 19.477836 23.510855 31.072020 -1.282671 0.712612 -0.008486 0.009990 176783.000000 0 0 1
-6.462297 19.625436 24.767675 32.254561 -1.252697 0.695269 -0.018060 0.013013 260423.000000 0 0 1
-5.655697 20.196236 25.952845 33.368024 -1.297753 0.679677 -0.031334 0.009209 -580423.000000 0 0 1
-5.254397 21.532336 25.826005 34.032818 -1.331450 0.709242 -0.029993 0.015986 -193837.000000 0 0 1
-4.299197 21.965336 26.742315 34.872776 -1.377513 0.696872 -0.024533 0.015471 109359.000000 0 0 1
-2.815897 21.635936 26.417725 34.262796 -1.441375 0.690336 -0.010776 0.015368 -56588.600000 0 0 1
-2.426397 20.269336 26.688345 33.600612 -1.451656 0.652972 -0.001882 0.017405 -212115.000000 0 0 1
-1.097397 20.023336 26.321155 33.089900 -1.516045 0.651057 0.004276 0.017604 -280646.000000 0 0 1
-0.452497 18.828636 27.008435 32.926856 -1.546769 0.608939 -0.001137 0.026025 -426541.000000 0 0 1
-0.912297 17.534436 26.564105 31.842431 -1.518814 0.584050 0.011722 0.020694 -5509.360000 0 0 1
-0.097397 16.402336 26.867795 31.478953 -1.564858 0.548100 0.009833 0.015870 747446.000000 0 0 1
1.222703 16.360036 25.972095 30.719627 1.496198 0.563378 0.001858 0.021033 197783.000000 0 0 1
1.196503 16.017736 24.601155 29.380543 1.496236 0.578419 0.010091 0.009741 -398315.000000 0 0 1
0.859403 14.675436 24.420105 28.503482 1.512302 0.541879 0.017888 0.009830 -264556.000000 0 0 1
1.050803 14.198336 22.995055 27.045692 1.496922 0.554375 0.030333 0.001007 161407.000000 0 0 1
2.418103 14.237636 22.624055 26.840368 1.402563 0.568125 0.022660 0.000466 74920.500000 0 0 1
2.701603 13.615936 21.355555 25.470612 1.374925 0.576384 0.020200 -0.007499 388896.000000 0 0 1
4.208703 13.553936 20.954155 25.308081 1.269721 0.595331 0.016264 -0.007028 608323.000000 0 0 1
4.515403 14.710836 20.195055 25.389718 1.272981 0.651124 0.014675 -0.011469 645975.000000 0 0 1
5.947603 14.797636 20.051655 25.620556 1.188628 0.671902 0.017713 -0.012304 902780.000000 0 0 1
6.383703 15.904736 19.122855 25.678705 1.189108 0.730716 0.013064 -0.012833 -365616.000000 0 0 1
5.986703 15.643436 17.827255 24.461576 1.205294 0.754249 0.011716 -0.022840 -35855.500000 0 1 0
6.463903 16.550936 16.875355 24.504961 1.198466 0.811170 0.007172 -0.008569 -267386.000000 0 1 0
6.178303 15.982436 15.491855 23.099941 1.201922 0.835719 0.001703 -0.005170 66247.000000 0 1 0
7.080203 15.049736 14.912555 22.338490 1.131064 0.839853 -0.000289 -0.012395 -43231.500000 0 1 0
7.366803 13.967736 15.729455 22.288634 1.085457 0.787362 0.009689 -0.013683 329359.000000 0 1 0
8.611803 13.123836 15.287755 21.911496 0.990078 0.798608 0.006840 -0.014981 117718.000000 0 1 0
9.903503 13.632336 15.327555 22.778365 0.942524 0.832675 0.012722 -0.018735 -648489.000000 0 1 0
10.716503 12.925436 14.444455 22.148422 0.878560 0.860358 0.001060 -0.011684 288632.000000 0 1 0
12.188803 13.417636 14.336255 23.111211 0.833351 0.901651 0.018759 -0.008766 -94777.500000 0 1 0
13.003503 13.037036 15.430155 24.023844 0.786686 0.873321 0.029059 -0.014115 860802.000000 0 1 0
14.340703 13.550536 15.395655 25.025966 0.757075 0.908173 0.029296 -0.009626 1007860.000000 0 0 1
15.349503 12.982436 14.344355 24.696385 0.702044 0.951051 0.024014 -0.017118 -42122.200000 0 1 0
16.674403 13.381336 14.687755 25.938890 0.676268 0.968854 0.021256 -0.014426 600137.000000 0 0 1
17.577503 13.175136 13.613755 25.843513 0.643210 1.015993 0.030312 -0.018091 369851.000000 0 0 1
18.971303 13.850536 13.787155 27.236618 0.630629 1.040024 0.013160 -0.013777 789958.000000 0 0 1
19.728003 13.336436 14.911855 28.096584 0.594447 1.011328 -0.003519 0.001176 284254.000000 0 0 1
20.894703 14.128536 15.050155 29.371948 0.594558 1.032820 -0.009271 -0.009896 -115463.000000 0 0 1
21.689603 13.813536 16.326755 30.460066 0.567092 1.005098 -0.019590 0.014149 -377992.000000 0 0 1
22.227403 12.530036 16.385155 30.323795 0.513316 0.999955 -0.007459 0.009136 365698.000000 0 0 1
23.007803 12.422336 17.584555 31.510157 0.495070 0.978750 -0.027274 0.016362 -266420.000000 0 0 1
23.452403 10.970936 17.772855 31.404634 0.437554 0.969234 -0.012622 0.026113 -431645.000000 0 0 1
22.415103 10.100336 18.216855 30.599141 0.423356 0.933109 -0.034345 0.031453 508471.000000 0 0 1
22.635803 8.726736 17.981455 30.197156 0.367969 0.932948 -0.026372 0.029578 180241.000000 0 0 1
21.393803 7.895736 18.448355 29.332222 0.353559 0.890601 0.006081 0.025042 198691.000000 0 0 1
21.414003 6.500836 18.131955 28.802573 0.294737 0.889854 0.008951 0.021367 1325990.000000 0 0 1
20.177203 5.863936 18.527255 28.013648 0.282831 0.848159 0.005772 0.024229 489320.000000 0 0 1
20.186303 4.375836 18.222955 27.544707 0.213470 0.847876 0.050194 0.018427 -1181920.000000 0 0 1
20.163503 4.150336 16.838855 26.595849 0.202999 0.885195 0.066615 -0.001005 507941.000000 0 0 1
19.985703 2.813036 16.393555 26.001734 0.139834 0.888626 0.040488 -0.006533 -1275890.000000 0 0 1
18.667603 2.196436 16.754455 25.179665 0.117122 0.842772 0.059314 -0.004379 -1206170.000000 0 0 1
18.634003 1.522136 18.011655 25.960791 0.081505 0.804041 0.039954 -0.005939 -104331.000000 0 0 1
17.335203 1.032336 18.258455 25.198138 0.059481 0.760349 0.044511 -0.010252 -360055.000000 0 0 1
17.230403 0.174136 19.567955 26.073396 0.010106 0.721985 0.029174 -0.002212 -96341.000000 0 0 1
17.746003 -1.146364 19.445955 26.351090 -0.064509 0.740759 0.031478 -0.002419 -169097.000000 0 0 1
16.789203 -2.089064 19.833655 26.069434 -0.123793 0.706250 0.024981 0.010392 -385670.000000 0 0 1
17.021003 -3.466364 19.184655 25.880132 -0.200905 0.735808 0.002658 0.007811 36412.100000 0 0 1
16.431403 -3.559564 17.876055 24.540066 -0.213335 0.754749 -0.013870 0.000755 387048.000000 0 1 0
16.702103 -4.845264 17.343855 24.561070 -0.282349 0.786747 0.012234 0.003595 -182429.000000 0 1 0
16.477403 -4.947464 15.882955 23.414749 -0.291693 0.825307 0.006994 -0.004517 220879.000000 0 1 0
15.122103 -4.727764 15.475455 22.147674 -0.303012 0.797162 -0.008528 -0.003934 763553.000000 0 1 0
14.998203 -4.679464 14.040755 21.070982 -0.302431 0.841487 -0.004768 -0.005635 138150.000000 0 1 0
15.674203 -3.452464 13.384355 20.898352 -0.216802 0.875712 -0.000079 -0.003041 241647.000000 0 1 0
14.894303 -2.252664 13.642355 20.323106 -0.150106 0.834871 -0.000438 -0.000323 581281.000000 0 1 0
15.473503 -1.086464 13.115555 20.313234 -0.070099 0.868902 0.003915 -0.001092 48990.400000 0 1 0
14.545303 0.160236 13.191555 19.636921 0.011016 0.834197 0.007021 -0.000288 -398789.000000 0 1 0
15.169703 1.311136 12.740355 19.853353 0.086217 0.874053 0.021933 -0.003514 120588.000000 0 1 0
15.874303 2.027136 13.721055 21.080089 0.127012 0.862025 0.030100 -0.007638 -184411.000000 0 1 0
16.146403 3.453236 13.090955 21.071409 0.210696 0.900439 0.031634 -0.008401 -173558.000000 0 1 0
15.004903 4.279636 13.061855 20.348820 0.277839 0.873826 0.024754 -0.013368 263341.000000 0 1 0
15.303603 5.564936 12.655455 20.623514 0.348770 0.910131 0.039943 -0.010977 -708612.000000 0 1 0
14.139203 6.514436 12.780255 20.141744 0.431746 0.883414 0.032589 -0.014024 -776692.000000 0 1 0
14.261603 7.694436 12.012055 20.171444 0.494762 0.932911 0.016093 -0.022610 32155.100000 0 1 0
13.525803 8.804736 12.492055 20.408875 0.577049 0.912096 0.011828 -0.006940 -687670.000000 0 1 0
13.968403 9.402236 13.856555 21.806477 0.592448 0.882227 0.039985 -0.010862 -155607.000000 0 1 0
13.409403 8.862636 14.999655 21.985178 0.584018 0.819944 0.033720 -0.012660 380347.000000 0 1 0
14.036603 9.444036 16.135155 23.378607 0.592247 0.809076 0.049290 -0.010724 -12879.600000 0 1 0
13.439103 8.869636 17.404155 23.710431 0.583364 0.746560 0.043319 -0.013502 68127.300000 0 1 0
12.156003 9.421236 17.667955 23.424020 0.659327 0.716260 0.041897 -0.018348 526858.000000 0 1 0
11.448203 8.791936 18.759455 23.670164 0.654906 0.655840 0.030039 -0.007575 16202.400000 0 1 0
11.833603 9.109236 20.192555 25.114769 0.656039 0.636786 0.030805 -0.000704 -1200850.000000 0 0 1
13.121703 8.677336 20.449655 25.800458 0.584276 0.655722 0.041827 0.000913 -795501.000000 0 0 1
13.615903 9.075636 21.708455 27.184867 0.587920 0.645915 0.039566 0.012290 48871.000000 0 0 1
15.120003 8.711336 21.731055 27.870067 0.522695 0.676566 0.042233 0.010288 254214.000000 0 0 1
16.002403 9.590836 21.039655 28.119888 0.539932 0.725432 0.042614 0.012045 -97136.800000 0 0 1
16.946903 8.839136 20.337355 27.909422 0.480761 0.754387 0.037644 0.005074 86319.200000 0 0 1
17.915303 9.703036 19.433755 28.156311 0.496376 0.809018 0.033389 0.010945 539757.000000 0 0 1
18.777003 10.527036 20.229255 29.540093 0.510971 0.816458 0.008517 0.018394 293692.000000 0 0 1
19.669103 11.233636 19.397255 29.821497 0.518922 0.862626 -0.003972 0.016178 -16672.200000 0 0 1
20.492403 12.315336 20.193155 31.294881 0.541133 0.869440 -0.021699 0.019588 -104476.000000 0 0 1
19.672703 13.386236 20.653855 31.508543 0.597482 0.855952 -0.006301 0.007518 446431.000000 0 0 1
20.192703 14.078136 21.813455 32.890211 0.608837 0.845683 -0.017501 0.013685 -27414.900000 0 0 1
21.445903 14.969036 21.529655 33.875136 0.609376 0.882064 -0.027855 0.010333 -36208.600000 0 0 1
22.633403 14.257336 21.413855 34.265081 0.562133 0.895733 -0.037364 0.013045 -330518.000000 0 0 1
23.798803 15.073636 21.404455 35.380054 0.564601 0.921047 -0.044418 0.016897 381401.000000 0 0 1
25.095803 14.253536 21.284355 35.860652 0.516531 0.935359 -0.040419 0.011730 -158760.000000 0 0 1
25.306403 13.781236 19.952455 35.049065 0.498669 0.965176 -0.044533 0.007326 309882.000000 0 0 1
26.477803 12.987036 19.899955 35.577315 0.456009 0.977202 -0.029963 0.002427 -19939.800000 0 0 1
26.797703 12.306736 18.564555 34.845593 0.430516 1.008930 -0.021844 0.004326 -615439.000000 0 0 1
27.162903 13.182736 17.547055 34.921440 0.451836 1.044340 -0.022928 0.001297 244416.000000 0 0 1
27.607203 12.465936 16.391855 34.441982 0.424139 1.074779 -0.019581 -0.002882 115212.000000 0 0 1
26.512603 11.816736 15.480855 32.896964 0.419274 1.080841 -0.020282 -0.012649 54636.400000 0 0 1
25.925503 12.746836 14.643655 32.389044 0.456963 1.101658 -0.011836 -0.014090 -666370.000000 0 0 1
24.839403 12.270936 13.926055 31.008174 0.458845 1.105028 -0.007657 -0.010531 -344061.000000 0 0 1
24.442503 13.306336 12.823455 30.642055 0.498528 1.139012 -0.017153 -0.014486 -106658.000000 0 0 1
23.830603 14.458536 13.368755 30.913921 0.545347 1.123587 -0.025241 -0.004537 299879.000000 0 0 1
23.539503 15.289536 12.276255 30.636327 0.576042 1.158506 -0.029406 -0.007811 -543109.000000 0 0 1
22.940803 16.669636 12.641255 31.047682 0.628380 1.151458 -0.024583 0.000242 -62113.100000 0 0 1
21.543603 16.582036 12.871855 30.079485 0.655988 1.128597 -0.010654 -0.010802 201448.000000 0 0 1
21.014403 17.781536 13.371155 30.603528 0.702260 1.118630 -0.007064 -0.004698 -589668.000000 0 0 1
20.216703 18.540136 12.225255 30.031793 0.742166 1.151545 -0.007529 -0.001519 747336.000000 0 0 1
19.074403 17.840036 11.685255 28.611972 0.751972 1.150091 0.013681 -0.006113 553932.000000 0 0 1
17.971903 17.745236 12.551055 28.203044 0.779052 1.109594 0.010522 -0.000970 1280.550000 0 0 1
16.695703 17.173336 11.809355 26.704510 0.799500 1.112720 0.022489 -0.009666 532606.000000 0 0 1
16.551403 15.792236 11.913055 25.792723 0.761931 1.090686 0.021443 -0.010218 435807.000000 0 0 1
15.347803 15.446136 11.234355 24.502019 0.788591 1.094481 0.019149 -0.017676 280077.000000 0 1 0
15.464803 14.197736 10.332255 23.398533 0.742708 1.113441 0.024434 -0.022237 -164777.000000 0 1 0
15.407303 13.041836 11.103555 23.038303 0.702442 1.067905 0.016363 -0.016169 424060.000000 0 1 0
15.822003 12.023036 10.195455 22.334648 0.649803 1.096755 0.021117 -0.013790 -308347.000000 0 1 0
16.247403 10.786036 11.022755 22.401290 0.586058 1.056343 0.028734 -0.019594 -996871.000000 0 1 0
16.611503 9.710536 10.165755 21.761873 0.528994 1.084747 0.004660 -0.025288 390327.000000 0 1 0
17.093603 8.559936 10.873955 21.993332 0.464262 1.053628 -0.006759 -0.023979 202543.000000 0 1 0
18.494103 8.736136 11.536755 23.482944 0.441304 1.057235 0.010181 -0.023499 -230599.000000 0 1 0
18.454803 9.342636 12.818655 24.334801 0.468630 1.016009 0.026629 -0.022938 470121.000000 0 1 0
19.733603 9.285836 13.448055 25.622100 0.439819 1.018244 0.029390 -0.024723 -325228.000000 0 0 1
19.631203 9.505436 14.972755 26.456017 0.450928 0.969213 0.028485 -0.002211 69742.000000 0 0 1
19.133503 8.375036 15.688555 26.122077 0.412592 0.926562 0.046262 -0.003144 748024.000000 0 0 1
17.787203 8.006036 15.417955 24.863518 0.422938 0.901922 0.053736 -0.009131 -373212.000000 0 1 0
17.439303 6.692036 16.172155 24.707311 0.366405 0.857210 0.055726 -0.001994 -362868.000000 0 1 0
16.058303 6.445336 16.066355 23.612268 0.381688 0.822455 0.050736 -0.011850 -66551.600000 0 1 0
15.706703 5.241736 16.774255 23.570150 0.322104 0.778919 0.058345 -0.009037 -335250.000000 0 1 0
14.192103 5.337636 17.109355 22.861238 0.359734 0.725150 0.046390 -0.022493 -3031.700000 0 1 0
13.630203 4.117236 17.493355 22.555521 0.293352 0.683181 0.033981 -0.012162 188438.000000 0 1 0
13.339203 3.294936 16.398555 21.394007 0.242164 0.697419 0.040086 -0.013114 -769056.000000 0 1 0
13.153503 1.793936 16.726855 21.354637 0.135548 0.670857 0.024873 -0.008347 -89298.600000 0 1 0
14.399103 1.143836 16.849055 22.193089 0.079272 0.708709 0.019081 -0.007872 148225.000000 0 1 0
14.289603 -0.332264 16.715355 21.993323 -0.023248 0.707453 0.013099 0.000869 -322794.000000 0 1 0
13.434403 -1.126064 17.745055 22.285381 -0.083624 0.649702 0.010637 0.004749 -159432.000000 0 1 0
12.075003 -0.856364 17.551855 21.321507 -0.070802 0.603773 0.004903 -0.003604 -994858.000000 0 1 0
11.261603 -1.714764 18.277555 21.536786 -0.151106 0.557337 -0.008406 -0.004178 -46342.900000 0 1 0
-24.635297 14.419336 29.073845 40.744368 -0.529550 0.776219 0.044142 0.003102 -241042.000000 0 0 1
-23.793897 14.232136 30.201895 40.998264 -0.539052 0.742674 0.041754 0.001081 -41898.100000 0 0 1
-23.166597 13.015136 30.134085 40.176461 -0.511862 0.722669 0.030046 0.002861 -128806.000000 0 0 1
-22.046497 12.906536 31.214555 40.335780 -0.529632 0.685871 0.046803 -0.008342 50990.500000 0 0 1
-22.584297 13.109536 32.543895 41.725478 -0.525936 0.676206 0.037184 -0.010854 -51044.600000 0 0 1
-21.634397 13.028236 33.581039 42.017475 -0.542036 0.644807 0.011245 -0.007215 -556091.000000 0 0 1
-22.137697 13.332736 -34.288116 42.936166 -0.542082 2.495734 0.003369 -0.001657 -100420.000000 0 0 1
-23.000697 12.307536 -33.821158 42.712740 -0.491327 2.484593 0.008228 -0.006618 -147488.000000 0 0 1
-23.717097 12.793336 -32.724918 42.392102 -0.494680 2.452712 -0.007237 -0.005260 -379884.000000 0 0 1
-24.487497 11.679436 -32.005178 41.956860 -0.445042 2.438446 -0.019434 -0.010988 -26507.900000 0 0 1
-23.707797 10.720336 -31.272138 40.680853 -0.424670 2.447632 -0.023265 -0.009165 252923.000000 0 0 1
-23.105797 9.674036 -32.037818 40.668004 -0.396509 2.478008 -0.016623 -0.009692 15006.100000 0 0 1
-22.186597 8.746336 -31.244108 39.305696 -0.375511 2.489639 -0.015952 0.006176 -251426.000000 0 0 1
-22.847897 7.877436 -30.318208 38.772079 -0.332015 2.468600 -0.015585 0.009788 1011990.000000 0 0 1
-21.895797 6.931936 -29.726088 37.564850 -0.306604 2.483773 -0.017446 0.010124 641260.000000 0 0 1
-22.524497 6.004036 -28.651398 36.936486 -0.260499 2.458610 -0.020381 0.018136 -91031.800000 0 0 1
-23.262197 4.891936 -29.053838 37.539130 -0.207275 2.455870 -0.010287 0.009938 -53563.900000 0 0 1
-23.639297 4.125836 -27.984558 36.864269 -0.172792 2.432763 0.007942 0.015428 -446801.000000 0 0 1
-24.401097 2.849536 -28.301948 37.477108 -0.116252 2.426724 0.014716 0.009969 371305.000000 0 0 1
-25.745677 2.854236 -28.763138 38.707940 -0.110412 2.408459 0.026628 0.003120 462779.000000 0 0 1
-25.955997 3.397936 -30.055638 39.857259 -0.130171 2.425051 0.017573 0.004727 -289114.000000 0 0 1
-27.385517 3.228136 -30.640858 41.221955 -0.117336 2.408807 0.035484 -0.004855 646572.000000 0 0 1
-28.403797 3.713636 -29.743478 41.294566 -0.130007 2.374996 0.035608 -0.008559 114567.000000 0 0 1
-29.677827 3.892636 -30.290338 42.584393 -0.130419 2.362144 0.041699 -0.019172 -89921.100000 0 0 1
-29.954207 5.299136 -30.839268 43.317384 -0.175096 2.363050 0.034916 -0.025999 -772157.000000 0 0 1
-29.114097 5.715236 -31.886508 43.555068 -0.193840 2.392191 0.025398 -0.016982 28558.400000 0 0 1
-29.356007 6.992036 -32.510218 44.357389 -0.233824 2.393394 0.025613 -0.016619 -1003730.000000 0 0 1
-29.111767 8.327936 -31.631778 43.788341 -0.278626 2.378033 0.001328 -0.020540 -660314.000000 0 0 1
-27.773907 8.688036 -31.463918 42.858488 -0.303170 2.395188 -0.009891 -0.027801 -242827.000000 0 0 1
-27.030207 7.879436 -30.561278 41.553691 -0.283645 2.397149 -0.011657 -0.024575 -715155.000000 0 0 1
-26.793737 8.589336 -29.192868 40.545093 -0.310222 2.374613 -0.011939 -0.020174 -112507.000000 0 0 1
-27.942217 8.811736 -28.392698 40.799013 -0.305484 2.340491 -0.006569 -0.019248 230926.000000 0 0 1
-28.601027 7.643236 -27.907148 40.684723 -0.261134 2.326687 -0.003175 -0.010795 116177.000000 0 0 1
-30.005097 7.935136 -27.287098 41.326237 -0.258541 2.291995 -0.001956 -0.012362 304467.000000 0 0 1
-30.072497 8.660336 -26.062178 40.725834 -0.280395 2.265219 -0.026936 -0.008712 -218108.000000 0 0 1
-29.775277 7.866536 -24.906928 39.608137 -0.258295 2.250849 -0.022862 -0.007569 -54625.900000 0 0 1
-29.226337 8.843736 -23.845728 38.742859 -0.293836 2.233800 -0.020116 -0.001363 -546457.000000 0 0 1
-30.147117 9.800436 -23.434128 39.421511 -0.314311 2.207378 -0.023112 -0.000335 140220.000000 0 0 1
-29.396387 10.735836 -22.663528 38.639891 -0.350160 2.197566 -0.023801 -0.000899 174225.000000 0 0 1
-30.267657 11.673536 -21.825028 39.099032 -0.368098 2.163009 -0.029929 0.007048 -237473.000000 0 0 1
-30.724287 10.964136 -20.668028 38.618149 -0.342769 2.135528 -0.033178 -0.001720 282497.000000 0 0 1
-31.733307 11.610136 -19.915728 39.222879 -0.350739 2.103377 -0.032384 0.010344 -271844.000000 0 0 1
-31.362437 12.879136 -19.133328 38.930178 -0.389658 2.084582 -0.030088 0.010622 -167171.000000 0 0 1
-30.425977 12.541536 -18.105528 37.561154 -0.390978 2.073764 -0.006254 0.006091 627310.000000 0 0 1
-31.012647 12.084836 -16.853928 37.307940 -0.371573 2.039524 -0.011434 0.009901 -181706.000000 0 0 1
-31.445827 13.201836 -15.825028 37.597340 -0.397482 2.005243 -0.024072 0.014414 -182722.000000 0 0 1
-32.408717 14.077136 -16.363228 38.939002 -0.409774 2.004492 -0.028341 0.012624 -211419.000000 0 0 1
-33.042327 14.818136 -15.383028 39.344759 -0.421572 1.972493 -0.034992 0.011274 -428848.000000 0 0 1
-33.655437 16.061536 -15.969428 40.567031 -0.445270 1.975401 -0.028670 0.012277 -326208.000000 0 0 1
-34.614833 15.865836 -16.967728 41.687110 -0.429779 1.989992 -0.033031 0.008882 204371.000000 0 0 1
34.842221 17.086636 -17.501328 42.570294 0.455938 1.994474 -0.038542 0.003623 -819918.000000 0 0 1
34.484733 16.937436 -19.013328 42.867005 0.456549 2.030343 -0.043247 0.001330 972610.000000 0 0 1
33.445632 15.926936 -19.298628 41.769781 0.444430 2.051072 -0.020510 0.000119 515773.000000 0 0 1
32.196102 16.442836 -18.965128 40.824403 0.472178 2.053927 0.017945 -0.012052 -2184090.000000 0 0 1
31.085442 15.507036 -19.352928 39.765672 0.462729 2.079075 0.039370 -0.012910 -895391.000000 0 0 1
30.821832 15.402336 -20.766628 40.230213 0.463425 2.113198 0.034937 -0.016628 755747.000000 0 0 1
29.757252 14.474036 -21.072628 39.230694 0.452711 2.137847 0.021772 -0.013273 442354.000000 0 0 1
29.987822 12.954436 -20.838328 38.746906 0.407776 2.138629 0.002149 0.021927 -96109.300000 0 0 1
30.258002 12.661736 -19.448428 38.132762 0.396317 2.106003 0.003554 0.019360 121589.000000 0 0 1
31.023562 11.479036 -19.369528 38.332861 0.354389 2.100524 -0.026541 0.033606 -175648.000000 0 0 1
31.324852 11.055436 -17.924828 37.746105 0.339281 2.065623 -0.030621 0.041485 -375514.000000 0 0 1
30.266432 10.357836 -17.289528 36.363023 0.329729 2.066295 -0.011207 0.031575 53675.800000 0 0 1
30.456932 10.102136 -15.897628 35.810786 0.320267 2.030781 -0.035616 0.030990 -214304.000000 0 0 1
30.320042 11.302936 -14.954828 35.646994 0.356830 2.003719 -0.021499 0.017227 -725959.000000 0 0 1
28.974162 11.556036 -14.675028 34.473184 0.379505 2.010525 0.002609 0.022223 -208371.000000 0 0 1
28.734642 12.430836 -13.587828 34.129670 0.408297 1.980267 -0.009491 0.023238 -669621.000000 0 0 1
27.249522 12.646136 -13.341628 32.870355 0.434506 1.988745 0.027637 0.008615 -348362.000000 0 0 1
26.495522 11.478436 -12.948328 31.645321 0.408814 1.992341 -0.001189 0.012720 1202920.000000 0 0 1
25.148432 11.485736 -13.460728 30.749909 0.428426 2.023889 0.009830 0.008990 644926.000000 0 0 1
24.876782 10.630536 -14.727428 30.801943 0.403841 2.069324 0.012660 0.004683 -513624.000000 0 0 1
25.134412 9.256936 -14.560528 30.486693 0.352881 2.068720 0.001188 0.008498 566931.000000 0 0 1
26.437692 8.816336 -14.902728 31.603332 0.321879 2.061850 -0.001794 0.009196 154634.000000 0 0 1
27.110062 7.678436 -14.070928 31.494520 0.276003 2.033952 -0.002107 0.013044 -470340.000000 0 0 1
26.580082 6.403736 -14.321928 30.864643 0.236417 2.053329 -0.013173 0.003357 457503.000000 0 0 1
25.939232 5.900436 -13.131228 29.666277 0.223666 2.029327 0.003250 0.000108 115120.000000 0 0 1
25.153792 4.575236 -13.422228 28.875633 0.179924 2.054238 0.009244 0.001240 -85411.000000 0 0 1
24.595182 4.008536 -12.244128 27.765266 0.161560 2.027495 -0.003865 -0.002882 11143.600000 0 0 1
24.032082 2.739436 -12.480028 27.217578 0.113501 2.047135 -0.007706 -0.003187 -269109.000000 0 0 1
23.152882 2.262136 -11.295028 25.860217 0.097395 2.022804 -0.010982 0.000478 -372302.000000 0 0 1
23.828982 1.865136 -10.099328 25.947939 0.078112 1.970576 -0.012205 0.006374 356526.000000 0 0 1
23.094982 2.039436 -8.910028 24.837996 0.088078 1.937699 -0.013069 0.013549 -679631.000000 0 1 0
23.843382 1.503436 -7.666728 25.090753 0.062971 1.881323 -0.010898 0.015176 -277027.000000 0 0 1
24.013182 0.108836 -7.384628 25.123245 0.004532 1.869139 -0.019206 0.010099 807477.000000 0 0 1
24.938022 -0.605864 -8.221828 26.265385 -0.024290 1.889177 -0.005563 0.005908 -205576.000000 0 0 1
24.860982 -2.074964 -8.020228 26.204922 -0.083270 1.881846 0.003563 0.002904 -558490.000000 0 0 1
25.590172 -2.447764 -6.870828 26.609335 -0.095362 1.831966 0.006189 0.004532 444895.000000 0 0 1
25.604962 -3.825964 -6.704528 26.743275 -0.148325 1.824199 0.010720 0.004523 348559.000000 0 0 1
26.784422 -4.271164 -5.733928 27.722302 -0.158133 1.779135 0.006624 0.009707 1500420.000000 0 0 1
28.085832 -4.129464 -6.349528 29.089223 -0.145984 1.790846 0.010118 0.007936 228664.000000 0 0 1
29.091342 -4.578564 -5.519028 29.962127 -0.156105 1.756054 0.008326 0.010353 -1481620.000000 0 0 1
30.335182 -4.538864 -6.371128 31.327557 -0.148522 1.775596 0.007963 0.002805 -1243160.000000 0 0 1
30.396902 -5.709764 -7.212528 31.758362 -0.185677 1.799902 -0.005465 0.002902 384673.000000 0 0 1
31.318872 -5.532064 -8.284228 32.864934 -0.174833 1.825614 -0.007207 -0.012997 -710376.000000 0 0 1
31.190312 -6.478364 -9.493328 33.240457 -0.204793 1.860424 -0.010112 -0.010628 -113809.000000 0 0 1
30.009742 -6.366464 -10.268128 32.350439 -0.209047 1.893786 0.014739 -0.006121 600553.000000 0 0 1
28.864402 -6.984764 -9.696628 31.240442 -0.237421 1.886396 0.006021 -0.007180 -643180.000000 0 0 1
27.635652 -6.135664 -9.492128 29.857597 -0.218476 1.894324 0.006020 -0.000154 -1174570.000000 0 0 1
26.999152 -5.711064 -10.707628 29.601077 -0.208455 1.940920 -0.009576 -0.001323 641880.000000 0 0 1
25.693742 -5.178064 -10.620328 28.280242 -0.198866 1.955774 0.018541 0.004671 529478.000000 0 0 1
24.531782 -6.195064 -10.360328 27.340876 -0.247360 1.959438 0.027252 0.010007 -485965.000000 0 0 1
24.448682 -6.547664 -9.004328 26.864249 -0.261672 1.912591 0.016601 0.004749 606546.000000 0 0 1
23.270282 -7.246764 -8.664828 25.866983 -0.301898 1.912376 0.021769 0.001880 925906.000000 0 0 1
22.031682 -6.411264 -8.095728 24.331874 -0.283181 1.909984 0.018929 0.008062 854525.000000 0 1 0
21.537082 -5.427364 -9.016628 23.970852 -0.246861 1.956434 0.008444 0.015254 682970.000000 0 1 0
21.490482 -4.104564 -8.419528 23.443052 -0.188722 1.938151 0.015097 0.009415 -57159.000000 0 1 0
21.131182 -2.985864 -9.420428 23.327809 -0.140372 1.986494 0.000532 0.011559 -1078480.000000 0 1 0
22.272082 -2.730764 -10.129628 24.619343 -0.122000 1.994841 -0.006428 0.008197 -184244.000000 0 1 0
22.021482 -2.164364 -11.392028 24.887917 -0.097970 2.046240 -0.009353 0.007899 -307996.000000 0 1 0
23.305082 -2.139264 -12.239128 26.410216 -0.091537 2.052652 0.000358 0.001001 -610611.000000 0 0 1
24.261882 -1.266064 -11.775728 26.998325 -0.052136 2.022129 -0.004600 -0.003204 36944.800000 0 0 1
25.481292 -1.397564 -12.479428 28.407491 -0.054792 2.025616 0.001932 -0.001199 -357186.000000 0 0 1
26.528842 -0.365764 -12.086628 29.154756 -0.013787 1.998264 0.001501 -0.001032 -339016.000000 0 0 1
27.770042 -0.580464 -12.759928 30.566778 -0.020899 2.001427 0.001553 -0.009679 632772.000000 0 0 1
28.746012 0.377236 -12.413528 31.314073 0.013122 1.978410 0.006608 -0.003039 -148848.000000 0 0 1
28.584322 1.725536 -13.203428 31.533655 0.060293 2.002820 0.005175 -0.002999 -541512.000000 0 0 1
28.860932 1.466836 -14.547428 32.353248 0.050781 2.037163 0.004379 -0.006382 369589.000000 0 0 1
28.697952 2.622636 -15.329328 32.641062 0.091134 2.059672 0.001031 0.000551 -220214.000000 0 0 1
28.961632 2.316336 -16.817128 33.570185 0.079810 2.095497 -0.005583 -0.013079 32182.000000 0 0 1
27.965012 1.535836 -17.477928 33.013310 0.054865 2.128714 -0.002363 -0.006173 105114.000000 0 0 1
28.161662 1.390536 -18.855528 33.919665 0.049337 2.160227 -0.014334 -0.006156 -638760.000000 0 0 1
27.107322 0.510936 -19.498328 33.395400 0.018846 2.194275 -0.014283 -0.007689 -561395.000000 0 0 1
27.234132 -0.914264 -19.431728 33.468281 -0.033558 2.190263 -0.007728 -0.002975 -11985.500000 0 0 1
26.832582 -1.477864 -20.647428 33.889346 -0.055022 2.225924 -0.009396 0.000404 -155158.000000 0 0 1
26.590352 -2.937964 -20.502528 33.705075 -0.110044 2.224703 -0.026748 -0.000298 1357610.000000 0 0 1
25.251042 -3.216464 -19.963528 32.349701 -0.126697 2.235869 -0.015763 -0.000263 1561290.000000 0 0 1
24.912182 -4.619564 -19.865928 32.196463 -0.183351 2.235749 -0.015421 -0.007166 -634484.000000 0 0 1
25.703152 -5.506164 -18.894728 32.372528 -0.211032 2.194032 -0.031722 -0.002054 -538098.000000 0 0 1
27.089592 -5.565464 -19.099528 33.609706 -0.202627 2.175203 -0.028349 -0.005837 -395180.000000 0 0 1
27.720712 -5.548764 -17.833828 33.425620 -0.197556 2.133574 -0.036274 -0.002938 915687.000000 0 0 1
29.283112 -5.331764 -17.944528 34.755351 -0.180103 2.113333 -0.023833 0.000702 903856.000000 0 0 1
29.904402 -6.324164 -18.750128 35.858550 -0.208409 2.121036 -0.028210 0.001143 -142428.000000 0 0 1
31.230002 -5.930764 -19.014228 37.040894 -0.187671 2.109858 -0.002653 0.003473 -129363.000000 0 0 1
32.008812 -6.809764 -20.010928 38.358495 -0.209621 2.119617 -0.000838 0.001915 -205758.000000 0 0 1
32.311482 -7.986464 -19.293228 38.471341 -0.242314 2.096124 -0.007137 0.013052 -46063.900000 0 0 1
33.033632 -8.934564 -20.031728 39.652457 -0.264149 2.100390 -0.008678 0.024139 -412722.000000 0 0 1
33.723942 -10.000664 -19.178628 40.064165 -0.288284 2.069967 -0.008608 0.020049 -588188.000000 0 0 1
32.909742 -10.903264 -18.424828 39.260751 -0.319927 2.059287 -0.025161 0.012000 -57017.500000 0 0 1
33.565252 -11.587164 -17.405528 39.545428 -0.332404 2.026551 -0.007146 0.022091 -625859.000000 0 0 1
34.316190 -10.867864 -16.248628 39.493408 -0.306705 1.994815 0.012081 0.014756 -147775.000000 0 0 1
34.751418 -11.554064 -15.062628 39.598487 -0.320980 1.961008 -0.001507 0.002119 469808.000000 0 0 1
-34.491378 -12.790364 -15.198528 39.802560 0.355108 1.962591 0.010708 -0.000748 633430.000000 0 0 1
-32.987287 -12.734064 -15.640628 38.664541 0.368405 1.987252 0.013188 -0.002706 343090.000000 0 0 1
-32.881587 -12.246764 -16.957228 38.970881 0.356534 2.020974 0.021177 0.004279 -279632.000000 0 0 1
-31.574887 -12.441064 -17.450428 38.161119 0.375339 2.045734 0.017952 0.004010 157958.000000 0 0 1
-31.124757 -11.474364 -18.601428 38.031889 0.353198 2.081855 0.028905 0.003615 277426.000000 0 0 1
-31.157407 -10.075864 -18.292628 37.509029 0.312771 2.080234 0.042234 0.003564 339124.000000 0 0 1
-32.415167 -9.605564 -18.764128 38.666554 0.288086 2.077480 0.035189 0.002048 103261.000000 0 0 1
-32.714057 -8.236564 -18.148228 38.306770 0.246648 2.064352 0.035276 -0.004652 454362.000000 0 0 1
-33.961047 -7.695864 -18.603028 39.479763 0.222845 2.061452 0.035461 -0.007221 374657.000000 0 0 1
-34.430387 -6.670164 -17.803028 39.330528 0.191359 2.040533 0.036322 -0.011937 -45790.700000 0 0 1
23.593003 27.228736 -27.778358 45.493637 0.856815 2.227613 0.021472 0.014311 -74468.400000 0 0 1
24.209303 26.702936 -26.650348 44.826088 0.834338 2.207474 0.024202 -0.000522 -705131.000000 0 0 1
25.443403 26.155136 -26.988758 45.385581 0.799191 2.207633 0.011936 -0.002576 -353586.000000 0 0 1
26.133703 25.179036 -25.956118 44.616974 0.766795 2.191680 -0.000967 -0.010945 -168919.000000 0 0 1
26.633603 25.893936 -24.881828 44.709620 0.771318 2.160988 0.003670 -0.006048 -25245.100000 0 0 1
26.756503 25.032736 -23.733428 43.655743 0.752126 2.145576 -0.002380 -0.010472 -153616.000000 0 0 1
27.341503 25.840936 -22.546328 43.859419 0.757190 2.110707 0.001059 -0.010341 -177426.000000 0 0 1
26.426603 26.771436 -22.046828 43.602038 0.791880 2.100917 0.021745 -0.007905 -329876.000000 0 0 1
26.900003 27.352236 -20.858928 43.667492 0.793734 2.068804 0.000078 -0.003723 -250669.000000 0 0 1
25.982903 28.370836 -20.183328 43.444014 0.829303 2.053959 0.013517 0.003587 -427999.000000 0 0 1
24.936303 27.739536 -19.484228 42.082493 0.838565 2.052174 0.030809 -0.002209 -463866.000000 0 0 1
24.136303 28.747336 -18.943328 42.045453 0.872370 2.038171 0.027970 0.000428 -342019.000000 0 0 1
23.053803 28.236736 -17.993228 40.651536 0.886107 2.029316 0.039746 0.000202 -498631.000000 0 0 1
22.133903 27.311336 -18.501328 39.725532 0.889728 2.055254 0.056973 -0.004332 -527783.000000 0 0 1
21.099203 27.237836 -17.551528 38.666939 0.911718 2.041951 0.024749 0.011283 -169730.000000 0 0 1
20.029903 26.224336 -18.058628 37.616843 0.918527 2.071528 0.012345 -0.001261 31114.300000 0 0 1
19.533703 26.564436 -19.345428 38.229313 0.936748 2.101380 0.015642 -0.001356 41316.400000 0 0 1
18.646303 25.582036 -19.879828 37.380914 0.940948 2.131542 0.012260 0.006311 188737.000000 0 0 1
17.937603 26.069336 -21.158328 38.066294 0.968120 2.160155 0.001761 0.009916 158409.000000 0 0 1
17.169403 27.236636 -21.045628 38.464805 1.008338 2.149740 -0.012248 0.020427 65191.100000 0 0 1
15.938003 27.204936 -21.777728 38.319680 1.040846 2.175255 -0.020576 0.008868 -7511.410000 0 0 1
14.996203 28.206836 -21.214528 38.347984 1.082149 2.157010 -0.009883 0.017397 -751872.000000 0 0 1
14.663403 27.837436 -19.881428 37.218401 1.085977 2.134337 -0.011021 0.016812 -250275.000000 0 0 1
13.682103 28.734636 -19.413228 37.279386 1.126407 2.118525 -0.026277 0.023663 -97141.300000 0 0 1
13.229903 28.470136 -17.955128 36.165807 1.135790 2.090320 -0.021006 0.021496 -36252.400000 0 0 1
12.292203 27.418936 -17.805228 34.927388 1.149348 2.105724 -0.024875 0.026305 -159812.000000 0 0 1
11.983803 27.340236 -16.415728 34.067230 1.157697 2.073576 -0.012090 0.028082 71287.700000 0 0 1
11.050803 26.197236 -16.069028 32.659288 1.171613 2.085205 0.012820 0.015713 -473343.000000 0 0 1
11.810403 25.025036 -16.119128 32.024433 1.129845 2.098254 -0.012062 0.015999 186716.000000 0 0 1
10.963403 23.904536 -16.295228 30.937962 1.140787 2.125518 0.024910 0.010005 55449.000000 0 0 1
11.853803 22.673036 -16.352828 30.364357 1.089064 2.139516 0.011309 0.000549 118013.000000 0 0 1
12.618703 22.630836 -17.556628 31.298907 1.062145 2.166310 0.011337 0.008504 232414.000000 0 0 1
13.494703 21.514336 -17.766628 30.993979 1.010586 2.181237 0.014696 0.006511 109895.000000 0 0 1
12.681703 20.243036 -18.084828 29.961093 1.011139 2.218818 0.034839 -0.002831 234876.000000 0 0 1
11.954403 19.737136 -16.956928 28.635637 1.026210 2.204535 0.033888 -0.011892 223556.000000 0 0 1
11.466903 18.401836 -17.097528 27.612368 1.013536 2.238517 0.037291 -0.014515 329492.000000 0 0 1
12.620703 17.344436 -17.187128 27.486523 0.941752 2.246303 0.036424 -0.018169 505061.000000 0 0 1
13.256203 17.094236 -15.928328 26.863571 0.911188 2.205494 0.033143 -0.022045 -101458.000000 0 0 1
14.159703 16.046736 -16.059128 26.756130 0.847788 2.214552 0.024672 -0.013190 -1057990.000000 0 0 1
14.768003 15.565836 -14.736328 26.029762 0.811694 2.172604 0.035425 -0.009654 -26860.700000 0 0 1
15.677803 16.391836 -13.951028 26.629250 0.807660 2.122218 0.005774 -0.000139 1813310.000000 0 0 1
16.921403 16.855636 -14.515828 27.949161 0.783451 2.116905 -0.011975 0.007541 809203.000000 0 0 1
17.907503 15.731136 -15.070828 28.200659 0.720790 2.134611 -0.018955 0.005638 -350759.000000 0 0 1
18.494903 14.834736 -14.164928 27.618400 0.676019 2.109333 0.004290 0.010189 380969.000000 0 0 1
19.271403 15.360736 -13.102028 27.910613 0.672954 2.059439 -0.006913 0.005275 -781426.000000 0 0 1
19.862203 14.236936 -12.277528 27.348403 0.621903 2.036364 0.003843 0.002910 291570.000000 0 0 1
18.879803 13.345836 -11.654428 25.891775 0.615331 2.037697 0.020201 -0.001481 1004790.000000 0 0 1
19.480603 12.333236 -10.847328 25.480721 0.564405 2.010540 0.031523 0.003154 -34197.900000 0 0 1
19.951003 11.036836 -11.588428 25.576277 0.505294 2.041028 0.028253 -0.004226 -409261.000000 0 0 1
21.108803 11.183536 -12.392528 26.911481 0.487206 2.049346 0.023238 0.003293 424519.000000 0 0 1
21.517903 10.042136 -13.084028 27.111924 0.436644 2.074409 0.012284 -0.001227 -238471.000000 0 0 1
22.372303 8.998136 -12.364328 27.099133 0.382401 2.044587 0.015406 0.007121 -741725.000000 0 0 1
21.602803 8.357636 -11.355628 25.796928 0.369143 2.026610 0.019320 -0.000953 326334.000000 0 0 1
22.133603 7.250836 -10.694628 25.629009 0.316576 2.001253 0.005055 0.015686 -1160810.000000 0 0 1
22.236503 5.917336 -11.462328 25.707234 0.260082 2.032953 0.011181 0.004008 -824424.000000 0 0 1
21.077303 5.261436 -11.883728 24.762036 0.244626 2.071357 0.025094 -0.003125 110653.000000 0 1 0
20.330103 5.936436 -12.923328 24.810618 0.284103 2.118677 0.005223 -0.012166 -629075.000000 0 1 0
19.103803 5.171236 -13.360728 23.878987 0.264356 2.164601 -0.000878 -0.009726 -635182.000000 0 1 0
19.480703 4.029336 -14.136128 24.404169 0.203961 2.188605 -0.002296 -0.007166 141847.000000 0 1 0
18.389503 3.153736 -14.289928 23.501530 0.169844 2.224389 -0.005415 0.005224 -812685.000000 0 1 0
18.645303 1.779736 -14.983328 23.985723 0.095164 2.245514 -0.019329 0.006027 -567308.000000 0 1 0
19.463103 0.874536 -14.276528 24.153601 0.044903 2.203184 -0.035769 0.002501 -996368.000000 0 1 0
20.765903 1.040136 -14.699328 25.463206 0.050047 2.186187 -0.013774 0.005922 -1601310.000000 0 0 1
21.405303 -0.311864 -14.954928 26.113869 -0.014568 2.180569 0.000666 0.001900 -469777.000000 0 0 1
20.793103 -1.063164 -15.964528 26.236418 -0.051086 2.224949 -0.008488 0.001101 -268893.000000 0 0 1
21.656003 -2.093964 -16.338628 27.208784 -0.096392 2.214911 -0.005205 -0.007361 -704590.000000 0 0 1
21.117203 -2.916964 -17.544428 27.608910 -0.137264 2.259404 0.002036 -0.002115 375374.000000 0 0 1
20.066703 -3.815964 -17.153528 26.673539 -0.187920 2.269325 0.002851 -0.008989 446013.000000 0 0 1
19.461103 -4.409164 -18.299928 27.075129 -0.222802 2.312974 0.008559 -0.008461 -307790.000000 0 0 1
18.390003 -5.362264 -17.794828 26.145784 -0.283720 2.319378 0.011005 -0.007292 -392350.000000 0 0 1
19.045303 -6.474564 -17.135128 26.424537 -0.327699 2.276350 0.011954 -0.006470 548927.000000 0 0 1
18.148103 -7.499064 -16.748828 25.809162 -0.391846 2.276998 0.022964 0.001857 -273573.000000 0 0 1
18.821403 -8.721064 -16.111028 26.265327 -0.433907 2.231149 0.018205 0.004286 -19616.300000 0 0 1
19.452703 -9.661664 -16.957928 27.555884 -0.460984 2.233691 0.028077 -0.002507 531917.000000 0 0 1
20.160203 -10.651264 -16.214628 27.978516 -0.486055 2.188959 0.029442 -0.007442 58974.100000 0 0 1
20.852603 -11.687664 -17.180228 29.437948 -0.510861 2.193961 0.033315 -0.005140 786853.000000 0 0 1
22.067503 -11.159564 -17.783728 30.459343 -0.468198 2.194261 0.031119 -0.007181 1072490.000000 0 0 1
22.586803 -12.117564 -18.725228 31.743239 -0.492411 2.201727 0.043413 -0.005528 -654572.000000 0 0 1
22.018503 -12.022464 -20.184528 32.198902 -0.499780 2.248326 0.061007 -0.005030 1066110.000000 0 0 1
20.651203 -12.479464 -20.317328 31.543669 -0.543573 2.270645 0.044051 -0.009166 984251.000000 0 0 1
20.403903 -13.868864 -20.290928 31.943488 -0.596983 2.259081 0.036262 0.000365 -940141.000000 0 0 1
18.915103 -14.168364 -20.267028 31.133199 -0.642893 2.279668 0.029101 0.009084 -440757.000000 0 0 1
18.226403 -13.788164 -21.468328 31.356089 -0.647644 2.324936 0.025337 0.003335 -718483.000000 0 0 1
16.864903 -13.726364 -21.151128 30.334934 -0.683160 2.342355 0.023562 0.013953 -279372.000000 0 0 1
15.996803 -13.147564 -22.299228 30.430441 -0.687945 2.393215 0.026707 -0.000517 -110814.000000 0 0 1
15.975303 -13.988664 -23.384628 31.586925 -0.719194 2.404352 0.021517 0.003057 245652.000000 0 0 1
15.420103 -13.341564 -24.539828 31.905800 -0.713256 2.448281 0.030279 -0.001105 -145646.000000 0 0 1
15.591303 -14.182764 -25.871238 33.370054 -0.738126 2.457959 0.026657 -0.009097 312751.000000 0 0 1
14.689703 -15.320664 -26.013648 33.574097 -0.806420 2.457216 0.021909 -0.007964 551446.000000 0 0 1
14.599403 -15.915464 -27.292108 34.803789 -0.828500 2.472155 0.031119 -0.010096 282307.000000 0 0 1
15.542903 -17.179664 -27.463718 35.930189 -0.835376 2.440850 0.026576 -0.007190 500763.000000 0 0 1
16.906003 -16.810064 -27.570548 36.448955 -0.782553 2.428612 0.034190 -0.008953 121536.000000 0 0 1
17.744503 -17.947964 -27.673948 37.454562 -0.791098 2.402184 0.030284 -0.002042 126334.000000 0 0 1
19.247403 -17.679064 -27.539928 37.966557 -0.742952 2.382373 0.019480 -0.000700 -242503.000000 0 0 1
19.758803 -17.334864 -26.303968 37.186107 -0.720144 2.356553 0.020971 -0.000102 -233208.000000 0 0 1
21.152703 -17.120964 -26.342498 37.874681 -0.680445 2.339936 0.019285 0.001767 -123490.000000 0 0 1
21.705103 -16.484764 -25.035928 37.008872 -0.649546 2.313775 0.024143 0.006838 50377.600000 0 0 1
21.358903 -15.108264 -24.738828 36.006555 -0.615643 2.328238 0.024267 0.002244 -1509700.000000 0 0 1
20.045703 -14.807464 -24.510428 34.955004 -0.636220 2.347875 0.039808 0.002921 -1138770.000000 0 0 1
19.942103 -13.422564 -23.868528 33.875645 -0.592427 2.352645 0.041815 0.008448 -152785.000000 0 0 1
20.331503 -12.398564 -24.699128 34.309493 -0.547609 2.374443 0.043736 -0.000115 -71621.100000 0 0 1
19.969503 -11.209664 -24.077828 33.229195 -0.511507 2.381248 0.052402 -0.004445 37566.500000 0 0 1
19.946003 -10.000664 -25.022328 33.525710 -0.464756 2.413376 0.056523 -0.013411 33815.400000 0 0 1
19.408303 -8.912264 -24.271728 32.329978 -0.430477 2.419993 0.057676 -0.018381 233865.000000 0 0 1
19.217703 -7.755064 -25.134588 32.576197 -0.383552 2.452091 0.047884 -0.013611 -73390.600000 0 0 1
18.744303 -6.527564 -24.316528 31.388716 -0.335108 2.457021 0.041495 -0.015680 412853.000000 0 0 1
17.464803 -6.715164 -23.702328 30.197899 -0.367071 2.473331 0.049177 -0.010605 382623.000000 0 0 1
17.134603 -5.683464 -22.781528 29.067067 -0.320275 2.471489 0.032429 -0.006420 -85175.900000 0 0 1
17.800003 -5.752364 -21.352428 28.387603 -0.312573 2.422152 0.032966 -0.010253 -363714.000000 0 0 1
17.451503 -6.812964 -20.458728 27.740422 -0.372198 2.400166 0.041564 -0.012823 84809.600000 0 0 1
17.718703 -8.121164 -20.917728 28.591207 -0.429767 2.391483 0.055727 -0.011819 -61821.500000 0 0 1
17.103103 -9.251664 -20.024428 27.912133 -0.495857 2.370873 0.047589 -0.015212 475876.000000 0 0 1
15.693803 -9.353664 -19.911028 27.022870 -0.537481 2.399153 0.025325 -0.007260 91461.900000 0 0 1
15.336503 -10.473864 -19.117128 26.652856 -0.599182 2.370664 0.028866 -0.001032 375221.000000 0 0 1
13.924203 -10.436164 -18.447828 25.359797 -0.643180 2.385386 0.023886 -0.004100 329787.000000 0 0 1
13.753703 -9.714264 -17.242028 24.100183 -0.614943 2.368038 0.032322 -0.007904 192326.000000 0 1 0
13.856703 -8.286464 -17.282228 23.650563 -0.538956 2.390190 0.042440 -0.022200 426051.000000 0 1 0
12.469103 -7.617464 -17.035928 22.443866 -0.548401 2.432643 0.023095 -0.010901 507723.000000 0 1 0
11.472003 -7.654964 -18.053128 22.718291 -0.588423 2.489230 0.017988 -0.012185 622446.000000 0 1 0
10.455103 -6.718964 -17.643428 21.581108 -0.571190 2.527923 0.009468 -0.009349 272920.000000 0 1 0
9.054403 -6.891264 -18.251728 21.508075 -0.650564 2.584127 0.000958 -0.005186 -14824.400000 0 1 0
8.880603 -6.575764 -19.616928 22.515098 -0.637370 2.628598 0.007122 -0.009562 -745150.000000 0 1 0
7.526403 -6.305864 -19.775428 22.078909 -0.697388 2.680733 0.009772 -0.011940 -605052.000000 0 1 0
7.172203 -5.803064 -21.190228 23.111508 -0.680268 2.730962 0.015136 -0.016403 21294.100000 0 1 0
7.303703 -6.835364 -22.164028 24.316875 -0.752287 2.717632 0.017654 -0.008992 182063.000000 0 1 0
6.279603 -6.630764 -23.125828 24.863716 -0.812591 2.765491 0.017562 -0.016828 131805.000000 0 1 0
6.315003 -7.629364 -24.275228 26.217802 -0.879378 2.754224 0.021309 -0.015937 -5102.620000 0 0 1
5.828803 -8.934364 -23.917128 26.188295 -0.992734 2.722050 0.023441 -0.014830 86306.000000 0 0 1
5.876403 -9.747664 -25.069548 27.532368 -1.028282 2.715404 0.020336 -0.002670 -73802.700000 0 0 1
5.089403 -11.061164 -24.839828 27.663485 -1.139563 2.685836 0.021180 -0.010406 19046.400000 0 0 1
5.733803 -12.032464 -24.047028 27.493931 -1.126102 2.635469 0.014830 -0.015724 -70660.900000 0 0 1
4.835503 -13.087264 -23.639328 27.449524 -1.216872 2.608408 0.020270 -0.019043 -652033.000000 0 0 1
5.364803 -14.165164 -22.697828 27.287806 -1.208758 2.553128 0.024143 -0.015588 -174648.000000 0 0 1
6.419503 -14.928864 -23.294428 28.402665 -1.164693 2.532468 0.024553 -0.014835 480732.000000 0 0 1
7.694403 -14.354464 -23.563828 28.644519 -1.078743 2.536817 0.024222 -0.013949 284573.000000 0 0 1
8.513703 -13.786064 -22.360728 27.614142 -1.017566 2.514533 0.009271 -0.006542 -231034.000000 0 0 1
9.062503 -14.727164 -21.375328 27.494053 -1.019159 2.461402 0.008881 0.001466 421603.000000 0 0 1
8.032903 -15.327564 -20.617028 26.916976 -1.088069 2.443312 0.005108 0.001546 -99447.600000 0 0 1
8.447703 -15.704764 -19.185128 26.192984 -1.077285 2.392714 0.003091 0.003256 564079.000000 0 0 1
9.530503 -16.651664 -19.094328 27.068464 -1.050959 2.353796 0.008402 0.006256 171691.000000 0 0 1
9.859203 -16.975464 -17.733228 26.454445 -1.044621 2.305451 0.005884 0.003997 46214.900000 0 0 1
8.786803 -17.737664 -16.871928 26.009510 -1.110855 2.276649 -0.013446 0.015765 -81904.500000 0 0 1
8.552603 -19.101864 -17.245428 27.118868 -1.149826 2.259996 -0.013930 0.018720 -87951.400000 0 0 1
7.964103 -19.399164 -18.487528 27.956094 -1.181238 2.293355 -0.009174 0.019673 616020.000000 0 0 1
6.414103 -19.099264 -18.564328 27.396293 -1.246801 2.315320 -0.004026 0.015723 747071.000000 0 0 1
6.100403 -17.750164 -18.446728 26.316630 -1.239761 2.347530 -0.002335 0.013480 686541.000000 0 0 1
4.672303 -17.528564 -18.286828 25.758281 -1.310299 2.360209 -0.005475 0.018888 1542580.000000 0 0 1
4.398403 -16.071864 -17.919828 24.469798 -1.303666 2.392525 -0.014030 0.022635 -118009.000000 0 1 0
4.886903 -15.806464 -16.659028 23.478700 -1.270947 2.359639 -0.010072 0.021266 -90515.900000 0 1 0
4.611803 -14.477364 -16.230928 22.232989 -1.262407 2.389174 -0.011278 0.017776 85153.400000 0 1 0
9.968803 30.156536 -17.934128 36.475014 1.251536 2.084817 0.013789 -0.000749 -837977.000000 0 0 1
9.039803 29.892236 -18.906428 36.506394 1.277127 2.115183 0.028938 -0.002730 -1082440.000000 0 0 1
8.073603 29.035136 -18.387528 35.303305 1.299584 2.118636 0.029095 -0.001785 -444113.000000 0 0 1
7.122403 28.496136 -19.456828 35.232464 1.325872 2.155847 0.025943 -0.002511 409616.000000 0 0 1
6.177203 29.547236 -19.852528 36.129210 1.364703 2.152546 0.027326 -0.013258 115585.000000 0 0 1
5.245203 28.953836 -20.705628 35.979991 1.391582 2.183983 0.014508 -0.015704 -303811.000000 0 0 1
4.307903 29.928836 -21.423828 37.057707 1.427840 2.187220 0.014751 -0.015664 -232480.000000 0 0 1
3.522103 30.616836 -20.476628 37.001191 1.456262 2.157243 0.009762 -0.018632 -729453.000000 0 0 1
2.463303 31.270836 -21.116028 37.812956 1.492185 2.163293 -0.007715 -0.015929 -611701.000000 0 0 1
1.095103 30.805436 -20.563528 37.054457 1.535262 2.159104 -0.011875 -0.009443 -217867.000000 0 0 1
0.750503 29.443636 -20.970428 36.155909 1.545312 2.189525 -0.016255 -0.018574 113513.000000 0 0 1
0.462103 29.274436 -22.356228 36.837577 1.555012 2.222934 -0.019396 -0.015132 -724307.000000 0 0 1
-0.045597 27.844736 -22.702728 35.926943 -1.569159 2.254816 -0.021330 -0.011914 606505.000000 0 0 1
-1.239497 27.587736 -21.943228 35.272153 -1.525897 2.242234 -0.016720 -0.016882 458529.000000 0 0 1
-1.600797 26.221436 -22.047828 34.296253 -1.509823 2.269028 -0.004687 -0.026377 360122.000000 0 0 1
-2.704497 25.708436 -21.033128 33.326122 -1.465983 2.253806 -0.009952 -0.020117 157339.000000 0 0 1
-3.916297 26.346336 -21.294528 34.101667 -1.423230 2.245214 -0.004051 -0.022737 -934951.000000 0 0 1
-4.931497 25.899536 -20.457928 33.371132 -1.382640 2.230702 0.007528 -0.022804 -656772.000000 0 0 1
-5.948397 27.044536 -20.316528 34.344601 -1.354295 2.203775 0.020403 -0.033694 -994044.000000 0 0 1
-7.080797 26.587636 -19.692128 33.835188 -1.310518 2.191984 0.034162 -0.023134 -1707440.000000 0 0 1
-7.968097 27.574336 -19.261028 34.566194 -1.289491 2.161832 0.028249 -0.030093 -19244.700000 0 0 1
-9.238197 26.885436 -18.722028 34.039466 -1.239822 2.153172 0.025564 -0.013801 -190053.000000 0 0 1
-8.959997 25.980236 -17.679128 32.677297 -1.238692 2.142448 0.022020 -0.025533 -967020.000000 0 0 1
-10.136997 25.528236 -17.094728 32.352422 -1.192801 2.127501 0.014058 -0.018756 -452650.000000 0 0 1
-10.131497 24.847636 -15.710128 31.094378 -1.183631 2.100457 0.020761 -0.015800 68331.100000 0 0 1
-9.418797 23.620236 -15.711228 29.891001 -1.191360 2.124237 0.028620 -0.015269 -55584.600000 0 0 1
-9.639397 23.047736 -14.444128 28.857389 -1.174669 2.095013 0.030156 -0.010962 -435161.000000 0 0 1
-9.140897 21.598736 -14.273128 27.455119 -1.170439 2.117497 0.043142 -0.007663 218657.000000 0 0 1
-9.954897 20.475036 -14.713828 27.107633 -1.118252 2.144555 0.022498 -0.000923 -120841.000000 0 0 1
-10.062697 20.285036 -16.124628 27.798276 -1.110302 2.189597 0.026457 0.005379 -117781.000000 0 0 1
-8.806197 20.209936 -17.020928 27.851438 -1.159867 2.228287 0.022965 0.005729 -93306.000000 0 0 1
-8.153997 18.962436 -16.876028 26.661994 -1.164692 2.256169 0.021180 0.001229 -103255.000000 0 0 1
-7.360297 18.800436 -18.066428 27.092917 -1.197642 2.300746 0.033729 -0.000387 521466.000000 0 0 1
-6.721397 17.382836 -18.227028 26.068462 -1.201835 2.345072 0.017727 0.001246 950166.000000 0 0 1
-7.727997 16.407236 -18.603528 25.980965 -1.130607 2.368916 0.012248 -0.000249 240305.000000 0 0 1
-7.629497 15.770936 -19.872528 26.492433 -1.120217 2.419041 0.026008 0.002077 230095.000000 0 0 1
-6.450297 14.792736 -20.131528 25.801352 -1.159608 2.465863 0.016994 0.010221 170235.000000 0 0 1
-6.547997 13.598236 -19.359728 24.547654 -1.122031 2.479421 -0.006779 0.008210 -441779.000000 0 1 0
-5.315497 13.030036 -19.010128 23.652089 -1.183462 2.504351 0.000605 0.016369 -158455.000000 0 1 0
-4.700897 13.519036 -17.683328 22.750007 -1.236150 2.461141 0.007351 0.020225 -233449.000000 0 1 0
-4.023497 14.738936 -17.719028 23.396339 -1.304305 2.430029 0.000423 0.005406 -387899.000000 0 1 0
-3.651697 15.020336 -16.395728 22.533647 -1.332306 2.385629 0.011607 0.006511 213444.000000 0 1 0
-2.632097 16.176436 -16.229828 23.065392 -1.409498 2.351309 0.017512 -0.001504 -123985.000000 0 1 0
-3.246497 17.369736 -16.429928 24.128613 -1.386023 2.319830 0.013259 -0.004538 12509.900000 0 1 0
-2.319897 18.454036 -16.642628 24.958173 -1.445740 2.300731 0.022608 -0.009380 248961.000000 0 1 0
-3.012397 19.734036 -17.137828 26.309919 -1.419316 2.280202 0.023690 -0.017803 196787.000000 0 0 1
-3.442897 19.677636 -18.500828 27.227624 -1.397585 2.317860 0.030432 -0.016543 105619.000000 0 0 1
-3.925897 20.931236 -19.025428 28.556894 -1.385389 2.299937 0.043924 -0.011911 -49340.200000 0 0 1
-2.846597 21.962836 -19.385028 29.432101 -1.441905 2.289800 0.011706 -0.011610 -608393.000000 0 0 1
-1.814897 21.525536 -20.265028 29.619485 -1.486682 2.324274 0.019422 -0.012370 702005.000000 0 0 1
-0.640797 22.353536 -20.168228 30.113927 -1.542138 2.304643 0.006969 -0.007335 657655.000000 0 0 1
0.244503 22.123936 -18.918528 29.110806 1.559745 2.278223 0.012368 -0.002744 -1316080.000000 0 0 1
-0.207897 22.521336 -17.667628 28.625144 -1.561565 2.235984 0.014554 -0.007475 -948764.000000 0 0 1
0.677503 22.079136 -16.714228 27.700409 1.540121 2.218545 0.027017 -0.010503 -766893.000000 0 0 1
0.222903 22.357236 -15.310128 27.097891 1.560827 2.171222 0.037859 -0.015603 -822947.000000 0 0 1
-0.840997 21.535236 -14.956728 26.233135 -1.531764 2.177480 0.044443 -0.009023 -462777.000000 0 0 1
-0.918597 21.467136 -13.547128 25.400914 -1.528032 2.133331 0.062467 -0.018334 -134164.000000 0 0 1
-1.816397 20.324136 -13.087728 24.241667 -1.481662 2.141098 0.037815 -0.015250 -523743.000000 0 1 0
-1.330897 19.025136 -13.356428 23.283497 -1.500955 2.181743 0.035786 -0.008113 251686.000000 0 1 0
-2.113097 18.045936 -12.626428 22.125724 -1.454232 2.178115 0.031691 -0.007952 553670.000000 0 1 0
-1.555997 16.567436 -12.740028 20.957322 -1.477152 2.224214 0.016733 0.000018 771827.000000 0 1 0
-0.282597 16.274936 -12.112828 20.289751 -1.553434 2.210543 0.014228 0.001956 932812.000000 0 1 0
0.056403 14.933236 -12.061728 19.196093 1.567019 2.250218 0.018234 0.002888 170233.000000 0 1 0
0.629103 14.231136 -13.333228 19.511431 1.526619 2.323144 0.004993 0.005270 437047.000000 0 1 0
-0.359397 13.982936 -14.351228 20.040194 -1.545099 2.369027 0.003604 -0.001389 574286.000000 0 1 0
0.202203 13.084736 -15.316428 20.145574 1.555344 2.434552 0.007294 -0.002903 177219.000000 0 1 0
-0.427997 13.009136 -16.756528 21.217964 -1.537908 2.481170 0.004298 0.007490 -62462.300000 0 1 0
-0.189697 14.191036 -17.507728 22.537569 -1.557430 2.460403 0.002798 0.006230 -93826.900000 0 1 0
-0.511797 14.059636 -18.901628 23.562827 -1.534411 2.501734 0.005809 0.009630 -219355.000000 0 1 0
-1.096297 15.328436 -19.526528 24.848503 -1.499397 2.474822 0.006998 0.008693 74807.700000 0 1 0
-0.159797 16.415036 -19.590828 25.559332 -1.561062 2.444146 -0.000880 0.006613 313123.000000 0 0 1
-0.804897 17.655336 -19.796928 26.538219 -1.525238 2.412798 0.020689 -0.005487 150749.000000 0 0 1
0.239603 18.752536 -20.095128 27.486891 1.558020 2.390700 0.029860 -0.009864 280692.000000 0 0 1
0.578003 18.702736 -21.503228 28.504653 1.539901 2.425499 0.021542 -0.011879 -18608.400000 0 0 1
1.527503 19.723336 -21.769528 29.415227 1.493504 2.403981 0.017435 -0.006215 -48394.900000 0 0 1
1.988303 19.666136 -23.201528 30.479848 1.470036 2.435971 0.029850 -0.016349 -221393.000000 0 0 1
2.942703 18.642536 -23.338128 30.014527 1.414239 2.461574 0.008451 -0.009110 -269557.000000 0 0 1
3.225803 18.465136 -24.746528 31.044447 1.397845 2.493327 0.015692 -0.023778 108800.000000 0 0 1
4.019503 17.183936 -24.993228 30.595841 1.341017 2.526783 0.007545 -0.005980 -227202.000000 0 0 1
5.372203 17.250936 -24.563628 30.493067 1.268900 2.507396 -0.005313 0.005645 232239.000000 0 0 1
6.226503 16.275036 -25.112568 30.566112 1.205397 2.534977 -0.002781 0.006193 72091.200000 0 0 1
6.586603 16.470036 -26.593748 31.966746 1.190364 2.553354 -0.004442 -0.009132 -1003210.000000 0 0 1
7.728103 17.295136 -26.731898 32.763389 1.150576 2.525094 -0.015410 -0.003163 255948.000000 0 0 1
8.264503 17.435336 -28.057048 34.051298 1.128157 2.539168 -0.005380 -0.013639 297350.000000 0 0 1
8.780203 16.191336 -28.875408 34.249679 1.073901 2.573791 -0.002967 -0.017484 31250.800000 0 0 1
10.016803 15.787236 -28.289688 33.909875 1.005404 2.557588 0.007285 -0.014945 220739.000000 0 0 1
10.399803 14.404236 -28.386728 33.487971 0.945460 2.582373 0.007470 -0.010616 -197497.000000 0 0 1
9.803803 13.515436 -27.314898 32.013828 0.943240 2.592928 0.010816 -0.010918 -808477.000000 0 0 1
8.475603 13.159436 -27.508628 31.650137 0.998601 2.624272 0.008364 -0.011531 -922212.000000 0 0 1
7.961003 12.693836 -26.281258 30.252530 1.010649 2.623427 0.015435 -0.004087 274470.000000 0 0 1
6.469503 12.273336 -26.336768 29.767677 1.085690 2.656740 -0.000521 -0.010562 738775.000000 0 0 1
5.520103 13.364136 -26.386348 30.088387 1.179088 2.640298 -0.002285 -0.010149 428826.000000 0 0 1
4.222703 12.814336 -26.180828 29.452914 1.252473 2.665744 -0.009578 -0.009529 614145.000000 0 0 1
3.062103 13.690036 -26.739908 30.196295 1.350744 2.658443 -0.002147 -0.003943 -425348.000000 0 0 1
2.796603 13.818736 -28.153198 31.486203 1.371116 2.677312 0.012193 -0.008316 -424306.000000 0 0 1
3.686903 14.675236 -28.759648 32.497279 1.324658 2.657261 0.025667 -0.022784 -425531.000000 0 0 1
3.586803 14.527236 -30.256158 33.754123 1.328736 2.682307 0.042121 -0.026481 254706.000000 0 0 1
4.509003 13.519236 -30.696128 33.843066 1.248873 2.706934 0.032788 -0.021790 213278.000000 0 0 1
4.530003 13.495336 -32.105508 35.119918 1.246943 2.724247 0.022248 -0.012085 -1322070.000000 0 0 1
5.596103 12.602636 -32.684818 35.474499 1.152908 2.742364 0.008673 -0.000645 1114310.000000 0 0 1
7.002703 12.941336 -32.508248 35.683360 1.074803 2.716547 0.017744 -0.002754 1616600.000000 0 0 1
7.502103 13.169536 -31.162898 34.653202 1.052988 2.688915 0.012786 -0.011056 -850628.000000 0 0 1
7.547803 11.927536 -30.186288 33.323376 1.006604 2.704200 0.019134 -0.009029 124041.000000 0 0 1
8.573203 10.979936 -30.489978 33.521598 0.907869 2.713026 0.016127 -0.000172 8569.680000 0 0 1
8.326103 9.688636 -29.912358 32.526033 0.860889 2.737968 0.015072 -0.000303 -70785.300000 0 0 1
9.327203 8.577636 -30.273758 32.818790 0.743559 2.745180 0.005349 0.003212 347015.000000 0 0 1
10.651503 8.840836 -29.833788 32.888749 0.692773 2.707168 0.014720 -0.004020 23732.100000 0 0 1
11.446103 7.651836 -29.905828 32.922977 0.589278 2.710136 -0.010640 0.002152 -223288.000000 0 0 1
12.727103 7.746236 -29.056158 32.653386 0.546749 2.667782 0.001290 0.004079 221515.000000 0 0 1
13.401903 6.512236 -28.787868 32.415452 0.452319 2.663971 0.004972 -0.005043 400498.000000 0 0 1
14.133503 5.895436 -29.854308 33.552821 0.395181 2.667638 -0.003945 -0.001889 -404228.000000 0 0 1
14.974403 4.651436 -29.450428 33.364597 0.301176 2.652341 0.006815 -0.011667 167349.000000 0 0 1
16.012403 4.921636 -28.529458 33.083977 0.298199 2.610659 -0.010766 -0.015475 146925.000000 0 0 1
16.705603 3.745036 -28.192438 32.983572 0.220532 2.595850 -0.008148 -0.017140 -67968.400000 0 0 1
17.371503 3.909236 -26.802568 32.178081 0.221350 2.555205 -0.001979 -0.013910 -161485.000000 0 0 1
18.328903 4.930436 -26.751568 32.800980 0.262778 2.524514 0.022218 -0.026437 8787.460000 0 0 1
18.700103 5.364636 -25.445478 32.030384 0.279375 2.488843 0.025345 -0.027180 296017.000000 0 0 1
19.822703 6.447336 -25.446838 32.894517 0.314458 2.455282 0.020920 -0.019677 -15980.100000 0 0 1
19.391203 7.754736 -25.828268 33.215269 0.380429 2.461640 0.029630 -0.022622 612056.000000 0 0 1
20.438003 8.549736 -26.419738 34.479160 0.396204 2.443784 0.040164 -0.028147 75837.000000 0 0 1
20.643803 8.159336 -27.934668 35.680345 0.376400 2.470134 0.025667 -0.027688 558490.000000 0 0 1
19.526003 8.315636 -28.837568 35.805306 0.402612 2.507145 0.027768 -0.013799 902342.000000 0 0 1
18.407503 7.429336 -28.770768 34.954088 0.383609 2.537648 0.022909 -0.016150 -303906.000000 0 0 1
17.133703 8.144936 -29.182708 34.807100 0.443754 2.565160 0.020276 -0.007653 -749986.000000 0 0 1
17.106103 8.399536 -30.577838 36.030198 0.456442 2.584267 0.009521 -0.002194 -632166.000000 0 0 1
15.958203 9.139436 -30.717718 35.801840 0.520112 2.602145 -0.008032 0.003400 -978464.000000 0 0 1
15.283003 9.074336 -32.092068 36.685345 0.535814 2.635804 -0.014443 0.006873 268524.000000 0 0 1
14.581403 7.831836 -32.283468 36.279157 0.492894 2.667840 -0.012342 0.006655 365734.000000 0 0 1
13.550403 7.913736 -33.255008 36.771404 0.528588 2.700701 -0.024689 0.014598 370683.000000 0 0 1
12.946703 6.523536 -33.621018 36.613474 0.466744 2.734483 -0.026395 0.013231 -23575.700000 0 0 1
12.433503 5.800436 -32.526948 35.302116 0.436504 2.742433 -0.018312 0.010854 26179.800000 0 0 1
11.683903 4.655136 -32.839958 35.165988 0.379146 2.775842 -0.013779 0.006669 -115785.000000 0 0 1
11.628403 3.642136 -31.731838 33.991094 0.303532 2.774944 -0.014335 0.007783 159675.000000 0 0 1
12.734303 2.737636 -31.549668 34.132663 0.211758 2.750059 -0.007023 -0.002929 329703.000000 0 0 1
12.541303 1.774236 -30.567488 33.087815 0.140539 2.748762 -0.003075 0.004620 150522.000000 0 0 1
11.726003 0.448536 -30.900498 33.053609 0.038233 2.778661 -0.006142 0.009765 218722.000000 0 0 1
12.341903 -0.515764 -31.692218 34.014486 -0.041765 2.769936 -0.005541 0.008725 388946.000000 0 0 1
13.404003 -1.284164 -31.079548 33.871148 -0.095513 2.732751 -0.002812 0.002851 710271.000000 0 0 1
13.743703 -2.535964 -31.969318 34.890654 -0.182466 2.729468 -0.007582 0.003958 -197695.000000 0 0 1
12.816403 -3.586064 -31.950608 34.611579 -0.272826 2.746911 0.005373 0.004053 -325310.000000 0 0 1
13.113703 -4.644464 -32.885658 35.707237 -0.340384 2.741385 0.004226 -0.003889 -275708.000000 0 0 1
12.374803 -5.967664 -32.824938 35.584060 -0.449341 2.745205 0.009818 -0.000087 -306491.000000 0 0 1
12.554503 -6.723164 -31.649748 34.706239 -0.491657 2.718766 0.012167 -0.004194 -218435.000000 0 0 1
11.988003 -7.962464 -31.723858 34.835560 -0.586295 2.715710 0.030001 -0.005887 -280028.000000 0 0 1
11.958603 -8.613164 -30.304258 33.697816 -0.624187 2.688950 0.032851 -0.009010 -209223.000000 0 0 1
13.225803 -8.795564 -29.716298 33.694839 -0.586869 2.650725 0.022356 -0.009780 -148939.000000 0 0 1
13.174903 -9.356064 -28.411448 32.685232 -0.617501 2.624468 0.027174 -0.013261 -144262.000000 0 0 1
13.173703 -10.931864 -28.303198 33.077532 -0.692664 2.597626 0.029296 -0.011741 -1665110.000000 0 0 1
12.014703 -11.471664 -28.706728 33.166676 -0.762281 2.617002 0.017824 -0.011759 -1664590.000000 0 0 1
12.052603 -12.871164 -28.904228 33.858330 -0.818229 2.593810 0.008672 -0.017819 -211130.000000 0 0 1
-10.341397 -3.161264 -17.919728 20.929757 0.296669 2.598635 0.005687 0.018414 106422.000000 0 1 0
-10.618897 -3.107564 -19.278128 22.227553 0.284695 2.620564 -0.018738 0.028658 -451091.000000 0 1 0
-11.843097 -3.704464 -19.598728 23.196813 0.303154 2.577154 -0.014727 0.023501 -320084.000000 0 1 0
-12.600897 -3.096164 -20.815328 24.528487 0.240937 2.584165 -0.022056 0.011752 20479.900000 0 1 0
-13.342397 -1.931664 -20.520428 24.552776 0.143777 2.560327 -0.041919 0.012243 -25167.300000 0 1 0
-13.989397 -1.401564 -21.687428 25.845930 0.099854 2.566431 -0.043996 0.007722 334113.000000 0 0 1
-14.894997 -0.180164 -21.393028 26.068276 0.012095 2.533350 -0.032923 0.012133 -508077.000000 0 0 1
-14.094097 0.991336 -21.177728 25.458249 -0.070221 2.553249 -0.024133 0.004758 224971.000000 0 0 1
-14.876497 2.151236 -20.974328 25.804271 -0.143611 2.519780 -0.026500 0.016464 -26584.900000 0 0 1
-14.241697 3.386136 -21.655828 26.139371 -0.233428 2.547176 -0.013022 -0.000436 -146702.000000 0 0 1
-13.148497 3.946636 -20.997028 25.086532 -0.291602 2.562545 -0.010324 -0.000944 -270289.000000 0 0 1
-12.689497 5.084136 -21.621728 25.580674 -0.381073 2.577805 -0.011045 -0.005967 -750322.000000 0 0 1
-11.599997 5.777136 -20.814728 24.519138 -0.462070 2.584730 -0.017770 -0.007311 -661470.000000 0 1 0
-11.951897 6.358036 -19.634828 23.849505 -0.488894 2.537962 -0.000794 -0.012786 799552.000000 0 1 0
-10.798897 6.663036 -18.815428 22.694328 -0.552834 2.548258 -0.014350 -0.007168 382635.000000 0 1 0
-11.184897 7.195436 -17.435728 21.928995 -0.571663 2.489968 0.000740 -0.006132 9050.620000 0 1 0
-11.541297 8.567936 -17.476528 22.628302 -0.638601 2.453298 -0.002830 -0.009218 -98727.000000 0 1 0
-12.531597 8.809436 -16.523628 22.531696 -0.612722 2.394033 0.018150 -0.009400 -343065.000000 0 1 0
-13.150697 10.215136 -16.579028 23.497957 -0.660418 2.353998 0.019358 -0.001327 21092.400000 0 1 0
-12.399197 11.203036 -15.892328 23.061096 -0.734762 2.331098 -0.008768 0.015462 -237747.000000 0 1 0
-13.035497 12.410536 -16.118928 24.161238 -0.760843 2.301159 0.005258 -0.000849 -422581.000000 0 1 0
-12.494897 13.524836 -15.248928 23.907602 -0.824961 2.262471 0.008919 0.007567 -275602.000000 0 1 0
-12.639897 13.381536 -13.808928 23.011279 -0.813892 2.214415 0.027509 -0.003220 -272286.000000 0 1 0
-11.990597 14.454836 -13.215328 22.964354 -0.878312 2.183977 0.016952 -0.010189 -1329310.000000 0 1 0
-12.543397 14.801436 -11.838428 22.728125 -0.867788 2.118668 0.006191 -0.015321 673001.000000 0 1 0
-13.877397 15.326836 -11.799628 23.805992 -0.834989 2.089388 -0.000111 -0.006744 534548.000000 0 1 0
-14.855197 14.353736 -12.054928 23.917104 -0.768232 2.099054 0.003875 -0.003717 -1286660.000000 0 1 0
-16.313497 14.842036 -11.879828 25.050878 -0.738204 2.064883 -0.012219 0.003755 239465.000000 0 0 1
-17.270497 13.832136 -12.170828 25.253259 -0.675296 2.073676 -0.011527 0.003806 -7935.780000 0 0 1
-18.531697 14.153236 -11.636928 26.060621 -0.652231 2.033683 0.016922 -0.001535 -727141.000000 0 0 1
-19.679597 13.716636 -12.511728 27.055054 -0.608708 2.051558 0.003668 -0.003931 -837326.000000 0 0 1
-20.148797 12.418536 -12.178728 26.617953 -0.552349 2.046021 0.007974 -0.007415 437479.000000 0 0 1
-21.082697 11.884836 -13.100428 27.520004 -0.513319 2.066935 0.013079 -0.001159 -69633.400000 0 0 1
-21.831597 10.570536 -12.679328 27.370060 -0.450916 2.052461 0.012642 -0.000800 -61442.600000 0 0 1
-21.036797 9.387136 -12.704028 26.306985 -0.419710 2.074776 0.013949 0.000577 360964.000000 0 0 1
-21.385997 8.331236 -11.745228 25.782178 -0.371478 2.043793 0.006783 0.004625 -143414.000000 0 0 1
-20.440197 7.082036 -11.722328 24.604265 -0.333532 2.067392 0.013291 0.005950 55339.700000 0 1 0
-20.430697 6.221836 -12.833028 24.916083 -0.295611 2.111862 0.029449 0.003592 -249098.000000 0 1 0
-19.237097 5.549936 -13.014028 23.879543 -0.280875 2.147169 0.020330 0.000680 -784872.000000 0 1 0
-19.379597 4.477536 -14.090028 24.375110 -0.227060 2.187133 0.028086 -0.005838 -144054.000000 0 1 0
-20.263797 3.438736 -13.730728 24.717994 -0.168097 2.159755 0.025056 -0.011480 245825.000000 0 1 0
-20.068797 2.354036 -14.562628 24.907192 -0.116765 2.195276 0.018715 -0.017078 -191733.000000 0 1 0
-20.711397 0.969936 -14.255728 25.162045 -0.046797 2.173118 0.031916 -0.013315 -440728.000000 0 0 1
-22.055997 0.889936 -14.644728 26.490131 -0.040327 2.156561 0.029916 -0.018538 -264359.000000 0 0 1
-22.398197 -0.500864 -14.809728 26.856249 0.022358 2.154891 0.031611 -0.025274 -782876.000000 0 0 1
-23.818097 -0.494764 -15.339228 28.334404 0.020770 2.142855 0.044888 -0.019506 -532304.000000 0 0 1
-24.843397 -0.148364 -14.422928 28.726942 0.005972 2.096787 0.056889 -0.025096 1039940.000000 0 0 1
-26.147417 -0.321564 -15.013728 30.152990 0.012298 2.091993 0.029781 -0.016205 942428.000000 0 0 1
-27.361537 0.152236 -14.190328 30.822756 -0.005564 2.049225 0.028800 -0.010056 68323.500000 0 0 1
-27.640577 -0.644164 -13.005128 30.554047 0.023301 2.010469 0.032228 -0.015403 -141518.000000 0 0 1
-28.865727 -0.278164 -12.420128 31.425581 0.009636 1.977107 0.036109 -0.011986 22004.100000 0 0 1
-28.937127 -0.926764 -11.035228 30.983745 0.032016 1.934953 0.032563 -0.018998 -239602.000000 0 0 1
-29.241447 -2.302964 -10.896928 31.290715 0.078595 1.926498 0.039047 -0.017831 471882.000000 0 0 1
-28.304877 -3.151564 -11.548028 30.731992 0.110887 1.956019 0.044881 -0.017138 -75478.300000 0 0 1
-28.491397 -4.617464 -11.114728 30.929239 0.160668 1.938378 0.035357 -0.018142 14215.200000 0 0 1
-29.693007 -5.266764 -11.534628 32.287166 0.175548 1.936120 0.036247 -0.016746 484514.000000 0 0 1
-29.861177 -6.643764 -11.171528 32.567353 0.218923 1.920935 0.037238 -0.014339 282992.000000 0 0 1
-28.955857 -7.710064 -11.921228 32.249068 0.260232 1.949441 0.036810 -0.014570 320256.000000 0 0 1
-27.616227 -7.746064 -11.499928 30.901550 0.273463 1.952118 0.013343 -0.007046 -250211.000000 0 0 1
-26.886277 -8.670864 -12.319128 30.819096 0.311970 1.982012 0.026668 -0.005072 533419.000000 0 0 1
-25.386547 -8.746564 -11.877728 29.360851 0.331798 1.987275 0.036909 -0.012605 127720.000000 0 0 1
-24.748197 -7.517764 -12.099628 28.555052 0.294912 2.008355 0.031008 -0.012839 313516.000000 0 0 1
-23.468197 -7.453564 -11.476828 27.166697 0.307527 2.006953 0.024329 -0.017096 147401.000000 0 0 1
-23.441397 -6.987564 -10.031528 26.437789 0.289700 1.959986 0.009307 -0.015971 -452193.000000 0 0 1
-23.721397 -5.622364 -9.763528 26.261038 0.232722 1.951730 0.004705 -0.007483 -179034.000000 0 0 1
-25.085827 -5.402464 -9.570528 27.387594 0.212119 1.927778 0.012568 -0.005791 -981443.000000 0 0 1
-25.355407 -4.094464 -8.773228 27.140943 0.160101 1.899955 0.012603 -0.021070 -260150.000000 0 0 1
-24.932097 -4.080064 -7.399728 26.325127 0.162209 1.855726 -0.006395 -0.010574 449753.000000 0 0 1
-24.830597 -2.815464 -6.865228 25.915569 0.112905 1.838904 0.022369 -0.015147 -120629.000000 0 0 1
-24.741897 -2.691764 -5.296628 25.445261 0.108368 1.780487 0.014104 -0.007555 164583.000000 0 0 1
-23.479497 -3.068464 -4.785728 24.157927 0.129950 1.770217 -0.037251 -0.003951 186810.000000 0 1 0
-23.415997 -2.893864 -3.403528 23.838359 0.122961 1.714061 -0.053455 0.004044 947022.000000 0 1 0
-22.203197 -3.703364 -2.755428 22.677946 0.165273 1.692600 -0.054496 0.007731 884352.000000 0 1 0
-22.426897 -5.078464 -2.893128 23.175994 0.222690 1.695956 -0.027914 0.003682 550654.000000 0 1 0
-21.294897 -5.826064 -2.454728 22.213539 0.267055 1.681528 -0.020789 -0.003709 116803.000000 0 1 0
-21.387497 -7.370164 -2.415828 22.750397 0.331857 1.677185 0.001306 -0.000254 -233716.000000 0 1 0
-22.126197 -7.822564 -1.312528 23.504974 0.339828 1.626666 0.008961 0.015223 164292.000000 0 1 0
-22.690397 -9.086664 -1.499828 24.488182 0.380905 1.632082 0.005631 0.005658 -9279.570000 0 1 0
-22.896497 -9.902264 -0.198328 24.946818 0.408189 1.578746 -0.003493 -0.003282 45959.000000 0 1 0
-21.649497 -10.196664 0.403772 23.933986 0.440170 1.553925 -0.017390 0.004189 268004.000000 0 1 0
-21.660097 -11.054164 1.487472 24.363229 0.471891 1.509704 -0.037227 0.006672 386213.000000 0 1 0
-20.192997 -11.450364 1.835572 23.285989 0.515836 1.491887 -0.043160 0.004238 175037.000000 0 1 0
-19.652397 -12.432764 1.032972 23.277830 0.564070 1.526406 -0.033154 0.011395 -24433.300000 0 1 0
-18.483097 -12.943264 1.640472 22.623972 0.610911 1.498222 -0.058477 0.010355 -401339.000000 0 1 0
-17.907197 -14.202264 0.949672 22.875180 0.670522 1.529269 -0.042807 0.019398 -824111.000000 0 1 0
-18.739797 -15.336064 0.839772 24.229735 0.685841 1.536131 -0.028286 0.018948 -228156.000000 0 1 0
-18.140297 -16.390164 0.151172 24.448532 0.734758 1.564613 -0.030588 0.011675 -31626.000000 0 1 0
-17.068697 -17.127464 1.009072 24.201419 0.787117 1.529089 -0.026238 0.014259 -427602.000000 0 1 0
-15.940397 -16.337064 1.250472 22.859562 0.797687 1.516067 -0.016878 0.008548 -251665.000000 0 1 0
-14.979597 -16.898464 2.151272 22.684232 0.845520 1.475818 -0.003928 0.002135 609760.000000 0 1 0
-15.351797 -16.603664 3.610672 22.899700 0.824554 1.412462 0.019599 -0.006945 -577313.000000 0 1 0
-15.104697 -15.200564 3.892372 21.779797 0.788562 1.391116 0.010853 -0.014936 -48579.800000 0 1 0
-14.249397 -15.007064 5.017972 21.294068 0.811290 1.332908 0.010598 -0.017226 -302690.000000 0 1 0
-14.615797 -15.451964 6.439572 22.222799 0.813200 1.276806 0.003243 -0.012746 -1188700.000000 0 1 0
-15.446097 -14.522864 7.105972 22.360463 0.754602 1.247397 0.000276 -0.008379 192332.000000 0 1 0
-15.882897 -14.957364 8.426772 23.388023 0.755397 1.202204 0.008252 -0.001190 118647.000000 0 1 0
-16.686797 -16.254564 8.641672 24.846298 0.772278 1.215567 0.003272 0.001802 -246965.000000 0 1 0
-15.896397 -17.435464 8.400872 25.045269 0.831539 1.228737 0.005068 0.003182 48876.500000 0 0 1
-16.456497 -18.566164 8.992372 26.389041 0.845563 1.223069 0.008661 0.002776 -250201.000000 0 0 1
-16.089097 -18.853464 10.463572 26.903503 0.864345 1.171327 0.014150 0.007534 480387.000000 0 0 1
-14.722697 -19.227864 10.604372 26.437119 0.917325 1.158061 0.015752 0.010208 171752.000000 0 0 1
-14.509497 -19.831064 11.840272 27.276155 0.939140 1.121770 0.015408 0.011550 1206140.000000 0 0 1
-13.031897 -20.356564 12.080672 27.021523 1.001354 1.107303 0.001718 0.018139 1515110.000000 0 0 1
-11.972697 -19.389764 12.175872 25.837188 1.017626 1.080085 0.004939 0.011067 -466121.000000 0 0 1
-10.858797 -20.138164 12.544472 26.092583 1.076271 1.069266 0.001156 0.012942 -389048.000000 0 0 1
-9.638397 -19.240064 12.892872 25.085951 1.106385 1.031016 -0.001694 0.007968 75619.000000 0 0 1
-8.985597 -18.690364 11.762272 23.841596 1.122658 1.054858 -0.006182 0.002697 -277831.000000 0 1 0
-7.874997 -17.981064 12.277072 23.152986 1.157999 1.011891 0.000190 0.007190 -345548.000000 0 1 0
-7.012397 -17.327064 11.245772 21.814405 1.186238 1.029181 0.004107 0.006830 -353746.000000 0 1 0
-6.342997 -18.199164 10.400172 21.899926 1.235430 1.075951 0.001128 -0.000375 -202521.000000 0 1 0
-5.656997 -17.621164 9.300772 20.712590 1.260156 1.105106 0.006079 -0.000041 -266579.000000 0 1 0
-4.560797 -18.442964 8.601072 20.854789 1.328368 1.145680 0.003441 0.000986 -83064.900000 0 1 0
-3.345497 -18.512664 9.321272 20.995171 1.392012 1.110769 0.006265 0.000065 -580653.000000 0 1 0
-2.395697 -19.047364 8.451272 20.975353 1.445678 1.156097 0.006647 -0.006457 -432640.000000 0 1 0
-1.047097 -19.242364 9.190372 21.350127 1.516434 1.125794 -0.000891 -0.005512 -389930.000000 0 1 0
-0.145897 -19.799264 8.250072 21.449845 1.563428 1.175999 0.004183 -0.000169 -750764.000000 0 1 0
1.025003 -19.944964 9.031072 21.918314 -1.519450 1.146112 0.004032 -0.002625 -566404.000000 0 1 0
2.236403 -20.467464 8.255672 22.182757 -1.461962 1.189455 0.014323 -0.016810 -503205.000000 0 1 0
2.259603 -21.794164 7.717672 23.230451 -1.467486 1.232138 0.006261 -0.003765 -269924.000000 0 1 0
2.343803 -22.824164 8.712372 24.542643 -1.468465 1.207894 0.011758 -0.004687 -312723.000000 0 1 0
1.683103 -24.115564 8.236772 25.538945 -1.501116 1.242408 -0.005680 0.002148 -185584.000000 0 0 1
1.781703 -25.181154 9.211472 26.872220 -1.500159 1.220913 0.000538 0.004579 88455.500000 0 0 1
1.067803 -26.381094 8.848272 27.845902 -1.530342 1.247432 0.005749 0.008062 -505120.000000 0 0 1
1.194303 -27.570174 9.841772 29.298487 -1.527505 1.228221 0.017188 0.004751 -28260.200000 0 0 1
0.545103 -27.444314 11.083972 29.603074 -1.550937 1.187026 -0.003145 0.001485 -693215.000000 0 0 1
-0.836997 -27.619614 10.938672 29.718651 1.540501 1.193859 -0.032672 0.011356 -683254.000000 0 0 1
-1.494797 -27.903694 12.295172 30.529033 1.517278 1.156291 -0.026312 0.001256 -16057.600000 0 0 1
-0.994697 -29.079894 12.893872 31.825801 1.536604 1.153665 -0.047146 0.001090 6609.630000 0 0 1
-1.405797 -29.015654 14.239372 32.351881 1.522385 1.115041 -0.045905 -0.000744 -52853.200000 0 0 1
-0.979597 -30.287304 15.033772 33.827426 1.538464 1.110263 -0.059951 0.013957 97838.200000 0 0 1
-1.093897 -30.084364 16.419272 34.290787 1.534451 1.071481 -0.049053 0.008977 1821.260000 0 0 1
-0.625797 -31.225474 17.142172 35.626899 1.550758 1.068821 -0.057508 0.015017 -35644.400000 0 0 1
-0.890297 -30.950244 18.602372 36.121441 1.542039 1.029794 -0.041224 0.010336 -204704.000000 0 0 1
-2.253297 -30.823544 18.905572 36.229669 1.497823 1.021807 -0.053003 0.011858 -342040.000000 0 0 1
-2.350497 -30.591034 20.268772 36.771719 1.494111 0.986988 -0.036077 0.008762 522974.000000 0 0 1
-3.853797 -30.612154 20.698772 37.153666 1.445564 0.979892 -0.022726 -0.002499 449082.000000 0 0 1
-4.590297 -29.574244 20.024172 36.009363 1.416812 0.981132 -0.024229 -0.001966 256237.000000 0 0 1
-5.873697 -29.304064 20.553272 36.272104 1.372978 0.968372 -0.005344 -0.004679 278266.000000 0 0 1
-5.898897 -28.276534 21.697672 36.126837 1.365131 0.926549 0.007899 -0.010003 -506507.000000 0 0 1
-5.012797 -28.662084 22.705872 36.907992 1.397655 0.908154 0.001050 -0.009131 -101804.000000 0 0 1
-4.976097 -27.655144 23.744672 36.788286 1.392767 0.869196 0.015035 -0.018025 -520856.000000 0 0 1
-3.953197 -27.944004 24.834472 37.593166 1.430260 0.849164 0.026228 -0.024483 -372737.000000 0 0 1
-4.204697 -29.061604 25.665672 38.999783 1.427111 0.852507 0.020438 -0.021266 128362.000000 0 0 1
-3.474697 -30.240444 25.318872 39.592970 1.456396 0.876976 0.010973 -0.017235 174932.000000 0 0 1
-3.782297 -31.510594 26.178472 41.140439 1.451335 0.881078 0.016149 -0.011391 233072.000000 0 0 1
-3.153097 -31.341864 27.434572 41.772123 1.470530 0.854272 0.014370 -0.025237 235719.000000 0 0 1
-3.512797 -32.439464 28.214672 43.136137 1.462929 0.857825 0.026135 -0.017922 -152654.000000 0 0 1
-3.095797 -32.216294 29.672572 43.908258 1.474996 0.828766 0.029535 -0.020925 -803000.000000 0 0 1
-1.753997 -32.521064 29.867672 44.190202 1.516914 0.828626 0.024660 -0.023354 -659581.000000 0 0 1
-1.489497 -32.574214 31.217172 45.142108 1.525102 0.807190 0.019801 -0.029423 -365685.000000 0 0 1
-27.826487 3.317736 -10.444028 29.906495 -0.118669 1.927538 0.039713 -0.004122 -360560.000000 0 0 1
-28.620287 2.854636 -11.478228 30.968039 -0.099413 1.950502 0.023629 -0.018230 -310981.000000 0 0 1
-29.448157 3.907736 -11.949628 32.019649 -0.131928 1.953249 0.003150 -0.011498 -266775.000000 0 0 1
-30.339047 3.501736 -13.113328 33.236716 -0.114912 1.976367 0.007961 -0.006971 43016.800000 0 0 1
-31.345227 2.575536 -12.672128 33.907808 -0.081983 1.953816 0.016960 -0.004837 372191.000000 0 0 1
-32.207987 2.266236 -13.758428 35.096788 -0.070247 1.973616 0.021451 -0.001751 340626.000000 0 0 1
-33.187847 1.145536 -13.280328 35.764683 -0.034503 1.951232 0.008806 -0.003096 356632.000000 0 0 1
-32.462957 -0.045464 -12.985028 34.963646 0.001400 1.951298 0.022759 -0.010440 816211.000000 0 0 1
-33.345127 -1.182964 -12.869628 35.762050 0.035462 1.938923 0.021254 -0.006126 691390.000000 0 0 1
-32.499047 -2.499864 -12.767428 35.006350 0.076770 1.944126 0.007694 -0.010866 163034.000000 0 0 1
-31.899947 -2.901164 -13.963828 34.942980 0.090696 1.981896 0.021216 -0.008711 -36355.500000 0 0 1
-31.640367 -4.302164 -13.975828 34.856064 0.135142 1.983359 0.026170 -0.011789 -459146.000000 0 0 1
-32.776277 -5.254164 -14.355528 36.165892 0.158952 1.978972 0.026992 -0.012633 -69635.900000 0 0 1
-32.497807 -6.523864 -13.756728 35.887544 0.198115 1.964194 0.029063 -0.016521 271657.000000 0 0 1
-33.465017 -7.472364 -14.178328 37.104832 0.219685 1.962881 0.034391 -0.011210 -439126.000000 0 0 1
-33.208827 -8.907064 -13.645428 36.991346 0.262046 1.948602 0.033631 -0.008012 486931.000000 0 0 1
-31.841977 -9.358964 -13.577628 35.858802 0.285869 1.959124 0.030630 -0.012295 837759.000000 0 0 1
-31.234957 -9.615264 -14.830128 35.888835 0.298631 1.996788 0.023510 -0.013677 132252.000000 0 0 1
-29.906527 -10.374864 -14.478128 34.808825 0.333919 1.999764 0.018970 -0.011684 491062.000000 0 0 1
-30.255567 -11.668764 -14.071928 35.349378 0.368095 1.980221 0.020651 -0.015359 698973.000000 0 0 1
-29.069927 -12.381964 -13.707928 34.442430 0.402664 1.980127 0.023643 -0.020691 269247.000000 0 0 1
-29.133497 -13.896064 -13.901928 35.144343 0.445062 1.977481 0.020445 -0.019288 -168288.000000 0 0 1
-28.924087 -14.199764 -15.275628 35.659233 0.456367 2.013493 0.009054 -0.012260 -39038.500000 0 0 1
-29.140507 -15.558964 -15.616728 36.539467 0.490421 2.012404 0.011317 -0.009542 -6253.170000 0 0 1
-27.993157 -16.546064 -15.261928 35.920962 0.533831 2.009620 -0.005059 -0.010581 1143790.000000 0 0 1
-26.809037 -16.232064 -16.055228 35.213274 0.544432 2.044227 -0.000869 -0.016745 427395.000000 0 0 1
-25.933537 -17.344464 -16.090828 35.104038 0.589481 2.046963 0.001003 -0.017846 1254100.000000 0 0 1
-24.487097 -16.894164 -16.575328 34.055428 0.603930 2.079123 -0.002171 -0.030407 1318770.000000 0 0 1
-24.705397 -16.480964 -17.935128 34.693625 0.588302 2.114089 -0.000290 -0.024608 278348.000000 0 0 1
-23.477397 -16.169964 -18.572128 34.023225 0.603133 2.148219 -0.020272 -0.014211 -307489.000000 0 0 1
-23.681897 -15.842764 -20.044228 34.836711 0.589604 2.183861 -0.012422 -0.005581 -215929.000000 0 0 1
-24.140497 -16.881964 -20.839828 36.084106 0.610270 2.186502 -0.003621 -0.016704 460496.000000 0 0 1
-25.489127 -16.626764 -21.228728 37.105306 0.577996 2.179886 0.006596 -0.017321 298401.000000 0 0 1
-26.157527 -17.643664 -22.209628 38.584746 0.593417 2.184142 0.018373 -0.016685 212223.000000 0 0 1
-25.619597 -17.597864 -23.533128 38.985339 0.601874 2.218856 0.019969 -0.004574 310872.000000 0 0 1
-26.193387 -18.658964 -24.296428 40.305916 0.618969 2.217803 0.014766 0.003780 -172768.000000 0 0 1
-25.371667 -18.966664 -25.553078 40.699086 0.641933 2.249589 0.028276 0.008770 744910.000000 0 0 1
-24.067497 -19.561064 -25.466208 40.129881 0.682472 2.258280 0.033059 -0.005029 638744.000000 0 0 1
-23.961297 -20.936464 -25.031728 40.485388 0.718128 2.237362 0.026023 -0.000900 -509602.000000 0 0 1
-22.494997 -21.409264 -24.952628 39.837358 0.760674 2.247674 0.031023 0.003254 114419.000000 0 0 1
-21.930297 -21.457464 -26.218308 40.357903 0.774501 2.277914 0.042423 -0.006159 -1129360.000000 0 0 1
-20.557197 -21.629264 -26.181898 39.697798 0.810805 2.290990 0.036869 -0.003451 -741464.000000 0 0 1
-19.894197 -21.557664 -27.556088 40.247359 0.825507 2.324945 0.043543 -0.004536 -186269.000000 0 0 1
-20.312197 -22.626764 -28.399838 41.606569 0.839250 2.322084 0.076295 -0.011742 -202226.000000 0 0 1
-20.472997 -22.335464 -29.788068 42.489358 0.828878 2.347695 0.070317 -0.014215 -772013.000000 0 0 1
-19.319797 -22.616964 -30.732308 42.769806 0.863859 2.372514 0.069163 -0.023258 -451618.000000 0 0 1
-19.156097 -23.976164 -31.109448 43.699087 0.896687 2.362999 0.069460 -0.038160 -108520.000000 0 0 1
-18.333497 -24.042564 -32.253408 44.209097 0.919316 2.388482 0.063588 -0.034966 -38140.500000 0 0 1
-18.055297 -25.447804 -32.829808 45.292171 0.953721 2.381606 0.055784 -0.024246 -142946.000000 0 0 1
-17.347897 -25.501804 -34.051408 45.943334 0.973441 2.405594 0.030578 -0.024198 -87407.100000 0 0 1
-18.072697 -25.187894 34.046000 46.045439 0.948412 0.738618 0.046742 -0.021230 -641556.000000 0 0 1
-17.159197 -25.133804 32.795735 44.740433 0.971766 0.748042 0.039177 -0.014014 -271572.000000 0 0 1
-16.770597 -23.790464 32.508635 43.635426 0.956770 0.730253 0.023170 -0.010883 -155883.000000 0 0 1
-16.170297 -23.853964 31.203355 42.475163 0.975066 0.745681 0.021589 -0.006195 297549.000000 0 0 1
-15.234097 -22.677264 30.852985 41.209740 0.979263 0.724725 0.004379 0.000349 84494.800000 0 0 1
-16.008897 -21.532464 30.547435 40.658057 0.931483 0.720728 0.013103 -0.003108 -304824.000000 0 0 1
-15.275997 -20.364964 30.431945 39.676077 0.927224 0.696628 0.016559 -0.005199 -485304.000000 0 0 1
-14.858297 -19.707564 31.763025 40.224953 0.924779 0.660583 0.015433 -0.010515 85679.200000 0 0 1
-14.345197 -18.407064 31.503925 39.205892 0.908786 0.637560 0.020313 -0.014686 -159433.000000 0 0 1
-13.996697 -17.726864 32.679025 39.724903 0.902444 0.604769 0.012649 -0.013588 -99268.600000 0 0 1
-13.425897 -16.316864 32.388475 38.671799 0.882293 0.578064 0.022880 -0.013138 -432882.000000 0 0 1
-12.085897 -16.339064 31.952515 37.868154 0.933924 0.566502 0.032564 -0.016620 -165680.000000 0 0 1
-11.819497 -15.119164 31.225375 36.651244 0.907279 0.551080 0.035432 -0.020700 -326669.000000 0 0 1
-10.329097 -14.927864 30.957215 35.887052 0.965504 0.530352 0.039371 -0.027860 -146238.000000 0 0 1
-9.945397 -13.585464 30.526315 34.861607 0.938875 0.504031 0.055440 -0.026896 557050.000000 0 0 1
-8.592697 -13.236064 30.848765 34.650745 0.994992 0.472843 0.043661 -0.024830 725560.000000 0 0 1
-8.298697 -11.739764 30.646275 33.850917 0.955463 0.438639 0.047840 -0.024628 -114858.000000 0 0 1
-8.808697 -10.899664 31.669765 34.631919 0.891098 0.416606 0.042889 -0.023558 -80352.300000 0 0 1
-8.411397 -9.530064 31.574955 34.037501 0.847669 0.382721 0.031435 -0.018938 -193545.000000 0 0 1
-9.301597 -8.541264 32.368035 34.744245 0.742811 0.371983 0.006366 -0.016072 485018.000000 0 0 1
-10.671397 -8.403964 31.966375 34.732614 0.667086 0.401806 0.011504 -0.019136 462362.000000 0 0 1
-11.455797 -7.745064 32.945475 35.729898 0.594493 0.397400 0.011711 -0.019164 -34403.000000 0 0 1
-11.150397 -6.241464 33.261740 35.631876 0.510300 0.366792 -0.001449 -0.009352 -569845.000000 0 0 1
-11.651797 -5.287464 32.320935 34.761537 0.426001 0.376954 0.013326 -0.014704 248519.000000 0 0 1
-11.813997 -4.054864 32.977355 35.263556 0.330627 0.362063 0.007057 -0.012700 -379936.000000 0 0 1
-11.266197 -2.874064 32.116835 34.156676 0.249778 0.347345 -0.001443 -0.001681 544589.000000 0 0 1
-9.842097 -2.814164 32.148875 33.739243 0.278500 0.308260 0.006569 -0.009519 433188.000000 0 0 1
-9.335497 -1.912764 31.202585 32.625319 0.202095 0.296408 0.002763 -0.006423 6588.380000 0 0 1
-7.869597 -1.492364 31.452685 32.456572 0.187411 0.249363 0.006993 -0.000897 -70932.800000 0 0 1
-7.578297 -0.786064 32.691015 33.567111 0.103356 0.228972 0.017696 -0.012147 297184.000000 0 0 1
-6.249197 -0.291664 32.817405 33.408376 0.046638 0.188370 0.012436 -0.014065 338280.000000 0 0 1
-5.992797 0.516636 34.106874 34.633212 -0.085997 0.174563 0.026436 -0.017548 -91371.400000 0 0 1
-6.653697 1.790336 34.157067 34.845118 -0.262848 0.199054 0.036709 -0.017992 19365.500000 0 0 1
-6.290897 2.741036 33.171335 33.873679 -0.410911 0.203991 0.036159 -0.018518 -430028.000000 0 0 1
-7.097197 4.011936 33.318008 34.300954 -0.514502 0.239977 0.045627 -0.008370 612180.000000 0 0 1
-8.489097 3.882236 33.001215 34.296016 -0.428925 0.275658 0.015316 0.007758 504720.000000 0 0 1
-9.121997 5.157136 33.083235 34.703131 -0.514553 0.306746 0.004813 0.014216 886215.000000 0 0 1
-10.630697 5.013536 32.647515 34.698811 -0.440678 0.345569 -0.016216 0.025445 1073120.000000 0 0 1
-11.405797 6.161436 32.973065 35.429910 -0.495290 0.374594 -0.010733 0.024374 442936.000000 0 0 1
-12.545797 6.363936 32.136595 35.080727 -0.469436 0.412615 -0.021707 0.024536 357757.000000 0 0 1
-13.229697 7.750936 32.294115 35.749290 -0.529968 0.443280 -0.012194 0.017239 27380.600000 0 0 1
-13.901197 7.756536 33.551372 37.136258 -0.508946 0.443007 0.003519 0.011101 54179.800000 0 0 1
-14.383197 9.077036 33.786931 37.826256 -0.562964 0.466354 0.007432 0.008893 68740.900000 0 0 1
-15.207397 9.418536 -34.209356 38.603805 -0.554518 2.659799 0.019693 0.009243 29456.900000 0 0 1
-14.484297 9.608036 -33.006018 37.302901 -0.585697 2.656885 0.024279 0.000199 -484393.000000 0 0 1
-15.245797 10.130736 -31.971828 36.841063 -0.586497 2.621617 0.031596 -0.008426 -1567230.000000 0 0 1
-14.453997 10.266836 -30.686118 35.439579 -0.617613 2.617686 0.040468 -0.014776 832881.000000 0 0 1
-13.432097 11.289836 -30.601668 35.275256 -0.698960 2.620972 0.044109 -0.018828 685908.000000 0 0 1
-12.236097 11.022936 -31.307248 35.374722 -0.733287 2.657328 0.047849 -0.028554 -297078.000000 0 0 1
-11.320397 12.266036 -31.450758 35.605578 -0.825469 2.653673 0.042726 -0.023745 -198823.000000 0 0 1
-11.710997 13.217736 -32.376058 36.879060 -0.845767 2.642251 0.033156 -0.021760 -739587.000000 0 0 1
-10.889897 14.307336 -32.530368 37.168730 -0.920203 2.636662 0.025233 -0.025186 -687263.000000 0 0 1
-11.228397 15.522536 -31.567958 36.926440 -0.944563 2.596131 0.036750 -0.028422 804902.000000 0 0 1
-12.423797 16.247536 -31.940908 37.928284 -0.917980 2.572035 0.031114 -0.026262 787387.000000 0 0 1
-12.742497 17.133336 -30.873878 37.538230 -0.931323 2.536527 0.007820 -0.019023 -544136.000000 0 0 1
-14.122597 17.768736 -30.965558 38.393248 -0.899234 2.509066 -0.008614 -0.025766 -735783.000000 0 0 1
-14.351597 18.567636 -32.084048 39.750617 -0.912777 2.510076 0.000578 -0.025896 98208.200000 0 0 1
-15.693797 18.975936 -32.298108 40.614642 -0.879786 2.490188 -0.008775 -0.021853 256458.000000 0 0 1
-16.133497 20.239036 -31.552038 40.809795 -0.897797 2.454587 -0.020548 -0.024472 -198616.000000 0 0 1
-15.234097 21.371036 -31.750678 41.193500 -0.951506 2.450844 -0.010918 -0.023715 414132.000000 0 0 1
-15.630197 22.645336 -31.360168 41.720192 -0.966666 2.421400 -0.021701 -0.019557 -180541.000000 0 0 1
-16.910297 23.245636 -32.023588 43.032870 -0.941877 2.410081 -0.017581 -0.019990 535080.000000 0 0 1
-18.055597 22.632136 -31.454318 42.750348 -0.897407 2.397596 -0.013774 -0.016837 145759.000000 0 0 1
-19.137197 22.442336 -32.367008 43.789427 -0.864721 2.402606 0.013268 -0.019926 36824.500000 0 0 1
-20.386197 21.793136 -31.702628 43.538424 -0.818742 2.386419 0.017983 -0.023386 -490775.000000 0 0 1
-21.232797 22.582336 -30.892508 43.762319 -0.816189 2.354511 0.057458 -0.028576 175195.000000 0 0 1
-22.125697 23.404636 -31.610868 45.128377 -0.813481 2.346846 0.049114 -0.023023 -460303.000000 0 0 1
-23.445397 22.670636 -31.942268 45.650332 -0.768599 2.345796 0.055491 -0.034552 -857062.000000 0 0 1
-23.292397 21.742536 -32.967188 45.848763 -0.750997 2.373219 0.061956 -0.023694 -252526.000000 0 0 1
-24.442197 21.472336 -33.718228 46.855107 -0.720806 2.374062 0.080259 -0.025357 -288588.000000 0 0 1
-24.155997 20.428536 34.456824 46.777238 -0.701988 0.742745 0.075461 -0.011757 39954.000000 0 0 1
-24.001997 19.086236 -34.320212 46.024528 -0.671803 2.412372 0.075985 -0.019951 165905.000000 0 0 1
-23.586697 18.269936 33.903562 45.161647 -0.659052 0.721651 0.067175 -0.025920 -308322.000000 0 0 1
-23.374697 16.762836 34.320727 44.780368 -0.622134 0.697542 0.040463 -0.012892 -70823.900000 0 0 1
-24.552897 15.974236 34.378724 45.165447 -0.576800 0.705676 0.045453 -0.004232 351944.000000 0 0 1
-24.879097 15.400236 33.162145 44.225158 -0.554275 0.722964 0.046343 -0.005010 -597446.000000 0 0 1
-25.671267 14.081636 33.311578 44.350509 -0.501719 0.721073 0.029827 0.002363 173709.000000 0 0 1
-26.972007 14.464336 33.780885 45.583488 -0.492243 0.736123 0.031360 -0.001669 -50015.800000 0 0 1
-27.963457 13.498936 33.804534 45.901227 -0.449740 0.742970 0.014409 0.002986 -191096.000000 0 0 1
-27.845787 12.468436 -34.298694 45.904794 -0.420996 2.414590 0.002143 0.000859 -436409.000000 0 0 1
-26.827337 11.481136 -34.389368 45.101564 -0.404379 2.437945 -0.000996 -0.010632 -162509.000000 0 0 1
-27.163107 10.267036 34.208396 44.871603 -0.361378 0.703841 -0.000681 0.001802 -323907.000000 0 0 1
-26.149307 9.079936 34.436256 44.182431 -0.334209 0.677072 -0.006028 -0.002807 451446.000000 0 0 1
-25.088817 8.833836 33.564863 42.826223 -0.338547 0.670123 -0.009748 -0.004112 221796.000000 0 0 1
-24.091697 9.840736 33.410153 42.349596 -0.387787 0.661758 -0.009922 -0.012191 -965053.000000 0 0 1
-22.977797 9.388236 32.482225 40.880473 -0.387880 0.652504 0.010163 -0.011556 -583188.000000 0 0 1
-23.238497 9.402836 31.104475 39.949085 -0.384486 0.678360 0.012541 -0.007400 1194900.000000 0 0 1
-22.032097 8.941136 30.436535 38.623048 -0.385516 0.663176 0.020557 -0.005116 1261600.000000 0 0 1
-22.282297 8.963036 28.920355 37.592867 -0.382444 0.693045 0.039603 -0.016977 -83873.400000 0 0 1
-22.457397 10.257036 28.456425 37.673725 -0.428439 0.714625 0.033268 -0.012100 277077.000000 0 0 1
-22.543497 10.332836 27.066245 36.709104 -0.429777 0.741706 0.031788 -0.014027 -1142290.000000 0 0 1
-22.735497 11.783636 26.461335 36.823350 -0.478174 0.769006 0.029020 -0.008381 705204.000000 0 0 1
-24.035897 12.339436 26.681025 37.971872 -0.474291 0.791678 0.035328 -0.003045 1021790.000000 0 0 1
-25.088397 11.659836 25.972545 37.946706 -0.435052 0.816950 0.039323 0.001800 107289.000000 0 0 1
-26.503157 12.263636 26.195895 39.230587 -0.433384 0.839626 0.030046 0.008104 250809.000000 0 0 1
-26.538057 13.488336 25.516675 39.208473 -0.470237 0.862165 0.039823 0.003639 321840.000000 0 0 1
-27.663107 14.267536 25.925355 40.508444 -0.476176 0.876300 0.018795 0.005019 394132.000000 0 0 1
-27.772127 15.677436 25.323185 40.722680 -0.513909 0.899700 0.013472 0.007043 -564637.000000 0 0 1
-26.762767 16.511136 25.757735 40.648791 -0.552785 0.884514 0.023727 -0.000844 -436433.000000 0 0 1
-26.776817 17.736136 25.101195 40.763199 -0.585021 0.907420 0.019855 -0.006055 -196123.000000 0 0 1
-21.572797 -8.931264 32.541055 40.050884 0.392522 0.622381 0.023297 -0.013235 322239.000000 0 0 1
-20.700197 -8.909964 31.395775 38.646866 0.406460 0.622582 0.018236 -0.022552 543645.000000 0 0 1
-21.452797 -8.993064 30.168825 38.095350 0.396950 0.656834 0.014070 -0.019266 -121966.000000 0 0 1
-20.596697 -8.892064 28.902225 36.587311 0.407551 0.660065 0.001023 -0.011242 -499544.000000 0 0 1
-20.110397 -7.583764 28.674705 35.835461 0.360616 0.643206 0.006157 -0.015450 534122.000000 0 0 1
-18.988297 -7.037164 29.417915 35.714014 0.354912 0.602877 0.009123 -0.013555 759751.000000 0 0 1
-17.613197 -7.510764 28.859305 34.633737 0.403080 0.585797 0.020129 -0.011820 -548290.000000 0 0 1
-17.363797 -8.942664 28.907285 34.887015 0.475590 0.594199 0.015125 -0.009730 147792.000000 0 0 1
-16.822197 -9.461164 30.166825 35.812529 0.512330 0.569160 0.024535 -0.017041 -209253.000000 0 0 1
-15.374997 -9.106564 30.522755 35.368893 0.534736 0.529652 0.023757 -0.016920 -273619.000000 0 0 1
-14.380897 -9.917364 29.911785 34.639272 0.603726 0.528583 0.023473 -0.017051 -238137.000000 0 0 1
-13.086097 -9.482264 30.243135 34.290035 0.627050 0.490749 0.025100 -0.022315 14502.000000 0 0 1
-11.920097 -10.240964 29.588375 33.502806 0.709773 0.488237 0.032176 -0.020743 18723.600000 0 0 1
-11.678597 -9.838864 28.220865 32.087538 0.700106 0.495994 0.056723 -0.016411 219103.000000 0 0 1
-10.412797 -10.368464 27.846445 31.485804 0.783265 0.485562 0.056668 -0.012090 224547.000000 0 0 1
-10.096097 -10.165764 26.405695 30.042214 0.788837 0.497134 0.056907 -0.010920 326757.000000 0 0 1
-10.947297 -10.895164 25.465445 29.783163 0.783011 0.545191 0.057117 -0.008674 724011.000000 0 0 1
-10.486297 -10.811064 24.093655 28.413830 0.800646 0.558681 0.048230 -0.014798 -27194.900000 0 0 1
-11.609997 -11.271364 23.158055 28.251216 0.770600 0.609876 0.046076 -0.010352 -773239.000000 0 0 1
-11.885297 -12.613064 23.407055 29.124558 0.815096 0.637329 0.058820 -0.005226 23283.300000 0 0 1
-13.065997 -13.050564 22.786255 29.330034 0.784807 0.681083 0.041199 0.004540 138659.000000 0 0 1
-14.422897 -12.605564 23.414355 30.251483 0.718261 0.685677 0.028341 0.004475 -1120390.000000 0 0 1
-15.520397 -13.211564 22.866155 30.631506 0.705213 0.728023 0.011165 0.010597 -119921.000000 0 0 1
-16.653897 -13.047364 23.737555 31.797130 0.664563 0.727963 0.001877 0.014583 989431.000000 0 0 1
-17.920397 -13.918264 23.455755 32.634815 0.660354 0.768816 0.005981 0.010304 98941.700000 0 0 1
-17.650497 -15.276464 23.678355 33.250186 0.713423 0.778273 0.011238 0.013940 794652.000000 0 0 1
-18.766597 -16.189364 23.514655 34.164597 0.711803 0.811687 -0.001013 0.014787 328104.000000 0 0 1
-19.611897 -16.210864 24.793315 35.526428 0.690741 0.798358 -0.001926 0.010874 -784076.000000 0 0 1
-18.974997 -16.955564 25.776555 36.221160 0.729253 0.778961 0.012216 0.008152 -75852.000000 0 0 1
-19.528197 -16.762564 27.045325 37.333412 0.709338 0.760594 -0.000542 0.004255 -241904.000000 0 0 1
-18.844097 -17.562964 28.199285 38.193682 0.750224 0.740215 0.003392 0.005352 -69556.300000 0 0 1
-19.006497 -18.963664 28.038385 38.820336 0.784270 0.763732 0.018067 0.008105 73271.900000 0 0 1
-18.761697 -19.591864 29.258295 39.898499 0.807040 0.747607 0.018086 0.003957 -284075.000000 0 0 1
-18.794597 -21.118764 29.106975 40.576533 0.843563 0.770826 0.027510 0.008053 -143101.000000 0 0 1
-20.043397 -21.673664 28.746145 41.204688 0.824457 0.798695 0.017793 0.008402 -55979.500000 0 0 1
-19.910397 -23.032864 28.517785 41.715714 0.857982 0.818082 0.033028 0.008051 233563.000000 0 0 1
-21.199297 -23.648164 27.934575 42.296410 0.839948 0.849381 0.036422 0.011091 -497761.000000 0 0 1
-22.198197 -23.919164 28.825175 43.540522 0.822698 0.847271 0.030154 0.016698 -592411.000000 0 0 1
-23.310397 -24.526164 28.200975 44.047728 0.810808 0.875990 0.014548 0.022622 5575.390000 0 0 1
-24.114797 -25.439414 29.114265 45.566738 0.812122 0.877681 0.002392 0.029011 -236725.000000 0 0 1
-24.495597 -24.856464 30.363615 46.258266 0.792710 0.854768 0.000399 0.032266 151071.000000 0 0 1
-25.006097 -25.956204 31.110655 47.611997 0.804039 0.858702 -0.011175 0.032231 23246.600000 0 0 1
-26.049297 -25.487254 32.184055 48.620771 0.774493 0.847392 0.013948 0.021555 473984.000000 0 0 1
-27.243957 -25.061504 31.529795 48.625509 0.743697 0.865288 0.001656 0.023600 -677351.000000 0 0 1
-28.175767 -24.770864 32.500075 49.635919 0.721178 0.856919 0.005836 0.009041 -418298.000000 0 0 1
-29.380067 -24.093464 31.750175 49.515219 0.686854 0.874709 -0.001019 0.010772 -49454.100000 0 0 1
-29.940577 -24.903564 30.754355 49.623140 0.693813 0.902362 -0.005182 0.003832 1078950.000000 0 0 1
-31.213897 -24.442764 30.233625 49.858080 0.664334 0.919279 -0.016877 0.004506 2189790.000000 0 0 1
-32.516107 -25.023564 30.927065 51.380534 0.655911 0.924891 -0.018433 -0.002547 609419.000000 0 0 1
-32.594427 -26.371294 30.740675 51.988757 0.680249 0.938133 -0.008816 -0.007721 500552.000000 0 0 1
-33.795507 -27.033064 31.154585 53.324769 0.674681 0.946850 -0.002500 -0.008531 471228.000000 0 0 1
-33.534837 -28.533514 31.108375 53.911758 0.704994 0.955716 0.004282 -0.018512 -27494.900000 0 0 1
-32.737837 -28.972324 32.185545 54.286930 0.724454 0.936168 0.000832 -0.018587 6819.290000 0 0 1
-32.412587 -30.394094 32.123105 54.829468 0.753271 0.944839 0.001587 -0.027451 13872.500000 0 0 1
-31.334177 -30.831924 33.121685 55.040750 0.777319 0.925085 0.014911 -0.017558 -281373.000000 0 0 1
-31.833437 -30.929954 34.463027 56.193683 0.771004 0.910577 0.008928 -0.003275 -580754.000000 0 0 1
-30.821487 -30.961334 -33.856548 55.270553 0.787662 2.230092 0.000993 -0.016875 -544554.000000 0 0 1
-31.188497 -30.681764 -32.384288 54.431931 0.777208 2.208000 0.000726 -0.023125 -216534.000000 0 0 1
-31.444427 -29.381834 -31.905208 53.572254 0.751502 2.208752 -0.002143 -0.009253 -80860.800000 0 0 1
-30.297827 -28.825794 -31.272168 52.219088 0.760506 2.212879 0.015958 -0.013819 -194955.000000 0 0 1
-30.294687 -27.275694 -31.127088 51.289639 0.733006 2.222936 -0.003380 -0.003706 -404707.000000 0 0 1
-31.214777 -26.657434 -30.246188 50.988361 0.706812 2.205822 -0.018403 -0.006054 -182298.000000 0 0 1
-31.177007 -25.235234 -30.297988 50.267195 0.680457 2.217725 -0.008414 0.009563 -341533.000000 0 0 1
-30.045387 -24.538364 -29.522298 48.748565 0.684847 2.221320 -0.007685 0.003043 -421906.000000 0 0 1
-29.900497 -23.123764 -29.675078 48.055784 0.658283 2.236373 -0.001806 0.001490 -69252.900000 0 0 1
-28.897097 -22.671764 -28.784258 46.664597 0.665261 2.235509 0.020920 0.000823 40466.300000 0 0 1
-28.645377 -21.143764 -28.889578 45.850017 0.635855 2.252464 0.041322 -0.015307 138460.000000 0 0 1
-27.846417 -20.704464 -29.985068 45.860681 0.639343 2.283431 0.037226 -0.005061 413012.000000 0 0 1
-27.734247 -19.285264 -29.971448 45.159689 0.607605 2.296520 0.042512 -0.014489 -110960.000000 0 0 1
-27.067417 -18.601264 -31.209068 45.306269 0.602097 2.330693 0.055455 -0.007661 87611.000000 0 0 1
-27.837057 -18.309764 -32.351648 46.441127 0.581803 2.341467 0.043913 -0.013923 111454.000000 0 0 1
-28.779127 -17.247164 -32.164058 46.478268 0.539900 2.335085 0.041896 -0.016805 -206628.000000 0 0 1
-29.414707 -16.606164 -33.389398 47.495700 0.513948 2.350401 0.039361 -0.018373 219537.000000 0 0 1
-30.321837 -17.430164 -34.100521 48.847415 0.521713 2.343541 0.037003 -0.025561 130301.000000 0 0 1
-31.691687 -17.234264 -33.872318 49.484510 0.498079 2.324719 0.029816 -0.021881 34667.800000 0 0 1
-32.640717 -17.791864 34.298074 50.579884 0.499059 0.825626 0.020119 -0.018193 -22300.700000 0 0 1
-32.724147 -19.214264 34.200033 51.085223 0.530924 0.837301 0.002080 -0.011173 126037.000000 0 0 1
-33.540767 -19.707164 33.150545 51.110801 0.531221 0.865051 0.004337 -0.003830 -366163.000000 0 0 1
-34.011167 -21.148964 33.403154 52.151786 0.556312 0.875649 -0.004075 -0.008895 192739.000000 0 0 1
-32.988957 -22.136564 33.347447 51.868593 0.591017 0.872489 0.002933 -0.011837 44148.200000 0 0 1
-33.450217 -23.267164 34.067091 53.111624 0.607751 0.874443 0.000447 -0.012315 -184540.000000 0 0 1
-32.361547 -24.293364 34.589205 53.233921 0.643940 0.863529 0.001169 -0.006172 640096.000000 0 0 1
-31.506017 -23.936364 -33.598328 51.907863 0.649705 2.274792 -0.010454 -0.011340 247430.000000 0 0 1
-30.574867 -22.949564 -34.004288 51.164407 0.643886 2.297766 0.000462 -0.011488 -1362740.000000 0 0 1
-29.219367 -23.007064 -33.308938 49.925762 0.667005 2.301199 0.006467 -0.005607 -631225.000000 0 0 1
-28.379627 -24.074664 -33.767038 50.251423 0.703511 2.307651 0.004633 -0.003301 684887.000000 0 0 1
-27.057837 -24.093064 -33.243578 49.170496 0.727502 2.313237 0.022080 -0.006504 428104.000000 0 0 1
-26.931397 -24.519064 -31.761248 48.324543 0.738546 2.287959 0.027132 -0.003217 -728225.000000 0 0 1
-27.210157 -25.855554 -31.492508 48.996738 0.759877 2.268875 0.030334 -0.010931 -50226.000000 0 0 1
-26.876527 -26.137654 -30.155938 48.113462 0.771462 2.248194 0.023486 -0.013915 -67118.400000 0 0 1
-26.270737 -27.558184 -29.921308 48.424062 0.809311 2.236867 0.032304 -0.015617 536358.000000 0 0 1
-27.322657 -28.497754 -30.070308 49.627341 0.806446 2.221721 0.014838 -0.001116 429184.000000 0 0 1
-26.818217 -29.791014 -29.743158 49.913692 0.837864 2.209172 0.017563 -0.005195 -7975.550000 0 0 1
-27.539137 -31.036674 -30.307938 51.383366 0.845037 2.201656 0.012691 -0.000141 -343850.000000 0 0 1
-27.285457 -31.228524 -31.666398 52.177367 0.852683 2.222950 0.036693 -0.018144 400947.000000 0 0 1
-27.666197 -32.570914 -31.929348 53.345723 0.866642 2.212469 0.045519 -0.007498 -288748.000000 0 0 1
-27.122287 -32.866854 -33.312228 54.088382 0.880867 2.234305 0.027513 -0.022067 -243886.000000 0 0 1
-25.729847 -33.073784 -33.344738 53.551580 0.909644 2.242941 0.026888 -0.017690 -487845.000000 0 0 1
-25.294107 -33.661144 -34.559316 54.472110 0.926379 2.258081 0.038131 -0.021323 -221678.000000 0 0 1
-23.824697 -34.028094 34.496390 53.995632 0.959971 0.877763 0.039044 -0.023274 -228523.000000 0 0 1
-23.630197 -34.462070 33.180295 53.356841 0.969741 0.899685 0.040219 -0.009647 94834.100000 0 0 1
-22.568097 33.898301 33.046105 52.444817 -0.983422 0.889099 0.023519 -0.002329 -165544.000000 0 0 1
-22.589897 33.138321 31.703305 51.122904 -0.972468 0.901876 0.023075 -0.001631 -2481.190000 0 0 1
-23.849097 32.500121 31.542675 51.185717 -0.937734 0.906837 0.028368 -0.019644 227543.000000 0 0 1
-23.817997 31.683201 30.349955 49.922359 -0.926173 0.917329 0.019236 -0.009568 117642.000000 0 0 1
-25.218987 31.140391 29.962005 50.034418 -0.890079 0.928760 0.022101 -0.012916 180940.000000 0 0 1
-25.605017 30.132281 30.926045 50.199517 -0.866445 0.907062 0.025105 -0.014574 -433925.000000 0 0 1
-26.791227 29.521911 30.533995 50.215913 -0.833851 0.917189 0.023186 -0.018477 -511182.000000 0 0 1
-27.234917 28.268701 31.347085 50.234449 -0.804022 0.896925 0.030199 -0.030132 -538693.000000 0 0 1
-26.464617 27.117761 31.256365 49.119337 -0.797587 0.881058 0.040841 -0.018387 -417284.000000 0 0 1
-26.938467 25.932311 31.919475 49.163184 -0.766370 0.864191 0.035150 -0.022396 407489.000000 0 0 1
-27.995807 25.168391 31.037805 48.790967 -0.732266 0.881313 0.033456 -0.025586 239095.000000 0 0 1
-27.503987 24.806061 29.775495 47.522521 -0.733868 0.893671 0.032248 -0.019705 -720871.000000 0 0 1
-28.366847 24.156291 28.900815 47.153595 -0.705404 0.911061 0.017872 -0.006364 -577352.000000 0 0 1
-27.691327 23.853291 27.532025 45.758075 -0.711075 0.925185 0.034184 -0.017398 -86187.900000 0 0 1
-26.714467 22.835091 27.559115 44.661045 -0.707265 0.905779 0.043640 -0.017160 -236339.000000 0 0 1
-25.888637 22.736391 26.453465 43.439047 -0.720661 0.916024 0.024236 -0.007748 -390193.000000 0 0 1
-24.517897 22.109691 26.733865 42.481352 -0.733796 0.890134 0.020066 -0.009439 -258422.000000 0 0 1
-24.740997 20.911991 27.416275 42.439138 -0.701722 0.868445 0.048412 -0.016589 372552.000000 0 0 1
-23.509497 20.268991 27.721965 41.617734 -0.711512 0.841816 0.043160 -0.004977 212152.000000 0 0 1
-23.569497 19.098691 28.670415 41.740554 -0.680998 0.813620 0.059006 -0.005945 -934756.000000 0 0 1
-22.361297 18.452691 28.792485 40.859963 -0.689923 0.788849 0.035162 0.001346 -762425.000000 0 0 1
-22.518497 17.316891 29.653515 41.064441 -0.655555 0.763932 0.043882 0.005742 -177573.000000 0 0 1
-21.353897 16.301291 29.708205 40.053694 -0.652014 0.735181 0.036326 -0.002947 279860.000000 0 0 1
-20.273397 16.717691 30.553385 40.298897 -0.689569 0.710295 0.045570 0.001097 -270445.000000 0 0 1
-19.276897 15.765291 30.590615 39.445264 -0.685521 0.683257 0.015524 -0.003406 -562017.000000 0 0 1
-18.047597 16.123291 31.423585 39.662551 -0.729143 0.656270 -0.003945 -0.012873 -189651.000000 0 0 1
-18.358297 16.143391 32.813925 40.919308 -0.721289 0.640298 -0.011603 -0.010754 1151190.000000 0 0 1
-17.190297 16.517691 33.591329 41.191234 -0.765447 0.617209 -0.006208 -0.010917 337577.000000 0 0 1
-17.502797 16.391691 -34.176987 41.750471 -0.752629 2.529768 -0.005411 -0.020815 358481.000000 0 0 1
-18.317597 17.407891 -33.574218 42.021389 -0.759940 2.496392 0.011825 -0.019958 498181.000000 0 0 1
-19.707597 17.188091 -33.743538 42.690118 -0.717217 2.482307 0.019057 -0.017972 -154500.000000 0 0 1
-20.626197 18.079291 -32.865598 42.807105 -0.719691 2.446135 0.036270 -0.015366 -63675.800000 0 0 1
-20.818097 17.554291 -31.567898 41.690268 -0.700546 2.429813 0.038460 -0.020168 -31327.300000 0 0 1
-21.686997 18.349391 -30.816398 41.912723 -0.702226 2.396834 0.041227 -0.022878 -480783.000000 0 0 1
-21.906497 17.948091 -29.345548 40.782223 -0.686402 2.373975 0.043934 -0.035001 -44955.300000 0 0 1
-22.592097 16.763091 -29.070348 40.453543 -0.638354 2.372599 0.030665 -0.032377 -30725.400000 0 0 1
-23.995497 16.726991 -29.261158 41.373801 -0.608769 2.356381 0.038363 -0.031142 -8470.970000 0 0 1
-24.633597 15.590591 -28.461888 40.742603 -0.564260 2.344205 0.028857 -0.023606 -73130.200000 0 0 1
-24.343897 14.234591 -28.813798 40.317289 -0.529115 2.366957 0.003805 -0.018445 -310125.000000 0 0 1
-25.266637 13.398491 -28.168698 40.142222 -0.487580 2.348609 -0.024764 -0.007136 -101479.000000 0 0 1
-25.009297 11.907191 -28.342378 39.629995 -0.444354 2.367671 -0.005431 -0.009880 112613.000000 0 0 1
-23.940797 11.403891 -27.559358 38.245636 -0.444539 2.375447 -0.012558 -0.008455 -134177.000000 0 0 1
-23.322097 10.315391 -28.222258 38.037131 -0.416433 2.406794 -0.019666 0.001106 175231.000000 0 0 1
-22.096997 9.751391 -27.450998 36.563974 -0.415595 2.420018 0.002141 0.001660 122736.000000 0 0 1
-22.433397 8.831991 -26.446028 35.786223 -0.375062 2.402382 -0.010661 0.003342 451773.000000 0 0 1
-21.300197 8.382591 -25.670008 34.393539 -0.374930 2.413374 0.012554 0.015732 377803.000000 0 0 1
-21.643997 7.261391 -24.621428 33.576853 -0.323692 2.393938 0.012590 0.022494 151567.000000 0 0 1
-21.947897 6.034491 -25.251518 33.996535 -0.268316 2.407990 0.010580 0.008918 87041.000000 0 0 1
-22.587997 5.094491 -24.418028 33.651322 -0.221828 2.382729 0.015375 0.020077 -339658.000000 0 0 1
33.456872 25.534036 -10.738628 43.435784 0.651891 1.820617 -0.023278 0.005859 -186833.000000 0 0 1
34.231258 24.799636 -9.835428 43.399730 0.626963 1.799407 -0.014688 0.004611 -203147.000000 0 0 1
-34.891948 23.905036 -10.558028 43.593241 -0.600667 1.815423 -0.011330 0.002938 283426.000000 0 0 1
-33.796257 23.224936 -9.663328 42.130328 -0.602087 1.802224 0.000969 -0.001015 49552.700000 0 0 1
-34.316915 22.347536 -8.714628 41.868935 -0.577226 1.780470 -0.025196 0.002712 1096590.000000 0 0 1
-33.177427 21.831536 -7.944928 40.502833 -0.581995 1.768234 -0.018605 0.009164 857261.000000 0 0 1
-33.607307 21.030636 -6.671728 40.202620 -0.559157 1.737520 -0.034279 0.018429 -217611.000000 0 0 1
-34.175191 19.810936 -7.034128 40.123507 -0.525350 1.747019 -0.033859 0.013513 306950.000000 0 0 1
-34.355694 18.937136 -5.925428 39.674166 -0.503770 1.720710 -0.024432 0.002635 -503356.000000 0 0 1
34.842785 17.680336 -6.327028 39.580869 0.469575 1.731336 -0.022117 0.016449 232751.000000 0 0 1
33.450012 17.933436 -6.555028 38.515968 0.492129 1.741819 -0.011759 0.009601 563512.000000 0 0 1
32.918292 16.840636 -7.310428 37.691687 0.472876 1.765987 0.003735 0.013780 -245403.000000 0 0 1
32.078612 17.296836 -8.471628 37.416391 0.494515 1.799192 -0.009617 0.003213 -391635.000000 0 0 1
31.667922 16.191036 -9.268828 36.754837 0.472627 1.825729 0.003754 0.002401 153237.000000 0 0 1
30.913522 16.664636 -10.381428 36.621441 0.494415 1.858217 0.025938 -0.005967 -254776.000000 0 0 1
30.327722 15.533736 -11.255828 35.885391 0.473357 1.889842 0.021182 0.009873 178684.000000 0 0 1
29.202042 14.782136 -10.825528 34.474089 0.468597 1.890220 0.017263 0.016682 460960.000000 0 0 1
29.358942 14.138736 -9.582428 33.965780 0.448805 1.856800 -0.003006 0.013817 -990746.000000 0 0 1
28.171562 13.230936 -9.204928 32.456513 0.439079 1.858351 -0.004480 0.025939 -190971.000000 0 0 1
28.185192 12.048036 -9.947028 32.225821 0.403952 1.884587 -0.003103 0.023418 -36757.200000 0 0 1
27.120882 11.196336 -9.679628 30.896526 0.391518 1.889454 0.006859 0.015917 -679937.000000 0 0 1
27.412822 9.752936 -10.171128 30.822628 0.341815 1.907088 -0.000211 0.012888 -860560.000000 0 0 1
28.406132 9.240836 -9.381328 31.309913 0.314513 1.875099 -0.001767 0.020204 -284193.000000 0 0 1
28.473192 7.763036 -9.482128 30.998357 0.266174 1.881671 -0.005984 0.020962 -447637.000000 0 0 1
29.579522 7.114136 -8.618828 31.620298 0.236026 1.846862 0.009961 0.012301 -804047.000000 0 0 1
30.857492 7.248636 -9.103628 32.978835 0.230724 1.850473 0.014543 0.012255 -4004.540000 0 0 1
31.869142 6.657936 -8.211628 33.576794 0.205953 1.817865 0.021123 -0.001737 999613.000000 0 0 1
33.297612 6.999436 -8.701828 35.120433 0.207192 1.821175 0.019322 0.000487 75552.300000 0 0 1
33.679052 6.273536 -9.886828 35.656488 0.184163 1.851758 0.010365 0.009968 229254.000000 0 0 1
-34.880262 6.420336 -10.129328 36.884368 -0.182030 1.848995 0.009516 0.009419 -376946.000000 0 0 1
-34.426320 5.623036 -11.345428 36.681177 -0.161906 1.885251 0.008391 0.015705 -272754.000000 0 0 1
-33.057897 5.650936 -11.675428 35.511593 -0.169304 1.905806 0.009296 0.013128 283435.000000 0 0 1
-32.607917 6.689236 -12.540728 35.570943 -0.202334 1.931097 -0.001484 0.013187 -199492.000000 0 0 1
-31.775867 7.799536 -11.898828 34.815522 -0.240696 1.919594 -0.000700 0.027056 -479156.000000 0 0 1
-32.571207 8.568636 -11.000428 35.430417 -0.257245 1.886494 0.008083 0.019353 494519.000000 0 0 1
-32.948297 9.847836 -11.565628 36.281316 -0.290436 1.895235 0.006200 0.017880 -117320.000000 0 0 1
-33.888147 10.578936 -10.574228 37.042336 -0.302586 1.860286 0.008972 0.014829 -35557.400000 0 0 1
-33.275787 11.101636 -9.422228 36.322206 -0.322013 1.833204 0.007408 0.017613 -33601.000000 0 0 1
-34.136168 11.979236 -8.724428 37.214186 -0.337499 1.807437 0.013709 0.014088 -727637.000000 0 0 1
-33.402887 12.762736 -7.636328 36.564378 -0.364968 1.781191 0.008015 0.016080 -6792.380000 0 0 1
-32.577467 13.723036 -8.307828 36.312987 -0.398684 1.801625 0.006319 0.014629 34963.500000 0 0 1
-32.100107 14.692636 -7.369328 36.063796 -0.429250 1.776587 -0.003771 0.014982 63219.600000 0 0 1
-31.228047 15.836536 -7.965328 35.908679 -0.469332 1.794479 -0.014443 0.017040 242152.000000 0 0 1
-31.854387 16.746736 -8.856628 37.062042 -0.484017 1.812099 -0.010476 0.014695 341339.000000 0 0 1
-30.949807 17.848736 -9.056828 36.857754 -0.523111 1.819063 -0.007698 0.011923 669732.000000 0 0 1
-31.408537 18.795236 -10.219828 38.002657 -0.539251 1.843072 -0.017151 0.007841 152115.000000 0 0 1
-31.097657 18.486936 -11.557928 37.979162 -0.536351 1.880024 -0.015431 0.011131 -8766.880000 0 0 1
-32.094907 18.953836 -12.464828 39.302708 -0.533446 1.893518 -0.017748 0.006699 -175724.000000 0 0 1
-31.629987 19.124536 -13.940528 39.503699 -0.543819 1.931456 -0.010782 0.012042 -43533.100000 0 0 1
-30.803637 20.263536 -14.075928 39.466526 -0.581859 1.935481 -0.009765 0.004173 74412.200000 0 0 1
-30.811017 20.685236 -15.419528 40.186559 -0.591244 1.964594 -0.018510 0.006892 -406182.000000 0 0 1
-29.976307 21.947936 -15.642428 40.310996 -0.631996 1.969304 0.001534 -0.010307 -750292.000000 0 0 1
-28.665817 21.720236 -15.216528 39.051766 -0.648414 1.971048 -0.000795 -0.011662 -317835.000000 0 0 1
-27.797377 22.808936 -15.018728 38.967985 -0.687142 1.966451 0.002969 -0.010306 14395.900000 0 0 1
-27.145367 23.491936 -16.227028 39.396172 -0.713374 1.995327 -0.011552 -0.016926 -971523.000000 0 0 1
-28.078787 23.974436 -17.193228 40.728355 -0.706712 2.006605 0.001148 -0.007100 315724.000000 0 0 1
-27.509897 24.656336 -18.337628 41.243156 -0.730751 2.031549 -0.007394 -0.005190 282517.000000 0 0 1
-26.581277 25.911436 -18.078428 41.289179 -0.772638 2.024001 -0.010688 -0.001502 837912.000000 0 0 1
-27.383357 27.015436 -17.698428 42.342843 -0.778635 2.002016 -0.003355 -0.004709 839927.000000 0 0 1
-26.525427 28.168836 -17.686528 42.542859 -0.815436 1.999546 0.001953 0.000054 353746.000000 0 0 1
-27.223667 29.444836 -17.190328 43.630651 -0.824574 1.975772 -0.006706 0.000074 -286147.000000 0 0 1
-27.691177 29.629536 -15.895328 43.558835 -0.819201 1.944339 -0.002242 -0.007478 252617.000000 0 0 1
-26.710437 29.571536 -14.872028 42.533520 -0.836190 1.927998 -0.002968 0.002109 -244781.000000 0 0 1
-27.056987 30.355836 -13.615928 42.882989 -0.842793 1.893902 -0.003855 0.008621 -132629.000000 0 0 1
-26.642977 31.714736 -13.711128 43.631040 -0.872088 1.890465 0.006561 0.008485 135968.000000 0 0 1
-27.004117 32.309636 -12.478528 43.918658 -0.874609 1.858893 -0.004073 0.006918 -38865.100000 0 0 1
-26.577897 33.779436 -12.375428 44.727912 -0.904152 1.851136 -0.020513 0.008620 -138994.000000 0 0 1
-27.150177 34.592036 -13.350328 45.956200 -0.905351 1.865547 -0.029862 -0.005201 -160890.000000 0 0 1
-26.380767 -33.534920 -13.571828 44.774213 0.904239 1.878758 -0.007040 -0.001476 121627.000000 0 0 1
-26.629217 -32.836520 -14.918128 44.831939 0.889406 1.910022 -0.012009 -0.003853 88430.000000 0 0 1
-25.945717 -33.516920 -15.988028 45.301006 0.912044 1.931496 -0.009348 -0.010189 262282.000000 0 0 1
-26.195967 -32.862120 -17.232228 45.421330 0.897797 1.959929 -0.004976 0.004904 321105.000000 0 0 1
-25.118097 -33.401320 -18.236628 45.597604 0.926011 1.982255 -0.005397 -0.002437 -28307.300000 0 0 1
-25.340527 -34.616920 -18.924428 46.889310 0.938897 1.986242 -0.002914 0.008513 -205627.000000 0 0 1
-24.923497 33.525136 -18.270128 45.595098 -0.931515 1.983081 -0.025107 -0.003695 -679188.000000 0 0 1
-25.131517 32.279636 -19.182528 45.183375 -0.909268 2.009259 -0.024822 -0.009038 -630298.000000 0 0 1
-26.434177 31.806436 -19.295628 45.637006 -0.877380 2.007336 -0.008143 -0.001007 -629564.000000 0 0 1
-27.187297 32.494536 -20.281628 46.972209 -0.874090 2.017261 -0.003196 0.000956 -988413.000000 0 0 1
-28.645967 32.091936 -20.319328 47.574771 -0.842072 2.012083 0.003036 -0.011570 -836147.000000 0 0 1
-28.881407 30.799736 -20.825828 47.079448 -0.817530 2.029019 -0.002958 -0.008713 128554.000000 0 0 1
-30.249377 30.466036 -20.878328 47.740011 -0.788967 2.023428 0.006665 -0.014626 -295943.000000 0 0 1
-30.512197 29.104236 -21.566728 47.362162 -0.761786 2.043570 0.005623 -0.016008 103805.000000 0 0 1
-31.898227 28.785536 -21.728228 48.147895 -0.734149 2.038997 0.007452 -0.021870 740823.000000 0 0 1
-32.042737 27.505936 -22.307628 47.759227 -0.709359 2.056788 0.013223 -0.023093 -603282.000000 0 0 1
-33.499337 27.063836 -22.354928 48.522155 -0.679534 2.049598 0.022952 -0.024810 -318084.000000 0 0 1
-34.353607 27.729736 -23.261128 49.901789 -0.679107 2.055717 0.011336 -0.020844 4595.420000 0 0 1
34.568042 26.867136 -23.735128 49.801092 0.660698 2.067578 0.019482 -0.026402 -26479.600000 0 0 1
33.663262 27.575136 -24.740028 50.056690 0.686307 2.087757 0.018660 -0.031054 -419289.000000 0 0 1
34.306455 27.671536 -25.971188 51.158082 0.678752 2.103269 0.017294 -0.020532 513357.000000 0 0 1
33.372802 28.047536 -27.026708 51.291823 0.698912 2.125769 0.016683 -0.019356 469655.000000 0 0 1
34.149750 28.474036 -28.304288 52.707768 0.695013 2.137678 0.010097 -0.012042 54352.100000 0 0 1
34.632513 27.308436 -28.951808 52.757642 0.667702 2.151688 0.001505 0.002512 178753.000000 0 0 1
-34.496917 27.666036 -30.082118 53.482526 -0.675951 2.168162 -0.014024 0.000091 -758305.000000 0 0 1
-34.081081 26.448436 -30.964098 53.101932 -0.659962 2.193344 -0.021365 -0.001207 242559.000000 0 0 1
-33.008337 25.639736 -30.539888 51.765153 -0.660412 2.201818 -0.010185 -0.002792 -261552.000000 0 0 1
-31.732797 26.235536 -30.584258 51.290063 -0.690849 2.209680 -0.019846 0.008250 -427774.000000 0 0 1
-30.669617 25.553736 -29.716148 49.766135 -0.694656 2.210697 -0.020207 0.004373 -503719.000000 0 0 1
-30.578707 24.192336 -30.155528 49.291807 -0.669321 2.229100 -0.011035 0.004842 133503.000000 0 0 1
-31.222017 23.235636 -29.332118 48.734815 -0.639783 2.216639 -0.016165 0.007042 -132702.000000 0 0 1
-31.168837 21.827836 -29.966598 48.434985 -0.610934 2.237880 -0.028692 0.001232 -323387.000000 0 0 1
-29.878797 21.259736 -29.924338 47.330591 -0.618424 2.255239 0.027309 -0.001771 122090.000000 0 0 1
-29.950147 19.864236 -30.267508 46.986393 -0.585629 2.270742 0.011639 -0.006619 -734631.000000 0 0 1
-28.564887 19.253336 -30.251558 45.845397 -0.593077 2.291429 0.041799 -0.019051 -1346270.000000 0 0 1
-27.714077 19.870336 -31.165138 46.197036 -0.622029 2.311237 0.056137 -0.023975 -434074.000000 0 0 1
-26.410927 19.350036 -31.115328 45.167738 -0.632306 2.330745 0.056173 -0.030203 -84012.000000 0 0 1
-26.078687 18.099836 -31.982508 45.061988 -0.606720 2.359932 0.048259 -0.018551 -484100.000000 0 0 1
-26.688207 16.959436 -31.425178 44.580541 -0.566090 2.353090 0.019354 -0.018804 88512.800000 0 0 1
-26.582277 15.774436 -32.216478 44.646967 -0.535567 2.376882 -0.001160 -0.010259 -49347.100000 0 0 1
-27.072647 14.464036 -31.515428 43.992712 -0.490684 2.369394 -0.004820 -0.010086 -479008.000000 0 0 1
-28.429917 14.509836 -31.178378 44.619354 -0.471911 2.344464 -0.007972 -0.009770 -396058.000000 0 0 1
-29.175317 13.334436 -31.161558 44.721907 -0.428697 2.341702 -0.021544 -0.006303 -358138.000000 0 0 1
-28.825007 12.295636 -30.095038 43.448532 -0.403192 2.335966 -0.029298 -0.012742 -496863.000000 0 0 1
-29.272807 12.728136 -28.823818 43.008314 -0.410151 2.305263 -0.027931 -0.011192 235834.000000 0 0 1
-29.250177 11.730436 -27.840318 42.050675 -0.381401 2.294368 -0.028549 -0.007831 -59718.400000 0 0 1
-29.112837 12.450536 -26.429848 41.244514 -0.404126 2.266348 -0.030022 -0.007594 -772910.000000 0 0 1
-27.827597 12.887536 -26.160328 40.309136 -0.433711 2.277056 -0.027636 -0.013778 -828231.000000 0 0 1
-27.672997 13.393836 -24.833128 39.520549 -0.450769 2.250239 -0.024412 -0.007428 -677437.000000 0 0 1
-26.234297 13.723736 -24.493428 38.425346 -0.481974 2.261953 -0.017320 -0.005796 -795408.000000 0 0 1
-25.652227 14.791336 -25.242648 38.910302 -0.523044 2.276723 -0.010981 -0.008326 1378750.000000 0 0 1
-24.290897 15.215636 -24.943828 37.996813 -0.559600 2.286928 0.007756 -0.011789 1353310.000000 0 0 1
-23.970597 15.763436 -23.544328 37.113485 -0.581710 2.258012 0.010803 -0.004583 -733832.000000 0 0 1
-24.550297 17.054536 -23.476828 38.009679 -0.607145 2.236552 0.024831 -0.009789 209376.000000 0 0 1
-24.512897 17.690636 -22.164728 37.484875 -0.625133 2.203464 0.019370 -0.014261 -494268.000000 0 0 1
-25.848527 17.627636 -21.431728 37.923592 -0.598515 2.171386 0.015888 -0.005603 -475598.000000 0 0 1
-26.330277 16.292036 -21.440228 37.661615 -0.554097 2.176433 0.012473 0.001221 673246.000000 0 0 1
-27.653677 16.281736 -20.891728 38.292101 -0.532123 2.147887 0.009474 0.011392 -726677.000000 0 0 1
-28.478967 15.009036 -21.144028 38.514836 -0.485031 2.151944 -0.021229 0.006209 -233802.000000 0 0 1
-29.088037 14.899936 -22.402628 39.623222 -0.473388 2.171704 -0.024402 0.008123 -31859.700000 0 0 1
-30.049487 15.892836 -22.624028 40.833816 -0.486491 2.158019 -0.039817 0.017682 -1281260.000000 0 0 1
-30.624727 15.970336 -24.078428 42.103399 -0.480688 2.179602 -0.043140 0.014542 -770904.000000 0 0 1
-31.590607 15.027436 -24.348928 42.622301 -0.444014 2.178851 -0.040317 0.015697 -464293.000000 0 0 1
-32.007467 15.190136 -25.675508 43.754426 -0.443106 2.197909 -0.024393 0.009757 602584.000000 0 0 1
-33.177917 14.167136 -26.082638 44.517254 -0.403568 2.196786 -0.035496 0.001290 625825.000000 0 0 1
-32.993727 12.796236 -26.406708 44.154772 -0.369979 2.211861 -0.032314 0.002814 -123992.000000 0 0 1
-32.705907 11.977936 -25.299018 43.048665 -0.351061 2.198990 -0.030351 -0.001036 -335349.000000 0 0 1
-32.875057 10.528036 -25.667508 43.016623 -0.309924 2.210164 -0.027911 -0.010114 841927.000000 0 0 1
-34.202799 9.995036 -25.848948 44.021589 -0.284312 2.198377 -0.021563 -0.005235 653832.000000 0 0 1
-34.089409 8.845336 -26.612798 44.142596 -0.253876 2.217905 -0.023291 -0.000574 185988.000000 0 0 1
34.499963 8.228536 -27.036128 44.597179 0.234134 2.222107 -0.009747 -0.003335 224810.000000 0 0 1
33.812562 7.575336 -25.999858 43.320522 0.220400 2.214515 -0.023430 0.005952 499384.000000 0 0 1
32.695852 6.743936 -26.401088 42.561917 0.203410 2.239919 -0.016445 -0.000729 653332.000000 0 0 1
31.930232 6.056536 -25.275798 41.171437 0.187453 2.231808 -0.013980 -0.000602 -257240.000000 0 0 1
32.759812 5.105136 -24.636528 41.306491 0.154592 2.209845 -0.012754 -0.009406 20715.100000 0 0 1
32.111562 4.314036 -23.651428 40.114253 0.133546 2.201362 -0.006182 -0.009129 -571999.000000 0 0 1
33.070392 3.309836 -23.041128 40.441308 0.099752 2.176989 -0.003708 -0.008382 -194005.000000 0 0 1
33.504742 2.235536 -23.831228 41.176361 0.066624 2.188004 0.003591 -0.021496 -264758.000000 0 0 1
34.683139 1.724336 -23.284828 41.810006 0.049676 2.161469 0.021064 -0.012913 -152261.000000 0 0 1
-34.500537 0.674836 -24.113628 42.097618 -0.019558 2.180717 0.035007 -0.017562 165947.000000 0 0 1
34.697654 -0.526864 -24.063328 42.228527 -0.015183 2.177102 0.026827 -0.019915 85582.000000 0 0 1
-34.425853 -1.636964 -24.241328 42.136219 0.047515 2.183778 0.039270 -0.025003 -40225.700000 0 0 1
-22.380297 29.283936 27.905875 46.229476 -0.918236 0.922740 0.001119 -0.005182 -968804.000000 0 0 1
-23.551597 29.867736 27.403175 46.879562 -0.903089 0.946478 -0.008911 -0.010363 179888.000000 0 0 1
-23.869497 29.471836 26.055375 46.013308 -0.890043 0.968838 -0.015959 -0.003662 -230195.000000 0 0 1
-24.211197 27.967936 25.836555 45.121115 -0.857271 0.961117 -0.012805 -0.001261 -727806.000000 0 0 1
-25.458537 27.568136 26.343225 45.848715 -0.825161 0.958720 0.001374 -0.002883 -214133.000000 0 0 1
-25.539777 27.199036 27.697735 46.467540 -0.816850 0.932203 0.011341 -0.006461 -622355.000000 0 0 1
-24.773197 25.868936 28.156015 45.559569 -0.807032 0.904595 0.019161 -0.007012 41724.900000 0 0 1
-23.422497 25.978136 28.521575 45.132661 -0.837085 0.886730 0.013680 -0.000194 -312510.000000 0 0 1
-23.210397 26.561636 29.834805 46.199119 -0.852628 0.868742 0.012680 -0.000887 -138462.000000 0 0 1
-21.784997 26.247236 30.313115 45.633194 -0.878033 0.844269 0.012332 0.005294 -732594.000000 0 0 1
-20.659197 26.799836 29.665215 45.000651 -0.914071 0.851019 0.013811 -0.004629 -255192.000000 0 0 1
-19.511797 26.499336 30.407405 44.805527 -0.936113 0.824869 0.028257 -0.001685 -264952.000000 0 0 1
-18.879597 25.097236 30.148565 43.534427 -0.925852 0.805817 0.034208 -0.003529 -662992.000000 0 0 1
-18.388097 24.916736 28.789395 42.282326 -0.935031 0.821826 0.028339 -0.001903 482126.000000 0 0 1
-19.330397 24.283336 27.925035 41.751074 -0.898477 0.838141 0.029864 -0.004184 66939.800000 0 0 1
-19.121097 22.821636 27.817075 40.745957 -0.873399 0.819351 0.025852 0.011111 83460.500000 0 0 1
-19.628197 22.096436 28.928055 41.356389 -0.844485 0.796124 0.011057 0.012040 205741.000000 0 0 1
-19.334497 20.676536 28.766045 40.358732 -0.818927 0.777373 0.013526 0.015739 173968.000000 0 0 1
-19.742697 19.939536 30.051925 41.115415 -0.790359 0.751133 0.018631 0.005996 -178774.000000 0 0 1
-18.887997 20.274336 31.098885 41.652680 -0.820783 0.727824 0.015200 -0.004134 20798.300000 0 0 1
-19.388097 19.669236 32.308825 42.504556 -0.792596 0.707289 0.022743 -0.011237 -76418.600000 0 0 1
-18.692497 20.145236 33.559503 43.376032 -0.822786 0.686155 0.014175 -0.017428 -593039.000000 0 0 1
-18.942197 21.532336 33.849391 44.364733 -0.849305 0.702886 0.012557 -0.018303 304569.000000 0 0 1
-18.077397 22.453836 33.171185 43.946496 -0.892958 0.715434 0.019002 -0.008243 -346622.000000 0 0 1
-16.666997 22.642636 33.738252 43.917506 -0.936258 0.694742 0.013957 -0.002393 -238165.000000 0 0 1
-15.858297 21.485336 33.643077 42.953019 -0.934956 0.670915 0.005017 -0.017231 225316.000000 0 0 1
-14.532797 21.735236 34.106684 42.975441 -0.981437 0.654041 -0.001773 -0.014037 1055910.000000 0 0 1
-13.484397 20.543336 33.905144 41.873815 -0.989944 0.627159 -0.006195 -0.013546 394799.000000 0 0 1
-12.175497 20.696536 34.359901 41.918875 -1.039034 0.609951 -0.013890 -0.006201 -255262.000000 0 0 1
-12.027997 20.505936 -33.498598 41.077027 -1.040317 2.524401 0.000695 -0.018521 440556.000000 0 0 1
-10.519097 20.438936 -33.080088 40.282672 -1.095490 2.534305 -0.016441 -0.013971 453887.000000 0 0 1
-9.818797 21.617736 -33.227138 40.838437 -1.144454 2.521155 -0.024937 -0.009493 -559931.000000 0 0 1
-8.479797 21.328936 -32.881728 40.100355 -1.192384 2.532183 -0.032916 0.004216 138009.000000 0 0 1
-7.518597 22.562036 -33.017878 40.690970 -1.249129 2.517391 -0.042709 0.009889 30529.100000 0 0 1
-7.663097 23.603836 -32.046648 40.532108 -1.256877 2.482664 -0.028224 0.007965 61099.400000 0 0 1
-7.330197 23.339436 -30.684708 39.242991 -1.266483 2.468529 -0.019770 0.006234 -246918.000000 0 0 1
-7.253597 24.632336 -29.847508 39.373092 -1.284416 2.431143 -0.016386 -0.001254 237162.000000 0 0 1
-6.185597 25.428336 -30.343238 40.069614 -1.332175 2.429909 -0.033934 0.009204 192376.000000 0 0 1
-5.928197 26.589936 -29.605078 40.232186 -1.351435 2.397726 -0.018352 0.006547 -61383.200000 0 0 1
-4.705897 27.398136 -30.114388 40.983895 -1.400696 2.396147 -0.026118 0.016383 317357.000000 0 0 1
-3.510097 26.649736 -29.908108 40.212238 -1.439838 2.409469 -0.024813 0.015258 -157272.000000 0 0 1
-2.329597 27.099236 -30.473238 40.846222 -1.485042 2.412903 -0.023179 0.020142 87042.600000 0 0 1
-1.576197 28.343536 -29.869758 41.207315 -1.515243 2.381635 -0.021127 0.018301 -97049.200000 0 0 1
-0.981097 28.136236 -28.587308 40.122867 -1.535941 2.363843 -0.018498 0.008153 217559.000000 0 0 1
-0.431797 29.354936 -28.169448 40.686810 -1.556088 2.335535 -0.023920 0.011042 -641996.000000 0 0 1
-0.183897 29.420336 -26.638738 39.688945 -1.564546 2.306606 -0.015136 -0.002114 232378.000000 0 0 1
0.905103 28.793236 -25.977598 38.790530 1.539372 2.304586 -0.001707 -0.009823 309405.000000 0 0 1
2.191803 29.289036 -26.328468 39.444136 1.496102 2.301626 0.001072 -0.012348 664836.000000 0 0 1
3.229703 28.805136 -25.213028 38.416970 1.459140 2.286700 -0.001490 -0.011386 341279.000000 0 0 1
3.736403 27.510636 -25.237768 37.519871 1.435806 2.308582 0.017510 -0.013845 605936.000000 0 0 1
4.765803 27.472836 -24.227828 36.938560 1.399032 2.286164 0.006542 -0.011221 410253.000000 0 0 1
5.485803 26.146536 -23.795528 35.776564 1.363986 2.298444 0.010439 -0.014744 -184089.000000 0 0 1
6.428003 26.526036 -22.829728 35.582949 1.333051 2.267368 0.006116 -0.018440 -34754.900000 0 0 1
7.307603 25.414036 -22.562128 34.760953 1.290808 2.277151 0.009222 -0.010870 845959.000000 0 0 1
8.781103 25.745536 -22.206828 35.115290 1.242096 2.255441 0.010172 0.001463 -338996.000000 0 0 1
8.964303 26.334436 -20.912328 34.802108 1.242697 2.215414 0.015036 0.005077 -24614.700000 0 0 1
10.286603 26.717536 -20.570828 35.253367 1.203276 2.193845 0.027892 0.003233 85223.900000 0 0 1
11.139703 25.546536 -20.044528 34.329311 1.159599 2.194308 0.006230 0.014938 -468719.000000 0 0 1
11.392403 24.616536 -21.063828 34.343056 1.137353 2.231074 0.000574 0.003763 -323298.000000 0 0 1
11.543003 23.308536 -20.583828 33.169606 1.110975 2.240257 0.000858 0.005469 -248436.000000 0 0 1
11.710403 22.229136 -21.706328 33.202902 1.085936 2.283323 -0.002949 0.006581 312073.000000 0 0 1
10.681403 22.386536 -22.676728 33.607787 1.125607 2.311417 0.000824 -0.003993 492852.000000 0 0 1
11.096903 21.665336 -23.824828 34.060981 1.097439 2.345460 -0.016864 -0.001063 403094.000000 0 0 1
10.182803 21.938936 -25.056828 34.826010 1.136244 2.373858 0.003164 -0.004814 1185560.000000 0 0 1
8.837003 21.418336 -24.999528 34.085395 1.179483 2.394162 -0.008560 -0.006096 534132.000000 0 0 1
8.288703 21.567936 -26.312528 35.017532 1.203891 2.420993 -0.021741 -0.010330 -109750.000000 0 0 1
6.884903 20.901836 -26.315698 34.304585 1.252597 2.445134 -0.002973 -0.017648 298736.000000 0 0 1
5.771603 21.469136 -25.659428 33.950573 1.308173 2.427653 0.010813 -0.012725 51185.400000 0 0 1
5.910203 21.790136 -24.265928 33.144770 1.305936 2.392224 0.011838 -0.006943 -391101.000000 0 0 1
4.592603 22.194936 -23.498028 32.647580 1.366755 2.374235 0.016607 -0.010700 427748.000000 0 0 1
4.089503 23.371536 -24.019428 33.762192 1.397572 2.362327 0.006921 -0.012603 1130060.000000 0 0 1
2.639603 23.385236 -24.133628 33.708586 1.458397 2.368779 0.011983 -0.015128 1447540.000000 0 0 1
2.060003 24.673536 -24.818628 35.056972 1.487499 2.357389 -0.001821 -0.004233 353929.000000 0 0 1
0.686203 24.559236 -25.190818 35.188126 1.542863 2.368694 0.004287 -0.022719 399659.000000 0 0 1
0.435903 25.548436 -26.174078 36.578613 1.553736 2.368217 0.002111 -0.014642 -165425.000000 0 0 1
-0.987897 25.520236 -26.734878 36.973126 -1.532105 2.379061 0.014302 -0.006696 -363578.000000 0 0 1
-1.285297 24.267736 -27.332308 36.573625 -1.517883 2.414820 0.023614 -0.017137 952961.000000 0 0 1
-2.606697 24.207436 -27.931028 37.053166 -1.463528 2.424637 0.022733 -0.006771 967339.000000 0 0 1
-3.245897 22.830736 -28.123598 36.369150 -1.429571 2.454797 0.020334 -0.008241 -576486.000000 0 0 1
-2.666497 21.927736 -29.065038 36.506331 -1.449787 2.491726 0.032453 -0.008452 -227359.000000 0 0 1
-3.347997 20.716736 -29.342808 36.074819 -1.410573 2.520748 0.012002 -0.003226 -261765.000000 0 0 1
-4.493697 20.866236 -30.373578 37.123407 -1.358679 2.529032 -0.015399 0.005472 -475915.000000 0 0 1
-4.140597 21.215536 -31.702728 38.370646 -1.378051 2.543167 -0.006728 0.008570 -56293.300000 0 0 1
-3.783997 22.567336 -31.922058 39.276215 -1.404666 2.519667 0.002797 0.010070 -219921.000000 0 0 1
-3.510797 22.776536 -33.415728 40.591959 -1.417859 2.537839 -0.008901 0.015707 -404149.000000 0 0 1
-2.601197 21.861536 -33.926468 40.443766 -1.452368 2.565973 -0.013283 0.016202 -311432.000000 0 0 1
-2.221197 22.093036 34.032252 40.635331 -1.470595 0.578097 -0.021029 0.021851 -325560.000000 0 0 1
-1.048997 21.174236 33.654966 39.775688 -1.521296 0.562135 -0.007784 0.023504 -160831.000000 0 0 1
-1.286597 19.801536 33.522565 38.955340 -1.505913 0.534471 -0.021605 0.034872 187673.000000 0 0 1
-0.107197 19.196536 33.003445 38.180438 -1.565212 0.526826 -0.005105 0.025977 273812.000000 0 0 1
-0.370297 17.780536 32.475465 37.026212 -1.549973 0.501018 -0.015786 0.036795 -33849.200000 0 0 1
-1.084097 17.836436 31.259625 36.006636 -1.510091 0.519308 -0.027089 0.029435 1074.940000 0 0 1
-1.445897 16.555536 30.797615 34.995278 -1.483681 0.494828 -0.019903 0.025947 -498082.000000 0 0 1
-2.445397 16.600136 29.637915 34.058046 -1.424536 0.515152 -0.012075 0.026830 -1303250.000000 0 0 1
-3.679997 16.992036 30.087745 34.749735 -1.357518 0.523967 -0.031682 0.022991 -1193160.000000 0 0 1
-4.073097 18.194236 29.441725 34.848752 -1.350560 0.564525 -0.027054 0.027771 371236.000000 0 0 1
-5.571597 18.602636 29.602965 35.403902 -1.279793 0.580571 -0.024796 0.021022 568736.000000 0 0 1
-6.431597 17.840836 28.781135 34.467587 -1.224799 0.582627 -0.021982 0.021887 -108130.000000 0 0 1
-7.764097 18.346236 28.865925 35.072884 -1.170453 0.604077 -0.030276 0.023658 606527.000000 0 0 1
-8.710097 17.407136 27.952255 34.061749 -1.106849 0.608275 -0.019358 0.018859 468056.000000 0 0 1
-9.096997 16.075036 28.471775 33.938239 -1.055822 0.575484 0.001112 0.004427 116240.000000 0 0 1
-9.791997 16.026936 29.696305 35.137108 -1.022349 0.563941 0.001138 0.004343 -297846.000000 0 0 1
-10.311097 14.568236 30.036755 34.939360 -0.954868 0.536149 0.011467 -0.004049 942640.000000 0 0 1
-9.270097 13.573736 30.245805 34.423679 -0.971610 0.497803 0.009388 0.001514 1082950.000000 0 0 1
-8.334097 13.716236 31.326315 35.198442 -1.024801 0.473470 0.001258 0.004271 325828.000000 0 0 1
-8.876897 13.305336 32.766925 36.462345 -0.982447 0.454112 0.028921 -0.008920 -140055.000000 0 0 1
-8.956797 11.888536 32.969475 36.173855 -0.925124 0.424081 0.023753 0.002450 243999.000000 0 0 1
-9.305097 11.647736 34.311691 37.410516 -0.896741 0.409884 0.014190 0.004007 -122992.000000 0 0 1
-9.814597 10.175936 34.536854 37.318497 -0.803472 0.388543 0.018775 0.001675 -380457.000000 0 0 1
-8.821097 9.192936 34.398567 36.682192 -0.806037 0.354715 0.017490 0.002745 -140721.000000 0 0 1
-8.684197 8.356036 -33.709728 35.799223 -0.766143 2.798245 0.038228 -0.007526 491095.000000 0 0 1
-7.854897 8.977936 -32.495888 34.616260 -0.852017 2.789771 0.039220 -0.007959 -126327.000000 0 0 1
-8.552397 9.985636 -31.836538 34.444470 -0.862558 2.749957 0.046469 -0.010671 -79876.500000 0 0 1
-7.766397 10.863336 -31.058588 33.807763 -0.950128 2.735527 0.030473 -0.005401 3044.590000 0 0 1
-6.901097 11.971336 -31.759378 34.635186 -1.047859 2.731211 0.015444 -0.005739 390391.000000 0 0 1
-7.573097 13.138436 -32.228808 35.618343 -1.047905 2.701794 0.038644 -0.013391 214938.000000 0 0 1
-6.624997 14.005136 -32.837698 36.309073 -1.128948 2.700753 0.006640 -0.004173 326947.000000 0 0 1
-7.184297 15.441436 -32.996068 37.132096 -1.135324 2.665109 -0.000744 0.001165 -370094.000000 0 0 1
-8.228697 15.559636 -33.902708 38.199572 -1.084337 2.662721 0.007261 0.000799 -396410.000000 0 0 1
-8.753297 16.886036 -34.046208 38.998752 -1.092557 2.632132 0.011052 -0.002824 86827.400000 0 0 1
-9.491897 17.032536 33.828604 39.045843 -1.062381 0.522886 -0.002703 -0.010545 1577580.000000 0 0 1
-10.689897 16.286636 33.473871 38.730200 -0.989963 0.527072 0.014092 -0.006740 1368400.000000 0 0 1
-11.869297 16.794136 34.094340 39.816419 -0.955553 0.542756 0.009238 -0.026023 -151321.000000 0 0 1
-13.114497 16.818336 33.160715 39.426887 -0.908511 0.571541 0.002222 -0.025763 179397.000000 0 0 1
-13.509097 15.554736 32.626465 38.586678 -0.855667 0.563226 -0.003376 -0.018978 233361.000000 0 0 1
-13.998297 14.575036 33.541095 39.158512 -0.805580 0.542256 0.019140 -0.017331 -221710.000000 0 0 1
-13.319797 13.136736 33.466212 38.340294 -0.778479 0.509736 -0.000588 -0.006506 322924.000000 0 0 1
-13.552297 12.602236 32.166445 37.110124 -0.749089 0.522080 -0.023038 -0.006245 -107610.000000 0 0 1
-12.568397 11.670836 31.855265 36.179150 -0.748386 0.493908 -0.008589 -0.001458 -326823.000000 0 0 1
-12.559197 11.172636 30.392535 34.731360 -0.727038 0.505206 -0.007548 0.002052 487362.000000 0 0 1
-13.644997 10.248936 30.198145 34.686519 -0.644213 0.514372 -0.014215 0.012207 695775.000000 0 0 1
-13.620697 9.962936 28.822975 33.399811 -0.631527 0.529681 -0.027919 0.017324 92093.000000 0 0 1
-14.519997 8.802636 28.435995 33.119820 -0.544997 0.538304 -0.021998 0.013995 273651.000000 0 0 1
-13.852097 7.559536 28.778525 32.821192 -0.499561 0.501573 -0.044576 0.025371 267714.000000 0 0 1
-14.560997 6.424636 28.331745 32.495943 -0.415530 0.511820 -0.030440 0.030077 -49046.200000 0 0 1
-13.737797 5.130036 28.203765 31.788310 -0.357389 0.479476 -0.035288 0.032939 92643.900000 0 0 1
-12.773297 4.908136 27.212015 30.458835 -0.366855 0.465933 -0.041652 0.017971 -194137.000000 0 0 1
-13.393097 4.783736 25.943735 29.586087 -0.343056 0.501443 -0.028007 0.021262 -555545.000000 0 0 1
-12.561397 4.242336 24.821015 28.140165 -0.325701 0.490602 -0.037503 0.030519 -784821.000000 0 0 1
-12.127097 2.908536 25.001395 27.939145 -0.235392 0.462697 -0.034100 0.020428 -386147.000000 0 0 1
-11.728397 2.516536 23.763455 26.619354 -0.211363 0.467465 -0.028909 0.011446 -832822.000000 0 0 1
-10.661897 1.429736 23.774455 26.094921 -0.133302 0.424910 -0.025620 0.002248 859376.000000 0 0 1
-9.280997 1.767836 24.056255 25.845029 -0.188224 0.374233 -0.013479 -0.008771 1146120.000000 0 0 1
-8.627797 0.621636 24.526135 26.006857 -0.071926 0.339071 -0.009165 -0.003828 -38788.300000 0 0 1
-7.102997 0.864036 24.715205 25.730147 -0.121049 0.281808 0.013636 -0.005495 -247619.000000 0 0 1
-6.565497 0.945436 23.385255 24.307812 -0.143018 0.276390 0.027241 -0.004326 69229.200000 0 1 0
-5.196797 1.258836 23.252855 23.859728 -0.237655 0.226025 0.024795 -0.008391 -71229.600000 0 1 0
-4.643797 2.591636 23.725955 24.314653 -0.509030 0.220499 0.043943 -0.011793 -789321.000000 0 1 0
-4.516397 2.633736 25.173195 25.710390 -0.527938 0.204779 0.037922 -0.007702 -22570.300000 0 0 1
-4.339497 3.990236 25.481815 26.154849 -0.743493 0.227349 0.040938 -0.020742 10170.300000 0 0 1
3.459903 -24.045664 12.705672 27.415306 -1.427888 1.088910 0.034241 0.004987 251557.000000 0 0 1
3.320603 -25.225384 13.515672 28.810064 -1.439911 1.082491 0.027662 -0.002816 -659614.000000 0 0 1
1.981503 -25.596454 13.632172 29.067868 -1.493537 1.082664 -0.002238 0.006171 -366683.000000 0 0 1
1.788003 -26.902864 14.390372 30.562131 -1.504432 1.080535 -0.009983 0.018499 -114555.000000 0 0 1
2.094803 -26.827804 15.805072 31.207685 -1.492871 1.039736 0.001098 0.010502 91917.500000 0 0 1
1.969903 -28.116814 16.376872 32.598124 -1.500849 1.044439 -0.014546 0.013814 -667683.000000 0 0 1
1.539803 -28.047904 17.857172 33.285650 -1.515952 1.004533 -0.024371 0.015750 -266330.000000 0 0 1
2.423103 -27.316604 18.668572 33.175049 -1.482323 0.973113 -0.009484 0.012055 -38105.700000 0 0 1
2.259403 -27.607974 20.021372 34.178363 -1.489140 0.944941 -0.021129 0.011241 -76082.700000 0 0 1
3.069203 -26.766864 21.018172 34.170874 -1.456631 0.908296 -0.021995 0.018766 -172766.000000 0 0 1
2.503203 -25.481704 21.307672 33.310662 -1.472875 0.876734 -0.023681 0.017244 462684.000000 0 0 1
3.336103 -24.649064 22.132872 33.295195 -1.436270 0.843642 -0.013548 0.006308 570512.000000 0 0 1
2.531803 -23.399264 22.681872 32.686433 -1.463015 0.803873 -0.008050 0.002219 239284.000000 0 0 1
2.193503 -22.401464 21.717472 31.277558 -1.473190 0.803285 -0.001428 0.002510 -39006.400000 0 0 1
3.271903 -21.896164 20.973072 30.496182 -1.422466 0.812442 0.001633 0.006455 -349820.000000 0 0 1
2.806203 -20.770864 20.052672 29.007124 -1.436507 0.807507 -0.000876 -0.000763 -30003.400000 0 0 1
2.364303 -19.629164 20.674372 28.606357 -1.450925 0.763067 -0.016598 0.002524 11731.200000 0 0 1
1.711003 -18.696364 19.813372 27.295628 -1.479535 0.758482 -0.030683 -0.004731 358497.000000 0 0 1
1.310003 -17.412864 20.626972 27.025838 -1.495706 0.702496 -0.021378 -0.004157 -32584.600000 0 0 1
2.261003 -16.392564 20.563372 26.394707 -1.433733 0.677612 -0.031183 0.006367 40829.100000 0 0 1
1.677803 -15.148064 21.017972 25.962165 -1.460486 0.627391 -0.033921 0.007826 818777.000000 0 0 1
2.669203 -13.959064 20.728872 25.132972 -1.381861 0.601004 -0.035451 0.006097 6699.790000 0 0 1
3.019003 -13.589664 19.426572 23.899478 -1.352192 0.621776 -0.042500 0.008254 91648.600000 0 1 0
1.988403 -13.110364 18.548372 22.800823 -1.420277 0.620658 -0.034121 0.012122 51807.800000 0 1 0
1.249303 -11.852764 18.993672 22.423389 -1.465782 0.560391 -0.029420 0.007460 -977972.000000 0 1 0
2.013103 -10.694764 19.062972 21.950569 -1.384741 0.518729 -0.028020 0.014023 -487923.000000 0 1 0
1.733303 -9.925164 20.236872 22.606287 -1.397903 0.461944 -0.023406 0.011591 -55396.800000 0 1 0
0.456303 -9.040664 20.237472 22.169734 -1.520367 0.420604 -0.016628 0.000245 387928.000000 0 1 0
0.135503 -8.408864 21.481272 23.068863 -1.554683 0.373159 -0.009559 0.003380 -450153.000000 0 1 0
-1.082697 -7.732964 21.355372 22.738137 1.431690 0.350540 -0.006543 -0.005367 -233850.000000 0 1 0
-1.527197 -7.032464 22.683372 23.797547 1.356953 0.307210 -0.001581 -0.002908 -389237.000000 0 1 0
-1.992297 -7.912464 23.659372 25.026830 1.324132 0.332098 -0.008772 0.000833 -51437.100000 0 0 1
-2.165897 -7.192464 24.859072 25.969138 1.278299 0.293440 -0.003753 0.002812 -249809.000000 0 0 1
-2.271697 -8.116164 26.112772 27.439198 1.297882 0.312202 -0.001416 -0.002211 939411.000000 0 0 1
-1.064197 -8.913664 26.250672 27.743174 1.451969 0.329504 -0.015360 0.002656 885060.000000 0 0 1
-1.242797 -9.994764 27.126472 28.935884 1.447087 0.355512 -0.007133 -0.006501 164476.000000 0 0 1
0.020003 -10.876264 27.359472 29.442049 -1.568957 0.378378 -0.012732 -0.000786 376639.000000 0 0 1
1.115703 -10.278264 27.993472 29.841615 -1.462670 0.353785 -0.017226 0.005574 -666358.000000 0 0 1
2.206003 -11.134764 28.108972 30.314415 -1.375211 0.383802 -0.016782 0.004778 -517851.000000 0 0 1
3.163803 -10.663164 29.199072 31.245776 -1.282366 0.363954 -0.013316 0.008486 -381243.000000 0 0 1
2.705003 -10.675664 30.553572 32.477802 -1.322639 0.345954 -0.019218 0.001871 -482531.000000 0 0 1
3.582703 -10.004164 31.407472 33.156423 -1.226905 0.326248 -0.022514 0.016622 -345148.000000 0 0 1
3.108303 -9.908164 32.896172 34.496252 -1.266808 0.305769 -0.028886 0.016863 -281613.000000 0 0 1
3.226103 -11.155364 33.545272 35.498383 -1.289279 0.333262 -0.029307 0.015617 -84903.700000 0 0 1
2.554403 -11.319164 -34.495810 36.395183 -1.348844 2.817100 -0.027933 0.021071 -1001140.000000 0 0 1
2.910403 -10.462564 -33.242010 34.970944 -1.299483 2.825833 -0.037014 0.032030 -66143.600000 0 0 1
2.536403 -9.111364 -33.265910 34.584261 -1.299292 2.864592 -0.034246 0.022199 121456.000000 0 0 1
3.177603 -8.457264 -32.170410 33.414933 -1.211390 2.867812 -0.033431 0.023283 82679.100000 0 0 1
2.834603 -6.996564 -31.848710 32.731136 -1.185865 2.908862 -0.042139 0.017853 44279.400000 0 0 1
3.384503 -6.083764 -32.796210 33.526981 -1.063116 2.932422 -0.021228 0.018820 102239.000000 0 0 1
3.325303 -4.751964 -32.296210 32.812863 -0.960222 2.963902 -0.027663 0.019552 -134245.000000 0 0 1
3.587303 -3.736864 -33.376910 33.776486 -0.805816 2.987622 -0.025161 0.023367 -667672.000000 0 0 1
2.463803 -3.569764 -34.179610 34.453727 -0.966687 3.015365 -0.029478 0.024344 -469110.000000 0 0 1
2.575503 -2.569964 34.094972 34.288556 -0.784322 0.106311 -0.013243 0.021139 -474003.000000 0 0 1
1.925103 -2.933964 32.735972 32.923518 -0.990114 0.106788 -0.002603 0.014916 805238.000000 0 0 1
0.503203 -2.879364 32.621472 32.752166 -1.397782 0.089365 -0.003112 0.008094 185712.000000 0 0 1
0.064703 -3.464164 31.435072 31.625439 -1.552121 0.109777 0.006001 0.006414 1167580.000000 0 0 1
-1.494997 -3.628764 31.275072 31.520360 1.180001 0.124836 -0.001132 -0.000405 1251020.000000 0 0 1
-2.262697 -2.482064 30.913572 31.095488 0.831599 0.108222 -0.000994 0.003585 -69010.600000 0 0 1
-3.599097 -2.826064 30.666072 31.005614 0.665660 0.148129 -0.006956 0.000285 -43234.900000 0 0 1
-4.506597 -1.728964 30.075472 30.460347 0.366334 0.159135 0.015304 -0.012629 -410085.000000 0 0 1
-4.387597 -1.686264 28.694972 29.077413 0.366921 0.162366 0.006457 -0.008265 381910.000000 0 0 1
-5.310397 -0.863464 27.942072 28.455321 0.161188 0.190218 0.000873 -0.009603 438779.000000 0 0 1
-5.566597 0.650736 28.249272 28.799858 -0.116372 0.195851 0.011505 -0.004459 13499.900000 0 0 1
-6.511597 0.787736 29.291272 30.016663 -0.120389 0.220292 0.007255 -0.005974 -247281.000000 0 0 1
-6.969797 2.073836 29.522272 30.404661 -0.289204 0.241508 0.010337 -0.006625 -171924.000000 0 0 1
-8.466897 2.052736 29.868672 31.113336 -0.237853 0.283809 -0.002420 0.003273 216983.000000 0 0 1
-9.357397 1.785636 28.775772 30.311622 -0.188559 0.319695 -0.022909 0.008025 2141410.000000 0 0 1
-10.762697 2.101436 29.083272 31.081963 -0.192826 0.360569 -0.040203 0.021636 1705930.000000 0 0 1
-11.751797 1.260536 28.277772 30.648427 -0.106855 0.395900 -0.035109 0.021907 -524429.000000 0 0 1
-11.801497 -0.083464 28.782072 31.107716 0.007072 0.389131 -0.027859 0.016434 43279.300000 0 0 1
-11.905097 -0.881764 27.677972 30.142644 0.073931 0.407201 -0.025295 0.017763 -1102450.000000 0 0 1
-11.689797 -2.416664 27.854872 30.304876 0.203861 0.404867 -0.012923 0.013873 1359900.000000 0 0 1
-10.340997 -2.905764 28.088672 30.072466 0.273931 0.365254 -0.011512 0.010453 1782660.000000 0 0 1
-9.209497 -2.532264 27.323172 28.944480 0.268331 0.336289 -0.005377 -0.000420 -128714.000000 0 0 1
-9.074997 -2.973464 25.852072 27.559512 0.316631 0.353851 -0.008126 0.001062 -313986.000000 0 0 1
-10.185197 -2.547664 25.058472 27.169024 0.245105 0.396760 -0.014812 0.006755 574285.000000 0 0 1
-10.151897 -3.021764 23.695072 25.954740 0.289304 0.420370 0.004936 0.003074 196780.000000 0 0 1
-9.050897 -2.447164 22.730672 24.588428 0.264064 0.391216 0.008832 -0.004803 11289.900000 0 1 0
-7.766497 -2.719364 23.185872 24.602806 0.336800 0.341039 0.001255 -0.004814 -1181570.000000 0 1 0
-6.776197 -2.161764 22.363872 23.467698 0.308817 0.307927 0.003080 -0.007979 -785738.000000 0 1 0
-5.393097 -2.537664 22.857772 23.622087 0.439803 0.255076 0.004086 -0.007876 -1003810.000000 0 1 0
-4.965297 -3.862664 22.646472 23.503980 0.661139 0.270952 0.006966 -0.011108 -70370.300000 0 1 0
-5.498097 -4.851964 23.563372 24.677989 0.723051 0.301697 0.007084 -0.005316 -55265.500000 0 1 0
-5.246297 -6.330964 23.162172 24.578262 0.878815 0.341108 0.007267 -0.003619 -456467.000000 0 1 0
-6.196797 -6.894764 22.296872 24.147227 0.838662 0.394023 0.020293 -0.003372 -26922.000000 0 1 0
-5.930597 -6.522864 20.933672 22.714277 0.832921 0.398591 0.022649 -0.005369 -309473.000000 0 1 0
-7.164497 -6.517664 20.015272 22.235581 0.738158 0.450691 0.034579 -0.002148 -250478.000000 0 1 0
-7.931497 -5.366364 20.194372 22.349926 0.594841 0.442803 0.031749 -0.005454 -619299.000000 0 1 0
-8.960397 -5.240664 19.258472 21.877889 0.529220 0.494363 0.037776 -0.000084 -151647.000000 0 1 0
-9.594297 -3.841564 19.279572 21.874873 0.380852 0.492069 0.028527 -0.006590 53566.200000 0 1 0
-8.796297 -2.766464 18.840172 20.975706 0.304709 0.455161 0.030770 -0.010565 -194082.000000 0 1 0
-9.471697 -1.570064 19.009672 21.296614 0.164270 0.467684 0.025207 -0.004155 -154563.000000 0 1 0
-8.668097 -0.409464 18.351572 20.299846 0.047203 0.441703 0.039672 -0.008806 915303.000000 0 1 0
-7.398997 -0.126664 18.977972 20.369699 0.017117 0.371795 0.028137 -0.006904 966321.000000 0 1 0
-7.522097 0.603236 20.176972 21.541960 -0.080024 0.357896 0.027387 -0.006673 -366384.000000 0 1 0
-7.536097 2.132736 20.037372 21.513661 -0.275791 0.372614 0.021950 -0.015389 -789463.000000 0 1 0
-8.582997 2.579136 19.263572 21.246294 -0.291910 0.435453 0.020054 -0.015270 -385382.000000 0 1 0
-8.398197 3.924536 18.995072 21.136330 -0.437153 0.454016 0.015764 -0.012549 -29434.900000 0 1 0
-9.268497 4.394136 17.812772 20.555007 -0.442709 0.522468 0.013236 -0.009110 -699941.000000 0 1 0
-10.598997 4.573336 18.232172 21.579301 -0.407353 0.564434 0.011548 -0.001604 -393347.000000 0 1 0
-11.364097 5.042836 17.147972 21.180789 -0.417646 0.627326 0.012881 0.003005 -261865.000000 0 1 0
-11.555497 6.553836 17.284272 21.799732 -0.515924 0.655298 0.011577 0.008907 654067.000000 0 1 0
-10.307797 7.273836 16.986572 21.158993 -0.614517 0.638809 0.011159 0.004473 1648600.000000 0 1 0
-10.575997 8.650836 16.882072 21.718495 -0.685602 0.680413 0.005669 -0.001028 262618.000000 0 1 0
-9.292197 9.531036 16.872372 21.490987 -0.798086 0.667954 0.002228 0.000846 259936.000000 0 1 0
-8.680297 9.665436 18.139172 22.311382 -0.839045 0.621509 0.012317 0.012964 184034.000000 0 1 0
-7.856797 10.864536 18.256172 22.650722 -0.944695 0.633456 0.016288 0.006184 426949.000000 0 1 0
-8.387097 12.309436 17.844672 23.244310 -0.972694 0.695551 0.012738 0.011659 -180308.000000 0 1 0
-8.178397 12.614936 16.474272 22.303014 -0.995610 0.739721 0.001313 -0.003529 621239.000000 0 1 0
-9.215597 13.523436 16.032272 22.909480 -0.972626 0.795666 0.019231 -0.012107 498022.000000 0 1 0
-9.018997 14.123036 14.629072 22.244374 -1.002476 0.853098 0.011788 -0.006682 -60834.900000 0 1 0
-7.899497 14.963436 14.603572 22.351080 -1.085063 0.858766 0.014072 0.014233 -345564.000000 0 1 0
-7.596497 15.456236 13.323372 21.774164 -1.113984 0.912350 0.000756 0.004492 -187834.000000 0 1 0
-6.496497 16.537236 13.226972 22.150337 -1.196477 0.930859 -0.009291 0.010897 1076870.000000 0 1 0
-5.169297 16.080736 13.577072 21.671377 -1.259771 0.893744 -0.001457 0.001997 263306.000000 0 1 0
-4.362297 17.213636 13.652372 22.399245 -1.322601 0.915365 -0.000039 0.004121 17362.500000 0 1 0
-2.834297 16.962136 13.758572 22.023751 -1.405230 0.896030 0.006255 -0.001111 295089.000000 0 1 0
-2.294597 16.527736 14.968272 22.416075 -1.432845 0.839618 0.009671 0.002429 -116815.000000 0 1 0
-2.594097 15.133236 15.219572 21.618963 -1.401029 0.789794 0.011025 0.003951 -645541.000000 0 1 0
-1.701697 14.566836 16.298372 21.925451 -1.454504 0.732726 0.011068 0.009681 -189930.000000 0 1 0
-0.383397 14.313636 15.843872 21.355455 -1.544017 0.734879 0.005397 -0.002646 -92066.100000 0 1 0
0.370403 13.556936 16.781872 21.576815 1.543481 0.679681 0.002158 0.009977 565376.000000 0 1 0
1.598203 14.400136 17.262972 22.537266 1.460263 0.698240 -0.003305 -0.002329 339115.000000 0 1 0
1.218103 15.416336 18.190672 23.875673 1.491946 0.704568 0.001026 -0.002250 144382.000000 0 1 0
2.276403 16.361136 18.336772 24.680073 1.432549 0.733286 0.012570 -0.008540 -83575.400000 0 1 0
1.782603 17.691736 18.947572 25.984335 1.470376 0.753656 0.002381 0.001457 762006.000000 0 0 1
0.865103 18.542936 18.228072 26.016370 1.524176 0.794504 0.000569 0.008782 1571830.000000 0 0 1
-0.474597 17.998136 18.046272 25.491686 -1.544433 0.784236 0.002003 0.011219 716292.000000 0 0 1
-1.194197 18.750036 16.921972 25.285235 -1.507192 0.837606 0.003873 0.010538 -344173.000000 0 0 1
-1.578197 20.091336 17.390172 26.618989 -1.492406 0.858862 0.004461 0.018585 392785.000000 0 0 1
-2.466997 20.715836 16.461172 26.574464 -1.452267 0.902773 0.000130 0.016430 39272.500000 0 0 1
-2.898597 22.130136 16.835872 27.956956 -1.440558 0.924534 -0.001571 0.016065 -755405.000000 0 0 1
-3.736097 22.120336 17.966372 28.741228 -1.403477 0.895526 -0.009319 0.022864 -218218.000000 0 0 1
-4.275597 23.365636 18.191872 29.919523 -1.389812 0.917223 -0.006392 0.017144 -620094.000000 0 0 1
-5.289397 23.386936 19.338972 30.804583 -1.348370 0.892079 -0.024017 0.024553 522.583000 0 0 1
-6.572397 22.994736 18.888072 30.474802 -1.292397 0.902317 -0.028050 0.016898 585916.000000 0 0 1
-7.524697 22.835336 19.978172 31.260214 -1.252482 0.877478 -0.031696 0.015288 676124.000000 0 0 1
-9.003097 22.979636 19.571272 31.498478 -1.197391 0.900344 -0.032861 0.001322 -48609.400000 0 0 1
-9.278997 24.363636 19.672172 32.660081 -1.206903 0.924379 -0.027970 0.007926 -234330.000000 0 0 1
-10.397897 24.644836 18.870572 32.735038 -1.171546 0.956402 -0.011995 0.003769 -63952.500000 0 0 1
-11.183197 25.922036 19.218772 34.152263 -1.163503 0.973102 0.003018 -0.005223 -90405.300000 0 0 1
-11.755197 25.937736 20.514872 35.097162 -1.145278 0.946512 -0.000639 0.005364 226734.000000 0 0 1
-12.477697 27.168936 20.692072 36.359398 -1.140266 0.965387 0.015213 -0.000946 173419.000000 0 0 1
-13.242197 27.236236 22.061872 37.468580 -1.118251 0.941211 0.034350 -0.019659 408780.000000 0 0 1
-14.418697 26.423636 22.134172 37.363470 -1.071280 0.936760 0.029738 -0.019767 772750.000000 0 0 1
-15.139497 26.494436 23.362172 38.431115 -1.051655 0.917387 0.017237 -0.008475 2047380.000000 0 0 1
-16.720197 26.259236 23.228172 38.841478 -1.003802 0.929762 0.030035 -0.007790 1747800.000000 0 0 1
-17.102897 24.933036 23.129072 38.067300 -0.969560 0.917781 0.034950 -0.005702 -411691.000000 0 0 1
-18.500497 24.834136 23.201572 38.695163 -0.930527 0.927797 0.038592 -0.004823 -544915.000000 0 0 1
26.103203 24.689936 23.916955 43.162378 0.757581 0.983496 0.029089 -0.014607 -25692.600000 0 0 1
26.100203 23.875136 25.093005 43.369363 0.740904 0.953800 0.031025 -0.017728 307607.000000 0 0 1
25.891103 22.520536 24.710465 42.286296 0.715887 0.946704 0.021675 -0.007374 -271641.000000 0 0 1
25.713703 21.527636 25.905335 42.375937 0.697019 0.913067 0.027158 -0.004284 180887.000000 0 0 1
24.422103 21.735736 26.443385 42.049185 0.727264 0.890700 0.024112 -0.003966 212760.000000 0 0 1
24.291303 21.138036 27.693575 42.471379 0.716099 0.860508 0.029492 -0.004167 -57435.300000 0 0 1
23.038503 21.589236 28.466605 42.511355 0.752935 0.837095 0.035725 -0.002838 -183281.000000 0 0 1
22.932203 22.945536 28.919205 43.459222 0.785689 0.842722 0.035048 -0.009757 857345.000000 0 0 1
21.765803 23.075436 29.772975 43.504666 0.814596 0.817067 0.046632 -0.004939 731663.000000 0 0 1
21.531003 24.506336 30.305295 44.525897 0.849937 0.822185 0.038637 -0.009689 -565291.000000 0 0 1
20.949803 25.438436 29.436675 44.187398 0.881860 0.841724 0.035688 -0.018146 -3303.490000 0 0 1
20.459403 26.562136 30.139315 45.083395 0.914463 0.838575 0.036121 -0.020602 313431.000000 0 0 1
18.990203 26.456336 30.657035 44.726047 0.948228 0.815588 0.048703 -0.019624 -1053740.000000 0 0 1
18.049203 26.935136 29.673915 43.952435 0.980421 0.829646 0.046096 -0.026001 -781242.000000 0 0 1
16.882203 27.357736 30.215565 44.118419 1.017905 0.816365 0.041932 -0.020693 -1144110.000000 0 0 1
15.912103 26.335236 30.845875 43.568425 1.027284 0.784153 0.027760 -0.006313 -1486370.000000 0 0 1
16.418103 25.640236 31.949005 44.132921 1.001252 0.761319 0.031831 -0.011641 -566573.000000 0 0 1
15.357103 25.151136 32.704865 44.023044 1.022624 0.733399 0.030308 -0.005826 -345564.000000 0 0 1
15.731303 24.669836 34.130764 44.955353 1.003135 0.708691 0.031472 0.000686 -299424.000000 0 0 1
16.124103 25.755936 -34.360507 45.869373 1.011453 2.417491 0.032315 -0.007148 168537.000000 0 0 1
16.652003 25.319836 -33.113648 44.887604 0.989051 2.400456 0.013883 0.011998 -270911.000000 0 0 1
17.218703 26.436836 -32.356518 45.192193 0.993497 2.368817 0.019468 0.024645 -724538.000000 0 0 1
16.248703 27.083436 -31.598258 44.676423 1.030414 2.356424 0.032046 0.000505 -171217.000000 0 0 1
16.674603 28.299736 -31.066328 45.210996 1.038345 2.328343 0.043633 -0.002698 -153431.000000 0 0 1
15.882403 28.669736 -29.797488 44.295539 1.064904 2.308644 0.042722 0.004092 -190867.000000 0 0 1
16.062303 27.756636 -28.725608 43.053327 1.046198 2.301253 0.026842 0.014788 292337.000000 0 0 1
15.723203 28.396736 -27.455518 42.513518 1.065119 2.272876 0.022618 0.019105 -116048.000000 0 0 1
16.436403 27.713836 -26.280758 41.579926 1.035484 2.254997 0.013052 0.019343 1190950.000000 0 0 1
17.875203 27.863836 -26.272788 42.263171 1.000406 2.241640 0.028810 0.013265 673514.000000 0 0 1
18.456603 27.232636 -25.154988 41.412994 0.975168 2.223602 0.031751 0.011596 446171.000000 0 0 1
19.990703 27.428136 -25.043728 42.179606 0.940976 2.206495 0.026589 0.006569 821906.000000 0 0 1
20.606303 26.985736 -23.776928 41.451079 0.918648 2.181708 0.016421 0.003414 58732.900000 0 0 1
22.017503 26.970436 -23.871328 42.213921 0.886161 2.171817 0.025625 0.005016 411242.000000 0 0 1
22.658003 26.738736 -22.471028 41.632826 0.867822 2.140928 0.029930 0.004329 222847.000000 0 0 1
22.418203 25.382436 -22.050428 40.411202 0.847331 2.147963 0.028591 -0.000055 145210.000000 0 0 1
22.799603 25.287736 -20.677628 39.835358 0.837094 2.116567 0.021367 0.001502 -293840.000000 0 0 1
22.222503 24.024836 -20.050028 38.380151 0.824350 2.120467 0.011718 -0.002599 -720672.000000 0 0 1
22.787103 22.807736 -20.444328 38.176111 0.785851 2.135928 0.007137 0.004983 18591.900000 0 0 1
22.931903 21.881936 -19.383428 37.153850 0.761973 2.119647 0.015108 0.006129 -1463820.000000 0 0 1
23.021403 20.388236 -19.826828 36.589182 0.724814 2.143465 0.026921 0.005742 255219.000000 0 0 1
21.995003 19.895036 -20.701128 36.168070 0.735310 2.180176 0.012297 0.005515 227638.000000 0 0 1
20.712903 19.966436 -20.131428 35.113492 0.767050 2.181354 0.005659 0.005657 -843647.000000 0 0 1
19.554603 19.949636 -21.173528 35.052657 0.795398 2.219369 0.015302 0.005182 41457.700000 0 0 1
19.503603 20.811036 -22.314928 36.213889 0.817818 2.234703 0.019258 0.006516 -131911.000000 0 0 1
19.792803 22.159136 -22.035928 36.991411 0.841744 2.208938 0.015504 0.009371 -361586.000000 0 0 1
19.571403 23.064936 -23.228928 38.139405 0.867153 2.225663 0.027485 0.010069 522228.000000 0 0 1
18.165503 23.021636 -23.444928 37.545251 0.902760 2.245217 0.032127 0.005592 175360.000000 0 0 1
17.800503 23.720736 -24.630128 38.550933 0.927027 2.263862 0.020633 -0.000160 -708455.000000 0 0 1
16.352903 23.659736 -25.079768 38.160127 0.966021 2.287927 0.017552 0.015548 -964998.000000 0 0 1
15.625003 24.666736 -24.452228 38.085431 1.006148 2.267948 0.003503 0.003014 -659259.000000 0 0 1
14.264803 24.372636 -24.619328 37.464934 1.041271 2.287801 0.006984 0.007946 -385153.000000 0 0 1
13.293503 25.313136 -23.898828 37.264273 1.087222 2.267031 -0.004208 0.012082 -189552.000000 0 0 1
13.341303 26.609336 -24.470528 38.533801 1.106048 2.258857 -0.007506 0.013430 907312.000000 0 0 1
12.245203 27.478436 -24.044428 38.511608 1.151583 2.245086 -0.004577 0.014292 1103980.000000 0 0 1
12.281103 28.832736 -24.776128 39.950077 1.168127 2.239765 -0.001206 0.008438 154519.000000 0 0 1
12.210403 28.838536 -26.172278 40.813518 1.170277 2.266942 0.008985 0.005737 188873.000000 0 0 1
11.567503 30.011436 -26.705348 41.805131 1.202907 2.263741 0.026286 0.005698 210158.000000 0 0 1
12.453503 31.308236 -26.721518 43.003894 1.192213 2.241292 0.035241 0.001799 961666.000000 0 0 1
13.595403 31.134036 -27.593098 43.766908 1.159080 2.252937 0.031925 0.008294 486049.000000 0 0 1
14.379603 32.301936 -27.659618 44.891452 1.151973 2.234634 0.022297 0.002737 -221021.000000 0 0 1
15.816603 32.159836 -28.167468 45.583179 1.113720 2.236911 0.029385 0.012238 -393522.000000 0 0 1
16.698503 31.689536 -27.202388 44.978179 1.085829 2.220299 0.014261 0.016004 -605796.000000 0 0 1
17.970503 31.422336 -27.717888 45.591485 1.051293 2.224287 0.028315 0.013716 -1150360.000000 0 0 1
18.942103 30.884436 -26.702458 45.007476 1.020639 2.205935 0.017210 0.017453 -986969.000000 0 0 1
19.290003 31.784436 -25.634158 45.160432 1.025318 2.174414 0.021908 0.015526 646210.000000 0 0 1
20.124203 32.931336 -26.013758 46.542153 1.022258 2.163890 0.024551 0.005034 614352.000000 0 0 1
21.633703 32.650936 -26.277638 47.165824 0.985632 2.161726 0.019624 0.013209 82998.400000 0 0 1
21.776303 31.920136 -27.524118 47.441327 0.972109 2.189736 0.016807 0.018275 -353604.000000 0 0 1
22.970703 32.326636 -28.123698 48.616941 0.953004 2.187655 0.006952 0.025959 -759104.000000 0 0 1
23.079903 31.539936 -29.470108 48.948307 0.939066 2.216882 -0.003999 0.024938 -103993.000000 0 0 1
22.187403 32.002736 -30.443548 49.429400 0.964583 2.234324 0.001566 0.020798 -123780.000000 0 0 1
20.887903 31.445636 -30.416428 48.479806 0.984466 2.249011 0.007536 0.017816 140884.000000 0 0 1
19.916503 32.307436 -31.307588 49.199620 1.018356 2.260538 0.001961 0.013181 -570464.000000 0 0 1
19.589703 33.614136 -30.785378 49.612560 1.043134 2.240197 0.009693 0.017627 297596.000000 0 0 1
18.647903 34.336036 -31.557748 50.225483 1.073266 2.250190 0.001240 0.006609 -87813.900000 0 0 1
17.146803 34.034236 -31.404058 49.381747 1.104105 2.260028 0.006269 0.002136 -470392.000000 0 0 1
16.723903 32.706536 -31.660418 48.495242 1.098124 2.282145 0.024939 -0.001585 46155.600000 0 0 1
16.860703 32.212036 -33.051848 49.135763 1.088582 2.308599 0.034102 -0.008660 -604268.000000 0 0 1
16.102703 32.914136 -34.226801 50.140914 1.115799 2.322128 0.049884 -0.023859 -120197.000000 0 0 1
16.732803 34.141436 -34.620548 51.421850 1.115098 2.309412 0.031520 -0.011864 236633.000000 0 0 1
16.527803 34.498636 33.275303 50.700788 1.124020 0.854882 0.045424 -0.025890 317859.000000 0 0 1
15.119603 -34.264420 32.837275 49.809030 -1.155232 0.850958 0.061362 -0.035457 -761134.000000 0 0 1
14.214103 33.975636 32.705925 49.255072 1.174562 0.844626 0.063522 -0.035005 -444657.000000 0 0 1
12.918003 34.537636 32.524815 49.168961 1.212879 0.847991 0.044625 -0.031853 345409.000000 0 0 1
12.556403 -34.207020 31.097035 47.904165 -1.218995 0.864329 0.022715 -0.024224 -1002720.000000 0 0 1
13.332503 -33.117320 30.645815 47.049745 -1.188064 0.861435 0.032979 -0.025601 295501.000000 0 0 1
12.712803 -32.574120 29.468615 45.728415 -1.198703 0.870523 0.027654 -0.027159 185864.000000 0 0 1
13.041403 -31.061320 29.243695 44.610284 -1.173287 0.855903 0.025160 -0.022469 84146.100000 0 0 1
12.507503 -30.207120 30.248535 44.540786 -1.178230 0.824233 0.010016 -0.017471 498305.000000 0 0 1
12.998203 -28.843420 30.042865 43.628773 -1.147404 0.811237 0.020019 -0.016730 -205.803000 0 0 1
12.635303 -27.860220 31.231005 43.717484 -1.145015 0.775055 0.010085 -0.004852 597544.000000 0 0 1
11.277203 -27.616920 31.621435 43.471654 -1.183118 0.756266 -0.014413 0.003487 427089.000000 0 0 1
10.645603 -26.653620 30.816485 42.111757 -1.190803 0.749868 -0.021687 0.001123 -409182.000000 0 0 1
10.934603 -25.174920 31.205725 41.558867 -1.161037 0.721403 -0.034200 0.007903 28125.000000 0 0 1
10.123703 -24.641420 32.266795 41.842980 -1.180979 0.690167 -0.015547 0.004545 256369.000000 0 0 1
10.713903 -23.506020 32.814715 41.762737 -1.143135 0.666902 -0.020448 0.003947 336715.000000 0 0 1
9.854003 -22.892420 33.986126 42.145237 -1.164320 0.632749 -0.011630 0.002502 -371494.000000 0 0 1
9.760603 -23.656720 -34.071018 42.611548 -1.179481 2.497379 -0.016246 0.007524 -91486.600000 0 0 1
10.956903 -23.916420 -33.367958 42.490816 -1.141200 2.473974 -0.007572 0.006239 272439.000000 0 0 1
11.767403 -22.780820 -32.653288 41.517162 -1.093998 2.475919 0.002488 -0.011923 270523.000000 0 0 1
12.303103 -21.816520 -33.582668 41.894182 -1.057317 2.500775 -0.007246 -0.000633 -13631.600000 0 0 1
13.054803 -20.806420 -32.970038 41.113968 -1.010444 2.501295 0.005202 -0.009900 -182616.000000 0 0 1
13.319003 -19.525920 -33.815448 41.257022 -0.972172 2.531559 -0.002852 -0.003483 -287934.000000 0 0 1
14.131303 -19.813720 34.319582 42.072686 -0.951261 0.616821 0.001338 0.005790 381882.000000 0 0 1
13.730003 -19.070720 33.190465 40.667091 -0.946805 0.616079 -0.018924 0.012327 -45104.900000 0 0 1
14.409103 -17.677220 33.015125 40.126112 -0.886902 0.604504 0.003911 0.006561 -342745.000000 0 0 1
14.026003 -16.777320 34.031932 40.452189 -0.874481 0.571135 -0.002006 0.008382 248135.000000 0 0 1
14.582303 -15.521420 33.814686 39.962370 -0.816584 0.562052 0.035123 0.002161 -522258.000000 0 0 1
16.005103 -15.183420 34.273261 40.759735 -0.759059 0.571925 0.039533 0.000667 -575205.000000 0 0 1
16.949303 -16.000520 33.652168 40.936096 -0.756611 0.605767 0.033469 0.000241 -997705.000000 0 0 1
18.234103 -15.658020 34.062451 41.688208 -0.709536 0.614475 0.054804 -0.002528 -1066010.000000 0 0 1
19.344603 -16.370020 33.338320 41.876423 -0.702302 0.649954 0.067616 -0.017139 -793787.000000 0 0 1
19.502203 -15.867620 32.012365 40.705145 -0.682998 0.665764 0.053350 -0.007735 582901.000000 0 0 1
20.334903 -16.652920 31.147895 40.755606 -0.686179 0.700903 0.043710 -0.009924 -133134.000000 0 0 1
20.534003 -15.905820 29.852595 39.570416 -0.659066 0.716031 0.030486 0.003969 -220100.000000 0 0 1
21.307903 -14.714720 29.966305 39.604661 -0.604373 0.712644 0.035488 0.000711 567211.000000 0 0 1
21.502003 -14.190420 28.679715 38.551656 -0.583344 0.731865 0.014632 0.001550 151476.000000 0 0 1
22.370803 -12.878220 28.751685 38.638851 -0.522338 0.731590 0.012996 0.009288 -122343.000000 0 0 1
21.668403 -11.720020 29.135175 38.154121 -0.495815 0.701898 0.014362 0.007095 -55036.800000 0 0 1
22.398903 -10.548820 29.419135 38.450929 -0.440141 0.699586 0.018677 0.009554 313356.000000 0 0 1
21.438603 -9.284420 29.316185 37.486702 -0.408686 0.672860 0.027422 0.007728 748547.000000 0 0 1
20.436503 -9.317620 30.321705 37.734262 -0.427775 0.637546 0.035732 -0.001478 -373280.000000 0 0 1
19.543803 -8.275720 30.038655 36.780002 -0.400553 0.615107 0.034447 -0.008698 -628969.000000 0 0 1
18.307003 -8.246920 30.916465 36.864425 -0.423252 0.575991 0.024624 0.005911 -565326.000000 0 0 1
18.566703 -7.759920 32.255875 38.018157 -0.395883 0.557778 0.020668 0.003521 195229.000000 0 0 1
18.962803 -8.776120 33.111355 39.153161 -0.433453 0.562943 0.031766 -0.007842 -423922.000000 0 0 1
19.022703 -8.277920 34.558145 40.306979 -0.410445 0.540651 0.036011 -0.013068 705388.000000 0 0 1
17.731703 -8.097020 -34.094454 39.273487 -0.428363 2.622217 0.029122 -0.014508 751390.000000 0 0 1
17.787403 -7.508320 -32.796778 38.057788 -0.399424 2.609530 0.022960 -0.018455 -55835.100000 0 0 1
16.466603 -7.433920 -32.009228 36.755991 -0.424063 2.627740 0.017531 -0.014072 94705.400000 0 0 1
16.707403 -6.762820 -30.771338 35.661580 -0.384620 2.611719 0.013266 -0.011117 -62059.400000 0 0 1
15.530003 -6.665120 -30.011358 34.442509 -0.405403 2.628736 0.011129 -0.005927 -315879.000000 0 0 1
15.517103 -5.324420 -29.191108 33.485082 -0.330544 2.629589 -0.002068 -0.001246 -6682.260000 0 0 1
16.498603 -5.119420 -28.172988 33.047384 -0.300874 2.591551 -0.003835 0.003454 265664.000000 0 0 1
16.305503 -5.928620 -26.992438 32.087531 -0.348736 2.570318 0.018185 -0.008474 -105140.000000 0 0 1
15.029503 -5.639220 -26.166038 30.697692 -0.358955 2.591312 0.015224 -0.008749 221429.000000 0 0 1
15.004503 -4.432120 -25.426918 29.854764 -0.287218 2.589993 -0.007018 0.007958 206671.000000 0 0 1
13.725203 -4.285320 -24.800528 28.667252 -0.302632 2.616180 0.003690 -0.001908 663177.000000 0 0 1
13.685903 -3.170320 -23.740228 27.585382 -0.227634 2.607261 0.000320 0.006524 -33841.800000 0 0 1
13.564003 -1.886320 -24.358528 27.944199 -0.138182 2.629426 -0.010612 0.002735 96298.800000 0 0 1
13.133803 -0.857320 -23.499528 26.934357 -0.065183 2.631039 -0.003760 -0.001301 -43291.700000 0 0 1
13.506303 0.533680 -24.056628 27.593956 0.039493 2.629677 -0.012508 -0.005149 -516795.000000 0 0 1
12.791903 0.931680 -25.241848 28.313454 0.072705 2.671473 -0.002197 -0.007477 233387.000000 0 0 1
13.281103 2.174680 -25.669908 28.983808 0.162302 2.658718 -0.016153 0.002263 -247985.000000 0 0 1
12.622403 2.799680 -26.939328 29.881276 0.218269 2.694124 -0.010454 -0.003172 482710.000000 0 0 1
11.399503 3.498680 -26.680598 29.224027 0.297789 2.721296 0.005498 -0.015743 226437.000000 0 0 1
10.859703 3.946680 -27.868088 30.168523 0.348584 2.748548 0.004308 -0.010670 914824.000000 0 0 1
9.482203 4.732680 -27.710088 29.667481 0.462937 2.776308 0.013530 -0.010092 1131790.000000 0 0 1
9.576503 5.967680 -26.958528 29.224730 0.557274 2.745190 0.014555 -0.019653 84813.400000 0 0 1
8.332103 6.647680 -26.950918 28.982194 0.673422 2.764972 0.026759 -0.018935 163384.000000 0 0 1
7.658603 5.643136 -31.686328 33.083569 0.635023 2.849927 0.011292 0.000914 -88532.900000 0 0 1
7.464903 4.490936 -30.842588 32.049314 0.541600 2.866308 0.010868 0.012184 358743.000000 0 0 1
7.833903 3.261836 -31.441918 32.566913 0.394542 2.877984 0.004150 0.015429 -293841.000000 0 0 1
7.544603 2.108736 -30.498838 31.488838 0.272547 2.890173 0.010999 0.004646 -738119.000000 0 0 1
8.322203 2.015336 -29.357478 30.580748 0.237590 2.857794 0.014722 -0.000038 -208470.000000 0 0 1
7.964403 1.025136 -28.401388 29.514767 0.128011 2.866048 0.013231 -0.001972 -864196.000000 0 0 1
9.092903 0.474936 -27.535338 29.001746 0.052184 2.822235 0.013242 -0.015035 625686.000000 0 0 1
10.085203 -0.366464 -28.240828 29.989831 -0.036321 2.798385 0.007543 0.003228 1369520.000000 0 0 1
11.015703 -0.901264 -27.277728 29.431827 -0.081634 2.756625 0.000078 -0.000868 496812.000000 0 0 1
11.910703 -2.048264 -27.810008 30.322546 -0.170303 2.731640 -0.008163 0.007950 361895.000000 0 0 1
11.170103 -3.187364 -28.226088 30.522820 -0.277961 2.751184 -0.001974 0.001506 516506.000000 0 0 1
12.092203 -4.209064 -28.604278 31.339150 -0.334964 2.720721 0.009256 0.002320 49662.300000 0 0 1
11.440603 -5.529664 -28.309998 31.030961 -0.450228 2.719698 0.010178 0.004215 -176337.000000 0 0 1
11.225303 -5.534064 -26.927558 29.693883 -0.458031 2.706518 0.007134 -0.002009 316134.000000 0 0 1
10.503003 -6.730864 -26.568828 29.351665 -0.569917 2.702622 0.010904 -0.011813 44315.900000 0 0 1
10.100503 -6.641464 -25.110198 27.868463 -0.581656 2.692924 0.009913 -0.010864 149679.000000 0 0 1
11.177203 -6.710764 -24.173528 27.464954 -0.540712 2.646994 -0.002993 -0.002697 215482.000000 0 0 1
10.721003 -6.654464 -22.872328 26.122121 -0.555497 2.637457 -0.003713 -0.000455 -154194.000000 0 0 1
11.877603 -6.847864 -21.878628 25.819470 -0.522988 2.581808 0.001817 -0.002743 -58442.400000 0 0 1
12.717903 -5.723464 -21.763628 25.848764 -0.422881 2.571702 0.007577 -0.004001 -1128490.000000 0 0 1
13.797203 -6.162264 -21.032828 25.898188 -0.420049 2.518598 0.017837 -0.002044 -989892.000000 0 0 1
14.358603 -5.126964 -20.127428 25.250121 -0.342955 2.493310 0.020427 -0.007982 -286781.000000 0 0 1
14.855903 -3.983564 -20.872428 25.927300 -0.261984 2.506534 0.018564 -0.009404 41558.900000 0 0 1
15.469103 -3.089464 -19.971928 25.450262 -0.197125 2.473079 0.010274 -0.008738 237056.000000 0 0 1
16.448403 -2.145864 -20.778428 26.587549 -0.129728 2.467878 0.002885 -0.003209 293859.000000 0 0 1
17.642103 -2.734864 -21.210528 27.723813 -0.153795 2.441939 0.000427 -0.001315 -72441.400000 0 0 1
18.562403 -1.790864 -21.743628 28.645337 -0.096180 2.432670 -0.002732 -0.001093 219550.000000 0 0 1
19.944303 -2.357964 -22.094228 29.857832 -0.117681 2.403838 0.001289 0.001540 -552593.000000 0 0 1
20.863303 -2.494164 -20.978528 29.691698 -0.118983 2.355401 -0.004349 0.005476 1110620.000000 0 0 1
22.074603 -3.205164 -21.245628 30.804835 -0.144189 2.331850 -0.010350 -0.000853 264612.000000 0 0 1
23.096603 -2.556664 -22.194828 32.134094 -0.110246 2.333245 -0.010971 -0.001712 -1403320.000000 0 0 1
22.667603 -2.462864 -23.552428 32.781135 -0.108227 2.372404 -0.005481 -0.000763 138327.000000 0 0 1
23.416703 -1.519164 -24.318828 33.794308 -0.064784 2.374041 -0.002412 0.001158 170676.000000 0 0 1
24.739403 -2.039964 -24.948628 35.194226 -0.082272 2.358711 0.007861 -0.009860 -898892.000000 0 0 1
25.738903 -2.051464 -23.932128 35.205772 -0.079535 2.318257 -0.000457 -0.010230 507024.000000 0 0 1
26.889503 -2.818064 -24.376928 36.403592 -0.104420 2.304506 0.000043 -0.003312 781180.000000 0 0 1
27.885503 -1.991064 -25.209948 37.644483 -0.071280 2.304581 0.006913 -0.011471 -1318330.000000 0 0 1
27.404703 -1.690064 -26.469248 38.137844 -0.061593 2.337884 0.022347 -0.015792 -85456.800000 0 0 1
27.900403 -0.449264 -26.913088 38.767882 -0.016101 2.338119 0.012842 -0.024131 -543539.000000 0 0 1
27.519503 -0.088864 -28.395598 39.542900 -0.003229 2.371859 0.020383 -0.025731 253287.000000 0 0 1
26.149903 0.184936 -28.616888 38.765680 0.007072 2.401197 0.016255 -0.015938 234343.000000 0 0 1
25.665203 1.455236 -28.116638 38.096794 0.056640 2.400945 0.014794 -0.005518 -58746.900000 0 0 1
24.126203 1.560336 -28.299318 37.220421 0.064584 2.434597 0.002175 -0.007460 -390470.000000 0 0 1
23.405603 1.035536 -27.278608 35.958546 0.044214 2.431977 0.010685 -0.009234 272395.000000 0 0 1
22.019803 1.293436 -27.566588 35.305261 0.058672 2.466752 0.005996 -0.007080 1005120.000000 0 0 1
21.033003 0.949436 -26.394038 33.762907 0.045110 2.468258 0.012706 -0.002908 189913.000000 0 0 1
20.960203 1.977836 -25.407128 32.996426 0.094083 2.449632 0.016852 -0.003051 383680.000000 0 0 1
20.001203 1.679836 -24.415028 31.606385 0.083790 2.453520 0.019650 0.001070 -549066.000000 0 0 1
20.362503 2.304436 -23.037528 30.832931 0.112691 2.414594 0.014551 0.003688 -393630.000000 0 0 1
20.304903 3.703136 -23.075228 30.959142 0.180394 2.411848 0.010510 -0.006487 371039.000000 0 0 1
20.445503 4.213636 -21.746928 30.144688 0.203245 2.376644 0.011274 -0.002142 -213258.000000 0 0 1
20.028803 5.700136 -21.581228 29.989897 0.277266 2.374046 0.017665 -0.007407 260486.000000 0 0 1
20.999103 6.668836 -22.050828 31.171697 0.307504 2.356608 0.023360 -0.008274 648872.000000 0 0 1
20.830703 7.971836 -21.545528 31.010936 0.365501 2.338899 0.015877 -0.008774 -553331.000000 0 0 1
21.129703 8.235236 -20.047628 30.268645 0.371636 2.294712 0.020044 -0.005557 -1400190.000000 0 0 1
22.481403 8.306836 -19.783028 31.077085 0.353938 2.260851 0.027970 -0.001626 -745449.000000 0 0 1
22.927703 8.605636 -18.458928 30.667060 0.359067 2.216692 0.030944 -0.009471 110385.000000 0 0 1
22.510303 9.980336 -17.676328 30.311276 0.417325 2.193410 0.035455 -0.016861 141263.000000 0 0 1
21.134103 10.079036 -17.365328 29.151190 0.445004 2.208932 0.023313 -0.022892 135341.000000 0 0 1
20.662003 11.340436 -16.992228 29.056147 0.501963 2.195438 -0.005433 -0.011785 66034.800000 0 0 1
19.115703 11.377436 -17.046828 28.025890 0.536874 2.224654 0.002675 -0.009191 226563.000000 0 0 1
18.613003 11.393136 -18.383928 28.534475 0.549274 2.270866 0.003297 -0.012771 620318.000000 0 0 1
17.946103 10.165236 -18.841328 27.935466 0.515371 2.311028 0.013424 -0.004075 351641.000000 0 0 1
17.316203 10.304636 -20.274428 28.584766 0.536799 2.359264 0.003614 -0.014574 -9936.440000 0 0 1
18.275203 10.347236 -21.322628 29.928294 0.515188 2.363790 0.024496 -0.019616 -5052.730000 0 0 1
17.808803 9.991936 -22.579028 30.443468 0.511300 2.406354 0.019638 -0.017951 -671551.000000 0 0 1
18.729303 10.345236 -23.755328 31.970710 0.504650 2.408389 0.041006 -0.023569 -292285.000000 0 0 1
18.656203 11.733736 -24.127928 32.678607 0.561432 2.401402 0.033730 -0.011533 -562207.000000 0 0 1
19.653603 12.043436 -24.998528 34.003454 0.549767 2.396723 0.035900 -0.017165 -701871.000000 0 0 1
19.455803 13.530936 -25.386318 34.728657 0.607680 2.390569 0.045701 -0.021419 509648.000000 0 0 1
20.381703 13.925436 -26.434508 36.167870 0.599384 2.390412 0.035180 -0.029824 542711.000000 0 0 1
20.375503 15.340036 -26.667408 36.900250 0.645333 2.378481 0.041839 -0.015210 -107749.000000 0 0 1
19.147403 15.989236 -27.355448 37.021605 0.695757 2.402240 0.038820 -0.009657 475883.000000 0 0 1
17.943703 15.733236 -26.640218 35.766079 0.719855 2.411100 0.039712 -0.008645 -572996.000000 0 0 1
16.827503 15.922036 -27.445378 35.915524 0.757757 2.440542 0.031856 -0.011988 64329.500000 0 0 1
15.493803 15.459736 -26.782198 34.588256 0.784298 2.456428 0.032434 -0.018742 299673.000000 0 0 1
15.353903 14.062336 -26.618678 33.794166 0.741520 2.477816 0.030486 -0.015301 25500.100000 0 0 1
14.013503 13.755236 -26.295168 32.817993 0.776098 2.500165 0.022129 -0.013553 17741.200000 0 0 1
13.799303 12.241436 -26.322118 32.142299 0.725645 2.530331 0.022439 -0.016681 163171.000000 0 0 1
12.463403 11.895436 -25.994868 31.186070 0.762086 2.556283 0.026204 -0.015375 128295.000000 0 0 1
12.225803 10.475036 -25.898548 30.494777 0.708427 2.585413 0.036000 -0.021635 -1039750.000000 0 0 1
10.781503 10.085536 -25.790468 29.717117 0.752058 2.621686 0.025914 -0.021334 -950346.000000 0 0 1
10.228403 10.263536 -24.493428 28.458538 0.787113 2.607382 0.031282 -0.021438 -153748.000000 0 0 1
9.032603 9.573936 -24.243128 27.585819 0.814484 2.644192 0.022238 -0.019650 -190902.000000 0 0 1
8.156603 10.149536 -23.132428 26.545291 0.893838 2.628911 0.011526 -0.017926 -6711.520000 0 0 1
7.470103 11.405236 -23.323928 27.016429 0.990934 2.612616 0.006922 -0.017118 450281.000000 0 0 1
6.767403 11.882836 -22.174028 26.051623 1.053097 2.588982 0.005077 -0.004987 1284.200000 0 0 1
7.621703 12.763836 -21.289828 25.966568 1.032488 2.532022 0.020904 -0.014083 -505603.000000 0 0 1
8.708303 12.097736 -20.758528 25.555943 0.946886 2.518843 0.026788 -0.019887 -949702.000000 0 0 1
9.446503 12.808136 -19.798428 25.402018 0.935318 2.464510 0.031248 -0.021926 219071.000000 0 0 1
10.463803 11.864136 -19.026028 24.743456 0.848033 2.447965 0.037216 -0.023499 226481.000000 0 1 0
11.535503 11.231236 -19.676628 25.423968 0.772034 2.455836 0.050960 -0.024041 231986.000000 0 0 1
11.199503 10.450036 -20.863228 25.882550 0.750794 2.508283 0.043999 -0.024681 -624361.000000 0 0 1
12.493203 9.943536 -21.540628 26.813293 0.672246 2.503706 0.048370 -0.029053 231969.000000 0 0 1
13.121203 8.865036 -20.899428 26.221001 0.594180 2.493190 0.044422 -0.026581 -270246.000000 0 0 1
14.072403 8.289736 -21.729828 27.183408 0.532350 2.497056 0.041919 -0.028574 -363126.000000 0 0 1
14.739403 6.962336 -21.278528 26.804848 0.441294 2.487880 0.047516 -0.023852 106563.000000 0 0 1
15.579003 7.106636 -20.158228 26.449268 0.427971 2.437419 0.026371 -0.021013 351307.000000 0 0 1
16.266603 5.858236 -19.873128 26.341270 0.345678 2.425610 0.009165 -0.027337 155878.000000 0 0 1
17.158003 5.873436 -18.643328 26.008998 0.329812 2.370003 0.031039 -0.030161 -602722.000000 0 0 1
18.302303 6.684836 -18.766228 27.052405 0.350192 2.337408 0.016297 -0.032597 211710.000000 0 0 1
18.979003 7.142436 -17.579128 26.837338 0.359939 2.285012 0.023367 -0.025436 177594.000000 0 0 1
19.729003 6.013336 -16.847428 26.631365 0.295852 2.255723 0.020993 -0.023106 -1010820.000000 0 0 1
20.930903 5.536236 -17.373228 27.759353 0.258579 2.247019 0.021740 -0.022646 -11754.500000 0 0 1
21.473403 4.606836 -16.441528 27.434537 0.211333 2.213423 0.025782 -0.022863 507594.000000 0 0 1
22.731903 3.804436 -16.961128 28.616307 0.165824 2.205214 0.002026 0.010352 1005050.000000 0 0 1
23.322303 2.830436 -16.048928 28.451877 0.120771 2.170106 -0.004919 0.008533 951489.000000 0 0 1
24.540103 2.296836 -16.577128 29.703422 0.093323 2.162876 -0.003493 0.004869 578654.000000 0 0 1
25.117803 1.073836 -15.838728 29.714011 0.042726 2.132985 0.001337 -0.008556 121628.000000 0 0 1
24.537703 -0.148564 -16.322328 29.470992 -0.006054 2.157770 -0.005287 -0.003409 58787.200000 0 0 1
25.557903 -1.105464 -16.454928 30.416987 -0.043226 2.142396 -0.006173 0.003449 -382828.000000 0 0 1
25.196903 -2.571264 -16.657628 30.314549 -0.101695 2.152553 -0.017567 -0.005397 -505602.000000 0 0 1
24.587903 -3.210764 -15.523528 29.254981 -0.129848 2.130138 -0.007634 -0.000610 450355.000000 0 0 1
24.454403 -4.620664 -15.684128 29.417006 -0.186749 2.133134 -0.004900 -0.003026 -1093050.000000 0 0 1
23.941103 -5.299064 -14.379628 28.425872 -0.217826 2.101180 -0.003367 -0.003161 512443.000000 0 0 1
22.608403 -5.054664 -13.942028 27.038300 -0.219957 2.112551 -0.003534 0.001691 785062.000000 0 0 1
21.615603 -5.566864 -14.821428 26.793637 -0.252062 2.156961 -0.007586 0.002293 -953196.000000 0 0 1
20.171403 -5.523664 -14.320128 25.346843 -0.267284 2.171189 0.004929 -0.002950 -624223.000000 0 0 1
19.971303 -6.516664 -13.384928 24.909359 -0.315409 2.138083 0.005486 0.002509 530379.000000 0 1 0
20.058603 -6.049964 -12.066828 24.177634 -0.292937 2.093345 0.004621 0.000260 -654634.000000 0 1 0
20.052003 -7.255264 -11.088728 24.035007 -0.347168 2.050321 0.015684 0.001384 -1246470.000000 0 1 0
18.931403 -8.027964 -10.904328 23.275537 -0.401070 2.058376 0.022946 0.003091 -269051.000000 0 1 0
18.581003 -8.907364 -11.923628 23.806884 -0.447016 2.095374 0.017178 -0.003834 -589342.000000 0 1 0
17.187603 -9.570764 -11.908628 22.996275 -0.508080 2.115132 0.029474 -0.001626 -249083.000000 0 1 0
16.239903 -8.549464 -11.911228 21.879331 -0.484581 2.146477 0.031613 -0.006581 -277129.000000 0 1 0
14.942403 -8.967164 -12.282828 21.320256 -0.540504 2.184759 0.028830 -0.003860 445326.000000 0 1 0
13.955203 -7.796264 -12.630228 20.372827 -0.509470 2.239481 0.029147 -0.009314 -26012.900000 0 1 0
14.224903 -7.071064 -13.816628 21.053433 -0.461317 2.286654 0.033886 -0.007758 451004.000000 0 1 0
15.272303 -6.108264 -13.738428 21.431251 -0.380469 2.266657 0.037727 -0.008731 -30957.900000 0 1 0
15.104403 -4.929564 -14.711428 21.653400 -0.315467 2.317748 0.019177 -0.011821 -632216.000000 0 1 0
13.920503 -4.229964 -14.517128 20.552859 -0.295000 2.355098 0.023090 -0.011703 -468766.000000 0 1 0
13.606503 -3.271164 -15.545828 20.916745 -0.235934 2.408673 0.020845 -0.014927 98405.200000 0 1 0
14.609903 -2.067964 -15.718128 21.558880 -0.140611 2.387772 0.009287 -0.015338 1331420.000000 0 1 0
15.791203 -2.526864 -16.453428 22.944769 -0.158672 2.370412 0.008712 -0.011540 1469400.000000 0 1 0
16.952503 -1.689964 -16.397828 23.645974 -0.099360 2.337094 0.019066 -0.000882 1197220.000000 0 1 0
17.968703 -2.121964 -15.253928 23.665573 -0.117548 2.271247 0.008915 -0.004922 -428066.000000 0 1 0
17.538903 -1.925064 -13.927828 22.478954 -0.109322 2.239022 0.010034 -0.001069 40267.000000 0 1 0
18.430103 -2.582864 -13.068928 22.740641 -0.139237 2.183027 0.004564 -0.001341 -256447.000000 0 1 0
17.927703 -2.786764 -11.595028 21.531681 -0.154210 2.139464 0.002843 -0.000068 -453879.000000 0 1 0
17.976203 -1.565364 -10.880928 21.071043 -0.086861 2.113429 0.016626 0.001332 609472.000000 0 1 0
17.487903 -1.761364 -9.584428 20.019751 -0.100380 2.070025 0.013161 0.004656 -867563.000000 0 1 0
17.378503 -0.376864 -8.893228 19.525468 -0.021682 2.043694 0.005685 0.006348 -506172.000000 0 1 0
18.544303 0.193536 -8.361328 20.343069 0.010436 1.994365 -0.003953 0.014636 218972.000000 0 1 0
19.549203 0.694136 -9.207228 21.620042 0.035492 2.010714 -0.004579 0.019998 -346664.000000 0 1 0
19.174503 1.923836 -10.082928 21.749210 0.099998 2.052850 -0.010531 0.014340 -869480.000000 0 1 0
19.098303 3.098436 -9.305328 21.469388 0.160835 2.019084 -0.007052 0.026970 683362.000000 0 1 0
18.477203 4.109036 -10.085628 21.447870 0.218823 2.060358 -0.009389 0.013061 -168236.000000 0 1 0
18.639903 5.500436 -9.468228 21.618236 0.286945 2.024140 0.017164 0.015828 -382321.000000 0 1 0
18.029903 6.578636 -10.161828 21.716782 0.349863 2.057738 0.024534 0.014492 381820.000000 0 1 0
18.229103 7.792336 -9.488628 21.978507 0.403958 2.017198 0.022421 0.001748 -148350.000000 0 1 0
-24.875897 -29.423574 5.943372 38.985646 0.868955 1.417749 0.032666 -0.000268 14156.500000 0 0 1
-25.103977 -28.464744 6.989172 38.591448 0.848054 1.388685 0.036758 -0.000628 84374.000000 0 0 1
-24.208897 -27.381614 6.799572 37.176036 0.846819 1.386859 0.025624 0.005429 -398088.000000 0 0 1
-24.446397 -26.140914 7.774272 36.625306 0.818883 1.356904 0.013015 0.009528 -212174.000000 0 0 1
-25.601317 -25.360824 7.506472 36.809590 0.780679 1.365429 0.009470 0.007126 304261.000000 0 0 1
-26.842267 -25.898164 7.940572 38.134956 0.767499 1.361039 0.016913 0.005132 112583.000000 0 0 1
-27.111717 -26.061864 9.491772 38.786076 0.765657 1.323564 0.004535 0.008630 -910551.000000 0 0 1
-26.275987 -26.944814 10.173072 38.986432 0.797965 1.306802 0.007931 0.010108 -444503.000000 0 0 1
-26.662137 -27.070894 11.481072 39.692794 0.793005 1.277355 -0.005167 0.010226 -189910.000000 0 0 1
-25.628867 -27.856424 12.341272 39.813643 0.827022 1.255629 -0.013009 0.010950 1695150.000000 0 0 1
-24.391297 -27.238194 12.831772 38.749309 0.840483 1.233276 0.001165 0.019976 1228470.000000 0 0 1
-24.542297 -26.182294 13.726072 38.421894 0.817718 1.205479 -0.004405 0.029398 -229662.000000 0 0 1
-23.146297 -25.793844 14.284772 37.485039 0.839443 1.179833 0.009760 0.021156 228130.000000 0 0 1
-22.674897 -26.834224 15.071372 38.227906 0.869213 1.165544 0.026535 0.018478 -210405.000000 0 0 1
-21.560397 -26.416184 15.845972 37.600004 0.886266 1.135769 0.034577 0.016640 165989.000000 0 0 1
-20.837197 -27.614474 16.479772 38.318805 0.924374 1.126226 0.035555 -0.000610 55573.500000 0 0 1
-21.656997 -28.227574 17.456872 39.630340 0.916360 1.114649 0.047531 -0.003238 447065.000000 0 0 1
-20.967497 -29.356924 18.006972 40.320168 0.950586 1.107835 0.041859 0.008321 201721.000000 0 0 1
-21.883497 -30.281614 18.861172 41.852209 0.945020 1.103290 0.044508 -0.002819 -83622.400000 0 0 1
-22.770397 -30.972974 18.009772 42.451949 0.936854 1.132675 0.025747 -0.001321 116909.000000 0 0 1
-23.281397 -32.108364 18.700272 43.848269 0.943430 1.130202 0.015392 0.008545 -33874.500000 0 0 1
-24.448697 -32.874554 18.008372 44.752392 0.931342 1.156659 0.007289 0.006812 16412.700000 0 0 1
-24.019497 -33.714224 16.965172 44.737034 0.951767 1.181843 0.006139 0.007134 601635.000000 0 0 1
-24.987897 34.592403 16.526572 45.761959 -0.945226 1.201304 0.004501 0.008483 -139853.000000 0 0 1
-24.670997 33.958976 15.141072 44.621992 -0.942509 1.224604 -0.006290 0.000308 -262992.000000 0 0 1
-23.475097 33.216161 15.055972 43.371371 -0.955563 1.216276 -0.015960 0.004336 779756.000000 0 0 1
-22.330397 34.026782 14.698272 43.272482 -0.990033 1.224233 -0.011651 0.008957 493073.000000 0 0 1
-20.968197 33.312685 14.904072 42.089567 -1.009014 1.208841 0.009405 0.000090 83514.800000 0 0 1
-20.766497 32.440821 13.857072 40.934981 -1.001388 1.225459 0.008492 -0.001474 -565742.000000 0 0 1
-19.726497 31.578801 14.098472 39.813594 -1.012431 1.208832 0.008928 0.002747 -781791.000000 0 0 1
-19.720397 30.573421 12.929872 38.611005 -0.997932 1.229323 0.007181 -0.001991 28174.200000 0 0 1
-19.307697 31.062391 11.662872 38.388564 -1.014662 1.262106 -0.002463 0.003078 -69425.000000 0 0 1
-19.170797 30.019771 10.718572 37.196692 -1.002473 1.278492 -0.000866 -0.000876 130968.000000 0 0 1
-18.857997 30.511391 9.278872 37.049514 -1.017200 1.317656 -0.015114 -0.002473 442409.000000 0 0 1
-17.531897 31.050121 9.213672 36.828918 -1.056789 1.317935 -0.014886 -0.008047 478360.000000 0 0 1
-17.065197 31.475691 7.932272 36.672347 -1.073984 1.352772 -0.017644 -0.005944 244757.000000 0 0 1
-16.534097 30.488671 6.902972 35.363632 -1.073882 1.374335 -0.019458 -0.005971 -403947.000000 0 0 1
-17.511897 29.631731 6.358472 35.001945 -1.037032 1.388122 -0.019056 -0.001311 -80174.600000 0 0 1
-17.426397 28.329701 6.822472 33.952870 -1.019327 1.368479 -0.019902 0.004615 -130401.000000 0 0 1
-18.504197 27.395931 6.263672 33.647822 -0.976747 1.383550 -0.012102 0.008665 -536512.000000 0 0 1
-18.101297 26.956691 5.000972 32.853156 -0.979458 1.417980 -0.002816 -0.000287 933916.000000 0 0 1
-19.183097 26.330621 4.269572 32.856081 -0.941167 1.440480 0.003537 -0.004661 -142603.000000 0 0 1
-18.769097 25.623711 2.956072 31.899717 -0.938597 1.477996 0.018990 -0.011358 -1139660.000000 0 0 1
-18.338097 26.375171 1.853372 32.177172 -0.963246 1.513165 0.020705 -0.008618 1756780.000000 0 0 1
-16.975397 26.929421 1.787972 31.883454 -1.008347 1.514689 0.008084 -0.005075 1796930.000000 0 0 1
-15.780197 25.928401 1.951472 30.415536 -1.024072 1.506592 0.002660 -0.008724 -511550.000000 0 0 1
-15.691297 24.854461 1.051772 29.412026 -1.007660 1.535029 0.013256 -0.005707 72930.100000 0 0 1
-15.245797 25.084861 -0.301128 29.356009 -1.024684 1.581054 0.022781 -0.008096 52254.400000 0 0 1
-14.938897 23.778691 -1.142828 28.105210 -1.009865 1.611470 0.035189 -0.014788 743456.000000 0 0 1
-16.066697 22.887791 -1.268428 27.992832 -0.958745 1.616124 0.052350 -0.026282 676488.000000 0 0 1
-15.725897 21.704591 -1.934728 26.872593 -0.943788 1.642855 0.051414 -0.020990 -63219.600000 0 0 1
-14.952997 20.578191 -1.208628 25.465954 -0.942412 1.618275 0.048679 -0.019627 5430.870000 0 0 1
-15.649897 19.832091 -0.255328 25.264526 -0.902725 1.580903 0.057875 -0.025714 56274.300000 0 0 1
-14.777997 18.844091 0.258772 23.949027 -0.905749 1.559991 0.068626 -0.039927 -134847.000000 0 1 0
-15.567997 17.742391 0.996072 23.625137 -0.850582 1.528622 0.053593 -0.037968 277442.000000 0 1 0
-16.243397 16.862991 0.107672 23.414098 -0.804111 1.566198 0.045214 -0.031487 474367.000000 0 1 0
-16.710397 15.615791 0.589172 22.878755 -0.751550 1.545042 0.035490 -0.047020 -441928.000000 0 1 0
-17.302597 14.744091 -0.520128 22.738483 -0.705730 1.593673 0.032807 -0.032376 -631595.000000 0 1 0
-18.527097 15.230391 -1.027928 24.005723 -0.688048 1.613630 0.045621 -0.036146 352169.000000 0 1 0
-19.219397 14.249591 -1.752828 23.989757 -0.637985 1.643927 0.033518 -0.025332 -1013310.000000 0 1 0
-20.524197 14.683191 -2.387528 25.348354 -0.620993 1.665125 0.050308 -0.009351 -942639.000000 0 0 1
-21.421797 13.635791 -2.803228 25.547725 -0.566853 1.680743 0.029600 -0.012694 1133990.000000 0 0 1
-22.291397 13.114291 -1.797728 25.925332 -0.531781 1.640195 0.023478 -0.009981 -284405.000000 0 0 1
-23.488997 13.998391 -1.371828 27.378273 -0.537440 1.620924 0.005852 -0.008565 -784254.000000 0 0 1
-23.116097 15.272991 -0.800128 27.717474 -0.583866 1.599668 0.002797 -0.016667 -16021.600000 0 0 1
-24.183797 16.037691 -0.318428 29.020078 -0.585570 1.581769 0.007020 -0.011553 -716037.000000 0 0 1
-23.633997 17.207691 0.492672 29.238898 -0.629331 1.553946 0.000016 -0.015013 -55936.400000 0 0 1
-23.191897 16.760591 1.752572 28.667979 -0.625794 1.509625 0.006064 -0.012036 336216.000000 0 0 1
-22.454097 17.749691 2.485372 28.730038 -0.668914 1.484180 0.002264 -0.019293 -217452.000000 0 0 1
-23.227597 18.954791 3.037572 30.133573 -0.684449 1.469821 -0.003720 -0.021058 -1397620.000000 0 0 1
-23.952297 18.697491 4.215772 30.677050 -0.662808 1.432936 0.000099 -0.020927 641504.000000 0 0 1
-25.227037 19.346991 4.154572 32.061970 -0.654239 1.440851 -0.003677 -0.026212 415524.000000 0 0 1
-26.289767 18.614391 3.312572 32.382411 -0.616106 1.468322 0.010889 -0.022017 -934259.000000 0 0 1
-27.558377 19.253391 3.220072 33.771675 -0.609813 1.475303 0.009164 -0.015992 449609.000000 0 0 1
-28.301607 18.659891 2.180272 33.969487 -0.582901 1.506569 -0.000838 -0.002121 -131805.000000 0 0 1
-29.601617 19.448691 1.854172 35.467524 -0.581291 1.518494 -0.004715 -0.011957 664067.000000 0 0 1
-30.650037 19.209091 2.829172 36.282477 -0.559838 1.492741 0.018904 -0.014098 1285110.000000 0 0 1
-31.766037 20.090991 2.595572 37.675801 -0.563951 1.501849 0.004081 -0.010869 671918.000000 0 0 1
-32.363077 20.713691 3.896072 38.621304 -0.569342 1.469746 0.003793 -0.020550 -318824.000000 0 0 1
-31.452847 21.596591 4.511972 38.419425 -0.601699 1.453085 0.003592 -0.017260 368249.000000 0 0 1
-32.047097 22.224891 5.618372 39.402136 -0.606355 1.427718 -0.003570 -0.021735 -534654.000000 0 0 1
-31.140957 23.330791 6.236072 39.407786 -0.642989 1.411884 0.007556 -0.019029 16566.900000 0 0 1
-30.991157 24.420021 5.415272 39.826052 -0.667361 1.434401 -0.003627 -0.008510 627559.000000 0 0 1
-29.988557 25.310981 5.901472 39.683582 -0.701013 1.421529 -0.003990 -0.002226 70565.800000 0 0 1
-30.349777 26.785971 5.696772 40.878483 -0.723105 1.430983 -0.010445 0.003474 -213057.000000 0 0 1
-31.423547 27.242941 6.514872 42.095851 -0.714258 1.415409 -0.001125 0.003233 391266.000000 0 0 1
-31.657797 28.560111 6.212272 43.086986 -0.734002 1.426112 -0.011526 0.007361 -275179.000000 0 0 1
-32.685507 29.119491 7.178172 44.360041 -0.727764 1.408266 -0.010377 0.008673 -863483.000000 0 0 1
-32.048467 29.224371 8.452572 44.188393 -0.739340 1.378325 -0.003488 0.003482 488021.000000 0 0 1
-32.790177 30.002821 9.356172 45.419191 -0.741038 1.363315 -0.000913 -0.000519 -5439.850000 0 0 1
-34.061117 29.450451 10.040572 46.133522 -0.712930 1.351399 -0.003007 -0.000439 -51672.600000 0 0 1
-33.709947 28.267811 10.734072 45.284103 -0.697815 1.331480 -0.001292 -0.005316 307062.000000 0 0 1
-34.748432 27.701071 11.503172 45.903440 -0.673025 1.317502 0.001128 -0.010555 -265261.000000 0 0 1
-34.255498 26.404001 12.134172 44.920469 -0.656678 1.297273 0.013520 -0.005397 -753975.000000 0 0 1
-33.164337 26.621751 12.972372 44.462043 -0.676399 1.274727 0.015182 -0.015195 -222179.000000 0 0 1
-32.890317 25.480991 13.710372 43.806713 -0.659139 1.252473 0.017367 -0.012023 794648.000000 0 0 1
-31.687957 25.572261 14.747672 43.307747 -0.678996 1.223314 0.013540 -0.007670 876094.000000 0 0 1
-32.047647 26.599861 15.640172 44.488417 -0.692774 1.211564 0.003271 -0.002221 85177.900000 0 0 1
-30.902347 27.115261 16.262572 44.211578 -0.720216 1.194116 0.022383 0.002283 -269102.000000 0 0 1
-31.207317 28.347211 17.125172 45.505302 -0.737410 1.184961 0.009163 0.000182 -518371.000000 0 0 1
-31.706437 29.467531 16.427672 46.297969 -0.748816 1.208070 0.014137 -0.008177 128038.000000 0 0 1
-31.885807 30.621841 17.248472 47.454311 -0.765180 1.198801 0.009997 -0.005227 -30784.600000 0 0 1
-31.395227 31.912471 16.535072 47.722895 -0.793568 1.216979 0.004235 -0.006286 1601480.000000 0 0 1
-29.942977 31.980291 16.406472 46.781334 -0.818287 1.212472 -0.003067 0.003366 1441520.000000 0 0 1
-29.624947 33.066381 15.550572 47.040869 -0.840238 1.233883 0.000799 0.014316 -412745.000000 0 0 1
-28.146897 33.125401 15.107372 46.019264 -0.866472 1.236310 0.009508 0.004711 -505739.000000 0 0 1
-27.766747 32.158991 14.150472 44.782014 -0.858562 1.249301 0.011518 0.001138 227429.000000 0 0 1
-27.594637 30.764851 14.574272 43.821792 -0.839667 1.231758 0.003891 0.000243 -786709.000000 0 0 1
-28.729747 29.827051 14.223272 43.787587 -0.804135 1.239970 0.016400 -0.001895 -436986.000000 0 0 1
-28.708277 29.430131 12.888972 43.086232 -0.797814 1.267001 0.027354 -0.016727 -399398.000000 0 0 1
-29.775347 28.583201 12.615272 43.159191 -0.764973 1.274169 0.034175 -0.014723 -327048.000000 0 0 1
-29.938287 28.481281 11.090372 42.784118 -0.760463 1.308585 0.032957 -0.006446 1294900.000000 0 0 1
-28.796457 27.826171 10.408972 41.374852 -0.768264 1.316487 0.022773 0.003107 1298060.000000 0 0 1
-28.824727 28.051711 9.012172 41.218717 -0.771808 1.350373 0.021296 -0.003338 220560.000000 0 0 1
-27.619067 27.440261 8.238672 39.795182 -0.782151 1.362261 0.012220 -0.002045 292783.000000 0 0 1
-27.548577 27.774181 6.855372 39.715555 -0.789476 1.397316 0.007951 -0.001611 246046.000000 0 0 1
-26.389567 27.159801 6.271372 38.384816 -0.799781 1.406679 0.009616 0.005658 279954.000000 0 0 1
-26.122197 27.505451 4.765672 38.231278 -0.811186 1.445817 0.001965 0.003573 -9152.480000 0 0 1
-25.474937 28.763621 4.493872 38.684793 -0.845958 1.454367 0.012484 -0.001932 481615.000000 0 0 1
-25.086907 28.920631 3.132572 38.413133 -0.856264 1.489156 0.011134 0.002107 -330567.000000 0 0 1
-23.950297 29.916411 2.929272 38.434216 -0.895706 1.494507 0.008545 -0.003949 207889.000000 0 0 1
-22.643097 29.432271 3.217772 37.273616 -0.915039 1.484360 0.005779 -0.002351 325323.000000 0 0 1
-21.660697 30.407331 2.963972 37.450991 -0.951829 1.491571 0.010766 -0.007879 615938.000000 0 0 1
-20.183197 30.074221 3.339472 36.372686 -0.979722 1.478854 -0.003549 -0.011245 203567.000000 0 0 1
-19.321197 30.994941 2.781872 36.629685 -1.013373 1.494777 -0.007950 -0.006532 55762.300000 0 0 1
-17.968897 30.516511 3.015072 35.541938 -1.038634 1.485863 -0.003274 -0.005647 1426040.000000 0 0 1
-16.907497 31.513191 2.439772 35.845462 -1.078360 1.502680 0.001384 -0.005676 145533.000000 0 0 1
-16.899197 32.746761 3.122572 36.982207 -1.094386 1.486261 -0.002163 -0.000752 -183035.000000 0 0 1
-15.834497 33.558109 2.697972 37.204261 -1.129919 1.498215 0.009344 0.006141 -108966.000000 0 0 1
-15.598097 -34.511792 3.582572 38.042072 1.146310 1.476483 0.010584 0.000961 -61873.300000 0 0 1
-16.557297 -33.488464 3.419072 37.514149 1.111624 1.479529 0.010184 -0.003436 -43329.500000 0 0 1
-16.228397 -32.357684 4.241872 36.446866 1.105924 1.454147 0.002425 -0.003888 70400.500000 0 0 1
-17.330497 -31.297874 4.496172 36.057158 1.065096 1.445775 -0.006769 0.001448 -24999.900000 0 0 1
-17.667797 -30.377424 3.488372 35.314412 1.044009 1.471855 0.003938 -0.006914 53819.500000 0 0 1
-18.777097 -29.598544 3.912272 35.269804 1.005471 1.459643 0.003800 -0.008323 -243613.000000 0 0 1
-19.284897 -28.649974 2.835372 34.652094 0.978339 1.488881 -0.002216 -0.010071 126110.000000 0 0 1
-18.420397 -27.526504 2.571772 33.220979 0.981050 1.493305 -0.005624 0.000626 6398.070000 0 0 1
-18.799697 -26.775784 1.474172 32.749724 0.958652 1.525768 -0.008678 0.000886 148159.000000 0 0 1
-17.824197 -25.576234 1.271172 31.200346 0.962151 1.530043 -0.003953 0.001543 649949.000000 0 0 1
-16.543897 -25.981014 0.826172 30.812273 1.003779 1.543980 -0.005110 0.003981 -6006.560000 0 0 1
-15.575397 -24.925164 0.817972 29.402821 1.012279 1.542973 -0.002051 0.007512 770118.000000 0 0 1
-14.333797 -25.294354 -0.036628 29.073414 1.055237 1.572056 0.018271 0.003796 -65714.700000 0 0 1
-14.575697 -25.279874 -1.450728 29.216906 1.047781 1.620470 0.020124 0.000249 103825.000000 0 0 1
-14.687197 -23.945764 -2.033828 28.164691 1.020617 1.643071 0.031866 0.001537 -197911.000000 0 0 1
-14.904197 -24.028464 -3.536628 28.495787 1.015604 1.695228 0.014583 -0.000165 -410883.000000 0 0 1
-13.745297 -24.378764 -4.224128 28.303720 1.057403 1.720599 0.040258 -0.001810 -470389.000000 0 0 1
-13.925297 -24.447564 -5.632128 28.693521 1.053031 1.768365 0.029136 -0.002264 189663.000000 0 0 1
-12.636197 -24.986064 -6.299228 28.699427 1.102575 1.792088 0.050672 -0.011794 86948.800000 0 0 1
-12.375797 -26.400884 -5.997728 29.768100 1.132448 1.773667 0.030941 -0.008016 47137.700000 0 0 1
-11.376397 -26.922614 -6.858728 30.021521 1.170995 1.801292 0.031606 -0.009757 -51711.500000 0 0 1
22.092703 12.806936 28.454255 38.232836 0.525352 0.731406 0.005266 0.012890 -337946.000000 0 0 1
22.901103 11.669336 28.642475 38.484092 0.471261 0.731358 -0.005913 0.011157 573436.000000 0 0 1
22.310203 10.784836 29.619555 38.618336 0.450283 0.696672 -0.007229 0.005098 -192098.000000 0 0 1
22.390603 11.215836 31.106045 39.933947 0.464381 0.677827 0.012890 0.008257 399417.000000 0 0 1
21.429503 12.213936 31.493225 40.002838 0.518037 0.664420 0.007864 0.009085 471596.000000 0 0 1
21.544203 12.347736 32.905375 41.223573 0.520432 0.646466 0.020782 0.010065 -218405.000000 0 0 1
20.807503 13.432136 33.684732 41.809516 0.573236 0.633988 0.000962 0.019556 -1598180.000000 0 0 1
19.461003 13.224136 33.682030 41.086343 0.596848 0.609758 0.002936 0.019109 -1806730.000000 0 0 1
18.780603 14.167636 34.410088 41.683175 0.646296 0.599682 0.012541 0.017959 139100.000000 0 0 1
17.653003 13.495636 -33.981868 40.602069 0.652714 2.562481 0.008672 0.014264 670975.000000 0 0 1
16.465803 13.202436 34.570979 40.504069 0.675843 0.548095 0.000674 0.018247 520992.000000 0 0 1
15.437903 12.590036 -33.916938 39.334419 0.684138 2.610534 -0.002467 0.010114 383615.000000 0 0 1
14.197603 12.247836 34.518931 39.282795 0.711803 0.497603 -0.008198 0.016018 -162641.000000 0 0 1
14.353503 11.072936 33.740641 38.302269 0.657085 0.493026 -0.014057 0.022668 -268398.000000 0 0 1
13.277803 10.908436 32.875985 37.096151 0.687746 0.481639 -0.014546 0.026587 -458478.000000 0 0 1
13.632303 9.758436 31.962225 36.092251 0.621272 0.483076 -0.014694 0.026476 736.306000 0 0 1
13.887803 8.460336 32.525205 36.363956 0.547151 0.463630 -0.022513 0.021940 43732.200000 0 0 1
14.418003 7.553236 31.574625 35.523051 0.482565 0.475970 -0.013303 0.005838 -29574.800000 0 0 1
14.680503 6.167036 32.180315 35.904348 0.397699 0.459489 0.009299 -0.000019 253379.000000 0 0 1
13.582003 5.293136 32.399265 35.527461 0.371610 0.422785 -0.000784 0.006047 -220494.000000 0 0 1
14.104703 4.075636 32.780625 35.918280 0.281294 0.421088 -0.001890 0.002000 -33268.900000 0 0 1
13.057703 2.977036 32.978375 35.594095 0.224159 0.385761 -0.008466 0.004663 -339578.000000 0 0 1
13.627303 1.749036 33.408333 36.123112 0.127650 0.390165 -0.003010 -0.005515 -795460.000000 0 0 1
12.673303 0.876236 33.849715 36.154994 0.069030 0.359027 -0.004323 -0.003833 -758487.000000 0 0 1
13.284203 -0.500864 34.099203 36.598860 -0.037686 0.371728 -0.014420 0.003653 -215254.000000 0 0 1
13.404503 -1.308264 32.955545 35.601407 -0.097291 0.387965 -0.028451 0.005533 76216.400000 0 0 1
13.942003 -2.594264 33.284652 36.179797 -0.183971 0.402770 -0.011021 -0.000320 -474904.000000 0 0 1
13.937903 -3.748664 32.221505 35.306416 -0.262737 0.421137 -0.003833 -0.005801 -1202590.000000 0 0 1
14.304303 -5.058264 32.652985 36.005785 -0.339895 0.434973 0.004520 -0.001846 278221.000000 0 0 1
15.561603 -5.335764 33.261642 37.107556 -0.330318 0.459312 -0.004916 -0.001916 590200.000000 0 0 1
16.838803 -4.834864 32.524565 36.942774 -0.279605 0.494083 0.011069 -0.010806 -759183.000000 0 0 1
16.986803 -3.434164 32.666575 36.979049 -0.199478 0.487769 0.014197 -0.010176 -308590.000000 0 0 1
17.881403 -2.928764 31.721965 36.532250 -0.162347 0.518976 0.035433 -0.014442 -479396.000000 0 0 1
17.944703 -1.399764 31.786275 36.528605 -0.077847 0.515239 0.042863 -0.015438 -116839.000000 0 0 1
18.543703 -0.827864 32.970555 37.836646 -0.044614 0.512763 0.024075 -0.011184 341324.000000 0 0 1
18.378803 0.572436 33.072425 37.840367 0.031136 0.507425 0.017260 -0.004506 -355624.000000 0 0 1
19.560203 1.374736 32.541135 37.992327 0.070167 0.542310 0.037810 -0.008424 -614951.000000 0 0 1
19.672403 1.275836 31.118955 36.837760 0.064763 0.564685 0.054101 -0.014761 -45990.900000 0 0 1
20.601303 2.184936 30.568655 36.927365 0.105663 0.595613 0.042266 -0.007809 -286481.000000 0 0 1
20.151003 3.645436 30.307975 36.577664 0.178970 0.594208 0.036012 0.000831 -356866.000000 0 0 1
19.917503 4.290936 31.557235 37.562989 0.212192 0.573301 0.027915 -0.003497 299380.000000 0 0 1
19.328103 5.547936 31.290505 37.194769 0.279525 0.571185 0.023821 -0.005143 -161596.000000 0 0 1
19.097503 6.297936 32.638595 38.336099 0.318547 0.552185 0.025769 -0.010231 -249488.000000 0 0 1
18.031703 5.748636 33.378235 38.370506 0.308621 0.515811 0.016267 -0.006157 159718.000000 0 0 1
17.827003 6.331536 -34.605593 39.439034 0.341269 2.641306 0.004271 -0.005687 -253705.000000 0 0 1
16.549603 5.804436 -33.945548 38.208390 0.337325 2.664714 0.012646 -0.004236 -655963.000000 0 0 1
16.649303 4.418336 -33.713798 37.859492 0.259398 2.669235 -0.004816 -0.008077 -46095.600000 0 0 1
15.526503 3.860536 -33.079748 36.745690 0.243700 2.691105 0.000623 -0.015250 -406734.000000 0 0 1
15.481203 2.340536 -33.341838 36.835091 0.150049 2.702564 -0.009680 -0.017639 -468715.000000 0 0 1
16.517003 1.590936 -32.778748 36.739472 0.096025 2.672977 -0.011403 -0.004221 -258240.000000 0 0 1
16.299903 0.228336 -33.059638 36.860258 0.014007 2.683485 -0.009563 -0.003585 -421805.000000 0 0 1
17.411603 -0.719164 -32.563808 36.933490 -0.041280 2.650224 -0.015893 -0.003588 -234301.000000 0 0 1
17.488103 -0.978764 -31.139518 35.727599 -0.055909 2.629216 -0.010773 -0.001088 309263.000000 0 0 1
17.674003 0.136536 -30.252618 35.037265 0.007725 2.612848 -0.013999 0.001098 -280467.000000 0 0 1
17.573203 -0.071664 -28.703858 33.656115 -0.004078 2.592229 -0.016962 0.012662 1437150.000000 0 0 1
16.197503 -0.333164 -28.273008 32.585780 -0.020566 2.621250 -0.018616 0.004055 1614310.000000 0 0 1
15.988303 -0.400664 -26.850678 31.252924 -0.025055 2.604386 -0.009482 0.001826 16196.000000 0 0 1
16.455103 -1.735364 -26.183488 30.973488 -0.105072 2.578019 0.003129 0.007201 539794.000000 0 0 1
17.845703 -1.727564 -25.858428 31.466043 -0.096505 2.535339 0.002627 0.004503 269331.000000 0 0 1
18.549003 -2.941964 -25.796928 31.909280 -0.157295 2.512303 0.004706 0.008240 647071.000000 0 0 1
19.428503 -3.232364 -27.077468 33.482894 -0.164862 2.512727 0.004164 0.004976 239699.000000 0 0 1
20.528203 -2.368864 -27.233898 34.186311 -0.114887 2.492498 0.009936 0.001781 -358603.000000 0 0 1
20.984303 -2.383464 -28.554428 35.515873 -0.113098 2.504772 0.008706 -0.000868 508147.000000 0 0 1
22.503503 -2.035064 -28.653568 36.490767 -0.090188 2.473860 0.012994 -0.007894 483857.000000 0 0 1
23.398503 -3.105864 -28.466498 36.979425 -0.131966 2.449313 0.013303 -0.009832 95348.100000 0 0 1
24.725703 -2.686264 -28.741208 38.008334 -0.108218 2.428254 0.009193 -0.014867 239820.000000 0 0 1
25.817603 -3.784664 -28.579838 38.699864 -0.145556 2.401639 0.012972 -0.012995 149034.000000 0 0 1
25.653503 -4.902664 -29.432238 39.349650 -0.188834 2.415790 0.018553 -0.017314 144587.000000 0 0 1
26.603203 -5.898764 -29.097748 39.864831 -0.218201 2.388987 0.013292 -0.011737 -51795.800000 0 0 1
26.241103 -6.965564 -28.033638 39.025625 -0.259461 2.372208 -0.006262 -0.005325 -261998.000000 0 0 1
26.214603 -6.460964 -26.677908 37.956030 -0.241648 2.350211 -0.016872 0.005272 176921.000000 0 0 1
26.294303 -7.553064 -25.778608 37.589570 -0.279720 2.326487 -0.026397 0.010093 -252202.000000 0 0 1
26.272003 -7.080464 -24.300728 36.481180 -0.263251 2.299787 -0.037061 0.011134 202350.000000 0 0 1
27.517003 -6.590064 -23.809928 36.980090 -0.235063 2.270326 -0.037979 0.010216 514259.000000 0 0 1
27.423903 -6.047664 -22.492828 35.980161 -0.217051 2.246114 -0.037997 0.001558 -1073320.000000 0 0 1
28.756803 -5.606464 -21.967828 36.619280 -0.192546 2.214170 -0.029079 0.002269 -1102300.000000 0 0 1
29.265903 -4.510864 -22.677428 37.297543 -0.152930 2.224353 -0.018710 0.000188 -1459790.000000 0 0 1
30.577003 -4.279464 -22.393328 38.140898 -0.139054 2.198294 -0.011236 -0.002403 -1161480.000000 0 0 1
31.077303 -2.929264 -22.999128 38.772919 -0.093980 2.205793 0.008964 -0.014712 -132034.000000 0 0 1
30.382103 -1.887764 -22.402228 37.795445 -0.062054 2.205232 -0.001476 -0.017768 -217094.000000 0 0 1
30.897903 -0.622864 -22.699728 38.345091 -0.020156 2.204316 0.008674 -0.021289 -293929.000000 0 0 1
29.952303 0.571936 -22.483528 37.456329 0.019093 2.214622 0.009250 -0.016953 -658250.000000 0 0 1
28.878603 0.531836 -23.372928 37.155758 0.018414 2.251130 0.006740 -0.013315 -631291.000000 0 0 1
27.925003 1.504736 -23.020328 36.221617 0.053833 2.259506 0.006284 -0.005971 -623066.000000 0 0 1
26.691203 1.317236 -23.901928 35.853279 0.049311 2.300514 -0.003334 -0.005449 -987070.000000 0 0 1
25.838503 2.386336 -23.755728 35.180356 0.092095 2.312107 0.001024 0.003379 -207538.000000 0 0 1
24.844003 2.552436 -24.757928 35.166666 0.102379 2.351834 0.005513 0.000450 -152820.000000 0 0 1
23.825003 3.623936 -24.455028 34.333833 0.150949 2.363526 0.011575 0.001380 -618772.000000 0 0 1
24.385403 4.914836 -24.287128 34.765904 0.198884 2.344222 0.011229 0.004110 -77139.200000 0 0 1
23.432503 5.924136 -24.032228 34.084096 0.247628 2.353341 0.022145 -0.002286 -237410.000000 0 0 1
24.027203 7.145836 -23.305028 34.227091 0.289075 2.319779 0.037800 -0.005735 -229188.000000 0 0 1
24.644403 8.066336 -24.157328 35.439933 0.316319 2.320800 0.026290 -0.004309 -106159.000000 0 0 1
24.956703 9.261536 -23.430028 35.462364 0.355351 2.292549 0.034559 -0.009866 -189622.000000 0 0 1
25.852803 10.148736 -24.321328 36.917357 0.374075 2.290025 0.048483 -0.012328 138011.000000 0 0 1
25.275503 10.623236 -25.575668 37.494253 0.397881 2.321457 0.041752 -0.020583 682369.000000 0 0 1
24.041603 11.347536 -25.593648 36.902575 0.440994 2.337197 0.049298 -0.028615 508732.000000 0 0 1
23.529403 11.604836 -27.012118 37.655804 0.458197 2.370777 0.035910 -0.030803 -342150.000000 0 0 1
23.140403 10.447336 -27.725438 37.594215 0.424081 2.400146 0.027316 -0.020755 249401.000000 0 0 1
24.173503 9.602536 -28.234698 38.389649 0.378120 2.397167 0.026297 -0.030339 527527.000000 0 0 1
25.023703 10.196336 -29.449598 39.967860 0.386927 2.399169 0.019984 -0.021256 -404829.000000 0 0 1
26.000703 11.186936 -29.134558 40.620273 0.406313 2.370632 0.014900 -0.015728 710660.000000 0 0 1
26.759703 11.630936 -30.263118 42.038276 0.410010 2.374446 0.011078 -0.009681 424967.000000 0 0 1
27.809103 10.627336 -30.766988 42.812312 0.365027 2.372653 0.014773 -0.010545 -973716.000000 0 0 1
27.120903 9.725436 -31.602588 42.765068 0.344312 2.402353 0.014147 -0.015105 58071.700000 0 0 1
27.866903 8.621536 -32.073288 43.354250 0.300042 2.403563 0.009555 -0.014995 -381463.000000 0 0 1
27.167303 7.583536 -33.009658 43.419004 0.272213 2.434507 0.023442 -0.016442 287787.000000 0 0 1
25.948103 7.077936 -32.493908 42.181220 0.266294 2.450172 0.018612 -0.018357 -23914.900000 0 0 1
25.321303 6.092236 -33.198368 42.194968 0.236110 2.476379 0.004042 -0.011103 81583.000000 0 0 1
24.027603 5.556836 -32.503188 40.800262 0.227273 2.492515 0.016351 -0.005466 446477.000000 0 0 1
22.853803 6.328436 -32.592068 40.306182 0.270141 2.512586 0.008862 -0.007491 76244.000000 0 0 1
22.720403 7.262636 -31.522168 39.529858 0.309388 2.493815 0.019009 -0.007844 -83181.900000 0 0 1
21.265303 7.787936 -31.470708 38.772033 0.351057 2.517829 0.017577 -0.007086 202970.000000 0 0 1
21.008603 8.718036 -32.495588 39.665209 0.393348 2.530892 0.030653 -0.006654 -961661.000000 0 0 1
19.664803 9.036136 -32.517338 39.060639 0.430733 2.554372 0.017900 -0.004497 -1128940.000000 0 0 1
19.122303 10.033836 -33.537738 39.888848 0.483227 2.569518 0.012529 0.003168 -292384.000000 0 0 1
18.754303 9.407136 34.539431 40.412750 0.464926 0.545888 0.016914 0.002631 -21721.900000 0 0 1
18.372803 10.320836 33.551839 39.620770 0.511816 0.560810 0.007679 0.010200 -130344.000000 0 0 1
17.374103 9.945536 32.420055 38.102928 0.519904 0.553186 -0.007496 0.019509 -182852.000000 0 0 1
17.787403 9.024936 31.405755 37.204336 0.469533 0.565833 -0.012244 0.014848 454082.000000 0 0 1
18.883403 9.406636 30.563735 37.137711 0.462161 0.604153 -0.000810 0.012413 -322577.000000 0 0 1
18.488703 10.318236 29.330965 36.174627 0.509028 0.625251 -0.004938 0.011138 -189016.000000 0 0 1
17.738103 9.568536 28.394565 34.820231 0.494695 0.617270 -0.000810 0.011714 206696.000000 0 0 1
16.353103 9.711136 28.632155 34.373397 0.535878 0.586335 -0.000792 0.014768 -579152.000000 0 0 1
15.460303 8.905036 27.675875 32.928327 0.522581 0.572612 0.011584 0.012812 -860149.000000 0 0 1
15.474003 9.247236 26.258295 31.850498 0.538652 0.601614 0.017732 0.012656 -27766.300000 0 0 1
14.397003 8.688236 25.559515 30.594901 0.542971 0.581904 0.024143 0.012971 -261487.000000 0 0 1
14.357603 7.149336 25.308805 29.963134 0.462004 0.564858 0.018464 0.017072 -226952.000000 0 0 1
14.362903 6.425336 26.475945 30.798597 0.420653 0.536217 0.010420 0.009370 15853.600000 0 0 1
14.328203 4.992736 26.242745 30.313470 0.335298 0.524225 0.005298 0.011414 -80784.000000 0 0 1
14.506903 4.220536 27.577025 31.444482 0.283118 0.501200 -0.005034 0.010610 -73234.800000 0 0 1
15.796803 4.445236 28.119175 32.557443 0.274307 0.528273 0.009704 0.016533 109242.000000 0 0 1
16.041603 3.751936 29.339755 33.648645 0.229758 0.511636 0.016382 0.007817 -454471.000000 0 0 1
16.655603 2.364136 29.320705 33.803876 0.141000 0.520889 0.025786 0.007100 -575952.000000 0 0 1
15.863503 1.234536 29.039325 33.112795 0.077666 0.501251 0.015871 0.001606 -416640.000000 0 0 1
15.019703 0.893336 30.096405 33.647929 0.059408 0.463596 -0.000766 0.005138 -135116.000000 0 0 1
14.566503 -0.589564 30.100785 33.445297 -0.040452 0.451026 0.002082 0.003735 -758801.000000 0 0 1
13.850103 -0.959464 28.962855 32.118420 -0.069164 0.446990 -0.001868 0.005700 -264458.000000 0 0 1
14.537403 -1.305664 27.801555 31.400116 -0.089574 0.483450 0.005931 0.013362 -1638740.000000 0 0 1
15.579403 -2.448764 27.818575 31.977920 -0.155904 0.515735 0.008159 0.018064 -468207.000000 0 0 1
16.820903 -2.322864 28.406335 33.094688 -0.137226 0.538780 0.016286 0.003800 -417482.000000 0 0 1
17.586503 -1.244764 27.829985 32.944538 -0.070662 0.564694 0.018563 0.005393 -599647.000000 0 0 1
19.093803 -1.230264 28.260775 34.128555 -0.064344 0.595143 0.046966 0.011247 647309.000000 0 0 1
19.868003 -2.036164 27.379455 33.889793 -0.102128 0.630222 0.041504 0.006908 -48550.900000 0 0 1
21.236203 -1.761164 27.604915 34.872760 -0.082743 0.657390 0.052901 -0.001055 408176.000000 0 0 1
22.241403 -2.303264 26.529395 34.695732 -0.103190 0.700329 0.048923 0.000724 203712.000000 0 0 1
22.081503 -1.542364 25.339095 33.645823 -0.069735 0.718016 0.053883 0.015802 514666.000000 0 0 1
21.401703 -2.318764 24.313545 32.473959 -0.107924 0.724684 0.051850 0.022549 227207.000000 0 0 1
21.305103 -1.538964 22.956255 31.357064 -0.072109 0.749408 0.035737 0.003184 -497126.000000 0 0 1
20.594203 -0.382864 23.138355 30.978239 -0.018589 0.727374 0.025637 0.015172 -150865.000000 0 0 1
20.619803 0.388536 21.989655 30.147507 0.018841 0.753349 0.030444 0.015281 -31852.300000 0 0 1
-29.633707 -27.644820 -10.323928 41.820762 0.750689 1.820236 -0.029373 0.031537 -50259.700000 0 0 1
-29.424287 -26.675920 -9.343728 40.800718 0.736447 1.801856 -0.027276 0.029877 -327907.000000 0 0 1
-29.872427 -27.003320 -8.093928 41.073748 0.734996 1.769153 -0.019687 0.020242 -779956.000000 0 0 1
-30.048887 -25.734720 -7.217828 40.215773 0.708214 1.751252 -0.005092 0.010146 -412542.000000 0 0 1
-28.958437 -24.986020 -6.768928 38.842124 0.711892 1.745958 -0.011642 0.005545 -425112.000000 0 0 1
-28.116697 -25.603520 -5.783828 38.464809 0.738650 1.721736 -0.016949 0.009660 -564299.000000 0 0 1
-26.975377 -24.759620 -5.338428 37.002818 0.742595 1.715572 -0.030474 0.012371 -1432040.000000 0 0 1
-27.153707 -23.626720 -4.567028 36.282274 0.716054 1.697006 -0.021811 0.007070 -571965.000000 0 0 1
-27.929497 -22.547520 -5.046228 36.247922 0.679177 1.710464 -0.017805 0.001533 -253663.000000 0 0 1
-28.166457 -21.358020 -4.093128 35.584659 0.648778 1.686077 -0.008322 -0.005281 -131861.000000 0 0 1
-27.134797 -20.391220 -4.175828 34.198488 0.644447 1.693207 -0.004748 -0.011646 237267.000000 0 0 1
-27.138897 -19.534220 -3.084228 33.580022 0.623883 1.662773 -0.000919 -0.004591 -67625.900000 0 0 1
-25.938047 -18.578120 -3.193128 32.064386 0.621549 1.670547 0.006051 -0.010607 -72821.000000 0 0 1
-26.217207 -17.586320 -4.118928 31.836867 0.590854 1.700536 0.004698 -0.018754 163240.000000 0 0 1
-25.209337 -16.593320 -4.183728 30.468877 0.582133 1.708543 0.015426 -0.018786 -51570.800000 0 0 1
-25.466407 -15.525820 -5.280528 30.289815 0.547491 1.746025 0.008777 -0.027426 561090.000000 0 0 1
-26.726517 -14.830220 -5.143828 30.995178 0.506588 1.737523 -0.004366 -0.020945 760413.000000 0 0 1
-26.839977 -13.759820 -6.083828 30.768977 0.473725 1.769834 0.011397 -0.033219 -824636.000000 0 0 1
-28.106077 -12.933720 -5.926928 31.501764 0.431283 1.760070 0.012130 -0.022555 -962490.000000 0 0 1
-29.163877 -13.563020 -6.567528 32.827117 0.435309 1.772220 0.009525 -0.018121 -731394.000000 0 0 1
-30.249717 -12.671520 -6.728928 33.479714 0.396690 1.773160 0.007320 -0.019420 -497106.000000 0 0 1
-31.383637 -13.426520 -7.423128 34.932891 0.404256 1.784926 -0.005730 -0.014514 -601778.000000 0 0 1
-31.919297 -14.498020 -6.622528 35.677611 0.426348 1.757501 -0.002798 -0.011635 268406.000000 0 0 1
-31.905387 -15.645420 -7.385428 36.294316 0.455913 1.775715 -0.004937 -0.018583 -327141.000000 0 0 1
-32.749967 -16.845420 -6.858328 37.461515 0.475073 1.754911 -0.013294 -0.016075 1102210.000000 0 0 1
-34.183282 -16.770320 -6.895728 38.694850 0.456099 1.749961 -0.004159 -0.019392 743860.000000 0 0 1
-34.687202 -16.131220 -5.771828 38.687623 0.435297 1.720546 -0.003058 -0.023403 50498.400000 0 0 1
33.709892 -16.277920 -5.584328 37.848543 -0.449860 1.718881 0.011014 -0.026499 155223.000000 0 0 1
33.037002 -15.367320 -6.438728 37.000746 -0.435385 1.745703 0.009921 -0.024055 -655292.000000 0 0 1
31.655782 -15.506020 -6.389128 35.823820 -0.455480 1.750104 0.017188 -0.028405 -470108.000000 0 0 1
30.850282 -14.829120 -5.239528 34.627956 -0.448073 1.722689 0.034245 -0.030783 -637457.000000 0 0 1
30.921132 -15.522220 -3.990128 34.827816 -0.465241 1.685616 0.019649 -0.025760 496612.000000 0 0 1
30.379332 -14.741720 -2.927628 33.893850 -0.451782 1.657280 0.012201 -0.022401 -955968.000000 0 0 1
30.656862 -15.427820 -1.568328 34.355792 -0.466238 1.616462 0.024488 -0.018953 670612.000000 0 0 1
32.016942 -15.516720 -1.096528 35.595723 -0.451285 1.601606 0.033249 -0.017852 811107.000000 0 0 1
32.896492 -16.425620 -1.711328 36.809086 -0.463097 1.617305 0.023469 -0.019946 -962938.000000 0 0 1
32.552302 -17.895320 -1.902328 37.195613 -0.502644 1.621963 0.028702 -0.016018 -1210750.000000 0 0 1
32.786682 -18.746820 -0.797628 37.776262 -0.519412 1.591912 0.032878 -0.012552 212364.000000 0 0 1
32.577772 -20.147520 -1.069528 38.319416 -0.553871 1.598711 0.037463 -0.012873 -177600.000000 0 0 1
33.478892 -20.932420 -2.049828 39.537377 -0.558774 1.622665 0.039067 -0.019159 -154214.000000 0 0 1
33.418752 -20.320020 -3.321228 39.252346 -0.546312 1.655510 0.020381 -0.020481 -204738.000000 0 0 1
34.303004 -20.958920 -4.204028 40.418390 -0.548464 1.674998 0.025693 -0.017886 -231966.000000 0 0 1
34.507967 -20.347120 -5.628828 40.453538 -0.532764 1.710392 0.032884 -0.024180 639073.000000 0 0 1
33.335502 -20.441720 -6.487328 39.638428 -0.550077 1.735198 0.025728 -0.029087 1263340.000000 0 0 1
33.382252 -19.447020 -7.477628 39.350682 -0.527494 1.761984 0.027373 -0.028625 455101.000000 0 0 1
32.255682 -19.853720 -8.494428 38.816935 -0.551746 1.791415 0.022341 -0.035350 338885.000000 0 0 1
32.623532 -20.890220 -9.375528 39.857203 -0.569556 1.808249 0.027500 -0.036239 528322.000000 0 0 1
31.531982 -21.224220 -10.236428 39.363915 -0.592444 1.833866 0.026936 -0.040257 -118412.000000 0 0 1
31.530112 -22.698720 -10.698528 40.296877 -0.623961 1.839511 0.031168 -0.035703 -184042.000000 0 0 1
31.041772 -23.663020 -9.767528 40.235987 -0.651324 1.816002 0.026746 -0.030159 66320.300000 0 0 1
31.026812 -24.949320 -10.368928 41.141782 -0.677249 1.825573 0.009747 -0.017173 -110803.000000 0 0 1
29.999352 -25.841520 -9.638428 40.751006 -0.711077 1.809579 0.004366 -0.023951 -557108.000000 0 0 1
28.699322 -25.368820 -9.759328 39.528123 -0.723878 1.820272 0.004822 -0.028403 -792451.000000 0 0 1
27.760122 -26.148820 -9.065028 39.198978 -0.755518 1.804166 -0.014282 -0.016412 519894.000000 0 0 1
26.325072 -25.550620 -8.984828 37.769971 -0.770470 1.810982 -0.003827 -0.026400 232767.000000 0 0 1
25.723832 -25.380320 -10.238828 37.559416 -0.778676 1.846894 -0.007631 -0.019423 -870829.000000 0 0 1
24.535982 -24.684220 -10.071128 36.231929 -0.788410 1.852469 0.008420 -0.030678 -962914.000000 0 0 1
23.783082 -24.494720 -11.371628 35.985277 -0.800138 1.892315 0.032261 -0.028557 -302179.000000 0 0 1
23.342082 -25.715520 -11.980828 36.738004 -0.833741 1.902988 0.032195 -0.023986 201555.000000 0 0 1
22.556082 -25.617520 -13.136428 36.573212 -0.848863 1.938187 0.039562 -0.007426 -232148.000000 0 0 1
22.089982 -26.928420 -13.727228 37.437199 -0.883786 1.946227 0.043834 -0.003691 -183171.000000 0 0 1
23.087282 -27.794420 -14.251728 38.841525 -0.877647 1.946492 0.027925 0.003697 199151.000000 0 0 1
22.731982 -29.178120 -14.137228 39.597561 -0.908945 1.935875 0.055685 -0.007902 -160250.000000 0 0 1
23.598482 -30.082320 -15.071128 41.097119 -0.905601 1.946277 0.052234 -0.001657 106746.000000 0 0 1
23.296982 -29.966520 -16.461028 41.372782 -0.909968 1.979991 0.037747 -0.000187 361390.000000 0 0 1
23.528282 -31.254720 -17.029528 42.666642 -0.925511 1.981364 0.043366 0.001557 -233405.000000 0 0 1
23.162682 -31.151620 -18.525928 43.013291 -0.931438 2.016067 0.032676 0.011921 622504.000000 0 0 1
21.787182 -31.257420 -18.916828 42.538852 -0.962070 2.031630 0.033591 0.012194 74427.100000 0 0 1
21.646682 -31.223220 -20.302028 43.077147 -0.964589 2.061554 0.028264 0.007947 -189440.000000 0 0 1
20.236682 -30.892020 -20.824628 42.396996 -0.990860 2.084242 0.016914 0.005555 -93333.200000 0 0 1
20.225482 -30.638720 -22.169528 42.886935 -0.987334 2.114057 -0.000542 0.004237 204738.000000 0 0 1
18.932982 -30.199620 -22.533328 42.169013 -1.010812 2.134544 0.004654 0.001133 -269671.000000 0 0 1
18.597082 -30.225620 -24.051928 42.871141 -1.019221 2.166424 -0.000273 0.007920 -647710.000000 0 0 1
19.169782 -29.176020 -24.810828 42.828703 -0.989489 2.188671 0.003672 0.008173 399848.000000 0 0 1
19.286782 -29.541120 -26.184218 43.934849 -0.992400 2.209280 0.003699 0.002426 -469878.000000 0 0 1
19.804282 -28.408620 -27.088408 43.966363 -0.962004 2.234599 -0.003081 -0.000650 -152191.000000 0 0 1
18.988982 -27.277120 -27.178778 42.933770 -0.962659 2.256270 0.010547 -0.007593 -92696.100000 0 0 1
17.995082 -27.415020 -28.193088 43.246462 -0.989939 2.280906 0.014775 -0.011723 -420973.000000 0 0 1
17.419682 -26.060120 -28.482948 42.353907 -0.981566 2.308376 0.021999 -0.007847 -563502.000000 0 0 1
16.447282 -25.721220 -27.511148 41.096928 -1.001878 2.304225 0.016610 0.007800 54489.200000 0 0 1
15.945882 -24.414120 -27.728198 40.238953 -0.992216 2.331027 0.011323 0.006975 -429934.000000 0 0 1
14.854782 -23.956920 -26.774908 38.877940 -1.015756 2.330479 0.008116 0.006467 6363.220000 0 0 1
13.597882 -24.639820 -26.992998 38.995449 -1.066522 2.335342 0.022371 -0.001717 515408.000000 0 0 1
12.617582 -24.193720 -26.050378 37.724814 -1.090079 2.333027 0.016277 0.004799 198056.000000 0 0 1
12.791182 -24.654120 -24.549828 37.069313 -1.092202 2.294638 0.006657 0.010863 -792687.000000 0 0 1
13.686282 -23.947920 -23.756828 36.403352 -1.051595 2.281807 -0.008596 0.008075 -509519.000000 0 0 1
13.795382 -24.455520 -22.456428 35.953806 -1.057192 2.245404 -0.007546 0.006186 -36305.600000 0 0 1
14.883482 -23.808820 -21.578028 35.411710 -1.012107 2.226033 -0.017281 0.002492 -109474.000000 0 0 1
14.657182 -22.449920 -21.133228 34.138617 -0.992397 2.238318 -0.024878 0.000120 -498834.000000 0 0 1
15.803882 -21.710120 -20.826828 33.983065 -0.941557 2.230470 -0.011637 0.006701 -642934.000000 0 0 1
15.518082 -20.338620 -20.170328 32.577790 -0.919036 2.238448 -0.001706 0.014127 117751.000000 0 0 1
14.940982 -20.444020 -18.863228 31.575500 -0.939681 2.211052 0.001211 0.000866 -229272.000000 0 0 1
13.575882 -20.140020 -18.868928 30.756485 -0.977682 2.231274 -0.010811 0.004715 -535312.000000 0 0 1
12.920082 -20.018320 -17.452928 29.534155 -0.997653 2.203020 0.002627 0.005433 -140378.000000 0 0 1
13.282382 -18.904020 -16.698128 28.506334 -0.958313 2.196625 0.008686 0.001548 286257.000000 0 0 1
12.627882 -18.912920 -15.411728 27.471499 -0.982089 2.166399 0.009877 -0.001722 209559.000000 0 0 1
12.804282 -17.586420 -14.632628 26.217276 -0.941474 2.162926 0.011063 0.002978 -310538.000000 0 0 1
11.704582 -16.736820 -14.876028 25.266867 -0.960519 2.200316 -0.001680 -0.002649 96380.200000 0 0 1
12.016082 -15.404920 -14.756828 24.483907 -0.908360 2.217696 0.004712 -0.009995 -497406.000000 0 1 0
10.778782 -14.570220 -14.440928 23.173559 -0.933867 2.243578 0.010475 -0.009167 -53882.200000 0 1 0
9.974782 -14.335420 -15.621928 23.431712 -0.962885 2.300569 0.012190 0.004904 76842.500000 0 1 0
8.861482 -13.563820 -15.216328 22.227004 -0.992092 2.324834 0.013479 -0.006703 152677.000000 0 1 0
8.050682 -13.048320 -16.466628 22.499377 -1.017978 2.391859 0.014549 -0.005170 13070.700000 0 1 0
8.623382 -11.887220 -17.101728 22.541912 -0.943204 2.432056 0.011696 0.003092 120707.000000 0 1 0
9.796682 -12.068820 -17.857328 23.675209 -0.888941 2.425327 0.013867 0.000882 -115530.000000 0 1 0
9.895082 -10.884420 -18.846228 23.907395 -0.832973 2.478839 0.015256 -0.001740 32978.900000 0 1 0
9.021282 -11.037920 -19.959428 24.527494 -0.885596 2.521384 0.009325 0.001661 454885.000000 0 1 0
8.904582 -9.799420 -20.645828 24.526932 -0.833204 2.571334 -0.004668 0.000250 90234.800000 0 1 0
8.491782 -10.000520 -22.112428 25.711480 -0.866805 2.606108 0.008611 0.000222 -74920.900000 0 0 1
9.641982 -10.427920 -22.787428 26.851000 -0.824538 2.584247 -0.004151 0.002203 -425579.000000 0 0 1
9.540082 -10.376920 -24.182728 27.991033 -0.827390 2.613849 -0.003546 0.000247 51910.000000 0 0 1
10.592082 -11.202020 -24.944228 29.323914 -0.813377 2.588006 0.019883 -0.001573 124542.000000 0 0 1
10.491082 -12.547920 -24.639828 29.574215 -0.874438 2.555580 0.007966 0.001439 -50529.500000 0 0 1
11.713182 -13.238320 -24.892928 30.530470 -0.846446 2.524125 0.010500 -0.002997 249909.000000 0 0 1
11.685282 -14.763320 -24.674728 31.037777 -0.901255 2.489788 0.004015 -0.005758 88058.300000 0 0 1
10.583482 -15.366220 -25.330018 31.460143 -0.967661 2.506718 0.008873 -0.011708 -182319.000000 0 0 1
10.677582 -16.756220 -25.064828 31.984797 -1.003450 2.471313 0.009486 -0.002765 633591.000000 0 0 1
9.412682 -17.547820 -25.530798 32.378174 -1.078453 2.479193 0.016371 -0.009223 563553.000000 0 0 1
9.526082 -18.223920 -26.779618 33.763966 -1.089135 2.486747 0.020532 -0.012779 -287393.000000 0 0 1
8.326782 -18.887820 -27.129688 34.089661 -1.155574 2.491179 0.023031 -0.015280 79372.400000 0 0 1
8.408682 -19.871620 -28.327828 35.609732 -1.170493 2.490642 0.020088 -0.014480 149441.000000 0 0 1
9.227082 -21.020520 -28.071658 36.263194 -1.157165 2.456102 0.009818 -0.014731 286289.000000 0 0 1
8.884582 -21.956320 -29.089098 37.512549 -1.186289 2.458223 0.011046 -0.016126 202639.000000 0 0 1
9.733482 -23.244520 -28.970998 38.397488 -1.174237 2.425692 0.012260 -0.009050 -19521.700000 0 0 1
9.641682 -24.208820 -30.041608 39.768419 -1.191781 2.427082 0.014669 -0.008484 -331979.000000 0 0 1
10.381282 -25.423720 -29.880948 40.583341 -1.183129 2.398362 0.017605 -0.012334 46695.900000 0 0 1
10.040082 -26.409820 -28.763828 40.319221 -1.207505 2.365138 0.012885 -0.013680 43182.100000 0 0 1
10.083582 -25.839920 -27.500778 39.059862 -1.198738 2.351905 0.006885 -0.005555 -638656.000000 0 0 1
9.234682 -26.348420 -26.496128 38.491081 -1.233691 2.330037 0.006428 0.000983 -229001.000000 0 0 1
8.508782 -25.295220 -25.676588 37.034236 -1.246307 2.336883 0.003729 0.006851 -562904.000000 0 0 1
9.362682 -24.321620 -25.107268 36.188063 -1.203328 2.337548 0.005959 0.010475 -4617.800000 0 0 1
8.675682 -23.090420 -25.172268 35.243127 -1.211389 2.366343 -0.006830 0.009049 -93988.800000 0 0 1
9.688382 -21.980520 -25.010128 34.677290 -1.155643 2.376365 0.003018 0.005972 -136500.000000 0 0 1
10.235182 -21.967720 -23.682628 33.885196 -1.134783 2.344666 0.000774 0.008278 -2100.740000 0 0 1
11.240182 -20.977420 -23.581428 33.503396 -1.078903 2.351602 0.011130 0.000870 93414.100000 0 0 1
11.743782 -20.761220 -22.109228 32.523262 -1.056010 2.318283 0.002866 0.003154 360864.000000 0 0 1
10.773782 -20.159820 -21.228228 31.195037 -1.079994 2.319241 -0.005648 0.008493 274336.000000 0 0 1
10.435682 -18.764120 -21.425428 30.332237 -1.063243 2.355137 0.009593 0.007105 191688.000000 0 0 1
11.639482 -17.796020 -21.244128 30.058090 -0.991579 2.355717 0.000692 0.004840 482235.000000 0 0 1
12.599082 -17.881820 -22.302428 31.239312 -0.957007 2.365880 0.000460 0.009762 362277.000000 0 0 1
13.676182 -16.999820 -21.944228 30.944805 -0.893324 2.359075 0.003198 0.005818 483895.000000 0 0 1
14.898082 -16.928820 -22.890828 32.132970 -0.849117 2.363677 -0.002357 0.013037 -263447.000000 0 0 1
15.924682 -17.823420 -22.521328 32.840219 -0.841601 2.326478 0.005751 0.020355 -541875.000000 0 0 1
17.006782 -17.474320 -23.351928 33.762331 -0.798957 2.334576 0.012548 0.011688 -184962.000000 0 0 1
18.348182 -17.847020 -22.658228 34.184312 -0.771553 2.295382 0.014986 0.007414 21868.200000 0 0 1
18.628882 -19.208320 -22.740828 35.116093 -0.800711 2.275214 0.011417 0.008248 879914.000000 0 0 1
19.875482 -19.583920 -22.101628 35.595598 -0.778009 2.240698 0.008495 0.004089 1012450.000000 0 0 1
20.009882 -21.066820 -21.726428 36.280076 -0.811123 2.212864 0.017046 -0.002968 -319528.000000 0 0 1
19.280382 -21.522620 -20.623228 35.500335 -0.840296 2.190668 0.011976 0.003660 48309.200000 0 0 1
19.366282 -22.938020 -20.613728 36.416087 -0.869628 2.172516 0.026691 -0.001648 -158628.000000 0 0 1
-15.615297 13.305236 29.467525 35.905457 -0.705691 0.608165 -0.004578 -0.008301 -631672.000000 0 0 1
-16.826797 13.774736 28.973055 36.225990 -0.685991 0.643857 0.004065 -0.011376 -575881.000000 0 0 1
-16.914997 13.452436 27.584445 35.042642 -0.671866 0.664593 -0.004528 -0.006199 225204.000000 0 0 1
-18.133697 14.089736 26.866315 35.343323 -0.660553 0.707249 0.010394 0.001784 86162.500000 0 0 1
-18.095097 15.501836 26.970295 35.988001 -0.708363 0.723604 0.009868 0.007285 -379099.000000 0 0 1
-19.116097 16.203936 26.332415 36.350911 -0.703134 0.760640 0.016065 0.006668 -914781.000000 0 0 1
-19.159897 17.732636 26.606765 37.275568 -0.746730 0.775908 0.025881 0.010264 -63363.500000 0 0 1
-18.167097 18.573236 26.075795 36.809721 -0.796452 0.783576 -0.006766 0.013463 204599.000000 0 0 1
-16.911697 18.497236 26.749015 36.656009 -0.830146 0.752868 -0.006891 0.024397 -254005.000000 0 0 1
-15.907597 19.543336 26.242255 36.381995 -0.887598 0.765122 0.004193 0.017076 -445349.000000 0 0 1
-16.225497 20.926136 26.342725 37.351159 -0.911255 0.787990 0.012644 0.008474 -144967.000000 0 0 1
-15.293097 21.732936 25.671595 36.949020 -0.957603 0.802677 0.029128 0.000551 -110807.000000 0 0 1
-15.516397 23.236936 25.759525 38.003511 -0.982046 0.826003 0.028233 -0.002559 -184750.000000 0 0 1
-15.049197 23.813636 26.887685 38.942460 -1.007210 0.808690 0.025837 -0.000258 1473.040000 0 0 1
-15.550097 25.158536 26.931325 40.000671 -1.017186 0.832171 0.022681 -0.001921 37725.500000 0 0 1
-14.895997 26.063836 28.057615 41.090680 -1.051581 0.819178 0.011618 0.001421 210833.000000 0 0 1
-13.550697 26.421036 27.780295 40.662480 -1.096902 0.818671 0.024194 0.004311 -10222.000000 0 0 1
-13.110997 27.136936 28.915075 41.765932 -1.120726 0.806108 0.025732 0.004400 711906.000000 0 0 1
-11.551597 27.252336 28.911755 41.376548 -1.169879 0.797151 0.036855 0.002280 988073.000000 0 0 1
-10.861297 28.139036 28.042935 41.184697 -1.202428 0.821796 0.042199 -0.000162 272374.000000 0 0 1
-9.460097 27.914136 28.035225 40.677589 -1.244044 0.810404 0.022235 -0.001958 114504.000000 0 0 1
-8.761197 28.697336 26.953375 40.333362 -1.274487 0.838922 0.042380 -0.013119 261874.000000 0 0 1
-7.332597 28.629136 26.956775 40.000776 -1.320063 0.831313 0.018472 -0.011810 802297.000000 0 0 1
-6.822197 29.263936 25.788685 39.597684 -1.341761 0.861543 0.028885 -0.018773 65823.800000 0 0 1
-5.320397 28.942636 25.606935 39.008946 -1.389000 0.854710 0.002540 -0.008719 -144648.000000 0 0 1
-4.445497 29.579736 26.536935 39.986649 -1.421624 0.845116 0.008316 -0.006324 993869.000000 0 0 1
-3.072397 29.199136 26.396795 39.481894 -1.465960 0.838499 -0.005843 -0.002226 624876.000000 0 0 1
-2.189097 29.774136 25.309595 39.139071 -1.497405 0.867601 -0.006908 0.003255 -1018450.000000 0 0 1
-2.574297 29.514536 23.940155 38.090233 -1.483795 0.891158 -0.009464 0.006504 -281365.000000 0 0 1
-2.133797 30.532936 23.079255 38.333605 -1.501025 0.924714 -0.006251 0.004606 -886670.000000 0 0 1
-2.591897 30.389336 21.632755 37.392589 -1.485713 0.953870 -0.009841 0.011801 570560.000000 0 0 1
-4.013897 30.268536 21.586955 37.393746 -1.438956 0.955393 -0.011119 0.018123 313899.000000 0 0 1
-4.465897 28.913436 21.719855 36.437386 -1.417550 0.932177 -0.014770 0.011649 -1239050.000000 0 0 1
-5.898297 28.576536 21.370355 36.167670 -1.367251 0.938661 0.000684 0.009886 -1180650.000000 0 0 1
-6.244197 29.050836 20.054355 35.848545 -1.359077 0.977112 -0.015624 0.018286 -55163.800000 0 0 1
-7.258997 28.308936 19.419755 35.088684 -1.319784 0.984298 -0.013707 0.011267 -1146750.000000 0 0 1
-6.945097 26.959636 18.916555 33.658467 -1.318667 0.973977 -0.032276 0.010978 224292.000000 0 0 1
-6.109497 26.863336 17.704355 32.747656 -1.347171 0.999611 -0.027012 0.011132 941608.000000 0 0 1
-4.732497 27.050936 17.985655 32.827328 -1.397601 0.990960 -0.022927 0.015983 -271473.000000 0 0 1
-3.762297 27.092436 16.790655 32.094876 -1.432810 1.020245 -0.018682 0.012100 -53547.100000 0 0 1
-3.566597 25.900036 16.058355 30.682295 -1.433951 1.019989 -0.013370 0.006553 -55208.400000 0 0 1
-2.912097 26.195436 14.853555 30.254078 -1.460083 1.057604 -0.003968 -0.002510 -413341.000000 0 0 1
-2.219297 24.950736 14.257155 28.822404 -1.482083 1.053358 -0.014260 -0.008633 578988.000000 0 0 1
-1.135797 24.409136 15.039855 28.693086 -1.524298 1.019064 -0.002736 -0.004866 825242.000000 0 0 1
-0.376897 23.477036 14.236855 27.459084 -1.554744 1.025730 0.004930 -0.018048 126617.000000 0 0 1
0.900003 22.996136 14.969455 27.453904 1.531679 0.994100 -0.003018 -0.009750 268985.000000 0 0 1
1.927203 23.976136 15.004655 28.349760 1.490589 1.013057 0.008699 -0.015877 113955.000000 0 0 1
3.071503 23.523536 15.685655 28.439948 1.440959 0.986592 0.009523 -0.006245 -69239.200000 0 0 1
4.280403 24.464736 15.614155 29.336786 1.397587 1.009554 0.013095 -0.003688 -419084.000000 0 0 1
5.532503 23.851636 15.708655 29.090737 1.342872 1.000373 0.010308 0.003694 -552895.000000 0 0 1
6.510903 24.853736 15.678555 30.098457 1.314585 1.022881 0.009647 0.008119 -786028.000000 0 0 1
7.953403 24.368536 15.641555 30.028993 1.255317 1.022913 0.005994 0.020363 -484591.000000 0 0 1
8.329303 23.852036 14.383155 29.071843 1.234828 1.053255 0.012660 0.017133 11267.900000 0 0 1
9.383403 24.555536 13.760355 29.671029 1.205790 1.088557 0.013295 0.011731 -130009.000000 0 0 1
10.018003 23.776536 12.605755 28.715660 1.172030 1.116327 0.019437 0.011228 73131.300000 0 0 1
10.672003 22.538336 12.929355 28.089793 1.128569 1.092478 0.020125 0.009995 17671.200000 0 0 1
11.151903 21.871036 11.801655 27.239424 1.099265 1.122694 0.026656 0.002497 226327.000000 0 0 1
12.463703 21.073036 12.040955 27.283719 1.036685 1.113723 0.019234 0.001626 158535.000000 0 0 1
12.395003 20.040736 12.960155 26.892988 1.016892 1.067957 0.029939 0.003475 -104112.000000 0 0 1
13.529803 19.198336 12.906855 26.799600 0.956897 1.068310 0.033054 -0.004109 -141725.000000 0 0 1
13.693203 18.580036 14.296255 27.149668 0.935677 1.016233 0.035023 -0.000155 -93640.100000 0 0 1
14.937203 17.909836 14.366555 27.391242 0.875652 1.018675 0.021693 -0.003810 79655.200000 0 0 1
15.289603 17.624536 15.709755 28.128147 0.856220 0.978212 0.015038 -0.006677 263296.000000 0 0 1
16.593003 16.786936 15.772055 28.388144 0.791208 0.981729 0.008945 -0.007560 251820.000000 0 0 1
17.010503 16.548436 17.125455 29.265836 0.771630 0.945708 0.012219 -0.010484 179297.000000 0 0 1
18.250103 15.867036 17.167155 29.657045 0.715662 0.953471 0.007821 -0.005714 -20018.300000 0 0 1
18.653503 15.493236 18.612055 30.567992 0.693111 0.916156 0.016358 -0.007605 -456434.000000 0 0 1
19.145803 16.608936 19.331555 31.876756 0.714565 0.919212 0.015568 -0.002859 217653.000000 0 0 1
18.205503 17.404736 20.069155 32.204598 0.762915 0.897998 0.006808 -0.005368 99201.700000 0 0 1
18.819303 18.609836 20.807455 33.666636 0.779802 0.904544 0.004492 -0.001555 -213285.000000 0 0 1
17.785603 19.310836 21.432155 33.890608 0.826490 0.886159 0.014490 0.003071 178839.000000 0 0 1
18.317203 20.519036 21.961555 35.197453 0.842033 0.897005 0.015225 0.001358 499386.000000 0 0 1
17.200303 21.568336 22.324055 35.488124 0.897594 0.890457 0.016420 0.005018 216951.000000 0 0 1
16.538803 21.186436 23.489455 35.695260 0.907977 0.852563 0.016996 0.001504 -224817.000000 0 0 1
15.843603 22.333236 23.913855 36.354720 0.953777 0.852912 0.011552 -0.003462 -303641.000000 0 0 1
15.111103 22.203236 25.221455 36.843601 0.973222 0.816804 0.020959 -0.006865 331107.000000 0 0 1
14.079403 21.200036 25.295795 35.882424 0.984558 0.788425 0.021004 -0.001731 275259.000000 0 0 1
13.568803 21.084136 26.628795 36.575209 0.998965 0.755315 0.027830 -0.002305 -91656.200000 0 0 1
12.388303 20.094636 26.587215 35.554809 1.018334 0.726083 0.037026 -0.000615 -218593.000000 0 0 1
12.755103 18.727036 26.503095 34.868447 0.972864 0.707347 0.032575 0.002293 -227007.000000 0 0 1
13.187903 18.232836 25.236585 33.811866 0.944600 0.728187 0.039287 -0.008844 -96326.300000 0 0 1
12.247403 18.199836 23.962755 32.487637 0.978463 0.741293 0.036498 -0.007622 -257398.000000 0 0 1
12.179903 19.349336 23.106755 32.506445 1.008986 0.780110 0.030876 -0.001313 183313.000000 0 0 1
13.362503 19.733836 22.378255 32.692003 0.975580 0.816854 0.026564 0.000341 782738.000000 0 0 1
14.046403 18.654336 21.402155 31.675510 0.925389 0.828925 0.030680 -0.002131 272800.000000 0 0 1
13.153503 18.111136 20.440255 30.312240 0.942659 0.830748 0.028729 -0.005850 -6610.750000 0 0 1
13.810903 17.064936 19.780155 29.550087 0.890401 0.837426 0.036809 -0.008892 -13919.000000 0 0 1
12.913403 16.217736 18.860755 28.026755 0.898345 0.832599 0.041600 -0.010503 -117433.000000 0 0 1
12.478703 16.891936 17.712955 27.473702 0.934542 0.870134 0.043493 0.000955 197855.000000 0 0 1
11.433703 16.173636 17.070155 26.147777 0.955431 0.859477 0.038429 -0.009164 523373.000000 0 0 1
10.886103 16.717536 15.699455 25.386141 0.993593 0.904058 0.033019 -0.002497 245566.000000 0 0 1
10.354703 18.047936 15.676655 26.051975 1.049914 0.925112 0.024884 0.001702 239830.000000 0 0 1
9.743503 18.310336 14.399855 25.249952 1.081775 0.963935 0.013464 0.005050 565170.000000 0 0 1
8.781003 19.577336 14.450055 25.868556 1.149166 0.978105 0.013200 0.007968 754700.000000 0 0 1
7.511303 19.314536 15.027255 25.598620 1.199901 0.943406 -0.002812 0.006957 79377.400000 0 0 1
6.713503 20.479836 15.022055 26.270838 1.254025 0.962080 -0.003291 0.005716 -294520.000000 0 0 1
5.342103 20.468136 15.661655 26.320526 1.315495 0.933486 0.001403 0.009431 -116995.000000 0 0 1
4.357203 19.671336 15.011855 25.125733 1.352816 0.930455 -0.002321 0.008232 655912.000000 0 0 1
3.145503 19.542336 15.787455 25.318784 1.411207 0.897525 -0.008963 0.009541 941712.000000 0 0 1
1.979503 18.911136 15.007255 24.223278 1.466502 0.902642 -0.007537 0.006096 -399433.000000 0 1 0
1.315703 19.747636 14.121855 24.313103 1.504269 0.951045 -0.007920 -0.003085 -424406.000000 0 1 0
0.380703 18.998636 13.383455 23.242417 1.550761 0.957189 -0.005039 -0.007878 -147709.000000 0 1 0
-0.352397 19.911836 12.320155 23.417763 -1.553100 1.016785 0.003932 -0.015317 388494.000000 0 1 0
-1.360297 20.650536 13.027455 24.454235 -1.505019 1.008976 0.004720 -0.005979 516215.000000 0 1 0
-2.547297 20.657836 12.226755 24.139769 -1.448107 1.039677 0.006260 -0.020554 390714.000000 0 1 0
-3.612997 21.692736 12.635555 25.363079 -1.405758 1.049290 -0.000430 -0.008593 145909.000000 0 0 1
-4.414697 21.155536 13.674755 25.574307 -1.365071 1.006636 0.005186 0.001794 340691.000000 0 0 1
-5.375797 22.088836 14.212455 26.810627 -1.332066 1.012072 -0.008108 0.015802 77132.300000 0 0 1
-6.135997 21.514636 15.417255 27.170237 -1.292971 0.967413 -0.008442 0.022029 -939920.000000 0 0 1
-6.996897 20.459336 15.021555 26.328465 -1.241275 0.963628 -0.003210 0.021459 115436.000000 0 0 1
-7.562897 19.716636 16.078955 26.541965 -1.204525 0.920033 -0.000059 0.035410 614356.000000 0 0 1
-8.690397 20.367136 16.970355 27.898677 -1.167497 0.916898 -0.003398 0.032754 524604.000000 0 0 1
-9.987397 20.439736 16.437255 28.066247 -1.116289 0.945103 -0.007898 0.025567 213194.000000 0 0 1
-11.014897 19.665636 17.068855 28.273857 -1.060225 0.922665 -0.012833 0.022323 981207.000000 0 0 1
-12.189897 19.457536 16.033055 28.004430 -1.011128 0.961222 -0.002136 0.012551 800879.000000 0 0 1
-12.973597 20.668736 15.737155 29.037371 -1.010264 0.998026 -0.003069 0.016039 496085.000000 0 0 1
-13.567497 20.589636 14.465055 28.587548 -0.988157 1.040265 0.001137 0.008154 481431.000000 0 0 1
-14.633697 21.756736 14.197055 29.817059 -0.978694 1.074538 0.006740 -0.001110 378710.000000 0 0 1
-15.803697 21.608236 14.946655 30.660645 -0.939323 1.061587 0.007752 -0.000256 -541876.000000 0 0 1
-16.678897 22.708036 14.801555 31.826506 -0.937294 1.087083 0.022668 -0.009459 56918.100000 0 0 1
-17.945897 22.479136 15.652555 32.747049 -0.897071 1.072439 0.056466 -0.022825 -459097.000000 0 0 1
-18.830397 21.483136 15.138755 32.330958 -0.851106 1.083495 0.041249 -0.017848 1655200.000000 0 0 1
-20.094397 21.427036 15.884555 33.394936 -0.817482 1.075085 0.035044 -0.018150 2187730.000000 0 0 1
-21.148697 22.592036 15.799155 34.745946 -0.818384 1.098755 0.027194 -0.017497 -219553.000000 0 0 1
-21.960597 22.748236 14.665355 34.854306 -0.803013 1.136512 0.022040 -0.004387 325527.000000 0 0 1
-22.813397 23.885836 14.744955 36.171783 -0.808359 1.150932 0.031282 -0.009219 23153.600000 0 0 1
-22.278997 25.226536 14.139555 36.505600 -0.847365 1.173067 0.020679 0.000925 -373340.000000 0 0 1
-21.123997 25.699636 14.782555 36.403550 -0.882810 1.152642 0.018129 -0.006657 -392966.000000 0 0 1
-20.588497 26.675136 13.963355 36.474982 -0.913474 1.177949 0.010284 0.004440 -731738.000000 0 0 1
-19.146697 26.977436 14.383455 36.073007 -0.953570 1.160663 0.023014 -0.003187 151600.000000 0 0 1
-18.152797 26.183636 13.681555 34.674079 -0.964589 1.165190 0.024891 0.002639 240189.000000 0 0 1
-16.909697 26.826136 13.702055 34.544547 -1.008363 1.162933 0.018918 -0.003118 -613553.000000 0 0 1
-15.970097 26.227136 12.656155 33.212722 -1.023847 1.179850 0.019745 -0.002645 -410257.000000 0 0 1
-14.672097 26.739236 12.786255 33.071823 -1.068944 1.173832 0.017239 -0.001616 -52201.700000 0 0 1
-13.686697 26.031336 12.032155 31.776231 -1.086740 1.182456 0.013140 0.000126 530571.000000 0 0 1
-12.274697 26.625636 12.229855 31.767310 -1.138824 1.175608 0.003869 0.004581 36357.300000 0 0 1
-11.253697 26.068336 11.442955 30.612825 -1.163265 1.187698 -0.006790 0.007308 1844580.000000 0 0 1
-9.868797 26.497736 11.631755 30.574840 -1.214273 1.180529 -0.000859 0.002480 1889370.000000 0 0 1
-9.363397 27.863636 11.008255 31.388486 -1.246609 1.212467 -0.002369 -0.003479 -557573.000000 0 0 1
-8.144597 28.300036 11.523255 31.622964 -1.290574 1.197813 0.004726 -0.006826 -341681.000000 0 0 1
-7.816197 29.531036 10.928955 32.444060 -1.312052 1.227221 0.012316 -0.008862 249892.000000 0 0 1
-6.504297 30.161236 11.505655 32.930018 -1.358398 1.213869 0.009662 -0.008701 -136852.000000 0 0 1
-5.343997 29.546636 11.094755 32.010242 -1.391864 1.216852 0.031871 -0.009805 -1118520.000000 0 0 1
-4.200897 30.042536 11.737555 32.526477 -1.431866 1.201605 0.026461 -0.015345 -376891.000000 0 0 1
-2.973397 29.595136 10.927555 31.687925 -1.470663 1.218718 0.025370 -0.017435 -452033.000000 0 0 1
-2.922397 30.302236 9.699155 31.950579 -1.474652 1.262362 0.039550 -0.022482 354157.000000 0 0 1
-1.672797 30.145336 9.039955 31.516032 -1.515362 1.279873 0.022224 -0.024061 430260.000000 0 0 1
-1.554297 30.935336 7.724255 31.922953 -1.520595 1.326405 0.009892 -0.024530 -412530.000000 0 0 1
-2.338097 30.331036 6.766255 31.164413 -1.493863 1.351939 0.022680 -0.020691 -62392.900000 0 0 1
-2.588097 31.145936 5.640855 31.758256 -1.487891 1.392230 0.015384 -0.014037 28552.300000 0 0 1
9.920603 -34.349020 -27.139118 44.886582 -1.289630 2.220079 0.041923 -0.000450 -64534.800000 0 0 1
10.628803 -34.312120 -25.922438 44.297469 -1.270402 2.195911 0.024547 0.003365 49718.500000 0 0 1
11.962203 -33.880620 -26.073558 44.393931 -1.231390 2.198543 0.026950 0.003280 67009.100000 0 0 1
12.638403 -33.768620 -24.699628 43.704926 -1.212670 2.171406 0.016807 0.012325 -474541.000000 0 0 1
12.172203 -32.593720 -24.101128 42.324667 -1.213383 2.176614 0.006574 0.022924 230262.000000 0 0 1
12.653703 -32.352020 -22.797328 41.551023 -1.197964 2.151555 0.000514 0.014982 1326060.000000 0 0 1
14.193903 -32.048320 -22.501728 41.652004 -1.153870 2.141509 -0.009592 0.016417 1528820.000000 0 0 1
15.017703 -33.208120 -22.602128 42.885508 -1.146090 2.125903 -0.003746 0.012812 894915.000000 0 0 1
16.407103 -32.873820 -22.451928 43.057753 -1.107874 2.119331 -0.011497 0.012320 1149590.000000 0 0 1
17.384903 -34.113920 -22.496928 44.408402 -1.099488 2.102023 -0.010157 0.011956 357965.000000 0 0 1
18.765803 -33.856420 -22.349728 44.698130 -1.064676 2.094412 0.005256 0.014722 488055.000000 0 0 1
19.467703 34.189536 -22.388828 45.267819 1.053177 2.088155 0.010383 0.017333 570332.000000 0 0 1
21.013703 34.327136 -22.228728 45.978738 1.021484 2.075396 0.018573 0.019748 403155.000000 0 0 1
21.702303 -34.488320 -23.369128 46.973932 -1.009136 2.091501 0.018864 0.024723 -1072640.000000 0 0 1
23.035203 -34.360420 -23.046628 47.354050 -0.980214 2.079090 0.015270 0.022979 -812485.000000 0 0 1
23.842503 -33.733020 -24.229528 47.889995 -0.955521 2.101269 0.021127 0.010780 -51829.300000 0 0 1
23.861103 -32.320420 -24.322728 46.963357 -0.934847 2.115201 0.027395 0.006660 416773.000000 0 0 1
22.640103 -31.676720 -24.726128 46.123424 -0.950257 2.136590 0.014133 0.010853 539593.000000 0 0 1
22.601703 -30.176820 -24.483128 44.954432 -0.927951 2.146733 0.010158 -0.008152 -330542.000000 0 0 1
23.500403 -29.429920 -25.253208 45.344389 -0.896958 2.161469 0.014867 -0.013166 -241243.000000 0 0 1
23.563803 -28.069920 -24.777728 44.239225 -0.872448 2.165285 0.023404 -0.002179 228849.000000 0 0 1
24.284203 -27.122420 -25.713638 44.570611 -0.840553 2.185748 0.017106 0.002308 266687.000000 0 0 1
23.433103 -26.930420 -26.848118 44.667429 -0.854728 2.215632 0.007578 -0.000485 71613.500000 0 0 1
24.137703 -26.504220 -28.016188 45.497353 -0.832095 2.234167 0.004544 -0.003359 -620956.000000 0 0 1
23.275903 -26.048420 -29.217508 45.540648 -0.841549 2.267339 -0.003119 -0.002664 -181794.000000 0 0 1
22.534603 -24.894720 -29.095038 44.430582 -0.835118 2.284771 0.008017 -0.004537 -1099570.000000 0 0 1
21.270103 -25.091120 -28.566868 43.566587 -0.867631 2.285913 0.000711 -0.002114 -1250750.000000 0 0 1
20.535003 -23.822020 -28.195858 42.239571 -0.859367 2.301673 0.006271 -0.001790 -147367.000000 0 0 1
20.267403 -22.942920 -29.297738 42.373372 -0.847238 2.334247 0.024714 -0.002861 -181684.000000 0 0 1
19.535503 -21.831420 -28.920728 41.166191 -0.840843 2.349751 0.022429 0.002890 -679716.000000 0 0 1
18.602103 -21.352820 -30.034228 41.279971 -0.854135 2.385575 0.028921 -0.009992 89064.900000 0 0 1
17.437203 -22.168120 -30.021208 41.191680 -0.904286 2.387389 0.025412 -0.012987 249995.000000 0 0 1
16.314603 -21.571020 -30.647048 40.874402 -0.923262 2.418535 0.019649 -0.017496 673027.000000 0 0 1
15.053503 -22.502820 -30.588788 40.849220 -0.981207 2.417079 0.015041 -0.019148 118842.000000 0 0 1
15.249203 -23.703720 -31.279458 42.104738 -0.999128 2.408183 0.013911 -0.012965 -174414.000000 0 0 1
14.311003 -24.647420 -30.897138 42.034905 -1.044742 2.396515 0.019809 -0.014635 -558222.000000 0 0 1
14.650703 -25.979220 -31.610988 43.460528 -1.057314 2.385248 0.028663 -0.013062 117704.000000 0 0 1
13.783103 -27.058620 -31.336108 43.635931 -1.099673 2.371902 0.030657 -0.007493 -16279.700000 0 0 1
14.403903 -28.306820 -31.627748 44.822571 -1.100094 2.354095 0.029269 -0.010741 250187.000000 0 0 1
13.990503 -29.488120 -30.727988 44.827364 -1.127801 2.326051 0.024064 -0.017236 -70598.200000 0 0 1
14.424103 -29.531420 -29.366288 44.074237 -1.116446 2.300021 0.030990 -0.015782 -223062.000000 0 0 1
13.856603 -28.549820 -28.564288 42.696794 -1.118939 2.303663 0.021855 -0.013186 -209488.000000 0 0 1
14.539103 -28.317320 -27.173428 41.852733 -1.096459 2.277411 0.014166 0.004189 -175784.000000 0 0 1
14.411203 -29.431120 -26.316378 42.028863 -1.115456 2.247402 0.015229 0.006467 -197533.000000 0 0 1
15.290103 -29.409720 -25.229918 41.656543 -1.091356 2.221398 0.017292 -0.000639 -1429620.000000 0 0 1
15.012703 -28.381420 -24.066528 40.125852 -1.084248 2.214018 0.013647 0.002422 1475590.000000 0 0 1
13.795603 -28.726820 -23.326228 39.492553 -1.123086 2.202659 0.005204 0.003528 661972.000000 0 0 1
12.599203 -28.508120 -24.001528 39.338609 -1.154656 2.227017 0.005833 0.010590 -860208.000000 0 0 1
11.433903 -28.248120 -22.971128 38.162326 -1.186187 2.216715 -0.003836 0.014446 467230.000000 0 0 1
11.520103 -27.015920 -22.252428 36.847567 -1.167724 2.219188 -0.002103 0.018292 175419.000000 0 0 1
10.205903 -26.696020 -21.830028 35.963704 -1.205641 2.223079 -0.002257 0.014895 85180.000000 0 0 1
10.005603 -25.148020 -21.605228 34.631212 -1.192129 2.244476 -0.006022 0.012020 -96772.900000 0 0 1
10.351703 -24.589120 -20.351028 33.555132 -1.172330 2.222441 -0.011982 0.010935 133802.000000 0 0 1
9.969403 -23.229020 -20.304428 32.422926 -1.165392 2.247513 -0.011860 0.010773 -145773.000000 0 0 1
10.391303 -22.480520 -18.994928 31.211540 -1.137814 2.225075 -0.022447 0.015582 -46233.200000 0 0 1
9.555103 -22.857920 -17.935628 30.585474 -1.174851 2.197416 -0.016613 0.012573 207179.000000 0 0 1
9.881803 -22.107720 -16.786328 29.464930 -1.150453 2.176944 -0.015309 0.015165 -208868.000000 0 0 1
9.120503 -22.568420 -15.532528 28.875189 -1.186737 2.138764 -0.009583 0.017399 -110410.000000 0 0 1
9.613903 -23.716220 -14.910228 29.617581 -1.185667 2.098354 -0.004175 0.013087 31355.500000 0 0 1
8.752503 -24.156620 -13.873228 29.199572 -1.223186 2.065894 -0.003601 0.009614 11212.000000 0 0 1
8.928503 -25.701020 -13.599828 30.417362 -1.236441 2.034325 -0.001975 0.010254 262420.000000 0 0 1
10.173603 -26.178620 -13.115028 30.997198 -1.200136 2.007664 -0.003160 0.007074 -56108.800000 0 0 1
10.318703 -27.574620 -13.403028 32.349288 -1.212718 1.997994 0.000917 -0.001479 -418690.000000 0 0 1
11.648903 -28.202920 -12.903328 33.130009 -1.179100 1.970858 0.010444 -0.003982 75930.500000 0 0 1
12.882003 -27.827420 -13.455328 33.486671 -1.137246 1.984290 0.024549 -0.003057 -202115.000000 0 0 1
12.985103 -28.049720 -14.850528 34.291950 -1.137241 2.018683 0.025898 -0.002693 141013.000000 0 0 1
14.431803 -27.630920 -15.355828 34.749764 -1.089463 2.028509 0.021123 -0.000184 1098010.000000 0 0 1
15.483803 -28.491220 -15.041228 35.745437 -1.072989 2.005109 0.042243 -0.003204 58664.900000 0 0 1
16.645703 -28.225320 -15.817028 36.385800 -1.037952 2.020505 0.049571 -0.011901 1094530.000000 0 0 1
17.872703 -29.177920 -15.573728 37.594222 -1.021206 1.997924 0.048738 -0.014566 733852.000000 0 0 1
17.831603 -30.374220 -16.312928 38.815859 -1.039943 2.004533 0.046952 -0.005964 196725.000000 0 0 1
19.147703 -30.874620 -16.539128 39.917658 -1.015673 1.998004 0.053809 -0.000540 556186.000000 0 0 1
19.346403 -32.027320 -17.553828 41.330006 -1.027397 2.009453 0.031526 0.005072 -638512.000000 0 0 1
18.982303 -33.325220 -17.125328 42.002083 -1.053024 1.990758 0.034278 0.010133 -28515.600000 0 0 1
19.194403 -34.225120 -18.188228 43.250382 -1.059678 2.004829 0.017392 0.018154 75313.000000 0 0 1
18.947303 33.636536 -17.637528 42.444072 1.057803 1.999341 0.009281 0.015011 -157671.000000 0 0 1
20.014203 33.164936 -16.862228 42.247083 1.027826 1.981368 0.034550 0.009803 -143703.000000 0 0 1
19.781203 31.812036 -16.394628 40.891141 1.014491 1.983332 0.015513 0.011779 -26818.400000 0 0 1
20.811103 31.353836 -15.326228 40.633217 0.984816 1.957551 0.024285 0.009689 -450585.000000 0 0 1
22.078803 31.102136 -15.882628 41.316755 0.953470 1.965366 0.040841 0.006443 -83058.700000 0 0 1
23.106303 30.863236 -14.944128 41.349335 0.928149 1.940578 0.048363 -0.002544 159736.000000 0 0 1
22.951703 29.619536 -14.014528 40.006307 0.911559 1.928696 0.037680 0.006136 -1125310.000000 0 0 1
22.843703 28.408336 -14.687528 39.301295 0.893548 1.953809 0.042476 0.012390 185994.000000 0 0 1
22.497803 27.234036 -13.972228 37.987722 0.880347 1.947448 0.017169 0.018000 1454140.000000 0 0 1
20.968603 27.150436 -13.517928 36.872251 0.913168 1.946165 0.015695 0.018073 1358370.000000 0 0 1
20.011303 26.980336 -14.541228 36.603799 0.932629 1.979326 0.008768 0.018703 -87289.400000 0 0 1
18.658303 27.041736 -14.174628 35.781389 0.966826 1.978111 0.015287 0.012881 42435.200000 0 0 1
18.025903 28.484936 -14.394628 36.654196 1.006592 1.974378 0.005088 0.011484 -113136.000000 0 0 1
17.890503 29.123736 -15.684828 37.606860 1.019934 2.001019 0.000841 0.012794 -61546.800000 0 0 1
17.108603 28.515236 -16.668228 37.197484 1.030391 2.035436 -0.017922 0.018409 -314164.000000 0 0 1
17.283903 29.253136 -18.020528 38.460612 1.037140 2.058439 -0.013631 0.020786 -216326.000000 0 0 1
16.481803 30.400636 -18.110728 39.036482 1.073997 2.053238 -0.007956 0.020505 -29901.000000 0 0 1
16.635703 31.001436 -19.432528 40.192770 1.078291 2.075426 -0.013802 0.027220 102510.000000 0 0 1
15.639603 32.169336 -19.820528 40.893969 1.118278 2.076795 -0.016577 0.028874 358420.000000 0 0 1
15.898903 33.416236 -19.124028 41.655112 1.126709 2.047783 -0.010225 0.025249 70320.000000 0 0 1
15.137503 34.505736 -19.592728 42.469575 1.157383 2.050296 -0.009691 0.020914 -162427.000000 0 0 1
15.266603 -33.559720 -18.675828 41.329293 -1.143868 2.039667 -0.011211 0.012560 147660.000000 0 0 1
14.348703 -32.509120 -18.983128 40.287557 -1.155138 2.061437 -0.006831 0.017377 174824.000000 0 0 1
14.041703 -31.896020 -17.745828 39.108054 -1.156094 2.041781 0.006680 0.012312 132229.000000 0 0 1
12.855103 -30.906220 -17.826228 37.923904 -1.176625 2.060147 0.006031 0.010853 814099.000000 0 0 1
11.557903 -31.466520 -18.071428 38.082850 -1.218786 2.065226 0.006757 0.015595 -5785.640000 0 0 1
10.549003 -30.506720 -18.075928 36.995683 -1.237874 2.081276 -0.007961 0.017956 -621395.000000 0 0 1
9.242003 -31.245320 -18.345528 37.393088 -1.283208 2.083589 0.003892 0.015744 -1772220.000000 0 0 1
8.780403 -32.079720 -17.271328 37.476695 -1.303634 2.049755 0.006146 0.012406 -458108.000000 0 0 1
7.689403 -32.854020 -17.632428 38.071197 -1.340887 2.052335 0.016249 0.013117 -130808.000000 0 0 1
6.317703 -32.220420 -18.004928 37.446578 -1.377175 2.072382 0.015290 0.017774 -522036.000000 0 0 1
6.298603 -31.613020 -19.345828 37.594101 -1.374131 2.111334 0.011570 0.014698 -184238.000000 0 0 1
6.074303 -32.579420 -20.340528 38.885123 -1.386467 2.121272 0.012227 0.009972 -1379390.000000 0 0 1
6.256503 -32.020220 -21.785928 39.230918 -1.377835 2.159551 0.002086 0.018757 1098380.000000 0 0 1
7.630703 -31.671420 -22.115628 39.375214 -1.334369 2.167192 0.014216 0.015359 1633510.000000 0 0 1
8.676503 -32.626520 -21.987928 40.289458 -1.310878 2.148079 0.015108 0.004861 -369389.000000 0 0 1
8.632403 -33.785620 -23.095328 41.825598 -1.320643 2.155775 0.012146 0.006587 307334.000000 0 0 1
7.520603 34.590136 -22.947628 42.185668 1.356708 2.145954 0.008449 0.003954 602044.000000 0 0 1
7.379503 33.793136 -24.073228 42.142062 1.355799 2.178812 0.000610 -0.001312 -451053.000000 0 0 1
6.224803 32.770936 -23.989328 41.087349 1.383084 2.194274 0.008251 -0.008295 -105794.000000 0 0 1
4.899803 33.198136 -24.037228 41.278476 1.424262 2.192374 0.008442 -0.005193 -377457.000000 0 0 1
4.422703 33.852736 -22.904628 41.111920 1.440887 2.161720 0.002606 -0.009952 -395174.000000 0 0 1
3.126503 -34.607120 -23.166928 41.762834 -1.480698 2.158830 -0.001700 0.000518 1242320.000000 0 0 1
1.928703 33.890036 -23.121928 41.071620 1.513947 2.168767 -0.009194 -0.004963 938102.000000 0 0 1
0.756903 34.609936 -23.504028 41.843278 1.548930 2.167254 -0.009043 0.004101 719948.000000 0 0 1
-0.558697 34.010636 -22.925628 41.019750 -1.554371 2.163846 -0.014655 -0.001603 144665.000000 0 0 1
-0.676897 34.123936 -21.566328 40.373353 -1.550963 2.134325 -0.015211 0.004067 210799.000000 0 0 1
-1.821697 33.415236 -21.079628 39.550566 -1.516333 2.132914 -0.009600 0.004943 746308.000000 0 0 1
-2.250097 33.776436 -19.629028 39.130669 -1.504277 2.096276 -0.009314 0.002815 826790.000000 0 0 1
-1.194997 33.349036 -18.745428 38.275021 -1.534979 2.082606 -0.022289 -0.002878 509681.000000 0 0 1
-1.699697 33.263636 -17.434728 37.594257 -1.519743 2.053031 -0.023308 0.000020 -183158.000000 0 0 1
-1.001897 32.309536 -16.492228 36.289165 -1.539797 2.042570 -0.025271 -0.000218 412720.000000 0 0 1
0.323303 32.723136 -16.145628 36.490950 1.560917 2.029131 -0.021952 -0.005786 170995.000000 0 0 1
0.802503 31.800936 -15.206128 35.258614 1.545566 2.016701 -0.016257 0.005341 431908.000000 0 0 1
1.756503 32.442236 -14.131928 35.430147 1.516707 1.981078 -0.001190 -0.004259 99210.600000 0 0 1
2.929903 32.970336 -14.697628 36.216676 1.482164 1.988678 0.013339 -0.008575 -355578.000000 0 0 1
3.823503 33.393736 -13.692028 36.293696 1.456795 1.957628 0.025839 -0.013681 -93137.000000 0 0 1
5.259703 33.638936 -14.196928 36.888958 1.415695 1.965848 0.040828 -0.017674 -23386.700000 0 0 1
5.905903 32.428336 -14.516928 36.016911 1.390649 1.985653 0.041420 -0.008647 -580677.000000 0 0 1
7.148803 32.712536 -15.135028 36.746217 1.355645 1.995312 0.020729 0.001883 33643.400000 0 0 1
8.049403 31.420036 -15.068628 35.764159 1.320003 2.005711 0.016546 -0.000568 333819.000000 0 0 1
8.639703 31.201136 -13.764028 35.179594 1.300661 1.972786 0.009533 -0.006746 69854.600000 0 0 1
9.546703 30.082436 -13.718628 34.413562 1.263498 1.980830 0.005452 0.003243 348587.000000 0 0 1
8.967803 28.634236 -13.753428 33.007541 1.267288 2.000581 0.014483 -0.005062 -484500.000000 0 0 1
8.406403 28.254936 -14.952528 33.054305 1.281616 2.040209 0.032984 -0.008187 -214081.000000 0 0 1
7.906303 26.959936 -14.735428 31.725078 1.285533 2.053835 0.025864 -0.001816 -176912.000000 0 0 1
7.028703 26.240236 -15.806628 31.429320 1.309080 2.097777 0.026468 -0.001407 357655.000000 0 0 1
7.847103 25.720436 -16.831828 31.724254 1.274674 2.130065 0.031605 0.002768 -332235.000000 0 0 1
7.120403 25.164936 -17.855628 31.666979 1.295055 2.169844 0.018893 0.008614 -334850.000000 0 0 1
7.865903 23.958036 -18.445028 31.242262 1.253564 2.202335 0.023000 0.015076 -287597.000000 0 0 1
7.234903 23.131836 -19.358228 31.018811 1.267667 2.244750 0.019444 0.008835 -620831.000000 0 0 1
8.143303 22.133636 -19.748528 30.760617 1.218251 2.267909 0.014192 0.008790 -150694.000000 0 0 1
7.632903 21.223336 -20.937028 30.774183 1.225554 2.319028 0.007653 0.000697 -229813.000000 0 0 1
6.684103 20.314036 -20.481328 29.611182 1.252916 2.334603 0.003362 0.009668 -192048.000000 0 0 1
6.166503 19.435436 -21.495728 29.628166 1.263561 2.382581 -0.004974 0.015628 157410.000000 0 0 1
24.543903 -12.904164 -9.788028 29.406226 -0.484041 1.910127 0.026837 0.001951 -108633.000000 0 0 1
24.971303 -12.168364 -8.652328 29.094636 -0.453431 1.872750 0.022644 0.001318 715175.000000 0 0 1
23.950703 -12.248264 -7.671328 27.973299 -0.472722 1.848593 0.024475 0.005527 -276483.000000 0 0 1
24.439503 -11.702364 -6.303528 27.820300 -0.446569 1.799361 0.003056 0.008027 -261759.000000 0 0 1
24.612803 -10.297164 -6.201028 27.391138 -0.396238 1.799164 0.011871 0.013316 716342.000000 0 0 1
25.831003 -9.789064 -6.753728 28.437288 -0.362243 1.810583 0.014139 0.010697 -407445.000000 0 0 1
26.101203 -8.296664 -6.418128 28.130052 -0.307765 1.800983 0.045016 0.011130 -71655.200000 0 0 1
26.642503 -8.073164 -5.111628 28.304199 -0.294224 1.752389 0.039791 0.004597 185285.000000 0 0 1
28.011803 -8.360164 -4.983028 29.654410 -0.290036 1.739634 0.032196 0.007692 -590494.000000 0 0 1
28.539203 -8.164264 -3.556128 29.896277 -0.278630 1.690027 0.034773 0.005578 -251052.000000 0 0 1
28.806403 -6.814164 -3.213528 29.775300 -0.232281 1.678933 0.038596 0.007064 398718.000000 0 0 1
29.170703 -6.618664 -1.836428 29.968469 -0.223117 1.632113 0.029063 0.004553 -144810.000000 0 0 1
29.531703 -5.141664 -1.507528 30.013844 -0.172379 1.621045 0.027170 0.000102 -64149.000000 0 0 1
28.422803 -4.474864 -0.936228 28.788134 -0.156157 1.603323 0.024504 -0.002186 60276.700000 0 0 1
28.698403 -3.153064 -0.467628 28.874883 -0.109430 1.586992 0.020465 0.002404 -57544.200000 0 0 1
29.315103 -3.013764 0.961772 29.485303 -0.102446 1.538172 0.022265 -0.005315 40487.400000 0 0 1
28.364403 -3.207964 2.023572 28.616870 -0.112620 1.500025 0.025865 -0.011657 487960.000000 0 0 1
28.901603 -2.835164 3.256672 29.222367 -0.097784 1.459120 0.020522 -0.009660 -365802.000000 0 0 1
28.456703 -3.647664 4.509672 29.041807 -0.127488 1.414883 0.019170 -0.015678 -294599.000000 0 0 1
28.976903 -4.957564 4.466972 29.735370 -0.169446 1.420001 0.016338 -0.024719 181944.000000 0 0 1
28.763803 -5.766764 5.617572 29.869199 -0.197864 1.381597 0.017441 -0.022807 -516591.000000 0 0 1
29.452103 -7.111764 5.491372 30.792187 -0.236933 1.391501 0.009226 -0.017389 478351.000000 0 0 1
30.865003 -6.991864 5.667172 32.150450 -0.222771 1.393600 0.011150 -0.015155 227929.000000 0 0 1
31.469803 -8.214164 5.922272 33.058952 -0.255321 1.390681 0.007975 -0.008950 -817391.000000 0 0 1
32.978803 -8.093664 5.827472 34.453858 -0.240664 1.400841 0.009555 -0.002204 -884020.000000 0 0 1
33.485303 -7.725064 4.570672 34.667466 -0.226733 1.438568 0.012337 -0.003664 -1266460.000000 0 0 1
34.827403 -7.452164 4.721672 35.927385 -0.210795 1.438992 0.018028 -0.004909 -1169710.000000 0 0 1
-34.446775 -7.249964 3.378272 35.363187 0.207441 1.475120 0.014299 -0.002725 -473598.000000 0 0 1
-34.366075 -8.350964 2.513072 35.455341 0.238380 1.499857 0.018695 0.000100 33108.900000 0 0 1
-33.334175 -8.149164 1.586472 34.352481 0.239766 1.524598 0.030652 -0.004800 -354254.000000 0 0 1
-33.047075 -9.390664 0.728572 34.363128 0.276862 1.549593 0.028283 -0.001050 -271718.000000 0 0 1
-32.563975 -10.399764 1.609472 34.222185 0.309126 1.523749 0.022329 -0.001887 274666.000000 0 0 1
-32.583875 -11.662264 0.983072 34.622012 0.343709 1.542398 0.014816 -0.005098 -669105.000000 0 0 1
-32.324375 -12.801164 1.991072 34.823833 0.377072 1.513590 0.018097 -0.017172 1447980.000000 0 0 1
-30.980475 -12.980664 2.519072 33.684317 0.396773 1.495942 0.012609 -0.013838 1536770.000000 0 0 1
-30.092975 -13.736164 1.699172 33.123353 0.428211 1.519475 0.017875 -0.004658 -659780.000000 0 0 1
-28.795275 -14.134064 2.350172 32.163068 0.456298 1.497661 0.016050 -0.006318 -244131.000000 0 0 1
-27.848575 -13.074764 2.609572 30.875596 0.438947 1.486176 0.019310 -0.009335 941687.000000 0 0 1
-26.628775 -13.622664 3.102572 30.071491 0.472866 1.467439 0.030664 -0.008773 179276.000000 0 0 1
-25.738875 -12.509364 3.705972 28.856682 0.452394 1.442014 0.012463 0.002288 -838230.000000 0 0 1
-24.639175 -13.021864 4.372972 28.209586 0.486189 1.415151 0.007662 0.006966 -747362.000000 0 0 1
-23.946075 -11.956964 4.936372 27.216746 0.463110 1.388414 0.000644 0.013252 -413867.000000 0 0 1
-22.693475 -12.441564 5.674672 26.495060 0.501494 1.354946 0.002992 0.024276 -436390.000000 0 0 1
-22.909775 -12.994264 6.950872 27.240105 0.515947 1.312772 0.003571 0.009748 407341.000000 0 0 1
-21.738375 -13.531464 7.601872 26.710409 0.556777 1.282204 0.006342 0.016128 403799.000000 0 0 1
-21.372375 -12.814464 8.901472 26.461767 0.540111 1.227716 0.013193 0.012541 -308275.000000 0 0 1
-20.980075 -11.457564 8.701972 25.439411 0.499857 1.221681 0.014619 0.002847 722121.000000 0 0 1
-22.027475 -10.523064 8.995072 26.016453 0.445669 1.217763 0.017148 -0.000514 -274642.000000 0 0 1
-22.376075 -10.127664 10.438572 26.687490 0.425023 1.168925 0.012946 0.003927 -281056.000000 0 0 1
-22.976675 -11.129264 11.268972 27.906591 0.451067 1.155118 0.006202 -0.009553 766152.000000 0 0 1
-24.353375 -11.393964 10.961172 29.035437 0.437606 1.183690 0.003414 -0.002515 115314.000000 0 0 1
-25.249775 -11.146364 12.169372 30.164320 0.415716 1.155527 0.011458 -0.006419 -651931.000000 0 0 1
-25.211375 -12.201264 13.088072 30.915723 0.450732 1.133660 0.002475 -0.006663 770983.000000 0 0 1
-26.280575 -11.988964 14.034572 32.114998 0.427991 1.118525 -0.006464 -0.002082 446579.000000 0 0 1
-26.135575 -12.895864 15.304572 32.918103 0.458371 1.087242 -0.005141 -0.008025 -406101.000000 0 0 1
-26.344375 -14.244664 15.076772 33.529772 0.495683 1.104419 -0.012974 -0.001580 296578.000000 0 0 1
-26.144675 -14.912764 16.299072 34.228560 0.518366 1.074487 -0.015529 0.003570 -879281.000000 0 0 1
-25.907075 -16.414464 16.079572 34.628945 0.564753 1.087908 -0.013980 0.008466 -27151.000000 0 0 1
-27.057375 -17.252464 15.969472 35.843732 0.567627 1.109030 -0.028718 0.014234 179256.000000 0 0 1
-26.613875 -18.574264 16.001172 36.184792 0.609326 1.112738 -0.024609 0.020475 238445.000000 0 0 1
-27.561175 -19.620064 16.730972 37.742426 0.618650 1.111527 -0.036729 0.032684 265541.000000 0 0 1
-27.892875 -19.339664 18.045572 38.440574 0.606252 1.082139 -0.019667 0.030086 -368869.000000 0 0 1
-28.255675 -20.439064 18.855572 39.644307 0.626233 1.075129 -0.009138 0.021578 -110143.000000 0 0 1
-27.327575 -21.698564 19.034672 39.748494 0.671082 1.071420 -0.012524 0.021815 -45060.300000 0 0 1
-26.152775 -21.335564 19.730272 39.095493 0.684304 1.041798 -0.003981 0.027160 -12067.600000 0 0 1
-25.480775 -22.488764 20.258072 39.565185 0.723106 1.033264 0.006238 0.019493 234263.000000 0 0 1
-24.085375 -22.071364 20.790872 38.723517 0.741792 1.004031 0.020680 0.020327 175017.000000 0 0 1
-23.094275 -21.985764 19.788872 37.527574 0.760813 1.015358 0.030280 0.017189 173834.000000 0 0 1
-21.822775 -21.642764 20.317672 36.843596 0.781257 0.986686 0.036997 0.016029 594858.000000 0 0 1
-20.705575 -21.461064 19.256172 35.497863 0.803313 0.997434 0.032211 0.010253 151004.000000 0 0 1
-20.398375 -22.607664 18.479472 35.618690 0.836725 1.025333 0.029582 0.016570 138616.000000 0 0 1
-19.292575 -22.394064 17.625272 34.414354 0.859661 1.033112 0.028470 0.019980 99694.600000 0 0 1
-19.102875 -23.606964 16.707672 34.660567 0.890468 1.067818 0.023136 0.029042 -474645.000000 0 0 1
-18.843675 -24.931464 17.247172 35.694915 0.923581 1.066510 0.027819 0.010871 517011.000000 0 0 1
-17.572075 -25.211234 17.843772 35.535677 0.962091 1.044728 0.023081 0.007360 601066.000000 0 0 1
-16.391575 -25.268864 16.849472 34.512374 0.995345 1.060753 0.024710 0.008140 -19033.800000 0 0 1
-15.671475 -24.011764 16.726972 33.195656 0.992555 1.042699 0.028077 0.010645 138024.000000 0 0 1
-14.625175 -24.078864 15.793172 32.297240 1.024963 1.059860 0.009145 0.012018 -294181.000000 0 0 1
-13.899175 -22.739564 15.431972 30.796438 1.022158 1.045932 0.013587 0.017963 94083.800000 0 0 1
-14.603975 -21.689464 14.739672 30.016110 0.978201 1.057492 0.006958 0.019809 174783.000000 0 0 1
-15.633875 -21.042064 15.482972 30.445179 0.931802 1.037293 0.016016 0.019964 228706.000000 0 0 1
-15.084675 -19.962564 16.441172 29.939331 0.923690 0.989450 0.019697 0.015392 -91756.700000 0 0 1
-14.432975 -18.905664 15.731572 28.516965 0.918761 0.986447 0.019665 0.012302 197035.000000 0 0 1
-14.298075 -17.754964 16.540672 28.165006 0.892832 0.943105 0.005169 0.014604 -350357.000000 0 0 1
-13.770975 -16.452364 15.863972 26.683059 0.873886 0.934111 0.015488 0.010589 297031.000000 0 0 1
-14.651875 -15.761164 14.965472 26.211774 0.821856 0.963140 0.020695 0.005254 266164.000000 0 0 1
-14.658575 -16.368964 13.650672 25.868082 0.840467 1.014902 0.013194 0.005556 25227.100000 0 0 1
-15.609875 -15.538764 12.764672 25.456988 0.783115 1.045556 0.012370 -0.000230 457114.000000 0 0 1
-17.005275 -15.695964 12.990772 26.538704 0.745381 1.059277 0.012568 -0.005449 233683.000000 0 0 1
-17.813675 -14.779164 12.323472 26.222484 0.692562 1.081553 0.012435 -0.006414 -765335.000000 0 0 1
-19.312475 -14.981164 12.484572 27.445792 0.659763 1.098558 0.006758 -0.008351 -503116.000000 0 0 1
-19.988875 -15.999864 11.725872 28.161088 0.675008 1.141330 0.016651 -0.016124 13649.700000 0 0 1
-20.119475 -15.798464 10.317372 27.583200 0.665671 1.187429 0.011139 -0.005001 -366599.000000 0 0 1
-20.847875 -17.079264 9.756872 28.662374 0.686359 1.223447 0.006162 0.001299 344136.000000 0 0 1
-20.107975 -18.287764 9.744272 28.874276 0.738027 1.226566 0.013958 0.007966 -88838.600000 0 0 1
-20.886475 -19.317264 9.156572 29.887194 0.746387 1.259418 0.013630 0.002819 141957.000000 0 0 1
-20.276475 -20.717564 9.255472 30.430522 0.796158 1.261749 0.017597 0.014450 598399.000000 0 0 1
-19.178875 -20.977464 8.358972 29.626941 0.830158 1.284771 0.022433 0.015171 191902.000000 0 0 1
-18.753075 -22.331764 8.552772 30.389726 0.872284 1.285506 0.019523 0.022453 943184.000000 0 0 1
-17.422475 -22.649764 7.744872 29.606376 0.915112 1.306122 0.014528 0.020928 821900.000000 0 0 1
-16.319375 -21.934364 8.258272 28.559366 0.931140 1.277445 0.009847 0.012345 -546537.000000 0 0 1
-15.172175 -22.249364 7.511172 27.957947 0.972311 1.298795 0.021711 0.020063 -145045.000000 0 0 1
-13.902375 -21.575464 8.103472 26.915478 0.998396 1.264981 -0.028653 0.013042 651093.000000 0 0 1
-12.725275 -21.936364 7.363972 26.407665 1.045138 1.288192 -0.008275 0.017219 1018760.000000 0 0 1
-11.556875 -21.833364 8.205672 26.030563 1.083967 1.250095 -0.002150 0.019599 1467050.000000 0 0 1
-10.216975 -22.471464 7.734372 25.868394 1.144070 1.267163 -0.008924 0.017677 643147.000000 0 0 1
-10.300575 -23.889764 7.754872 27.147020 1.163710 1.281099 -0.012832 0.024726 682992.000000 0 0 1
-9.015775 -24.476364 7.459372 27.129667 1.217872 1.292256 0.009062 0.019316 834293.000000 0 0 1
-9.111275 -25.993454 7.423472 28.526881 1.233657 1.307539 -0.004088 0.017879 -400679.000000 0 0 1
-9.845975 -26.567954 6.376772 29.042428 1.215892 1.349425 -0.005049 0.013516 -348883.000000 0 0 1
-9.876375 -28.018354 6.385372 30.386575 1.231899 1.359080 0.006097 0.014502 343255.000000 0 0 1
-8.671275 -28.787364 5.750372 30.609968 1.278222 1.381814 0.006049 0.006206 1372110.000000 0 0 1
-7.378475 -28.474214 6.337372 30.089617 1.317245 1.358591 0.005320 0.003353 1747650.000000 0 0 1
-6.326975 -29.475794 6.075872 30.753362 1.359355 1.371920 0.003069 0.009097 1275470.000000 0 0 1
-6.485275 -30.914584 6.685072 32.287157 1.364014 1.362237 0.005345 0.009703 -327924.000000 0 0 1
-6.487275 -30.947584 8.127572 32.648049 1.364167 1.319205 0.009648 0.003342 107883.000000 0 0 1
-6.012375 -32.211124 8.548172 33.864088 1.386265 1.315610 0.042466 -0.004669 -35693.700000 0 0 1
-6.108075 -32.481284 10.097972 34.558811 1.384918 1.274273 0.036481 0.005849 -175837.000000 0 0 1
-5.338075 -31.551654 10.810772 33.776837 1.403198 1.244999 0.007046 0.012011 171833.000000 0 0 1
-5.421075 -31.716304 12.197972 34.410791 1.401508 1.208437 0.002940 0.009488 -171071.000000 0 0 1
-4.853475 -30.440364 12.918172 33.422315 1.412685 1.173948 -0.010820 0.008760 202991.000000 0 0 1
-5.688875 -29.296294 12.855772 32.494723 1.378999 1.164046 -0.018017 0.012305 356108.000000 0 0 1
-5.154075 -28.338394 13.771072 31.926032 1.390887 1.124815 -0.025989 0.009694 -184858.000000 0 0 1
-5.743275 -28.252834 15.179772 32.582715 1.370248 1.086163 -0.022522 0.011752 -441095.000000 0 0 1
-5.716075 -29.417934 15.993372 33.968755 1.378882 1.080570 -0.011117 -0.001793 34670.800000 0 0 1
-4.518475 -29.967144 16.515172 34.513726 1.421143 1.071839 -0.008396 -0.003311 -164529.000000 0 0 1
-4.823475 -31.441834 16.913772 36.026803 1.418574 1.082097 -0.008714 0.001901 -201551.000000 0 0 1
-5.003475 -32.368794 15.850872 36.387137 1.417433 1.120072 -0.010174 0.008802 352388.000000 0 0 1
-5.800275 -33.442494 16.307572 37.656082 1.399064 1.122905 -0.009070 0.010463 3279.900000 0 0 1
-5.443975 34.595899 15.555172 38.320706 -1.414717 1.152810 -0.019162 0.009512 -55805.900000 0 0 1
-5.568975 34.517411 14.124572 37.709000 -1.410837 1.186866 0.013066 0.001083 227269.000000 0 0 1
-4.750475 33.437277 13.752372 36.465686 -1.429670 1.184099 0.005724 0.001992 -235963.000000 0 0 1
-3.567475 33.783335 12.844072 36.318188 -1.465588 1.209322 0.004713 -0.009665 -638088.000000 0 0 1
-3.891475 34.103831 11.521772 36.207266 -1.457181 1.246948 0.018891 -0.008028 -59069.300000 0 0 1
-2.788475 34.196257 10.646872 35.923745 -1.489433 1.269902 0.014293 -0.007030 -738889.000000 0 0 1
-3.181475 34.569697 9.179772 35.908968 -1.479024 1.312287 0.016196 -0.012036 -503527.000000 0 0 1
-3.707475 33.623328 8.309072 34.832661 -1.460975 1.329932 0.028104 -0.030761 669150.000000 0 0 1
-4.735475 32.709311 8.711072 34.179037 -1.427021 1.313087 0.036632 -0.023045 589834.000000 0 0 1
-6.215775 33.115391 8.966372 34.866328 -1.385255 1.310710 0.051534 -0.018342 310202.000000 0 0 1
-6.942575 33.518730 7.867272 35.122622 -1.366559 1.344885 0.053089 -0.020378 453888.000000 0 0 1
-8.295575 33.888916 8.241472 35.849645 -1.330730 1.338832 0.036423 -0.011568 1147180.000000 0 0 1
-9.160275 34.110919 6.995572 36.005603 -1.308442 1.375261 0.048788 -0.011382 -116372.000000 0 0 1
-8.842575 -33.954444 6.412472 35.668126 1.316031 1.390032 0.052918 -0.007949 592265.000000 0 0 1
-9.750875 -33.855544 5.305872 35.629057 1.290372 1.421321 0.033555 0.002617 94695.400000 0 0 1
-9.819875 -32.446734 4.762072 34.232993 1.276914 1.431236 0.013114 0.002673 -110666.000000 0 0 1
-10.609775 -31.503174 5.418072 33.680452 1.245943 1.409227 0.035169 -0.005433 -454785.000000 0 0 1
-11.957475 -31.544974 5.025672 34.107536 1.208470 1.422910 0.039083 -0.004077 -139805.000000 0 0 1
-12.968175 -30.638014 5.776772 33.767330 1.170391 1.398875 0.020590 -0.001046 163279.000000 0 0 1
-13.233675 -31.152674 7.103972 34.584472 1.169095 1.363914 0.022953 0.001416 6761.190000 0 0 1
-13.990075 -30.188024 7.838072 34.182954 1.136829 1.339440 0.009039 0.004225 115802.000000 0 0 1
32.003722 -13.400964 -13.018528 37.058145 -0.396549 1.929756 -0.028307 0.007348 39327.900000 0 0 1
31.062612 -13.490464 -11.948828 35.911738 -0.409721 1.909991 -0.019120 0.005908 545811.000000 0 0 1
30.729282 -14.824864 -11.587128 36.032303 -0.449497 1.898190 -0.013007 -0.003515 -17171.900000 0 0 1
31.722842 -15.423364 -10.546528 36.816411 -0.452540 1.861329 -0.013799 -0.011762 239957.000000 0 0 1
33.047022 -15.598364 -11.011928 38.166440 -0.441002 1.863481 -0.002533 -0.014526 -754703.000000 0 0 1
33.840642 -15.931464 -9.960328 38.706701 -0.439999 1.831053 0.009626 -0.017500 1246380.000000 0 0 1
-34.535622 -16.026364 -10.279028 39.436175 0.434479 1.834491 0.006247 -0.015840 1777340.000000 0 0 1
-34.002947 -14.758664 -10.625928 38.560717 0.409503 1.849972 -0.007650 -0.004470 -894239.000000 0 0 1
-32.628937 -14.701164 -10.770928 37.373582 0.423316 1.863139 -0.001802 -0.009109 -647182.000000 0 0 1
-32.201667 -13.292564 -11.332228 36.634123 0.391484 1.885290 0.011071 -0.018908 -134528.000000 0 0 1
-31.919147 -12.295164 -10.326628 35.730130 0.367681 1.863997 0.021160 -0.016913 356108.000000 0 0 1
-31.614837 -11.037964 -10.848728 35.199850 0.335907 1.884101 0.021798 -0.018777 -276073.000000 0 0 1
-32.018147 -9.959864 -9.815728 34.938648 0.301581 1.855572 0.018638 -0.018846 -97656.200000 0 0 1
-31.357657 -10.003464 -8.568128 34.011538 0.308806 1.825458 0.021564 -0.015652 83514.700000 0 0 1
-31.904417 -9.041764 -7.685028 34.039755 0.276160 1.798526 0.022555 -0.014494 -520115.000000 0 0 1
-31.360037 -8.905664 -6.283228 33.200026 0.276697 1.761198 0.019475 -0.003739 596059.000000 0 0 1
-30.025747 -8.321764 -6.184528 31.765478 0.270368 1.766741 0.025197 -0.013624 1308610.000000 0 0 1
-29.505737 -8.261864 -4.841728 31.020787 0.273017 1.727517 0.031110 -0.006812 -323808.000000 0 0 1
-28.891997 -9.626264 -4.354928 30.763254 0.321613 1.712836 0.021446 -0.000020 -915386.000000 0 0 1
-29.714537 -10.719464 -4.113328 31.855613 0.346218 1.700282 0.031616 -0.000709 -44330.800000 0 0 1
-30.137947 -10.745964 -2.738428 32.113402 0.342506 1.656174 0.018405 -0.008331 -39169.600000 0 0 1
-30.834257 -12.067164 -2.302028 33.191372 0.373032 1.640208 0.023840 -0.004252 518966.000000 0 0 1
-32.064807 -12.288564 -3.012528 34.470799 0.365976 1.658302 0.024339 -0.012831 727807.000000 0 0 1
-32.448557 -13.651564 -2.788428 35.313586 0.398235 1.649841 0.021823 -0.013774 -526322.000000 0 0 1
-33.958527 -13.820064 -2.639128 36.757866 0.386500 1.642656 0.009548 -0.009722 -358425.000000 0 0 1
-34.433257 -13.083664 -1.507728 36.866037 0.363122 1.611705 0.019555 -0.008603 60412.200000 0 0 1
34.111132 -13.046564 -1.341128 36.545598 -0.365306 1.607502 0.031884 -0.009265 -123760.000000 0 0 1
33.677242 -11.880664 -0.432928 35.714062 -0.339149 1.582919 0.026418 -0.008779 -493556.000000 0 0 1
33.915286 -12.158164 0.909972 36.040194 -0.344215 1.545545 0.035431 -0.005601 118057.000000 0 0 1
33.688352 -11.010764 1.767472 35.486137 -0.315897 1.520968 0.027790 -0.005110 -591660.000000 0 0 1
34.041341 -11.203064 3.221372 35.981923 -0.317937 1.481149 0.025896 -0.008362 -248811.000000 0 0 1
33.308562 -12.113964 3.989972 35.666907 -0.348818 1.458694 0.026786 -0.009541 12857.500000 0 0 1
33.906658 -12.200364 5.321472 36.425656 -0.345398 1.424180 0.024277 -0.008988 -458525.000000 0 0 1
32.995652 -12.500864 6.482972 35.874971 -0.362154 1.389088 0.029351 -0.009378 -73963.900000 0 0 1
32.172912 -11.431264 6.997972 34.853144 -0.341395 1.368638 0.023851 -0.009189 508676.000000 0 0 1
31.824212 -11.596064 8.371972 34.890386 -0.349426 1.328481 0.007327 0.008479 -543320.000000 0 0 1
31.138222 -10.328064 8.889572 33.989443 -0.320266 1.306180 -0.005837 -0.001548 -219005.000000 0 0 1
29.790092 -10.205864 8.502772 32.617577 -0.330061 1.307069 0.002373 0.001870 -100179.000000 0 0 1
29.058242 -9.339864 9.350572 31.922526 -0.310989 1.273523 0.009563 0.005461 45077.400000 0 0 1
27.543202 -9.359264 9.046972 30.464266 -0.327562 1.269278 0.005984 -0.003374 -73319.900000 0 0 1
27.205732 -9.028364 7.746372 29.692920 -0.320420 1.306860 0.024025 -0.009135 -484047.000000 0 0 1
26.407762 -10.008864 7.178772 29.139012 -0.362284 1.321871 0.026322 -0.017215 -1111620.000000 0 0 1
25.457032 -9.399164 6.188872 27.833557 -0.353691 1.346569 0.031330 -0.022500 -226986.000000 0 0 1
24.348382 -8.789464 6.871572 26.782772 -0.346430 1.311328 0.024660 -0.016416 610572.000000 0 0 1
23.530082 -7.882364 6.121672 25.559172 -0.323242 1.328935 0.022680 -0.019687 -86303.000000 0 0 1
24.177082 -6.592664 5.495472 25.655306 -0.266210 1.354919 0.026790 -0.015967 -465120.000000 0 0 1
24.836782 -6.755964 4.243072 26.086633 -0.265588 1.407417 0.026781 -0.019077 198960.000000 0 0 1
25.313512 -5.518964 3.785472 26.183251 -0.214665 1.425712 0.021236 -0.021616 -350039.000000 0 0 1
25.994662 -5.731264 2.445272 26.731053 -0.217007 1.479191 0.028367 -0.018642 -258983.000000 0 0 1
25.097182 -5.950264 1.394672 25.830588 -0.232791 1.516777 0.035401 -0.017861 49436.700000 0 0 1
25.803712 -5.809864 0.170372 26.450238 -0.221463 1.564355 0.029179 -0.012162 -19462.900000 0 0 1
24.957892 -6.112564 -1.094028 25.718800 -0.240187 1.613347 0.032598 -0.005926 -120501.000000 0 0 1
23.986482 -5.145964 -1.381228 24.571122 -0.211333 1.627039 0.029683 -0.001409 -82271.700000 0 1 0
23.627582 -5.080364 -2.787928 24.327870 -0.211794 1.685647 0.041024 -0.000039 51346.200000 0 1 0
22.421182 -4.201764 -3.168228 23.030455 -0.185253 1.708801 0.013231 0.006574 -96056.800000 0 1 0
22.673382 -2.813464 -2.951728 23.037155 -0.123456 1.699279 -0.006647 0.010267 140853.000000 0 1 0
23.165882 -2.199864 -4.076628 23.624487 -0.094677 1.744224 -0.005085 0.014874 -398274.000000 0 1 0
22.097482 -1.439064 -4.893828 22.678605 -0.065032 1.788298 -0.011607 0.017958 -173351.000000 0 1 0
21.644882 -0.276564 -4.289228 22.067507 -0.012777 1.766410 -0.036487 0.023346 371009.000000 0 1 0
20.952682 0.530836 -5.240928 21.604721 0.025330 1.815823 -0.011349 0.026490 -201122.000000 0 1 0
20.601982 1.924836 -4.583128 21.193199 0.093159 1.788773 -0.012554 0.020936 -69494.700000 0 1 0
21.684282 2.893036 -4.492928 22.333028 0.132633 1.773357 -0.008070 0.019247 794234.000000 0 1 0
22.364482 2.823236 -3.268028 22.777636 0.125573 1.714768 -0.004708 0.015253 -305203.000000 0 1 0
23.573782 3.766836 -3.202128 24.086632 0.158450 1.704133 -0.005182 0.014265 -273782.000000 0 1 0
23.278682 5.163336 -3.282328 24.069290 0.218272 1.707593 -0.010076 0.019664 366871.000000 0 1 0
24.402282 5.926036 -2.884928 25.276710 0.238236 1.685179 -0.004570 0.013678 -103887.000000 0 0 1
24.145182 7.461436 -2.920228 25.439940 0.299715 1.685839 -0.002412 0.006606 390733.000000 0 0 1
23.171382 7.853036 -1.940928 24.542826 0.326762 1.649962 0.006245 0.007003 1280840.000000 0 1 0
22.395182 9.053336 -2.252328 24.260668 0.384168 1.663769 0.007023 0.008906 281316.000000 0 1 0
21.236682 9.216036 -1.243628 23.183584 0.409442 1.624465 -0.001590 0.011708 -535877.000000 0 1 0
21.712382 9.877736 -0.092128 23.853840 0.426951 1.574659 -0.014462 0.014936 384402.000000 0 1 0
20.738882 10.155236 0.875772 23.108375 0.455351 1.532889 -0.016439 0.015151 -722262.000000 0 1 0
21.337882 10.789436 2.133472 24.005600 0.468155 1.481805 0.005300 0.017780 -588193.000000 0 1 0
21.898182 12.066736 1.954272 25.078988 0.503640 1.492793 -0.004305 0.016248 84428.200000 0 0 1
21.019882 13.139336 1.909872 24.862123 0.558665 1.493902 -0.001110 0.016342 -599027.000000 0 1 0
20.270682 13.589136 3.211972 24.614669 0.590572 1.439933 0.003517 0.014410 -46348.100000 0 1 0
18.897082 13.258836 3.084572 23.289719 0.611822 1.437963 0.016989 0.016066 1220220.000000 0 1 0
17.960882 13.885836 4.028572 23.057300 0.658132 1.395175 0.006707 0.011502 656264.000000 0 1 0
18.065282 13.569536 5.492372 23.251943 0.644230 1.332331 0.000187 0.006304 -497259.000000 0 1 0
17.781282 12.176136 5.782172 22.312906 0.600433 1.308664 0.003917 0.003331 497869.000000 0 1 0
18.055082 12.003336 7.159272 22.832460 0.586721 1.251860 0.006941 -0.005619 -182932.000000 0 1 0
18.226182 10.542636 7.565972 22.373753 0.524411 1.225832 0.006952 -0.016181 -181134.000000 0 1 0
19.384282 9.963836 6.989272 22.888388 0.474798 1.260476 0.009152 -0.020414 512153.000000 0 1 0
19.508882 8.592536 7.321672 22.539632 0.414877 1.239959 0.021273 -0.017448 -286085.000000 0 1 0
20.541282 7.918436 6.430872 22.934733 0.367935 1.286587 0.031759 -0.021507 -63950.300000 0 1 0
20.060282 7.898336 5.087872 22.151412 0.375090 1.339041 0.017994 -0.009684 1111570.000000 0 1 0
20.981982 7.113036 4.355172 22.578892 0.326848 1.376693 0.017227 -0.008578 211115.000000 0 1 0
20.503082 6.948736 2.908072 21.843035 0.326763 1.437265 0.000680 0.001536 43188.100000 0 1 0
21.345582 5.956936 2.353972 22.285873 0.272147 1.464973 -0.010421 -0.001619 651936.000000 0 1 0
21.044882 5.812536 1.007572 21.856070 0.269479 1.524680 -0.006728 0.008205 -327540.000000 0 1 0
22.027682 4.901336 0.259772 22.567883 0.218941 1.559285 -0.005124 0.009691 -60557.400000 0 1 0
21.972082 3.550736 0.814072 22.272018 0.160217 1.534237 -0.005404 0.007224 695336.000000 0 1 0
23.174782 2.869936 0.491072 23.356973 0.123211 1.549770 -0.001063 0.008010 246706.000000 0 1 0
23.001682 1.341436 0.553272 23.047406 0.058253 1.546788 0.007963 0.003284 -705848.000000 0 1 0
22.121082 0.883136 -0.398728 22.142294 0.039902 1.588805 0.001133 0.001479 -13715.000000 0 1 0
22.291382 -0.449064 -0.880228 22.313273 -0.020142 1.610255 0.002694 0.002226 -1016370.000000 0 1 0
21.943882 -1.685764 0.000472 22.008538 -0.076671 1.570775 0.010620 0.003049 336689.000000 0 1 0
22.784382 -1.945364 1.152472 22.896303 -0.085175 1.520441 0.008294 0.001221 624939.000000 0 1 0
24.099582 -2.345764 0.868872 24.229061 -0.097031 1.534928 0.013035 -0.000914 -521731.000000 0 1 0
25.127512 -2.100764 1.968472 25.291895 -0.083410 1.492887 0.019742 -0.001334 -393927.000000 0 0 1
25.233802 -0.727664 2.239872 25.343466 -0.028829 1.482300 0.016721 -0.004727 138453.000000 0 0 1
26.215672 -0.456064 3.194272 26.413497 -0.017395 1.449566 0.022319 -0.004422 -566692.000000 0 0 1
25.950152 0.850736 3.937472 26.260956 0.032772 1.420292 0.035700 0.000120 -128159.000000 0 0 1
26.007662 2.117436 3.309172 26.302711 0.081237 1.444651 0.029098 0.006334 278157.000000 0 0 1
27.247342 2.402836 2.673672 27.483445 0.087959 1.473359 0.035248 -0.001103 86642.600000 0 0 1
27.260952 3.634336 1.722072 27.556005 0.132535 1.508262 0.032989 -0.002869 -141691.000000 0 0 1
26.574682 3.448036 0.476272 26.801669 0.129028 1.553025 0.018881 0.005272 593505.000000 0 0 1
27.058922 4.318936 -0.567828 27.407314 0.158277 1.591516 0.022658 0.009533 663205.000000 0 0 1
28.471312 4.044836 -1.203528 28.782369 0.141123 1.612623 0.017562 0.008403 722444.000000 0 0 1
29.559632 4.184036 -0.312228 29.855912 0.140612 1.581254 0.032430 -0.000992 -1097470.000000 0 0 1
30.746132 3.886936 -0.898528 31.003874 0.125753 1.599782 0.008297 -0.002160 -634997.000000 0 0 1
32.016862 4.112236 -0.002628 32.279869 0.127740 1.570878 -0.011002 -0.004902 195416.000000 0 0 1
32.047092 3.293236 1.130072 32.235672 0.102403 1.535733 -0.018499 0.001003 233476.000000 0 0 1
31.528662 3.922836 2.282772 31.853668 0.123785 1.499070 -0.001150 0.008747 -82266.100000 0 0 1
31.423412 2.874536 3.451272 31.742795 0.091224 1.461855 0.000822 0.008575 134046.000000 0 0 1
30.489432 1.817536 3.209572 30.711728 0.059542 1.466099 0.006176 0.006343 388919.000000 0 0 1
30.556892 0.821236 4.261872 30.863597 0.026869 1.432266 0.006995 0.004135 -1001180.000000 0 0 1
31.680582 -0.160264 4.261572 31.966325 -0.005059 1.437084 0.013029 -0.001158 -718300.000000 0 0 1
32.876272 0.353636 4.854672 33.234653 0.010756 1.424199 0.002423 -0.000745 439930.000000 0 0 1
33.944561 -0.458064 4.374272 34.228311 -0.013494 1.442649 -0.006127 -0.004535 -288550.000000 0 0 1
-34.626319 0.158836 4.817172 34.960153 -0.004587 1.432566 -0.001888 -0.014319 182956.000000 0 0 1
-34.320132 1.321336 4.035372 34.581810 -0.038481 1.453839 -0.012142 -0.014184 289625.000000 0 0 1
-34.084760 1.163736 2.674572 34.209333 -0.034129 1.492534 -0.011224 -0.001576 -978173.000000 0 0 1
-34.274468 2.476036 1.867872 34.414515 -0.072116 1.516494 -0.018406 -0.003910 53989.400000 0 0 1
-33.255407 3.441236 1.876672 33.485610 -0.103112 1.514723 -0.010427 -0.009055 -2470.650000 0 0 1
-32.144647 3.266736 1.025572 32.326486 -0.101278 1.539066 0.018787 0.002724 -709999.000000 0 0 1
-31.029567 4.248736 1.352672 31.348293 -0.136079 1.527633 0.021117 0.004064 -461323.000000 0 0 1
-30.489427 3.902236 2.650272 30.852172 -0.127294 1.484788 0.018758 -0.001711 173601.000000 0 0 1
-29.829967 4.986036 3.243972 30.417278 -0.165618 1.463944 0.019590 -0.002766 -587584.000000 0 0 1
-29.482227 4.753736 4.746172 30.237821 -0.159865 1.413183 0.003306 0.001929 -90869.900000 0 0 1
-30.515707 4.757736 5.712272 31.408191 -0.154666 1.387906 -0.016879 0.007649 185562.000000 0 0 1
-31.528747 3.780236 5.561572 32.237914 -0.119328 1.397412 -0.012650 0.002810 -157313.000000 0 0 1
-31.733817 2.888436 6.789672 32.580329 -0.090771 1.360860 -0.014432 0.003824 -528016.000000 0 0 1
-32.158007 3.593436 7.976272 33.326732 -0.111281 1.329115 -0.024185 0.017126 443845.000000 0 0 1
-32.143397 2.836336 9.208172 33.556418 -0.088012 1.292822 -0.019857 0.019648 -436752.000000 0 0 1
-33.288347 1.842036 9.340972 34.623126 -0.055279 1.297621 -0.015093 0.021961 -742816.000000 0 0 1
-33.075307 0.685536 8.544772 34.168099 -0.020724 1.318033 0.001528 0.008471 -172418.000000 0 0 1
-34.005737 -0.353064 8.607672 35.080006 0.010382 1.322892 0.013263 0.008476 -463265.000000 0 0 1
-34.041597 -1.185764 9.925372 35.478858 0.034819 1.287258 0.021112 0.019543 -315175.000000 0 0 1
-32.926517 -2.049664 9.941072 34.455501 0.062169 1.278116 0.016604 0.000349 190406.000000 0 0 1
-32.942307 -2.935464 11.018072 34.859868 0.088875 1.249215 0.021723 0.015963 287270.000000 0 0 1
-31.526837 -3.582564 11.112972 33.619553 0.113150 1.233909 0.018658 0.012938 200040.000000 0 0 1
-31.453247 -4.619464 10.122172 33.363221 0.145825 1.262545 0.009708 0.015929 -1081540.000000 0 0 1
-30.304977 -5.326064 10.203372 32.417085 0.173972 1.250600 0.001367 0.003399 -1439000.000000 0 0 1
-30.355867 -6.352064 9.088172 32.317522 0.206277 1.285736 0.002429 0.006837 105732.000000 0 0 1
-31.343127 -7.348564 9.210372 33.484682 0.230296 1.292142 0.007322 0.006591 -31815.900000 0 0 1
-31.296927 -8.181664 8.113072 33.350550 0.255698 1.325064 0.007218 0.001999 -220873.000000 0 0 1
-32.320857 -9.305764 8.199772 34.618944 0.280336 1.331666 0.014127 0.002124 -328292.000000 0 0 1
-33.641037 -8.871464 8.014472 35.702297 0.257840 1.344386 0.016107 -0.006774 -526729.000000 0 0 1
-34.522425 -9.945264 8.135672 36.836059 0.280487 1.348098 0.021057 -0.003156 -297175.000000 0 0 1
7.204503 -23.998164 10.559572 27.190464 -1.279146 1.171950 0.051131 -0.011352 137538.000000 0 0 1
6.657403 -24.455964 9.325172 27.006926 -1.305016 1.218250 0.037951 -0.015762 -1046090.000000 0 0 1
5.337603 -24.840764 9.506572 27.128002 -1.359142 1.212762 0.043093 -0.019298 -736989.000000 0 0 1
4.982003 -26.005364 8.562072 27.828194 -1.381514 1.258047 0.023671 0.000202 -20242.600000 0 0 1
4.519603 -25.580374 7.240472 26.966772 -1.395919 1.298965 0.032558 0.000861 -94394.500000 0 0 1
4.357403 -26.635574 6.339172 27.724103 -1.408639 1.340104 0.024258 0.005464 -328012.000000 0 0 1
3.712403 -26.129394 4.987472 26.858929 -1.429663 1.384021 0.016527 0.005429 539425.000000 0 0 1
2.304703 -25.984534 4.984072 26.558401 -1.482333 1.382012 -0.006402 0.005427 -209658.000000 0 0 1
1.605003 -27.191174 4.758372 27.651005 -1.511838 1.397849 -0.014377 0.004398 -1026990.000000 0 0 1
0.104403 -26.989104 4.842572 27.420305 -1.566928 1.393260 -0.004871 0.005192 -904724.000000 0 0 1
-0.288597 -26.778834 6.196272 27.487871 1.560020 1.343424 -0.010668 0.007283 407943.000000 0 0 1
-1.699097 -26.864454 6.467372 27.684160 1.507633 1.335005 -0.020235 0.007555 887304.000000 0 0 1
-2.177197 -28.382844 6.606572 29.222813 1.494238 1.342749 -0.023916 0.009272 -478097.000000 0 0 1
-1.697097 -29.055204 7.762272 30.122050 1.512453 1.310161 -0.032941 0.009759 306852.000000 0 0 1
-2.297397 -30.365394 7.910672 31.462898 1.495282 1.316640 -0.013838 0.007730 268.193000 0 0 1
-2.134497 -30.979464 9.248872 32.401002 1.502005 1.281320 -0.021989 0.009357 1294700.000000 0 0 1
-0.760897 -31.355244 9.522072 32.778044 1.546534 1.276045 -0.030742 0.007342 1008840.000000 0 0 1
-0.690697 -31.769284 10.889672 33.590913 1.549059 1.240646 -0.030900 0.011124 -347214.000000 0 0 1
0.745203 -31.998044 11.342872 33.957192 -1.547512 1.230216 -0.027212 0.008093 -1026030.000000 0 0 1
1.258203 -33.153624 10.737072 34.871630 -1.532864 1.257808 -0.023877 0.007329 361964.000000 0 0 1
2.632903 -33.388624 11.055972 35.269915 -1.492103 1.251954 -0.025983 0.005138 615904.000000 0 0 1
3.046003 -33.739444 12.523672 36.117456 -1.480760 1.216694 -0.023111 0.006562 -831747.000000 0 0 1
2.823603 -32.764334 13.464872 35.535575 -1.484830 1.182175 -0.025615 0.013888 -110258.000000 0 0 1
3.308503 -33.178854 14.686172 36.434410 -1.471408 1.155911 -0.019500 0.014910 -822192.000000 0 0 1
2.887903 -32.281604 15.852072 36.079498 -1.481574 1.115905 -0.021448 0.017992 -14293.900000 0 0 1
3.336003 -30.896964 15.806472 34.865397 -1.463241 1.100268 -0.018381 0.014136 760049.000000 0 0 1
4.706803 -30.516874 15.975972 34.765864 -1.417766 1.093330 -0.007336 0.026803 304369.000000 0 0 1
5.046103 -29.293624 15.170672 33.372577 -1.400211 1.098890 0.010603 0.018595 -532248.000000 0 0 1
5.190603 -29.366944 13.749072 32.838952 -1.395853 1.138803 0.007990 0.018574 -356926.000000 0 0 1
4.016603 -29.606744 13.023572 32.593034 -1.435954 1.159736 -0.013305 0.024971 -691011.000000 0 0 1
4.248003 -29.716154 11.434772 32.122412 -1.428806 1.206839 -0.011608 0.008186 174860.000000 0 0 1
4.821803 -30.920194 10.927372 33.146880 -1.416099 1.234847 -0.008108 0.007785 -679586.000000 0 0 1
6.207203 -30.926624 11.084472 33.434279 -1.372721 1.232871 -0.004574 0.009384 -1000630.000000 0 0 1
6.817803 -32.214324 10.488672 34.558029 -1.362235 1.262423 -0.017735 0.010713 -283474.000000 0 0 1
6.641403 -33.360874 11.314072 35.847795 -1.374288 1.249692 -0.033381 0.010196 170240.000000 0 0 1
7.010703 -34.543747 10.676672 36.829496 -1.370564 1.276680 -0.024007 0.004224 -439359.000000 0 0 1
6.948903 33.507415 11.537972 36.113141 1.366311 1.245600 -0.016371 0.000523 -154627.000000 0 0 1
5.645303 33.040971 11.820572 35.542948 1.401573 1.231767 -0.029592 -0.000922 -55536.100000 0 0 1
5.616603 31.856021 12.531972 34.690094 1.396278 1.201183 -0.019223 -0.004143 830049.000000 0 0 1
4.205103 31.380051 13.054472 34.246310 1.437584 1.179709 -0.022148 0.006661 920462.000000 0 0 1
4.086403 31.902001 14.403372 35.240509 1.443398 1.149749 -0.004792 0.008004 80753.800000 0 0 1
2.890103 31.416331 14.973272 34.921876 1.479061 1.127671 0.010820 0.005391 114572.000000 0 0 1
2.996503 31.425801 16.504572 35.622478 1.475732 1.089059 0.005395 -0.004480 63301.500000 0 0 1
3.193103 32.747661 17.097672 37.080124 1.473597 1.091561 -0.009517 -0.000412 239351.000000 0 0 1
3.591603 32.568121 18.422072 37.589292 1.460960 1.058605 -0.010097 0.004572 -108156.000000 0 0 1
4.057803 33.874001 19.195472 39.145624 1.451573 1.058293 -0.007267 0.009923 339540.000000 0 0 1
3.008803 -34.485118 19.440072 39.701293 -1.483767 1.059098 -0.029332 0.013632 -10269.400000 0 0 1
3.421003 -33.476514 20.336972 39.318859 -1.468959 1.027183 -0.021666 0.004126 -216232.000000 0 0 1
2.343803 -32.509034 20.859072 38.696662 -1.498824 1.001499 -0.031448 0.005307 1598.700000 0 0 1
1.388703 -33.236194 21.620572 39.673949 -1.529038 0.994459 -0.026195 0.009012 -643803.000000 0 0 1
0.513003 -32.366944 22.247872 39.279130 -1.554948 0.968660 -0.027481 0.009804 -729155.000000 0 0 1
-0.550697 -33.132074 23.036272 40.357248 1.554177 0.963306 -0.033800 0.010006 -1288630.000000 0 0 1
-1.565297 -33.566614 22.194772 40.271276 1.524198 0.987077 -0.040229 0.012960 -457683.000000 0 0 1
-2.471497 -34.419487 22.895272 41.412593 1.499114 0.985006 -0.034538 0.007189 497072.000000 0 0 1
-3.778397 -33.715794 23.370172 41.197039 1.459196 0.967600 -0.007523 0.011973 229705.000000 0 0 1
-4.713397 -33.474274 22.295072 40.494609 1.430909 0.987751 -0.016503 0.010246 918818.000000 0 0 1
-5.857197 -32.781374 22.888172 40.407842 1.393988 0.968630 -0.003279 0.015296 809879.000000 0 0 1
-7.101797 -32.874094 21.980772 40.178302 1.358036 0.991924 0.003068 0.000023 7829.580000 0 0 1
-7.582097 -34.138579 21.544572 41.074315 1.352246 1.018637 0.012589 0.006430 1133850.000000 0 0 1
-8.872397 -33.914534 20.922372 40.824756 1.314920 1.032712 0.021557 0.001220 1004350.000000 0 0 1
-9.850597 34.223157 20.788172 41.235990 -1.290538 1.042426 0.049025 -0.007025 -12402.700000 0 0 1
-10.218197 33.811472 22.035272 41.631483 -1.277312 1.013029 0.058256 -0.008816 216694.000000 0 0 1
-11.529097 33.214521 22.011272 41.480364 -1.236698 1.011437 0.044712 -0.003798 868222.000000 0 0 1
-12.206197 33.108451 23.390572 42.335324 -1.217584 0.985427 0.051564 -0.004098 -106062.000000 0 0 1
-12.539797 34.322993 24.006172 43.721970 -1.220515 0.989552 0.039721 -0.005441 -93720.700000 0 0 1
-11.411397 -34.336929 24.563572 43.733440 1.249944 0.974399 0.043927 -0.004861 -25458.000000 0 0 1
-11.592497 -32.863104 24.972872 42.872065 1.231673 0.948998 0.034477 0.003346 -32731.700000 0 0 1
-12.155197 -32.656934 26.265272 43.635865 1.214475 0.924894 0.022592 0.009809 83591.800000 0 0 1
-12.175297 -31.269684 26.503572 42.760617 1.199492 0.902292 0.023994 0.010625 290095.000000 0 0 1
-13.036597 -30.883174 27.746072 43.515145 1.171362 0.879393 0.020580 0.010208 -211890.000000 0 0 1
-12.298297 -30.813514 28.910472 44.006092 1.191049 0.854010 0.016710 0.008052 -157558.000000 0 0 1
-13.135997 -30.456774 29.982472 44.711499 1.163602 0.835811 0.003131 0.008196 -29020.200000 0 0 1
-12.393797 -30.212264 31.342672 45.263122 1.181507 0.805910 0.006804 0.013499 -63705.200000 0 0 1
-13.287097 -29.637384 32.313872 45.816021 1.149339 0.787955 0.000238 0.010947 588563.000000 0 0 1
-12.724497 -29.182924 33.588772 46.279169 1.159624 0.758620 0.000991 0.007744 -194841.000000 0 0 1
-12.055597 -30.230674 34.531472 47.451593 1.191336 0.755805 0.001302 0.013050 976728.000000 0 0 1
-10.711697 -30.536844 34.069472 46.989023 1.233427 0.759687 0.001783 0.017689 912504.000000 0 0 1
-10.187297 -31.517984 -34.354810 47.722294 1.258174 2.374440 0.005339 0.021922 -963225.000000 0 0 1
-8.700697 -31.752724 -34.466710 47.664365 1.303347 2.379095 0.013820 0.017942 -495325.000000 0 0 1
-7.880697 -30.821314 -33.753010 46.382373 1.320470 2.385777 0.016494 0.009486 -826433.000000 0 0 1
-6.620797 -31.310584 -33.504910 46.333213 1.362410 2.379119 0.022179 0.002834 -819110.000000 0 0 1
-5.846697 -30.412884 -32.519810 44.907298 1.380869 2.380604 0.014012 0.007404 175798.000000 0 0 1
-6.422997 -30.555704 -31.234910 44.164755 1.363607 2.356377 0.009907 0.004570 -17534.900000 0 0 1
-5.650297 -29.896514 -30.287010 42.930530 1.384004 2.353909 0.005154 0.010335 -302266.000000 0 0 1
-6.127597 -30.093374 -28.840110 42.129688 1.369923 2.324790 0.004325 0.003358 -261980.000000 0 0 1
-5.959197 -31.401874 -28.357710 42.728790 1.383254 2.296507 -0.003301 0.005219 844291.000000 0 0 1
-7.030697 -31.754724 -27.431810 42.547590 1.352905 2.271469 -0.002786 0.003325 937248.000000 0 0 1
-6.666897 -33.042554 -26.696210 42.999367 1.371702 2.240624 -0.007441 0.006468 211405.000000 0 0 1
-5.681197 -32.831404 -25.702610 42.080890 1.399452 2.227855 -0.006060 0.005108 -97244.900000 0 0 1
-5.438197 -34.078374 -25.066710 42.652662 1.412551 2.199002 -0.016400 0.000584 -171328.000000 0 0 1
-4.376897 -34.037935 -23.942610 41.844795 1.442909 2.179954 -0.011136 -0.001218 145153.000000 0 0 1
-4.868897 -33.500254 -22.705110 40.761443 1.426468 2.161595 0.000336 0.000167 76441.800000 0 0 1
-4.936897 -32.061384 -22.694110 39.589493 1.418014 2.181246 0.000180 0.009104 -162903.000000 0 0 1
-5.336097 -31.336174 -21.416610 38.328853 1.402129 2.163686 0.007631 0.012236 -609627.000000 0 0 1
-6.686497 -31.442834 -21.032710 38.415309 1.361262 2.150180 0.010425 0.012403 -186624.000000 0 0 1
-7.241397 -30.182904 -20.623310 37.266157 1.335330 2.157244 0.012536 0.011912 81004.300000 0 0 1
-7.536497 -29.134954 -21.777110 37.146829 1.317669 2.197211 0.022676 -0.006131 -334176.000000 0 0 1
-6.343797 -28.556694 -22.293110 36.779224 1.352199 2.221986 0.022347 0.004131 -21490.600000 0 0 1
-6.584097 -27.661074 -23.382310 36.813283 1.337117 2.259011 0.027690 -0.006156 -12526.700000 0 0 1
-5.348097 -27.690214 -24.370910 37.273199 1.380005 2.283452 0.030613 -0.008415 2274970.000000 0 0 1
-4.116997 -26.966344 -24.032210 36.354924 1.419295 2.293006 0.030718 -0.002870 1105740.000000 0 0 1
-3.508297 -27.406904 -22.853310 35.856943 1.443481 2.261847 0.013041 -0.000364 -1862960.000000 0 0 1
-2.029697 -27.024314 -22.918810 35.492324 1.495831 2.272788 0.020392 0.002858 -640778.000000 0 0 1
-1.748497 -25.624684 -22.990910 34.471200 1.502667 2.300918 0.019964 -0.000358 110053.000000 0 0 1
-2.227497 -24.808764 -21.895710 33.164117 1.481250 2.291912 0.031764 0.002373 -966429.000000 0 0 1
-2.129397 -23.315264 -22.233910 32.287500 1.479718 2.330384 0.030922 -0.001918 284290.000000 0 0 1
-2.875997 -22.881364 -23.388510 32.845861 1.445760 2.363237 0.023464 -0.004636 632563.000000 0 0 1
-4.277997 -23.154364 -23.352810 33.162925 1.388097 2.352070 0.019053 -0.006430 -240141.000000 0 0 1
-4.860397 -23.275364 -24.757310 34.326236 1.364933 2.376381 0.011216 0.002722 -48371.400000 0 0 1
-4.900597 -22.058264 -25.508910 34.077667 1.352181 2.416672 0.012032 -0.000513 -120108.000000 0 0 1
-5.273797 -22.192064 -26.870410 35.246554 1.337481 2.437742 0.007095 0.009604 196176.000000 0 0 1
-5.372597 -20.831064 -27.615510 35.005920 1.318384 2.479783 0.004093 0.013045 46715.900000 0 0 1
-5.705197 -20.889464 -28.983210 36.179351 1.304185 2.499924 0.001334 0.015731 332752.000000 0 0 1
-4.650097 -21.400464 -29.817110 36.995450 1.356833 2.508103 -0.004226 0.012507 -43756.600000 0 0 1
-5.104097 -21.881364 -31.183410 38.435023 1.341632 2.517217 -0.001907 0.010670 -360800.000000 0 0 1
-5.365597 -20.812264 -32.065810 38.602541 1.318481 2.551099 0.013056 0.001363 749622.000000 0 0 1
-6.397597 -21.272664 -33.009110 39.787647 1.278658 2.549245 -0.000392 0.005629 756946.000000 0 0 1
-6.435297 -20.460564 -34.306010 40.459240 1.266070 2.582837 -0.002546 0.001595 564886.000000 0 0 1
-5.285797 -20.694064 34.144772 40.274675 1.320718 0.558978 -0.000242 0.005430 -70901.200000 0 0 1
-5.338697 -20.093564 32.865672 38.889657 1.311104 0.564043 -0.001955 0.008672 -231333.000000 0 0 1
-4.150897 -20.358564 31.961372 38.121259 1.369664 0.576431 0.002390 0.008685 -1373720.000000 0 0 1
-4.024597 -21.704164 31.534272 38.492577 1.387449 0.610729 0.013354 0.006290 732718.000000 0 0 1
-2.837297 -22.026264 30.783972 37.958655 1.442688 0.624959 0.012261 -0.002745 928564.000000 0 0 1
-1.444497 -21.847064 31.425872 38.300995 1.504774 0.608515 0.001482 -0.004888 -447664.000000 0 0 1
-0.988197 -20.495664 31.434472 37.538978 1.522619 0.578320 -0.008796 -0.010251 646464.000000 0 0 1
-0.014997 -20.170464 32.468872 38.224018 1.570053 0.555880 -0.004932 -0.000562 632263.000000 0 0 1
-0.728397 -19.785664 33.796972 39.169355 1.533999 0.529931 -0.010806 -0.005927 -621351.000000 0 0 1
-1.474397 -18.645064 33.692672 38.535807 1.491883 0.506761 -0.020079 -0.006418 -699507.000000 0 0 1
-1.960397 -18.375464 -34.277310 38.941428 1.464513 2.647137 -0.013579 -0.008467 -295114.000000 0 0 1
-2.957697 -17.237064 -34.232810 38.441509 1.400862 2.669276 -0.009496 -0.008504 -569157.000000 0 0 1
-2.484897 -15.999764 -34.533110 38.140567 1.416719 2.703157 -0.006717 -0.013102 -90615.000000 0 0 1
-3.462297 -14.963164 -34.425510 37.696148 1.343410 2.721955 -0.003497 -0.008371 152032.000000 0 0 1
-2.792097 -13.571964 34.480772 37.160701 1.367902 0.382102 -0.000628 -0.012365 -31077.800000 0 0 1
-1.766297 -13.156764 -33.912010 36.417643 1.437344 2.768480 0.004815 -0.005599 45688.100000 0 0 1
-1.507997 -11.746464 -33.998310 36.001925 1.443116 2.806400 -0.006156 -0.001414 323940.000000 0 0 1
-0.750697 -11.233464 33.948172 35.766362 1.504069 0.320224 -0.006246 -0.001721 -254765.000000 0 0 1
-1.608397 -11.134564 32.800672 34.676355 1.427338 0.330412 -0.008190 -0.005628 796038.000000 0 0 1
-0.835297 -10.932964 31.585972 33.435028 1.494543 0.334127 0.001486 -0.003165 653280.000000 0 0 1
-0.123397 -12.196664 30.982772 33.297237 1.560679 0.375046 -0.010059 -0.005056 497638.000000 0 0 1
-1.006197 -13.160464 30.384972 33.127885 1.494489 0.409796 -0.002639 -0.016536 188788.000000 0 0 1
-0.247797 -14.304764 30.050572 33.282497 1.553475 0.444341 -0.015357 -0.012797 59875.700000 0 0 1
-0.744897 -15.705064 30.606572 34.408810 1.523402 0.474551 -0.023446 -0.012591 -307296.000000 0 0 1
-1.809297 -16.255364 29.898972 34.080184 1.459948 0.500563 -0.008589 -0.014087 -351943.000000 0 0 1
-2.082397 -17.466564 30.457172 35.171815 1.452135 0.523742 -0.004190 -0.003739 -480818.000000 0 0 1
-2.631997 -18.453664 29.449572 34.853155 1.429125 0.564303 0.002657 -0.006383 -230457.000000 0 0 1
-3.849497 -18.156364 28.801172 34.263387 1.361871 0.572440 0.015265 -0.005609 -223545.000000 0 0 1
-4.371397 -19.155864 27.980272 34.189938 1.346437 0.612215 0.015558 0.000836 -475882.000000 0 0 1
-3.621797 -19.619664 26.726572 33.352036 1.388251 0.641252 0.014744 -0.007826 -437924.000000 0 0 1
-4.326097 -20.514264 25.843872 33.278460 1.362959 0.681554 0.032410 0.000681 -89786.500000 0 0 1
-4.311797 -21.871264 26.177272 34.383039 1.376148 0.705415 0.022265 -0.004479 -383912.000000 0 0 1
-28.268447 34.553136 -0.487428 44.645961 -0.885107 1.581714 0.008990 0.000489 165827.000000 0 0 1
-27.431637 -33.638920 -0.071228 43.405952 0.886691 1.572437 0.024252 0.010008 384980.000000 0 0 1
-27.940927 -32.914020 1.044872 43.187033 0.866937 1.546600 0.012904 0.003375 -238393.000000 0 0 1
-27.439857 -31.458520 1.314272 41.764955 0.853523 1.539323 0.028731 -0.004559 -617316.000000 0 0 1
-26.083727 -31.421220 1.610072 40.868645 0.877951 1.531390 0.028953 -0.011812 -1055490.000000 0 0 1
-25.647357 -30.097120 1.932972 39.589896 0.865054 1.521952 0.032735 -0.012404 -539595.000000 0 0 1
-24.131997 -30.138420 1.980372 38.660050 0.895625 1.519549 0.029579 -0.002340 -811099.000000 0 0 1
-23.717297 -30.845320 3.118472 39.034200 0.915302 1.490820 0.024479 -0.006434 144383.000000 0 0 1
-22.298797 -30.935120 3.171672 38.265878 0.946230 1.487816 0.011848 0.000096 236590.000000 0 0 1
-21.807497 -31.668720 4.446472 38.707180 0.967753 1.455668 0.012210 -0.008249 -266189.000000 0 0 1
-22.068597 -31.013120 5.622372 38.476585 0.952335 1.424147 0.010847 0.000380 -122116.000000 0 0 1
-21.377897 -31.555720 6.743772 38.707317 0.975355 1.395678 0.000668 0.008723 -415628.000000 0 0 1
-21.906797 -31.142020 8.124172 38.932445 0.957760 1.360578 0.000396 0.031059 -327894.000000 0 0 1
-21.383897 -29.926120 8.590272 37.770841 0.950368 1.341357 0.005697 0.024271 82468.600000 0 0 1
-22.066797 -29.464920 9.760072 38.083907 0.927988 1.311627 -0.002822 0.027772 -138923.000000 0 0 1
-21.453097 -28.232420 10.364672 36.942270 0.921005 1.286415 0.006170 0.028457 -5332.410000 0 0 1
-20.200297 -28.464720 10.966972 36.586428 0.953616 1.266360 0.004137 0.020764 -299453.000000 0 0 1
-19.707597 -27.382420 11.734872 35.719651 0.946960 1.236053 0.019914 0.021309 144885.000000 0 0 1
-18.389097 -27.785320 12.432772 35.563418 0.986151 1.213658 0.025732 0.019993 -34810.800000 0 0 1
-18.443397 -28.872220 13.315972 36.757027 1.002339 1.200094 0.027501 0.024602 -615992.000000 0 0 1
-17.326997 -28.904120 14.161272 36.554269 1.030771 1.172982 0.020106 0.014954 -200825.000000 0 0 1
-17.287297 -30.042020 15.248872 37.866894 1.048634 1.156335 0.029167 -0.005464 45067.400000 0 0 1
-17.028597 -31.309220 14.717872 38.559773 1.072661 1.179172 0.036292 -0.000043 -91636.400000 0 0 1
-16.943697 -32.237820 15.753672 39.680525 1.086891 1.162537 0.053452 -0.000414 140491.000000 0 0 1
-17.068697 -33.682820 15.311772 40.747063 1.101765 1.185562 0.030762 0.002582 86127.000000 0 0 1
-16.961197 -34.633920 16.348272 41.886234 1.115400 1.169837 0.041167 0.006481 68757.000000 0 0 1
-16.912697 33.393636 15.743372 40.608226 -1.101990 1.172673 0.028579 0.007383 -258501.000000 0 0 1
-16.959997 32.226136 16.752972 40.085252 -1.086346 1.139627 0.021471 0.004401 471630.000000 0 0 1
-18.177697 32.193536 17.510872 40.908227 -1.056784 1.128459 0.023039 0.000785 805321.000000 0 0 1
-18.204797 31.034436 18.298072 40.365459 -1.040288 1.100321 0.024609 0.004288 -70090.700000 0 0 1
-18.915197 31.160136 19.658172 41.414761 -1.025222 1.076212 0.018980 0.000320 -138407.000000 0 0 1
-18.146097 31.825836 20.596472 42.028316 -1.052600 1.058636 0.009854 0.004750 172615.000000 0 0 1
-18.993497 32.076736 21.718372 43.143454 -1.036186 1.043268 0.003911 0.012646 104202.000000 0 0 1
-18.397997 32.933536 22.838072 44.098544 -1.061344 1.026417 -0.016913 0.017041 117143.000000 0 0 1
-17.524297 32.151236 23.653472 43.592312 -1.071755 0.997259 -0.028479 0.004544 66380.100000 0 0 1
-17.127997 32.778436 24.903172 44.586569 -1.089281 0.978177 -0.033329 0.008020 265338.000000 0 0 1
-18.154097 32.649036 26.088972 45.564956 -1.063329 0.961163 -0.037161 0.018179 735956.000000 0 0 1
-19.469297 33.107436 25.814072 46.276583 -1.039199 0.979038 -0.026075 0.008490 74551.900000 0 0 1
-20.443697 32.475536 26.609572 46.697693 -1.008960 0.964502 -0.021836 0.007005 143165.000000 0 0 1
-21.864097 32.897736 26.147572 47.370827 -0.984220 0.986064 -0.020053 0.002428 -216637.000000 0 0 1
-22.156397 32.472536 24.859072 46.511772 -0.972040 1.006918 -0.002546 0.003878 250154.000000 0 0 1
-23.421497 32.906136 24.392272 47.184354 -0.952217 1.027504 -0.004197 0.001048 -17796.800000 0 0 1
-23.616397 32.427336 22.888072 46.185822 -0.941337 1.052311 -0.015109 -0.000443 -116497.000000 0 0 1
-22.953897 33.238436 21.927272 45.961726 -0.966419 1.073471 -0.015590 0.006790 216442.000000 0 0 1
-22.714797 32.574336 20.663472 44.766376 -0.961870 1.091016 -0.025167 0.015443 -34578.300000 0 0 1
-22.232697 33.496536 19.501172 44.683402 -0.984829 1.119169 -0.014546 0.013292 405982.000000 0 0 1
-21.054797 34.247836 19.806072 44.816283 -1.019582 1.113037 0.000363 0.015266 356096.000000 0 0 1
-20.529997 -34.449420 18.643772 44.224807 1.033363 1.135622 0.011987 0.017170 -501433.000000 0 0 1
-19.134697 -33.852120 18.783472 43.184736 1.056325 1.120807 0.028118 0.010353 -543567.000000 0 0 1
-19.127897 -32.714420 19.631172 42.678948 1.041708 1.092831 0.032164 0.006748 474267.000000 0 0 1
-17.829797 -32.180120 19.830572 41.793700 1.064839 1.076415 0.037402 0.006782 22961.400000 0 0 1
-17.905097 -31.154720 21.025472 41.632674 1.049176 1.041387 0.052837 0.003751 75964.400000 0 0 1
-18.700197 -30.003020 20.726672 40.981380 1.013437 1.040536 0.044895 0.004354 633488.000000 0 0 1
-19.271597 -29.439220 21.914872 41.452668 0.991178 1.013761 0.037161 0.006910 154191.000000 0 0 1
-20.053997 -28.088120 21.708172 40.771926 0.950758 1.009328 0.030380 -0.005615 -149149.000000 0 0 1
-19.303597 -26.954620 21.311872 39.412895 0.949312 0.999487 0.027916 -0.000237 729782.000000 0 0 1
-20.127597 -25.767920 21.106572 38.917775 0.907680 0.997579 0.031922 0.011702 1044120.000000 0 0 1
-21.328497 -25.757020 20.074572 39.004067 0.879175 1.030163 0.035891 0.012365 877539.000000 0 0 1
-22.620397 -26.148120 20.533572 40.212362 0.857608 1.034881 0.037694 0.008242 216688.000000 0 0 1
-23.450197 -26.139720 19.407572 40.122943 0.839580 1.065916 0.026531 0.015108 539389.000000 0 0 1
-24.981297 -26.398620 19.740072 41.359675 0.812976 1.073242 0.001678 0.003665 1125640.000000 0 0 1
-25.381287 -27.737720 19.912672 42.545332 0.829730 1.083731 0.002043 0.002614 -41614.800000 0 0 1
-25.454587 -28.393920 18.610272 42.432215 0.839929 1.116769 0.004551 0.000444 -1081010.000000 0 0 1
-26.422057 -29.557820 18.493372 43.746938 0.841356 1.134335 -0.006461 -0.006650 -182351.000000 0 0 1
-27.715087 -28.987420 18.606372 44.210786 0.807833 1.136408 -0.032900 -0.008472 298230.000000 0 0 1
-28.777947 -29.813220 18.063072 45.202576 0.803066 1.159713 -0.025389 0.007390 733476.000000 0 0 1
-30.143707 -29.264720 18.525872 45.915954 0.770604 1.155486 -0.019130 0.004107 -203167.000000 0 0 1
-30.287907 -27.880320 18.120072 44.977845 0.744032 1.156150 -0.009466 0.005089 510853.000000 0 0 1
-31.643647 -27.509020 18.369572 45.776716 0.715614 1.157876 -0.036432 0.024685 238986.000000 0 0 1
-32.014197 -26.263420 17.632372 45.006406 0.687038 1.168237 -0.028011 0.016450 -283979.000000 0 0 1
-31.964387 -26.518120 16.240372 44.594645 0.692540 1.198047 -0.005750 -0.002769 214677.000000 0 0 1
-32.398607 -25.349920 15.559772 43.981754 0.663941 1.209189 -0.001839 -0.006303 -265206.000000 0 0 1
-31.359497 -24.302220 15.089772 42.446639 0.659282 1.207348 -0.004230 0.004081 -380562.000000 0 0 1
-30.756277 -23.601220 16.113472 41.983450 0.654521 1.176883 -0.014052 0.008861 -33943.200000 0 0 1
-30.587917 -22.237920 15.801372 40.985718 0.628629 1.175010 -0.019838 0.010712 -64610.700000 0 0 1
-31.686777 -21.294420 16.421572 41.559261 0.591706 1.164580 -0.015634 0.008394 355649.000000 0 0 1
-31.572927 -20.843720 17.747572 41.788595 0.583496 1.132167 -0.012326 0.009279 135907.000000 0 0 1
-32.479367 -19.756620 17.870072 42.006818 0.546487 1.131383 -0.007086 0.006561 175245.000000 0 0 1
-32.853927 -19.393020 19.345172 42.775056 0.533242 1.101506 -0.004966 0.000143 544375.000000 0 0 1
-33.947217 -20.138220 19.933372 44.218783 0.535420 1.103146 -0.004057 0.000220 949986.000000 0 0 1
-34.349374 -19.423020 21.129872 44.761643 0.514631 1.079178 -0.008330 0.005373 -250747.000000 0 0 1
34.169010 -19.738820 21.632472 45.001179 -0.523847 1.069333 -0.010077 0.008275 -278733.000000 0 0 1
33.857212 -21.086520 22.092672 45.596472 -0.557021 1.064975 -0.001171 0.005217 32340.600000 0 0 1
34.591175 -21.596820 23.188172 46.911228 -0.558128 1.053768 -0.018382 0.012997 -300327.000000 0 0 1
34.041527 -23.006220 23.529172 47.346949 -0.594318 1.050713 -0.011889 0.011056 -91832.300000 0 0 1
32.856322 -22.883120 24.262372 46.817067 -0.608346 1.026007 0.003064 0.001663 -319510.000000 0 0 1
32.463152 -24.147220 24.714972 47.410698 -0.639544 1.022428 0.004552 -0.001707 -505416.000000 0 0 1
31.588262 -24.179420 25.961972 47.502491 -0.653320 0.992570 0.018255 -0.007596 -1192360.000000 0 0 1
30.314462 -23.704120 25.706372 46.278175 -0.663632 0.981862 0.023096 -0.014139 -1106770.000000 0 0 1
29.574172 -23.882820 26.891672 46.563749 -0.679332 0.955104 0.016767 -0.001053 -102035.000000 0 0 1
28.330342 -24.772820 26.663272 46.121914 -0.718505 0.954393 0.023080 -0.004363 -1920.210000 0 0 1
27.201882 -24.093220 26.158872 44.774012 -0.724869 0.946850 0.021229 -0.001037 -592916.000000 0 0 1
26.084322 -24.864520 25.900972 44.379010 -0.761461 0.947603 0.019551 0.014617 -324.711000 0 0 1
24.904912 -24.051120 25.270272 42.863710 -0.767960 0.940296 0.012781 0.014653 70504.500000 0 0 1
25.051742 -23.633220 23.939672 41.943137 -0.756270 0.963359 0.024442 -0.002659 -116875.000000 0 0 1
26.102462 -22.740620 23.669072 41.936849 -0.716677 0.971093 0.029269 -0.003903 -267232.000000 0 0 1
26.092922 -22.151320 22.228272 40.811979 -0.703878 0.994824 0.033777 -0.016424 -168090.000000 0 0 1
25.432302 -20.895920 22.180572 39.691551 -0.687791 0.977830 0.031293 -0.019381 40751.600000 0 0 1
25.252002 -20.373120 20.890572 38.589423 -0.678869 0.998749 0.011907 -0.017512 -315640.000000 0 0 1
24.185882 -19.270820 20.973572 37.365922 -0.672774 0.974838 0.016996 -0.014732 -302578.000000 0 0 1
24.605782 -18.072020 21.516172 37.349539 -0.633483 0.956876 0.019474 -0.025499 59483.900000 0 0 1
24.578782 -18.140120 22.967372 38.218852 -0.635803 0.926115 0.022807 -0.018424 -166203.000000 0 0 1
24.704782 -16.727720 23.582872 38.030181 -0.595194 0.901914 0.032612 -0.009381 20990.800000 0 0 1
23.426282 -16.130320 23.491972 36.889709 -0.603004 0.880434 -0.004608 0.006990 56992.000000 0 0 1
23.451282 -14.805920 24.018272 36.688626 -0.563151 0.857075 -0.012582 0.014616 -970937.000000 0 0 1
22.112882 -14.137320 23.935472 35.521123 -0.568834 0.831406 -0.034683 0.014603 -804103.000000 0 0 1
21.148282 -14.809620 24.703372 35.732776 -0.610911 0.807459 -0.000452 0.020453 472332.000000 0 0 1
19.822782 -14.270120 24.622772 34.682271 -0.623947 0.781365 0.014189 0.013309 905499.000000 0 0 1
18.724582 -15.186320 25.218472 34.888474 -0.681434 0.762906 0.024032 0.017586 -186973.000000 0 0 1
18.468682 -16.265220 24.363272 34.629736 -0.722045 0.790435 0.030098 0.028127 181663.000000 0 0 1
17.144382 -16.709620 24.597172 34.324366 -0.772557 0.771867 0.014218 0.030842 92727.200000 0 0 1
16.723382 -17.843720 23.640872 34.014124 -0.817797 0.802333 0.002654 0.005704 -338394.000000 0 0 1
17.272282 -19.053020 24.010072 35.182849 -0.834381 0.819705 -0.000611 0.009267 34370.400000 0 0 1
16.923882 -19.951720 23.003672 34.837592 -0.867324 0.849562 -0.001380 0.001502 -174140.000000 0 0 1
17.236582 -21.424220 23.390172 36.099821 -0.893295 0.865932 0.001251 0.001193 -341208.000000 0 0 1
16.350082 -21.892820 24.353172 36.601881 -0.929331 0.842830 0.000865 -0.001547 110347.000000 0 0 1
16.724582 -23.245520 24.595272 37.749082 -0.947119 0.861175 0.024585 -0.008687 -9076.130000 0 0 1
16.550482 -24.388220 23.565572 37.736453 -0.974560 0.896334 0.019793 0.000018 167316.000000 0 0 1
17.465282 -24.303820 22.478072 37.429606 -0.947681 0.926617 0.019220 0.002709 -65240.200000 0 0 1
18.637682 -25.065320 22.670172 38.594950 -0.931427 0.942970 0.023130 -0.006614 -214648.000000 0 0 1
19.502082 -24.985720 21.387272 38.236537 -0.908041 0.977205 0.017691 0.002474 -341234.000000 0 0 1
18.974582 -25.754920 20.348372 37.913149 -0.935838 1.004263 0.027285 -0.009959 334449.000000 0 0 1
19.942182 -26.077720 19.369772 38.117268 -0.917940 1.037746 0.024197 -0.004527 256997.000000 0 0 1
19.172982 -26.645920 18.171772 37.520948 -0.947072 1.065222 0.020302 -0.009926 332748.000000 0 0 1
18.426682 -27.797620 18.568572 38.171221 -0.985415 1.062769 0.044571 -0.023299 -59304.000000 0 0 1
17.677182 -28.271720 17.479872 37.647295 -1.012010 1.087945 0.050523 -0.020737 -596032.000000 0 0 1
16.924682 -29.540520 17.908572 38.468222 -1.050518 1.086549 0.062495 -0.024531 -474550.000000 0 0 1
15.964582 -29.223320 18.872272 38.275749 -1.070801 1.055192 0.061260 -0.034065 -527502.000000 0 0 1
15.242082 -30.365720 19.249272 39.050384 -1.105590 1.055337 0.075786 -0.035314 -643840.000000 0 0 1
14.067182 -30.010620 20.132972 38.779627 -1.132468 1.024924 0.064000 -0.021326 -933678.000000 0 0 1
13.092482 -29.378520 19.380972 37.551732 -1.151567 1.028489 0.060570 -0.025408 201490.000000 0 0 1
11.835982 -29.057020 20.028372 37.222796 -1.183982 1.002654 0.030165 -0.009824 615986.000000 0 0 1
10.904982 -28.521220 18.988172 35.957326 -1.205601 1.014464 0.027463 -0.013108 -623866.000000 0 0 1
10.533482 -29.495920 17.990172 36.119383 -1.227796 1.049419 0.027164 -0.011880 318143.000000 0 0 1
9.804082 -28.818520 16.944372 34.838755 -1.242878 1.062871 0.039951 -0.009851 238238.000000 0 0 1
9.556482 -29.576320 15.596672 34.775583 -1.258272 1.105716 0.038355 -0.008727 165240.000000 0 0 1
8.649182 -30.663120 15.728572 35.530596 -1.295868 1.112215 0.016640 0.000911 173121.000000 0 0 1
8.491682 -31.358920 14.476972 35.567868 -1.306348 1.151603 0.010363 0.007118 -270520.000000 0 0 1
7.391482 -32.403920 14.307872 36.185124 -1.346529 1.164285 -0.009147 0.011201 -486534.000000 0 0 1
7.549382 -33.572720 15.035472 37.552445 -1.349609 1.158858 0.000873 0.001274 -5352.470000 0 0 1
6.573182 -34.571920 14.789772 38.172787 -1.382908 1.172940 -0.021990 0.002545 -270069.000000 0 0 1
6.632982 33.666736 15.881672 37.811018 1.376269 1.137321 -0.003774 -0.000465 340925.000000 0 0 1
7.807782 32.864936 15.902672 37.335780 1.337549 1.130800 0.002330 -0.003118 141250.000000 0 0 1
7.721182 31.899736 16.970772 36.948842 1.333318 1.093584 0.006240 -0.011416 841290.000000 0 0 1
9.120782 31.203936 17.185272 36.772379 1.286422 1.084515 0.003374 -0.012954 444434.000000 0 0 1
9.341082 30.312536 16.144372 35.591381 1.271871 1.099992 0.006565 -0.013843 -108896.000000 0 0 1
10.531682 29.592936 16.411172 35.439875 1.228888 1.089340 0.007815 -0.006705 75561.400000 0 0 1
11.394682 29.042336 15.237972 34.720194 1.196904 1.116445 0.005172 -0.003034 43132.400000 0 0 1
10.726882 28.227336 14.294872 33.409457 1.207634 1.128663 -0.000081 0.004028 -697020.000000 0 0 1
11.633182 27.537236 13.536572 32.815683 1.171085 1.145596 0.012033 0.010346 -462252.000000 0 0 1
-8.907097 -10.072664 18.913655 23.206061 0.846732 0.618014 0.032037 -0.002028 -398812.000000 0 1 0
-9.217997 -9.886864 17.575555 22.172543 0.820394 0.655617 0.027761 -0.012440 58016.500000 0 1 0
-9.036597 -11.078364 16.793455 22.054713 0.886557 0.705257 0.030536 -0.018272 -68127.800000 0 1 0
-9.381497 -10.956064 15.290455 21.020129 0.862666 0.756242 0.029871 -0.026141 351632.000000 0 1 0
-10.807097 -10.976264 15.244555 21.671829 0.793164 0.790588 0.022956 -0.009937 382991.000000 0 1 0
-11.457197 -11.648564 14.218055 21.658936 0.793680 0.854690 0.031237 -0.015739 -92602.500000 0 1 0
-11.473497 -13.204364 14.257555 22.567105 0.855422 0.886943 0.030581 -0.011734 7734.370000 0 1 0
-10.200397 -13.772864 13.925955 22.083299 0.933328 0.888457 0.030504 -0.006391 521581.000000 0 1 0
-10.053497 -15.176064 14.173455 23.071033 0.985713 0.909247 0.025355 -0.002356 209725.000000 0 1 0
-9.627697 -15.516564 15.662555 24.057679 1.015455 0.861840 0.022267 -0.001459 832678.000000 0 1 0
-10.693297 -15.144964 16.569955 24.865236 0.956013 0.841439 0.029311 0.004080 708547.000000 0 1 0
-10.191197 -15.034764 17.922355 25.516964 0.975097 0.792074 0.027352 0.001570 352848.000000 0 0 1
-11.281697 -14.553564 18.921255 26.402591 0.911371 0.771818 0.025670 0.004735 -310739.000000 0 0 1
-11.682797 -13.196664 18.774855 25.751405 0.846171 0.753818 0.032727 0.010168 784126.000000 0 0 1
-12.937397 -12.965364 18.096455 25.747982 0.786478 0.791428 0.033693 0.002137 1385820.000000 0 0 1
-14.229897 -13.269264 18.925355 27.142815 0.750479 0.799241 0.026576 0.007453 -50845.100000 0 0 1
-14.417297 -14.678464 19.123355 28.089472 0.794374 0.821940 0.028400 0.010529 -110063.000000 0 0 1
-14.953497 -14.972664 20.429455 29.413438 0.786039 0.802985 0.017424 0.007755 -44778.800000 0 0 1
-15.258197 -16.463064 20.582355 30.454530 0.823363 0.828694 0.018170 0.013609 -482321.000000 0 0 1
-16.441397 -16.865764 19.961855 30.874734 0.798139 0.867752 0.021025 0.021571 -323725.000000 0 0 1
-16.578297 -18.309364 20.117255 31.855560 0.834976 0.887291 -0.013716 0.021062 -74051.300000 0 0 1
-17.931597 -18.883364 19.623155 32.606622 0.811245 0.925025 0.017093 0.020528 179245.000000 0 0 1
-18.010597 -19.058464 18.180355 31.908180 0.813659 0.964569 0.027226 0.017122 96668.500000 0 0 1
-18.323597 -17.836564 17.524955 31.000343 0.771930 0.969981 0.032586 0.006301 -444834.000000 0 0 1
-18.137397 -17.852264 15.999555 30.060842 0.777476 1.009553 0.032987 -0.001963 89752.100000 0 0 1
-19.050797 -18.753564 15.366255 30.834247 0.777536 1.049101 0.039086 0.000437 319916.000000 0 0 1
-18.714097 -18.798264 14.014055 29.999765 0.787642 1.084744 0.042172 -0.004428 8110.110000 0 0 1
-19.235697 -19.985964 13.285655 30.756453 0.804525 1.124128 0.032886 0.006589 -682536.000000 0 0 1
-18.575997 -21.126764 13.654755 31.270755 0.849557 1.118911 0.029674 0.022309 -223166.000000 0 0 1
-18.496197 -22.169364 12.669555 31.529472 0.875480 1.157280 0.022903 0.020957 -585918.000000 0 0 1
-17.684197 -23.358964 13.269655 32.162956 0.922790 1.145516 0.021019 0.021357 101919.000000 0 0 1
-17.401597 -24.431064 12.390055 32.453134 0.951881 1.179072 0.026150 0.014174 812792.000000 0 0 1
-16.352597 -24.139064 11.422755 31.314233 0.975377 1.197402 0.020193 0.013777 389681.000000 0 0 1
-16.217997 -25.337534 10.377055 31.822906 1.001428 1.238634 0.012532 0.019280 143374.000000 0 0 1
-17.398297 -25.477524 9.597755 32.309780 0.971647 1.269190 0.014602 0.020380 -24019.400000 0 0 1
-17.372697 -26.582684 8.704055 32.927348 0.991941 1.303276 0.011211 0.023339 128327.000000 0 0 1
-18.387797 -26.535394 7.541155 33.152786 0.964815 1.341321 0.002488 0.016242 62568.400000 0 0 1
-18.351297 -25.455504 6.587955 32.064839 0.946170 1.363865 0.002360 0.009942 14723.500000 0 0 1
-19.418897 -25.528814 5.659055 32.570520 0.920504 1.396162 0.009271 0.006011 91513.500000 0 0 1
-19.348097 -24.299764 4.738155 31.420972 0.898361 1.419423 0.006755 0.004560 399407.000000 0 0 1
-20.351697 -24.255664 3.716055 31.880054 0.872694 1.453967 0.009031 -0.001695 55002.100000 0 0 1
-20.446097 -23.005464 3.033655 30.927291 0.844232 1.472548 0.002972 0.005667 178761.000000 0 0 1
-21.255197 -23.065964 1.705755 31.412286 0.826231 1.516467 -0.014945 0.006593 -159436.000000 0 0 1
-20.545097 -23.660564 0.662755 31.342663 0.855758 1.549649 -0.030227 0.000491 -218643.000000 0 0 1
-21.180697 -23.562464 -0.601745 31.688700 0.838580 1.589787 -0.018428 0.007136 -343921.000000 0 0 1
-20.665097 -24.479064 -1.709545 32.081043 0.869682 1.624110 -0.021416 0.010614 -91495.200000 0 0 1
-19.372397 -24.166564 -2.228145 31.052813 0.895068 1.642611 -0.020228 0.008170 720817.000000 0 0 1
-18.697797 -25.076344 -3.139245 31.437008 0.930095 1.670821 -0.000864 0.015278 426073.000000 0 0 1
-18.701097 -26.576614 -2.765245 32.614322 0.957613 1.655684 0.017573 0.005145 -424767.000000 0 0 1
-19.766797 -27.362094 -3.309445 33.917000 0.945184 1.668527 0.015257 -0.001530 70718.300000 0 0 1
-19.254697 -28.495234 -3.964545 34.618483 0.976555 1.685569 0.029502 0.005248 -56997.100000 0 0 1
-20.293097 -29.176564 -4.905645 35.876831 0.963078 1.707962 0.023691 0.001841 274572.000000 0 0 1
-20.677797 -28.378954 -5.972945 35.617585 0.941112 1.739289 0.012842 0.007350 52675.100000 0 0 1
-21.635997 -29.031974 -6.797245 36.839848 0.930344 1.756368 0.007569 -0.000265 134715.000000 0 0 1
-22.074797 -28.328644 -8.137945 36.824379 0.908843 1.793629 -0.002541 0.011222 -32539.800000 0 0 1
-21.077597 -28.281184 -9.150845 36.439380 0.930318 1.824639 0.014962 0.014566 182571.000000 0 0 1
-21.614797 -28.242014 -10.428045 37.061502 0.917548 1.856019 0.014443 0.025941 71586.700000 0 0 1
-22.300297 -26.911564 -10.927545 36.618940 0.878828 1.873825 0.001542 0.034223 -209036.000000 0 0 1
-21.412597 -25.848854 -11.112245 35.357383 0.878990 1.890498 -0.007496 0.036182 -188555.000000 0 0 1
-21.098097 -25.107014 -9.937845 34.267369 0.871945 1.865033 -0.015754 0.040491 220357.000000 0 0 1
-20.735197 -23.556164 -10.237045 33.009670 0.849003 1.886118 -0.012680 0.028275 1035770.000000 0 0 1
-21.957897 -22.862464 -10.557245 33.411030 0.805577 1.892287 -0.018353 0.027022 839977.000000 0 0 1
-21.776097 -21.478564 -10.808945 32.440105 0.778520 1.910489 -0.009028 0.025096 1073260.000000 0 0 1
-23.213197 -20.834264 -10.815845 33.013657 0.731442 1.904577 -0.003556 0.020116 393080.000000 0 0 1
-23.981197 -20.975764 -11.974345 34.036237 0.718646 1.930302 -0.021217 0.023771 350727.000000 0 0 1
-25.220337 -20.274064 -11.999745 34.512272 0.677101 1.925908 -0.017345 0.010773 345513.000000 0 0 1
-25.088127 -18.726764 -11.936945 33.505171 0.641218 1.935071 -0.013402 0.003335 -1758720.000000 0 0 1
-24.540497 -18.270164 -13.144145 33.298700 0.639966 1.976575 -0.013993 0.005771 404811.000000 0 0 1
-24.104797 -16.863964 -13.021945 32.171502 0.610464 1.987520 0.005789 -0.008220 136449.000000 0 0 1
-23.215997 -16.352964 -11.853545 30.771878 0.613662 1.966229 -0.004124 -0.005740 -152629.000000 0 0 1
-23.906997 -16.399564 -10.610145 30.871757 0.601250 1.921634 0.007752 -0.015271 830536.000000 0 0 1
-22.918997 -16.194664 -9.600545 29.660041 0.615145 1.900419 0.005484 -0.010187 658095.000000 0 0 1
-23.354497 -16.945264 -8.349845 30.038216 0.627680 1.852481 -0.000388 -0.012229 202769.000000 0 0 1
-23.452397 -18.329864 -8.390045 30.925583 0.663406 1.845538 -0.012493 -0.002198 224096.000000 0 0 1
-24.089697 -18.852564 -7.201445 31.426000 0.664040 1.802006 -0.004752 0.001410 240466.000000 0 0 1
-24.250497 -20.362464 -7.201045 32.474168 0.698468 1.794402 -0.007292 0.002384 -288433.000000 0 0 1
-25.256567 -20.750464 -8.117045 33.680296 0.687766 1.814195 -0.023098 -0.002645 -41338.000000 0 0 1
-25.601277 -22.104564 -7.899845 34.733912 0.712232 1.800243 -0.029783 0.009927 80631.200000 0 0 1
-24.817197 -23.265264 -8.576845 35.081734 0.753133 1.817782 -0.040527 0.026199 99670.900000 0 0 1
-25.518577 -24.449964 -8.330645 36.309753 0.764016 1.802291 -0.035323 0.022366 -506279.000000 0 0 1
-24.831197 -25.545514 -8.829545 36.703167 0.799577 1.813746 -0.034998 0.033763 -379516.000000 0 0 1
-25.538257 -26.888114 -8.624045 38.072922 0.811140 1.799293 -0.025792 0.028030 -186836.000000 0 0 1
-25.260197 -27.358434 -7.317445 37.948735 0.825253 1.764836 -0.011021 0.006826 252616.000000 0 0 1
-25.955997 -28.584914 -7.042945 39.248110 0.833562 1.751220 0.000935 0.002820 106093.000000 0 0 1
-25.631427 -29.220794 -5.642945 39.276808 0.850742 1.714966 0.009050 0.001593 196115.000000 0 0 1
-26.220587 -28.588644 -4.508845 39.053290 0.828577 1.686508 -0.016481 -0.000331 168390.000000 0 0 1
-25.465537 -28.883004 -3.341045 38.650796 0.848196 1.657346 -0.015892 -0.000105 -70848.100000 0 0 1
-25.685737 -30.284364 -2.731245 39.804013 0.867376 1.639468 -0.010365 0.002516 -427610.000000 0 0 1
-25.135317 -31.345144 -3.434245 40.324884 0.894905 1.656064 0.014119 -0.006486 -140466.000000 0 0 1
-24.917197 -32.557594 -2.716745 41.088251 0.917558 1.636964 0.018097 -0.012411 199291.000000 0 0 1
-24.032797 -32.576174 -1.429745 40.507118 0.935187 1.606100 0.028873 -0.018705 -165307.000000 0 0 1
-22.689397 -32.232034 -1.682945 39.453074 0.957431 1.613466 0.043791 -0.029676 -379063.000000 0 0 1
-21.930697 -32.548084 -0.508545 39.250374 0.977876 1.583753 0.036876 -0.025563 1133020.000000 0 0 1
-20.763797 -31.452484 -0.298945 37.689301 0.987309 1.578728 0.029360 -0.023791 345715.000000 0 0 1
-21.176297 -30.110054 -0.122645 36.811220 0.957861 1.574128 0.025529 -0.019002 -294197.000000 0 0 1
-21.609097 -29.530244 -1.331245 36.616398 0.939070 1.607161 0.015882 -0.015878 -436010.000000 0 0 1
-22.266197 -28.162334 -1.124245 35.918860 0.901790 1.602101 0.000119 -0.007926 230131.000000 0 0 1
-23.492797 -28.372844 -0.422045 36.838945 0.879212 1.582253 0.007365 -0.013384 719808.000000 0 0 1
-24.297697 -27.196894 -0.086245 36.469940 0.841640 1.573161 0.003213 -0.007057 551367.000000 0 0 1
-23.664497 -26.260104 0.962855 35.362813 0.837342 1.543565 0.007151 -0.009760 -285122.000000 0 0 1
-23.650497 -26.711484 2.279655 35.749772 0.846103 1.506986 0.006531 -0.009010 375145.000000 0 0 1
-22.870397 -25.905604 3.193155 34.703769 0.847546 1.478654 0.025462 -0.009132 119814.000000 0 0 1
-23.737897 -24.846264 3.905855 34.584394 0.808208 1.457618 0.034691 -0.011283 9188.000000 0 0 1
-24.241697 -23.835064 3.045255 34.132737 0.776940 1.481460 0.011917 -0.013842 -64196.200000 0 0 1
-25.062497 -22.912764 3.715655 34.160351 0.740619 1.461810 0.009006 -0.005348 -324132.000000 0 0 1
-25.389187 -21.742664 2.841055 33.547367 0.708183 1.486007 0.011581 -0.004195 -693053.000000 0 0 1
-24.236497 -20.970164 2.668755 32.160190 0.713270 1.487718 0.000910 -0.001508 -441821.000000 0 0 1
-24.294797 -19.910864 1.709255 31.457928 0.686550 1.516435 -0.004198 -0.002993 -780122.000000 0 0 1
-23.085697 -19.010664 1.658655 29.951726 0.688896 1.515390 0.007668 -0.000320 -1033880.000000 0 0 1
-21.971897 -19.735464 1.241255 29.559998 0.731827 1.528793 0.000006 0.002779 -420747.000000 0 0 1
-20.802397 -18.937164 1.392355 28.165485 0.738496 1.521341 -0.002248 0.006698 83042.100000 0 0 1
-19.478397 -19.677064 1.153755 27.711477 0.790472 1.529150 -0.020377 0.006156 -468352.000000 0 0 1
-19.288297 -20.156064 -0.157745 27.898570 0.807394 1.576451 -0.024151 0.003898 -849120.000000 0 0 1
-18.208797 -20.996864 -0.236945 27.793609 0.856393 1.579322 -0.002212 0.008973 -717934.000000 0 0 1
-17.915297 -21.337564 -1.718445 27.914200 0.872363 1.632397 0.006159 0.005266 -75944.500000 0 0 1
-17.376997 -20.249964 -2.426945 26.793864 0.861604 1.661499 -0.002776 0.009523 -143981.000000 0 0 1
-17.248097 -20.445264 -3.827245 27.021352 0.870016 1.712912 0.007792 0.011863 200398.000000 0 0 1
-16.289997 -19.443464 -4.500145 25.761669 0.873420 1.746381 0.005015 0.019157 227907.000000 0 0 1
-14.908597 -19.481364 -4.206445 24.889435 0.917591 1.740617 0.016918 0.016677 80154.000000 0 1 0
-14.212597 -18.566364 -5.059445 23.922913 0.917447 1.783895 0.011261 0.010172 193432.000000 0 1 0
-12.683997 -18.802564 -4.993645 23.224054 0.977329 1.787509 0.013209 0.015665 73248.800000 0 1 0
-12.230497 -19.956564 -5.627145 24.073102 1.020978 1.806732 0.024191 0.009484 -74307.200000 0 1 0
-10.815297 -19.931464 -5.658345 23.372008 1.073633 1.815325 0.015760 0.010644 463458.000000 0 1 0
-10.212997 -21.385664 -5.815645 24.402329 1.125259 1.811435 0.022398 0.006885 65567.600000 0 1 0
-10.701297 -22.119064 -6.923445 25.528510 1.120189 1.845440 0.040270 -0.001032 -162718.000000 0 0 1
-9.701197 -22.956064 -7.475545 26.018798 1.170962 1.862217 0.033611 0.002165 -161379.000000 0 0 1
-10.187597 -23.864764 -8.585745 27.331833 1.167327 1.890336 0.030120 -0.009690 -404004.000000 0 0 1
-10.506097 -23.210964 -9.796345 27.296434 1.145753 1.937872 0.020473 -0.006681 -55040.200000 0 0 1
-10.625497 -24.151364 -10.896445 28.546840 1.156328 1.962436 0.033526 -0.014066 -102537.000000 0 0 1
-11.172797 -23.556264 -12.194145 28.782393 1.127917 2.008286 0.053750 -0.017371 -216359.000000 0 0 1
-10.322697 -22.699764 -12.896745 28.074248 1.144000 2.048093 0.033118 -0.006553 -274043.000000 0 0 1
-11.054697 -22.201564 -13.996145 28.478200 1.108811 2.084572 0.037467 -0.005583 -238138.000000 0 0 1
-10.444297 -20.974964 -14.635445 27.626594 1.108797 2.129113 0.032263 -0.004674 -384942.000000 0 0 1
-10.416597 -19.926664 -13.639945 26.298774 1.089117 2.116071 0.034342 0.000242 -324086.000000 0 0 1
-10.038797 -18.642564 -14.078545 25.426916 1.076834 2.157581 0.027251 0.009667 -145432.000000 0 0 1
-9.815397 -17.749464 -12.853345 24.012371 1.065655 2.135636 0.014259 0.007005 -115893.000000 0 1 0
-11.012497 -17.405964 -12.178145 23.928015 1.006690 2.104760 0.012478 0.003407 -52696.000000 0 1 0
-10.857897 -16.414064 -11.146345 22.617613 0.986379 2.086121 0.017886 -0.005459 14560.900000 0 1 0
-10.489797 -15.009764 -11.672445 21.715774 0.960833 2.138278 0.024708 -0.001655 -220033.000000 0 1 0
-11.557797 -14.414664 -12.338145 22.216999 0.894954 2.159577 0.023118 0.014257 -202162.000000 0 1 0
-11.138397 -13.883364 -13.594545 22.396949 0.894664 2.223054 0.016021 0.000658 372146.000000 0 1 0
-12.327497 -13.380764 -14.467045 23.244514 0.826345 2.242583 0.003259 0.006718 127411.000000 0 1 0
-12.724397 -12.089464 -14.070945 22.495709 0.759816 2.246562 0.010579 0.015167 -1033380.000000 0 1 0
-13.699997 -11.592064 -14.907945 23.330510 0.702247 2.263980 -0.000552 0.015352 -700756.000000 0 1 0
-14.264997 -10.285964 -14.303045 22.668663 0.624723 2.253588 0.000917 0.006557 -459010.000000 0 1 0
-13.423097 -9.162464 -14.358745 21.686490 0.598945 2.294421 0.015908 0.005062 -210308.000000 0 1 0
-13.540997 -8.382364 -15.510145 22.230322 0.554299 2.342981 0.017075 -0.003774 197936.000000 0 1 0
-12.453797 -7.261364 -15.603845 21.243927 0.527874 2.395738 0.021707 0.010581 -284997.000000 0 1 0
-11.217397 -7.751464 -15.957545 20.989484 0.604675 2.434515 0.025191 0.014601 -230832.000000 0 1 0
-10.110697 -6.838564 -15.890645 20.037583 0.594690 2.486583 0.011279 0.021880 979787.000000 0 1 0
11.060103 21.995036 15.899855 29.307215 1.104875 0.997358 0.033233 0.020765 206931.000000 0 0 1
12.000403 21.990536 16.975555 30.261573 1.071255 0.975250 0.039559 0.020286 120722.000000 0 0 1
12.224403 20.688136 17.433355 29.687655 1.037103 0.943169 0.034602 0.012840 41645.100000 0 0 1
13.352503 20.654336 18.511355 30.782482 0.996903 0.925594 0.028834 0.009537 -182505.000000 0 0 1
14.588003 20.845736 17.906355 31.112571 0.960200 0.957539 0.021789 0.016393 -909016.000000 0 0 1
15.695603 20.434736 18.664055 31.816306 0.915821 0.943918 0.023477 0.014972 442764.000000 0 0 1
17.004903 21.185136 18.270455 32.738147 0.894423 0.978728 0.018758 0.010773 -529310.000000 0 0 1
16.991803 22.507536 18.677255 33.825292 0.924142 0.985834 0.025975 0.008970 957485.000000 0 0 1
18.061003 23.331636 18.083255 34.605913 0.912049 1.020959 0.030695 0.016759 1388150.000000 0 0 1
19.481903 23.095436 18.648455 35.506458 0.870065 1.017831 0.006373 0.010991 -340305.000000 0 0 1
19.987903 21.777036 18.475855 34.858468 0.828210 1.012166 0.016473 0.006642 716668.000000 0 0 1
21.328003 21.670136 18.996955 35.851957 0.793355 1.012346 0.019306 -0.001791 759542.000000 0 0 1
21.842703 20.217236 19.044355 35.334512 0.746771 1.001579 0.004402 -0.003373 -108956.000000 0 0 1
21.861503 19.642636 17.746455 34.332130 0.731988 1.027565 -0.007297 0.002776 272883.000000 0 0 1
21.304403 18.323136 17.622355 33.168695 0.710307 1.010668 -0.006246 -0.002889 -47565.100000 0 0 1
22.249103 17.205736 18.138255 33.467241 0.658261 0.998016 -0.019848 0.006789 618361.000000 0 0 1
23.479103 17.188036 17.407755 33.907622 0.631918 1.031669 -0.032045 0.008943 423079.000000 0 0 1
24.360503 16.190736 17.832055 34.257207 0.586592 1.023320 -0.046983 0.008832 172892.000000 0 0 1
25.744803 16.144136 17.122455 34.879887 0.560096 1.057677 -0.002777 0.002721 -1244190.000000 0 0 1
26.566803 17.315936 17.305455 36.126382 0.577631 1.071252 -0.006528 0.008746 591357.000000 0 0 1
27.904703 16.957536 17.599255 37.093992 0.546058 1.076457 -0.008242 0.005524 351199.000000 0 0 1
28.672703 15.939136 16.678855 36.801687 0.507361 1.100434 -0.006997 0.001060 -1659850.000000 0 0 1
28.982003 16.490036 15.373355 36.718086 0.517295 1.138798 0.018025 -0.008332 -21770.900000 0 0 1
29.465103 15.492436 14.543455 36.327950 0.484066 1.158911 0.039034 -0.018559 -276653.000000 0 0 1
28.552103 15.314236 13.320955 35.031361 0.492312 1.180721 0.025170 -0.007084 -443508.000000 0 0 1
28.846103 16.280836 12.300855 35.333756 0.513834 1.215217 0.029165 -0.002005 -330927.000000 0 0 1
28.100003 16.098736 11.164855 34.255415 0.520261 1.238801 0.020073 0.001331 -428011.000000 0 0 1
26.654603 16.616136 11.325855 33.389202 0.557439 1.224722 0.009873 0.007159 -1323640.000000 0 0 1
26.427503 18.069236 11.323755 33.957880 0.599722 1.230820 -0.007543 0.019667 -10127.100000 0 0 1
27.054503 18.870436 12.278255 35.196520 0.609044 1.214454 -0.016395 0.010682 -494237.000000 0 0 1
26.540903 18.755736 13.735455 35.282572 0.615190 1.170926 -0.011946 0.010118 484685.000000 0 0 1
25.373003 19.563336 13.964155 34.950122 0.656825 1.159776 -0.012883 0.021897 401848.000000 0 0 1
24.996703 19.479836 15.306255 35.193474 0.661989 1.120850 -0.004444 0.021763 -101394.000000 0 0 1
25.738103 20.418336 16.312855 36.680617 0.670649 1.109927 0.007922 0.008100 -33422.200000 0 0 1
25.627703 21.804136 16.186255 37.338912 0.704960 1.122428 -0.001191 0.011570 793187.000000 0 0 1
24.391103 22.316436 16.718155 37.046537 0.741009 1.102603 0.008744 0.008985 558592.000000 0 0 1
24.267303 23.815936 16.298955 37.706190 0.776011 1.123797 0.003371 0.010264 -81237.800000 0 0 1
24.278203 24.071736 14.915555 37.300850 0.781128 1.159419 0.023278 0.006301 161759.000000 0 0 1
24.075503 25.452036 14.701455 37.994325 0.813184 1.173488 0.017785 0.004870 -284861.000000 0 0 1
24.020603 25.926436 13.259555 37.748977 0.823537 1.211884 0.013633 0.003958 -193946.000000 0 0 1
22.880903 25.472036 12.585655 36.479570 0.838935 1.218552 0.026910 0.010804 22704.400000 0 0 1
22.915403 25.927936 11.285955 36.397065 0.846998 1.255521 0.035275 -0.004967 45854.600000 0 0 1
22.150903 24.876436 10.445755 34.908643 0.843290 1.266910 0.023962 -0.003461 75994.500000 0 0 1
20.732703 24.806736 10.635455 34.034277 0.874622 1.252981 0.032201 -0.003574 602353.000000 0 0 1
20.249903 23.517136 10.415355 32.735209 0.859910 1.246998 0.028402 0.005205 -169165.000000 0 0 1
20.048903 23.042136 8.966755 31.832393 0.854750 1.285245 0.025077 0.013367 -1073710.000000 0 0 1
18.949903 23.666036 8.377755 31.454203 0.895616 1.301194 0.024397 0.007440 -353248.000000 0 0 1
19.112403 23.962736 7.050155 31.451572 0.897528 1.344716 0.021442 -0.007118 495431.000000 0 0 1
17.801603 24.347336 6.262955 30.804455 0.939467 1.366056 0.013671 -0.006412 343983.000000 0 0 1
16.884203 23.264436 6.003055 29.365745 0.942996 1.364921 0.034668 0.000924 1791090.000000 0 0 1
15.754903 23.521736 5.121455 28.770094 0.980626 1.391829 0.045300 0.000741 1431960.000000 0 0 1
14.746903 24.654036 5.456455 29.241504 1.031735 1.383096 0.007280 -0.000153 -629815.000000 0 0 1
15.311103 25.931736 5.149655 30.551657 1.037437 1.401432 0.027040 -0.010908 1096860.000000 0 0 1
14.352203 26.931136 5.562555 31.019572 1.081159 1.390497 0.016534 -0.014987 306193.000000 0 0 1
14.146903 28.171536 4.681855 31.869893 1.105414 1.423357 0.014092 -0.019307 -521746.000000 0 0 1
13.641103 27.889836 3.393855 31.232049 1.115901 1.461916 0.011343 -0.007412 345710.000000 0 0 1
12.973303 28.988936 2.863555 31.888320 1.150002 1.480876 0.002946 -0.010005 -396845.000000 0 0 1
12.452403 28.964336 1.352155 31.556670 1.164764 1.527935 0.018775 -0.012197 -41413.500000 0 0 1
13.440803 28.737536 0.361055 31.727457 1.133314 1.559416 0.036105 -0.010994 -57539.200000 0 0 1
13.683203 27.420136 0.044355 30.644671 1.107933 1.569349 0.015154 -0.001926 -322368.000000 0 0 1
14.791603 27.201936 -0.969445 30.978649 1.072749 1.602095 0.029644 -0.002801 -244020.000000 0 0 1
14.382603 27.558136 -2.292445 31.169944 1.089782 1.644409 0.034542 -0.005572 -343822.000000 0 0 1
15.351503 27.259436 -3.258845 31.454182 1.057903 1.674589 0.047311 -0.001735 -313099.000000 0 0 1
14.884303 27.620636 -4.714645 31.728062 1.076528 1.719944 0.052289 0.004614 -270828.000000 0 0 1
14.000503 26.674936 -5.227245 30.575977 1.087462 1.742599 0.051080 -0.000621 -622657.000000 0 0 1
13.534003 27.225436 -6.434645 31.077295 1.109464 1.779358 0.036504 0.003699 837763.000000 0 0 1
12.230503 26.526536 -6.991845 30.035449 1.138778 1.805738 0.016487 -0.002453 862410.000000 0 0 1
12.417403 25.237836 -7.617545 29.140475 1.113557 1.835277 0.055227 -0.012733 -445356.000000 0 0 1
11.169903 24.625036 -7.748645 28.128289 1.144953 1.849880 0.032246 0.008542 -293961.000000 0 0 1
11.241003 23.151936 -8.345545 27.055876 1.118790 1.884366 0.026126 -0.005318 271556.000000 0 0 1
11.802703 23.045536 -9.697445 27.648526 1.097478 1.929158 0.023166 -0.004114 266310.000000 0 0 1
11.814403 21.705036 -10.074845 26.686911 1.072327 1.957913 0.023033 -0.008339 -324190.000000 0 0 1
11.952603 21.484936 -11.602045 27.185927 1.063110 2.011711 0.016206 -0.005760 -54024.500000 0 0 1
11.923503 20.084636 -11.926545 26.226037 1.035049 2.042899 0.031749 -0.012200 -116924.000000 0 0 1
11.870803 19.829036 -13.292245 26.660653 1.031364 2.092747 0.030751 -0.010616 -777512.000000 0 0 1
13.269803 19.532136 -13.782345 27.341270 0.974042 2.099119 0.025522 -0.015672 -367994.000000 0 0 1
14.139003 20.658136 -13.654045 28.514960 0.970598 2.070127 0.019387 -0.007040 617048.000000 0 0 1
15.496603 20.319936 -13.969345 29.123652 0.919261 2.071059 0.025440 -0.001048 1036590.000000 0 0 1
16.565703 21.421336 -13.754745 30.372507 0.912532 2.040776 0.007657 0.011803 7179.690000 0 0 1
16.589703 22.548636 -14.629045 31.585886 0.936491 2.052344 0.006245 0.011247 9159.800000 0 0 1
15.494503 23.459936 -14.573945 31.667777 0.987098 2.049032 0.009164 0.010642 149724.000000 0 0 1
15.893503 24.819636 -15.181745 33.152725 1.001228 2.046466 0.012111 0.011869 67617.300000 0 0 1
16.064903 24.899736 -16.598645 33.964584 0.997814 2.081401 -0.008829 0.011479 713321.000000 0 0 1
14.822903 24.860636 -17.345445 33.743653 1.033146 2.110679 -0.018437 0.015433 675165.000000 0 0 1
15.083903 24.660236 -18.850845 34.510951 1.021841 2.148651 -0.012150 0.012915 48490.400000 0 0 1
15.498903 23.335236 -19.247945 33.988713 0.984514 2.172811 -0.009590 0.018919 -63438.700000 0 0 1
15.695103 23.233436 -20.634045 34.812248 0.976676 2.205233 -0.014208 0.019841 -286140.000000 0 0 1
16.013503 21.806036 -21.043745 34.274986 0.937380 2.231874 0.005812 0.016102 396189.000000 0 0 1
14.892403 20.900636 -20.983845 33.150294 0.951708 2.256207 0.016673 0.010147 681750.000000 0 0 1
15.132403 19.814736 -21.800645 33.119202 0.918588 2.289285 0.022091 0.011027 -133217.000000 0 0 1
13.947903 18.841136 -21.779545 31.998140 0.933539 2.319446 0.026246 0.015162 -746675.000000 0 0 1
13.671903 18.189636 -20.556945 30.665482 0.926252 2.305492 0.025514 0.007965 559485.000000 0 0 1
12.853203 17.005836 -20.751745 29.749592 0.923586 2.342765 0.020144 0.004356 533313.000000 0 0 1
11.350403 17.233136 -21.039145 29.469616 0.988372 2.365886 0.023977 0.002013 -664961.000000 0 0 1
10.517003 17.252636 -19.922345 28.375353 1.023356 2.349139 0.037893 -0.004052 -291126.000000 0 0 1
9.173503 17.448336 -20.324645 28.314109 1.086760 2.371473 0.011876 0.005762 274284.000000 0 0 1
8.188003 17.079536 -19.182245 26.957605 1.123761 2.362528 0.011425 -0.007517 -107966.000000 0 0 1
8.165303 15.669236 -19.054445 25.985939 1.090408 2.393900 0.010303 -0.011108 -442961.000000 0 0 1
7.089003 15.203236 -18.298945 24.824257 1.134485 2.399624 0.011960 -0.021192 -323774.000000 0 1 0
6.952603 15.486636 -16.756945 23.853088 1.148822 2.349709 0.014142 -0.031110 -123912.000000 0 1 0
6.602003 16.860736 -16.578645 24.550404 1.197586 2.312154 0.025414 -0.023907 -121788.000000 0 1 0
6.020503 17.075136 -15.284645 23.694453 1.231817 2.271915 0.020407 -0.030683 -552924.000000 0 1 0
5.856103 18.589436 -14.928945 24.550651 1.265614 2.224446 0.020725 -0.028613 169217.000000 0 1 0
7.075403 19.293536 -14.683345 25.256731 1.219301 2.191200 0.018063 -0.023703 244467.000000 0 0 1
7.656903 19.864336 -15.847945 26.540109 1.202887 2.210717 0.028320 -0.016280 -197131.000000 0 0 1
8.870303 20.750636 -15.528045 27.393272 1.166834 2.173481 0.018053 0.000225 -463518.000000 0 0 1
8.673503 21.958436 -14.867045 27.900387 1.194611 2.132775 0.026731 -0.000045 -278065.000000 0 0 1
8.478203 21.766736 -13.484345 26.972176 1.199372 2.094320 0.018542 -0.015900 -367102.000000 0 0 1
8.206403 23.135136 -12.787445 27.678481 1.229926 2.051045 0.025732 -0.007289 -839653.000000 0 0 1
6.932603 23.654836 -12.982345 27.859532 1.285706 2.055553 0.026066 -0.005437 -717285.000000 0 0 1
6.578703 24.815936 -12.275045 28.456752 1.311657 2.016794 0.011093 -0.005722 103145.000000 0 0 1
5.849503 24.586936 -10.909845 27.527419 1.337227 1.978309 -0.004329 -0.007779 -303710.000000 0 0 1
6.673803 24.208336 -9.829845 26.966813 1.301796 1.943910 -0.014504 -0.009325 -240718.000000 0 0 1
6.010203 23.424836 -8.843645 25.749865 1.319640 1.921378 -0.016772 -0.015292 -353196.000000 0 0 1
6.817503 23.182436 -7.608145 25.333526 1.284779 1.875824 -0.021395 -0.012759 -386408.000000 0 0 1
6.849903 24.365736 -6.784345 26.203771 1.296741 1.832687 -0.031791 -0.011348 -116190.000000 0 0 1
7.891403 24.326136 -5.858045 26.236460 1.257107 1.795973 -0.010598 -0.006291 -390608.000000 0 0 1
8.106803 25.629436 -5.115445 27.363407 1.264446 1.758847 -0.015735 -0.005279 -51361.100000 0 0 1
8.505403 26.648336 -5.976145 28.604021 1.261845 1.781274 0.001392 -0.005817 82438.800000 0 0 1
8.726403 27.863736 -5.315945 29.678227 1.267291 1.750888 -0.008866 -0.007739 -30951.300000 0 0 1
8.936703 29.031936 -6.322045 31.027185 1.272178 1.775992 -0.011134 -0.004040 577503.000000 0 0 1
10.260103 29.128436 -6.858445 31.635008 1.232130 1.789331 0.005029 -0.010256 301197.000000 0 0 1
10.431203 30.279036 -7.602245 32.915409 1.239027 1.803864 0.003931 -0.008232 -206957.000000 0 0 1
11.662503 30.434136 -8.503445 33.683218 1.204852 1.826011 0.011423 -0.003879 375497.000000 0 0 1
12.849403 30.773436 -7.786945 34.245409 1.175254 1.800189 0.016019 0.003376 86906.300000 0 0 1
13.829103 31.338736 -8.648245 35.329203 1.155219 1.818100 0.015019 0.004187 630427.000000 0 0 1
15.173803 31.753536 -7.985645 36.087420 1.125016 1.793929 0.014998 -0.001435 370182.000000 0 0 1
15.992003 30.667336 -7.642845 35.420936 1.090123 1.788279 0.029834 0.014167 -716019.000000 0 0 1
17.114403 31.052536 -6.907345 36.123042 1.067076 1.763198 0.028572 0.009347 -169035.000000 0 0 1
18.076003 29.856336 -6.686845 35.536693 1.026392 1.760092 0.034774 0.005626 -319916.000000 0 0 1
17.747403 28.992736 -5.631245 34.456639 1.021503 1.734963 0.046778 0.004282 680634.000000 0 0 1
18.872503 28.206936 -5.155945 34.327633 0.981130 1.721565 0.045108 0.006783 580738.000000 0 0 1
19.098203 26.976036 -6.020145 33.595982 0.954742 1.750962 0.039720 0.029308 69671.600000 0 0 1
19.602903 27.224036 -7.370945 34.347529 0.946735 1.787078 0.037266 0.022251 306830.000000 0 0 1
19.562803 26.097836 -8.157945 33.620714 0.927555 1.815889 0.023265 0.023065 -427096.000000 0 0 1
20.046903 26.378936 -9.656245 34.510428 0.920952 1.854389 0.030400 0.014655 1291240.000000 0 0 1
21.475303 26.471736 -9.794445 35.466500 0.889231 1.850593 0.014671 0.016568 1287720.000000 0 0 1
22.244403 25.252736 -9.699945 35.022894 0.848651 1.851425 0.020319 0.018571 -87439.200000 0 0 1
23.772003 25.392836 -9.724945 36.117569 0.818354 1.843419 -0.000776 0.017740 14493.400000 0 0 1
24.283603 25.710736 -11.003645 37.038028 0.813936 1.872440 0.007445 0.016719 -65695.000000 0 0 1
25.658803 26.044236 -10.924445 38.157829 0.792853 1.861155 -0.004768 0.024620 406992.000000 0 0 1
26.340603 26.123836 -12.323145 39.091458 0.781266 1.891505 0.000755 0.016274 139409.000000 0 0 1
26.019803 27.325936 -12.998045 39.908472 0.809878 1.902545 0.001246 0.016953 -10557.500000 0 0 1
26.794603 27.428836 -14.190345 40.885911 0.797094 1.925243 -0.000037 0.015018 262703.000000 0 0 1
26.642203 28.675536 -15.109545 41.957022 0.822139 1.939192 0.021224 0.002978 -68503.500000 0 0 1
27.184203 29.879436 -14.611645 42.956510 0.832595 1.917872 0.020746 -0.004533 -26050.200000 0 0 1
27.170503 30.854836 -15.565245 43.960596 0.848808 1.932719 0.026878 0.000791 -256377.000000 0 0 1
27.748703 32.181436 -15.146845 45.111664 0.859229 1.913212 0.017710 -0.004433 663810.000000 0 0 1
29.160503 32.278436 -14.889245 45.977407 0.836103 1.900580 0.017212 0.000107 651131.000000 0 0 1
29.417703 33.618736 -14.536545 46.977993 0.851944 1.885393 0.018854 -0.011240 -276464.000000 0 0 1
14.348003 -32.875620 -29.346318 46.345204 -1.159282 2.256492 0.017836 -0.005704 480932.000000 0 0 1
15.318103 -33.359020 -28.399618 46.411278 -1.140327 2.229272 0.010311 0.001573 577244.000000 0 0 1
15.545203 -32.364420 -27.440948 45.189762 -1.123018 2.223376 0.015872 0.000066 50154.900000 0 0 1
16.675903 -32.794120 -26.405448 45.285624 -1.100370 2.193319 0.001962 -0.000451 2216590.000000 0 0 1
18.063403 -32.613120 -26.805748 45.917864 -1.064987 2.194168 0.015574 -0.008082 1490670.000000 0 0 1
18.537103 -33.382420 -27.905398 47.293989 -1.063897 2.201906 0.009887 -0.005286 -880288.000000 0 0 1
20.053603 -33.194720 -28.060278 47.868733 -1.027353 2.197147 0.015400 0.000073 -234783.000000 0 0 1
20.397703 -31.850920 -28.407228 47.302410 -1.001191 2.214979 -0.006420 -0.011842 755994.000000 0 0 1
21.829803 -31.821520 -28.256468 47.828625 -0.969523 2.202829 -0.010696 0.002104 1112870.000000 0 0 1
22.565303 -30.543920 -28.884098 47.711791 -0.934513 2.221048 -0.013900 0.007448 79976.300000 0 0 1
22.731703 -30.564820 -30.306508 48.676719 -0.931326 2.242867 -0.020388 -0.001053 63124.500000 0 0 1
23.392003 -29.411620 -30.801308 48.589605 -0.898908 2.257391 -0.019878 -0.004918 51468.000000 0 0 1
23.689803 -29.386320 -32.377348 49.729822 -0.892316 2.279783 -0.013914 -0.003539 211690.000000 0 0 1
24.709203 -30.328020 -32.661618 50.961895 -0.887137 2.266470 -0.006308 -0.005473 -185825.000000 0 0 1
24.919303 -30.477920 -34.051348 52.051605 -0.885404 2.283900 -0.008255 -0.008059 27989.200000 0 0 1
26.171203 -31.268720 -34.513968 53.421706 -0.873911 2.273216 -0.009352 -0.010845 65338.200000 0 0 1
27.337903 -30.500720 -34.393288 53.484139 -0.840027 2.269278 0.002084 -0.016682 -104083.000000 0 0 1
28.484803 -31.158920 34.357063 54.430415 -0.830203 0.887683 0.002794 -0.008023 255466.000000 0 0 1
29.730103 -30.281620 34.196629 54.500137 -0.794588 0.892510 0.010745 -0.019420 -283405.000000 0 0 1
29.750803 -29.379720 33.078555 53.314811 -0.779123 0.901495 0.006096 -0.012287 -314009.000000 0 0 1
31.001003 -28.777220 32.925395 53.602912 -0.748215 0.909366 0.006518 -0.020074 -489270.000000 0 0 1
30.970303 -27.717520 31.805555 52.335589 -0.730030 0.917606 0.007841 -0.017719 372216.000000 0 0 1
32.217103 -27.037520 31.530855 52.565807 -0.698207 0.927500 -0.001026 -0.022189 855670.000000 0 0 1
32.264403 -26.215720 30.393095 51.497533 -0.682333 0.939508 0.015612 -0.008914 -438444.000000 0 0 1
32.983203 -26.829220 29.190015 51.572819 -0.682871 0.969155 0.005835 -0.006566 -387047.000000 0 0 1
32.364003 -27.958620 28.507815 51.398528 -0.712497 0.982863 0.006900 -0.017573 46327.600000 0 0 1
31.295103 -27.593920 27.687155 50.073810 -0.722631 0.984923 0.008442 -0.015199 -502257.000000 0 0 1
30.530403 -28.809020 27.177985 50.007080 -0.756397 0.996216 -0.001259 -0.000164 -756439.000000 0 0 1
29.355103 -28.505620 26.500985 48.750330 -0.770718 0.996069 0.000843 0.004933 -552743.000000 0 0 1
28.910803 -29.735420 25.939135 48.916955 -0.799458 1.011879 -0.013372 0.014109 -184923.000000 0 0 1
27.620503 -29.556820 25.095215 47.605332 -0.819250 1.015552 -0.011481 0.015425 -233439.000000 0 0 1
26.553403 -29.261720 25.942785 47.269013 -0.833883 0.989829 -0.003455 0.018767 -431711.000000 0 0 1
25.371803 -28.955120 25.208795 46.017504 -0.851261 0.991053 0.007703 0.022593 574822.000000 0 0 1
24.162303 -28.755520 26.164525 45.774220 -0.871980 0.962342 0.014552 0.021522 -52050.100000 0 0 1
24.129703 -27.613020 26.949195 45.508027 -0.852617 0.937028 0.003325 0.021651 336625.000000 0 0 1
22.903303 -27.432020 27.655705 45.187554 -0.875128 0.912184 -0.000157 0.014570 309650.000000 0 0 1
22.951803 -26.283120 28.615845 45.127090 -0.852957 0.883931 -0.006223 0.025956 -159663.000000 0 0 1
21.709103 -26.176020 29.284675 44.878295 -0.878413 0.859871 0.006260 0.019508 93062.500000 0 0 1
21.674603 -25.222920 30.329385 45.009507 -0.860915 0.831397 0.002678 0.025795 -178877.000000 0 0 1
21.278303 -23.767820 29.850295 43.688849 -0.840608 0.818595 0.002135 0.021134 -227887.000000 0 0 1
22.075203 -23.201720 28.786495 43.061545 -0.810274 0.838611 0.009510 0.015312 286210.000000 0 0 1
21.816203 -21.824620 28.459515 41.978622 -0.785591 0.825823 0.030089 0.014227 -26291.000000 0 0 1
22.450903 -20.740420 29.399315 42.409053 -0.745816 0.804832 0.029516 0.006802 -198843.000000 0 0 1
21.852503 -20.690720 30.699725 42.989660 -0.758097 0.775432 0.025261 0.008860 14204.200000 0 0 1
22.436703 -19.647320 31.438275 43.333451 -0.719214 0.759041 0.036597 0.000300 -510902.000000 0 0 1
21.967603 -19.203320 32.859235 43.943969 -0.718357 0.726125 0.048974 -0.009324 -414782.000000 0 0 1
22.232103 -20.127220 33.848580 45.222757 -0.735748 0.725021 0.025357 -0.003832 253755.000000 0 0 1
21.769803 -19.675620 -34.120390 45.002837 -0.734912 2.431318 0.038455 -0.009190 -68456.900000 0 0 1
21.675103 -20.872420 -33.136168 44.760179 -0.766535 2.404320 0.010437 -0.002954 670635.000000 0 0 1
22.907503 -21.283120 -32.512628 45.108711 -0.748656 2.375697 0.009214 -0.000661 406423.000000 0 0 1
22.680503 -22.195320 -31.462288 44.686832 -0.774587 2.351897 0.000693 0.000491 820766.000000 0 0 1
23.916203 -22.398020 -30.489028 44.757534 -0.752630 2.320203 -0.009786 0.004120 1527780.000000 0 0 1
25.076503 -23.051120 -31.039758 46.083096 -0.743339 2.309812 -0.006636 -0.000504 40568.500000 0 0 1
25.838003 -23.568820 -29.970658 46.057920 -0.739502 2.279324 -0.007850 -0.002730 -47875.700000 0 0 1
27.041403 -24.395520 -30.491498 47.498529 -0.734004 2.267830 -0.013456 0.011957 27528.300000 0 0 1
27.941703 -23.703220 -31.359218 48.228435 -0.703512 2.278674 -0.006014 0.002912 123417.000000 0 0 1
27.645903 -23.760520 -32.791768 49.032217 -0.709960 2.303363 0.003734 -0.000945 -51197.500000 0 0 1
27.912503 -25.121720 -33.488768 50.316063 -0.732824 2.299051 0.002708 -0.008703 74601.500000 0 0 1
26.875403 -26.062220 -33.257038 50.075514 -0.770038 2.297136 0.008132 -0.006309 43820.800000 0 0 1
26.961903 -27.286020 -34.034798 51.281952 -0.791373 2.296524 0.013607 -0.009976 -116981.000000 0 0 1
26.659403 -27.208320 33.710648 50.866730 -0.795588 0.846345 0.013801 -0.002676 -7723.270000 0 0 1
27.487303 -26.388620 32.904585 50.345037 -0.765008 0.858489 0.006368 -0.000594 -221566.000000 0 0 1
27.157103 -26.574420 31.542215 49.382379 -0.774554 0.877944 0.006862 -0.001121 -279166.000000 0 0 1
28.067403 -25.789020 30.560145 48.854633 -0.743119 0.894983 0.008741 -0.006460 -185256.000000 0 0 1
28.129803 -24.364220 30.679535 48.230021 -0.713787 0.881352 -0.005092 -0.001355 -20632.600000 0 0 1
28.670103 -23.937020 31.928585 49.136445 -0.695669 0.863482 -0.001810 0.003843 -1223980.000000 0 0 1
29.322903 -22.534420 31.854185 48.809034 -0.655231 0.859747 -0.002289 -0.005169 1511050.000000 0 0 1
30.588403 -22.383720 31.136045 49.052366 -0.631732 0.883110 0.003416 -0.011917 1474180.000000 0 0 1
31.682403 -23.056020 31.779945 50.451161 -0.629091 0.889353 0.002239 -0.005622 -505351.000000 0 0 1
33.015003 -22.517620 31.222225 50.713519 -0.598572 0.907575 -0.006479 -0.009873 -288023.000000 0 0 1
33.362003 -22.998220 29.956775 50.391961 -0.603545 0.934183 0.001101 -0.012703 471097.000000 0 0 1
34.633303 -22.473220 29.567755 50.781526 -0.575595 0.949298 -0.019456 -0.007299 380958.000000 0 0 1
-34.855775 -22.778220 28.189455 50.283374 0.578831 0.975672 -0.001196 0.000666 -197226.000000 0 0 1
-34.603275 -24.139520 27.992635 50.632901 0.609119 0.985010 -0.008034 0.005105 260109.000000 0 0 1
-34.331175 -24.413720 26.608875 49.826614 0.618153 1.007437 -0.024000 0.011393 -280601.000000 0 0 1
-34.038775 -25.920020 26.337035 50.240671 0.650811 1.019000 -0.031922 0.005730 56811.800000 0 0 1
34.697103 -26.662120 26.329795 51.068735 -0.655189 1.029117 -0.016844 0.000542 250206.000000 0 0 1
34.867403 -27.996620 25.985585 51.718441 -0.676534 1.044374 -0.019797 -0.006170 -143910.000000 0 0 1
-34.547975 -28.856120 27.119505 52.551934 0.695867 1.028562 -0.016539 -0.007871 -842438.000000 0 0 1
-34.275575 -30.204320 26.726345 52.928380 0.722342 1.041469 -0.008186 -0.008860 773496.000000 0 0 1
-33.102475 -30.731320 27.364715 52.811130 0.748269 1.026096 -0.006796 -0.014852 636968.000000 0 0 1
-31.706775 -30.200820 26.993755 51.439983 0.761077 1.018361 -0.001031 -0.013595 -1056180.000000 0 0 1
-31.358975 -30.305820 25.674325 50.606313 0.768321 1.038708 -0.005567 -0.009251 -695533.000000 0 0 1
-30.071075 -29.796620 25.627205 49.485975 0.780814 1.026439 -0.018499 -0.000609 -767185.000000 0 0 1
-29.399275 -29.827120 24.220545 48.379843 0.792622 1.046466 -0.028602 0.005902 -538879.000000 0 0 1
-29.280475 -31.081620 23.554255 48.766958 0.815228 1.066723 -0.022288 -0.000866 480130.000000 0 0 1
-28.792375 -30.785220 22.264755 47.670220 0.818835 1.084836 -0.028968 0.004658 -480162.000000 0 0 1
-28.771975 -32.026420 21.292755 48.030194 0.838876 1.111497 -0.025841 0.007105 362844.000000 0 0 1
-27.949875 -33.168520 21.648155 48.476683 0.870577 1.107870 -0.024255 -0.005220 276230.000000 0 0 1
-26.603175 -33.048920 21.259955 47.454670 0.893036 1.106263 -0.012690 -0.001720 -280996.000000 0 0 1
-25.891575 -34.428620 21.370955 48.087641 0.925993 1.110273 -0.014771 0.008741 -309612.000000 0 0 1
-26.338275 33.879536 20.435455 47.530364 -0.909983 1.126364 -0.024980 0.010042 331288.000000 0 0 1
-27.569275 33.190936 20.603055 47.814109 -0.877658 1.125307 -0.020634 0.006362 125723.000000 0 0 1
-27.576175 32.104236 21.665255 47.544828 -0.861125 1.097660 -0.019238 0.005380 369997.000000 0 0 1
-26.644075 31.011136 21.396855 46.145668 -0.860998 1.088651 -0.026054 0.008229 666332.000000 0 0 1
-26.627475 30.037836 22.390655 45.963414 -0.845510 1.061983 -0.018224 0.002467 -260051.000000 0 0 1
-25.714975 28.860236 22.000855 44.477081 -0.842966 1.053357 -0.007003 -0.001204 -337262.000000 0 0 1
-24.361075 29.224836 22.072955 43.986002 -0.875916 1.045097 -0.004987 -0.002468 -601423.000000 0 0 1
-23.586575 28.190736 21.521455 42.593628 -0.874087 1.041097 0.001590 -0.006506 -795897.000000 0 0 1
-22.092775 28.441936 21.637855 42.014654 -0.910383 1.029780 -0.001269 0.006505 -789767.000000 0 0 1
-21.613375 28.348436 22.950055 42.396660 -0.919395 0.998793 -0.007132 -0.000791 33513.000000 0 0 1
-20.289675 28.805436 23.041055 42.098863 -0.957144 0.991652 0.012814 -0.001029 -325321.000000 0 0 1
-19.680175 28.970036 24.421305 42.696281 -0.974079 0.961882 0.001424 0.001489 -367493.000000 0 0 1
-19.425875 27.713936 25.035685 42.097653 -0.959438 0.933898 0.002992 -0.008878 352921.000000 0 0 1
-19.317975 27.666236 26.415935 42.853312 -0.961245 0.906599 0.006044 -0.009599 858058.000000 0 0 1
-17.857475 28.006736 26.924125 42.757165 -1.003178 0.889631 0.017623 -0.010355 412419.000000 0 0 1
-17.574375 29.351236 26.864965 43.498046 -1.031288 0.905092 -0.004071 -0.004802 322681.000000 0 0 1
-16.264375 29.704736 27.308375 43.504581 -1.069848 0.892185 0.002206 -0.005544 21565.300000 0 0 1
-16.226975 30.031636 28.794995 44.658320 -1.075408 0.870055 -0.008318 0.006209 -635804.000000 0 0 1
-16.209475 28.862036 29.542515 44.368056 -1.059076 0.842162 0.000127 0.002706 207702.000000 0 0 1
-16.340875 28.999036 30.945545 45.448818 -1.057650 0.821822 -0.017504 0.013092 -395506.000000 0 0 1
-16.186875 27.641136 31.698535 45.064891 -1.041026 0.790630 -0.014151 0.010028 -1936540.000000 0 0 1
-14.931075 27.139036 31.690365 44.314145 -1.067823 0.773987 -0.008884 0.012492 -1433660.000000 0 0 1
-14.670275 25.877836 32.336755 43.937968 -1.055067 0.743707 0.009540 0.007000 -95562.300000 0 0 1
-14.646875 25.920636 33.911145 45.126224 -1.056460 0.720504 0.020642 0.003416 265655.000000 0 0 1
-15.964975 25.786436 34.460701 45.905997 -1.016434 0.721706 0.022929 0.005319 391206.000000 0 0 1
-16.235875 26.696536 -33.753008 45.995371 -1.024395 2.394746 0.022180 0.003889 46871.500000 0 0 1
-17.676575 26.512736 -33.228468 46.038218 -0.982757 2.377136 0.007604 0.007291 147583.000000 0 0 1
-18.678075 26.847636 -34.150223 47.285344 -0.962958 2.377797 -0.009860 0.008572 -218037.000000 0 0 1
-19.985475 26.511036 -33.736828 47.333157 -0.924833 2.364211 0.001573 0.003850 -413954.000000 0 0 1
-20.933675 26.546436 34.365301 48.206907 -0.903065 0.777213 0.014072 -0.008272 -783047.000000 0 0 1
-20.974275 25.441636 33.465701 46.980317 -0.881349 0.777977 0.015735 -0.003362 -19842.400000 0 0 1
-21.303975 24.200236 34.027832 46.876477 -0.848961 0.758448 0.021507 -0.013435 -387917.000000 0 0 1
-21.680975 23.196036 32.886775 45.712807 -0.819146 0.767827 0.025044 -0.003758 -439505.000000 0 0 1
-22.983875 23.430136 32.432305 46.142000 -0.795013 0.791358 0.038894 -0.011890 -562716.000000 0 0 1
-23.206575 22.847736 31.127535 45.049834 -0.777607 0.807983 0.034008 -0.006072 100327.000000 0 0 1
-24.660975 22.609936 30.672715 45.389297 -0.742036 0.828788 0.034791 -0.002392 24843.300000 0 0 1
-25.154375 21.438436 31.313445 45.528902 -0.705813 0.812383 0.050411 -0.014288 -388448.000000 0 0 1
-26.370675 21.109236 30.696335 45.642933 -0.675034 0.833171 0.047688 -0.008293 -375297.000000 0 0 1
-26.912875 19.736036 31.106185 45.622458 -0.632747 0.820552 0.062524 -0.014380 -429818.000000 0 0 1
-27.477975 19.643736 32.368485 46.782842 -0.620650 0.806696 0.061245 -0.016846 27209.100000 0 0 1
-27.555375 18.340736 32.949605 46.705008 -0.587261 0.787691 0.059689 -0.010005 19389.400000 0 0 1
-28.362475 17.195236 32.202145 46.228609 -0.545015 0.800170 0.033071 -0.003302 -1037520.000000 0 0 1
-29.682575 17.542236 32.097615 47.106710 -0.533771 0.821149 0.014838 -0.005293 -1210380.000000 0 0 1
-30.519075 16.442336 31.768775 47.021478 -0.494170 0.828987 0.016093 0.003503 -267697.000000 0 0 1
-32.005475 16.760136 31.778465 48.115729 -0.482400 0.849366 -0.005687 0.006113 -739839.000000 0 0 1
-32.563475 16.801436 33.072585 49.360551 -0.476334 0.836560 -0.001679 0.003722 237346.000000 0 0 1
-33.973575 16.872436 33.108365 50.349247 -0.460951 0.853202 0.003156 -0.002687 -173512.000000 0 0 1
-34.374275 17.312036 34.519917 51.700310 -0.466550 0.839691 0.003965 0.004044 -1781170.000000 0 0 1
34.231203 17.459036 -34.564328 51.684485 0.471642 2.303331 -0.006093 0.000519 -1545990.000000 0 0 1
33.968903 17.766336 -33.224328 50.728543 0.481892 2.284904 -0.012315 0.004732 766080.000000 0 0 1
32.443003 17.903636 -32.902108 49.554388 0.504262 2.296898 -0.007921 0.011720 678138.000000 0 0 1
31.693503 16.731336 -33.101138 48.786280 0.485726 2.316505 -0.001829 0.008368 459716.000000 0 0 1
30.386703 16.868736 -32.545788 47.614434 0.506777 2.323381 -0.006900 0.010966 640802.000000 0 0 1
29.483003 15.590836 -32.648928 46.671984 0.486427 2.345550 -0.004842 0.003109 38021.400000 0 0 1
29.082203 15.214036 -33.951998 47.222660 0.481987 2.373125 0.003613 -0.006548 -165665.000000 0 0 1
28.372303 13.997436 -33.935888 46.395692 0.458312 2.391235 0.004778 -0.006377 -562100.000000 0 0 1
29.183803 12.688336 -34.210813 46.723313 0.410119 2.392343 0.006635 -0.004288 -138138.000000 0 0 1
29.873503 12.355136 -33.052138 46.233315 0.392160 2.367276 0.007056 -0.004856 -52929.600000 0 0 1
30.764603 11.282736 -33.364268 46.764680 0.351513 2.365206 0.019893 -0.013268 50524.200000 0 0 1
16.943003 -21.237664 10.572272 29.152645 -0.897410 1.199684 -0.019031 0.004405 -61485.200000 0 0 1
16.748103 -22.576264 10.995372 30.184183 -0.932534 1.197941 -0.006421 -0.003074 -937074.000000 0 0 1
17.961703 -23.204964 10.976172 31.330010 -0.912083 1.212862 -0.016202 -0.004220 -1334520.000000 0 0 1
17.879003 -24.654464 11.558872 32.574667 -0.943368 1.208051 0.000547 -0.004454 46090.700000 0 0 1
17.014903 -25.548314 10.872872 32.564438 -0.983263 1.230371 0.008012 -0.006057 918956.000000 0 0 1
15.712103 -25.671674 11.496372 32.219119 -1.021571 1.205937 0.028706 -0.005741 550977.000000 0 0 1
14.805003 -26.492954 10.608972 32.149884 -1.061201 1.234509 0.049394 -0.002079 -556387.000000 0 0 1
14.430503 -25.914914 9.376572 31.108557 -1.062716 1.264620 0.044466 -0.007066 215714.000000 0 0 1
13.771603 -26.896524 8.564672 31.407542 -1.097578 1.294603 0.057868 0.000114 22563.500000 0 0 1
13.573803 -26.338034 7.165372 30.484139 -1.094929 1.333524 0.060074 -0.008678 -81918.900000 0 0 1
12.633403 -25.285114 7.051672 29.131872 -1.107438 1.326307 0.068480 -0.023167 84657.000000 0 0 1
12.608203 -24.735964 5.752272 28.353542 -1.099410 1.366502 0.063556 -0.010997 209653.000000 0 0 1
11.722703 -23.440964 5.759572 26.834181 -1.107073 1.354478 0.053058 -0.006849 251947.000000 0 0 1
11.326903 -22.840064 4.503572 25.889176 -1.110416 1.395951 0.060129 -0.012629 -192261.000000 0 0 1
10.500403 -21.762364 4.782672 24.631949 -1.121244 1.375390 0.045660 -0.009108 -151214.000000 0 1 0
9.838803 -21.064864 3.576472 23.522791 -1.133837 1.418161 0.036009 -0.005579 281164.000000 0 1 0
10.777203 -20.321464 2.827972 23.175579 -1.083175 1.448468 0.034596 -0.001980 -28671.300000 0 1 0
10.048003 -19.610964 1.867072 22.114209 -1.097304 1.486267 0.026039 0.003186 -192188.000000 0 1 0
10.799903 -19.251664 0.615872 22.082658 -1.059558 1.542903 0.025192 0.005838 -65369.200000 0 1 0
11.779403 -18.239064 0.875972 21.729821 -0.997355 1.530473 0.023967 0.013067 144716.000000 0 1 0
12.537203 -18.117964 -0.315428 22.035008 -0.965476 1.585112 0.034618 0.008615 -445776.000000 0 1 0
13.766003 -17.238664 -0.364328 22.063706 -0.896938 1.587310 0.034846 0.015249 -467352.000000 0 1 0
14.847303 -17.728864 0.391572 23.128086 -0.873625 1.553865 0.038705 0.007050 -232107.000000 0 1 0
16.022503 -17.061264 0.000072 23.405285 -0.816786 1.570793 0.029308 0.004903 35715.900000 0 1 0
17.367503 -17.564164 0.592072 24.707905 -0.791028 1.546831 0.033203 0.002708 258910.000000 0 1 0
17.754903 -18.862264 0.157672 25.904565 -0.815631 1.564710 0.017844 0.000572 -464588.000000 0 0 1
18.790303 -19.333964 0.962772 26.977854 -0.799657 1.535101 -0.005460 0.015328 -305838.000000 0 0 1
19.179003 -20.806464 0.608272 28.303942 -0.826077 1.549304 -0.010804 0.012346 -201767.000000 0 0 1
18.253203 -21.824064 0.955572 28.467215 -0.874263 1.537223 0.000271 0.010154 58633.100000 0 0 1
18.613803 -22.979964 0.242972 29.573831 -0.889987 1.562580 -0.001313 0.006419 -349230.000000 0 0 1
17.487703 -24.003764 0.356972 29.700638 -0.941172 1.558777 0.001911 0.005618 -475264.000000 0 0 1
17.511403 -24.659464 1.635472 30.288830 -0.953305 1.516774 -0.009256 0.006968 -99670.600000 0 0 1
16.308403 -25.367314 1.790572 30.210442 -0.999435 1.511492 0.013429 0.001910 -510862.000000 0 0 1
16.173603 -26.097164 3.123372 30.861025 -1.015984 1.469415 0.025058 0.002985 243474.000000 0 0 1
17.031903 -27.223134 3.266472 32.277773 -1.011736 1.469424 0.016155 0.000654 -45940.500000 0 0 1
18.334503 -26.847254 3.663072 32.716161 -0.971626 1.458596 -0.001120 0.009726 -731938.000000 0 0 1
19.260803 -28.052794 3.722872 34.231529 -0.969126 1.461825 0.009074 0.013818 -401138.000000 0 0 1
19.668403 -28.560754 2.471672 34.765959 -0.967728 1.499642 -0.006702 0.014627 -526037.000000 0 0 1
20.532403 -29.668764 2.566772 36.171860 -0.965423 1.499776 0.003221 0.018706 -85810.700000 0 0 1
19.919703 -31.051844 2.905572 37.006134 -1.000421 1.492199 0.016263 0.016203 -245542.000000 0 0 1
19.746803 -31.109474 4.312672 37.098986 -1.005215 1.454285 0.046142 0.014192 231965.000000 0 0 1
18.997403 -32.310404 4.654672 37.769426 -1.039273 1.447243 0.051330 -0.008469 258117.000000 0 0 1
18.984803 -32.464274 6.192872 38.114348 -1.041635 1.407591 0.064346 -0.012314 -394092.000000 0 0 1
19.998203 -33.310214 6.620872 39.412364 -1.030110 1.402006 0.045381 -0.025059 -271034.000000 0 0 1
19.769603 -33.744924 7.910572 39.901557 -1.040843 1.371222 0.039632 -0.021850 39346.000000 0 0 1
20.847503 34.557647 8.384772 41.220793 1.027978 1.365956 0.049003 -0.027035 179077.000000 0 0 1
22.008503 -34.124038 8.909672 41.571703 -0.997975 1.354800 0.052279 -0.022378 178578.000000 0 0 1
22.935103 34.173108 9.349172 42.204589 0.979700 1.347423 0.067631 -0.028055 -7331.540000 0 0 1
23.909303 -34.437630 10.310972 43.173155 -0.963921 1.329637 0.051830 -0.020971 -273019.000000 0 0 1
24.715603 -33.391514 9.740372 42.670003 -0.933612 1.340494 0.030757 -0.014845 452543.000000 0 0 1
25.393103 -32.569234 10.669572 42.654478 -0.908578 1.317972 0.003772 -0.005561 8811.580000 0 0 1
26.078003 -31.363744 9.983172 41.992981 -0.877159 1.330764 -0.005195 -0.009835 -740384.000000 0 0 1
25.197503 -30.364344 9.633672 40.616686 -0.878124 1.331329 -0.012110 -0.012573 -91887.800000 0 0 1
25.709603 -29.683384 8.518372 40.182704 -0.857013 1.357184 -0.020982 -0.003053 -254242.000000 0 0 1
25.117903 -28.284184 8.456972 38.761121 -0.844620 1.350845 -0.032925 0.008180 -249806.000000 0 0 1
25.597203 -27.432454 9.457872 38.693768 -0.819992 1.323866 -0.022448 -0.005675 -659.771000 0 0 1
24.995303 -26.168474 9.340672 37.373820 -0.808324 1.318193 -0.026112 0.005791 -774274.000000 0 0 1
25.527703 -25.155174 10.355572 37.305285 -0.778048 1.289512 -0.002180 -0.015619 -456215.000000 0 0 1
26.874903 -24.949364 10.021772 38.015354 -0.748260 1.304019 0.023222 -0.009693 -816666.000000 0 0 1
27.443603 -24.141964 11.036672 38.181068 -0.721482 1.277550 0.011178 -0.020927 -185527.000000 0 0 1
28.961403 -24.013164 10.801072 39.141514 -0.692261 1.291219 0.026578 -0.019274 -32420.700000 0 0 1
29.102403 -23.389164 9.498872 38.525725 -0.676984 1.321668 0.045164 -0.023741 359939.000000 0 0 1
30.426403 -23.058264 9.043272 39.233026 -0.648498 1.338203 0.042079 -0.023660 801455.000000 0 0 1
30.325903 -22.375364 7.666672 38.459007 -0.635667 1.370105 0.041148 -0.005023 122979.000000 0 0 1
29.627603 -21.095564 7.693272 37.175316 -0.618750 1.362344 0.032016 0.008562 230000.000000 0 0 1
29.869003 -20.438164 6.482272 36.768135 -0.600084 1.393569 0.020014 0.013821 -100190.000000 0 0 1
29.425303 -18.957064 6.535072 35.607948 -0.572318 1.386222 0.023297 0.006688 63357.200000 0 0 1
30.260703 -18.280264 7.464872 36.133123 -0.543423 1.362704 0.038346 -0.002771 162230.000000 0 0 1
30.088703 -16.876364 7.470672 35.298055 -0.511163 1.357538 0.035895 0.001736 86221.400000 0 0 1
30.542803 -16.021464 8.719072 35.574884 -0.483100 1.323183 0.033968 -0.013026 291423.000000 0 0 1
31.929903 -15.779164 8.885272 36.707613 -0.458982 1.326313 0.035168 -0.005327 8690.290000 0 0 1
32.180103 -14.953664 9.993972 36.865304 -0.435000 1.296267 0.036690 -0.008491 111332.000000 0 0 1
33.689303 -14.886264 10.279272 38.239161 -0.416072 1.298633 0.027608 -0.011468 271833.000000 0 0 1
34.495703 -14.048064 9.469572 38.431425 -0.386733 1.321831 0.035299 -0.006536 379609.000000 0 0 1
-34.129775 -14.528164 9.289072 38.238671 0.402442 1.325418 0.028704 -0.014318 707899.000000 0 0 1
-33.216175 -13.804564 8.249672 36.904435 0.393880 1.345350 0.020266 -0.012350 14684.300000 0 0 1
-33.624175 -14.019864 6.929172 37.083084 0.395039 1.382836 0.026972 -0.009773 265781.000000 0 0 1
-32.733275 -13.388864 6.006972 35.872171 0.388266 1.402549 0.015687 -0.006149 -533218.000000 0 0 1
-31.554675 -14.216764 5.540372 35.050101 0.423306 1.412060 -0.007292 0.000347 -695672.000000 0 0 1
-30.738475 -14.574664 6.635172 34.659778 0.442755 1.378170 0.008475 -0.004775 87342.200000 0 0 1
-29.763275 -15.536664 6.212972 34.144421 0.481099 1.387815 0.003213 0.001005 402932.000000 0 0 1
-29.005775 -16.240064 7.394772 34.055210 0.510405 1.351912 -0.002411 -0.009306 -164699.000000 0 0 1
-29.809575 -17.209764 8.006272 35.339597 0.523579 1.342260 0.023884 -0.019835 -242606.000000 0 0 1
-29.518575 -17.295364 9.357672 35.468887 0.529998 1.303808 -0.004464 -0.010867 -818459.000000 0 0 1
-30.556775 -18.006364 10.174972 36.898180 0.532497 1.291418 -0.014110 -0.017884 -1843780.000000 0 0 1
-31.788375 -17.343964 10.059872 37.583439 0.499464 1.299825 0.009487 -0.011563 -713947.000000 0 0 1
-32.757875 -17.895564 10.890772 38.883653 0.499997 1.286912 0.040887 -0.022745 -168284.000000 0 0 1
-33.346675 -19.330064 10.526572 39.955736 0.525337 1.304193 0.047467 -0.022876 -632143.000000 0 0 1
-32.391775 -20.407864 10.600272 39.724977 0.562210 1.300682 0.046429 -0.017618 156501.000000 0 0 1
-32.135875 -20.853964 11.932172 40.124544 0.575623 1.268851 0.014278 -0.020429 1066140.000000 0 0 1
-33.317675 -21.796264 12.507972 41.732409 0.579319 1.266399 0.030109 -0.031044 1250710.000000 0 0 1
-33.498475 -22.969264 11.723472 42.274989 0.601051 1.289798 0.034902 -0.022224 -470893.000000 0 0 1
-34.857375 -23.309164 11.746772 43.546990 0.589410 1.297664 0.053551 -0.019955 -124106.000000 0 0 1
34.740103 -24.823364 11.738172 44.281586 -0.620421 1.302509 0.040415 -0.010230 -245598.000000 0 0 1
-34.626375 -25.509844 12.845572 44.885930 0.634946 1.280556 0.027808 0.000379 523135.000000 0 0 1
34.530903 -26.605744 13.333272 45.585360 -0.656487 1.273966 0.023278 -0.000542 413304.000000 0 0 1
33.528803 -26.213884 14.475872 44.954413 -0.663564 1.242942 0.022990 -0.003239 1518530.000000 0 0 1
32.402603 -25.424954 13.958972 43.488043 -0.665316 1.244028 0.019502 -0.013220 1276870.000000 0 0 1
31.370203 -25.149674 14.905872 42.881008 -0.675780 1.215775 0.013347 -0.002588 -137018.000000 0 0 1
31.112503 -23.641664 15.119472 41.898862 -0.649792 1.201610 0.033608 -0.001898 261011.000000 0 0 1
32.083803 -22.939964 15.893972 42.523297 -0.620723 1.187725 0.034700 -0.007175 373946.000000 0 0 1
33.357203 -22.739464 15.290172 43.169151 -0.598335 1.208746 0.034822 -0.014804 159317.000000 0 0 1
34.366803 -22.157764 16.327672 44.029951 -0.572671 1.190893 0.033608 -0.012207 -224433.000000 0 0 1
34.296103 -20.841064 16.838572 43.521376 -0.546048 1.173525 0.028553 -0.009376 -118269.000000 0 0 1
33.203803 -20.587864 17.697872 42.890178 -0.555028 1.145454 0.026396 -0.008188 13555.300000 0 0 1
33.161403 -19.142664 18.178272 42.385963 -0.523529 1.127549 0.019585 -0.003254 -218749.000000 0 0 1
32.922203 -18.146664 17.164872 41.325606 -0.503763 1.142461 0.019213 -0.010221 131993.000000 0 0 1
32.769303 -16.818264 17.682572 40.857736 -0.474177 1.123218 0.016175 -0.011941 -368847.000000 0 0 1
34.012003 -16.141564 18.255272 41.840428 -0.443109 1.119306 -0.003656 -0.010003 -606248.000000 0 0 1
34.568103 -16.587964 19.470872 43.002665 -0.447409 1.100912 -0.009065 0.002948 176469.000000 0 0 1
-34.438675 -15.581264 19.825572 42.683152 0.424877 1.087746 -0.017060 -0.004012 -173658.000000 0 0 1
-34.029275 -15.539364 21.333272 43.064741 0.428368 1.052528 -0.016351 0.003864 214418.000000 0 0 1
-33.118975 -16.564464 21.765072 42.953071 0.463768 1.039423 -0.024967 0.012580 256356.000000 0 0 1
-33.040275 -16.473364 23.168372 43.586752 0.462514 1.010371 -0.014730 0.013638 -66639.600000 0 0 1
-32.206075 -17.599964 23.835172 43.761918 0.500136 0.994818 -0.011257 0.021235 -434791.000000 0 0 1
-32.764675 -18.911064 23.798772 44.693778 0.523470 1.009262 -0.021458 0.013888 363781.000000 0 0 1
-31.939175 -19.940264 24.355172 44.843053 0.558110 0.996648 -0.028936 0.022641 82186.400000 0 0 1
-30.925375 -20.686964 23.417172 43.962407 0.589569 1.009052 -0.026684 0.028376 205215.000000 0 0 1
-29.842075 -19.854364 23.069572 42.625701 0.587066 0.998918 -0.025026 0.034226 -957409.000000 0 0 1
-28.732275 -20.610064 22.776872 42.060721 0.622252 0.998548 -0.013906 0.027554 -1403420.000000 0 0 1
-27.477575 -19.797364 22.969472 40.921259 0.624347 0.974830 -0.001487 0.032954 -806749.000000 0 0 1
-27.044375 -19.406164 24.270272 41.195188 0.622419 0.940786 -0.003224 0.029592 -179651.000000 0 0 1
-25.913975 -18.599264 24.267472 40.079632 0.622527 0.920426 0.016855 0.023895 -691845.000000 0 0 1
-25.461175 -18.236864 25.703972 40.516032 0.621557 0.883545 0.008323 0.013433 -1229740.000000 0 0 1
-24.369675 -17.367464 25.622072 39.395437 0.619177 0.862709 0.003535 0.012498 -212981.000000 0 0 1
-24.069875 -16.716064 26.862072 39.753699 0.607012 0.828865 -0.002439 0.002961 142097.000000 0 0 1
-23.122675 -17.532664 27.780172 40.172010 0.648757 0.807191 -0.006455 0.004388 -504030.000000 0 0 1
-23.605175 -18.788464 28.169172 41.276058 0.672265 0.819676 0.003263 0.008021 -884733.000000 0 0 1
-22.696275 -19.401664 29.002772 41.625788 0.707297 0.799940 0.004044 0.005033 -604710.000000 0 0 1
-23.162375 -20.680264 29.680672 42.954758 0.728844 0.807959 0.011061 0.014656 134437.000000 0 0 1
-24.269075 -20.581564 30.571372 44.127062 0.703365 0.805427 0.015620 0.006629 453192.000000 0 0 1
-24.614075 -21.809064 31.230872 45.352567 0.725049 0.811206 0.017915 0.009352 -578392.000000 0 0 1
-25.708875 -21.694464 32.258872 46.607198 0.700914 0.806342 0.020762 0.009822 -1015670.000000 0 0 1
-25.310575 -20.970364 33.417472 46.873327 0.691892 0.777126 0.026740 0.005545 198131.000000 0 0 1
-26.273875 -20.995664 34.446372 48.142362 0.674197 0.773442 0.040120 -0.011720 886543.000000 0 0 1
-27.548875 -20.059764 34.191372 48.274057 0.629371 0.783743 0.022325 -0.017808 517566.000000 0 0 1
-28.477175 -20.606164 33.296672 48.417268 0.626392 0.812477 0.028755 -0.008494 -409667.000000 0 0 1
-29.297775 -19.602964 32.749572 48.116217 0.589681 0.822168 0.033121 -0.014953 -314086.000000 0 0 1
-30.244575 -20.270164 31.740972 48.302207 0.590450 0.853787 0.013464 0.016743 -373204.000000 0 0 1
-30.876975 -19.437064 30.764972 47.724947 0.561829 0.870256 0.012493 -0.001569 486725.000000 0 0 1
-31.782075 -20.141364 29.938272 48.084041 0.564855 0.898705 0.002795 0.005329 82940.000000 0 0 1
-32.370975 -19.176664 28.852472 47.414023 0.534815 0.916600 -0.002992 0.005949 101202.000000 0 0 1
-33.319275 -19.716864 27.940672 47.745261 0.534335 0.945666 -0.020056 0.009373 426429.000000 0 0 1
-33.893375 -18.619264 27.187572 47.271576 0.502343 0.958026 -0.015116 0.007088 -151600.000000 0 0 1
34.933903 -19.087164 26.239972 47.678439 -0.500059 0.988009 -0.027729 0.003453 -1040910.000000 0 0 1
33.754903 -19.387064 26.891372 47.311708 -0.521344 0.966252 -0.023618 -0.002283 -722798.000000 0 0 1
32.850703 -20.019664 25.998272 46.431302 -0.547313 0.976495 0.001952 0.001556 -186930.000000 0 0 1
31.609803 -20.544764 26.726172 46.212069 -0.576339 0.954107 0.007052 -0.003950 -192446.000000 0 0 1
30.869803 -19.521064 27.438972 45.682753 -0.563880 0.926493 0.003439 -0.019542 498937.000000 0 0 1
29.990603 -20.174564 28.352972 45.938441 -0.592165 0.905624 0.011820 -0.016176 52018.800000 0 0 1
-29.326677 -6.053364 34.368070 45.583565 0.203553 0.716731 -0.011711 0.008326 -202445.000000 0 0 1
-30.165767 -5.745564 33.307867 45.303410 0.188212 0.744809 -0.015164 0.012806 66383.800000 0 0 1
-29.605597 -4.639264 32.602575 44.282525 0.155438 0.743299 -0.002614 0.012391 93145.100000 0 0 1
-30.125027 -4.412364 31.151075 43.558876 0.145434 0.773959 -0.015005 0.006039 42343.200000 0 0 1
-29.879467 -5.465864 30.223535 42.849974 0.180930 0.787902 -0.012965 0.002418 -1325520.000000 0 0 1
-28.613677 -5.336364 29.722325 41.600912 0.184379 0.774940 -0.002707 -0.000465 -1078880.000000 0 0 1
-28.312067 -6.473164 28.724135 40.847900 0.224773 0.790912 0.008960 -0.008746 -58260.300000 0 0 1
-29.035707 -6.334264 27.514145 40.499671 0.214789 0.823896 0.003356 -0.011793 -100514.000000 0 0 1
-28.469087 -7.044764 26.465185 39.503463 0.242580 0.836660 0.017087 -0.009137 -264646.000000 0 0 1
-29.223667 -6.726964 25.181405 39.158369 0.226248 0.872302 0.002011 -0.011612 -265725.000000 0 0 1
-28.778657 -5.618664 24.521105 38.223881 0.192812 0.874328 0.019408 -0.004453 -204527.000000 0 0 1
-29.587817 -5.296764 23.405955 38.096369 0.177142 0.909186 0.027351 -0.008369 -23243.100000 0 0 1
-29.080107 -3.945464 22.892755 37.219585 0.134852 0.908318 0.020099 -0.012508 -187021.000000 0 0 1
-27.821797 -3.923864 22.297755 35.869750 0.140112 0.899973 0.025886 -0.009221 -709086.000000 0 0 1
-27.553407 -2.727164 21.663755 35.156022 0.098656 0.906865 0.024110 -0.007296 887905.000000 0 0 1
-26.114967 -2.450564 21.079655 33.650388 0.093564 0.893830 0.010493 0.003459 904296.000000 0 0 1
-25.960877 -3.124664 19.868455 32.840313 0.119784 0.921028 0.016837 0.006757 65826.400000 0 0 1
-24.664097 -2.874464 19.350055 31.480229 0.116021 0.908825 0.012806 0.009669 -73256.500000 0 0 1
-24.259997 -3.760364 18.192855 30.555977 0.153779 0.933040 0.020547 0.004513 -748451.000000 0 0 1
-25.108477 -3.608664 17.088155 30.585341 0.142745 0.977974 0.020322 0.011049 -175174.000000 0 0 1
-24.636497 -3.953664 15.818955 29.543659 0.159123 1.005764 0.027924 0.003986 -3332.000000 0 0 1
-25.829317 -4.209664 14.838455 30.084126 0.161560 1.054995 0.018664 0.001623 452390.000000 0 0 1
-26.355197 -3.017664 14.273355 30.123601 0.114003 1.077166 0.019336 -0.001857 99056.700000 0 0 1
-27.463707 -3.316764 13.445855 30.757879 0.120187 1.118367 0.015737 -0.002622 73275.900000 0 0 1
-28.051877 -2.180664 12.632255 30.842129 0.077581 1.148805 0.010391 0.013353 -34813.700000 0 0 1
-27.224147 -1.851764 11.506655 29.613954 0.067915 1.171733 0.010229 0.002602 595618.000000 0 0 1
-27.761817 -0.777464 10.750055 29.780641 0.027997 1.201484 0.006405 0.010621 393059.000000 0 0 1
-29.121087 -0.968864 9.980755 30.799218 0.033258 1.240780 -0.004560 0.012771 528538.000000 0 0 1
-29.095217 -1.552564 8.696155 30.406664 0.053311 1.280752 -0.008374 0.000937 212909.000000 0 0 1
-30.404617 -1.837264 8.215955 31.548663 0.060354 1.307337 -0.006408 0.002389 -127700.000000 0 0 1
-30.530087 -2.318464 6.712555 31.345173 0.075795 1.354975 -0.002923 -0.003007 -1197130.000000 0 0 1
-30.060937 -1.552864 5.640655 30.624962 0.051611 1.385554 -0.000628 -0.004994 346766.000000 0 0 1
-30.799807 -0.365464 5.368055 31.266238 0.011865 1.398253 -0.002405 0.000576 -374709.000000 0 0 1
-30.437487 0.319836 4.067155 30.709683 -0.010508 1.437967 -0.002812 -0.001461 -153361.000000 0 0 1
-30.830297 -0.480464 2.966855 30.976447 0.015583 1.474872 -0.003086 -0.009134 370810.000000 0 0 1
-30.256817 0.020536 1.765055 30.308263 -0.000679 1.512527 0.003017 -0.009487 -170887.000000 0 0 1
-30.708267 -0.619364 0.429455 30.717514 0.020167 1.556815 0.012981 -0.010295 108482.000000 0 0 1
-31.973407 -0.117564 0.034055 31.973641 0.003677 1.569731 0.007442 -0.004406 339203.000000 0 0 1
-32.572477 -0.637264 -1.138845 32.598609 0.019562 1.605739 0.016210 -0.001348 337195.000000 0 0 1
-34.118790 -0.632164 -0.991045 34.139033 0.018526 1.599830 0.016732 -0.005891 61741.600000 0 0 1
-34.636464 -1.617564 -0.104945 34.674373 0.046667 1.573823 0.008822 0.000198 -182427.000000 0 0 1
33.935866 -1.345664 0.021655 33.962542 -0.039632 1.570159 0.019402 0.004475 -197768.000000 0 0 1
33.032542 -2.461864 0.609555 33.129762 -0.074391 1.552396 0.018127 -0.005769 -315741.000000 0 0 1
33.134352 -2.719064 1.949455 33.302837 -0.081878 1.512226 0.012087 -0.007732 187846.000000 0 0 1
32.652922 -3.989864 2.313055 32.977000 -0.121587 1.500597 0.012012 -0.001904 -317746.000000 0 0 1
32.899582 -4.268364 3.824655 33.395050 -0.129018 1.456017 0.009075 -0.000556 532100.000000 0 0 1
32.100602 -3.394364 4.676455 32.616553 -0.105350 1.426924 0.013328 -0.010110 718883.000000 0 0 1
32.220082 -3.838664 5.991555 32.996481 -0.118580 1.388202 0.009101 -0.010343 -132123.000000 0 0 1
31.761062 -2.760664 7.056555 32.652431 -0.086702 1.352967 0.013709 -0.005256 -67548.600000 0 0 1
30.363062 -2.611264 6.992355 31.267031 -0.085790 1.345256 0.013329 -0.005083 -146008.000000 0 0 1
29.998132 -1.345164 7.486555 30.947470 -0.044812 1.326461 0.016181 -0.000572 -59647.000000 0 0 1
28.577572 -1.316764 8.116155 29.736904 -0.046044 1.294357 0.014031 0.000981 473800.000000 0 0 1
27.604082 -1.380364 7.027255 28.517942 -0.049964 1.321817 0.011427 -0.001181 963745.000000 0 0 1
26.268952 -1.368264 7.543255 27.364770 -0.052040 1.291525 0.017423 0.004186 380162.000000 0 0 1
25.646432 -2.772764 7.490255 26.861340 -0.107697 1.288201 0.017617 -0.000090 -704064.000000 0 0 1
26.201762 -3.711664 8.406455 27.766477 -0.140721 1.263214 0.011939 0.002145 518812.000000 0 0 1
25.808602 -5.016464 7.956055 27.469031 -0.191978 1.276948 0.024590 -0.012693 -186926.000000 0 0 1
26.110712 -6.132964 9.028055 28.299970 -0.230701 1.246109 0.016856 -0.005998 -489525.000000 0 0 1
25.289112 -6.017864 10.156655 27.908986 -0.233618 1.198323 0.013708 0.002804 148465.000000 0 0 1
25.668652 -6.693664 11.344355 28.850983 -0.255091 1.166681 0.009941 0.006533 -738271.000000 0 0 1
24.594882 -6.591764 12.388755 28.316794 -0.261860 1.117974 0.004149 -0.001746 461819.000000 0 0 1
23.432882 -7.433264 12.198055 27.443504 -0.307175 1.110204 0.009121 -0.010912 791856.000000 0 0 1
22.341182 -7.016664 12.996255 26.781796 -0.304313 1.064131 0.015767 -0.008916 254352.000000 0 0 1
21.240482 -8.092664 13.102055 26.235722 -0.364022 1.047893 0.018109 -0.009718 -111611.000000 0 0 1
21.772282 -9.238564 13.673955 27.319597 -0.401300 1.046599 0.012041 -0.007675 -144344.000000 0 0 1
20.851182 -10.278364 13.607155 26.936429 -0.457983 1.041231 0.033236 -0.020430 -376733.000000 0 0 1
21.198582 -11.420364 14.602755 28.161055 -0.494151 1.025649 0.022125 -0.010274 -248977.000000 0 0 1
21.191482 -11.052764 15.969055 28.744620 -0.480751 0.981773 0.021086 -0.014247 281832.000000 0 0 1
21.536282 -12.177764 16.782055 29.895597 -0.514630 0.974774 0.011226 -0.012770 -608910.000000 0 0 1
21.625382 -11.838964 18.278655 30.690836 -0.500889 0.932817 0.027602 -0.005539 1012170.000000 0 0 1
20.357882 -11.641264 18.973055 30.165198 -0.519449 0.890567 0.041957 -0.013096 964207.000000 0 0 1
20.323982 -12.025764 20.357055 31.178405 -0.534297 0.859361 0.078926 -0.007321 -10683.100000 0 0 1
20.912482 -11.012364 21.377155 31.868273 -0.484695 0.835513 0.042814 0.008164 -290178.000000 0 0 1
20.181982 -9.850164 21.671855 31.209092 -0.454056 0.803199 0.065128 0.009463 -207400.000000 0 0 1
20.325382 -8.810364 20.705855 30.322864 -0.409020 0.819145 0.044982 0.011166 441113.000000 0 0 1
21.568582 -7.865464 21.042455 31.142481 -0.349686 0.828905 0.018919 0.021345 1382220.000000 0 0 1
22.872782 -8.413364 21.041255 32.197566 -0.352473 0.858591 0.016555 0.028304 192029.000000 0 0 1
23.397482 -8.722164 19.767155 31.847429 -0.356825 0.901183 0.007783 0.014635 -971752.000000 0 0 1
24.745582 -9.428964 19.738255 33.027986 -0.364052 0.930264 -0.043541 0.020555 -512217.000000 0 0 1
24.650782 -10.622564 20.476455 33.760704 -0.406876 0.919123 -0.037615 0.020953 408310.000000 0 0 1
25.736212 -11.446664 20.099955 34.603279 -0.418495 0.951001 -0.031488 0.013544 -2524.410000 0 0 1
25.552102 -12.907264 20.610855 35.274845 -0.467747 0.946787 -0.050325 0.010592 -241866.000000 0 0 1
24.514282 -13.531364 19.883455 34.342388 -0.504361 0.953323 0.006642 -0.006030 248892.000000 0 0 1
24.224882 -14.879664 20.230755 34.893162 -0.550818 0.952324 0.007772 -0.009252 50253.700000 0 0 1
22.946382 -15.251364 19.432955 33.716172 -0.586607 0.956518 0.026079 -0.014343 -215082.000000 0 0 1
23.276182 -15.364764 18.077455 33.236290 -0.583447 0.995710 0.004939 -0.016167 497868.000000 0 0 1
22.249282 -15.782764 17.173455 32.234356 -0.616981 1.008927 -0.002737 -0.016431 -431862.000000 0 0 1
21.889382 -17.224364 17.265955 32.770977 -0.666691 1.015886 -0.003251 -0.024018 -330929.000000 0 0 1
23.033982 -18.036464 17.065955 33.869236 -0.664312 1.042714 0.014176 -0.022751 268509.000000 0 0 1
22.706482 -19.399564 17.209455 34.468721 -0.707021 1.048032 0.013667 -0.020747 535514.000000 0 0 1
23.975782 -20.305664 16.991655 35.719385 -0.702706 1.075038 0.007434 -0.021170 601935.000000 0 0 1
24.407682 -20.318564 15.637055 35.399103 -0.694226 1.113264 0.006276 -0.027825 139571.000000 0 0 1
25.159552 -21.497864 15.396455 36.499480 -0.707078 1.135337 0.004652 -0.027950 83376.200000 0 0 1
25.589932 -21.715264 13.949655 36.345428 -0.703673 1.176880 0.002916 -0.030276 152441.000000 0 0 1
24.414282 -22.042164 13.243855 35.458622 -0.734381 1.188015 -0.008804 -0.015488 269381.000000 0 0 1
24.620182 -21.821664 11.894655 34.983156 -0.725212 1.223868 0.006097 -0.016394 404365.000000 0 0 1
23.374982 -22.053964 10.963355 33.955298 -0.756328 1.242030 -0.035745 0.006501 358532.000000 0 0 1
22.902182 -23.386564 11.081455 34.557777 -0.795862 1.244365 -0.038970 0.007800 111196.000000 0 0 1
21.614682 -23.487964 10.492055 33.600032 -0.826908 1.253222 -0.052545 0.017654 -112515.000000 0 0 1
21.559482 -24.126764 9.098155 33.610838 -0.841533 1.296685 -0.047515 0.018040 -426500.000000 0 0 1
21.826682 -25.499404 9.137955 34.786863 -0.862848 1.304993 -0.042011 0.024929 18737.500000 0 0 1
21.853282 -26.137404 7.828455 34.957324 -0.874432 1.344938 -0.029007 0.023275 -521191.000000 0 0 1
20.478882 -26.700794 7.420355 34.458361 -0.916518 1.353754 -0.011562 0.014167 495254.000000 0 0 1
19.459282 -25.749104 7.113855 33.049765 -0.923640 1.353852 -0.016874 0.018530 466815.000000 0 0 1
18.185182 -26.168494 7.606955 32.762123 -0.963483 1.336470 0.003232 0.001467 625869.000000 0 0 1
17.214382 -24.959064 7.638755 31.267242 -0.967013 1.323993 0.004466 0.003782 -159401.000000 0 0 1
16.971082 -24.365964 6.387555 30.372993 -0.962418 1.358911 0.016475 0.002252 306233.000000 0 0 1
16.087682 -23.253464 6.563655 29.027895 -0.965568 1.342708 0.022406 0.004818 104849.000000 0 0 1
15.646182 -22.612064 5.266455 27.997214 -0.965501 1.381563 0.028647 0.001760 -355384.000000 0 0 1
14.949082 -21.414464 5.421255 26.672914 -0.961358 1.366121 0.044101 0.003599 -111432.000000 0 0 1
14.589382 -20.937864 4.125455 25.850795 -0.962225 1.410524 0.031531 0.003444 -29674.000000 0 0 1
13.925182 -19.561064 4.098255 24.358604 -0.952140 1.401746 0.033145 0.017237 490354.000000 0 1 0
14.796082 -18.426564 4.349555 24.028752 -0.894244 1.388778 0.023289 0.016798 271497.000000 0 1 0
14.085682 -17.229464 4.207855 22.648773 -0.885455 1.383923 0.009931 0.017169 230058.000000 0 1 0
15.029182 -16.004064 4.296055 22.371018 -0.816802 1.377559 -0.012328 0.014109 -247128.000000 0 1 0
15.479482 -15.836264 5.612055 22.845060 -0.796791 1.322599 -0.009546 0.009094 416900.000000 0 1 0
16.557182 -14.901264 5.725455 22.999321 -0.732808 1.319211 -0.008324 0.001805 1213000.000000 0 1 0
18.008882 -15.442164 5.475355 24.346658 -0.708818 1.343965 -0.005104 -0.000207 845928.000000 0 1 0
18.977282 -14.401864 5.413355 24.430623 -0.649173 1.347361 0.005301 -0.006150 81141.400000 0 1 0
20.301582 -14.745364 5.086355 25.601777 -0.628170 1.370794 0.014216 -0.002656 -429791.000000 0 0 1
21.137182 -13.502764 5.152155 25.605659 -0.568473 1.368202 0.010607 -0.011983 -786369.000000 0 0 1
21.377382 -12.990564 6.453055 25.833875 -0.546046 1.318333 0.024170 -0.021711 18618.300000 0 0 1
22.366382 -12.011764 6.548955 26.218816 -0.492843 1.318343 0.027895 -0.022918 -490235.000000 0 0 1
22.364582 -11.281564 7.860555 26.253315 -0.467192 1.266720 0.031127 -0.022697 -307506.000000 0 0 1
22.671982 -12.122464 8.899155 27.206026 -0.491012 1.237561 0.026950 -0.011520 292597.000000 0 0 1
22.653582 -11.332664 10.076255 27.260685 -0.463855 1.192190 0.030138 -0.016103 50193.200000 0 0 1
23.118082 -12.159064 11.355655 28.482265 -0.484195 1.160706 0.018503 -0.008538 -32479.000000 0 0 1
22.172582 -13.168164 11.661755 28.302305 -0.535918 1.146102 0.023431 -0.014146 392889.000000 0 0 1
22.594982 -14.035464 12.695555 29.473795 -0.555845 1.125483 0.020109 -0.011283 -115396.000000 0 0 1
21.495182 -15.032164 13.095555 29.317271 -0.610274 1.107741 0.015822 -0.012379 -105875.000000 0 0 1
20.429882 -14.548964 13.881355 28.666085 -0.618828 1.065298 0.006675 -0.017991 129684.000000 0 0 1
19.685482 -15.739564 14.266855 28.961962 -0.674468 1.055714 -0.005903 -0.018512 1108720.000000 0 0 1
18.272082 -15.408264 14.900655 28.165814 -0.700573 1.013335 -0.001933 -0.022695 528026.000000 0 0 1
18.322082 -14.874964 16.259355 28.658853 -0.681931 0.967523 -0.002217 -0.010717 205089.000000 0 0 1
18.156282 -13.501364 16.436855 27.966187 -0.639405 0.942533 0.016251 -0.021147 608672.000000 0 0 1
16.654682 -13.023464 16.353055 26.728476 -0.663650 0.912435 0.021397 -0.020511 486653.000000 0 0 1
16.014482 -13.294364 15.131355 25.732502 -0.692855 0.942181 0.011174 -0.021773 1696980.000000 0 0 1
14.558182 -13.109464 15.157755 24.770067 -0.733085 0.912287 0.017213 -0.016658 2074990.000000 0 1 0
14.087082 -11.681564 14.748155 23.503465 -0.692317 0.892473 0.011744 -0.009530 -297454.000000 0 1 0
14.652482 -10.641864 15.488155 23.829130 -0.628149 0.863255 0.016778 -0.010991 64828.900000 0 1 0
14.376382 -9.394564 14.921655 22.750692 -0.578812 0.855453 0.009207 -0.012652 -168988.000000 0 1 0
15.030582 -8.237664 15.844555 23.341538 -0.501353 0.824650 0.024747 -0.010207 1623870.000000 0 1 0
16.467482 -8.131264 15.937655 24.316748 -0.458657 0.856059 0.034721 -0.016147 1339190.000000 0 1 0
17.099982 -8.961564 16.910755 25.665008 -0.482717 0.851437 0.045685 -0.016228 706672.000000 0 0 1
18.667882 -8.899664 16.930955 26.727347 -0.444864 0.884768 0.036931 -0.009273 610116.000000 0 0 1
19.019682 -7.589864 17.183755 26.732672 -0.379690 0.872649 0.036789 -0.008545 -460332.000000 0 0 1
20.347582 -7.469664 16.770055 27.405377 -0.351830 0.912303 0.029296 0.003093 -689348.000000 0 0 1
20.983182 -6.123064 17.103255 27.754408 -0.283925 0.906842 0.029111 0.008153 -350730.000000 0 0 1
21.481682 -6.063464 18.407955 28.932353 -0.275105 0.881180 0.026435 0.007951 46946.500000 0 0 1
21.853182 -4.785964 18.704655 29.160437 -0.215601 0.874423 0.026099 0.003122 -159827.000000 0 0 1
-5.271797 -33.507320 -6.541228 34.544464 1.414743 1.761303 -0.030264 -0.003584 -174490.000000 0 0 1
-5.868297 -32.211620 -6.666828 33.413649 1.390593 1.771669 -0.028231 -0.012337 984.386000 0 0 1
-5.601397 -31.426720 -5.553428 32.401465 1.394412 1.743041 -0.039942 -0.008674 -958783.000000 0 0 1
-6.395197 -30.142020 -5.439628 31.289446 1.361728 1.745533 -0.021303 -0.013313 -100544.000000 0 0 1
-7.778397 -30.163420 -5.163628 31.575281 1.318420 1.735068 -0.004718 -0.012192 -364824.000000 0 0 1
-8.517097 -30.426720 -6.314428 32.221083 1.297860 1.768045 -0.011786 -0.012840 -2159300.000000 0 0 1
-9.960297 -30.425820 -5.918728 32.557170 1.254428 1.753608 0.007638 -0.012358 -1347600.000000 0 0 1
-10.821097 -30.694620 -6.997228 33.289893 1.231860 1.782566 0.015190 -0.011369 189909.000000 0 0 1
-12.181797 -30.693020 -6.537528 33.662990 1.192973 1.766243 0.030050 -0.014602 438691.000000 0 0 1
-13.160597 -31.102120 -7.628628 34.622812 1.170501 1.792955 0.036812 -0.018898 -272278.000000 0 0 1
-13.229197 -30.106220 -8.643228 34.001492 1.156778 1.827818 0.049413 -0.020722 325187.000000 0 0 1
-14.207897 -30.429220 -9.633328 34.937125 1.133964 1.850149 0.053597 -0.012321 236639.000000 0 0 1
-14.366597 -29.484320 -10.866028 34.551335 1.117391 1.890715 0.060202 -0.010578 -327200.000000 0 0 1
-14.803997 -28.126020 -10.816928 33.574354 1.086295 1.898826 0.057032 -0.014411 334494.000000 0 0 1
-13.919197 -27.225220 -10.141828 32.215110 1.098180 1.891059 0.048215 -0.009290 308486.000000 0 0 1
-14.529897 -25.794520 -9.859228 31.203838 1.057804 1.892267 0.057222 -0.003351 82849.200000 0 0 1
-14.684997 -25.004120 -11.062228 31.035915 1.039765 1.935244 0.056612 -0.023586 49042.200000 0 0 1
-15.245597 -23.753820 -10.802928 30.222101 1.000195 1.936334 0.040564 0.003638 -271930.000000 0 0 1
-15.860997 -23.095320 -12.058828 30.502136 0.969010 1.977238 0.059867 0.001976 -442976.000000 0 0 1
-17.081897 -23.671520 -12.415328 31.721797 0.945706 1.972929 0.059185 -0.000552 -637682.000000 0 0 1
-17.477997 -23.235720 -13.705228 32.143620 0.925886 2.011277 0.061832 -0.015596 252753.000000 0 0 1
-18.949297 -23.710620 -13.939028 33.400087 0.896549 2.001307 0.038567 0.008128 319689.000000 0 0 1
-19.162397 -25.101020 -14.247528 34.644634 0.918767 1.994619 0.061820 0.004724 -108175.000000 0 0 1
-18.973697 -25.959720 -13.104328 34.722206 0.939638 1.957789 0.065681 -0.000884 -1007090.000000 0 0 1
-19.126697 -27.476020 -13.356028 36.043663 0.962677 1.950399 0.058549 -0.001358 424050.000000 0 0 1
-18.241997 -28.174920 -14.274428 36.474043 0.996212 1.972904 0.068505 -0.012504 642799.000000 0 0 1
-16.850497 -28.030220 -14.050428 35.595603 1.029528 1.976563 0.077528 -0.017207 -58516.900000 0 0 1
-16.093697 -29.364020 -14.384928 36.444188 1.069432 1.976550 0.066040 -0.014125 51024.100000 0 0 1
-16.107097 -29.778520 -15.732128 37.332273 1.074969 2.005794 0.056584 -0.021235 141943.000000 0 0 1
-15.326397 -30.984620 -16.029928 38.103854 1.111442 2.005003 0.052517 -0.010748 416604.000000 0 0 1
-15.846797 -32.380320 -15.626728 39.291229 1.115668 1.979822 0.044964 -0.009481 -419266.000000 0 0 1
-15.903797 -32.576120 -14.225528 38.942264 1.116630 1.944749 0.049154 -0.007839 -58609.200000 0 0 1
-16.260597 -33.913520 -13.954828 40.115720 1.123705 1.926089 0.032226 -0.003157 -989649.000000 0 0 1
-16.836997 -34.193920 -12.515028 40.116512 1.113249 1.888059 0.047665 -0.014865 -297109.000000 0 0 1
-18.129897 -33.752720 -12.242228 40.222026 1.077881 1.880069 0.048017 -0.006868 -549488.000000 0 0 1
-18.425797 -32.372620 -12.358628 39.245792 1.053348 1.891151 0.052415 -0.012421 -721603.000000 0 0 1
-18.033697 -31.352120 -11.245428 37.876500 1.048813 1.872238 0.063978 -0.009875 21735.700000 0 0 1
-18.616197 -31.592720 -9.959228 37.998012 1.038314 1.835993 0.048481 -0.009595 349593.000000 0 0 1
-18.233397 -30.499220 -9.059828 36.670692 1.031973 1.820440 0.057588 -0.000290 198694.000000 0 0 1
-18.398197 -30.911920 -7.568328 36.760305 1.033928 1.778162 0.042545 0.005839 94799.200000 0 0 1
-17.400497 -31.833320 -7.157728 36.977974 1.070557 1.765593 0.050224 -0.005888 56679.400000 0 0 1
-17.466997 -32.131920 -5.788428 37.027856 1.072878 1.727766 0.056181 -0.019529 1131190.000000 0 0 1
-16.244297 -33.052820 -5.246528 37.200700 1.114000 1.712301 0.048173 -0.019685 1313480.000000 0 0 1
-15.026497 -32.423820 -4.931828 36.075235 1.136822 1.707935 0.057069 -0.016919 2799.870000 0 0 1
-14.978397 -31.970120 -3.608428 35.488895 1.132655 1.672650 0.035236 -0.019325 571192.000000 0 0 1
-13.663397 -31.173120 -3.221028 34.188109 1.157709 1.665151 0.046513 -0.021240 1015030.000000 0 0 1
-12.516697 -32.007020 -3.208028 34.516785 1.198020 1.663872 0.006172 -0.010980 -310296.000000 0 0 1
-11.422397 -31.331820 -2.611228 33.451047 1.221208 1.648937 0.006267 -0.006339 -493194.000000 0 0 1
-10.126997 -32.079920 -2.751828 33.752775 1.265017 1.652416 0.018760 -0.006969 -1156920.000000 0 0 1
-10.208197 -33.288020 -2.025828 34.876977 1.273238 1.628914 0.010922 0.000852 59578.400000 0 0 1
-8.986197 -33.986320 -1.785128 35.199550 1.312305 1.621533 -0.017130 0.001490 515212.000000 0 0 1
-7.979797 -33.358120 -0.784728 34.308266 1.335993 1.593671 -0.020452 0.000080 -299320.000000 0 0 1
-8.537497 -33.192520 0.493072 34.276454 1.319042 1.556411 -0.002331 0.003214 -394204.000000 0 0 1
-7.602297 -32.711420 1.406372 33.612643 1.342445 1.528944 -0.009235 0.004738 191784.000000 0 0 1
-6.599697 -33.754720 1.941172 34.448588 1.377713 1.514417 -0.001344 0.004390 -97128.000000 0 0 1
-7.326297 -34.620720 2.805272 35.498428 1.362257 1.491689 0.019752 -0.000960 545376.000000 0 0 1
-6.574797 33.575136 3.366672 34.378077 -1.377420 1.472708 0.025233 -0.000750 -13857.800000 0 0 1
-5.692997 33.888836 4.592672 34.669238 -1.404360 1.437935 0.028707 -0.009223 -241674.000000 0 0 1
-4.563697 -34.639020 4.288972 35.200629 1.439801 1.448649 0.011419 -0.006503 -969745.000000 0 0 1
-3.981097 -34.262520 5.484572 34.926350 1.455121 1.413111 0.000564 -0.011493 39588.000000 0 0 1
-2.856397 -33.248720 5.120672 33.761778 1.485097 1.418538 0.008971 -0.004645 -37019.000000 0 0 1
-3.308397 -31.997120 4.589472 32.493452 1.467766 1.429079 -0.002045 0.001934 128304.000000 0 0 1
-3.510397 -31.959420 3.186772 32.309177 1.461396 1.472002 -0.008840 -0.000654 -236940.000000 0 0 1
-4.175797 -30.586920 2.806972 30.998000 1.435113 1.480119 -0.011508 -0.002767 -317114.000000 0 0 1
-3.350897 -29.487120 2.906372 29.818882 1.457642 1.473174 -0.003460 0.009520 -423932.000000 0 0 1
-3.858097 -28.402620 2.165972 28.745176 1.435787 1.495374 -0.004027 0.004245 142982.000000 0 0 1
-2.941997 -27.156620 2.333572 27.415012 1.462883 1.485573 -0.003516 0.007011 200572.000000 0 0 1
-3.236397 -26.052320 1.523372 26.296735 1.447203 1.512834 0.002493 0.000091 -269012.000000 0 0 1
-2.752397 -24.861320 2.166972 25.106905 1.460535 1.484379 -0.004603 -0.003025 355271.000000 0 0 1
-3.721497 -24.247520 3.231472 24.743366 1.418505 1.439823 -0.014400 0.000384 293871.000000 0 1 0
-4.016497 -25.040320 4.385372 25.736770 1.411750 1.399568 0.001244 0.002414 -89617.100000 0 0 1
-4.958697 -24.489720 5.275472 25.537534 1.371017 1.362721 -0.007477 0.004708 25572.300000 0 0 1
-5.556797 -25.516420 6.330672 26.870859 1.356371 1.332964 -0.010519 0.007713 308196.000000 0 0 1
-4.646297 -25.908420 7.404072 27.343273 1.393347 1.296591 -0.014560 0.001778 177083.000000 0 0 1
-5.256297 -26.770420 8.331072 28.525266 1.376916 1.274417 -0.020165 0.005458 -427629.000000 0 0 1
-4.451897 -27.304020 9.520272 29.256870 1.409169 1.239358 -0.021328 0.009071 -509208.000000 0 0 1
-4.197297 -26.281420 10.532672 28.622849 1.412428 1.193959 -0.022731 0.010179 861834.000000 0 0 1
-5.327097 -25.643420 11.234572 28.498746 1.365972 1.165585 -0.024463 0.003625 1061860.000000 0 0 1
-4.957897 -24.642020 12.374672 28.016823 1.372250 1.113318 -0.025883 0.002294 29064.500000 0 0 1
-4.423897 -25.310220 13.498472 29.023901 1.397757 1.087070 -0.005784 0.001727 -269035.000000 0 0 1
-3.815397 -24.411120 14.380372 28.587674 1.415753 1.043699 -0.021909 -0.000937 -294995.000000 0 0 1
-2.737697 -25.121620 15.205872 29.492530 1.462247 1.029107 -0.030194 -0.001478 -372318.000000 0 0 1
-3.165197 -25.844120 16.326972 30.732833 1.448931 1.010715 -0.019441 -0.000598 330783.000000 0 0 1
-2.007797 -26.258520 17.086972 31.392765 1.494482 0.995246 -0.026732 -0.004252 695855.000000 0 0 1
-2.171597 -26.902520 18.422172 32.677788 1.490250 0.971875 -0.026555 -0.002604 9113.280000 0 0 1
-2.703597 -25.984620 19.388672 32.533529 1.467123 0.932336 -0.005874 -0.002924 28879.400000 0 0 1
-2.355397 -26.401420 20.701572 33.632394 1.481817 0.907745 -0.009570 -0.004566 238252.000000 0 0 1
-2.814397 -25.325320 21.679572 33.455889 1.460121 0.865835 0.014504 -0.008073 -20153.300000 0 0 1
-2.448097 -25.585420 23.040372 34.517613 1.475403 0.839955 -0.002187 -0.014389 -144512.000000 0 0 1
-2.638097 -24.513920 23.962272 34.381424 1.463593 0.799655 0.012189 -0.018827 -289305.000000 0 0 1
-1.703697 -23.322120 23.822572 33.381713 1.497875 0.776114 0.007267 -0.013122 -318073.000000 0 0 1
-2.081897 -22.419120 22.828872 32.064133 1.478199 0.778489 0.025115 -0.009772 299936.000000 0 0 1
-0.982497 -21.587020 22.421072 31.139512 1.525314 0.766965 0.018120 -0.007610 229559.000000 0 0 1
-1.475897 -20.386220 21.617172 29.750267 1.498526 0.757405 0.007586 0.010247 -345572.000000 0 0 1
-2.247597 -19.412620 22.327072 29.671529 1.455529 0.718985 0.007459 -0.003711 -430921.000000 0 0 1
-3.594297 -19.663220 22.571172 30.149942 1.389999 0.724802 0.024912 -0.007270 -1047520.000000 0 0 1
-4.476897 -19.464320 21.323072 29.216019 1.344723 0.752706 0.033945 -0.009219 -1058210.000000 0 0 1
-4.529997 -20.490820 20.298272 29.196137 1.353221 0.802045 0.030123 -0.012060 -35435.900000 0 0 1
-5.049897 -21.781820 20.639772 30.429415 1.342981 0.825372 0.030565 -0.014613 18688.900000 0 0 1
-4.948197 -22.578420 19.367472 30.155740 1.355051 0.873368 0.019084 -0.008036 76891.700000 0 0 1
-5.715697 -23.764820 19.298872 31.142934 1.334768 0.902452 0.020837 -0.014954 -83127.600000 0 0 1
-5.535997 -24.391620 18.043672 30.841084 1.347614 0.945851 0.019022 -0.014796 -220544.000000 0 0 1
-6.276397 -25.724920 17.958172 31.994696 1.331490 0.974858 -0.008652 -0.017693 -1116370.000000 0 0 1
-7.635597 -25.584520 17.877172 32.131966 1.280766 0.980789 0.003294 -0.016269 -1694120.000000 0 0 1
-8.234197 -26.864020 17.737372 33.227879 1.273374 1.007697 0.002692 -0.018956 293041.000000 0 0 1
-9.768097 -26.871520 17.943172 33.755766 1.222136 1.010357 0.018936 -0.023175 -979467.000000 0 0 1
-10.484597 -26.444720 16.841772 33.058966 1.193335 1.036255 0.021228 -0.016460 526380.000000 0 0 1
-11.916897 -26.463920 16.992472 33.631764 1.147687 1.041124 0.023739 -0.013106 1571540.000000 0 0 1
-12.614497 -25.776620 18.247472 34.007792 1.115683 1.004432 0.027242 -0.004561 -970758.000000 0 0 1
-12.403597 -24.381420 18.193272 32.852671 1.100188 0.983895 0.015630 -0.007245 -117642.000000 0 0 1
-12.916697 -23.687020 19.300772 33.172817 1.071563 0.949826 0.006357 0.004009 -68523.400000 0 0 1
-11.848197 -22.826520 20.035472 32.601379 1.092022 0.908969 -0.013204 -0.001947 338785.000000 0 0 1
-10.869397 -23.602720 20.680672 33.210275 1.139233 0.898583 -0.001167 -0.005958 -956073.000000 0 0 1
-9.561997 -23.371220 20.291772 32.394470 1.182439 0.893875 0.021641 -0.012035 -678286.000000 0 0 1
-8.568397 -24.239120 21.072972 33.241879 1.231012 0.884174 0.017345 -0.022699 -210863.000000 0 0 1
-8.502197 -23.908320 22.460372 33.887511 1.229127 0.846255 0.023454 -0.017534 -208401.000000 0 0 1
-7.637797 -24.736120 23.177172 34.747559 1.271312 0.840600 0.018509 -0.013433 -194023.000000 0 0 1
-7.536497 -24.298820 24.660472 35.431205 1.270046 0.800971 0.019185 -0.013674 -210471.000000 0 0 1
-6.668997 -25.120520 25.393372 36.336474 1.311302 0.797022 0.016652 -0.016451 -76005.400000 0 0 1
-6.638697 -24.626520 26.700072 36.924675 1.307481 0.762523 0.029513 -0.015015 -561064.000000 0 0 1
-5.471397 -25.238620 27.443172 37.683575 1.357313 0.755027 0.011026 -0.017359 -1006820.000000 0 0 1
-4.226897 -24.749320 27.068772 36.920373 1.401640 0.747830 0.020201 -0.015790 -1145560.000000 0 0 1
-3.286597 -25.031920 28.046572 37.736043 1.440247 0.732910 0.024038 -0.014448 -44737.900000 0 0 1
-1.883497 -24.465720 27.688872 36.997198 1.493963 0.725143 0.014449 -0.012755 -178420.000000 0 0 1
-1.845897 -23.065920 27.883872 36.234711 1.490940 0.692684 0.021540 -0.011291 707623.000000 0 0 1
-0.713797 -22.426020 27.228072 35.281777 1.538978 0.689236 0.020436 -0.016761 426112.000000 0 0 1
0.441303 -22.143420 28.177572 35.839941 -1.550870 0.666151 0.019126 -0.014499 -592254.000000 0 0 1
1.029703 -23.315120 28.702372 36.992989 -1.526660 0.682677 0.018965 -0.010043 -177326.000000 0 0 1
1.937703 -23.005020 29.725872 37.637921 -1.486765 0.660338 0.014745 -0.015213 75513.500000 0 0 1
2.597803 -24.281820 30.395672 38.990412 -1.464216 0.676821 0.021242 -0.021241 -40617.300000 0 0 1
3.467503 -25.003620 29.551072 38.864771 -1.432995 0.706935 0.017536 -0.023674 346540.000000 0 0 1
4.264503 -26.016320 30.149672 40.050438 -1.408325 0.718502 -0.008013 -0.009185 -133399.000000 0 0 1
5.603503 -25.599320 30.825372 40.458967 -1.355302 0.704567 -0.014833 -0.011670 780267.000000 0 0 1
6.640703 -25.067420 29.976272 39.636490 -1.311831 0.713188 -0.031833 -0.004093 546753.000000 0 0 1
7.223903 -26.014220 29.102072 39.697040 -1.299930 0.747921 -0.027517 -0.003197 -767759.000000 0 0 1
8.337703 -25.372220 28.257772 38.881468 -1.253298 0.757193 -0.029087 -0.005153 -115165.000000 0 0 1
7.787203 -24.480420 27.317772 37.499229 -1.262819 0.754683 -0.020556 -0.003164 878797.000000 0 0 1
8.855803 -24.110220 26.415672 36.844480 -1.218789 0.771378 -0.035069 0.006756 605427.000000 0 0 1
8.511703 -22.872220 25.592172 35.363071 -1.214534 0.761651 -0.024451 0.016005 27824.600000 0 0 1
7.771503 -23.211320 24.421272 34.576873 -1.247713 0.786554 -0.019567 0.017299 42891.500000 0 0 1
7.504203 -22.068820 23.643172 33.201588 -1.243025 0.778298 -0.025559 0.028033 -14267.500000 0 0 1
6.720503 -22.359120 22.339572 32.313339 -1.278816 0.807451 -0.003773 0.030536 345149.000000 0 0 1
7.495303 -23.172120 21.381972 32.408570 -1.257956 0.850293 -0.007688 0.036136 715473.000000 0 0 1
6.851103 -23.319620 20.090372 31.533559 -1.285045 0.880052 -0.000498 0.025484 24785.500000 0 0 1
7.549803 -24.279820 19.114472 31.809939 -1.269324 0.926174 0.010208 0.013185 -296953.000000 0 0 1
8.771103 -23.795120 18.650872 31.480073 -1.217640 0.936680 0.019871 0.001050 -1199520.000000 0 0 1
9.488003 -24.758020 17.983372 32.037219 -1.204830 0.974807 0.036056 -0.009052 -771376.000000 0 0 1
10.889803 -24.340820 17.619672 31.961167 -1.150116 0.986894 0.026198 -0.011255 -598842.000000 0 0 1
10.658203 -23.223220 16.808972 30.585238 -1.140528 0.988937 0.030321 -0.007165 -270993.000000 0 0 1
11.839603 -22.917120 16.128472 30.422002 -1.093936 1.012009 0.035423 -0.019156 -228281.000000 0 0 1
-12.242897 22.771636 11.326672 28.226396 -1.077494 1.157883 0.011058 0.004412 252829.000000 0 0 1
-13.138997 21.800536 10.765572 27.636826 -1.028400 1.170667 -0.002282 0.005091 494643.000000 0 0 1
-12.452097 20.646836 10.348472 26.238091 -1.028101 1.165374 0.012261 0.002482 104300.000000 0 0 1
-13.316097 19.920736 9.277572 25.694892 -0.981557 1.201385 0.007388 0.005369 -587374.000000 0 0 1
-13.501697 20.704736 8.113372 26.015547 -0.992942 1.253640 0.008188 0.004098 167962.000000 0 0 1
-14.445397 20.164136 7.197472 25.827610 -0.949154 1.288384 0.013796 -0.000495 22354.700000 0 0 1
-15.919897 20.096536 7.596472 26.739863 -0.900847 1.282741 -0.002764 0.007827 -1171120.000000 0 0 1
-16.239397 19.061636 8.475372 26.436639 -0.865176 1.244442 -0.008663 0.005364 623335.000000 0 0 1
-17.633097 19.125536 8.813272 27.466088 -0.825977 1.244140 0.002957 0.010157 668293.000000 0 0 1
-18.110097 17.925636 9.688372 27.261118 -0.780279 1.207463 -0.009408 0.009739 -80300.600000 0 0 1
-18.232497 16.648736 9.102972 26.314795 -0.740025 1.217571 -0.012128 0.013059 75227.300000 0 0 1
-18.603697 15.623036 9.993172 26.268618 -0.698532 1.180543 -0.004841 0.005126 -167034.000000 0 0 1
-17.522997 15.080136 10.989172 25.597418 -0.710611 1.127070 -0.001656 0.007049 -79396.500000 0 0 1
-16.633697 14.173636 10.415172 24.208421 -0.705714 1.126050 -0.020689 0.016120 -372089.000000 0 1 0
-16.079097 13.297136 11.398972 23.775780 -0.690979 1.070784 -0.015879 0.009864 391859.000000 0 1 0
-17.061897 12.287236 12.099572 24.258692 -0.624126 1.048614 -0.005600 -0.000160 418574.000000 0 1 0
-17.783997 11.418236 11.252572 23.942995 -0.570767 1.081536 -0.019023 -0.000685 9121.670000 0 1 0
-18.739397 10.602736 11.898572 24.599980 -0.514892 1.065939 -0.001580 -0.008455 472576.000000 0 1 0
-19.787597 9.913336 10.926672 24.682289 -0.464437 1.112197 0.004848 -0.009798 -399557.000000 0 1 0
-19.385097 8.867036 10.061572 23.572050 -0.429003 1.129797 0.005006 -0.008559 296083.000000 0 1 0
-18.552497 9.269936 8.982772 22.601262 -0.463375 1.162065 -0.001839 -0.000454 -636223.000000 0 1 0
-19.370597 9.780936 7.785572 23.054324 -0.467590 1.226318 -0.004314 0.000048 -351080.000000 0 1 0
-19.934797 8.611936 7.246172 22.892544 -0.407789 1.248727 -0.018172 -0.004244 169578.000000 0 1 0
-20.851797 8.940736 6.236272 23.529243 -0.405064 1.302547 -0.007642 0.004654 -175408.000000 0 1 0
-21.262097 7.686536 5.454472 23.257490 -0.346895 1.334066 0.008525 0.005362 10012.500000 0 1 0
-22.053097 6.713536 6.156772 23.860354 -0.295512 1.309810 0.018610 0.005426 681280.000000 0 1 0
-21.751297 5.456536 5.676372 23.132529 -0.245788 1.322880 0.018757 0.004441 -395848.000000 0 1 0
-22.837997 4.381936 5.905172 23.992634 -0.189567 1.322117 0.038230 0.006463 326626.000000 0 1 0
-23.985597 4.499436 5.054972 24.922009 -0.185434 1.366548 0.044706 0.004360 848580.000000 0 1 0
-24.709997 3.262436 5.028472 25.426619 -0.131270 1.371720 0.050334 0.000779 -244890.000000 0 0 1
-25.851577 3.244036 4.015472 26.361938 -0.124834 1.417880 0.049825 -0.002988 -221052.000000 0 0 1
-25.370637 3.174236 2.701372 25.710745 -0.124468 1.465534 0.048881 -0.006782 -17642.700000 0 0 1
-26.471747 2.987936 1.892972 26.707012 -0.112397 1.499858 0.049528 -0.004879 -568743.000000 0 0 1
-26.204967 3.001636 0.410272 26.379507 -0.114047 1.555243 0.058769 -0.009187 -356514.000000 0 0 1
-25.467017 4.153136 0.030272 25.803457 -0.161656 1.569623 0.057654 -0.016885 543328.000000 0 0 1
-25.508197 4.421436 -1.365728 25.924552 -0.171629 1.623502 0.070463 -0.010464 -538785.000000 0 0 1
-26.845367 5.014036 -1.850028 27.372191 -0.184647 1.638436 0.075346 -0.011594 -554124.000000 0 0 1
-27.837797 4.024336 -1.838628 28.187209 -0.143569 1.636072 0.057278 -0.011821 -243491.000000 0 0 1
-29.072157 4.706736 -2.043728 29.521526 -0.160506 1.640080 0.033361 -0.003924 554776.000000 0 0 1
-30.242577 3.667736 -2.311728 30.551756 -0.120688 1.646535 0.029931 0.000392 238982.000000 0 0 1
-30.106007 2.975536 -3.543728 30.459538 -0.098515 1.687403 0.023918 -0.001253 119865.000000 0 0 1
-31.093097 2.001736 -3.750228 31.382349 -0.064290 1.690584 0.033219 -0.002838 -205623.000000 0 0 1
-31.084417 1.478736 -5.180328 31.547796 -0.047536 1.735749 0.031683 -0.006285 253108.000000 0 0 1
-29.801417 0.951736 -5.545328 30.327890 -0.031925 1.754677 0.043342 -0.012065 811489.000000 0 0 1
-29.857727 0.155836 -6.715828 30.604092 -0.005219 1.792039 0.045811 -0.013457 -168547.000000 0 0 1
-30.186887 0.786736 -8.104028 31.265674 -0.026056 1.832989 0.033901 -0.002115 335413.000000 0 0 1
-31.595437 0.985836 -8.206428 32.658673 -0.031192 1.824797 0.024494 -0.001671 651391.000000 0 0 1
-31.975107 1.835536 -9.281928 33.345627 -0.057342 1.852878 0.020399 -0.003250 649090.000000 0 0 1
-33.496427 2.211836 -9.288728 34.830781 -0.065936 1.840745 0.023327 -0.003271 692040.000000 0 0 1
-33.730357 3.041636 -8.173128 34.839468 -0.089932 1.807597 0.011668 0.006047 873914.000000 0 0 1
34.795070 3.129136 -7.961028 35.831080 0.089689 1.794848 0.016162 0.009521 722658.000000 0 0 1
34.422211 4.044536 -6.777828 35.315518 0.116962 1.763917 0.023028 0.000653 -101700.000000 0 0 1
33.036922 3.999436 -6.495228 33.906071 0.120473 1.763553 0.027261 -0.011519 193940.000000 0 0 1
32.695752 4.696936 -5.303228 33.454411 0.142680 1.729989 0.020269 -0.009298 -611971.000000 0 0 1
31.315702 4.220236 -4.886528 31.974391 0.133957 1.724224 0.027476 -0.016627 -668379.000000 0 0 1
31.278692 2.925336 -4.403228 31.722272 0.093254 1.710052 0.027877 -0.020111 814003.000000 0 0 1
30.035382 2.241536 -4.704528 30.484114 0.074492 1.725743 0.033733 -0.021248 625726.000000 0 0 1
30.056972 0.857836 -4.017528 30.336413 0.028533 1.703619 0.035710 -0.000893 -263940.000000 0 0 1
31.001762 -0.049564 -4.570328 31.336872 -0.001599 1.717163 0.030794 -0.014216 171661.000000 0 0 1
30.966312 -1.205964 -3.802928 31.222253 -0.038925 1.692901 0.033050 -0.000504 531257.000000 0 0 1
32.254302 -2.096564 -3.917328 32.558885 -0.064910 1.691404 0.033588 -0.003946 394348.000000 0 0 1
32.220862 -3.317664 -3.176228 32.546570 -0.102605 1.668542 0.024946 0.011015 32533.600000 0 0 1
33.379812 -4.126664 -3.326328 33.798012 -0.123003 1.669374 0.041595 0.003541 -123143.000000 0 0 1
33.182612 -5.560364 -2.949328 33.774279 -0.166026 1.658232 0.022497 0.010421 -76876.500000 0 0 1
32.976272 -5.797464 -1.571128 33.518853 -0.174029 1.617686 0.019044 0.014340 36657.500000 0 0 1
32.947362 -7.192364 -1.302228 33.748400 -0.214927 1.609392 0.023803 0.008847 -133491.000000 0 0 1
32.605632 -7.428964 0.167372 33.441662 -0.224019 1.565791 0.016292 0.008502 -15783.900000 0 0 1
31.233612 -7.229364 0.464072 32.062713 -0.227456 1.556322 0.013996 0.004027 211604.000000 0 0 1
30.844612 -7.430664 1.821472 31.779279 -0.236402 1.513449 0.011639 -0.003826 -592290.000000 0 0 1
30.787552 -8.939664 2.256472 32.138491 -0.282595 1.500528 0.019092 -0.007738 -506660.000000 0 0 1
29.757802 -9.756264 1.759172 31.365684 -0.316813 1.514681 0.018414 -0.013692 223197.000000 0 0 1
28.453292 -9.402764 2.192972 30.046812 -0.319165 1.497746 0.016474 -0.019868 -352073.000000 0 0 1
27.412852 -10.559264 2.008472 29.444804 -0.367678 1.502532 0.026883 -0.019612 1239570.000000 0 0 1
26.050652 -10.346764 2.445672 28.136689 -0.378072 1.483765 0.032058 -0.025584 1459760.000000 0 0 1
25.200912 -9.338964 1.928472 26.944781 -0.354890 1.499164 0.036315 -0.019360 -328194.000000 0 0 1
24.649182 -9.536964 0.509972 26.434748 -0.369169 1.551503 0.028631 -0.009243 -856647.000000 0 0 1
25.567112 -9.395664 -0.552828 27.244473 -0.352171 1.591089 0.028790 -0.014831 70945.800000 0 0 1
25.068132 -9.445864 -1.883628 26.854862 -0.360355 1.640995 0.025162 -0.003115 -314563.000000 0 0 1
24.516582 -10.822064 -2.384828 26.904781 -0.415694 1.659552 0.018409 0.007820 187544.000000 0 0 1
23.175982 -11.053664 -1.935728 25.749887 -0.445034 1.646042 0.020853 0.007428 659702.000000 0 0 1
22.892582 -12.440464 -2.136128 26.141891 -0.497783 1.652600 0.011109 0.006798 1063040.000000 0 0 1
21.446082 -12.926064 -1.685228 25.096963 -0.542420 1.637996 0.008657 0.005125 650284.000000 0 0 1
20.469982 -12.709364 -2.620528 24.236651 -0.555630 1.679131 0.002244 0.013412 -114190.000000 0 1 0
19.154582 -13.018264 -2.171328 23.261295 -0.596932 1.664278 0.003988 0.009492 361181.000000 0 1 0
18.037382 -12.510564 -3.080628 22.166453 -0.606412 1.710225 -0.005696 0.012938 -339103.000000 0 1 0
18.161282 -13.075364 -4.391128 22.805247 -0.623996 1.764555 -0.001708 0.001363 160611.000000 0 1 0
17.325282 -12.391964 -5.272028 21.943574 -0.620890 1.813424 0.005202 0.003509 -580120.000000 0 1 0
17.390682 -12.864264 -6.695228 22.644010 -0.636890 1.870957 0.004512 -0.003611 -326161.000000 0 1 0
16.895082 -14.208164 -6.864528 23.117903 -0.699225 1.872278 0.016851 -0.006624 451649.000000 0 1 0
16.943882 -14.680264 -8.206528 23.873675 -0.713941 1.921702 0.017272 -0.004453 -407844.000000 0 1 0
15.960982 -15.843764 -8.449228 24.024305 -0.781713 1.930177 0.025790 -0.009007 -904036.000000 0 1 0
14.626882 -15.452464 -8.440628 22.890358 -0.812838 1.948451 0.031136 -0.006927 -90005.000000 0 1 0
13.810182 -16.274264 -9.323128 23.291490 -0.867121 1.982619 0.032185 -0.006449 163606.000000 0 1 0
13.836182 -15.999464 -10.872428 23.783029 -0.857778 2.045585 0.028097 -0.007921 -682515.000000 0 1 0
13.009282 -14.910164 -11.326228 22.799953 -0.853378 2.090664 0.024951 -0.005719 619800.000000 0 1 0
13.523882 -13.604764 -11.020928 22.123423 -0.788380 2.092268 0.034098 0.001539 2050.330000 0 1 0
13.397882 -12.609564 -12.197328 22.074400 -0.755096 2.156223 0.036778 -0.002238 526192.000000 0 1 0
14.447982 -12.823164 -13.175028 23.382880 -0.725888 2.169349 0.033818 0.002237 768772.000000 0 1 0
14.444382 -11.881564 -14.188528 23.476074 -0.688354 2.219787 0.038193 -0.002655 -605777.000000 0 1 0
15.662382 -12.033164 -15.085228 24.852994 -0.655101 2.223049 0.037366 0.000751 -346863.000000 0 1 0
15.684282 -13.282664 -15.823028 25.938274 -0.702678 2.226890 0.025679 0.004067 173284.000000 0 0 1
16.609282 -13.252264 -16.911928 27.157026 -0.673449 2.243044 0.023153 0.006818 -22685.800000 0 0 1
17.716682 -14.321464 -16.744228 28.272855 -0.679818 2.204628 0.025603 -0.003121 49974.500000 0 0 1
18.636482 -13.911864 -15.711428 28.066125 -0.641248 2.164941 0.021732 0.003508 349233.000000 0 0 1
19.620282 -14.925264 -15.567328 29.155800 -0.650318 2.134045 0.024314 0.001203 331117.000000 0 0 1
20.641782 -14.705364 -14.409728 29.154264 -0.619005 2.087777 0.009512 0.000524 122948.000000 0 0 1
21.358182 -13.502764 -14.488428 29.127497 -0.563764 2.091412 0.004467 -0.002004 -50199.700000 0 0 1
22.084882 -13.287064 -13.294528 29.000561 -0.541622 2.047016 0.000348 0.000679 -60716.200000 0 0 1
22.903082 -12.011264 -13.193328 29.032491 -0.483007 2.042532 0.019200 -0.004001 -442185.000000 0 0 1
22.130482 -10.815064 -13.205428 27.948294 -0.454563 2.062916 0.011865 -0.001673 580001.000000 0 0 1
22.898182 -9.587164 -13.301328 28.163199 -0.396511 2.062689 0.025810 -0.004253 433733.000000 0 0 1
23.931782 -9.234864 -12.191828 28.401647 -0.368278 2.014475 0.019700 -0.006891 661917.000000 0 0 1
25.070582 -10.094764 -12.161228 29.636697 -0.382792 1.993627 0.009336 -0.001516 547606.000000 0 0 1
26.062292 -9.702964 -11.222328 29.988851 -0.356401 1.954348 -0.000714 -0.000783 426354.000000 0 0 1
27.384642 -10.524564 -11.375728 31.465731 -0.366920 1.940702 -0.016603 0.008317 206907.000000 0 0 1
28.017502 -10.185764 -12.567628 32.352364 -0.348695 1.969757 -0.029795 0.012872 207662.000000 0 0 1
29.332022 -10.727864 -12.648728 33.696363 -0.350627 1.955596 -0.034113 0.020398 27913.400000 0 0 1
30.090002 -10.413564 -13.894528 34.740587 -0.333179 1.982260 -0.038848 0.022905 -396759.000000 0 0 1
29.513272 -11.058064 -15.019628 34.912794 -0.358491 2.015515 -0.034603 0.013657 389658.000000 0 0 1
30.134002 -10.485364 -16.122028 35.748017 -0.334854 2.038671 -0.035038 0.013544 -271688.000000 0 0 1
29.767382 -11.145264 -17.447728 36.259304 -0.358255 2.072812 -0.051112 0.022593 314570.000000 0 0 1
28.606792 -10.643964 -18.122428 35.497393 -0.356207 2.106596 -0.033559 0.008140 693144.000000 0 0 1
28.914952 -9.496064 -18.945528 35.849445 -0.317316 2.127599 -0.031224 0.012620 -20517.500000 0 0 1
27.694272 -8.872964 -19.655728 35.100567 -0.310057 2.165162 -0.075389 0.004122 200084.000000 0 0 1
27.044972 -9.729564 -20.601428 35.362604 -0.345339 2.192692 -0.053786 0.013093 -79976.500000 0 0 1
25.666582 -9.489464 -20.598528 34.250879 -0.354134 2.216050 -0.005689 0.020039 -212415.000000 0 0 1
24.966502 -9.711064 -21.979528 34.651560 -0.370956 2.257901 0.003786 0.008424 -28502.600000 0 0 1
24.614282 -11.068664 -22.161828 34.921695 -0.422592 2.258306 0.002659 0.007644 61585.200000 0 0 1
23.982182 -11.249564 -23.424528 35.361083 -0.438607 2.294865 0.010575 -0.000316 -389908.000000 0 0 1
23.893982 -12.784864 -23.829528 36.086306 -0.491306 2.292079 0.006926 0.002675 310477.000000 0 0 1
24.983852 -13.317564 -24.572928 37.488387 -0.489734 2.285616 -0.003797 0.009027 272870.000000 0 0 1
26.150502 -13.523564 -23.780128 37.844815 -0.477268 2.250238 -0.013159 0.018409 227312.000000 0 0 1
27.346082 -14.154964 -24.525828 39.366069 -0.477647 2.243393 -0.027428 0.023530 268750.000000 0 0 1
27.878232 -13.369964 -25.611118 40.148239 -0.447182 2.262583 -0.026735 0.010789 530527.000000 0 0 1
29.172202 -13.883764 -25.944868 41.435642 -0.444202 2.247400 -0.039101 0.010489 555378.000000 0 0 1
29.768152 -13.284564 -27.261908 42.495107 -0.419746 2.267288 -0.033640 0.014130 47275.000000 0 0 1
29.313152 -13.825164 -28.446378 43.122992 -0.440701 2.291158 -0.029091 0.004887 548758.000000 0 0 1
30.272492 -13.490364 -29.461948 44.344335 -0.419215 2.297474 -0.032064 0.005631 582131.000000 0 0 1
30.190592 -14.449764 -30.647498 45.382118 -0.446396 2.312196 -0.031677 -0.006231 21849.400000 0 0 1
30.557112 -15.740164 -30.277168 45.806077 -0.475660 2.292928 -0.033852 -0.006180 -47397.900000 0 0 1
31.089712 -16.523764 -31.329178 47.128784 -0.488518 2.297964 -0.036148 -0.003364 78418.600000 0 0 1
30.061012 -17.115164 -32.336788 47.352519 -0.517576 2.322514 -0.044821 0.001765 258393.000000 0 0 1
29.416182 -16.182564 -33.163188 47.190933 -0.502939 2.350045 -0.044488 -0.005035 -654448.000000 0 0 1
28.428852 -16.757664 -33.918778 47.323381 -0.532633 2.369919 -0.024287 -0.006796 -763504.000000 0 0 1
27.741152 -15.841064 34.367918 46.921899 -0.518847 0.748884 0.007282 -0.007062 -384278.000000 0 0 1
26.928202 -14.798664 -34.472888 46.179091 -0.502505 2.413589 0.022594 -0.012569 110605.000000 0 0 1
27.686462 -13.693464 -34.039098 45.964239 -0.459311 2.404694 -0.012715 -0.002841 -94081.900000 0 0 1
26.768562 -12.504964 -33.569418 44.719524 -0.437025 2.419866 0.003224 0.000631 276845.000000 0 0 1
25.847752 -12.162464 -34.588206 44.859511 -0.439805 2.451260 0.028869 -0.003172 -172634.000000 0 0 1
25.165372 -10.997864 -34.189193 43.853732 -0.412011 2.464853 0.011136 -0.008486 -41464.800000 0 0 1
21.005603 -30.088020 9.344072 37.866027 -0.961321 1.321454 0.029608 -0.003468 116294.000000 0 0 1
21.016403 -29.827120 7.936672 37.340823 -0.956985 1.356616 0.032494 -0.008449 -86337.900000 0 0 1
22.175603 -30.394720 7.404272 38.346051 -0.940488 1.376485 0.019557 -0.011210 -582655.000000 0 0 1
22.440803 -29.935620 5.941072 37.881754 -0.927529 1.413314 0.005041 -0.006220 -60665.800000 0 0 1
22.827203 -28.572320 5.803572 37.028909 -0.896710 1.413417 -0.010795 0.015436 72570.800000 0 0 1
23.480103 -28.383920 4.565372 37.118793 -0.879669 1.447491 -0.026499 0.022112 22221.800000 0 0 1
23.604203 -26.888520 4.301872 36.036884 -0.850352 1.451137 -0.041168 0.024497 413123.000000 0 0 1
24.435103 -26.164820 5.224872 36.179709 -0.819569 1.425875 -0.047158 0.027246 256666.000000 0 0 1
24.163903 -24.814820 5.115272 35.011934 -0.798687 1.424171 -0.054085 0.037307 -57978.500000 0 0 1
24.855303 -23.927920 6.188172 35.051746 -0.766390 1.393322 -0.055473 0.036096 57018.000000 0 0 1
26.211603 -23.679120 5.883672 35.810145 -0.734681 1.405746 -0.041906 0.032905 -121996.000000 0 0 1
26.836303 -22.706120 6.729972 35.791725 -0.702224 1.381639 -0.018850 0.015186 -391912.000000 0 0 1
26.270303 -21.283320 6.791972 34.485351 -0.680909 1.372548 -0.023005 0.024918 -607697.000000 0 0 1
26.370903 -20.570120 5.594572 33.909491 -0.662446 1.405053 -0.017651 0.036288 4748.900000 0 0 1
25.715103 -19.318520 5.598072 32.646748 -0.644302 1.398471 -0.024804 0.030515 -597631.000000 0 0 1
25.880003 -18.557020 4.231972 32.125491 -0.622071 1.438680 -0.038798 0.043155 -571749.000000 0 0 1
27.195503 -18.169220 3.937772 32.942708 -0.588992 1.450976 0.010930 0.024358 -283383.000000 0 0 1
27.455203 -17.614720 2.662172 32.728485 -0.570434 1.489365 0.000452 0.031318 54390.000000 0 0 1
28.748503 -16.785120 2.702472 33.399402 -0.528468 1.489794 0.012795 0.007062 -37145.000000 0 0 1
28.527803 -15.582520 3.349172 32.678241 -0.499938 1.468127 0.018961 -0.001295 528957.000000 0 0 1
29.699803 -14.799320 3.642572 33.382129 -0.462284 1.461461 0.030520 -0.000261 667635.000000 0 0 1
29.294103 -13.560220 4.455972 32.586496 -0.433529 1.433624 0.031573 -0.005684 136653.000000 0 0 1
29.105403 -13.928220 5.840072 32.790643 -0.446336 1.391739 0.027502 -0.000301 -37266.200000 0 0 1
28.970903 -12.727220 6.566972 32.317495 -0.413929 1.366170 0.013460 0.001261 -452631.000000 0 0 1
28.349603 -13.008120 7.948672 32.188392 -0.430186 1.321273 0.024304 0.004520 -323988.000000 0 0 1
26.959903 -13.265220 7.868972 31.059993 -0.457255 1.314657 0.010787 0.010859 -46143.200000 0 0 1
26.261203 -13.441920 9.089172 30.869873 -0.473086 1.271932 0.010718 0.014151 294568.000000 0 0 1
26.525303 -14.752320 9.885472 31.920921 -0.507560 1.255933 0.014344 0.005514 709389.000000 0 0 1
27.690703 -14.703220 10.748272 33.143402 -0.488124 1.240529 0.014589 0.011541 868644.000000 0 0 1
27.856203 -15.956820 11.416272 34.072268 -0.520201 1.229127 0.014806 0.007046 -56177.800000 0 0 1
28.695803 -15.984820 12.700472 35.217405 -0.508235 1.201852 0.012195 0.006515 -774223.000000 0 0 1
30.056003 -15.758520 12.611172 36.204087 -0.482902 1.215001 0.020927 0.009020 -907924.000000 0 0 1
30.600003 -15.749320 13.887672 37.111571 -0.475325 1.187247 0.034717 0.003532 -822836.000000 0 0 1
32.099303 -15.588820 14.032472 38.344320 -0.452097 1.196133 0.029979 -0.004501 -901764.000000 0 0 1
32.575603 -14.319620 13.741972 38.145291 -0.414156 1.202257 0.020631 -0.002536 -1432780.000000 0 0 1
33.860403 -14.304920 14.190172 39.402013 -0.399724 1.202380 0.014952 -0.005320 -1374640.000000 0 0 1
34.547603 -12.898820 14.279972 39.545342 -0.357335 1.201345 0.007311 -0.000721 -292201.000000 0 0 1
-34.494575 -12.616220 13.248272 39.045632 0.350632 1.224621 0.022828 0.000083 372197.000000 0 0 1
-33.678575 -11.488020 13.554272 38.078068 0.328731 1.206855 0.026446 0.008445 74230.200000 0 0 1
-32.537875 -11.081920 12.591972 36.607103 0.328263 1.219648 0.024083 0.002094 340826.000000 0 0 1
-31.383375 -11.894420 12.514372 35.819030 0.362276 1.213889 0.005726 0.009140 307228.000000 0 0 1
-31.539375 -13.253520 11.999972 36.254479 0.397816 1.233441 0.001945 0.005983 -661555.000000 0 0 1
-30.356875 -14.138620 12.399572 35.709800 0.435872 1.216179 -0.002060 0.004718 -156667.000000 0 0 1
-29.149875 -13.857120 11.754272 34.349642 0.443754 1.221544 -0.001565 0.000765 51633.400000 0 0 1
-28.125675 -14.823520 11.990772 33.978948 0.485049 1.210140 -0.007323 -0.000468 579661.000000 0 0 1
-26.839575 -14.585320 11.157472 32.520509 0.497782 1.220591 -0.008211 -0.005454 105598.000000 0 0 1
-26.900975 -14.901020 9.790572 32.273180 0.505849 1.262574 -0.012077 0.001626 -422094.000000 0 0 1
-25.624675 -14.772620 9.241872 30.988166 0.522961 1.267949 -0.011770 0.002861 -441025.000000 0 0 1
-25.480075 -14.802920 7.714572 30.461045 0.526302 1.314747 0.000840 0.008455 -363994.000000 0 0 1
-25.739575 -16.049520 7.080472 31.148770 0.557545 1.341480 0.015472 0.007203 160376.000000 0 0 1
-25.595075 -15.904320 5.620272 30.653592 0.555993 1.386405 0.022457 0.006839 -485256.000000 0 0 1
-26.007875 -17.137420 4.802472 31.514512 0.582629 1.417811 0.011224 0.007235 -687543.000000 0 0 1
-27.380575 -17.365920 4.852572 32.784425 0.565218 1.422236 -0.007858 -0.007107 -610717.000000 0 0 1
-27.793775 -18.298920 3.862572 33.500207 0.582245 1.455239 -0.003759 -0.002361 -580154.000000 0 0 1
-29.287675 -18.592320 3.943172 34.914049 0.565628 1.457615 0.012206 -0.011832 -576059.000000 0 0 1
-30.051275 -17.553720 3.365472 34.964819 0.528665 1.474394 0.016923 -0.010528 -811301.000000 0 0 1
-31.401175 -17.807720 3.605572 36.278765 0.515880 1.471247 0.033677 -0.014335 -839520.000000 0 0 1
-32.309975 -16.829120 2.886872 36.544326 0.480200 1.491717 0.023661 -0.019164 -329858.000000 0 0 1
-32.306775 -17.090820 1.506872 36.579974 0.486591 1.529591 0.023094 -0.008465 -378136.000000 0 0 1
-33.118975 -16.158720 0.851072 36.860481 0.453920 1.547705 0.029315 -0.010860 -329720.000000 0 0 1
-33.754775 -16.736820 -0.409228 37.678554 0.460311 1.581658 0.035226 -0.010327 -496887.000000 0 0 1
-32.782275 -17.027020 -1.388628 36.966542 0.479045 1.608370 0.029280 -0.008501 192466.000000 0 0 1
-33.176675 -18.034020 -2.218828 37.826456 0.497897 1.629488 0.021831 0.000537 -188558.000000 0 0 1
-32.245875 -18.152320 -3.432428 37.162948 0.512720 1.663290 0.009903 -0.006141 15058.400000 0 0 1
-32.539775 -19.313320 -4.162028 38.067883 0.535648 1.680347 0.008387 -0.007433 -495124.000000 0 0 1
-31.455675 -19.720620 -4.906028 37.449051 0.559989 1.702179 -0.004827 0.000093 -911963.000000 0 0 1
-31.737875 -20.982920 -5.727828 38.475754 0.584161 1.720220 0.009671 0.000427 -420555.000000 0 0 1
-32.011675 -22.118420 -4.898328 39.216902 0.604625 1.696027 0.017301 -0.004611 152274.000000 0 0 1
-32.426875 -23.135220 -5.747528 40.246424 0.619701 1.714095 0.018096 -0.001077 27910.300000 0 0 1
-33.052575 -24.453820 -5.206028 41.443512 0.636971 1.696746 0.013055 -0.002216 189778.000000 0 0 1
-32.143375 -25.335920 -4.576028 41.183072 0.667514 1.682141 0.017342 0.002177 203040.000000 0 0 1
-32.854675 -26.576420 -4.422628 42.488768 0.680149 1.675075 0.015390 0.011722 213631.000000 0 0 1
-31.969075 -27.630420 -3.750528 42.420847 0.712730 1.659324 -0.001429 0.014173 62345.700000 0 0 1
-30.786275 -27.804720 -4.542428 41.731652 0.734554 1.679861 -0.000907 0.015278 803004.000000 0 0 1
-30.004375 -28.982120 -4.169728 41.923888 0.768070 1.670421 -0.005445 0.010652 705084.000000 0 0 1
-29.102675 -28.880820 -2.903228 41.103481 0.781572 1.641487 -0.000075 0.007434 -901733.000000 0 0 1
-29.810875 -28.754720 -1.670528 41.452537 0.767366 1.611107 -0.001788 0.000313 -116813.000000 0 0 1
-28.980475 -28.401420 -0.568228 40.581171 0.775307 1.584799 0.012158 -0.015203 -243470.000000 0 0 1
-29.696975 -28.318520 0.778172 41.042105 0.761643 1.551835 0.012856 -0.007603 -361731.000000 0 0 1
-30.053675 -29.545820 1.290772 42.164498 0.776877 1.540179 0.011357 -0.001278 -10304.000000 0 0 1
-30.868275 -29.345620 2.450272 42.661688 0.760116 1.513330 0.022341 0.002122 51084.500000 0 0 1
-31.377575 -30.754820 2.924472 44.033665 0.775375 1.504333 0.008741 0.006404 9461.020000 0 0 1
-32.555275 -30.654320 3.728872 44.871346 0.755333 1.487599 0.003038 -0.002722 639128.000000 0 0 1
-33.160375 -31.835120 4.204172 46.160160 0.765011 1.479592 0.000110 0.002097 -147600.000000 0 0 1
-34.065875 -32.673620 3.334872 47.319875 0.764540 1.500263 -0.006039 0.004358 -332565.000000 0 0 1
-34.753275 -33.727020 4.021072 48.594969 0.770413 1.487955 -0.000403 0.001805 -158532.000000 0 0 1
34.356603 -34.422620 3.163772 48.737074 -0.786358 1.505836 0.000910 0.003641 -1456480.000000 0 0 1
33.288803 34.106336 3.945772 47.822126 0.797528 1.488193 -0.004591 0.002918 133354.000000 0 0 1
32.326903 -34.511020 4.802872 47.530061 -0.818064 1.469574 -0.006174 0.003146 1100350.000000 0 0 1
31.736803 -33.270120 4.352972 46.185213 -0.808981 1.476406 -0.008828 0.002541 -197266.000000 0 0 1
30.783803 -33.323020 3.108972 45.472320 -0.824987 1.502372 -0.003447 0.004596 -127976.000000 0 0 1
31.459203 -33.560720 1.837472 46.036721 -0.817708 1.530873 0.002526 0.004258 562996.000000 0 0 1
30.612403 -33.125720 0.732272 45.110628 -0.824810 1.554563 0.006277 0.001913 79346.500000 0 0 1
31.160503 -33.597720 -0.700728 45.828755 -0.823016 1.586087 0.009308 0.000002 998023.000000 0 0 1
32.442803 -33.213020 -1.198428 46.444336 -0.797129 1.596603 -0.007264 0.004786 81312.100000 0 0 1
33.494103 -33.707620 -0.403728 47.520749 -0.788575 1.579292 0.001748 0.008039 -932080.000000 0 0 1
34.815103 -33.849220 -1.190928 48.572414 -0.771332 1.595317 -0.022833 0.027879 -549044.000000 0 0 1
34.824403 34.478636 -2.202428 49.054725 0.780409 1.615709 -0.020620 0.007955 10294.300000 0 0 1
-34.192375 -34.378820 -3.146928 48.589349 0.788117 1.635607 -0.020083 0.011896 -699507.000000 0 0 1
-33.767475 33.745036 -4.084528 47.912975 -0.785066 1.656149 -0.020249 0.001808 -788036.000000 0 0 1
-32.658175 33.068336 -3.612628 46.616760 -0.791639 1.648370 -0.022854 0.006102 -512214.000000 0 0 1
-32.115175 32.163336 -4.541228 45.678084 -0.786147 1.670379 -0.016735 -0.008082 -65523.400000 0 0 1
-30.763475 31.528336 -4.165828 44.246824 -0.797676 1.665086 -0.007313 -0.011544 -875024.000000 0 0 1
-29.695375 32.417036 -4.277828 44.169891 -0.829188 1.667798 -0.001852 0.000684 659817.000000 0 0 1
-28.394075 31.871336 -3.930428 42.865531 -0.843033 1.662617 0.022110 -0.009417 1467330.000000 0 0 1
-28.170175 31.546436 -2.381228 42.360437 -0.841876 1.627039 0.015015 -0.009682 -526741.000000 0 0 1
-29.076575 30.605736 -1.819428 42.254805 -0.811014 1.613868 -0.006302 -0.006691 -137872.000000 0 0 1
-28.941175 30.389036 -0.405928 41.967248 -0.809797 1.580469 -0.010977 0.002686 -96268.800000 0 0 1
-30.236975 29.812036 0.210472 42.462647 -0.778322 1.565840 -0.018549 0.009463 -150767.000000 0 0 1
-30.479175 28.482736 -0.180628 41.716651 -0.751551 1.575126 -0.019995 0.003520 277705.000000 0 0 1
-31.570375 28.290536 -1.091528 42.405594 -0.730662 1.596539 -0.027161 -0.000191 141451.000000 0 0 1
-31.907575 26.860236 -1.423428 41.732382 -0.699722 1.604911 -0.036395 0.004440 -426790.000000 0 0 1
-32.345375 26.093736 -0.347428 41.559921 -0.678826 1.579156 -0.038088 0.010005 232497.000000 0 0 1
-32.881175 24.810136 -0.720728 41.197499 -0.646400 1.588292 -0.020125 0.011747 -61016.900000 0 0 1
-32.686575 23.782836 0.409972 40.425283 -0.629012 1.560655 -0.030789 0.004945 -17284.300000 0 0 1
-31.350675 23.430736 0.701372 39.145320 -0.641820 1.552878 -0.028353 0.001281 169062.000000 0 0 1
-30.903875 23.827136 1.981972 39.073138 -0.656811 1.520050 -0.017914 -0.006569 -493587.000000 0 0 1
-29.390175 23.719436 2.251672 37.834694 -0.679027 1.511248 -0.014125 -0.015232 252951.000000 0 0 1
-28.500975 24.628936 1.597272 37.702007 -0.712648 1.528418 -0.009258 -0.010395 410008.000000 0 0 1
-28.482275 25.981436 2.042972 38.606330 -0.739513 1.517854 -0.030982 -0.000216 -537095.000000 0 0 1
-27.991075 27.034436 1.064372 38.929345 -0.768015 1.543452 -0.013036 0.002313 395319.000000 0 0 1
-26.619475 26.811636 0.727272 37.788744 -0.788995 1.551549 0.005358 -0.004898 362049.000000 0 0 1
-26.213075 27.720736 -0.336928 38.153348 -0.813345 1.579627 0.010799 -0.010196 597068.000000 0 0 1
-25.065575 27.107536 -1.211428 36.940074 -0.824516 1.603597 0.015065 -0.013652 346792.000000 0 0 1
-25.469775 25.974836 -2.043428 36.435932 -0.795215 1.626909 0.021544 -0.022208 -531213.000000 0 0 1
-24.405075 25.377536 -2.706628 35.312219 -0.804930 1.647520 0.014806 -0.016619 42050.000000 0 0 1
-23.507575 24.355036 -1.911928 33.903234 -0.803102 1.627220 0.014848 -0.016702 542825.000000 0 0 1
-24.131175 23.129736 -1.564328 33.462597 -0.764212 1.617562 -0.011043 -0.016696 -524846.000000 0 0 1
-23.253875 22.474036 -0.736828 32.347610 -0.768346 1.593577 -0.006283 -0.022550 -1033510.000000 0 0 1
-23.646575 21.048736 -0.284628 31.658976 -0.727340 1.579787 -0.008017 -0.019004 292358.000000 0 0 1
-24.729075 20.884336 0.651472 32.374481 -0.701307 1.550672 -0.015954 -0.020030 1934460.000000 0 0 1
-26.074575 21.262036 0.252572 33.645526 -0.684080 1.563289 -0.023493 -0.008304 1129260.000000 0 0 1
-26.743075 20.510136 -0.952728 33.715952 -0.654250 1.599058 -0.031715 -0.008773 -591192.000000 0 0 1
-27.122175 19.185036 -0.673228 33.228470 -0.615646 1.591058 -0.050706 -0.001555 418384.000000 0 0 1
-27.903075 18.669036 -1.727228 33.616927 -0.589663 1.622199 -0.037194 0.004162 -220220.000000 0 0 1
-28.189475 17.147836 -1.536528 33.031132 -0.546505 1.617331 -0.042001 0.006444 -202709.000000 0 0 1
-28.995075 16.795136 -0.425728 33.510777 -0.525016 1.583501 -0.028346 -0.002008 389947.000000 0 0 1
-29.203075 15.402136 -0.259628 33.016856 -0.485338 1.578660 -0.017321 -0.001923 246799.000000 0 0 1
-27.958275 14.488736 0.067672 31.489572 -0.478123 1.568647 -0.005405 -0.004556 1542.350000 0 0 1
-27.593175 14.659036 1.428272 31.277957 -0.488339 1.525117 0.006898 -0.009016 1086100.000000 0 0 1
-26.276875 14.227136 1.821672 29.936667 -0.496241 1.509908 0.011117 -0.006882 656591.000000 0 0 1
-25.998175 12.680736 1.733772 28.977787 -0.453804 1.510929 0.018095 0.003490 -463866.000000 0 0 1
-25.825875 12.096136 0.431272 28.521541 -0.438027 1.555675 0.009519 0.002566 513143.000000 0 0 1
-25.407575 10.763236 0.563772 27.599093 -0.400704 1.550368 0.026669 0.006909 -255261.000000 0 0 1
-25.288375 10.080536 -0.812528 27.235626 -0.379319 1.600634 0.026645 -0.003437 -346592.000000 0 0 1
-26.517175 9.915336 -1.472628 28.348599 -0.357825 1.622767 0.029603 -0.022028 212357.000000 0 0 1
-26.351775 9.150436 -2.618728 28.017927 -0.334215 1.664399 0.026339 -0.019509 778425.000000 0 0 1
-27.770675 8.809636 -3.194628 29.309140 -0.307186 1.680011 0.034652 -0.025369 578168.000000 0 0 1
-27.616275 8.024436 -4.379228 29.089995 -0.282782 1.721911 0.033801 -0.010714 1927860.000000 0 0 1
-28.908875 7.801236 -5.064528 30.368269 -0.263578 1.738350 0.022902 -0.004849 1687370.000000 0 0 1
-11.210597 18.023936 -19.809928 29.033997 -1.014369 2.321702 0.028845 0.002874 192276.000000 0 0 1
-11.506197 17.116336 -20.824728 29.309227 -0.978949 2.361030 0.023545 0.002306 -321115.000000 0 0 1
-10.635797 17.267636 -21.894928 29.844250 -1.018740 2.394459 0.018431 0.005714 -436104.000000 0 0 1
-10.807497 16.141736 -22.865228 30.002937 -0.980809 2.437346 0.017522 0.007388 59215.700000 0 0 1
-10.319297 14.877736 -22.381428 28.788248 -0.964374 2.461398 0.013031 0.009504 39343.800000 0 0 1
-10.169397 13.954836 -23.508228 29.168319 -0.941043 2.508076 0.006077 0.007341 -81255.300000 0 0 1
-9.523197 12.566736 -23.134228 27.996546 -0.922316 2.543346 -0.009538 0.011636 330338.000000 0 0 1
-8.113997 12.713236 -23.201128 27.672290 -1.002738 2.565182 -0.001224 0.006732 -132838.000000 0 0 1
-7.507797 11.530736 -22.710228 26.553330 -0.993640 2.596865 -0.006820 0.004154 -1261750.000000 0 0 1
-6.029097 11.431536 -22.765028 26.177786 -1.085463 2.625252 -0.002176 0.011654 -1101200.000000 0 0 1
-5.401297 10.871136 -23.925628 26.828926 -1.109674 2.672071 0.002021 0.003042 -490946.000000 0 0 1
-4.010197 10.865636 -23.770428 26.441954 -1.217233 2.688200 0.006191 0.003326 -86913.800000 0 0 1
-3.217097 10.331236 -25.016928 27.256757 -1.268918 2.733362 0.011405 0.003555 -36284.600000 0 0 1
-2.999497 8.957936 -25.069798 26.790602 -1.247688 2.781228 0.007415 -0.002488 -73965.500000 0 0 1
-2.862797 8.507236 -26.400208 27.884398 -1.246187 2.813856 0.006448 -0.008351 -163394.000000 0 0 1
-2.318297 7.062436 -26.449768 27.474401 -1.253621 2.867628 0.011849 0.006701 299553.000000 0 0 1
-0.918197 6.982536 -26.233548 27.162436 -1.440048 2.879317 0.012639 0.002451 5959.070000 0 0 1
-0.589297 5.680436 -25.721598 26.347964 -1.467425 2.923109 0.015845 0.006226 -950494.000000 0 0 1
0.870603 5.598036 -25.358998 25.984124 1.416513 2.921797 0.027018 0.006492 -907825.000000 0 0 1
1.167903 6.524236 -24.347328 25.233351 1.393662 2.875808 0.011941 0.011322 -140801.000000 0 0 1
1.731103 5.813736 -23.260028 24.037993 1.281395 2.886484 0.016582 0.014197 -42681.000000 0 1 0
1.697903 6.633036 -21.949128 22.992265 1.320200 2.839214 0.006115 0.016078 170284.000000 0 1 0
2.378403 7.847036 -21.925628 23.408672 1.276502 2.783724 -0.015962 0.005555 -59664.200000 0 1 0
1.978003 8.533936 -20.725528 22.500846 1.343037 2.741693 -0.014543 0.006987 27823.100000 0 1 0
2.705003 9.876336 -20.519128 22.932371 1.303465 2.678705 -0.018909 0.002955 -403815.000000 0 1 0
2.284203 10.581536 -19.406228 22.221345 1.358192 2.632762 -0.006610 -0.002990 -139221.000000 0 1 0
2.936503 11.820136 -19.252428 22.781454 1.327294 2.577534 -0.015114 -0.000848 -264573.000000 0 1 0
4.151203 11.712036 -18.322028 22.138224 1.230172 2.545650 -0.006448 -0.022143 166242.000000 0 1 0
5.317903 11.209736 -19.004528 22.696043 1.127837 2.563214 0.003946 -0.008911 374403.000000 0 1 0
6.302803 11.044336 -17.950728 21.998439 1.052213 2.525253 0.008464 -0.015923 250909.000000 0 1 0
7.360203 10.025436 -18.434428 22.237583 0.937515 2.548071 0.023029 -0.022045 -450050.000000 0 1 0
6.892603 8.690136 -18.674728 21.720311 0.900245 2.605639 0.012364 -0.010926 190563.000000 0 1 0
6.380503 8.500136 -20.029728 22.674945 0.926889 2.653741 0.004138 -0.001153 329452.000000 0 1 0
5.885803 7.052636 -20.335128 22.313668 0.875338 2.717301 0.011411 -0.000635 -9043.710000 0 1 0
6.949903 6.188636 -20.592628 22.597714 0.727521 2.717155 0.013228 0.003781 7324.120000 0 1 0
6.452103 4.848436 -20.797628 22.308704 0.644429 2.771421 0.013378 0.007435 257393.000000 0 1 0
6.601203 4.346036 -22.272828 23.633509 0.582237 2.800608 0.017440 -0.001679 -100069.000000 0 1 0
5.750703 5.058836 -23.144328 24.378727 0.721480 2.822007 0.009764 0.006066 -183860.000000 0 1 0
5.972003 4.774236 -24.534028 25.697795 0.674397 2.839491 0.011101 0.001860 351902.000000 0 0 1
4.977103 5.471336 -25.531748 26.581520 0.832665 2.859616 -0.002372 -0.001500 265407.000000 0 0 1
5.281103 6.874936 -25.691748 27.114953 0.915769 2.816159 -0.007158 -0.004468 79756.100000 0 0 1
5.074603 7.752436 -24.562028 26.251573 0.991207 2.780865 0.005922 -0.002292 -680834.000000 0 0 1
4.861303 9.251936 -24.900328 27.004757 1.087007 2.744197 -0.006754 -0.009065 382552.000000 0 0 1
3.616903 9.505236 -25.551008 27.500645 1.207198 2.762784 -0.003389 -0.007823 111711.000000 0 0 1
2.564603 9.689436 -24.634428 26.595439 1.312049 2.755175 -0.017455 -0.006073 -37602.700000 0 0 1
1.194703 9.931336 -25.352838 27.254818 1.451075 2.765794 -0.016878 0.005811 383174.000000 0 0 1
1.187403 11.182336 -26.009128 28.336007 1.465007 2.733508 -0.011630 -0.001407 -372707.000000 0 0 1
-0.058497 11.365236 -26.601468 28.927670 -1.565649 2.737821 0.007407 -0.007271 -660638.000000 0 0 1
-0.291597 12.833936 -27.052678 29.943986 -1.548079 2.698530 0.001934 -0.002688 -641428.000000 0 0 1
-0.501597 13.586136 -25.904288 29.255201 -1.533893 2.658278 -0.001844 0.004025 189779.000000 0 0 1
-0.670897 14.948036 -26.263848 30.227199 -1.525945 2.623734 -0.002321 -0.000481 -444695.000000 0 0 1
-0.875697 15.874136 -25.001828 29.628473 -1.515687 2.575205 0.006562 -0.003820 201402.000000 0 0 1
-2.154097 15.658736 -24.418528 29.087809 -1.434089 2.567115 0.005568 0.006794 -116646.000000 0 0 1
-2.321397 16.386136 -23.243828 28.533662 -1.430064 2.522854 0.010647 -0.000654 -834708.000000 0 0 1
-3.323497 15.746036 -22.265928 27.472801 -1.362781 2.515753 0.014483 0.001503 -225034.000000 0 0 1
-4.654897 15.783936 -22.713228 28.048020 -1.284013 2.514604 0.007788 0.004099 -388070.000000 0 0 1
-5.010297 15.003336 -23.862828 28.629315 -1.248495 2.556227 0.009855 -0.001064 -226565.000000 0 0 1
-6.493197 15.174536 -24.359228 29.424482 -1.166471 2.546071 -0.001618 0.003883 835239.000000 0 0 1
-6.915597 16.411836 -24.890628 30.605836 -1.171997 2.520536 -0.002313 0.008609 -500777.000000 0 0 1
-8.179197 16.199636 -25.450478 31.257867 -1.103236 2.522164 0.004925 0.006261 -482078.000000 0 0 1
-8.896997 17.361736 -26.188758 32.656354 -1.097240 2.501348 0.008944 0.000336 45234.100000 0 0 1
-9.580197 18.180136 -25.258068 32.561749 -1.085814 2.458616 0.013094 0.001812 -297601.000000 0 0 1
-10.580697 18.939036 -25.871948 33.763825 -1.061320 2.443800 0.018140 0.001358 -83382.000000 0 0 1
-11.058997 20.101936 -24.931228 33.881490 -1.067841 2.397697 0.026464 0.002325 432245.000000 0 0 1
-10.066397 21.106336 -24.685528 34.002721 -1.125769 2.383265 0.023558 -0.003840 806296.000000 0 0 1
-10.698297 22.413936 -24.730228 35.048855 -1.125469 2.354056 0.028364 -0.006125 432343.000000 0 0 1
-10.357597 23.126936 -26.094798 36.374076 -1.149725 2.370861 0.021910 -0.007668 -183865.000000 0 0 1
-11.001797 22.511836 -27.160518 36.952889 -1.116220 2.396469 0.005024 -0.005847 -79603.400000 0 0 1
-10.760897 23.250236 -28.297708 38.172380 -1.137325 2.405822 0.017785 -0.002333 -136617.000000 0 0 1
-11.180497 22.546236 -29.616208 38.864586 -1.110441 2.437248 0.007270 -0.007753 -346051.000000 0 0 1
-10.441197 21.437936 -30.005748 38.326865 -1.117568 2.470095 -0.010576 -0.009263 -193786.000000 0 0 1
-10.733797 20.240736 -29.297638 37.192114 -1.083198 2.477924 0.008526 -0.002117 26410.000000 0 0 1
-9.677297 19.140036 -29.633128 36.580231 -1.102675 2.515095 -0.000657 -0.005700 -301872.000000 0 0 1
-8.416397 19.492536 -29.112508 36.032385 -1.163201 2.511468 -0.015516 -0.001444 -545948.000000 0 0 1
-7.362297 18.944936 -29.850778 36.113473 -1.200142 2.543805 -0.018190 -0.002406 -448534.000000 0 0 1
-6.921397 17.501136 -29.451728 34.951391 -1.194190 2.572979 -0.004944 -0.011556 -696867.000000 0 0 1
-7.764697 16.437236 -29.843528 34.944375 -1.129484 2.594479 0.008296 -0.015984 -3445.360000 0 0 1
-7.351497 15.255736 -29.280328 33.824837 -1.121746 2.617235 -0.006898 -0.008438 146500.000000 0 0 1
-8.543797 14.259436 -29.092248 33.506519 -1.030989 2.622473 0.010634 -0.012767 -93769.600000 0 0 1
-9.400197 14.679136 -28.085508 33.055052 -1.001215 2.586134 0.012765 -0.007189 -522584.000000 0 0 1
-10.570597 13.888036 -28.141588 33.114408 -0.920210 2.586457 0.051998 -0.017377 -140331.000000 0 0 1
-11.697897 14.325436 -27.194248 32.887475 -0.886026 2.544347 0.036245 -0.008320 -113178.000000 0 0 1
-12.269297 15.512936 -27.708728 34.043508 -0.901624 2.521666 0.021759 -0.006228 -523928.000000 0 0 1
-13.183997 15.980836 -26.758458 33.841098 -0.881003 2.482762 0.014842 -0.006013 -76519.600000 0 0 1
-14.122097 17.159936 -27.080558 35.032180 -0.882206 2.454384 0.003483 -0.003237 217436.000000 0 0 1
-13.524797 18.462336 -27.106578 35.475971 -0.938550 2.440415 -0.004870 0.000072 -230710.000000 0 0 1
-14.499697 19.409436 -27.442158 36.606549 -0.929190 2.418332 -0.017587 -0.000466 -625179.000000 0 0 1
-14.069897 20.864036 -27.395458 37.199208 -0.977486 2.398608 -0.004725 -0.004664 -597213.000000 0 0 1
-15.063397 21.728036 -27.864728 38.411671 -0.964601 2.382446 -0.025989 -0.001232 -238785.000000 0 0 1
-14.696897 23.131536 -27.948048 39.142817 -1.004780 2.365994 -0.010529 -0.003192 -169150.000000 0 0 1
-14.456697 23.944836 -26.677598 38.652884 -1.027624 2.332539 -0.037861 -0.002190 252490.000000 0 0 1
-13.845297 25.201036 -27.027298 39.462124 -1.068419 2.325252 0.000820 -0.015464 197178.000000 0 0 1
-13.346697 25.774836 -25.852318 38.869253 -1.092995 2.298437 0.035216 -0.020697 -142222.000000 0 0 1
-12.946597 27.233936 -26.130438 39.901145 -1.127034 2.284819 0.048125 -0.029458 -253119.000000 0 0 1
-14.048097 28.090036 -26.354088 40.999233 -1.107061 2.268937 0.050213 -0.019194 -127292.000000 0 0 1
-14.403697 28.881036 -25.232648 40.966660 -1.108169 2.234364 0.053686 -0.022410 204990.000000 0 0 1
-15.821797 29.502836 -25.333828 41.982727 -1.078547 2.218598 0.052687 -0.020959 -182150.000000 0 0 1
-16.835897 28.565436 -25.388208 41.761138 -1.038222 2.224258 0.036087 -0.017572 -801583.000000 0 0 1
-18.044897 29.247336 -25.722708 42.926479 -1.017988 2.213332 0.026206 -0.005605 439133.000000 0 0 1
-19.230497 28.238536 -25.723448 42.765905 -0.972935 2.216167 0.005228 0.009526 -43000.000000 0 0 1
-19.495397 27.780836 -24.396928 41.797792 -0.958892 2.194061 0.008410 0.004633 -638512.000000 0 0 1
-20.532997 26.862736 -24.439428 41.719254 -0.918163 2.196672 0.000887 -0.003801 -691008.000000 0 0 1
-21.175797 26.641036 -23.064428 41.111154 -0.899200 2.166421 0.001383 -0.000204 -617726.000000 0 0 1
-21.975497 27.725036 -22.752228 42.062619 -0.900570 2.142319 -0.009249 0.009024 -472195.000000 0 0 1
-22.292797 27.672836 -21.386428 41.474497 -0.892660 2.112565 -0.023164 0.010208 -492030.000000 0 0 1
-23.442897 28.504936 -20.792728 42.360811 -0.882536 2.083859 -0.040133 0.023373 -139987.000000 0 0 1
-24.685597 27.890936 -21.046428 42.781247 -0.846288 2.085130 -0.046186 0.017421 -651910.000000 0 0 1
-25.627327 28.761236 -21.571528 44.150870 -0.842955 2.081266 -0.028476 0.017109 -1118010.000000 0 0 1
-26.973067 28.103836 -21.692228 44.586149 -0.805926 2.078903 -0.032155 0.012243 -1203400.000000 0 0 1
-27.068427 27.493036 -22.958328 44.896008 -0.793180 2.107571 -0.040838 0.018436 443428.000000 0 0 1
-28.352607 26.906936 -23.201128 45.454877 -0.759243 2.106471 -0.044385 0.016046 348555.000000 0 0 1
-28.596197 26.772636 -24.756228 46.339910 -0.752475 2.134394 -0.043198 0.021180 65228.800000 0 0 1
-28.039037 25.534536 -25.208238 45.537406 -0.738683 2.157444 -0.022313 0.015398 -89677.800000 0 0 1
-28.079587 25.491436 -26.654268 46.354358 -0.737123 2.183414 -0.001849 0.009893 -503048.000000 0 0 1
-28.045187 24.099636 -27.256758 45.937520 -0.709877 2.206003 0.006120 0.005112 -256053.000000 0 0 1
-26.929027 23.229336 -27.223838 44.787407 -0.711771 2.224141 0.006021 -0.001575 -108135.000000 0 0 1
-27.130837 22.058236 -28.020758 44.808603 -0.682637 2.246368 0.022869 -0.011886 -164849.000000 0 0 1
-26.155297 20.897036 -27.777038 43.501143 -0.674106 2.263391 0.029899 -0.009876 -127625.000000 0 0 1
-26.313957 20.274936 -26.575748 42.541365 -0.656493 2.245548 0.026335 -0.012056 79831.300000 0 0 1
-25.680087 19.023336 -26.558788 41.553861 -0.637575 2.264178 0.027169 -0.021640 -46919.800000 0 0 1
-26.652107 17.866136 -26.205518 41.427802 -0.590546 2.255649 0.023760 -0.007100 -196798.000000 0 0 1
-27.482557 17.535236 -27.282628 42.510201 -0.567928 2.267627 0.019348 -0.001482 -350309.000000 0 0 1
-28.378267 16.534436 -26.948488 42.484522 -0.527560 2.257916 -0.003489 -0.005547 -441785.000000 0 0 1
-29.167257 16.089636 -28.220918 43.658051 -0.504096 2.273664 -0.020014 -0.004804 -489657.000000 0 0 1
-30.314457 16.807836 -28.519828 44.887083 -0.506253 2.259282 -0.021069 -0.000084 -811357.000000 0 0 1
-30.889637 16.268436 -29.689278 45.828865 -0.484750 2.275528 -0.009570 -0.000998 -780639.000000 0 0 1
-32.271157 16.845536 -29.896008 47.105954 -0.481092 2.258358 -0.010098 0.003618 -602602.000000 0 0 1
-33.188767 16.542536 -28.842268 46.978997 -0.462397 2.231838 -0.025077 0.002895 856957.000000 0 0 1
-34.517458 16.822036 -29.325508 48.315848 -0.453475 2.223019 -0.031456 0.001227 1029750.000000 0 0 1
34.244445 16.715336 -28.331568 47.484336 0.454097 2.210117 -0.014584 0.017611 163359.000000 0 0 1
34.046013 17.897036 -27.567048 47.322056 0.483974 2.192648 -0.032074 0.017588 393279.000000 0 0 1
33.063792 17.565536 -26.584158 45.918186 0.488343 2.188232 -0.023039 0.015733 229965.000000 0 0 1
32.647862 18.737736 -25.692008 45.574827 0.521033 2.169694 -0.013534 0.009983 40946.800000 0 0 1
32.147742 19.832236 -26.438518 46.106291 0.552760 2.181477 -0.007504 0.005074 385478.000000 0 0 1
31.575722 20.826936 -25.550318 45.646535 0.583085 2.164872 0.003412 -0.001974 -677590.000000 0 0 1
31.022752 22.030536 -26.280538 46.243078 0.617500 2.175250 0.003447 -0.014695 639209.000000 0 0 1
29.763342 21.835336 -26.946798 45.703045 0.632943 2.201367 0.005419 -0.006855 1368740.000000 0 0 1
28.625032 21.899836 -26.051458 44.471043 0.653069 2.196672 0.010679 -0.005080 818562.000000 0 0 1
27.229372 21.515736 -26.620208 43.737867 0.668716 2.225130 0.010891 -0.006274 589809.000000 0 0 1
27.108832 20.093836 -26.750498 43.060888 0.637864 2.241101 0.005317 -0.013797 540000.000000 0 0 1
25.874612 19.781336 -27.420318 42.575469 0.652721 2.270564 0.001571 -0.013567 442000.000000 0 0 1
25.453842 18.314736 -27.303998 41.579272 0.623712 2.287196 0.014854 -0.010471 -371.865000 0 0 1
26.277412 17.392336 -28.028288 42.173222 0.584677 2.297754 0.005773 -0.017450 92284.600000 0 0 1
27.333452 16.937736 -27.201768 42.118175 0.554758 2.272924 0.002057 -0.007891 5178.450000 0 0 1
28.187642 15.794136 -27.868558 42.669127 0.510733 2.282509 -0.013885 0.000799 228438.000000 0 0 1
27.485912 14.613736 -28.339878 42.097331 0.488670 2.309323 -0.002938 0.005116 -64421.800000 0 0 1
26.887732 13.803636 -27.353628 40.764095 0.474295 2.306383 0.022210 -0.007078 -262281.000000 0 0 1
27.736952 12.848636 -26.430978 40.410673 0.433803 2.283735 0.011077 -0.007907 -451582.000000 0 0 1
28.512532 13.581536 -25.551818 40.624106 0.444538 2.251039 0.006289 -0.006941 -442020.000000 0 0 1
29.107982 12.749136 -24.575528 40.171776 0.412825 2.229081 0.009766 -0.006653 -220611.000000 0 0 1
-13.513597 -31.951420 -26.173948 43.457865 1.170670 2.217155 0.033545 0.007751 -112405.000000 0 0 1
-13.187597 -30.644820 -25.890518 42.229570 1.164414 2.230762 0.026335 0.017196 12778.000000 0 0 1
-13.031097 -29.988820 -27.132018 42.488647 1.160880 2.263436 0.011610 0.015459 -195761.000000 0 0 1
-12.370597 -28.585520 -27.149528 41.319008 1.162373 2.287723 0.009246 0.008527 -617172.000000 0 0 1
-13.023297 -27.517520 -26.457478 40.333835 1.128758 2.286253 0.023065 0.007972 59378.600000 0 0 1
-12.616997 -26.299020 -27.024378 39.763602 1.123478 2.318049 0.024617 0.001027 -345644.000000 0 0 1
-13.159697 -25.064420 -26.256748 38.611132 1.087322 2.318601 0.020787 0.000819 -141523.000000 0 0 1
-12.796297 -24.992520 -24.877828 37.513698 1.097591 2.295838 0.015805 -0.006292 -35873.000000 0 0 1
-13.121197 -23.741120 -24.355828 36.455629 1.065899 2.302442 0.023724 0.000325 24838.000000 0 0 1
-12.440997 -23.364120 -22.971528 35.047847 1.081501 2.285553 0.017745 -0.004003 -330585.000000 0 0 1
-11.138997 -22.889920 -23.122228 34.389869 1.117899 2.308183 0.017828 -0.006364 -928445.000000 0 0 1
-10.607397 -22.466020 -21.910828 33.125870 1.129674 2.293536 0.018553 -0.004003 1067770.000000 0 0 1
-9.073297 -22.111420 -22.081828 32.539925 1.181404 2.316661 0.014314 -0.007187 1047860.000000 0 0 1
-8.889397 -20.916820 -22.838328 32.219931 1.168936 2.358629 0.012625 -0.002822 150107.000000 0 0 1
-7.581197 -20.371520 -22.797128 31.498927 1.214529 2.380007 0.015490 -0.005422 196269.000000 0 0 1
-7.498697 -19.106520 -23.707528 31.358195 1.196800 2.428012 0.020293 -0.002632 163718.000000 0 0 1
-8.110497 -17.911020 -23.184628 30.399206 1.145598 2.438231 0.011932 0.007752 48664.300000 0 0 1
-8.411597 -16.874320 -24.160628 30.646917 1.108361 2.478926 0.011624 0.006789 219301.000000 0 0 1
-7.217197 -16.307120 -24.987128 30.697991 1.154130 2.521744 0.013931 0.003896 50434.000000 0 0 1
-6.911397 -17.250720 -26.001058 31.959501 1.189735 2.521049 -0.012190 0.007454 437176.000000 0 0 1
-5.795197 -16.733020 -26.764368 32.092205 1.237392 2.557084 -0.000544 0.001886 693750.000000 0 0 1
-5.601397 -17.460720 -28.123218 33.573319 1.260368 2.563792 -0.016445 0.015637 -166344.000000 0 0 1
-6.568497 -17.112020 -29.072888 34.368578 1.204287 2.579074 -0.023626 0.013208 -192569.000000 0 0 1
-6.501797 -17.989520 -30.198828 35.747243 1.223983 2.576964 -0.023618 0.011345 -111591.000000 0 0 1
-7.276597 -17.574620 -31.454078 36.758334 1.178245 2.597697 -0.013608 0.007835 -88198.500000 0 0 1
-6.785997 -16.550020 -32.306278 36.927611 1.181674 2.635931 -0.010328 0.000095 -290266.000000 0 0 1
-6.682297 -15.246420 -31.688418 35.794723 1.157726 2.657896 -0.015202 0.002057 -151281.000000 0 0 1
-6.967897 -14.018720 -32.606738 36.170090 1.109518 2.693981 -0.001537 -0.003490 189313.000000 0 0 1
-6.174097 -13.850220 -33.833598 37.076413 1.151461 2.720241 -0.000469 -0.013764 -224038.000000 0 0 1
-6.813197 -13.159820 34.403750 37.459558 1.093068 0.406719 0.010948 -0.010532 -497036.000000 0 0 1
-7.058697 -11.632020 -34.606009 37.184740 1.025367 2.766984 0.008217 -0.011290 -77196.600000 0 0 1
-5.907197 -10.833620 -34.629327 36.762108 1.071595 2.799290 -0.003234 -0.010591 -453507.000000 0 0 1
-5.516697 -10.539720 33.304366 35.365243 1.088589 0.343071 -0.003083 -0.017762 -1117190.000000 0 0 1
-4.469297 -9.501520 33.207678 34.828198 1.131127 0.306249 -0.006554 -0.016742 -814161.000000 0 0 1
-4.350997 -8.886620 31.912455 33.411195 1.115494 0.300655 -0.003886 -0.012501 -466774.000000 0 0 1
-3.300797 -7.973620 32.043185 33.184930 1.178310 0.263077 -0.005953 -0.016533 -928181.000000 0 0 1
-3.401897 -6.814720 30.942645 31.866292 1.107790 0.241355 -0.002924 -0.007771 687086.000000 0 0 1
-4.603797 -6.043920 31.039225 31.955553 0.919834 0.240055 -0.005470 -0.010366 429369.000000 0 0 1
-5.777497 -6.657020 30.557075 31.802990 0.856013 0.280836 -0.004814 -0.011093 -973824.000000 0 0 1
-6.980297 -5.720720 30.566855 31.871363 0.686550 0.287098 -0.008506 -0.010660 -267409.000000 0 0 1
-8.097397 -6.423620 30.031245 31.760138 0.670639 0.331473 -0.008529 -0.003773 -1078030.000000 0 0 1
-9.191497 -5.587520 30.086105 31.951177 0.546209 0.343364 0.003105 -0.006702 -1136860.000000 0 0 1
-10.364597 -6.008720 29.210455 31.571827 0.525385 0.389217 0.015220 -0.011421 -634738.000000 0 0 1
-10.127397 -6.013720 27.846475 30.234999 0.535853 0.400153 0.003035 -0.002367 859435.000000 0 0 1
-11.215897 -6.587520 27.084735 30.046208 0.531057 0.447721 0.017244 -0.006053 561936.000000 0 0 1
-10.998197 -6.322620 25.579535 28.552556 0.521742 0.460399 0.021596 -0.004908 760598.000000 0 0 1
-9.814297 -6.954720 25.034945 27.774755 0.616495 0.447906 0.025969 -0.002314 766119.000000 0 0 1
-9.399397 -6.537620 23.769555 26.383344 0.607724 0.448888 0.023184 -0.002017 -485073.000000 0 0 1
-10.298697 -6.884120 22.575955 25.751272 0.589233 0.501853 0.038136 -0.002178 285623.000000 0 0 1
-11.416697 -5.988120 22.556855 25.980959 0.483059 0.519219 0.029154 0.000901 91304.500000 0 0 1
-12.260097 -6.144420 21.421755 25.435319 0.464585 0.569436 0.037092 0.000318 296997.000000 0 0 1
-13.354697 -5.050020 21.482855 25.794644 0.361526 0.586574 0.022053 0.011748 498954.000000 0 0 1
-12.789997 -3.747320 21.174355 25.019587 0.285012 0.561775 0.007536 0.010037 57223.300000 0 0 1
-13.824397 -2.803320 21.261755 25.515383 0.200068 0.585761 -0.006859 0.007777 110095.000000 0 0 1
-13.656097 -1.420320 20.484555 24.660156 0.103634 0.590479 -0.001925 -0.000150 -392271.000000 0 1 0
-12.573097 -0.620320 20.857255 24.361704 0.049297 0.543025 -0.007895 0.000298 -304293.000000 0 1 0
-12.735497 0.770680 20.502955 24.148664 -0.060441 0.556649 -0.009824 -0.007255 -383105.000000 0 1 0
-12.551697 1.185680 18.980455 22.786149 -0.094184 0.586321 0.020737 -0.028200 106588.000000 0 1 0
-13.530297 0.646680 18.092755 22.601657 -0.047759 0.642658 0.024522 -0.017689 451523.000000 0 1 0
-14.788097 1.337680 18.190255 23.481111 -0.090211 0.684594 0.004154 -0.009890 -122425.000000 0 1 0
-15.834297 0.556680 17.410655 23.540725 -0.035142 0.738325 0.021405 -0.001136 -591898.000000 0 1 0
-16.042097 -0.690320 18.016055 24.133040 0.043005 0.727964 -0.008260 0.001361 540257.000000 0 1 0
-16.948697 -1.534320 17.264855 24.242270 0.090281 0.778198 -0.016823 0.015599 436582.000000 0 1 0
-16.769997 -3.056320 17.566455 24.477627 0.180271 0.770369 -0.012050 0.022290 -277316.000000 0 1 0
-17.114597 -3.385320 18.921255 25.736816 0.195282 0.744861 -0.027401 0.019494 -9307.080000 0 0 1
-16.948197 -4.779220 19.146455 26.012863 0.274853 0.743598 -0.027440 0.022152 -191102.000000 0 0 1
-17.627297 -5.268320 20.458155 27.513867 0.290422 0.732421 -0.029741 0.025766 -314358.000000 0 0 1
-17.045097 -4.729020 21.596455 27.916049 0.270635 0.686260 -0.021448 0.018451 -112121.000000 0 0 1
-17.999997 -4.545520 22.614155 29.258531 0.247357 0.687385 -0.014737 0.012182 -96331.000000 0 0 1
-18.340397 -5.831520 23.434055 30.323781 0.307852 0.687564 -0.012282 0.012952 803425.000000 0 0 1
-17.181097 -6.412920 24.088555 30.274975 0.357239 0.650702 -0.000828 0.006640 1011710.000000 0 0 1
-16.390897 -7.289820 23.299755 29.405468 0.418478 0.656126 -0.004157 0.005062 407242.000000 0 0 1
-15.176397 -7.888220 24.086655 29.541733 0.479337 0.617474 0.010398 0.004035 375064.000000 0 0 1
-15.554597 -8.848720 25.064845 30.797593 0.517224 0.620036 0.011456 -0.005503 21219.500000 0 0 1
-14.573097 -9.058220 26.048315 31.192005 0.556130 0.582489 0.025005 -0.001929 126533.000000 0 0 1
-15.089497 -10.123820 26.973155 32.522849 0.590940 0.592835 0.022200 -0.006944 -242328.000000 0 0 1
-15.132197 -11.416220 26.454725 32.544829 0.646332 0.621733 0.022237 -0.004118 -126684.000000 0 0 1
-14.248697 -12.238520 27.189995 33.046975 0.709651 0.604532 0.032599 -0.008086 19809.400000 0 0 1
-14.478397 -13.726520 26.967225 33.545082 0.758747 0.636956 0.008657 -0.007135 -51215.500000 0 0 1
-15.571297 -14.211920 27.723025 34.828294 0.739787 0.650153 0.010153 -0.006772 -43324.200000 0 0 1
-15.680597 -15.628320 27.673765 35.439565 0.783728 0.674736 0.016446 0.001379 -95781.300000 0 0 1
-14.707197 -16.557320 28.485375 36.081339 0.844506 0.660840 0.017929 -0.004658 -374773.000000 0 0 1
-13.444997 -16.636020 27.908935 35.162960 0.891084 0.653924 0.034644 -0.010424 -717534.000000 0 0 1
-12.661797 -17.557220 28.612915 35.878628 0.946001 0.647670 0.039747 -0.009548 482951.000000 0 0 1
-11.196897 -17.754120 28.101085 35.074923 1.008134 0.641543 0.037922 -0.009726 48288.400000 0 0 1
-10.365397 -18.550920 28.850645 35.832077 1.061257 0.634847 0.035866 -0.017751 -937990.000000 0 0 1
-9.304497 -18.881920 28.026285 35.051008 1.112947 0.644191 0.024037 -0.010055 -395911.000000 0 0 1
-8.099097 -19.586320 28.704545 35.681510 1.178700 0.636021 0.033699 -0.014027 266207.000000 0 0 1
-8.514797 -20.783620 29.282085 36.903944 1.181966 0.654311 0.019777 -0.004365 -301567.000000 0 0 1
-7.377697 -21.451720 29.717645 37.386429 1.239547 0.651990 0.027295 -0.008864 -298051.000000 0 0 1
-7.629297 -22.778320 30.475495 38.804817 1.247603 0.667530 0.022564 -0.006962 -63973.100000 0 0 1
-7.994697 -23.883020 29.675915 38.922663 1.247777 0.703732 0.028966 -0.012386 -46083.200000 0 0 1
-8.274297 -24.971520 30.529585 40.300079 1.250832 0.711235 0.013321 -0.008885 -381561.000000 0 0 1
-8.381697 -26.297920 29.814955 40.629607 1.262254 0.746863 0.018312 -0.008573 -650701.000000 0 0 1
-9.414097 -26.260620 28.894395 40.163807 1.226581 0.767838 0.024264 -0.011633 -459404.000000 0 0 1
-9.426197 -27.387820 28.076125 40.338749 1.239320 0.800972 0.029462 -0.017161 125422.000000 0 0 1
-10.737797 -27.594820 27.255815 40.244923 1.199701 0.826780 0.013678 -0.006870 290349.000000 0 0 1
-10.809597 -26.875520 26.007955 38.930125 1.188386 0.839188 0.030229 -0.006373 58408.600000 0 0 1
-11.097797 -25.485720 26.045345 38.092558 1.160107 0.817923 0.022135 0.000419 -342419.000000 0 0 1
-11.467197 -24.969620 24.660355 36.920341 1.140280 0.839367 0.029916 -0.010211 216323.000000 0 0 1
-12.660997 -25.551020 24.137555 37.360099 1.110741 0.868361 0.022705 -0.002545 416792.000000 0 0 1
-12.873297 -25.079620 22.809055 36.262406 1.096568 0.890530 0.022690 -0.008285 412688.000000 0 0 1
-14.219797 -25.440220 22.101955 36.577367 1.061108 0.921969 0.015495 -0.008057 289791.000000 0 0 1
-14.301197 -26.693720 21.574355 37.182411 1.078958 0.951785 0.027215 -0.001555 579685.000000 0 0 1
-15.520097 -26.803520 20.804855 37.311447 1.045937 0.979305 0.030997 -0.001080 892197.000000 0 0 1
-15.720497 -28.167520 20.142755 38.029906 1.061750 1.012602 0.031024 -0.005665 -259259.000000 0 0 1
-14.781897 -28.407720 19.155855 37.315543 1.091003 1.031715 0.022449 -0.005426 -318818.000000 0 0 1
-14.874397 -29.842720 18.862755 38.309778 1.108408 1.055981 0.027759 0.006632 169216.000000 0 0 1
-13.805897 -30.208320 17.821055 37.692643 1.142117 1.078331 0.013987 -0.000700 222090.000000 0 0 1
-14.216597 -29.711520 16.575955 36.873409 1.124506 1.104550 0.020120 -0.009096 270725.000000 0 0 1
-13.082797 -29.756220 15.731055 36.111747 1.156569 1.120068 0.021549 -0.007826 216027.000000 0 0 1
-13.427397 -29.198720 14.326555 35.186793 1.139771 1.151457 0.008565 -0.009732 -107062.000000 0 0 1
-13.617397 -27.786120 14.404455 34.131954 1.115117 1.135121 0.009647 -0.004748 -148114.000000 0 0 1
-13.934797 -27.213020 13.143755 33.278901 1.097544 1.164775 0.010001 0.005321 87986.100000 0 0 1
-12.980597 -27.483520 11.942855 32.656876 1.129549 1.196404 -0.004618 0.013958 174824.000000 0 0 1
-13.410797 -26.897920 10.715255 31.908686 1.108284 1.228331 -0.013212 0.020767 105267.000000 0 0 1
-12.413897 -27.098920 9.706355 31.347561 1.141231 1.255985 -0.003162 0.013142 351894.000000 0 0 1
-12.680697 -26.387820 8.347355 30.443315 1.122829 1.293046 -0.007222 0.018672 -388690.000000 0 0 1
-13.653397 -26.990420 7.535755 31.171872 1.102471 1.326629 -0.006990 0.012992 -345523.000000 0 0 1
-13.871397 -26.170320 6.425655 30.308255 1.083404 1.357165 -0.004473 0.013180 217877.000000 0 0 1
-15.005497 -26.623720 5.486555 31.049793 1.057561 1.393162 -0.009106 0.014046 46840.500000 0 0 1
-14.552197 -27.665620 4.659655 31.604831 1.086563 1.422822 0.004453 0.009477 59211.100000 0 0 1
-15.412097 -27.881320 3.555155 32.055262 1.065825 1.459661 0.014188 0.009649 -231575.000000 0 0 1
-14.911097 -29.061320 2.689655 32.774004 1.096731 1.488637 0.014350 0.006645 803643.000000 0 0 1
-13.559297 -28.930920 2.201955 32.026571 1.132518 1.501988 0.021556 0.012198 640542.000000 0 0 1
-13.220697 -30.037320 1.346255 32.845697 1.156170 1.529798 0.018339 0.006863 1095180.000000 0 0 1
-11.694797 -29.961520 0.921355 32.176231 1.198656 1.542158 -0.002058 0.008182 1205580.000000 0 0 1
-11.391397 -29.248220 -0.268245 31.389397 1.199398 1.579342 0.011318 0.006664 -113973.000000 0 0 1
-11.437697 -27.859020 -0.194745 30.116172 1.181223 1.577263 0.015139 0.001873 -330805.000000 0 0 1
-11.136797 -27.078920 -1.486345 29.317322 1.180611 1.621517 0.024657 0.001655 46962.000000 0 0 1
-9.900797 -27.366020 -2.092545 29.177107 1.223656 1.642577 0.013650 -0.004098 -443423.000000 0 0 1
-9.749297 -26.655520 -3.293545 28.572941 1.220158 1.686321 0.027193 -0.006631 466331.000000 0 0 1
-8.309297 -26.770320 -3.853245 28.293849 1.269833 1.707408 0.014808 -0.012794 274246.000000 0 0 1
-7.894497 -25.681420 -4.559045 27.251482 1.272563 1.738882 0.019350 -0.016236 295273.000000 0 0 1
-6.530097 -25.838320 -4.998845 27.115482 1.323251 1.756211 0.001782 -0.010733 1217460.000000 0 0 1
-6.030897 -24.709220 -5.975545 26.127081 1.331402 1.801549 0.005849 -0.009446 -422430.000000 0 0 1
-6.523297 -24.790120 -7.317345 26.657963 1.313488 1.848856 0.005651 -0.006961 8788.410000 0 0 1
-6.086197 -23.643920 -8.062645 25.711534 1.318855 1.889758 -0.005876 0.002655 -255058.000000 0 0 1
-6.400497 -23.750620 -9.581045 26.398006 1.307562 1.942224 -0.004223 0.003922 303977.000000 0 0 1
-5.425497 -24.552420 -10.265445 27.159468 1.353315 1.958398 -0.018093 0.007392 267919.000000 0 0 1
-5.747397 -24.791420 -11.623745 27.977822 1.342991 1.999248 -0.025200 0.016895 197962.000000 0 0 1
-7.019397 -25.607420 -11.982445 29.130583 1.303252 1.994715 -0.015718 0.012551 305031.000000 0 0 1
-7.211297 -25.807220 -13.353845 29.938947 1.298317 2.033128 -0.005209 0.012704 -488767.000000 0 0 1
-8.440797 -26.340420 -13.746645 30.887457 1.260685 2.032033 0.008187 0.004250 -815819.000000 0 0 1
-8.711897 -26.341420 -15.281045 31.674562 1.251391 2.074233 0.010788 0.005916 482842.000000 0 0 1
-7.812497 -27.119720 -16.090045 32.486980 1.290316 2.088950 -0.002261 0.012177 1991040.000000 0 0 1
-6.419397 -26.669720 -16.154645 31.834810 1.334590 2.103022 -0.007946 0.014543 1273570.000000 0 0 1
-5.448397 -27.536320 -16.936045 32.783586 1.375457 2.113673 -0.016414 0.016665 -331836.000000 0 0 1
-5.561397 -27.304720 -18.365145 33.372974 1.369866 2.153520 0.005808 0.011246 -391738.000000 0 0 1
-4.823597 -28.145020 -19.185045 34.401674 1.401062 2.162382 -0.002704 0.008145 -548105.000000 0 0 1
-24.216897 14.773536 -5.644928 28.923704 -0.547777 1.767223 -0.025939 -0.011783 -189923.000000 0 0 1
-24.435197 13.394136 -5.387328 28.381420 -0.501421 1.761774 -0.031664 -0.001848 -88812.000000 0 0 1
-23.283997 12.605236 -5.479928 27.038234 -0.496193 1.774883 -0.023354 -0.011838 -968944.000000 0 0 1
-23.513697 11.181036 -4.872828 26.488751 -0.443866 1.755808 -0.009234 -0.011455 -43834.800000 0 0 1
-24.151497 10.272436 -5.733628 26.864330 -0.402153 1.785880 -0.001024 -0.011149 106653.000000 0 0 1
-25.522867 10.475036 -5.995228 28.232709 -0.389455 1.784776 -0.006587 -0.008849 -564443.000000 0 0 1
-25.784037 9.794536 -7.321528 28.536893 -0.363032 1.830261 0.008884 -0.002105 -291657.000000 0 0 1
-25.285787 10.540736 -8.437228 28.664698 -0.394959 1.869563 0.014628 0.005295 -60240.800000 0 0 1
-25.692307 9.972336 -9.649628 29.200298 -0.370245 1.907591 0.034814 -0.000098 -402765.000000 0 0 1
-26.109487 10.959436 -10.739928 30.284659 -0.397415 1.933317 0.011338 -0.003711 414281.000000 0 0 1
-25.033597 11.846436 -11.113828 29.841853 -0.441996 1.952416 0.012709 -0.001313 916241.000000 0 0 1
-25.363177 12.453636 -12.326528 30.827375 -0.456432 1.982157 0.018046 -0.009076 -552558.000000 0 0 1
-24.378397 13.521136 -12.737428 30.649134 -0.506396 1.999386 0.014382 -0.010547 -776151.000000 0 0 1
-24.313397 14.717036 -11.999728 30.850054 -0.544312 1.970309 0.008074 -0.006371 460850.000000 0 0 1
-23.459897 15.655736 -12.674728 30.921150 -0.588469 1.993146 -0.000166 -0.010228 132200.000000 0 0 1
-23.446897 17.017636 -11.950428 31.339585 -0.627829 1.962021 -0.011758 -0.008417 -100580.000000 0 0 1
-22.677697 17.037536 -10.775628 30.342539 -0.644326 1.933852 -0.017414 -0.001742 -34606.500000 0 0 1
-22.560397 18.345236 -10.310228 30.851580 -0.682715 1.911540 -0.035077 0.003963 -171161.000000 0 0 1
-21.609797 18.534136 -9.110428 29.891427 -0.708932 1.880508 -0.025294 0.005482 -294691.000000 0 0 1
-22.101297 18.082336 -7.813228 29.605484 -0.685715 1.837872 -0.014103 -0.002674 370868.000000 0 0 1
-22.893397 19.120236 -7.218128 30.688636 -0.695830 1.808226 -0.024771 -0.006943 -42876.300000 0 0 1
-23.475697 18.662936 -5.846528 30.554793 -0.671678 1.763329 -0.031977 -0.009610 545831.000000 0 0 1
-22.446697 18.646636 -4.842728 29.580453 -0.693187 1.735250 -0.003108 -0.027835 735990.000000 0 0 1
-23.055097 18.504736 -3.568628 29.777472 -0.676343 1.690928 -0.015781 -0.020746 -169836.000000 0 0 1
-22.089897 17.980436 -2.526228 28.594430 -0.683199 1.659259 0.006668 -0.035075 -535122.000000 0 0 1
-20.996997 18.842836 -2.254528 28.302106 -0.731380 1.650540 0.019218 -0.036400 501997.000000 0 0 1
-20.149497 18.286036 -1.252928 27.238780 -0.736953 1.616810 0.049251 -0.048212 217540.000000 0 0 1
-19.184597 19.370936 -0.654228 27.271045 -0.790231 1.594788 0.051860 -0.038446 185756.000000 0 0 1
-19.866597 20.341036 0.150172 28.433465 -0.797197 1.565515 0.036215 -0.035182 233954.000000 0 0 1
-19.106797 21.467436 0.552372 28.744140 -0.843513 1.551578 0.044969 -0.035007 -326959.000000 0 0 1
-19.880697 22.462136 1.403572 30.029313 -0.846288 1.524039 0.031577 -0.020505 -144167.000000 0 0 1
-19.861097 21.912536 2.674372 29.694691 -0.834467 1.480612 0.019075 -0.017162 224989.000000 0 0 1
-21.059397 22.207036 3.366972 30.789400 -0.811917 1.461222 0.002109 -0.008671 55565.300000 0 0 1
-21.035897 21.796136 4.869972 30.680566 -0.803146 1.411391 -0.001852 0.002847 -18972.500000 0 0 1
-20.120797 22.610736 5.613572 30.783178 -0.843602 1.387412 -0.001679 0.007372 664002.000000 0 0 1
-19.530797 21.910036 6.750972 30.117724 -0.842748 1.344723 -0.004932 0.024484 317305.000000 0 0 1
-20.401597 22.084836 8.045772 31.123939 -0.824996 1.309319 -0.017775 0.012150 -33205.500000 0 0 1
-21.679497 21.496136 7.929872 31.543102 -0.781151 1.316672 -0.011662 0.015618 194598.000000 0 0 1
-22.107397 20.699136 9.010172 31.597063 -0.752512 1.281624 0.002883 0.011406 -376281.000000 0 0 1
-22.495597 21.413336 10.280872 32.715121 -0.760755 1.251125 -0.000410 0.009679 -1058750.000000 0 0 1
-23.533997 22.307136 10.009772 33.936011 -0.758641 1.271382 0.002958 0.010407 67445.700000 0 0 1
-24.085497 22.753136 11.239172 34.987645 -0.756960 1.243766 0.007187 0.014780 -85237.100000 0 0 1
-25.080877 23.910236 11.042972 36.368901 -0.761508 1.262288 0.011915 0.002774 -171091.000000 0 0 1
-25.632307 24.364336 12.262272 37.429925 -0.760042 1.237028 0.003329 0.000344 14991.600000 0 0 1
-26.174687 25.643736 12.072472 38.580565 -0.775152 1.252535 0.002047 -0.002914 -136589.000000 0 0 1
-26.868187 26.160936 13.352672 39.806882 -0.772062 1.228728 0.002700 0.000629 -32720.900000 0 0 1
-25.980637 26.336336 14.473272 39.724950 -0.792197 1.197875 -0.008985 0.001983 237968.000000 0 0 1
-26.545687 26.863736 15.653072 40.882178 -0.791353 1.177882 -0.013718 -0.004065 203067.000000 0 0 1
-25.569977 26.948236 16.903272 40.813622 -0.811636 1.143779 -0.000642 -0.016151 72403.900000 0 0 1
-25.217907 25.737336 17.376172 40.003558 -0.795592 1.121462 0.011841 -0.014108 407170.000000 0 0 1
-24.189897 25.774936 18.366572 39.835027 -0.817111 1.091600 0.024211 -0.016943 127947.000000 0 0 1
-23.563497 24.377836 18.746172 38.741918 -0.802383 1.065721 0.037447 -0.013709 -243542.000000 0 0 1
-22.503297 24.447536 19.678772 38.617800 -0.826785 1.036102 0.040735 -0.022781 400082.000000 0 0 1
-22.141497 23.108636 20.029772 37.755088 -0.806768 1.011584 0.044012 -0.020248 -198632.000000 0 0 1
-20.649897 23.006636 20.434672 37.058054 -0.839329 0.986727 0.049616 -0.026889 -460631.000000 0 0 1
-19.848697 23.108436 19.302972 36.063490 -0.861137 1.005993 0.052013 -0.029922 31201.500000 0 0 1
-18.470897 22.875236 19.547172 35.306407 -0.891522 0.984063 0.044936 -0.026686 344799.000000 0 0 1
-17.910897 21.398836 19.494972 34.040628 -0.873896 0.961004 0.033297 -0.012714 -488438.000000 0 0 1
-18.357297 20.478636 20.481572 34.290810 -0.839967 0.930678 0.036141 -0.014014 174496.000000 0 0 1
-17.521297 20.571436 21.606272 34.597844 -0.865299 0.896308 0.030197 -0.002059 -294204.000000 0 0 1
-18.293397 20.430836 22.900772 35.728319 -0.840539 0.875035 0.002172 0.005350 65351.500000 0 0 1
-19.267097 21.461936 23.104772 36.954921 -0.839235 0.895389 0.015288 0.000363 405330.000000 0 0 1
-19.892997 21.341336 24.377472 38.019009 -0.820508 0.874746 0.027949 0.006441 407676.000000 0 0 1
-21.109797 22.326136 24.509172 39.303681 -0.813394 0.897477 0.031475 0.003264 113587.000000 0 0 1
-20.824597 23.704536 24.718472 40.082062 -0.849984 0.906257 0.033420 -0.007237 -86655.400000 0 0 1
-21.944797 24.421136 25.211072 41.395219 -0.838756 0.915955 0.026860 -0.012813 115610.000000 0 0 1
-22.858697 25.072236 24.130072 41.634089 -0.831547 0.952589 0.022250 -0.015358 -6998.950000 0 0 1
-23.743697 24.160936 23.518172 41.238554 -0.794108 0.963930 0.026139 -0.023310 -204259.000000 0 0 1
-24.522397 24.846136 22.575172 41.573030 -0.791956 0.996762 0.021709 -0.022491 130588.000000 0 0 1
-25.663147 23.933436 22.017472 41.426749 -0.750537 1.010450 0.026839 -0.021211 -373628.000000 0 0 1
-26.812117 23.856236 22.792272 42.514671 -0.727126 1.004982 0.004022 -0.017469 -388605.000000 0 0 1
-27.697607 22.935636 22.159272 42.240196 -0.691626 1.018549 0.010504 -0.014582 507828.000000 0 0 1
-29.150087 23.002436 22.705072 43.524245 -0.668061 1.021995 0.016664 -0.007546 -938690.000000 0 0 1
-29.919727 24.165836 22.449472 44.532645 -0.679412 1.042442 -0.004684 -0.001127 240878.000000 0 0 1
-31.267967 24.160836 22.862172 45.652061 -0.657873 1.046283 -0.016937 0.000976 -59296.900000 0 0 1
-32.184487 23.253136 22.053172 45.419070 -0.625664 1.063806 -0.013099 -0.003158 -1860590.000000 0 0 1
-31.924777 21.882836 22.335472 44.686946 -0.600894 1.047404 -0.007193 0.001149 155619.000000 0 0 1
-32.347797 20.964136 21.344972 44.062260 -0.575028 1.065088 -0.022040 0.012911 3966.180000 0 0 1
-33.863437 20.920736 21.021772 45.014714 -0.553403 1.084904 -0.028369 0.015113 -247503.000000 0 0 1
-34.307493 19.975436 20.117172 44.505311 -0.527264 1.101771 -0.009515 0.019173 270628.000000 0 0 1
34.245667 20.156136 19.882772 44.433772 0.531976 1.106862 -0.011042 0.006986 99790.400000 0 0 1
33.803922 19.552736 18.534672 43.226712 0.524398 1.127656 0.009423 0.010362 -345188.000000 0 0 1
33.723272 18.104936 18.645872 42.576006 0.492705 1.117487 0.021266 0.002493 313899.000000 0 0 1
33.381542 17.483436 17.380572 41.497978 0.482463 1.138641 0.023131 -0.002104 95990.200000 0 0 1
33.430292 15.984536 17.558872 41.004924 0.446011 1.128281 0.016289 -0.004054 260684.000000 0 0 1
32.777632 15.299036 16.453672 39.738608 0.436697 1.143900 0.016471 -0.013601 461352.000000 0 0 1
33.020632 13.902136 16.508472 39.448208 0.398489 1.139020 0.004886 -0.014116 -363817.000000 0 0 1
32.249932 13.087936 15.517472 38.107009 0.385521 1.151401 0.010690 -0.011785 -514755.000000 0 0 1
32.527922 13.473636 14.180672 37.956502 0.392702 1.187906 0.021624 -0.018408 477822.000000 0 0 1
31.743982 12.779236 13.200972 36.677717 0.382722 1.202616 0.031758 -0.021678 -30677.900000 0 0 1
32.167402 13.163336 11.754172 36.690267 0.388424 1.244685 0.052380 -0.020886 -570741.000000 0 0 1
33.380252 12.602836 11.368872 37.447616 0.361008 1.262334 0.041478 -0.020516 -248236.000000 0 0 1
33.749532 13.028436 10.056172 37.548603 0.368408 1.299669 0.035141 -0.012756 -34637.300000 0 0 1
-34.789529 12.555636 9.631972 38.219500 -0.346355 1.316032 0.046875 -0.006686 -284413.000000 0 0 1
-34.749276 11.185636 9.329872 37.678603 -0.311421 1.320576 0.030995 -0.000832 1257630.000000 0 0 1
-33.478387 10.759336 8.758672 36.239206 -0.310956 1.326689 0.014025 0.008331 1143750.000000 0 0 1
-33.126977 11.156636 7.325872 35.714640 -0.324853 1.364208 0.028009 0.008874 -281086.000000 0 0 1
-33.002037 12.536836 7.049172 35.999965 -0.363043 1.373712 0.043503 0.001586 63400.100000 0 0 1
-32.693647 12.661536 5.644372 35.511237 -0.369491 1.411173 0.024729 -0.005899 56218.600000 0 0 1
-33.811277 13.330536 4.798472 36.659664 -0.375551 1.439527 0.042998 -0.011424 -374469.000000 0 0 1
34.856005 12.781636 4.797172 37.434265 0.351473 1.442294 0.054521 -0.007084 -360918.000000 0 0 1
33.776122 13.641336 4.522572 36.706486 0.383843 1.447273 0.036754 -0.007206 286930.000000 0 0 1
33.302802 14.458036 5.769772 36.761415 0.409586 1.413193 0.044577 -0.001127 -1218950.000000 0 0 1
32.368772 15.470236 5.440872 36.285929 0.445842 1.420284 0.036012 -0.004256 64137.600000 0 0 1
31.917152 16.254236 6.500472 36.402759 0.471031 1.391263 0.043995 -0.005542 -397283.000000 0 0 1
30.773962 15.618036 7.284872 35.270797 0.469636 1.362758 0.046328 -0.007416 -707515.000000 0 0 1
31.179492 14.467036 8.087872 35.311039 0.434429 1.339698 0.052377 -0.006635 574336.000000 0 0 1
30.107702 13.525636 8.291372 34.031799 0.422223 1.324683 0.049752 -0.010838 368819.000000 0 0 1
30.092392 12.302536 7.304772 33.320626 0.388091 1.349774 0.057809 -0.007142 -29006.000000 0 0 1
29.666822 12.568036 5.978272 32.769125 0.400718 1.387333 0.044241 -0.006777 265120.000000 0 0 1
29.898022 11.436536 5.158472 32.423693 0.365346 1.411022 0.064255 -0.012301 -226240.000000 0 0 1
29.443172 11.667936 3.702072 31.886461 0.377301 1.454432 0.037829 -0.017035 181897.000000 0 0 1
28.030782 11.609036 3.656072 30.559144 0.392647 1.450870 0.017027 -0.010143 238894.000000 0 0 1
27.457682 11.775536 2.372972 29.970294 0.405137 1.491536 0.022921 -0.003399 -935899.000000 0 0 1
26.056902 11.252736 2.295572 28.475530 0.407660 1.490093 0.046565 0.013493 -926161.000000 0 0 1
26.147492 9.927536 1.800972 28.026609 0.362863 1.506493 0.008776 0.001662 489508.000000 0 0 1
24.847582 9.369836 1.717072 26.610984 0.360604 1.506227 0.009577 -0.002281 -171364.000000 0 0 1
24.860182 7.782636 1.696172 26.105077 0.303392 1.505776 0.016455 -0.001320 69757.300000 0 0 1
25.269762 7.138936 2.928372 26.421594 0.275334 1.459736 0.022060 0.004100 840763.000000 0 0 1
26.681632 7.062536 3.094872 27.773497 0.258762 1.459132 0.044130 -0.004368 -59624.700000 0 0 1
27.084712 6.426136 4.469072 28.193074 0.232953 1.411608 0.043005 -0.004961 -342626.000000 0 0 1
28.487762 6.340336 4.584272 29.542647 0.218994 1.414992 0.053640 -0.010425 247952.000000 0 0 1
28.896502 5.718036 5.768572 30.016332 0.195356 1.377412 0.039634 0.000920 -795421.000000 0 0 1
30.391362 5.832836 5.985672 31.519599 0.189618 1.379733 0.050185 -0.005014 -765863.000000 0 0 1
30.723832 7.099536 6.495972 32.195573 0.227090 1.367636 0.063455 -0.018930 592663.000000 0 0 1
32.139842 7.264936 6.686972 33.622378 0.222305 1.370577 0.023097 -0.006115 922062.000000 0 0 1
32.475932 8.433136 7.630772 34.409775 0.254062 1.347175 0.037175 -0.017212 -75797.700000 0 0 1
31.867902 8.288436 8.882772 34.105204 0.254450 1.307306 0.037683 -0.018010 -281982.000000 0 0 1
32.236802 9.298436 9.731372 34.933822 0.280819 1.288496 0.034140 -0.008696 -783363.000000 0 0 1
31.525492 9.353336 11.037072 34.686575 0.288418 1.246972 0.022509 -0.015857 -739763.000000 0 0 1
30.172892 9.763136 11.047172 33.582171 0.312941 1.235595 0.022001 -0.018077 -63392.000000 0 0 1
29.641742 9.391936 12.297972 33.437725 0.306841 1.194168 0.011665 -0.023147 -680099.000000 0 0 1
28.215282 9.929436 12.433472 32.392700 0.338382 1.176850 0.011421 -0.024791 -863423.000000 0 0 1
28.014092 11.368736 12.542772 32.731615 0.385515 1.177537 0.008630 -0.023340 100127.000000 0 0 1
28.131632 12.090736 11.356972 32.658160 0.405922 1.215623 0.017094 -0.025792 -283349.000000 0 0 1
26.974982 11.957236 10.319072 31.258733 0.417244 1.234368 0.009018 -0.024756 -334547.000000 0 0 1
26.990422 12.898136 9.268972 31.317066 0.445794 1.270323 0.002002 -0.009965 -175763.000000 0 0 1
25.859102 12.872636 8.444972 30.095107 0.461885 1.286367 -0.007885 -0.008288 -476450.000000 0 0 1
25.777702 14.009936 7.391772 30.255685 0.497832 1.323988 -0.016729 -0.002791 -60170.700000 0 0 1
25.652582 15.249736 8.021072 30.902216 0.536345 1.308227 -0.016941 0.001593 388129.000000 0 0 1
25.939972 16.307936 7.108072 31.454023 0.561241 1.342844 -0.023083 0.006744 -752039.000000 0 0 1
25.765622 17.747036 7.696172 32.218870 0.603161 1.329593 -0.013762 0.007017 1509270.000000 0 0 1
24.418682 18.296036 7.899672 31.518594 0.643030 1.317460 -0.010077 0.006587 2197230.000000 0 0 1
23.574182 17.551536 8.831572 30.688681 0.639987 1.278889 -0.004009 0.003354 -605697.000000 0 0 1
22.288082 18.235736 9.205672 30.233178 0.685730 1.261394 0.006894 -0.004732 -586773.000000 0 0 1
21.372382 18.428436 8.124072 29.366418 0.711566 1.290495 0.012366 -0.003308 434706.000000 0 0 1
20.408282 19.425736 8.427172 29.408747 0.760737 1.280169 0.049003 -0.012589 376262.000000 0 0 1
19.623082 19.913936 7.121672 28.850449 0.792755 1.321370 0.034387 -0.009527 252374.000000 0 0 1
20.467482 20.636436 6.271872 29.734099 0.789509 1.358268 0.023620 0.002287 34481.700000 0 0 1
19.796082 21.055336 5.103572 29.347205 0.816214 1.396004 0.028903 -0.000832 4457.680000 0 0 1
16.738103 17.351536 33.302807 41.113463 0.803391 0.626607 0.041453 0.012603 10926.500000 0 0 1
16.359703 18.028536 32.124615 40.307057 0.833889 0.648489 0.039387 0.006900 168865.000000 0 0 1
15.828903 17.159036 31.155705 38.931538 0.825698 0.643053 0.037873 0.002321 -10800.400000 0 0 1
15.458903 17.763836 29.785135 37.969538 0.854665 0.668990 0.048107 0.003678 721929.000000 0 0 1
16.601803 18.035236 28.985065 37.960817 0.826759 0.702000 0.038303 0.008232 553503.000000 0 0 1
16.072003 18.512536 27.755405 37.032226 0.855849 0.723500 0.047402 -0.007043 168238.000000 0 0 1
17.182603 18.989636 26.812365 37.077635 0.835313 0.762457 0.037835 -0.003189 -309778.000000 0 0 1
17.843503 20.159636 27.177475 38.254629 0.846269 0.780678 0.039946 -0.003781 -326655.000000 0 0 1
18.722103 20.538836 26.155055 38.163436 0.831638 0.815721 0.032013 -0.001235 -229250.000000 0 0 1
19.368903 21.913536 26.574705 39.516736 0.846960 0.833225 0.030574 -0.006208 -419360.000000 0 0 1
18.552303 23.018536 26.358275 39.608075 0.892424 0.842663 0.013653 -0.006069 -139015.000000 0 0 1
19.119603 24.158336 26.931045 40.920235 0.901304 0.852457 0.017269 -0.003371 -386838.000000 0 0 1
18.317603 25.441136 26.678695 41.164776 0.946774 0.865716 0.027550 -0.003720 -35438.600000 0 0 1
18.360403 25.871036 25.332485 40.597410 0.953597 0.896955 0.030886 -0.005884 56658.500000 0 0 1
17.347003 26.806836 25.143415 40.641313 0.996455 0.903752 0.029976 -0.009851 -394924.000000 0 0 1
17.423103 27.688536 23.862055 40.492187 1.009144 0.940604 0.019358 -0.009653 -514698.000000 0 0 1
18.488003 28.583336 23.974455 41.636376 0.996667 0.957207 0.029622 -0.013506 -123374.000000 0 0 1
18.475703 29.444236 22.876655 41.613171 1.010415 0.988737 0.031258 -0.004541 -584095.000000 0 0 1
19.847203 30.050936 22.663555 42.551227 0.987108 1.009105 0.035920 -0.006514 -1079050.000000 0 0 1
20.576403 29.594936 21.593455 42.018162 0.963253 1.031063 0.023858 -0.013366 -379097.000000 0 0 1
21.785803 30.339736 21.540755 43.117571 0.948051 1.047680 0.020883 -0.018057 348969.000000 0 0 1
22.367603 30.620536 20.111255 42.923065 0.939907 1.083157 0.015524 -0.017879 413493.000000 0 0 1
21.652403 31.635236 19.384855 42.957972 0.970590 1.102629 0.014998 -0.009509 235019.000000 0 0 1
21.927403 31.536436 17.989655 42.414449 0.963229 1.132785 0.019948 -0.001732 -128915.000000 0 0 1
21.413203 32.684736 17.070855 42.640724 0.990814 1.158907 0.026853 -0.010115 -459590.000000 0 0 1
22.063703 33.940336 17.290855 44.019621 0.994370 1.167123 0.035934 -0.007467 240443.000000 0 0 1
22.294303 -34.607320 16.090155 44.199498 -0.998504 1.198200 0.040434 -0.010425 545640.000000 0 0 1
23.360203 34.040936 15.098055 43.959478 0.969366 1.220204 0.023813 -0.008855 134120.000000 0 0 1
22.883903 32.980536 14.286855 42.608720 0.964202 1.228869 0.030622 -0.008840 -166423.000000 0 0 1
22.008103 33.361336 13.260655 42.109148 0.987640 1.250433 0.031679 -0.008199 -263573.000000 0 0 1
21.481403 32.155936 12.461155 40.629242 0.981845 1.259068 0.031497 -0.018002 -637087.000000 0 0 1
22.423503 31.583636 11.614455 40.438040 0.953409 1.279477 0.043625 -0.033618 -337667.000000 0 0 1
21.993503 30.339536 11.061055 39.071071 0.943546 1.283771 0.038507 -0.028061 -1374430.000000 0 0 1
23.162103 29.599436 10.455655 39.011926 0.906806 1.299468 0.037757 -0.027901 83221.900000 0 0 1
24.119103 29.193436 11.438355 39.557854 0.880293 1.277452 0.027477 -0.023059 699846.000000 0 0 1
25.135603 30.118036 11.857455 40.981629 0.875329 1.277263 0.023053 -0.022468 184058.000000 0 0 1
26.513503 29.434536 12.111855 41.425292 0.837561 1.274083 0.025276 -0.019208 397523.000000 0 0 1
26.666503 28.630536 13.271855 41.315277 0.820901 1.243764 0.027876 -0.008297 414996.000000 0 0 1
27.868303 27.866936 13.099755 41.530856 0.785374 1.249895 0.024761 0.005540 440410.000000 0 0 1
27.983003 26.658036 14.064755 41.128052 0.761154 1.221779 0.011271 -0.012571 -467376.000000 0 0 1
28.533503 27.092736 15.261055 42.202807 0.759503 1.200800 -0.009527 -0.007665 -141118.000000 0 0 1
28.845703 26.062336 16.171655 42.105135 0.734750 1.176587 0.009843 -0.015851 84382.100000 0 0 1
29.974503 26.548836 17.118655 43.547214 0.724866 1.166790 0.006745 -0.019377 1121330.000000 0 0 1
31.284503 26.741236 16.526755 44.350282 0.707260 1.188942 0.017813 -0.013437 194721.000000 0 0 1
32.209003 26.849936 17.544355 45.454849 0.694905 1.174534 -0.000291 -0.007147 -186807.000000 0 0 1
33.629103 27.040036 16.947855 46.360651 0.677216 1.196556 -0.004786 -0.015627 153627.000000 0 0 1
33.710003 28.296436 16.244355 46.914088 0.698312 1.217217 0.013061 -0.017392 956771.000000 0 0 1
-34.890175 28.485636 15.723955 47.707426 -0.684684 1.234926 0.025649 -0.021059 1194410.000000 0 0 1
-34.801475 29.600036 14.650255 47.978482 -0.704807 1.260490 0.015623 -0.017311 -7275.630000 0 0 1
34.921403 30.885936 15.155655 49.021825 0.724152 1.256485 0.020501 -0.013728 22134.600000 0 0 1
-34.955975 31.919436 14.154355 49.407654 -0.740023 1.280244 0.005746 -0.005161 -641307.000000 0 0 1
34.009403 33.011836 14.426455 49.543349 0.770515 1.275327 -0.012783 -0.004452 -866543.000000 0 0 1
33.613103 33.881436 13.359955 49.560880 0.789374 1.297853 -0.036867 -0.001291 519180.000000 0 0 1
32.387303 34.568436 13.571855 49.275850 0.817962 1.291763 -0.036678 0.009009 844164.000000 0 0 1
31.058403 33.787236 13.346455 47.794661 0.827455 1.287788 -0.031612 0.010005 -39362.000000 0 0 1
30.650603 32.935636 14.449755 47.254746 0.821319 1.260034 -0.024667 -0.005187 -152252.000000 0 0 1
29.791403 31.957236 13.980255 45.871998 0.820459 1.261103 -0.009417 -0.000781 -522323.000000 0 0 1
29.246203 30.935336 15.043555 45.151345 0.813458 1.231121 0.001803 -0.007923 25342.000000 0 0 1
28.378903 31.528736 15.978755 45.329284 0.837928 1.210551 -0.003576 -0.004898 -100845.000000 0 0 1
27.905603 30.537036 16.875455 44.676775 0.830394 1.183460 -0.001366 -0.001755 -138080.000000 0 0 1
27.019803 31.114436 17.980255 44.960732 0.855716 1.159377 -0.008030 -0.001291 -380801.000000 0 0 1
26.717603 30.176036 18.969755 44.545203 0.846111 1.130891 -0.017926 -0.002190 -90863.200000 0 0 1
27.466603 30.283336 20.162555 45.585341 0.834134 1.112631 -0.013659 -0.008883 -139809.000000 0 0 1
27.190703 29.177136 21.202555 45.168440 0.820624 1.082173 0.003620 -0.016188 -631686.000000 0 0 1
25.956603 29.191136 21.826055 44.746445 0.843983 1.061261 0.006559 -0.018614 -646215.000000 0 0 1
25.983503 28.283336 22.912155 44.721990 0.827753 1.032907 -0.002455 -0.017080 -468692.000000 0 0 1
24.740503 28.327536 23.790355 44.503065 0.852889 1.006788 0.013471 -0.019387 -707141.000000 0 0 1
23.608303 27.793436 23.123155 43.179942 0.866639 1.005689 0.012526 -0.014967 930198.000000 0 0 1
22.406603 27.788636 23.935955 42.978996 0.892212 0.980121 0.016061 -0.016897 733980.000000 0 0 1
22.282603 26.764336 25.076405 42.914685 0.876522 0.946740 0.036258 -0.017091 -31161.900000 0 0 1
23.364003 26.833036 26.025925 44.082165 0.854397 0.939247 0.019863 -0.019652 672062.000000 0 0 1
23.231003 25.742836 26.922495 43.899816 0.836643 0.910601 0.016045 -0.015104 129127.000000 0 0 1
24.503503 25.466936 27.794645 44.961414 0.804676 0.904360 0.032457 -0.016914 274160.000000 0 0 1
24.958703 26.540436 28.552415 46.287925 0.816102 0.906070 0.028257 -0.020397 442853.000000 0 0 1
25.947903 27.346036 27.923375 46.912837 0.811627 0.933259 0.008231 -0.013707 -512095.000000 0 0 1
26.079903 28.755236 28.413065 48.107455 0.834148 0.938973 -0.012569 -0.010628 -582759.000000 0 0 1
26.411303 28.659436 29.827065 49.077225 0.826198 0.917562 0.011833 -0.010113 365882.000000 0 0 1
26.768503 29.954536 30.282845 50.307829 0.841507 0.924854 0.015901 -0.011349 -1095160.000000 0 0 1
28.245803 30.193636 30.500755 51.378761 0.818717 0.935215 -0.001978 -0.007581 -837304.000000 0 0 1
28.979303 30.178436 29.295875 51.076279 0.805665 0.959938 -0.025362 -0.009301 -1312710.000000 0 0 1
30.294803 30.463236 29.588705 52.165844 0.788170 0.967689 -0.004108 -0.015716 -383723.000000 0 0 1
31.174503 30.806036 28.315575 52.178859 0.779453 0.997191 -0.009256 -0.005661 73326.600000 0 0 1
30.823503 32.093236 27.875685 52.508266 0.805577 1.011156 -0.016478 -0.007392 459374.000000 0 0 1
31.506403 32.421236 26.661055 52.484301 0.799708 1.037957 -0.001241 -0.011104 -54932.100000 0 0 1
31.322303 33.889736 26.290125 53.110936 0.824748 1.052957 -0.005275 -0.012663 -576668.000000 0 0 1
32.083303 -34.515920 27.025525 54.323715 -0.821908 1.050093 0.009164 -0.018683 -125428.000000 0 0 1
31.800503 -33.197120 26.695525 53.159870 -0.806882 1.044685 0.003680 -0.017503 -517615.000000 0 0 1
32.758303 -32.190320 27.314125 53.435798 -0.776653 1.034265 0.000981 -0.016721 -359490.000000 0 0 1
32.500403 -31.816120 28.645965 53.750656 -0.774759 1.008723 -0.001908 -0.013525 -339573.000000 0 0 1
33.520803 -31.060020 29.184655 54.222810 -0.747313 1.002454 -0.001869 -0.027868 -928678.000000 0 0 1
33.395603 -30.785120 30.729225 54.838629 -0.744747 0.975979 0.004100 -0.026076 -214593.000000 0 0 1
33.417003 -31.820020 31.656855 55.958612 -0.760923 0.969491 0.002605 -0.023454 479916.000000 0 0 1
32.209103 -32.570620 31.716945 55.715673 -0.790979 0.965186 0.004339 -0.025146 -273967.000000 0 0 1
32.210903 -33.464320 32.966365 56.957740 -0.804481 0.953557 0.013618 -0.017847 -373596.000000 0 0 1
31.947703 -32.680620 34.097402 57.020272 -0.796738 0.929809 0.002733 -0.021506 122286.000000 0 0 1
32.148803 -33.329120 -33.918488 57.400693 -0.803422 2.202979 0.002786 -0.017151 -316090.000000 0 0 1
31.432403 -34.644520 -33.513598 57.544765 -0.833972 2.192464 0.002817 -0.014379 -392209.000000 0 0 1
31.848603 33.547336 -34.273483 57.571077 0.811368 2.208466 0.002089 -0.016072 48166.500000 0 0 1
30.880403 32.519636 -34.297383 56.457386 0.811248 2.223695 0.010163 -0.011849 -153012.000000 0 0 1
31.173103 31.494236 33.892209 55.788270 0.790523 0.917868 0.001046 -0.007158 1055140.000000 0 0 1
32.379603 30.702836 34.096516 56.157593 0.758824 0.918318 -0.001996 -0.020163 819697.000000 0 0 1
32.518403 29.936236 32.906795 55.104282 0.744077 0.930824 -0.003082 -0.019771 618198.000000 0 0 1
33.870003 29.123636 32.811455 55.425219 0.710193 0.937264 -0.004711 -0.017466 674767.000000 0 0 1
34.105703 28.052836 33.688920 55.543712 0.688326 0.919108 -0.001583 -0.009766 -681967.000000 0 0 1
-34.598775 27.464336 33.588867 55.493936 -0.670946 0.920690 -0.020138 -0.013986 -846170.000000 0 0 1
-34.560775 26.099736 34.347675 55.275728 -0.646810 0.900283 -0.021989 -0.011563 -47720.000000 0 0 1
34.633503 25.124136 33.663523 54.442029 0.627589 0.904171 -0.026867 -0.008993 224922.000000 0 0 1
34.383603 24.058536 34.575787 54.373986 0.610531 0.881637 -0.032391 -0.012268 -242340.000000 0 0 1
33.989203 22.704836 33.939702 53.128889 0.588926 0.877835 -0.030195 -0.010787 -382896.000000 0 0 1
-34.859675 22.112436 33.295625 53.035416 -0.565278 0.892073 -0.021776 -0.013201 207061.000000 0 0 1
34.662903 20.972236 32.561225 51.976773 0.544113 0.893797 -0.012180 -0.004606 -64438.300000 0 0 1
-34.143175 20.340836 31.750575 50.868507 -0.537289 0.896728 -0.012766 -0.014855 -52327.600000 0 0 1
-33.752575 21.068036 30.588265 50.187054 -0.558017 0.915385 -0.012660 -0.017961 888323.000000 0 0 1
-32.517275 20.670636 29.961485 48.809209 -0.566244 0.909869 -0.000276 -0.016860 860755.000000 0 0 1
-32.806075 19.650236 28.827895 47.889642 -0.539670 0.924837 0.001716 -0.009975 -217543.000000 0 0 1
-33.541375 18.523036 29.272375 48.218239 -0.504565 0.918414 -0.007983 -0.005520 241841.000000 0 0 1
-33.849375 17.720736 28.209435 47.492914 -0.482284 0.934810 -0.013549 -0.006731 -529994.000000 0 0 1
-34.610675 16.448536 28.670925 47.858908 -0.443648 0.928455 -0.005493 -0.006363 -359908.000000 0 0 1
-33.904775 15.515836 29.530395 47.563843 -0.429181 0.900960 -0.002743 0.000174 388747.000000 0 0 1
-34.652675 14.323036 29.749255 47.864135 -0.391946 0.900095 0.004349 -0.006819 -394155.000000 0 0 1
-33.850875 13.111236 30.188575 47.213730 -0.369531 0.877075 0.001366 0.004461 -611705.000000 0 0 1
-33.330675 13.359236 31.529615 47.786187 -0.381204 0.850236 -0.003488 0.006657 977981.000000 0 0 1
-32.265575 12.466536 31.878495 47.039561 -0.368704 0.826172 0.007086 0.011303 542492.000000 0 0 1
-30.825475 12.803536 31.454615 45.864291 -0.393674 0.815067 0.000471 0.014192 -1217710.000000 0 0 1
-30.500575 12.295636 30.196975 44.646669 -0.383200 0.827994 0.006551 0.012182 1723360.000000 0 0 1
-29.106075 12.628736 29.886815 43.587501 -0.409374 0.815267 0.025093 0.015416 2204960.000000 0 0 1
-28.000375 11.718036 30.546655 43.063110 -0.396349 0.782226 0.014027 0.011539 -98753.000000 0 0 1
-27.820075 10.518936 29.826865 42.121805 -0.361491 0.783979 0.004834 0.010578 -368848.000000 0 0 1
-26.707475 9.777236 30.225615 41.502667 -0.350933 0.754986 -0.003865 0.007361 -305886.000000 0 0 1
-26.211875 8.740636 29.191165 40.194343 -0.321865 0.757944 -0.000918 0.000010 321638.000000 0 0 1
-26.947175 7.481736 29.085105 40.349349 -0.270823 0.765794 -0.001516 -0.003647 1436580.000000 0 0 1
-28.227875 7.606936 28.380235 40.744523 -0.263230 0.800231 0.006168 0.008967 1092580.000000 0 0 1
-28.904875 6.229636 28.376455 40.981988 -0.212275 0.805968 -0.002511 0.004134 -537739.000000 0 0 1
-29.115075 5.783036 29.714035 42.000654 -0.196075 0.784890 0.001226 0.005132 165375.000000 0 0 1
-29.671375 4.448536 29.730465 42.238377 -0.148818 0.789961 0.000210 0.000628 -73503.400000 0 0 1
-30.220675 4.126536 31.127095 43.579967 -0.135708 0.775241 0.003355 0.007860 -481032.000000 0 0 1
-31.327775 4.925136 31.428495 44.647920 -0.155937 0.789897 0.003439 0.005714 -458990.000000 0 0 1
-31.806275 4.531936 32.713665 45.851515 -0.141533 0.776359 0.008078 -0.001156 -139578.000000 0 0 1
-33.263075 4.970236 32.932815 47.071283 -0.148325 0.795907 0.016459 -0.005014 -232269.000000 0 0 1
-33.485375 6.341136 32.953395 47.406820 -0.187154 0.802211 0.009724 0.001189 276560.000000 0 0 1
-34.893675 6.537036 33.043385 48.499141 -0.185195 0.821233 -0.002785 0.013503 555979.000000 0 0 1
34.610503 7.969036 33.268577 48.664060 0.226305 0.818061 -0.001846 0.003294 -267485.000000 0 0 1
-34.825575 8.442536 34.482494 49.730669 -0.237835 0.804620 0.001672 -0.001867 473730.000000 0 0 1
34.618303 9.801836 34.613592 49.925982 0.275918 0.804741 0.002427 -0.007202 89996.400000 0 0 1
34.645903 10.285436 -33.201698 49.076283 0.288586 2.313840 0.003840 -0.019899 -595984.000000 0 0 1
33.661703 9.567536 -32.519518 47.772032 0.276923 2.319545 0.025949 -0.013969 -133548.000000 0 0 1
33.627303 9.938336 -31.132148 46.891115 0.287363 2.296851 0.018336 -0.008384 5131.940000 0 0 1
32.410803 9.435636 -30.309378 45.366836 0.283296 2.302443 -0.001808 -0.005454 265420.000000 0 0 1
32.538903 8.100936 -29.960298 44.966930 0.244001 2.299997 -0.016185 -0.008904 113932.000000 0 0 1
31.291803 7.594836 -29.529548 43.690419 0.238106 2.312956 0.000240 -0.011505 1272.760000 0 0 1
33.545842 6.061136 -19.844428 39.444419 0.178754 2.097977 -0.018464 0.005735 -964329.000000 0 0 1
33.069652 7.191336 -19.138728 38.879404 0.214127 2.085479 -0.031546 0.018387 17932.400000 0 0 1
33.607782 8.484636 -19.459328 39.750943 0.247293 2.082348 -0.042086 0.015376 861998.000000 0 0 1
-34.806692 8.561136 -18.989128 40.563355 -0.241175 2.057975 -0.027180 0.009683 1364170.000000 0 0 1
-33.939837 7.717836 -19.748528 40.018519 -0.223595 2.086888 -0.017840 -0.005792 85762.000000 0 0 1
-33.484647 8.330636 -21.009628 40.398335 -0.243839 2.117720 -0.017566 -0.003329 -169881.000000 0 0 1
-32.620827 7.323336 -21.868128 39.949525 -0.220837 2.150043 -0.007946 -0.002590 -3908.550000 0 0 1
-33.234177 6.211736 -22.416928 40.566178 -0.184776 2.156279 -0.004647 -0.001454 109077.000000 0 0 1
-34.203068 6.409336 -23.454728 41.964910 -0.185242 2.163871 -0.009170 -0.003384 402634.000000 0 0 1
-33.983167 5.394536 -24.658128 42.331783 -0.157428 2.192593 -0.000174 -0.009591 -278109.000000 0 0 1
-32.783457 5.588036 -25.362768 41.824050 -0.168830 2.222342 0.004663 -0.010974 -308955.000000 0 0 1
-32.451487 4.400236 -26.052298 41.847142 -0.134772 2.242804 0.018111 -0.015409 681912.000000 0 0 1
-30.985337 4.318936 -26.611028 41.071780 -0.138494 2.275640 0.033444 -0.015531 311112.000000 0 0 1
-29.996307 4.301236 -25.645718 39.698638 -0.142421 2.273142 0.033969 -0.012899 39803.500000 0 0 1
-28.788847 3.751336 -26.224518 39.122826 -0.129575 2.305426 0.037870 -0.011376 433473.000000 0 0 1
-27.503597 4.198636 -25.541268 37.768144 -0.151488 2.313477 0.015972 -0.003494 -557063.000000 0 0 1
-27.305577 5.597936 -25.616188 37.856578 -0.202209 2.314019 0.003775 0.005478 -376408.000000 0 0 1
-26.041557 5.956936 -25.154068 36.692981 -0.224878 2.326125 0.004278 0.006446 -745617.000000 0 0 1
-25.699357 7.438636 -25.349468 36.856285 -0.281748 2.329240 -0.003812 0.000362 47460.900000 0 0 1
-26.249827 8.444136 -24.433928 36.842552 -0.311229 2.295881 -0.003108 0.002400 -75095.300000 0 0 1
-25.866907 9.714636 -24.940428 37.222251 -0.359264 2.305060 -0.013475 -0.008129 -279273.000000 0 0 1
-24.548497 10.301536 -24.446928 36.144192 -0.397322 2.313622 -0.001999 -0.003008 -284865.000000 0 0 1
-24.638497 10.729236 -23.089528 35.430189 -0.410702 2.280608 -0.009826 -0.001353 456632.000000 0 0 1
-23.300397 10.885536 -22.636028 34.260664 -0.437051 2.292547 0.005466 0.001671 21086.600000 0 0 1
-23.225997 11.240336 -21.138928 33.356354 -0.450729 2.257162 0.013207 -0.005336 -990849.000000 0 0 1
-23.593797 12.537336 -20.741828 33.824184 -0.488437 2.230933 0.014848 -0.009933 1178570.000000 0 0 1
-24.925697 13.039736 -20.970628 35.086925 -0.481991 2.211396 0.008694 -0.008201 442186.000000 0 0 1
-26.109567 12.301436 -20.336728 35.307468 -0.440300 2.184610 0.004360 -0.004116 -1121600.000000 0 0 1
-26.138727 12.304236 -18.905628 34.526077 -0.439957 2.150260 0.014512 -0.008162 757568.000000 0 0 1
-27.130797 11.427036 -18.293428 34.659873 -0.398633 2.126803 0.015671 -0.007419 -250672.000000 0 0 1
-26.994827 11.131636 -16.769928 33.672904 -0.391117 2.092115 0.033319 -0.008866 -83720.200000 0 0 1
-25.989437 10.228136 -16.335028 32.355814 -0.374933 2.100011 0.035015 -0.012701 946264.000000 0 0 1
-24.639297 10.673736 -16.534228 31.534176 -0.408795 2.122721 0.023793 -0.008565 -363562.000000 0 0 1
-23.843897 9.369836 -16.631528 30.543951 -0.374428 2.146603 0.022435 -0.003226 -1486540.000000 0 0 1
-22.475897 9.553036 -16.554828 29.504046 -0.401900 2.166515 0.027829 0.003251 -721908.000000 0 0 1
-21.831897 8.350036 -16.243328 28.464021 -0.365303 2.178108 0.024245 0.001430 -195322.000000 0 0 1
-20.341597 8.560336 -15.919528 27.211969 -0.398333 2.195700 0.031462 0.003556 -228409.000000 0 0 1
-19.534997 8.940436 -17.009028 27.401725 -0.429208 2.240468 0.034078 -0.002625 47025.100000 0 0 1
-18.171497 8.869436 -16.649328 26.192944 -0.454079 2.259636 0.050988 -0.008935 323159.000000 0 0 1
-17.144097 9.138136 -17.827528 26.367524 -0.489713 2.313276 0.037545 -0.002879 376132.000000 0 0 1
-17.037997 8.203436 -18.854628 26.703683 -0.448721 2.354727 0.049227 -0.004889 -56798.400000 0 0 1
-16.053897 7.251636 -18.592028 25.612054 -0.424271 2.383152 0.051142 -0.010240 -703747.000000 0 0 1
-15.732497 6.481236 -19.930628 26.205873 -0.390778 2.434941 0.027175 -0.010958 155283.000000 0 0 1
-16.745197 5.625536 -20.496828 27.058607 -0.324103 2.430268 0.031840 0.000581 267604.000000 0 0 1
-17.581197 6.381036 -21.355528 28.387931 -0.348162 2.422304 0.041038 -0.006286 -229584.000000 0 0 1
-18.497597 5.473136 -22.218628 29.424203 -0.287676 2.426624 0.031922 0.004011 -49259.800000 0 0 1
-19.486797 4.815436 -21.458028 29.383169 -0.242259 2.389532 0.021020 0.004662 298754.000000 0 0 1
-20.056697 3.670036 -22.126228 30.088373 -0.180981 2.397016 0.004305 0.015303 -351093.000000 0 0 1
-21.079697 3.048036 -21.186428 30.041785 -0.143601 2.353547 0.018541 0.006752 -318556.000000 0 0 1
-21.618097 1.776236 -21.655928 30.650878 -0.081980 2.355387 0.022013 0.011004 662202.000000 0 0 1
-22.359597 1.209136 -20.551828 30.393933 -0.054024 2.313364 0.037943 0.005786 -119060.000000 0 0 1
-22.792297 -0.257364 -20.840528 30.884990 0.011291 2.311461 0.037352 0.020308 -74069.200000 0 0 1
-21.751397 -1.206364 -20.848528 30.153601 0.055405 2.334236 0.017273 0.010535 126360.000000 0 0 1
-22.172097 -2.472364 -21.403828 30.916635 0.111049 2.335479 0.023930 0.003323 5512.180000 0 0 1
-22.581297 -2.576664 -22.959728 32.306396 0.113615 2.361270 0.026707 0.001410 873104.000000 0 0 1
-21.512297 -2.434864 -23.921028 32.263339 0.112705 2.405996 0.002426 0.002510 1397020.000000 0 0 1
-20.440397 -3.426564 -23.907628 31.640572 0.166093 2.427366 -0.024017 -0.008073 1446860.000000 0 0 1
-19.533197 -3.321864 -25.231648 32.081406 0.168451 2.475898 -0.009382 -0.011326 762215.000000 0 0 1
-20.254497 -3.702564 -26.431808 33.505135 0.180806 2.479794 -0.008672 -0.012048 907321.000000 0 0 1
-19.408497 -3.568664 -27.583768 33.915916 0.181840 2.520595 -0.013521 -0.016270 204364.000000 0 0 1
-20.274897 -3.733864 -28.854518 35.462605 0.182121 2.521217 -0.008752 -0.018406 29469.300000 0 0 1
-20.894697 -5.002164 -28.963308 36.062213 0.234976 2.503357 -0.005817 -0.011704 79078.300000 0 0 1
-21.466697 -5.163964 -30.231438 37.435617 0.236072 2.510796 -0.009928 -0.023424 -416516.000000 0 0 1
-21.030697 -6.506064 -30.837168 37.888652 0.300022 2.521611 0.002067 -0.023209 99464.600000 0 0 1
-19.717497 -6.481964 -31.353288 37.600853 0.317612 2.556834 0.004869 -0.028010 64154.400000 0 0 1
-19.189497 -7.755464 -31.698448 37.857306 0.384080 2.563148 0.008117 -0.027309 -96663.200000 0 0 1
-17.798097 -7.618464 -32.363478 37.712172 0.404451 2.602492 0.018240 -0.025181 -918311.000000 0 0 1
-17.727597 -7.011764 -33.654058 38.678523 0.376645 2.626195 0.006299 -0.026210 223823.000000 0 0 1
-18.086097 -7.942464 -34.634415 39.871447 0.413792 2.623271 0.011459 -0.026534 -610137.000000 0 0 1
-17.978897 -7.494264 33.181365 38.476067 0.394936 0.530825 0.011753 -0.024230 -359771.000000 0 0 1
-16.685697 -7.235764 32.697895 37.415519 0.409175 0.507602 0.019928 -0.022353 -20890.500000 0 0 1
-16.327197 -5.832264 32.791815 37.093069 0.343085 0.486357 0.004529 -0.022270 364813.000000 0 0 1
-15.034397 -5.528164 31.988305 35.774926 0.352356 0.464257 0.009672 -0.021931 291936.000000 0 0 1
-15.431097 -5.499764 30.586445 34.697215 0.342372 0.491715 0.014324 -0.023482 386990.000000 0 0 1
-14.375397 -5.007664 29.801355 33.464152 0.335204 0.472253 0.021990 -0.017143 -141741.000000 0 0 1
-14.688297 -5.004764 28.307925 32.282075 0.328394 0.501436 0.020228 -0.013982 -42080.900000 0 0 1
-15.738797 -4.107064 28.028965 32.406798 0.255259 0.525825 0.011191 -0.014238 -222103.000000 0 0 1
-16.250997 -4.184964 26.716365 31.549532 0.252044 0.560843 0.012287 -0.006684 273245.000000 0 0 1
-15.345797 -3.710564 25.485695 29.979700 0.237243 0.554624 0.006765 -0.003744 434169.000000 0 0 1
-15.181297 -2.288364 25.493925 29.759849 0.149609 0.542046 -0.000731 0.001111 -311863.000000 0 0 1
-14.085197 -1.905064 24.724085 28.518457 0.134437 0.521746 -0.009045 0.006631 -184828.000000 0 0 1
-13.870297 -0.362564 24.830705 28.444340 0.026134 0.509563 -0.006122 0.006640 -376247.000000 0 0 1
-14.887597 0.209136 24.057455 28.292144 -0.014047 0.554198 -0.007214 0.004448 -145310.000000 0 0 1
-15.082197 1.585136 24.448045 28.769640 -0.104715 0.555217 -0.016839 0.008833 -596262.000000 0 0 1
-15.896697 2.413936 23.457655 28.439297 -0.150700 0.600891 -0.013527 0.004330 -560204.000000 0 0 1
-15.003297 2.995236 22.594555 27.287071 -0.197048 0.595209 -0.026572 0.009258 3162.840000 0 0 1
-15.657097 3.813036 21.687555 27.019141 -0.238884 0.639032 -0.035366 0.010965 -205487.000000 0 0 1
-14.590297 4.389536 20.737855 25.733313 -0.292239 0.633643 -0.017959 0.009593 123357.000000 0 0 1
-13.853597 5.390836 21.408055 26.063155 -0.371100 0.606950 -0.024945 0.009373 -759865.000000 0 0 1
-12.656797 5.518636 20.725755 24.903951 -0.411169 0.587683 -0.018657 0.005966 -758852.000000 0 1 0
-11.805397 6.732536 21.133255 25.125861 -0.518290 0.571490 -0.014830 0.009817 -135916.000000 0 0 1
-12.145697 7.935536 20.467955 25.088401 -0.578735 0.616627 -0.012328 0.001179 201008.000000 0 0 1
-11.308897 9.017536 20.871455 25.393399 -0.673144 0.606015 -0.011070 0.006144 -77048.500000 0 0 1
-11.969697 10.408236 20.918555 26.252447 -0.715734 0.648777 -0.010696 0.006499 -368370.000000 0 0 1
-12.217797 10.979036 19.632555 25.597871 -0.732047 0.696705 -0.012303 -0.000196 148001.000000 0 0 1
-12.853897 12.206136 19.786655 26.565469 -0.759556 0.730522 -0.022162 0.007376 -792250.000000 0 0 1
-13.258197 12.893236 18.490355 26.151645 -0.771443 0.785487 -0.017247 0.006057 325277.000000 0 0 1
-12.112797 13.440936 17.798055 25.380098 -0.837326 0.793633 -0.018008 0.003715 797320.000000 0 0 1
-11.653497 14.650936 18.316355 26.190509 -0.898861 0.796307 -0.017935 0.006220 -625025.000000 0 0 1
-12.456397 15.882136 17.826055 26.929023 -0.905701 0.847360 -0.028387 0.010187 -45514.500000 0 0 1
-12.464697 16.130936 16.403855 26.166051 -0.912912 0.893211 -0.025725 0.010462 367220.000000 0 0 1
-13.441697 15.349936 15.706255 25.748518 -0.851579 0.914752 -0.001316 0.005879 -101999.000000 0 0 1
-13.756997 15.767736 14.213555 25.296276 -0.853397 0.974136 -0.009057 0.007585 -177085.000000 0 0 1
-14.563197 16.898836 14.157255 26.421302 -0.859499 1.005309 -0.017877 0.003703 -282073.000000 0 0 1
-14.992797 17.322236 12.880855 26.282318 -0.857359 1.058597 -0.015959 0.011276 28377.400000 0 0 1
-16.063897 18.420936 13.073055 27.717944 -0.853642 1.079640 0.002100 0.008006 970426.000000 0 0 1
-17.369997 17.887036 13.406755 28.309078 -0.800062 1.077440 0.011491 0.006521 687049.000000 0 0 1
-18.380897 18.851036 13.564855 29.617971 -0.798025 1.095059 0.021684 0.000582 941580.000000 0 0 1
-19.767197 18.141436 13.855655 30.196571 -0.742538 1.094097 0.023675 -0.000497 856152.000000 0 0 1
-20.279797 17.541936 12.693255 29.666621 -0.713136 1.128669 0.023013 0.004784 -126064.000000 0 0 1
-21.592497 17.083736 12.957055 30.429841 -0.669345 1.130949 0.031714 -0.003749 -11756.100000 0 0 1
-22.305797 16.372536 11.802155 30.081545 -0.633185 1.167624 0.025879 -0.004448 -361196.000000 0 0 1
-21.875497 15.057936 11.511255 28.944564 -0.602862 1.161788 0.032263 -0.004364 191243.000000 0 0 1
-22.382797 14.515136 10.299655 28.596532 -0.575317 1.202345 0.028334 0.005064 -168660.000000 0 0 1
-21.583197 13.256336 9.922155 27.203198 -0.550793 1.197440 0.026135 0.001483 -397544.000000 0 0 1
-21.860697 12.049236 10.654355 27.140181 -0.503751 1.167375 0.022820 -0.005196 -61937.900000 0 0 1
-23.099597 11.376136 10.531455 27.819406 -0.457615 1.182551 0.027455 0.002614 -481022.000000 0 0 1
-23.372597 10.671036 9.210955 27.294523 -0.428297 1.226573 0.015393 0.016663 -315083.000000 0 0 1
-23.659497 11.659236 8.230155 27.630509 -0.457865 1.268341 0.014423 0.006322 289789.000000 0 0 1
-24.992097 11.543136 7.756855 28.601008 -0.432682 1.296147 0.022371 0.011349 -211897.000000 0 0 1
-25.532467 12.736536 6.985055 29.375452 -0.462717 1.330711 0.015823 0.023174 -274765.000000 0 0 1
-24.924297 13.050636 5.696655 28.705253 -0.482357 1.371017 0.022806 0.003968 753782.000000 0 0 1
-23.633597 13.607936 5.484455 27.817298 -0.522426 1.372336 0.019236 0.002593 207260.000000 0 0 1
-23.541697 15.165436 5.709155 28.579650 -0.572283 1.369680 0.017690 0.005111 -360478.000000 0 0 1
-22.221597 15.656236 5.839155 27.803108 -0.613773 1.359203 0.007178 0.004216 405204.000000 0 0 1
-22.166797 16.959936 6.304255 28.613807 -0.653099 1.348652 0.006503 -0.000242 -200145.000000 0 0 1
-20.786697 17.647936 6.393255 28.007322 -0.703914 1.340495 -0.003760 0.007157 -63149.900000 0 0 1
-20.225197 17.999136 5.146355 27.559253 -0.727227 1.382956 -0.006643 -0.002466 1086660.000000 0 0 1
-18.846897 18.400336 5.242955 26.856404 -0.773410 1.374313 -0.004647 0.003662 645151.000000 0 0 1
-18.352497 19.332936 4.156955 26.978822 -0.811409 1.416098 0.012801 -0.007126 186404.000000 0 0 1
-16.956597 19.635736 4.286655 26.295697 -0.858484 1.407048 -0.003314 -0.006180 824010.000000 0 0 1
-16.521797 20.611636 3.342855 26.626753 -0.895095 1.444919 0.011091 -0.002064 7075.220000 0 0 1
-16.804797 22.094636 3.837355 28.023194 -0.920557 1.433430 0.014206 -0.004210 -211585.000000 0 0 1
-16.083597 22.573836 4.984255 28.162083 -0.951738 1.392874 0.016580 -0.002209 109068.000000 0 0 1
-16.461897 23.859136 5.376655 29.481534 -0.966839 1.387396 0.010174 -0.006586 -93835.900000 0 0 1
-15.828797 24.294136 6.733155 29.767284 -0.993334 1.342629 0.002976 0.002390 -12601.600000 0 0 1
-16.443897 23.697236 7.816055 29.883966 -0.964165 1.306172 0.001418 0.008691 397447.000000 0 0 1
-15.597897 23.762736 8.983655 29.810536 -0.989934 1.264679 0.009134 0.005052 448491.000000 0 0 1
-16.251997 23.077236 10.192955 30.009707 -0.957228 1.224246 0.006476 0.015293 -70075.300000 0 0 1
-17.358397 23.764036 10.692455 31.310891 -0.939926 1.222291 0.007856 0.008189 -35044.900000 0 0 1
-18.283597 22.918036 11.384555 31.450506 -0.897409 1.200402 0.002976 0.009636 1379640.000000 0 0 1
-19.574897 23.662436 11.947655 32.951994 -0.879655 1.199764 0.001223 0.005916 1097710.000000 0 0 1
-20.523897 24.214636 11.056855 33.612988 -0.867708 1.235609 -0.005765 0.017084 188573.000000 0 0 1
-20.078197 25.417836 10.498255 34.050165 -0.902229 1.257373 -0.004816 0.011047 380759.000000 0 0 1
-21.209197 26.375136 9.901355 35.263503 -0.893539 1.286188 -0.004758 0.007420 826652.000000 0 0 1
-21.875597 27.099536 10.937255 36.504111 -0.891662 1.266505 -0.001968 -0.001858 156792.000000 0 0 1
-22.861097 27.999636 10.534155 37.650734 -0.886088 1.287225 -0.009479 0.001770 -373881.000000 0 0 1
-23.578597 28.629936 11.748955 38.905801 -0.881851 1.264023 -0.012946 0.006416 -150249.000000 0 0 1
-22.886397 29.695136 12.375255 39.480820 -0.914171 1.251973 -0.007821 0.002263 388008.000000 0 0 1
-23.528897 30.043336 13.610855 40.515014 -0.906405 1.228187 -0.005925 0.006236 62192.900000 0 0 1
7.918003 -33.208320 27.675555 43.947965 -1.336732 0.889585 -0.023907 -0.022223 394574.000000 0 0 1
9.347203 -33.279020 27.721545 44.309676 -1.296978 0.894855 -0.016195 -0.021055 715103.000000 0 0 1
9.858703 -32.784120 26.525355 43.308048 -1.278683 0.911601 -0.008807 -0.025362 -979487.000000 0 0 1
11.333203 -33.110520 26.377905 43.823987 -1.241012 0.924911 -0.012878 -0.014794 -912583.000000 0 0 1
11.593603 -34.503320 26.384315 44.955787 -1.246635 0.943578 0.002190 -0.022484 -572596.000000 0 0 1
12.974603 -34.644020 26.522025 45.518856 -1.212454 0.948798 0.019450 -0.021615 -626608.000000 0 0 1
13.413603 33.182336 26.236845 44.377519 1.186641 0.938227 0.042067 -0.015223 -118730.000000 0 0 1
13.500303 32.909036 24.852485 43.392497 1.181501 0.960956 0.031988 -0.012810 -185978.000000 0 0 1
14.635803 32.169236 24.509225 43.008936 1.143823 0.964457 0.037016 -0.011135 -785060.000000 0 0 1
14.833803 32.041636 22.977055 42.126633 1.137222 0.993896 0.036700 -0.014471 -310128.000000 0 0 1
14.013003 31.156136 22.245855 40.766986 1.148136 0.993592 0.020663 -0.005123 -242485.000000 0 0 1
14.279403 29.752736 22.478555 39.930090 1.123329 0.972848 0.016902 -0.003475 -19995.700000 0 0 1
13.702103 29.034236 23.735355 39.926201 1.129856 0.934177 0.019527 -0.000032 -367018.000000 0 0 1
14.501303 29.076836 24.907965 40.940895 1.108170 0.916768 0.024235 -0.007015 -216801.000000 0 0 1
13.855103 28.697036 26.097395 41.189292 1.120998 0.884603 0.024514 -0.003800 -443875.000000 0 0 1
14.551703 29.001036 27.441565 42.495313 1.105738 0.868785 0.028917 -0.017780 -68377.500000 0 0 1
14.536103 30.342736 27.860705 43.682935 1.124038 0.879166 0.031566 -0.021226 421808.000000 0 0 1
15.394503 30.476036 28.998155 44.795898 1.103049 0.866708 0.066773 -0.026221 197218.000000 0 0 1
15.433603 31.942236 29.417435 46.085660 1.120701 0.878481 0.076382 -0.033228 -47060.500000 0 0 1
16.086603 32.801336 28.513185 46.343372 1.114838 0.908082 0.069617 -0.026981 39005.600000 0 0 1
16.018003 34.115736 29.033055 47.574974 1.131829 0.914409 0.077164 -0.020487 40539.200000 0 0 1
16.758103 -34.102320 28.194925 47.315494 -1.114047 0.932420 0.080503 -0.031262 240507.000000 0 0 1
16.104503 -33.869120 26.877455 46.139678 -1.126946 0.948966 0.083699 -0.030210 426622.000000 0 0 1
16.349803 -32.585620 26.272435 44.937507 -1.105750 0.946355 0.061106 -0.028801 804612.000000 0 0 1
17.852603 -32.244220 25.919305 45.057913 -1.065141 0.957894 0.058912 -0.017524 579376.000000 0 0 1
18.671503 -31.966720 26.991525 45.815266 -1.042156 0.940804 0.047213 -0.013866 -679958.000000 0 0 1
19.662303 -31.059920 26.592585 45.370589 -1.006433 0.944535 0.043011 -0.014415 -262310.000000 0 0 1
20.255403 -30.290820 27.754255 45.805172 -0.981389 0.919875 0.046928 -0.009423 72551.300000 0 0 1
19.213803 -29.479520 28.314415 45.165456 -0.993179 0.893223 0.033726 -0.003265 485329.000000 0 0 1
19.566803 -28.727120 29.416465 45.534993 -0.972850 0.868439 0.038867 0.003491 -230492.000000 0 0 1
18.374503 -28.025020 30.113255 45.053659 -0.990462 0.838759 0.015894 0.002024 75270.100000 0 0 1
17.786503 -26.970720 29.397565 43.680616 -0.987789 0.832523 0.038361 0.003357 -878941.000000 0 0 1
16.673503 -26.523720 30.056775 43.415701 -1.009594 0.806122 0.015511 0.001956 -629674.000000 0 0 1
15.703603 -25.673720 29.162635 41.907068 -1.021847 0.801140 0.018089 0.009191 -65268.500000 0 0 1
14.989303 -26.376320 28.164985 41.396326 -1.054022 0.822523 0.017710 -0.000131 579536.000000 0 0 1
14.157903 -25.613820 27.277225 40.007012 -1.065848 0.820561 0.015340 -0.009638 -1116860.000000 0 0 1
12.757303 -25.286020 27.740835 39.644489 -1.103539 0.795763 -0.007470 0.001413 -1040020.000000 0 0 1
11.873203 -26.377120 27.680165 40.036445 -1.147832 0.807407 -0.007771 0.001015 139668.000000 0 0 1
11.380803 -26.678820 26.367185 39.198349 -1.167583 0.832998 -0.005423 -0.001706 -811926.000000 0 0 1
10.610703 -28.027720 26.254635 39.842765 -1.208892 0.851366 -0.004593 -0.008622 -594779.000000 0 0 1
9.344003 -28.049820 26.821775 39.918797 -1.249236 0.834014 -0.026791 -0.008314 -757227.000000 0 0 1
8.776003 -29.309420 26.617895 40.553331 -1.279866 0.854802 -0.018886 -0.016176 -612871.000000 0 0 1
7.280603 -29.341220 27.036195 40.556999 -1.327573 0.841128 -0.024635 -0.012760 357842.000000 0 0 1
6.279503 -29.119920 26.039155 39.565635 -1.358406 0.852470 -0.018144 -0.009675 389220.000000 0 0 1
6.403703 -27.911720 25.335615 38.235649 -1.345272 0.846488 -0.004193 -0.007487 -760061.000000 0 0 1
5.065803 -27.593020 24.606515 37.316453 -1.389228 0.850774 -0.002039 -0.006338 40069.000000 0 0 1
4.696903 -28.401720 23.450355 37.130011 -1.406906 0.887214 -0.012377 0.007910 -134393.000000 0 0 1
3.941103 -29.559420 23.650055 38.060697 -1.438250 0.900297 -0.002600 0.003388 -474309.000000 0 0 1
2.493903 -29.426120 24.181055 38.168567 -1.486247 0.884685 -0.016339 0.000179 -16382.100000 0 0 1
1.604303 -28.957520 23.119855 37.089613 -1.515451 0.897775 -0.020460 0.007389 720555.000000 0 0 1
0.397803 -28.362320 23.593555 36.894922 -1.556771 0.876975 -0.017769 -0.008946 394722.000000 0 0 1
0.501003 -26.932120 24.129155 36.163603 -1.552196 0.840323 -0.001917 -0.010559 -515512.000000 0 0 1
1.306103 -26.790820 25.279855 36.858174 -1.522083 0.815000 0.000871 -0.015725 -44395.400000 0 0 1
1.218403 -25.497720 25.853635 36.332198 -1.523048 0.779037 0.010181 -0.020259 434227.000000 0 0 1
2.546103 -25.093020 26.606565 36.661309 -1.469676 0.758687 0.012584 -0.016034 783084.000000 0 0 1
3.618603 -24.873120 25.695925 35.945054 -1.426327 0.774363 -0.000798 -0.008696 601945.000000 0 0 1
4.673103 -23.971420 26.096885 35.742331 -1.378266 0.752270 0.004562 -0.009506 544862.000000 0 0 1
4.385903 -22.491420 26.321065 34.898403 -1.378210 0.716331 0.001788 0.002582 -595492.000000 0 0 1
3.990603 -21.852920 25.148515 33.554773 -1.390175 0.723525 -0.000882 0.008276 -81135.200000 0 0 1
3.482103 -20.595220 25.492775 32.957089 -1.403307 0.686429 0.005292 0.002371 -196080.000000 0 0 1
3.548803 -19.537420 24.372445 31.437571 -1.391114 0.683662 0.000706 0.001746 -422230.000000 0 0 1
4.817803 -19.034720 24.065055 31.058954 -1.322896 0.684368 0.008942 0.007751 -461440.000000 0 0 1
4.799403 -18.057720 23.074555 29.690918 -1.311021 0.680658 0.010433 0.009991 514378.000000 0 0 1
6.237503 -17.655120 22.625255 29.368552 -1.231187 0.691343 0.011689 0.006092 -564021.000000 0 0 1
6.853803 -18.614920 21.791555 29.467978 -1.218011 0.738470 -0.005467 0.011145 967121.000000 0 0 1
8.135303 -18.149820 21.278455 29.126822 -1.149415 0.751677 -0.016810 0.005129 1739640.000000 0 0 1
9.341003 -18.001620 22.282255 30.129911 -1.092145 0.738411 -0.014382 0.011319 -449492.000000 0 0 1
9.219003 -17.127020 23.397055 30.426091 -1.077002 0.693552 -0.003406 0.020625 270584.000000 0 0 1
10.211503 -17.401920 24.413655 31.672198 -1.040137 0.690664 -0.008705 0.018901 375915.000000 0 0 1
10.120503 -16.519020 25.731755 32.209095 -1.021122 0.645337 -0.000177 -0.000826 -332857.000000 0 0 1
10.456503 -15.172620 25.581735 31.527322 -0.967376 0.624228 0.006516 0.006434 190365.000000 0 0 1
10.471303 -14.536520 26.855435 32.282704 -0.946546 0.588304 -0.001055 0.000551 -110991.000000 0 0 1
10.852703 -13.064420 26.658605 31.609199 -0.877610 0.567251 0.012881 0.002427 156004.000000 0 0 1
9.798103 -12.301620 26.075075 30.450652 -0.898200 0.542722 0.021666 0.002902 630338.000000 0 0 1
10.213503 -10.950220 26.020965 30.021885 -0.820194 0.522181 0.024791 0.010410 -297267.000000 0 0 1
9.218103 -10.148620 25.201185 28.689155 -0.833408 0.498246 0.026052 0.008107 -46513.300000 0 0 1
7.956803 -10.027620 25.860025 28.854891 -0.900038 0.459646 0.006234 0.011025 -226176.000000 0 0 1
7.118303 -9.521820 24.874605 27.569571 -0.928847 0.445841 0.007243 0.015019 -433748.000000 0 0 1
5.618303 -9.394220 25.205165 27.479393 -1.031805 0.409704 -0.002704 0.007192 -890611.000000 0 0 1
5.364203 -8.354420 26.134455 27.956766 -1.000009 0.363053 0.004113 0.009690 248586.000000 0 0 1
4.045003 -8.173120 26.628305 28.146555 -1.111225 0.329948 -0.010346 0.012046 144384.000000 0 0 1
2.897003 -8.018020 25.651345 27.030959 -1.224080 0.320869 -0.012253 0.013787 -942998.000000 0 0 1
2.963503 -6.823820 25.002015 26.085391 -1.161085 0.289215 0.000573 0.007674 547407.000000 0 0 1
1.742203 -6.626220 24.271975 25.220445 -1.313690 0.275119 0.000969 -0.000912 448538.000000 0 0 1
1.786203 -5.367720 23.411255 24.085053 -1.249555 0.237096 0.002323 -0.009953 -444438.000000 0 1 0
1.667903 -4.134320 24.120255 24.528783 -1.187338 0.182765 0.015417 -0.002290 -32744.300000 0 1 0
1.927903 -3.017320 23.305955 23.579410 -1.002231 0.152445 0.010124 -0.012713 -641882.000000 0 1 0
0.779603 -2.498320 22.373855 22.526402 -1.268320 0.116444 0.003741 -0.017856 755790.000000 0 1 0
-0.340697 -1.820320 22.919155 22.993854 1.385774 0.080627 0.006340 -0.020880 100142.000000 0 1 0
-1.148997 -2.579320 23.775055 23.942145 1.151720 0.118212 0.029891 -0.015424 -150496.000000 0 1 0
-2.257197 -1.653320 24.429345 24.589048 0.632185 0.114035 0.019449 -0.013584 327168.000000 0 1 0
-1.631497 -0.762320 25.307775 25.371764 0.437107 0.071037 0.031384 -0.018344 -72136.400000 0 0 1
-2.336297 0.416680 25.497225 25.607428 -0.176495 0.092808 0.038416 -0.022677 -674120.000000 0 0 1
-1.705097 1.338680 26.617475 26.705606 -0.665593 0.081264 0.054837 -0.025776 21304.200000 0 0 1
-1.687897 0.957680 28.005535 28.072694 -0.516090 0.069185 0.035669 -0.011830 505596.000000 0 0 1
-0.944097 -0.252320 28.320025 28.336880 0.261157 0.034493 0.039593 -0.017955 -826269.000000 0 0 1
0.263403 -0.089320 29.291635 29.292955 -0.326930 0.009495 0.050311 -0.018307 334820.000000 0 0 1
1.373703 0.634680 28.784145 28.823894 0.432806 0.052523 0.052820 -0.014414 255010.000000 0 0 1
1.965403 0.141680 27.573365 27.643685 0.071963 0.071343 0.040647 -0.015201 -878454.000000 0 0 1
3.120103 -0.854320 27.821005 28.008449 -0.267261 0.115757 0.029077 -0.014335 -264341.000000 0 0 1
2.544403 -2.079320 28.266985 28.457336 -0.685149 0.115728 0.029827 -0.009648 747774.000000 0 0 1
3.474703 -3.170320 28.537355 28.922398 -0.739624 0.163356 0.016844 0.007000 719444.000000 0 0 1
4.091003 -3.934320 27.297215 27.881053 -0.765877 0.205006 0.018115 -0.001843 551351.000000 0 0 1
5.065803 -3.156320 26.594225 27.255779 -0.557206 0.220776 0.019502 0.001699 -124502.000000 0 0 1
5.521703 -3.837320 25.477475 26.349876 -0.607330 0.258041 0.011494 0.000765 72434.000000 0 0 1
6.996503 -3.471320 25.088195 26.275819 -0.460563 0.301805 0.010104 0.002612 23175.300000 0 0 1
7.978203 -3.945320 25.952705 27.436475 -0.459248 0.330378 0.011883 0.002113 -395372.000000 0 0 1
8.272403 -5.369220 25.757445 27.580920 -0.575708 0.365665 -0.000488 0.004777 -307060.000000 0 0 1
9.111403 -5.813020 24.526555 26.802253 -0.567889 0.415058 0.001653 -0.004460 -372312.000000 0 0 1
8.459703 -5.602320 23.309155 25.421827 -0.584929 0.410565 0.004258 0.005508 -222576.000000 0 0 1
9.358403 -5.632520 22.218055 24.757766 -0.541792 0.456915 0.018277 0.002932 113153.000000 0 1 0
9.329703 -4.270320 21.475655 23.800898 -0.429249 0.445711 0.010897 -0.004554 514095.000000 0 1 0
8.043403 -3.975320 20.940555 22.781711 -0.459024 0.404796 0.007792 -0.020150 -69127.800000 0 1 0
8.029603 -2.745320 20.219455 21.928011 -0.329440 0.397366 -0.002964 -0.018967 -366926.000000 0 1 0
6.723503 -1.968320 20.103555 21.289263 -0.284794 0.335320 0.007558 -0.016412 -301050.000000 0 1 0
6.340203 -1.497320 21.390555 22.360590 -0.231914 0.295631 0.015473 -0.007704 -700841.000000 0 1 0
5.112803 -0.869320 21.312155 21.934093 -0.168417 0.238704 0.011175 -0.000302 -731612.000000 0 1 0
4.699703 -0.164320 22.624255 23.107815 -0.034950 0.204937 0.021299 -0.014115 1620810.000000 0 1 0
3.318903 0.336680 22.585855 22.830885 0.101097 0.146640 0.017027 -0.014142 1747370.000000 0 1 0
2.813703 0.797680 23.850755 24.029393 0.276250 0.122011 0.035944 -0.017865 717887.000000 0 1 0
1.308703 1.194680 23.682055 23.748257 0.739882 0.074685 0.039182 -0.029002 425412.000000 0 1 0
1.029803 2.489680 23.119655 23.276113 1.178597 0.116012 0.043932 -0.027350 673714.000000 0 1 0
-0.371897 2.740680 23.086255 23.251340 -1.435925 0.119235 0.033873 -0.025810 308232.000000 0 1 0
-0.729097 4.196680 22.755955 23.151181 -1.398782 0.185042 0.038614 -0.016905 -152553.000000 0 1 0
-0.585597 5.113680 23.883955 24.432273 -1.456777 0.212258 0.044936 -0.015192 803579.000000 0 1 0
-1.629897 6.104680 23.683355 24.511732 -1.309891 0.260719 0.039315 -0.008325 779856.000000 0 1 0
-1.348697 7.411680 24.488895 25.621436 -1.390797 0.298437 0.049159 -0.008295 665595.000000 0 0 1
-0.229997 8.171680 24.001855 25.355834 -1.542658 0.328272 0.044368 -0.008482 582332.000000 0 0 1
-0.054597 9.360680 24.717315 26.430493 -1.564964 0.362024 0.052856 -0.003534 -886433.000000 0 0 1
0.594903 10.503680 23.926155 26.136987 1.514219 0.414262 0.051847 -0.012180 69874.700000 0 0 1
2.010603 10.531680 23.816155 26.118347 1.382156 0.423015 0.041657 -0.006544 62635.700000 0 0 1
2.560803 11.049680 25.026825 27.477174 1.343063 0.425524 0.047522 -0.009840 -387778.000000 0 0 1
3.960303 11.687680 24.825205 27.723215 1.244094 0.461319 0.036749 -0.006519 482047.000000 0 0 1
5.079703 10.963680 24.327425 27.163013 1.136920 0.460999 0.020528 -0.002632 429975.000000 0 0 1
5.023603 10.484680 23.027155 25.795639 1.123978 0.467548 0.030464 -0.009136 -650053.000000 0 0 1
6.420003 10.161680 22.453355 25.468203 1.007332 0.491506 0.024318 -0.003329 -139035.000000 0 0 1
7.101203 11.289680 22.013455 25.738612 1.009326 0.544725 0.023013 -0.006273 873323.000000 0 0 1
8.349103 10.830680 21.417755 25.411245 0.914068 0.568247 0.022465 -0.001821 879594.000000 0 0 1
9.273803 11.900680 20.844855 25.732035 0.908826 0.626518 0.021592 -0.020646 -601301.000000 0 0 1
8.818203 12.321680 19.572455 24.752081 0.949634 0.658780 0.023162 -0.026192 754856.000000 0 1 0
9.690803 13.289680 18.891255 25.048090 0.940742 0.716362 0.029784 -0.027350 1197720.000000 0 0 1
11.131203 12.814680 18.532755 25.131310 0.855586 0.741529 0.034328 -0.024646 25016.600000 0 0 1
12.080703 12.732680 19.564255 26.283543 0.811667 0.731230 0.042915 -0.019093 -573490.000000 0 0 1
13.323203 12.511680 18.961255 26.335890 0.753997 0.767026 0.046476 -0.012621 -896565.000000 0 0 1
14.476903 12.362680 19.920055 27.554041 0.706788 0.762741 0.041377 -0.003511 -511227.000000 0 0 1
14.824203 13.578680 20.536855 28.738476 0.741574 0.774727 0.036743 -0.004672 573965.000000 0 0 1
16.078403 13.430680 21.222955 29.821335 0.695912 0.778924 0.027487 0.001820 802682.000000 0 0 1
16.561003 14.637680 22.027555 31.204835 0.723829 0.787101 0.022900 -0.001559 -223557.000000 0 0 1
15.695303 14.937680 23.097055 31.669398 0.760671 0.753472 0.027780 -0.004561 220122.000000 0 0 1
16.144103 16.097680 23.738755 32.913460 0.783958 0.765195 0.037689 -0.001535 -31531.700000 0 0 1
-20.402497 12.910336 -25.022528 34.771620 -0.564176 2.374058 0.006564 0.002843 136085.000000 0 0 1
-20.385697 12.687236 -26.387148 35.676661 -0.556698 2.403301 0.008857 -0.018520 -66765.800000 0 0 1
-21.248897 13.597136 -27.026948 36.970983 -0.569241 2.390629 0.010363 -0.021667 54420.900000 0 0 1
-21.176497 13.396436 -28.546738 37.984533 -0.564052 2.421183 0.014104 -0.022876 367065.000000 0 0 1
-19.877697 13.743236 -29.033398 37.774827 -0.604924 2.447432 0.041267 -0.017225 153487.000000 0 0 1
-19.922897 14.348236 -30.264298 38.970776 -0.624147 2.460031 0.034515 -0.024109 -489995.000000 0 0 1
-18.581397 14.869236 -30.733878 38.870731 -0.674876 2.482697 0.026279 -0.025576 -133666.000000 0 0 1
-17.589897 13.846436 -30.987288 38.227480 -0.666876 2.515976 0.021058 -0.023316 -101600.000000 0 0 1
-16.309997 14.418236 -31.087268 37.951544 -0.723912 2.530690 0.011643 -0.011668 107511.000000 0 0 1
-15.364097 13.976636 -29.936988 36.436589 -0.738145 2.535041 0.033090 -0.014807 -191891.000000 0 0 1
-15.678697 14.419036 -28.661538 35.710137 -0.743570 2.502465 0.024499 -0.009095 -353599.000000 0 0 1
-16.054097 13.260136 -27.911158 34.822377 -0.690374 2.500645 0.046091 -0.005414 -2786.620000 0 0 1
-16.771197 13.705136 -26.604888 34.306323 -0.685131 2.458318 0.042731 -0.010151 153634.000000 0 0 1
-15.936097 14.385336 -25.652278 33.450507 -0.734299 2.444750 0.049033 -0.010750 336979.000000 0 0 1
-16.672497 14.972736 -24.551728 33.240672 -0.731737 2.401795 0.033885 -0.001903 90400.900000 0 0 1
-15.789197 15.382136 -23.369228 32.125218 -0.772340 2.385383 0.028350 0.002705 -253181.000000 0 0 1
-14.980797 16.469436 -23.648228 32.479305 -0.832696 2.386344 0.014377 -0.004798 -357451.000000 0 0 1
-14.566697 17.047136 -22.381628 31.681710 -0.863698 2.355270 0.011338 0.001868 -223600.000000 0 0 1
-14.234397 18.574936 -22.476528 32.447505 -0.916930 2.336028 0.014541 0.000223 -81669.600000 0 0 1
-15.377097 19.374736 -22.692328 33.567502 -0.899929 2.313145 -0.019269 0.001970 336472.000000 0 0 1
-15.925997 19.347136 -24.029428 34.718330 -0.882086 2.335226 -0.035303 0.004134 686929.000000 0 0 1
-17.298497 20.103336 -24.143928 35.865183 -0.860250 2.309305 -0.021065 0.005137 622360.000000 0 0 1
-17.180197 21.493936 -24.299028 36.709552 -0.896480 2.294182 -0.031224 0.002097 -51706.400000 0 0 1
-18.458897 22.084336 -24.340328 37.694831 -0.874583 2.272763 -0.003914 -0.010390 -480726.000000 0 0 1
-18.400597 23.612336 -24.575428 38.730815 -0.908818 2.258182 -0.010416 -0.008677 -139319.000000 0 0 1
-17.907697 24.387936 -23.493528 38.306695 -0.937429 2.231029 -0.011916 -0.003257 186154.000000 0 0 1
-17.048697 25.417836 -23.998928 38.893097 -0.979981 2.235783 -0.009111 0.001315 -268937.000000 0 0 1
-15.884997 25.735536 -23.035028 38.016620 -1.017797 2.221718 -0.001081 -0.000949 572016.000000 0 0 1
-14.782797 24.794036 -22.911928 36.854195 -1.033158 2.241696 0.008772 -0.010088 649564.000000 0 0 1
-15.094597 23.413436 -22.652128 35.904801 -0.998157 2.253501 -0.017896 0.004088 -1315510.000000 0 0 1
-13.898197 22.494636 -22.395528 34.651525 -1.017359 2.273531 0.006813 0.003828 -242229.000000 0 0 1
-13.272097 22.811736 -21.182128 33.840898 -1.043859 2.247123 0.019813 0.000310 -39477.000000 0 0 1
-12.298097 21.848136 -20.803828 32.578881 -1.058111 2.263432 0.019506 0.002471 238996.000000 0 0 1
-11.582897 22.058736 -19.427928 31.594235 -1.087276 2.233081 0.023214 -0.002045 581123.000000 0 0 1
-12.378997 21.696236 -18.273728 30.949884 -1.052305 2.202387 0.021675 0.003046 580152.000000 0 0 1
-13.398297 22.661736 -18.007128 31.895537 -1.036850 2.170703 0.019140 -0.007942 232475.000000 0 0 1
-13.980097 22.559436 -16.559428 31.282357 -1.016017 2.128635 0.028956 -0.001030 401924.000000 0 0 1
-13.228697 23.272336 -15.536928 30.951513 -1.053914 2.096679 0.032216 -0.013173 399938.000000 0 0 1
-13.992297 23.495836 -14.348328 30.882247 -1.033676 2.053995 0.022881 -0.005408 87436.400000 0 0 1
-13.118997 23.840136 -13.139528 30.217666 -1.067730 2.020645 0.027941 -0.005100 -131004.000000 0 0 1
-12.513597 25.123536 -13.042628 30.949835 -1.108684 2.005798 0.027505 -0.011595 422271.000000 0 0 1
-11.696897 25.137936 -11.865328 30.158236 -1.135285 1.975162 0.010990 -0.013730 215110.000000 0 0 1
-11.142097 26.571636 -11.604328 31.062173 -1.173744 1.953666 0.024533 -0.019458 517191.000000 0 0 1
-10.196297 27.048536 -12.578028 31.524507 -1.210306 1.981214 0.029491 -0.026303 475114.000000 0 0 1
-10.367297 28.422536 -12.787928 32.845890 -1.221037 1.970702 0.013066 -0.013712 -605704.000000 0 0 1
-9.968597 28.817936 -14.226728 33.648865 -1.237764 2.007329 0.026486 -0.022075 1567830.000000 0 0 1
-8.566397 28.938636 -14.612028 33.531167 -1.282995 2.021695 0.007322 -0.024838 1515030.000000 0 0 1
-7.745297 27.770736 -14.459328 32.253303 -1.298807 2.035665 0.009500 -0.023118 211302.000000 0 0 1
-6.345597 27.908036 -15.120228 32.368910 -1.347222 2.056829 0.002583 -0.024599 385087.000000 0 0 1
-5.560197 28.920936 -14.552428 32.849802 -1.380859 2.029737 -0.010621 -0.023748 -723642.000000 0 0 1
-4.237197 28.795736 -15.029528 32.757212 -1.424698 2.047458 -0.002767 -0.026471 -172831.000000 0 0 1
-3.326597 29.823936 -14.310528 33.246422 -1.459714 2.015774 -0.014339 -0.016423 -294784.000000 0 0 1
-3.432997 31.227736 -14.593028 34.639766 -1.461302 2.005652 -0.017039 -0.017348 -522777.000000 0 0 1
-4.523197 31.775836 -13.922528 34.985709 -1.429399 1.980076 -0.030887 -0.016942 -642091.000000 0 0 1
-4.526197 33.310736 -14.100028 36.454113 -1.435745 1.967943 -0.025356 -0.018297 336869.000000 0 0 1
-3.520297 34.036936 -13.384928 36.743187 -1.467737 1.943659 -0.030516 -0.016111 238619.000000 0 0 1
-3.501397 -33.950020 -13.887228 36.847235 1.468026 1.957229 -0.030583 -0.011112 309743.000000 0 0 1
-2.638297 -32.976020 -13.040128 35.558732 1.490960 1.946278 -0.028858 -0.001366 -94800.300000 0 0 1
-3.166197 -32.678520 -11.794328 34.885765 1.474209 1.915677 -0.027403 -0.001183 274084.000000 0 0 1
-2.174697 -32.123320 -10.915028 33.996688 1.503201 1.897646 -0.028892 -0.002742 253321.000000 0 0 1
-2.548297 -32.238420 -9.454728 33.692750 1.491915 1.855232 -0.035775 -0.008357 -9500.120000 0 0 1
-1.615497 -31.585620 -8.576528 32.769163 1.519694 1.835606 -0.027453 -0.007248 270209.000000 0 0 1
-1.968097 -31.750720 -7.204528 32.617278 1.508890 1.793514 -0.037316 -0.014031 229353.000000 0 0 1
-0.857997 -31.156520 -6.292628 31.797202 1.543265 1.770010 -0.019222 -0.007985 180680.000000 0 0 1
-1.149797 -31.212420 -4.893828 31.614660 1.533975 1.726217 -0.015371 -0.003318 -44924.700000 0 0 1
-0.077097 -30.619120 -4.193228 30.905009 1.568278 1.706897 -0.001418 -0.002989 -2119.110000 0 0 1
-0.097097 -30.619220 -2.636128 30.732641 1.567625 1.656678 -0.003046 0.001588 -272370.000000 0 0 1
-0.115097 -31.912820 -1.980928 31.974449 1.567190 1.632789 -0.005717 0.000097 817920.000000 0 0 1
0.921703 -32.882320 -2.338228 32.978232 -1.542773 1.641758 -0.002435 -0.002167 1021070.000000 0 0 1
2.346203 -32.643320 -1.766928 32.775189 -1.499046 1.624733 0.020776 0.000867 -368625.000000 0 0 1
2.494203 -32.770920 -0.346228 32.867523 -1.494833 1.581331 0.008625 0.006061 713774.000000 0 0 1
3.842903 -32.463120 0.046572 32.689818 -1.452967 1.569372 0.015144 0.005078 846876.000000 0 0 1
4.202503 -30.947620 0.178472 31.232164 -1.435828 1.565082 0.007696 -0.002048 -653433.000000 0 0 1
4.201003 -30.219520 -1.099128 30.529918 -1.432665 1.606806 0.032854 -0.011215 174256.000000 0 0 1
4.168803 -28.819720 -0.835228 29.131645 -1.427142 1.599471 0.029919 0.003656 -310143.000000 0 0 1
3.832003 -27.913220 -2.013728 28.246897 -1.434366 1.642147 0.022804 0.004825 -1043840.000000 0 0 1
2.582103 -28.242020 -2.501828 28.469950 -1.479622 1.658786 0.016834 0.004249 -375657.000000 0 0 1
1.981603 -27.189420 -3.324028 27.463438 -1.498044 1.692128 0.006183 0.008609 335657.000000 0 0 1
2.416303 -27.197420 -4.802028 27.723593 -1.482186 1.744885 0.000741 0.005896 -29145.500000 0 0 1
1.912203 -28.321520 -5.493528 28.912693 -1.503381 1.761963 -0.004612 0.002291 -272974.000000 0 0 1
2.380403 -28.337320 -6.782528 29.234785 -1.486991 1.804932 0.013889 -0.004164 -777025.000000 0 0 1
1.703003 -29.247720 -7.785828 30.314162 -1.512635 1.830545 -0.008293 0.000623 -516843.000000 0 0 1
0.415203 -28.734420 -8.035328 29.839667 -1.556348 1.843445 -0.008898 0.001437 -464015.000000 0 0 1
0.223503 -28.779320 -9.469828 30.298132 -1.563030 1.888678 -0.013755 0.010526 136876.000000 0 0 1
-1.094197 -28.102620 -9.888128 29.811568 1.531880 1.908888 -0.029060 0.002330 -740733.000000 0 0 1
-1.058797 -26.732620 -9.664528 28.445687 1.531210 1.917451 -0.022161 0.004859 671553.000000 0 0 1
-2.323797 -26.027720 -9.670928 27.863400 1.481751 1.925256 -0.011007 -0.000913 1566150.000000 0 0 1
-3.458397 -26.496220 -8.682628 28.096231 1.441006 1.884971 -0.006739 -0.008498 -758140.000000 0 0 1
-3.250297 -26.473020 -7.260228 27.642288 1.448630 1.836563 -0.000265 -0.009680 -158801.000000 0 0 1
-2.437697 -27.535220 -6.724528 28.449076 1.482496 1.809425 -0.002469 -0.003865 408116.000000 0 0 1
-1.827897 -27.385020 -5.354128 27.963319 1.504147 1.763456 -0.001676 0.002919 -232784.000000 0 0 1
-2.819897 -27.332020 -4.378928 27.823841 1.467988 1.728834 -0.001170 -0.008921 -309208.000000 0 0 1
-2.282397 -27.180220 -3.091328 27.450500 1.487020 1.683650 -0.004603 0.003101 -426428.000000 0 0 1
-3.375897 -27.236320 -2.054828 27.521557 1.447477 1.645528 -0.001225 0.002818 -568738.000000 0 0 1
-4.325197 -26.212820 -2.148728 26.654010 1.407267 1.651499 -0.000502 0.002564 -434968.000000 0 0 1
-5.165997 -26.226420 -1.031028 26.750245 1.376309 1.609349 0.007678 0.001500 -309618.000000 0 0 1
-6.181097 -25.082020 -0.917628 25.848708 1.329175 1.606304 0.010039 -0.003027 65400.300000 0 0 1
-5.615797 -23.770620 -0.702028 24.435064 1.338801 1.599531 -0.003703 -0.005423 442094.000000 0 1 0
-6.447497 -22.979520 0.190372 23.867651 1.297254 1.562820 0.016509 -0.004464 603918.000000 0 1 0
-5.770897 -21.600020 0.529772 22.363916 1.309723 1.547105 0.003377 -0.008364 14613.900000 0 1 0
-4.768697 -21.707820 1.498472 22.275891 1.354555 1.503477 -0.001398 -0.006994 -684819.000000 0 1 0
-4.063697 -20.525520 1.479172 20.976142 1.375341 1.500221 -0.003577 -0.004335 -760391.000000 0 1 0
-3.056497 -20.291820 2.590372 20.683572 1.421293 1.445228 0.001426 -0.004381 -110977.000000 0 1 0
-3.669597 -20.287220 3.892772 20.980727 1.391849 1.384175 -0.002315 0.000694 313343.000000 0 1 0
-2.646997 -20.142920 4.879572 20.893875 1.440134 1.335079 0.000535 -0.007756 4577.850000 0 1 0
-1.989997 -21.457820 5.246872 22.179445 1.478321 1.331968 -0.007406 -0.008551 -483365.000000 0 1 0
-1.028197 -21.812920 4.308372 22.258093 1.523694 1.376002 0.006444 -0.009823 -1049180.000000 0 1 0
-0.374997 -22.997020 4.713472 23.478082 1.554491 1.368662 -0.001840 -0.006299 -411471.000000 0 1 0
0.771603 -23.140520 3.639972 23.437756 -1.537464 1.414861 0.003043 -0.012091 859427.000000 0 1 0
1.873603 -22.242920 3.763272 22.636698 -1.486761 1.403774 -0.012335 -0.020288 91215.400000 0 1 0
2.778703 -22.601620 4.774272 23.266888 -1.448468 1.364132 0.000951 -0.016407 -1315830.000000 0 1 0
4.074903 -21.812020 4.759072 22.694004 -1.386106 1.359522 0.009535 -0.020661 -552681.000000 0 1 0
4.735003 -21.790420 3.527372 22.576204 -1.356825 1.413911 -0.001812 -0.010082 -477930.000000 0 1 0
5.775403 -20.834520 3.540572 21.908175 -1.300383 1.408475 0.017195 -0.014357 231240.000000 0 1 0
6.228203 -20.691020 2.046672 21.704785 -1.278413 1.476360 0.021539 -0.004265 411919.000000 0 1 0
7.157103 -21.602820 1.447472 22.803533 -1.250873 1.507278 0.028269 -0.004582 96610.100000 0 1 0
6.879903 -21.691320 0.097572 22.756448 -1.263660 1.566509 0.031805 -0.010160 -2802.640000 0 1 0
7.950003 -22.547320 -0.607128 23.915534 -1.231814 1.596185 0.040614 -0.001440 -19116.500000 0 1 0
9.133803 -21.810820 -0.827828 23.660590 -1.174211 1.605791 0.039746 -0.002382 -629464.000000 0 1 0
10.040203 -22.710020 -1.455428 24.873057 -1.154528 1.629344 0.040586 0.002653 -983522.000000 0 1 0
11.366803 -22.099620 -1.741528 24.912453 -1.095740 1.640759 0.036780 0.002669 -1086310.000000 0 1 0
11.287103 -21.153220 -2.754428 24.133882 -1.080641 1.685177 0.040182 0.007120 -232223.000000 0 1 0
12.522003 -21.003120 -3.418428 24.690428 -1.033178 1.709694 0.031973 0.008553 56576.500000 0 1 0
12.512403 -19.709320 -4.302428 23.738753 -1.005147 1.753044 0.029656 -0.010195 45975.500000 0 1 0
12.764503 -18.544120 -3.548528 22.790546 -0.967945 1.727134 0.053793 -0.008951 83701.300000 0 1 0
12.829103 -17.457720 -4.467728 22.120544 -0.937051 1.774167 0.043245 -0.011506 -1046570.000000 0 1 0
13.253503 -16.122920 -3.747528 21.204902 -0.882767 1.748459 0.065956 -0.012991 753281.000000 0 1 0
14.588103 -16.118720 -3.239628 21.980015 -0.835203 1.718725 0.049234 -0.007715 1194270.000000 0 1 0
15.604403 -16.173220 -4.269428 22.875717 -0.803296 1.758533 0.044469 -0.007905 648028.000000 0 1 0
17.129003 -16.092420 -3.892728 23.822721 -0.754206 1.734936 0.030996 0.001684 923756.000000 0 1 0
17.705503 -17.235120 -3.256228 24.922625 -0.771937 1.701824 0.027848 -0.002499 660442.000000 0 1 0
19.076503 -16.896420 -3.078328 25.668620 -0.724869 1.691011 -0.002610 0.010226 91743.600000 0 0 1
19.917103 -17.896420 -2.277728 26.873051 -0.732011 1.655657 0.004990 0.000948 -18204.500000 0 0 1
21.315603 -17.781720 -2.474628 27.868769 -0.695256 1.659709 -0.024117 0.004234 173074.000000 0 0 1
21.958603 -18.445120 -1.403228 28.711875 -0.698657 1.619689 -0.032452 0.012365 456322.000000 0 0 1
23.508903 -18.255320 -1.457528 29.800161 -0.660264 1.619726 -0.019388 0.005794 388499.000000 0 0 1
23.905003 -16.926420 -1.273428 29.318501 -0.616122 1.614244 -0.020453 0.008812 1442790.000000 0 0 1
25.328903 -16.886720 -0.949228 30.456784 -0.588024 1.601968 -0.008012 0.011990 1187560.000000 0 0 1
25.714303 -15.517920 -0.375628 30.036184 -0.542970 1.583302 -0.005843 0.007192 -28796.700000 0 0 1
24.963103 -15.115420 0.762072 29.192691 -0.544461 1.544688 -0.007249 0.010484 -54351.300000 0 0 1
25.490403 -13.994320 1.368672 29.111422 -0.502078 1.523764 -0.012986 0.000958 -65287.800000 0 0 1
24.622203 -13.290120 2.480372 28.089721 -0.494949 1.482379 -0.005380 -0.008376 -45745.200000 0 0 1
24.282803 -14.072320 3.626172 28.299008 -0.525223 1.442305 -0.005224 0.004869 -85000.500000 0 0 1
25.331503 -14.495520 4.475572 29.526867 -0.519752 1.418634 0.005029 0.021106 78363.700000 0 0 1
24.852003 -15.121620 5.842572 29.671891 -0.546622 1.372595 -0.000230 0.026164 373875.000000 0 0 1
23.807103 -16.076720 5.746972 29.296190 -0.593949 1.373348 -0.011989 0.033473 -60812.200000 0 0 1
23.396703 -16.269320 7.100372 29.368551 -0.607610 1.326609 -0.023108 0.033890 -186100.000000 0 0 1
22.507803 -17.504920 7.241672 29.418791 -0.661011 1.322082 -0.020718 0.031774 -328026.000000 0 0 1
23.173203 -18.752420 7.092472 30.642352 -0.680343 1.337218 -0.010701 0.031772 -587895.000000 0 0 1
22.346703 -19.828120 7.432572 30.785916 -0.725751 1.326960 -0.031474 0.051505 -340942.000000 0 0 1
1.779703 22.990336 -3.341928 23.300029 1.493539 1.714723 -0.009305 -0.010085 -122970.000000 0 1 0
2.450203 24.174836 -2.938428 24.475713 1.469788 1.691141 -0.000957 -0.006461 -208480.000000 0 1 0
3.083603 24.893036 -3.970128 25.395546 1.447550 1.727772 0.001960 -0.005400 -268264.000000 0 0 1
3.883203 26.001636 -3.340028 26.501323 1.422547 1.697165 -0.000001 0.001806 -654394.000000 0 0 1
4.942503 25.594636 -2.552428 26.192148 1.380037 1.668401 -0.003881 -0.001804 -534620.000000 0 0 1
5.733403 26.646236 -2.005828 27.329785 1.358860 1.644256 -0.003338 -0.002118 166860.000000 0 0 1
6.812503 26.043836 -1.076128 26.941597 1.314950 1.610750 -0.009454 -0.014013 -206568.000000 0 0 1
7.875603 25.434436 -1.779928 26.685273 1.270516 1.637547 -0.013491 -0.012098 -279755.000000 0 0 1
8.783903 24.914136 -0.805528 26.429529 1.231836 1.601279 -0.024055 0.000351 -295594.000000 0 0 1
10.037403 24.476836 -1.560328 26.500935 1.181633 1.629709 -0.008391 -0.001381 -735788.000000 0 0 1
10.898003 25.568836 -1.952228 27.862933 1.167891 1.640919 -0.002121 -0.001762 577630.000000 0 0 1
11.696403 25.400136 -3.122928 28.137616 1.139257 1.682013 0.019108 0.000072 629006.000000 0 0 1
12.791103 24.307836 -3.182128 27.651567 1.086399 1.686131 0.025133 0.001526 -303745.000000 0 0 1
12.211303 22.997736 -3.201728 26.234764 1.082674 1.693143 0.019276 -0.001349 -63074.000000 0 0 1
12.198603 22.552436 -4.534128 26.037984 1.074967 1.745824 0.025943 -0.005911 -58471.900000 0 0 1
11.247603 21.372136 -4.896928 24.642578 1.086351 1.770846 0.019106 -0.011545 570304.000000 0 1 0
9.862403 21.679236 -4.763928 24.288913 1.143855 1.768212 0.008185 -0.005312 481822.000000 0 1 0
9.091803 20.469436 -4.724428 22.890586 1.152806 1.778682 -0.011577 0.003649 2044840.000000 0 1 0
7.508903 20.740036 -4.655828 22.543501 1.223428 1.778820 -0.018555 0.002117 1850450.000000 0 1 0
7.081103 21.436436 -3.506928 22.846473 1.251751 1.724905 -0.027358 0.012268 -882063.000000 0 1 0
5.742503 21.769236 -3.560528 22.793713 1.312882 1.727645 -0.015229 0.016908 -640225.000000 0 1 0
5.138403 22.453636 -2.280528 23.146701 1.345825 1.669481 -0.011620 0.007231 -315194.000000 0 1 0
4.981503 21.524736 -1.260828 22.129603 1.343369 1.627802 -0.008380 0.002724 -240999.000000 0 1 0
4.523303 22.166536 -0.105128 22.623586 1.369500 1.575443 -0.003627 0.001562 23023.500000 0 1 0
4.132203 21.198436 0.985272 21.619888 1.378281 1.525208 -0.004043 -0.001078 -181332.000000 0 1 0
3.477203 21.764636 2.085972 22.139142 1.412371 1.476435 -0.003180 -0.002326 152479.000000 0 1 0
3.327203 20.828736 3.141272 21.325433 1.412394 1.422957 -0.000130 -0.004056 359447.000000 0 1 0
2.171403 21.321536 4.090972 21.818775 1.469305 1.382182 -0.002984 -0.009534 892444.000000 0 1 0
0.872103 21.371936 3.474372 21.670059 1.530013 1.409771 0.000596 -0.015930 9450.220000 0 1 0
-0.004397 21.822536 4.452872 22.272206 -1.570595 1.369510 -0.005695 -0.022923 -955042.000000 0 1 0
-1.343997 22.188036 3.843272 22.558502 -1.510297 1.399592 -0.010292 -0.014103 -229528.000000 0 1 0
-2.365597 22.581436 4.771872 23.201036 -1.466419 1.363643 0.002381 -0.018195 414062.000000 0 1 0
-3.539897 22.923436 4.049472 23.545976 -1.417584 1.397956 0.009858 -0.010080 50667.700000 0 1 0
-4.763097 23.181436 4.942172 24.176251 -1.368146 1.364923 0.024786 -0.021751 -616079.000000 0 1 0
-4.734397 24.477736 5.492572 25.529246 -1.379739 1.353953 0.025795 -0.011785 637922.000000 0 0 1
-5.791197 24.580736 6.464172 26.067912 -1.339417 1.320208 0.040639 -0.016700 549260.000000 0 0 1
-6.267797 25.997436 6.865772 27.609614 -1.334218 1.319486 0.044823 -0.014397 214487.000000 0 0 1
-5.289197 26.768436 7.608272 28.326852 -1.375718 1.298869 0.028460 -0.020046 561490.000000 0 0 1
-5.724097 27.984536 8.268372 29.736602 -1.369034 1.289029 0.051956 -0.019787 -144446.000000 0 0 1
-6.035897 29.273036 7.446172 30.802405 -1.367453 1.326638 0.045207 -0.024151 -82662.200000 0 0 1
-7.180197 29.167736 6.653572 30.766574 -1.329426 1.352814 0.042888 -0.025422 -719926.000000 0 0 1
-7.430097 30.230836 5.731472 31.653745 -1.329795 1.388724 0.053835 -0.025639 -942303.000000 0 0 1
-8.901397 30.338036 5.362872 32.068547 -1.285399 1.402775 0.052306 -0.017807 -10762.300000 0 0 1
-9.737297 30.943036 6.377372 33.059905 -1.265922 1.376676 0.043182 -0.012265 169333.000000 0 0 1
-10.177197 30.012236 7.355872 32.533344 -1.243863 1.342722 0.022688 -0.006585 -833076.000000 0 0 1
-11.064297 30.687736 8.417372 33.689879 -1.224759 1.318272 0.013600 -0.004251 -552260.000000 0 0 1
-10.379997 31.389136 9.397372 34.370522 -1.251429 1.293856 0.034761 -0.011323 -95078.500000 0 0 1
-11.191297 31.701636 10.521572 35.227011 -1.231434 1.267488 0.026314 0.003401 -618609.000000 0 0 1
-10.294497 32.155136 11.677972 35.725403 -1.260956 1.237794 0.026327 -0.002042 91664.700000 0 0 1
-9.790197 33.514136 11.652872 36.808079 -1.286583 1.248670 0.023333 0.001259 446359.000000 0 0 1
-8.949597 33.805536 12.766972 37.227747 -1.311996 1.220749 0.018626 0.002571 400200.000000 0 0 1
-8.519397 -33.984720 12.896272 37.334369 1.325175 1.218103 0.020541 0.002803 -161166.000000 0 0 1
-9.559697 -33.183920 13.349072 37.023750 1.290309 1.201934 0.023803 0.008024 -127000.000000 0 0 1
-9.090397 -31.820120 13.356572 35.686879 1.292528 1.187186 0.035507 0.003697 850886.000000 0 0 1
-9.982497 -30.849320 14.275972 35.427872 1.257841 1.156049 0.022847 0.001037 325136.000000 0 0 1
-9.870897 -31.138020 15.702172 36.243194 1.263813 1.122707 0.018912 -0.000538 -88174.500000 0 0 1
-8.646497 -30.809120 16.328072 35.924500 1.297187 1.098973 0.015076 0.004278 -238964.000000 0 0 1
-8.550097 -31.039920 17.841072 36.808757 1.302007 1.064780 -0.013469 -0.005128 -281258.000000 0 0 1
-9.226697 -30.082020 18.620072 36.561823 1.273188 1.036453 0.024818 -0.004430 -35843.400000 0 0 1
-10.240197 -30.739920 19.365772 37.747019 1.249234 1.032072 0.000681 -0.006562 55957.200000 0 0 1
-10.693097 -29.873720 20.596172 37.828346 1.227063 0.995046 0.017815 -0.020054 150636.000000 0 0 1
-9.727597 -29.759120 21.629872 38.053682 1.254867 0.966231 0.035863 -0.018611 171215.000000 0 0 1
-10.185197 -28.977620 22.735072 38.214188 1.232799 0.933608 0.030754 -0.007828 -493560.000000 0 0 1
-9.103097 -28.791120 23.760272 38.423241 1.264565 0.904113 0.029123 -0.011441 -512678.000000 0 0 1
-8.684897 -30.026520 24.251172 39.561833 1.289239 0.910952 0.039277 -0.003830 157682.000000 0 0 1
-7.789997 -29.957420 25.363372 40.017892 1.316395 0.884339 0.029352 -0.009604 209766.000000 0 0 1
-7.867197 -31.237820 26.162072 41.498773 1.324079 0.888689 0.041893 -0.005978 -24715.900000 0 0 1
-7.433097 -32.471720 25.598672 42.011374 1.345764 0.915585 0.051988 -0.001332 302867.000000 0 0 1
-7.576997 -33.610220 26.465972 43.445430 1.349066 0.915773 0.057864 -0.006738 -266152.000000 0 0 1
-7.309497 34.301936 25.795472 43.536857 -1.360844 0.936641 0.056615 -0.011023 347458.000000 0 0 1
-5.934297 34.009536 25.524772 42.934583 -1.398046 0.934148 0.049002 -0.009185 708094.000000 0 0 1
-5.600197 32.765536 24.893872 41.528874 -1.401515 0.928001 0.046940 -0.004751 -377280.000000 0 0 1
-6.254697 32.434236 23.554772 40.570040 -1.380292 0.951337 0.054242 -0.000514 -150582.000000 0 0 1
-7.395797 31.612836 23.775172 40.240875 -1.340980 0.938720 0.045789 -0.003831 -24416.200000 0 0 1
-8.004797 31.417436 22.529072 39.480263 -1.321316 0.963510 0.036414 -0.004085 -173399.000000 0 0 1
-9.199297 30.455136 22.563772 39.003412 -1.277450 0.953898 0.021852 -0.011136 -79085.400000 0 0 1
-8.678397 29.157836 22.589672 37.891783 -1.281511 0.932083 0.025288 -0.008810 -503784.000000 0 0 1
-9.563997 28.227036 23.105372 37.710659 -1.244112 0.911322 0.016322 -0.003734 -623914.000000 0 0 1
-9.193197 26.763836 22.910972 36.410581 -1.239930 0.890222 0.009293 -0.006275 266790.000000 0 0 1
-7.971097 26.346536 23.523872 36.208437 -1.277003 0.863634 -0.006567 0.003767 500897.000000 0 0 1
-7.695597 24.991636 23.199572 34.957463 -1.272083 0.845107 -0.006011 0.010459 -326827.000000 0 0 1
-6.355397 24.510436 23.747972 34.714820 -1.317090 0.817444 -0.018728 0.018481 -188210.000000 0 0 1
-5.242997 25.010936 23.058872 34.420161 -1.364160 0.836691 -0.025863 0.011580 221079.000000 0 0 1
-3.972997 24.713036 23.637472 34.427445 -1.411395 0.814011 0.003972 0.012492 998449.000000 0 0 1
-2.774597 25.343736 22.856472 34.240643 -1.461752 0.839917 -0.002557 0.013085 73037.000000 0 0 1
-2.515397 24.667736 21.641072 32.911403 -1.469176 0.853227 0.005630 0.016408 103556.000000 0 0 1
-1.650597 25.435136 20.806272 32.902455 -1.505993 0.886197 0.008495 0.016781 111782.000000 0 0 1
-1.077097 24.611336 19.647172 31.510147 -1.527060 0.897561 0.002375 0.006981 -793080.000000 0 0 1
-0.118997 23.705436 20.078372 31.066105 -1.565777 0.868056 0.014703 0.012542 -458734.000000 0 0 1
0.000203 22.745736 19.005372 29.640727 1.570787 0.874747 0.006058 0.011063 -395123.000000 0 0 1
1.081303 21.666836 19.215072 28.979993 1.520932 0.845916 0.011195 0.020981 -314868.000000 0 0 1
2.350403 22.247436 19.183172 29.469762 1.465538 0.861969 0.010712 0.008129 -184721.000000 0 0 1
3.412603 21.287836 19.151972 28.837751 1.411841 0.844469 0.005177 0.022604 -397277.000000 0 0 1
4.803203 21.842136 19.120072 29.423236 1.354336 0.863437 -0.001335 0.019042 -1646660.000000 0 0 1
5.750603 20.865036 19.026372 28.817044 1.301863 0.849648 0.006168 0.012880 -84617.000000 0 0 1
7.056703 21.479336 18.982372 29.520999 1.253371 0.872371 0.013514 0.011397 1516150.000000 0 0 1
8.236003 20.483636 18.602472 28.869760 1.188501 0.870612 0.015730 0.014178 567892.000000 0 0 1
8.354503 19.491136 19.593672 28.872376 1.165854 0.824900 0.010446 0.010774 -268977.000000 0 0 1
9.389303 18.594436 19.260772 28.370573 1.103195 0.824533 0.025104 0.001378 25840.600000 0 0 1
9.923603 17.781836 20.466072 28.870949 1.061774 0.782886 0.039184 -0.011961 -11483.000000 0 0 1
9.051303 16.725936 20.852172 28.222263 1.074770 0.739426 0.025836 -0.005641 259022.000000 0 0 1
9.605703 16.149436 22.031272 28.956014 1.034208 0.706170 0.031827 -0.013109 111534.000000 0 0 1
8.714503 15.044036 22.658972 28.560368 1.045762 0.654469 0.023433 -0.004742 -384774.000000 0 0 1
7.559203 15.665536 23.161472 28.965572 1.121216 0.644133 0.010813 0.010449 949436.000000 0 0 1
6.463603 14.820236 23.673472 28.667941 1.159533 0.599209 0.007691 0.010784 1502550.000000 0 0 1
6.851703 13.940336 24.936972 29.379098 1.113970 0.557085 0.011597 0.007470 -615333.000000 0 0 1
7.204803 14.703636 26.082272 30.795958 1.115179 0.560596 0.017172 0.003480 97509.700000 0 0 1
7.541003 13.793736 27.140372 31.364529 1.070492 0.525007 0.015135 0.005967 -375072.000000 0 0 1
8.574403 14.391436 28.160572 32.766624 1.033472 0.536645 0.008478 0.013320 593046.000000 0 0 1
9.901503 14.438436 27.643372 32.721006 0.969682 0.564567 0.021473 0.015108 461195.000000 0 0 1
10.178203 15.572036 26.834672 32.652469 0.991880 0.606186 0.022443 0.012657 175949.000000 0 0 1
11.519903 15.280936 26.044872 32.319507 0.924820 0.633676 0.035524 0.009417 739148.000000 0 0 1
11.382703 14.395336 24.963372 30.983247 0.901739 0.633931 0.035847 0.000544 -527454.000000 0 0 1
12.612503 14.039436 24.415672 30.859456 0.838887 0.658045 0.036613 0.001176 -795907.000000 0 0 1
12.510103 12.871336 23.410772 29.499801 0.799629 0.654108 0.032381 -0.005313 160005.000000 0 0 1
12.065903 11.602236 23.892472 29.172729 0.765810 0.611130 0.026855 0.001640 -556077.000000 0 0 1
10.698303 11.506336 24.116272 28.782704 0.821772 0.577420 0.027746 0.007699 -999724.000000 0 0 1
10.269303 10.237136 24.864272 28.783495 0.783830 0.527957 0.030695 0.004092 -17164.600000 0 0 1
10.401303 9.124036 23.990472 27.694366 0.720075 0.523133 0.025068 0.002451 211815.000000 0 0 1
10.258903 7.908136 24.690572 27.882039 0.656716 0.483148 0.019828 0.002419 -97064.300000 0 0 1
10.401103 6.688336 23.827872 26.845564 0.571468 0.478708 0.016811 0.007679 122387.000000 0 0 1
11.759103 6.312336 23.623772 27.133093 0.492656 0.514248 0.016316 0.014217 472573.000000 0 0 1
11.917703 5.413736 22.575772 26.096086 0.426391 0.525443 0.015812 0.004653 -75309.200000 0 0 1
11.617803 3.913736 22.970872 26.037505 0.324934 0.490234 0.006807 0.003793 -717218.000000 0 0 1
12.633203 3.336936 23.699472 27.062852 0.258242 0.503872 0.001871 0.010451 -204640.000000 0 0 1
12.166803 2.136836 24.362972 27.315776 0.173855 0.469264 -0.001127 0.011564 -415374.000000 0 0 1
13.231103 1.427836 25.213672 28.510175 0.107499 0.485644 -0.010421 0.017464 -352311.000000 0 0 1
14.156803 0.824036 24.366972 28.192968 0.058142 0.527054 -0.000350 0.017945 -268127.000000 0 0 1
15.478503 0.786936 24.857372 29.293212 0.050797 0.557518 -0.001780 0.015521 94624.400000 0 0 1
16.441403 0.001936 23.951172 29.051306 0.000118 0.601577 0.011715 0.009734 -70376.900000 0 0 1
16.402703 -1.391564 24.209272 29.275826 -0.084635 0.597157 0.002581 0.011851 273625.000000 0 0 1
17.453903 -1.977664 23.459672 29.307100 -0.112827 0.642705 0.030384 0.012787 201229.000000 0 0 1
17.695703 -3.442464 23.968472 29.991268 -0.192137 0.644864 0.029222 0.018711 685223.000000 0 0 1
16.681003 -4.298864 23.380272 29.040889 -0.252222 0.634984 0.027319 0.019089 781884.000000 0 0 1
16.947603 -5.661564 23.677772 29.663302 -0.322407 0.646466 0.037696 0.016879 -55823.600000 0 0 1
16.141603 -6.759364 22.974072 28.879896 -0.396569 0.650957 0.022571 0.012654 -357258.000000 0 0 1
16.428803 -6.938464 21.686872 28.077897 -0.399611 0.688213 0.020301 0.011404 -16288.200000 0 0 1
15.687003 -7.989364 21.101972 27.480998 -0.471059 0.695279 0.034132 -0.001423 -5133.350000 0 0 1
16.325503 -9.403264 21.257772 28.404864 -0.522575 0.725173 0.040345 0.002762 179393.000000 0 0 1
16.165703 -9.980764 22.538872 29.477897 -0.553118 0.700372 0.032180 0.012741 271007.000000 0 0 1
16.974003 -11.132264 22.644672 30.410940 -0.580471 0.730827 0.023835 0.006947 32699.000000 0 0 1
16.411103 -11.895964 23.874072 31.317880 -0.627225 0.703915 0.019969 0.005655 -137236.000000 0 0 1
15.212303 -12.548364 23.561272 30.724732 -0.689730 0.696877 0.033301 -0.010506 -344465.000000 0 0 1
14.793103 -13.309064 24.613272 31.650913 -0.732638 0.679880 0.020810 0.006512 -8654.550000 0 0 1
13.573803 -14.181564 24.236772 31.189518 -0.807292 0.680782 0.027518 0.002464 -206445.000000 0 0 1
13.925103 -15.138664 23.210672 31.013271 -0.827129 0.725133 0.019992 -0.000363 -265227.000000 0 0 1
12.816003 -15.730864 22.622072 30.388619 -0.887153 0.731122 0.009019 0.005409 -758001.000000 0 0 1
13.125003 -16.794164 21.502672 30.276634 -0.907425 0.781004 -0.006225 -0.005396 -257967.000000 0 0 1
13.966503 -17.799564 22.005572 31.561573 -0.905483 0.799275 0.006608 -0.005614 -27604.000000 0 0 1
14.350403 -18.669464 20.948072 31.516737 -0.915462 0.843751 -0.003449 -0.006480 -100820.000000 0 0 1
-22.334697 -32.506620 27.218815 47.920589 0.968793 0.966725 0.014441 -0.006901 10756.800000 0 0 1
-23.172197 -33.513620 27.812645 49.332105 0.965848 0.971836 0.006763 -0.009534 -304989.000000 0 0 1
-24.266797 -33.810920 27.011225 49.615139 0.948276 0.995105 0.010704 -0.016564 -738385.000000 0 0 1
-25.258687 34.601236 27.778925 51.057962 -0.940223 0.995520 0.009853 -0.018249 -970994.000000 0 0 1
-26.094777 -34.005820 28.616485 51.538688 0.916276 0.982141 0.023831 -0.022910 -703569.000000 0 0 1
-25.510157 -33.775420 29.909705 51.827961 0.923920 0.955628 0.026959 -0.016702 -354042.000000 0 0 1
-26.368137 -33.177420 31.058745 52.542035 0.899258 0.938347 0.025737 -0.025727 -218421.000000 0 0 1
-26.653047 -31.807620 30.840865 51.703660 0.873342 0.931672 0.022413 -0.018144 364315.000000 0 0 1
-27.442987 -31.310220 31.932775 52.470463 0.851125 0.916519 0.013817 -0.006550 106663.000000 0 0 1
-27.902397 -29.850520 31.691415 51.710183 0.819117 0.911114 0.012895 -0.007655 -435648.000000 0 0 1
-28.817387 -29.706020 30.654085 51.503032 0.800581 0.933294 0.007034 0.011329 -7136.000000 0 0 1
-29.236867 -28.353020 30.569165 50.923098 0.770052 0.926919 -0.001063 0.016442 285282.000000 0 0 1
-30.014537 -28.091120 29.195785 50.421992 0.752308 0.953259 -0.009642 0.002374 -44742.700000 0 0 1
-29.237717 -27.935720 28.036425 49.206601 0.762629 0.964571 -0.009929 0.005880 16954.000000 0 0 1
-28.700377 -26.620020 27.877475 48.057160 0.747810 0.951957 -0.029524 0.021414 -29296.000000 0 0 1
-27.619117 -26.491420 26.799635 46.720781 0.764561 0.959887 -0.012859 0.029155 4378.020000 0 0 1
-28.135227 -26.789220 25.477125 46.457907 0.760897 0.990357 -0.037112 0.019495 -321783.000000 0 0 1
-27.147587 -26.695520 24.502845 45.277275 0.777002 0.998965 -0.005543 0.030475 -725152.000000 0 0 1
-27.536537 -26.847520 23.044855 44.834312 0.772729 1.030954 -0.034400 0.029942 -83857.100000 0 0 1
-28.335427 -25.814820 22.464555 44.429242 0.738883 1.040690 -0.042026 0.025291 200144.000000 0 0 1
-28.600647 -26.134620 21.069955 44.101682 0.740375 1.072695 -0.043525 0.029692 -282379.000000 0 0 1
-29.063827 -24.968720 20.223555 43.325918 0.709753 1.085153 -0.038854 0.027315 286771.000000 0 0 1
-30.366937 -24.529220 20.584555 44.131138 0.679455 1.085534 -0.032202 0.019625 430978.000000 0 0 1
-30.955867 -23.546520 19.784955 43.636552 0.650281 1.100216 -0.017580 0.016812 805883.000000 0 0 1
-32.437307 -23.113120 20.084655 44.607046 0.619098 1.103743 -0.022835 0.024264 1698720.000000 0 0 1
-33.460637 -24.110320 19.821155 45.758058 0.624390 1.122786 -0.019376 0.022468 72070.400000 0 0 1
-34.767356 -23.672920 19.998155 46.573623 0.597788 1.126981 -0.012744 0.010717 -674755.000000 0 0 1
34.265438 -24.530620 19.116555 46.274336 -0.621317 1.144926 -0.006615 0.003777 -305705.000000 0 0 1
34.121815 -25.804420 19.684255 47.091785 -0.647485 1.139556 -0.011924 0.001121 -48720.000000 0 0 1
33.610112 -26.775320 18.749255 46.883813 -0.672692 1.159379 -0.004043 0.005626 135443.000000 0 0 1
33.357362 -28.162320 19.344355 47.749700 -0.701153 1.153686 -0.011963 0.012157 -351206.000000 0 0 1
32.384272 -28.325020 20.346855 47.592460 -0.718634 1.129046 -0.010013 0.008806 -226831.000000 0 0 1
32.676942 -27.656120 21.579955 47.940984 -0.702371 1.103879 0.001341 -0.000518 124482.000000 0 0 1
31.383692 -27.513420 22.504755 47.417174 -0.719780 1.076273 -0.001773 -0.002379 1082890.000000 0 0 1
30.327652 -26.971220 21.738355 46.040951 -0.726887 1.079065 0.000774 -0.001545 -463787.000000 0 0 1
29.187892 -26.651720 22.504355 45.482889 -0.740010 1.053206 0.005186 0.000275 69389.500000 0 0 1
28.246782 -25.713820 21.673955 43.918578 -0.738492 1.054683 0.017600 -0.004063 10467.000000 0 0 1
28.812512 -24.451320 21.245655 43.352113 -0.703701 1.058624 0.008815 -0.007064 119435.000000 0 0 1
29.429252 -23.695120 22.264855 43.855026 -0.677877 1.038292 0.012643 -0.010403 -396281.000000 0 0 1
30.382132 -22.627620 21.746455 43.680561 -0.640144 1.049676 0.011169 -0.011833 -276853.000000 0 0 1
29.716932 -21.442520 21.535255 42.504645 -0.625049 1.039494 0.015766 -0.026047 -384446.000000 0 0 1
30.608232 -20.473320 21.074555 42.428263 -0.589535 1.050992 0.013741 -0.023396 -613419.000000 0 0 1
29.994312 -19.057420 21.145355 41.351784 -0.566020 1.034038 0.009930 -0.022485 79059.100000 0 0 1
29.723902 -18.517220 22.434255 41.589584 -0.557141 1.001048 0.009540 -0.028070 190940.000000 0 0 1
28.668262 -19.150420 23.152755 41.529000 -0.588926 0.979415 0.031018 -0.028162 -113621.000000 0 0 1
28.703252 -18.806620 24.671715 42.264159 -0.580028 0.947456 0.019397 -0.018759 -18827.100000 0 0 1
28.200982 -17.496420 24.886115 41.481788 -0.555298 0.927384 0.009933 -0.015972 198144.000000 0 0 1
28.177652 -17.188720 26.263695 42.180728 -0.547749 0.898676 0.010396 -0.016557 -503416.000000 0 0 1
27.776772 -15.733720 26.554115 41.523728 -0.515373 0.876958 -0.005367 -0.007430 240442.000000 0 0 1
26.376732 -15.482620 26.460875 40.442816 -0.530791 0.857568 0.018814 -0.004113 518679.000000 0 0 1
26.009932 -14.198320 26.998695 40.087883 -0.499675 0.831879 0.006584 -0.006478 35318.000000 0 0 1
26.651492 -12.880420 26.490395 39.723397 -0.450191 0.840794 0.005132 0.005411 -547091.000000 0 0 1
26.057562 -12.588420 25.236995 38.397536 -0.450037 0.853625 -0.004690 0.015476 558166.000000 0 0 1
26.887242 -11.977320 24.240085 38.130849 -0.419076 0.881871 -0.014341 0.019494 356848.000000 0 0 1
28.057772 -12.823220 23.679455 38.889460 -0.428684 0.916134 -0.014263 0.019113 -174785.000000 0 0 1
27.561672 -13.773220 22.713155 38.278385 -0.463427 0.935560 -0.004609 0.012225 445775.000000 0 0 1
28.378232 -14.956420 22.634755 39.260039 -0.485044 0.956316 -0.004114 -0.001544 91146.300000 0 0 1
27.790022 -15.909120 21.635255 38.645435 -0.519935 0.976604 0.005633 -0.011848 -27537.000000 0 0 1
28.197182 -15.478320 20.306255 38.039498 -0.502022 1.007684 -0.002319 -0.005780 133079.000000 0 0 1
27.570942 -16.325220 19.382755 37.448108 -0.534603 1.026765 -0.002233 -0.013056 -375316.000000 0 0 1
27.975722 -16.010720 17.932655 36.885827 -0.519809 1.063099 -0.000427 -0.014151 -113641.000000 0 0 1
27.494022 -16.966920 17.040655 36.526449 -0.552908 1.085434 0.011374 -0.018744 346843.000000 0 0 1
26.096982 -17.149820 16.824755 35.471695 -0.581390 1.076611 0.013902 -0.020057 -141477.000000 0 0 1
25.460262 -16.227920 15.773555 34.064282 -0.567454 1.089360 0.009604 -0.010136 -874049.000000 0 0 1
25.672742 -16.563320 14.372655 33.763981 -0.572973 1.131083 0.018952 -0.014235 200806.000000 0 0 1
24.871282 -17.646620 13.942755 33.531839 -0.617085 1.141967 0.009498 -0.022113 -299157.000000 0 0 1
25.176712 -18.255120 12.567755 33.541984 -0.627360 1.186737 -0.002767 0.000603 -561691.000000 0 0 1
24.627982 -17.603120 11.448855 32.364851 -0.620564 1.209226 0.003861 -0.001664 -250472.000000 0 0 1
24.510882 -18.449420 10.314155 32.365818 -0.645229 1.246466 -0.007245 -0.001477 197312.000000 0 0 1
25.852202 -18.782020 9.605755 33.367216 -0.628301 1.278784 0.002681 0.009660 1076660.000000 0 0 1
26.770532 -19.549820 10.454555 34.758517 -0.630756 1.265289 0.010950 0.023159 -524323.000000 0 0 1
28.069162 -19.525920 9.961755 35.614266 -0.607791 1.287302 0.019795 0.018526 -559166.000000 0 0 1
28.967412 -20.291220 10.976955 37.031582 -0.611051 1.269853 0.038063 -0.007432 -208607.000000 0 0 1
29.007742 -19.604820 12.242655 37.090169 -0.594332 1.234410 0.047972 -0.023442 133464.000000 0 0 1
29.438082 -20.416220 13.311555 38.218061 -0.606371 1.215034 0.019174 -0.018106 -17360.100000 0 0 1
29.154182 -19.737920 14.702355 38.153781 -0.595135 1.175215 0.025653 -0.012488 104504.000000 0 0 1
29.078302 -20.704020 15.747155 39.015086 -0.618740 1.155330 0.034472 -0.015109 -83979.700000 0 0 1
28.773752 -20.103720 16.965055 38.985913 -0.609841 1.120582 0.034086 -0.024543 -54276.100000 0 0 1
28.478012 -21.161420 17.978355 39.774666 -0.639057 1.101784 0.016034 -0.020579 -500262.000000 0 0 1
27.224572 -21.753120 17.880355 39.167367 -0.674146 1.096726 0.009011 -0.017494 -615429.000000 0 0 1
26.989972 -22.721320 18.871555 40.010655 -0.699739 1.079620 0.019683 -0.018263 -1040060.000000 0 0 1
25.799262 -23.630820 18.686655 39.663694 -0.741557 1.080228 0.016469 -0.007281 -1520710.000000 0 0 1
24.700282 -22.887620 19.096455 38.712035 -0.747326 1.054923 0.020572 -0.011485 -1430520.000000 0 0 1
23.574282 -23.689620 18.849955 38.370114 -0.787838 1.057253 0.017940 -0.010591 -1038000.000000 0 0 1
22.405582 -23.067820 19.611855 37.666421 -0.799960 1.023158 0.009361 -0.007343 -1179440.000000 0 0 1
21.849482 -21.943220 18.931255 36.294588 -0.787539 1.022071 0.006320 -0.008902 907903.000000 0 0 1
20.566182 -21.589020 19.506055 35.630602 -0.809657 0.991480 0.008275 -0.006546 1015310.000000 0 0 1
20.498482 -21.123320 21.007455 36.162073 -0.800409 0.950932 0.007488 -0.006994 -642918.000000 0 0 1
20.744482 -22.113920 21.972155 37.445087 -0.817340 0.943716 0.015351 -0.004858 -112784.000000 0 0 1
20.974282 -21.607920 23.245155 38.041555 -0.800277 0.913415 0.029623 -0.004752 -135095.000000 0 0 1
21.477782 -22.578320 24.308275 39.521739 -0.810373 0.908333 0.028724 -0.006317 316034.000000 0 0 1
20.457782 -23.463920 24.815065 39.810348 -0.853735 0.897800 0.013105 0.003719 416931.000000 0 0 1
20.893082 -24.356920 25.863235 41.215134 -0.861798 0.892435 0.017960 0.015734 -261196.000000 0 0 1
19.752382 -25.179220 26.493745 41.545977 -0.905596 0.879292 0.031295 0.016178 41453.400000 0 0 1
19.247982 -26.217220 25.644905 41.418457 -0.937502 0.903116 0.031909 0.007904 -65714.800000 0 0 1
18.284782 -27.037620 26.222385 41.868599 -0.976173 0.893996 0.039811 -0.004746 -376439.000000 0 0 1
17.574082 -27.970520 25.232045 41.567468 -1.009822 0.918498 0.049803 -0.018807 236533.000000 0 0 1
16.549282 -27.348020 24.443145 40.240033 -1.026609 0.917971 0.050315 -0.021129 605144.000000 0 0 1
16.032282 -28.130220 23.405955 39.952247 -1.052780 0.944870 0.059460 -0.025730 -868984.000000 0 0 1
15.052482 -27.395420 22.557055 38.547463 -1.068374 0.945699 0.050476 -0.022041 -1352610.000000 0 0 1
13.833482 -27.111820 23.137555 38.233002 -1.098992 0.920814 0.022386 -0.021491 -622946.000000 0 0 1
13.050582 -26.340620 22.220555 36.849681 -1.110792 0.923533 0.000880 -0.014862 19056.000000 0 0 1
11.707882 -25.836820 22.759255 36.367560 -1.145328 0.894624 0.011268 -0.007131 397795.000000 0 0 1
10.597082 -26.730720 22.741355 36.660588 -1.193364 0.901644 0.015119 -0.012466 1308260.000000 0 0 1
9.414982 -26.092720 22.155855 35.501462 -1.224508 0.896839 0.006327 0.000505 1314800.000000 0 0 1
8.156282 -26.986020 22.277255 35.931132 -1.277285 0.902055 0.009423 -0.000451 -62227.500000 0 0 1
8.036482 -27.903720 21.219255 35.964696 -1.290378 0.939735 0.022206 0.000936 975783.000000 0 0 1
6.780282 -28.623620 21.186355 36.251144 -1.338206 0.946616 0.002414 0.007947 737363.000000 0 0 1
6.665382 -29.511220 19.919555 36.223308 -1.348664 0.988540 0.018195 0.008791 100371.000000 0 0 1
7.458782 -30.682620 20.010755 37.382976 -1.332327 1.005945 0.022601 -0.002067 264138.000000 0 0 1
7.288682 -31.434620 18.819155 37.355331 -1.342955 1.042818 0.011690 0.001090 2010.110000 0 0 1
8.030282 -32.771520 18.884055 38.666076 -1.330493 1.060555 0.010574 -0.004734 -213888.000000 0 0 1
7.421582 -33.721220 19.731655 39.768565 -1.354164 1.051624 0.011563 -0.001835 77415.100000 0 0 1
8.253282 34.454336 19.917955 40.644100 1.335684 1.058640 0.009923 -0.007523 -59214.800000 0 0 1
7.744682 33.480636 21.005255 40.275970 1.343476 1.022149 0.012059 -0.011085 -739878.000000 0 0 1
6.799482 32.537136 20.609755 39.110870 1.364785 1.015780 0.010449 -0.006695 -365925.000000 0 0 1
6.985882 31.345036 21.234255 38.499447 1.351510 0.986579 -0.001834 -0.015883 -355526.000000 0 0 1
6.058582 30.186236 20.807355 37.159942 1.372721 0.976482 0.011912 -0.024700 -172845.000000 0 0 1
4.790582 30.241436 21.396355 37.353689 1.413691 0.960873 0.002108 -0.022819 -41758.500000 0 0 1
3.908282 29.207036 20.883855 36.117323 1.437774 0.954248 0.007218 -0.020543 604544.000000 0 0 1
2.487282 29.171936 21.472455 36.307778 1.485739 0.938001 0.004401 -0.012991 -62897.200000 0 0 1
2.511282 28.838836 22.834555 36.870068 1.483936 0.902914 0.000868 -0.019366 -350261.000000 0 0 1
1.209982 28.590236 23.299255 36.901503 1.528500 0.887451 0.000066 -0.009740 -215838.000000 0 0 1
1.199782 28.225536 24.827625 37.610255 1.528315 0.849806 0.010774 -0.014138 -374297.000000 0 0 1
1.545382 29.363036 25.611025 38.993598 1.518215 0.854228 0.010481 -0.007332 91796.800000 0 0 1
1.373582 29.097136 26.979185 39.703985 1.523625 0.823704 0.002005 -0.004867 -452729.000000 0 0 1
2.397782 28.268336 27.753915 39.687882 1.486177 0.796372 -0.007304 -0.010607 -499548.000000 0 0 1
2.681282 26.970736 27.270145 38.448286 1.471707 0.782337 -0.001587 -0.010258 482105.000000 0 0 1
3.684382 26.303436 28.038655 38.621387 1.431630 0.758327 -0.007706 -0.006861 304134.000000 0 0 1
4.208582 24.976236 27.431925 37.336778 1.403861 0.745549 -0.003913 0.005970 -589652.000000 0 0 1
3.172882 24.061936 27.319345 36.542996 1.439690 0.726363 0.011602 0.011251 -119884.000000 0 0 1
3.757882 22.796136 27.069355 35.588417 1.407418 0.706525 0.014485 0.019040 553959.000000 0 0 1
2.665682 21.663436 27.075795 34.777996 1.448362 0.678472 0.005837 0.020118 223009.000000 0 0 1
3.068182 20.285136 26.973415 33.889019 1.420681 0.650248 0.006815 0.025262 -20778.700000 0 0 1
3.560982 19.851636 25.727115 32.690250 1.393304 0.664871 0.007317 0.024698 -851325.000000 0 0 1
3.956082 18.395536 25.936565 32.042967 1.358966 0.627614 -0.000300 0.020606 -306155.000000 0 0 1
5.151282 18.254936 26.673225 32.729792 1.295762 0.618149 -0.003899 0.013857 127450.000000 0 0 1
6.349382 18.350836 25.936185 32.399900 1.237690 0.642664 0.005764 0.009919 -903730.000000 0 0 1
7.609882 18.232036 26.823645 33.314041 1.175388 0.634825 -0.001736 0.008504 -110457.000000 0 0 1
8.081282 19.298936 27.598515 34.632847 1.174238 0.648669 -0.004977 0.006933 96087.600000 0 0 1
8.366982 20.501336 26.877035 34.823644 1.183311 0.689123 -0.008394 0.003671 -398739.000000 0 0 1
8.819282 21.621136 27.889045 36.373783 1.183497 0.697057 -0.012169 0.007368 670143.000000 0 0 1
9.958782 21.299036 28.710825 37.109806 1.133428 0.686180 0.002411 -0.000732 506791.000000 0 0 1
10.135482 22.200836 29.796675 38.515541 1.142520 0.686250 0.009210 -0.011124 -88863.100000 0 0 1
11.352082 21.862036 30.669995 39.337856 1.091860 0.676680 0.032646 -0.013199 -182528.000000 0 0 1
12.585882 21.852136 29.998735 39.189850 1.048243 0.699022 0.022902 -0.018662 -804626.000000 0 0 1
13.614282 21.599136 30.918185 40.097450 1.008383 0.690267 0.030230 -0.000885 -266814.000000 0 0 1
14.979082 21.612936 30.214095 40.054755 0.964743 0.716179 0.032364 -0.009976 -188446.000000 0 0 1
15.179582 22.808036 29.498315 40.258872 0.983577 0.748492 0.022040 -0.015367 107728.000000 0 0 1
16.410782 22.831136 28.791665 40.243440 0.947571 0.773546 0.040761 -0.006526 -107789.000000 0 0 1
-8.374797 16.908536 4.446772 19.385809 -1.110916 1.339353 0.001676 -0.012112 -233170.000000 0 1 0
-8.207797 18.252036 4.942872 20.613993 -1.148198 1.328655 0.005459 -0.010218 590464.000000 0 1 0
-6.845797 18.597836 5.195472 20.487493 -1.218092 1.314404 -0.002365 -0.003280 172497.000000 0 1 0
-6.695297 20.065436 5.649172 21.894334 -1.248740 1.309824 0.000965 -0.003583 -130487.000000 0 1 0
-6.864897 21.142736 4.714572 22.723760 -1.256842 1.361805 0.000176 -0.008350 -378555.000000 0 1 0
-8.205397 21.454636 4.398872 23.387604 -1.205507 1.381584 -0.005724 -0.007689 29640.800000 0 1 0
-8.299097 22.512336 3.286272 24.217346 -1.217607 1.434677 0.008805 -0.010663 -119010.000000 0 1 0
-7.765297 22.200336 2.019272 23.605766 -1.234315 1.485150 -0.007001 -0.010728 -136829.000000 0 1 0
-8.214397 21.044436 1.296272 22.627967 -1.198649 1.513479 0.006707 -0.011962 -900191.000000 0 1 0
-7.558497 21.051136 -0.091128 22.367152 -1.226078 1.574871 -0.005555 -0.004558 466984.000000 0 1 0
-6.247197 20.538236 -0.268128 21.469012 -1.275515 1.583286 -0.018585 -0.000768 -71885.300000 0 1 0
-5.280497 21.434836 0.215772 22.076739 -1.329255 1.561022 -0.012055 -0.004595 -638757.000000 0 1 0
-3.873897 21.269536 -0.417128 21.623465 -1.390638 1.590088 -0.017703 -0.000229 74631.400000 0 1 0
-3.806697 21.543436 -1.807928 21.951746 -1.395903 1.653249 -0.015731 -0.006615 502159.000000 0 1 0
-2.465897 21.308236 -2.241828 21.567275 -1.455584 1.674930 -0.012731 -0.005856 597560.000000 0 1 0
-2.461897 21.399336 -3.775928 21.868931 -1.456254 1.744328 0.004493 -0.012861 685592.000000 0 1 0
-1.345797 22.139236 -4.311228 22.595212 -1.510083 1.762776 0.003628 -0.000271 790523.000000 0 1 0
-1.659397 22.539536 -5.658828 23.298210 -1.497307 1.816137 0.014921 -0.008952 -367141.000000 0 1 0
-0.517197 23.269036 -6.345528 24.124287 -1.548573 1.836963 0.014977 -0.013005 -369038.000000 0 1 0
0.614803 22.451236 -6.426728 23.361053 1.543419 1.849495 0.003052 0.005156 323732.000000 0 1 0
1.821503 22.977436 -7.007328 24.091141 1.491688 1.865930 0.001906 -0.005890 663063.000000 0 1 0
2.996503 22.023236 -6.826328 23.250821 1.435566 1.868782 -0.006600 0.002885 -409081.000000 0 1 0
2.950103 20.969636 -7.849228 22.584045 1.431029 1.925760 0.004483 -0.010849 -231867.000000 0 1 0
3.997503 20.049336 -7.675328 21.837274 1.373994 1.929946 0.005424 -0.008910 152492.000000 0 1 0
3.889903 18.882836 -8.700328 21.151561 1.367636 1.994712 0.002028 -0.012862 140423.000000 0 1 0
4.266403 19.273736 -10.006528 22.131644 1.352951 2.039956 0.005301 -0.021372 -178519.000000 0 1 0
3.101803 19.211136 -10.857428 22.283910 1.410719 2.079713 0.012267 -0.021800 72009.600000 0 1 0
3.263403 19.622636 -12.339128 23.408368 1.405997 2.126010 0.009927 -0.024145 -207341.000000 0 1 0
3.405703 21.010536 -12.462128 24.664672 1.410099 2.100482 0.030798 -0.024224 -122547.000000 0 1 0
3.680903 21.323436 -13.811528 25.670922 1.399859 2.138885 0.027118 -0.015501 -124026.000000 0 0 1
3.925003 22.790036 -14.211028 27.143041 1.400245 2.121821 0.027364 -0.013995 33147.500000 0 0 1
2.823503 23.686636 -14.293028 27.808623 1.452154 2.110612 0.033527 -0.011790 -439507.000000 0 0 1
3.200903 24.952436 -14.806428 29.190754 1.443213 2.102764 0.028723 -0.010102 -207678.000000 0 0 1
2.114603 25.938836 -15.284428 30.181260 1.489454 2.101826 0.023937 0.000521 351277.000000 0 0 1
1.089303 26.251636 -14.333028 29.929428 1.529325 2.070191 0.029807 -0.012520 316641.000000 0 0 1
0.910403 27.651236 -14.118028 31.060238 1.537884 2.042649 0.018316 -0.008821 171821.000000 0 0 1
-0.042297 27.851236 -12.870828 30.681449 -1.569278 2.003689 0.022619 -0.024561 1842920.000000 0 0 1
-1.472097 27.616436 -12.939928 30.533200 -1.517542 2.008431 0.009211 -0.033822 1212500.000000 0 0 1
-1.924597 26.274836 -13.221528 29.476768 -1.497678 2.035928 0.003895 -0.026935 -330918.000000 0 0 1
-1.854197 25.153436 -12.226828 28.029069 -1.497214 2.022189 0.037918 -0.036974 -265552.000000 0 0 1
-2.660497 25.216536 -11.087728 27.674711 -1.465679 1.983017 0.034436 -0.035060 -382786.000000 0 0 1
-2.506897 24.110936 -10.272328 26.327599 -1.467195 1.971616 0.056830 -0.033000 577421.000000 0 0 1
-3.488997 24.105536 -9.013128 25.970876 -1.427056 1.925217 0.028116 -0.028222 470767.000000 0 0 1
-3.023497 24.734336 -7.851328 26.126084 -1.449161 1.876031 0.026991 -0.028521 -175853.000000 0 0 1
-2.889697 26.114636 -8.021928 27.471365 -1.460590 1.867125 0.030599 -0.025502 -153531.000000 0 0 1
-2.526897 26.731536 -6.656428 27.663482 -1.476548 1.813802 0.016904 -0.016315 411156.000000 0 0 1
-1.286697 26.269736 -6.097628 26.998809 -1.521855 1.798610 0.019331 -0.015827 382544.000000 0 0 1
-1.111997 26.634336 -4.720128 27.072199 -1.529070 1.746045 0.018630 -0.011290 -519051.000000 0 0 1
-1.749597 25.834836 -3.594528 26.142312 -1.503177 1.708732 0.004067 -0.005531 571259.000000 0 0 1
-3.168397 25.823336 -3.806228 26.293930 -1.448711 1.716064 -0.007785 -0.000955 634399.000000 0 0 1
-3.812697 24.929036 -2.886928 25.383613 -1.419030 1.684775 -0.008012 0.000517 1045480.000000 0 0 1
-5.234897 24.509736 -3.425628 25.295577 -1.360374 1.706638 -0.016819 0.005567 977806.000000 0 0 1
-6.198897 25.537536 -3.556728 26.518717 -1.332665 1.705323 -0.023761 0.010600 -170514.000000 0 0 1
-7.334197 25.073836 -4.249928 26.467897 -1.286231 1.732064 -0.016407 0.009182 -646458.000000 0 0 1
-8.452197 26.048036 -4.373828 27.732114 -1.257030 1.729175 -0.016422 0.007267 -516192.000000 0 0 1
-9.195097 26.111136 -3.149228 27.861422 -1.232205 1.684070 -0.011450 0.010488 -114902.000000 0 0 1
-10.409897 26.824936 -3.250728 28.957043 -1.200618 1.683294 -0.004655 0.005458 447051.000000 0 0 1
-11.162797 26.838736 -1.852528 29.126579 -1.176641 1.634442 0.002865 0.013619 305220.000000 0 0 1
-11.474997 25.549036 -1.295428 28.037598 -1.148661 1.617016 0.010706 0.008889 175494.000000 0 0 1
-10.367997 24.914336 -0.686828 26.994281 -1.176449 1.596243 0.008982 0.003811 -17436.400000 0 0 1
-10.692497 23.442236 -0.351628 25.768033 -1.142864 1.584443 0.009681 -0.002916 203438.000000 0 0 1
-11.667197 23.349536 0.680272 26.111053 -1.107408 1.544740 0.022851 -0.005603 106324.000000 0 0 1
-12.009997 21.993536 0.944772 25.076846 -1.070976 1.533112 0.026715 -0.009017 -368514.000000 0 0 1
-12.989897 21.829936 2.084272 25.487795 -1.034025 1.488930 0.028563 -0.014307 -430043.000000 0 0 1
-12.429297 21.894736 3.375572 25.401995 -1.054477 1.437516 0.040087 -0.017898 -72714.200000 0 0 1
-12.349097 23.175036 3.947572 26.554958 -1.081206 1.421587 0.022873 -0.019822 1102.870000 0 0 1
-12.286297 23.106036 5.480072 26.737112 -1.082084 1.364372 0.024001 -0.015117 873088.000000 0 0 1
-11.001097 22.684436 5.989072 25.912868 -1.119251 1.337564 0.019434 -0.007814 761676.000000 0 0 1
-11.107397 22.423636 7.347372 26.080214 -1.110881 1.285208 0.018196 -0.007604 -461163.000000 0 0 1
-9.866497 21.939036 8.121372 25.389481 -1.148172 1.245202 0.019226 -0.012159 -643214.000000 0 0 1
-8.923897 22.967736 8.253272 25.985945 -1.200208 1.247593 0.023964 -0.017918 11000.100000 0 0 1
-7.812097 22.641036 9.078072 25.613605 -1.238546 1.208498 0.030999 -0.016763 -4292.730000 0 0 1
-8.035197 22.550436 10.628072 26.192412 -1.228501 1.152976 0.018360 -0.012357 -562764.000000 0 0 1
-8.844597 21.449236 10.948672 25.654825 -1.179689 1.129880 0.024480 -0.006463 -7742.220000 0 0 1
-8.612897 20.938636 12.258972 25.746667 -1.180553 1.074538 0.015699 -0.000739 -224931.000000 0 0 1
-9.611997 19.832736 12.639272 25.406281 -1.119501 1.050098 0.013054 0.009433 -185966.000000 0 0 1
-9.594697 18.639936 11.836372 24.074989 -1.095427 1.056817 0.015021 -0.000824 396553.000000 0 1 0
-10.427397 17.629336 12.473372 23.981432 -1.036665 1.023798 0.010534 0.003766 317960.000000 0 1 0
-10.581797 16.366436 11.514772 22.636798 -0.996847 1.037151 0.006159 -0.008118 -30276.000000 0 1 0
-11.226497 15.237636 12.133872 22.482229 -0.935822 1.000704 0.000080 -0.002498 217694.000000 0 1 0
-11.456297 14.063736 11.355272 21.400411 -0.887217 1.011476 -0.002662 -0.000546 170051.000000 0 1 0
-11.517597 12.707336 12.116372 20.998521 -0.834471 0.955732 -0.005839 -0.009359 603286.000000 0 1 0
-12.662897 12.613536 12.981772 22.090193 -0.783445 0.942619 -0.000612 -0.006840 642464.000000 0 1 0
-12.803797 11.293036 13.477572 21.751203 -0.722785 0.902532 -0.004037 -0.006891 252511.000000 0 1 0
-13.572797 11.281436 14.859072 23.071273 -0.693466 0.871014 -0.004419 -0.011700 1050520.000000 0 1 0
-14.970197 11.570536 14.690572 23.954060 -0.658000 0.910588 0.004435 -0.020222 567032.000000 0 1 0
-15.577897 11.941036 15.895372 25.257119 -0.654001 0.890090 -0.003137 -0.018083 -123900.000000 0 0 1
-16.378597 13.246836 15.799372 26.331678 -0.680077 0.927278 0.012169 -0.021164 -541711.000000 0 0 1
-17.590397 13.162336 15.111472 26.665066 -0.642392 0.968284 -0.000462 -0.014334 -269813.000000 0 0 1
-18.260997 14.405736 14.932372 27.639916 -0.667924 1.000066 0.018429 -0.012210 517944.000000 0 0 1
-19.571097 14.265636 14.099072 28.023562 -0.629869 1.043597 0.017789 -0.008333 1342760.000000 0 0 1
-20.592097 13.399536 14.754072 28.657715 -0.576876 1.029978 0.022069 -0.001837 1461510.000000 0 0 1
-21.715797 13.264936 13.888572 28.990115 -0.548354 1.071190 0.008969 0.000575 433074.000000 0 0 1
-22.826097 12.302936 14.398572 29.659936 -0.494347 1.063912 0.010297 0.003533 259445.000000 0 0 1
-23.423997 12.733636 15.636772 30.908538 -0.497928 1.040366 0.010105 0.006344 60619.900000 0 0 1
-24.244797 11.782236 16.225772 31.462786 -0.452360 1.028957 0.011725 0.002585 -715894.000000 0 0 1
-25.001897 12.309236 17.430272 32.869842 -0.457494 1.011864 0.011292 0.008107 -621367.000000 0 0 1
-25.984687 13.240336 17.111772 33.813062 -0.471253 1.040174 0.005786 0.012640 -188259.000000 0 0 1
-26.640537 13.785136 18.208972 35.090096 -0.477510 1.025209 -0.005677 0.025055 588789.000000 0 0 1
-27.787777 14.831636 17.939472 36.248622 -0.490279 1.053076 -0.005255 0.015693 609851.000000 0 0 1
-27.272077 16.093436 17.594572 36.226148 -0.533113 1.063647 0.002228 0.015282 797407.000000 0 0 1
-28.362117 17.051336 17.530272 37.449541 -0.541302 1.083653 0.008219 0.020101 764639.000000 0 0 1
-27.865007 18.540836 17.478272 37.758591 -0.587112 1.089538 0.015912 0.013161 -533430.000000 0 0 1
-27.400207 18.989136 18.750972 38.248628 -0.606032 1.058432 0.008331 0.012044 -678999.000000 0 0 1
-28.211417 19.228436 19.855872 39.495220 -0.598259 1.044029 0.004685 0.011119 -1053270.000000 0 0 1
-27.464377 19.430436 21.229672 39.781061 -0.615727 1.007871 0.008714 -0.003024 419419.000000 0 0 1
-26.957287 18.221736 21.868272 39.203932 -0.594401 0.979054 0.011173 -0.004245 1289580.000000 0 0 1
-25.828767 17.584836 21.165172 37.740113 -0.597740 0.975428 0.025970 0.005440 952247.000000 0 0 1
-25.320187 16.225336 21.734872 37.104960 -0.569885 0.944970 0.011707 0.009131 736879.000000 0 0 1
-26.450137 15.322036 21.701172 37.487536 -0.525045 0.953429 -0.015832 0.017246 1191820.000000 0 0 1
-26.032407 14.028536 22.034472 36.878232 -0.494271 0.930426 -0.017758 0.023616 -202037.000000 0 0 1
-27.228887 13.095736 22.311572 37.559510 -0.448292 0.934734 -0.006254 0.013000 45597.000000 0 0 1
-28.074777 12.897736 21.188372 37.463206 -0.430649 0.969662 -0.006823 -0.000645 185905.000000 0 0 1
-29.088427 11.947436 21.471272 38.077465 -0.389720 0.971715 0.012572 0.000647 -170024.000000 0 0 1
-29.877117 11.637036 20.177772 37.884102 -0.371419 1.009105 0.020905 0.009245 -475717.000000 0 0 1
-29.145597 11.052536 19.086472 36.550209 -0.362464 1.021369 0.030749 -0.004632 456060.000000 0 0 1
-28.618707 9.738636 19.247072 35.837427 -0.327998 1.003841 0.036858 -0.005616 11031.800000 0 0 1
-27.697327 9.316736 18.064772 34.355196 -0.324487 1.017113 0.047548 -0.008298 188539.000000 0 0 1
-28.375787 8.994336 16.811072 34.186189 -0.306954 1.056697 0.037332 0.004242 712450.000000 0 0 1
-29.087637 10.074036 16.188472 34.779929 -0.333405 1.086648 0.028986 0.000549 -235009.000000 0 0 1
-28.260407 11.224236 15.530372 34.144202 -0.378066 1.098596 0.027433 0.004702 -203104.000000 0 0 1
-27.931497 11.068536 14.175072 33.220681 -0.377290 1.129962 0.018371 -0.003146 -139725.000000 0 0 1
-26.784417 11.751436 13.785472 32.334818 -0.413452 1.130359 0.004209 -0.001022 -747036.000000 0 0 1
-26.578287 11.798236 12.230372 31.546564 -0.417774 1.172669 0.012951 -0.005506 -315588.000000 0 0 1
-26.107407 10.628836 11.509272 30.447203 -0.386629 1.183153 0.027751 -0.002854 231720.000000 0 0 1
-27.059667 9.642436 11.212472 30.837018 -0.342312 1.198662 0.010190 0.001048 -709144.000000 0 0 1
-26.456077 8.370136 10.583572 29.698403 -0.306414 1.206418 0.011150 -0.001476 -213473.000000 0 0 1
-26.246777 8.448736 9.190272 29.064334 -0.311422 1.249070 0.018778 -0.000841 285685.000000 0 0 1
-25.880587 7.246536 8.578772 28.211919 -0.273008 1.261820 0.025439 -0.006780 -86741.200000 0 0 1
-25.162437 7.472436 7.223572 27.224355 -0.288673 1.302245 0.031745 0.008431 -94733.400000 0 0 1
-26.005347 8.068636 6.260572 27.938785 -0.300850 1.344796 0.035154 0.006893 -88374.000000 0 0 1
-25.262537 8.511736 5.171872 27.154993 -0.324985 1.379168 0.042290 0.011733 -42221.500000 0 0 1
-26.079277 9.037436 3.917672 27.877447 -0.333586 1.429798 0.015418 0.018259 -35204.300000 0 0 1
-26.661567 7.996636 3.102272 28.007310 -0.291394 1.459802 0.032777 0.001616 321820.000000 0 0 1
-25.855557 6.933936 2.616572 26.896760 -0.262014 1.473360 0.037739 0.003463 -683782.000000 0 0 1
-24.904397 7.289536 1.486272 25.991832 -0.284747 1.513583 0.048099 0.001496 -681650.000000 0 0 1
-23.821097 8.063936 1.881372 25.219264 -0.326412 1.496126 0.038804 0.001985 -545432.000000 0 0 1
-22.738897 7.953036 1.022172 24.111264 -0.336456 1.528390 0.030762 0.006640 -384646.000000 0 1 0
-21.575097 8.910736 1.450572 23.387821 -0.391672 1.508734 0.008508 0.010452 155114.000000 0 1 0
-21.798897 10.257536 1.158272 24.119505 -0.439814 1.522756 0.008662 0.011254 972625.000000 0 1 0
-20.778297 11.028036 1.805572 23.592695 -0.487942 1.494190 0.004461 0.009428 -101.686000 0 1 0
-21.073897 12.553436 1.731472 24.590565 -0.537242 1.500326 -0.004737 0.018458 -418396.000000 0 1 0
-20.003897 13.322236 2.193672 24.134002 -0.587528 1.479775 -0.002549 0.006480 62911.400000 0 1 0
-20.408497 14.437036 2.941772 25.171189 -0.615677 1.453658 -0.002197 0.004110 -91931.200000 0 0 1
-19.250197 14.907936 3.853072 24.650817 -0.658954 1.413847 -0.023423 0.005604 129935.000000 0 1 0
-18.782697 13.972736 4.811672 23.899356 -0.639596 1.368080 -0.030357 0.007353 52871.400000 0 1 0
-18.209697 14.669836 5.889972 24.114081 -0.678150 1.324046 -0.014696 0.006285 -464933.000000 0 1 0
-17.738397 13.682936 6.990172 23.467764 -0.657041 1.268343 -0.029643 0.008317 -475084.000000 0 1 0
-16.836897 12.718536 6.591472 22.106328 -0.646946 1.268020 -0.015685 0.002751 -184053.000000 0 1 0
-16.385697 11.938836 7.645972 21.667666 -0.629673 1.210155 -0.020785 0.005720 -675218.000000 0 1 0
9.497703 -34.250520 -14.608028 38.427841 -1.300292 1.960746 0.006834 0.015450 -642114.000000 0 0 1
10.488203 -33.650420 -13.818228 37.858903 -1.268658 1.944421 0.022524 0.006235 -112099.000000 0 0 1
10.976703 -32.426120 -14.333828 37.113338 -1.244390 1.967324 0.025053 -0.007157 555924.000000 0 0 1
12.269803 -31.924820 -13.585528 36.800934 -1.203867 1.948904 0.016514 -0.011215 1577470.000000 0 0 1
13.513103 -32.562620 -14.001628 37.933807 -1.177436 1.948844 0.020471 -0.002052 802273.000000 0 0 1
14.570003 -31.776120 -13.494028 37.471263 -1.140879 1.939189 0.015921 -0.003532 564761.000000 0 0 1
15.968603 -32.251420 -14.044328 38.631509 -1.111053 1.942868 0.035412 0.002584 715208.000000 0 0 1
16.288303 -33.552120 -13.677028 39.725491 -1.118846 1.922277 0.039225 -0.002695 -652584.000000 0 0 1
17.562403 -33.890220 -14.139428 40.705140 -1.092684 1.925553 0.031660 0.015389 -199867.000000 0 0 1
17.807103 33.853536 -14.004528 40.734281 1.086562 1.921759 0.012672 0.010313 21394.400000 0 0 1
17.973203 33.434536 -12.620628 40.002306 1.077551 1.891777 0.024746 0.007615 -134705.000000 0 0 1
17.839903 32.029536 -12.429028 38.712195 1.062608 1.897647 0.016507 0.011706 -10758.900000 0 0 1
18.411603 31.522736 -11.094328 38.154346 1.042170 1.865833 0.024102 -0.003457 -171237.000000 0 0 1
19.731303 31.080236 -11.173628 38.472787 1.005145 1.865472 0.022910 0.000356 -477555.000000 0 0 1
20.336703 30.824936 -9.914428 38.236815 0.987599 1.833083 0.024761 0.002448 1063890.000000 0 0 1
21.644603 29.944236 -10.027328 38.284376 0.944912 1.835804 0.016767 0.015487 818778.000000 0 0 1
22.796903 30.519436 -10.614328 39.544895 0.929241 1.842541 0.012311 -0.001622 -106976.000000 0 0 1
23.874503 29.667436 -10.274428 39.442522 0.893173 1.834327 0.007673 0.009785 3272.990000 0 0 1
25.155303 30.038736 -11.055728 40.710491 0.873646 1.845820 0.001640 0.003641 -209229.000000 0 0 1
25.806603 31.247836 -10.753728 41.929115 0.880480 1.830169 0.004152 -0.006614 -480481.000000 0 0 1
26.726103 31.457836 -11.767028 42.922523 0.866543 1.848498 0.005601 -0.001237 -229713.000000 0 0 1
27.570703 32.757736 -11.558428 44.348734 0.871167 1.834467 -0.002566 -0.006513 -426625.000000 0 0 1
26.911403 33.871636 -12.078328 44.915447 0.899411 1.843060 0.016760 -0.004102 -185210.000000 0 0 1
27.386503 -34.168620 -11.651128 45.312955 -0.895135 1.830843 0.020490 -0.003278 5093.870000 0 0 1
26.314303 -33.089220 -11.914028 43.923605 -0.898957 1.845482 0.008610 0.003997 294444.000000 0 0 1
25.162903 -33.202820 -11.082728 43.109463 -0.922287 1.830799 0.030724 -0.012902 -183749.000000 0 0 1
24.134903 -32.298820 -11.422728 41.906873 -0.929065 1.846864 0.031734 -0.014276 -135968.000000 0 0 1
24.302803 -30.765020 -11.227728 40.782037 -0.902214 1.849709 0.008100 -0.005240 -791894.000000 0 0 1
25.249003 -30.150320 -12.053128 41.131883 -0.873641 1.868197 0.002743 0.002240 -299000.000000 0 0 1
25.440903 -28.800220 -11.698728 40.169048 -0.847252 1.866316 -0.008406 -0.000801 -50465.000000 0 0 1
26.264303 -27.915720 -12.713728 40.382421 -0.815869 1.891077 -0.003345 0.000127 847663.000000 0 0 1
27.632703 -28.259820 -12.909528 41.579317 -0.796618 1.886494 -0.018831 0.007982 277588.000000 0 0 1
27.759303 -29.293120 -13.875828 42.675571 -0.812276 1.901963 -0.004351 0.000607 207043.000000 0 0 1
29.164503 -29.938320 -14.108628 44.112636 -0.798490 1.896348 -0.005946 -0.000580 525957.000000 0 0 1
29.692103 -30.768120 -13.106128 44.722128 -0.803193 1.868219 -0.004703 -0.003123 -67969.800000 0 0 1
30.793903 -31.495320 -13.611628 46.103102 -0.796658 1.870506 -0.006178 -0.010350 151286.000000 0 0 1
31.520203 -32.467820 -12.609728 46.975395 -0.800206 1.842562 -0.027807 -0.007315 356776.000000 0 0 1
32.366303 -33.368820 -13.316428 48.356830 -0.800648 1.849780 -0.036242 -0.011665 142796.000000 0 0 1
33.036703 -34.347120 -12.519828 49.273669 -0.804843 1.827701 -0.030390 -0.007216 -508734.000000 0 0 1
32.237503 33.893036 -11.760628 48.231803 0.810427 1.817115 -0.028654 -0.011767 -449385.000000 0 0 1
31.686403 34.330936 -10.524028 47.889419 0.825435 1.792362 -0.021445 -0.010959 395662.000000 0 0 1
30.799603 33.269536 -10.086828 46.445901 0.823930 1.789714 -0.018001 -0.007052 -82729.100000 0 0 1
30.116103 33.528336 -8.728728 45.905552 0.838961 1.762107 -0.020821 -0.001306 155020.000000 0 0 1
29.121203 34.531936 -8.882828 46.036982 0.870198 1.764964 -0.021404 -0.005248 -624939.000000 0 0 1
28.315203 34.604036 -7.750328 45.379044 0.885018 1.742429 -0.015469 -0.002597 2841.400000 0 0 1
27.397903 -33.475120 -7.904928 43.974045 -0.884903 1.751542 -0.011195 -0.007256 -140728.000000 0 0 1
28.159903 -32.273520 -7.834528 43.542394 -0.853362 1.751710 -0.019310 -0.011268 -172959.000000 0 0 1
27.623003 -31.138520 -8.428128 42.469649 -0.845154 1.770573 -0.014334 -0.006560 -485265.000000 0 0 1
26.614203 -30.442120 -7.513328 41.127710 -0.852388 1.754511 -0.005001 -0.013450 35832.700000 0 0 1
25.736503 -29.544820 -8.133428 40.017704 -0.854179 1.775468 -0.009329 -0.027467 -428505.000000 0 0 1
24.721703 -29.091420 -7.283028 38.865355 -0.866422 1.759302 -0.007582 -0.028749 -661524.000000 0 0 1
23.850803 -28.134820 -8.027928 37.747537 -0.867620 1.785107 0.026535 -0.030119 -644454.000000 0 0 1
22.841703 -28.779020 -8.807828 37.782975 -0.899913 1.806077 0.040079 -0.026822 64800.000000 0 0 1
22.106803 -27.852120 -9.554728 36.820431 -0.899896 1.833296 0.060335 -0.026803 -737465.000000 0 0 1
20.882603 -28.554420 -10.105728 36.790810 -0.939354 1.849054 0.063978 -0.025987 -774114.000000 0 0 1
21.173403 -29.392120 -11.134928 37.897181 -0.946525 1.869017 0.072395 -0.022874 146922.000000 0 0 1
20.041803 -30.126120 -11.597428 37.996806 -0.983766 1.880967 0.061795 -0.026247 517483.000000 0 0 1
19.628703 -31.407220 -10.844828 38.591576 -1.012216 1.855648 0.063820 -0.031702 -69727.600000 0 0 1
20.555703 -32.419020 -11.110528 39.962152 -1.005706 1.852535 0.045733 -0.018938 -273094.000000 0 0 1
20.221803 -33.645620 -10.518428 40.639714 -1.029625 1.832598 0.029054 -0.020320 -159176.000000 0 0 1
21.239203 34.511836 -10.773728 41.931418 1.019117 1.830648 0.033149 -0.011132 454030.000000 0 0 1
22.274803 34.616836 -9.774228 42.308719 0.999027 1.803924 0.030639 -0.001281 140404.000000 0 0 1
23.157203 33.516936 -9.916728 41.928302 0.966197 1.809575 0.011899 0.002183 310489.000000 0 0 1
24.509403 33.603536 -9.149128 42.586559 0.940630 1.787320 0.010059 0.000332 81391.000000 0 0 1
24.432503 33.333236 -7.765828 42.051872 0.938279 1.756535 -0.001662 -0.003970 122949.000000 0 0 1
25.013703 32.080936 -7.511428 41.367781 0.908553 1.753386 0.005515 -0.004618 -237310.000000 0 0 1
24.968403 31.682436 -5.971928 40.778203 0.903364 1.717774 0.006669 -0.000912 16296.300000 0 0 1
26.006303 32.327736 -5.191928 41.813472 0.893343 1.695286 0.002278 0.002663 151843.000000 0 0 1
27.002903 31.536436 -4.625028 41.774328 0.862688 1.681738 0.007409 0.005025 -464858.000000 0 0 1
26.712703 30.468036 -3.584528 40.678232 0.850979 1.659030 0.019367 0.006428 -959286.000000 0 0 1
26.236403 30.982936 -2.366728 40.668078 0.868162 1.629025 0.016473 0.005750 86495.800000 0 0 1
25.805103 29.985736 -1.445728 39.587092 0.860192 1.607325 0.013070 0.003094 -327168.000000 0 0 1
24.469203 29.268036 -1.669528 38.185693 0.874464 1.614532 0.017464 0.005656 72047.300000 0 0 1
23.376503 30.161136 -1.348028 38.183402 0.911453 1.606108 0.022944 0.006302 715203.000000 0 0 1
22.106803 29.556236 -1.632928 36.945207 0.928604 1.615009 0.027260 0.017529 591448.000000 0 0 1
20.965403 30.262636 -0.872728 36.825764 0.964931 1.594497 0.034441 0.011201 -60958.800000 0 0 1
20.829303 29.797636 0.454172 36.358840 0.960725 1.558305 0.046577 -0.003362 -237896.000000 0 0 1
19.825203 30.484936 1.135572 36.382132 0.994191 1.539579 0.041150 -0.005688 -583022.000000 0 0 1
19.255303 29.629536 2.250372 35.408195 0.994514 1.507198 0.037854 -0.022291 -543500.000000 0 0 1
18.548803 28.559336 1.672072 34.095302 0.994785 1.521736 0.036656 -0.014836 383176.000000 0 0 1
17.793103 27.829136 2.643672 33.136752 1.001930 1.490931 0.037708 -0.015459 -57266.400000 0 0 1
17.334103 26.455536 2.118672 31.699452 0.990763 1.503910 0.025513 0.001630 -366471.000000 0 0 1
18.321003 25.543236 1.712072 31.480903 0.948584 1.516385 0.028110 -0.005177 -444412.000000 0 0 1
18.927303 24.925636 2.805372 31.422926 0.921337 1.481399 0.045753 -0.003266 -150878.000000 0 0 1
20.182903 24.140736 2.353072 31.554107 0.874456 1.496154 0.043147 0.005395 -98298.500000 0 0 1
19.798403 23.071536 1.566772 30.442196 0.861601 1.519306 0.042059 0.013688 -117745.000000 0 0 1
20.912403 22.297336 1.201672 30.593199 0.817439 1.531507 0.016419 0.013289 -301825.000000 0 0 1
20.785703 21.218036 0.069272 29.702783 0.795691 1.568464 0.055369 0.005954 -335651.000000 0 0 1
20.561303 21.871736 -1.150428 30.041030 0.816271 1.609101 0.036859 0.015024 367910.000000 0 0 1
20.688003 20.977436 -2.249528 29.548379 0.792345 1.647000 0.079514 0.001646 -116762.000000 0 0 1
20.629103 21.576236 -3.680928 30.077285 0.807835 1.693486 0.049760 0.009882 199490.000000 0 0 1
21.692503 22.495236 -3.944428 31.498553 0.803563 1.696352 0.037822 0.014384 752007.000000 0 0 1
21.570003 22.963036 -5.241528 31.938060 0.816669 1.735658 0.030936 0.012741 676050.000000 0 0 1
22.650803 24.124236 -5.493828 33.544296 0.816888 1.735316 0.027729 0.027877 559193.000000 0 0 1
22.326803 25.370936 -4.888828 34.147784 0.849133 1.714457 0.016323 0.023051 172288.000000 0 0 1
22.660903 25.515836 -3.513428 34.306247 0.844589 1.673390 0.031732 0.015670 72972.500000 0 0 1
21.465003 25.397436 -2.525128 33.348949 0.869116 1.646587 0.030458 0.011760 -245697.000000 0 0 1
20.546303 26.519036 -2.512228 33.641063 0.911626 1.645543 0.035943 0.011525 1299850.000000 0 0 1
19.437803 26.494136 -1.623028 32.899873 0.937832 1.620149 0.037573 0.012748 527139.000000 0 0 1
18.467603 25.272036 -1.749528 31.349466 0.939728 1.626633 0.033550 0.007379 -1008950.000000 0 0 1
17.879203 25.268236 -3.064728 31.105341 0.955004 1.669484 0.035245 0.004295 261581.000000 0 0 1
17.621503 23.988036 -3.637428 29.986232 0.937227 1.692399 0.037228 0.002506 64514.100000 0 0 1
16.791303 24.171336 -4.939028 29.842844 0.963651 1.737063 0.036230 0.007238 344847.000000 0 0 1
16.145103 23.001036 -5.476228 28.630422 0.958777 1.763255 0.036569 0.000919 366620.000000 0 0 1
15.403803 23.282236 -6.632528 28.693729 0.986301 1.804055 0.038713 -0.005045 -105125.000000 0 0 1
14.740903 21.964436 -7.158028 27.403796 0.979713 1.835067 0.040129 -0.006163 -495235.000000 0 0 1
15.625003 21.068036 -7.767628 27.355784 0.932664 1.858706 0.022103 -0.000275 233369.000000 0 0 1
14.972203 19.875036 -8.176428 26.192325 0.925176 1.888271 0.024080 -0.007580 434419.000000 0 0 1
16.017503 18.790736 -8.628028 26.155210 0.864902 1.906971 0.021796 -0.001241 140832.000000 0 0 1
16.796403 19.099236 -9.745128 27.237245 0.849464 1.936693 0.012370 -0.001156 -106569.000000 0 0 1
17.466203 17.968636 -10.186328 27.049980 0.799576 1.956892 -0.000431 -0.001202 -599638.000000 0 0 1
18.827503 18.230536 -10.840128 28.360813 0.769291 1.962996 -0.015138 0.004850 -341385.000000 0 0 1
18.827303 18.738536 -12.139728 29.205703 0.783035 1.999468 -0.014001 0.007674 -365624.000000 0 0 1
20.179103 18.900736 -12.449428 30.321977 0.752698 1.993880 -0.013879 0.016030 -367590.000000 0 0 1
20.499203 19.411336 -13.871128 31.455134 0.758147 2.027488 -0.014403 0.012188 -294784.000000 0 0 1
20.435503 18.417336 -14.870528 31.272043 0.733501 2.066353 -0.020772 0.017418 324364.000000 0 0 1
20.779303 18.801636 -16.215728 32.376392 0.735475 2.095377 -0.008388 0.009269 -78334.800000 0 0 1
20.556703 17.620636 -17.144428 32.046782 0.708643 2.135282 -0.005707 0.008959 -29060.800000 0 0 1
21.517403 16.549836 -17.077728 32.070929 0.655637 2.132346 0.006328 0.009441 353004.000000 0 0 1
21.459603 15.712136 -18.204328 32.230162 0.631994 2.171015 0.023414 -0.001203 -611333.000000 0 0 1
22.255703 16.271936 -19.401428 33.712129 0.631318 2.184015 0.024996 -0.001247 -1317620.000000 0 0 1
23.608803 16.423136 -19.170828 34.563212 0.607791 2.158751 0.041632 -0.000293 -797660.000000 0 0 1
24.224703 17.020236 -20.298028 35.896164 0.612468 2.171793 0.066301 -0.001941 91198.100000 0 0 1
25.708803 17.344336 -19.984028 36.893494 0.593506 2.143217 0.043118 -0.002774 86963.700000 0 0 1
25.838203 18.280436 -18.925328 36.877569 0.615739 2.109698 0.028359 0.003639 -1015270.000000 0 0 1
27.134703 18.667336 -18.697628 37.872983 0.602593 2.087128 0.020083 -0.004692 -1127100.000000 0 0 1
27.230103 19.753936 -17.561628 37.948745 0.627600 2.051916 0.018913 -0.005531 36647.100000 0 0 1
26.638503 19.374736 -16.317228 36.759246 0.628828 2.030737 0.014875 -0.003632 464488.000000 0 0 1
25.294403 19.847636 -16.276928 36.037118 0.665320 2.039434 0.010183 0.007191 45559.400000 0 0 1
24.459503 19.366336 -15.089228 34.655549 0.669703 2.021285 -0.000692 0.009510 -238370.000000 0 0 1
24.905303 19.801936 -13.812128 34.686679 0.671739 1.980347 0.004082 0.010061 330908.000000 0 0 1
24.152103 19.167136 -12.775828 33.375514 0.670827 1.963611 0.006462 0.006464 -39059.900000 0 0 1
24.585803 19.707836 -11.424828 33.516969 0.675712 1.918635 0.014108 -0.001046 -240708.000000 0 0 1
24.121903 21.028836 -11.199828 33.904488 0.717000 1.907454 0.010244 0.007479 110243.000000 0 0 1
24.831303 21.651636 -10.184828 34.483586 0.717100 1.870621 0.007624 0.006065 100318.000000 0 0 1
24.054803 21.452136 -8.867828 33.428522 0.728268 1.839288 0.016484 0.010723 -352311.000000 0 0 1
24.191103 20.170936 -8.305028 32.573757 0.695023 1.828603 0.031035 0.003701 607153.000000 0 0 1
23.353903 19.856636 -7.157628 31.478920 0.704639 1.800181 0.034763 0.002374 1294440.000000 0 0 1
21.803403 19.725436 -7.408128 30.320976 0.735403 1.817618 0.020028 0.000870 702510.000000 0 0 1
21.179903 20.997036 -7.642028 30.787407 0.781062 1.821638 0.027153 0.011684 -533250.000000 0 0 1
19.810503 20.810936 -7.828228 29.779729 0.810021 1.836793 0.036234 0.004452 -454532.000000 0 0 1
19.072103 22.119536 -8.187528 30.332402 0.859245 1.844113 0.034635 0.004452 -203474.000000 0 0 1
19.655503 22.817136 -9.308828 31.521656 0.859700 1.870582 0.018533 0.016173 599663.000000 0 0 1
18.969503 22.492536 -10.532128 31.251911 0.870165 1.914533 0.012267 0.017781 1144150.000000 0 0 1
17.458403 22.888336 -10.719828 30.717853 0.919176 1.927276 0.019933 0.011050 602141.000000 0 0 1
17.255603 24.288736 -10.496028 31.589003 0.953100 1.909504 0.031598 0.012266 44683.300000 0 0 1
15.876403 24.596236 -10.541628 31.115284 0.997604 1.916430 0.030241 0.010654 197816.000000 0 0 1
15.550003 25.948836 -9.948328 31.845155 1.030924 1.888511 0.035083 0.016610 11628.700000 0 0 1
16.120703 27.037836 -10.665628 33.236685 1.033155 1.897475 0.044482 0.023504 174125.000000 0 0 1
16.191803 28.206136 -9.883628 33.991862 1.049674 1.865822 0.043464 0.007301 -14570.800000 0 0 1
19.401703 29.431936 33.720687 48.782678 0.987977 0.807588 0.019264 0.009023 287886.000000 0 0 1
18.057303 29.894836 33.722666 48.548796 1.027421 0.802913 0.041638 -0.004410 -55186.800000 0 0 1
17.235903 28.763136 33.885534 47.672044 1.030939 0.780154 0.035965 -0.001244 670028.000000 0 0 1
15.717003 29.157536 34.013475 47.477390 1.076409 0.772147 0.069213 -0.014727 815408.000000 0 0 1
15.143403 29.681636 32.820515 46.770807 1.099027 0.792972 0.066802 -0.019549 -368183.000000 0 0 1
13.794803 29.990936 33.083435 46.736137 1.139686 0.784308 0.066064 -0.024739 225363.000000 0 0 1
12.897603 29.926236 31.800555 45.532440 1.163872 0.797615 0.045048 -0.029717 138445.000000 0 0 1
12.482203 28.602836 31.461915 44.314554 1.159312 0.781344 0.032038 -0.028696 690781.000000 0 0 1
11.063903 28.471136 31.319975 43.748787 1.200155 0.772877 0.016389 -0.013493 512465.000000 0 0 1
10.662303 26.958836 31.085775 42.506340 1.194173 0.750540 0.005149 -0.004789 -118406.000000 0 0 1
10.932303 26.333836 29.833735 41.267880 1.177304 0.762765 0.001959 -0.001747 700188.000000 0 0 1
12.291903 25.896736 29.726475 41.296430 1.127633 0.767237 0.002573 -0.004647 391270.000000 0 0 1
12.541703 25.104436 28.456775 39.966424 1.107484 0.778430 0.006870 -0.001608 -221112.000000 0 0 1
12.521703 25.873336 27.281415 39.629511 1.120061 0.811499 -0.015537 0.006142 58530.000000 0 0 1
12.646003 25.130036 26.071965 38.356062 1.104574 0.823395 -0.010394 0.009658 302348.000000 0 0 1
11.558703 24.039636 25.749125 37.074589 1.122611 0.803041 -0.015823 0.009868 -97783.000000 0 0 1
11.568003 23.526336 24.425725 35.831874 1.113807 0.820746 -0.002004 0.010804 86467.800000 0 0 1
10.528603 22.598936 24.180555 34.731292 1.134808 0.800681 0.007073 0.004702 129243.000000 0 0 1
10.685603 22.107436 22.760955 33.481068 1.120558 0.823285 0.014583 0.013316 -308575.000000 0 0 1
10.273203 23.075436 21.895355 33.427848 1.151941 0.856609 0.012874 0.005821 -31934.100000 0 0 1
10.653403 22.816536 20.551355 32.503038 1.133965 0.886290 0.018568 0.017219 -300509.000000 0 0 1
10.203203 24.015936 19.569555 32.616530 1.169052 0.927309 0.012524 0.019094 1417940.000000 0 0 1
8.774003 24.181936 19.392555 32.215219 1.222735 0.924832 0.010022 0.015390 885373.000000 0 0 1
8.305503 25.009936 20.393655 33.322356 1.250167 0.912195 0.004011 0.007233 441466.000000 0 0 1
6.966203 25.757536 19.940055 33.310425 1.306662 0.929028 0.013234 -0.000058 757556.000000 0 0 1
7.052603 26.699636 18.895855 33.461367 1.312549 0.970719 0.014146 -0.008505 817602.000000 0 0 1
5.757303 27.185836 18.463955 33.363660 1.362104 0.984337 0.017885 -0.014654 625471.000000 0 0 1
5.793103 28.307736 17.381755 33.719629 1.368936 1.029230 0.019515 -0.013246 -37277.200000 0 0 1
6.000603 27.867436 16.079855 32.728626 1.358708 1.057205 0.017166 -0.010925 349707.000000 0 0 1
6.679003 28.880536 15.297455 33.357256 1.343529 1.094383 0.001287 -0.003058 251913.000000 0 0 1
7.422103 28.489936 14.001855 32.600859 1.315944 1.126865 0.000950 -0.007515 83740.800000 0 0 1
6.562003 28.275836 12.898055 31.763857 1.342762 1.152657 -0.000574 -0.006407 -115287.000000 0 0 1
7.055903 27.263336 12.094255 30.648756 1.317547 1.165155 -0.009548 -0.006168 27488.200000 0 0 1
6.386003 27.197336 10.692155 29.913179 1.340172 1.205271 -0.025222 -0.008538 -101763.000000 0 0 1
6.972603 28.077636 9.736755 30.524993 1.327387 1.246147 -0.023803 -0.005504 107412.000000 0 0 1
6.667603 29.464236 9.953955 31.806907 1.348250 1.252499 -0.030455 -0.005162 -363106.000000 0 0 1
6.762303 30.265036 8.656755 32.196903 1.350971 1.298578 -0.033061 0.000478 -316514.000000 0 0 1
5.647503 30.012436 7.801955 31.520011 1.384799 1.320673 -0.032672 -0.001945 24658.400000 0 0 1
5.693203 28.795436 6.986755 30.172909 1.375602 1.337118 -0.034424 0.009604 -438660.000000 0 0 1
4.290803 28.252736 6.649155 29.340064 1.420076 1.342187 -0.025448 0.009068 61952.000000 0 0 1
3.623303 29.311536 5.939555 30.125948 1.447807 1.372339 -0.019046 0.007277 -706095.000000 0 0 1
2.289903 28.965936 5.731855 29.616267 1.491905 1.376030 -0.015237 0.006801 -155240.000000 0 0 1
1.420903 30.059336 4.995955 30.504790 1.523562 1.406279 -0.017659 0.004490 -167413.000000 0 0 1
1.802103 30.336536 3.628555 30.605872 1.511462 1.451959 -0.023193 0.005444 405827.000000 0 0 1
0.781703 30.863236 2.769955 30.997146 1.545474 1.481315 -0.013008 0.001462 518762.000000 0 0 1
-0.356297 29.870336 2.412555 29.969724 -1.558869 1.490209 -0.012495 0.004440 -19234.500000 0 0 1
-0.262597 29.249336 1.141855 29.272793 -1.561819 1.531779 -0.012385 0.013527 -317622.000000 0 0 1
-1.335397 28.355436 1.064955 28.406833 -1.523736 1.533298 -0.003231 0.008572 -219350.000000 0 0 1
-1.527397 27.903936 -0.363645 27.948073 -1.516113 1.583808 -0.008818 0.001508 -129431.000000 0 0 1
-2.234597 28.877236 -1.109845 28.984822 -1.493568 1.609096 -0.000162 0.000997 -291220.000000 0 0 1
-1.450197 29.637936 -1.943645 29.736981 -1.521905 1.636204 -0.002511 0.004263 -611292.000000 0 0 1
-2.309897 30.795036 -2.569745 30.988279 -1.495928 1.653818 -0.010636 0.002458 770803.000000 0 0 1
-3.489597 30.525336 -3.325745 30.903624 -1.456972 1.678622 -0.020501 0.003374 319788.000000 0 0 1
-3.400597 29.622136 -4.420845 30.142642 -1.456498 1.717991 -0.020070 0.001351 -26482.900000 0 0 1
-4.772997 29.343136 -5.125045 30.167320 -1.409547 1.741512 -0.022572 0.000853 516020.000000 0 0 1
-5.305097 30.472136 -5.777145 31.465386 -1.398427 1.755447 -0.024615 0.002051 -665585.000000 0 0 1
-6.303397 30.097736 -6.657245 31.463080 -1.364349 1.783997 -0.028705 0.001405 -664865.000000 0 0 1
-6.964397 31.301736 -7.363945 32.901811 -1.351870 1.796524 -0.023718 -0.006405 65048.600000 0 0 1
-7.887097 32.070136 -6.567245 33.672372 -1.329649 1.767088 -0.025232 -0.005580 186339.000000 0 0 1
-8.074197 33.325836 -7.129045 35.023239 -1.333096 1.775781 -0.014848 -0.009477 404805.000000 0 0 1
-9.087697 34.169136 -6.246645 35.904549 -1.310852 1.745665 -0.017201 -0.017343 2015790.000000 0 0 1
-10.470997 33.820636 -6.519945 35.999817 -1.270552 1.752912 -0.000589 -0.014662 1331460.000000 0 0 1
-11.416397 -34.547720 -5.962545 36.870462 1.251640 1.733226 0.013006 -0.017373 434641.000000 0 0 1
-12.907497 34.447736 -6.149045 37.296926 -1.212290 1.736420 0.033115 -0.018360 -176967.000000 0 0 1
-13.238797 34.500836 -7.491845 37.705452 -1.204399 1.770821 0.037833 -0.019849 54469.900000 0 0 1
-14.610197 34.146136 -7.609045 37.911924 -1.166495 1.772872 0.038480 -0.021918 -633351.000000 0 0 1
-15.053197 33.977436 -9.030445 38.244134 -1.153749 1.809174 0.044383 -0.020519 895879.000000 0 0 1
-16.461397 33.719336 -9.180745 38.629746 -1.116642 1.810752 0.048893 -0.018925 1107250.000000 0 0 1
-17.333497 -34.450220 -9.000745 39.601530 1.104635 1.800083 0.055058 -0.015206 -959521.000000 0 0 1
-18.815197 34.491336 -9.041845 40.316483 -1.071411 1.796992 0.053119 -0.005765 -524898.000000 0 0 1
-19.398297 33.576436 -8.113245 39.616861 -1.046909 1.777048 0.045892 -0.005867 45626.300000 0 0 1
-19.236797 33.897036 -6.735045 39.552803 -1.054612 1.741910 0.034490 -0.017697 -749256.000000 0 0 1
-19.830997 32.932536 -5.676145 38.859220 -1.028783 1.717390 0.023993 -0.018183 -481417.000000 0 0 1
-19.626897 33.262936 -4.304845 38.860901 -1.037723 1.681800 0.033357 -0.022840 -271143.000000 0 0 1
-20.670497 33.868436 -3.589845 39.840022 -1.022825 1.661025 0.026482 -0.018656 -342988.000000 0 0 1
-21.131397 -33.993720 -4.024645 40.228182 1.014627 1.671009 0.033633 -0.024307 -87411.600000 0 0 1
-21.751097 -33.976520 -5.306945 40.690020 1.001355 1.701593 0.033556 -0.016021 167521.000000 0 0 1
-22.417497 -32.762820 -5.617445 40.093668 0.970729 1.711367 0.035815 -0.014583 -111062.000000 0 0 1
-23.311997 -32.921320 -6.818545 40.911551 0.954646 1.738243 0.031960 -0.008969 -122101.000000 0 0 1
-22.520097 -32.816320 -8.016445 40.599618 0.969360 1.769554 0.041914 -0.004958 525675.000000 0 0 1
-23.204097 -33.176520 -9.211445 41.520625 0.960464 1.794510 0.017450 0.006956 -310351.000000 0 0 1
-24.284197 -32.283920 -9.778945 41.564425 0.925884 1.808295 0.012427 0.009313 -356149.000000 0 0 1
-25.565677 -32.520820 -9.191445 42.375585 0.904568 1.789438 0.019674 0.009321 -253382.000000 0 0 1
-26.613207 -31.909820 -9.866245 42.706465 0.875657 1.803927 -0.021255 0.015797 -495226.000000 0 0 1
-26.748517 -30.341020 -9.893345 41.640592 0.848243 1.810679 -0.025181 0.021418 -1089530.000000 0 0 1
-25.798037 -29.679220 -10.671045 40.746361 0.855244 1.835776 -0.020422 0.032018 -432100.000000 0 0 1
-25.978557 -29.784420 -12.085045 41.328505 0.853543 1.867547 -0.023173 0.032339 5922.180000 0 0 1
-24.946997 -29.030920 -12.984745 40.419680 0.860913 1.897843 -0.016917 0.032740 -349287.000000 0 0 1
-23.728397 -29.707520 -13.012745 40.185881 0.896828 1.900554 -0.005605 0.022513 -752945.000000 0 0 1
-22.884397 -29.221920 -14.010145 39.672413 0.906430 1.931728 -0.002744 0.025915 -297530.000000 0 0 1
-21.669297 -30.147320 -14.218345 39.756517 0.947577 1.936531 0.016839 0.005356 -350927.000000 0 0 1
-21.865897 -31.371520 -14.917545 41.046593 0.962088 1.942743 0.018191 0.004387 -102844.000000 0 0 1
-22.168997 -32.437020 -14.075145 41.734091 0.971266 1.914799 0.007426 0.007880 56027.000000 0 0 1
-22.285897 -33.776120 -14.788545 43.083506 0.987554 1.921175 0.001426 0.001551 -204469.000000 0 0 1
-22.826997 34.568836 -13.966445 43.716562 -0.987190 1.895974 0.002032 -0.007960 -306128.000000 0 0 1
-22.904697 33.317036 -14.538645 42.965360 -0.968525 1.915992 0.001137 -0.015763 -347479.000000 0 0 1
-23.376497 32.322536 -13.560245 42.131783 -0.944652 1.898482 -0.010340 -0.006777 -423891.000000 0 0 1
-22.502997 31.962636 -12.491945 41.037101 -0.957364 1.880111 -0.014002 -0.001542 208382.000000 0 0 1
-22.282897 32.906636 -11.476245 41.365183 -0.975568 1.851922 0.007871 -0.001428 -108243.000000 0 0 1
-21.625997 32.360236 -10.221145 40.241029 -0.981671 1.827608 0.012268 -0.002929 -303618.000000 0 0 1
-22.394497 31.376036 -9.591345 39.723582 -0.950905 1.814658 0.005178 0.007186 86722.300000 0 0 1
-21.696097 30.963836 -8.414945 38.733591 -0.959606 1.789795 0.009379 0.003604 -15895.600000 0 0 1
-22.432797 29.984036 -7.451445 38.181105 -0.928475 1.767217 0.005943 0.004775 -162656.000000 0 0 1
-22.733397 28.774636 -8.167945 37.569966 -0.902152 1.789953 0.005624 0.017475 555985.000000 0 0 1
-23.379097 27.652036 -7.510245 36.981360 -0.868935 1.775301 0.010040 0.004021 254314.000000 0 0 1
-22.361997 26.856236 -6.630645 35.570799 -0.876458 1.758300 0.019556 -0.001691 154869.000000 0 0 1
-22.238097 27.358036 -5.305545 35.653105 -0.888266 1.720161 0.024732 0.001003 529105.000000 0 0 1
-21.131997 26.745636 -4.637445 34.400526 -0.902115 1.706015 0.020002 0.004415 1196390.000000 0 0 1
-19.778197 27.575436 -4.674245 34.255369 -0.948594 1.707676 0.012717 -0.012073 576493.000000 0 0 1
-19.130097 27.586036 -5.922045 34.088423 -0.964466 1.745408 0.006887 -0.002123 -120626.000000 0 0 1
-18.067597 28.510736 -5.815045 34.250764 -1.005957 1.741401 0.016513 -0.005654 51007.700000 0 0 1
-17.094097 28.636636 -7.017845 34.081009 -1.032636 1.778197 0.028626 -0.001928 -122269.000000 0 0 1
-17.654797 29.060036 -8.276145 34.995315 -1.024860 1.809551 0.035949 -0.005318 88857.400000 0 0 1
-17.694797 30.464836 -8.468845 36.234423 -1.044594 1.806702 0.039411 -0.012075 -38465.600000 0 0 1
-17.790897 30.942936 -9.888545 37.037341 -1.048993 1.841063 0.036331 -0.011045 385300.000000 0 0 1
-16.599597 30.541836 -10.575145 36.334337 -1.072954 1.866122 0.038932 -0.012489 426027.000000 0 0 1
-16.439597 31.227336 -11.834145 37.221685 -1.086214 1.894349 0.039315 -0.012011 -33639.500000 0 0 1
-14.949697 31.303936 -12.272845 36.797453 -1.125256 1.910836 0.040264 -0.011661 474865.000000 0 0 1
-14.528797 32.081536 -13.387345 37.676676 -1.145557 1.934055 0.033989 -0.010009 -170622.000000 0 0 1
-15.093397 31.637036 -14.610545 37.976054 -1.125652 1.965712 0.035471 -0.008730 -192252.000000 0 0 1
-14.562097 32.328136 -15.882745 38.851314 -1.147571 1.991944 0.050409 -0.007998 -345669.000000 0 0 1
-13.205297 32.106236 -16.094745 38.265272 -1.180587 2.004914 0.039688 -0.011645 -737071.000000 0 0 1
-12.649897 32.685436 -17.251645 39.063754 -1.201530 2.028209 0.031257 -0.011333 965050.000000 0 0 1
-11.110597 32.466436 -17.457745 38.500489 -1.241071 2.041420 0.042822 -0.014747 619776.000000 0 0 1
-10.854597 31.129436 -17.857245 37.493269 -1.235287 2.067214 0.038954 -0.019559 -52645.200000 0 0 1
-9.491197 30.835436 -18.106545 36.996674 -1.272198 2.082209 0.033663 -0.023130 305831.000000 0 0 1
-9.016797 30.880036 -19.631145 37.686351 -1.286700 2.118711 0.029883 -0.026633 -184346.000000 0 0 1
-9.810497 30.054436 -20.449645 37.652396 -1.255277 2.144941 0.042051 -0.030954 -33936.000000 0 0 1
-9.327097 29.915836 -21.751445 38.145476 -1.268569 2.177574 0.036005 -0.041262 -678573.000000 0 0 1
-10.474397 29.585536 -22.775945 38.778352 -1.230529 2.198560 0.045166 -0.037081 612229.000000 0 0 1
-11.409997 30.630836 -22.915945 39.919628 -1.214219 2.182242 0.051286 -0.036411 48036.800000 0 0 1
-12.495497 30.599136 -21.996145 39.702329 -1.183103 2.157990 0.052358 -0.033412 -737835.000000 0 0 1
-13.286597 31.866136 -22.135345 41.011678 -1.175764 2.140916 0.061796 -0.030181 -441369.000000 0 0 1
-13.912497 31.923036 -23.383145 41.945313 -1.159802 2.162128 0.057957 -0.029882 -386504.000000 0 0 1
-14.494597 33.206936 -23.529845 43.202402 -1.159231 2.146759 0.054720 -0.015904 57278.900000 0 0 1
-15.068597 33.434136 -24.963045 44.362796 -1.147365 2.168447 0.057574 -0.005298 92529.200000 0 0 1
-14.090597 33.450736 -25.973345 44.633074 -1.172120 2.191897 0.055623 -0.010041 -172102.000000 0 0 1
-14.638497 33.378936 -27.272645 45.521820 -1.157501 2.213187 0.049710 -0.000634 330170.000000 0 0 1
-15.308997 -34.621020 -27.906245 47.029128 1.154458 2.206051 0.028163 0.009690 255341.000000 0 0 1
-16.506297 -34.222020 -27.287845 46.778531 1.121385 2.193633 0.018179 0.011564 -538517.000000 0 0 1
-16.927697 -33.014320 -27.776945 46.347070 1.097010 2.213454 0.013181 0.014671 -587911.000000 0 0 1
-18.404497 -32.832020 -27.435245 46.576385 1.059878 2.200664 0.022186 0.001725 -235201.000000 0 0 1
-19.287497 -33.673620 -28.146745 47.939122 1.050634 2.198312 0.025053 0.010417 -309860.000000 0 0 1
-20.625697 -33.500720 -27.710145 48.120367 1.018928 2.184441 0.024735 0.014501 661117.000000 0 0 1
-21.634997 -34.562320 -28.228945 49.593350 1.011499 2.176339 0.001444 0.016476 -25560.200000 0 0 1
-21.449397 33.437836 -27.652945 48.403005 -1.000440 2.178893 0.019628 0.005118 -881155.000000 0 0 1
-22.631397 32.709936 -27.700345 48.470910 -0.965540 2.179109 -0.004723 0.011916 -172524.000000 0 0 1
-22.486797 31.208536 -27.286545 47.161258 -0.946422 2.187783 -0.007183 0.014128 116478.000000 0 0 1
-22.221097 31.054636 -25.899945 46.140814 -0.949711 2.166781 0.009437 0.012197 -234896.000000 0 0 1
-22.620097 29.788536 -25.431345 45.230288 -0.921334 2.167917 -0.014917 0.015257 -106858.000000 0 0 1
30.489212 9.843736 -26.782648 41.758848 0.312295 2.267072 -0.022774 0.000908 -23274.400000 0 0 1
30.036102 8.499736 -26.657138 41.048945 0.275774 2.277590 -0.022388 0.000026 -433362.000000 0 0 1
28.641922 8.346736 -26.614368 39.979398 0.283564 2.299231 -0.006172 -0.006945 -181957.000000 0 0 1
28.231672 6.922836 -26.274128 39.182684 0.240470 2.305752 -0.003519 -0.008442 -120604.000000 0 0 1
28.448762 6.618136 -24.867628 38.360535 0.228568 2.276094 -0.014974 0.002850 185627.000000 0 0 1
28.008782 5.277336 -24.592728 37.644978 0.186234 2.282706 0.001923 -0.000918 7573.160000 0 0 1
28.066932 4.988236 -23.072528 36.673924 0.175890 2.251225 0.001408 -0.001360 -822852.000000 0 0 1
29.280422 4.900436 -22.422628 37.203919 0.165825 2.217671 -0.014455 0.003715 -788788.000000 0 0 1
29.047912 4.572936 -21.071828 36.176164 0.156146 2.192571 -0.016924 0.003152 -237015.000000 0 0 1
30.344902 4.258836 -20.312628 36.763482 0.139437 2.156183 -0.019160 0.004269 -534405.000000 0 0 1
30.804632 2.939536 -20.472228 37.103616 0.095137 2.155267 -0.002578 -0.001387 -379947.000000 0 0 1
31.778192 2.715936 -19.517328 37.391922 0.085258 2.119951 -0.000787 -0.005122 -697040.000000 0 0 1
32.262802 1.263236 -19.539928 37.739805 0.039135 2.115020 0.018268 -0.011568 -365457.000000 0 0 1
31.315892 0.399036 -19.009328 36.636032 0.012742 2.116325 0.025907 -0.015911 -442251.000000 0 0 1
31.769082 -0.916764 -19.181328 37.121939 -0.028849 2.113802 0.032786 -0.014540 -390476.000000 0 0 1
30.739712 -1.966564 -18.815628 36.094668 -0.063888 2.119153 0.010351 -0.007858 -338233.000000 0 0 1
30.624332 -2.175264 -17.418428 35.298486 -0.070911 2.086861 0.018360 -0.009190 -272217.000000 0 0 1
29.441462 -1.651464 -16.878328 33.976535 -0.056034 2.090663 -0.004104 -0.012956 -561366.000000 0 0 1
29.288782 -2.104964 -15.444628 33.178308 -0.071746 2.055000 -0.009518 -0.012730 -270737.000000 0 0 1
29.070312 -3.525964 -15.238728 33.011123 -0.120701 2.050621 -0.016882 -0.009378 193267.000000 0 0 1
28.224672 -3.812064 -14.175828 31.813802 -0.134249 2.032627 -0.005314 -0.008165 -439481.000000 0 0 1
28.253332 -5.250064 -13.642928 31.811058 -0.183726 2.014042 -0.012460 -0.006695 -477845.000000 0 0 1
27.647212 -6.095464 -14.572928 31.841690 -0.217001 2.046167 -0.021163 -0.002970 527731.000000 0 0 1
27.270452 -7.371464 -14.041128 31.546304 -0.264000 2.032078 -0.024497 -0.002482 -269130.000000 0 0 1
26.746212 -8.398564 -15.065528 31.825553 -0.304259 2.063918 -0.025360 0.000949 -237894.000000 0 0 1
25.491232 -7.958764 -15.534728 30.894540 -0.302626 2.097667 -0.008938 -0.009344 -112905.000000 0 0 1
24.901852 -8.916564 -16.374528 31.108399 -0.343844 2.125122 -0.009940 -0.007291 -134099.000000 0 0 1
23.501182 -8.543764 -16.873028 30.166215 -0.348691 2.164380 0.001434 -0.013869 -281086.000000 0 0 1
23.472982 -7.491864 -17.831428 30.414942 -0.308950 2.197246 -0.008840 -0.014056 1101460.000000 0 0 1
22.107982 -7.283864 -18.295928 29.606731 -0.318267 2.236948 0.019279 -0.018356 1263530.000000 0 0 1
21.948082 -7.825764 -19.754428 30.548294 -0.342505 2.273997 0.016638 -0.015436 -94992.900000 0 0 1
22.422282 -6.911264 -20.716128 31.299876 -0.298992 2.294093 0.004971 -0.010486 412225.000000 0 0 1
21.970282 -7.309164 -22.018328 31.951900 -0.321166 2.331055 0.017781 -0.011364 129001.000000 0 0 1
22.556182 -6.279864 -23.049728 32.855867 -0.271534 2.348354 0.009437 -0.005789 13494.500000 0 0 1
22.492382 -6.620864 -24.418928 33.853022 -0.286275 2.376505 0.015610 -0.009251 220228.000000 0 0 1
22.854282 -5.502664 -25.238298 34.490131 -0.236275 2.391688 0.019483 -0.011910 -311601.000000 0 0 1
22.841082 -5.825164 -26.758088 35.660101 -0.249707 2.419410 0.030992 -0.010525 -260160.000000 0 0 1
21.586382 -6.248764 -27.226158 35.302728 -0.281775 2.451551 0.038924 -0.010897 84526.000000 0 0 1
21.758682 -6.497164 -28.637568 36.548100 -0.290173 2.471169 0.033155 -0.012440 859462.000000 0 0 1
20.376582 -7.112264 -29.023198 36.168154 -0.335820 2.502189 0.033695 -0.014782 636565.000000 0 0 1
20.272982 -8.498464 -28.671148 36.128277 -0.396949 2.487488 0.033199 -0.017247 1103510.000000 0 0 1
19.132882 -9.137464 -29.315688 36.179690 -0.445551 2.515426 0.041048 -0.021254 861632.000000 0 0 1
19.309582 -10.664964 -29.098778 36.514932 -0.504619 2.492944 0.050714 -0.019680 -80006.900000 0 0 1
18.409882 -11.153664 -28.099258 35.396274 -0.544711 2.487907 0.052407 -0.019178 302799.000000 0 0 1
18.578482 -12.505964 -27.666318 35.594722 -0.592472 2.461094 0.059173 -0.019789 -324092.000000 0 0 1
18.412382 -13.678564 -28.598118 36.660213 -0.638942 2.465600 0.051590 -0.013247 260506.000000 0 0 1
17.067082 -13.915664 -28.994008 36.408563 -0.684032 2.492035 0.050048 -0.018382 519980.000000 0 0 1
17.121582 -14.662764 -30.147678 37.643428 -0.708193 2.499551 0.043949 -0.013220 -1228160.000000 0 0 1
15.883882 -14.775164 -30.970358 37.812250 -0.749251 2.530560 0.027332 -0.012485 -864127.000000 0 0 1
14.932682 -15.757764 -30.548358 37.476583 -0.812276 2.523753 0.020572 -0.011376 709431.000000 0 0 1
14.118082 -16.188964 -31.661528 38.260360 -0.853622 2.545487 0.012985 -0.004502 -80845.600000 0 0 1
12.778182 -16.761764 -31.190168 37.643927 -0.919444 2.547323 0.016894 -0.008171 -267437.000000 0 0 1
12.977582 -18.055964 -30.650948 37.867084 -0.947602 2.513986 0.012285 -0.015140 332759.000000 0 0 1
12.010582 -18.317364 -29.642968 36.857637 -0.990429 2.505218 0.011320 -0.013204 208158.000000 0 0 1
12.335382 -19.638964 -28.997228 37.130712 -1.009965 2.466982 0.023403 -0.010406 599357.000000 0 0 1
13.403582 -19.502164 -28.044908 36.694785 -0.968654 2.440713 0.019138 -0.006802 262227.000000 0 0 1
13.340982 -20.482364 -27.027868 36.441936 -0.993480 2.406352 0.023044 0.001322 89959.800000 0 0 1
14.317482 -20.273264 -25.841158 35.829610 -0.955905 2.376363 0.011176 0.007953 157408.000000 0 0 1
15.639682 -20.657064 -26.144368 36.808177 -0.922760 2.360702 0.013231 0.003526 -12100.900000 0 0 1
16.537682 -20.505564 -25.067328 36.364048 -0.892106 2.331379 0.008999 0.006338 565292.000000 0 0 1
18.002182 -20.965264 -25.385078 37.523633 -0.861292 2.313808 0.009575 0.008699 465600.000000 0 0 1
18.144182 -22.376164 -25.516568 38.483753 -0.889462 2.295679 0.015648 0.005010 276707.000000 0 0 1
17.774182 -23.226064 -24.407128 38.093037 -0.917595 2.266237 0.013191 0.004137 -731120.000000 0 0 1
18.395082 -24.554464 -24.571028 39.306948 -0.927837 2.246064 0.000870 0.004719 1031510.000000 0 0 1
19.772182 -24.556964 -24.075928 39.669055 -0.892920 2.222975 0.021214 -0.000138 1364060.000000 0 0 1
20.184382 -25.872224 -23.817728 40.547076 -0.908273 2.198650 0.017209 -0.003345 -173710.000000 0 0 1
20.119982 -26.315054 -22.324428 39.945911 -0.918029 2.163814 0.023446 -0.001254 -274667.000000 0 0 1
18.866782 -26.474564 -21.705328 39.089375 -0.951639 2.159489 0.005868 0.007119 -165862.000000 0 0 1
19.064982 -26.743084 -20.355428 38.639481 -0.951469 2.125632 0.013198 0.001427 393282.000000 0 0 1
17.836482 -27.367994 -19.603128 38.097635 -0.993207 2.111279 0.005076 0.002650 -218251.000000 0 0 1
17.647782 -28.733484 -20.009428 39.210133 -1.020009 2.106345 0.010869 0.002606 77503.400000 0 0 1
16.602782 -29.438384 -19.347128 38.943320 -1.057280 2.090707 0.007851 0.006919 -387166.000000 0 0 1
15.211582 -29.060224 -19.837128 38.332760 -1.088565 2.114721 -0.001800 0.010807 -1380350.000000 0 0 1
14.651682 -28.069714 -19.026728 36.940452 -1.089724 2.111880 -0.000016 0.012329 -294245.000000 0 0 1
13.505482 -27.565654 -19.689828 36.468516 -1.115230 2.141130 0.005752 0.024359 352609.000000 0 0 1
12.588582 -26.591834 -18.872828 34.953993 -1.128654 2.141154 -0.004935 0.016616 279048.000000 0 0 1
11.696482 -27.229334 -17.975728 34.660801 -1.165074 2.116031 -0.004240 0.012080 -116855.000000 0 0 1
10.866282 -26.382484 -17.252828 33.343239 -1.180095 2.114642 0.000585 0.009983 -1119150.000000 0 0 1
9.395182 -26.462904 -17.540028 33.109022 -1.229646 2.129121 -0.000850 0.017547 -1351410.000000 0 0 1
8.735882 -27.445204 -16.768328 33.327641 -1.262634 2.098020 -0.000334 0.019512 -312243.000000 0 0 1
7.352682 -27.592914 -16.963228 33.214183 -1.310378 2.106821 -0.006033 0.023986 213620.000000 0 0 1
6.901482 -28.417354 -18.203628 34.446314 -1.332547 2.127586 0.001236 0.020513 -347521.000000 0 0 1
7.115582 -27.780344 -19.423928 34.636224 -1.320050 2.166146 0.000690 0.020570 -344238.000000 0 0 1
6.505082 -28.474574 -20.449428 35.655246 -1.346198 2.181607 0.004453 0.016141 -130204.000000 0 0 1
6.664282 -27.875964 -21.840628 36.034637 -1.336132 2.221946 0.003363 0.003374 -133251.000000 0 0 1
5.993782 -26.627114 -21.915228 35.002940 -1.349386 2.247334 0.007738 0.002559 179697.000000 0 0 1
6.083182 -26.074244 -23.213328 35.436279 -1.341594 2.285075 0.001513 0.005363 -205347.000000 0 0 1
4.745082 -25.373404 -23.530628 34.928726 -1.385922 2.309967 0.001573 0.001573 226975.000000 0 0 1
3.657082 -26.286914 -23.628028 35.533925 -1.432562 2.298214 -0.005618 0.006481 993047.000000 0 0 1
2.475382 -25.594644 -24.108528 35.248183 -1.474381 2.323980 -0.003249 0.002664 760561.000000 0 0 1
1.433682 -26.460794 -24.778728 36.279669 -1.516668 2.322648 -0.019194 0.006314 -315164.000000 0 0 1
1.903082 -26.887764 -26.020528 37.465203 -1.500135 2.338556 -0.016352 0.015538 -211310.000000 0 0 1
0.993082 -27.715674 -26.642868 38.457603 -1.534981 2.336141 -0.007325 0.006690 -347713.000000 0 0 1
1.650182 -28.639214 -27.720348 39.891670 -1.513240 2.339064 -0.008521 0.010875 -292798.000000 0 0 1
2.201482 -27.940624 -28.797888 40.185113 -1.492167 2.369756 -0.018196 0.008187 166641.000000 0 0 1
2.694182 -28.729714 -29.877488 41.536964 -1.477293 2.373589 -0.007955 0.003261 587088.000000 0 0 1
4.115482 -29.376734 -29.759918 42.018834 -1.431609 2.357815 -0.005500 0.006766 -78262.200000 0 0 1
4.244782 -30.437434 -28.821018 42.132014 -1.432231 2.324117 -0.014283 0.009333 -672676.000000 0 0 1
5.395282 -31.172494 -29.016468 42.927717 -1.399416 2.313033 -0.007823 0.008421 -623543.000000 0 0 1
5.633882 -32.179894 -27.828908 42.915432 -1.397478 2.276355 0.001460 -0.005560 115916.000000 0 0 1
4.606782 -33.166524 -27.802798 43.522825 -1.432781 2.263746 -0.000304 -0.005056 349534.000000 0 0 1
4.946182 -34.326712 -27.067958 43.993888 -1.427690 2.233520 -0.005996 0.000382 183778.000000 0 0 1
3.748282 33.979310 -26.857268 43.473624 1.460930 2.236717 0.000283 0.004918 348803.000000 0 0 1
3.226882 33.490857 -28.084478 43.826797 1.474742 2.266344 -0.004472 0.006003 -532234.000000 0 0 1
1.872982 33.222371 -27.927758 43.441842 1.514479 2.269045 -0.031897 0.010337 -951519.000000 0 0 1
1.086782 33.314504 -29.238988 44.339099 1.538186 2.290870 -0.030304 0.014783 -236276.000000 0 0 1
1.155482 32.251461 -30.120318 44.144370 1.534984 2.321719 -0.024397 0.011438 177537.000000 0 0 1
0.341882 32.573391 -31.237948 45.132605 1.560301 2.335242 -0.024214 0.015926 235069.000000 0 0 1
0.144882 31.393681 -32.207208 44.976532 1.566181 2.368980 -0.029074 0.013554 -136340.000000 0 0 1
1.347382 31.110281 -32.867748 45.276416 1.527514 2.383190 -0.020289 0.014568 48020.900000 0 0 1
1.022482 30.103471 -33.750638 45.236821 1.536844 2.412963 -0.015664 0.014186 -615132.000000 0 0 1
2.042382 29.803951 34.451940 45.600252 1.502376 0.714348 -0.006486 0.010637 -650812.000000 0 0 1
2.243582 30.864041 33.530466 45.628005 1.498232 0.745327 -0.010133 0.001764 -83475.400000 0 0 1
3.103282 30.420111 32.485815 44.613246 1.469134 0.755155 -0.035715 0.001893 -376501.000000 0 0 1
2.497682 29.448801 31.439115 43.149603 1.486184 0.754510 -0.028561 0.001524 10192.400000 0 0 1
2.236782 28.121501 31.791705 42.503347 1.491424 0.725781 -0.017285 0.002762 -165014.000000 0 0 1
3.398882 27.341971 31.946855 42.186933 1.447121 0.711675 -0.026700 0.005162 -545510.000000 0 0 1
3.097682 25.864571 32.350795 41.534872 1.451599 0.677914 -0.009319 0.011146 -350347.000000 0 0 1
2.577982 25.159521 31.284395 40.228856 1.468687 0.679860 0.008470 0.011914 118253.000000 0 0 1
2.625682 23.758791 31.493005 39.537118 1.460729 0.649241 0.001188 0.013219 -229059.000000 0 0 1
1.820982 22.994291 30.404685 38.164097 1.491768 0.649009 0.005721 0.018040 548027.000000 0 0 1
0.520182 22.541591 30.772735 38.149117 1.547724 0.632346 -0.011141 0.016408 204547.000000 0 0 1
-0.202118 22.137491 29.624485 36.982692 -1.561666 0.641772 -0.007741 0.014730 1176750.000000 0 0 1
-1.604318 21.442291 29.939795 36.861050 -1.496115 0.622825 -0.012585 0.024014 1193720.000000 0 0 1
-2.529118 22.427291 30.347905 37.820301 -1.458501 0.639451 -0.005178 0.017889 438633.000000 0 0 1
-3.892018 21.999391 30.258215 37.612240 -1.395693 0.636000 -0.027404 0.018773 687757.000000 0 0 1
-4.945018 23.108691 30.428375 38.527274 -1.359986 0.660333 -0.053844 0.012461 -466639.000000 0 0 1
-5.030818 23.470691 31.768505 39.817338 -1.359647 0.647066 -0.060575 0.012911 188009.000000 0 0 1
-4.529818 24.801441 31.994545 40.734281 -1.390144 0.667381 -0.047238 0.008438 -447666.000000 0 0 1
-4.692518 25.358791 33.406753 42.203070 -1.387821 0.657420 -0.039544 0.011542 -915229.000000 0 0 1
-5.940918 25.787701 33.814706 42.938728 -1.344369 0.664037 -0.047500 0.012914 -796089.000000 0 0 1
-5.972418 26.181021 -34.109705 43.411837 -1.346514 2.474661 -0.038923 0.010607 634322.000000 0 0 1
-7.441918 26.527641 -33.680428 43.514010 -1.297292 2.455952 -0.019600 0.013963 559989.000000 0 0 1
-7.852218 27.787861 -34.130040 44.706623 -1.295399 2.439392 -0.008366 0.008900 581008.000000 0 0 1
-9.108518 28.216251 -33.551398 44.775197 -1.258546 2.417846 0.010296 0.001541 861391.000000 0 0 1
-9.194018 28.689921 -32.065018 43.997806 -1.260675 2.387345 0.025306 -0.004923 -119141.000000 0 0 1
-8.539118 29.933411 -31.779508 44.484410 -1.292907 2.366558 0.020667 -0.004030 275736.000000 0 0 1
-8.499418 30.155441 -30.389928 43.647892 -1.296070 2.340959 0.025566 -0.006762 9526.130000 0 0 1
-7.965718 31.566581 -29.876668 44.187294 -1.323610 2.313303 0.014357 -0.004953 1582270.000000 0 0 1
-6.525218 31.652811 -30.092558 44.159268 -1.367495 2.320545 -0.002861 0.003123 1307820.000000 0 0 1
-6.009318 32.828691 -29.469858 44.523111 -1.389750 2.294147 -0.005575 0.003546 1054800.000000 0 0 1
-4.460018 33.077951 -29.667758 44.656673 -1.436771 2.297423 0.001139 0.004426 1150390.000000 0 0 1
-3.945718 34.263589 -29.064258 45.103141 -1.456144 2.271029 -0.011482 0.003820 -29417.700000 0 0 1
-4.426318 -33.799374 -29.650748 45.179164 1.440579 2.286691 -0.000862 0.000147 -117453.000000 0 0 1
-3.809218 -33.454904 -31.051098 45.802963 1.457423 2.315736 0.001869 0.002738 73341.500000 0 0 1
-4.190318 -34.449366 -31.983688 47.194003 1.449754 2.315436 0.004282 0.007400 18443.200000 0 0 1
-4.328518 -34.094412 -33.329718 47.875203 1.444515 2.340857 0.022581 -0.003760 692986.000000 0 0 1
-3.005518 -33.617674 -34.068658 47.956799 1.481630 2.360867 0.016405 -0.004526 734739.000000 0 0 1
-2.686218 -32.272914 -33.820838 46.825269 1.487753 2.377886 0.018907 -0.001642 -328218.000000 0 0 1
-1.460018 -31.937154 -34.393231 46.957510 1.525113 2.392685 0.018615 -0.011538 -385487.000000 0 0 1
31.258462 20.228536 12.742155 39.352860 0.574361 1.241061 0.032743 -0.002264 713940.000000 0 0 1
32.294922 19.347136 13.200355 39.893897 0.539740 1.233553 0.023113 -0.003029 446910.000000 0 0 1
31.849252 18.068136 12.968055 38.845885 0.516030 1.230429 0.028480 -0.003807 -75177.700000 0 0 1
32.711262 17.003436 13.679055 39.322513 0.479365 1.215500 0.042957 -0.011120 156222.000000 0 0 1
33.992784 16.859536 13.058955 40.128414 0.460422 1.239331 0.030312 0.002138 95988.000000 0 0 1
34.677915 15.863136 13.762255 40.541294 0.429025 1.224451 0.026004 0.004605 -428329.000000 0 0 1
-33.986907 15.492636 12.946455 39.531535 -0.427701 1.237143 0.023603 -0.008423 278294.000000 0 0 1
-33.251827 14.438736 13.585455 38.713378 -0.409657 1.212239 0.016679 -0.008232 -107968.000000 0 0 1
-33.905357 13.167436 13.637155 38.844904 -0.370431 1.212086 0.015265 -0.005646 -172679.000000 0 0 1
-33.205247 12.186036 14.632655 38.277963 -0.351731 1.178541 0.003810 -0.005011 135619.000000 0 0 1
-33.407637 12.635236 15.944255 39.114430 -0.361585 1.150938 0.013761 -0.011186 133531.000000 0 0 1
-32.821857 11.751836 16.847855 38.719893 -0.343827 1.120623 0.011528 -0.013134 -212950.000000 0 0 1
-32.729127 12.284436 18.274355 39.446865 -0.359066 1.089120 0.030824 -0.009942 -633966.000000 0 0 1
-33.916057 12.360236 19.016355 40.800687 -0.349477 1.085942 0.031165 -0.000680 -142088.000000 0 0 1
-33.720217 13.208936 20.123155 41.430307 -0.373349 1.063620 0.029311 -0.007067 -517277.000000 0 0 1
-34.955389 13.349236 20.990255 42.903055 -0.364801 1.059568 0.032261 -0.007862 -449499.000000 0 0 1
34.800577 12.212936 21.799855 42.842381 0.337513 1.036961 0.022991 0.009003 -113759.000000 0 0 1
33.634192 12.325436 22.571055 42.339435 0.351259 1.008539 0.016363 -0.002156 88512.200000 0 0 1
33.337822 11.198936 23.656055 42.384377 0.324079 0.978664 0.000952 0.006454 -537236.000000 0 0 1
34.315804 11.354636 24.647695 43.749411 0.319547 0.972321 0.007012 0.015596 -321976.000000 0 0 1
33.833392 11.775136 25.920145 44.217713 0.334921 0.944444 -0.001121 0.015703 -1408950.000000 0 0 1
34.907108 11.937136 27.013805 45.724688 0.329502 0.938756 -0.006014 0.013909 119161.000000 0 0 1
-34.171413 12.983836 26.617585 45.219036 -0.363114 0.941425 0.014812 0.003460 724907.000000 0 0 1
-33.078097 12.632036 25.736645 43.773322 -0.364793 0.942271 0.008126 0.002142 -165851.000000 0 0 1
-32.254027 13.872536 25.224605 43.232513 -0.406185 0.947809 0.009238 0.002055 780781.000000 0 0 1
-31.230597 14.344536 26.134985 43.175842 -0.430569 0.920635 -0.008925 -0.000387 608049.000000 0 0 1
-31.687377 14.983736 27.326525 44.444810 -0.441702 0.908611 -0.014390 0.005480 -1026730.000000 0 0 1
-30.562207 15.639236 28.150895 44.397151 -0.472978 0.883991 -0.012987 0.022213 -351637.000000 0 0 1
-30.014497 16.723436 27.513575 44.017498 -0.508338 0.895588 0.009504 0.004366 -296403.000000 0 0 1
-29.471577 17.707736 28.381555 44.583073 -0.541038 0.880716 0.020487 -0.004289 -67226.200000 0 0 1
-28.905957 18.950136 27.676405 44.279175 -0.580287 0.895609 0.035062 0.006809 -337568.000000 0 0 1
-29.903827 19.737536 27.073235 44.908454 -0.583397 0.923723 0.012497 -0.023634 54550.600000 0 0 1
-29.406337 20.833936 26.360975 44.650717 -0.616398 0.939264 0.016820 -0.029942 22163.200000 0 0 1
-30.498207 21.923336 26.097025 45.736506 -0.623259 0.963566 0.017222 -0.013727 95938.200000 0 0 1
-30.980407 22.527936 27.300305 47.038284 -0.628727 0.951595 0.008669 -0.018784 493114.000000 0 0 1
-32.158617 23.282836 27.057365 48.045479 -0.626652 0.972590 0.001164 -0.015071 -457633.000000 0 0 1
-31.951047 24.722036 26.606435 48.373038 -0.658527 0.988401 -0.001005 -0.009327 -730527.000000 0 0 1
-32.911417 25.235836 25.718645 48.800179 -0.654154 1.015707 -0.004646 -0.007189 -129633.000000 0 0 1
-32.969867 26.614936 25.573485 49.491111 -0.679146 1.027771 0.002455 -0.014294 -208384.000000 0 0 1
-33.877437 27.100236 24.467195 49.807099 -0.674710 1.057285 0.007321 -0.008898 -127900.000000 0 0 1
-33.369767 26.725436 23.189855 48.637019 -0.675282 1.073792 0.007184 -0.006191 564187.000000 0 0 1
-34.352026 27.079136 22.188655 49.047708 -0.667556 1.101354 0.012676 -0.009927 452312.000000 0 0 1
-33.916517 27.025336 20.696955 48.052709 -0.672798 1.125513 0.006945 -0.012670 -21918.200000 0 0 1
-33.992477 25.726136 20.169455 47.160677 -0.647851 1.128877 0.001949 -0.008203 -293399.000000 0 0 1
-33.131907 25.699936 19.107955 46.079539 -0.659738 1.143213 0.014014 -0.007981 -618551.000000 0 0 1
-33.176397 24.447836 18.224855 45.061239 -0.635067 1.154423 0.001867 -0.000147 -542087.000000 0 0 1
-34.455103 24.227236 17.707255 45.690917 -0.612839 1.172830 0.006297 -0.005591 -419078.000000 0 0 1
-34.441308 23.351336 16.636055 44.813468 -0.595810 1.190464 -0.006599 -0.003111 -292934.000000 0 0 1
34.164883 23.182336 15.915455 44.248860 0.596180 1.202871 -0.010235 -0.000074 -313652.000000 0 0 1
33.190542 22.462336 16.611655 43.383357 0.594964 1.177859 -0.001738 -0.001998 -673344.000000 0 0 1
32.047242 22.317136 15.827755 42.137846 0.608294 1.185732 0.005967 -0.003407 -702797.000000 0 0 1
31.042692 21.261436 16.384455 41.038369 0.600526 1.160101 0.010313 -0.003634 128338.000000 0 0 1
30.263232 21.665636 17.458655 41.110432 0.621322 1.132191 -0.000022 0.005082 247300.000000 0 0 1
29.116092 22.463936 17.152555 40.578139 0.657138 1.134369 0.001737 0.006866 -60808.400000 0 0 1
28.324172 22.895736 18.349855 40.782234 0.679809 1.104090 0.001923 0.003599 -148648.000000 0 0 1
29.073502 23.882436 19.055855 42.175406 0.687684 1.101988 -0.011275 0.004229 526665.000000 0 0 1
28.207352 24.521636 19.995955 42.388719 0.715612 1.079547 -0.005268 0.003176 368847.000000 0 0 1
28.971862 25.293836 21.124155 43.879116 0.717724 1.068526 0.002222 -0.001249 -32989.200000 0 0 1
29.572032 26.446836 20.638955 44.720316 0.729668 1.091098 0.006171 -0.010670 -326851.000000 0 0 1
30.597672 26.738536 21.537955 45.989676 0.718192 1.083406 0.004112 -0.009495 -950257.000000 0 0 1
31.565322 27.828236 21.115655 47.081324 0.722560 1.105718 0.015606 -0.014196 -352464.000000 0 0 1
32.408982 28.307636 22.172555 48.407505 0.717952 1.095008 0.021971 -0.005191 268664.000000 0 0 1
31.789922 28.993436 23.248355 48.905055 0.739423 1.075403 0.013237 0.001025 -149200.000000 0 0 1
32.749322 29.269136 24.490825 50.289173 0.729342 1.062145 0.013326 -0.006525 507215.000000 0 0 1
33.651402 30.339036 24.253925 51.391894 0.733681 1.079306 0.032354 -0.007999 -181915.000000 0 0 1
34.617823 30.351736 25.278225 52.522473 0.719829 1.068677 0.022243 -0.009233 -641113.000000 0 0 1
-34.233198 31.359436 24.952625 52.706352 -0.741614 1.077619 0.031183 -0.015043 -652854.000000 0 0 1
-33.084877 30.735336 24.417745 51.337084 -0.748600 1.075110 0.018900 -0.014795 -427883.000000 0 0 1
-32.047387 31.669536 24.566905 51.317904 -0.779468 1.071600 0.020327 -0.014985 -1449020.000000 0 0 1
-30.660677 31.120036 24.447665 50.062182 -0.792833 1.060603 0.023992 -0.018296 -1427910.000000 0 0 1
-30.144207 30.784636 23.148055 48.910116 -0.795909 1.077789 0.004033 -0.005603 171252.000000 0 0 1
-30.711217 29.733936 22.406155 48.263045 -0.769232 1.088008 0.007341 -0.003634 -645919.000000 0 0 1
-30.463897 28.347336 22.992955 47.542575 -0.749425 1.066001 -0.001087 -0.003908 -431865.000000 0 0 1
-29.141447 27.915236 22.764255 46.332447 -0.763910 1.057187 -0.010791 -0.005613 145568.000000 0 0 1
-28.663287 26.830436 23.553155 45.784357 -0.752382 1.030446 -0.003785 -0.009379 -95125.700000 0 0 1
-28.353167 27.024336 25.065185 46.502476 -0.761407 1.001538 0.017255 -0.012343 352606.000000 0 0 1
-29.518317 27.311636 25.864745 47.814658 -0.746588 0.999245 0.008885 -0.009072 590687.000000 0 0 1
-29.115697 27.817636 27.081855 48.528049 -0.762602 0.978743 0.019873 -0.017555 -136708.000000 0 0 1
-30.218047 28.256236 28.111325 50.017915 -0.751861 0.973964 0.014084 -0.020280 -70266.400000 0 0 1
-30.814857 27.150336 28.746345 50.130315 -0.722263 0.960107 0.006324 -0.016597 -57685.700000 0 0 1
-31.780437 27.580036 29.671055 51.488115 -0.714755 0.956639 0.004382 -0.006575 -664914.000000 0 0 1
-32.496757 26.412236 30.263895 51.667676 -0.682476 0.945002 0.000294 -0.012356 -846000.000000 0 0 1
-31.794677 25.700136 31.233075 51.448065 -0.679791 0.918416 0.001331 -0.017193 -441236.000000 0 0 1
-32.478977 24.546636 31.635395 51.557923 -0.647184 0.910198 -0.009241 -0.019853 -426581.000000 0 0 1
-31.764257 23.603236 32.663205 51.312432 -0.639055 0.880773 0.014744 -0.027135 -219442.000000 0 0 1
-30.671967 22.954436 32.030115 49.935998 -0.642467 0.874444 0.021978 -0.022130 29067.900000 0 0 1
-29.959367 22.077136 32.883465 49.661714 -0.635066 0.847113 0.021106 -0.021952 397613.000000 0 0 1
-28.721347 22.699136 33.596262 49.687778 -0.668812 0.828275 0.035085 -0.020909 -166044.000000 0 0 1
-29.048477 23.834436 34.418652 50.956235 -0.687120 0.829215 0.039808 -0.030379 202250.000000 0 0 1
-29.461477 23.442436 -33.511798 50.404037 -0.672112 2.298107 0.032636 -0.032047 -591676.000000 0 0 1
-28.391787 23.450436 -32.432768 49.070367 -0.690370 2.292872 0.043473 -0.025680 -488906.000000 0 0 1
-27.919907 24.768236 -32.231398 49.313788 -0.725652 2.283125 0.023354 -0.021215 -365364.000000 0 0 1
-26.945837 24.881836 -31.257008 48.189048 -0.745595 2.276583 0.039412 -0.014341 -570744.000000 0 0 1
-27.085747 26.084436 -30.294168 48.288426 -0.766568 2.248953 0.004114 0.001242 -395285.000000 0 0 1
-26.945927 27.389636 -30.813088 49.251614 -0.793564 2.246730 0.002630 0.001395 -47798.900000 0 0 1
-27.989327 27.872136 -31.633128 50.605465 -0.783300 2.246047 -0.001921 -0.001748 -428590.000000 0 0 1
-27.835247 29.318836 -32.157568 51.657567 -0.811350 2.242747 -0.000558 -0.004134 -20713.500000 0 0 1
-28.010687 30.360236 -31.159348 51.742124 -0.825628 2.217056 -0.006910 -0.009572 576910.000000 0 0 1
-27.318897 31.555436 -31.619018 52.362486 -0.857233 2.219117 -0.002273 -0.020960 253515.000000 0 0 1
-27.724647 32.780136 -30.857328 52.871240 -0.868760 2.193990 0.002962 -0.013085 -85864.800000 0 0 1
-27.032687 32.872236 -29.629458 51.858025 -0.882571 2.178955 -0.011481 -0.000794 210179.000000 0 0 1
-27.426917 34.095236 -28.967628 52.477084 -0.893366 2.155564 -0.008264 -0.002266 -434895.000000 0 0 1
-26.729747 34.283936 -27.554388 51.469524 -0.908583 2.135722 -0.012567 0.007547 1011490.000000 0 0 1
-25.383517 -34.498320 -27.588068 50.946623 0.936452 2.143028 -0.021567 0.000494 796952.000000 0 0 1
-25.179627 -33.189120 -28.101578 50.251666 0.921769 2.164237 -0.007555 0.009582 -960118.000000 0 0 1
-25.634037 -32.085120 -27.105778 49.206523 0.896703 2.154188 -0.016767 0.011621 -549454.000000 0 0 1
-27.007337 -31.905420 -26.942718 49.731902 0.868349 2.143325 -0.007398 0.006032 -783943.000000 0 0 1
-27.279727 -31.086420 -25.864998 48.780601 0.850527 2.129670 -0.012526 0.009692 -567686.000000 0 0 1
-28.790227 -30.926320 -25.730168 49.470758 0.821153 2.117774 -0.010315 0.003712 -538697.000000 0 0 1
-29.258887 -30.171020 -26.832838 49.863554 0.800745 2.139008 0.000538 -0.002752 -808522.000000 0 0 1
-30.636337 -30.078420 -26.710968 50.564535 0.776209 2.127340 -0.014118 -0.003421 -521945.000000 0 0 1
-31.425817 -29.538520 -27.964898 51.401766 0.754451 2.146047 -0.005181 -0.013068 -504610.000000 0 0 1
-32.805937 -29.580120 -27.867878 52.228647 0.733737 2.133618 -0.013628 -0.006674 -1079970.000000 0 0 1
-33.427267 -28.762520 -28.857868 52.701435 0.710530 2.150257 -0.009213 -0.014253 228338.000000 0 0 1
-34.965981 -28.884620 -28.938858 53.799615 0.690441 2.138741 -0.002500 -0.013423 588286.000000 0 0 1
34.321673 -28.114720 -27.885878 52.402642 -0.686311 2.131930 -0.021250 -0.003858 1248050.000000 0 0 1
32.883622 -28.231520 -27.971798 51.582679 -0.709424 2.143934 -0.019259 -0.006666 973765.000000 0 0 1
32.056822 -27.635220 -26.870868 50.133708 -0.711460 2.136469 -0.016003 -0.002913 -229685.000000 0 0 1
32.278872 -28.367420 -25.642478 50.041710 -0.720991 2.108799 -0.016370 0.001106 -36286.800000 0 0 1
31.249692 -28.058920 -24.762328 48.754682 -0.731651 2.103537 -0.014057 0.007572 -258033.000000 0 0 1
31.224812 -28.887320 -23.475528 48.585661 -0.746532 2.075077 -0.005757 0.011517 -178465.000000 0 0 1
30.708102 -30.187220 -23.535128 49.072986 -0.776845 2.070989 0.000300 0.011171 -183861.000000 0 0 1
30.300942 -30.714520 -22.293328 48.564609 -0.792176 2.047716 0.013197 0.001490 -219873.000000 0 0 1
31.371952 -31.022720 -21.211028 48.954225 -0.779801 2.018928 -0.003354 0.006832 -1629070.000000 0 0 1
32.387512 -31.820420 -21.768028 50.352130 -0.776566 2.017856 -0.011480 0.008078 454880.000000 0 0 1
33.565182 -31.833120 -20.930628 50.774601 -0.758920 1.995693 -0.014015 0.011553 967628.000000 0 0 1
34.434034 -30.553220 -20.991428 50.594880 -0.725752 1.998621 -0.035640 0.020107 -1112430.000000 0 0 1
33.752182 -29.434920 -20.493428 49.250430 -0.717179 1.999956 -0.045908 0.020847 -513060.000000 0 0 1
34.359229 -28.256520 -20.934928 49.165625 -0.688242 2.010647 -0.057856 0.027140 -141784.000000 0 0 1
33.545772 -26.961020 -20.601428 47.714088 -0.676998 2.017249 -0.061743 0.024947 -847485.000000 0 0 1
32.410542 -26.781120 -21.329228 47.144539 -0.690578 2.040276 -0.031615 0.017797 -1850340.000000 0 0 1
31.548932 -26.037020 -20.581828 45.791627 -0.689973 2.036965 0.009476 0.007281 -21005.700000 0 0 1
30.210572 -25.631220 -21.305828 44.984179 -0.703575 2.064203 0.014150 -0.003773 806177.000000 0 0 1
29.412922 -26.699120 -21.747228 45.286917 -0.737072 2.071690 0.028791 -0.007716 -225009.000000 0 0 1
28.244032 -26.356020 -22.445628 44.678533 -0.750833 2.097146 0.035419 -0.006538 -12651.700000 0 0 1
27.577672 -27.622020 -23.001428 45.305293 -0.786202 2.103308 0.039601 -0.004557 -3027.200000 0 0 1
26.804012 -28.311320 -22.009428 44.770534 -0.812740 2.084728 0.040799 -0.004518 315788.000000 0 0 1
26.223232 -29.530120 -22.469128 45.437292 -0.844642 2.088066 0.032034 -0.004196 133713.000000 0 0 1
25.465442 -30.336920 -21.351528 44.996724 -0.872476 2.065207 0.033361 0.006645 -80841.100000 0 0 1
26.214122 -31.034320 -20.386928 45.452568 -0.869398 2.035918 0.049285 0.002405 -220492.000000 0 0 1
26.905262 -32.167820 -20.842428 46.830209 -0.874249 2.032042 0.045223 0.003377 364996.000000 0 0 1
28.033562 -32.675720 -19.881428 47.422088 -0.861715 2.003409 0.025408 0.001797 148791.000000 0 0 1
27.625042 -33.392020 -18.761128 47.224462 -0.879632 1.979343 0.031158 0.002805 -356154.000000 0 0 1
27.253632 -32.699120 -17.584628 46.056617 -0.875979 1.962544 0.020316 -0.000632 -132928.000000 0 0 1
26.706742 -33.605820 -16.454328 45.971144 -0.899292 1.936844 0.026493 -0.003832 -484043.000000 0 0 1
25.328862 -33.821220 -16.409928 45.328929 -0.927997 1.941229 0.027688 0.009811 -525036.000000 0 0 1
25.128582 -34.527720 -15.196728 45.327139 -0.941668 1.912686 0.035563 0.006863 -491023.000000 0 0 1
23.651882 34.500636 -14.894828 44.402266 0.969835 1.912881 0.048077 0.002111 -265982.000000 0 0 1
22.911082 -33.602620 -14.767728 43.268227 -0.972373 1.919103 0.037709 0.007461 397239.000000 0 0 1
21.511882 -33.875220 -14.725928 42.745111 -1.005015 1.922508 0.045162 -0.003572 443710.000000 0 0 1
-0.427897 -7.155464 -29.152468 30.020828 1.511067 2.900488 -0.004603 0.007252 180012.000000 0 0 1
-0.445597 -8.549164 -29.177428 30.407385 1.518722 2.856198 -0.003953 0.004821 -69574.400000 0 0 1
-0.562497 -9.152564 -30.463308 31.813503 1.509416 2.849207 -0.025697 0.020407 -276426.000000 0 0 1
-0.438497 -10.650764 -30.362758 32.179623 1.529649 2.803955 -0.023541 0.021040 153660.000000 0 0 1
0.882303 -11.073164 -30.089248 32.074230 -1.491285 2.787937 -0.013024 0.013744 -212176.000000 0 0 1
1.098703 -12.440164 -30.124708 32.610778 -1.482706 2.748595 -0.008940 0.009590 289087.000000 0 0 1
2.472803 -12.711164 -29.445968 32.167584 -1.378658 2.727278 -0.001332 0.010542 50089.200000 0 0 1
3.542003 -12.335064 -30.313028 32.917765 -1.291171 2.741106 -0.001142 0.018110 452694.000000 0 0 1
4.858303 -12.674764 -29.868318 32.808065 -1.204764 2.715035 0.011012 0.008932 1008880.000000 0 0 1
5.245303 -14.181064 -29.490458 33.140653 -1.216521 2.667829 0.018490 -0.000636 -1030320.000000 0 0 1
4.707603 -14.626064 -28.262948 32.169512 -1.259403 2.643642 0.026551 0.000927 48370.200000 0 0 1
5.449903 -15.685164 -27.625738 32.232083 -1.236390 2.600387 0.028993 -0.003978 23262.500000 0 0 1
5.031003 -17.137664 -28.096718 33.293184 -1.285254 2.575341 0.028159 -0.003399 -113145.000000 0 0 1
5.493203 -17.629964 -29.408158 34.725072 -1.268747 2.580897 0.028305 -0.015314 260284.000000 0 0 1
4.970603 -18.925964 -29.608648 35.490436 -1.313963 2.557606 0.014037 -0.010374 -444855.000000 0 0 1
5.317303 -19.459664 -31.001588 36.987169 -1.304060 2.564718 0.014727 -0.014251 627642.000000 0 0 1
6.704103 -19.693464 -31.291928 37.576086 -1.242679 2.554874 0.012721 -0.009735 832448.000000 0 0 1
6.944103 -20.367764 -32.518368 38.993725 -1.242219 2.557003 0.016992 -0.012645 154751.000000 0 0 1
8.405303 -20.190564 -33.020648 39.606454 -1.176319 2.556605 0.007526 -0.013055 347389.000000 0 0 1
8.588603 -18.890364 -33.486038 39.394475 -1.144078 2.586817 -0.004891 -0.012294 -117739.000000 0 0 1
9.812703 -18.759064 -34.163965 40.191642 -1.088847 2.586832 -0.002607 -0.005641 -458139.000000 0 0 1
10.097003 -17.396964 34.534296 39.965253 -1.044922 0.527421 -0.014589 0.005140 -402694.000000 0 0 1
9.157403 -17.107864 33.550549 38.757920 -1.079329 0.524362 -0.009862 0.004921 -76494.200000 0 0 1
9.231703 -15.746764 33.193805 37.881574 -1.040541 0.502768 -0.014979 0.015025 -73426.000000 0 0 1
8.269603 -15.407164 32.046945 36.507174 -1.078192 0.499492 -0.016575 0.005525 64486.300000 0 0 1
8.660003 -16.056664 30.862565 35.851221 -1.076174 0.533856 -0.014013 0.005863 47984.200000 0 0 1
7.715403 -15.684164 29.883755 34.620215 -1.113631 0.529246 -0.007426 -0.003580 -225776.000000 0 0 1
7.722403 -16.512164 28.531185 33.857283 -1.133338 0.568537 -0.008034 0.001882 -562045.000000 0 0 1
7.397903 -17.855364 28.768585 34.657964 -1.178003 0.591561 -0.013777 0.002888 106958.000000 0 0 1
7.543203 -18.650764 27.616465 34.167529 -1.186464 0.629594 -0.025314 0.005178 -131977.000000 0 0 1
6.958303 -20.047764 27.722495 34.912284 -1.236720 0.653335 -0.019488 0.006426 -516931.000000 0 0 1
7.632103 -20.754764 28.730695 36.255511 -1.218416 0.655980 -0.019457 0.007029 -91266.900000 0 0 1
6.892303 -21.733964 29.415365 37.217371 -1.263707 0.659389 -0.019557 0.006005 -376709.000000 0 0 1
7.506003 -21.960964 30.804855 38.568940 -1.241456 0.645671 -0.023473 0.002703 -336369.000000 0 0 1
6.998903 -21.170764 31.877965 38.902321 -1.251514 0.610370 -0.003060 -0.004907 63566.000000 0 0 1
7.074103 -19.732964 31.833395 38.115585 -1.226577 0.582335 -0.012233 -0.004573 -418120.000000 0 0 1
6.353503 -19.048164 32.999375 38.628465 -1.248851 0.546640 -0.003175 -0.007732 339264.000000 0 0 1
4.936703 -19.160264 32.893835 38.386080 -1.318628 0.541530 0.010508 -0.017399 -66963.900000 0 0 1
4.371303 -18.318464 33.883573 38.765590 -1.336549 0.507292 0.013893 -0.010737 -183563.000000 0 0 1
2.827503 -18.305764 33.943130 38.668228 -1.417548 0.499538 0.022261 -0.008921 -136019.000000 0 0 1
2.315503 -19.422864 34.597718 39.744324 -1.452141 0.514564 0.009342 -0.018647 -382102.000000 0 0 1
2.261303 -19.214564 -33.268618 38.485243 -1.453648 2.614854 0.005904 -0.016230 -516438.000000 0 0 1
1.655303 -20.363164 -32.383408 38.289471 -1.489686 2.578770 -0.005273 0.009849 80393.600000 0 0 1
0.271703 -20.605064 -32.624968 38.587965 -1.557611 2.578241 -0.009862 0.010033 427850.000000 0 0 1
-0.387097 -21.477464 -31.726698 38.314679 1.552775 2.546428 -0.013408 0.013238 21332.100000 0 0 1
-0.830797 -20.752264 -30.469248 36.874405 1.530784 2.543299 -0.008568 0.012239 -828459.000000 0 0 1
-1.871397 -19.853664 -30.763698 36.661631 1.476815 2.566469 -0.002819 0.006539 -317603.000000 0 0 1
-2.083797 -18.908064 -29.705628 35.274373 1.461033 2.572018 0.010060 0.006327 -15687.600000 0 0 1
-2.052897 -17.499264 -30.295988 35.046904 1.454017 2.614834 0.002875 0.007375 -4581.730000 0 0 1
-2.535997 -16.527664 -29.388298 33.812232 1.418544 2.624301 0.005903 0.005283 -273423.000000 0 0 1
-2.593797 -15.235164 -29.961718 33.712647 1.402163 2.665382 0.013410 0.008872 -309400.000000 0 0 1
-3.537397 -14.266064 -29.301198 32.781000 1.327740 2.676649 0.024114 0.000974 -304878.000000 0 0 1
-3.281597 -14.048664 -27.945328 31.449566 1.341323 2.665028 0.023377 -0.002640 -107933.000000 0 0 1
-4.254897 -13.144364 -27.447748 30.728770 1.257736 2.675267 0.023198 0.002779 -209.962000 0 0 1
-4.503997 -13.004164 -25.946298 29.370132 1.237377 2.653918 0.028305 -0.012148 -436470.000000 0 0 1
-5.139897 -14.058164 -25.185838 29.298071 1.220278 2.605364 0.028698 -0.005740 149934.000000 0 0 1
-5.119897 -13.718364 -23.787128 27.932674 1.213592 2.589803 0.030954 -0.009705 -320491.000000 0 0 1
-6.231597 -12.742464 -23.413628 27.375192 1.115954 2.596900 0.021803 -0.009231 351111.000000 0 0 1
-7.543597 -13.289064 -23.572428 28.092070 1.054500 2.566447 0.009488 -0.000859 -119468.000000 0 0 1
-8.631897 -12.428564 -23.468128 27.923679 0.963757 2.568888 0.018824 -0.001368 780898.000000 0 0 1
-9.948597 -13.300064 -23.652228 28.901456 0.928569 2.529374 0.013003 0.001462 770471.000000 0 0 1
-10.349697 -13.924164 -22.414528 28.344481 0.931603 2.482895 0.021269 0.002188 -399785.000000 0 0 1
-11.509397 -14.681664 -22.632628 29.330075 0.905931 2.452232 -0.003548 0.012623 -224468.000000 0 0 1
-11.768097 -15.636664 -21.406828 29.004235 0.925636 2.400985 0.008014 0.010450 -70893.400000 0 0 1
-10.891797 -16.735364 -21.246528 29.156793 0.993841 2.387217 0.011061 0.008412 -385974.000000 0 0 1
-11.482097 -18.008864 -21.416328 30.245939 1.003202 2.357562 0.003175 0.012449 148351.000000 0 0 1
-11.828897 -18.524364 -22.828828 31.689592 1.002506 2.375159 -0.004247 0.017251 645132.000000 0 0 1
-12.888797 -17.765964 -23.421528 32.098575 0.943176 2.388643 -0.005978 0.016770 219581.000000 0 0 1
-13.360997 -18.261164 -24.701828 33.498756 0.939135 2.400002 -0.008011 0.019744 792077.000000 0 0 1
-14.609097 -17.521664 -25.317258 34.079289 0.875798 2.408178 -0.001262 0.015306 321923.000000 0 0 1
-15.824797 -18.010164 -24.804928 34.497458 0.849898 2.373211 0.002845 0.010874 -452049.000000 0 0 1
-16.981297 -17.471864 -25.383628 35.184642 0.799636 2.376677 0.002448 0.009489 -31347.200000 0 0 1
-17.507297 -16.093464 -24.918128 34.444421 0.743346 2.379554 0.001734 0.009873 -527400.000000 0 0 1
-18.299197 -16.137264 -23.741028 34.042742 0.722700 2.342544 -0.003191 0.005493 39407.600000 0 0 1
-18.858797 -14.873864 -23.498528 33.601590 0.667810 2.345253 -0.006765 0.000692 135668.000000 0 0 1
-19.713397 -14.847564 -22.189128 33.187732 0.645528 2.303113 -0.009391 -0.007737 136973.000000 0 0 1
-18.935597 -14.657864 -21.009428 31.856018 0.658742 2.290966 -0.008484 0.001486 368406.000000 0 0 1
-19.687597 -15.075864 -19.879828 31.781924 0.653508 2.246578 -0.018802 -0.007567 -211520.000000 0 0 1
-20.259497 -13.975964 -19.044428 31.120170 0.603880 2.229338 -0.021411 -0.003892 -610409.000000 0 0 1
-21.182297 -13.220764 -19.789728 31.860816 0.557982 2.240981 -0.009928 -0.011693 -335028.000000 0 0 1
-21.705597 -12.237764 -18.874628 31.259356 0.513382 2.219065 -0.006520 -0.000572 -221931.000000 0 0 1
-23.147697 -11.959164 -19.311328 32.430924 0.476876 2.208635 -0.011825 0.002746 -390756.000000 0 0 1
-23.238797 -11.345264 -20.610528 33.068876 0.454166 2.243702 -0.021217 -0.006744 -300459.000000 0 0 1
-24.567597 -10.983464 -20.900328 34.073846 0.420416 2.231134 -0.022629 -0.002275 -368928.000000 0 0 1
-24.877097 -9.856064 -21.948328 34.608395 0.377218 2.257758 -0.020426 0.006733 -394202.000000 0 0 1
-24.661497 -10.400264 -23.266928 35.464134 0.399090 2.286395 -0.025461 0.000609 504621.000000 0 0 1
-25.508957 -9.742564 -24.198228 36.485321 0.364830 2.295925 -0.008731 0.000851 -311480.000000 0 0 1
-25.297087 -10.299764 -25.647958 37.467926 0.386657 2.324757 -0.017586 -0.002543 163772.000000 0 0 1
-24.080897 -9.892164 -26.249898 36.970280 0.389772 2.360333 -0.020266 -0.003935 -251308.000000 0 0 1
-23.227397 -10.984964 -26.433448 36.863377 0.441759 2.370379 -0.012116 -0.001254 -392680.000000 0 0 1
-22.205197 -10.772164 -27.551618 36.989213 0.451672 2.411115 -0.002389 -0.007348 -592866.000000 0 0 1
-22.675297 -11.040264 -28.828388 38.303165 0.453101 2.422855 0.014745 0.001006 -506885.000000 0 0 1
-21.768997 -10.723764 -29.827638 38.452260 0.457723 2.458629 0.022519 0.004174 -342061.000000 0 0 1
-22.296797 -11.046064 -31.233458 39.933589 0.459969 2.468881 0.033920 -0.000496 506978.000000 0 0 1
-23.416397 -10.345764 -31.749888 40.785020 0.416028 2.463020 0.030402 -0.011108 415962.000000 0 0 1
-22.926897 -9.251964 -32.509808 40.842735 0.383556 2.491413 0.024461 -0.017656 -276740.000000 0 0 1
-24.020097 -8.371264 -33.133998 41.772059 0.335348 2.486858 0.032676 -0.016514 -957000.000000 0 0 1
-24.844597 -8.889964 -34.157954 43.163077 0.343627 2.483843 0.043282 -0.021150 1204540.000000 0 0 1
-26.103517 -9.432864 -33.690158 43.650879 0.346762 2.452478 0.042205 -0.017160 613145.000000 0 0 1
-27.156557 -8.473664 -33.133908 43.670784 0.302457 2.432143 0.018518 -0.000106 -1464320.000000 0 0 1
-28.465617 -8.955464 -33.103858 44.568566 0.304803 2.407983 0.004412 0.001006 -331222.000000 0 0 1
-29.137377 -8.594064 -31.932528 44.074153 0.286817 2.381132 0.011977 0.004548 66030.600000 0 0 1
-30.561247 -9.179064 -31.807308 45.054965 0.291778 2.354584 0.010555 -0.000508 32107.700000 0 0 1
-30.578787 -10.588764 -31.713168 45.309040 0.333355 2.346096 0.009114 -0.006303 306146.000000 0 0 1
-31.888707 -11.132364 -31.646318 46.285079 0.335873 2.323653 -0.001216 -0.005384 5488.500000 0 0 1
-31.997397 -12.577664 -32.090378 47.030026 0.374530 2.321753 -0.009149 -0.009227 -1274860.000000 0 0 1
-33.287107 -13.034264 -31.907878 47.916972 0.373219 2.299495 -0.018617 -0.008317 -853062.000000 0 0 1
-33.375497 -14.470464 -31.999118 48.448546 0.409103 2.292249 -0.021024 -0.009751 -198571.000000 0 0 1
-34.611987 -15.155364 -31.413738 49.137538 0.412716 2.264387 -0.028311 -0.011207 -150811.000000 0 0 1
-34.572541 -15.188264 -29.998418 48.227057 0.413934 2.242122 -0.021783 -0.004808 -412090.000000 0 0 1
34.257871 -15.853764 -29.506968 47.912469 -0.433429 2.234263 -0.020343 -0.003039 -474801.000000 0 0 1
34.431815 -15.973064 -27.989048 47.160104 -0.434356 2.206184 -0.013824 -0.001858 114866.000000 0 0 1
-34.642790 -17.051764 -27.610048 47.467887 0.457402 2.191561 -0.016471 -0.011499 423268.000000 0 0 1
-34.410143 -17.040064 -26.223388 46.498255 0.459804 2.169976 -0.021063 -0.000234 470191.000000 0 0 1
-33.298957 -16.063964 -25.619638 44.980410 0.449482 2.176783 0.002243 -0.001103 281674.000000 0 0 1
-32.025737 -16.571064 -25.927858 44.412856 0.477494 2.194187 -0.006469 0.001600 -469813.000000 0 0 1
-30.982497 -15.952664 -25.200268 43.005303 0.475491 2.196886 0.009687 0.010402 -544263.000000 0 0 1
-29.676927 -16.662164 -25.446868 42.495773 0.511593 2.212810 0.018729 0.012360 -830292.000000 0 0 1
-29.586617 -17.874864 -24.727328 42.500816 0.543468 2.191747 0.020078 0.008373 58268.800000 0 0 1
-29.981447 -19.043864 -25.444168 43.691665 0.565892 2.192422 -0.002206 0.005160 -128655.000000 0 0 1
-29.898647 -20.302064 -24.584028 43.709007 0.596513 2.168139 -0.001143 0.004500 -367629.000000 0 0 1
-28.617227 -20.827164 -24.308528 42.937407 0.629131 2.172610 0.000402 0.012259 23088.500000 0 0 1
-28.678417 -21.946964 -23.408528 43.035799 0.653208 2.145912 -0.022439 0.025659 -94939.800000 0 0 1
-27.429787 -22.841264 -23.657928 42.823056 0.694375 2.156106 -0.000634 0.015857 529848.000000 0 0 1
-26.151637 -22.372764 -23.261128 41.539484 0.707679 2.165154 0.016201 0.012620 222314.000000 0 0 1
-25.861467 -22.216864 -21.862128 40.501323 0.709737 2.140982 0.004484 0.009976 -428788.000000 0 0 1
-26.003237 -23.490664 -20.961128 40.833179 0.734676 2.109864 0.017451 0.011862 -216610.000000 0 0 1
-25.784927 -23.215364 -19.583328 39.841214 0.733006 2.084647 0.003603 0.010718 105180.000000 0 0 1
-26.055757 -24.314164 -18.698628 40.245742 0.750836 2.053992 0.010697 0.044396 -42179.300000 0 0 1
-26.041947 -24.042864 -17.153228 39.376078 0.745505 2.021530 -0.007518 0.034769 359264.000000 0 0 1
-27.162567 -23.234164 -16.778728 39.486164 0.707606 2.009677 -0.014386 0.026170 433290.000000 0 0 1
-26.862817 -22.664664 -15.548228 38.432347 0.700836 1.987295 -0.022179 0.026109 393445.000000 0 0 1
-28.118137 -21.947464 -14.987728 38.690474 0.662765 1.968579 -0.023385 0.023057 432622.000000 0 0 1
-28.601087 -20.775564 -15.693228 38.677172 0.628219 1.988595 -0.018611 0.022306 -5424.800000 0 0 1
-29.737887 -20.289364 -14.998128 38.999282 0.598729 1.965543 -0.006418 0.015789 248045.000000 0 0 1
-30.751237 -19.657564 -15.995028 39.848454 0.568777 1.983837 -0.002517 0.006367 -25013.500000 0 0 1
-31.541917 -20.575164 -16.712128 41.201033 0.577999 1.988458 -0.011668 0.022139 265404.000000 0 0 1
-32.423027 -19.899964 -17.638828 41.933155 0.550476 2.004949 -0.011134 0.017171 495664.000000 0 0 1
-33.090117 -20.836164 -18.681128 43.336891 0.561957 2.016472 -0.035260 0.026782 176860.000000 0 0 1
-34.178695 -21.670964 -18.373228 44.445352 0.565080 1.996969 -0.042187 0.024815 -191226.000000 0 0 1
-33.972767 -22.631864 -17.332228 44.348126 0.587663 1.972321 -0.034508 0.024497 182436.000000 0 0 1
-34.888966 -23.898264 -17.481228 45.759811 0.600575 1.962779 -0.043881 0.042753 971224.000000 0 0 1
33.652992 -23.808964 -17.252428 44.688219 -0.615731 1.967155 -0.039661 0.027111 619748.000000 0 0 1
33.012512 -25.091094 -17.268628 44.917641 -0.649901 1.965409 -0.047875 0.023743 572768.000000 0 0 1
31.566712 -25.151704 -16.686728 43.675077 -0.672774 1.962826 -0.035126 0.013730 226613.000000 0 0 1
30.611012 -24.541264 -17.500628 42.960210 -0.675785 1.990367 -0.028753 0.003664 -439294.000000 0 0 1
29.324522 -24.958664 -17.068328 42.121138 -0.705143 1.988016 -0.001108 0.000483 71355.400000 0 0 1
28.316342 -24.671264 -18.199228 41.733660 -0.716715 2.022035 0.019802 -0.007033 -412920.000000 0 0 1
28.232732 -23.355564 -18.563528 41.075225 -0.691138 2.039735 0.014651 -0.007413 -462996.000000 0 0 1
26.927812 -23.050864 -18.940928 40.189652 -0.707981 2.061548 0.035749 -0.021897 -720265.000000 0 0 1
33.191552 30.132336 -19.013028 48.694270 0.737125 1.971924 0.007271 -0.017341 44548.700000 0 0 1
32.241772 30.021336 -20.066328 48.409399 0.749751 1.998204 0.007717 -0.030830 491155.000000 0 0 1
32.872042 29.359936 -21.168128 48.894443 0.729022 2.018543 0.022778 -0.024033 -158992.000000 0 0 1
31.990462 29.405136 -22.403628 48.887362 0.743314 2.046845 0.019203 -0.033221 -882210.000000 0 0 1
30.819312 28.624336 -22.253128 47.585547 0.748490 2.057421 0.018982 -0.025186 -180563.000000 0 0 1
30.017812 28.757236 -23.382928 47.694957 0.763954 2.083184 0.032833 -0.022286 -43937.200000 0 0 1
28.968792 29.891136 -23.423428 47.763248 0.801067 2.083353 0.030201 -0.010055 -389290.000000 0 0 1
29.573072 31.173636 -23.327128 48.892914 0.811740 2.068156 0.034612 -0.012481 340873.000000 0 0 1
28.532502 32.166036 -23.296928 48.903010 0.845189 2.067341 0.040418 0.001509 16964.600000 0 0 1
28.988322 33.627636 -23.094228 50.044820 0.859355 2.050449 0.037963 0.000166 -154405.000000 0 0 1
29.292852 33.954736 -21.723828 49.828907 0.858974 2.021910 0.038396 0.001618 273908.000000 0 0 1
30.660712 33.711436 -21.422828 50.353527 0.832755 2.010254 0.021843 -0.006040 -135380.000000 0 0 1
30.925642 33.603036 -19.914128 49.820998 0.826866 1.982001 0.015172 -0.012055 -455471.000000 0 0 1
30.836372 -34.443220 -19.189528 50.054522 -0.840594 1.964241 0.006062 -0.005869 17444.500000 0 0 1
30.936622 -34.599420 -17.765528 49.697167 -0.841230 1.936360 -0.006279 -0.017835 -753444.000000 0 0 1
31.017982 -33.314620 -16.935228 48.567283 -0.821082 1.926976 -0.009256 -0.004399 564537.000000 0 0 1
32.213652 -32.502020 -17.021028 48.824338 -0.789854 1.926892 -0.019049 0.001259 461792.000000 0 0 1
33.301902 -33.126320 -16.368028 49.742155 -0.782755 1.906102 -0.025455 -0.003228 -1255650.000000 0 0 1
34.548769 -32.339920 -16.712928 50.187745 -0.752387 1.910288 -0.035606 0.010894 -946814.000000 0 0 1
-34.717179 -32.816920 -17.835328 50.993447 0.757268 1.928108 -0.037553 0.007627 84419.400000 0 0 1
-33.460037 -32.157420 -17.972828 49.766417 0.765549 1.940290 -0.046792 0.012695 98586.300000 0 0 1
-32.436827 -32.710120 -18.924428 49.801944 0.789593 1.960586 -0.029114 0.003943 -1402400.000000 0 0 1
-31.900187 -33.896820 -18.428828 50.062341 0.815734 1.947780 -0.016633 -0.002363 319087.000000 0 0 1
-30.803197 -34.443720 -19.152628 50.020295 0.841136 1.963727 -0.013631 0.005639 676989.000000 0 0 1
-29.447657 -33.707120 -19.234928 48.716700 0.852741 1.976682 -0.010863 -0.000123 -998651.000000 0 0 1
-29.617277 -32.591020 -20.084128 48.401754 0.833165 1.998680 -0.023285 0.013341 -547467.000000 0 0 1
-28.542057 -31.848720 -20.614728 47.475856 0.840098 2.019963 -0.002877 0.011711 -396280.000000 0 0 1
-27.649777 -32.582320 -21.623928 47.892713 0.867108 2.039251 -0.001269 0.010057 -168256.000000 0 0 1
-28.405447 -33.101320 -22.702328 49.172781 0.861598 2.050690 -0.006630 0.013713 -132595.000000 0 0 1
-27.644747 -34.020820 -23.452528 49.715885 0.888430 2.062049 -0.013942 0.018413 -436047.000000 0 0 1
-28.410017 34.580936 -24.568928 51.054896 -0.883052 2.072849 -0.023392 0.011447 -815803.000000 0 0 1
-29.236307 33.536436 -24.133228 50.614887 -0.853794 2.067808 -0.020929 0.007262 -128777.000000 0 0 1
-29.836287 32.810336 -25.213358 51.014072 -0.832836 2.087760 -0.024844 0.004887 607292.000000 0 0 1
-30.871567 33.479536 -26.195608 52.537061 -0.825903 2.092793 -0.011920 -0.004376 -103310.000000 0 0 1
-30.270147 34.297536 -27.182168 53.211587 -0.847692 2.106948 -0.014898 -0.012708 -730585.000000 0 0 1
-31.168277 -34.151120 -27.797918 53.948908 0.831032 2.112112 -0.012609 -0.010099 -275713.000000 0 0 1
-30.518467 -33.286220 -28.933458 53.632958 0.828750 2.140606 -0.017193 -0.007887 -24332.100000 0 0 1
-30.292167 -33.964120 -30.124668 54.577215 0.842482 2.155514 -0.008124 -0.009185 392014.000000 0 0 1
-31.490127 -34.267320 -30.833628 55.826426 0.827607 2.155932 -0.002224 -0.007346 182916.000000 0 0 1
-31.212087 34.128936 -32.007848 56.244830 -0.830009 2.176184 0.007800 -0.011093 -24389.700000 0 0 1
-30.509147 -34.535220 -33.057248 56.712177 0.847217 2.193083 0.016697 -0.023275 -91982.400000 0 0 1
-30.824787 34.213736 -34.312774 57.429205 -0.837458 2.211151 0.010642 -0.026701 -149494.000000 0 0 1
-29.850657 -34.579820 33.811305 56.833353 0.858666 0.933630 0.018968 -0.033181 1321300.000000 0 0 1
-28.506427 34.215736 33.760745 55.884889 -0.876173 0.922145 0.019737 -0.027420 626532.000000 0 0 1
-28.463957 32.825336 33.430623 54.820672 -0.856439 0.914966 0.023242 -0.029840 -299120.000000 0 0 1
-27.049327 32.217936 33.215602 53.599792 -0.872387 0.902440 0.030463 -0.023073 246895.000000 0 0 1
-26.388817 32.022436 34.470837 53.944830 -0.881548 0.877597 0.029685 -0.018954 734199.000000 0 0 1
-25.002597 31.672236 34.377958 53.010417 -0.902542 0.865167 0.038397 -0.018304 516482.000000 0 0 1
-24.686297 30.164636 34.017112 51.734731 -0.884945 0.853261 0.033454 -0.019858 -529701.000000 0 0 1
-24.960497 29.281936 -34.207724 51.484236 -0.864899 2.297529 0.030442 -0.013971 255348.000000 0 0 1
-24.662697 27.974936 -34.539041 50.831004 -0.848241 2.317860 0.021155 -0.011333 -235560.000000 0 0 1
-24.688597 27.006336 -33.332968 49.497027 -0.830203 2.309640 0.029135 -0.015600 606983.000000 0 0 1
-23.619097 27.137036 -32.345958 48.379142 -0.854598 2.303111 0.024140 -0.014594 895811.000000 0 0 1
-23.779997 28.291436 -31.536728 48.584553 -0.871822 2.277210 0.020687 -0.004384 210317.000000 0 0 1
-22.483297 28.561436 -30.730048 47.598215 -0.903915 2.272623 0.028870 -0.005565 -490984.000000 0 0 1
-21.340997 28.869236 -31.459938 47.734669 -0.934224 2.290363 0.018397 -0.008415 -677732.000000 0 0 1
-20.147897 28.674236 -30.740818 46.617029 -0.958295 2.290861 0.015332 -0.002505 108561.000000 0 0 1
-19.762897 29.722236 -29.674708 46.417364 -0.984004 2.264386 0.017832 0.001380 -778002.000000 0 0 1
-19.251897 30.943536 -30.302738 47.396137 -1.014240 2.264449 0.018032 0.006588 326550.000000 0 0 1
-18.888897 31.907936 -29.290308 47.252819 -1.036294 2.239365 0.021461 -0.000312 -153192.000000 0 0 1
-18.498597 33.161236 -30.054588 48.426686 -1.061955 2.240330 0.009639 0.013112 -827548.000000 0 0 1
-17.224897 33.129536 -30.579338 48.263434 -1.091336 2.256984 0.017413 0.006971 -1178350.000000 0 0 1
-17.055297 34.083536 -31.573988 49.492295 -1.106831 2.262640 0.006601 0.015539 -196249.000000 0 0 1
-15.615397 34.168036 -32.105468 49.417166 -1.142122 2.277963 -0.001704 0.013585 20230.000000 0 0 1
-14.700097 34.574536 -31.071138 48.753533 -1.168781 2.261799 0.007719 0.013832 291410.000000 0 0 1
-13.327597 34.490536 -31.407028 48.514155 -1.202057 2.274936 0.012302 0.024988 475596.000000 0 0 1
-12.657797 33.107436 -31.322148 47.301153 -1.205619 2.294528 0.024969 0.006732 -585460.000000 0 0 1
-12.569597 32.568136 -29.996358 46.026728 -1.202462 2.280641 0.040206 -0.014402 -37929.400000 0 0 1
-12.298497 31.196636 -29.957298 44.965796 -1.195278 2.299930 0.042261 -0.015743 -188735.000000 0 0 1
-12.163297 30.670336 -28.492858 43.594245 -1.193240 2.283117 0.043817 -0.028637 1254630.000000 0 0 1
-10.839397 30.900036 -27.931808 43.040569 -1.233419 2.277019 0.028774 -0.021668 1091920.000000 0 0 1
-10.762697 30.522336 -26.562378 41.868945 -1.231792 2.258051 0.028547 -0.023504 445241.000000 0 0 1
-9.348597 30.828036 -25.999608 41.397387 -1.276361 2.249840 0.021020 -0.019658 188627.000000 0 0 1
-8.252597 30.288536 -26.683978 41.201158 -1.304787 2.275294 0.025902 -0.013144 -233809.000000 0 0 1
-7.069797 30.872336 -26.150398 41.072210 -1.345677 2.260999 0.014290 -0.014925 -241574.000000 0 0 1
-5.794497 30.231236 -26.676778 40.732718 -1.381421 2.284877 0.003241 -0.008417 -507100.000000 0 0 1
-5.376997 29.185536 -25.764118 39.300094 -1.388604 2.285739 0.015330 -0.019300 88221.100000 0 0 1
-4.281197 28.409536 -26.214178 38.892332 -1.421226 2.310432 0.015640 -0.016645 136374.000000 0 0 1
-3.900397 27.326036 -25.226058 37.393573 -1.429018 2.311232 0.012156 -0.014740 -215597.000000 0 0 1
-4.745097 26.204736 -25.308508 36.738599 -1.391660 2.330740 0.021757 -0.014794 440852.000000 0 0 1
-4.214197 25.106736 -24.551028 35.367508 -1.404495 2.338061 0.023071 -0.015339 -325142.000000 0 0 1
-5.262097 24.001936 -24.461528 34.672019 -1.354975 2.353942 0.035680 -0.010287 -318338.000000 0 0 1
-5.603097 23.458036 -25.681338 35.230743 -1.336333 2.387579 0.019570 -0.003823 -240625.000000 0 0 1
-6.562697 22.461336 -25.528818 34.630927 -1.286532 2.399666 0.022175 -0.013323 -459779.000000 0 0 1
-6.589097 21.509436 -26.692168 34.907647 -1.273538 2.441296 -0.000778 0.000392 -400379.000000 0 0 1
-5.590297 20.551336 -26.858948 34.278446 -1.305206 2.471159 0.006632 -0.002924 -851580.000000 0 0 1
-5.722997 19.330336 -26.153788 33.021738 -1.282955 2.484903 0.010425 -0.003696 -776087.000000 0 0 1
-4.504497 18.455936 -26.249178 32.402645 -1.331409 2.515108 0.003565 -0.010091 -567236.000000 0 0 1
-4.216397 17.963736 -27.529248 33.141112 -1.340252 2.551102 -0.009517 -0.008405 118971.000000 0 0 1
-3.379997 16.785036 -27.537258 32.426260 -1.372084 2.585316 -0.011045 0.000433 -139371.000000 0 0 1
-2.983997 16.375436 -28.946928 33.391372 -1.390550 2.619743 -0.010063 0.004166 -290900.000000 0 0 1
-2.055297 17.166836 -29.634618 34.309402 -1.451639 2.613453 -0.001628 -0.012488 30684.700000 0 0 1
-2.001397 16.939636 -31.041658 35.419505 -1.453193 2.639132 -0.004617 -0.022315 -90497.800000 0 0 1
-1.444997 18.116136 -31.847438 36.667993 -1.491202 2.623035 0.004018 0.009559 -417776.000000 0 0 1
-0.078897 18.327236 -31.599808 36.530010 -1.566491 2.616020 0.020725 -0.005254 -224201.000000 0 0 1
0.402503 19.494036 -32.231618 37.670368 1.550152 2.597549 0.028757 0.012455 91721.500000 0 0 1
0.131303 20.805736 -31.529478 37.775704 1.564485 2.558293 0.021323 0.016118 -561550.000000 0 0 1
0.999203 21.100036 -30.506178 37.105752 1.523476 2.535959 0.039333 -0.009862 -570714.000000 0 0 1
0.727603 22.374936 -29.983018 37.418558 1.538289 2.500240 0.038944 -0.004075 343284.000000 0 0 1
1.671603 22.577836 -28.757058 36.599471 1.496894 2.474661 0.043402 -0.011972 312587.000000 0 0 1
3.021503 22.743536 -29.133528 37.083154 1.438719 2.474505 0.024779 -0.010233 -185070.000000 0 0 1
3.897503 22.870736 -28.027858 36.384363 1.402003 2.450150 0.016776 -0.015680 18350.100000 0 0 1
4.264403 24.304736 -27.668168 37.073344 1.397109 2.413296 0.011522 -0.012507 -493546.000000 0 0 1
5.057003 24.914436 -28.664308 38.313769 1.370542 2.416060 0.005003 -0.011784 225882.000000 0 0 1
5.281303 26.275336 -28.315398 38.987782 1.372441 2.383667 -0.006526 -0.009596 -67389.300000 0 0 1
6.088903 27.057236 -29.402418 40.418695 1.349446 2.385389 0.004287 -0.004928 428285.000000 0 0 1
7.457703 26.661836 -29.430918 40.406061 1.298052 2.386749 0.006577 -0.007801 454656.000000 0 0 1
8.241703 27.364236 -30.379238 41.708814 1.278253 2.386729 0.023395 -0.016577 400402.000000 0 0 1
9.743203 27.461236 -30.024678 41.839345 1.229853 2.371173 0.030745 -0.013089 505242.000000 0 0 1
10.516303 28.307636 -30.897398 43.203751 1.215097 2.367643 0.039504 -0.011754 248925.000000 0 0 1
11.721503 28.759536 -30.307168 43.393882 1.183782 2.343984 0.041403 -0.014984 199469.000000 0 0 1
12.573603 29.541736 -31.339918 44.866470 1.168399 2.344117 0.050749 -0.017671 -280862.000000 0 0 1
12.079203 30.850936 -31.566188 45.761464 1.197609 2.332007 0.045329 -0.018985 177175.000000 0 0 1
12.847003 31.588136 -32.480638 47.094030 1.184525 2.331868 0.072397 -0.025397 -363794.000000 0 0 1
12.561503 33.075736 -32.488838 48.034573 1.207842 2.313611 0.060352 -0.023708 -1028960.000000 0 0 1
11.382203 33.378036 -33.120038 48.379590 1.242154 2.324833 0.043610 -0.025548 -969354.000000 0 0 1
11.022103 34.627536 -32.725368 48.902993 1.262632 2.303914 0.024608 -0.015204 -786790.000000 0 0 1
9.679103 -34.306320 -33.333518 48.802992 -1.295807 2.322688 -0.004975 -0.002023 -757976.000000 0 0 1
9.731403 -33.741520 -34.626826 49.317415 -1.290006 2.349169 -0.002229 -0.001993 -315744.000000 0 0 1
8.438403 -33.602920 34.137107 48.638513 -1.324763 0.792800 -0.008882 -0.001229 -334819.000000 0 0 1
8.457803 -33.229720 32.632805 47.335490 -1.321563 0.810144 -0.002533 -0.002539 108984.000000 0 0 1
8.917303 -31.906720 32.425975 46.357318 -1.298269 0.796128 -0.026910 -0.010212 90037.100000 0 0 1
8.932503 -31.668120 31.051485 45.242172 -1.295873 0.814353 -0.000052 -0.005062 -378249.000000 0 0 1
8.952603 -30.148020 30.635825 43.904510 -1.282135 0.798498 -0.016883 -0.024113 169908.000000 0 0 1
7.682103 -29.526820 30.705515 43.285984 -1.316266 0.782201 -0.026841 -0.004973 -126163.000000 0 0 1
7.166803 -29.324620 32.008625 43.998278 -1.331099 0.756129 -0.027609 0.008618 -335380.000000 0 0 1
5.621403 -29.243820 32.104255 43.789089 -1.380887 0.747844 -0.030456 -0.009411 459533.000000 0 0 1
4.863803 -30.418220 31.769535 44.251870 -1.412241 0.769979 -0.016545 -0.013701 182040.000000 0 0 1
4.934903 -30.928020 30.416055 43.658127 -1.412569 0.800027 -0.021943 -0.024872 -801497.000000 0 0 1
4.495303 -29.949020 29.263005 42.112646 -1.421810 0.802551 -0.023980 -0.027596 8574.410000 0 0 1
3.121403 -29.592220 29.323215 41.776711 -1.465704 0.792730 -0.010012 -0.032077 79116.600000 0 0 1
2.803503 -28.697020 28.202835 40.333342 -1.473412 0.796457 0.006288 -0.039048 41447.700000 0 0 1
1.302103 -28.801320 27.796055 40.047873 -1.525617 0.803668 0.010680 -0.045441 353216.000000 0 0 1
0.945403 -30.125520 27.344535 40.695999 -1.539424 0.833996 0.011702 -0.040417 104898.000000 0 0 1
0.782303 -31.078520 28.392085 42.102219 -1.545630 0.830698 0.020527 -0.040312 -1165170.000000 0 0 1
0.834703 -32.546920 27.964535 42.918690 -1.545156 0.861144 0.007309 -0.021784 185513.000000 0 0 1
2.078503 -33.067220 27.495815 43.055557 -1.508022 0.878103 0.000859 -0.022879 446810.000000 0 0 1
2.411903 -32.728920 26.171105 41.975304 -1.497236 0.897600 -0.002703 -0.018026 50293.000000 0 0 1
3.851903 -33.188320 25.805885 42.216648 -1.455251 0.913129 -0.002619 -0.013381 349814.000000 0 0 1
4.428503 -32.632220 24.634395 41.125744 -1.435911 0.928542 0.007902 -0.017836 1053060.000000 0 0 1
5.739303 -32.133920 24.987705 41.108561 -1.394054 0.917450 -0.008986 -0.017322 833781.000000 0 0 1
6.795203 -32.105820 23.837455 40.560852 -1.362224 0.942588 -0.001398 -0.006142 -335415.000000 0 0 1
8.095103 -31.679420 24.083455 40.609471 -1.320618 0.935954 -0.003869 -0.012991 -552767.000000 0 0 1
8.754403 -31.670320 22.861955 40.028961 -1.301108 0.962908 0.005639 -0.003725 -332765.000000 0 0 1
9.962703 -30.725220 22.818055 39.546911 -1.257241 0.955761 0.001000 -0.003988 253015.000000 0 0 1
11.061803 -31.031320 23.667555 40.564263 -1.228367 0.947816 0.012207 -0.017756 -19525.500000 0 0 1
12.150203 -30.177820 23.497555 40.130578 -1.188033 0.945266 0.019056 -0.017185 -45594.500000 0 0 1
13.400903 -30.598020 24.313245 41.315335 -1.157995 0.941619 0.060202 -0.026910 -99158.600000 0 0 1
13.284103 -30.375820 25.729185 41.966043 -1.158533 0.910824 0.039629 -0.027896 -79654.300000 0 0 1
14.148503 -29.396320 26.198145 41.840967 -1.122219 0.894208 0.037319 -0.022562 -693168.000000 0 0 1
-10.659097 -14.116764 26.960075 32.245077 0.924060 0.580663 0.067248 -0.024159 -543490.000000 0 0 1
-9.355897 -14.053964 26.481095 31.405336 0.983455 0.567581 0.059120 -0.020056 -911810.000000 0 0 1
-8.414797 -14.632764 27.331005 32.123363 1.048913 0.553264 0.049553 -0.027293 -112175.000000 0 0 1
-6.934997 -14.260764 27.095385 31.394641 1.118169 0.529504 0.043160 -0.008211 -13007.500000 0 0 1
-6.303697 -15.001764 26.072045 30.733387 1.173001 0.557974 0.034242 -0.016127 -2110.120000 0 0 1
-6.708597 -14.784264 24.737495 29.589245 1.144815 0.580789 0.037145 -0.011815 -331062.000000 0 0 1
-6.037197 -15.876664 23.805955 29.244482 1.207426 0.619735 0.036037 -0.015288 17435.300000 0 0 1
-6.596097 -17.160664 23.708555 30.001541 1.203834 0.659588 0.049365 -0.008927 -624082.000000 0 0 1
-6.438597 -17.979064 24.841185 31.333476 1.226909 0.655407 0.039098 -0.007120 -169908.000000 0 0 1
-6.931897 -19.405564 24.545175 32.048287 1.227711 0.698386 0.036272 -0.004707 -838882.000000 0 0 1
-8.305697 -19.498464 24.379065 32.303460 1.168107 0.715616 0.032455 -0.002916 -989428.000000 0 0 1
-8.777097 -20.756864 24.008055 32.928279 1.170746 0.753788 0.016042 -0.001147 241491.000000 0 0 1
-10.317997 -20.819164 24.163655 33.522841 1.110674 0.765824 0.011168 -0.001982 217632.000000 0 0 1
-10.823597 -20.871564 25.506855 34.689654 1.092395 0.744706 0.006510 -0.001884 -540202.000000 0 0 1
-12.213997 -20.954464 25.476245 35.175422 1.043058 0.760832 0.020462 0.002987 -397685.000000 0 0 1
-12.809297 -21.081764 26.914745 36.509209 1.024807 0.741873 0.023596 -0.005615 -191194.000000 0 0 1
-12.543997 -22.326864 27.496025 37.574887 1.058913 0.749887 0.023923 -0.000647 -168343.000000 0 0 1
-11.628597 -22.162964 28.558475 37.973777 1.087596 0.719618 0.012685 -0.001732 25995.900000 0 0 1
-11.273597 -23.440364 29.332325 39.203698 1.122506 0.725447 0.010112 -0.004336 42859.200000 0 0 1
-12.362697 -23.987464 30.102605 40.427732 1.094919 0.730857 0.008437 -0.003021 88735.300000 0 0 1
-12.014997 -25.195154 30.735155 41.518739 1.125817 0.737322 0.003981 -0.000027 -699680.000000 0 0 1
-12.915597 -25.803224 31.779495 42.924996 1.106715 0.737206 0.014942 -0.010862 -249840.000000 0 0 1
-12.707497 -25.251994 33.047545 43.488894 1.104570 0.707625 0.021257 -0.009341 -350181.000000 0 0 1
-13.785597 -25.607214 33.867544 44.640594 1.076943 0.709525 0.020193 -0.009510 -468537.000000 0 0 1
-13.659097 -24.995764 -33.980708 44.340136 1.070678 2.443959 0.016896 -0.013997 -57872.900000 0 0 1
-13.608797 -23.571164 -33.876588 43.455981 1.047198 2.464761 0.022674 -0.014867 -296622.000000 0 0 1
-14.845497 -22.985664 -34.185562 43.787922 0.997338 2.466594 0.028019 -0.020879 -340372.000000 0 0 1
-14.774797 -21.430464 -33.978308 42.802860 0.967200 2.487882 0.021354 -0.015363 -3288.800000 0 0 1
-14.890497 -21.113264 -32.609538 41.603831 0.956544 2.471575 0.024970 -0.007948 133780.000000 0 0 1
-15.021097 -19.732364 -32.371648 40.778954 0.920139 2.487881 0.018420 -0.005300 -259881.000000 0 0 1
-14.996197 -19.377364 -30.865298 39.408562 0.912172 2.470613 0.040150 0.000443 27387.800000 0 0 1
-16.219697 -19.677064 -30.220508 39.541681 0.881416 2.440704 0.037272 0.001052 -16772.100000 0 0 1
-16.274397 -19.226364 -28.861148 38.307635 0.868360 2.424021 0.020997 0.006517 -101567.000000 0 0 1
-15.509897 -20.073864 -27.844218 37.667192 0.912962 2.402703 0.034572 0.006274 -327393.000000 0 0 1
-14.119297 -20.032664 -28.007928 37.217015 0.956847 2.422733 0.028815 0.014077 -555646.000000 0 0 1
-13.493297 -21.062764 -27.241798 36.984113 1.001041 2.398798 0.029961 0.010636 354204.000000 0 0 1
-11.992597 -21.195864 -27.614968 36.819471 1.055904 2.418873 0.001033 0.007027 -193459.000000 0 0 1
-11.279997 -20.082364 -27.033608 35.515569 1.059025 2.435921 0.000978 0.011617 1008520.000000 0 0 1
-9.849397 -20.258164 -27.032788 35.187717 1.118254 2.446891 0.001742 0.005302 1300360.000000 0 0 1
-9.193797 -21.323564 -26.091388 34.928224 1.163723 2.414335 0.010906 0.004128 -621490.000000 0 0 1
-9.292597 -22.622764 -26.583338 36.122232 1.181046 2.397832 0.008163 0.001539 137635.000000 0 0 1
-9.137297 -23.551664 -25.534858 35.919355 1.200705 2.361565 0.009433 0.000820 -46265.100000 0 0 1
-9.351297 -24.992064 -26.063048 37.300569 1.212753 2.344418 0.013458 -0.002056 -204108.000000 0 0 1
-8.211097 -25.499944 -26.743468 37.853432 1.259276 2.355337 0.005704 -0.005548 196161.000000 0 0 1
-8.410597 -26.685574 -27.476328 39.214877 1.265477 2.347120 -0.000187 -0.000960 -160448.000000 0 0 1
-8.359297 -27.970954 -26.675948 39.545648 1.280389 2.311166 0.009794 -0.004552 -537216.000000 0 0 1
-9.536297 -28.292144 -25.998678 39.589362 1.245691 2.287242 0.008956 -0.000116 -696289.000000 0 0 1
-9.367597 -29.511444 -25.252848 39.954768 1.263433 2.254974 0.022505 0.005431 181882.000000 0 0 1
-10.519197 -29.750484 -24.207328 39.771089 1.230935 2.225175 0.021517 0.004073 417154.000000 0 0 1
-10.436897 -28.800064 -23.101828 38.367525 1.223125 2.216949 0.025248 0.000673 -91831.000000 0 0 1
-11.016197 -27.547674 -23.368528 37.766639 1.190380 2.237961 0.024540 0.003210 -439928.000000 0 0 1
-10.702197 -26.539874 -22.218028 36.229031 1.187492 2.230985 0.036216 -0.005522 -6817.020000 0 0 1
-11.277397 -26.833724 -20.934828 35.853806 1.172939 2.194314 0.035922 -0.006334 244947.000000 0 0 1
-11.371197 -25.755064 -20.004228 34.536887 1.155023 2.188560 0.030742 -0.005362 -8447.370000 0 0 1
-11.947897 -26.174494 -18.591428 34.256351 1.142574 2.144462 0.044379 -0.009693 716784.000000 0 0 1
-13.349497 -26.428124 -18.641028 34.987751 1.103057 2.132687 0.061227 -0.016684 370642.000000 0 0 1
-13.935597 -26.959514 -17.473028 35.018894 1.093714 2.093195 0.066979 -0.020503 453629.000000 0 0 1
-15.482397 -27.025294 -17.551628 35.750955 1.050553 2.083966 0.071003 -0.026053 -783181.000000 0 0 1
-16.192097 -25.811994 -17.308828 35.043381 1.010538 2.087395 0.075580 -0.016584 962180.000000 0 0 1
-17.590597 -25.877154 -16.975728 35.598196 0.973775 2.067887 0.071275 -0.012067 1044660.000000 0 0 1
-18.520997 -26.494024 -18.049528 37.023588 0.960699 2.080037 0.057812 -0.005952 -1186490.000000 0 0 1
-18.285397 -27.871514 -18.292928 38.023785 0.990173 2.072696 0.053561 -0.010536 -62617.700000 0 0 1
-18.725797 -28.753294 -17.255928 38.408000 0.993538 2.036755 0.058281 -0.015059 -1296910.000000 0 0 1
-20.088397 -29.391004 -17.299228 39.580779 0.971238 2.023125 0.031296 -0.002756 -858646.000000 0 0 1
-20.283097 -30.399334 -18.243028 40.845215 0.982410 2.033801 0.023236 -0.004715 62640.400000 0 0 1
-21.556997 -30.979584 -17.998828 41.813832 0.962864 2.015789 0.013984 0.004660 347768.000000 0 0 1
-21.978297 -31.973614 -19.119728 43.254150 0.968585 2.028659 -0.000398 0.000081 -407488.000000 0 0 1
-21.387397 -33.221174 -19.026028 43.852672 0.998800 2.019572 -0.007615 -0.000984 -143076.000000 0 0 1
-21.846497 -34.089689 -20.045628 45.179680 1.000878 2.030505 -0.016412 0.015620 -82446.700000 0 0 1
-21.261597 33.794892 -19.935628 44.627116 -1.009228 2.033887 -0.020279 0.017033 -135755.000000 0 0 1
-21.702697 32.997801 -18.848128 43.762014 -0.989026 2.016060 -0.019221 0.006085 -511286.000000 0 0 1
-20.992597 31.818361 -18.723028 42.469389 -0.987588 2.027352 -0.025777 0.005897 -516451.000000 0 0 1
-21.891097 30.646681 -18.343128 41.891640 -0.950534 2.024025 -0.024973 -0.001618 -272169.000000 0 0 1
-22.569597 30.819041 -17.127628 41.863536 -0.938703 1.992297 -0.029345 -0.000231 39185.100000 0 0 1
-23.347297 29.698331 -16.658328 41.286644 -0.904559 1.986113 -0.021965 0.002014 -119594.000000 0 0 1
-22.596397 28.374521 -16.387428 39.802743 -0.898277 1.995133 -0.023594 -0.012405 -199054.000000 0 0 1
-22.105697 27.721591 -17.583528 39.576873 -0.897632 2.031176 -0.030551 -0.007594 111911.000000 0 0 1
-21.385697 26.559181 -17.234128 38.206718 -0.892887 2.038767 -0.029559 -0.007372 -82099.200000 0 0 1
-20.587697 26.049051 -18.456128 37.987300 -0.901971 2.078132 -0.013974 0.000371 -861583.000000 0 0 1
-20.229597 24.698511 -18.473728 36.885385 -0.884540 2.095367 -0.005488 -0.008281 21337.700000 0 0 1
-19.692097 24.216591 -19.727428 36.924157 -0.888079 2.134439 -0.000838 -0.002868 -526116.000000 0 0 1
-18.327197 24.790401 -20.102128 36.804153 -0.934188 2.148608 -0.008928 -0.002382 -1234750.000000 0 0 1
-17.354397 24.222791 -19.228628 35.463486 -0.949116 2.143860 0.001337 -0.004274 1081200.000000 0 0 1
-16.105597 24.953071 -19.123328 35.323472 -0.997637 2.142871 0.021215 -0.010090 998434.000000 0 0 1
-16.184897 26.099851 -18.090528 35.642956 -1.015718 2.103133 0.021227 -0.010852 -217248.000000 0 0 1
-17.141097 27.095821 -18.405628 36.969823 -1.006743 2.091921 0.012462 -0.008590 -119851.000000 0 0 1
-16.986197 28.243001 -17.636328 37.379647 -1.029326 2.062146 0.025623 -0.018197 -253799.000000 0 0 1
-18.059697 29.317511 -17.907828 38.811846 -1.018692 2.050370 0.018344 -0.013635 -180703.000000 0 0 1
-18.033297 29.974761 -19.175628 39.892240 -1.029189 2.072233 0.031515 -0.014795 147414.000000 0 0 1
-18.600497 29.126071 -20.189828 40.024188 -1.002463 2.099530 0.015062 -0.004882 -244530.000000 0 0 1
-18.581497 29.731791 -21.624928 41.193312 -1.012218 2.123467 0.018515 -0.006448 362348.000000 0 0 1
-19.495297 30.828411 -21.730728 42.458003 -1.006907 2.108095 0.004635 -0.002004 253421.000000 0 0 1
-19.690797 31.158651 -23.089428 43.493800 -1.007213 2.130420 0.013780 -0.002702 159988.000000 0 0 1
-20.439697 32.485391 -23.205328 44.850519 -1.009185 2.114598 0.004221 0.003324 531045.000000 0 0 1
-19.525297 33.592488 -23.060328 45.182642 -1.044285 2.106423 -0.015524 0.008642 212004.000000 0 0 1
-20.061597 34.630488 -23.821328 46.574607 -1.045733 2.107686 0.002445 0.016475 -404764.000000 0 0 1
-19.289397 -33.291914 -23.976628 45.335538 1.045660 2.128065 0.004788 0.016880 158337.000000 0 0 1
-19.120297 -32.449214 -22.872728 44.064713 1.038328 2.116560 0.015968 0.016550 9528.580000 0 0 1
-18.423697 -33.036524 -21.775928 43.646713 1.062078 2.093141 0.015732 0.010635 -352949.000000 0 0 1
-18.110497 -32.129334 -20.586228 42.238335 1.057515 2.079886 0.023524 -0.006187 182018.000000 0 0 1
-17.014097 -31.252314 -20.844228 41.239162 1.072254 2.100697 0.031732 -0.003844 166884.000000 0 0 1
-16.642797 -30.384874 -19.838028 39.922057 1.069695 2.090841 0.039521 -0.008169 9896.230000 0 0 1
-15.369497 -29.577164 -20.157428 38.953202 1.091560 2.114697 0.044097 -0.007452 -105140.000000 0 0 1
-14.208297 -30.320294 -20.355128 39.185803 1.132577 2.117005 0.042408 -0.006632 -804589.000000 0 0 1
-13.106497 -29.469524 -20.581728 38.260170 1.152319 2.138789 0.038933 -0.009204 -405819.000000 0 0 1
-11.787697 -30.284594 -20.623228 38.489271 1.199608 2.136272 0.043953 0.003488 88705.200000 0 0 1
-11.247297 -30.872294 -19.427928 38.171254 1.221424 2.104781 0.040761 0.006299 80785.700000 0 0 1
-10.677097 -29.913434 -18.578028 36.796155 1.227958 2.100051 0.036258 0.004818 -565414.000000 0 0 1
-9.835997 -30.523644 -17.442328 36.505814 1.259061 2.068940 0.028692 0.015325 731262.000000 0 0 1
-10.633497 -31.229994 -16.391028 36.838154 1.242619 2.031911 0.038056 0.001224 707796.000000 0 0 1
-10.995797 -32.569904 -16.681728 38.209766 1.245205 2.022593 0.039753 0.006389 565199.000000 0 0 1
-12.123597 -33.098924 -15.727428 38.598865 1.219689 1.990465 0.046728 -0.003090 434880.000000 0 0 1
-11.593997 -33.528804 -14.474628 38.316006 1.237875 1.958183 0.040334 -0.003019 -104256.000000 0 0 1
-12.639097 -34.076707 -13.716428 38.847254 1.215624 1.931664 0.041512 -0.004045 -382119.000000 0 0 1
-12.250997 -34.550826 -12.286128 38.662585 1.230048 1.894182 0.037159 -0.006652 -78342.600000 0 0 1
-12.156497 -33.480324 -11.327328 37.376742 1.222505 1.878696 0.027094 -0.003664 153576.000000 0 0 1
-11.681297 -33.826314 -10.044128 37.169298 1.238286 1.844425 0.026513 -0.009191 66456.300000 0 0 1
-10.356397 -33.202784 -9.537228 36.064367 1.268446 1.838430 0.013317 -0.012762 -201727.000000 0 0 1
-9.208797 -33.596864 -10.218128 36.303737 1.303270 1.856114 0.001363 -0.009946 -1182210.000000 0 0 1
-8.138497 -32.928814 -9.631328 35.260522 1.328498 1.847460 -0.012747 -0.010537 -190827.000000 0 0 1
-6.753197 -33.330174 -10.196828 35.503260 1.370888 1.862107 -0.016853 -0.013710 196481.000000 0 0 1
-6.387897 -34.624761 -9.764028 36.537865 1.388358 1.841314 -0.029831 -0.007245 38800.900000 0 0 1
-5.144797 34.259645 -10.318028 36.147668 -1.421739 1.860263 -0.021407 -0.010092 260726.000000 0 0 1
-4.487697 33.104051 -9.541128 34.742636 -1.436054 1.848994 -0.028623 -0.015239 -70353.500000 0 0 1
-4.123397 33.532457 -8.221628 34.771012 -1.448443 1.809508 -0.028112 -0.014309 -164694.000000 0 0 1
-3.473597 32.523871 -7.510328 33.559992 -1.464398 1.796496 -0.020183 -0.014881 -430921.000000 0 0 1
-2.994397 32.931091 -6.085028 33.622176 -1.480117 1.752782 -0.019001 -0.003776 -1099110.000000 0 0 1
-2.022997 33.909658 -6.217328 34.534224 -1.511209 1.751817 -0.020171 -0.000564 -571705.000000 0 0 1
-1.704497 34.619089 -5.006628 35.020750 -1.521600 1.714250 -0.020050 0.002353 -309960.000000 0 0 1
-0.656897 33.925740 -4.118728 34.181154 -1.551436 1.691587 -0.004562 0.002873 -958974.000000 0 0 1
0.588903 33.849223 -4.740528 34.184636 1.553400 1.709919 0.004571 -0.000755 -257464.000000 0 0 1
1.487503 33.077351 -3.919028 33.341905 1.525856 1.688609 0.007396 -0.003364 1713620.000000 0 0 1
3.039603 33.278777 -4.126228 33.671085 1.479711 1.693650 0.013511 0.000122 1267050.000000 0 0 1
3.713603 34.411856 -3.676828 34.806404 1.463296 1.676630 0.016412 0.002722 -1567740.000000 0 0 1
5.069903 34.342755 -3.830428 34.925649 1.424228 1.680691 0.033083 0.002294 -1028310.000000 0 0 1
5.710303 -33.649974 -3.338828 34.293966 -1.402701 1.668310 0.038459 0.011284 -282494.000000 0 0 1
5.297903 -32.633114 -4.190628 33.324905 -1.409853 1.696881 0.036209 0.012269 -77296.700000 0 0 1
5.704703 -31.381724 -3.736228 32.114104 -1.390976 1.687403 0.040327 0.001450 47967.000000 0 0 1
5.352303 -30.188584 -4.715028 31.019820 -1.395324 1.723388 0.026304 0.005728 417136.000000 0 0 1
6.073703 -30.327454 -5.975828 31.501665 -1.373140 1.761652 0.032032 0.007260 260413.000000 0 0 1
5.939003 -29.200024 -6.889928 30.584053 -1.370143 1.798025 0.034551 0.012631 -171051.000000 0 0 1
6.597003 -27.866744 -6.505128 29.366521 -1.338342 1.794164 0.035594 0.006866 194219.000000 0 0 1
5.917503 -27.131314 -5.462428 28.301293 -1.356053 1.765025 0.041685 -0.000044 10692.700000 0 0 1
6.720203 -26.129684 -4.846828 27.411918 -1.319065 1.748545 0.042233 -0.000433 -241337.000000 0 0 1
6.057503 -25.535584 -3.655528 26.497590 -1.337883 1.709195 0.028368 -0.000550 280490.000000 0 0 1
5.085303 -24.558964 -4.091228 25.411438 -1.366617 1.732500 0.025281 -0.011557 131476.000000 0 0 1
4.437403 -23.921564 -3.026028 24.517109 -1.387383 1.694537 0.019699 -0.008002 317445.000000 0 1 0
3.205403 -23.067564 -3.466128 23.545725 -1.432723 1.718542 0.013842 -0.013008 371271.000000 0 1 0
2.086003 -23.753164 -3.939528 24.167832 -1.483201 1.734534 0.003491 -0.008859 -444601.000000 0 1 0
0.910803 -22.965564 -3.838028 23.301870 -1.531158 1.736259 0.004313 -0.016362 411963.000000 0 1 0
-14.706397 23.125836 18.093555 32.839901 -1.004376 0.987279 0.005323 -0.005669 -85555.500000 0 0 1
-15.119497 22.842336 19.384855 33.558070 -0.986096 0.954948 0.014674 0.000590 -90346.700000 0 0 1
-14.461797 23.694636 20.257355 34.364804 -1.022808 0.940382 0.001965 -0.006071 -971202.000000 0 0 1
-14.492797 23.219136 21.737355 34.952568 -1.012791 0.899617 0.015301 -0.007799 -629743.000000 0 0 1
-13.561197 22.236336 22.180455 34.210134 -1.023154 0.865369 0.012326 0.002538 344701.000000 0 0 1
-12.196097 22.594536 22.075555 33.861305 -1.075833 0.860656 -0.010748 0.000701 -209470.000000 0 0 1
-11.740497 23.704836 23.078455 35.105179 -1.110933 0.853421 0.006641 0.017637 -939970.000000 0 0 1
-11.827897 23.256036 24.441495 35.750930 -1.100297 0.818030 -0.007780 0.018790 105665.000000 0 0 1
-11.522397 24.371836 25.283055 36.959233 -1.129165 0.817455 0.022944 0.011009 103228.000000 0 0 1
-11.047697 24.042936 26.709835 37.596937 -1.140071 0.780693 0.009421 0.005005 -201201.000000 0 0 1
-9.720797 23.616336 26.789505 37.012198 -1.180319 0.761500 -0.024664 0.009201 -583271.000000 0 0 1
-9.362497 23.101336 28.098555 37.561374 -1.185747 0.725647 -0.031447 0.016198 -377079.000000 0 0 1
-7.871697 22.711936 28.129495 37.000866 -1.237164 0.707116 -0.039025 0.011450 293432.000000 0 0 1
-6.886397 23.738436 28.283735 37.562021 -1.288451 0.718206 -0.048137 0.014946 249410.000000 0 0 1
-6.740397 24.747936 27.266805 37.434902 -1.304884 0.754843 -0.041034 0.016757 -1932780.000000 0 0 1
-5.726397 25.728336 27.676265 38.219295 -1.351794 0.761004 -0.036943 0.007021 -330349.000000 0 0 1
-4.420197 25.139136 27.682915 37.654456 -1.396746 0.744860 -0.031839 0.001931 72813.000000 0 0 1
-3.466997 25.979636 28.259485 38.542963 -1.438130 0.747789 -0.023892 0.002810 -826879.000000 0 0 1
-2.061197 25.398736 28.246415 38.042138 -1.489820 0.733996 -0.008786 0.003060 -979191.000000 0 0 1
-1.544897 25.543236 26.976425 37.182941 -1.510388 0.759028 0.001962 -0.001949 -436085.000000 0 0 1
-0.269297 24.920336 27.019795 36.758196 -1.559990 0.745029 0.013606 0.003336 243222.000000 0 0 1
0.268703 24.693536 25.606035 35.574035 1.559915 0.767288 0.009643 -0.001545 114486.000000 0 0 1
-0.373397 23.581536 24.980165 34.354576 -1.554963 0.756668 0.011206 0.007319 171729.000000 0 0 1
0.182603 23.397136 23.710255 33.311192 1.562992 0.778767 0.015665 0.015354 -142897.000000 0 0 1
-0.199597 22.120236 22.989655 31.904058 -1.561773 0.766148 0.007806 0.016964 7784.010000 0 0 1
0.492203 21.029236 23.534155 31.564655 1.547395 0.729383 0.020443 0.013825 -100392.000000 0 0 1
0.145203 19.868636 22.794755 30.238793 1.563488 0.716932 0.024480 0.016169 -7971.110000 0 0 1
0.993203 18.591136 23.058055 29.635969 1.517424 0.679252 0.022969 0.020407 -431845.000000 0 0 1
2.208503 18.712036 22.386055 29.260096 1.453314 0.699645 0.024318 0.015646 -303057.000000 0 0 1
3.019703 17.499736 22.558855 28.709951 1.399922 0.666888 0.011000 0.012476 -524191.000000 0 0 1
4.322203 17.657936 21.822655 28.402683 1.330742 0.694567 0.008886 0.012785 -896739.000000 0 0 1
5.164803 18.510436 22.581655 29.652025 1.298696 0.705087 0.003721 0.017091 -808632.000000 0 0 1
6.356803 18.807036 21.895455 29.555448 1.244850 0.736497 0.008164 0.007410 102819.000000 0 0 1
7.407203 19.435636 22.904055 30.938751 1.206676 0.737275 0.008252 -0.001921 15526.800000 0 0 1
7.084903 20.612736 23.634655 32.150858 1.239732 0.744956 -0.000692 0.004110 -84788.800000 0 0 1
6.856103 21.800736 22.843755 32.312774 1.266100 0.785609 -0.002168 0.009964 13575.300000 0 0 1
5.843903 22.751436 23.536555 33.252796 1.319373 0.784408 -0.005595 0.009284 52148.300000 0 0 1
5.744303 24.033436 22.960455 33.731077 1.336185 0.822090 -0.010781 0.002515 160365.000000 0 0 1
4.671603 24.804436 23.451755 34.453864 1.384640 0.822118 -0.022801 0.010001 -585476.000000 0 0 1
4.451903 26.129136 22.670555 34.878435 1.402036 0.863228 -0.008984 0.007982 -152707.000000 0 0 1
4.138403 25.962136 21.301355 33.836468 1.412725 0.889837 0.005862 -0.001487 -426002.000000 0 0 1
2.962003 25.275436 20.993355 32.990030 1.454139 0.881033 0.008792 0.001688 -1009610.000000 0 0 1
2.643903 25.400036 19.501455 32.131897 1.467079 0.918618 0.020517 -0.002037 -623908.000000 0 0 1
2.083703 26.680236 19.341555 33.019275 1.492855 0.944972 0.013844 -0.005171 130177.000000 0 0 1
1.674703 26.930836 18.053755 32.465560 1.508691 0.981123 0.017985 -0.006877 -334532.000000 0 0 1
0.410503 27.794736 17.954055 33.091750 1.556028 0.997322 0.003025 0.005331 -202010.000000 0 0 1
0.688303 29.136336 18.225755 34.374089 1.547177 1.011939 0.005738 0.003354 601586.000000 0 0 1
-0.502797 29.855336 18.529655 35.141741 -1.553957 1.015396 -0.004145 0.011010 169884.000000 0 0 1
-0.205397 31.319536 18.937455 36.600310 -1.564238 1.026972 -0.009249 0.007606 -113146.000000 0 0 1
0.346603 31.402936 20.235055 37.359362 1.559759 0.998418 -0.007419 0.002150 -25976.600000 0 0 1
0.515003 32.789436 20.559855 38.705555 1.555091 1.010796 -0.019232 0.007919 -398027.000000 0 0 1
1.094203 32.965336 21.955955 39.622905 1.537616 0.983488 -0.014128 0.001460 -7012.220000 0 0 1
0.312303 32.494436 23.060455 39.846838 1.561186 0.953629 -0.020982 -0.001129 206411.000000 0 0 1
0.965603 32.826236 24.279035 40.840736 1.541389 0.934176 -0.015613 -0.003884 -199042.000000 0 0 1
0.001903 32.681736 25.435735 41.413433 1.570738 0.909437 -0.009047 -0.002687 377828.000000 0 0 1
-1.144397 33.560236 25.496585 42.162482 -1.536710 0.921379 -0.006646 -0.000991 1023240.000000 0 0 1
-2.006297 33.366436 26.636585 42.741688 -1.510739 0.897970 0.001646 -0.004107 359859.000000 0 0 1
-1.510797 33.727136 28.079955 43.912254 -1.526032 0.877006 0.010305 -0.015024 -592878.000000 0 0 1
-0.469197 32.921836 28.547585 43.577885 -1.556545 0.856490 0.004039 -0.012482 -372807.000000 0 0 1
0.101103 33.411036 29.717285 44.714925 1.567770 0.843846 -0.000312 -0.016941 -730832.000000 0 0 1
1.280103 32.596636 30.253805 44.491258 1.531545 0.823041 -0.011896 -0.011017 542954.000000 0 0 1
2.549503 32.760736 29.594685 44.222292 1.493131 0.837630 -0.027259 -0.010173 735157.000000 0 0 1
2.661403 32.274236 28.239835 42.967402 1.488520 0.853647 -0.027660 -0.011879 521623.000000 0 0 1
4.179503 31.905036 27.945065 42.618379 1.440540 0.855681 -0.042301 -0.007241 1118860.000000 0 0 1
4.597403 30.759536 28.626135 42.269856 1.422432 0.826814 -0.039695 -0.011952 -11404.100000 0 0 1
5.993903 30.601036 28.456255 42.215029 1.377373 0.831080 -0.049024 -0.008667 29977.600000 0 0 1
6.443603 29.472636 29.323705 42.071795 1.355553 0.799602 -0.049102 0.000284 -294485.000000 0 0 1
6.380503 29.716036 30.738185 43.227186 1.359292 0.779757 -0.045828 -0.008648 291281.000000 0 0 1
6.796803 28.561236 31.432525 43.010979 1.337169 0.751300 -0.045543 -0.004762 -389548.000000 0 0 1
6.934803 28.716936 32.963105 44.264209 1.333845 0.730726 -0.023857 -0.009606 305836.000000 0 0 1
5.647803 28.940736 33.589067 44.695518 1.378068 0.720450 -0.023693 -0.006808 700640.000000 0 0 1
5.593603 29.042536 -34.275893 45.272443 1.380526 2.429663 -0.006467 -0.003667 -517601.000000 0 0 1
5.685403 27.594236 -33.621898 43.865678 1.367604 2.444129 -0.004123 0.001526 471819.000000 0 0 1
6.864403 26.788636 -33.881418 43.734443 1.319950 2.457049 -0.011553 -0.005690 768961.000000 0 0 1
6.742303 25.396036 -33.617368 42.667842 1.311296 2.478164 -0.002080 -0.002127 -665415.000000 0 0 1
8.002003 24.597736 -33.918848 42.656405 1.256280 2.490075 0.010190 -0.005156 -629663.000000 0 0 1
8.207803 24.374436 33.945348 42.588353 1.245985 0.648390 -0.003068 -0.001360 25739.700000 0 0 1
9.451903 23.758836 33.691046 42.295476 1.192165 0.649206 0.001076 -0.008855 -130133.000000 0 0 1
9.560303 22.268936 34.014402 41.764631 1.165280 0.619049 -0.001859 -0.004324 -542816.000000 0 0 1
8.868603 21.458336 33.024205 40.369672 1.178882 0.612793 -0.007538 -0.004583 413293.000000 0 0 1
8.687703 20.099336 33.414182 39.949556 1.162811 0.580097 0.002591 -0.005579 -163498.000000 0 0 1
7.525703 19.896136 34.387268 40.434844 1.209180 0.553982 0.008613 -0.010548 -724769.000000 0 0 1
7.753603 20.356636 -33.575968 40.023201 1.206873 2.566079 0.013100 -0.006616 2033.840000 0 0 1
6.589903 20.361036 -32.760718 39.131359 1.257784 2.562937 0.014469 -0.011700 -1875.380000 0 0 1
6.771903 21.123736 -31.409308 38.452770 1.260565 2.526688 0.021107 -0.018270 -598318.000000 0 0 1
6.837803 22.492536 -31.610938 39.394430 1.275671 2.502138 0.026142 -0.013695 107458.000000 0 0 1
6.938603 23.115236 -30.339858 38.768097 1.279179 2.469626 0.007622 -0.014250 1582860.000000 0 0 1
8.472203 23.404736 -29.944748 38.939027 1.223483 2.448097 0.004104 -0.016236 1710890.000000 0 0 1
9.170803 22.226636 -29.650518 38.174339 1.179472 2.460227 0.009866 -0.021190 -1122390.000000 0 0 1
10.511403 22.480036 -29.373338 38.453018 1.133413 2.440094 0.025618 -0.017535 -416595.000000 0 0 1
11.287803 21.129336 -29.257708 37.813712 1.080146 2.455509 0.027554 -0.022070 -313519.000000 0 0 1
11.353903 20.200436 -30.409448 38.232228 1.058739 2.490443 0.017545 -0.016844 278468.000000 0 0 1
10.122003 19.845136 -31.039618 38.206573 1.099141 2.519079 0.019734 -0.020757 -137249.000000 0 0 1
10.295703 18.734236 -32.081048 38.550833 1.068286 2.553815 0.018938 -0.017851 -341536.000000 0 0 1
10.851803 17.549436 -31.548358 37.696727 1.016989 2.562390 0.017527 -0.015013 90231.900000 0 0 1
10.952703 16.340136 -32.368768 37.877419 0.980286 2.595512 0.007979 -0.008561 -54007.100000 0 0 1
12.000703 16.324536 -33.536328 39.181534 0.936878 2.598127 0.006972 0.006974 -28232.300000 0 0 1
11.574203 17.003236 34.626571 40.274950 0.973137 0.536008 0.013200 -0.001252 413216.000000 0 0 1
12.367203 16.636936 33.489410 39.386240 0.931560 0.554276 0.018569 -0.000844 341462.000000 0 0 1
11.548103 16.735236 32.181185 38.066461 0.966781 0.563493 0.034690 -0.004391 -425949.000000 0 0 1
11.716103 17.955336 31.561235 38.154590 0.992656 0.596701 0.038350 -0.002368 196800.000000 0 0 1
11.193803 17.990436 30.217435 36.905967 1.014207 0.611534 0.029641 -0.004805 694416.000000 0 0 1
9.646403 18.137936 30.056345 36.406341 1.082006 0.599567 0.005517 0.004082 338622.000000 0 0 1
8.927003 17.043736 30.620325 36.163305 1.088314 0.561000 0.017432 0.003731 1359220.000000 0 0 1
7.506203 17.318936 30.808035 36.130647 1.161824 0.549694 0.005024 0.007535 1557950.000000 0 0 1
6.932003 16.470636 31.981365 36.635259 1.172429 0.509544 -0.007630 0.007786 -67852.300000 0 0 1
7.323503 16.843436 33.292898 38.023047 1.160655 0.504124 0.004011 0.004774 25077.300000 0 0 1
7.271703 15.739236 34.164624 38.312174 1.137999 0.469613 0.019590 -0.000830 -68043.800000 0 0 1
7.400703 16.026836 -33.586938 37.943540 1.138198 2.657681 0.019937 -0.007744 221822.000000 0 0 1
6.302203 16.785736 -33.069528 37.617447 1.211631 2.644769 0.012665 -0.009315 529102.000000 0 0 1
6.523603 17.048636 -31.720328 36.597713 1.205339 2.619404 0.022913 -0.020395 397930.000000 0 0 1
5.208503 17.597036 -31.070928 36.085824 1.283025 2.608085 0.016360 -0.022858 -140693.000000 0 0 1
5.350203 18.041636 -29.688908 35.150484 1.282510 2.576657 0.027880 -0.033935 248178.000000 0 0 1
4.479603 19.106636 -29.306008 35.269994 1.340503 2.551528 0.034854 -0.037881 1606090.000000 0 0 1
2.903103 18.900036 -29.270618 34.962958 1.418384 2.562920 0.039043 -0.033906 112506.000000 0 0 1
2.615403 18.011536 -28.194408 33.558611 1.426597 2.568364 0.045511 -0.025801 -272692.000000 0 0 1
1.239203 17.737736 -28.125418 33.274645 1.501047 2.577830 0.034260 -0.022608 328271.000000 0 0 1
0.181803 18.853836 -27.855698 33.636886 1.561154 2.546559 0.029577 -0.027192 -619149.000000 0 0 1
0.043203 19.353336 -26.565568 32.867657 1.568564 2.511985 0.026673 -0.025901 -182121.000000 0 0 1
-0.862297 20.428036 -26.633978 33.577030 -1.528610 2.486875 0.030783 -0.018165 -215201.000000 0 0 1
-1.128297 21.060536 -25.287498 32.928358 -1.517274 2.446439 0.016427 -0.019915 98559.100000 0 0 1
-1.932897 20.259236 -24.440928 31.804586 -1.475676 2.447246 0.019056 -0.018550 -125046.000000 0 0 1
-2.435097 20.907136 -23.338928 31.428388 -1.454847 2.407750 0.028756 -0.005215 -255123.000000 0 0 1
-3.350797 19.920036 -22.614728 30.322625 -1.404144 2.412537 0.032756 -0.017561 -152511.000000 0 0 1
-4.708897 19.908736 -22.972028 30.761104 -1.338540 2.414016 0.033790 -0.010991 295028.000000 0 0 1
-5.516797 18.891836 -22.264528 29.716085 -1.286676 2.417713 0.025455 -0.011622 1239890.000000 0 0 1
-7.033397 19.266136 -22.237528 30.251616 -1.220764 2.396589 0.037625 -0.004535 593745.000000 0 0 1
-7.329197 20.356336 -21.308928 30.367218 -1.225201 2.348589 0.024498 -0.013991 88795.300000 0 0 1
-7.018697 21.669336 -21.715128 31.470128 -1.257560 2.332318 0.031785 -0.009612 -293909.000000 0 0 1
-7.416897 22.672336 -20.588228 31.510638 -1.254635 2.282829 0.035408 -0.010616 -133069.000000 0 0 1
-6.700997 22.552236 -19.374528 30.477517 -1.281973 2.259710 0.042516 -0.012612 73683.800000 0 0 1
-7.108897 23.487936 -18.366328 30.651942 -1.276899 2.213285 0.043882 -0.016667 -160688.000000 0 0 1
-6.120097 23.549236 -17.172728 29.781280 -1.316536 2.185392 0.033106 -0.015310 686115.000000 0 0 1
-4.858297 24.076136 -17.559428 30.192662 -1.371681 2.191465 0.015013 -0.014015 -31385.600000 0 0 1
-3.918697 24.172036 -16.517328 29.537529 -1.410078 2.164214 0.012308 -0.011475 315366.000000 0 0 1
-2.556397 24.828336 -16.796128 30.084736 -1.468195 2.163124 0.007566 -0.001629 202474.000000 0 0 1
-2.640397 26.194836 -16.846028 31.255876 -1.470337 2.140012 -0.009390 -0.005305 -264040.000000 0 0 1
-1.482597 26.722036 -17.447328 31.947997 -1.515371 2.148518 -0.014781 0.000107 -115500.000000 0 0 1
-1.265297 28.207536 -17.120428 33.020828 -1.525970 2.115861 -0.025693 -0.018342 -100911.000000 0 0 1
-2.195897 29.167736 -17.688528 34.182785 -1.495653 2.114687 -0.028878 -0.017602 328995.000000 0 0 1
-2.054797 29.381036 -19.082128 35.094089 -1.500974 2.145686 -0.028805 -0.013780 -1183260.000000 0 0 1
-3.356597 29.807136 -19.727328 35.901247 -1.458658 2.152548 -0.013967 -0.019594 -622258.000000 0 0 1
-3.842997 31.034236 -19.314828 36.755340 -1.447593 2.124096 -0.005244 -0.009602 -346953.000000 0 0 1
-4.862397 30.792836 -18.360028 36.179169 -1.414183 2.103048 -0.007637 -0.016686 -229715.000000 0 0 1
-5.533097 32.108436 -17.799628 37.126723 -1.400147 2.070800 0.002458 -0.008775 -261845.000000 0 0 1
-6.387297 32.738836 -18.697328 38.238972 -1.378118 2.081693 0.012100 -0.002828 -326702.000000 0 0 1
-6.817497 33.992936 -18.114028 39.116696 -1.372866 2.052260 0.019254 -0.007106 90407.800000 0 0 1
-7.755697 -34.507420 -19.063828 40.178880 1.349716 2.065163 0.021391 0.005225 -638763.000000 0 0 1
-8.982797 34.167536 -19.106628 40.164342 -1.313710 2.066569 0.021305 -0.007571 -1172160.000000 0 0 1
-9.859197 -34.563420 -20.066528 41.164296 1.292926 2.079991 0.032395 -0.000164 323825.000000 0 0 1
28.433903 -20.713864 -26.528168 44.060126 -0.629593 2.216913 0.003340 0.003518 170821.000000 0 0 1
28.169503 -22.080264 -26.631928 44.612986 -0.664807 2.210496 0.018709 -0.015439 -1048880.000000 0 0 1
26.914903 -22.334564 -26.118708 43.651251 -0.692662 2.212236 0.019198 -0.012625 -621662.000000 0 0 1
26.588903 -23.696964 -25.428538 43.762157 -0.727951 2.190830 0.008026 -0.008823 -282308.000000 0 0 1
26.640003 -24.831864 -26.274138 44.907033 -0.750284 2.195773 0.003951 0.008430 916202.000000 0 0 1
27.987403 -25.274654 -26.603168 46.150097 -0.734510 2.185172 0.004893 0.013336 1162440.000000 0 0 1
28.127303 -26.629384 -27.270068 47.370095 -0.758049 2.184233 0.009013 0.012139 -210644.000000 0 0 1
27.723003 -27.713154 -26.423788 47.273675 -0.785220 2.163920 0.015467 -0.000171 -155421.000000 0 0 1
27.640403 -29.005244 -27.013888 48.322316 -0.809488 2.164018 0.007086 0.001319 719687.000000 0 0 1
26.404903 -29.265194 -27.957698 48.324977 -0.836732 2.187728 0.024694 -0.003203 35270.100000 0 0 1
26.405603 -28.565304 -29.216138 48.649925 -0.824666 2.214970 0.000770 -0.002573 308481.000000 0 0 1
27.500403 -28.766484 -30.129158 49.915418 -0.807896 2.218810 -0.017331 0.006032 201701.000000 0 0 1
27.552103 -30.164374 -30.831208 51.181747 -0.830628 2.217284 -0.006673 0.010059 -398686.000000 0 0 1
28.078003 -31.353114 -30.134828 51.763886 -0.840450 2.192178 0.000670 0.008811 1901690.000000 0 0 1
29.495203 -31.319374 -29.747988 52.305000 -0.815385 2.175770 -0.004240 0.007715 2375330.000000 0 0 1
30.650403 -31.034314 -30.765368 53.376809 -0.791622 2.185089 -0.002768 0.002329 65558.500000 0 0 1
30.730603 -29.651214 -30.862458 52.688289 -0.767524 2.196608 0.000145 -0.008831 -454512.000000 0 0 1
31.876303 -29.279024 -31.569718 53.572447 -0.742953 2.200976 -0.010169 -0.009195 -334527.000000 0 0 1
31.962503 -27.842724 -32.096798 53.169760 -0.716620 2.218888 -0.018174 -0.001214 -82328.100000 0 0 1
31.887303 -26.743834 -31.217338 52.024561 -0.697896 2.214360 -0.029965 0.004064 428329.000000 0 0 1
30.567203 -26.438364 -30.752438 50.784382 -0.713096 2.221252 -0.012360 0.008727 368470.000000 0 0 1
30.585703 -25.028164 -30.060628 49.654160 -0.685798 2.221065 -0.019090 0.006608 -353760.000000 0 0 1
31.380503 -24.991264 -28.893478 49.438167 -0.672539 2.194982 -0.017222 0.005316 34068.400000 0 0 1
31.384703 -23.744864 -28.261858 48.451530 -0.647695 2.193584 -0.021449 0.005890 335634.000000 0 0 1
32.380503 -23.728464 -27.033288 48.397682 -0.632403 2.163452 -0.030177 0.006191 -25699.700000 0 0 1
32.022203 -24.518364 -25.881118 47.920809 -0.653453 2.141330 -0.024108 -0.000292 -499097.000000 0 0 1
31.243703 -23.962964 -24.878728 46.576214 -0.654273 2.134299 0.005052 -0.001523 -351232.000000 0 0 1
31.809603 -22.701464 -24.114228 45.920620 -0.619840 2.123662 -0.003401 0.001686 -192786.000000 0 0 1
31.855803 -21.537764 -24.867928 45.793901 -0.594506 2.144850 -0.017022 -0.001060 27423.900000 0 0 1
32.182003 -20.470564 -24.010028 45.068911 -0.566533 2.132632 -0.024702 -0.002980 -135127.000000 0 0 1
32.262803 -19.126764 -24.707828 44.913231 -0.535140 2.153309 -0.029976 -0.000794 -498850.000000 0 0 1
31.041103 -18.727964 -25.247028 44.178039 -0.542863 2.179109 -0.018713 -0.005921 -332090.000000 0 0 1
31.171703 -17.626664 -26.090508 44.306760 -0.514643 2.200445 -0.025785 -0.006751 -61006.500000 0 0 1
30.138603 -17.614464 -27.232268 44.274159 -0.528906 2.233287 -0.029618 0.006826 715713.000000 0 0 1
28.756203 -17.509664 -26.870218 43.075703 -0.546938 2.244380 -0.021388 0.002665 926792.000000 0 0 1
27.931103 -17.415464 -28.019968 43.226884 -0.557531 2.276024 -0.023575 -0.002179 744734.000000 0 0 1
26.423603 -17.047764 -27.803478 41.974593 -0.572974 2.294799 -0.024720 0.002124 642434.000000 0 0 1
25.664403 -17.915564 -27.043918 41.364266 -0.609430 2.283391 -0.006961 0.003736 -118575.000000 0 0 1
25.608603 -17.526064 -25.670318 40.273176 -0.600167 2.261922 -0.002991 0.009033 -219249.000000 0 0 1
25.127203 -18.656664 -24.791728 39.925897 -0.638677 2.240742 0.015445 0.007347 -202150.000000 0 0 1
25.082803 -18.224964 -23.438128 38.866981 -0.628351 2.218096 0.019686 0.013690 -31372.100000 0 0 1
24.574703 -19.262564 -22.620128 38.556875 -0.664808 2.197736 0.032727 0.002188 -261544.000000 0 0 1
24.578303 -18.985364 -21.151328 37.575467 -0.657711 2.168690 0.024970 0.000069 -64325.100000 0 0 1
23.630103 -18.065264 -20.669028 36.220771 -0.652718 2.178082 0.020334 0.005773 -198060.000000 0 0 1
23.708803 -16.739064 -21.237428 35.962925 -0.614760 2.202520 0.012544 0.003277 -227467.000000 0 0 1
24.909903 -15.792264 -20.984828 36.197540 -0.565027 2.189195 0.008164 -0.000146 198174.000000 0 0 1
24.828703 -15.092164 -19.731328 35.122119 -0.546173 2.167347 0.008867 -0.003527 -45910.900000 0 0 1
25.990003 -14.320364 -19.621928 35.574895 -0.503607 2.155038 -0.008391 0.007384 -290599.000000 0 0 1
25.901703 -13.252364 -18.499628 34.478394 -0.472917 2.137148 -0.004375 0.000871 -430640.000000 0 0 1
26.080303 -13.723364 -17.154428 34.099668 -0.484385 2.097941 -0.011855 0.008244 189586.000000 0 0 1
25.704803 -12.716664 -16.245128 32.959894 -0.459414 2.086188 -0.016763 0.006558 169350.000000 0 0 1
26.550703 -12.811064 -14.956328 33.056844 -0.449561 2.040299 -0.017998 0.010172 -64735.800000 0 0 1
26.220103 -13.935464 -14.182628 32.906503 -0.488513 2.016395 0.002884 -0.001661 290886.000000 0 0 1
26.895003 -13.963064 -12.934528 32.948602 -0.478865 1.974217 0.009037 -0.006505 -46399.500000 0 0 1
26.591503 -15.360764 -12.267128 33.068770 -0.523829 1.950837 0.008307 -0.017907 851333.000000 0 0 1
25.288403 -15.500264 -11.667928 31.873219 -0.549880 1.945582 0.005140 -0.022174 900732.000000 0 0 1
25.005203 -16.812664 -11.165428 32.133980 -0.591938 1.925662 0.005900 -0.016523 -148396.000000 0 0 1
23.541403 -16.939264 -10.711128 30.917060 -0.623728 1.924577 0.008253 -0.017719 -141770.000000 0 0 1
23.208803 -16.182664 -9.571528 29.868735 -0.608887 1.897004 0.014535 -0.012887 -493363.000000 0 0 1
21.850203 -16.207364 -9.282828 28.745103 -0.638199 1.899626 0.013896 -0.011244 -825982.000000 0 0 1
21.433803 -15.912364 -7.869728 27.830628 -0.638617 1.857479 0.008871 -0.009858 -371032.000000 0 0 1
21.422303 -14.532364 -7.624428 26.985859 -0.596065 1.857231 0.009156 0.000520 257268.000000 0 0 1
21.142603 -14.196664 -6.268028 26.226764 -0.591322 1.812126 0.001531 0.008190 -512887.000000 0 0 1
21.890703 -14.874364 -5.103628 26.953601 -0.596823 1.761295 -0.002833 0.009485 -259132.000000 0 0 1
23.271903 -14.586164 -5.126328 27.939522 -0.559872 1.755321 0.002334 0.006114 -56568.200000 0 0 1
23.959103 -15.263264 -4.118728 28.704874 -0.567221 1.714779 -0.004345 -0.006856 -1161040.000000 0 0 1
25.418603 -14.886864 -4.155628 29.748838 -0.529815 1.710945 -0.005701 -0.008379 -1087310.000000 0 0 1
25.763803 -13.651764 -3.571928 29.375209 -0.487266 1.692695 -0.003681 -0.003554 448717.000000 0 0 1
27.147903 -13.384564 -3.767328 30.501606 -0.458051 1.694625 -0.002076 -0.017680 146625.000000 0 0 1
27.726803 -12.078064 -3.164428 30.408368 -0.410823 1.675049 0.021333 -0.014383 -1075160.000000 0 0 1
28.266003 -12.217264 -1.820928 30.847111 -0.407974 1.629861 0.023723 -0.018637 721969.000000 0 0 1
29.083303 -11.139564 -1.349628 31.172904 -0.365786 1.614105 0.024091 -0.002920 289344.000000 0 0 1
30.507303 -11.145564 -1.943628 32.537622 -0.350276 1.630567 0.023724 -0.001794 -1107880.000000 0 0 1
30.531303 -10.827864 -3.326928 32.564883 -0.340810 1.673138 0.023844 0.003153 -955967.000000 0 0 1
31.632903 -11.293964 -3.966928 33.822045 -0.342926 1.688355 0.029771 0.006524 -1545340.000000 0 0 1
31.453303 -11.063364 -5.445728 33.784083 -0.338224 1.732695 0.024453 0.007211 -344517.000000 0 0 1
30.322903 -11.767564 -5.944428 33.064940 -0.370184 1.751560 0.003114 -0.005769 364051.000000 0 0 1
30.207803 -11.685264 -7.384828 33.220362 -0.369101 1.794967 -0.003824 0.005027 116511.000000 0 0 1
28.947103 -12.397064 -7.927628 32.472593 -0.404634 1.817422 -0.009632 0.000054 208987.000000 0 0 1
29.064403 -13.787764 -7.971628 33.141950 -0.442948 1.813708 -0.008667 -0.005864 -181449.000000 0 0 1
27.895003 -14.326864 -8.521328 32.496204 -0.474468 1.836124 -0.002174 -0.008968 -177736.000000 0 0 1
27.824603 -15.844564 -8.422128 33.108775 -0.517649 1.828000 0.004623 -0.021885 142109.000000 0 0 1
28.886603 -16.415564 -9.186128 34.471605 -0.516766 1.840539 0.006889 -0.026059 408270.000000 0 0 1
28.898203 -17.827064 -9.155628 35.167256 -0.552747 1.834176 0.006909 -0.022885 -204314.000000 0 0 1
28.915403 -18.433764 -10.580028 35.886504 -0.567542 1.870063 -0.004745 -0.031084 -834713.000000 0 0 1
30.010803 -17.962964 -11.272028 36.747449 -0.539353 1.882566 0.002530 -0.023887 -554534.000000 0 0 1
30.147603 -18.503864 -12.597028 37.549382 -0.550487 1.912910 0.000103 -0.007439 481745.000000 0 0 1
29.181803 -17.931264 -13.727828 36.899338 -0.550989 1.951996 -0.002483 -0.014804 672985.000000 0 0 1
29.750003 -16.666264 -14.144128 36.917251 -0.510649 1.963979 -0.000617 0.003461 579770.000000 0 0 1
28.990803 -16.009164 -15.153628 36.419671 -0.504542 1.999930 -0.006654 -0.000954 -653439.000000 0 0 1
29.743903 -14.846464 -15.900228 36.850163 -0.462962 2.016933 -0.022202 0.019910 133277.000000 0 0 1
30.747503 -15.223164 -16.807228 38.205191 -0.459722 2.026306 -0.024673 0.008953 893092.000000 0 0 1
32.031203 -15.443764 -16.188528 39.071425 -0.449264 1.998005 -0.011284 0.014017 47491.600000 0 0 1
33.112703 -15.901664 -17.151828 40.540094 -0.447706 2.007642 -0.004395 0.008342 -401312.000000 0 0 1
34.414803 -15.963464 -16.619628 41.417664 -0.434315 1.983698 0.003954 0.007282 -234761.000000 0 0 1
-34.585575 -16.490164 -17.530628 42.135619 0.444910 1.999896 0.005761 0.010195 140130.000000 0 0 1
-33.175375 -16.170264 -16.977128 40.623956 0.453531 2.001939 0.012564 0.007523 -100955.000000 0 0 1
-32.686875 -16.929064 -15.867128 40.084794 0.477878 1.977778 0.008658 0.000018 110023.000000 0 0 1
-33.136075 -16.519264 -14.550828 39.782058 0.462469 1.945249 0.014083 -0.003584 -342760.000000 0 0 1
-32.568075 -17.357964 -13.418028 39.268586 0.489678 1.919520 0.015010 -0.007166 -867842.000000 0 0 1
-31.212775 -17.064764 -13.304928 37.979792 0.500324 1.928705 0.003486 -0.009828 -574146.000000 0 0 1
-30.654675 -17.644264 -12.130128 37.392100 0.522271 1.901177 -0.004265 -0.003546 -206882.000000 0 0 1
-29.240975 -17.283264 -11.685228 35.920612 0.533822 1.902133 0.002655 -0.005106 -320814.000000 0 0 1
-29.181075 -15.993164 -11.188828 35.107069 0.501357 1.895160 -0.003486 -0.015593 783374.000000 0 0 1
-27.947675 -15.591064 -10.551628 33.697042 0.508862 1.889286 0.005351 -0.024519 790337.000000 0 0 1
-27.918875 -15.737064 -9.034628 33.297797 0.513279 1.845569 -0.001611 -0.015204 1493.510000 0 0 1
-28.082475 -17.051264 -8.606628 33.962406 0.545686 1.827007 -0.016889 -0.006508 54792.600000 0 0 1
-28.135175 -17.283964 -7.219628 33.800096 0.550881 1.786053 -0.004726 -0.003088 -194291.000000 0 0 1
-28.257375 -18.848864 -6.966728 34.674114 0.588263 1.773093 -0.014481 -0.000747 50825.300000 0 0 1
-29.476275 -19.427164 -7.403428 36.070434 0.582730 1.777515 -0.014621 0.000230 -23411.800000 0 0 1
-29.317375 -20.010464 -8.679728 36.541275 0.598916 1.810621 -0.013918 0.000934 -109670.000000 0 0 1
-30.556175 -20.682464 -9.282028 38.047341 0.595031 1.817243 -0.005816 0.001861 -649575.000000 0 0 1
-31.675275 -19.900364 -9.560228 38.610173 0.560941 1.821008 -0.007294 0.001795 -736649.000000 0 0 1
-32.682575 -20.837864 -9.805528 39.981441 0.567597 1.818576 -0.008216 -0.002469 110110.000000 0 0 1
-34.072375 -20.245264 -10.226728 40.931448 0.536132 1.823322 0.007671 -0.009740 491570.000000 0 0 1
-34.237975 -19.682364 -11.541128 41.144040 0.521736 1.855117 0.002487 -0.011243 -417517.000000 0 0 1
34.392003 -19.221964 -11.681028 41.094284 -0.509657 1.859020 0.023750 -0.022176 -529532.000000 0 0 1
33.884603 -18.930364 -13.091028 40.962178 -0.509476 1.896091 0.005238 -0.010541 -404986.000000 0 0 1
33.530903 -20.036664 -13.796328 41.426176 -0.538622 1.910316 -0.006302 -0.005735 -202169.000000 0 0 1
33.288403 -19.867564 -15.170928 41.629256 -0.538086 1.943816 -0.005856 -0.002642 -343437.000000 0 0 1
32.181703 -20.781264 -15.694828 41.398679 -0.573380 1.959635 -0.002546 -0.006771 -1094300.000000 0 0 1
31.047803 -20.598564 -14.897128 40.127190 -0.585770 1.951149 0.011393 -0.015160 341808.000000 0 0 1
29.953803 -21.528064 -15.165228 39.883230 -0.623172 1.960853 0.016032 -0.015940 1289370.000000 0 0 1
29.095303 -21.124264 -16.413528 39.524361 -0.627988 1.999043 0.017023 -0.017079 -592677.000000 0 0 1
28.500103 -19.830164 -16.271028 38.343678 -0.607897 2.009037 -0.006724 -0.008344 585407.000000 0 0 1
27.557603 -19.664664 -17.344828 38.038974 -0.619785 2.044264 -0.002798 -0.010507 330703.000000 0 0 1
26.850903 -18.283564 -17.265028 36.787782 -0.597812 2.059310 0.003474 -0.014023 -175861.000000 0 0 1
25.898103 -18.216464 -16.241428 35.585605 -0.612997 2.044746 0.002824 -0.013418 -102594.000000 0 0 1
25.337803 -16.932564 -16.088728 34.461038 -0.589114 2.056541 -0.001504 -0.002431 -1165440.000000 0 0 1
23.895203 -16.887964 -15.591428 33.155342 -0.615243 2.060375 -0.009503 0.001298 -426416.000000 0 0 1
22.901903 -17.414164 -16.428828 33.130902 -0.650112 2.089640 -0.000910 -0.000132 47484.400000 0 0 1
22.626903 -16.628764 -17.594628 33.137041 -0.633774 2.130536 0.007695 0.006056 -1095680.000000 0 0 1
21.469803 -17.195364 -18.383928 33.084767 -0.675295 2.159955 0.017153 0.004048 -149284.000000 0 0 1
20.154803 -17.173164 -17.851828 31.934643 -0.705691 2.163989 0.014709 0.007339 450393.000000 0 0 1
19.282603 -17.905264 -18.732828 32.300714 -0.748378 2.189465 0.014692 0.002293 546798.000000 0 0 1
17.806403 -18.095364 -18.314328 31.303751 -0.793447 2.195741 0.016065 0.010210 240815.000000 0 0 1
17.092203 -16.859264 -18.399528 30.247658 -0.778537 2.224708 0.016544 0.011381 829582.000000 0 0 1
15.698303 -17.190464 -18.249428 29.580237 -0.830737 2.235653 0.016924 0.007284 653464.000000 0 0 1
14.714603 -16.036164 -18.015428 28.253031 -0.828348 2.262235 0.016828 0.008796 -470160.000000 0 0 1
14.359303 -15.346864 -19.118428 28.411795 -0.818630 2.308925 0.014569 0.010402 625765.000000 0 0 1
13.175203 -14.580664 -18.801928 27.197320 -0.835991 2.334104 0.005745 0.005475 843449.000000 0 0 1
12.417403 -14.143464 -20.062228 27.508589 -0.850292 2.388106 0.010948 0.003806 64095.500000 0 0 1
13.086303 -13.091464 -20.711928 27.778080 -0.785595 2.412263 0.015642 0.005674 -59960.000000 0 0 1
12.168703 -12.296264 -21.438628 27.547962 -0.790612 2.462637 0.009832 -0.005298 59772.000000 0 0 1
12.722803 -10.925464 -21.827728 27.526082 -0.709541 2.486487 0.018914 -0.004477 -190999.000000 0 0 1
13.602803 -10.909664 -22.931128 28.807875 -0.675969 2.491458 0.020118 -0.003102 -445897.000000 0 0 1
14.044003 -9.605764 -23.240428 28.803163 -0.599891 2.509632 0.024689 -0.008015 -118472.000000 0 0 1
15.226603 -9.552164 -24.220928 30.162006 -0.560276 2.503155 0.028385 -0.007120 74045.800000 0 0 1
15.041303 -10.146964 -25.489688 31.287791 -0.593479 2.522982 0.035008 -0.007233 -342182.000000 0 0 1
16.240103 -9.942964 -26.179888 32.372674 -0.549376 2.512741 0.037282 -0.012297 -501529.000000 0 0 1
21.295203 5.042936 -6.943928 22.959421 0.232527 1.878051 -0.002597 0.023636 -169818.000000 0 1 0
21.340603 6.454736 -7.088028 23.394980 0.293715 1.878606 -0.006213 0.017884 757956.000000 0 1 0
20.715803 7.151436 -6.032628 22.730599 0.332407 1.839412 -0.011307 0.017508 -429730.000000 0 1 0
20.797903 8.671236 -6.243928 23.382253 0.395014 1.841113 -0.012802 0.014946 -797726.000000 0 1 0
19.838503 9.226936 -7.111128 23.005884 0.435342 1.885043 -0.016570 0.014233 435878.000000 0 1 0
19.832703 10.626436 -7.344728 23.668593 0.491879 1.886321 0.006154 0.020357 -374389.000000 0 1 0
19.264803 11.420836 -6.163528 23.228371 0.535134 1.839358 0.011953 0.015883 205342.000000 0 1 0
20.251903 11.544536 -5.140928 23.871427 0.518104 1.787856 0.022182 0.015574 957286.000000 0 1 0
19.651603 12.254436 -4.065528 23.513512 0.557581 1.744571 0.033860 0.002950 172924.000000 0 1 0
20.688403 12.525336 -2.967628 24.365978 0.544401 1.692893 0.029252 -0.007485 199967.000000 0 1 0
21.843703 13.328436 -3.343728 25.806493 0.547866 1.700731 0.032378 -0.009304 1446240.000000 0 0 1
22.673003 13.542236 -2.207928 26.501550 0.538420 1.654206 0.037833 -0.012674 194728.000000 0 0 1
23.489703 12.347036 -1.562828 26.583038 0.483946 1.629621 0.015707 -0.014409 -1371560.000000 0 0 1
24.659203 12.056836 -2.253328 27.541262 0.454759 1.652704 0.012408 -0.007438 -295520.000000 0 0 1
25.307903 11.022836 -1.557628 27.648130 0.410772 1.627164 0.013904 -0.010671 -473952.000000 0 0 1
26.749603 10.709436 -2.003328 28.883328 0.380816 1.640211 0.013882 -0.006707 -26469.400000 0 0 1
27.682003 11.711236 -1.646028 30.102421 0.400229 1.625505 0.008715 -0.012937 33147.300000 0 0 1
28.986803 11.362636 -2.045228 31.201398 0.373585 1.636393 0.010242 -0.005484 -349111.000000 0 0 1
29.965803 12.498436 -1.749428 32.514931 0.395152 1.624626 -0.003607 0.003620 -916562.000000 0 0 1
30.001903 12.949536 -0.381428 32.679507 0.407468 1.582468 -0.000018 0.004552 175746.000000 0 0 1
30.771903 14.083736 -0.114528 33.841908 0.429224 1.574181 0.008111 0.004878 -1120490.000000 0 0 1
32.266503 13.852536 -0.084528 35.114486 0.405521 1.573204 0.026458 -0.003432 -780206.000000 0 0 1
33.138103 14.969136 0.176472 36.362619 0.424283 1.565943 0.023242 -0.002637 699237.000000 0 0 1
33.844503 15.512136 -0.929028 37.241641 0.429764 1.595745 0.020782 0.006911 236920.000000 0 0 1
32.997403 16.419936 -1.902928 36.906152 0.461736 1.622380 -0.019097 0.029046 820810.000000 0 0 1
31.890503 15.867536 -2.633228 35.717178 0.461696 1.644588 -0.009542 0.027304 556036.000000 0 0 1
31.353003 16.840136 -3.523028 35.763287 0.492896 1.669466 -0.026386 0.036771 176347.000000 0 0 1
30.036103 16.430436 -4.219928 34.495427 0.500555 1.693436 -0.001037 0.016752 -169032.000000 0 0 1
30.277503 15.407336 -5.224628 34.371644 0.470719 1.723392 -0.009478 0.016110 582503.000000 0 0 1
29.086603 15.050336 -5.902328 33.277328 0.477496 1.749108 0.008612 -0.007807 660206.000000 0 0 1
28.005803 14.151336 -5.200428 31.806128 0.467879 1.735038 0.011807 -0.011178 -194906.000000 0 0 1
26.866603 13.915036 -5.966028 30.838873 0.477889 1.765482 0.025842 -0.021584 -710067.000000 0 0 1
25.961203 13.203436 -5.216628 29.589322 0.470491 1.748024 0.011912 -0.010209 147896.000000 0 0 1
24.569503 13.054836 -5.938928 28.449255 0.488407 1.781098 0.016416 -0.007088 360651.000000 0 0 1
24.675603 12.102236 -6.936828 28.345530 0.455981 1.818031 0.013963 0.001620 479005.000000 0 0 1
23.479203 11.815736 -7.644428 27.373744 0.466238 1.853821 0.023039 -0.001889 -40907.700000 0 0 1
23.107203 12.814436 -8.779328 27.842938 0.506341 1.891586 0.022224 -0.000015 -247211.000000 0 0 1
22.930403 14.100636 -8.406528 28.201082 0.551327 1.873490 0.017455 -0.008917 288716.000000 0 0 1
22.619303 14.913636 -9.494728 28.708871 0.582908 1.907868 0.020855 -0.010971 -687251.000000 0 0 1
21.565803 16.009436 -9.183428 28.385230 0.638589 1.900252 0.023377 -0.009597 23638.700000 0 0 1
20.263903 15.474636 -9.146128 27.087669 0.652183 1.915215 -0.001424 -0.000370 50395.600000 0 0 1
19.781403 15.352636 -7.787528 26.223137 0.660006 1.872316 -0.006970 -0.001328 140917.000000 0 0 1
18.371003 14.728436 -7.618628 24.748012 0.675790 1.883727 -0.006531 -0.001043 241158.000000 0 1 0
17.272903 15.488036 -8.181528 24.600200 0.730970 1.909834 -0.006316 -0.002262 1243650.000000 0 1 0
16.001803 14.979036 -7.781728 23.259074 0.752397 1.911942 0.007624 -0.008498 514665.000000 0 1 0
15.542703 15.434136 -6.385728 22.815909 0.781893 1.854466 0.016593 0.005808 -733498.000000 0 1 0
16.138303 14.590836 -5.400828 22.416652 0.735082 1.814120 0.013180 0.000489 609463.000000 0 1 0
15.776703 14.982536 -4.092628 22.138888 0.759585 1.756727 0.012729 0.011757 -276441.000000 0 1 0
15.642003 13.839236 -3.038928 21.105255 0.724325 1.715288 0.014476 0.015398 1050730.000000 0 1 0
16.911203 13.185736 -2.656928 21.608140 0.662242 1.694068 0.026655 0.014720 1906560.000000 0 1 0
16.714003 12.377636 -1.516028 20.853348 0.637429 1.643560 0.015724 0.013469 -14660.200000 0 1 0
16.812203 13.139736 -0.138128 21.338274 0.663395 1.577270 0.025571 0.014408 459360.000000 0 1 0
15.673003 14.013136 0.018372 21.024066 0.729542 1.569922 0.013067 0.011313 1125140.000000 0 1 0
15.756603 14.736436 1.199872 21.607239 0.751955 1.515237 0.015799 0.009488 283457.000000 0 1 0
14.516703 15.687536 1.421972 21.420912 0.824143 1.504365 0.003169 0.012620 408185.000000 0 1 0
14.529003 16.889036 0.657172 22.288188 0.860374 1.541307 0.014638 0.013338 724150.000000 0 1 0
13.428903 17.636236 1.199772 22.199363 0.920015 1.516725 -0.000562 0.003814 543306.000000 0 1 0
13.513403 19.114836 0.758472 23.421450 0.955415 1.538407 0.000235 0.010405 -660984.000000 0 1 0
13.415503 19.377436 -0.672028 23.577794 0.965239 1.599303 0.025028 0.017012 78760.300000 0 1 0
12.839503 20.618836 -0.950328 24.308278 1.013847 1.609901 0.008422 0.011315 -444325.000000 0 1 0
11.314203 20.538336 -1.002228 23.469957 1.067276 1.613512 0.006869 -0.000495 -866737.000000 0 1 0
10.718903 20.306636 0.241472 22.963289 1.085116 1.560281 0.006950 -0.014460 -568555.000000 0 1 0
9.318603 20.187136 0.075172 22.234263 1.138329 1.567415 0.008915 -0.011141 170063.000000 0 1 0
8.583703 20.185136 1.414672 21.980013 1.168715 1.506390 0.009582 -0.011450 -94554.000000 0 1 0
8.488803 21.484936 1.976872 23.185562 1.194517 1.485430 0.016601 -0.005232 -28163.700000 0 1 0
7.595603 21.442336 3.065572 22.953533 1.230355 1.436840 0.007788 -0.010905 -11452.100000 0 1 0
6.957603 22.783036 3.433372 24.067883 1.274406 1.427654 -0.001717 -0.004877 -86423.800000 0 1 0
7.636803 23.502936 4.429072 25.106283 1.256628 1.393455 -0.004399 0.003604 404041.000000 0 0 1
6.843503 24.594636 4.867972 25.988975 1.299409 1.382374 -0.018088 0.003818 -117036.000000 0 0 1
7.393903 25.115436 6.199572 26.905197 1.284488 1.338284 -0.026640 0.009748 -399507.000000 0 0 1
7.037603 24.334236 7.225072 26.341689 1.289272 1.292952 -0.015995 -0.003963 156577.000000 0 0 1
7.703103 24.699436 8.424972 27.209926 1.268482 1.255994 -0.008589 0.002279 -162176.000000 0 0 1
7.544303 23.693536 9.570272 26.643766 1.262535 1.203393 -0.003463 -0.005997 -900403.000000 0 0 1
6.316403 23.847736 10.166172 26.682626 1.311878 1.179915 -0.005028 -0.008923 -869554.000000 0 0 1
6.032503 22.863236 11.232272 26.177903 1.312824 1.127328 -0.016595 -0.005701 301300.000000 0 0 1
4.693803 23.203436 11.941872 26.514893 1.371201 1.103601 -0.005949 -0.009509 542652.000000 0 0 1
3.575903 23.142436 11.082872 25.907325 1.417492 1.128751 -0.010087 -0.009026 343813.000000 0 0 1
2.321503 23.519236 11.623072 26.337039 1.472408 1.113727 -0.011395 -0.008362 425640.000000 0 0 1
1.249503 23.853036 10.569972 26.119971 1.518461 1.154178 0.011265 -0.005970 -376366.000000 0 0 1
1.579803 25.024636 9.850072 26.939787 1.507750 1.196484 0.017164 -0.005025 320079.000000 0 0 1
0.723903 25.243236 8.728772 26.719589 1.542127 1.238007 0.004403 -0.008239 719299.000000 0 0 1
-0.624297 25.987336 9.073172 27.532777 -1.546778 1.234979 0.010051 -0.015080 770049.000000 0 0 1
-1.566797 25.171536 9.768372 27.045927 -1.508632 1.201266 0.002589 -0.009388 -256874.000000 0 0 1
-2.847597 25.700136 9.595172 27.580303 -1.460446 1.215467 0.011131 -0.010354 -886845.000000 0 0 1
-3.976097 24.864036 10.207672 27.170318 -1.412225 1.185653 0.027504 -0.016948 -141830.000000 0 0 1
-4.392897 25.222336 11.549072 28.086382 -1.398359 1.147028 0.008394 -0.006298 -41933.700000 0 0 1
-5.546597 26.017136 11.490072 28.977195 -1.360751 1.163072 0.015872 -0.002464 -737897.000000 0 0 1
-5.967497 26.228936 12.933872 29.847163 -1.347089 1.122604 -0.002460 0.009813 -581465.000000 0 0 1
-6.763297 25.180836 13.445272 29.335849 -1.308400 1.094690 -0.003392 -0.007123 120203.000000 0 0 1
-6.958397 25.416236 14.814272 30.230233 -1.303567 1.058651 -0.013892 0.024545 -205567.000000 0 0 1
-8.079097 24.533936 15.405772 30.075299 -1.252678 1.033005 -0.009898 0.010723 994065.000000 0 0 1
-9.451097 24.845136 15.089672 30.566357 -1.207300 1.054492 -0.011824 0.014899 957893.000000 0 0 1
-10.314797 23.765236 15.384972 30.131028 -1.161303 1.034911 -0.006860 0.009513 417513.000000 0 0 1
-11.819197 24.128936 15.252272 30.895481 -1.115314 1.054488 -0.003527 -0.000789 249889.000000 0 0 1
-12.307297 25.062236 16.196172 32.278495 -1.114319 1.045160 0.008476 -0.004359 -286685.000000 0 0 1
-13.350097 25.840336 15.680172 33.042637 -1.093927 1.076351 0.005948 -0.000045 -581564.000000 0 0 1
-13.855697 26.787136 16.817172 34.530396 -1.093443 1.062116 0.020002 0.001122 -230874.000000 0 0 1
-15.127197 26.464636 17.350472 35.074890 -1.051521 1.053342 0.030049 -0.011360 268317.000000 0 0 1
-15.580897 27.362436 18.366372 36.452584 -1.053161 1.042755 0.035717 -0.008694 12039.200000 0 0 1
-16.885097 27.023236 19.096772 37.149004 -1.012315 1.030886 0.029878 -0.014302 -420383.000000 0 0 1
-18.054097 27.237736 18.378772 37.491651 -0.985452 1.058466 0.025335 -0.010678 -422616.000000 0 0 1
-19.164697 26.636736 19.012272 37.924501 -0.947113 1.045674 0.021433 -0.013936 357130.000000 0 0 1
-20.495397 26.813336 18.227072 38.356778 -0.918160 1.075607 0.024432 -0.011718 -189865.000000 0 0 1
-20.965897 28.107936 18.113372 39.467951 -0.929920 1.093996 0.014377 -0.010478 128794.000000 0 0 1
-21.994297 28.158036 17.142472 39.629388 -0.907685 1.123455 -0.002025 -0.014200 -796631.000000 0 0 1
-22.702597 29.468736 17.200772 40.983910 -0.914369 1.137686 -0.006759 -0.009333 -1116470.000000 0 0 1
-23.716697 29.587136 18.132072 42.031564 -0.895088 1.124761 -0.014474 -0.007505 -609771.000000 0 0 1
-24.500897 30.684236 17.769372 43.099499 -0.896980 1.145833 -0.022895 0.003979 -712827.000000 0 0 1
-25.867497 30.678836 18.444672 44.164740 -0.870280 1.139957 -0.024272 0.002751 -706827.000000 0 0 1
-26.747907 29.689836 17.977472 43.819247 -0.837478 1.148052 -0.013905 0.004800 -715783.000000 0 0 1
-28.001387 29.790236 18.551572 44.896510 -0.816342 1.144823 -0.004692 -0.011854 -728648.000000 0 0 1
-28.432977 28.521336 19.326372 44.670006 -0.786950 1.123369 -0.001503 -0.011498 -541001.000000 0 0 1
-28.620427 27.305436 18.638172 43.727533 -0.761889 1.130470 -0.014122 -0.007293 148665.000000 0 0 1
-28.868067 26.174136 19.438172 43.546449 -0.736494 1.108083 -0.016722 -0.004392 -166847.000000 0 0 1
-28.800087 24.809836 18.638372 42.336295 -0.711104 1.114924 -0.003225 0.002179 -50773.100000 0 0 1
-29.752937 24.596036 17.607372 42.429020 -0.690796 1.142871 0.004012 -0.000701 93859.300000 0 0 1
-29.558387 23.319736 17.041972 41.327196 -0.667959 1.145746 0.000363 0.006224 -1154970.000000 0 0 1
-30.187397 22.029436 17.569572 41.294852 -0.630419 1.131319 -0.000462 0.011949 -659504.000000 0 0 1
-31.342997 21.642536 16.889172 41.665657 -0.604326 1.153435 -0.000579 0.010176 -361748.000000 0 0 1
-31.586177 20.259336 17.021372 41.205028 -0.570305 1.144952 -0.011612 0.021588 239157.000000 0 0 1
-32.931377 19.820836 16.383972 41.782480 -0.541803 1.167855 -0.008543 0.006058 170370.000000 0 0 1
-32.885037 20.005636 14.947372 41.292554 -0.546537 1.200398 -0.009567 0.000462 236808.000000 0 0 1
-34.168219 19.899136 14.349272 42.063575 -0.527368 1.222674 0.010623 -0.003003 358522.000000 0 0 1
-34.240499 20.225836 12.829472 41.786260 -0.533553 1.258730 0.021204 -0.001244 -75472.600000 0 0 1
-33.993517 21.630236 12.623172 42.222870 -0.566687 1.267188 0.013210 -0.006119 85228.300000 0 0 1
-34.213776 22.184636 11.348972 42.326584 -0.575258 1.299346 -0.001951 -0.011321 -206939.000000 0 0 1
-33.114357 21.835536 10.317672 40.985432 -0.582953 1.316319 0.011476 -0.014294 -209794.000000 0 0 1
-33.179907 20.491836 9.904372 40.235782 -0.553259 1.322082 0.016923 -0.007102 672532.000000 0 0 1
-32.016787 20.281336 9.079672 38.972396 -0.564659 1.335659 0.038781 -0.008282 607322.000000 0 0 1
-31.059487 19.257536 9.742372 37.821399 -0.555011 1.310270 0.032792 -0.018339 -272076.000000 0 0 1
-30.441167 19.777836 10.906272 37.904804 -0.576169 1.278943 0.036931 -0.009249 186929.000000 0 0 1
-30.213527 18.691436 11.757872 37.422914 -0.554016 1.251194 0.015300 -0.002217 -98589.700000 0 0 1
-29.833277 19.102536 13.191572 37.801440 -0.569533 1.214324 0.004971 0.006836 31033.500000 0 0 1
-28.666687 19.878936 13.209172 37.301920 -0.606317 1.208829 -0.000989 0.015460 -143589.000000 0 0 1
-29.029047 21.253436 13.388472 38.388088 -0.631975 1.214542 -0.011814 0.023718 -30496.700000 0 0 1
-27.773887 22.085736 13.690572 38.034199 -0.671806 1.202577 -0.001993 0.013219 36363.000000 0 0 1
-27.293707 21.777736 15.014472 38.008559 -0.673461 1.164697 0.005244 0.017779 389063.000000 0 0 1
-26.464987 22.836736 15.568772 38.266156 -0.711938 1.151788 0.009067 0.007231 -304095.000000 0 0 1
-26.076497 22.526036 17.027072 38.436014 -0.712477 1.111857 0.021630 0.003593 -1375160.000000 0 0 1
-25.228357 21.453636 16.951272 37.203146 -0.704713 1.097704 0.040281 -0.000610 -359773.000000 0 0 1
-24.978397 20.989436 18.251672 37.384492 -0.698838 1.060753 0.042829 -0.003846 -309392.000000 0 0 1
-23.854297 19.947536 18.449372 36.156756 -0.696442 1.035308 0.037271 -0.008712 71829.500000 0 0 1
-23.390697 19.837636 19.783372 36.497100 -0.703390 0.997918 0.025295 -0.007556 -541814.000000 0 0 1
-22.324697 18.963436 19.828172 35.371746 -0.704167 0.975728 0.020527 -0.004630 -659472.000000 0 0 1
-21.745497 18.775936 21.237972 35.727494 -0.712245 0.934223 0.023009 -0.002494 264178.000000 0 0 1
-22.705597 18.321336 22.205372 36.664615 -0.678939 0.920233 0.032684 0.007335 251106.000000 0 0 1
-22.233997 18.492736 23.495572 37.260888 -0.693793 0.888510 0.052360 -0.000683 -116489.000000 0 0 1
-22.936997 17.580536 24.511972 37.894826 -0.653959 0.867360 0.038428 0.007445 -103139.000000 0 0 1
-22.484897 16.257736 24.507872 37.020540 -0.626030 0.847302 0.047114 -0.005695 361618.000000 0 0 1
-23.282997 15.483936 25.424972 37.792584 -0.586870 0.832877 0.045105 -0.006247 555906.000000 0 0 1
19.972003 24.882136 34.306273 46.849994 0.894433 0.749165 0.007640 0.006070 46273.400000 0 0 1
20.139303 23.960036 33.236569 45.654620 0.871822 0.755396 0.005669 0.000643 105637.000000 0 0 1
19.867103 22.631536 33.603424 45.122924 0.850354 0.730698 0.013303 0.004310 -194157.000000 0 0 1
19.090503 21.770136 32.593695 43.597421 0.850884 0.726346 0.028041 0.000105 -59803.700000 0 0 1
19.858503 21.140136 31.568415 42.869923 0.816648 0.743097 0.014202 -0.000317 84324.000000 0 0 1
19.119303 20.131536 30.924945 41.559340 0.811181 0.731587 0.038803 -0.004317 -186275.000000 0 0 1
19.694003 19.704136 29.535315 40.601004 0.785655 0.756194 0.043210 0.004894 42985.600000 0 0 1
20.897203 18.957536 29.594915 40.889366 0.736768 0.761531 0.025558 0.004199 -99510.700000 0 0 1
21.176003 18.348636 28.373915 39.876993 0.713986 0.779115 0.024806 -0.005905 -307908.000000 0 0 1
22.363603 17.384636 28.382485 40.098900 0.660785 0.784400 0.028828 0.012770 550679.000000 0 0 1
23.626903 17.997236 28.706345 41.305996 0.650964 0.802421 0.032465 0.010022 866696.000000 0 0 1
24.423203 17.067436 29.479155 41.914327 0.609934 0.790740 0.029647 0.015912 -701623.000000 0 0 1
25.728503 17.622936 29.948615 43.237059 0.600559 0.805625 0.006551 0.008428 -679073.000000 0 0 1
26.719403 17.723836 28.918635 43.178100 0.585690 0.836921 0.015299 0.015469 -210149.000000 0 0 1
27.690103 18.679736 29.242965 44.393979 0.593475 0.851687 -0.004116 0.015084 -305470.000000 0 0 1
28.739003 18.539936 28.101435 44.264548 0.572933 0.882979 0.008527 0.023712 -493096.000000 0 0 1
28.371303 18.997336 26.825555 43.421654 0.590028 0.904865 0.001187 0.007976 -85325.400000 0 0 1
29.294403 18.629436 25.810595 43.259736 0.566426 0.931486 0.001625 0.011166 -530086.000000 0 0 1
29.842303 19.882236 25.117465 43.780743 0.587709 0.959768 0.003050 -0.005188 22646.700000 0 0 1
28.812203 20.549036 24.391125 42.980611 0.619534 0.967340 0.004463 -0.012885 322572.000000 0 0 1
29.234703 21.571836 23.482855 43.260334 0.635702 0.996997 0.004810 -0.017575 168759.000000 0 0 1
30.056603 20.939136 22.285155 42.877441 0.608479 1.024249 -0.000733 -0.004626 136747.000000 0 0 1
29.145103 20.281636 21.461255 41.489363 0.607959 1.027137 0.003820 0.000799 182690.000000 0 0 1
29.693403 19.755536 20.221155 40.998470 0.587068 1.055012 0.005741 0.003803 367093.000000 0 0 1
30.609403 18.464636 20.293955 41.106240 0.542794 1.054462 0.002208 0.004107 205846.000000 0 0 1
29.882603 17.253236 20.463955 40.117547 0.523611 1.035495 -0.000212 0.000555 155994.000000 0 0 1
30.645303 16.055836 20.372955 40.149493 0.482604 1.038600 -0.014675 0.006327 -606022.000000 0 0 1
29.821203 14.886936 20.878255 39.329716 0.463013 1.011191 -0.019037 0.009648 -176781.000000 0 0 1
29.740903 14.780736 22.267855 39.985608 0.461231 0.980151 -0.017607 0.003139 -262014.000000 0 0 1
28.718903 15.501836 22.892955 39.864392 0.494961 0.959083 -0.010867 0.007973 -569922.000000 0 0 1
28.293703 14.649736 24.146755 39.977671 0.477765 0.922278 -0.012681 -0.000832 -26165.400000 0 0 1
27.671603 13.469736 23.734855 38.865084 0.453009 0.913854 -0.014276 0.001949 38284.100000 0 0 1
27.020103 12.821836 24.825875 38.869133 0.443064 0.877983 -0.022515 0.007970 195170.000000 0 0 1
26.368803 11.448636 24.495095 37.767641 0.409615 0.865087 -0.022123 0.014795 172100.000000 0 0 1
25.366003 11.372636 23.485755 36.391643 0.421474 0.869300 -0.031584 0.018094 341819.000000 0 0 1
25.023403 10.083236 23.191755 35.576676 0.383049 0.860734 -0.032266 0.023899 261502.000000 0 0 1
23.735203 9.862036 22.317755 34.039709 0.393799 0.855768 -0.029676 0.022570 708395.000000 0 0 1
22.533803 9.740436 23.088955 33.700864 0.408003 0.816035 -0.029673 0.018543 422826.000000 0 0 1
21.551003 9.248536 22.200855 32.293329 0.405377 0.812790 -0.040959 0.045174 -1183510.000000 0 0 1
20.139303 9.251336 22.710555 31.732445 0.430616 0.773187 -0.014465 0.028233 -1162600.000000 0 0 1
19.945103 8.265436 23.683355 32.047244 0.392866 0.739191 -0.000591 0.027768 -274813.000000 0 0 1
18.655603 8.325636 24.209175 31.676993 0.419757 0.700917 0.007323 0.030317 -546161.000000 0 0 1
18.420103 7.705336 25.514265 32.398304 0.396192 0.664024 0.016162 0.019482 -487252.000000 0 0 1
18.547303 6.322036 25.344805 32.036381 0.328509 0.658149 0.018082 0.018001 144446.000000 0 0 1
18.285403 5.551636 26.460385 32.639372 0.294766 0.625468 0.016545 0.010740 -467466.000000 0 0 1
18.504603 4.030536 26.304565 32.412894 0.214463 0.624003 0.027982 0.006790 -742661.000000 0 0 1
19.818403 3.633736 26.097775 32.970699 0.181337 0.657464 0.044722 0.012379 -546259.000000 0 0 1
19.950603 2.223436 26.092365 32.920841 0.110989 0.655770 0.030081 0.010685 -1119410.000000 0 0 1
21.389003 1.785836 26.013005 33.724696 0.083300 0.689862 0.030615 0.012329 -860101.000000 0 0 1
22.110803 2.270636 27.152775 35.090121 0.102335 0.685976 0.035255 0.003370 35258.700000 0 0 1
23.467803 2.472336 26.831675 35.732185 0.104963 0.721357 0.031341 0.004729 -29448.400000 0 0 1
24.297003 3.089936 27.966915 37.175804 0.126495 0.719268 0.009390 0.003917 -618923.000000 0 0 1
24.363303 2.243236 29.067585 37.993778 0.091815 0.699659 0.008695 -0.002713 603261.000000 0 0 1
25.303003 2.633436 30.077545 39.393346 0.103703 0.702052 0.007622 0.003904 1570450.000000 0 0 1
26.855803 2.699036 29.803695 40.209193 0.100165 0.735916 0.017297 0.000309 17762.800000 0 0 1
27.193503 3.887336 29.056925 39.986284 0.141989 0.757331 -0.002726 0.014256 156047.000000 0 0 1
28.551403 4.010436 28.690085 40.674159 0.139551 0.787860 -0.012214 0.021047 -368478.000000 0 0 1
29.056303 2.963436 27.682195 40.241206 0.101638 0.812195 -0.009976 0.017694 -1320760.000000 0 0 1
28.459203 3.094136 26.405545 38.945510 0.108296 0.825741 -0.013779 0.029182 289379.000000 0 0 1
28.961803 2.054736 25.565405 38.685888 0.070828 0.848851 -0.006168 0.032283 -503401.000000 0 0 1
28.330103 2.044336 24.141755 37.277317 0.072036 0.866332 -0.003713 0.017741 236371.000000 0 0 1
28.778603 3.148436 23.363755 37.201958 0.108969 0.891784 -0.007283 0.027779 -412925.000000 0 0 1
30.051703 2.993736 22.801755 37.841609 0.099292 0.924094 -0.022553 0.025056 -65339.000000 0 0 1
30.751903 4.313536 22.310855 38.236898 0.139360 0.947777 -0.028620 0.025334 287066.000000 0 0 1
30.156403 4.797636 21.066355 37.097403 0.157770 0.966885 -0.027352 0.019770 315031.000000 0 0 1
30.684103 6.035736 20.653155 37.476621 0.194226 0.987121 -0.014405 0.020641 -544845.000000 0 0 1
32.132503 6.150736 20.107755 38.401187 0.189130 1.019698 -0.025897 0.014092 111513.000000 0 0 1
33.120403 6.017936 21.140755 39.750575 0.179738 1.010030 -0.018851 0.014872 451010.000000 0 0 1
33.369403 7.245136 21.871255 40.550720 0.213801 1.001125 -0.008529 0.012001 -721243.000000 0 0 1
34.176103 6.968436 23.154255 41.865077 0.201141 0.984754 -0.009361 0.007986 -363816.000000 0 0 1
33.520003 6.151936 24.070955 41.723468 0.181510 0.955848 -0.013216 0.021231 207063.000000 0 0 1
34.193703 6.032836 25.343415 42.987128 0.174634 0.940285 0.007458 0.021800 186529.000000 0 0 1
33.392903 5.166336 26.358095 42.854710 0.153497 0.908338 0.005034 0.028035 242683.000000 0 0 1
33.492403 3.790236 26.112205 42.637474 0.112688 0.911673 0.004463 0.020013 231091.000000 0 0 1
32.486103 3.110036 26.857605 42.265236 0.095443 0.882200 0.001881 0.016167 -196957.000000 0 0 1
32.482103 1.542236 26.682535 42.064512 0.047444 0.883662 -0.000962 0.019522 -417070.000000 0 0 1
31.917603 1.143936 25.499715 40.869028 0.035825 0.897025 0.012403 0.009686 -507406.000000 0 0 1
31.997103 -0.227864 25.401035 40.854365 -0.007121 0.899826 0.009727 0.003612 -613535.000000 0 0 1
31.232603 -0.820464 24.205825 39.523039 -0.026263 0.911642 0.012790 0.011468 576425.000000 0 0 1
29.904803 -1.150264 24.644115 38.767935 -0.038445 0.881903 0.007549 0.017297 -38263.300000 0 0 1
29.250903 -1.909964 23.675955 37.680421 -0.065203 0.891384 0.007011 0.007738 -143573.000000 0 0 1
27.774703 -2.145764 24.046455 36.800414 -0.077103 0.858691 0.014820 0.017044 201442.000000 0 0 1
27.008703 -0.937064 23.988155 36.135574 -0.034681 0.844858 0.006151 0.015132 373024.000000 0 0 1
25.658903 -1.174664 23.614855 34.891554 -0.045748 0.827379 0.017584 0.020805 637435.000000 0 0 1
24.749103 0.086636 23.340355 34.019080 0.003501 0.814687 0.028814 0.013812 143155.000000 0 0 1
24.996403 0.895936 22.259255 33.482791 0.035827 0.843574 -0.003007 0.017957 241476.000000 0 0 1
24.147203 2.040136 22.312555 32.940851 0.084287 0.826639 -0.007983 0.019382 92666.400000 0 0 1
24.426303 3.021336 21.133955 32.440974 0.123067 0.861291 -0.022634 0.019761 -142159.000000 0 0 1
23.989503 2.685736 19.808255 31.226214 0.111490 0.883633 -0.002435 0.018843 321687.000000 0 0 1
23.908403 3.835736 19.017455 30.789417 0.159079 0.905030 -0.009836 0.018473 -201622.000000 0 0 1
23.476403 3.419736 17.625855 29.555150 0.144650 0.931823 -0.013018 0.015272 -948312.000000 0 0 1
24.493903 2.739436 16.951255 29.913222 0.111379 0.968324 -0.036292 0.006550 -55551.300000 0 0 1
24.428803 2.959136 15.556755 29.112464 0.120546 1.007037 -0.023994 0.002438 -233873.000000 0 0 1
23.847503 1.787936 14.731155 28.087489 0.074834 1.018699 -0.027203 0.021737 -61278.600000 0 0 1
22.448403 1.608936 14.812555 26.943112 0.071550 0.988706 0.006514 0.011643 240707.000000 0 0 1
22.113003 0.503036 13.970755 26.161421 0.022744 1.007447 0.010634 0.014897 -219528.000000 0 0 1
20.621103 0.086136 14.016555 24.933935 0.004177 0.973816 0.034832 -0.009445 822037.000000 0 1 0
19.564503 0.927036 13.479955 23.776845 0.047348 0.968015 0.035376 -0.009922 1331910.000000 0 1 0
19.561303 0.963636 12.020855 22.979864 0.049223 1.020308 0.034731 0.001363 -1142350.000000 0 1 0
19.109603 -0.330264 11.301855 22.204007 -0.017281 1.036773 0.022389 0.004990 -790422.000000 0 1 0
19.917103 -1.468264 11.315955 22.954251 -0.073586 1.055286 0.011983 -0.002652 770684.000000 0 1 0
21.124803 -1.288764 10.570955 23.657204 -0.060932 1.107568 0.010398 0.001432 302864.000000 0 1 0
22.336803 -2.200064 10.894655 24.949280 -0.098178 1.118900 0.016303 -0.001554 270132.000000 0 1 0
22.748703 -2.074464 12.261555 25.925907 -0.090939 1.078165 0.007327 -0.003825 136129.000000 0 0 1
23.965403 -2.750164 12.452555 27.147193 -0.114256 1.094259 0.009565 -0.006960 -157220.000000 0 0 1
24.321103 -2.815464 13.973955 28.190678 -0.115249 1.052162 0.000986 0.001777 -203918.000000 0 0 1
24.887603 -1.589264 14.505055 28.849873 -0.063771 1.043988 -0.000341 0.003986 338245.000000 0 0 1
24.995403 -1.626464 15.926055 29.682567 -0.064979 1.004458 -0.016910 -0.000132 734697.000000 0 0 1
26.154603 -0.679664 16.480455 30.921362 -0.025981 1.008678 -0.001826 0.010188 926055.000000 0 0 1
27.461703 -1.185964 16.297355 31.955523 -0.043159 1.035610 -0.004802 0.008749 228448.000000 0 0 1
28.402603 -0.134264 16.434655 32.814993 -0.004727 1.046242 -0.018321 0.015233 278780.000000 0 0 1
29.912103 -0.444864 16.587955 34.206609 -0.014871 1.064508 0.001824 0.017347 165477.000000 0 0 1
30.362203 -0.825664 15.340455 34.027558 -0.027187 1.103108 0.003915 0.027311 -850650.000000 0 0 1
31.519603 -1.579764 15.435255 35.131583 -0.050078 1.115915 0.011121 0.023526 -601917.000000 0 0 1
31.900603 -2.111464 14.022855 34.910561 -0.066092 1.157446 0.014203 0.023905 -53252.200000 0 0 1
32.207103 -1.068164 13.121755 34.793950 -0.033153 1.184104 0.016926 0.015526 214484.000000 0 0 1
32.546503 -1.587564 11.851755 34.673612 -0.048740 1.221955 0.017587 0.010941 85570.700000 0 0 1
31.804003 -0.845464 10.664055 33.554903 -0.026577 1.247378 0.013193 0.018593 67420.300000 0 0 1
32.335103 0.449436 10.350555 33.954306 0.013898 1.261028 0.021639 0.017703 449557.000000 0 0 1
31.402503 1.235736 9.654355 32.876296 0.039331 1.272746 0.002245 0.012907 -312444.000000 0 0 1
31.953303 2.571036 9.081755 33.318195 0.080289 1.294726 -0.007009 0.008493 94201.000000 0 0 1
32.863103 2.368236 8.009755 33.907938 0.071939 1.332322 0.004632 0.002595 488106.000000 0 0 1
33.294903 3.650036 7.558255 34.336578 0.109191 1.348856 -0.001394 0.002264 13646.700000 0 0 1
33.932903 3.633536 6.138455 34.674560 0.106674 1.392828 -0.011041 0.008548 -10959.400000 0 0 1
34.526503 4.877636 5.818455 35.351452 0.140343 1.405455 -0.003244 0.007737 344766.000000 0 0 1
34.845803 5.018736 4.449255 35.485400 0.143043 1.445083 -0.015313 0.005876 -117649.000000 0 0 1
-34.628675 6.443236 4.029655 35.452765 -0.183963 1.456888 -0.016179 -0.000313 119050.000000 0 0 1
34.261403 7.376036 4.022355 35.276465 0.212050 1.456524 -0.003013 0.004658 267676.000000 0 0 1
34.701203 8.479536 3.293455 35.873708 0.239662 1.478860 -0.005316 0.003551 487760.000000 0 0 1
33.506203 9.533936 3.264755 34.988859 0.277216 1.477352 0.025932 0.002189 1723260.000000 0 0 1
32.386903 9.277736 2.403555 33.775212 0.278994 1.499573 0.028546 -0.010028 820652.000000 0 0 1
31.550003 8.151236 2.689855 32.696799 0.252831 1.488437 0.032511 -0.002225 -168041.000000 0 0 1
30.274703 8.173236 1.790155 31.409618 0.263683 1.513772 0.038882 -0.014058 223890.000000 0 0 1
30.550503 8.233336 0.405455 31.643095 0.263245 1.557983 0.033543 -0.009004 483862.000000 0 0 1
29.378803 7.776136 -0.244945 30.391485 0.258752 1.578856 0.045547 -0.013110 5393.390000 0 0 1
29.614503 7.593036 -1.742145 30.622019 0.250989 1.627719 0.023776 -0.007331 -149044.000000 0 0 1
28.607403 6.903436 -2.465945 29.531709 0.236789 1.654395 0.018323 -0.007218 865629.000000 0 0 1
29.011703 6.940836 -3.816745 30.073604 0.234829 1.698053 0.021757 -0.007530 -505734.000000 0 0 1
27.905703 6.394536 -4.714645 29.014587 0.225259 1.734012 0.015542 -0.003697 -590428.000000 0 0 1
27.746303 4.971536 -4.645645 28.568436 0.177297 1.734136 0.019800 -0.005764 52093.600000 0 0 1
26.689603 4.679536 -5.484045 27.646116 0.173568 1.770487 0.004328 -0.000456 -933285.000000 0 0 1
26.650803 3.120936 -5.774145 27.447155 0.116574 1.782753 0.011339 0.004784 -519296.000000 0 0 1
26.460603 2.425336 -4.569945 26.961643 0.091403 1.741117 0.015455 0.004592 407019.000000 0 0 1
26.394803 1.013336 -4.764345 26.840482 0.038373 1.749248 0.008042 0.007244 -382165.000000 0 0 1
26.054003 0.262736 -3.517945 26.291749 0.010084 1.705003 0.003339 0.003982 507263.000000 0 0 1
27.160303 0.415436 -2.606145 27.288215 0.015295 1.666447 0.019870 -0.003867 1078650.000000 0 0 1
26.863203 -0.085264 -1.277845 26.893714 -0.003174 1.618329 0.019097 -0.001139 -39507.000000 0 0 1
27.941603 0.433436 -0.288745 27.946457 0.015511 1.581129 0.021270 0.003125 -424548.000000 0 0 1
29.208403 -0.026164 -0.630545 29.215220 -0.000896 1.592381 0.025895 0.003048 -897098.000000 0 0 1
30.164303 0.537336 0.205155 30.169787 0.017812 1.563996 0.021738 0.005348 -384307.000000 0 0 1
-2.855197 -21.504764 -8.270428 23.216524 1.438798 1.935027 -0.008438 0.014464 132113.000000 0 1 0
-3.287297 -22.178164 -7.100628 23.517997 1.423645 1.877506 -0.011165 0.017711 -192543.000000 0 1 0
-2.348297 -23.155364 -6.682228 24.214408 1.469727 1.850386 -0.007066 0.006368 165335.000000 0 1 0
-2.790297 -23.814864 -5.378228 24.573540 1.454162 1.791445 -0.009300 0.009879 -577287.000000 0 1 0
-2.622397 -22.932564 -4.250228 23.470064 1.456938 1.752892 -0.009085 0.004624 -125984.000000 0 1 0
-2.989497 -23.637864 -3.061828 24.022084 1.444994 1.698603 -0.003383 0.000371 -134102.000000 0 1 0
-2.597997 -23.024264 -1.724228 23.234442 1.458434 1.645075 -0.001076 -0.009274 26496.200000 0 1 0
-1.199697 -23.019364 -1.534428 23.101620 1.518727 1.637266 0.003068 -0.003366 -582242.000000 0 1 0
-0.817997 -22.571864 -0.206628 22.587626 1.534573 1.579944 -0.003377 -0.011427 -629611.000000 0 1 0
0.683303 -22.482864 -0.048628 22.493298 -1.540413 1.572958 0.008044 -0.014895 -887108.000000 0 1 0
1.169603 -21.289264 -0.645328 21.331132 -1.515913 1.601054 -0.001997 -0.015234 -556449.000000 0 1 0
2.340003 -20.955064 0.055272 21.085383 -1.459589 1.568175 0.001192 -0.015191 -365443.000000 0 1 0
3.249003 -19.923964 -0.608528 20.196304 -1.409149 1.600932 0.009278 -0.021022 114019.000000 0 1 0
3.912603 -20.429764 -1.760328 20.875404 -1.381573 1.655222 0.005622 -0.012637 -39550.000000 0 1 0
4.726603 -19.459664 -2.438628 20.173404 -1.332518 1.691976 0.018155 -0.011346 -179656.000000 0 1 0
5.504503 -20.133764 -3.560328 21.174134 -1.303921 1.739744 0.017266 -0.004428 -1480380.000000 0 1 0
6.422203 -21.043964 -3.116128 22.221687 -1.274594 1.711489 0.025815 -0.008048 -1046030.000000 0 1 0
7.020303 -21.765064 -4.176828 23.247550 -1.258783 1.751445 0.023961 -0.005633 581562.000000 0 1 0
8.352003 -21.157664 -4.737528 23.234605 -1.194823 1.776136 0.035296 -0.000062 233674.000000 0 1 0
7.996403 -20.011364 -5.490928 22.238423 -1.190641 1.820288 0.020725 -0.000193 -142786.000000 0 1 0
9.055203 -19.520364 -6.273228 22.414163 -1.136456 1.854463 0.030678 0.007386 -551095.000000 0 1 0
8.760403 -18.225264 -7.092628 21.429192 -1.122729 1.908138 0.021190 0.004576 -144268.000000 0 1 0
9.649603 -17.951764 -8.169128 21.957125 -1.077578 1.952012 0.025166 0.012914 327829.000000 0 1 0
9.335803 -16.675164 -8.687628 20.992694 -1.060412 1.997465 0.016866 0.009331 807192.000000 0 1 0
10.216503 -16.537064 -10.016928 21.867562 -1.017395 2.046622 0.022191 0.007302 213709.000000 0 1 0
9.649603 -17.234264 -11.073428 22.644105 -1.060378 2.081763 0.016921 0.011764 -1153.530000 0 1 0
8.816503 -16.367564 -11.854928 22.049200 -1.076703 2.138453 -0.003049 0.003520 131913.000000 0 1 0
8.136503 -17.158364 -12.995828 23.010947 -1.128001 2.170947 -0.008790 0.008286 -487603.000000 0 1 0
7.171103 -18.055964 -12.578628 23.144426 -1.192741 2.145379 -0.005261 0.012948 -410882.000000 0 1 0
6.735203 -18.900764 -13.668828 24.278359 -1.228480 2.168813 -0.014004 0.018878 949991.000000 0 1 0
5.504003 -19.791264 -13.214728 24.425749 -1.299548 2.142441 -0.011009 0.016435 640716.000000 0 1 0
5.888203 -20.975364 -12.541428 25.138104 -1.297120 2.093127 -0.001438 0.011093 -1027120.000000 0 0 1
4.803503 -21.753064 -12.213128 25.405313 -1.353464 2.072285 0.003227 0.025388 -592352.000000 0 0 1
5.095203 -23.264064 -12.325128 26.815789 -1.355185 2.048366 -0.010535 0.026943 -208573.000000 0 0 1
5.319603 -23.749064 -13.626928 27.892820 -1.350441 2.081219 -0.007320 0.018045 -202922.000000 0 0 1
4.864503 -25.078754 -13.939028 29.101612 -1.379206 2.070286 -0.010448 0.014775 888281.000000 0 0 1
3.318303 -25.184114 -14.198028 29.100425 -1.439789 2.080476 -0.001484 0.005839 438720.000000 0 0 1
2.472303 -24.965564 -13.088528 28.296665 -1.472090 2.051662 0.007573 0.003001 -860546.000000 0 0 1
1.134203 -25.067104 -13.479828 28.484239 -1.525580 2.063759 0.006921 -0.008500 -364222.000000 0 0 1
0.492603 -26.430784 -13.041528 29.477287 -1.552161 2.029099 0.002085 -0.001579 -686140.000000 0 0 1
0.918303 -27.548114 -13.807628 30.828436 -1.537474 2.035196 0.002305 0.001875 -2485.960000 0 0 1
0.631503 -28.786054 -13.197728 31.673581 -1.548862 2.000586 -0.009931 0.012794 -564592.000000 0 0 1
-0.731197 -29.332314 -13.587628 32.334856 1.545873 2.004480 -0.016633 0.009824 -25262.600000 0 0 1
-1.852597 -28.677414 -13.011028 31.545412 1.506285 1.995942 -0.015339 0.004540 314005.000000 0 0 1
-3.079797 -29.326834 -13.320128 32.356980 1.466164 1.995073 -0.016091 0.009129 632814.000000 0 0 1
-4.380897 -28.624694 -12.819928 31.668848 1.418929 1.987569 -0.027520 0.007729 404008.000000 0 0 1
-4.539597 -28.560004 -11.437628 31.098249 1.413166 1.947428 -0.027687 -0.004227 -7419.090000 0 0 1
-5.191697 -29.713024 -10.914628 32.077198 1.397815 1.917991 -0.025010 0.000872 -342536.000000 0 0 1
-5.336697 -29.681964 -9.396528 31.587878 1.392901 1.872841 -0.022593 -0.004219 655651.000000 0 0 1
-6.528797 -29.076994 -8.841328 31.084817 1.349925 1.859204 -0.007479 -0.006822 483699.000000 0 0 1
-6.719497 -27.667834 -8.895528 29.829366 1.332546 1.873617 -0.004844 -0.005082 454117.000000 0 0 1
-8.236897 -27.349644 -8.518928 29.806403 1.278266 1.860646 -0.001043 -0.009912 1745370.000000 0 0 1
-9.236497 -27.608784 -9.515628 30.628500 1.247952 1.886703 0.016239 -0.000206 284123.000000 0 0 1
-9.564997 -29.010564 -9.604028 32.020920 1.252313 1.875415 0.019408 -0.011332 -500121.000000 0 0 1
-10.599197 -29.382414 -10.701528 33.018055 1.224592 1.900869 0.031888 -0.004372 -316999.000000 0 0 1
-10.302897 -29.104844 -12.059028 33.146067 1.230569 1.943156 0.042237 -0.008276 -208365.000000 0 0 1
-11.195097 -29.697984 -12.967928 34.285093 1.210304 1.958689 0.044977 -0.004763 -628039.000000 0 0 1
-11.261697 -28.960974 -14.335528 34.220917 1.199932 2.003042 0.061647 -0.010336 138944.000000 0 0 1
-12.356497 -28.071354 -14.555528 33.949187 1.156137 2.013899 0.043643 -0.027647 370554.000000 0 0 1
-12.550497 -26.993364 -13.617728 32.735290 1.135582 1.999833 0.053929 -0.015361 -54419.600000 0 0 1
-13.583097 -25.930024 -14.087628 32.485811 1.088262 2.019341 0.079449 -0.020072 266809.000000 0 0 1
-13.055697 -24.955364 -14.976528 31.898555 1.088791 2.059526 0.067357 -0.020246 366999.000000 0 0 1
-14.093297 -24.037264 -15.295328 31.786131 1.040504 2.072814 0.083480 -0.019159 -18445.100000 0 0 1
-13.852897 -23.262664 -16.589628 31.753268 1.033693 2.120523 0.078444 -0.024903 -235416.000000 0 0 1
-12.991097 -22.171964 -16.452928 30.513332 1.040791 2.140289 0.054012 -0.019531 -49134.300000 0 0 1
-12.826697 -21.471064 -17.619628 30.593823 1.032295 2.184527 0.035442 -0.006140 -340769.000000 0 0 1
-13.022797 -19.922964 -17.557628 29.576816 0.991854 2.206356 0.029907 0.002620 -254929.000000 0 0 1
-11.889297 -19.126464 -17.268228 28.379019 1.014635 2.224947 0.034802 -0.002878 8375.910000 0 0 1
-12.072597 -17.759664 -17.442928 27.666026 0.973773 2.252970 0.034697 0.006345 -1041700.000000 0 0 1
-10.799397 -17.041864 -17.744628 26.868642 1.005967 2.292176 0.031828 -0.005421 -1359580.000000 0 0 1
-10.164397 -16.505964 -16.649528 25.553250 1.018839 2.280438 0.029733 0.005295 134857.000000 0 0 1
-8.967997 -15.862764 -17.119628 25.002678 1.056245 2.325004 0.037508 0.002135 -369811.000000 0 0 1
-8.295597 -14.964964 -16.093028 23.489415 1.064631 2.325562 0.036348 0.009466 -234754.000000 0 1 0
-7.853697 -15.675564 -14.961728 23.049016 1.106337 2.277232 0.024666 0.007771 -302922.000000 0 1 0
-6.665497 -16.390764 -15.160428 23.300742 1.184560 2.279225 0.017332 0.002169 -789906.000000 0 1 0
-6.173997 -17.205864 -13.917428 22.975091 1.226276 2.221519 0.007440 0.004256 -389107.000000 0 1 0
-5.634397 -16.516964 -12.809228 21.647929 1.242047 2.203971 0.003267 0.002548 130289.000000 0 1 0
-5.589997 -17.193564 -11.559028 21.458747 1.256455 2.139645 0.006656 -0.007717 42735.300000 0 1 0
-4.558197 -18.375764 -11.552628 22.179023 1.327649 2.118679 0.011290 -0.005333 107267.000000 0 1 0
-3.221497 -17.921764 -11.626028 21.603986 1.392942 2.139028 0.009897 -0.004729 -301747.000000 0 1 0
-2.318497 -19.001664 -11.471428 22.316638 1.449381 2.110673 0.016198 0.002848 690233.000000 0 1 0
-0.853597 -18.701164 -11.896728 22.180945 1.525184 2.136902 0.012759 0.019000 37491.700000 0 1 0
-0.659097 -18.539164 -13.298828 22.825289 1.535260 2.192764 0.019404 0.018145 -454439.000000 0 1 0
0.594803 -17.980964 -13.574128 22.537209 -1.537729 2.217174 0.017237 0.015206 1039970.000000 0 1 0
1.933503 -18.820764 -13.636328 23.321857 -1.468423 2.195309 0.014312 0.009910 594091.000000 0 1 0
2.004203 -19.766764 -14.722028 24.728120 -1.469749 2.208505 0.024562 0.017279 74710.700000 0 1 0
1.303103 -21.005464 -14.495528 25.554802 -1.508839 2.173938 0.020518 0.016459 -648362.000000 0 0 1
1.309703 -21.987664 -15.683428 27.039649 -1.511301 2.189545 0.030914 0.009544 419451.000000 0 0 1
2.489903 -22.736864 -15.932928 27.875129 -1.461721 2.179229 0.010025 0.012513 12979.700000 0 0 1
3.636803 -21.980464 -16.256928 27.579972 -1.406826 2.201170 0.002393 0.005930 -718248.000000 0 0 1
4.816103 -22.831164 -16.708628 28.699044 -1.362900 2.192230 0.003973 0.020561 -261165.000000 0 0 1
4.676803 -23.383264 -17.989228 29.870752 -1.373395 2.217095 0.005354 0.014741 76293.200000 0 0 1
5.915703 -23.899564 -18.438128 30.759539 -1.328150 2.213583 -0.000276 0.015543 360387.000000 0 0 1
6.196503 -23.739564 -19.952728 31.623961 -1.315473 2.253557 -0.004443 0.014985 -80694.600000 0 0 1
6.212003 -22.423764 -20.462828 30.986150 -1.300546 2.292129 0.006761 0.009434 25079.500000 0 0 1
6.553203 -22.414264 -21.839428 31.973494 -1.286356 2.322724 0.009468 0.004092 -16849.000000 0 0 1
6.848103 -21.014164 -22.352228 31.434276 -1.255768 2.361827 0.004781 -0.005719 -401140.000000 0 0 1
5.757503 -20.266464 -22.768228 31.020487 -1.293999 2.394951 0.016440 -0.002310 -570723.000000 0 0 1
6.128903 -18.931364 -23.011828 30.422101 -1.257701 2.428616 0.031902 -0.011293 -390251.000000 0 0 1
4.916603 -18.080864 -23.293128 29.894154 -1.305293 2.464164 0.031483 -0.006723 -1886250.000000 0 0 1
4.286703 -18.271164 -24.496728 30.859374 -1.340349 2.487858 0.026493 -0.007801 -294899.000000 0 0 1
3.280003 -17.339564 -24.813828 30.449055 -1.383842 2.523404 0.025936 -0.005210 275801.000000 0 0 1
2.023403 -17.285164 -23.928228 29.587686 -1.454267 2.512773 0.034208 -0.001885 -811831.000000 0 0 1
2.256403 -16.514364 -22.743128 28.196905 -1.435004 2.509144 0.033082 -0.005827 -956212.000000 0 0 1
1.052803 -15.987464 -22.335628 27.487955 -1.505039 2.519328 0.026005 -0.006804 -452712.000000 0 0 1
1.316603 -15.336264 -20.982028 26.022681 -1.485157 2.508662 0.023478 0.000601 50282.700000 0 0 1
2.161703 -14.225664 -21.036728 25.486985 -1.419992 2.541691 0.014850 0.003425 -273745.000000 0 0 1
2.038803 -13.552764 -19.773928 24.059143 -1.421481 2.535514 0.007514 0.003519 -209297.000000 0 1 0
3.083103 -12.431464 -19.690028 23.489232 -1.327693 2.564876 0.004549 -0.005519 -499078.000000 0 1 0
4.343103 -13.046064 -19.540228 23.893155 -1.249431 2.528404 0.003177 -0.005270 296849.000000 0 1 0
5.540003 -12.257364 -19.678128 23.836177 -1.146302 2.541985 0.010859 -0.004173 1206330.000000 0 1 0
5.781103 -11.242964 -18.530428 22.432168 -1.095855 2.542886 0.011441 -0.004088 -1072440.000000 0 1 0
4.918503 -10.137464 -18.504328 21.664949 -1.119074 2.594640 -0.000443 0.003658 -291340.000000 0 1 0
5.228503 -9.025664 -19.342528 21.975742 -1.045742 2.647030 0.008344 -0.003847 -300211.000000 0 1 0
4.691303 -9.015364 -20.812928 23.161673 -1.090988 2.687350 0.017843 -0.011191 -235754.000000 0 1 0
3.285903 -9.044964 -20.815528 22.932395 -1.222335 2.708545 0.018458 -0.018886 -567870.000000 0 1 0
2.795503 -9.186664 -22.113428 24.108366 -1.275399 2.731920 0.015253 -0.020120 -356487.000000 0 1 0
1.279003 -9.054564 -22.199028 24.008703 -1.430470 2.750844 0.014942 -0.018478 -430460.000000 0 1 0
0.853303 -7.751664 -21.855428 23.205089 -1.461158 2.798854 0.009399 -0.017260 -291304.000000 0 1 0
-0.557497 -7.649164 -21.973728 23.273702 1.498042 2.805784 0.010165 -0.017138 465734.000000 0 1 0
-1.128297 -6.699264 -23.053728 24.033883 1.403941 2.855018 0.016422 -0.011580 -123744.000000 0 1 0
-0.763497 -7.156564 -24.339828 25.381618 1.464514 2.854090 0.024230 -0.017073 -185898.000000 0 0 1
-1.303297 -6.417564 -25.434158 26.263665 1.370438 2.889595 0.011518 -0.010954 -82938.000000 0 0 1
-0.745797 -4.978064 -25.688748 26.177263 1.422086 2.948098 0.020317 -0.015752 -594847.000000 0 0 1
-1.194797 -4.535764 -26.955858 27.360902 1.313230 2.969311 0.006527 -0.006581 45796.200000 0 0 1
-0.836097 -3.200264 -27.361308 27.560514 1.315250 3.021287 -0.000495 -0.002634 -901102.000000 0 0 1
-1.313497 -2.000164 -26.544698 26.652334 0.989729 3.051690 0.009744 -0.004267 109808.000000 0 0 1
-2.694997 -1.775864 -26.337008 26.534029 0.582640 3.019655 -0.005383 0.000075 300780.000000 0 0 1
-3.434297 -1.396164 -27.509758 27.758430 0.386128 3.007639 0.014240 -0.005632 94257.800000 0 0 1
-4.971997 -1.509264 -27.371088 27.859919 0.294713 2.953989 0.006961 -0.001305 223964.000000 0 0 1
-5.507497 -0.451564 -26.668188 27.234696 0.081808 2.937272 0.017282 0.006169 -1475540.000000 0 0 1
-6.869097 -0.497764 -26.489178 27.369852 0.072338 2.887227 0.021657 -0.004222 -1151320.000000 0 0 1
-7.508097 0.739336 -25.774668 26.856128 -0.098155 2.856841 0.009777 0.004987 -1133850.000000 0 0 1
-7.559697 2.005636 -26.486468 27.617106 -0.259332 2.854461 0.016060 0.001566 222473.000000 0 0 1
-8.494897 2.069936 -27.550268 28.904414 -0.239010 2.834283 0.017950 0.002956 498906.000000 0 0 1
-9.961397 1.634036 -27.261848 29.070738 -0.162589 2.786966 0.011901 -0.004069 -412152.000000 0 0 1
-10.925997 2.142436 -28.193298 30.312200 -0.193629 2.765474 0.011113 -0.007672 850056.000000 0 0 1
-12.245097 1.733236 -27.805768 30.432010 -0.140611 2.723097 -0.016774 -0.004186 856923.000000 0 0 1
-13.314197 2.453436 -28.709928 31.741883 -0.182228 2.700957 -0.023676 0.002640 -995763.000000 0 0 1
-14.580997 1.921336 -28.519788 32.088554 -0.131015 2.665481 -0.014680 0.001233 -639098.000000 0 0 1
-15.534797 2.483436 -29.408418 33.351947 -0.158521 2.650377 -0.013754 0.004259 -74394.900000 0 0 1
-16.250497 3.771136 -29.049778 33.499100 -0.228027 2.620309 -0.016675 0.014764 -1178940.000000 0 0 1
-15.430797 4.900636 -29.021568 33.232170 -0.307513 2.632726 -0.010860 0.009943 -41575.100000 0 0 1
-15.065597 5.565936 -30.220578 34.223313 -0.353893 2.653099 -0.015314 -0.000040 -729599.000000 0 0 1
-16.219097 6.194836 -30.986108 35.518642 -0.364847 2.630867 -0.013014 0.006954 -400650.000000 0 0 1
-16.895597 7.189736 -30.258108 35.393595 -0.402327 2.596161 -0.013150 0.004303 241972.000000 0 0 1
-17.876197 7.853036 -31.049328 36.678186 -0.413921 2.580236 -0.009271 -0.002624 -75956.700000 0 0 1
-18.666697 8.845436 -30.184078 36.575481 -0.442519 2.541449 0.003064 -0.003477 -344398.000000 0 0 1
-17.844697 9.963836 -29.852218 36.178255 -0.509242 2.541251 0.008176 -0.000857 553776.000000 0 0 1
-18.514197 10.869836 -28.999548 36.081887 -0.530886 2.504309 0.024089 -0.006409 -273610.000000 0 0 1
-8.080497 25.336936 30.961725 40.815232 -1.262072 0.709661 -0.034119 0.013451 -87686.100000 0 0 1
-8.963697 26.478536 30.962635 41.715051 -1.244379 0.734388 -0.017761 0.011994 378693.000000 0 0 1
-8.820497 27.379236 32.067975 43.078750 -1.259135 0.731155 -0.008172 0.007607 96251.300000 0 0 1
-7.483297 28.157436 31.975655 43.258334 -1.311035 0.738946 -0.009055 0.001023 2314.350000 0 0 1
-7.380897 29.115936 30.969215 43.142875 -1.322526 0.770117 0.018802 -0.000007 -1380780.000000 0 0 1
-6.118597 29.358936 30.541565 42.803873 -1.365331 0.776282 0.011727 0.006971 -1721120.000000 0 0 1
-6.127097 30.372036 29.405205 42.716132 -1.371733 0.811534 0.044248 -0.005827 -340002.000000 0 0 1
-6.385597 31.694336 29.805775 43.973753 -1.371983 0.826019 0.047522 -0.007636 156061.000000 0 0 1
-5.857997 32.668836 28.954955 44.044959 -1.393367 0.853439 0.057664 -0.010473 -216697.000000 0 0 1
-6.000497 34.058236 29.589985 45.514136 -1.396403 0.863044 0.061260 -0.013022 -81256.200000 0 0 1
-5.056097 34.327336 30.613315 46.272077 -1.424557 0.847854 0.042913 -0.019252 141340.000000 0 0 1
-5.546297 -34.089020 31.702865 46.881705 1.409509 0.828162 0.040074 -0.013242 646732.000000 0 0 1
-6.685397 -34.593520 32.683585 48.058536 1.379894 0.822926 0.036623 -0.006316 630870.000000 0 0 1
-6.387397 33.677836 33.635707 48.024538 -1.383361 0.794858 0.040867 0.000972 -16199.400000 0 0 1
-6.573897 32.451236 33.071565 46.797727 -1.370923 0.785985 0.035219 -0.000954 -367117.000000 0 0 1
-6.472197 31.286236 34.090551 46.721339 -1.366803 0.752976 0.024183 0.003415 617762.000000 0 0 1
-5.202597 31.153336 -34.510203 46.781956 -1.405324 2.400427 0.012913 -0.000791 423317.000000 0 0 1
-5.327897 31.084736 -33.121858 45.735159 -1.401047 2.380684 0.007371 0.006441 -596452.000000 0 0 1
-4.014597 30.818536 -32.348898 44.859228 -1.441260 2.376214 -0.014508 0.012006 589184.000000 0 0 1
-3.325697 29.561036 -32.592018 44.126576 -1.458765 2.401792 -0.021317 0.017835 489598.000000 0 0 1
-2.810997 29.414436 -33.916518 44.982673 -1.475520 2.424913 -0.010581 0.012456 -909979.000000 0 0 1
-2.397397 28.011836 -34.338598 44.379610 -1.485419 2.455531 -0.012058 0.006768 206028.000000 0 0 1
-1.212497 27.580136 -33.637388 43.515605 -1.526862 2.454346 0.010202 0.018976 739993.000000 0 0 1
-0.831997 26.218036 -33.862888 42.834248 -1.539073 2.482513 0.010376 0.019462 -107742.000000 0 0 1
-0.374497 25.828236 33.980232 42.683652 -1.556298 0.649982 0.004353 0.016784 -861756.000000 0 0 1
-1.307297 25.278036 33.073375 41.647764 -1.519126 0.653236 0.002194 0.020745 -321009.000000 0 0 1
-0.988497 25.267336 31.702135 40.551705 -1.531695 0.673296 0.016137 0.015829 -796741.000000 0 0 1
-0.710597 26.694536 31.140695 41.022507 -1.544183 0.708848 0.007491 0.010257 47622.400000 0 0 1
-1.790097 27.607636 31.261965 41.745616 -1.506046 0.724444 -0.007480 0.002861 43793.200000 0 0 1
-1.514397 28.705236 30.413545 41.848150 -1.518088 0.757204 -0.007683 -0.002608 186161.000000 0 0 1
-2.504197 29.885136 30.489805 42.767050 -1.487198 0.777132 -0.000551 -0.005660 -325190.000000 0 0 1
-2.318597 30.521636 31.749055 44.101572 -1.494976 0.767127 0.011044 -0.003296 -208339.000000 0 0 1
-3.049397 31.679636 31.919875 45.075232 -1.474835 0.783926 0.017339 -0.000492 -527681.000000 0 0 1
-2.468797 32.487236 33.073595 46.426050 -1.494949 0.777894 0.023096 0.003834 -275729.000000 0 0 1
-1.177597 32.919436 32.800565 46.486052 -1.535039 0.787527 0.006954 -0.010987 -520778.000000 0 0 1
-0.401897 33.358936 33.910197 47.569755 -1.558749 0.777240 -0.012498 -0.000195 64774.300000 0 0 1
0.983203 33.910436 33.576860 47.731435 1.541810 0.790551 0.002814 -0.014002 -293780.000000 0 0 1
0.911703 -34.058320 33.108385 47.507531 -1.544034 0.799719 0.022676 -0.022769 -263222.000000 0 0 1
2.135903 -33.556120 32.680055 46.888818 -1.507230 0.799634 -0.008115 -0.022265 -481903.000000 0 0 1
1.950703 -32.124420 32.283655 45.585282 -1.510147 0.783846 -0.003892 -0.020363 -524996.000000 0 0 1
1.698803 -31.247320 33.401607 45.770605 -1.516483 0.752824 -0.001490 -0.010748 104946.000000 0 0 1
1.618903 -29.925320 32.885515 44.492726 -1.516751 0.739032 0.014406 -0.017343 -152041.000000 0 0 1
1.305503 -29.030220 34.064200 44.775302 -1.525856 0.706281 0.011167 -0.013380 -655519.000000 0 0 1
-0.029497 -29.049020 34.454753 45.066356 1.569781 0.700479 0.002694 -0.005279 -645266.000000 0 0 1
-0.196997 -28.255920 -33.642128 43.934366 1.563825 2.442981 0.000600 0.006794 718378.000000 0 0 1
-1.705697 -28.310820 -33.214228 43.676044 1.510620 2.434830 -0.014394 0.014010 709033.000000 0 0 1
-1.879297 -27.843420 -31.899478 42.383540 1.503403 2.422856 -0.010991 0.007949 73864.500000 0 0 1
-2.850597 -26.828520 -31.874168 41.759525 1.464941 2.439170 0.000340 0.008452 -354187.000000 0 0 1
-2.960897 -26.194420 -30.485638 40.302464 1.458239 2.428621 0.005479 0.000807 -139691.000000 0 0 1
-3.671597 -27.077020 -29.611648 40.292621 1.436020 2.396338 0.001234 0.010849 152698.000000 0 0 1
-4.092397 -26.471420 -28.376268 39.021742 1.417414 2.385018 -0.000341 0.005910 -178156.000000 0 0 1
-3.034397 -25.954520 -27.393208 37.858057 1.454413 2.379766 0.002942 0.002962 -120792.000000 0 0 1
-2.370597 -24.737120 -27.736118 37.240261 1.475257 2.411014 0.001775 0.010428 272806.000000 0 0 1
-1.258997 -24.547920 -26.873908 36.419670 1.519554 2.400743 -0.007539 0.012935 -52596.300000 0 0 1
-0.274297 -23.436720 -27.378988 36.041144 1.559093 2.433585 -0.011605 0.018203 669775.000000 0 0 1
0.260703 -23.737420 -28.711258 37.254119 -1.559814 2.450715 -0.028133 0.017228 314755.000000 0 0 1
1.050703 -24.888420 -28.978938 38.214084 -1.528605 2.431546 -0.006516 0.019964 -248606.000000 0 0 1
1.574603 -24.908020 -30.456668 39.376356 -1.507664 2.455103 -0.010832 0.017173 422141.000000 0 0 1
2.626103 -23.950620 -30.572868 38.925940 -1.461586 2.474156 -0.018220 0.017837 274542.000000 0 0 1
3.320303 -23.957820 -31.787408 39.942970 -1.433084 2.491157 -0.012705 0.014785 205459.000000 0 0 1
4.537603 -22.971920 -31.781828 39.476366 -1.375779 2.506615 -0.002663 0.001039 323687.000000 0 0 1
5.606703 -23.103520 -30.842578 38.941910 -1.332721 2.484899 -0.007149 -0.008020 1578510.000000 0 0 1
6.563003 -24.208220 -30.875928 39.779817 -1.306054 2.459366 -0.002903 -0.002412 823065.000000 0 0 1
7.347303 -24.472720 -32.210868 41.114923 -1.279134 2.470970 0.002520 0.003886 -579016.000000 0 0 1
6.558403 -25.268620 -33.103608 42.158803 -1.316852 2.473835 -0.019173 0.004266 227220.000000 0 0 1
6.879903 -25.253620 -34.501434 43.306204 -1.304819 2.492588 -0.013339 0.008954 -253073.000000 0 0 1
6.436703 -23.990220 34.040962 42.139635 -1.308665 0.630363 -0.014467 0.007000 -326616.000000 0 0 1
5.053003 -23.717320 34.072756 41.821009 -1.360884 0.618536 -0.007321 0.001529 -340691.000000 0 0 1
4.705103 -22.775420 33.163855 40.505543 -1.367075 0.611568 0.006098 -0.002064 -930805.000000 0 0 1
3.311303 -22.225020 33.441835 40.289857 -1.422894 0.591633 0.006717 -0.012588 248455.000000 0 0 1
2.136803 -23.002920 33.229260 40.470779 -1.478169 0.607517 0.009530 -0.005731 422300.000000 0 0 1
1.885603 -23.993420 34.212830 41.830102 -1.492369 0.613045 0.007575 0.001141 -286884.000000 0 0 1
0.593403 -24.778220 33.866938 41.967628 -1.546852 0.631780 0.000902 -0.004891 434590.000000 0 0 1
0.740103 -25.666720 32.764445 41.627360 -1.541969 0.664721 0.005074 -0.011894 -521974.000000 0 0 1
-0.535197 -26.044320 32.351345 41.535557 1.550250 0.677913 0.009966 -0.023384 -392473.000000 0 0 1
-0.532297 -26.993820 31.154625 41.225724 1.551080 0.714061 0.021036 -0.040424 137998.000000 0 0 1
-1.828897 -27.281020 30.655435 41.077422 1.503857 0.728334 0.020224 -0.036683 219200.000000 0 0 1
-1.888697 -28.419420 29.821085 41.237455 1.504436 0.762436 0.020364 -0.040745 565187.000000 0 0 1
-3.228597 -28.468220 28.988865 40.758038 1.457868 0.779532 0.025923 -0.034197 1125780.000000 0 0 1
-4.363097 -28.859520 29.754075 41.679893 1.420749 0.775785 0.026080 -0.026877 535667.000000 0 0 1
-5.462997 -29.264020 28.937915 41.516624 1.386241 0.799563 0.023179 -0.015614 397365.000000 0 0 1
-6.672797 -29.718020 29.789685 42.604134 1.349923 0.796490 0.027245 -0.003460 -753750.000000 0 0 1
-7.784797 -30.159720 29.086705 42.617463 1.318191 0.819609 0.040632 0.001959 -505986.000000 0 0 1
-8.937097 -30.411120 29.840275 43.533319 1.284967 0.815563 0.035877 0.007005 -314718.000000 0 0 1
-8.895497 -31.655120 30.788315 45.045497 1.296849 0.818258 0.040072 0.008730 -791107.000000 0 0 1
-8.837497 -32.927120 30.183275 45.533797 1.308580 0.846142 0.049647 0.003757 -1002830.000000 0 0 1
-10.020597 -33.321920 29.644255 45.711536 1.278678 0.865175 0.038147 0.003678 -1343310.000000 0 0 1
-10.005997 34.507636 29.120835 46.248459 -1.288571 0.889680 0.050621 0.003194 -155794.000000 0 0 1
-9.830997 33.596336 30.164355 46.208772 -1.286123 0.859542 0.052815 0.002380 200686.000000 0 0 1
-9.635397 32.287136 29.787555 44.973308 -1.280782 0.846860 0.052191 -0.006430 -451645.000000 0 0 1
-10.166097 31.300236 30.793585 45.069936 -1.256752 0.818606 0.039380 0.009780 282337.000000 0 0 1
-11.590797 31.280636 30.819715 45.416732 -1.215940 0.824944 0.024611 0.022756 365593.000000 0 0 1
-12.174897 30.017136 31.188885 44.966689 -1.185473 0.804322 0.017951 0.020381 179244.000000 0 0 1
-12.072897 29.634136 32.717655 45.764416 -1.183928 0.774294 0.015951 0.000946 -670366.000000 0 0 1
-13.037097 30.326436 33.432489 46.982868 -1.164789 0.779039 0.013635 0.010328 -200980.000000 0 0 1
-13.212197 29.805236 -34.533970 47.492202 -1.153541 2.384958 0.019686 0.005144 -406056.000000 0 0 1
-14.504297 30.232536 -33.845538 47.643481 -1.123473 2.360851 0.006186 0.003693 -334805.000000 0 0 1
-14.652097 29.595536 -32.602048 46.405530 -1.111094 2.349766 0.013230 -0.001967 -672471.000000 0 0 1
-15.777597 30.073736 -31.947768 46.626409 -1.087639 2.325656 0.012194 -0.004349 -406969.000000 0 0 1
-15.895497 29.753236 -30.424508 45.426562 -1.080130 2.304670 0.038262 -0.014207 -288726.000000 0 0 1
-16.120897 28.425536 -30.190928 44.490297 -1.054899 2.316645 0.032878 -0.015242 100767.000000 0 0 1
-16.201197 28.101536 -28.830238 43.397669 -1.047818 2.297389 0.041059 -0.012855 -174629.000000 0 0 1
-16.865697 26.737136 -28.512078 42.570703 -1.008039 2.304679 0.004233 -0.015101 -468753.000000 0 0 1
-18.223397 26.744436 -28.822018 43.336656 -0.972670 2.298387 0.004118 -0.008408 -760699.000000 0 0 1
-18.751897 25.430036 -28.673188 42.666990 -0.935414 2.307733 -0.015009 -0.015164 90403.700000 0 0 1
-20.244497 25.372136 -29.064528 43.569848 -0.897336 2.301077 0.004442 -0.012519 50115.200000 0 0 1
-21.132797 25.805936 -28.048118 43.580251 -0.884629 2.269985 0.002662 -0.008030 1422050.000000 0 0 1
-22.496897 25.361436 -28.343628 44.189071 -0.845181 2.267140 0.002729 -0.013471 1886630.000000 0 0 1
-23.386697 25.174436 -27.069968 43.743262 -0.822196 2.238058 0.020102 -0.011241 346802.000000 0 0 1
-23.855997 26.411736 -26.534318 44.393224 -0.836197 2.211439 0.002548 0.005834 -146213.000000 0 0 1
-24.873097 26.376436 -25.560978 44.359338 -0.814723 2.184899 0.004981 0.017405 -464773.000000 0 0 1
-24.530397 25.786236 -24.139528 43.004501 -0.810352 2.166783 -0.011264 0.015510 -709260.000000 0 0 1
-24.285497 24.366136 -24.070728 41.986829 -0.787056 2.181315 -0.013363 0.010053 -391901.000000 0 0 1
-25.413357 23.550536 -23.912728 42.098515 -0.747372 2.174892 -0.010126 0.006897 -434632.000000 0 0 1
-26.111297 23.555036 -22.511228 41.753981 -0.733975 2.140212 -0.019721 0.009148 -134290.000000 0 0 1
-25.346177 23.170836 -21.377028 40.451126 -0.740592 2.127588 -0.025968 0.004000 -461264.000000 0 0 1
-24.398797 24.074336 -20.970728 40.182662 -0.778705 2.119856 -0.024275 0.008875 -1211930.000000 0 0 1
-23.626897 23.675936 -19.746528 38.842059 -0.786435 2.104099 -0.014578 -0.006743 -791160.000000 0 0 1
-24.223997 23.504336 -18.506228 38.493328 -0.770321 2.072323 -0.019419 -0.010830 -40336.800000 0 0 1
-23.153997 23.386336 -17.568728 37.305341 -0.790390 2.061157 -0.011324 -0.008731 140176.000000 0 0 1
-23.486397 23.346636 -16.024728 36.789511 -0.782414 2.021477 -0.019661 -0.005286 -394561.000000 0 0 1
-23.805997 24.612036 -15.488928 37.581706 -0.802044 1.995598 -0.016929 -0.011740 -39942.900000 0 0 1
-24.231897 24.613436 -14.174928 37.335434 -0.793209 1.960230 -0.027777 -0.009970 -384411.000000 0 0 1
-24.596297 26.033636 -13.659928 38.331731 -0.813780 1.935166 -0.019060 -0.010550 892178.000000 0 0 1
-23.472697 26.911136 -13.400328 38.141126 -0.853537 1.929793 -0.020373 -0.004387 1017090.000000 0 0 1
-23.863897 27.811036 -12.340928 38.668304 -0.861634 1.895627 -0.012041 -0.004088 325766.000000 0 0 1
-22.577197 28.527236 -11.856428 38.263662 -0.901305 1.885843 0.000374 0.003144 745933.000000 0 0 1
-21.620897 27.557536 -11.333728 36.814866 -0.905533 1.883737 0.001171 -0.002576 350931.000000 0 0 1
-20.483097 28.249336 -10.856628 36.543790 -0.943434 1.872435 0.006241 -0.001363 80919.100000 0 0 1
-19.489597 27.166236 -10.327428 34.992921 -0.948475 1.870387 0.017638 -0.001782 -236238.000000 0 0 1
-18.825097 26.418436 -11.284328 34.346092 -0.951681 1.905562 0.010045 -0.001687 -432022.000000 0 0 1
-18.235097 25.318936 -10.662928 32.973706 -0.946631 1.900092 0.012442 0.007351 -277803.000000 0 0 1
-17.562797 24.292436 -11.626728 32.152061 -0.944817 1.940798 0.007491 0.004895 -4978.040000 0 0 1
-17.219797 23.073036 -10.994828 30.818381 -0.929657 1.935596 0.000616 0.011751 78583.100000 0 0 1
-16.787297 22.198036 -12.021128 30.316227 -0.923306 1.978524 0.006933 0.013808 328386.000000 0 0 1
-16.331997 20.754636 -11.487028 28.800014 -0.904089 1.981064 -0.002941 0.014253 -120407.000000 0 0 1
-17.504597 19.992136 -11.259728 28.859623 -0.851641 1.971596 -0.010528 0.016953 445747.000000 0 0 1
-17.142397 18.704036 -10.880828 27.606070 -0.828935 1.975935 0.001318 0.006402 -766995.000000 0 0 1
-18.347497 17.762136 -10.731528 27.699996 -0.769189 1.968628 -0.002839 0.002005 -52052.100000 0 0 1
-18.929197 17.217936 -11.929628 28.232744 -0.738092 2.007049 -0.014930 0.009512 421636.000000 0 0 1
-19.290197 18.115736 -12.984428 29.476888 -0.754011 2.026947 -0.022488 0.015380 -678013.000000 0 0 1
-20.116097 17.447036 -14.130128 30.144932 -0.714462 2.058660 -0.011067 0.006162 122082.000000 0 0 1
-19.330397 16.996636 -15.224928 29.905656 -0.721243 2.104934 0.004517 0.012382 475307.000000 0 0 1
-20.169197 16.720336 -16.333128 30.872920 -0.692178 2.128270 -0.000224 0.010188 178563.000000 0 0 1
-19.312397 16.368436 -17.588128 30.825908 -0.703076 2.177988 0.026761 0.008459 -161149.000000 0 0 1
-18.697797 17.588036 -17.983328 31.342410 -0.754824 2.181898 0.007216 0.001894 -162465.000000 0 0 1
-18.029097 17.259736 -19.156828 31.463167 -0.763600 2.225426 0.001952 0.010439 -638226.000000 0 0 1
-17.010397 18.322636 -19.674728 31.814580 -0.822520 2.237525 -0.009405 0.008435 -569784.000000 0 0 1
-15.984197 18.401336 -18.737728 30.744205 -0.855578 2.226191 -0.002685 0.007297 -447033.000000 0 0 1
-15.158197 19.510336 -19.073528 31.212555 -0.910281 2.228227 0.009112 0.008672 8204.060000 0 0 1
31.410842 31.646836 1.882272 44.628535 0.789141 1.528607 0.036320 -0.014991 -818870.000000 0 0 1
32.721402 31.448036 1.498372 45.408305 0.765557 1.537793 0.027116 -0.008531 -830453.000000 0 0 1
32.953742 32.034836 0.226572 45.959016 0.771260 1.565866 0.013134 -0.003415 -1151680.000000 0 0 1
34.369228 31.813736 -0.214728 46.833788 0.746805 1.575381 -0.006941 0.003818 -970422.000000 0 0 1
-34.582055 32.463236 0.559372 47.435146 -0.753806 1.559004 -0.020287 0.004208 155026.000000 0 0 1
-33.369187 32.497636 -0.166128 46.579250 -0.772167 1.574363 -0.022233 0.005840 155678.000000 0 0 1
-32.411617 33.635136 0.334372 46.711316 -0.803921 1.563638 -0.031027 0.006529 -257003.000000 0 0 1
-31.633337 33.432336 1.451372 46.048839 -0.813040 1.539273 -0.023065 0.005263 -184022.000000 0 0 1
-31.154847 34.643736 1.953672 46.632925 -0.838372 1.528889 -0.018166 0.006616 -343581.000000 0 0 1
-30.575347 34.521636 3.365772 46.237686 -0.845946 1.497939 -0.007868 0.017095 -401430.000000 0 0 1
-30.138157 -33.540020 3.875772 45.257740 0.838770 1.485054 0.001607 0.018303 94108.500000 0 0 1
-29.521097 -33.732620 5.154972 45.121597 0.851881 1.456300 0.016009 -0.000395 -336211.000000 0 0 1
-29.509147 -32.357820 5.966472 44.197477 0.831411 1.435387 0.029978 -0.002584 -236499.000000 0 0 1
-30.740527 -31.974920 6.515372 44.831078 0.805078 1.424948 0.018297 -0.006278 -176506.000000 0 0 1
-31.185457 -32.747320 7.597372 45.854549 0.809823 1.404345 0.025213 -0.016512 -1149010.000000 0 0 1
-32.355037 -32.115020 8.375572 46.350546 0.781675 1.389098 0.038443 -0.015287 95855.500000 0 0 1
-33.634237 -32.022220 7.797572 47.090196 0.760851 1.404442 0.016879 -0.011715 266046.000000 0 0 1
-34.285671 -33.279820 7.579972 48.378813 0.770512 1.413469 -0.002166 -0.011611 -1691380.000000 0 0 1
34.163047 -33.274320 7.431572 48.265126 -0.772220 1.416207 -0.009675 -0.005866 -1000680.000000 0 0 1
33.456972 -33.047720 8.627072 47.811579 -0.779245 1.389364 -0.018721 0.005139 -20267.100000 0 0 1
32.071142 -33.247320 8.449872 46.961077 -0.803403 1.389877 -0.045963 0.019822 -388078.000000 0 0 1
31.415312 -33.220720 9.824172 46.765932 -0.813323 1.359149 -0.055944 0.011614 -805287.000000 0 0 1
30.043752 -32.959320 9.699972 45.640259 -0.831642 1.356632 -0.045670 0.001955 190536.000000 0 0 1
29.327182 -32.687920 10.927772 45.254833 -0.839537 1.326914 -0.037665 0.013420 -279325.000000 0 0 1
29.659092 -31.412620 11.712172 44.761472 -0.814103 1.306057 -0.036921 0.009852 -879901.000000 0 0 1
29.287442 -30.130320 11.231372 43.494070 -0.799583 1.309609 -0.040103 0.005754 68971.000000 0 0 1
29.570302 -29.702020 9.933672 43.073084 -0.787620 1.338078 -0.033232 0.001955 -506070.000000 0 0 1
29.026642 -28.344120 9.567272 41.682943 -0.773502 1.339207 -0.027960 -0.002766 -337329.000000 0 0 1
29.361402 -27.904020 8.245472 41.336594 -0.759954 1.369978 -0.018267 -0.004560 141423.000000 0 0 1
28.811322 -26.593520 7.939372 40.004264 -0.745390 1.371007 -0.011984 -0.001346 173397.000000 0 0 1
28.843742 -26.185020 6.434772 39.484465 -0.737121 1.407096 -0.018906 0.009394 -552579.000000 0 0 1
30.050712 -25.611420 6.089972 39.950943 -0.705812 1.417763 -0.002162 0.001042 -1085430.000000 0 0 1
30.205112 -25.183320 4.747972 39.611761 -0.694980 1.450645 0.003624 0.005013 -651665.000000 0 0 1
31.599892 -24.712520 4.397172 40.355878 -0.663696 1.461620 0.024068 -0.004237 -187363.000000 0 0 1
32.462212 -25.814520 4.045972 41.671987 -0.671818 1.473552 0.012167 0.007642 368477.000000 0 0 1
33.824062 -25.384220 4.043072 42.482610 -0.643807 1.475482 0.027069 -0.004842 624000.000000 0 0 1
34.770081 -26.592120 4.221572 43.976369 -0.652905 1.474652 0.024539 -0.005738 -231154.000000 0 0 1
34.422032 -27.384220 5.353572 44.310636 -0.672018 1.449681 0.005437 0.000437 -130241.000000 0 0 1
34.903462 -28.719620 5.335472 45.514124 -0.688508 1.453299 0.002101 -0.001604 -1307660.000000 0 0 1
34.144132 -29.635020 6.306472 45.648962 -0.714817 1.432202 0.001097 -0.000959 150528.000000 0 0 1
32.838632 -30.048720 5.977772 44.911413 -0.741064 1.437299 -0.015628 0.010665 77124.700000 0 0 1
31.867232 -29.016020 6.138572 43.533113 -0.738602 1.429316 -0.016210 0.006003 -657973.000000 0 0 1
30.469252 -29.402820 5.619272 42.713901 -0.767588 1.438858 -0.038477 0.006557 -569073.000000 0 0 1
30.351622 -29.610620 4.217972 42.612217 -0.773041 1.471649 -0.037683 0.008661 355985.000000 0 0 1
29.035282 -29.389720 3.720372 41.480650 -0.791465 1.480986 -0.028703 0.015441 1069560.000000 0 0 1
27.865292 -30.380620 4.041572 41.422106 -0.828556 1.473070 -0.018835 0.011871 233302.000000 0 0 1
28.012272 -31.624320 3.350672 42.379381 -0.845892 1.491650 -0.019073 0.014608 -231898.000000 0 0 1
26.955242 -32.555720 3.540072 42.414526 -0.879230 1.487235 -0.002731 0.011099 -850945.000000 0 0 1
27.059482 -33.844220 2.731272 43.417814 -0.896342 1.507848 0.005525 0.002512 -577814.000000 0 0 1
26.646002 -33.740820 1.418972 43.017041 -0.902352 1.537804 0.008868 -0.002959 148238.000000 0 0 1
26.863332 34.327236 0.698372 43.594557 0.906777 1.554776 0.017791 0.000509 -83265.100000 0 0 1
26.640202 34.403436 -0.807628 43.519524 0.911894 1.589355 0.008465 0.003474 -338688.000000 0 0 1
27.667002 -34.248720 -1.537928 44.054546 -0.891302 1.605713 0.000595 0.001968 203950.000000 0 0 1
27.397582 -34.338420 -2.903828 44.024842 -0.897356 1.636803 0.004281 0.006123 124260.000000 0 0 1
28.557972 -33.759520 -3.786028 44.380141 -0.868674 1.656209 -0.007088 0.006972 451575.000000 0 0 1
28.763412 -32.365720 -3.693328 43.457040 -0.844260 1.655887 -0.012084 0.010339 -253685.000000 0 0 1
29.707292 -31.969320 -4.641428 43.887395 -0.822057 1.676752 -0.013910 0.012762 -241897.000000 0 0 1
29.979992 -30.422320 -4.709728 42.970908 -0.792721 1.680620 -0.007709 0.010034 -238834.000000 0 0 1
28.915362 -29.737620 -5.313128 41.816904 -0.799416 1.698198 -0.018521 0.006506 -379499.000000 0 0 1
29.069382 -28.301520 -5.340428 40.920962 -0.772015 1.701676 -0.009820 -0.007742 -131137.000000 0 0 1
30.068492 -27.774120 -6.391428 41.429051 -0.745753 1.725689 -0.000068 -0.005948 -701442.000000 0 0 1
31.410972 -27.943620 -6.024528 42.471048 -0.727047 1.713127 -0.005883 0.017262 -629174.000000 0 0 1
32.298522 -27.397520 -6.955428 42.920817 -0.703483 1.733567 -0.000441 0.011943 -88148.200000 0 0 1
32.656392 -28.290020 -8.170528 43.971839 -0.713878 1.757695 -0.008095 -0.007908 -1292720.000000 0 0 1
31.592672 -28.332120 -9.071328 43.394641 -0.731041 1.781392 -0.008579 -0.008186 -479294.000000 0 0 1
31.530532 -29.444420 -9.941728 44.271732 -0.751199 1.797289 -0.023914 0.005294 423662.000000 0 0 1
31.072712 -30.824620 -9.352728 44.756498 -0.781390 1.781317 -0.023698 0.002595 -228916.000000 0 0 1
32.196472 -31.308320 -8.672128 45.738708 -0.771413 1.761553 -0.023267 0.010197 -352086.000000 0 0 1
31.962862 -32.607720 -8.152528 46.382665 -0.795385 1.747481 -0.020386 0.007466 586188.000000 0 0 1
33.227312 -33.197120 -7.445328 47.555608 -0.784944 1.728004 -0.025364 0.009677 556194.000000 0 0 1
33.035512 -34.484120 -6.795228 48.235616 -0.806849 1.712142 -0.018720 0.004175 -108804.000000 0 0 1
32.422522 -34.502820 -5.523028 47.667267 -0.816472 1.686923 -0.010472 0.007438 -48311.100000 0 0 1
32.431882 33.359436 -4.914528 46.784949 0.799496 1.676036 -0.018803 0.003487 -668557.000000 0 0 1
31.624002 32.449536 -5.543028 45.648384 0.798282 1.692526 -0.012878 -0.011162 -399470.000000 0 0 1
31.677852 31.161436 -5.041928 44.720716 0.777180 1.683779 -0.014363 0.004974 -111786.000000 0 0 1
30.430062 30.355436 -5.432528 43.323821 0.784170 1.696521 -0.003655 -0.003478 -230366.000000 0 0 1
30.314592 30.120136 -6.822028 43.275133 0.782181 1.729100 -0.012925 0.004570 153340.000000 0 0 1
29.009222 29.633136 -7.094528 42.071249 0.796037 1.740237 -0.017957 0.005428 140357.000000 0 0 1
28.750232 29.409136 -8.589928 42.014997 0.796727 1.776697 -0.021117 0.004528 -390381.000000 0 0 1
29.434892 28.233536 -9.032428 41.774755 0.764569 1.788735 -0.011815 0.003220 132258.000000 0 0 1
29.505962 28.185336 -10.451428 42.121815 0.762511 1.821539 -0.028374 0.004511 5927.570000 0 0 1
30.573522 29.166036 -11.025728 43.668805 0.761842 1.826044 -0.014649 0.003346 -685292.000000 0 0 1
31.845862 28.561336 -10.845828 44.130950 0.731079 1.819105 -0.029022 -0.002377 -155699.000000 0 0 1
32.903852 29.394736 -11.211428 45.523731 0.729130 1.819633 -0.021499 -0.001088 -259702.000000 0 0 1
33.282962 30.663936 -10.309728 46.414685 0.744465 1.794787 -0.005978 -0.009105 -1024880.000000 0 0 1
34.126308 30.507536 -9.202828 46.690541 0.729468 1.769198 -0.013422 -0.007669 38625.100000 0 0 1
34.073740 31.717936 -8.484428 47.318418 0.749606 1.751076 -0.012783 -0.007150 -1155540.000000 0 0 1
-34.821304 31.736536 -7.376828 47.688033 -0.739084 1.726109 -0.011867 0.001284 231225.000000 0 0 1
-33.474447 31.928436 -7.771228 46.907948 -0.761764 1.737233 -0.004365 0.000811 131325.000000 0 0 1
-32.840867 30.877636 -8.505128 45.872520 -0.754597 1.757283 -0.002304 -0.009588 -656445.000000 0 0 1
-31.410397 31.399436 -8.872328 45.290791 -0.785224 1.767968 0.009788 -0.006789 354493.000000 0 0 1
-30.629997 31.724136 -7.708828 44.766545 -0.802944 1.743860 0.010936 -0.001682 422416.000000 0 0 1
-29.304397 32.181636 -7.924228 44.240239 -0.832159 1.750886 0.012144 -0.005842 332900.000000 0 0 1
-29.084947 33.595336 -8.559428 45.253116 -0.857233 1.761088 -0.000028 0.002466 -515761.000000 0 0 1
-29.170017 -34.619920 -7.643828 45.911402 0.870626 1.738066 -0.009909 0.006005 -524386.000000 0 0 1
-28.059537 -34.341520 -6.851128 44.873327 0.885731 1.724073 0.006779 -0.008504 -461433.000000 0 0 1
-28.220897 -32.984320 -6.111028 43.837530 0.863069 1.710654 -0.003702 0.007515 1480440.000000 0 0 1
-29.454217 -32.933020 -5.315028 44.501508 0.841102 1.690517 -0.016662 0.010814 1160220.000000 0 0 1
-29.337917 -33.550820 -4.052128 44.752548 0.852288 1.661466 -0.009952 0.007048 233800.000000 0 0 1
-30.565687 -33.421620 -3.089228 45.396136 0.830001 1.638899 -0.016722 0.004790 24364.000000 0 0 1
-30.690817 -32.109520 -2.606228 44.494268 0.807985 1.629404 -0.013116 0.002536 409676.000000 0 0 1
-31.625047 -32.064220 -1.506528 45.061373 0.792294 1.604235 -0.011545 0.006169 335512.000000 0 0 1
-32.082167 -30.662720 -1.144828 44.393450 0.762780 1.596587 -0.001851 0.006404 -249107.000000 0 0 1
-33.076927 -30.713220 -0.144328 45.137631 0.748361 1.573994 0.000282 0.007763 -330177.000000 0 0 1
-33.694817 -29.471820 0.065372 44.765311 0.718643 1.569336 0.015977 0.003916 -38064.400000 0 0 1
-34.761718 -29.596120 1.191172 45.669751 0.705306 1.544711 0.018598 0.004892 445239.000000 0 0 1
34.056451 -30.443520 0.857372 45.687906 -0.729442 1.552029 -0.008528 0.013220 1549470.000000 0 0 1
32.888612 -30.302120 1.708972 44.752651 -0.744489 1.532600 -0.005156 0.007922 1171270.000000 0 0 1
32.049372 -29.013220 1.610572 43.261103 -0.735717 1.533559 -0.010392 0.024927 -677796.000000 0 0 1
31.162682 -28.889020 0.503472 42.496372 -0.747554 1.558949 -0.019322 0.021181 166520.000000 0 0 1
30.483832 -27.659920 0.564672 41.166175 -0.736869 1.557079 -0.015807 0.019337 -778468.000000 0 0 1
29.350292 -27.570620 -0.477228 40.271658 -0.754143 1.582647 -0.024236 0.012990 190904.000000 0 0 1
28.129862 -28.136320 0.050272 39.786230 -0.785513 1.569533 -0.019522 0.016683 511963.000000 0 0 1
28.029382 -29.564620 0.015972 40.739578 -0.812048 1.570404 -0.016820 0.017085 -889308.000000 0 0 1
27.678272 -30.058020 -1.429928 40.885400 -0.826592 1.605778 -0.017950 0.001772 402247.000000 0 0 1
26.325272 -29.748620 -1.793628 39.764524 -0.846373 1.615918 -0.020109 0.011163 554319.000000 0 0 1
26.156322 -30.354820 -3.023528 40.183454 -0.859557 1.646111 -0.019762 0.010003 512207.000000 0 0 1
24.674782 -30.772120 -3.314628 39.582255 -0.894925 1.654635 -0.025316 0.011425 1071790.000000 0 0 1
23.899582 -29.591820 -3.661028 38.213465 -0.891413 1.666748 -0.013244 0.011941 -764080.000000 0 0 1
22.565882 -29.882820 -3.894828 37.647996 -0.924010 1.674436 0.000823 0.001012 -668233.000000 0 0 1
21.853782 -28.493120 -3.987428 36.129561 -0.916513 1.681386 0.005724 -0.004681 -103108.000000 0 0 1
21.832582 -27.951720 -5.302628 35.861931 -0.907698 1.719203 0.006040 -0.004334 115715.000000 0 0 1
21.108582 -26.736420 -5.251928 34.467247 -0.902487 1.723767 -0.004880 -0.010923 -432232.000000 0 0 1
20.463882 -26.263620 -6.549128 33.932864 -0.908885 1.765018 0.009008 -0.033610 918639.000000 0 0 1
19.143682 -26.842820 -6.741528 33.652128 -0.951281 1.772491 0.012796 -0.023636 614571.000000 0 0 1
18.477882 -26.341120 -7.872228 33.124895 -0.959075 1.810745 0.031375 -0.019785 578661.000000 0 0 1
16.940082 -26.559820 -7.715428 32.433288 -1.003039 1.810985 0.029654 -0.014361 489773.000000 0 0 1
16.394982 -25.651720 -6.777528 31.188796 -1.002095 1.789850 0.009761 -0.007539 -687861.000000 0 0 1
15.014082 -25.800920 -6.659528 30.585281 -1.043777 1.790291 0.018283 -0.007768 -563863.000000 0 0 1
14.521882 -24.880820 -5.523728 29.333459 -1.042480 1.760235 0.003436 0.005389 -189084.000000 0 0 1
14.848182 -25.385420 -4.261728 29.716163 -1.041546 1.714707 -0.005883 0.006064 174432.000000 0 0 1
14.578582 -24.426620 -3.234428 28.629640 -1.032710 1.684013 0.005431 0.014867 -44778.100000 0 0 1
14.649082 -25.075720 -1.803028 29.097048 -1.042080 1.632802 0.003347 0.004635 -92564.200000 0 0 1
13.779782 -26.164420 -1.598928 29.614453 -1.086048 1.624814 0.017141 0.013749 694370.000000 0 0 1
14.576482 -27.370520 -1.493128 31.045911 -1.081440 1.618909 0.019420 0.003315 119784.000000 0 0 1
13.774482 -28.691020 -1.633828 31.868171 -1.123197 1.622087 0.020523 0.010122 332529.000000 0 0 1
12.829482 -28.843320 -0.556628 31.572813 -1.152276 1.588427 0.043947 0.006632 143927.000000 0 0 1
12.009182 -29.979720 -0.729228 32.303805 -1.189793 1.593372 0.038831 0.004160 -199199.000000 0 0 1
12.647582 -31.348320 -0.531428 33.807704 -1.187317 1.586516 0.018630 0.002093 -250996.000000 0 0 1
13.581382 -31.695620 -1.539928 34.517207 -1.165970 1.615424 0.003394 0.006547 -255389.000000 0 0 1
14.220182 -32.901120 -1.174428 35.861909 -1.162835 1.603551 0.003790 0.007044 -689870.000000 0 0 1
15.562482 -33.059520 -1.882128 36.587772 -1.130828 1.622260 0.000635 0.011001 -477446.000000 0 0 1
16.392382 -31.993820 -1.419528 35.976794 -1.097309 1.610263 -0.001870 0.020316 -223940.000000 0 0 1
17.550982 -31.827120 -2.203728 36.412346 -1.066843 1.631355 0.002543 0.022055 -436549.000000 0 0 1
18.482482 -30.806420 -1.524428 35.957774 -1.030410 1.613204 0.000050 0.011950 -266510.000000 0 0 1
18.036982 -29.477120 -1.678928 34.598440 -1.021674 1.619342 -0.019485 0.011664 510871.000000 0 0 1
18.712782 -28.507320 -0.821628 34.110270 -0.989921 1.594886 -0.014822 0.010206 196483.000000 0 0 1
18.328782 -27.031820 -1.219228 32.682564 -0.974958 1.608110 -0.017861 0.018075 -327325.000000 0 0 1
18.813182 -26.625520 -2.454528 32.693712 -0.955665 1.645943 -0.022370 0.011806 296605.000000 0 0 1
17.868282 -26.899520 -3.486728 32.481024 -0.984462 1.678350 -0.006749 0.008287 -44441.600000 0 0 1
32.094212 -29.881820 13.862272 45.990479 -0.749716 1.264619 -0.006983 -0.000653 -24784.500000 0 0 1
32.528662 -30.018020 15.197472 46.799129 -0.745279 1.240061 -0.009384 0.000663 93777.400000 0 0 1
31.801282 -30.992020 15.895972 47.164698 -0.772511 1.227035 -0.014464 0.012272 -176693.000000 0 0 1
32.380032 -31.205120 17.313872 48.187095 -0.766922 1.203273 -0.015406 0.011702 -51609.300000 0 0 1
31.449582 -31.855320 18.164372 48.309233 -0.791807 1.185318 -0.017093 0.006594 599176.000000 0 0 1
32.027752 -32.058320 19.477072 49.324123 -0.785875 1.164860 -0.025656 0.004950 -200502.000000 0 0 1
32.847572 -33.338120 19.567472 50.727499 -0.792810 1.174790 -0.022627 0.011629 354312.000000 0 0 1
34.144923 -33.212320 18.967372 51.270802 -0.771553 1.191847 -0.019763 0.015737 356700.000000 0 0 1
34.689051 -34.493520 18.735372 52.384609 -0.782572 1.205046 -0.005440 0.010814 -251074.000000 0 0 1
-34.242822 34.625936 17.585072 51.776066 -0.790961 1.224265 -0.001858 0.011913 332666.000000 0 0 1
-33.078567 -33.926220 17.979872 50.679934 0.798048 1.208125 -0.010765 0.010267 310555.000000 0 0 1
-32.239477 -33.655620 16.891972 49.572405 0.806886 1.223078 -0.009168 0.014988 -1352760.000000 0 0 1
-30.898597 -33.075720 17.290472 48.452935 0.819416 1.205902 -0.014284 0.006886 -1081080.000000 0 0 1
-29.925997 -33.086320 16.317472 47.502944 0.835510 1.220150 -0.006985 0.002223 -544703.000000 0 0 1
-30.116487 -32.086520 15.320172 46.596729 0.817059 1.235783 0.004242 0.005476 -850850.000000 0 0 1
-28.970547 -31.896620 14.279872 45.393850 0.833434 1.250785 0.008257 0.004475 -369268.000000 0 0 1
-27.913887 -31.300220 14.953772 44.525320 0.842524 1.228290 0.005392 0.000507 -1477390.000000 0 0 1
-26.752957 -31.406820 14.188372 43.628189 0.865247 1.239561 0.008713 0.004024 -315545.000000 0 0 1
-25.553737 -30.905920 15.071672 42.840689 0.879912 1.211295 0.019452 0.001304 -452420.000000 0 0 1
-24.444497 -30.959820 14.256772 41.944003 0.902456 1.223986 0.018591 0.004155 -1302310.000000 0 0 1
-23.285597 -30.464320 14.874572 41.128417 0.918170 1.200747 0.014846 0.010720 -108541.000000 0 0 1
-22.076197 -30.377720 13.917972 40.048399 0.942359 1.215862 0.014860 0.018488 -117073.000000 0 0 1
-21.559997 -31.604620 13.637372 40.616048 0.972131 1.228381 -0.006763 0.021659 -550552.000000 0 0 1
-20.423397 -31.497220 12.825472 39.669670 0.995533 1.241574 -0.009933 0.013992 56168.800000 0 0 1
-19.852397 -32.898720 12.303972 40.346389 1.027851 1.260902 -0.012501 0.011457 366702.000000 0 0 1
-20.665297 -33.604820 11.351272 41.051063 1.019456 1.290630 -0.017874 0.007865 369240.000000 0 0 1
-20.186097 34.361436 11.045872 41.354541 -1.039646 1.300412 -0.017868 0.001462 322501.000000 0 0 1
-21.125297 33.570636 10.064372 40.921355 -1.009126 1.322303 -0.018169 0.003664 75617.800000 0 0 1
-21.142097 34.060036 8.741872 41.030411 -1.015273 1.356092 -0.021986 0.001730 -61245.800000 0 0 1
-22.163597 33.479436 7.955272 40.931455 -0.986027 1.375195 -0.009752 -0.005622 -548069.000000 0 0 1
-22.135597 33.887936 6.460672 40.989232 -0.992175 1.412518 -0.004320 -0.000151 -915646.000000 0 0 1
-21.478397 32.979536 5.586672 39.751506 -0.993533 1.429790 -0.007041 -0.007659 863537.000000 0 0 1
-20.044397 32.878836 5.713672 38.928675 -1.023316 1.423491 -0.017203 -0.006089 862091.000000 0 0 1
-19.229797 34.179336 5.383772 39.585314 -1.058320 1.434369 -0.015975 -0.001348 -797223.000000 0 0 1
-19.414897 -34.008120 6.241472 39.654084 1.052056 1.412741 -0.024789 -0.000233 252717.000000 0 0 1
-18.488597 -34.120220 7.350972 39.497524 1.074219 1.383593 -0.022747 0.003162 151296.000000 0 0 1
-18.568797 -32.897620 8.298972 38.677209 1.056933 1.354545 -0.020110 0.002742 -552682.000000 0 0 1
-18.011397 -31.697120 7.742672 37.270186 1.054061 1.361528 -0.013318 -0.001276 -183417.000000 0 0 1
-18.074197 -30.511820 8.529972 36.474760 1.036008 1.334751 -0.007666 0.002863 116185.000000 0 0 1
-17.478097 -30.675620 9.982972 36.689743 1.052900 1.295230 -0.019849 0.005597 143810.000000 0 0 1
-16.192797 -31.244620 10.036572 36.594613 1.092649 1.292972 -0.010061 -0.008492 -734822.000000 0 0 1
-15.602397 -31.053220 11.288772 36.540027 1.105198 1.256715 -0.000009 0.000151 627390.000000 0 0 1
-14.194297 -31.721620 11.367272 36.564383 1.150053 1.254674 0.019736 -0.008753 -7774.380000 0 0 1
-13.146997 -31.054020 10.801872 35.410113 1.170316 1.260805 0.010856 -0.001560 -979776.000000 0 0 1
-12.001197 -31.854820 10.600272 35.652826 1.210495 1.268913 0.014572 0.004428 -24452.100000 0 0 1
-10.901997 -31.118520 9.837472 34.409180 1.233821 1.280854 0.028556 0.004494 -232740.000000 0 0 1
-10.298797 -30.130220 10.645572 33.574150 1.241437 1.248151 0.037300 0.002926 -282763.000000 0 0 1
-9.338397 -29.370820 9.924072 32.378047 1.262956 1.259276 0.024613 0.009822 115684.000000 0 0 1
-8.443997 -28.541420 10.793272 31.660834 1.283151 1.222919 0.018191 0.014099 -411474.000000 0 0 1
-9.112697 -27.428920 11.261772 31.019581 1.250040 1.199253 0.002824 0.009645 -283655.000000 0 0 1
-9.015697 -27.329320 12.693872 31.453281 1.252147 1.155372 0.004441 0.003642 109508.000000 0 0 1
-9.528997 -25.987920 13.286472 30.703487 1.219348 1.123272 -0.009815 0.000341 201008.000000 0 0 1
-8.791097 -24.836320 12.874872 29.323855 1.230597 1.116246 -0.010410 0.007734 -217205.000000 0 0 1
-9.424797 -24.095820 11.876172 28.468909 1.197953 1.140475 -0.012284 0.015098 7110.540000 0 0 1
-8.695397 -22.786520 11.380972 26.913973 1.206250 1.134192 -0.018439 0.010430 -194156.000000 0 0 1
-7.786597 -23.019620 10.338572 26.408712 1.244619 1.168553 -0.022462 0.006373 -476654.000000 0 0 1
-7.124897 -21.868920 9.935672 25.054568 1.255841 1.163028 -0.011662 0.016220 -122485.000000 0 0 1
-5.972397 -22.146720 8.938372 24.617904 1.307388 1.199220 -0.006048 0.001173 -72364.000000 0 1 0
-4.771397 -22.540320 9.544372 24.938470 1.362193 1.178061 -0.020847 -0.005661 -870017.000000 0 1 0
-3.804797 -22.827020 8.562872 24.675333 1.405635 1.216403 -0.016180 -0.005886 -8210.330000 0 1 0
-2.604297 -23.425820 9.342472 25.354155 1.460079 1.193424 -0.014673 0.002075 -131692.000000 0 0 1
-2.045497 -22.620120 10.352672 24.960603 1.480613 1.143117 -0.006658 -0.000659 -446268.000000 0 1 0
-0.961197 -23.358120 10.866172 25.779824 1.529669 1.135699 -0.005826 -0.004447 -90404.400000 0 0 1
-0.176497 -22.721020 11.989272 25.690826 1.563028 1.085269 -0.002355 -0.006094 304256.000000 0 0 1
-1.002497 -22.536220 13.182972 26.128087 1.526342 1.041934 -0.004883 0.000235 652428.000000 0 0 1
-0.216097 -22.307120 14.353272 26.526792 1.561109 0.999069 0.004736 -0.000428 607091.000000 0 0 1
0.716003 -21.042420 14.452872 25.537846 -1.536783 0.969224 0.006715 -0.005270 386406.000000 0 0 1
1.843803 -21.044020 13.597172 25.122370 -1.483403 0.998888 0.013707 -0.007218 -333349.000000 0 0 1
2.165103 -19.683520 13.259072 23.831316 -1.461241 0.980783 0.005185 -0.008949 -265400.000000 0 1 0
3.598903 -19.578720 12.738272 23.633492 -1.389009 1.001556 0.004287 -0.006090 -178161.000000 0 1 0
3.975603 -20.047520 11.447572 23.425528 -1.375027 1.060221 0.018661 -0.010563 -1055910.000000 0 1 0
5.363203 -20.044920 11.358972 23.655634 -1.309361 1.069936 0.030094 -0.010031 -408297.000000 0 1 0
5.930803 -20.768120 10.099472 23.842998 -1.292628 1.133400 0.030641 -0.014514 -616218.000000 0 1 0
5.690203 -20.168420 8.862272 22.752658 -1.295810 1.170702 0.026207 -0.019739 -488350.000000 0 1 0
5.856103 -21.048320 7.751372 23.182094 -1.299437 1.229861 0.021095 -0.019361 -212054.000000 0 1 0
7.290003 -21.585720 7.428772 23.964017 -1.245100 1.255606 0.029325 -0.008828 -22888.200000 0 1 0
8.179803 -20.670920 6.850372 23.262066 -1.193989 1.271878 0.025739 -0.017595 -105797.000000 0 1 0
8.739703 -19.626920 7.679172 22.815961 -1.151865 1.227524 0.030478 -0.011102 22893.900000 0 1 0
9.647503 -20.054020 8.856272 23.951442 -1.122402 1.192046 0.017829 -0.001726 -287226.000000 0 1 0
8.947903 -20.246120 10.046972 24.308681 -1.154652 1.144712 0.032814 -0.002719 -819500.000000 0 1 0
9.864503 -20.251620 11.083572 25.105420 -1.117524 1.113547 0.039340 0.006608 355952.000000 0 0 1
9.048003 -20.298120 12.430172 25.463488 -1.151478 1.060820 0.035022 -0.000279 341409.000000 0 0 1
8.664603 -21.614820 12.835272 26.589848 -1.189545 1.067046 0.034598 -0.012201 -142078.000000 0 0 1
7.900503 -21.602120 14.032072 26.943804 -1.220179 1.023020 0.035596 -0.013883 245555.000000 0 0 1
7.921303 -22.977220 14.752772 28.431390 -1.238810 1.025244 0.037553 -0.009019 199100.000000 0 0 1
7.471003 -23.957820 13.844072 28.660973 -1.268513 1.066686 0.045077 -0.005477 -189168.000000 0 0 1
7.499703 -25.217220 14.543972 30.061285 -1.281723 1.065793 0.047592 -0.006738 167096.000000 0 0 1
7.380203 -26.430220 13.642972 30.645629 -1.298499 1.109416 0.047558 -0.011595 1220860.000000 0 0 1
8.609103 -26.853720 12.990972 31.048418 -1.260556 1.139102 0.052049 -0.012004 797408.000000 0 0 1
8.400003 -28.058420 12.321272 31.774970 -1.279913 1.172589 0.042138 -0.009858 -241495.000000 0 0 1
9.723103 -28.478720 11.695972 32.285786 -1.241789 1.200101 0.051072 -0.012373 -72608.600000 0 0 1
10.641903 -29.087620 12.591472 33.434786 -1.220066 1.184675 0.052531 -0.011918 -298256.000000 0 0 1
11.802703 -29.480520 11.945372 33.927817 -1.189983 1.211002 0.062115 -0.009564 -286934.000000 0 0 1
12.806103 -30.278820 12.824772 35.288496 -1.170672 1.198853 0.044038 -0.013067 -353050.000000 0 0 1
13.247503 -29.588420 14.026772 35.323098 -1.149835 1.162442 0.044582 -0.010347 256053.000000 0 0 1
14.210803 -30.288920 14.770672 36.572371 -1.132111 1.155047 0.037722 -0.014922 1159730.000000 0 0 1
15.660303 -30.436320 14.166872 37.044769 -1.095595 1.178376 0.042794 -0.010258 -193616.000000 0 0 1
16.545403 -29.404820 14.262772 36.630868 -1.058273 1.170854 0.042548 -0.013581 -733135.000000 0 0 1
17.642703 -29.504620 13.425072 36.905557 -1.031875 1.198486 0.031095 -0.003248 -854581.000000 0 0 1
18.496303 -28.242020 13.399172 36.321656 -0.990969 1.192968 0.002656 -0.008240 -113557.000000 0 0 1
19.625703 -28.464420 12.565272 36.786920 -0.967164 1.222211 -0.002387 -0.009403 281148.000000 0 0 1
20.449703 -27.318320 12.427972 36.317151 -0.928210 1.221532 -0.016019 -0.000444 -177269.000000 0 0 1
21.851403 -27.629720 11.897072 37.180984 -0.901650 1.245091 -0.013373 0.001551 -1013220.000000 0 0 1
22.679703 -28.258020 12.778172 38.420910 -0.894476 1.231754 -0.001730 -0.004464 -607052.000000 0 0 1
23.817003 -28.652220 12.032472 39.153285 -0.877292 1.258424 -0.015164 -0.011457 -683850.000000 0 0 1
24.993103 -29.166420 12.876672 40.511035 -0.862302 1.247329 -0.003326 -0.008852 -256475.000000 0 0 1
25.746203 -28.206120 13.584472 40.533814 -0.830961 1.229043 -0.006744 -0.010581 498107.000000 0 0 1
26.909703 -27.894720 12.811272 40.821272 -0.803370 1.251564 -0.015104 -0.011047 139792.000000 0 0 1
28.098603 -27.232020 13.564472 41.413878 -0.769738 1.237103 0.007337 -0.016283 139829.000000 0 0 1
27.912403 -25.894620 13.907572 40.534604 -0.747915 1.220577 0.018015 -0.021032 16332.300000 0 0 1
27.156203 -25.643220 15.089372 40.283039 -0.756751 1.186849 0.030473 -0.022381 -351579.000000 0 0 1
27.944003 -25.533720 16.414772 41.258731 -0.740358 1.161624 0.012841 -0.011906 -387422.000000 0 0 1
28.288503 -26.784520 16.958872 42.488272 -0.758096 1.160215 0.012799 -0.009976 112685.000000 0 0 1
29.041703 -26.646720 18.150872 43.392653 -0.742418 1.139230 0.018865 0.000006 87086.600000 0 0 1
29.489103 -28.018020 18.730072 44.782053 -0.759823 1.139279 0.001397 0.011337 -46149.800000 0 0 1
28.394003 -28.700120 19.280072 44.739663 -0.790760 1.125263 0.003280 0.003931 125470.000000 0 0 1
28.933903 -29.803420 20.011772 46.107327 -0.800201 1.121840 -0.003236 -0.000357 154413.000000 0 0 1
27.897203 -30.801720 20.593572 46.379900 -0.834839 1.110717 -0.005724 0.005886 -756989.000000 0 0 1
26.922503 -30.133320 21.401272 45.725842 -0.841614 1.083731 -0.008342 0.015002 557453.000000 0 0 1
25.794503 -30.910620 21.763872 45.765587 -0.875378 1.075206 -0.006470 0.013022 31611.400000 0 0 1
24.810803 -31.257420 20.670472 44.942971 -0.899874 1.092884 0.026641 0.000688 -1489490.000000 0 0 1
25.223403 -32.287620 19.796272 45.503877 -0.907618 1.120707 0.013147 0.005956 77743.000000 0 0 1
24.602603 -32.295420 18.474472 44.604802 -0.919787 1.143753 0.029739 0.000502 16791.100000 0 0 1
25.080003 -31.205920 17.461072 43.677283 -0.893807 1.159525 0.034559 0.003640 137532.000000 0 0 1
26.387103 -31.506720 17.022072 44.482621 -0.873600 1.178114 0.011117 0.003570 131231.000000 0 0 1
26.915703 -30.496320 16.149372 43.763944 -0.847684 1.192852 0.019849 -0.005933 -100438.000000 0 0 1
28.169503 -30.849120 15.339872 44.502818 -0.830770 1.218883 0.012913 -0.000859 -482750.000000 0 0 1
27.941903 -31.892820 14.388772 44.776542 -0.851333 1.243646 0.027653 0.004169 289349.000000 0 0 1
27.932503 -33.184520 14.976272 45.888188 -0.871121 1.238341 0.019469 -0.004279 -219660.000000 0 0 1
27.180003 -34.284720 14.127672 45.975925 -0.900478 1.258459 0.028239 -0.007702 225658.000000 0 0 1
27.710603 -34.596520 12.828672 46.145114 -0.895467 1.289077 0.029421 -0.009515 710527.000000 0 0 1
26.855103 33.693736 12.285472 44.803987 0.897866 1.293034 0.019948 -0.013617 -12220.300000 0 0 1
27.295503 33.271036 10.887772 44.390876 0.883741 1.322998 0.019739 -0.013310 382782.000000 0 0 1
28.617303 32.712136 10.868872 44.801409 0.852067 1.325750 -0.006550 -0.010629 847539.000000 0 0 1
28.940003 32.108136 9.677072 44.295620 0.837247 1.350554 -0.006656 -0.013282 -268779.000000 0 0 1
30.358203 31.526736 9.817372 44.854614 0.804278 1.350139 -0.025663 -0.010528 -401748.000000 0 0 1
30.428003 30.528736 10.824672 44.441429 0.787051 1.324750 -0.031898 -0.003669 -89101.000000 0 0 1
31.760103 30.127736 10.992172 45.135490 0.759028 1.324785 -0.017339 -0.006808 -219815.000000 0 0 1
31.964603 29.353636 12.339372 45.117978 0.742843 1.293776 -0.022430 0.001097 -357037.000000 0 0 1
31.457603 28.060436 12.252672 43.898711 0.728382 1.287927 -0.018543 0.004870 325990.000000 0 0 1
31.682403 27.377536 13.508472 43.997534 0.712637 1.258728 -0.009224 -0.012002 -244395.000000 0 0 1
31.637903 25.868336 13.264972 42.966117 0.685403 1.256938 -0.008072 -0.002193 647791.000000 0 0 1
32.809503 25.489036 12.496972 43.385813 0.660483 1.278614 -0.010310 0.008526 436234.000000 0 0 1
32.851103 24.155436 12.055672 42.520810 0.634027 1.283329 0.006434 0.003180 -925307.000000 0 0 1
31.774803 23.671136 11.087272 41.144725 0.640271 1.297954 -0.009274 0.005991 -969729.000000 0 0 1
30.579503 23.488936 11.754872 40.311452 0.655002 1.274896 0.003393 -0.001854 -490837.000000 0 0 1
29.470603 23.623636 10.862172 39.301138 0.675716 1.290768 -0.000445 0.008448 -290524.000000 0 0 1
28.146503 23.063436 11.331772 38.112423 0.686463 1.268907 -0.007651 0.012273 -503062.000000 0 0 1
27.672403 23.681236 12.546272 38.522354 0.707835 1.239057 0.000330 0.006488 -339036.000000 0 0 1
26.817303 22.865036 13.253672 37.651527 0.706015 1.211080 0.014163 0.005390 -379170.000000 0 0 1
23.713403 9.182936 26.316345 36.595107 0.369464 0.768258 -0.011814 0.012259 -405139.000000 0 0 1
23.369703 7.871136 26.667255 36.321348 0.324876 0.746304 0.001384 0.000854 965143.000000 0 0 1
21.975103 7.748136 26.999835 35.664126 0.338978 0.711997 0.003614 0.006732 553298.000000 0 0 1
21.573703 6.471836 27.736685 35.730002 0.291445 0.682044 0.017714 0.004733 -418503.000000 0 0 1
21.783003 6.386336 29.173505 36.964549 0.285188 0.661243 0.014081 0.005509 1299850.000000 0 0 1
23.163103 6.452536 29.604675 38.139236 0.271682 0.682139 0.012004 -0.000801 856500.000000 0 0 1
23.228903 6.376836 31.158605 39.384066 0.267921 0.658113 0.021131 -0.008821 -497815.000000 0 0 1
23.104603 7.596436 31.819325 40.049943 0.317651 0.652627 0.030133 -0.009231 278626.000000 0 0 1
22.981803 7.351436 33.243786 41.077441 0.309595 0.627845 0.032153 -0.011277 -343935.000000 0 0 1
22.880803 8.578136 34.172437 42.010368 0.358688 0.620774 0.044666 -0.007297 584929.000000 0 0 1
24.043503 9.426636 34.190731 42.848076 0.373648 0.646906 0.025684 -0.002490 484454.000000 0 0 1
24.277103 10.056836 -33.814698 42.824660 0.392732 2.480966 0.035678 -0.001292 -63510.400000 0 0 1
25.254503 11.246336 -33.892728 43.737707 0.418955 2.457367 0.019807 -0.002186 -255127.000000 0 0 1
24.878503 12.401236 34.609040 44.390497 0.462424 0.676690 0.010860 -0.005432 319318.000000 0 0 1
24.869903 13.498936 -33.749818 44.042974 0.497285 2.443848 0.003393 -0.004324 -700448.000000 0 0 1
24.415703 14.850236 -34.297174 44.642493 0.546445 2.446919 0.006729 0.007434 -727190.000000 0 0 1
25.414703 15.430236 34.199446 45.316679 0.545652 0.715635 -0.002541 0.007772 -264560.000000 0 0 1
25.174803 16.818836 34.009817 45.533632 0.588982 0.727384 0.000978 0.013251 -414577.000000 0 0 1
25.743803 17.828336 -34.258948 46.414098 0.605694 2.401069 -0.004004 0.007111 -295621.000000 0 0 1
25.251903 17.723236 -32.910648 45.109671 0.611971 2.388489 -0.000461 -0.005667 448243.000000 0 0 1
26.195403 17.158436 -32.002608 44.774747 0.579894 2.367058 -0.006534 -0.000964 14085.500000 0 0 1
25.423703 16.664936 -30.745168 43.235982 0.580224 2.361860 -0.009544 -0.006167 156723.000000 0 0 1
24.737903 15.461636 -30.970358 42.546317 0.558612 2.386081 0.002181 0.002273 -459749.000000 0 0 1
24.010503 15.054436 -29.878798 41.181098 0.560032 2.382624 0.007399 -0.015616 -363511.000000 0 0 1
23.451103 13.685336 -30.237288 40.639097 0.528250 2.409900 0.022644 -0.019706 -341295.000000 0 0 1
22.451903 13.750136 -31.257228 40.867695 0.549506 2.441588 0.016229 -0.013483 289609.000000 0 0 1
21.928403 12.536036 -31.766548 40.584734 0.519336 2.469823 0.020081 0.001158 -165990.000000 0 0 1
20.987203 11.806436 -30.813508 39.106609 0.512431 2.478246 0.023650 -0.008074 -528028.000000 0 0 1
19.743603 12.401336 -30.485018 38.378891 0.560839 2.488679 0.028916 -0.008353 300216.000000 0 0 1
19.030703 11.546136 -29.579868 37.019583 0.545339 2.496482 0.027745 -0.012363 198233.000000 0 0 1
17.767103 12.290936 -29.051468 36.203934 0.605188 2.502169 0.033664 -0.013009 138115.000000 0 0 1
16.823203 12.419936 -30.092868 36.644995 0.635947 2.534307 0.013977 -0.003276 511647.000000 0 0 1
15.702803 13.208436 -29.642838 36.051888 0.699335 2.536109 0.012483 -0.008277 127240.000000 0 0 1
14.635103 13.646936 -30.649118 36.603190 0.750473 2.563186 -0.003137 -0.001306 86641.200000 0 0 1
13.850103 12.589936 -31.143848 36.335535 0.737773 2.600445 -0.013393 0.007452 -585967.000000 0 0 1
12.619003 12.396536 -30.504508 35.262421 0.776505 2.616089 -0.002816 0.004173 -551388.000000 0 0 1
11.639603 11.704336 -31.467908 35.534505 0.788171 2.658493 -0.000767 0.004154 -284571.000000 0 0 1
11.291603 12.498936 -32.574938 36.672200 0.836103 2.664369 0.006164 0.007740 -186854.000000 0 0 1
10.440903 11.829236 -33.479548 37.011125 0.847658 2.701191 0.012325 0.017219 -189724.000000 0 0 1
9.934203 12.741736 -34.520342 38.114226 0.908582 2.703842 0.013344 0.017412 -351554.000000 0 0 1
10.806903 12.972436 33.702199 37.694979 0.876215 0.464431 0.001439 0.023558 -81959.800000 0 0 1
9.972903 13.181936 32.581465 36.534560 0.923111 0.469491 0.002217 0.015803 -73144.600000 0 0 1
10.627203 13.217636 31.124045 35.445021 0.893611 0.498933 0.013714 0.017280 -49983.800000 0 0 1
11.142403 11.910336 30.724995 34.785551 0.818698 0.488007 0.000252 0.020022 359010.000000 0 0 1
11.299503 11.841836 29.307915 33.568761 0.808830 0.509331 0.013879 0.015753 -395015.000000 0 0 1
12.114303 10.614436 28.914555 33.097947 0.719504 0.508233 0.007351 0.016442 -843747.000000 0 0 1
11.509903 9.421036 29.139275 32.715916 0.685929 0.471967 0.002972 0.014575 -146321.000000 0 0 1
12.115203 8.279136 28.513105 32.067420 0.599476 0.475288 -0.005549 0.006391 -895359.000000 0 0 1
11.306603 7.014936 28.701655 31.635954 0.555305 0.434102 -0.007866 0.010470 -271.332000 0 0 1
10.091403 7.041936 27.959445 30.547600 0.609258 0.414607 -0.005138 0.004393 308044.000000 0 0 1
9.160403 6.007836 28.274695 30.322689 0.580476 0.369633 -0.011332 -0.004159 42246.400000 0 0 1
9.498403 4.655836 27.591635 29.549870 0.455753 0.366098 -0.014334 0.004035 -381112.000000 0 0 1
10.406603 3.915536 28.346345 30.449041 0.359870 0.373807 -0.016999 0.008098 -98528.200000 0 0 1
10.574003 2.601636 27.860225 29.912709 0.241249 0.372599 -0.027596 0.014915 -65252.400000 0 0 1
11.261503 1.538636 28.754685 30.919585 0.135787 0.376430 -0.028118 0.011788 109419.000000 0 0 1
10.423103 1.319136 29.870495 31.664296 0.125890 0.338212 -0.019776 0.013797 184292.000000 0 0 1
10.591803 0.065536 30.418375 32.209752 0.006187 0.335080 -0.015129 0.012428 380122.000000 0 0 1
9.463003 -0.006164 31.484725 32.876076 -0.000651 0.291969 -0.010837 0.013199 361517.000000 0 0 1
9.627103 1.018936 32.503555 33.914605 0.105448 0.289474 -0.017289 0.010482 35374.500000 0 0 1
8.438103 1.260436 33.236691 34.314252 0.148278 0.251271 -0.013277 0.015400 44567.300000 0 0 1
8.568603 2.554536 34.127718 35.279566 0.289738 0.256236 -0.000940 0.006950 -290897.000000 0 0 1
8.512703 3.796436 33.449677 34.724054 0.419500 0.271760 -0.013325 0.004304 70348.800000 0 0 1
9.676303 4.142736 32.706535 34.358558 0.404521 0.311359 -0.014189 0.010572 -164020.000000 0 0 1
9.594703 5.492836 31.959935 33.818146 0.519943 0.333040 -0.014326 0.012595 3865.760000 0 0 1
9.509003 6.557736 32.861495 34.832498 0.603735 0.338015 -0.015211 0.013174 23304.900000 0 0 1
9.611403 7.730636 32.108465 34.396153 0.677369 0.366771 -0.011756 0.018929 -114158.000000 0 0 1
9.697203 8.973636 33.052885 35.595717 0.746664 0.380272 -0.010612 0.014176 -101970.000000 0 0 1
8.506203 9.455736 33.622779 35.947986 0.838213 0.361641 -0.005074 0.009450 -425797.000000 0 0 1
8.171503 8.797336 -34.431349 36.464837 0.822263 2.806058 -0.000197 0.007161 -145573.000000 0 0 1
6.796803 9.188936 -33.871908 35.748276 0.933938 2.816157 0.007874 0.009958 -9702.480000 0 0 1
6.442803 8.557036 -32.675978 34.386801 0.925426 2.824826 0.012217 0.007739 62152.200000 0 0 1
5.055503 8.671236 -32.406818 33.925658 1.042956 2.841234 0.011137 0.006665 286719.000000 0 0 1
4.567403 7.887236 -31.143928 32.450176 1.045895 2.856893 -0.001697 0.002397 -556511.000000 0 0 1
4.935303 8.493836 -29.958188 31.527694 1.044431 2.824732 -0.004012 -0.000569 198235.000000 0 0 1
4.441703 7.888036 -28.738178 30.130262 1.057956 2.836429 -0.011453 0.000334 -439736.000000 0 0 1
2.946703 7.926536 -28.428058 29.659189 1.214876 2.852457 -0.011305 -0.002829 -617945.000000 0 0 1
2.219603 7.075036 -29.282998 30.207230 1.266797 2.893586 -0.008814 0.001642 222728.000000 0 0 1
0.821203 7.082236 -28.989168 29.853045 1.455359 2.900436 -0.002025 0.007597 235000.000000 0 0 1
0.044703 6.391736 -30.092538 30.763893 1.563803 2.932295 0.010576 0.002339 -508164.000000 0 0 1
-0.031497 7.143336 -31.319568 32.123878 -1.566387 2.917347 0.011427 0.004005 158114.000000 0 0 1
-0.356197 6.366136 -32.418388 33.039468 -1.514903 2.947390 0.016149 -0.002872 -576790.000000 0 0 1
-0.092397 7.203036 -33.669338 34.431331 -1.557970 2.930818 0.026083 -0.008005 145533.000000 0 0 1
1.272903 7.436236 -33.984358 34.811700 1.401264 2.923139 0.018366 -0.004365 568954.000000 0 0 1
1.962703 6.330636 -34.624187 35.252850 1.270161 2.952456 0.024745 -0.005566 -134445.000000 0 0 1
1.734803 6.115036 33.128585 33.732867 1.294365 0.189565 0.036176 -0.013797 734211.000000 0 0 1
0.430203 5.549236 32.791525 33.260535 1.493426 0.168133 0.040320 -0.019438 1038660.000000 0 0 1
0.085303 5.472536 31.376885 31.850665 1.555210 0.172697 0.063767 -0.025728 -160370.000000 0 0 1
0.977603 4.652636 30.436625 30.805695 1.363691 0.154949 0.082603 -0.033190 -350210.000000 0 0 1
0.717403 4.781436 29.058185 29.457680 1.421868 0.164878 0.074967 -0.031957 -71976.200000 0 0 1
1.438603 3.915436 28.213045 28.519750 1.218689 0.146789 0.061122 -0.023149 -276250.000000 0 0 1
1.344703 4.287036 26.745715 27.120475 1.266848 0.166435 0.059886 -0.028862 -256906.000000 0 0 1
2.065903 5.414636 26.424465 27.052515 1.206304 0.215900 0.054507 -0.023704 -211828.000000 0 0 1
2.271203 5.578936 25.006935 25.722163 1.184181 0.236372 0.056861 -0.026171 -816420.000000 0 0 1
2.906903 6.930036 24.624365 25.745579 1.173624 0.296208 0.052027 -0.018169 145057.000000 0 0 1
4.287303 7.104236 24.912415 26.257943 1.027818 0.321516 0.030818 -0.004075 168386.000000 0 0 1
5.003103 6.631436 23.763055 25.173195 0.924452 0.336299 0.025601 -0.006916 258510.000000 0 0 1
6.568303 6.506536 23.820155 25.551466 0.780674 0.370235 0.029425 -0.003077 961126.000000 0 0 1
7.197003 5.417736 24.548725 26.149352 0.645276 0.351698 0.023243 -0.001655 405413.000000 0 0 1
6.816303 4.047236 24.266615 25.528625 0.535817 0.315746 0.028861 -0.004994 -601339.000000 0 0 1
7.029303 3.468936 22.835455 24.143376 0.458431 0.330664 0.012513 -0.005278 1026390.000000 0 1 0
6.029403 3.920836 21.873255 23.025333 0.576576 0.317673 0.017872 -0.011513 1437290.000000 0 1 0
4.713503 3.345536 21.932655 22.681514 0.617258 0.257680 0.024758 -0.020299 656207.000000 0 1 0
3.786703 3.859436 20.795955 21.487348 0.794910 0.254365 0.023310 -0.028936 105200.000000 0 1 0
3.319903 5.160336 21.126555 21.999594 0.999110 0.282665 0.024469 -0.025654 104671.000000 0 1 0
2.010703 5.354436 20.626755 21.405044 1.211569 0.270491 0.022916 -0.010873 -252521.000000 0 1 0
1.542803 6.785336 20.679955 21.819293 1.347224 0.324586 0.030147 -0.007492 -710461.000000 0 1 0
2.305703 7.645336 19.941555 21.480993 1.277888 0.380888 0.018065 -0.012854 -394470.000000 0 1 0
1.905403 9.002236 20.217255 22.212794 1.362216 0.427120 0.029993 -0.010152 80057.700000 0 1 0
2.955503 9.978636 19.692755 22.273589 1.282845 0.486167 0.030800 -0.015370 -526026.000000 0 1 0
3.047303 10.163736 18.253155 21.113153 1.279504 0.526563 0.011927 -0.016460 967791.000000 0 1 0
4.053703 11.136036 17.763155 21.353535 1.221689 0.588345 0.012411 -0.019661 1240760.000000 0 1 0
5.553303 10.885636 18.031755 21.782572 1.099062 0.595610 0.020487 -0.020157 -248294.000000 0 1 0
6.042503 9.895536 17.168055 20.716553 1.022598 0.593994 0.019121 -0.018207 -33881.800000 0 1 0
7.396603 9.582836 17.426055 21.218102 0.913451 0.607141 0.024178 -0.010170 75891.600000 0 1 0
7.442803 8.128736 17.965055 21.076405 0.829420 0.550281 0.022892 -0.008619 -255009.000000 0 1 0
7.118003 7.981636 19.339055 22.099130 0.842531 0.505144 0.019899 -0.007507 -63209.200000 0 1 0
6.982003 6.621936 19.683155 21.909473 0.758936 0.454716 0.018103 -0.015236 -380416.000000 0 1 0
8.303403 5.960836 20.098555 22.548392 0.622625 0.470477 0.019225 -0.006978 -170266.000000 0 1 0
9.170003 5.893036 18.964155 21.873637 0.571186 0.521673 0.017570 -0.008734 439967.000000 0 1 0
10.410103 5.204936 19.232455 22.479967 0.463639 0.544208 0.013459 -0.007748 796446.000000 0 1 0
10.313603 3.653136 19.168455 22.071372 0.340417 0.518677 0.005154 -0.007380 -375221.000000 0 1 0
9.740803 3.002936 20.287955 22.704669 0.299040 0.465586 0.010579 -0.004759 113362.000000 0 1 0
10.031603 1.608336 20.268455 22.672231 0.158974 0.464653 0.003384 -0.010931 -321425.000000 0 1 0
9.192803 0.764136 21.252255 23.167863 0.082933 0.409510 0.013203 -0.010787 -107590.000000 0 1 0
9.475703 0.900036 22.671555 24.588583 0.094699 0.397489 -0.004204 -0.008883 215787.000000 0 1 0
8.695703 -0.018064 23.417355 24.979754 -0.002077 0.355555 0.003084 -0.012010 -614229.000000 0 1 0
9.109603 0.018036 24.882565 26.497684 0.001980 0.350949 -0.003661 -0.002447 83715.600000 0 0 1
10.379903 -0.516864 25.232045 27.288562 -0.049754 0.390712 -0.017161 -0.001473 325076.000000 0 0 1
10.544803 -1.929064 24.987315 27.189705 -0.180939 0.405262 -0.024665 0.001863 -1129490.000000 0 0 1
11.921903 -2.486564 25.275735 28.056685 -0.205623 0.449001 -0.030121 0.010125 -636568.000000 0 0 1
11.975503 -3.865264 25.073185 28.053833 -0.312208 0.465154 -0.020752 0.017700 518677.000000 0 0 1
13.202903 -4.464364 25.515895 29.074183 -0.326066 0.499935 -0.021789 0.024466 551661.000000 0 0 1
13.041603 -5.996764 25.683195 29.422289 -0.430989 0.509648 -0.015816 0.016312 -183639.000000 0 0 1
12.775903 -6.490464 24.414905 28.309670 -0.470046 0.530760 -0.004056 0.008647 232839.000000 0 0 1
12.573703 -7.884864 24.495575 28.640920 -0.560102 0.544734 0.011955 -0.003243 -87134.600000 0 0 1
12.469803 -8.616664 23.143455 27.665184 -0.604662 0.579831 0.032255 -0.003785 33754.900000 0 0 1
12.115703 -9.971564 23.354455 28.136328 -0.688626 0.591606 0.035453 0.000758 -216488.000000 0 0 1
12.180803 -10.772564 22.214455 27.530022 -0.724123 0.631882 0.040748 -0.006029 47900.400000 0 0 1
11.564603 -12.171164 22.394555 27.989165 -0.810947 0.643309 0.041603 -0.006328 -638309.000000 0 0 1
10.175103 -12.092864 22.456255 27.460034 -0.871308 0.613254 0.037390 -0.003715 -851497.000000 0 0 1
9.568503 -13.346364 22.767155 28.071784 -0.948793 0.624880 0.030250 0.001733 -7834.890000 0 0 1
8.067403 -13.166364 23.045155 27.740139 -1.021070 0.590340 0.012282 0.007348 -269257.000000 0 0 1
7.328303 -12.599164 22.029755 26.415016 -1.043979 0.584504 0.008854 0.005088 -1229000.000000 0 0 1
5.975903 -12.470864 22.281855 26.224320 -1.123936 0.555449 -0.014435 0.005992 -400076.000000 0 0 1
5.299003 -11.367264 21.422455 24.823692 -1.134582 0.529649 -0.026246 0.017031 131288.000000 0 1 0
5.619303 -10.080364 21.955455 24.803877 -1.062251 0.483954 -0.012659 0.017037 20338.200000 0 1 0
5.010603 -9.032964 21.204355 23.586548 -1.064350 0.453311 -0.016585 0.015994 -248829.000000 0 1 0
5.033803 -7.745864 22.018955 23.878274 -0.994513 0.397237 -0.018903 0.009536 300639.000000 0 1 0
4.530203 -6.520264 21.361255 22.789028 -0.963577 0.355857 -0.024325 0.004795 54012.900000 0 1 0
5.076603 -5.361464 21.905955 23.116835 -0.812682 0.325099 0.002268 -0.006340 -117648.000000 0 1 0
-7.529997 -15.570464 -20.970628 27.182852 1.120348 2.451937 0.022699 0.006084 257634.000000 0 0 1
-7.071797 -15.306064 -19.646628 25.889687 1.137987 2.432356 0.018432 -0.001272 -401050.000000 0 0 1
-6.324897 -14.109464 -19.778428 25.105129 1.149379 2.478065 0.025731 -0.010072 40580.000000 0 0 1
-5.724297 -13.642464 -18.428228 23.632266 1.173513 2.465128 0.031184 -0.014506 -877729.000000 0 1 0
-4.643497 -14.375764 -18.043428 23.532742 1.258367 2.444539 0.018107 -0.005265 -1015340.000000 0 1 0
-4.039797 -13.825264 -16.872328 22.184078 1.286507 2.434972 0.013425 -0.008069 -126703.000000 0 1 0
-2.927497 -14.631264 -16.238928 22.053274 1.373319 2.398456 0.006817 -0.001505 149252.000000 0 1 0
-1.756497 -14.785264 -17.056128 22.640689 1.452550 2.423922 0.009777 -0.005099 10629.200000 0 1 0
-0.871597 -15.654464 -16.403828 22.691573 1.515177 2.378792 0.016052 0.006565 -20632.700000 0 1 0
0.457203 -15.981264 -17.116628 23.421972 -1.542195 2.390280 0.012740 0.011997 213091.000000 0 1 0
0.327903 -16.855364 -18.203528 24.810869 -1.551345 2.394535 0.014001 0.014737 -321446.000000 0 1 0
-0.121397 -18.174164 -18.073628 25.631446 1.564117 2.353410 0.010892 0.018217 -119377.000000 0 0 1
-0.514597 -18.751464 -19.494728 27.054143 1.543360 2.375438 0.008860 0.009524 567062.000000 0 0 1
-1.820297 -18.267964 -19.813628 27.011328 1.471480 2.394298 0.029906 0.001405 143346.000000 0 0 1
-1.941597 -18.561164 -21.155128 28.210389 1.466570 2.418716 0.029512 -0.001843 938885.000000 0 0 1
-2.979197 -17.531464 -21.835428 28.160500 1.402470 2.458132 0.038347 -0.006232 920430.000000 0 0 1
-2.540097 -16.187764 -21.824128 27.290811 1.415151 2.497571 0.040034 0.000565 -383165.000000 0 0 1
-2.820997 -15.454564 -20.602228 25.908558 1.390249 2.490117 0.047291 -0.007089 227312.000000 0 0 1
-2.071797 -14.063864 -20.405028 24.868650 1.424535 2.533103 0.028532 -0.017142 245778.000000 0 1 0
-2.373197 -13.202564 -21.539828 25.375262 1.392943 2.584605 0.029054 -0.024687 281837.000000 0 0 1
-1.471397 -12.106964 -21.608628 24.812827 1.449856 2.627756 0.012281 -0.005420 319705.000000 0 1 0
-1.636397 -11.395164 -22.940628 25.667099 1.428167 2.676490 0.016290 0.002210 -15742.100000 0 0 1
-2.680197 -10.457264 -22.989328 25.397776 1.319897 2.702578 0.016141 -0.004820 -166853.000000 0 0 1
-3.008497 -10.018264 -24.288228 26.444937 1.279063 2.734928 0.015803 -0.007797 -377930.000000 0 0 1
-4.094497 -8.957464 -24.232428 26.157439 1.142050 2.755551 0.012546 -0.000809 68584.600000 0 0 1
-5.427597 -9.474464 -24.108428 26.465838 1.050567 2.716320 0.012448 -0.005938 484894.000000 0 0 1
-6.258697 -8.348464 -24.222028 26.373751 0.927499 2.734850 0.028049 -0.001866 -1820750.000000 0 0 1
-7.745097 -8.453764 -24.023728 26.619394 0.829118 2.696312 0.009325 -0.006204 -889748.000000 0 0 1
-8.479297 -8.763264 -25.161758 27.960818 0.801866 2.690322 -0.002669 -0.001560 -229064.000000 0 0 1
-8.789297 -7.601064 -25.908148 28.394718 0.713029 2.719976 -0.014295 -0.003193 -391063.000000 0 0 1
-9.304197 -7.944164 -27.316558 29.931123 0.706711 2.720511 -0.017954 -0.006125 332023.000000 0 0 1
-9.990297 -6.845464 -27.959668 30.469812 0.600732 2.732843 -0.008638 -0.013271 304031.000000 0 0 1
-10.336297 -7.283764 -29.248738 31.865042 0.613859 2.733537 0.006081 -0.017849 229288.000000 0 0 1
-11.190297 -6.320064 -30.133768 32.759883 0.514120 2.738462 0.013246 -0.023690 553256.000000 0 0 1
-10.384297 -5.249464 -30.632328 32.767819 0.468053 2.778575 0.003520 -0.019550 324804.000000 0 0 1
-11.025597 -4.668564 -31.766878 33.948399 0.400540 2.781148 0.021632 -0.027072 -249068.000000 0 0 1
-10.130397 -3.769364 -32.589968 34.335682 0.356212 2.821345 0.021286 -0.018693 -412980.000000 0 0 1
-9.032297 -4.414964 -33.197408 34.686340 0.454646 2.847531 0.011378 -0.008222 -230376.000000 0 0 1
-8.649997 -3.591264 -34.249730 35.507233 0.393520 2.874660 0.020796 -0.012028 -989736.000000 0 0 1
-7.432597 -4.060864 34.280960 35.311730 0.500043 0.242214 0.012779 -0.009598 -640921.000000 0 0 1
-6.181997 -3.940964 -34.360231 35.133655 0.567531 2.931378 0.005372 -0.008382 1604.440000 0 0 1
-5.120497 -4.210964 34.017708 34.657700 0.688236 0.192474 0.000821 -0.004449 262403.000000 0 0 1
-3.728297 -3.664764 34.398173 34.793174 0.776805 0.150827 0.000364 0.000694 103837.000000 0 0 1
-3.663497 -2.241064 34.582831 34.848469 0.548999 0.123550 0.009502 -0.008704 639399.000000 0 0 1
-2.271197 -1.904464 -34.596736 34.723471 0.697797 3.056128 0.015941 -0.007917 942581.000000 0 0 1
-2.111897 -0.511364 -33.983778 34.053175 0.237563 3.077740 0.027117 -0.013907 -344725.000000 0 0 1
-2.452797 -0.553364 -32.590498 32.687352 0.221891 3.064593 0.011379 -0.013717 182773.000000 0 0 1
-3.160997 0.605936 -32.180788 32.341338 -0.189394 3.041910 0.018897 -0.018324 -700370.000000 0 0 1
-3.757497 0.286536 -30.806088 31.035720 -0.076110 3.019871 0.032811 -0.009385 971944.000000 0 0 1
-4.924597 -0.563364 -30.727488 31.124709 0.113903 2.981658 0.024266 -0.010663 809104.000000 0 0 1
-6.141997 0.060336 -31.082928 31.684005 -0.009823 2.946496 0.030344 -0.010413 602589.000000 0 0 1
-7.432197 -0.849764 -30.959418 31.850356 0.113841 2.904510 0.034381 -0.015063 862112.000000 0 0 1
-7.774297 -1.169764 -29.635908 30.660970 0.149345 2.882285 0.026932 -0.009036 -222624.000000 0 0 1
-8.750897 -2.176164 -29.640428 30.981750 0.243735 2.846262 0.017917 -0.009731 -104853.000000 0 0 1
-9.113097 -2.878664 -28.277448 29.848774 0.305963 2.815674 0.000758 -0.002452 -157250.000000 0 0 1
-9.796997 -2.056164 -27.374858 29.147758 0.206874 2.791018 -0.001875 -0.003850 -137466.000000 0 0 1
-10.067797 -2.692964 -26.181318 28.179318 0.261364 2.762760 -0.009489 -0.000319 54109.300000 0 0 1
-11.002197 -1.942564 -25.199928 27.565526 0.174760 2.724283 -0.021861 0.002630 510781.000000 0 0 1
-10.361997 -0.785864 -24.632128 26.734440 0.075696 2.742369 -0.012133 0.001701 276761.000000 0 0 1
-11.284297 -0.129664 -23.765528 26.308791 0.011490 2.698267 -0.015974 0.001922 45233.200000 0 0 1
-10.793697 1.131236 -23.070428 25.495651 -0.104424 2.701887 -0.011272 -0.003211 -36084.400000 0 0 1
-10.607197 2.162136 -23.995128 26.324012 -0.201082 2.717786 -0.016423 -0.001696 186083.000000 0 0 1
-9.834197 3.247336 -23.444528 25.630109 -0.318936 2.725626 -0.009047 0.003246 162710.000000 0 0 1
-9.742997 4.474036 -24.419528 26.669389 -0.430483 2.727890 0.006167 -0.001712 387002.000000 0 0 1
-10.994897 5.090336 -24.709828 27.520444 -0.433589 2.685708 -0.006250 0.006276 81054.100000 0 0 1
-11.468197 4.701736 -25.970588 28.776679 -0.389080 2.696306 -0.013401 0.003713 -540752.000000 0 0 1
-12.753197 5.386336 -26.391038 29.801737 -0.399625 2.658481 -0.013167 0.008027 -337477.000000 0 0 1
-12.527897 6.749136 -26.581588 30.150951 -0.494148 2.650074 -0.003882 0.008055 -25482.300000 0 0 1
-13.742997 7.379736 -26.921128 31.113945 -0.492793 2.616431 0.000505 0.000783 -354651.000000 0 0 1
-13.728997 8.908236 -26.970618 31.547682 -0.575575 2.596185 0.023180 -0.001415 -506303.000000 0 0 1
-13.939497 9.434936 -25.666278 30.693410 -0.595019 2.561140 0.029106 0.001359 128510.000000 0 0 1
-14.129597 10.813436 -25.663288 31.227876 -0.653224 2.535372 0.041635 -0.000302 -227072.000000 0 0 1
-13.831397 11.443036 -24.320828 30.228352 -0.691181 2.505748 0.026334 0.005362 -289056.000000 0 0 1
-14.823997 11.340836 -23.342928 29.887417 -0.653053 2.467108 0.035407 0.011544 -494718.000000 0 0 1
-14.443697 11.895736 -22.112028 28.966717 -0.688963 2.439295 0.029115 0.012786 -882413.000000 0 0 1
-15.447797 11.793336 -20.991528 28.607017 -0.652042 2.394679 0.034112 0.007116 -659799.000000 0 0 1
-16.618997 12.497336 -21.300828 29.767427 -0.644774 2.368243 0.034608 0.005410 -482954.000000 0 0 1
-17.324197 12.946936 -20.197328 29.591941 -0.641792 2.322012 0.032879 0.008218 -78251.100000 0 0 1
-18.798397 13.308236 -20.500628 30.834471 -0.616038 2.298104 0.028630 0.004590 48811.200000 0 0 1
-18.961897 14.493136 -21.237828 31.947611 -0.652609 2.297983 0.020268 -0.000410 345966.000000 0 0 1
-20.317197 14.907336 -21.333128 33.016957 -0.633007 2.273295 0.018650 -0.004931 279588.000000 0 0 1
-20.572197 16.273736 -22.009728 34.241464 -0.669263 2.268918 0.008218 -0.002144 -225778.000000 0 0 1
-20.318097 16.202036 -23.374028 34.952485 -0.673165 2.303305 0.014838 -0.005118 151670.000000 0 0 1
-20.630797 17.420536 -23.985428 36.116555 -0.701231 2.297101 0.006103 -0.001148 -288383.000000 0 0 1
-20.445497 17.354236 -25.519938 37.019658 -0.703800 2.331404 0.003145 0.000469 -130995.000000 0 0 1
-19.113797 16.999536 -25.827078 36.350507 -0.726920 2.361006 0.006276 -0.008111 96908.700000 0 0 1
-18.983797 16.935836 -27.222008 37.259157 -0.728445 2.390015 0.006175 -0.013210 176287.000000 0 0 1
-18.074397 18.000736 -27.868038 37.780125 -0.783356 2.400361 -0.011059 -0.007342 -327975.000000 0 0 1
-18.799897 19.170036 -27.843058 38.680257 -0.795146 2.374348 -0.019352 -0.019195 437586.000000 0 0 1
-17.957697 20.303736 -28.044768 39.002943 -0.846638 2.373220 -0.034330 -0.013848 -673166.000000 0 0 1
-18.700497 21.619136 -28.449648 40.329618 -0.857660 2.353823 0.000503 -0.013603 -44358.800000 0 0 1
-19.606297 22.174936 -27.562068 40.445052 -0.846799 2.320565 0.014161 -0.005969 -194361.000000 0 0 1
-20.913797 21.644936 -27.589458 40.829748 -0.802576 2.312737 0.050198 -0.020546 -480592.000000 0 0 1
-21.684997 21.929636 -26.304778 40.535038 -0.791007 2.276986 0.049986 -0.008107 -334917.000000 0 0 1
-21.358397 21.152436 -25.209888 39.231940 -0.780553 2.268665 0.010204 0.000398 74579.800000 0 0 1
-22.355597 21.299936 -24.198028 39.230148 -0.761221 2.235495 0.001737 -0.008344 101727.000000 0 0 1
-22.018997 20.703336 -22.841128 37.883789 -0.754612 2.217960 -0.004216 0.002641 345002.000000 0 0 1
-21.013397 21.502736 -22.175928 37.359099 -0.796907 2.206307 0.002099 0.001170 456298.000000 0 0 1
-20.038097 20.738636 -21.489928 35.964334 -0.802576 2.211219 -0.003013 -0.001468 10050.900000 0 0 1
-20.441897 20.162336 -20.066228 35.029194 -0.778513 2.180766 0.003004 -0.004059 -630817.000000 0 0 1
-21.354397 19.067936 -20.161428 35.015419 -0.728894 2.184363 0.015246 -0.005438 331278.000000 0 0 1
-21.962397 18.612736 -18.971128 34.477304 -0.703030 2.153460 0.002342 -0.004242 -153491.000000 0 0 1
-23.092497 19.546036 -18.505328 35.464885 -0.702414 2.119748 -0.013925 -0.009032 -1311030.000000 0 0 1
-24.188597 19.596436 -19.353528 36.656071 -0.680901 2.127012 -0.011049 -0.008494 -264390.000000 0 0 1
-25.088127 20.593436 -18.905328 37.562150 -0.687322 2.098219 -0.009397 -0.011018 -970809.000000 0 0 1
-26.515467 20.611136 -19.490628 38.830059 -0.660761 2.096645 -0.010152 0.003287 188061.000000 0 0 1
-27.325177 19.497736 -19.118328 38.630783 -0.619759 2.088515 0.004896 -0.000366 276484.000000 0 0 1
-27.738707 19.426936 -17.776928 38.247364 -0.610964 2.054192 -0.001143 -0.005426 -846584.000000 0 0 1
-28.592797 18.147936 -17.534328 38.135918 -0.565546 2.048550 -0.012427 0.001638 -215382.000000 0 0 1
-27.862207 16.978536 -17.371628 36.964127 -0.547284 2.060041 -0.004554 -0.000970 -149547.000000 0 0 1
-28.675517 15.934436 -16.953228 36.927001 -0.507194 2.047779 -0.010498 0.001434 135899.000000 0 0 1
-27.757357 14.803536 -16.418128 35.484792 -0.489946 2.051813 0.001427 0.003306 565376.000000 0 0 1
-27.073077 15.028636 -15.138928 34.467354 -0.506761 2.025532 0.001248 0.004727 493689.000000 0 0 1
-27.991407 15.180836 -14.078028 34.816196 -0.496943 1.987067 -0.014759 0.010127 59280.600000 0 0 1
-27.438947 15.850136 -12.784028 34.169489 -0.523824 1.954261 -0.011263 0.003912 -18701.800000 0 0 1
-26.945807 17.180636 -12.876628 34.453712 -0.567608 1.953831 -0.014848 0.005057 709280.000000 0 0 1
-27.994907 18.157836 -12.860028 35.760343 -0.575399 1.938654 -0.011349 0.006320 435964.000000 0 0 1
-27.367317 19.553336 -13.015628 36.065351 -0.620377 1.940018 -0.005136 -0.001613 99946.200000 0 0 1
-26.666047 19.916136 -11.868328 35.335361 -0.641496 1.913332 -0.014550 -0.016306 497954.000000 0 0 1
-25.687897 20.961136 -12.070628 35.283669 -0.684417 1.919950 -0.018221 -0.017537 589779.000000 0 0 1
-24.987197 21.459636 -10.797028 34.661964 -0.709595 1.887562 -0.025270 -0.003944 -719347.000000 0 0 1
-25.740967 22.336436 -10.038228 35.528576 -0.714703 1.857237 -0.006420 -0.010305 -217771.000000 0 0 1
-25.434637 23.640236 -10.442328 36.260498 -0.748850 1.862914 -0.001942 -0.012845 -7932.070000 0 0 1
-26.141917 24.752236 -9.635228 37.268091 -0.758100 1.832305 0.013545 -0.002435 -43977.900000 0 0 1
-25.638177 24.834436 -8.321628 36.651259 -0.769475 1.799843 0.011057 -0.005790 167659.000000 0 0 1
-26.473387 25.582336 -7.458528 37.562291 -0.768283 1.770689 0.017226 -0.011905 14324.200000 0 0 1
-26.348617 25.005436 -5.977428 36.813735 -0.759249 1.733888 0.016993 -0.007414 221552.000000 0 0 1
-26.982097 23.712736 -5.943628 36.409533 -0.720996 1.734774 0.009376 -0.007964 -27367.500000 0 0 1
-26.815607 23.033436 -4.748128 35.667361 -0.709671 1.704315 -0.002464 -0.005396 -395485.000000 0 0 1
-27.064177 21.570936 -4.980728 34.965448 -0.672927 1.713730 -0.016197 0.002950 94918.100000 0 0 1
-26.109237 20.779236 -5.696528 33.851430 -0.672210 1.739881 -0.021711 -0.005148 284223.000000 0 0 1
-26.041977 20.991536 -7.097028 34.193522 -0.678428 1.779871 -0.022077 -0.003873 -1092730.000000 0 0 1
-26.892777 20.104536 -7.999028 34.516637 -0.641951 1.804667 -0.021108 -0.006963 -520882.000000 0 0 1
-26.434707 18.773636 -8.030228 33.402510 -0.617531 1.813582 -0.037495 -0.002472 321690.000000 0 0 1
-26.864227 18.059036 -9.147128 33.637559 -0.591847 1.846196 -0.039543 0.002005 -279443.000000 0 0 1
-26.324037 16.615636 -9.228828 32.468531 -0.563043 1.859009 -0.024884 0.005749 278975.000000 0 0 1
-27.045797 15.661036 -8.436128 32.371460 -0.524877 1.834444 -0.043444 0.012864 497584.000000 0 0 1
-26.649057 14.383736 -8.918428 31.569011 -0.494937 1.857202 -0.033093 -0.000180 140271.000000 0 0 1
-27.196417 13.316836 -7.948928 31.307645 -0.455337 1.827504 -0.027692 0.002755 -335450.000000 0 0 1
-28.575997 13.182736 -8.160528 32.511018 -0.432229 1.824518 -0.017150 0.005392 -471346.000000 0 0 1
-29.171917 12.363636 -7.173228 32.485618 -0.400871 1.793444 -0.006606 -0.002909 -179299.000000 0 0 1
-29.824107 11.084736 -7.697728 32.735359 -0.355848 1.808169 -0.003550 0.002860 -424575.000000 0 0 1
-28.926317 10.180436 -8.245928 31.754817 -0.338405 1.833482 0.003283 0.008961 -157363.000000 0 0 1
-29.694557 9.193536 -8.914928 32.338270 -0.300244 1.850091 -0.001916 0.020153 72643.200000 0 0 1
-28.928887 7.940936 -9.417028 31.442318 -0.267900 1.874967 0.024042 0.016120 92733.200000 0 0 1
-28.162407 8.128636 -10.632128 31.180731 -0.280997 1.918760 0.018723 -0.001694 357879.000000 0 0 1
-27.619037 6.893636 -11.020428 30.525124 -0.244600 1.940166 0.030360 -0.006220 -280212.000000 0 0 1
-26.731607 7.029336 -12.275728 30.243741 -0.257138 1.988752 0.027165 -0.010079 173996.000000 0 0 1
-25.713877 8.032236 -12.142628 29.549343 -0.302766 1.994267 0.035593 -0.011932 -36088.300000 0 0 1
-24.787297 7.904836 -13.125628 29.140669 -0.308711 2.038035 0.030644 -0.002349 -1000080.000000 0 0 1
-30.546557 26.654836 -34.198154 53.038534 -0.717467 2.271531 -0.011077 -0.013545 -117579.000000 0 0 1
-30.926807 27.981436 -34.447799 54.093243 -0.735440 2.261166 -0.010523 -0.019027 228797.000000 0 0 1
-30.735217 28.298936 33.447929 53.518663 -0.744153 0.895694 0.001924 -0.021576 -55528.900000 0 0 1
-31.281667 29.744236 33.276525 54.503113 -0.760210 0.914050 0.004408 -0.023620 -5717.980000 0 0 1
-31.477187 30.061036 31.937165 53.985754 -0.762390 0.937773 0.027417 -0.023354 164840.000000 0 0 1
-31.702297 31.462736 31.819185 54.839766 -0.781606 0.951796 0.035447 -0.018244 -98699.100000 0 0 1
-31.643357 31.970436 30.343385 54.259854 -0.790540 0.977347 0.045175 -0.025193 571549.000000 0 0 1
-30.334757 31.746936 29.788425 53.060490 -0.808141 0.974714 0.020774 -0.022642 767424.000000 0 0 1
-30.133277 32.440936 28.563185 52.690456 -0.822260 0.997869 0.025598 -0.019271 41319.500000 0 0 1
-28.718427 32.417736 27.941605 51.540187 -0.845834 0.997824 0.013273 -0.016287 -523950.000000 0 0 1
-28.506257 31.158736 27.409825 50.346519 -0.829825 0.995095 0.024059 -0.021432 617824.000000 0 0 1
-27.292257 31.015136 26.662775 49.170209 -0.849161 0.997678 -0.002354 -0.004153 246723.000000 0 0 1
-27.076907 31.858636 25.347965 48.894283 -0.866356 1.025790 -0.003492 -0.011256 -712574.000000 0 0 1
-26.938417 33.194136 25.596005 49.826543 -0.889057 1.031302 -0.007965 -0.012368 165311.000000 0 0 1
-27.800957 33.995136 24.804525 50.436365 -0.885300 1.056642 -0.013029 -0.007966 -54600.800000 0 0 1
-27.950707 -33.859120 25.241675 50.644093 0.880699 1.049029 -0.002424 -0.009420 -322203.000000 0 0 1
-28.759177 -33.851820 26.384845 51.664262 0.866557 1.034800 0.005528 -0.025049 98624.800000 0 0 1
-28.660967 -32.679020 27.144225 51.246251 0.850809 1.012571 0.009308 -0.025996 -422164.000000 0 0 1
-29.100777 -32.912020 28.577095 52.409031 0.846780 0.994085 0.030571 -0.027491 548593.000000 0 0 1
-30.484577 -33.252420 28.787425 53.514004 0.828797 1.002803 0.022797 -0.033053 776656.000000 0 0 1
-30.736957 -33.512920 30.115265 54.541777 0.828577 0.985855 0.014361 -0.032236 376888.000000 0 0 1
-32.221917 -33.823320 30.460525 55.768382 0.809640 0.992979 0.014961 -0.034558 275252.000000 0 0 1
-32.424527 -33.943720 31.853975 56.729197 0.808285 0.974588 0.011445 -0.035704 -732588.000000 0 0 1
-33.793157 -34.021520 32.080025 57.693754 0.788766 0.981183 0.007114 -0.035679 -915741.000000 0 0 1
-34.155255 -34.484020 33.485764 58.966307 0.790188 0.966869 0.002976 -0.023622 -321682.000000 0 0 1
-33.881797 33.436736 33.698660 58.323161 -0.778787 0.954775 -0.004373 -0.015065 -158982.000000 0 0 1
-34.712582 32.979336 -34.554822 59.047740 -0.759799 2.195925 -0.004747 -0.015075 9942.840000 0 0 1
-34.315461 31.530836 -34.057498 57.720513 -0.743134 2.201907 -0.012084 -0.008825 176137.000000 0 0 1
-33.263707 31.496436 -33.125588 56.531444 -0.758115 2.196870 -0.013212 -0.006756 -297639.000000 0 0 1
-32.901087 30.160436 -32.763528 55.367699 -0.741966 2.204017 -0.016837 -0.008806 1018170.000000 0 0 1
-31.971447 30.151536 -31.442288 54.036154 -0.756111 2.191829 -0.018602 -0.003276 939247.000000 0 0 1
-32.724937 30.304436 -30.248258 53.890977 -0.747014 2.166735 -0.014827 -0.006990 -100992.000000 0 0 1
-33.063167 31.658436 -29.854628 54.650968 -0.763697 2.148711 -0.019595 0.003142 408318.000000 0 0 1
-33.863867 31.729136 -28.503538 54.460547 -0.752865 2.121609 -0.007207 -0.000351 161364.000000 0 0 1
-33.177557 31.226836 -27.383168 53.157346 -0.755119 2.111961 -0.022878 -0.014697 -738728.000000 0 0 1
-34.024767 30.857036 -26.331478 52.945143 -0.736614 2.091321 0.022063 -0.015448 -722141.000000 0 0 1
-33.403147 30.619536 -24.948528 51.727703 -0.741947 2.074080 0.027785 -0.018902 -443215.000000 0 0 1
-33.200087 31.822136 -24.326728 52.025799 -0.764209 2.057358 0.020318 -0.014075 -134005.000000 0 0 1
-32.997937 31.759236 -22.896628 51.203207 -0.766272 2.034397 0.011943 -0.020415 -7057.940000 0 0 1
-34.252467 31.441136 -22.017728 51.444697 -0.742630 2.013062 0.013510 -0.023914 7419.090000 0 0 1
34.650199 32.390936 -21.987428 52.280550 0.751711 2.004866 0.017704 -0.027683 -95538.100000 0 0 1
34.745160 33.564836 -21.223128 52.765950 0.768121 1.984729 0.019826 -0.026302 -377658.000000 0 0 1
34.840284 33.493836 -19.733128 52.202287 0.765697 1.958445 0.016296 -0.023389 -32469.000000 0 0 1
-33.899297 32.858736 -19.366028 51.028442 -0.769812 1.960068 0.011241 -0.027816 -80218.900000 0 0 1
-33.786107 32.646736 -17.983628 50.306274 -0.768249 1.936368 0.018821 -0.019102 -100537.000000 0 0 1
-32.604047 31.707436 -17.698328 48.801805 -0.771457 1.941914 0.028963 -0.018561 17254.200000 0 0 1
-32.348857 31.562436 -16.285128 48.039996 -0.773094 1.916641 0.009779 -0.010607 -322777.000000 0 0 1
-31.186797 30.834036 -15.996328 46.682294 -0.779710 1.920547 0.009850 -0.008968 -417080.000000 0 0 1
-30.865637 30.684636 -14.511028 45.878146 -0.782457 1.892618 0.016540 -0.006952 98333.400000 0 0 1
-31.830647 29.873636 -13.820028 45.788834 -0.753693 1.877398 0.012269 -0.004715 320749.000000 0 0 1
-31.367237 29.493436 -12.570728 44.852976 -0.754620 1.854867 0.022692 -0.004477 -570690.000000 0 0 1
-32.244597 28.501336 -11.792028 44.621655 -0.723854 1.838240 0.016188 -0.008874 -293903.000000 0 0 1
-31.839017 28.219336 -10.481428 43.816826 -0.725202 1.812349 0.023267 -0.008015 427917.000000 0 0 1
-32.766657 27.315036 -9.868028 43.785191 -0.694909 1.798123 0.019820 -0.008062 -180818.000000 0 0 1
-32.108297 26.444036 -8.838528 42.524691 -0.688960 1.780167 0.014013 -0.006945 -20799.300000 0 0 1
-31.640947 27.038136 -7.621928 42.311985 -0.707118 1.751921 0.014603 -0.014285 644189.000000 0 0 1
-30.493467 27.883136 -7.698428 42.030781 -0.740713 1.754998 0.029823 -0.018864 -265276.000000 0 0 1
-30.051177 28.463036 -6.349028 41.875145 -0.758264 1.723001 0.020374 -0.013865 -357484.000000 0 0 1
-29.544047 27.451436 -5.526728 40.705979 -0.748699 1.706989 0.022219 -0.016667 201247.000000 0 0 1
-29.408827 27.898036 -4.203228 40.753486 -0.759041 1.674118 0.013063 -0.013184 -528337.000000 0 0 1
-28.669827 26.934736 -3.296928 39.475419 -0.754204 1.654412 0.011051 -0.014781 -423071.000000 0 0 1
-29.395047 25.780636 -3.062728 39.218494 -0.719984 1.648970 0.001146 -0.004489 164456.000000 0 0 1
-28.536047 24.916436 -2.312028 37.953659 -0.717785 1.631751 -0.015074 -0.002146 345237.000000 0 0 1
-29.191467 23.593236 -1.859228 37.579771 -0.679735 1.620291 -0.020406 0.002327 -77917.100000 0 0 1
-29.521887 22.660136 -2.831128 37.323435 -0.654652 1.646723 -0.024475 0.008583 672771.000000 0 0 1
-30.561147 21.739636 -2.419828 37.582589 -0.618302 1.635228 -0.025420 0.014802 710331.000000 0 0 1
-30.961347 20.771636 -3.588128 37.455847 -0.590920 1.666740 -0.019664 0.014145 -1147000.000000 0 0 1
-29.984617 19.879536 -3.821528 36.178409 -0.585454 1.676624 -0.027546 0.012174 -960447.000000 0 0 1
-30.184207 19.096536 -5.010728 36.067595 -0.564093 1.710173 -0.014103 0.013090 248431.000000 0 0 1
-28.935417 18.218136 -5.342728 34.607854 -0.561910 1.725795 -0.012410 0.018101 301665.000000 0 0 1
-28.922517 17.025236 -4.560328 33.869857 -0.532032 1.705849 -0.027788 0.009118 398772.000000 0 0 1
-28.392297 15.942236 -5.334728 32.996010 -0.511628 1.733187 -0.036348 0.007976 -219291.000000 0 0 1
-27.762037 14.804536 -4.550228 31.790085 -0.489904 1.714423 -0.023278 -0.001405 -819428.000000 0 0 1
-28.701557 14.017236 -3.908428 32.179777 -0.454308 1.692553 0.011058 -0.011239 -1484.640000 0 0 1
-28.127207 13.002636 -3.092528 31.141163 -0.433019 1.670267 0.032745 -0.016587 243253.000000 0 0 1
-29.180877 12.052936 -2.424728 31.665062 -0.391699 1.647446 0.034243 -0.016910 619282.000000 0 0 1
-30.061387 11.407136 -3.365028 32.328519 -0.362676 1.675074 -0.001234 -0.005345 938460.000000 0 0 1
-31.041367 10.577036 -2.730128 32.907351 -0.328402 1.653856 0.003261 0.004744 -135330.000000 0 0 1
-32.274467 10.340236 -3.609328 34.082091 -0.310052 1.676896 -0.003526 0.006222 -262645.000000 0 0 1
-32.047237 9.365036 -4.617528 33.705353 -0.284310 1.708225 0.005368 -0.006853 217347.000000 0 0 1
-33.110137 9.296036 -5.542728 34.834168 -0.273714 1.730593 0.001970 0.008441 5625.300000 0 0 1
-32.794637 8.413036 -6.804128 34.533513 -0.251122 1.769124 0.002506 0.001308 -132967.000000 0 0 1
-32.558787 7.018936 -6.432328 33.922189 -0.212328 1.761572 -0.002450 0.005537 365035.000000 0 0 1
-32.212407 6.210936 -7.518528 33.656249 -0.190474 1.796089 -0.002374 0.013067 -651866.000000 0 0 1
-31.297277 5.069336 -7.146228 32.500558 -0.160579 1.792488 0.006725 0.010282 -624596.000000 0 0 1
-29.945357 5.390436 -6.992728 31.219856 -0.178102 1.796696 0.018019 0.006420 110161.000000 0 0 1
-29.121407 4.270836 -6.598328 30.163459 -0.145618 1.791332 0.009749 0.000278 1198360.000000 0 0 1
-27.611447 4.678236 -6.411628 28.729547 -0.167837 1.795864 0.039100 -0.000318 694457.000000 0 0 1
-26.936927 5.000936 -7.593928 28.430180 -0.183564 1.841187 0.041336 0.000228 336478.000000 0 0 1
-25.549097 5.152036 -7.314128 27.070210 -0.198984 1.844388 0.059529 -0.013448 814541.000000 0 0 1
-24.693397 5.407736 -8.639628 26.714240 -0.215592 1.900126 0.056482 -0.007663 274812.000000 0 0 1
-24.756597 4.404736 -9.654928 26.935263 -0.176079 1.937403 0.049606 -0.017212 587357.000000 0 0 1
-23.840497 4.715236 -10.709428 26.557383 -0.195263 1.985869 0.045949 -0.017557 126718.000000 0 0 1
-24.071297 3.810036 -11.975728 27.154406 -0.156979 2.027535 0.046711 -0.025892 343775.000000 0 0 1
-25.312257 4.130936 -12.601428 28.575705 -0.161773 2.027491 0.037693 -0.011782 553978.000000 0 0 1
-25.520367 3.362036 -13.819128 29.215761 -0.130985 2.063492 0.038763 -0.014470 246548.000000 0 0 1
-26.355157 4.277036 -14.730528 30.493864 -0.160882 2.074949 0.028116 -0.010410 -701342.000000 0 0 1
-25.495437 5.198936 -15.298328 30.184185 -0.201158 2.102303 0.023201 -0.004196 147794.000000 0 0 1
-26.068317 6.221036 -16.145928 31.288167 -0.234262 2.113017 0.032103 -0.006993 -164846.000000 0 0 1
-26.883037 5.806636 -17.415028 32.553001 -0.212728 2.135274 0.000197 0.011272 132295.000000 0 0 1
-28.063947 5.163036 -16.972928 33.201240 -0.181940 2.107393 0.006245 -0.001375 2773.000000 0 0 1
-28.835307 4.756736 -18.151928 34.403400 -0.163490 2.126593 0.013732 0.012320 767774.000000 0 0 1
-30.213127 4.136836 -17.739528 35.279417 -0.136076 2.097665 0.016908 0.010831 15364.600000 0 0 1
-30.321067 2.939736 -16.947228 34.859972 -0.096651 2.078477 0.012167 0.003281 258090.000000 0 0 1
-29.663247 1.811536 -17.530128 34.503554 -0.060994 2.103736 0.025458 -0.000765 -18097.800000 0 0 1
-30.147767 0.539336 -16.803128 34.518456 -0.017888 2.079204 0.020096 -0.000924 -725349.000000 0 0 1
-29.824927 -0.676464 -17.404928 34.538607 0.022677 2.098935 0.027863 0.002886 211420.000000 0 0 1
-29.902877 -1.810764 -16.555628 34.227908 0.060481 2.075660 0.028495 -0.009247 -320581.000000 0 0 1
-29.488707 -3.092264 -17.268628 34.312555 0.104481 2.098180 0.039028 -0.003035 -479442.000000 0 0 1
-30.467637 -3.531764 -18.152028 35.640516 0.115403 2.105178 0.037007 -0.004190 -66041.300000 0 0 1
-30.092637 -4.731964 -18.819628 35.806936 0.155969 2.124200 0.042997 -0.007164 318206.000000 0 0 1
-31.103357 -5.081364 -19.949528 37.299098 0.161940 2.135130 0.059560 -0.012082 323978.000000 0 0 1
-30.668967 -6.166164 -20.725828 37.525552 0.198410 2.155932 0.056018 -0.008067 -63387.900000 0 0 1
-31.674447 -6.556364 -21.621028 38.906623 0.204110 2.160020 0.050203 -0.008388 -304310.000000 0 0 1
-31.235277 -7.669664 -22.565828 39.289729 0.240781 2.182599 0.048410 -0.013009 -844081.000000 0 0 1
-30.192287 -7.404964 -23.415528 38.919078 0.240513 2.216357 0.053838 -0.013618 -750809.000000 0 0 1
-29.971337 -8.476864 -24.344628 39.532254 0.275633 2.234219 0.052527 -0.004273 -91549.100000 0 0 1
-28.614867 -8.293364 -25.059528 38.930328 0.282098 2.270122 0.045421 0.000348 -893975.000000 0 0 1
-28.376297 -7.103464 -25.776608 38.988549 0.245290 2.293124 0.041503 -0.003537 -77519.300000 0 0 1
-28.639447 -7.195164 -27.175008 40.130653 0.246138 2.314697 0.038001 -0.004181 -122752.000000 0 0 1
-30.096717 -7.187464 -27.675678 41.514035 0.234422 2.300513 0.044281 -0.003104 -30993.600000 0 0 1
-30.783517 -8.364164 -27.303808 41.989071 0.265304 2.278723 0.042086 -0.001467 206433.000000 0 0 1
-32.175227 -8.382164 -27.623128 43.226648 0.254851 2.264033 0.035722 0.004985 701149.000000 0 0 1
-32.850047 -9.739564 -27.345388 43.837825 0.288229 2.244373 0.023451 -0.006826 -394677.000000 0 0 1
-32.477027 -10.873664 -28.102318 44.302755 0.323080 2.257931 0.024399 0.002321 22975.400000 0 0 1
-33.431667 -11.904364 -27.989778 45.197543 0.342081 2.238617 0.007137 0.000587 17889.600000 0 0 1
-34.656982 -11.872364 -28.940198 46.686127 0.330038 2.239397 -0.004704 0.002945 452711.000000 0 0 1
34.361065 -10.836564 -28.503598 45.940929 -0.305500 2.240100 -0.010592 0.007481 -40130.500000 0 0 1
33.432492 -10.598964 -29.515718 45.839362 -0.307003 2.270374 -0.017747 0.002034 -848457.000000 0 0 1
32.311232 -9.680864 -29.097728 44.546746 -0.291102 2.282593 -0.013667 0.008081 -594221.000000 0 0 1
31.430032 -10.271864 -28.160618 43.432459 -0.315874 2.276247 -0.021377 0.014192 -31547.700000 0 0 1
30.463002 -9.277964 -27.786938 42.263329 -0.295640 2.288254 -0.018075 0.007589 295138.000000 0 0 1
29.481742 -9.792764 -26.706958 40.967462 -0.320698 2.280892 -0.035225 0.022150 -207346.000000 0 0 1
30.062272 -10.124264 -25.442888 40.664253 -0.324846 2.246802 -0.041001 0.020361 404258.000000 0 0 1
29.056402 -10.397164 -24.459728 39.378341 -0.343631 2.241001 -0.032967 0.024018 158040.000000 0 0 1
29.618762 -10.552164 -23.070628 38.998373 -0.342246 2.203813 -0.033722 0.017038 -432118.000000 0 0 1
30.295142 -11.729264 -22.879428 39.734613 -0.369394 2.184386 -0.043178 0.020831 -223416.000000 0 0 1
30.534132 -11.782764 -21.492528 39.154763 -0.368282 2.151859 -0.029791 0.017335 -292120.000000 0 0 1
31.648062 -12.716564 -20.999828 40.053758 -0.382067 2.122679 -0.024248 0.018463 -527476.000000 0 0 1
32.910542 -12.419764 -21.540428 41.247355 -0.360855 2.120255 -0.021984 0.019084 -491471.000000 0 0 1
33.817922 -13.329064 -20.974428 41.967158 -0.375446 2.094143 -0.013685 0.021386 -106402.000000 0 0 1
-34.716845 -13.282464 -21.616728 42.999605 0.365412 2.097538 0.000643 0.008096 -35966.800000 0 0 1
-33.877997 -12.147964 -21.398928 41.871300 0.344298 2.107219 0.013427 0.010788 491860.000000 0 0 1
-34.198885 -11.019164 -22.249828 42.261573 0.311705 2.125250 0.021484 0.005881 -458091.000000 0 0 1
-33.831807 -11.187464 -23.765828 42.831823 0.319360 2.158996 0.021083 0.001425 238908.000000 0 0 1
-34.451394 -12.221564 -24.564828 44.041979 0.340898 2.162480 0.010299 0.008325 673066.000000 0 0 1
34.098728 -11.987864 -24.806128 43.838067 -0.338067 2.172270 0.004259 0.012861 112689.000000 0 0 1
33.539542 -13.035764 -25.747788 44.246814 -0.370700 2.191875 -0.012845 0.002561 -323155.000000 0 0 1
33.376382 -14.339664 -25.359518 44.302528 -0.405790 2.180247 -0.015150 -0.000374 281670.000000 0 0 1
32.490682 -14.556164 -24.279228 43.093006 -0.421198 2.169309 -0.020230 -0.001176 -450035.000000 0 0 1
-28.596327 8.256836 -20.090928 35.910592 -0.281093 2.164544 0.003633 0.005327 -124534.000000 0 0 1
-27.483137 7.619136 -20.648028 35.209588 -0.270438 2.197443 -0.000498 0.004124 535134.000000 0 0 1
-26.344897 8.520336 -20.722328 34.584166 -0.312798 2.213280 0.003743 -0.002419 620552.000000 0 0 1
-25.041497 7.791536 -21.087128 33.651917 -0.301650 2.248011 -0.005585 0.008939 -626670.000000 0 0 1
-24.488097 7.070536 -19.992428 32.393773 -0.281089 2.235936 0.000707 0.006474 48323.800000 0 0 1
-23.331797 6.395236 -20.431028 31.665417 -0.267529 2.272102 0.018228 0.000368 391241.000000 0 0 1
-21.975997 7.108736 -20.164728 30.660965 -0.312854 2.288515 0.018337 -0.002253 -179191.000000 0 0 1
-21.663797 8.269736 -20.879828 31.203779 -0.364658 2.303853 0.018135 0.001519 649377.000000 0 0 1
-20.411597 8.783736 -20.391928 30.159874 -0.406377 2.313291 0.023985 0.007690 757325.000000 0 0 1
-19.623097 9.800736 -21.288928 30.566956 -0.463207 2.341261 0.032546 0.007611 -10513.500000 0 0 1
-18.996097 9.136136 -22.369728 30.736385 -0.448290 2.385895 0.039865 -0.001268 353211.000000 0 0 1
-18.290497 10.118836 -23.185528 31.217011 -0.505319 2.407921 0.039923 0.002522 478183.000000 0 0 1
-17.406497 9.388636 -24.250328 31.292347 -0.494650 2.457449 0.032868 0.000196 48205.800000 0 0 1
-18.148397 8.675136 -25.212128 32.253274 -0.445902 2.468171 0.026371 0.000270 75293.800000 0 0 1
-17.276797 7.995636 -26.087918 32.295469 -0.433444 2.511188 0.012913 0.003824 -685849.000000 0 0 1
-18.040897 7.017436 -26.906258 33.146117 -0.370965 2.517933 0.004887 0.007391 -470970.000000 0 0 1
-18.278497 5.864136 -26.129548 32.422905 -0.310448 2.507987 0.014371 0.012445 177150.000000 0 0 1
-19.027397 4.950836 -26.947098 33.357138 -0.254551 2.511268 0.009800 0.011586 -608134.000000 0 0 1
-19.261397 3.561336 -26.269838 32.768718 -0.182830 2.500887 0.001724 0.015037 144875.000000 0 0 1
-18.155597 2.695436 -26.048238 31.865369 -0.147387 2.527760 -0.006253 0.015077 402409.000000 0 0 1
-17.135897 3.228836 -25.185578 30.632950 -0.186242 2.536014 -0.009565 0.010952 -150160.000000 0 0 1
-16.327797 2.026736 -24.630828 29.620639 -0.123496 2.552676 -0.013720 0.008821 -100956.000000 0 0 1
-16.827397 1.293736 -23.495328 28.928627 -0.076732 2.518680 -0.021836 0.008855 416756.000000 0 0 1
-18.059597 0.581336 -23.651728 29.763925 -0.032179 2.489217 -0.019132 0.014385 412780.000000 0 0 1
-18.394897 -0.319564 -22.425728 29.006682 0.017371 2.454546 0.007661 0.014848 -139051.000000 0 0 1
-17.546997 -1.425264 -22.217628 28.346983 0.081048 2.471516 -0.014291 0.018919 -187573.000000 0 0 1
-17.903397 -1.997564 -20.971928 27.646765 0.111115 2.431908 0.015545 0.010944 -277623.000000 0 0 1
-17.567797 -3.495964 -20.835428 27.476613 0.196432 2.431493 -0.024865 0.009554 -291228.000000 0 0 1
-18.243697 -4.284864 -21.736228 28.699410 0.230687 2.430081 -0.021966 0.004350 -89962.700000 0 0 1
-18.629497 -5.567364 -21.188228 28.757515 0.290398 2.399106 -0.018228 0.008190 -191829.000000 0 0 1
-18.539297 -6.707064 -22.252528 29.729871 0.347127 2.416579 -0.031226 0.006481 -255709.000000 0 0 1
-17.203497 -6.935364 -22.621128 29.253632 0.383208 2.454788 -0.027348 0.006657 -187183.000000 0 0 1
-17.199997 -7.825464 -23.713928 30.322073 0.426978 2.468774 -0.020145 -0.001492 308364.000000 0 0 1
-15.856297 -7.696064 -24.461328 30.149761 0.451870 2.517216 -0.019114 -0.011956 -861250.000000 0 0 1
-15.818197 -8.217964 -25.792778 31.353112 0.479146 2.536861 -0.021067 -0.017306 115459.000000 0 0 1
-14.621197 -8.114564 -26.563308 31.388451 0.506663 2.579753 -0.005228 -0.016306 458623.000000 0 0 1
-13.393797 -8.908064 -26.041428 30.608877 0.586909 2.588265 0.014455 -0.018168 -177130.000000 0 0 1
-12.790397 -8.460864 -24.806328 29.163922 0.584418 2.587889 0.000802 -0.011626 180745.000000 0 0 1
-12.271297 -9.600764 -24.111028 28.707160 0.663902 2.567888 -0.002239 -0.003279 -5522.580000 0 0 1
-11.477197 -9.176764 -22.852228 27.169162 0.674476 2.570127 0.010385 -0.001695 -90852.100000 0 0 1
-12.237797 -8.759164 -21.734628 26.436351 0.621216 2.535973 0.012467 0.005500 282930.000000 0 0 1
-11.401297 -8.323264 -20.657828 25.020235 0.630596 2.542141 0.012090 0.001568 -254735.000000 0 0 1
-12.194397 -7.952864 -19.402728 24.257312 0.577902 2.497877 0.001898 0.009294 -268785.000000 0 1 0
-13.073797 -6.888264 -19.434728 24.414770 0.484916 2.491493 -0.012340 0.013660 63029.100000 0 1 0
-14.424297 -7.221264 -19.726228 25.481975 0.464153 2.456128 -0.015343 0.007695 284153.000000 0 0 1
-15.452297 -6.115264 -19.408028 25.550763 0.376838 2.433474 -0.034762 0.019126 -302298.000000 0 0 1
-15.567997 -5.830464 -18.033028 24.526453 0.358346 2.396829 -0.032967 0.017414 307332.000000 0 1 0
-14.913097 -4.610464 -17.668228 23.575901 0.299835 2.417980 -0.035694 0.014548 -301489.000000 0 1 0
-14.890797 -4.463464 -16.142528 22.410701 0.291224 2.375037 -0.021924 0.011312 1022860.000000 0 1 0
-16.128197 -4.038964 -15.490128 22.723908 0.245382 2.320834 -0.009387 0.003699 996220.000000 0 1 0
-16.496697 -2.685064 -15.688828 22.923566 0.161349 2.324573 -0.034701 0.001134 419120.000000 0 1 0
-17.706997 -2.319064 -14.745028 23.158835 0.130228 2.260996 -0.020143 -0.001404 300790.000000 0 1 0
-17.428497 -2.441264 -13.368028 22.100145 0.139168 2.220417 -0.003692 -0.016926 789245.000000 0 1 0
-18.432197 -1.770264 -12.598928 22.396711 0.095748 2.168245 0.005445 -0.020553 397758.000000 0 1 0
-17.864597 -0.428764 -11.981328 21.514643 0.023996 2.161435 -0.002704 -0.016679 194113.000000 0 1 0
-17.501497 0.502936 -13.000428 21.807486 -0.028729 2.209488 0.004401 -0.009469 -424984.000000 0 1 0
-16.549497 1.317636 -12.482628 20.771086 -0.079450 2.215500 0.009459 -0.005160 -1819730.000000 0 1 0
-16.145897 2.444636 -13.496328 21.185303 -0.150268 2.261476 0.020099 0.000728 163523.000000 0 1 0
-15.409897 1.931336 -14.598128 21.314322 -0.124681 2.325259 0.014242 -0.005899 705410.000000 0 1 0
-14.104997 1.432036 -14.284128 20.125555 -0.101180 2.359941 0.003941 0.001389 -550266.000000 0 1 0
-13.616997 0.408036 -15.349028 20.522713 -0.029956 2.415696 -0.003739 -0.000211 -217100.000000 0 1 0
-13.232497 0.954336 -16.595928 21.246989 -0.071996 2.467215 -0.010352 -0.003778 113574.000000 0 1 0
-12.796397 -0.087764 -17.459528 21.646953 0.006858 2.509103 -0.028438 0.003709 -73807.300000 0 1 0
-12.119697 0.353636 -18.755128 22.333090 -0.029170 2.567694 -0.023490 0.000096 -245953.000000 0 1 0
-10.819897 0.866536 -18.629728 21.561257 -0.079917 2.614031 -0.025952 0.005226 -469298.000000 0 1 0
-10.682897 1.919736 -19.572228 22.380388 -0.177804 2.635254 -0.016554 -0.000457 355367.000000 0 1 0
-9.307997 2.626436 -19.396628 21.674089 -0.275020 2.679054 -0.017427 0.001072 -313719.000000 0 1 0
-8.287897 1.748936 -19.793228 21.529512 -0.207972 2.737230 -0.015606 0.009954 129757.000000 0 1 0
-6.948097 2.175536 -19.499528 20.814432 -0.303443 2.784243 -0.014685 0.013858 1103340.000000 0 1 0
-6.421897 3.343236 -20.385428 21.632930 -0.479991 2.800331 -0.017942 0.017051 -847015.000000 0 1 0
-6.367897 2.970736 -21.732628 22.840370 -0.436505 2.828874 -0.021124 0.022352 262854.000000 0 1 0
-5.901897 3.905336 -22.719128 23.795857 -0.584562 2.839619 -0.012105 0.015430 -274947.000000 0 1 0
-5.537597 3.250236 -24.068728 24.910493 -0.530761 2.880887 0.000204 0.009862 454282.000000 0 1 0
-4.277597 2.575936 -24.011328 24.525031 -0.542030 2.936558 0.013951 0.000067 296800.000000 0 1 0
-3.832697 2.136636 -25.282728 25.660692 -0.508565 2.969746 0.019754 0.000420 -398266.000000 0 0 1
-2.435197 1.542336 -25.246758 25.410780 -0.564582 3.027911 0.018429 -0.002458 -1142050.000000 0 0 1
-1.392097 2.447436 -25.006528 25.164545 -1.053636 3.029468 0.018679 -0.005239 343458.000000 0 0 1
-0.096997 1.887236 -24.782728 24.854671 -1.519445 3.065488 0.020152 -0.008306 667407.000000 0 1 0
0.072503 1.041636 -23.511328 23.534502 1.501303 3.097211 0.015985 -0.016792 -1025090.000000 0 1 0
-0.299497 -0.299364 -23.658728 23.662517 0.785177 3.123696 0.005591 -0.014713 -749822.000000 0 1 0
0.371203 -1.058264 -22.740228 22.767865 -1.233439 3.092316 0.011554 -0.014418 -1570310.000000 0 1 0
0.057303 -2.540564 -22.677528 22.819466 -1.548245 3.030000 0.019512 -0.019905 -77414.800000 0 1 0
-1.160097 -3.033664 -22.108128 22.345430 1.205547 2.995726 0.009525 -0.010791 -177742.000000 0 1 0
-2.294497 -2.886564 -22.897128 23.192141 0.899180 2.981921 0.015989 -0.010765 -803226.000000 0 1 0
-2.985597 -1.512164 -22.892228 23.135568 0.468823 2.996427 0.008790 -0.006842 -2275760.000000 0 1 0
-3.497597 -1.204064 -21.612928 21.927188 0.331547 2.972085 -0.000200 -0.002985 54904.100000 0 1 0
-4.213197 0.042536 -21.597228 22.004388 -0.010096 2.948922 -0.007191 -0.001329 373090.000000 0 1 0
-5.632197 0.013836 -22.200128 22.903439 -0.002457 2.893133 -0.010151 0.000073 -708832.000000 0 1 0
-6.466197 -0.848864 -21.506928 22.473990 0.130531 2.847170 -0.001794 -0.000746 -710877.000000 0 1 0
-7.754997 -0.972764 -22.055028 23.398942 0.124785 2.801025 -0.021185 0.013553 -48693.200000 0 1 0
-8.528297 -2.185464 -21.596928 23.322422 0.250862 2.754514 -0.013679 0.008036 -188207.000000 0 1 0
-8.439097 -3.170864 -22.599228 24.331005 0.359415 2.762023 0.000336 0.000794 122763.000000 0 1 0
-9.062097 -4.388064 -22.227928 24.401997 0.450946 2.716271 -0.002282 0.004587 -164194.000000 0 1 0
-9.991797 -5.069264 -23.267828 25.824896 0.469504 2.692829 -0.004504 -0.000234 -330702.000000 0 0 1
-11.334197 -4.748064 -23.040528 26.112718 0.396705 2.651627 -0.016099 -0.003420 -675570.000000 0 0 1
-12.096997 -5.457864 -24.006428 27.430534 0.423831 2.636587 -0.023071 -0.006770 467938.000000 0 0 1
-13.613997 -5.099564 -24.069928 28.119528 0.358405 2.598252 -0.042409 -0.013041 278307.000000 0 0 1
-13.941997 -3.836664 -24.588128 28.524994 0.268541 2.609969 -0.039223 -0.013849 261836.000000 0 0 1
-15.288797 -3.691264 -25.022528 29.555027 0.236902 2.580440 -0.025682 -0.018218 465704.000000 0 0 1
-15.794497 -2.259264 -25.275238 29.889932 0.142077 2.578504 -0.028246 -0.012142 -221403.000000 0 0 1
-15.127897 -1.727464 -26.435088 30.506577 0.113698 2.619019 -0.022620 -0.007551 323022.000000 0 0 1
-15.708997 -0.576164 -26.980848 31.226122 0.036661 2.614051 -0.030899 -0.004961 -67580.900000 0 0 1
-17.154997 -0.650864 -27.534408 32.447822 0.037922 2.584082 -0.028210 0.008488 -256525.000000 0 0 1
-17.481497 -1.475564 -28.630198 33.577794 0.084208 2.591838 -0.023367 -0.008012 -191344.000000 0 0 1
-16.984497 -1.057664 -29.893538 34.397898 0.062192 2.624078 -0.019484 -0.010547 -229402.000000 0 0 1
-17.126097 -2.213264 -30.960008 35.450300 0.128521 2.632805 -0.009192 -0.013232 -503830.000000 0 0 1
-18.419797 -2.568564 -31.335288 36.438807 0.138552 2.605954 -0.009438 -0.016094 -603739.000000 0 0 1
-18.456897 -3.175664 -32.574258 37.574248 0.170390 2.619807 0.000036 -0.017598 96920.800000 0 0 1
-19.911997 -3.555664 -33.025528 38.727456 0.176706 2.592058 -0.006857 -0.019473 698790.000000 0 0 1
-20.811797 -2.502964 -33.298818 39.347261 0.119692 2.579760 -0.003695 -0.016595 346076.000000 0 0 1
-21.307797 -1.736564 -32.207768 38.657188 0.081319 2.555600 -0.016565 -0.003996 -439300.000000 0 0 1
-22.465697 -0.771264 -32.527188 39.538846 0.034317 2.536877 -0.008376 -0.000621 104597.000000 0 0 1
-21.987197 0.406036 -33.111228 39.748649 -0.018465 2.555332 -0.012277 0.001437 475755.000000 0 0 1
-23.092397 1.253236 -33.316868 40.556665 -0.054217 2.534814 -0.013567 0.006649 221074.000000 0 0 1
-22.619697 2.539636 -34.056018 40.962333 -0.111807 2.552416 -0.011711 0.009143 -23107.100000 0 0 1
-21.964197 3.533036 -33.236328 39.994522 -0.159488 2.551739 -0.016081 0.010888 518565.000000 0 0 1
-22.752997 4.334936 -32.352208 39.788891 -0.188265 2.520248 -0.016136 0.009591 64741.500000 0 0 1
-23.866597 5.275036 -32.922988 41.004433 -0.217525 2.502962 -0.033622 0.007043 84233.200000 0 0 1
-25.004397 4.559236 -33.351058 41.932082 -0.180356 2.490396 -0.021542 0.000096 -37231.000000 0 0 1
-25.852047 5.402436 -34.141294 43.164135 -0.206010 2.483180 -0.009569 -0.009677 -373363.000000 0 0 1
-27.101277 4.633736 -34.550313 44.155122 -0.169341 2.469428 0.003149 -0.009725 -648060.000000 0 0 1
-26.800107 3.319536 34.343478 43.689123 -0.123235 0.666343 0.000368 -0.010763 940573.000000 0 0 1
-27.981007 2.752236 33.738693 43.918230 -0.098045 0.694746 0.010313 -0.010377 575686.000000 0 0 1
-27.977257 1.268836 33.425438 43.607301 -0.045321 0.697407 0.013616 0.008134 -510385.000000 0 0 1
-28.084997 0.441636 34.603609 44.568731 -0.015724 0.681847 0.016635 0.009461 225202.000000 0 0 1
-28.245547 -0.910864 34.205789 44.369771 0.032237 0.690503 0.006738 0.011772 -733299.000000 0 0 1
-28.258287 -1.892964 -33.847508 44.133523 0.066888 2.444846 -0.015319 0.016802 209041.000000 0 0 1
-27.026317 -2.060464 -33.157448 42.826203 0.076092 2.456298 0.002492 0.005930 636716.000000 0 0 1
-26.432037 -0.870964 -32.602888 41.980465 0.032939 2.460080 0.005824 0.006826 -669577.000000 0 0 1
-26.645277 -0.703864 -31.045678 40.918215 0.026410 2.432150 0.017541 0.005823 -559883.000000 0 0 1
-25.631257 -1.244464 -30.257578 39.674060 0.048515 2.438203 0.010505 0.000654 -35398.000000 0 0 1
-25.767777 -0.948564 -28.904468 38.734304 0.036795 2.413168 0.020274 -0.002881 348833.000000 0 0 1
-24.544097 -1.555264 -28.129268 37.364251 0.063282 2.423161 0.013219 -0.002287 448313.000000 0 0 1
-24.611397 -2.997564 -27.949008 37.361120 0.121199 2.415956 0.000444 -0.000718 325667.000000 0 0 1
-23.541997 -3.374164 -27.087558 36.046447 0.142356 2.421072 0.006800 0.001288 85005.500000 0 0 1
-23.731597 -4.793864 -26.448328 35.856434 0.199321 2.400331 0.003168 -0.005468 186615.000000 0 0 1
-24.539497 -4.560764 -25.302868 35.541843 0.183757 2.363022 0.020612 -0.005256 41679.400000 0 0 1
-24.922397 -5.750664 -24.630628 35.508644 0.226774 2.337343 0.012287 -0.002284 762042.000000 0 0 1
-25.926867 -5.646464 -23.399228 35.378084 0.214436 2.293486 0.015832 -0.003130 632982.000000 0 0 1
-26.284137 -6.872064 -22.816328 35.477682 0.255728 2.269359 0.016438 -0.006241 -179251.000000 0 0 1
-27.251647 -6.539064 -21.850528 35.536702 0.235499 2.233020 0.036033 -0.001376 -197960.000000 0 0 1
-27.748237 -7.748364 -21.009228 35.656548 0.272302 2.200878 0.026555 -0.004598 -607519.000000 0 0 1
-26.940097 -8.104864 -19.917028 34.469488 0.292234 2.186847 0.017452 -0.003922 70428.900000 0 0 1
-27.521267 -9.047964 -19.022628 34.657555 0.317631 2.151813 0.021737 -0.000463 62649.800000 0 0 1
-28.410087 -8.483264 -17.887528 34.627481 0.290172 2.113637 0.032767 -0.008811 92279.000000 0 0 1
-27.686377 -7.692364 -16.942728 33.358117 0.271004 2.103546 0.031399 -0.007665 27225.200000 0 0 1
-28.532967 -6.894064 -16.210428 33.532615 0.237074 2.075357 0.037389 -0.011170 -279233.000000 0 0 1
-27.720707 -6.028864 -15.212628 32.190198 0.214151 2.063019 0.030943 -0.011309 654595.000000 0 0 1
-26.860757 -5.050364 -15.865428 31.602503 0.185850 2.096742 0.034862 -0.012958 729919.000000 0 0 1
-26.071577 -4.398064 -14.883228 30.341070 0.167119 2.083495 0.029407 -0.019442 -37592.900000 0 0 1
-14.121797 21.265536 -5.199528 26.051550 -0.984594 1.771732 0.026919 -0.001356 177766.000000 0 0 1
-13.895997 20.472036 -6.311628 25.535066 -0.974455 1.820560 0.042330 -0.005570 341035.000000 0 0 1
-14.964597 19.527236 -6.486128 25.442522 -0.916916 1.828574 0.041720 -0.018717 157206.000000 0 0 1
-14.997597 18.915836 -7.933128 25.410062 -0.900425 1.888309 0.048143 -0.026091 429272.000000 0 0 1
-13.775297 18.282636 -8.400328 24.383992 -0.925082 1.922504 0.036629 -0.026228 659534.000000 0 1 0
-13.868197 17.122836 -9.200128 23.878039 -0.890033 1.966326 0.021461 -0.030073 -543142.000000 0 1 0
-14.459197 15.801736 -8.629628 23.091853 -0.829735 1.953801 0.017089 -0.038896 510086.000000 0 1 0
-15.875997 15.954536 -8.431328 24.035011 -0.787866 1.929215 0.018268 -0.025416 813580.000000 0 1 0
-16.376397 15.130536 -7.372428 23.483445 -0.745876 1.890138 0.038597 -0.025222 102412.000000 0 1 0
-17.863397 15.445336 -7.090328 24.656279 -0.712930 1.862482 0.046476 -0.025958 340746.000000 0 1 0
-18.793697 15.020436 -8.089328 25.382154 -0.674270 1.895155 0.044856 -0.021819 -285367.000000 0 0 1
-20.058197 15.522836 -7.733128 26.515862 -0.658616 1.866739 0.017518 -0.020206 209666.000000 0 0 1
-21.178297 14.888536 -8.655228 27.296551 -0.612743 1.893447 0.019917 -0.006658 325111.000000 0 0 1
-21.287497 13.578436 -8.218328 26.553198 -0.567793 1.885468 0.030968 -0.009276 21013.000000 0 0 1
-21.941097 12.938536 -9.309828 27.119925 -0.532807 1.921207 0.019351 -0.004140 -107340.000000 0 0 1
-22.349497 11.536936 -8.986928 26.708908 -0.476528 1.913969 0.013713 -0.000175 -185439.000000 0 0 1
-21.318497 10.600436 -8.733328 25.359782 -0.461438 1.922372 0.018398 0.000268 89255.600000 0 0 1
-21.924397 9.581936 -7.966528 25.218212 -0.412028 1.892205 0.027113 -0.006265 121628.000000 0 0 1
-20.977097 8.479936 -7.405928 23.807471 -0.384163 1.887121 0.033042 0.007818 50615.400000 0 1 0
-20.610297 7.402536 -8.257028 23.404281 -0.344818 1.931358 0.017587 0.006376 471179.000000 0 1 0
-19.667297 6.516936 -7.677128 22.095504 -0.319973 1.925649 0.023740 0.009047 92094.900000 0 1 0
-19.329997 5.307236 -8.581428 21.804963 -0.267957 1.975291 0.006131 -0.003697 -381182.000000 0 1 0
-20.467597 4.512236 -8.750728 22.712508 -0.216987 1.966310 0.025178 0.002422 231648.000000 0 1 0
-20.073497 3.420036 -9.549828 22.490912 -0.168755 2.009326 0.006580 -0.004356 -357709.000000 0 1 0
-20.990097 2.215736 -9.660328 23.212401 -0.105172 2.000027 -0.001918 -0.003632 -270592.000000 0 1 0
-20.718597 1.415136 -8.562028 22.462662 -0.068197 1.961855 -0.000803 -0.011955 275413.000000 0 1 0
-21.781097 0.519836 -8.358728 23.335696 -0.023862 1.937130 0.013777 -0.005501 -880157.000000 0 1 0
-21.691397 -0.884664 -8.987228 23.496161 0.040762 1.963294 0.002815 -0.020672 672968.000000 0 1 0
-20.566297 -1.663764 -8.482128 22.308903 0.080722 1.960823 0.002495 -0.014076 1004230.000000 0 1 0
-20.439897 -2.926064 -9.071428 22.553093 0.142189 1.984743 -0.018374 -0.013905 -15357.500000 0 1 0
-21.339297 -4.056164 -8.479028 23.317632 0.187839 1.942960 -0.019166 -0.006694 -74000.400000 0 1 0
-20.962297 -4.390564 -7.134628 22.574274 0.206466 1.892361 -0.035482 -0.001937 272547.000000 0 1 0
-21.839997 -5.278764 -6.453228 23.377231 0.237153 1.850476 -0.027373 0.004581 -602487.000000 0 1 0
-21.755997 -6.751864 -6.913028 23.805483 0.300920 1.865437 -0.031303 -0.002266 -352297.000000 0 1 0
-20.769697 -7.516964 -6.266228 22.959762 0.347254 1.847226 -0.037848 -0.004543 551303.000000 0 1 0
-21.102197 -8.893764 -6.522728 23.810664 0.398870 1.848285 -0.020969 -0.004133 -136643.000000 0 1 0
-20.125297 -9.829764 -5.778528 23.131001 0.454347 1.823288 -0.014601 -0.001531 1883630.000000 0 1 0
-18.728297 -9.560664 -6.216828 21.927251 0.472007 1.858260 -0.023458 -0.003658 2217550.000000 0 1 0
-17.890997 -10.517764 -5.565328 21.486833 0.531460 1.832795 -0.006303 0.002108 -174739.000000 0 1 0
-17.409897 -11.791664 -6.306528 21.952679 0.595326 1.862180 -0.002118 0.009686 -501813.000000 0 1 0
-16.365897 -11.675264 -7.243428 21.368706 0.619656 1.916622 -0.006192 0.004271 351393.000000 0 1 0
-16.655597 -10.820064 -8.341528 21.542139 0.576119 1.968410 -0.005696 -0.008542 -255110.000000 0 1 0
-15.618597 -11.156364 -9.440628 21.389962 0.620259 2.027908 -0.002903 -0.005507 336912.000000 0 1 0
-15.862897 -12.305464 -10.251528 22.542177 0.659771 2.042911 0.008513 -0.001167 -739722.000000 0 1 0
-14.794097 -12.559764 -11.067728 22.340715 0.703897 2.089099 0.004224 0.009505 -654087.000000 0 1 0
-14.897597 -13.967564 -11.766428 23.568624 0.753189 2.093519 0.016157 0.007340 373587.000000 0 1 0
-15.845297 -13.989864 -12.843228 24.733342 0.723289 2.116790 0.016445 0.006781 355718.000000 0 1 0
-15.890597 -15.278064 -13.483828 25.840741 0.765749 2.119762 0.016514 0.009708 112543.000000 0 0 1
-16.433297 -15.177764 -14.976628 26.920571 0.745701 2.160755 0.033505 0.014184 99143.200000 0 0 1
-16.302997 -16.370264 -15.707228 27.937256 0.787457 2.167879 0.030015 0.013085 166657.000000 0 0 1
-16.501997 -16.304164 -17.128828 28.836408 0.779368 2.206818 0.022556 0.006446 -326502.000000 0 0 1
-16.658397 -17.726964 -17.657828 30.059047 0.816464 2.198686 0.024165 -0.003975 -321359.000000 0 0 1
-17.915397 -18.263664 -17.372828 30.924715 0.795024 2.167330 0.009280 0.001133 -445284.000000 0 0 1
-18.829297 -18.198264 -18.488028 32.055053 0.768358 2.185552 -0.001728 -0.001871 1817620.000000 0 0 1
-20.344797 -18.027664 -17.995428 32.599737 0.725086 2.155571 -0.008361 -0.003295 1342050.000000 0 0 1
-20.572997 -16.774964 -17.436528 31.759725 0.684053 2.151980 -0.022728 -0.001894 -137283.000000 0 0 1
-20.327697 -16.800064 -16.040828 30.866901 0.690669 2.117270 -0.018288 -0.001251 -334152.000000 0 0 1
-20.373897 -15.400764 -15.332228 29.788528 0.647271 2.111457 -0.003424 -0.005964 125017.000000 0 0 1
-21.698197 -14.977864 -15.072928 30.370072 0.604174 2.090138 -0.004663 -0.008367 137169.000000 0 0 1
-21.757597 -13.703964 -14.447328 29.494354 0.562077 2.082695 -0.002209 -0.005110 -631666.000000 0 0 1
-23.146697 -13.066664 -14.434628 30.246748 0.513919 2.068295 0.009081 -0.010026 -580996.000000 0 0 1
-23.947297 -13.591964 -13.398228 30.622329 0.516239 2.023648 0.014969 -0.015755 -171844.000000 0 0 1
-24.876097 -12.592564 -13.070528 30.793369 0.468604 2.009161 0.029123 -0.014050 -637103.000000 0 0 1
-25.637957 -12.977264 -11.793628 31.061292 0.468575 1.960256 0.032257 -0.018877 -549046.000000 0 0 1
-26.427607 -11.909464 -11.375828 31.139415 0.423390 1.944772 0.028766 -0.028309 566072.000000 0 0 1
-27.307347 -12.249164 -10.253928 31.636628 0.421661 1.900873 0.016692 -0.017274 841155.000000 0 0 1
-27.970887 -11.036664 -9.544328 31.547942 0.375823 1.878147 0.021112 -0.020254 -52081.200000 0 0 1
-27.020197 -10.192564 -8.975428 30.241324 0.360716 1.872129 0.020073 -0.019041 169963.000000 0 0 1
-27.747267 -9.180764 -8.242328 30.366646 0.319533 1.845672 0.030996 -0.022528 -268879.000000 0 0 1
-26.867337 -8.139764 -7.690528 29.107624 0.294171 1.838181 0.019707 -0.010026 -537246.000000 0 0 1
-26.190867 -8.502164 -6.477528 28.287924 0.313891 1.801832 0.001191 -0.011749 541339.000000 0 0 1
-25.310637 -7.485364 -5.952028 27.057081 0.287544 1.792591 -0.005191 -0.002227 115487.000000 0 0 1
-26.024767 -6.233964 -5.368028 27.294075 0.235110 1.768761 0.002341 -0.006140 92118.300000 0 0 1
-26.969897 -6.527564 -4.315428 28.082153 0.237465 1.725079 0.006223 -0.008179 452319.000000 0 0 1
-26.438337 -7.009364 -3.084228 27.525067 0.259159 1.683084 0.024296 -0.006813 -422935.000000 0 0 1
-25.789327 -5.872764 -2.264028 26.546272 0.223903 1.656186 0.014632 -0.000221 -488804.000000 0 0 1
-26.715007 -4.975864 -1.757328 27.231214 0.184147 1.635375 0.016350 0.001199 -277280.000000 0 0 1
-26.173427 -3.921164 -1.037228 26.485838 0.148709 1.609968 0.001074 0.001079 -1064750.000000 0 0 1
-27.271467 -3.045264 -0.477428 27.445117 0.111204 1.588193 0.010372 -0.006642 -557354.000000 0 0 1
-28.129907 -3.548064 0.523172 28.357611 0.125469 1.552346 0.015983 -0.005666 55049.200000 0 0 1
-27.542197 -3.892564 1.790772 27.873491 0.140401 1.506506 0.003601 -0.005614 -312473.000000 0 0 1
-28.532897 -4.135564 2.958672 28.982457 0.143938 1.468533 -0.007541 0.000398 -351906.000000 0 0 1
-29.259047 -5.314364 2.838072 29.872879 0.179673 1.475648 -0.002713 0.001295 199971.000000 0 0 1
-30.034407 -5.594264 4.031972 30.815875 0.184152 1.439579 0.000326 -0.006273 534280.000000 0 0 1
-30.820847 -6.961064 4.043672 31.854863 0.222129 1.443512 0.003861 0.002755 -171028.000000 0 0 1
-29.975067 -8.091164 4.133472 31.321832 0.263646 1.438442 0.001104 0.008260 259161.000000 0 0 1
-30.686557 -9.323064 3.913172 32.309398 0.294954 1.449383 0.011740 0.004051 -346700.000000 0 0 1
-29.865797 -10.523064 4.295472 31.955465 0.338762 1.435968 0.002972 0.005989 -303420.000000 0 0 1
-29.843497 -10.847064 5.677972 32.257285 0.348620 1.393853 -0.001534 0.005650 262573.000000 0 0 1
-28.713887 -11.646164 5.945972 31.551149 0.385319 1.381208 -0.002909 0.013594 -173234.000000 0 0 1
-28.751337 -12.051564 7.432572 32.048755 0.396918 1.336751 0.002704 -0.001786 -174928.000000 0 0 1
-28.622497 -10.919964 8.284172 31.735161 0.364472 1.306696 0.014451 0.005651 369042.000000 0 0 1
-28.593037 -11.337564 9.633272 32.232003 0.377498 1.267285 0.015099 0.001286 -158340.000000 0 0 1
-28.759127 -10.224364 10.681872 32.337708 0.341581 1.234151 0.010947 0.002428 639311.000000 0 0 1
-27.590357 -9.369664 10.713272 31.045009 0.327379 1.218463 0.011247 0.001183 914450.000000 0 0 1
-27.664097 -8.339764 11.697372 31.171821 0.292801 1.186125 0.014117 -0.001477 -724313.000000 0 0 1
-26.810147 -7.124864 11.561672 30.053617 0.259749 1.175912 0.012315 0.003025 -877927.000000 0 0 1
-26.956167 -6.330564 10.400172 29.578278 0.230667 1.211500 0.016505 0.000096 285434.000000 0 0 1
-26.199647 -5.126064 10.391772 28.647634 0.193213 1.199585 0.013244 -0.001462 -321148.000000 0 0 1
-26.635107 -4.201464 9.237072 28.502714 0.156452 1.240760 0.005013 -0.004106 -165673.000000 0 0 1
-26.163077 -4.755764 8.060872 27.786715 0.179811 1.276467 0.005874 -0.001470 268604.000000 0 0 1
-26.592107 -4.001364 7.015272 27.791457 0.149351 1.315610 -0.004282 -0.010623 -679056.000000 0 0 1
-25.897107 -4.393264 5.757472 26.890693 0.168043 1.355019 -0.002312 -0.001584 -1036230.000000 0 0 1
-24.555197 -4.044064 5.865172 25.567800 0.163228 1.339338 0.031324 -0.013302 -291858.000000 0 0 1
-23.768897 -4.528964 4.805272 24.669062 0.188285 1.374754 0.039144 -0.005175 8458.100000 0 1 0
-22.316497 -3.987164 4.850372 23.182959 0.176799 1.360018 0.046356 -0.008547 166092.000000 0 1 0
-22.151297 -2.605664 4.548572 22.763105 0.117092 1.369620 0.028480 -0.006132 -753732.000000 0 1 0
-20.813397 -2.272164 4.523172 21.420068 0.108738 1.358029 0.026391 -0.001091 -1361930.000000 0 1 0
-20.522097 -0.818964 4.914372 21.118196 0.039885 1.335935 0.020668 -0.008383 -505026.000000 0 1 0
-20.670897 0.255536 3.987872 21.053608 -0.012361 1.380230 0.018165 -0.004914 519751.000000 0 1 0
-21.976897 0.744936 3.765772 22.309638 -0.033883 1.401189 0.016456 -0.011592 -116647.000000 0 1 0
-22.040897 1.944736 2.766472 22.298800 -0.088005 1.446412 0.032509 -0.006670 -79205.700000 0 1 0
-21.211997 3.034236 3.213772 21.667573 -0.142080 1.421925 0.001906 -0.002679 511399.000000 0 1 0
-21.358097 4.237536 2.515572 21.919240 -0.195861 1.455777 0.012419 -0.000007 -4285.140000 0 1 0
-20.337797 4.409436 1.352772 20.854234 -0.213505 1.505883 0.003642 0.003203 -440692.000000 0 1 0
-20.710497 5.177036 0.217872 21.348860 -0.244952 1.560591 0.020435 0.006857 240176.000000 0 1 0
-21.751797 4.627236 -0.567028 22.245752 -0.209604 1.596288 0.037617 -0.000207 -240405.000000 0 1 0
-21.368297 3.512036 -1.622028 21.715650 -0.162901 1.645560 0.042979 0.002175 -251265.000000 0 1 0
-20.963897 2.341836 -0.866028 21.112062 -0.111247 1.611828 0.002817 0.004737 649732.000000 0 1 0
-20.484897 1.363736 -1.800528 20.609043 -0.066475 1.658274 -0.008341 0.002566 -421888.000000 0 1 0
-19.661797 0.235436 -1.103128 19.694125 -0.011974 1.626839 -0.006980 0.002127 -302868.000000 0 1 0
-20.421697 -0.580564 -0.244128 20.431406 0.028421 1.582745 -0.007028 -0.002648 14355.800000 0 1 0
-19.692597 -1.225064 0.733672 19.744301 0.062129 1.533629 0.001710 -0.005845 -599042.000000 0 1 0
-19.010497 -2.555664 0.360572 19.184901 0.133633 1.552001 -0.006547 -0.001939 40774.400000 0 1 0
-18.279597 -3.209764 1.378472 18.610385 0.173821 1.496658 0.010610 -0.001463 547875.000000 0 1 0
-17.540097 -4.370964 1.042372 18.106542 0.244224 1.513196 -0.001600 -0.001020 183632.000000 0 1 0
-18.404097 -5.656164 0.803472 19.270406 0.298170 1.529090 -0.009887 -0.001066 -90128.100000 0 1 0
-19.247997 -6.002464 1.884872 20.250128 0.302291 1.477582 0.029949 -0.009807 252194.000000 0 1 0
-20.079397 -7.053764 1.505272 21.335501 0.337827 1.500185 -0.001162 -0.008669 -913042.000000 0 1 0
-20.991797 -7.494964 2.592172 22.439906 0.342935 1.455022 0.021653 -0.002780 -793474.000000 0 1 0
-20.280797 -8.127764 3.639472 22.149876 0.381163 1.405737 0.026415 -0.006241 837294.000000 0 1 0
-21.168097 -8.748864 4.577772 23.357802 0.391923 1.373535 0.046988 -0.009552 728932.000000 0 1 0
-20.368597 -9.609064 5.624472 23.213111 0.440800 1.326063 0.035330 -0.000038 397565.000000 0 1 0
-19.769097 -10.800264 5.123372 23.102204 0.500014 1.347167 0.017593 0.002164 -494974.000000 0 1 0
-18.680097 -11.158264 5.874472 22.538019 0.538457 1.307104 0.013461 -0.002203 -858962.000000 0 1 0
-18.035697 -12.461764 5.423172 22.583018 0.604626 1.328282 -0.000935 -0.003818 -187450.000000 0 1 0
-18.823897 -13.622764 5.575672 23.895751 0.626452 1.335292 0.003337 0.005019 359608.000000 0 1 0
-17.973797 -14.733364 5.280372 23.832996 0.686646 1.347385 -0.014655 0.001300 -403573.000000 0 1 0
-18.648897 -16.102664 5.539272 25.253924 0.712259 1.349655 -0.005567 -0.002841 -664676.000000 0 0 1
-17.801497 -17.171464 5.325572 25.300478 0.767385 1.358717 -0.012079 -0.004527 -380234.000000 0 0 1
-18.367997 -18.457664 5.685372 26.653182 0.787833 1.355835 0.000175 0.001698 -118449.000000 0 0 1
-17.472897 -19.630464 5.279272 26.805372 0.843483 1.372552 -0.006082 0.001634 -484780.000000 0 0 1
-17.315697 -19.697364 3.862972 26.509283 0.849656 1.424554 -0.005819 -0.001034 28426.900000 0 0 1
-16.642997 -20.865464 3.464772 26.913966 0.897500 1.441703 -0.006112 0.004662 -47817.100000 0 0 1
-15.105297 -20.845764 3.560872 25.988376 0.943736 1.433346 -0.001417 0.013530 -466137.000000 0 0 1
-14.546297 -22.099364 3.514772 26.689516 0.988663 1.438722 -0.001717 0.010493 -603277.000000 0 0 1
-13.174197 -22.016964 3.829872 25.941744 1.031579 1.422621 -0.004007 0.011327 -200540.000000 0 0 1
-12.691497 -23.470264 4.103872 26.995725 1.075084 1.418185 0.006443 0.018831 -144249.000000 0 0 1
-12.793497 -24.352364 2.998372 27.671311 1.087076 1.462226 0.010351 0.019585 397857.000000 0 0 1
-12.022497 -25.555754 3.226672 28.426192 1.131074 1.457041 0.005513 0.011561 125911.000000 0 0 1
17.795403 19.356836 -24.751228 36.110757 0.827401 2.325984 0.042407 0.004634 769095.000000 0 0 1
16.819103 19.905836 -25.687758 36.592150 0.869251 2.349001 0.026638 0.006398 847220.000000 0 0 1
17.263803 19.553036 -26.977338 37.525150 0.847497 2.373034 0.030373 0.005597 152652.000000 0 0 1
16.259803 19.845936 -28.127058 38.070642 0.884397 2.402103 0.017893 0.010108 23121.400000 0 0 1
16.049903 21.187036 -28.424988 38.916190 0.922491 2.389726 0.020006 0.016449 554942.000000 0 0 1
15.054503 21.297236 -29.448568 39.337367 0.955471 2.416768 0.002529 0.015826 132076.000000 0 0 1
14.800803 22.733036 -29.917238 40.384351 0.993669 2.405076 0.019899 0.010630 -267589.000000 0 0 1
14.239103 23.495236 -28.867318 39.850975 1.025946 2.380933 0.025155 0.003796 316460.000000 0 0 1
13.953903 24.856336 -29.158178 40.776809 1.059256 2.367517 0.032332 0.002635 -100776.000000 0 0 1
13.122503 25.522836 -28.054418 40.133098 1.095895 2.344843 0.021525 0.000470 782392.000000 0 0 1
11.784503 25.004936 -27.897528 39.273316 1.130382 2.360782 0.021760 -0.006918 609383.000000 0 0 1
11.198803 25.654536 -26.729538 38.704478 1.159206 2.333123 0.012429 0.001433 -531864.000000 0 0 1
9.672203 25.416736 -26.713138 38.120253 1.207173 2.347258 0.007970 0.002865 419981.000000 0 0 1
8.948903 26.229536 -25.768468 37.842904 1.242004 2.319832 -0.001875 0.003229 284434.000000 0 0 1
8.684103 27.523136 -26.261758 39.020720 1.265162 2.309082 0.006572 -0.003887 -493446.000000 0 0 1
8.039503 28.562236 -25.282368 38.982471 1.296422 2.276484 0.002395 -0.000163 -378636.000000 0 0 1
8.880803 28.891536 -24.191928 38.714840 1.272579 2.245767 0.007679 -0.000192 -99732.400000 0 0 1
8.325203 29.691336 -23.194228 38.585705 1.297424 2.215685 0.023230 -0.004030 -185060.000000 0 0 1
9.346903 30.087836 -22.067628 38.465864 1.269594 2.181805 0.010270 -0.002249 52205.700000 0 0 1
10.428603 30.829336 -22.530028 39.582899 1.244610 2.176312 -0.000306 0.000684 -639633.000000 0 0 1
11.215103 31.340036 -21.503628 39.628051 1.227143 2.144369 -0.008821 0.010503 -396149.000000 0 0 1
12.300903 32.265236 -22.061828 40.976602 1.206563 2.139334 -0.018334 0.026701 -492163.000000 0 0 1
13.286703 31.534736 -22.745828 41.089521 1.172034 2.157438 -0.021104 0.025230 -59986.400000 0 0 1
14.312203 32.499936 -23.101728 42.364783 1.155974 2.147549 -0.008680 0.024652 28245.500000 0 0 1
15.529903 31.806836 -23.697728 42.596185 1.116587 2.160764 0.001423 0.018640 -466810.000000 0 0 1
16.304103 31.132436 -22.725028 41.850678 1.088368 2.144805 -0.004205 0.024001 -185472.000000 0 0 1
17.559503 30.860036 -23.317528 42.478054 1.053479 2.151881 0.012194 0.018974 109413.000000 0 0 1
18.546903 30.003436 -22.477728 41.826332 1.017131 2.138155 0.002991 0.016398 -115950.000000 0 0 1
19.142403 30.698936 -21.453328 42.060689 1.013238 2.106047 0.015130 0.021204 -349548.000000 0 0 1
20.155003 29.898036 -20.886228 41.669548 0.977648 2.095822 0.016136 0.013278 -133035.000000 0 0 1
20.864603 30.606136 -19.729428 41.968054 0.972449 2.060207 0.028608 0.007743 31161.000000 0 0 1
21.824303 31.570836 -20.206928 43.374391 0.965946 2.055417 0.039095 0.004986 478370.000000 0 0 1
22.303103 32.312736 -19.090028 43.657422 0.966660 2.023356 0.034651 0.001578 489336.000000 0 0 1
23.665803 33.089636 -19.202528 44.985901 0.949940 2.011810 0.034146 0.004576 718883.000000 0 0 1
24.811203 32.305236 -19.343628 45.093237 0.915859 2.014148 0.031054 0.004675 -386703.000000 0 0 1
26.001503 33.060536 -19.283628 46.270244 0.904353 2.000675 0.031170 0.007984 584024.000000 0 0 1
27.300303 32.347936 -19.731328 46.701400 0.869820 2.006998 0.031609 -0.002286 65598.200000 0 0 1
27.704803 31.306736 -18.894028 45.876488 0.846360 1.995275 0.023560 0.003972 452189.000000 0 0 1
28.933303 30.740136 -19.402528 46.460199 0.815668 2.001616 0.015072 -0.004327 628412.000000 0 0 1
29.500403 29.593236 -18.559528 45.721871 0.786969 1.988784 0.009818 -0.014442 -80922.200000 0 0 1
30.220003 30.027836 -17.374728 46.008702 0.782209 1.958043 0.006665 -0.005158 482774.000000 0 0 1
30.427303 28.938936 -16.498528 45.116341 0.760332 1.945169 0.008930 -0.004390 -435927.000000 0 0 1
30.691103 29.372836 -15.009928 45.055579 0.763454 1.910431 0.005550 -0.002902 1089350.000000 0 0 1
32.015503 29.913936 -14.742528 46.229624 0.751476 1.895363 -0.032449 0.005576 1026710.000000 0 0 1
32.138103 31.255636 -15.155128 47.322831 0.771479 1.896789 -0.020932 -0.003125 -731225.000000 0 0 1
33.558203 31.834936 -15.157028 48.675986 0.759052 1.887448 -0.017930 -0.013718 -37936.600000 0 0 1
34.111603 31.857736 -13.824928 48.679004 0.751246 1.858762 -0.022205 -0.010590 -51928.100000 0 0 1
-34.433775 32.036736 -13.855628 49.030763 -0.749352 1.857290 -0.003738 -0.015832 -186414.000000 0 0 1
-33.815575 32.165636 -12.473028 48.308360 -0.760397 1.831951 -0.009198 -0.003210 -374585.000000 0 0 1
-34.312175 33.320236 -11.771728 49.255832 -0.770733 1.812123 -0.001127 -0.013645 273155.000000 0 0 1
-33.444675 33.684736 -10.720728 48.663556 -0.788974 1.792921 -0.012547 -0.006478 -465138.000000 0 0 1
-33.867875 -34.345120 -9.935728 49.247730 0.792394 1.773941 -0.012138 -0.001177 -349943.000000 0 0 1
-32.982275 -33.691120 -9.066828 48.011763 0.796029 1.760783 -0.019074 0.007610 -284147.000000 0 0 1
-32.768475 -34.375520 -7.886728 48.141975 0.809328 1.735360 -0.023943 0.008211 -6823.330000 0 0 1
-32.410275 -33.472920 -6.697528 47.071426 0.801526 1.713565 -0.023497 0.021389 414612.000000 0 0 1
-33.486875 -32.603420 -6.305128 47.160454 0.772032 1.704893 -0.025063 0.021497 245022.000000 0 0 1
-33.107475 -31.601020 -5.378028 46.083104 0.762122 1.687766 -0.013822 0.020333 803993.000000 0 0 1
-34.386175 -30.837520 -4.844328 46.441675 0.731044 1.675296 -0.007177 0.018447 1283330.000000 0 0 1
34.817703 -31.661020 -3.901228 47.221946 -0.737950 1.653505 -0.013392 0.011718 927114.000000 0 0 1
33.514703 -31.223020 -3.498728 45.938583 -0.750013 1.647031 -0.013059 0.005551 427151.000000 0 0 1
33.437803 -30.199020 -2.370628 45.118592 -0.734547 1.623363 -0.013141 0.007818 -256077.000000 0 0 1
33.884003 -28.919920 -2.842928 44.638209 -0.706521 1.634528 0.005572 0.011491 454545.000000 0 0 1
33.454503 -27.947520 -1.908128 43.633801 -0.695950 1.614541 -0.006141 0.006017 -93348.800000 0 0 1
33.970903 -26.504420 -2.322428 43.149742 -0.662556 1.624645 -0.001750 0.002687 -315966.000000 0 0 1
33.703403 -26.144820 -3.646528 42.810842 -0.659767 1.656077 0.005616 0.003869 218345.000000 0 0 1
33.112803 -24.870320 -3.727228 41.579836 -0.644191 1.660557 0.017719 -0.005132 -68374.100000 0 0 1
32.604303 -24.518020 -5.175928 41.121334 -0.644772 1.697001 0.025574 -0.014265 573295.000000 0 0 1
33.746303 -24.299220 -6.033828 42.019902 -0.624060 1.714889 0.019352 -0.012705 949230.000000 0 0 1
33.348303 -23.807020 -7.280128 41.615908 -0.619987 1.746637 0.009300 -0.017834 -814264.000000 0 0 1
34.440203 -23.681620 -8.301028 42.612836 -0.602366 1.766851 0.006737 -0.015584 -578097.000000 0 0 1
34.920703 -24.927520 -8.825828 43.803333 -0.619949 1.773673 -0.001844 -0.004253 287448.000000 0 0 1
-33.900375 -24.717420 -9.665528 43.053556 0.630003 1.797226 0.009314 -0.005929 292232.000000 0 0 1
-33.468075 -25.860620 -10.609328 43.605522 0.657869 1.816565 0.001159 -0.000559 -163910.000000 0 0 1
-32.891175 -27.037920 -10.047228 43.747289 0.688037 1.802530 -0.004709 0.013243 303363.000000 0 0 1
-33.738775 -27.799620 -9.180528 44.669966 0.689185 1.777790 -0.011650 0.008122 -210399.000000 0 0 1
-32.966975 -28.908320 -8.468328 44.656746 0.719898 1.761583 -0.015167 0.012016 -381200.000000 0 0 1
-32.465675 -29.832420 -9.378128 45.077074 0.743155 1.780374 -0.019608 0.012232 524045.000000 0 0 1
-31.344675 -30.476120 -8.741928 44.583672 0.771350 1.768154 -0.022940 0.006820 386188.000000 0 0 1
-30.635475 -31.448820 -9.687028 44.959972 0.798498 1.787958 -0.027349 0.010588 -161427.000000 0 0 1
-30.112575 -30.921120 -10.908128 44.518199 0.798645 1.818343 -0.024471 0.023459 187359.000000 0 0 1
-29.726575 -31.928020 -11.775528 45.185515 0.821089 1.834444 -0.020096 0.022714 -362592.000000 0 0 1
-29.867475 -31.487620 -13.264628 45.381567 0.811798 1.867418 -0.024958 0.031310 -1099210.000000 0 0 1
-28.883675 -30.660020 -13.744628 44.308219 0.815222 1.886205 -0.027122 0.038118 -580561.000000 0 0 1
-29.387075 -29.924720 -14.870628 44.499714 0.794463 1.911525 -0.034805 0.045618 265901.000000 0 0 1
-28.412775 -28.802320 -15.410228 43.293585 0.792206 1.934724 -0.033205 0.033142 88037.300000 0 0 1
-27.304375 -29.486720 -15.932428 43.230056 0.823807 1.948245 -0.019044 0.028959 -640020.000000 0 0 1
-26.388175 -28.625620 -16.549028 42.304044 0.826046 1.972723 0.003042 0.034909 -144386.000000 0 0 1
-25.205975 -29.353420 -17.227728 42.352792 0.861269 1.989709 0.019105 0.021140 -425219.000000 0 0 1
-25.418775 -30.105520 -18.419128 43.493915 0.869607 2.008088 0.003515 0.028370 -113798.000000 0 0 1
-25.542875 -29.365320 -19.665528 43.606117 0.854901 2.038660 0.012422 0.036052 -189338.000000 0 0 1
-24.247575 -28.661820 -20.131428 42.599521 0.868636 2.063006 0.016525 0.025293 59076.200000 0 0 1
-24.038775 -27.500420 -19.397828 41.357121 0.852463 2.058991 0.010041 0.025670 679187.000000 0 0 1
-22.659475 -27.099520 -19.401828 40.302192 0.874393 2.073058 0.036591 0.001078 885112.000000 0 0 1
-22.301575 -25.791820 -18.652528 38.865087 0.857843 2.071371 0.025271 0.008416 71032.400000 0 0 1
-22.667975 -25.896220 -17.276928 38.509005 0.851774 2.036047 0.027022 0.014068 538988.000000 0 0 1
-22.107975 -24.731920 -16.610828 37.099191 0.841359 2.035034 0.028582 0.007502 137182.000000 0 0 1
-22.382875 -24.674620 -15.062628 36.561082 0.834061 1.995428 0.001483 0.017678 -203547.000000 0 0 1
-23.714775 -24.512720 -14.631928 37.112764 0.801942 1.976054 -0.028930 0.036690 -33775.200000 0 0 1
-23.700475 -24.092120 -13.287028 36.313742 0.793593 1.945391 -0.042102 0.042917 -593115.000000 0 0 1
-25.032075 -24.241420 -12.579628 37.047243 0.769353 1.917242 -0.048809 0.053615 -1490890.000000 0 0 1
-25.400175 -25.579020 -12.648228 38.202523 0.788906 1.908248 -0.028446 0.043612 850112.000000 0 0 1
-26.728875 -25.852020 -12.168928 39.125982 0.768723 1.887061 -0.032538 0.038733 1236360.000000 0 0 1
-27.997875 -25.244020 -12.881428 39.838081 0.733721 1.900058 -0.031775 0.031996 -331347.000000 0 0 1
-28.310975 -23.905920 -12.560828 39.125167 0.701237 1.897626 -0.024953 0.036826 -24528.800000 0 0 1
-28.708075 -23.594420 -11.245328 38.824059 0.687937 1.864656 -0.014039 0.028983 -1145440.000000 0 0 1
-30.157075 -23.957020 -10.915128 40.031587 0.671322 1.846956 -0.019642 0.022752 -361380.000000 0 0 1
-31.237075 -23.164920 -11.389028 40.522565 0.638093 1.855688 -0.000181 0.014605 322019.000000 0 0 1
-31.475275 -23.229120 -12.794028 41.157892 0.635784 1.886886 -0.003536 0.022249 880656.000000 0 0 1
-32.910875 -22.793220 -13.391328 42.213555 0.605725 1.893602 -0.019605 0.012822 1799250.000000 0 0 1
-33.936875 -23.716120 -13.097828 43.424865 0.609941 1.877188 -0.014605 0.016395 35830.300000 0 0 1
34.733003 -23.321320 -13.598528 43.990743 -0.591304 1.885067 -0.004524 0.000195 975656.000000 0 0 1
33.708903 -24.477420 -13.191728 43.697322 -0.628056 1.877469 -0.021475 0.000306 277380.000000 0 0 1
34.047503 -25.701420 -13.805828 44.837443 -0.646610 1.883790 -0.037872 0.015761 264516.000000 0 0 1
33.156503 -26.745920 -13.396428 44.656043 -0.678787 1.875480 -0.038894 0.002770 452595.000000 0 0 1
33.203103 -28.055520 -14.280028 45.754535 -0.701565 1.888200 -0.040762 0.000735 152657.000000 0 0 1
32.556803 -27.906120 -15.522428 45.603100 -0.708631 1.918118 -0.031700 -0.002404 -165205.000000 0 0 1
32.584403 -29.065520 -16.324828 46.615960 -0.728382 1.928579 -0.039489 0.011269 -172101.000000 0 0 1
31.681603 -28.942620 -17.538528 46.357299 -0.740249 1.958792 -0.034966 0.007822 330227.000000 0 0 1
30.274703 -28.886120 -17.344528 45.296779 -0.761931 1.963739 0.022313 0.000610 442458.000000 0 0 1
29.554203 -28.719520 -18.556928 45.195368 -0.771076 1.993901 0.020741 0.000467 -364736.000000 0 0 1
28.047703 -28.709820 -18.364628 44.138271 -0.797063 1.999916 0.028957 -0.003231 -508310.000000 0 0 1
27.504103 -27.637020 -17.651328 42.800116 -0.787809 1.995898 0.026086 -0.007858 223241.000000 0 0 1
26.088003 -27.729620 -17.515828 41.908471 -0.815892 2.001989 0.042204 -0.004873 543927.000000 0 0 1
25.448503 -26.770920 -16.494228 40.452046 -0.810717 1.990782 0.034722 -0.010064 -176371.000000 0 0 1
25.505403 -25.361620 -16.774028 39.687597 -0.782572 2.007165 0.034838 -0.015709 -63436.300000 0 0 1
25.125603 -24.566620 -15.661628 38.472085 -0.774150 1.990063 0.029318 -0.010164 -126231.000000 0 0 1
24.975803 -23.068320 -15.835828 37.506154 -0.745716 2.006689 0.020233 -0.016275 623181.000000 0 0 1
23.789403 -22.720120 -16.571128 36.833976 -0.762412 2.037435 0.028508 -0.018622 542920.000000 0 0 1
23.675703 -21.297920 -16.677228 35.948160 -0.732577 2.053216 0.027064 -0.016528 976871.000000 0 0 1
22.189203 -20.783520 -16.550828 34.615680 -0.752699 2.069322 0.026808 -0.010933 853677.000000 0 0 1
21.615203 -20.891320 -15.294428 33.728086 -0.768370 2.041443 0.027829 -0.011942 321629.000000 0 0 1
20.311903 -20.328820 -15.162428 32.492053 -0.785814 2.056296 0.020934 -0.011788 602365.000000 0 0 1
20.343403 -19.050620 -14.309228 31.329446 -0.752593 2.045117 0.033329 -0.006609 -124575.000000 0 0 1
19.895003 -19.301920 -12.986828 30.610994 -0.770268 2.008934 0.020350 -0.013145 109452.000000 0 0 1
19.801803 -18.093420 -12.270228 29.496470 -0.740347 1.999827 0.016470 -0.015232 -205062.000000 0 0 1
18.856103 -18.149720 -11.045428 28.407155 -0.766312 1.970153 0.015357 -0.006762 -69449.900000 0 0 1
19.428003 -18.871720 -9.982228 28.865793 -0.770875 1.923904 0.009768 -0.016695 577041.000000 0 0 1
18.423603 -19.025520 -8.978328 27.964440 -0.801470 1.897647 0.015317 -0.025995 279483.000000 0 0 1
19.012703 -19.621720 -7.687528 28.382968 -0.801160 1.845072 0.021218 -0.031169 -362725.000000 0 0 1
19.839303 -18.785520 -6.940928 28.189895 -0.758122 1.819575 0.014399 -0.028177 -118660.000000 0 0 1
20.466803 -19.504120 -5.893628 28.879674 -0.761318 1.776315 0.002898 -0.018373 -488193.000000 0 0 1
21.851003 -18.956420 -5.574328 29.459893 -0.714584 1.761162 -0.001191 -0.019466 -727752.000000 0 0 1
22.756303 -18.965920 -6.649628 30.360715 -0.694799 1.791607 -0.000712 -0.031362 660705.000000 0 0 1
23.927803 -18.253220 -6.180128 30.723180 -0.651672 1.773333 -0.000126 -0.026667 991545.000000 0 0 1
25.020503 -17.872720 -7.243028 31.589890 -0.620274 1.802137 -0.006527 -0.034272 79836.300000 0 0 1
25.929903 -18.820920 -7.704028 32.953588 -0.627858 1.806764 0.006858 -0.040654 149586.000000 0 0 1
25.361203 -19.826720 -8.562228 33.310677 -0.663528 1.830756 0.022748 -0.043621 -619207.000000 0 0 1
26.178603 -21.132520 -8.607328 34.727349 -0.679142 1.821261 0.026986 -0.047462 232830.000000 0 0 1
27.459403 -20.873720 -9.167528 35.689979 -0.649976 1.830574 0.015540 -0.042731 160371.000000 0 0 1
28.315703 -21.975220 -8.918428 36.935453 -0.659984 1.814666 0.023516 -0.040122 -422760.000000 0 0 1
-28.982677 30.427836 4.264172 42.237802 -0.809718 1.469668 0.005208 0.002028 105721.000000 0 0 1
-28.302207 31.289736 3.376772 42.325702 -0.835489 1.490931 0.006020 0.002867 93334.000000 0 0 1
-27.387287 32.139536 4.068872 42.421327 -0.865063 1.474733 0.010701 0.004146 426524.000000 0 0 1
-26.694877 33.199136 3.175072 42.718616 -0.893570 1.496402 0.018455 -0.000634 137911.000000 0 0 1
-25.660137 32.750936 2.309172 41.670117 -0.906202 1.515352 0.017015 -0.007007 378999.000000 0 0 1
-25.149067 33.776036 1.441072 42.135173 -0.930771 1.536588 0.025915 -0.013552 88702.900000 0 0 1
-23.842097 34.480036 1.901872 41.963503 -0.965815 1.525459 0.029117 -0.015784 -466213.000000 0 0 1
-22.696297 33.739136 1.608572 40.694455 -0.978629 1.531258 0.023352 -0.017934 -1438090.000000 0 0 1
-21.684997 34.244236 2.420172 40.604975 -1.006290 1.511158 0.014522 -0.014368 -1154490.000000 0 0 1
-20.340397 33.799336 1.893472 39.493190 -1.029055 1.522834 0.012134 -0.013724 -791425.000000 0 0 1
-20.031297 34.366836 0.618472 39.783348 -1.043070 1.555250 0.030116 -0.020470 502513.000000 0 0 1
-18.635597 34.167936 0.367072 38.921306 -1.071483 1.561365 0.021159 -0.016724 277315.000000 0 0 1
-18.056597 -34.436320 -0.879628 38.893117 1.087861 1.593415 0.023828 -0.016765 -54084.600000 0 0 1
-17.900797 -33.047620 -0.849128 37.593945 1.074374 1.593385 0.030275 -0.020610 471453.000000 0 0 1
-17.170797 -32.410220 0.233672 36.678511 1.083597 1.564425 0.026498 -0.016273 -87230.000000 0 0 1
-17.264297 -30.888420 0.141472 35.386020 1.061127 1.566798 0.034749 -0.021685 -119145.000000 0 0 1
-16.306097 -30.395420 -0.795728 34.502225 1.078404 1.593861 0.035410 -0.012259 375172.000000 0 0 1
-16.363397 -28.985020 -0.778928 33.294126 1.056853 1.594194 0.022284 -0.004071 152610.000000 0 0 1
-15.541397 -28.312420 -1.921228 32.354586 1.068779 1.630212 0.027562 0.000112 155100.000000 0 0 1
-16.075597 -28.568420 -3.238128 32.940323 1.058251 1.669258 0.030569 -0.006288 -525156.000000 0 0 1
-15.289597 -27.968420 -4.190828 32.149141 1.070511 1.701524 0.025673 -0.000005 -646976.000000 0 0 1
-15.694597 -27.998920 -5.662828 32.593366 1.059895 1.745424 0.047196 -0.002050 953110.000000 0 0 1
-16.946597 -27.317520 -5.957328 32.694400 1.015543 1.754032 0.034038 0.007881 758093.000000 0 0 1
-17.090797 -27.172120 -7.342628 32.929221 1.009338 1.795669 0.044653 0.006045 401699.000000 0 0 1
-17.842897 -25.854820 -7.632928 32.328041 0.966733 1.809156 0.023012 0.012423 494491.000000 0 0 1
-16.905597 -24.776020 -7.532928 30.925642 0.972023 1.816854 0.021408 0.011547 588195.000000 0 0 1
-17.498097 -23.459020 -7.671828 30.255015 0.929924 1.827168 0.004734 0.017566 825674.000000 0 0 1
-16.470897 -22.276520 -7.333328 28.658532 0.934124 1.829561 0.013376 0.013673 282974.000000 0 0 1
-15.380197 -22.265120 -8.180928 28.270366 0.966288 1.864377 0.030597 0.007087 -1241060.000000 0 0 1
-14.458597 -21.298220 -7.748428 26.883142 0.974397 1.863170 0.036120 0.005219 -189068.000000 0 0 1
-13.275797 -21.152720 -8.704628 26.447209 1.010318 1.906181 0.029979 0.001635 -356294.000000 0 0 1
-13.507797 -20.293920 -9.844328 26.290959 0.983527 1.954587 0.034417 0.006736 -471709.000000 0 0 1
-12.770997 -20.694320 -10.924628 26.658970 1.017879 1.993022 0.033510 0.011974 -338273.000000 0 0 1
-13.088997 -19.731520 -12.150428 26.613673 0.985090 2.044908 0.034360 0.015730 -460531.000000 0 0 1
-14.312197 -20.088920 -12.743828 27.763444 0.951769 2.047682 0.038364 0.020975 -399970.000000 0 0 1
-14.467297 -19.195620 -13.843628 27.738430 0.924946 2.093330 0.035186 0.002352 -291000.000000 0 0 1
-15.594997 -19.717520 -14.708128 29.125822 0.901616 2.100162 0.049903 -0.000871 248586.000000 0 0 1
-16.841997 -19.702820 -14.008728 29.463510 0.863521 2.066283 0.052257 -0.002236 484304.000000 0 0 1
-17.966697 -19.864020 -14.851928 30.626152 0.835509 2.077094 0.040581 0.005183 423982.000000 0 0 1
-19.361997 -19.739120 -14.213728 31.089384 0.795043 2.045628 0.019200 0.008490 548356.000000 0 0 1
-20.480397 -20.138120 -14.993928 32.400746 0.776972 2.051908 0.019537 0.000432 78955.900000 0 0 1
-21.705097 -19.769320 -14.369828 32.686835 0.738758 2.025973 -0.003969 0.002356 -111995.000000 0 0 1
-22.845397 -20.445420 -15.121328 34.184527 0.730016 2.029007 -0.009110 0.001735 -711264.000000 0 0 1
-22.882297 -19.997420 -16.464528 34.562653 0.718221 2.067315 -0.012596 -0.016014 53229.400000 0 0 1
-23.324897 -21.001620 -17.334828 35.855475 0.733033 2.075404 -0.008561 -0.007567 -228741.000000 0 0 1
-23.788297 -20.525020 -18.744328 36.585643 0.711890 2.108705 -0.005351 -0.005710 204914.000000 0 0 1
-22.707497 -20.015820 -19.512828 36.014079 0.722479 2.143387 -0.003135 -0.009763 172371.000000 0 0 1
-23.044997 -19.758420 -20.855028 36.829325 0.708765 2.172759 -0.000668 -0.009586 -168994.000000 0 0 1
-21.921497 -19.109720 -21.693928 36.281674 0.716977 2.211713 -0.007325 -0.005714 674043.000000 0 0 1
-20.715097 -19.843020 -21.893828 36.086013 0.763900 2.222714 -0.004389 -0.005764 -316670.000000 0 0 1
-19.750097 -19.163220 -22.581128 35.597790 0.770318 2.257952 -0.002278 -0.003510 -928248.000000 0 0 1
-18.457497 -19.942420 -22.745628 35.436462 0.824049 2.267732 0.014264 0.001412 -749726.000000 0 0 1
-18.504697 -20.997220 -23.679228 36.660781 0.848413 2.272999 0.013532 0.001756 -551859.000000 0 0 1
-17.237297 -21.577420 -23.740528 36.418705 0.896752 2.280854 0.021733 0.007107 -371281.000000 0 0 1
-17.231097 -22.976920 -24.340428 37.647124 0.927340 2.273839 0.034198 0.005275 -83200.900000 0 0 1
-17.126797 -22.909820 -25.775568 38.504115 0.928849 2.304229 0.039903 0.003043 138980.000000 0 0 1
-17.298897 -24.152720 -26.402058 39.745117 0.949261 2.297332 0.036951 -0.006816 -57941.700000 0 0 1
-17.081897 -23.939120 -27.958658 40.577816 0.951030 2.330923 0.036218 0.001553 -434883.000000 0 0 1
-15.735897 -24.074020 -28.300608 40.349737 0.991862 2.348132 0.033222 0.000903 -435417.000000 0 0 1
-15.566097 -23.870520 -29.692638 41.155289 0.992942 2.376731 0.056618 -0.014049 -56590.900000 0 0 1
-14.095997 -23.648720 -30.124438 40.809813 1.033281 2.401145 0.015567 -0.010546 117470.000000 0 0 1
-13.339697 -24.837620 -29.968628 41.145759 1.077929 2.386711 0.018751 -0.008593 -630134.000000 0 0 1
-12.144897 -24.747520 -30.676858 41.243276 1.114574 2.409538 0.018028 -0.005587 -557948.000000 0 0 1
-11.178597 -25.901320 -30.387198 41.463492 1.163362 2.393322 0.005623 0.000425 -1206130.000000 0 0 1
-11.611097 -27.119420 -30.970528 42.772118 1.166263 2.380499 0.007258 0.008965 180430.000000 0 0 1
-10.814897 -28.245020 -30.641578 43.054029 1.205121 2.362712 0.013941 0.013510 374911.000000 0 0 1
-9.400997 -28.274720 -31.298818 43.214054 1.249807 2.380777 0.013726 0.003165 623091.000000 0 0 1
-8.523697 -27.218420 -30.819938 41.992432 1.267311 2.394901 0.006614 0.002332 -415957.000000 0 0 1
-7.442397 -27.060220 -31.679938 42.323317 1.302401 2.416627 0.018542 0.008090 -254314.000000 0 0 1
-6.502097 -25.902720 -31.164118 41.041812 1.324858 2.433073 0.018344 0.004899 -73367.800000 0 0 1
-7.094197 -24.580720 -31.150498 40.309960 1.289823 2.453997 0.020174 0.002697 -34824.800000 0 0 1
-7.868097 -24.256620 -30.061388 39.420522 1.257135 2.438092 0.015304 0.005726 -619357.000000 0 0 1
-8.323897 -22.828320 -29.928588 38.550484 1.221148 2.459647 0.007387 0.002056 -424748.000000 0 0 1
-9.022797 -22.407820 -31.088078 39.369910 1.187996 2.481019 -0.004276 -0.000866 108707.000000 0 0 1
-9.438497 -21.038120 -30.893358 38.549802 1.149076 2.500409 -0.003818 0.001497 106129.000000 0 0 1
-10.017297 -20.535720 -32.249728 39.523499 1.116957 2.525190 -0.009179 0.001892 -117305.000000 0 0 1
-10.447097 -19.208820 -32.111878 38.849624 1.072672 2.543780 -0.006874 -0.000734 -74256.800000 0 0 1
-11.175097 -18.779920 -33.219208 39.762846 1.034020 2.559717 0.008265 -0.002975 -496323.000000 0 0 1
-12.099497 -17.584920 -32.946868 39.257143 0.968128 2.566713 0.002082 -0.003482 -252391.000000 0 0 1
-11.596297 -16.267620 -33.272198 38.809131 0.951501 2.600855 0.018949 -0.007727 -231555.000000 0 0 1
-10.734697 -15.719720 -32.335808 37.522630 0.971652 2.609541 -0.014391 0.004505 -280662.000000 0 0 1
-10.712597 -14.175720 -32.363138 36.919960 0.923657 2.639496 -0.001979 -0.003797 -184022.000000 0 0 1
-10.070797 -13.577220 -33.510438 37.532803 0.932601 2.674388 0.012264 -0.011529 -156751.000000 0 0 1
-10.624697 -13.835520 34.520252 38.677559 0.915919 0.467908 0.024102 -0.013285 -267338.000000 0 0 1
-11.154297 -12.589120 33.700867 37.665006 0.845755 0.462919 0.035350 -0.014643 610008.000000 0 0 1
-12.308297 -11.971820 34.265735 38.327004 0.771541 0.464521 0.023988 -0.006047 185429.000000 0 0 1
-13.088197 -11.192820 33.355786 37.539160 0.707496 0.476600 0.011714 -0.017995 179645.000000 0 0 1
-14.270097 -10.525220 33.991966 38.338879 0.635499 0.480814 0.012399 -0.013866 -211302.000000 0 0 1
-13.692497 -9.554320 -34.394925 38.233236 0.609233 2.689667 0.017463 -0.019484 548118.000000 0 0 1
-14.651997 -9.031620 -33.452818 37.621034 0.552398 2.666401 0.013472 -0.018956 156888.000000 0 0 1
-14.055097 -8.106820 -32.379338 36.217230 0.523177 2.677061 0.014877 -0.032222 -390802.000000 0 0 1
-13.624897 -6.836320 -32.872328 36.234831 0.465048 2.707382 0.011214 -0.034830 137109.000000 0 0 1
-14.656797 -5.879320 -32.989528 36.574541 0.381482 2.695131 0.009618 -0.032664 -237299.000000 0 0 1
-15.047097 -5.213620 -31.664078 35.443064 0.333542 2.675606 0.003251 -0.031316 -107607.000000 0 0 1
-15.603197 -6.125420 -30.687768 34.967408 0.374089 2.641651 0.000392 -0.035447 -36970.700000 0 0 1
-16.009497 -5.612620 -29.436048 33.974790 0.337192 2.618761 0.002868 -0.035346 130201.000000 0 0 1
-14.841097 -5.105520 -28.547018 32.576935 0.331331 2.638914 -0.001238 -0.031458 365787.000000 0 0 1
-14.412097 -3.816320 -29.017098 32.623071 0.258859 2.666971 -0.002334 -0.026386 -562699.000000 0 0 1
-13.180897 -3.394320 -28.536388 31.616180 0.252042 2.696540 -0.001702 -0.018467 -432322.000000 0 0 1
-12.858697 -2.007320 -29.160658 31.933045 0.154856 2.721819 -0.006557 -0.002729 -11390.400000 0 0 1
-13.052997 -2.114320 -30.567938 33.305403 0.160585 2.733318 0.006789 -0.010672 275627.000000 0 0 1
-12.889297 -0.841320 -31.128488 33.701996 0.065180 2.748266 0.017222 -0.012878 -26077.500000 0 0 1
-13.043097 -0.885320 -32.627778 35.149368 0.067773 2.760505 0.009071 -0.009790 334118.000000 0 0 1
-14.368797 -1.234320 -33.032438 36.043415 0.085692 2.729944 -0.003289 -0.011173 658886.000000 0 0 1
-14.336497 -1.468320 -34.395775 37.292900 0.102062 2.744823 -0.005863 -0.003225 -289698.000000 0 0 1
-15.722597 -1.600320 34.250679 37.720950 0.101435 0.432307 -0.004878 -0.008360 -408628.000000 0 0 1
-15.584797 -1.866320 32.859805 36.416148 0.119185 0.445625 0.003841 -0.008905 788884.000000 0 0 1
-16.838297 -1.893320 32.169985 36.359604 0.111971 0.484790 0.002727 -0.006651 582828.000000 0 0 1
-16.580397 -1.981320 30.633685 34.889222 0.118934 0.499072 0.009917 -0.003228 -27783.600000 0 0 1
-16.012597 -0.814320 30.129415 34.129870 0.050811 0.489034 0.005091 0.012987 29925.800000 0 0 1
-16.053497 -0.780320 28.705065 32.898395 0.048569 0.510425 -0.004267 0.000378 231580.000000 0 0 1
-15.316997 0.597680 28.310055 32.193583 -0.039001 0.496260 -0.003835 0.004566 93564.800000 0 0 1
-15.984797 1.819680 28.625685 32.836790 -0.113350 0.512020 -0.002528 0.004092 733659.000000 0 0 1
-17.289597 2.078680 28.078215 33.039934 -0.119653 0.555140 0.004317 -0.004279 744842.000000 0 0 1
-17.458597 2.798680 26.724235 32.044031 -0.158952 0.584506 0.002886 -0.009869 -576263.000000 0 0 1
-17.138597 4.160680 26.723855 32.018857 -0.238159 0.583338 -0.002952 -0.003753 -31261.800000 0 0 1
-17.712197 4.871680 25.657805 31.555952 -0.268410 0.621357 0.005266 -0.004625 -532250.000000 0 0 1
-17.823697 6.400680 25.759105 31.971618 -0.344768 0.633963 0.010475 -0.004318 -265887.000000 0 0 1
-16.630197 7.150680 25.761705 31.485887 -0.406083 0.612526 -0.003007 -0.002388 -49800.000000 0 0 1
-16.050397 7.270680 24.458825 30.144853 -0.425338 0.624293 -0.002986 0.004003 -447461.000000 0 0 1
-15.029697 8.398680 24.314505 29.793032 -0.509579 0.616142 -0.026074 0.002239 -888335.000000 0 0 1
-13.886997 8.161680 25.046055 29.778626 -0.531342 0.571529 -0.048854 0.012787 -1446410.000000 0 0 1
-12.764397 8.396680 24.250905 28.662527 -0.581853 0.562201 -0.028754 0.012574 -1280020.000000 0 0 1
-11.505197 8.298680 25.082145 28.815823 -0.624878 0.514722 -0.027112 0.029230 -1303000.000000 0 0 1
-10.372197 8.583680 24.294885 27.775951 -0.691325 0.506035 -0.018448 0.012226 495023.000000 0 0 1
-9.132897 8.683680 25.006595 28.002605 -0.760190 0.466807 -0.009569 0.006286 440164.000000 0 0 1
-8.907197 9.977680 25.834705 29.091652 -0.842022 0.477720 0.003696 -0.003643 -1143780.000000 0 0 1
-9.850997 10.127680 26.867945 30.356194 -0.799246 0.484110 -0.013522 -0.000293 18079.900000 0 0 1
-9.817697 11.361680 27.582765 31.405157 -0.858170 0.498527 -0.008802 0.002360 -547800.000000 0 0 1
-10.399197 12.595680 26.851205 31.428994 -0.880630 0.546507 -0.021041 0.003187 1497340.000000 0 0 1
-11.843997 12.736680 26.675585 31.844782 -0.821699 0.577784 -0.018410 -0.004606 1589420.000000 0 0 1
-12.182897 11.982680 25.519265 30.712220 -0.777113 0.590045 -0.025016 0.001997 2339.610000 0 0 1
-13.721797 11.870680 25.260365 31.101235 -0.713193 0.622886 -0.025599 0.002150 199925.000000 0 0 1
-14.214597 13.082680 24.837795 31.466289 -0.743956 0.661053 -0.029308 -0.006878 -172187.000000 0 0 1
-15.549997 13.100680 24.366875 31.736018 -0.700117 0.695398 -0.017546 0.014613 108836.000000 0 0 1
-15.705497 12.576680 22.933455 30.508669 -0.675218 0.720156 -0.016624 0.014895 -494771.000000 0 0 1
-15.719797 11.165680 22.709055 29.790697 -0.617601 0.703957 -0.018223 0.007724 46566.000000 0 0 1
-15.814497 10.948680 21.317255 28.712319 -0.605552 0.734087 -0.019499 0.007348 -343510.000000 0 0 1
-16.049797 9.488680 20.881755 27.994262 -0.533926 0.728867 -0.018960 -0.003035 -35661.900000 0 0 1
-17.370397 9.020680 20.994155 28.702925 -0.478979 0.750381 -0.008825 0.000617 -317068.000000 0 0 1
-17.454397 7.638680 20.913755 28.291174 -0.412525 0.738866 -0.014382 0.009487 246139.000000 0 0 1
-18.870397 7.119680 21.268355 29.310828 -0.360780 0.758870 0.009750 0.011551 277387.000000 0 0 1
-19.125697 7.553680 22.602555 30.556928 -0.376145 0.738192 0.003859 0.002506 435224.000000 0 0 1
-20.504297 7.500680 22.970655 31.691282 -0.350690 0.760015 -0.006803 0.010719 386446.000000 0 0 1
-20.682797 8.040680 24.404355 32.984893 -0.370781 0.737927 0.016525 0.001971 -640217.000000 0 0 1
-20.772797 9.449680 24.575965 33.537793 -0.426927 0.748392 0.015201 -0.008253 368556.000000 0 0 1
-19.824397 10.375680 23.984655 32.801297 -0.482176 0.750701 0.009628 -0.001032 581682.000000 0 0 1
-18.474997 10.516680 24.728615 32.610282 -0.517494 0.710084 0.017661 -0.004553 -112070.000000 0 0 1
-18.663197 11.145680 25.992895 33.884682 -0.538359 0.696490 0.027437 -0.008771 135107.000000 0 0 1
-18.518797 10.219680 27.083795 34.364511 -0.504266 0.663027 0.014692 -0.009859 21238.100000 0 0 1
-29.899907 -13.909864 20.951355 39.069784 0.435434 1.004803 0.007812 0.011040 -160591.000000 0 0 1
-29.509967 -15.178764 21.466455 39.522673 0.475070 0.996621 0.006463 0.005090 1932.020000 0 0 1
-30.125957 -16.294864 20.884655 40.115641 0.495823 1.023230 -0.004375 0.011197 -518281.000000 0 0 1
-29.740937 -16.646964 19.429655 39.232081 0.510285 1.052675 -0.013017 0.011015 87571.000000 0 0 1
-30.119297 -15.620764 18.534455 38.661432 0.478440 1.070821 -0.004083 -0.002123 156650.000000 0 0 1
-29.503277 -15.838464 17.273955 37.678771 0.492681 1.094542 -0.003438 -0.005935 -1180800.000000 0 0 1
-29.828357 -14.752264 16.194055 37.008210 0.459296 1.117891 -0.006606 0.001070 -493634.000000 0 0 1
-31.094547 -14.743964 15.576055 37.773917 0.442767 1.145765 0.013271 0.001896 889209.000000 0 0 1
-32.300207 -14.605964 16.350855 39.038289 0.424677 1.138627 0.011723 -0.006363 265589.000000 0 0 1
-32.482247 -13.325164 17.128855 39.064741 0.389293 1.116897 -0.003272 -0.005718 -497859.000000 0 0 1
-33.764497 -13.270464 17.749455 40.387988 0.374483 1.115784 -0.007879 -0.006422 526106.000000 0 0 1
-33.929727 -11.964064 18.255255 40.343767 0.339001 1.101238 0.004402 0.001210 -82032.500000 0 0 1
34.688351 -11.817264 19.000455 41.278889 -0.328339 1.092469 -0.003721 0.017997 -230569.000000 0 0 1
34.921670 -12.258864 20.340255 42.231845 -0.337600 1.068279 -0.009266 0.009283 665271.000000 0 0 1
33.891059 -11.833364 21.243355 41.712258 -0.335925 1.036445 -0.008245 0.006189 -434567.000000 0 0 1
34.291516 -12.309964 22.689055 42.921282 -0.344652 1.013822 -0.005277 -0.008567 1562840.000000 0 0 1
-34.408456 -11.742764 23.244955 43.152778 0.328881 1.001943 -0.008205 -0.002227 2237360.000000 0 0 1
-33.223647 -12.359764 22.686855 42.086433 0.356153 1.001483 -0.005817 -0.004364 -155980.000000 0 0 1
-31.934047 -11.632064 23.045755 41.063306 0.349315 0.974931 0.006645 0.000293 -305410.000000 0 0 1
-31.980617 -10.363464 22.440055 40.419269 0.313377 0.982214 0.011252 -0.000160 300903.000000 0 0 1
-30.696807 -9.750364 22.454155 39.262611 0.307556 0.961980 0.007129 -0.007293 125866.000000 0 0 1
-30.654587 -8.356664 21.758555 38.509378 0.266140 0.970339 0.000778 0.001282 19755.700000 0 0 1
-30.784247 -8.200764 20.373455 37.815341 0.260349 1.001830 0.001858 0.005622 474485.000000 0 0 1
-32.068147 -8.584764 19.893855 38.701804 0.261570 1.030921 -0.005682 0.003034 -36.834000 0 0 1
-32.243987 -8.299664 18.381455 38.032052 0.251933 1.066359 0.005809 -0.001422 546215.000000 0 0 1
-33.567167 -8.655164 17.951255 39.037342 0.252350 1.092972 0.001023 0.001524 772975.000000 0 0 1
-33.803137 -8.287464 16.598355 38.559558 0.240426 1.125794 0.006673 0.007609 -425510.000000 0 0 1
34.682997 -8.416364 16.186355 39.188564 -0.238064 1.145009 0.000180 0.015410 -496444.000000 0 0 1
34.107173 -9.687264 16.310355 39.027810 -0.276736 1.139646 -0.007752 0.015908 468753.000000 0 0 1
32.700272 -9.589164 16.086155 37.683209 -0.285247 1.129758 0.000335 0.017033 560784.000000 0 0 1
31.923632 -10.917764 16.059655 37.366139 -0.329527 1.126534 -0.001683 0.014792 -144764.000000 0 0 1
31.788242 -11.592364 17.322955 38.012629 -0.349688 1.097620 -0.013913 0.013827 769245.000000 0 0 1
30.754752 -12.607264 17.208555 37.429029 -0.389036 1.093066 -0.023949 0.012615 751690.000000 0 0 1
30.490592 -13.048264 18.648055 38.048434 -0.404362 1.058576 -0.031762 0.013491 101242.000000 0 0 1
31.440792 -14.019164 19.029455 39.334215 -0.419432 1.065818 -0.009897 0.003927 113552.000000 0 0 1
31.268482 -14.109764 20.412755 39.918466 -0.423889 1.034028 -0.012577 0.009008 -103985.000000 0 0 1
31.967852 -15.307464 21.097955 41.247857 -0.446576 1.033876 -0.018254 0.005592 -265978.000000 0 0 1
31.792542 -15.304864 22.525555 41.861739 -0.448656 1.002622 -0.012048 -0.002227 -145284.000000 0 0 1
32.129772 -16.544964 23.090455 42.886212 -0.475530 1.002245 -0.004570 0.005451 -77033.700000 0 0 1
32.550652 -16.426664 24.569445 43.966326 -0.467360 0.977829 -0.001852 -0.003086 687829.000000 0 0 1
33.804812 -15.753164 24.728275 44.748352 -0.436083 0.985307 -0.010627 -0.000944 537542.000000 0 0 1
33.992554 -15.407764 26.081595 45.531775 -0.425569 0.960852 -0.012984 0.003188 -29612.700000 0 0 1
-34.813572 -14.352964 26.327255 45.946890 0.391048 0.960643 -0.006564 -0.001566 1203010.000000 0 0 1
-33.488637 -14.871664 26.062775 44.965803 0.417921 0.952542 -0.012070 0.004054 560371.000000 0 0 1
-32.535137 -13.891864 26.386045 44.133234 0.403547 0.929952 0.003420 -0.000378 546041.000000 0 0 1
-31.102377 -14.560564 26.391965 43.311704 0.437844 0.915556 0.016534 0.001682 -249018.000000 0 0 1
-30.638247 -14.569664 25.090045 42.195825 0.443888 0.934016 0.005305 0.005924 946667.000000 0 0 1
-29.330437 -15.131864 24.800255 41.283174 0.476294 0.926376 0.022029 -0.003221 1131010.000000 0 0 1
-29.059707 -16.548364 25.357555 41.968089 0.517661 0.922022 0.020332 0.001019 -1081870.000000 0 0 1
-28.993847 -16.635364 26.771125 42.826062 0.520898 0.895520 0.022566 -0.001624 49806.800000 0 0 1
-28.751867 -17.947064 27.149135 43.426288 0.558028 0.895437 0.018695 -0.000695 -369239.000000 0 0 1
-28.458867 -18.199864 28.646395 44.291738 0.568969 0.867460 0.015048 -0.006045 -838091.000000 0 0 1
-27.214327 -17.732964 29.013445 43.552928 0.577502 0.841741 0.023922 -0.002123 -983351.000000 0 0 1
-26.890507 -18.145664 30.295285 44.386583 0.593611 0.819574 0.028075 -0.010757 76289.000000 0 0 1
-25.592337 -17.431264 30.707685 43.609386 0.597937 0.789567 0.026213 -0.011956 -113352.000000 0 0 1
-25.913707 -16.128164 31.172935 43.627855 0.556713 0.774860 0.040900 -0.020609 507140.000000 0 0 1
-24.814397 -15.265364 30.873145 42.449225 0.551508 0.756423 0.029680 -0.017642 -410011.000000 0 0 1
-24.776997 -13.915264 31.611725 42.506885 0.511721 0.732231 0.037748 -0.016801 -275805.000000 0 0 1
-24.090097 -13.983864 32.825775 43.051280 0.525944 0.703658 0.043993 -0.018267 26152.900000 0 0 1
-23.970997 -12.642364 33.334437 42.960712 0.485329 0.682611 0.047848 -0.013830 -297704.000000 0 0 1
-23.407197 -12.586664 -34.521645 43.566787 0.493371 2.485504 0.054936 -0.015911 518129.000000 0 0 1
-22.031297 -12.946164 -34.345232 42.808599 0.531271 2.501931 0.029596 -0.008277 710367.000000 0 0 1
-21.718897 -14.345564 -34.359559 43.105510 0.583729 2.493280 0.025352 -0.006750 -390166.000000 0 0 1
-21.583897 -15.004864 -32.998308 42.188847 0.607489 2.468917 0.022420 -0.001280 534837.000000 0 0 1
-20.383397 -14.714764 -32.233398 40.877855 0.625273 2.479211 0.005989 0.003702 871945.000000 0 0 1
-20.299597 -15.572664 -31.108728 40.278213 0.654382 2.453323 0.021843 0.000165 445139.000000 0 0 1
-19.018297 -15.337364 -30.238028 38.875039 0.678663 2.461996 0.022291 0.005214 345330.000000 0 0 1
-18.941097 -14.175064 -29.450998 37.776432 0.642461 2.464844 -0.000412 0.003160 249054.000000 0 0 1
-19.763997 -14.116164 -28.261818 37.264084 0.620217 2.431681 0.004637 0.008219 169447.000000 0 0 1
-19.491697 -12.906864 -27.332128 35.966075 0.584885 2.434020 -0.002531 0.002218 -469967.000000 0 0 1
-18.181097 -12.814664 -26.815988 34.840567 0.613963 2.449132 0.001030 0.001404 -78879.700000 0 0 1
-18.087197 -11.648664 -26.013028 33.756713 0.572166 2.450583 -0.012845 -0.009864 -151673.000000 0 0 1
-16.738197 -11.521364 -25.310218 32.457914 0.602849 2.465120 -0.008923 0.004146 -790777.000000 0 0 1
-16.504697 -12.472564 -24.272928 31.892709 0.647138 2.435774 -0.004385 0.006913 -83939.700000 0 0 1
-15.187097 -12.546364 -23.787028 30.884978 0.690466 2.449921 0.014463 -0.001680 -321931.000000 0 0 1
-14.158197 -13.242364 -24.663828 31.370673 0.751987 2.475442 0.000588 0.003290 -1021950.000000 0 0 1
-13.584997 -12.379264 -25.612848 31.524852 0.738993 2.519165 -0.001503 -0.008014 -377563.000000 0 0 1
-12.928697 -13.201664 -26.533208 32.333361 0.795844 2.533281 -0.014130 0.007962 -361636.000000 0 0 1
-12.225897 -12.321064 -27.585848 32.592333 0.789275 2.579967 -0.013902 0.019251 657897.000000 0 0 1
-13.141497 -11.567464 -28.486048 33.435910 0.721781 2.590513 -0.008265 0.001924 902929.000000 0 0 1
-12.497697 -10.558364 -29.255108 33.519141 0.701482 2.631682 0.004877 -0.016193 -260730.000000 0 0 1
-11.520297 -10.994564 -30.327268 34.254063 0.762052 2.658070 0.000796 -0.008373 -171544.000000 0 0 1
-11.051897 -9.874264 -31.063538 34.417857 0.729182 2.696432 0.009099 -0.014599 -61375.500000 0 0 1
-10.596397 -10.206264 -32.357728 35.545379 0.766646 2.714857 0.016489 -0.013638 -125163.000000 0 0 1
-10.094797 -8.982764 -33.103028 35.754796 0.727174 2.754034 0.013583 -0.015839 55359.200000 0 0 1
-8.715397 -8.776964 -32.882658 35.132071 0.788918 2.781808 0.000967 -0.015555 -423708.000000 0 0 1
-8.345697 -7.548364 -33.422018 35.265560 0.735275 2.816822 0.003683 -0.014525 -353620.000000 0 0 1
-6.868897 -7.199464 -33.195558 34.654856 0.808891 2.850359 0.011898 -0.010939 -450756.000000 0 0 1
-6.421197 -7.174364 -31.844418 33.268156 0.840740 2.847979 -0.004779 -0.002912 -130243.000000 0 0 1
-6.911497 -6.142564 -30.974768 32.325472 0.726562 2.851493 -0.008471 0.001724 -473090.000000 0 0 1
-6.318497 -4.783764 -31.270278 32.258922 0.648033 2.893379 -0.002293 0.003420 405278.000000 0 0 1
-4.946197 -4.807364 -30.866458 31.627738 0.771165 2.921742 0.007202 0.003963 329009.000000 0 0 1
-4.276797 -3.653464 -31.299008 31.800419 0.706958 2.963778 0.019921 -0.003620 -128228.000000 0 0 1
-2.823297 -3.554864 -30.800678 31.133419 0.899598 2.995259 -0.003389 0.003180 51256.100000 0 0 1
-1.905397 -4.280564 -31.649498 31.994444 1.152002 2.994617 -0.013297 0.002154 1703420.000000 0 0 1
-0.519297 -4.324564 -31.214818 31.517239 1.451288 3.002951 -0.020332 0.007603 1665480.000000 0 0 1
0.388403 -3.066364 -31.217288 31.369930 -1.444802 3.042903 -0.015395 0.007867 -700734.000000 0 0 1
0.343603 -2.192564 -30.162208 30.243746 -1.415348 3.068145 0.004568 -0.007204 -369741.000000 0 0 1
0.972803 -1.031164 -30.509078 30.541995 -0.814513 3.095161 -0.007619 0.001795 -391033.000000 0 0 1
1.024303 0.105436 -29.469358 29.487342 0.102573 3.106665 0.003493 -0.010572 592428.000000 0 0 1
-0.265597 0.648936 -29.169278 29.177704 -1.182315 3.117559 0.017946 -0.008791 362496.000000 0 0 1
-0.100197 1.949436 -28.697678 28.763989 -1.519444 3.073678 0.025855 -0.011372 -102766.000000 0 0 1
-1.423497 2.661736 -28.420638 28.580480 -1.079698 3.035782 0.017755 -0.004631 -369498.000000 0 0 1
-2.028597 3.259436 -29.541458 29.789878 -1.014086 3.012359 0.006823 -0.005548 139938.000000 0 0 1
-3.113997 4.082536 -29.116838 29.566101 -0.919178 2.967043 0.039048 -0.004958 287327.000000 0 0 1
-4.344797 4.096136 -30.047128 30.634710 -0.755948 2.945420 0.044753 -0.009408 -141577.000000 0 0 1
-4.022397 4.419636 -31.371758 31.935874 -0.832418 2.953357 0.042852 -0.012785 -247501.000000 0 0 1
-5.088297 4.967836 -32.100748 32.878993 -0.773420 2.923584 0.043621 -0.008726 -245193.000000 0 0 1
-4.575497 5.719036 -33.401798 34.195360 -0.896027 2.925736 0.038664 -0.004618 473719.000000 0 0 1
-4.078997 4.924536 -34.537054 35.124028 -0.879035 2.958518 0.042724 -0.012097 -42938.400000 0 0 1
-2.910197 4.194336 -34.323906 34.701473 -0.964217 2.993943 0.033227 -0.011983 -642332.000000 0 0 1
-2.276497 3.541136 33.699285 33.961211 -0.999448 0.124278 0.033634 -0.013958 -258542.000000 0 0 1
-2.970997 2.408836 33.231308 33.450697 -0.681282 0.114593 0.031878 -0.019358 -323058.000000 0 0 1
-2.648397 1.899736 31.972095 32.137795 -0.622253 0.101591 0.040388 -0.017832 -390989.000000 0 0 1
-2.653997 2.784736 30.716145 30.956098 -0.809432 0.124591 0.054293 -0.024897 258394.000000 0 0 1
-3.844097 3.557936 30.586635 31.031890 -0.746758 0.169604 0.039591 -0.024233 349539.000000 0 0 1
-3.705697 4.308136 29.433325 29.976872 -0.860432 0.190721 0.039681 -0.027334 437568.000000 0 0 1
-4.887997 5.301636 29.232635 30.108916 -0.825970 0.241851 0.042742 -0.015703 444259.000000 0 0 1
-4.837297 5.963936 28.005855 29.039557 -0.889329 0.267617 0.045566 -0.011428 -666865.000000 0 0 1
-6.035797 6.657936 27.880445 29.292971 -0.834371 0.311812 0.032076 -0.004414 -806364.000000 0 0 1
-6.049997 7.482436 26.589415 28.276957 -0.890858 0.347224 0.032041 -0.005186 -123819.000000 0 0 1
-5.229397 8.638736 26.576115 28.429988 -1.026458 0.363124 0.040802 -0.004682 90941.700000 0 0 1
-5.197697 9.199236 25.297225 27.415171 -1.056499 0.395652 0.035666 -0.002829 -57349.800000 0 0 1
-4.746397 10.682936 25.374515 27.937777 -1.152695 0.431711 0.045310 -0.006727 -327989.000000 0 0 1
-4.627497 11.344436 24.120055 27.053410 -1.183491 0.469992 0.048940 -0.009949 756724.000000 0 0 1
-3.941597 12.641936 24.252335 27.632055 -1.268561 0.499779 0.046170 -0.002157 948984.000000 0 0 1
-2.361497 12.592736 24.169555 27.355457 -1.385421 0.487436 0.051183 -0.000227 432076.000000 0 0 1
-1.708797 12.031536 25.267995 28.038356 -1.429713 0.448280 0.045987 -0.004573 -174431.000000 0 0 1
-1.880197 12.801836 26.513015 29.501900 -1.424970 0.454027 0.034449 0.001516 -1169900.000000 0 0 1
-0.996697 12.350036 27.662955 30.310986 -1.490267 0.421105 0.021579 0.001007 667858.000000 0 0 1
0.377503 12.764536 27.588795 30.400946 1.541231 0.433508 0.012499 0.009439 285848.000000 0 0 1
1.056403 12.287236 28.718335 31.254358 1.485032 0.405618 0.017990 -0.001736 690122.000000 0 0 1
2.582403 12.656036 28.662195 31.438280 1.369514 0.423400 0.013340 0.007892 789536.000000 0 0 1
2.809103 14.042536 28.760195 32.128378 1.373360 0.461995 0.004004 0.007000 -357972.000000 0 0 1
4.161703 14.399236 28.762565 32.433669 1.289441 0.480396 0.005748 0.005650 -575836.000000 0 0 1
4.335703 15.925736 28.902955 33.283753 1.304993 0.518870 -0.006539 0.007891 -350852.000000 0 0 1
4.049503 16.330236 30.226765 34.593820 1.327724 0.507912 -0.007500 0.014526 427562.000000 0 0 1
2.840903 17.074636 30.331275 34.922774 1.405925 0.518579 -0.002158 0.015112 -194872.000000 0 0 1
2.753903 18.572136 29.812305 35.231828 1.423588 0.562029 0.001502 0.014456 -4453.570000 0 0 1
3.668903 19.483136 30.449215 36.334668 1.384664 0.577150 0.007825 0.013955 -113596.000000 0 0 1
4.662503 19.851336 29.559975 35.911093 1.340107 0.603872 -0.001942 0.013695 -342175.000000 0 0 1
5.812303 20.729736 30.132865 37.033692 1.297431 0.620374 0.003390 0.013376 324276.000000 0 0 1
5.282303 21.924836 30.718755 38.108307 1.334374 0.633280 -0.005472 0.009482 819829.000000 0 0 1
6.304603 22.696236 31.400985 39.254159 1.299846 0.643601 -0.013615 0.001044 421758.000000 0 0 1
6.560503 24.074636 30.739485 39.592224 1.304749 0.681860 -0.013127 -0.002082 -48981.100000 0 0 1
7.152403 24.107336 29.451115 38.725814 1.282379 0.706708 -0.028391 0.008818 304397.000000 0 0 1
7.490403 25.410036 29.006685 39.283124 1.284134 0.740101 -0.038714 0.017412 -322758.000000 0 0 1
8.177003 25.405736 27.647365 38.427745 1.259410 0.767767 -0.028348 0.010164 -99507.800000 0 0 1
7.262703 25.170136 26.600045 37.334233 1.289882 0.777764 -0.026564 0.003408 355417.000000 0 0 1
7.945903 25.283036 25.378955 36.694150 1.266292 0.807046 -0.010627 -0.001011 -248272.000000 0 0 1
28.329142 2.500736 7.030272 29.295369 0.088046 1.328452 0.009792 0.007660 47931.600000 0 0 1
28.435252 3.476336 8.025372 29.749875 0.121651 1.297651 0.009315 -0.003699 5219.060000 0 0 1
27.485692 3.294136 9.032572 29.118756 0.119280 1.255395 0.005836 0.006073 -619120.000000 0 0 1
27.776402 4.048936 10.344172 29.915285 0.144749 1.217724 0.001814 0.005907 -54743.500000 0 0 1
27.903652 5.430036 10.410172 30.273268 0.192197 1.219758 0.001834 -0.004861 430769.000000 0 0 1
29.073122 5.921436 9.763572 31.235191 0.200926 1.252886 0.011241 -0.014065 -46153.900000 0 0 1
28.916542 7.366636 9.316272 31.260624 0.249449 1.268179 -0.000717 -0.019667 -480457.000000 0 0 1
27.980932 7.658536 8.308372 30.176394 0.267162 1.291867 0.019258 -0.015262 -51844.400000 0 0 1
28.045762 9.025036 8.087772 30.552055 0.311332 1.302882 0.023400 -0.020810 205818.000000 0 0 1
27.222812 9.452436 6.843572 29.618651 0.334200 1.337633 0.024407 -0.009035 963709.000000 0 0 1
25.832462 9.778536 7.013072 28.497702 0.361868 1.322150 0.022494 -0.008716 1161300.000000 0 0 1
25.136192 9.893936 5.763172 27.621228 0.374988 1.360602 0.023826 -0.008993 8351.640000 0 0 1
23.693582 10.413336 5.834072 26.530356 0.414088 1.349083 -0.000174 -0.005534 -152510.000000 0 0 1
23.513782 11.778336 6.030372 26.981336 0.464377 1.345391 -0.005718 -0.007656 -473083.000000 0 0 1
22.155182 11.891436 6.339372 25.931563 0.492601 1.323828 -0.005405 -0.001247 -380729.000000 0 0 1
21.801082 13.354636 6.819972 26.460262 0.549609 1.310110 -0.004212 0.007489 -292531.000000 0 0 1
21.861582 14.265736 5.752472 26.730711 0.578164 1.353899 -0.015981 0.021206 167336.000000 0 0 1
21.842082 15.565436 6.307072 27.552468 0.619156 1.339837 0.011084 0.005852 -241271.000000 0 0 1
21.475082 16.543136 5.209372 27.604203 0.656393 1.380941 0.027875 0.001529 -1065610.000000 0 0 1
20.122882 16.659036 4.965472 26.591535 0.691503 1.382962 0.019383 0.006113 -691605.000000 0 0 1
19.912982 17.645836 3.984072 26.903070 0.725109 1.422160 0.026968 0.004137 -556399.000000 0 0 1
18.460382 17.702636 3.524572 25.818436 0.764448 1.433855 0.006631 0.009417 -773578.000000 0 0 1
17.612882 18.379936 4.396572 25.833418 0.806706 1.399775 0.004363 0.000081 -856317.000000 0 0 1
16.376182 18.490136 3.788072 24.988276 0.845954 1.418616 -0.007070 0.003819 -518887.000000 0 1 0
15.442682 19.604836 4.447772 25.349727 0.903602 1.394427 -0.000876 0.003111 935267.000000 0 0 1
14.074182 19.277936 4.240272 24.242552 0.940175 1.394982 -0.009406 0.005774 446314.000000 0 1 0
13.147182 20.324336 4.427172 24.607455 0.996625 1.389900 -0.012390 -0.002660 102166.000000 0 1 0
11.680582 19.867336 4.285472 23.441678 1.039300 1.386948 -0.009342 -0.005277 -96802.500000 0 1 0
11.276482 19.004036 5.338572 22.733516 1.035264 1.333750 -0.011531 -0.017501 -1152750.000000 0 1 0
9.909882 19.107436 5.396772 22.190651 1.092348 1.325133 0.000009 -0.008407 -1025980.000000 0 1 0
9.258682 18.715136 6.778372 21.952809 1.111385 1.256897 0.010460 -0.002360 -297862.000000 0 1 0
9.233782 19.706136 7.785672 23.113009 1.132604 1.227224 0.007468 -0.001182 -505779.000000 0 1 0
8.583882 19.244936 8.908672 22.878265 1.151246 1.170822 0.008587 0.010017 -528746.000000 0 1 0
7.276982 19.988436 9.198272 23.175423 1.221652 1.162662 0.008688 0.000208 277815.000000 0 1 0
6.192982 19.970136 8.279772 22.488085 1.270088 1.193740 0.000552 -0.014574 427779.000000 0 1 0
6.321882 21.080936 7.446772 23.234166 1.279444 1.244529 -0.006782 -0.011790 -260447.000000 0 1 0
5.042282 21.205936 6.554672 22.761372 1.337354 1.278686 -0.009503 -0.005262 663144.000000 0 1 0
3.848082 21.565936 7.241972 23.072570 1.394221 1.251522 -0.013826 -0.000780 281363.000000 0 1 0
3.780082 23.009236 7.668372 24.546240 1.407965 1.253072 -0.007715 -0.001135 -604872.000000 0 1 0
3.704482 24.061036 6.571672 25.215938 1.418034 1.307136 -0.007160 -0.004406 -143923.000000 0 0 1
2.458282 24.067436 5.889372 24.899183 1.469008 1.332005 -0.006537 -0.007039 597086.000000 0 1 0
2.684282 24.889136 4.806572 25.490735 1.463362 1.381099 -0.002637 0.004250 -25790.000000 0 0 1
1.384982 25.127836 4.008472 25.483213 1.515735 1.412842 -0.000471 -0.000102 -82879.300000 0 0 1
0.534682 26.025036 4.709472 26.453119 1.550254 1.391811 0.010398 -0.005916 -119369.000000 0 0 1
-0.588418 26.343936 3.925572 26.641308 -1.548464 1.422909 0.011232 -0.003025 -740863.000000 0 0 1
-1.772318 26.887936 4.687172 27.350901 -1.504977 1.398574 0.016921 -0.006906 -671402.000000 0 0 1
-2.698718 27.465136 3.811072 27.859308 -1.472851 1.433569 0.027758 -0.004886 203466.000000 0 0 1
-3.886518 27.928736 4.463972 28.549017 -1.432526 1.413790 0.017394 -0.008877 242181.000000 0 0 1
-4.787118 28.670036 3.453772 29.271419 -1.405350 1.452530 0.015774 -0.012802 -216040.000000 0 0 1
-4.173618 29.745436 2.757772 30.163146 -1.431395 1.479240 0.008985 -0.005630 -137837.000000 0 0 1
-5.025318 30.170436 1.740772 30.635589 -1.405747 1.513944 0.011138 -0.002880 -626963.000000 0 0 1
-4.377018 30.983336 0.583672 31.296422 -1.430455 1.552145 0.002099 0.003862 -304376.000000 0 0 1
-4.016018 32.347336 0.889872 32.607827 -1.447275 1.543503 -0.004091 0.010071 603107.000000 0 0 1
-2.979718 32.531936 1.856472 32.720820 -1.479458 1.514029 0.004849 -0.000880 -310929.000000 0 0 1
-2.318518 33.911136 1.990572 34.048539 -1.502532 1.512300 -0.004805 0.003130 -1122260.000000 0 0 1
-1.568218 34.212436 0.818572 34.258140 -1.524991 1.546900 -0.020918 0.010464 125256.000000 0 0 1
-0.693318 -33.983520 0.934872 34.003445 1.550398 1.543299 -0.017601 0.011346 804981.000000 0 0 1
0.573282 -34.240020 1.820972 34.293199 -1.554055 1.517671 -0.016935 0.013951 -312638.000000 0 0 1
0.165782 -34.260320 3.142972 34.404582 -1.565957 1.479315 -0.019529 0.007425 543497.000000 0 0 1
1.322982 -34.505220 3.963872 34.757341 -1.532474 1.456503 -0.026601 0.006473 705388.000000 0 0 1
1.037282 -34.264720 5.433772 34.708397 -1.540533 1.413595 -0.025602 -0.003942 -19115.700000 0 0 1
0.290682 34.032136 6.093272 34.574539 1.562255 1.393635 -0.017690 -0.004832 -186341.000000 0 0 1
0.037082 34.231736 7.468072 35.036912 1.569713 1.356000 -0.005512 -0.014978 -471142.000000 0 0 1
1.111582 33.837436 8.472672 34.899769 1.537957 1.325574 -0.020561 -0.005755 -568208.000000 0 0 1
1.346482 32.479836 8.540372 33.610872 1.529364 1.313884 -0.017869 -0.011668 812672.000000 0 0 1
2.591482 32.136636 9.185672 33.523957 1.490331 1.293243 -0.023215 -0.001465 620334.000000 0 0 1
2.913482 30.648736 9.095472 32.102352 1.476021 1.283535 -0.017977 -0.001474 -408056.000000 0 0 1
2.224982 29.871236 10.043472 31.592920 1.496448 1.247280 -0.001464 -0.008428 416728.000000 0 0 1
2.832182 28.589536 10.123272 30.460851 1.472055 1.232016 -0.002570 -0.006185 -83894.800000 0 0 1
2.286582 27.815036 11.295972 30.108199 1.488774 1.186206 0.005178 -0.014135 -426830.000000 0 0 1
2.602582 28.515836 12.454672 31.225714 1.479781 1.160524 0.008197 -0.007275 -29474.500000 0 0 1
2.641282 27.711236 13.621072 30.990685 1.475769 1.115730 0.008893 -0.010825 -803050.000000 0 0 1
1.329982 27.071536 14.156472 30.578466 1.521707 1.089470 0.010955 -0.009190 254184.000000 0 0 1
0.485282 28.037236 14.796272 31.705706 1.553490 1.085268 0.008554 -0.007614 418165.000000 0 0 1
-0.333218 28.727636 13.872272 31.903417 -1.559198 1.120957 0.021846 -0.008966 -1040800.000000 0 0 1
-1.022018 29.970736 14.423772 33.276639 -1.536709 1.122478 -0.007409 -0.004293 -52439.300000 0 0 1
-2.033618 29.850636 15.397572 33.649388 -1.502775 1.095515 -0.007413 0.002483 -216629.000000 0 0 1
-2.525218 31.112036 15.783672 34.977990 -1.489809 1.102635 -0.019938 0.010943 4287.230000 0 0 1
-3.907818 30.794136 16.431672 35.121926 -1.444570 1.083944 -0.023154 0.021254 156722.000000 0 0 1
-4.830718 30.269736 15.505572 34.351354 -1.412542 1.102483 -0.016137 0.013768 -142977.000000 0 0 1
-6.068918 29.987636 16.094172 34.570399 -1.371113 1.086543 -0.005109 0.012942 -385390.000000 0 0 1
-7.073418 29.131336 15.267872 33.641877 -1.332595 1.099732 -0.014680 0.006063 -70452.500000 0 0 1
-8.238518 28.942436 16.030572 34.095704 -1.293479 1.081320 -0.010880 0.004367 -369224.000000 0 0 1
-9.218918 28.245936 15.274672 33.408636 -1.255316 1.095944 0.000547 0.005855 -567892.000000 0 0 1
-10.398618 27.879136 16.147572 33.854417 -1.213790 1.073591 0.001178 0.007962 -1007750.000000 0 0 1
-11.203818 28.940336 16.649272 35.217423 -1.201429 1.078380 0.007906 0.001002 107948.000000 0 0 1
-10.758618 29.635536 17.771572 36.191734 -1.222560 1.057514 0.015971 -0.006335 -708183.000000 0 0 1
-11.720218 30.738436 18.223372 37.607263 -1.206524 1.064924 0.028525 -0.004327 364988.000000 0 0 1
-12.825818 30.232536 18.980572 37.931121 -1.169570 1.046741 0.026274 -0.006728 884584.000000 0 0 1
-13.923718 31.159336 19.061272 39.091000 -1.150561 1.061443 0.033140 0.006063 415742.000000 0 0 1
-14.934418 30.631036 20.080472 39.554046 -1.117151 1.038316 0.022348 -0.001028 -399815.000000 0 0 1
-14.390918 30.723236 21.380772 40.101785 -1.132743 1.008462 0.019657 -0.004964 -18358.200000 0 0 1
-15.263918 30.203536 22.341472 40.550982 -1.102863 0.987297 0.022091 -0.009326 -187929.000000 0 0 1
-14.708818 30.397136 23.815072 41.321821 -1.120121 0.956564 0.040432 -0.015999 -549925.000000 0 0 1
-13.498218 29.691436 23.960472 40.470823 -1.144110 0.937205 0.034598 -0.018082 107498.000000 0 0 1
-13.087618 29.448936 25.330472 40.989735 -1.152595 0.904637 0.038276 -0.010966 55096.900000 0 0 1
-12.678218 30.677136 26.208572 42.293181 -1.178895 0.902451 0.039458 -0.010881 184716.000000 0 0 1
-13.785218 31.462836 26.686172 43.498208 -1.157846 0.910311 0.029981 -0.000928 660734.000000 0 0 1
-13.276618 32.676236 27.151472 44.510756 -1.184864 0.914738 0.030402 0.003242 1040650.000000 0 0 1
-14.500918 33.566136 27.671472 45.854907 -1.163003 0.922967 0.029434 0.005947 863353.000000 0 0 1
-14.981218 33.140036 28.927672 46.470519 -1.146232 0.898869 -0.027340 0.009191 -119212.000000 0 0 1
-14.113518 33.224136 30.043172 46.964101 -1.169098 0.876682 0.002361 0.016195 -363575.000000 0 0 1
-14.696018 32.620536 31.319572 47.549847 -1.147515 0.851749 -0.017357 0.014614 232086.000000 0 0 1
-15.856018 33.276036 31.847472 48.713133 -1.126125 0.858233 -0.025968 0.016903 189333.000000 0 0 1
-16.226918 32.726036 33.089972 49.287448 -1.110481 0.834744 -0.031502 0.023401 36047.500000 0 0 1
-17.593318 33.223736 33.591672 50.415691 -1.083796 0.841569 -0.029094 0.016245 -40371.100000 0 0 1
-17.647218 34.614736 33.821772 51.512295 -1.099325 0.854525 -0.020177 0.016432 -353138.000000 0 0 1
-18.972218 -34.303220 34.124972 51.972778 1.065596 0.854503 -0.005142 -0.001851 -22969.700000 0 0 1
-19.172318 -32.800920 34.367172 51.230661 1.041848 0.835466 -0.000951 0.002758 -135014.000000 0 0 1
-18.708818 -32.130920 -33.754310 50.217222 1.043517 2.307927 -0.000441 0.007340 -18029.000000 0 0 1
-19.347118 -32.538320 -32.519710 49.905759 1.034361 2.280518 0.019556 0.004345 57706.400000 0 0 1
-19.019018 -31.613120 -31.307710 48.386828 1.029188 2.274479 0.031491 0.006295 -56471.000000 0 0 1
-19.447418 -30.258520 -31.424910 47.763009 0.999564 2.288868 0.043017 -0.002730 43205.300000 0 0 1
-18.835218 -29.519320 -30.394310 46.367767 1.002858 2.285648 0.044576 -0.005131 -109122.000000 0 0 1
-19.183918 -28.015720 -30.431910 45.596101 0.970375 2.301540 0.054103 -0.014781 60608.300000 0 0 1
-20.553518 -27.815920 -30.138510 45.874855 0.934429 2.287592 0.055517 -0.011850 -146370.000000 0 0 1
-20.932918 -26.444520 -30.307110 45.343364 0.901211 2.302840 0.057610 -0.012011 -481082.000000 0 0 1
-22.263218 -26.145820 -29.627810 45.354844 0.865431 2.282658 0.062691 -0.017925 -483371.000000 0 0 1
-22.323118 -26.267020 -28.227310 44.554001 0.866387 2.256933 0.058588 -0.014632 -33422.000000 0 0 1
-21.617918 -25.312020 -27.462710 43.153600 0.863951 2.260611 0.066735 -0.018721 -282802.000000 0 0 1
-21.493218 -25.622920 -25.987810 42.353969 0.872824 2.231391 0.061571 -0.009836 85677.800000 0 0 1
-22.693918 -25.565820 -25.242510 42.494816 0.844837 2.206836 0.051730 -0.010728 277466.000000 0 0 1
-22.462418 -26.115220 -23.970610 41.966118 0.860452 2.178751 0.042825 0.003183 -112398.000000 0 0 1
-23.719118 -25.909920 -23.050310 42.014727 0.829513 2.151515 0.031589 0.007746 841543.000000 0 0 1
-24.957318 -26.521420 -23.334710 43.252308 0.815772 2.140642 0.025361 0.010450 3193.460000 0 0 1
-24.887618 -27.928220 -23.703910 44.286052 0.842905 2.135595 0.026830 0.016937 -1289700.000000 0 0 1
-26.280318 -28.573020 -23.755210 45.512444 0.827171 2.119932 -0.001274 0.020161 -62853.400000 0 0 1
-26.909718 -28.672020 -22.499710 45.304024 0.817094 2.090518 0.003803 0.031748 366558.000000 0 0 1
-28.081318 -27.841720 -22.472910 45.483552 0.781114 2.087583 0.014219 0.030439 410837.000000 0 0 1
-28.577818 -27.427420 -21.045910 44.854045 0.764860 2.059191 0.006613 0.037583 8925.500000 0 0 1
-29.414718 -28.402820 -20.458910 45.722126 0.767898 2.034722 -0.026848 0.042856 -6869.730000 0 0 1
-30.027318 -27.760620 -19.367610 45.248162 0.746194 2.013109 -0.035828 0.050872 -782574.000000 0 0 1
-30.655818 -28.650320 -18.259110 45.760410 0.751595 1.981239 -0.039806 0.038246 628216.000000 0 0 1
-32.013718 -29.058320 -18.486210 47.021315 0.737044 1.974846 -0.044631 0.037526 914510.000000 0 0 1
-33.047418 -28.095820 -18.456810 47.139800 0.704591 1.973094 -0.056013 0.044350 -622292.000000 0 0 1
-33.517718 -27.569920 -17.081410 46.640245 0.688339 1.945759 -0.038901 0.044455 -192264.000000 0 0 1
-32.578518 -26.680720 -16.412610 45.195071 0.686199 1.942443 -0.042703 0.049481 559944.000000 0 0 1
-32.979318 -26.166120 -15.193310 44.756429 0.670710 1.917146 -0.039855 0.044095 -238060.000000 0 0 1
-32.489718 -27.058420 -14.006810 44.541336 0.694441 1.890692 -0.009328 0.038834 166458.000000 0 0 1
-33.182618 -28.310420 -13.920610 45.785908 0.706332 1.879724 -0.027248 0.034442 496284.000000 0 0 1
-32.638818 -29.150020 -12.892810 45.620617 0.728995 1.857310 -0.036822 0.013994 -395149.000000 0 0 1
-33.428118 -30.411520 -12.608810 46.917819 0.738181 1.842884 -0.032391 0.016004 -427145.000000 0 0 1
-33.147018 -31.314520 -13.625210 47.591704 0.756978 1.861153 -0.041843 0.009806 226976.000000 0 0 1
-33.588518 -32.603220 -13.274010 48.655502 0.770514 1.847115 -0.038059 -0.003425 -399731.000000 0 0 1
-33.107818 -33.701620 -14.272310 49.352058 0.794286 1.864181 -0.033582 0.013394 -94983.900000 0 0 1
-31.729618 -33.951420 -14.040510 48.544861 0.819212 1.864216 -0.024707 0.010899 24247.300000 0 0 1
-31.230418 -34.412420 -15.270710 48.915726 0.833835 1.888287 -0.003554 -0.008661 -1188040.000000 0 0 1
-29.840018 34.340036 -15.332910 48.007946 -0.855399 1.895874 -0.007842 -0.000326 -979518.000000 0 0 1
-29.585818 33.437336 -16.387810 47.559819 -0.846435 1.922580 0.002660 -0.003141 -1503720.000000 0 0 1
-28.251518 33.108136 -16.478310 46.538497 -0.864384 1.932726 0.001833 -0.003910 -1063310.000000 0 0 1
8.896503 20.227736 -8.854428 23.805671 1.156443 1.951901 -0.004567 -0.010495 528107.000000 0 1 0
7.490703 20.517736 -9.064428 23.648509 1.220747 1.964161 -0.000654 -0.009090 1223760.000000 0 1 0
7.047103 20.472636 -10.434228 24.034633 1.239279 2.019872 0.011403 -0.014792 -195647.000000 0 1 0
7.023003 19.110136 -11.190228 23.232328 1.218616 2.073351 0.010803 -0.017223 -550588.000000 0 1 0
8.300903 18.552136 -11.504228 23.354528 1.150076 2.085861 0.026688 -0.021551 97747.700000 0 1 0
8.200203 17.464036 -12.404428 22.936994 1.131806 2.142189 0.023125 -0.028933 -852876.000000 0 1 0
9.561803 17.039036 -12.929328 23.429134 1.059417 2.155375 0.034740 -0.028794 -433439.000000 0 1 0
9.467003 15.901636 -13.783128 23.075112 1.033805 2.210946 0.039821 -0.037338 -153774.000000 0 1 0
10.619503 15.746136 -14.565528 23.934687 0.977445 2.225032 0.055629 -0.033878 -580082.000000 0 1 0
10.604203 14.525936 -15.510428 23.749217 0.940206 2.282457 0.054171 -0.034665 -399981.000000 0 1 0
10.593203 13.195536 -14.924028 22.562463 0.894358 2.293552 0.061797 -0.035624 687140.000000 0 1 0
11.860203 12.748336 -14.434628 22.617316 0.821473 2.262969 0.073202 -0.029641 372585.000000 0 1 0
12.786903 11.975036 -15.433628 23.347446 0.752623 2.293002 0.068566 -0.026551 37361.700000 0 1 0
13.352003 12.805536 -16.446928 24.753973 0.764510 2.297508 0.059460 -0.019539 260073.000000 0 1 0
14.141803 12.081436 -17.359628 25.442256 0.706989 2.321721 0.041983 -0.015144 -52687.000000 0 0 1
14.889703 12.936736 -18.378028 26.959494 0.715329 2.320867 0.030797 -0.010681 284686.000000 0 0 1
15.944503 13.747836 -17.867828 27.613211 0.711552 2.274538 0.012857 -0.007038 424483.000000 0 0 1
16.596503 14.447636 -18.945428 29.036311 0.716289 2.281640 0.015209 -0.003276 456827.000000 0 0 1
17.818303 15.372736 -18.638728 30.020245 0.711850 2.240651 -0.003811 0.002327 -162715.000000 0 0 1
17.576903 16.647636 -18.094128 30.223977 0.758253 2.212633 -0.010363 0.000067 -86208.400000 0 0 1
16.851503 17.576536 -18.867728 30.804203 0.806454 2.230022 0.006374 0.001416 -72048.600000 0 0 1
16.514403 18.893236 -18.163228 30.977132 0.852482 2.197333 0.006371 0.003123 406399.000000 0 0 1
17.623003 19.816336 -18.113228 32.114583 0.843915 2.170041 0.000738 0.004488 670190.000000 0 0 1
17.374503 21.078736 -17.527028 32.455865 0.881433 2.141265 -0.002238 0.011678 -535113.000000 0 0 1
18.443403 22.054336 -18.031328 33.936435 0.874327 2.130962 0.001334 0.008259 107972.000000 0 0 1
19.648403 22.208136 -17.337828 34.349109 0.846477 2.099893 -0.006794 0.005140 -338758.000000 0 0 1
19.376703 23.061036 -16.216428 34.208779 0.871998 2.064673 -0.006144 0.007563 -128689.000000 0 0 1
20.564703 23.533136 -15.324628 34.807466 0.852611 2.026694 -0.007824 0.012597 -567135.000000 0 0 1
21.014103 22.465336 -14.465028 33.992953 0.818763 2.010344 0.000274 0.010636 -352735.000000 0 0 1
21.878903 22.989736 -13.503228 34.489876 0.810151 1.973071 0.000016 0.018621 -430789.000000 0 0 1
23.362003 23.050736 -13.870628 35.630239 0.778692 1.970661 0.007423 0.013637 -825756.000000 0 0 1
23.566403 23.849836 -14.988528 36.726639 0.791376 1.991180 0.006821 0.012874 59757.200000 0 0 1
24.940503 24.108436 -15.261428 37.896656 0.768436 1.985274 0.011504 0.013462 287030.000000 0 0 1
25.264003 24.710036 -16.599928 39.043736 0.774314 2.009938 0.016737 0.011536 -378109.000000 0 0 1
25.515603 23.701136 -17.527828 38.987365 0.748548 2.037088 0.008363 0.001801 87892.200000 0 0 1
25.754103 24.252036 -18.813728 40.067336 0.755370 2.059580 0.015771 0.001312 -715166.000000 0 0 1
26.159303 23.303436 -19.903528 40.292799 0.727724 2.087449 0.012525 -0.007633 -629415.000000 0 0 1
27.554603 23.143736 -19.994128 41.166173 0.698614 2.077952 0.007839 -0.005204 -315592.000000 0 0 1
27.813603 22.315536 -21.106828 41.437638 0.676157 2.105242 0.000900 -0.002784 5781.870000 0 0 1
29.314003 22.227036 -21.454528 42.586954 0.648754 2.098767 0.020760 -0.014175 -11123.400000 0 0 1
29.771103 23.470936 -21.977928 43.820460 0.667615 2.096180 0.006885 -0.016684 -1921960.000000 0 0 1
31.122303 23.461736 -21.974628 44.742989 0.645964 2.084183 0.020160 -0.019266 -1754450.000000 0 0 1
31.787503 24.728036 -22.585928 46.174076 0.661130 2.081908 0.017638 -0.025740 -278619.000000 0 0 1
31.674603 24.926336 -23.986628 46.903742 0.666733 2.107611 0.018450 -0.022964 657440.000000 0 0 1
30.359703 25.261336 -24.456428 46.453886 0.693991 2.125236 0.007389 -0.021156 13823.500000 0 0 1
30.133603 25.513636 -25.961448 47.254380 0.702566 2.152440 0.016412 -0.020641 -200451.000000 0 0 1
30.517303 26.819536 -26.413728 48.459038 0.720995 2.147273 0.017443 -0.026677 -188967.000000 0 0 1
29.449503 27.552636 -26.996958 48.530987 0.752133 2.160702 0.020614 -0.012914 277099.000000 0 0 1
29.056903 27.156636 -28.449028 48.899220 0.751607 2.191723 0.011595 -0.002938 -158045.000000 0 0 1
28.430203 25.941036 -28.468848 47.871590 0.739649 2.207679 0.006696 -0.011141 -521827.000000 0 0 1
28.248103 25.587936 -29.814548 48.390134 0.736026 2.234614 0.011610 -0.012449 -293878.000000 0 0 1
27.645203 24.192836 -29.945308 47.394852 0.718897 2.254703 0.008632 -0.014044 -264650.000000 0 0 1
26.371103 24.234536 -29.372268 46.319304 0.743203 2.257674 0.013424 -0.012376 -330423.000000 0 0 1
25.525603 23.131036 -29.694758 45.479445 0.736224 2.282239 0.026353 -0.019905 -363574.000000 0 0 1
24.137503 23.258036 -29.106168 44.392841 0.766844 2.285840 0.007434 -0.014206 -723077.000000 0 0 1
24.137603 23.097236 -27.705448 43.401590 0.763376 2.263150 0.002360 -0.007263 77455.900000 0 0 1
22.829003 23.051536 -27.189818 42.329929 0.790248 2.268332 0.009737 -0.009999 -102278.000000 0 0 1
22.870903 23.243236 -25.672098 41.501600 0.793472 2.237732 0.013862 -0.007360 -263839.000000 0 0 1
23.628403 22.270136 -25.040628 41.003578 0.755814 2.227733 0.004770 -0.005518 -78713.600000 0 0 1
23.865203 22.600136 -23.670028 40.504127 0.758179 2.194919 0.001775 -0.002581 -79152.400000 0 0 1
24.376703 21.285036 -23.017328 39.712388 0.717793 2.189035 0.022033 0.003252 -436282.000000 0 0 1
25.636703 20.839636 -23.402428 40.487092 0.682547 2.187099 -0.000154 0.004834 -542272.000000 0 0 1
25.753603 19.448336 -23.176328 39.731952 0.646801 2.193603 0.037039 0.005517 640447.000000 0 0 1
27.175203 18.938536 -23.580628 40.659634 0.608646 2.189466 0.046463 -0.010658 1330270.000000 0 0 1
28.280903 19.189736 -22.697628 41.027281 0.596178 2.157036 0.043772 -0.022579 -136694.000000 0 0 1
29.391003 18.446136 -23.032228 41.648223 0.560475 2.156779 0.020203 -0.015986 -406805.000000 0 0 1
30.587103 18.617736 -22.067328 42.061359 0.546777 2.123096 0.022274 -0.008615 -292959.000000 0 0 1
31.436903 19.677436 -22.399828 43.327043 0.559271 2.114132 0.002727 -0.011464 -336536.000000 0 0 1
32.731903 19.560136 -21.868628 43.956948 0.538643 2.091512 0.001076 -0.015004 -371459.000000 0 0 1
32.909703 20.417736 -20.591628 43.862828 0.555297 2.059470 0.018065 -0.019977 -1061590.000000 0 0 1
32.057703 20.028836 -19.577928 42.569307 0.558437 2.048687 0.018710 -0.010729 -95647.500000 0 0 1
31.965103 21.149636 -18.704228 42.648834 0.584520 2.024796 -0.000569 -0.001030 50864.400000 0 0 1
31.124403 20.813336 -17.417128 41.295033 0.589419 2.006196 0.016028 -0.012172 -40353.000000 0 0 1
31.714503 19.818836 -16.667428 40.943853 0.558537 1.990051 0.017076 -0.015328 80442.000000 0 0 1
31.576603 20.030436 -15.275228 40.393475 0.565291 1.958605 0.028793 -0.011543 -491536.000000 0 0 1
32.063003 18.947436 -14.289128 39.890108 0.533734 1.937149 0.009412 -0.001095 -74317.500000 0 0 1
33.466303 18.732436 -14.462028 40.988387 0.510291 1.931393 -0.010702 -0.003796 672819.000000 0 0 1
34.046503 17.779136 -13.574128 40.737194 0.481251 1.910505 -0.022836 0.010225 50836.500000 0 0 1
34.028103 18.141636 -12.023728 40.393079 0.489804 1.873045 -0.007011 0.003481 -291728.000000 0 0 1
34.855903 19.274036 -11.694628 41.511285 0.505115 1.856384 -0.008056 -0.000784 490123.000000 0 0 1
34.526103 19.724036 -10.347628 41.087258 0.519033 1.825383 -0.012481 -0.001044 -48680.500000 0 0 1
33.310103 20.650736 -10.208828 40.499828 0.554963 1.825616 -0.014648 -0.005536 -651033.000000 0 0 1
32.054603 20.130336 -10.497428 39.280071 0.560755 1.841330 0.023247 -0.016248 -889669.000000 0 0 1
31.054303 21.066236 -10.137228 38.870547 0.596060 1.834641 0.011798 -0.006540 -220597.000000 0 0 1
29.691103 20.357436 -10.252928 37.431395 0.601024 1.848255 0.004743 -0.008236 -384716.000000 0 0 1
29.437903 20.171336 -11.660228 37.542427 0.600735 1.886608 0.019411 -0.014214 -210759.000000 0 0 1
28.255603 19.428836 -11.822428 36.271595 0.602362 1.902804 0.021209 -0.011827 -324645.000000 0 0 1
28.143503 18.802336 -13.210928 36.333362 0.588986 1.942929 0.041080 -0.004763 -383824.000000 0 0 1
28.959703 17.708536 -13.470428 36.519982 0.548824 1.948569 0.046807 -0.002991 -211788.000000 0 0 1
28.557003 17.088436 -14.684528 36.375162 0.539240 1.986350 0.034103 0.002187 758541.000000 0 0 1
29.767903 16.475636 -15.500328 37.387629 0.505503 1.998282 0.029234 -0.008246 686465.000000 0 0 1
30.474803 15.461736 -14.822728 37.249056 0.469519 1.980062 0.015341 -0.005860 502985.000000 0 0 1
31.597803 14.946436 -15.571828 38.266159 0.441833 1.989892 0.008962 -0.002048 800895.000000 0 0 1
32.365403 13.970136 -14.624028 38.164725 0.407480 1.964035 -0.011374 -0.006109 -552940.000000 0 0 1
33.012003 14.539036 -13.527628 38.524961 0.414856 1.929584 -0.002646 0.003897 -63429.800000 0 0 1
33.745003 13.549236 -12.847628 38.566418 0.381815 1.910417 -0.011990 0.014120 -141485.000000 0 0 1
34.737503 14.107236 -11.815128 39.310374 0.385762 1.876076 0.002025 0.019549 252258.000000 0 0 1
-34.044975 14.723836 -12.352728 39.095288 -0.408191 1.892270 -0.013042 0.014121 707472.000000 0 0 1
-33.140575 15.105236 -11.275628 38.126180 -0.427661 1.871032 -0.024571 0.018698 732148.000000 0 0 1
-31.624775 15.112836 -11.647628 36.934962 -0.445795 1.891627 -0.000264 0.002052 578231.000000 0 0 1
-30.994175 13.967236 -12.205928 36.120731 -0.423387 1.915503 -0.008369 -0.001711 255105.000000 0 0 1
-30.747375 12.954436 -11.298328 35.225994 -0.398748 1.897305 0.002702 0.009423 -680026.000000 0 0 1
-29.660175 11.980236 -11.782028 34.089121 -0.383878 1.923700 0.014284 0.001367 -287652.000000 0 0 1
-29.946975 11.306736 -13.033628 34.562104 -0.361012 1.957468 0.001054 0.004355 192020.000000 0 0 1
-29.072175 10.216736 -13.197828 33.522465 -0.337945 1.975451 0.015086 0.003484 -351907.000000 0 0 1
-29.236075 9.522736 -14.569328 34.024930 -0.314882 2.013292 0.010255 -0.001172 282280.000000 0 0 1
-30.466275 8.919836 -15.011928 35.115742 -0.284817 2.012520 -0.006582 0.004271 756249.000000 0 0 1
-30.337775 8.181736 -16.235628 35.368305 -0.263421 2.047716 0.007586 -0.007705 268684.000000 0 0 1
-31.648175 7.485336 -16.727728 36.571219 -0.232249 2.045867 0.004465 -0.005713 475279.000000 0 0 1
-32.223975 6.416536 -16.007328 36.548475 -0.196552 2.024142 0.009874 -0.000551 -287161.000000 0 0 1
-33.297375 5.748336 -16.569228 37.633733 -0.170951 2.026702 -0.001924 0.000107 -772891.000000 0 0 1
-34.148975 5.068836 -15.504528 37.844893 -0.147357 1.992906 -0.009337 0.004004 -660660.000000 0 0 1
34.686803 4.393736 -15.998828 38.450510 0.125998 1.999936 -0.005194 0.003104 -437910.000000 0 0 1
33.860503 4.010836 -14.910528 37.214840 0.117902 1.983034 0.001630 0.005645 227697.000000 0 0 1
32.845203 2.906036 -15.374428 36.381664 0.088247 2.007094 0.004055 0.004439 -16010.200000 0 0 1
33.425203 1.604236 -15.680928 36.955504 0.047958 2.009006 0.014486 -0.003338 168761.000000 0 0 1
32.606603 0.453136 -15.532628 36.120056 0.013896 2.015320 0.015667 -0.008928 -133143.000000 0 0 1
32.104803 0.138636 -14.088328 35.060214 0.004318 1.984313 0.016458 -0.015126 -804518.000000 0 0 1
33.124803 -0.144164 -13.166128 35.645761 -0.004352 1.949117 0.021177 -0.014855 -109296.000000 0 0 1
32.934603 -0.006064 -11.759328 34.970987 -0.000184 1.913739 0.021715 -0.008582 -487595.000000 0 0 1
33.093903 1.424336 -11.239028 34.979293 0.043013 1.897904 0.020840 -0.010221 -402538.000000 0 0 1
32.021203 2.253236 -11.586828 34.127542 0.070251 1.917198 0.013348 0.005119 135343.000000 0 0 1
32.113303 3.551136 -11.050228 34.146484 0.110134 1.900341 0.015956 0.005040 -441315.000000 0 0 1
31.080103 4.570136 -11.562028 33.474460 0.145998 1.923460 0.008249 0.006260 -170189.000000 0 0 1
31.250903 4.983036 -12.910828 34.178050 0.158121 1.958164 -0.000066 0.013275 739206.000000 0 0 1
30.188403 5.844636 -13.271228 33.490670 0.191239 1.978243 0.004579 0.006197 38653.000000 0 0 1
30.609903 6.355936 -14.686228 34.540547 0.204734 2.009966 -0.021827 0.016732 -116750.000000 0 0 1
30.525503 5.390336 -15.707128 34.750193 0.174783 2.039804 -0.020211 0.017829 248872.000000 0 0 1
31.003303 5.867636 -16.999528 35.841567 0.187046 2.064961 -0.022554 0.020282 -738083.000000 0 0 1
30.056703 6.881036 -17.754428 35.580525 0.225057 2.093233 -0.018745 0.021651 209088.000000 0 0 1
28.957803 6.258336 -18.379728 34.864531 0.212846 2.126070 -0.019692 0.007737 -467634.000000 0 0 1
27.891203 6.072236 -17.505728 33.484949 0.214366 2.120921 -0.015298 0.018246 -1279650.000000 0 0 1
26.484003 6.085136 -18.132528 32.668331 0.225847 2.159218 -0.007242 0.009551 -51952.900000 0 0 1
26.292403 4.941836 -18.907828 32.760009 0.185789 2.186045 -0.004215 0.008651 69848.900000 0 0 1
25.108003 5.041636 -19.669728 32.291301 0.198163 2.225764 0.009220 0.003273 -16209.800000 0 0 1
24.824303 3.936936 -20.665628 32.539417 0.157282 2.258928 0.009836 0.016810 -139365.000000 0 0 1
24.258303 2.829636 -20.006928 31.571336 0.116121 2.257130 0.010283 0.005493 163381.000000 0 0 1
23.833703 1.823536 -20.930928 31.772227 0.076362 2.289993 0.003039 0.005753 81090.800000 0 0 1
22.892203 0.797936 -20.178528 30.526426 0.034842 2.292971 -0.002161 0.003827 536778.000000 0 0 1
21.616403 1.379336 -19.940328 29.441266 0.063723 2.314872 0.000343 0.002914 -179536.000000 0 0 1
20.861903 0.561636 -19.103128 28.292471 0.026915 2.312035 -0.001661 0.003804 -129935.000000 0 0 1
19.518103 1.309736 -18.847428 27.164265 0.067003 2.337593 -0.002576 -0.000187 -1008730.000000 0 0 1
18.776303 1.336536 -20.009228 27.471896 0.071062 2.386711 -0.000850 -0.004554 -75549.000000 0 0 1
17.654003 2.208936 -20.021828 26.784638 0.124477 2.415104 -0.004099 -0.009933 1189630.000000 0 0 1
16.393303 1.823336 -19.158128 25.280404 0.110769 2.430770 0.002812 -0.008890 -338575.000000 0 0 1
16.609403 1.939036 -17.752728 24.388347 0.116217 2.386078 0.001449 -0.009530 -291777.000000 0 1 0
15.430403 1.770936 -17.039728 23.056146 0.114269 2.402461 -0.009062 -0.011558 -544713.000000 0 1 0
14.536403 2.961436 -16.647928 22.298669 0.200975 2.413716 -0.005526 -0.014073 -350095.000000 0 1 0
14.041903 3.614336 -17.818828 22.972790 0.251928 2.458539 0.007597 -0.007181 169774.000000 0 1 0
13.131003 4.645236 -17.540528 22.398026 0.340021 2.470477 0.017281 -0.015470 -313153.000000 0 1 0
-19.810297 -22.001264 -17.612428 34.448528 0.837751 2.107456 0.031841 -0.016139 -159682.000000 0 0 1
-19.299097 -22.590964 -18.801728 35.161225 0.863821 2.134983 0.042948 -0.012475 78273.900000 0 0 1
-20.201897 -22.400164 -19.845928 36.107407 0.836952 2.152725 0.036248 -0.009186 -155361.000000 0 0 1
-19.789097 -23.197964 -21.122828 37.093500 0.864532 2.176631 0.032838 -0.000428 -19356.400000 0 0 1
-19.701797 -24.574264 -20.860728 37.778634 0.895005 2.155777 0.034579 0.000712 118670.000000 0 0 1
-18.985497 -25.224154 -21.885728 38.414738 0.925588 2.176964 0.032330 -0.003384 -117679.000000 0 0 1
-18.791297 -26.731034 -21.674028 39.210005 0.958075 2.156478 0.033054 0.014856 -649263.000000 0 0 1
-19.946397 -27.418964 -22.015628 40.427048 0.941873 2.146681 0.036308 0.012210 -485410.000000 0 0 1
-19.712297 -28.787954 -21.927828 41.208623 0.970385 2.131896 0.040814 0.003796 119474.000000 0 0 1
-20.992697 -29.666124 -22.087628 42.528056 0.954967 2.116905 0.025156 0.010361 371412.000000 0 0 1
-21.620197 -29.650684 -23.359628 43.500209 0.940764 2.137674 0.021504 0.013916 -29447.200000 0 0 1
-20.777997 -30.043974 -24.417328 43.938268 0.965740 2.160024 0.021542 0.009096 -975884.000000 0 0 1
-21.099097 -29.424084 -25.797328 44.457291 0.948706 2.189859 0.033769 0.016177 -314455.000000 0 0 1
-22.320397 -29.922814 -26.283698 45.655314 0.929904 2.184255 0.024794 0.015307 83713.000000 0 0 1
-22.738897 -29.238834 -27.458368 46.107795 0.909805 2.208716 0.024678 0.022701 38434.500000 0 0 1
-22.271297 -29.941644 -28.774038 47.121735 0.931260 2.227655 0.032919 -0.003595 -410425.000000 0 0 1
-23.060197 -31.047984 -29.100868 48.400522 0.931966 2.215862 0.017612 0.004753 -26681.500000 0 0 1
-22.781997 -31.450954 -30.464688 49.358678 0.943904 2.235989 0.044387 -0.001252 62900.500000 0 0 1
-23.666897 -32.555674 -31.139018 50.888430 0.942200 2.229267 0.015984 -0.004993 -125800.000000 0 0 1
-23.302497 -33.836894 -30.748768 51.316941 0.967714 2.213289 0.011712 -0.015366 176098.000000 0 0 1
-24.226997 34.531039 -31.284328 52.517132 -0.958997 2.208930 0.018720 -0.009008 -107407.000000 0 0 1
-23.530797 33.169011 -31.481668 51.429341 -0.953775 2.229553 0.016579 -0.007712 -102137.000000 0 0 1
-22.508697 33.135721 -32.431808 51.540660 -0.974107 2.251380 0.020575 -0.019284 -505979.000000 0 0 1
-21.804697 31.930981 -32.329808 50.400881 -0.971660 2.267187 0.020320 -0.002495 -465305.000000 0 0 1
-20.519197 32.008641 -33.158408 50.448692 -1.000737 2.287987 0.009345 -0.006060 -432304.000000 0 0 1
-20.684897 31.794391 -34.533665 51.296416 -0.994011 2.309348 0.008675 -0.007028 221240.000000 0 0 1
-20.317297 30.426891 34.415969 50.229943 -0.982050 0.815961 -0.008296 0.000761 57674.600000 0 0 1
-20.474597 30.233791 32.887765 49.141595 -0.975531 0.837604 -0.003263 0.005059 494915.000000 0 0 1
-19.374997 30.804291 32.160045 48.565042 -1.009347 0.847038 -0.007082 0.004354 759408.000000 0 0 1
-19.526897 30.645211 30.729035 47.588888 -1.003477 0.868832 0.006537 0.004577 -311161.000000 0 0 1
-18.983297 31.881381 29.994375 47.712163 -1.033740 0.890977 -0.013597 0.004906 213491.000000 0 0 1
-19.854297 33.035421 30.066635 48.882867 -1.029642 0.908315 0.001767 0.003109 953997.000000 0 0 1
-19.050297 34.214060 29.946565 49.298199 -1.062749 0.917940 -0.021035 0.002673 435948.000000 0 0 1
-20.023397 -33.880344 29.772105 49.347668 1.037018 0.923147 -0.019960 -0.006376 -124023.000000 0 0 1
-20.661797 -33.633244 30.978435 50.177369 1.019909 0.905390 -0.006632 -0.002575 -452951.000000 0 0 1
-21.801197 -32.819634 30.898595 50.071386 0.984453 0.905756 0.018645 -0.008152 -158893.000000 0 0 1
-21.446397 -31.277794 30.917935 48.930226 0.969749 0.886822 0.018960 -0.000614 -318780.000000 0 0 1
-21.072697 -30.851184 29.594475 47.662218 0.971542 0.900879 0.008115 0.000823 27402.300000 0 0 1
-21.010197 -29.422524 29.488945 46.655237 0.950679 0.886587 0.014556 -0.001248 -839988.000000 0 0 1
-22.198997 -28.706974 28.877215 46.376496 0.912552 0.898647 0.024981 0.001522 -604971.000000 0 0 1
-23.412697 -28.547344 29.583145 47.310334 0.883898 0.895281 0.025651 0.001290 618811.000000 0 0 1
-24.310597 -29.669314 29.584545 48.440877 0.884346 0.913808 0.012097 0.002759 -443695.000000 0 0 1
-25.319677 -29.731124 28.421585 48.299195 0.865361 0.941658 -0.006306 0.012601 -305347.000000 0 0 1
-24.807897 -29.613934 27.105035 47.192158 0.873480 0.958981 -0.002039 0.011270 192660.000000 0 0 1
-25.854517 -30.090394 26.295045 47.595349 0.860969 0.985471 -0.007188 0.015269 40236.500000 0 0 1
-25.322257 -30.331864 24.923465 46.716354 0.875169 1.008056 -0.006532 -0.000917 -629338.000000 0 0 1
-25.100587 -29.228804 24.106355 45.447539 0.861237 1.011699 -0.012421 0.004996 184902.000000 0 0 1
-24.806397 -29.622124 22.746655 44.835676 0.873646 1.038708 0.010809 -0.001198 407782.000000 0 0 1
-23.454897 -30.369214 22.469155 44.466665 0.913160 1.041063 -0.007984 -0.000795 31276.200000 0 0 1
-23.525197 -31.740864 22.815455 45.623046 0.932974 1.047098 -0.003428 -0.010468 718287.000000 0 0 1
-22.480397 -32.438704 22.131055 45.248440 0.964776 1.059738 -0.002923 0.011062 903034.000000 0 0 1
-21.356097 -33.189624 22.922555 45.640744 0.999035 1.044610 -0.002007 0.009514 702656.000000 0 0 1
-20.607997 -32.443604 23.866355 45.242457 1.004900 1.015116 0.001882 0.004595 361437.000000 0 0 1
-19.589497 -33.173124 24.501915 45.656855 1.037374 1.004330 -0.010642 0.000868 17006.700000 0 0 1
-18.940197 -32.437754 25.707315 45.517085 1.042304 0.970625 -0.003285 -0.003841 -653558.000000 0 0 1
-18.075997 -31.382244 25.403175 44.236955 1.048215 0.959106 0.011663 -0.004014 -121974.000000 0 0 1
-17.705397 -30.581044 26.490015 44.163358 1.045986 0.927522 0.013680 0.006844 157598.000000 0 0 1
-16.734897 -31.094164 27.608645 44.823443 1.077057 0.907215 -0.006245 0.003339 -325702.000000 0 0 1
-17.255097 -32.228134 28.300245 46.230886 1.079228 0.912019 -0.023018 0.009162 174782.000000 0 0 1
-16.393697 -32.843294 29.257725 46.940917 1.107830 0.897856 -0.018957 0.008110 -330962.000000 0 0 1
-16.645197 -32.172544 30.604855 47.421433 1.093347 0.869275 -0.017604 0.010286 -19540.200000 0 0 1
-16.354897 -30.781364 30.696975 46.446521 1.082404 0.848765 -0.005203 0.003554 58377.100000 0 0 1
-16.658797 -30.309614 32.017445 47.130722 1.068244 0.823943 -0.002809 0.011236 -159220.000000 0 0 1
-16.431497 -28.789614 32.067505 46.121154 1.052167 0.801975 0.013969 -0.000096 -132010.000000 0 0 1
-17.308997 -27.916664 31.365995 45.417696 1.015783 0.808462 0.023339 -0.000761 -24917.900000 0 0 1
-17.441797 -28.029874 29.991445 44.602431 1.014172 0.833327 0.016332 0.004715 -359992.000000 0 0 1
-16.260897 -27.678334 29.048495 43.293441 1.039622 0.835283 0.011158 0.009543 64119.700000 0 0 1
-15.793797 -26.320154 29.123745 42.312965 1.030329 0.811662 0.015138 0.002664 196880.000000 0 0 1
-14.723497 -26.171084 28.205345 41.197676 1.058341 0.816694 0.023303 -0.000499 90630.300000 0 0 1
-14.687497 -24.778964 27.531715 39.846141 1.035732 0.807993 0.023475 0.007298 33969.900000 0 0 1
-15.833297 -24.715764 26.686715 39.670430 1.001047 0.832930 0.037370 -0.001506 307584.000000 0 0 1
-15.800497 -23.649364 25.745025 38.363452 0.981792 0.835129 0.026465 0.008610 136273.000000 0 0 1
-16.325097 -22.255164 26.242815 38.085252 0.937912 0.810613 0.030182 0.009842 -134063.000000 0 0 1
-16.019397 -21.218264 25.312445 36.709068 0.924115 0.809940 0.020167 0.011300 211242.000000 0 0 1
-16.513597 -19.956264 25.771905 36.539601 0.879517 0.787930 0.025690 0.012988 32665.600000 0 0 1
-16.262197 -18.803864 24.791925 35.109598 0.857754 0.786779 0.009953 0.005069 1175280.000000 0 0 1
-14.904697 -18.330564 25.000555 34.397490 0.888115 0.757125 0.014243 0.004359 952632.000000 0 0 1
-14.594697 -17.227864 24.138455 33.052526 0.867955 0.752027 0.023118 0.010893 -625250.000000 0 0 1
-13.281397 -16.538264 24.464225 32.379129 0.894186 0.714295 0.034489 0.001197 -678919.000000 0 0 1
-12.262297 -17.161164 23.703355 31.728828 0.950380 0.727167 0.017928 0.005276 -689264.000000 0 0 1
-11.045797 -16.507764 23.916455 31.088788 0.981092 0.693059 0.030565 -0.007001 -822219.000000 0 0 1
-10.556397 -15.806564 22.581455 29.516217 0.981976 0.699674 0.027163 -0.004880 -111169.000000 0 0 1
-10.028497 -16.605064 21.542755 28.989467 1.027483 0.733070 0.030215 0.002537 -187662.000000 0 0 1
-8.833597 -17.260564 21.869755 29.227482 1.097770 0.725361 0.026390 0.003262 -1150960.000000 0 0 1
-8.445397 -18.454464 20.946055 29.165548 1.141612 0.769616 0.022885 0.006562 45888.800000 0 0 1
-8.134797 -18.092564 19.560155 27.858849 1.148258 0.792431 0.022116 0.005046 5634.460000 0 0 1
-7.576197 -19.283864 19.043455 28.141062 1.196445 0.827506 0.023174 0.004402 -159364.000000 0 0 1
-7.298397 -19.080564 17.585555 26.955264 1.205463 0.860052 0.009111 -0.005424 27319.900000 0 0 1
-6.336497 -18.082564 17.242755 25.776790 1.233747 0.838034 0.003591 -0.005938 125649.000000 0 0 1
-6.093597 -18.196364 15.848255 24.887884 1.247655 0.880474 0.010505 -0.001382 14859.800000 0 1 0
-5.311197 -16.951864 15.453355 23.545290 1.267173 0.854859 0.000848 -0.005002 433323.000000 0 1 0
-6.175597 -15.805964 15.629655 23.070601 1.198321 0.826478 0.019572 -0.008256 731644.000000 0 1 0
-5.464297 -14.556764 15.491255 21.948506 1.211694 0.787245 0.019030 -0.015195 202977.000000 0 1 0
-5.556497 -13.524864 16.642655 22.153432 1.180984 0.720850 0.010163 -0.005495 -301133.000000 0 1 0
-4.826297 -13.840964 17.814955 23.070285 1.235283 0.688494 0.007265 -0.003816 -198463.000000 0 1 0
-5.262197 -14.865264 18.681355 24.447082 1.230569 0.701066 0.014775 -0.002050 -345737.000000 0 1 0
-6.516797 -14.547764 19.548955 25.224348 1.149641 0.684076 0.056164 -0.003649 110573.000000 0 0 1
-6.391897 -13.604264 20.580655 25.485206 1.131562 0.630805 0.048398 -0.006677 -1479740.000000 0 0 1
-7.538197 -13.217564 21.179355 26.078602 1.052489 0.622994 0.054004 -0.003420 -1212010.000000 0 0 1
-7.220697 -12.157564 22.239755 26.354345 1.034855 0.566333 0.045923 0.002420 -512219.000000 0 0 1
-6.708097 -10.993364 21.616555 25.162036 1.022914 0.537299 0.023012 0.001356 34428.400000 0 0 1
-6.371997 -10.041664 22.522655 25.469734 1.005355 0.485823 0.022954 -0.010974 -505376.000000 0 0 1
-5.003697 -10.138764 23.185555 25.795377 1.112345 0.453713 0.022793 -0.005721 -723172.000000 0 0 1
-4.985197 -11.210864 24.088455 27.033115 1.152379 0.471094 0.030739 -0.001940 -319241.000000 0 0 1
-3.735597 -11.342264 24.704895 27.439633 1.252633 0.450255 0.016017 -0.000728 -467492.000000 0 0 1
-3.734597 -12.565764 25.655065 28.810206 1.281907 0.472386 0.009503 0.003270 297586.000000 0 0 1
-2.410297 -13.034764 25.925725 29.117998 1.387949 0.472644 -0.005740 0.006235 566887.000000 0 0 1
-2.400597 -14.231664 26.684705 30.337709 1.403689 0.495799 -0.004953 0.005135 -166412.000000 0 0 1
-2.374997 -15.552364 25.850365 30.261494 1.419257 0.546723 -0.003551 -0.007749 -273253.000000 0 0 1
-1.114097 -15.956864 25.373425 29.994556 1.501090 0.562482 -0.017824 0.002045 -411053.000000 0 0 1
-1.208897 -17.123364 24.558655 29.963287 1.500314 0.610040 -0.011782 0.006980 -108337.000000 0 0 1
0.078703 -17.985464 24.626355 30.494925 -1.566420 0.630800 -0.001601 -0.002022 142783.000000 0 0 1
0.330403 -18.624564 25.876095 31.883473 -1.553058 0.623939 0.006774 -0.009635 194685.000000 0 0 1
0.729403 -17.813764 26.995005 32.351082 -1.529873 0.583682 0.007302 -0.009331 -206725.000000 0 0 1
1.377203 -18.481164 28.260165 33.794778 -1.496415 0.580427 0.002576 -0.010724 -839472.000000 0 0 1
2.647603 -19.034964 28.104925 34.047415 -1.432591 0.599772 0.006703 -0.014525 -295433.000000 0 0 1
3.241303 -19.296864 29.382655 35.301777 -1.404379 0.587502 0.008008 -0.016661 -167206.000000 0 0 1
4.150503 -18.178564 29.810095 35.161465 -1.346325 0.558962 0.008044 -0.007773 -1115350.000000 0 0 1
3.429003 -17.012564 30.179745 34.813825 -1.371904 0.521868 0.001098 -0.012767 -264297.000000 0 0 1
4.231103 -15.984864 30.588965 34.772157 -1.312036 0.495572 -0.001915 -0.017369 -647834.000000 0 0 1
3.335803 -14.942464 31.316575 34.858753 -1.351155 0.454718 0.000153 -0.014615 189514.000000 0 0 1
2.788203 -15.423864 32.515795 36.096351 -1.391956 0.449175 -0.000600 -0.018496 -454260.000000 0 0 1
2.067603 -14.429564 33.139165 36.203474 -1.428476 0.414398 -0.006876 0.001510 -384087.000000 0 0 1
1.206803 -14.994164 34.276449 37.432022 -1.490485 0.413554 -0.014600 0.004370 284755.000000 0 0 1
1.961203 -15.217964 -33.820718 37.138574 -1.442629 2.715682 0.001102 0.000963 206174.000000 0 0 1
1.052903 -15.394064 -32.743998 36.197447 -1.502506 2.701223 0.004356 -0.001682 893014.000000 0 0 1
1.854703 -15.822964 -31.471788 35.274347 -1.454113 2.672990 0.013324 0.002933 478041.000000 0 0 1
0.993703 -16.332364 -30.508388 34.619291 -1.510029 2.649305 0.022319 0.002476 -348453.000000 0 0 1
1.652003 -16.277964 -29.254468 33.519026 -1.469656 2.631649 0.024233 -0.000252 137522.000000 0 0 1
1.212203 -17.328264 -28.245898 33.159748 -1.500955 2.590232 0.028658 -0.005004 96311.300000 0 0 1
1.874003 -18.560264 -28.575028 34.125174 -1.470169 2.563231 0.026309 -0.002490 193168.000000 0 0 1
1.467403 -19.588164 -27.677358 33.939440 -1.496023 2.524376 0.020078 -0.002975 178071.000000 0 0 1
2.432003 -20.838164 -27.837808 34.858102 -1.454613 2.495768 0.018910 -0.004212 574345.000000 0 0 1
3.707603 -20.712264 -27.233458 34.415192 -1.393667 2.483763 0.014610 -0.005528 140798.000000 0 0 1
3.672303 -21.053864 -25.870328 33.556294 -1.398109 2.451133 0.010815 0.000411 -193479.000000 0 0 1
4.935903 -21.884864 -25.454108 33.929663 -1.348968 2.419164 -0.004228 -0.006233 315929.000000 0 0 1
4.849303 -23.269864 -25.821128 35.096053 -1.365343 2.397536 0.003742 -0.007469 202192.000000 0 0 1
5.232303 -23.503264 -27.123418 36.269274 -1.351748 2.415591 -0.013766 -0.005171 -402644.000000 0 0 1
4.973303 -24.987364 -27.520328 37.502941 -1.374331 2.394721 -0.008192 0.000369 417981.000000 0 0 1
5.759903 -25.903944 -26.743838 37.675239 -1.352000 2.360084 -0.005027 0.003859 -37540.600000 0 0 1
5.241903 -27.201244 -26.985788 38.673220 -1.380422 2.343104 -0.005603 0.008223 -100809.000000 0 0 1
5.646703 -28.270034 -25.984058 38.810454 -1.373649 2.304348 -0.000732 0.005368 618909.000000 0 0 1
7.049603 -28.554534 -26.042178 39.284263 -1.328754 2.295504 0.001394 0.005040 352661.000000 0 0 1
7.308803 -29.845814 -25.512088 39.938175 -1.330637 2.263720 0.011962 0.000815 -565557.000000 0 0 1
8.770703 -30.215244 -25.713768 40.633534 -1.288286 2.255988 0.015415 -0.001606 -545255.000000 0 0 1
9.068603 -30.296404 -27.048678 41.614212 -1.279955 2.278363 0.018824 -0.004064 -155281.000000 0 0 1
10.430503 -30.577024 -27.286378 42.288252 -1.242052 2.272143 0.021203 0.003408 177394.000000 0 0 1
10.722803 -30.593064 -28.810028 43.369710 -1.233678 2.297339 0.033737 -0.006556 31910.700000 0 0 1
10.047603 -31.653024 -29.477248 44.404689 -1.263427 2.296727 0.041161 -0.010290 135693.000000 0 0 1
10.405403 -31.692754 -30.818578 45.414621 -1.253563 2.316658 0.027190 0.004656 -23677.500000 0 0 1
-33.525807 -4.887964 -5.713128 34.358576 0.144777 1.737852 0.053148 -0.003182 -52122.500000 0 0 1
-33.776757 -3.969564 -4.638728 34.324110 0.116987 1.706356 0.059637 -0.009381 340685.000000 0 0 1
-32.817777 -2.917364 -4.601228 33.266932 0.088663 1.709554 0.055842 -0.017460 -104449.000000 0 0 1
-33.290487 -1.650664 -5.324328 33.753958 0.049543 1.729197 0.049859 -0.006797 396090.000000 0 0 1
-34.174232 -0.832964 -4.507628 34.480294 0.024369 1.701902 0.028246 0.003218 646108.000000 0 0 1
-34.640682 0.295336 -5.180328 35.027130 -0.008525 1.719236 0.020424 -0.009938 -16418.700000 0 0 1
34.367469 1.133136 -4.279428 34.651413 0.032959 1.694612 0.030665 -0.010639 151158.000000 0 0 1
-34.829927 1.969536 -3.436628 35.054433 -0.056487 1.668991 0.018084 -0.002524 273856.000000 0 0 1
34.235626 2.689636 -2.608228 34.440021 0.078401 1.646601 0.011077 -0.008183 -297961.000000 0 0 1
34.910424 3.951336 -2.093428 35.195641 0.112705 1.630311 -0.003071 -0.015461 -498825.000000 0 0 1
-34.946364 4.969836 -3.098428 35.433711 -0.141266 1.658351 0.008548 -0.021676 -174258.000000 0 0 1
-33.645387 5.119136 -3.596828 34.222138 -0.150992 1.676093 0.004574 -0.005807 -773957.000000 0 0 1
-32.954657 6.359436 -3.069128 33.702691 -0.190632 1.661987 0.006189 -0.010377 -482956.000000 0 0 1
-32.648757 6.323936 -1.667228 33.297344 -0.191327 1.620888 0.003294 -0.019852 384686.000000 0 0 1
-32.483017 7.660236 -1.211728 33.396016 -0.231592 1.607088 0.006365 -0.030955 -198720.000000 0 0 1
-31.661777 7.928036 0.107972 32.639447 -0.245353 1.567488 0.009425 -0.021804 -816814.000000 0 0 1
-30.299807 7.732336 -0.189728 31.271445 -0.249861 1.576863 0.025521 -0.027848 282951.000000 0 0 1
-29.421207 8.165636 0.860872 30.545476 -0.270728 1.542609 0.020964 -0.024995 272051.000000 0 0 1
-29.305367 9.706736 0.950772 30.885744 -0.319854 1.540008 0.014683 -0.015981 -881792.000000 0 0 1
-30.480667 10.334536 1.431872 32.216827 -0.326889 1.526337 0.008377 -0.016512 160182.000000 0 0 1
-30.354127 11.740736 1.508672 32.580577 -0.369069 1.524474 0.015101 -0.004875 -945721.000000 0 0 1
-31.639237 12.442136 1.180672 34.018260 -0.374674 1.536082 0.019058 -0.021152 -1473610.000000 0 0 1
-32.104207 12.250136 -0.167228 34.362390 -0.364522 1.575663 0.016794 -0.014796 841633.000000 0 0 1
-33.476187 12.595036 -0.316228 35.768562 -0.359856 1.579637 0.015512 -0.004101 706623.000000 0 0 1
-34.539199 11.586736 0.212472 36.431495 -0.323669 1.564964 0.023562 -0.019248 -383096.000000 0 0 1
-34.862791 10.543236 -0.657828 36.428104 -0.293676 1.588856 0.021557 -0.006138 568720.000000 0 0 1
33.822602 9.933636 -0.345028 35.252866 0.285665 1.580584 0.035662 -0.006967 677922.000000 0 0 1
33.562592 8.754036 -1.297028 34.709696 0.255143 1.608173 0.020591 -0.023290 -34621.400000 0 0 1
33.151842 9.235936 -2.587128 34.511452 0.271705 1.645831 0.020921 -0.019603 284259.000000 0 0 1
32.975502 8.306936 -3.548528 34.190363 0.246778 1.674771 0.007429 -0.024034 -254911.000000 0 0 1
32.378082 8.825736 -4.835928 33.906046 0.266118 1.713912 0.008129 -0.009803 1011170.000000 0 0 1
31.015082 9.318736 -4.811328 32.740235 0.291877 1.718285 0.015385 -0.012680 1303370.000000 0 0 1
30.583682 9.793736 -6.066928 32.681592 0.309909 1.757517 0.014142 -0.003629 -724787.000000 0 0 1
29.188422 10.393436 -6.093728 31.577222 0.342082 1.764993 0.020776 0.002914 -569365.000000 0 0 1
28.191242 9.420236 -5.880028 30.299532 0.322490 1.766099 0.015373 0.002222 636208.000000 0 0 1
26.904542 9.836736 -6.303428 29.331705 0.350518 1.787387 0.002810 0.009223 -253255.000000 0 0 1
25.760002 8.854736 -6.319528 27.962841 0.331087 1.798763 0.001357 0.013536 -628342.000000 0 0 1
25.885042 7.995336 -7.429128 28.091862 0.299582 1.838439 0.004395 0.016703 570428.000000 0 0 1
24.826882 7.059736 -7.597928 26.906178 0.277046 1.857077 -0.008656 0.011457 62239.200000 0 0 1
25.188582 6.166636 -8.793628 27.382840 0.240096 1.897726 -0.003525 0.005796 -670997.000000 0 0 1
26.167502 5.212436 -8.560128 28.021124 0.196621 1.881248 0.006417 0.000436 51907.900000 0 0 1
26.257382 4.315836 -9.649928 28.305435 0.162910 1.918693 0.000241 0.001189 -481058.000000 0 0 1
27.188722 3.113536 -9.386628 28.931462 0.114019 1.901220 0.006232 0.001223 -525332.000000 0 0 1
28.539822 3.478936 -9.473728 30.271702 0.121299 1.889101 0.026938 -0.004546 1126770.000000 0 0 1
29.570932 2.885136 -8.613928 30.934831 0.097259 1.852980 0.018684 -0.008850 964820.000000 0 0 1
29.686682 1.370336 -8.432928 30.891603 0.046127 1.847290 0.022560 -0.011890 -489125.000000 0 0 1
28.629792 0.872636 -7.607428 29.636117 0.030471 1.830397 0.024581 -0.011695 672368.000000 0 0 1
28.820382 -0.499364 -7.244728 29.721202 -0.017325 1.817033 0.023264 -0.009893 -307245.000000 0 0 1
28.471432 -1.578064 -8.323328 29.705058 -0.055370 1.854798 0.016036 -0.001316 -686248.000000 0 0 1
29.535932 -1.703164 -9.239028 30.994058 -0.057600 1.873488 0.022050 -0.012863 463977.000000 0 0 1
29.364862 -2.868464 -10.050228 31.169380 -0.097375 1.899101 0.006713 -0.014102 -495159.000000 0 0 1
30.326032 -2.845864 -11.232328 32.464324 -0.093568 1.924090 0.012301 -0.017370 -369018.000000 0 0 1
31.661362 -3.024964 -10.804928 33.590753 -0.095252 1.898282 0.021070 -0.025801 397262.000000 0 0 1
32.454622 -3.455364 -11.915828 34.745200 -0.106068 1.920851 0.003612 -0.031462 793986.000000 0 0 1
33.964791 -3.809764 -11.709228 36.127930 -0.111701 1.900861 0.002169 -0.023867 485344.000000 0 0 1
34.092228 -5.148664 -11.208828 36.255021 -0.149889 1.885112 -0.001784 -0.013430 291687.000000 0 0 1
-34.548297 -5.470664 -10.766028 36.598092 0.157044 1.869382 0.017892 -0.004638 21628.800000 0 0 1
-34.454263 -6.824664 -9.982928 36.514807 0.195548 1.847716 0.019705 -0.008171 -247163.000000 0 0 1
34.854705 -6.787464 -8.723928 36.565380 -0.192329 1.811704 0.018828 0.002149 574964.000000 0 0 1
34.521085 -8.102564 -8.207628 36.396730 -0.230540 1.798257 0.012572 0.006755 -392724.000000 0 0 1
34.142523 -8.066864 -6.732528 35.722725 -0.232015 1.760396 0.020317 0.013465 -158533.000000 0 0 1
-34.683209 -8.210864 -5.871628 36.122282 0.232459 1.734069 0.021161 0.016141 420641.000000 0 0 1
34.940205 -8.791364 -4.629728 36.325479 -0.246495 1.698595 0.029551 0.005011 -251051.000000 0 0 1
-34.702711 -10.306964 -4.547728 36.485524 0.288709 1.695766 0.034488 -0.000511 -663618.000000 0 0 1
34.453433 -11.091464 -5.337628 36.586198 -0.311449 1.717211 0.017238 -0.004820 -517293.000000 0 0 1
-34.659105 -12.056764 -6.002828 37.184043 0.334773 1.732941 0.012065 -0.003894 311879.000000 0 0 1
34.675814 -12.580164 -7.347228 37.611891 -0.348026 1.767404 0.005105 -0.004734 111501.000000 0 0 1
34.689027 -11.590564 -8.340628 37.513142 -0.322465 1.795009 0.014511 0.000552 4962.750000 0 0 1
34.007866 -12.069564 -9.473128 37.308839 -0.341038 1.827518 -0.000670 0.006909 -47023.500000 0 0 1
34.165701 -11.287264 -10.775428 37.560714 -0.319080 1.861765 -0.017091 -0.003703 -95568.100000 0 0 1
33.428992 -10.071164 -10.741528 36.528157 -0.292622 1.869270 -0.016099 0.007477 515512.000000 0 0 1
33.646042 -9.328664 -11.964328 36.908335 -0.270465 1.900923 -0.011707 0.007857 -322257.000000 0 0 1
32.631862 -8.158764 -12.186528 35.775904 -0.245002 1.918389 -0.007870 0.005888 -169739.000000 0 0 1
32.813472 -7.535564 -13.426028 36.245922 -0.225735 1.950252 -0.008782 -0.004794 939500.000000 0 0 1
31.761942 -6.595464 -13.700028 35.213802 -0.204743 1.970399 -0.017244 -0.012227 229075.000000 0 0 1
31.876562 -5.987364 -15.095228 35.774706 -0.185666 2.006394 -0.018585 -0.015171 -96987.000000 0 0 1
32.983392 -5.121464 -15.262628 36.702606 -0.154044 1.999669 0.001796 -0.005476 152649.000000 0 0 1
32.686592 -3.937464 -15.870828 36.548599 -0.119883 2.019990 0.010220 -0.012691 13976.100000 0 0 1
33.899635 -2.956264 -15.983328 37.595099 -0.086986 2.009917 0.023674 -0.014896 181754.000000 0 0 1
34.758172 -3.192664 -17.093828 38.865441 -0.091597 2.026195 0.027222 -0.017688 531996.000000 0 0 1
-33.847227 -2.724864 -17.010128 37.978995 0.080332 2.035192 0.024747 -0.008504 507815.000000 0 0 1
-33.608707 -1.173264 -16.749528 37.569514 0.034895 2.032895 0.016772 0.000295 -889316.000000 0 0 1
-33.957967 -0.283764 -17.805728 38.344073 0.008356 2.053716 0.019191 -0.000429 22741.100000 0 0 1
-33.569597 1.015336 -17.538128 37.888450 -0.030236 2.052047 0.016020 -0.002725 -535445.000000 0 0 1
-33.814227 2.046136 -18.589028 38.641177 -0.060437 2.072669 0.013406 -0.002576 -12000.500000 0 0 1
-32.994677 1.963636 -19.746328 38.502234 -0.059444 2.109311 0.012825 -0.004211 162534.000000 0 0 1
-33.092647 3.134036 -20.563528 39.087135 -0.094423 2.124798 0.005873 -0.002809 -116468.000000 0 0 1
-32.058987 3.268936 -21.708728 38.855288 -0.101615 2.163622 0.012179 0.002197 -66881.600000 0 0 1
-30.767837 3.714036 -21.344528 37.630343 -0.120130 2.173918 0.019399 -0.000153 3476.960000 0 0 1
-30.111427 4.178736 -22.519228 37.832201 -0.137895 2.208360 0.023231 0.001429 -283245.000000 0 0 1
-28.675457 4.685836 -22.298228 36.625808 -0.161978 2.225358 0.019957 0.000968 -432949.000000 0 0 1
-27.867767 3.616336 -21.886728 35.619084 -0.129047 2.232506 0.025313 0.010237 -382727.000000 0 0 1
-26.645707 4.150936 -21.431728 34.446232 -0.154540 2.242319 0.005148 0.027778 213807.000000 0 0 1
-25.708407 3.132236 -20.710028 33.160795 -0.121239 2.245330 0.009579 0.024710 418783.000000 0 0 1
-26.273667 2.804136 -19.422128 32.793106 -0.106326 2.204660 0.016511 0.017570 216563.000000 0 0 1
-25.515167 1.819836 -18.782428 31.735077 -0.071203 2.204149 0.021359 0.016391 -385687.000000 0 0 1
-24.751197 2.376136 -17.557728 30.439145 -0.095708 2.185620 0.029355 0.006808 195729.000000 0 0 1
-23.679797 3.222036 -17.965828 29.897914 -0.135236 2.215430 0.032730 0.009691 -166303.000000 0 0 1
-22.924397 3.613336 -16.866028 28.688796 -0.156333 2.199252 0.027774 -0.003640 -443416.000000 0 0 1
-21.802097 4.548236 -17.352028 28.233149 -0.205665 2.232672 0.028039 -0.003807 -1137680.000000 0 0 1
-20.712397 3.917036 -17.867228 27.633030 -0.186908 2.273901 0.042542 -0.010458 -884068.000000 0 0 1
-19.671597 4.878136 -18.128128 27.191854 -0.243075 2.300535 0.035005 -0.005193 317934.000000 0 0 1
-18.362897 4.126136 -18.472028 26.371135 -0.221029 2.346844 0.037318 -0.004107 -418137.000000 0 0 1
-17.778797 3.446236 -17.375828 25.097441 -0.191465 2.335516 0.037379 -0.007523 359153.000000 0 0 1
-16.592597 2.762936 -17.784028 24.478965 -0.165002 2.384015 0.016135 -0.008449 -108286.000000 0 1 0
-16.510497 1.290236 -17.315628 23.960221 -0.077988 2.378472 -0.004948 -0.003672 192291.000000 0 1 0
-17.386097 0.262736 -17.888128 24.946553 -0.015111 2.370369 0.001548 -0.006870 -222172.000000 0 1 0
-18.703197 0.362236 -17.483128 25.604697 -0.019365 2.322397 0.008014 -0.014916 -444186.000000 0 0 1
-19.688897 -0.794364 -17.947628 26.653349 0.040324 2.309557 0.009652 -0.013655 392527.000000 0 0 1
-19.707697 -2.040964 -17.272828 26.285156 0.103194 2.287804 -0.006709 -0.010819 506130.000000 0 0 1
-20.770897 -2.858164 -17.756128 27.475067 0.136746 2.273474 0.024970 -0.002343 290160.000000 0 0 1
-20.996997 -4.045064 -16.781028 27.181599 0.190318 2.236188 0.031084 -0.005564 -64762.800000 0 0 1
-21.291497 -3.558464 -15.460928 26.552416 0.165600 2.192326 0.026326 -0.015639 386125.000000 0 0 1
-21.755497 -4.639464 -14.666828 26.644739 0.210107 2.153710 0.028286 -0.021983 -27389.800000 0 0 1
-22.130397 -4.128764 -13.232828 26.113385 0.184445 2.102201 0.018394 -0.016670 147780.000000 0 0 1
-23.073897 -3.058064 -13.205128 26.760640 0.131766 2.086852 0.015091 -0.022429 514623.000000 0 0 1
-23.540997 -2.765664 -11.936628 26.538849 0.116947 2.037315 0.016672 -0.023142 -230056.000000 0 0 1
-24.441597 -1.510164 -11.836028 27.198599 0.061708 2.021024 0.032307 -0.025843 -238045.000000 0 0 1
-24.662997 -1.099764 -10.488028 26.822968 0.044562 1.972524 0.028408 -0.023080 581896.000000 0 0 1
-25.325337 0.183636 -10.459628 27.400916 -0.007251 1.962459 0.035797 -0.023429 -281171.000000 0 0 1
-25.824747 0.490436 -9.041328 27.366104 -0.018989 1.907507 0.049629 -0.017275 -103565.000000 0 0 1
-24.773297 0.573036 -8.088228 26.066531 -0.023127 1.886296 0.034195 -0.019865 313323.000000 0 0 1
-25.330527 0.923036 -6.861528 26.259629 -0.036424 1.835161 0.035584 -0.020395 -179572.000000 0 0 1
-24.273097 1.101336 -5.758228 24.971050 -0.045342 1.803487 0.012806 -0.012263 -213881.000000 0 1 0
-23.766797 2.426236 -5.727428 24.567268 -0.101733 1.806094 0.024561 -0.011929 769802.000000 0 1 0
-22.484397 2.503736 -5.103928 23.191957 -0.110898 1.792686 0.010694 -0.005741 37118.900000 0 1 0
-21.856797 3.906136 -5.244628 22.814109 -0.176848 1.802756 0.018463 -0.000768 -451876.000000 0 1 0
-22.472997 4.880236 -4.434628 23.420465 -0.213840 1.761295 0.023996 -0.002747 744079.000000 0 1 0
-21.876797 6.121736 -4.740328 23.206477 -0.272849 1.776512 0.013153 -0.003928 -329851.000000 0 1 0
-22.539597 7.238836 -3.929028 23.997321 -0.310756 1.735265 0.022978 -0.002955 -259792.000000 0 1 0
-22.220297 7.339036 -2.559928 23.540524 -0.319005 1.679757 0.034092 0.002614 992889.000000 0 1 0
-20.870897 7.702636 -2.250828 22.360482 -0.353554 1.671628 0.033672 -0.001659 343124.000000 0 1 0
-20.474897 9.231536 -2.303928 22.577660 -0.423578 1.673019 0.031562 -0.006555 -314546.000000 0 1 0
-20.232197 9.743936 -3.608628 22.744412 -0.448824 1.730130 0.017327 -0.009967 601458.000000 0 1 0
-19.656797 11.041536 -3.485428 22.813447 -0.511794 1.724177 0.023039 -0.011772 -486652.000000 0 1 0
-19.439497 11.754536 -4.800728 23.218745 -0.543848 1.779059 0.017146 -0.015109 107131.000000 0 1 0
-18.620897 11.042436 -5.752028 22.399978 -0.535266 1.830493 0.025152 -0.007739 487014.000000 0 1 0
-18.625997 11.811636 -6.914828 23.114007 -0.565151 1.874610 0.023724 -0.001200 109580.000000 0 1 0
-17.350497 11.644136 -7.782828 22.297938 -0.591074 1.927341 0.024879 -0.002310 28592.800000 0 1 0
-16.974597 10.335536 -8.210928 21.503013 -0.546925 1.962594 0.010241 0.005316 152890.000000 0 1 0
-17.840197 9.668136 -9.109728 22.242585 -0.496626 1.992771 0.014025 0.001616 -113515.000000 0 1 0
-17.959197 10.308636 -10.507828 23.221007 -0.521085 2.040379 0.027557 0.004697 -51946.900000 0 1 0
-16.804697 9.973136 -11.217328 22.531971 -0.535607 2.091903 0.020554 -0.005514 40089.700000 0 1 0
-17.055397 10.577036 -12.472128 23.628673 -0.555110 2.126850 0.028623 -0.006748 91957.200000 0 1 0
-15.959997 10.376736 -13.552728 23.368238 -0.576496 2.189480 0.021533 0.003881 40448.900000 0 1 0
-15.939297 9.121836 -14.256428 23.248974 -0.519792 2.230910 0.017925 0.003237 176961.000000 0 1 0
-15.730997 7.958136 -13.452728 22.175934 -0.468348 2.222619 0.013283 -0.001498 -459603.000000 0 1 0
-15.599397 6.642836 -14.300928 22.180734 -0.402581 2.271487 0.015974 -0.008436 273106.000000 0 1 0
-14.438697 6.456736 -15.124828 21.884374 -0.420509 2.333840 0.015824 -0.009450 879710.000000 0 1 0
-14.392297 5.102236 -15.558028 21.799616 -0.340688 2.365539 0.005096 -0.023316 55154.100000 0 1 0
31.354712 -16.564164 28.305015 45.372495 -0.486017 0.897154 -0.025852 0.005804 -522194.000000 0 0 1
30.728922 -15.376064 28.674575 44.754008 -0.463950 0.875367 -0.033177 0.007865 -355710.000000 0 0 1
29.764662 -15.512964 29.683195 44.807133 -0.480453 0.846691 -0.030271 0.001847 181049.000000 0 0 1
30.297832 -15.357164 31.200705 46.122501 -0.469131 0.827831 -0.040514 -0.000288 206820.000000 0 0 1
30.456292 -14.001964 31.623395 46.083401 -0.430924 0.814515 -0.035660 0.001430 -51190.900000 0 0 1
30.827852 -13.908764 32.979245 47.238128 -0.423831 0.797988 -0.044229 -0.005321 -407451.000000 0 0 1
30.831492 -12.466164 33.546418 47.237149 -0.384235 0.781056 -0.028023 -0.003677 -128274.000000 0 0 1
30.686402 -12.220564 -34.332845 47.641806 -0.378989 2.375529 -0.041286 -0.010558 69930.600000 0 0 1
30.639142 -10.868864 -34.121195 47.129026 -0.340889 2.380373 -0.016769 -0.004349 -296603.000000 0 0 1
30.412432 -10.486164 -32.637708 45.826800 -0.332034 2.363419 -0.012073 -0.000841 993349.000000 0 0 1
29.077402 -10.807064 -32.187758 44.702793 -0.355844 2.374655 0.007664 0.003337 921615.000000 0 0 1
28.767472 -10.172764 -30.917548 43.439007 -0.339896 2.362777 -0.002519 0.008752 -154375.000000 0 0 1
27.397952 -10.681864 -30.433868 42.319857 -0.371750 2.373359 0.000934 0.021102 -70071.900000 0 0 1
27.071372 -10.428364 -29.068778 41.068282 -0.367698 2.357198 -0.006625 0.016150 278069.000000 0 0 1
26.262312 -11.421064 -28.446698 40.365385 -0.410213 2.352839 0.012640 0.011363 -702582.000000 0 0 1
25.761112 -11.048364 -26.983098 38.907439 -0.405150 2.337160 0.008819 0.013282 -746269.000000 0 0 1
24.789082 -10.053364 -26.800608 37.866097 -0.385287 2.357137 0.000665 0.003832 991606.000000 0 0 1
23.581482 -10.065964 -27.607818 37.677600 -0.403444 2.393133 0.008145 -0.006705 1185090.000000 0 0 1
22.647382 -11.336664 -27.379878 37.297206 -0.464106 2.395137 0.011077 0.001434 -883582.000000 0 0 1
23.184082 -12.437564 -28.009298 38.428055 -0.492396 2.387476 0.006347 0.002134 -210565.000000 0 0 1
22.453582 -13.619764 -27.832518 38.266308 -0.545239 2.385231 0.015187 -0.002168 139959.000000 0 0 1
23.249382 -14.723064 -28.593068 39.684580 -0.564522 2.375331 0.009042 0.000455 337754.000000 0 0 1
23.273082 -14.600464 -29.983698 40.667333 -0.560290 2.399849 0.014656 -0.013771 149070.000000 0 0 1
24.442182 -15.151064 -30.545438 41.952339 -0.554904 2.386340 0.007871 -0.006577 -105681.000000 0 0 1
24.450382 -15.050664 -32.070248 43.044680 -0.551782 2.411399 0.032728 -0.018471 -369460.000000 0 0 1
23.517582 -15.880064 -32.708338 43.302291 -0.593916 2.426983 0.046210 -0.025025 -98548.400000 0 0 1
23.559182 -15.941364 -34.152569 44.447273 -0.594884 2.447108 0.067046 -0.023177 83990.600000 0 0 1
23.680282 -14.633564 34.221410 44.113511 -0.553524 0.682881 0.048548 -0.023347 -242638.000000 0 0 1
22.427782 -14.025164 34.097500 43.154955 -0.558849 0.659795 0.058754 -0.018233 -117242.000000 0 0 1
22.514982 -13.001064 33.062375 42.060346 -0.523667 0.666371 0.050181 -0.014431 -1289980.000000 0 0 1
21.525082 -11.915564 33.467690 41.537887 -0.505577 0.633915 0.064292 -0.015191 561886.000000 0 0 1
20.134382 -12.249664 33.402342 40.879873 -0.546570 0.614459 0.048769 -0.010667 916878.000000 0 0 1
19.674382 -12.465764 32.086925 39.649052 -0.564762 0.627882 0.036993 0.002512 -3031100.000000 0 0 1
18.246082 -12.786764 31.883505 38.897027 -0.611259 0.609927 0.037592 0.005386 -1255040.000000 0 0 1
17.413682 -11.631864 31.898945 38.158607 -0.588906 0.580922 0.031535 0.008311 -77705.400000 0 0 1
16.264282 -11.736464 32.687715 38.350465 -0.625082 0.550349 0.018113 0.010097 148390.000000 0 0 1
15.443882 -10.429964 32.962585 37.865943 -0.593987 0.514564 0.017340 0.008763 -303616.000000 0 0 1
14.751382 -9.948064 31.809595 36.447463 -0.593325 0.509985 0.005410 0.013499 526517.000000 0 0 1
13.953182 -8.750264 32.002225 35.991677 -0.560120 0.475298 0.014337 0.013127 1122730.000000 0 0 1
12.828282 -8.783264 33.087145 36.557758 -0.600370 0.439264 0.010285 0.013420 -811787.000000 0 0 1
11.873282 -9.871364 32.976145 36.412152 -0.693592 0.437920 0.006308 0.018360 746564.000000 0 0 1
10.752082 -9.685964 33.824098 36.789873 -0.733282 0.404279 -0.003770 0.021176 811560.000000 0 0 1
9.689082 -8.635464 33.281279 35.722445 -0.727964 0.371833 -0.003012 0.012839 -673313.000000 0 0 1
10.194982 -7.310564 33.237013 35.525780 -0.622094 0.360914 0.007511 0.013223 16055.900000 0 0 1
9.273482 -6.453564 32.591175 34.493922 -0.607980 0.333696 0.001507 0.018952 -96540.100000 0 0 1
9.651482 -4.987764 32.524445 34.290938 -0.476987 0.322377 -0.000331 0.013542 -116517.000000 0 0 1
9.741182 -4.443864 33.830911 35.484773 -0.427993 0.306510 0.004207 0.007025 264937.000000 0 0 1
10.252482 -3.131064 33.696415 35.360505 -0.296400 0.308008 -0.009401 0.007354 -416776.000000 0 0 1
10.122982 -2.252064 -34.294474 35.828166 -0.218905 2.847940 -0.013994 0.006011 -693077.000000 0 0 1
8.813582 -1.971564 -33.907988 35.090140 -0.220073 2.881286 -0.011024 0.018869 -419607.000000 0 0 1
8.816482 -1.372664 -32.641158 33.838731 -0.154453 2.874754 -0.008649 0.016035 -91872.500000 0 0 1
7.384482 -1.105964 -32.145888 33.001694 -0.148664 2.913360 0.004628 0.015538 -75896.100000 0 0 1
6.760582 -0.165364 -33.017958 33.703388 -0.024455 2.939571 -0.001140 0.017994 -49285.400000 0 0 1
5.374882 -0.075964 -32.738598 33.176963 -0.014132 2.978853 0.005180 0.019948 153193.000000 0 0 1
4.678582 0.895936 -33.711268 34.046166 0.189207 3.001216 0.003238 0.016652 47091.400000 0 0 1
5.219682 2.221336 -33.573298 34.049166 0.402353 2.974209 0.008405 0.013161 -119582.000000 0 0 1
4.756682 2.993536 -34.581517 35.035248 0.561709 2.980479 0.012377 0.007454 191785.000000 0 0 1
5.507682 4.376636 34.608828 35.316575 0.671465 0.200536 0.013682 0.008271 -93928.700000 0 0 1
5.106182 5.010536 33.425623 34.182610 0.775944 0.210844 0.029100 -0.006282 -362209.000000 0 0 1
5.926082 6.096136 33.092095 34.166768 0.799542 0.251476 0.028853 -0.001619 -641155.000000 0 0 1
5.417682 7.091536 32.116125 33.332966 0.918418 0.271035 0.033953 -0.008114 -526403.000000 0 0 1
4.335582 7.840736 32.644665 33.851862 1.065686 0.267863 0.036014 -0.006060 -44301.400000 0 0 1
4.061582 9.103236 32.066555 33.580192 1.151133 0.301390 0.027207 -0.006232 -100702.000000 0 0 1
3.708382 9.185036 30.579315 32.143607 1.187069 0.313259 0.030746 -0.011771 -693284.000000 0 0 1
2.416882 8.774036 30.265385 31.604091 1.302004 0.292100 0.048831 -0.022463 -644234.000000 0 0 1
2.252582 8.804336 28.854295 30.251625 1.320320 0.305124 0.046501 -0.014172 607165.000000 0 0 1
0.936382 8.169936 28.277425 29.448895 1.456681 0.283006 0.052890 -0.015593 1258440.000000 0 0 1
-0.250918 8.837536 28.762415 30.090555 -1.542412 0.298217 0.046621 -0.016795 385534.000000 0 0 1
-1.347418 8.412436 27.962855 29.231932 -1.411975 0.295743 0.057988 -0.015797 -515588.000000 0 0 1
-2.685418 8.625236 28.622015 30.013762 -1.268965 0.305723 0.044538 -0.009037 -859926.000000 0 0 1
-2.988918 9.991136 28.814195 30.643340 -1.280113 0.347260 0.036882 -0.004701 -1171970.000000 0 0 1
-4.246718 10.074336 29.354295 31.324136 -1.171861 0.356528 0.022663 0.002424 -1161010.000000 0 0 1
-4.453318 11.466336 30.035755 32.456979 -1.200345 0.388701 0.013763 0.010618 -71957.000000 0 0 1
-4.517418 12.651036 29.292785 32.226123 -1.227829 0.429974 0.018056 0.005938 32837.300000 0 0 1
-5.582618 12.752236 28.380665 31.610873 -1.158155 0.456018 0.014525 0.004882 -168181.000000 0 0 1
-5.775618 14.194036 27.832605 31.772351 -1.184352 0.503289 0.005455 0.007129 486784.000000 0 0 1
-4.773818 14.576836 26.885745 30.953461 -1.254311 0.518455 0.002544 0.009061 210860.000000 0 0 1
-5.054418 15.916336 26.507545 31.329329 -1.263307 0.562183 0.002674 0.015794 -495930.000000 0 0 1
-4.013218 16.634336 25.702795 30.877835 -1.334059 0.587367 0.030267 0.014028 -670057.000000 0 0 1
-3.895518 16.153636 24.401475 29.521975 -1.334160 0.597841 0.042301 0.010592 -755750.000000 0 0 1
-2.943718 16.901836 23.771055 29.315535 -1.398360 0.625161 0.045302 0.013851 -571241.000000 0 0 1
-2.828618 16.492536 22.273455 27.858780 -1.400940 0.644312 0.042441 0.013311 252118.000000 0 0 1
-2.146418 15.248536 22.041755 26.887988 -1.430953 0.609801 0.042200 -0.001357 175168.000000 0 0 1
-2.191018 14.991736 20.654155 25.615363 -1.425675 0.632894 0.045127 -0.004666 135865.000000 0 0 1
-1.340018 13.775736 20.159755 24.453676 -1.473828 0.601645 0.035594 -0.005592 -35654.600000 0 1 0
-1.963618 12.533236 20.219055 23.869394 -1.415387 0.560348 0.040365 -0.004174 -411785.000000 0 1 0
-1.120318 11.617036 19.624255 22.832477 -1.474656 0.536528 0.038868 -0.005751 -373805.000000 0 1 0
-1.919318 10.300636 19.313655 21.972805 -1.386579 0.497077 0.027469 -0.007635 -197191.000000 0 1 0
-2.158618 9.417336 20.461155 22.627521 -1.345471 0.441154 0.046610 -0.018598 333835.000000 0 1 0
-2.951718 9.968536 21.562455 23.937916 -1.282918 0.449267 0.047112 -0.010499 -148090.000000 0 1 0
-4.444918 9.972436 21.196155 23.842897 -1.151507 0.475656 0.035597 -0.003618 -638022.000000 0 1 0
-5.043918 8.672936 21.202655 23.456630 -1.044039 0.441975 0.023353 -0.006356 1005960.000000 0 1 0
-6.477018 8.810636 21.177755 23.834353 -0.936876 0.476645 0.017239 0.001079 1005230.000000 0 1 0
-7.338818 7.572136 21.061955 23.554223 -0.801044 0.464177 0.024033 -0.003387 -97006.700000 0 1 0
-7.120718 6.778536 22.196355 24.276148 -0.760784 0.416952 0.015578 -0.005857 627607.000000 0 1 0
-8.128018 5.764036 22.263955 24.392058 -0.616845 0.420820 0.016795 -0.007140 415350.000000 0 1 0
-7.928118 4.868636 23.465455 25.242548 -0.550721 0.377472 0.010742 -0.010611 53674.100000 0 0 1
-8.468618 5.411136 24.695035 26.661632 -0.568577 0.386488 -0.014925 0.005845 304922.000000 0 0 1
-8.512318 4.472536 25.715445 27.454458 -0.483776 0.357832 -0.013809 0.013429 -175088.000000 0 0 1
-9.488018 4.883436 26.814535 28.859829 -0.475334 0.378743 -0.027773 0.015844 -325758.000000 0 0 1
-8.996418 5.993336 27.573185 29.616484 -0.587673 0.373631 -0.021446 0.022315 -10080.000000 0 0 1
-9.993918 6.516836 28.457705 30.857552 -0.577836 0.396992 -0.020709 0.022453 246028.000000 0 0 1
-9.579718 7.745736 29.311465 31.795116 -0.679936 0.397877 -0.000098 0.014570 438756.000000 0 0 1
-8.567718 7.505036 30.297445 32.367677 -0.719377 0.359593 0.005226 0.010311 309945.000000 0 0 1
-8.081018 8.677836 30.891035 33.088725 -0.820995 0.366515 0.016048 0.006018 183246.000000 0 0 1
-7.008618 8.339836 31.955915 33.761725 -0.871915 0.328544 0.023902 0.003399 282526.000000 0 0 1
-5.728618 7.959636 31.477945 32.970197 -0.946965 0.302014 0.031171 -0.003139 -85513.600000 0 0 1
-4.964518 7.507236 32.598735 33.818376 -0.986520 0.269382 0.041062 -0.005227 -1128690.000000 0 0 1
-3.495418 7.414636 32.346855 33.369354 -1.130272 0.248192 0.024771 -0.007118 -1308310.000000 0 0 1
-2.978018 8.688436 32.123015 33.410262 -1.240589 0.278490 0.009371 -0.002887 -212937.000000 0 0 1
-1.558018 8.641936 32.183515 33.359993 -1.392427 0.266366 0.025395 -0.010955 601265.000000 0 0 1
-0.845318 9.991436 31.801635 33.344975 -1.486393 0.305436 0.022779 -0.007759 86181.000000 0 0 1
-1.216718 11.052036 32.608895 34.452401 -1.461148 0.328612 0.006176 -0.011336 -80713.500000 0 0 1
-1.105318 12.276936 31.950865 34.246206 -1.481006 0.368204 0.004864 0.000785 -196081.000000 0 0 1
-1.382818 13.421936 32.957405 35.612513 -1.468132 0.388589 -0.009144 -0.008467 -1258260.000000 0 0 1
-0.303618 13.782736 33.700244 36.411021 -1.548771 0.388309 -0.002391 0.000471 -1156480.000000 0 0 1
-0.643618 14.759936 -34.614393 37.635437 -1.527218 2.738185 0.005975 0.000672 419917.000000 0 0 1
0.637082 15.305236 -33.922308 37.220681 1.529195 2.717429 -0.008203 -0.002578 288382.000000 0 0 1
1.524682 16.027536 34.526755 38.095976 1.475953 0.436328 -0.002687 0.003347 -157066.000000 0 0 1
2.631882 16.453536 -34.008508 37.871153 1.412182 2.686012 0.004599 0.000865 -234368.000000 0 0 1
3.557082 17.424336 34.526141 38.837028 1.369419 0.475638 0.011701 0.004993 -44771.600000 0 0 1
2.898182 18.656636 34.385319 39.227792 1.416685 0.502139 0.006012 0.007949 196774.000000 0 0 1
3.695682 19.540636 33.640437 39.079067 1.383876 0.533898 0.004821 0.016349 -244630.000000 0 0 1
3.377382 20.998736 33.949769 40.061708 1.411325 0.559658 0.006457 0.012832 -38485.900000 0 0 1
3.702182 21.536536 -34.048808 40.458001 1.400558 2.571006 0.009590 0.007798 40841.100000 0 0 1
3.476082 22.954536 -34.047468 41.209512 1.420505 2.543132 0.001816 0.010654 115051.000000 0 0 1
3.403982 23.549536 -32.627908 40.382522 1.427245 2.511497 0.011492 0.004761 -9714.110000 0 0 1
3.045182 24.924736 -32.618108 41.163777 1.449224 2.485527 0.010468 0.004405 220145.000000 0 0 1
2.865482 25.315136 -31.267608 40.332746 1.458084 2.457893 0.012393 0.007167 -229107.000000 0 0 1
2.481382 26.780436 -30.988388 41.032050 1.478404 2.426792 0.009920 0.007583 460218.000000 0 0 1
3.471282 27.795736 -31.234728 41.955464 1.446554 2.410542 -0.012113 0.004494 555959.000000 0 0 1
2.860382 29.021936 -30.882578 42.475736 1.472554 2.384832 -0.011765 0.006053 -722895.000000 0 0 1
3.851882 30.150636 -30.698918 43.200942 1.443730 2.361158 -0.016949 0.009076 -422683.000000 0 0 1
4.758582 30.020836 -29.636178 42.452299 1.413595 2.343544 -0.008413 0.001427 -121947.000000 0 0 1
5.330082 31.263536 -29.300318 43.177854 1.401931 2.316646 0.002117 -0.005066 -528845.000000 0 0 1
6.407582 31.059836 -28.163888 42.414326 1.367352 2.296976 0.014153 -0.012598 1389400.000000 0 0 1
7.633682 30.464636 -28.666548 42.522207 1.325276 2.310616 0.017837 -0.012751 1876250.000000 0 0 1
8.735082 31.279936 -29.165798 43.650656 1.298479 2.302535 0.035874 -0.018486 736983.000000 0 0 1
8.470582 32.436336 -30.170668 45.101395 1.315356 2.303594 0.029871 -0.014890 -1166590.000000 0 0 1
7.883282 33.572736 -29.470528 45.362834 1.340163 2.277937 0.016462 -0.015493 253286.000000 0 0 1
7.687582 -34.609520 -30.306948 46.641493 -1.352222 2.278098 0.023356 -0.017783 -508287.000000 0 0 1
6.431782 34.637936 -31.175358 47.043143 1.387201 2.295211 0.000838 -0.001975 -727284.000000 0 0 1
6.469682 33.676236 -32.241588 47.068733 1.380995 2.325386 -0.010313 -0.004988 -319152.000000 0 0 1
5.310382 33.739936 -33.003828 47.495643 1.414685 2.339051 -0.032193 0.004867 -554413.000000 0 0 1
5.391182 32.822836 -34.208324 47.713864 1.407999 2.370210 -0.033256 -0.002876 165115.000000 0 0 1
6.058182 33.437636 33.964302 48.045300 1.391562 0.785659 -0.022432 -0.015491 213177.000000 0 0 1
5.980082 32.615636 32.796545 46.638551 1.389460 0.790899 -0.030704 -0.016979 -296849.000000 0 0 1
5.155982 33.316136 31.660925 46.248927 1.417255 0.816774 -0.044384 -0.015321 230794.000000 0 0 1
5.742682 34.534436 31.239355 46.920176 1.406016 0.842234 -0.038123 -0.013824 109952.000000 0 0 1
5.153982 -34.430620 30.015895 45.967217 -1.422208 0.859278 -0.047590 -0.022658 69008.800000 0 0 1
17.611003 -22.248864 29.742585 41.106943 -0.901231 0.761877 0.030690 0.013769 -279379.000000 0 0 1
16.529303 -21.362064 29.997945 40.366228 -0.912256 0.733039 0.021984 0.018578 -177365.000000 0 0 1
15.295803 -22.007264 29.887155 40.143783 -0.963411 0.731007 0.005777 0.019330 -151559.000000 0 0 1
14.708303 -22.378164 31.266955 41.167207 -0.989333 0.708235 0.013977 0.016031 -533867.000000 0 0 1
15.478103 -23.370264 31.881165 42.451733 -0.985824 0.721224 0.020770 0.005832 195112.000000 0 0 1
14.876303 -23.753564 33.100995 43.372942 -1.011279 0.702589 0.035367 0.003614 -356146.000000 0 0 1
15.603103 -24.825964 33.804935 44.749960 -1.009685 0.714504 0.043175 -0.007002 -386208.000000 0 0 1
15.525903 -26.114454 33.209461 45.009851 -1.034406 0.740952 0.047879 -0.010283 -69102.500000 0 0 1
16.191003 -27.029454 34.065931 46.402884 -1.031103 0.746406 0.037062 -0.009853 196436.000000 0 0 1
15.790703 -28.549444 33.881093 47.035577 -1.065576 0.766520 0.031905 -0.003657 259837.000000 0 0 1
16.360803 -29.126494 32.667675 46.724785 -1.059003 0.796587 0.027965 -0.011157 339810.000000 0 0 1
15.772803 -30.371024 32.374445 47.109289 -1.091799 0.813141 0.033128 -0.011403 -254289.000000 0 0 1
16.487803 -31.110904 31.224885 47.060912 -1.083462 0.845310 0.047399 -0.019718 -289608.000000 0 0 1
17.664503 -31.706094 31.687325 48.180885 -1.062493 0.853069 0.033100 -0.019667 -632549.000000 0 0 1
18.443003 -32.142064 30.617095 48.069358 -1.049867 0.880279 0.029748 -0.021287 -684993.000000 0 0 1
19.741403 -32.837164 31.017455 49.295891 -1.029502 0.890260 0.011236 -0.015907 -783227.000000 0 0 1
20.795803 -31.960474 31.289665 49.325252 -0.993948 0.883624 0.002935 -0.009807 -465106.000000 0 0 1
21.862903 -32.754994 31.718395 50.566123 -0.982239 0.892759 0.004728 -0.007464 -1635990.000000 0 0 1
23.074803 -32.043984 32.218005 50.963353 -0.946709 0.886433 -0.002275 -0.009026 -998038.000000 0 0 1
23.900103 -31.722424 31.108565 50.450668 -0.925114 0.906362 -0.006401 -0.002352 -301474.000000 0 0 1
24.399703 -30.426364 31.103435 49.885196 -0.894882 0.897584 -0.010878 0.010227 -193240.000000 0 0 1
25.389403 -30.263504 29.947565 49.571747 -0.872756 0.922128 -0.004969 0.012706 -650872.000000 0 0 1
26.613003 -30.880234 30.160385 50.709857 -0.859484 0.933825 -0.008678 0.013187 -770948.000000 0 0 1
27.476203 -30.719424 29.051255 50.424202 -0.841070 0.956802 -0.013015 -0.004947 -380470.000000 0 0 1
28.759903 -31.516464 29.216945 51.711212 -0.831098 0.970360 -0.012768 -0.004466 -451075.000000 0 0 1
28.513903 -32.936934 29.110945 52.395910 -0.857251 0.981717 -0.021489 -0.007774 -20026.100000 0 0 1
29.506703 -33.654974 29.785245 53.763032 -0.850981 0.983623 -0.009711 -0.012048 -786372.000000 0 0 1
28.926103 34.294321 30.422025 54.206268 0.870108 0.974929 -0.018456 -0.011586 -746865.000000 0 0 1
28.240803 34.380496 31.640835 54.595823 0.883131 0.952624 -0.011722 -0.006050 1414730.000000 0 0 1
26.918803 -34.308024 31.617235 53.863829 -0.905503 0.943467 -0.026069 0.001099 1290010.000000 0 0 1
25.832503 34.342716 30.695385 52.810482 0.925890 0.950549 -0.018840 -0.006238 -583269.000000 0 0 1
25.464903 32.979941 31.064415 51.972451 0.913280 0.930156 -0.024545 -0.003453 269711.000000 0 0 1
24.044003 32.956421 31.172125 51.341418 0.940499 0.918323 -0.019803 -0.006530 414076.000000 0 0 1
23.531603 31.501051 31.093635 50.128502 0.929212 0.901699 -0.000431 -0.006889 -441255.000000 0 0 1
23.493703 30.928171 29.796605 48.952462 0.921166 0.916395 -0.010842 -0.013506 198594.000000 0 0 1
22.902003 29.641421 29.777495 47.852009 0.912965 0.899140 0.020443 -0.031001 -124073.000000 0 0 1
22.211003 29.263251 28.392105 46.430358 0.921556 0.912843 0.019160 -0.022849 219485.000000 0 0 1
21.042603 29.997391 28.082795 46.165767 0.959077 0.916875 0.037971 -0.030556 150720.000000 0 0 1
20.469803 29.600361 26.840545 44.895535 0.965772 0.929987 0.036970 -0.020813 1137240.000000 0 0 1
19.182503 30.417841 26.382785 44.601175 1.008156 0.937845 0.053950 -0.019374 1137210.000000 0 0 1
19.456703 31.705321 25.860585 45.305193 1.020384 0.963306 0.054145 -0.029232 637756.000000 0 0 1
18.193503 32.209451 25.412645 44.880450 1.056624 0.968872 0.065375 -0.029346 103843.000000 0 0 1
18.233303 33.550393 24.652165 45.451199 1.072988 0.997520 0.079087 -0.025194 -388279.000000 0 0 1
18.857203 33.600590 23.412555 45.085935 1.059382 1.024780 0.078004 -0.024843 771626.000000 0 0 1
20.259503 33.898013 23.496955 45.952472 1.032099 1.034063 0.073890 -0.018324 628067.000000 0 0 1
20.930303 34.033121 22.101755 45.659813 1.019422 1.065516 0.071833 -0.018801 487349.000000 0 0 1
20.295203 -34.196387 21.383255 45.150103 -1.035178 1.077418 0.083323 -0.016122 961730.000000 0 0 1
21.170703 -34.030444 20.285855 44.919770 -1.014277 1.102236 0.102413 -0.021089 490968.000000 0 0 1
20.724303 -32.811124 19.429755 43.400253 -1.007448 1.106619 0.072885 -0.021729 -29824.600000 0 0 1
21.045403 -31.579604 20.092055 42.940320 -0.982962 1.083876 0.072322 -0.012380 238767.000000 0 0 1
20.381403 -30.424884 19.622955 41.546787 -0.980564 1.078887 0.072632 -0.027005 -113731.000000 0 0 1
21.053503 -29.790764 18.390555 40.852811 -0.955580 1.103845 0.051451 -0.017335 -266116.000000 0 0 1
20.741303 -30.497184 17.226655 40.706726 -0.973548 1.133834 0.051395 -0.017431 253000.000000 0 0 1
21.263403 -29.907744 16.055855 40.054912 -0.952748 1.158356 0.041183 -0.004815 -232189.000000 0 0 1
20.958903 -30.704974 14.763755 40.000494 -0.971851 1.192767 0.042314 -0.017908 -117098.000000 0 0 1
21.815703 -31.813984 14.468155 41.199296 -0.969714 1.211971 0.043192 -0.020347 232461.000000 0 0 1
22.069003 -32.047834 13.085455 41.052816 -0.967744 1.246389 0.038163 -0.013526 -379519.000000 0 0 1
20.865203 -32.360634 12.192855 40.388526 -0.998106 1.264123 0.038175 -0.011167 -179162.000000 0 0 1
20.091003 -33.487294 12.532655 41.013592 -1.030407 1.260256 0.044401 -0.019022 782625.000000 0 0 1
18.864603 -33.651524 11.775755 40.335676 -1.059861 1.274538 0.042407 -0.011151 1045080.000000 0 0 1
17.739503 -34.208307 12.680255 40.567070 -1.092401 1.252894 0.046017 -0.013597 -215849.000000 0 0 1
17.446103 -33.345854 13.813055 40.088814 -1.088772 1.219025 0.046901 -0.011503 401691.000000 0 0 1
18.163403 -33.760964 14.970955 41.156305 -1.077213 1.198497 0.044165 -0.016126 -692811.000000 0 0 1
17.926403 -32.851154 16.240755 40.796034 -1.071272 1.161356 0.047420 -0.020121 315808.000000 0 0 1
16.578003 -32.585924 16.630955 40.165424 -1.100175 1.143885 0.052773 -0.031718 573104.000000 0 0 1
15.717503 -33.624054 17.057455 40.848179 -1.133528 1.140014 0.047013 -0.021843 -261455.000000 0 0 1
16.124203 -34.379369 18.335855 42.167933 -1.132248 1.120948 0.032568 -0.022084 -508400.000000 0 0 1
17.088703 33.918557 18.176455 42.105532 1.104101 1.124433 0.026836 -0.017369 -169783.000000 0 0 1
17.535403 33.495481 19.451755 42.518330 1.088514 1.095625 0.037335 -0.012641 621669.000000 0 0 1
18.347503 32.120011 19.447455 41.791500 1.051810 1.086772 0.034029 -0.006270 1072530.000000 0 0 1
17.494003 30.973191 19.126655 40.388212 1.056653 1.077456 0.027305 -0.005344 368814.000000 0 0 1
18.318203 29.875611 18.858655 39.796452 1.020764 1.077107 0.019148 -0.007316 -117721.000000 0 0 1
17.650403 28.496891 18.618155 38.343777 1.016249 1.063794 0.013444 0.008772 -21491.400000 0 0 1
17.207603 27.772281 19.771555 38.187899 1.016092 1.026584 0.013428 0.002132 41581.200000 0 0 1
16.617203 26.555071 19.395755 36.844247 1.011648 1.016405 0.007582 0.007771 -439224.000000 0 0 1
16.461803 25.556421 20.563555 36.701246 0.998555 0.976053 0.009110 0.007921 402329.000000 0 0 1
15.418603 25.880691 21.479555 36.998848 1.033503 0.951397 0.006282 0.008865 542289.000000 0 0 1
14.244703 25.096851 21.465155 35.965489 1.054549 0.931256 0.013864 0.012869 389804.000000 0 0 1
13.077603 25.618861 22.346655 36.424205 1.098810 0.910297 -0.000533 0.009134 -205431.000000 0 0 1
12.400803 26.636441 21.717355 36.536604 1.135080 0.934277 0.005075 0.000180 -467417.000000 0 0 1
11.100703 26.692321 22.270055 36.491930 1.176679 0.914391 -0.011171 0.003086 69430.600000 0 0 1
10.188003 27.752071 21.554755 36.586614 1.218963 0.940798 -0.014158 -0.007750 -200876.000000 0 0 1
10.617303 29.071191 21.617455 37.751499 1.220630 0.961092 -0.014234 -0.005384 -245934.000000 0 0 1
10.335103 29.897451 20.504855 37.697759 1.237971 0.995686 -0.004403 -0.007100 -163053.000000 0 0 1
10.969403 31.343721 20.498555 39.024959 1.234147 1.017767 0.013361 -0.016391 -89459.300000 0 0 1
10.451803 32.267521 21.468355 40.141293 1.257550 1.006502 0.001958 -0.017416 -139455.000000 0 0 1
11.001503 32.065331 22.821855 40.866314 1.240285 0.978278 -0.012831 -0.011632 -456905.000000 0 0 1
10.343003 32.963251 23.831055 41.969904 1.266751 0.966950 -0.028215 -0.020416 -827679.000000 0 0 1
9.050103 32.515291 24.096755 41.470497 1.299333 0.950769 -0.021221 -0.020503 -821001.000000 0 0 1
8.685203 33.326985 25.230355 42.692991 1.315861 0.938533 -0.025131 -0.015889 444795.000000 0 0 1
7.285403 33.042671 25.904775 42.613995 1.353784 0.917391 -0.011896 -0.019852 867586.000000 0 0 1
6.101103 33.570787 25.328275 42.494032 1.391020 0.932232 -0.011318 -0.016692 433312.000000 0 0 1
5.620603 33.027471 24.140155 41.293488 1.402232 0.946410 -0.012506 -0.018300 -292184.000000 0 0 1
4.679303 31.823991 24.255445 40.286336 1.424805 0.924697 -0.014954 -0.031851 -43015.600000 0 0 1
5.489903 30.777271 24.820945 39.918151 1.394278 0.899763 -0.028240 -0.020142 -37765.900000 0 0 1
5.009403 29.518351 24.604115 38.752931 1.402693 0.882921 -0.029489 -0.016081 -1096910.000000 0 0 1
5.999403 28.521811 25.290795 38.588999 1.363474 0.856099 -0.032909 -0.003780 278943.000000 0 0 1
7.269003 28.279051 24.743795 38.272686 1.319198 0.867791 -0.048712 -0.005032 -220319.000000 0 0 1
8.113603 29.418091 24.656405 39.232550 1.301684 0.891214 -0.040459 -0.001201 -1331120.000000 0 0 1
9.336603 28.979461 25.500875 39.714934 1.259117 0.873565 -0.037330 -0.004501 -714011.000000 0 0 1
8.991203 28.881581 26.838945 40.439046 1.268993 0.845057 -0.042961 0.004507 348688.000000 0 0 1
10.091703 29.057181 27.718995 41.406581 1.236524 0.837349 -0.019487 -0.000422 297281.000000 0 0 1
10.696603 30.489151 27.918565 42.701896 1.233380 0.858199 -0.011727 -0.019962 -29526.800000 0 0 1
9.844503 31.343881 28.635855 43.581709 1.266472 0.853883 -0.013698 -0.010453 187658.000000 0 0 1
10.401203 32.649831 28.771865 44.743901 1.262393 0.872343 -0.029913 0.002123 -92324.300000 0 0 1
9.598903 33.499138 29.776705 45.836485 1.291732 0.863700 -0.017574 -0.005727 -273720.000000 0 0 1
9.828103 33.266343 31.199535 46.654605 1.283531 0.838291 0.002357 -0.036092 144472.000000 0 0 1
9.467703 31.991021 31.743025 46.050868 1.283060 0.810269 -0.001935 -0.019335 -297361.000000 0 0 1
9.666203 31.908041 33.302005 47.123053 1.276645 0.785969 0.024282 -0.030078 -129057.000000 0 0 1
9.457303 30.589941 33.710634 46.492923 1.270954 0.759660 0.019812 -0.022823 126700.000000 0 0 1
9.562703 30.422991 -34.160187 46.732452 1.266250 2.390544 0.065164 -0.026118 -275756.000000 0 0 1
9.751403 28.924531 -33.971238 45.670158 1.245630 2.409592 0.044226 -0.018200 -170010.000000 0 0 1
10.973903 28.383971 -34.433664 45.953820 1.201875 2.417816 0.058204 -0.010562 27852.900000 0 0 1
11.075003 27.064141 -34.080633 44.906714 1.182373 2.432450 0.057789 -0.014148 512820.000000 0 0 1
12.357703 26.291801 -34.569379 45.155438 1.131418 2.442714 0.062183 -0.015591 425277.000000 0 0 1
12.305603 24.884751 -34.339038 44.157086 1.111555 2.461726 0.048110 -0.009678 -101134.000000 0 0 1
12.445103 24.456661 -32.984278 42.906543 1.100083 2.447676 0.053354 -0.008896 -260893.000000 0 0 1
12.530103 22.954091 -32.905628 42.031823 1.071124 2.470068 0.038908 -0.019037 756505.000000 0 0 1
13.758603 22.460591 -33.494428 42.610492 1.021188 2.475206 0.024464 -0.001178 783649.000000 0 0 1
13.809003 21.054091 -33.760148 42.115447 0.990297 2.500779 0.022362 -0.000592 -329956.000000 0 0 1
15.174603 20.586591 -34.301067 42.785973 0.935595 2.500913 0.041577 -0.002548 66337.300000 0 0 1
16.126003 20.741191 -33.232168 42.362979 0.909934 2.472625 0.022130 0.003791 -381722.000000 0 0 1
17.319203 20.099991 -33.575338 42.793314 0.859576 2.472836 0.029934 -0.000539 -547130.000000 0 0 1
18.454603 20.469891 -32.600458 42.689327 0.837126 2.439771 0.021825 0.006818 -73645.200000 0 0 1
19.012803 21.770191 -32.866978 43.768323 0.852907 2.420267 0.005694 0.008468 276701.000000 0 0 1
19.979603 22.257191 -31.921428 43.744081 0.839270 2.388725 0.004066 0.016697 353232.000000 0 0 1
19.468603 22.564591 -30.492558 42.637816 0.858921 2.367639 0.006830 0.009558 1360.980000 0 0 1
18.747903 23.777391 -30.455508 42.946317 0.903122 2.359092 -0.000333 0.027551 -202616.000000 0 0 1
18.278003 24.166491 -29.190768 42.073812 0.923252 2.337547 0.008464 0.022516 113363.000000 0 0 1
19.332603 24.637721 -28.118488 42.088196 0.905470 2.302428 0.012092 0.014066 519313.000000 0 0 1
20.154503 25.750901 -28.480438 43.364135 0.906711 2.287329 0.015440 0.013513 -338521.000000 0 0 1
19.500703 26.962991 -28.672578 43.924902 0.944643 2.282023 0.013763 0.014608 -742523.000000 0 0 1
20.295303 28.003171 -29.524918 45.473044 0.943652 2.277439 0.013658 0.013454 -488412.000000 0 0 1
20.313903 27.784931 -30.952398 46.289394 0.939493 2.303217 0.015989 0.013969 349494.000000 0 0 1
21.025203 26.603211 -31.433508 46.236949 0.901982 2.318334 0.013819 0.010779 304468.000000 0 0 1
22.493703 26.391541 -30.999308 46.512764 0.864964 2.300259 0.029370 0.001872 -942315.000000 0 0 1
23.369803 27.249781 -31.626048 47.842504 0.861898 2.293007 0.024926 0.006452 624160.000000 0 0 1
24.716903 26.769661 -31.336208 48.057237 0.825247 2.281095 0.024230 -0.003939 1065760.000000 0 0 1
25.841703 27.785501 -31.649078 49.411454 0.821629 2.265973 0.016021 0.007668 -162989.000000 0 0 1
26.024403 28.869121 -30.801258 49.592471 0.837174 2.240926 0.014088 0.010584 52589.400000 0 0 1
27.088003 29.701441 -31.213868 50.894411 0.831385 2.231036 0.009011 0.001831 186118.000000 0 0 1
27.202303 30.989951 -30.322198 51.183767 0.850395 2.204854 -0.000698 0.013383 227114.000000 0 0 1
27.691703 30.795171 -28.996018 50.556325 0.838411 2.181616 0.006461 0.008393 680406.000000 0 0 1
26.714803 31.473741 -28.195018 49.992361 0.867001 2.170002 0.011483 0.007436 384663.000000 0 0 1
27.116203 31.317281 -26.693988 49.281128 0.857170 2.143216 0.022765 0.008117 -21090.900000 0 0 1
27.022803 29.976131 -26.206448 48.120456 0.837166 2.146710 0.012682 0.014605 149755.000000 0 0 1
25.725403 29.566491 -25.819618 46.932147 0.854756 2.153338 0.023262 0.010279 -72569.100000 0 0 1
25.215503 29.741661 -24.405728 46.000300 0.867571 2.130053 0.027808 0.010469 -234328.000000 0 0 1
25.050003 31.083161 -24.077228 46.619507 0.892467 2.113511 0.041034 0.013942 64555.800000 0 0 1
24.952103 31.255831 -22.684828 45.979733 0.897082 2.086751 0.042549 0.022637 -8553.920000 0 0 1
3.082103 -26.299824 -20.209628 33.310797 -1.454137 2.222698 0.004751 0.009455 -30022.900000 0 0 1
2.711203 -27.316664 -19.340528 33.579857 -1.471869 2.184570 0.002498 0.016019 86496.600000 0 0 1
2.914803 -26.890524 -18.005928 32.493227 -1.462823 2.158131 0.012088 0.008412 -21816.200000 0 0 1
2.709003 -27.948244 -16.896028 32.770700 -1.474169 2.112485 0.007084 -0.003988 353070.000000 0 0 1
3.788103 -28.872394 -16.735828 33.586497 -1.440340 2.092422 0.007734 -0.000182 187803.000000 0 0 1
3.685103 -29.665854 -15.501828 33.674167 -1.447209 2.049183 0.005001 -0.003326 10944.500000 0 0 1
4.994803 -30.313454 -15.020828 34.197644 -1.407492 2.025544 0.017038 0.005251 -105616.000000 0 0 1
5.970803 -29.494094 -14.431928 33.374131 -1.371055 2.017981 0.002785 0.013718 252434.000000 0 0 1
7.267903 -30.101634 -14.379828 34.142499 -1.333885 2.005532 0.012128 0.017034 775769.000000 0 0 1
7.613003 -30.907794 -13.128528 34.432656 -1.329290 1.961978 0.017572 0.009036 -846990.000000 0 0 1
7.866403 -30.091594 -11.939128 33.315569 -1.315103 1.937312 0.021922 0.007077 -84090.600000 0 0 1
8.160803 -30.941194 -10.807128 33.774994 -1.312917 1.896499 0.031326 0.006410 336660.000000 0 0 1
9.452103 -31.818474 -10.790928 34.902746 -1.282036 1.885118 0.029682 0.004513 546805.000000 0 0 1
10.650603 -31.284884 -10.249628 34.601072 -1.242664 1.871532 0.023247 -0.000521 27366.800000 0 0 1
11.578803 -32.253824 -9.887828 35.667170 -1.226135 1.851701 0.033552 -0.004055 -13654.200000 0 0 1
12.734303 -31.702854 -9.001628 35.330762 -1.188845 1.828418 0.039791 -0.004522 670089.000000 0 0 1
13.697003 -30.964614 -9.793228 35.246596 -1.154328 1.852350 0.036407 -0.022764 680557.000000 0 0 1
14.877403 -30.731174 -9.047528 35.321381 -1.119938 1.829832 0.028046 -0.011352 443474.000000 0 0 1
15.967503 -29.869934 -9.797128 35.258444 -1.079878 1.852368 0.048189 -0.031077 415988.000000 0 0 1
15.728303 -28.480874 -9.963228 34.026543 -1.066234 1.867958 0.040244 -0.023948 -402542.000000 0 0 1
14.984403 -28.242924 -11.093228 33.841614 -1.083005 1.904769 0.033110 -0.016142 -632091.000000 0 0 1
14.640703 -26.774154 -11.270028 32.530279 -1.070396 1.924578 0.025038 -0.005182 -1381010.000000 0 0 1
13.668703 -26.406354 -10.326228 31.476340 -1.093145 1.905049 0.020839 -0.004125 -104612.000000 0 0 1
13.371703 -25.021064 -10.393728 30.213998 -1.079995 1.921974 -0.005207 0.008013 -143885.000000 0 0 1
12.677503 -24.543464 -11.650128 29.980430 -1.094010 1.969898 -0.003191 0.009873 -675765.000000 0 0 1
13.515703 -24.219564 -12.757528 30.528938 -1.061794 2.001910 0.001097 0.006956 240127.000000 0 0 1
12.731803 -24.103164 -13.948028 30.620399 -1.084827 2.043746 0.003538 0.007232 570827.000000 0 0 1
13.586403 -23.441564 -15.106128 31.020838 -1.045522 2.079410 0.003500 0.002601 403410.000000 0 0 1
14.475803 -24.318364 -15.760728 32.393398 -1.033868 2.078923 0.002020 -0.002847 128914.000000 0 0 1
15.077203 -23.687664 -16.906028 32.775620 -1.003970 2.112750 -0.001570 -0.004418 -1153720.000000 0 0 1
15.919403 -24.691464 -17.732828 34.315434 -0.998133 2.113858 -0.002668 -0.004471 606766.000000 0 0 1
17.228003 -24.985864 -17.246828 34.907744 -0.967145 2.087560 0.022482 -0.004229 293217.000000 0 0 1
18.130203 -23.882564 -17.201828 34.568541 -0.921471 2.091643 0.019470 -0.007516 -805794.000000 0 0 1
19.508103 -24.406764 -16.728128 35.441311 -0.896488 2.062349 0.020429 -0.002361 152769.000000 0 0 1
20.056303 -25.377404 -17.615228 36.831565 -0.901985 2.069474 0.033919 -0.003004 -481514.000000 0 0 1
21.288503 -25.826074 -17.101928 37.585402 -0.881411 2.043186 0.043740 0.003014 -84761.000000 0 0 1
21.883703 -26.911524 -17.989328 39.073553 -0.888075 2.049238 0.045176 0.000184 -559658.000000 0 0 1
22.639003 -26.329124 -18.998828 39.581596 -0.860614 2.071441 0.054107 -0.006488 -498224.000000 0 0 1
23.067703 -27.155884 -20.040428 40.880065 -0.866619 2.083144 0.048193 -0.006878 -261351.000000 0 0 1
24.210003 -26.471894 -20.812028 41.473195 -0.829998 2.096497 0.044763 -0.010955 -204873.000000 0 0 1
23.872303 -25.390394 -21.632728 41.018702 -0.816205 2.126318 0.054150 -0.012169 -324160.000000 0 0 1
23.853203 -24.177564 -20.919228 39.889147 -0.792151 2.122847 0.058501 -0.006896 -203251.000000 0 0 1
23.276803 -22.919264 -21.592728 39.157989 -0.777659 2.154869 0.074908 -0.015290 -346683.000000 0 0 1
23.899303 -22.411264 -22.757528 39.891685 -0.753277 2.177890 0.051478 -0.008081 49804.000000 0 0 1
23.483203 -23.052864 -23.987128 40.721956 -0.776151 2.200675 0.040109 -0.010539 -273545.000000 0 0 1
22.454903 -22.290464 -24.822928 40.215236 -0.781723 2.236041 0.035821 -0.005690 -4111.430000 0 0 1
23.064203 -21.215264 -25.483818 40.391458 -0.743666 2.253536 0.019017 0.000595 -436297.000000 0 0 1
22.204503 -20.553464 -26.323768 40.105182 -0.746804 2.286791 0.013741 0.002512 -73115.700000 0 0 1
22.946203 -20.148464 -27.671318 41.209109 -0.720568 2.307008 0.007202 0.001736 678394.000000 0 0 1
22.080003 -19.349064 -28.474748 40.898950 -0.719575 2.340917 0.006610 0.001713 668990.000000 0 0 1
22.770603 -18.832564 -29.642088 41.854739 -0.691022 2.357761 0.016461 -0.007115 250532.000000 0 0 1
21.884003 -17.890264 -30.468038 41.560468 -0.685323 2.393667 0.042078 -0.011647 -547960.000000 0 0 1
20.631103 -18.382864 -30.827748 41.399543 -0.727835 2.410791 0.032299 -0.016120 -265262.000000 0 0 1
19.864103 -17.370264 -31.433478 41.041104 -0.718521 2.443240 0.041697 -0.021217 -280714.000000 0 0 1
18.570003 -17.772164 -32.127818 41.144763 -0.763448 2.466819 0.029017 -0.013164 -411215.000000 0 0 1
18.729603 -18.504964 -33.328628 42.473865 -0.779365 2.472985 0.027179 -0.011389 396074.000000 0 0 1
17.509403 -19.036764 -33.840358 42.592809 -0.827166 2.488994 0.026000 -0.010870 156173.000000 0 0 1
17.701803 -19.825664 34.123787 43.253250 -0.841933 0.661731 0.039437 0.000174 -313040.000000 0 0 1
18.447503 -20.965864 34.399937 44.308391 -0.849208 0.681902 0.035656 0.004764 -134321.000000 0 0 1
18.569203 -21.879464 33.338052 43.988089 -0.867055 0.710726 0.023132 0.000697 -416343.000000 0 0 1
19.538603 -22.977064 33.693068 45.220851 -0.866098 0.730144 0.010298 0.000205 -370734.000000 0 0 1
19.041303 -23.972864 34.610933 46.208074 -0.899549 0.724209 0.017151 0.000734 155677.000000 0 0 1
19.109603 -23.697264 -33.292128 45.112116 -0.892162 2.400878 0.018641 0.003157 -61885.100000 0 0 1
18.234803 -24.742564 -32.514718 44.742702 -0.935679 2.384309 0.015935 -0.004611 -105578.000000 0 0 1
18.594203 -26.086494 -32.461588 45.607064 -0.951538 2.362806 0.011477 -0.006142 437532.000000 0 0 1
19.709303 -26.408934 -31.601358 45.656700 -0.929660 2.335262 0.001144 -0.006002 612883.000000 0 0 1
19.963803 -27.929474 -31.565508 46.636791 -0.950211 2.314254 0.004615 -0.010953 -839387.000000 0 0 1
18.865603 -28.623484 -31.125008 46.303142 -0.988054 2.307974 0.001188 -0.011960 -666668.000000 0 0 1
19.184403 -29.961534 -31.139548 47.280084 -1.001270 2.289778 -0.001375 -0.010136 -11600.200000 0 0 1
17.954303 -30.826034 -30.800018 47.130059 -1.043389 2.283010 0.003824 -0.009532 873346.000000 0 0 1
16.832303 -30.724964 -31.699178 47.246034 -1.069615 2.306270 0.000911 -0.016534 483919.000000 0 0 1
16.931003 -31.600314 -32.871888 48.639487 -1.078931 2.312883 0.010648 -0.010173 -333120.000000 0 0 1
15.567203 -32.210034 -33.279658 48.860615 -1.120595 2.320080 0.030874 -0.015902 505044.000000 0 0 1
14.704703 -31.240074 -33.886528 48.378376 -1.130862 2.346821 0.026232 -0.014245 198347.000000 0 0 1
13.429103 -31.778724 -34.223539 48.595048 -1.170976 2.352176 0.020522 -0.015968 158768.000000 0 0 1
12.543603 -30.764114 34.358545 47.794166 -1.183640 0.768598 0.017868 -0.001007 -475454.000000 0 0 1
12.094803 -29.824404 -34.012898 46.825811 -1.185529 2.383823 0.013280 -0.006232 -211085.000000 0 0 1
11.087303 -29.023234 -34.598510 46.500896 -1.205890 2.409893 0.001748 0.002951 211849.000000 0 0 1
10.304203 -28.137954 -33.592628 45.015394 -1.219760 2.413203 0.001104 0.003589 164364.000000 0 0 1
9.404803 -28.890644 -32.801508 44.710833 -1.256084 2.394455 -0.004394 0.003771 -543693.000000 0 0 1
8.619903 -28.022834 -32.028138 43.421004 -1.272379 2.400333 -0.001570 -0.003516 -564959.000000 0 0 1
7.738303 -28.807324 -31.051178 43.057159 -1.308369 2.376274 -0.013569 0.000948 369700.000000 0 0 1
6.582203 -29.423714 -31.661288 43.720905 -1.350716 2.380624 -0.018750 0.008961 327355.000000 0 0 1
6.852603 -30.469474 -32.562558 45.118369 -1.349576 2.377072 -0.005487 0.010184 -652469.000000 0 0 1
5.631803 -30.948164 -33.406558 45.885773 -1.390791 2.386251 0.003914 0.004976 351117.000000 0 0 1
4.683103 -31.589054 -32.577438 45.618957 -1.423617 2.366163 0.004620 0.001580 -87340.800000 0 0 1
3.556203 -31.991174 -33.334188 46.338428 -1.460089 2.373682 0.009975 0.003528 -768935.000000 0 0 1
2.419403 -32.441894 -32.457448 45.954498 -1.496358 2.355048 0.002330 0.010769 -651213.000000 0 0 1
1.727803 -31.326094 -31.840708 44.700561 -1.515697 2.363582 -0.010252 0.014941 41096.400000 0 0 1
0.719203 -31.890064 -31.045968 44.512308 -1.548248 2.342656 -0.019654 0.016667 -599323.000000 0 0 1
-0.464097 -31.019964 -30.691468 43.639658 1.555836 2.350815 -0.014319 0.009622 -739122.000000 0 0 1
-1.257397 -31.379654 -29.603988 43.158543 1.530747 2.326685 -0.021183 0.015100 -30039.600000 0 0 1
-1.970197 -30.186954 -29.269828 42.093428 1.505622 2.339708 -0.011815 0.013515 -248584.000000 0 0 1
-2.620797 -30.177214 -27.892938 41.177042 1.484167 2.315006 -0.000902 0.008743 -456500.000000 0 0 1
-1.690997 -30.154224 -26.816298 40.388743 1.514777 2.296891 -0.007685 0.017541 -87771.300000 0 0 1
-2.254997 -30.170964 -25.529588 39.587017 1.496194 2.271686 -0.003553 0.011317 55699.200000 0 0 1
-1.259397 -30.613124 -24.444528 39.195464 1.529680 2.244209 -0.012304 0.014193 306625.000000 0 0 1
-1.949797 -30.609704 -23.227328 38.474205 1.507184 2.218945 0.007856 0.006022 -71544.600000 0 0 1
-1.031597 -31.003664 -22.253128 38.177128 1.537535 2.193079 0.003770 0.012344 431216.000000 0 0 1
-1.635697 -30.897594 -20.768828 37.265011 1.517906 2.161960 -0.012428 0.023035 228369.000000 0 0 1
-1.877497 -29.610274 -20.199528 35.893095 1.507474 2.168528 -0.008483 0.014508 -455932.000000 0 0 1
-0.719797 -28.887804 -19.916928 35.095688 1.545885 2.174267 0.000031 0.011046 -336416.000000 0 0 1
-1.044597 -27.480814 -19.395628 33.652291 1.532803 2.185056 0.010308 0.002500 -71217.900000 0 0 1
-1.661797 -27.439444 -18.133628 32.931947 1.510308 2.153926 -0.004062 0.007714 -86105.700000 0 0 1
-1.233597 -26.328924 -17.345528 31.553151 1.523977 2.152830 0.005381 0.001921 490370.000000 0 0 1
-2.076397 -26.233864 -16.006828 30.801714 1.491812 2.117265 -0.005500 0.004968 368997.000000 0 0 1
-1.883797 -24.984364 -15.375928 29.397046 1.495540 2.121214 -0.003230 0.004588 -85779.700000 0 0 1
-2.879597 -24.856164 -14.407728 28.873926 1.455460 2.093226 -0.009085 0.011033 -232886.000000 0 0 1
-2.690397 -23.572964 -13.586828 27.340899 1.457157 2.090867 -0.002259 0.010376 569032.000000 0 0 1
-1.530597 -23.492364 -12.726728 26.761979 1.505735 2.066388 0.010071 -0.003253 347262.000000 0 0 1
-1.455497 -22.349064 -11.901928 25.362473 1.505763 2.059264 0.010449 0.002952 -486216.000000 0 0 1
-0.195297 -22.400464 -11.071828 24.988083 1.562078 2.029833 0.001029 0.000224 -445723.000000 0 1 0
0.017403 -21.212764 -10.337528 23.597588 -1.569976 2.024253 -0.000050 -0.004270 18213.600000 0 1 0
1.240003 -21.411064 -9.623428 23.507055 -1.512947 1.992576 0.000093 -0.007498 643418.000000 0 1 0
1.932103 -20.032364 -9.358428 22.194792 -1.474645 2.006060 0.005573 -0.002627 -1588420.000000 0 1 0
2.384403 -19.437164 -10.555228 22.246383 -1.448734 2.065157 0.003138 0.013332 136766.000000 0 1 0
3.268603 -18.334864 -10.312628 21.288525 -1.394377 2.076499 0.006005 0.007884 530990.000000 0 1 0
4.633103 -18.680564 -9.675328 21.541613 -1.327685 2.036606 0.009052 -0.006995 -1043390.000000 0 1 0
4.505603 -19.025664 -8.300728 21.240961 -1.338263 1.972285 0.007252 -0.015722 -580318.000000 0 1 0
5.525003 -19.884264 -7.871028 22.087614 -1.299775 1.935160 0.013266 -0.013037 -675113.000000 0 1 0
4.987303 -21.018964 -6.982828 22.703082 -1.337828 1.883436 0.023822 -0.009486 352523.000000 0 1 0
4.117303 -21.930464 -7.707628 23.607308 -1.385213 1.903387 0.003564 -0.012222 366447.000000 0 1 0
3.852203 -23.130364 -6.996328 24.470427 -1.405768 1.860752 0.010409 -0.009355 -256863.000000 0 1 0
2.949403 -24.104064 -7.728328 25.483955 -1.449040 1.878911 0.007871 -0.009938 -306051.000000 0 0 1
3.561903 -24.752664 -8.796628 26.509662 -1.427878 1.909036 0.008250 -0.008063 105195.000000 0 0 1
2.604403 -25.448884 -9.569628 27.313118 -1.468813 1.928760 -0.007628 -0.003399 600709.000000 0 0 1
3.398703 -26.339604 -10.561828 28.581080 -1.442471 1.949309 -0.012403 0.000242 181289.000000 0 0 1
4.102703 -27.431424 -10.031228 29.494758 -1.422335 1.917822 0.003260 0.005570 -102665.000000 0 0 1
4.767003 -28.066344 -11.105628 30.557797 -1.402554 1.942744 0.017671 0.011347 112662.000000 0 0 1
4.857903 -29.551224 -10.959728 31.890276 -1.407864 1.921618 0.014744 0.011268 -173653.000000 0 0 1
3.595103 -30.176474 -11.151128 32.371160 -1.452219 1.922478 0.002110 0.011508 186103.000000 0 0 1
3.603503 -31.554274 -11.115728 33.648430 -1.457089 1.907470 0.016668 0.012479 464256.000000 0 0 1
2.223903 -32.177514 -11.506928 34.245402 -1.501792 1.913478 0.014981 0.004293 493367.000000 0 0 1
1.897403 -32.136594 -12.884328 34.675160 -1.511823 1.951498 0.013058 -0.001102 336368.000000 0 0 1
1.206603 -33.252854 -13.438028 35.885774 -1.534527 1.954618 0.006179 0.000211 -214776.000000 0 0 1
0.874503 -33.050734 -14.931028 36.277422 -1.544343 1.994982 0.000076 0.002414 32143.000000 0 0 1
-0.162997 -32.098544 -15.107228 35.476350 1.565718 2.010686 -0.000897 0.000589 -20155.700000 0 0 1
-0.541997 -32.091144 -16.435028 36.058916 1.553909 2.044048 -0.015317 0.004782 -40178.800000 0 0 1
-1.743897 -31.182964 -16.829828 35.477620 1.514930 2.065054 -0.015418 0.016686 716834.000000 0 0 1
-2.955597 -31.768364 -16.352128 35.851870 1.478028 2.044407 -0.019914 0.011541 135748.000000 0 0 1
-4.102797 -31.278854 -17.044428 35.856829 1.440373 2.066154 -0.008980 0.022035 523329.000000 0 0 1
-5.412597 -31.631094 -16.316828 36.000850 1.401321 2.041187 -0.013984 0.016815 -192467.000000 0 0 1
-5.515097 -30.799054 -15.175028 34.774696 1.393607 2.022369 -0.023076 0.016949 344096.000000 0 0 1
-6.808097 -30.715234 -14.559428 34.666305 1.352671 2.004228 -0.016933 0.019777 886722.000000 0 0 1
-7.331297 -31.942264 -13.701828 35.521771 1.345187 1.966796 -0.011099 0.003330 217985.000000 0 0 1
-7.671297 -33.077974 -14.468628 36.909922 1.342909 1.973599 -0.003108 0.003480 -257133.000000 0 0 1
-8.339797 -33.975034 -13.606328 37.536480 1.330087 1.941727 0.003801 -0.002125 101230.000000 0 0 1
-8.805897 34.053307 -14.263128 37.955347 -1.317748 1.956042 0.020816 -0.003189 -339119.000000 0 0 1
-7.726897 33.181741 -14.466928 37.013847 -1.342008 1.972353 -0.001050 -0.006971 -285016.000000 0 0 1
-8.112097 31.929901 -15.012728 36.203683 -1.322001 1.998381 0.013920 -0.023779 -291911.000000 0 0 1
-7.569197 -22.121264 -3.579328 23.652794 1.241115 1.722708 0.024729 0.008396 113971.000000 0 1 0
-6.926597 -20.984864 -4.151228 22.484994 1.251980 1.756484 0.001431 0.001216 -117141.000000 0 1 0
-5.837097 -21.295164 -4.967628 22.632566 1.303263 1.792088 -0.000386 0.007323 -66886.100000 0 1 0
-5.791997 -20.283664 -6.107628 21.960815 1.292649 1.852627 -0.008689 0.011593 202551.000000 0 1 0
-6.760097 -20.565664 -7.119928 22.789007 1.253214 1.888544 -0.012198 0.009818 61097.000000 0 1 0
-6.955397 -19.443664 -7.885928 22.104784 1.227260 1.935585 -0.008386 0.009489 476790.000000 0 1 0
-8.005397 -19.730964 -9.014128 23.122539 1.185362 1.971256 -0.000711 0.000750 275841.000000 0 1 0
-7.354197 -20.247264 -10.083928 23.784901 1.222394 2.008613 0.001741 -0.001822 -309955.000000 0 1 0
-8.230197 -20.636564 -11.157928 24.861683 1.191311 2.036219 0.009111 0.009278 367395.000000 0 1 0
-7.525597 -21.312864 -12.355528 25.759112 1.231361 2.071060 0.000062 0.004944 4719.710000 0 0 1
-6.589297 -20.565964 -13.110328 25.263777 1.260732 2.116404 0.012407 0.002300 -241115.000000 0 0 1
-6.358497 -21.322664 -14.287828 26.442929 1.280988 2.141622 0.006217 -0.001238 -74347.700000 0 0 1
-5.322997 -20.749264 -15.274628 26.309324 1.319673 2.190235 0.008573 0.006363 368542.000000 0 0 1
-3.956497 -20.939764 -14.863628 25.981821 1.384051 2.179833 0.003118 0.013886 1069700.000000 0 0 1
-2.952997 -20.236464 -15.614228 25.730114 1.425895 2.222883 0.008839 0.019602 531020.000000 0 0 1
-3.084797 -18.662964 -15.622728 24.533484 1.406988 2.261127 0.015879 0.015803 -693813.000000 0 1 0
-4.141797 -18.002264 -16.321628 24.650183 1.344661 2.294454 0.017199 0.011529 -74251.800000 0 1 0
-4.156097 -18.209964 -17.739928 25.760065 1.346408 2.330436 0.024321 0.004589 -608840.000000 0 0 1
-5.544697 -17.961964 -18.364028 26.279523 1.271385 2.344509 0.029172 0.005765 -235132.000000 0 0 1
-6.411597 -18.939364 -17.921828 26.851443 1.244374 2.301567 0.021310 0.007686 -785964.000000 0 0 1
-7.605297 -19.064564 -18.665028 27.743133 1.191219 2.308756 0.017511 0.007576 454950.000000 0 0 1
-8.601597 -20.055764 -17.993428 28.283999 1.165640 2.260320 0.018969 0.001351 173554.000000 0 0 1
-8.016897 -21.335264 -18.095228 29.101570 1.211361 2.241830 0.016507 0.003891 47347.300000 0 0 1
-8.944297 -22.339364 -17.840928 29.955740 1.189960 2.208779 0.024972 0.001838 -326357.000000 0 0 1
-8.484697 -23.806464 -18.161328 31.121884 1.228429 2.193896 0.022213 0.001431 -713147.000000 0 0 1
-8.479497 -24.173464 -19.540428 32.219351 1.233429 2.222424 0.009576 -0.003169 716164.000000 0 0 1
-7.405497 -25.026464 -19.990628 32.875378 1.283099 2.224427 0.005877 -0.009304 904255.000000 0 0 1
-5.952797 -24.480264 -19.926328 32.121296 1.332259 2.239980 -0.002725 0.003069 -586738.000000 0 0 1
-5.721097 -23.361864 -20.724428 31.749166 1.330632 2.282012 0.008914 -0.003609 6695.230000 0 0 1
-5.396597 -22.124164 -20.102028 30.375869 1.331545 2.293982 0.016253 -0.005556 182346.000000 0 0 1
-4.303897 -22.066964 -18.991228 29.430276 1.378176 2.272206 0.022743 0.004068 621948.000000 0 0 1
-2.982197 -22.395964 -19.414528 29.789203 1.438417 2.280660 0.018844 -0.000603 72014.300000 0 0 1
-2.073297 -22.463264 -18.355628 29.083086 1.478760 2.253824 0.009221 0.004048 1100720.000000 0 0 1
-0.656997 -23.005864 -18.845328 29.746392 1.542246 2.256908 0.019404 0.005193 1048210.000000 0 0 1
0.045403 -22.128964 -19.683828 29.616654 -1.568745 2.297782 0.022084 0.000846 333152.000000 0 0 1
1.386903 -22.639064 -19.823428 30.123396 -1.509611 2.289054 0.013009 0.000389 843795.000000 0 0 1
2.199903 -21.933364 -20.911428 30.384204 -1.470831 2.329848 0.021735 0.003044 -73555.200000 0 0 1
1.885903 -22.149264 -22.277928 31.471457 -1.485856 2.357285 0.020596 -0.003933 -403784.000000 0 0 1
1.052803 -21.106864 -22.748328 31.049872 -1.520958 2.392987 0.015802 0.003419 -312338.000000 0 0 1
0.491503 -21.398964 -24.153928 32.273355 -1.547832 2.416468 0.016639 -0.001645 67078.600000 0 0 1
-0.166797 -20.386664 -24.898928 32.180747 1.562615 2.455490 0.020074 0.003734 -326756.000000 0 0 1
-1.473397 -20.054064 -24.510328 31.703195 1.497457 2.454540 0.030953 -0.003325 -112306.000000 0 0 1
-2.086097 -18.900164 -25.353178 31.691507 1.460867 2.498090 0.026481 -0.005355 634392.000000 0 0 1
-1.337997 -17.700764 -25.069148 30.717576 1.495350 2.525456 0.043322 -0.005128 407540.000000 0 0 1
-2.032397 -16.626564 -25.616178 30.606565 1.449162 2.562483 0.030594 -0.005661 76930.200000 0 0 1
-1.328797 -15.285164 -25.264968 29.558764 1.484081 2.595840 0.037465 -0.004348 312746.000000 0 0 1
-0.023997 -15.187664 -25.815408 29.951644 1.569216 2.609807 0.047614 -0.014737 -384369.000000 0 0 1
0.648403 -14.000864 -25.499398 29.097490 -1.524518 2.639014 0.039583 -0.015479 48424.300000 0 0 1
0.147603 -12.657664 -26.063268 28.974682 -1.559136 2.689463 0.029914 -0.003296 -301764.000000 0 0 1
0.816103 -11.540764 -25.517278 28.017615 -1.500199 2.715913 0.018731 -0.005622 -207269.000000 0 0 1
0.507803 -10.368364 -26.230658 28.210073 -1.521859 2.764755 0.011066 -0.001292 -371433.000000 0 0 1
1.450603 -9.164664 -25.977448 27.584835 -1.413816 2.798531 0.018585 -0.004988 292145.000000 0 0 1
2.724103 -9.085364 -26.581358 28.222919 -1.279492 2.798848 0.025840 -0.006163 -267026.000000 0 0 1
2.813103 -9.198664 -27.994118 29.600669 -1.274012 2.810617 0.015692 0.001996 307033.000000 0 0 1
4.278603 -8.987264 -28.532198 30.218598 -1.126472 2.805933 0.015186 0.012593 360200.000000 0 0 1
4.624103 -7.621064 -28.605828 29.962582 -1.025426 2.839508 0.005136 0.007113 361327.000000 0 0 1
5.897003 -7.348264 -29.188468 30.671457 -0.894531 2.829357 0.005956 0.011851 515813.000000 0 0 1
7.096203 -7.483864 -28.166328 29.995105 -0.811980 2.790597 0.013573 -0.001776 12935.200000 0 0 1
7.545303 -8.761464 -27.721718 30.036453 -0.859840 2.746435 0.008263 -0.005515 205109.000000 0 0 1
8.127603 -9.522464 -28.757788 31.364719 -0.864263 2.730997 0.006446 -0.006779 -604519.000000 0 0 1
8.665103 -10.860264 -28.202248 31.438768 -0.897354 2.683852 0.017551 -0.014561 -296169.000000 0 0 1
7.664503 -11.795964 -27.853318 31.204113 -0.994592 2.673913 0.014782 -0.006255 -212987.000000 0 0 1
8.034003 -13.007764 -27.112328 31.125961 -1.017513 2.628136 0.015243 -0.001432 184168.000000 0 0 1
8.963903 -14.083664 -27.774528 32.405641 -1.003988 2.600389 0.013311 -0.008948 -73897.100000 0 0 1
8.311003 -14.686664 -28.906558 33.471779 -1.055837 2.613183 0.023029 -0.014156 361062.000000 0 0 1
9.171303 -15.527064 -29.724598 34.767143 -1.037269 2.596275 0.011566 -0.014535 601134.000000 0 0 1
8.339803 -16.246864 -30.841828 35.843148 -1.096551 2.606981 0.014981 -0.011076 301307.000000 0 0 1
7.750303 -15.287564 -31.728658 36.062232 -1.101590 2.646302 0.007316 -0.004902 162400.000000 0 0 1
7.198303 -15.879964 -32.889018 37.224674 -1.145206 2.654137 0.011006 -0.002216 -446954.000000 0 0 1
6.125203 -15.063664 -33.609428 37.336654 -1.184595 2.690962 0.016796 0.005194 -211300.000000 0 0 1
6.621103 -13.861264 -34.129202 37.426943 -1.125172 2.718658 0.017811 0.009214 291558.000000 0 0 1
5.726103 -13.283364 34.161441 37.097710 -1.163793 0.400540 -0.016213 0.012469 383670.000000 0 0 1
6.341103 -12.102664 33.295104 35.989554 -1.088178 0.389412 0.004531 0.015245 192738.000000 0 0 1
7.031303 -12.409764 32.088765 35.115955 -1.055302 0.418266 -0.003457 0.009379 135621.000000 0 0 1
7.108303 -11.267064 31.314975 34.030903 -1.007971 0.402225 -0.000202 0.015213 -121725.000000 0 0 1
7.428503 -11.536664 29.817925 32.823558 -0.998719 0.431282 -0.013623 0.017449 -240130.000000 0 0 1
6.377503 -12.111964 29.085445 32.145534 -1.086138 0.439874 -0.006275 0.015619 -303045.000000 0 0 1
6.730603 -12.369664 27.731195 31.101910 -1.072477 0.469878 -0.003048 0.012162 -250411.000000 0 0 1
5.845303 -13.243564 26.828575 30.484947 -1.155143 0.494808 -0.000633 -0.004879 -541015.000000 0 0 1
5.861503 -14.627164 27.110985 31.357880 -1.189663 0.526508 0.000142 0.000475 -110934.000000 0 0 1
5.212603 -15.286464 26.037335 30.639681 -1.242166 0.555207 -0.019057 0.001217 -810270.000000 0 0 1
3.712403 -15.423964 25.999515 30.457436 -1.334598 0.547873 -0.011471 -0.007146 -1521240.000000 0 0 1
2.973603 -14.257564 26.034855 29.831764 -1.365181 0.510045 -0.015161 -0.008094 -744777.000000 0 0 1
1.726703 -14.561164 25.456425 29.377518 -1.452765 0.522594 -0.016552 -0.001306 -82688.500000 0 0 1
0.900903 -13.314664 24.974365 28.316264 -1.503237 0.490750 -0.029213 0.000967 -456842.000000 0 0 1
1.468503 -12.650864 23.894555 27.076754 -1.455234 0.489698 -0.039443 0.011918 -356458.000000 0 0 1
0.779103 -11.520664 23.378855 26.074960 -1.503273 0.458761 -0.031341 0.017336 1299320.000000 0 0 1
-0.624397 -11.849064 22.693155 25.607996 1.518149 0.481774 -0.018457 0.010061 951067.000000 0 0 1
-0.478297 -12.673064 21.566355 25.018853 1.533073 0.531586 -0.013645 0.004997 -264165.000000 0 0 1
-1.746797 -12.973564 21.015155 24.758865 1.436958 0.557098 -0.006251 -0.008373 157437.000000 0 1 0
-1.819597 -13.899064 19.779455 24.242973 1.440622 0.616540 0.006940 -0.008319 -318235.000000 0 1 0
-1.782197 -15.262264 20.021755 25.238534 1.454551 0.654584 0.001829 -0.011539 -109036.000000 0 0 1
-1.768097 -15.936364 18.748255 24.669636 1.460301 0.707525 0.007180 -0.004779 -172102.000000 0 1 0
-2.394697 -17.338064 18.861155 25.731036 1.433547 0.748057 0.007435 -0.003900 15890.400000 0 0 1
-2.098497 -18.183964 17.785455 25.522199 1.455901 0.799783 0.000024 -0.007677 -342048.000000 0 0 1
-3.042297 -19.201964 17.735455 26.315725 1.413666 0.831255 0.003321 -0.007621 -430436.000000 0 0 1
-2.561997 -20.297664 16.769455 26.453235 1.445239 0.884174 0.001532 -0.008808 -650691.000000 0 0 1
-1.383797 -20.950064 17.041255 27.041162 1.504840 0.888990 -0.009940 -0.008332 -1078650.000000 0 0 1
-1.504197 -21.933564 18.026655 28.430690 1.502324 0.884009 -0.007931 -0.006847 -873706.000000 0 0 1
-0.195597 -22.611364 18.377655 29.138467 1.562146 0.888340 -0.006461 -0.006229 -440069.000000 0 0 1
0.258203 -23.343964 17.226555 29.013127 -1.559736 0.935085 0.011101 -0.005428 -402914.000000 0 0 1
1.422603 -24.068664 17.523055 29.805735 -1.511759 0.942325 0.009062 0.014526 523355.000000 0 0 1
2.738803 -23.633664 16.786755 29.117800 -1.455425 0.956343 0.015430 -0.007402 556935.000000 0 0 1
3.111503 -22.286964 17.126855 28.279310 -1.432082 0.920236 0.015504 -0.010474 -1128050.000000 0 0 1
4.081203 -21.886664 16.276355 27.579014 -1.386444 0.939525 0.016109 -0.015412 -1045660.000000 0 0 1
4.807303 -20.617164 16.705555 26.967632 -1.341719 0.902733 0.019922 -0.011950 -1805.800000 0 0 1
5.710203 -20.837664 17.830355 28.013144 -1.303330 0.880845 0.013188 -0.003924 392350.000000 0 0 1
6.218903 -19.647764 18.374455 27.610324 -1.264254 0.842643 0.014455 -0.000276 499663.000000 0 0 1
7.374703 -18.935264 17.601655 26.883987 -1.199401 0.856976 0.013814 -0.003738 -433613.000000 0 0 1
6.895803 -18.205264 16.517755 25.530765 -1.208715 0.867186 0.010298 -0.006121 -84146.700000 0 0 1
7.937703 -17.632064 15.769355 24.951340 -1.147788 0.886659 0.017722 0.000525 -23709.900000 0 1 0
7.363803 -16.663864 14.683755 23.399201 -1.154697 0.892417 0.015489 0.001393 593005.000000 0 1 0
6.431703 -17.321264 13.794255 23.058067 -1.215257 0.929494 0.008725 0.000947 653616.000000 0 1 0
5.789103 -16.397164 12.904655 21.654349 -1.231402 0.932363 0.005338 -0.004126 7464.050000 0 1 0
6.294703 -16.464464 11.466055 21.027893 -1.205623 0.994075 0.011355 -0.004626 664118.000000 0 1 0
7.651403 -16.011064 11.337955 21.058190 -1.124999 1.002246 0.008985 0.001309 585875.000000 0 1 0
8.168703 -16.513264 10.098755 21.009533 -1.111418 1.069372 0.007944 0.007760 -478357.000000 0 1 0
9.609803 -16.100564 9.901455 21.204134 -1.032688 1.084948 0.003344 0.009552 -324180.000000 0 1 0
10.326203 -16.744164 8.851055 21.571710 -1.018184 1.148004 0.010804 0.012718 173319.000000 0 1 0
11.658903 -16.256764 8.762555 21.840210 -0.948638 1.157957 0.014997 0.015498 85007.200000 0 1 0
12.574903 -17.147864 7.960055 22.705504 -0.938055 1.212608 0.013787 0.008812 -390736.000000 0 1 0
12.948403 -18.359264 8.633555 24.067862 -0.956536 1.203903 0.014318 0.008577 150254.000000 0 1 0
13.574003 -19.279164 7.751955 24.820003 -0.957340 1.253155 0.013420 0.009999 -73850.400000 0 1 0
13.926103 -20.612364 8.472055 26.278920 -0.976622 1.242543 0.015647 0.005928 -367768.000000 0 0 1
12.857803 -21.379364 8.991155 26.518695 -1.029339 1.224890 0.025296 -0.001340 -244418.000000 0 0 1
13.244003 -22.671164 9.450755 27.905234 -1.042092 1.225290 0.027577 -0.003492 -853586.000000 0 0 1
12.169903 -23.511164 10.064655 28.322759 -1.093150 1.207502 0.031621 -0.010719 -670988.000000 0 0 1
11.936003 -23.042364 11.369355 28.331625 -1.092851 1.157865 0.031636 -0.013546 -632291.000000 0 0 1
10.904803 -23.668464 12.075155 28.721426 -1.139054 1.136885 0.038509 -0.003461 -377453.000000 0 0 1
11.180503 -25.078124 12.641555 30.227883 -1.151418 1.139324 0.039113 -0.009950 -728847.000000 0 0 1
12.105403 -25.122434 13.663355 31.054223 -1.121769 1.115216 0.027554 -0.013074 -614061.000000 0 0 1
12.167003 -26.420744 14.243355 32.387727 -1.139237 1.115447 0.032515 -0.019872 36024.000000 0 0 1
13.440203 -26.698744 15.072855 33.476155 -1.104431 1.103744 0.035847 -0.013104 22665.900000 0 0 1
13.352803 -26.102624 16.400755 33.595076 -1.097951 1.060783 0.038457 -0.018250 386446.000000 0 0 1
14.381503 -26.592094 17.255755 34.809886 -1.075029 1.052139 0.043428 -0.019853 -190772.000000 0 0 1
14.271503 -26.134674 18.719455 35.172646 -1.070971 1.009580 0.051048 -0.021635 -21987.900000 0 0 1
14.576203 -24.729964 18.946955 34.395115 -1.038197 0.987400 0.018863 -0.020895 337065.000000 0 0 1
15.943303 -24.537664 19.289055 35.047875 -0.994598 0.987997 0.018640 -0.021744 232350.000000 0 0 1
16.336603 -23.069164 19.692255 34.450774 -0.954616 0.962335 -0.004357 -0.021701 -21384.100000 0 0 1
16.340403 -22.152864 18.631855 33.240099 -0.935265 0.975779 -0.008221 -0.020363 389016.000000 0 0 1
15.069603 -21.537164 18.485555 32.134999 -0.960270 0.957890 0.000439 -0.011407 -224600.000000 0 0 1
15.180603 -20.490464 17.352655 30.845169 -0.933169 0.973302 -0.013915 -0.009132 227047.000000 0 0 1
16.047503 -19.365264 17.483355 30.630108 -0.878814 0.963329 -0.015275 -0.006318 87184.800000 0 0 1
17.431803 -19.636664 17.428555 31.515407 -0.844809 0.984815 -0.012903 -0.008621 -731791.000000 0 0 1
18.131703 -18.359264 17.742655 31.314901 -0.791634 0.968437 -0.001940 -0.006310 -779809.000000 0 0 1
18.199703 -18.086964 19.134755 32.007910 -0.782291 0.930026 -0.010656 -0.005123 265325.000000 0 0 1
18.887703 -16.859464 19.338855 31.858722 -0.728720 0.918492 0.000031 -0.007405 -165761.000000 0 0 1
19.452803 -16.746364 20.781155 33.025879 -0.710772 0.890223 0.010519 -0.003638 636166.000000 0 0 1
20.456803 -17.742564 21.093755 34.325295 -0.714463 0.909013 0.013249 -0.002126 436045.000000 0 0 1
20.864903 -17.646864 22.441155 35.360450 -0.702032 0.883254 0.015946 0.008725 -114582.000000 0 0 1
32.538082 -1.136764 -7.890328 33.500392 -0.034922 1.808560 0.042192 -0.007790 -718788.000000 0 0 1
33.815962 -0.831764 -8.387028 34.850442 -0.024592 1.813840 0.024680 -0.011346 -63060.200000 0 0 1
34.573516 -2.057264 -8.268328 35.607942 -0.059434 1.805140 0.032249 -0.024563 -859735.000000 0 0 1
-33.967117 -1.908364 -8.785428 35.136741 0.056124 1.823513 0.015835 -0.015445 -1343570.000000 0 0 1
-33.129597 -2.948364 -8.413428 34.308145 0.088761 1.818555 0.031555 -0.015254 239510.000000 0 0 1
-31.814477 -2.633864 -8.908528 33.143024 0.082600 1.842933 0.048440 -0.015563 -8217.360000 0 0 1
-30.775717 -3.616564 -8.422528 32.111731 0.116977 1.836189 0.052972 -0.013280 -873608.000000 0 0 1
-30.535107 -3.434964 -7.022128 31.519867 0.112021 1.795466 0.052371 -0.015135 41543.300000 0 0 1
-29.417067 -4.195464 -6.639628 30.447502 0.141665 1.790631 0.046231 -0.014083 -123246.000000 0 0 1
-29.201587 -3.972964 -5.100228 29.908685 0.135223 1.742160 0.046636 -0.018195 -87311.500000 0 0 1
-28.609197 -2.699164 -4.838928 29.140811 0.094068 1.737622 0.044484 -0.020183 647347.000000 0 0 1
-28.856667 -2.418864 -3.495928 29.168127 0.083628 1.690940 0.039863 -0.018362 -187755.000000 0 0 1
-28.404657 -0.939564 -3.282328 28.609106 0.033066 1.685780 0.053461 -0.016637 -39989.700000 0 0 1
-27.002337 -0.769764 -3.294828 27.213500 0.028500 1.692167 0.035909 -0.007893 441239.000000 0 0 1
-26.569567 0.506536 -2.835028 26.725191 -0.019062 1.677077 0.047395 -0.011567 -327790.000000 0 0 1
-25.113457 0.622236 -2.383228 25.233958 -0.024772 1.665383 0.020337 -0.009421 -436889.000000 0 0 1
-25.022597 -0.070864 -1.192228 25.051083 0.002832 1.618406 0.017476 -0.005197 559691.000000 0 0 1
-23.712497 -0.216664 -0.659328 23.722651 0.009137 1.598593 0.002755 -0.005135 -75786.100000 0 1 0
-23.585597 -1.169164 0.530872 23.620524 0.049531 1.548319 -0.000612 -0.006965 -364677.000000 0 1 0
-23.703297 -2.544664 0.285172 23.841202 0.106945 1.558835 -0.000735 -0.001861 639255.000000 0 1 0
-22.916597 -3.202364 1.289372 23.175159 0.138841 1.515132 -0.008756 -0.001030 -22662.500000 0 1 0
-23.025497 -4.710764 1.216572 23.533908 0.201804 1.519079 -0.010202 0.001772 -630131.000000 0 1 0
-24.199097 -5.207264 1.778872 24.816854 0.211952 1.499055 -0.010337 0.001558 -136233.000000 0 1 0
-24.390997 -6.541864 1.416872 25.292770 0.262041 1.514748 -0.010971 0.000082 25341.900000 0 0 1
-25.622347 -7.248364 2.060372 26.707463 0.275689 1.493574 -0.006654 -0.001770 -254867.000000 0 0 1
-25.597707 -7.408864 3.461472 26.872209 0.281736 1.441625 -0.005798 -0.001329 521347.000000 0 0 1
-26.806577 -8.038864 3.887572 28.254718 0.291350 1.432768 -0.006673 0.007128 179214.000000 0 0 1
-26.920797 -8.199764 5.460572 28.666762 0.295661 1.379141 0.001265 0.003503 -716307.000000 0 0 1
-26.042117 -9.196564 5.837572 28.228459 0.339471 1.362496 0.001588 0.008313 -187696.000000 0 0 1
-25.883037 -9.416464 7.274572 28.487204 0.348923 1.312573 -0.010287 0.003618 -199274.000000 0 0 1
-25.333417 -8.253264 8.144372 27.860890 0.314942 1.274142 -0.003237 0.007204 -134559.000000 0 0 1
-23.947397 -8.053864 7.951972 26.487287 0.324431 1.265875 0.003134 -0.000357 56787.100000 0 0 1
-23.508097 -6.774264 8.284172 25.829223 0.280566 1.244298 0.001737 0.001403 -301610.000000 0 0 1
-22.082597 -6.471764 7.793472 24.295329 0.285088 1.244243 0.005679 -0.004908 620424.000000 0 1 0
-21.005697 -7.013064 8.588072 23.752418 0.322229 1.200849 0.013050 -0.008179 -410579.000000 0 1 0
-19.805097 -6.547264 8.129672 22.387499 0.319275 1.199167 0.019838 -0.010797 -1593360.000000 0 1 0
-18.631497 -6.894664 9.001472 21.810446 0.354428 1.145365 0.024425 -0.011245 -731626.000000 0 1 0
-18.603397 -6.009164 10.103572 22.006331 0.312435 1.093791 0.024500 -0.004659 125075.000000 0 1 0
-17.503497 -6.223964 10.949972 21.564137 0.341641 1.038183 0.015341 -0.006881 -364109.000000 0 1 0
-17.319397 -4.986264 11.888572 21.590796 0.280320 0.987676 0.005348 -0.004440 849510.000000 0 1 0
-18.445197 -4.814464 12.801872 22.962846 0.255318 0.979420 0.003942 -0.000757 1049210.000000 0 1 0
-18.468897 -3.519664 13.295272 23.027211 0.188314 0.955290 0.001313 0.005053 -525291.000000 0 1 0
-19.549797 -3.264864 14.300072 24.440662 0.165475 0.945801 -0.002327 0.006398 -466985.000000 0 1 0
-19.273197 -3.817964 15.580172 25.075381 0.195565 0.900353 -0.002262 0.011856 -543048.000000 0 0 1
-20.448997 -3.910164 16.278172 26.427821 0.188935 0.907207 -0.008154 0.014562 -891356.000000 0 0 1
-20.185797 -4.733764 17.508372 27.137023 0.230347 0.869532 -0.002409 0.024835 -759240.000000 0 0 1
-21.289397 -4.880364 18.334272 28.516695 0.225346 0.872477 -0.004386 0.020149 -227407.000000 0 0 1
-20.972797 -5.827364 19.310772 29.098493 0.271017 0.845129 -0.000814 0.014253 -222065.000000 0 0 1
-21.729797 -5.589464 20.644772 30.489880 0.251768 0.826978 -0.007963 0.025819 -180426.000000 0 0 1
-21.346397 -4.402764 21.283572 30.463805 0.203401 0.797286 -0.017486 0.021865 159085.000000 0 0 1
-22.135197 -4.044764 22.401472 31.751425 0.180736 0.787631 -0.011016 0.012440 -121232.000000 0 0 1
-21.943797 -2.633764 22.938572 31.853493 0.119452 0.766810 -0.003777 0.007512 -67892.200000 0 0 1
-22.710897 -1.714264 22.199172 31.804509 0.075339 0.798212 0.006404 0.006963 -64219.700000 0 0 1
-22.513897 -0.388864 22.551972 31.868765 0.017270 0.784628 0.008891 -0.006453 -22009.400000 0 0 1
-23.585497 0.559636 21.911472 32.197849 -0.023724 0.822316 0.005995 -0.000791 111972.000000 0 0 1
-24.787097 0.418236 22.616072 33.556844 -0.016872 0.831236 0.001499 -0.004382 -100403.000000 0 0 1
-25.817907 1.327436 22.205672 34.079587 -0.051370 0.861127 -0.002297 0.000209 617721.000000 0 0 1
-27.037077 1.260136 23.137972 35.608387 -0.046574 0.863488 -0.005528 -0.001691 -195241.000000 0 0 1
-26.815297 2.031636 24.307672 36.249836 -0.075620 0.835834 -0.003380 0.000825 -516671.000000 0 0 1
-27.792817 1.878836 25.268672 37.609526 -0.067499 0.834067 -0.009017 0.003163 -1133970.000000 0 0 1
-27.565527 2.657436 26.624472 38.415918 -0.096107 0.805073 0.003004 -0.000910 -167314.000000 0 0 1
-26.434757 2.252436 27.357572 38.109140 -0.085002 0.770052 -0.007144 -0.006802 68106.800000 0 0 1
-26.148477 3.093136 28.419172 38.742221 -0.117744 0.747273 -0.012079 -0.017002 -53760.700000 0 0 1
-25.084977 2.680736 29.468472 38.792180 -0.106462 0.708022 -0.007588 -0.019039 146913.000000 0 0 1
-25.537777 1.779636 30.478972 39.803428 -0.069574 0.698609 -0.010393 -0.011409 525133.000000 0 0 1
-24.449997 1.527336 31.362972 39.796622 -0.062387 0.663111 0.005907 -0.018134 120509.000000 0 0 1
-24.619597 0.334336 32.357172 40.659844 -0.013579 0.650466 -0.008480 -0.021253 -469607.000000 0 0 1
-24.535397 -0.869464 31.619172 40.031409 0.035422 0.660217 -0.000497 -0.015313 -119936.000000 0 0 1
-25.018997 -2.004564 32.335772 40.933735 0.079951 0.660062 0.015418 -0.010559 -761591.000000 0 0 1
-25.804587 -2.910464 31.401672 40.748160 0.112314 0.690970 0.004301 -0.007271 -261368.000000 0 0 1
-27.093917 -2.475664 31.037172 41.273663 0.091120 0.719728 0.002136 0.004176 -58887.000000 0 0 1
-27.137997 -1.514664 30.020572 40.496911 0.055756 0.735783 -0.002951 0.009252 -781697.000000 0 0 1
-28.555647 -0.997064 29.744372 41.244961 0.034902 0.765316 0.003950 0.006538 19298.600000 0 0 1
-29.216177 -0.443264 30.854672 42.494614 0.015171 0.758186 0.009263 0.007178 152628.000000 0 0 1
-30.540237 -0.047164 30.452672 43.128570 0.001544 0.786834 -0.002777 0.002808 968348.000000 0 0 1
-31.362607 0.272636 31.758672 44.635196 -0.008693 0.779142 0.002474 0.019795 -104178.000000 0 0 1
-31.612117 -0.948464 32.487672 45.339545 0.029994 0.771965 0.000321 0.015716 52083.900000 0 0 1
-32.330957 -0.890264 33.699272 46.708931 0.027529 0.764868 0.018481 0.011339 -24913.400000 0 0 1
-32.441577 -2.215064 34.484972 47.398056 0.068173 0.756036 0.018807 0.006078 631240.000000 0 0 1
-33.298527 -3.212564 33.824972 47.573535 0.096180 0.779871 0.014551 0.005579 501633.000000 0 0 1
-33.243967 -4.452064 34.484572 48.105799 0.133129 0.771525 0.006205 0.011223 -356769.000000 0 0 1
-34.267405 -5.538264 34.147572 48.692752 0.160233 0.793596 0.000602 0.013087 575469.000000 0 0 1
34.352948 -5.214364 34.565472 49.011085 -0.150638 0.788009 0.008759 0.001076 260394.000000 0 0 1
33.282772 -5.852464 33.898172 47.865231 -0.174061 0.783850 0.004320 -0.007000 20786.800000 0 0 1
31.946122 -5.224464 34.386272 47.225686 -0.162105 0.755212 0.023609 -0.008594 -388039.000000 0 0 1
31.544192 -5.473064 -33.559310 46.381222 -0.171794 2.379733 0.027323 -0.016432 -32827.100000 0 0 1
31.042552 -6.754964 -33.292810 46.018266 -0.214263 2.379611 0.025050 -0.011364 -469737.000000 0 0 1
29.698472 -7.241664 -33.910110 45.654534 -0.239172 2.407971 0.017849 -0.009633 896284.000000 0 0 1
28.547132 -6.878664 -33.108210 44.253908 -0.236451 2.416054 0.019080 -0.014756 383773.000000 0 0 1
27.333212 -7.411664 -33.575910 43.924697 -0.264792 2.440902 0.028834 -0.013867 -1278790.000000 0 0 1
26.258442 -6.833264 -32.738210 42.520462 -0.254585 2.449544 0.027642 -0.018434 -387070.000000 0 0 1
24.982632 -7.430564 -33.093410 42.125040 -0.289097 2.474461 0.022601 -0.013088 681613.000000 0 0 1
23.948982 -6.801764 -32.357510 40.826783 -0.276724 2.485785 0.024840 -0.013058 96369.200000 0 0 1
22.594982 -7.469164 -32.778110 40.505878 -0.319259 2.513617 0.034166 -0.019635 123191.000000 0 0 1
22.502482 -8.865964 -32.626110 40.613176 -0.375323 2.503676 0.042328 -0.023900 173998.000000 0 0 1
22.533182 -9.368964 -31.327010 39.710242 -0.394040 2.479797 0.037938 -0.024438 -384189.000000 0 0 1
22.513082 -10.942564 -31.282310 40.064467 -0.452428 2.466741 0.055585 -0.020127 903629.000000 0 0 1
21.250882 -11.399864 -31.831810 39.935210 -0.492374 2.493251 0.069333 -0.026435 931280.000000 0 0 1
21.051182 -12.760364 -31.659010 40.103268 -0.544936 2.480688 0.059676 -0.022858 -528091.000000 0 0 1
19.960182 -13.438164 -32.568110 40.492900 -0.592545 2.505279 0.058874 -0.018918 439035.000000 0 0 1
18.678582 -12.964164 -32.220210 39.434768 -0.606732 2.527074 0.054694 -0.015405 -297820.000000 0 0 1
18.329182 -11.747564 -32.868310 39.424485 -0.569967 2.556576 0.047502 -0.016966 -323660.000000 0 0 1
16.953082 -11.216164 -32.355710 38.211272 -0.584487 2.580658 0.035745 -0.017488 681453.000000 0 0 1
15.818082 -11.940564 -32.810310 38.331518 -0.646609 2.598204 0.020522 -0.002848 303338.000000 0 0 1
14.657182 -11.547364 -32.067510 37.101210 -0.667276 2.614603 0.027883 -0.008426 371834.000000 0 0 1
13.369282 -11.980064 -32.794510 37.386355 -0.730650 2.640751 0.006308 0.010399 -684042.000000 0 0 1
13.130382 -13.402964 -33.002510 37.963299 -0.795671 2.624635 0.007896 0.011869 419545.000000 0 0 1
11.931082 -13.670764 -33.724910 38.296345 -0.853245 2.647987 -0.013295 0.008744 1767570.000000 0 0 1
10.539282 -13.507664 -32.947610 37.135946 -0.908218 2.662072 -0.017974 0.018997 977567.000000 0 0 1
10.162182 -12.143864 -32.795610 36.418339 -0.874006 2.691771 0.002577 0.018466 -402884.000000 0 0 1
9.193982 -11.960464 -31.791610 35.189323 -0.915436 2.698534 0.010872 0.007236 251483.000000 0 0 1
7.982982 -11.141364 -32.309410 35.096381 -0.949071 2.740387 -0.000786 0.016686 291519.000000 0 0 1
8.425882 -9.829864 -32.616610 35.092235 -0.862153 2.763726 0.001025 0.015733 521926.000000 0 0 1
7.285682 -9.080264 -33.000110 34.993423 -0.894615 2.802442 -0.002304 0.018247 213333.000000 0 0 1
7.513282 -7.594664 -33.236210 34.910944 -0.790785 2.830594 0.005587 0.020673 -66532.400000 0 0 1
7.878282 -6.946364 -32.022310 33.700855 -0.722618 2.824650 -0.009558 0.019416 146819.000000 0 0 1
8.319182 -5.645064 -32.233610 33.765088 -0.596191 2.839255 0.000024 0.018200 -121410.000000 0 0 1
8.734482 -5.007864 -30.953810 32.550088 -0.520589 2.827119 0.003921 0.016286 -62595.500000 0 0 1
7.622982 -4.636564 -30.163610 31.455539 -0.546453 2.853996 0.022805 0.014771 114361.000000 0 0 1
8.030082 -3.745664 -29.164810 30.481115 -0.436453 2.846639 0.024727 0.012577 247257.000000 0 0 1
6.799982 -3.118264 -28.450510 29.417594 -0.429957 2.884470 0.014526 0.006778 -711380.000000 0 0 1
6.115682 -2.253764 -29.342810 30.057969 -0.353079 2.923017 0.016137 0.019862 -333762.000000 0 0 1
4.886582 -1.776864 -28.875410 29.339824 -0.348758 2.963431 0.017802 0.009240 258609.000000 0 0 1
3.715782 -2.805464 -28.850810 29.224081 -0.646702 2.981593 -0.002541 0.007547 -584233.000000 0 0 1
3.914582 -3.832264 -27.900710 28.433428 -0.774773 2.947714 0.005505 -0.004125 72785.800000 0 0 1
2.681682 -4.544564 -27.879110 28.374095 -1.037699 2.954532 0.014929 -0.004627 524453.000000 0 0 1
2.570582 -5.624764 -26.778410 27.483252 -1.142127 2.914627 0.004908 -0.017912 -282949.000000 0 0 1
2.513482 -4.960864 -25.504910 26.104180 -1.101833 2.926906 0.014075 -0.024977 -103274.000000 0 0 1
2.590282 -6.009764 -24.562710 25.419551 -1.163844 2.881212 0.018205 -0.029828 -338182.000000 0 0 1
2.517882 -5.476464 -23.122510 23.895227 -1.139852 2.886589 0.028871 -0.035319 -594543.000000 0 1 0
3.607582 -4.683264 -22.773310 23.528095 -0.914421 2.887612 0.027000 -0.033934 -439295.000000 0 1 0
3.488382 -4.049464 -21.480510 22.135476 -0.859697 2.897724 0.027339 -0.030874 -209306.000000 0 1 0
4.327482 -2.775764 -21.297810 21.909557 -0.570325 2.904728 0.030657 -0.029821 -495287.000000 0 1 0
5.706082 -2.902464 -21.175710 22.122260 -0.470553 2.848008 0.029825 -0.023962 -724528.000000 0 1 0
6.275082 -1.650064 -20.864710 21.850297 -0.257134 2.840098 0.031441 -0.012002 -180184.000000 0 1 0
7.724082 -1.659564 -20.342010 21.822304 -0.211638 2.771147 0.027928 -0.017553 -612650.000000 0 1 0
8.538382 -2.129464 -21.390910 23.130275 -0.244413 2.751310 0.036209 -0.023456 3007.820000 0 1 0
9.660582 -2.952864 -21.108410 23.401095 -0.296642 2.695238 0.023253 -0.023407 526056.000000 0 1 0
10.888682 -2.206764 -20.563810 23.373136 -0.199958 2.646249 0.011697 -0.016547 -824718.000000 0 1 0
10.778582 -2.132064 -19.180710 22.104822 -0.195285 2.621385 0.012918 -0.020121 -84512.200000 0 1 0
11.994482 -1.816664 -18.573110 22.183965 -0.150316 2.562997 0.014886 -0.018846 -508740.000000 0 1 0
12.383382 -0.321864 -18.526910 22.286726 -0.025986 2.552235 0.025486 -0.021303 -419599.000000 0 1 0
12.683482 0.298736 -19.747810 23.472025 0.023549 2.570543 0.015112 -0.019858 188130.000000 0 1 0
12.692682 1.722136 -19.667710 23.471019 0.134856 2.564326 0.026624 -0.030084 -589335.000000 0 1 0
12.853782 2.553536 -20.969910 24.728069 0.196107 2.583035 0.007882 -0.020566 -849299.000000 0 1 0
14.132382 2.699536 -21.482710 25.855726 0.188744 2.551463 -0.003168 -0.014506 -550641.000000 0 0 1
14.074182 3.584836 -22.560710 26.831312 0.249407 2.569621 0.004499 -0.015296 957194.000000 0 0 1
15.531382 3.922836 -23.106810 28.116492 0.247401 2.535402 0.010782 -0.017328 1558070.000000 0 0 1
16.255982 3.025836 -23.933310 29.089791 0.184031 2.537010 -0.002490 -0.015730 153345.000000 0 0 1
16.674782 1.784836 -23.505410 28.874527 0.106632 2.521894 -0.008700 -0.009191 -1574960.000000 0 0 1
8.767803 27.032836 2.909672 28.567723 1.257162 1.468768 -0.030599 0.012998 43417.200000 0 0 1
8.765103 27.461736 4.244572 29.137439 1.261842 1.424602 -0.028718 0.009832 -291851.000000 0 0 1
10.084103 27.714336 4.604872 29.849261 1.221829 1.415907 -0.022394 0.002767 -756168.000000 0 0 1
10.170803 28.384236 6.023372 30.747213 1.226724 1.373621 -0.028687 0.005097 -85564.900000 0 0 1
9.999203 27.511736 7.134872 30.129489 1.222188 1.331718 -0.023793 0.009042 171673.000000 0 0 1
10.173303 28.271236 8.328972 31.179010 1.225377 1.300379 -0.023065 0.004627 -468387.000000 0 0 1
10.140003 27.481936 9.663972 30.845888 1.217323 1.252132 -0.014822 -0.001921 248644.000000 0 0 1
11.360803 26.934536 10.185872 30.956244 1.171645 1.235509 -0.008678 0.001749 349303.000000 0 0 1
11.728903 25.760236 9.429872 29.834199 1.143535 1.249206 -0.009093 -0.000588 91092.700000 0 0 1
12.964103 25.080936 10.082872 29.979754 1.093728 1.227787 -0.001731 0.000887 272536.000000 0 0 1
14.101503 25.907536 10.165372 31.199160 1.072339 1.238915 0.005359 0.000806 754831.000000 0 0 1
15.263503 25.272536 10.734872 31.415173 1.027473 1.222061 0.009544 0.004640 586541.000000 0 0 1
16.389103 26.255636 11.058972 32.867339 1.012763 1.227627 0.004612 0.005865 -1121750.000000 0 0 1
16.802103 26.919636 9.908872 33.243995 1.012803 1.268131 0.011831 -0.003901 334416.000000 0 0 1
18.211903 26.990736 9.783972 33.998520 0.977221 1.278892 0.020238 -0.006692 335989.000000 0 0 1
19.104403 27.715336 10.805972 35.353742 0.967282 1.260172 0.025092 -0.009163 -957965.000000 0 0 1
19.143203 29.154036 10.906972 36.542880 0.989779 1.267707 0.033885 -0.025165 642405.000000 0 0 1
17.856103 29.730236 11.204472 36.445405 1.029933 1.258304 0.026536 -0.019339 716520.000000 0 0 1
17.953403 31.269036 11.351372 37.801203 1.049594 1.265798 0.030288 -0.011586 -618186.000000 0 0 1
18.171803 32.009436 10.078372 38.162704 1.054464 1.303536 0.045493 -0.025673 24630.400000 0 0 1
17.162803 31.943236 9.093472 37.384801 1.077763 1.325092 0.046362 -0.024383 -29861.600000 0 0 1
15.841203 32.646536 9.467672 37.501691 1.119031 1.315575 0.041623 -0.020625 -568859.000000 0 0 1
16.019603 34.077436 9.702872 38.885024 1.131358 1.318604 0.046483 -0.019877 625303.000000 0 0 1
14.763503 -34.569920 9.929072 38.879646 -1.167180 1.312556 0.061907 -0.010439 531994.000000 0 0 1
14.964403 -33.107820 10.314472 37.768365 -1.146289 1.294184 0.060840 -0.008033 -40537.600000 0 0 1
15.576503 -32.398820 9.259872 37.122179 -1.122648 1.318691 0.065404 -0.010131 166765.000000 0 0 1
15.890303 -31.041220 9.582372 36.164636 -1.097666 1.302628 0.046050 0.000055 -171734.000000 0 0 1
16.571103 -30.356520 8.431172 35.597815 -1.071120 1.331679 0.046776 0.000394 -302881.000000 0 0 1
15.742603 -30.196820 7.324172 34.832757 -1.090228 1.358948 0.045274 -0.008427 -317456.000000 0 0 1
16.457303 -29.583220 6.298272 34.433675 -1.063125 1.386850 0.038570 -0.000147 -201273.000000 0 0 1
15.875703 -29.689420 4.902472 34.022549 -1.079755 1.426198 0.040940 -0.003375 -310577.000000 0 0 1
15.959003 -30.967420 4.306472 35.102942 -1.094946 1.447805 0.027745 -0.001869 -96277.900000 0 0 1
15.523203 -30.968920 2.954872 34.767443 -1.106148 1.485704 0.033320 0.008118 -40014.100000 0 0 1
15.615703 -32.336120 2.285872 35.981940 -1.120907 1.507225 0.002049 0.009502 -451678.000000 0 0 1
16.912603 -32.827520 2.108472 36.988212 -1.095066 1.513762 0.016664 0.003829 -153516.000000 0 0 1
16.931903 -34.121320 1.526272 38.121953 -1.110172 1.530749 0.022302 0.003943 -623479.000000 0 0 1
18.347003 34.615836 1.596072 39.209898 1.083424 1.530079 0.031736 0.001293 -320921.000000 0 0 1
18.804803 34.317436 2.924772 39.241067 1.069516 1.496194 0.046578 -0.024895 248376.000000 0 0 1
20.115303 33.781836 2.929972 39.426166 1.033731 1.496412 0.046026 -0.013014 109191.000000 0 0 1
20.519703 33.205436 4.326172 39.273082 1.017274 1.460416 0.048617 -0.020041 -150962.000000 0 0 1
20.078803 31.943336 4.609572 38.010304 1.009630 1.449225 0.049292 -0.030718 -39762.500000 0 0 1
20.978803 31.427636 5.545572 38.191097 0.982198 1.425075 0.036118 -0.031726 -80046.400000 0 0 1
20.236703 30.694236 6.650972 37.361688 0.987911 1.391827 0.036829 -0.031669 56615.800000 0 0 1
19.599003 29.547536 6.049072 35.969002 0.985125 1.401819 0.047158 -0.027014 -331325.000000 0 0 1
18.722003 28.917336 6.895972 35.132324 0.996229 1.373228 0.042734 -0.031188 336787.000000 0 0 1
17.247303 28.941936 6.325472 34.279976 1.033376 1.385209 0.048867 -0.027535 195184.000000 0 0 1
16.619203 30.199936 6.289372 35.039838 1.067718 1.390326 0.038755 -0.035292 211223.000000 0 0 1
16.765303 30.877436 5.036772 35.494514 1.073372 1.428413 0.052351 -0.034995 -660273.000000 0 0 1
16.768703 32.462836 5.017972 36.880959 1.093996 1.434314 0.059834 -0.031371 -430081.000000 0 0 1
15.583603 33.123636 5.372272 36.998449 1.131052 1.425079 0.049450 -0.024665 -229702.000000 0 0 1
15.763603 34.562636 5.401072 38.369761 1.142891 1.429564 0.051423 -0.029754 -386228.000000 0 0 1
14.472003 -33.982820 5.722872 37.376760 -1.168195 1.417079 0.038893 -0.018316 598658.000000 0 0 1
13.530103 -34.004520 4.612572 36.886947 -1.192109 1.445422 0.017153 -0.007274 -51326.200000 0 0 1
12.300303 -33.402420 4.850672 35.924200 -1.217960 1.435357 0.014175 -0.006466 -170219.000000 0 0 1
11.446403 -33.157720 3.585072 35.260562 -1.238394 1.468947 0.011966 -0.002878 -256077.000000 0 0 1
10.388803 -32.253520 3.669872 34.083496 -1.259191 1.462914 0.012638 -0.010412 -439349.000000 0 0 1
10.121303 -31.847620 2.340572 33.499103 -1.263087 1.500870 0.016569 0.002671 -1111620.000000 0 0 1
9.328103 -30.612920 2.270772 32.083029 -1.275023 1.499959 0.039850 -0.003136 -599368.000000 0 0 1
8.929703 -30.086220 0.997172 31.399276 -1.282274 1.539033 0.042748 0.009050 268396.000000 0 0 1
7.841003 -30.827420 0.468072 31.812422 -1.321726 1.556082 0.035227 0.002574 -461991.000000 0 0 1
8.275803 -31.506420 -0.890128 32.587355 -1.313929 1.598115 0.050228 -0.000310 78767.500000 0 0 1
9.214403 -32.553320 -0.773228 33.841125 -1.294956 1.593647 0.032928 -0.003858 -133053.000000 0 0 1
9.324803 -33.169620 -2.080328 34.518160 -1.296745 1.631100 0.032414 0.009673 106866.000000 0 0 1
10.462303 -34.218120 -2.228028 35.851131 -1.274070 1.632983 0.001825 0.005232 127384.000000 0 0 1
10.433303 34.092636 -1.200428 35.673557 1.273818 1.604453 -0.007673 0.003930 -124510.000000 0 0 1
11.588703 33.282436 -1.183928 35.262165 1.235732 1.604378 -0.004556 0.003832 50237.900000 0 0 1
11.620303 32.210736 -0.077328 34.242794 1.224569 1.573055 -0.010315 0.004830 -822281.000000 0 0 1
11.586603 32.667736 1.264572 34.684715 1.229958 1.534329 -0.002706 0.005464 694882.000000 0 0 1
12.653603 33.531036 1.779972 35.883316 1.209950 1.521172 -0.004785 0.004095 -81092.400000 0 0 1
13.942903 32.774436 1.950072 35.670309 1.168570 1.516100 0.018911 -0.000109 -1310220.000000 0 0 1
14.627303 32.403636 0.753672 35.560113 1.146771 1.549600 0.024795 -0.003723 20716.400000 0 0 1
15.466903 31.275836 0.933672 34.903793 1.111533 1.544043 0.041630 -0.007520 -105906.000000 0 0 1
16.182603 30.863436 -0.378528 34.850705 1.087875 1.581658 0.045097 -0.005513 605674.000000 0 0 1
17.316103 31.640036 -0.758728 36.076515 1.070040 1.591829 0.027800 0.007244 618514.000000 0 0 1
16.876703 32.566036 -1.740728 36.720566 1.092671 1.618219 0.037243 -0.001052 162191.000000 0 0 1
18.082503 33.190736 -2.498628 37.879348 1.071950 1.636807 0.024341 0.006686 564681.000000 0 0 1
18.921103 34.025736 -1.692428 38.969516 1.063296 1.614240 0.017427 0.013798 327072.000000 0 0 1
19.900503 -34.603520 -2.461328 39.993646 -1.048886 1.632378 0.012937 0.016802 -1009280.000000 0 0 1
21.029703 -33.943820 -1.649228 39.964375 -1.016130 1.612075 0.009202 0.016735 -413112.000000 0 0 1
22.014603 34.612136 -0.952028 41.031074 1.004300 1.594001 0.020347 0.007553 428800.000000 0 0 1
22.758903 33.731836 -1.767828 40.729960 0.977252 1.614214 0.021140 0.010472 4297.460000 0 0 1
23.761003 34.251236 -2.898828 41.786788 0.964293 1.640224 0.013735 0.010279 -242123.000000 0 0 1
23.035903 -34.470120 -3.968228 41.648395 -0.981673 1.666220 0.015740 0.000790 943168.000000 0 0 1
23.923103 -34.149920 -5.062528 42.001917 -0.959714 1.691621 0.010352 -0.004673 781319.000000 0 0 1
22.994403 -33.657720 -6.201128 41.231525 -0.971446 1.721767 0.003721 -0.007843 135909.000000 0 0 1
22.319403 -32.394920 -6.046228 39.801300 -0.967506 1.723297 0.009302 -0.005539 347840.000000 0 0 1
21.770603 -32.065120 -7.340428 39.446330 -0.974338 1.757974 0.011598 -0.015727 -375444.000000 0 0 1
20.774403 -30.916020 -7.208528 37.938621 -0.979136 1.761964 0.015728 -0.018667 -262115.000000 0 0 1
19.586303 -31.293420 -6.549828 37.494021 -1.011556 1.746387 0.026075 -0.014330 -371200.000000 0 0 1
18.829403 -30.134220 -6.345128 36.095405 -1.012304 1.747502 0.025633 -0.019822 -60960.700000 0 0 1
17.674803 -29.994120 -5.357728 35.224297 -1.038300 1.723492 0.005956 -0.003642 -178196.000000 0 0 1
16.538003 -30.723820 -5.686928 35.352508 -1.076996 1.732362 0.010191 -0.009575 -702192.000000 0 0 1
15.471703 -30.502920 -4.798828 34.537378 -1.101389 1.710193 -0.003095 -0.000142 463930.000000 0 0 1
14.178203 -31.334820 -5.092228 34.768134 -1.145887 1.717788 0.003642 0.002713 158046.000000 0 0 1
14.351003 -32.733420 -5.060528 36.097604 -1.157613 1.711450 -0.009314 0.017461 26851.400000 0 0 1
13.189203 -33.460320 -5.476828 36.380540 -1.195322 1.721914 0.009068 0.019546 254775.000000 0 0 1
13.445003 34.337336 -5.514828 37.285843 1.197590 1.719248 0.003390 0.017141 -148614.000000 0 0 1
13.621103 33.765236 -4.221428 36.653050 1.187357 1.686225 0.002707 0.001473 -223972.000000 0 0 1
13.878903 32.372536 -4.336528 35.488174 1.165775 1.693299 0.014084 0.003563 -30145.100000 0 0 1
12.815203 31.365336 -4.897728 34.234507 1.182917 1.714353 0.009131 -0.003781 50171.900000 0 0 1
11.814903 30.922836 -3.998928 33.343742 1.205836 1.691016 0.000341 -0.002751 -167284.000000 0 0 1
12.291103 30.052736 -2.987828 32.606215 1.182569 1.662559 0.012239 -0.008350 -714282.000000 0 0 1
11.221903 29.135636 -2.425228 31.316100 1.203147 1.648317 0.000184 -0.002376 -116990.000000 0 0 1
10.269803 29.775836 -1.599728 31.537730 1.238669 1.621542 -0.015816 -0.004416 -212819.000000 0 0 1
9.374303 28.905136 -0.967128 30.402628 1.257186 1.602612 -0.024741 0.003642 371231.000000 0 0 1
8.354603 29.716636 -0.056028 30.868770 1.296729 1.572611 -0.027149 0.011293 -106942.000000 0 0 1
7.433203 28.931336 0.573772 29.876478 1.319310 1.551590 -0.026339 0.009792 128141.000000 0 0 1
6.256303 29.751736 0.829872 30.413744 1.363532 1.543507 -0.013611 0.015300 840588.000000 0 0 1
5.191203 29.008636 1.662172 29.516307 1.393717 1.514453 -0.014142 0.015107 118092.000000 0 0 1
4.661903 27.890436 0.942472 28.293073 1.405177 1.537479 -0.014092 0.006075 620622.000000 0 0 1
3.499203 27.264936 1.511272 27.530076 1.443153 1.515873 -0.011123 0.006086 690110.000000 0 0 1
2.890103 26.263136 0.524872 26.426890 1.461193 1.550934 -0.008152 0.003128 -670699.000000 0 0 1
1.749503 25.617636 0.961372 25.695297 1.502609 1.533373 -0.002098 -0.003780 -590501.000000 0 0 1
1.299303 24.642136 0.075572 24.676482 1.518118 1.567734 -0.003428 -0.001566 853831.000000 0 1 0
-0.090097 23.986236 0.469272 23.990995 -1.567040 1.551235 -0.004515 0.000957 1260230.000000 0 1 0
-1.153197 24.940536 0.423272 24.970770 -1.524591 1.553845 -0.008443 -0.003449 -524813.000000 0 1 0
-2.303297 24.341236 0.920172 24.467277 -1.476452 1.533179 -0.008883 0.002036 -305673.000000 0 1 0
-3.536797 25.305236 1.064672 25.573373 -1.431930 1.529152 0.006729 -0.006788 -773369.000000 0 0 1
-4.593897 24.556636 1.551672 25.030780 -1.385860 1.508766 0.000498 -0.006231 -381844.000000 0 0 1
-5.688497 25.236936 2.136472 25.958167 -1.349098 1.488399 -0.003314 -0.003593 220985.000000 0 0 1
-6.760097 25.670736 1.104772 26.568894 -1.313304 1.529203 0.002245 0.001512 -607291.000000 0 0 1
-6.323297 26.809436 0.399372 27.547948 -1.339169 1.556298 0.000304 -0.002773 -165587.000000 0 0 1
-7.138997 27.074136 -0.714528 28.008653 -1.312981 1.596310 -0.006090 0.005780 -313748.000000 0 0 1
-6.707197 28.240036 -1.586028 29.068911 -1.337610 1.625384 -0.011730 0.012522 -14911.000000 0 0 1
-6.832797 29.531236 -1.009228 30.328197 -1.343422 1.604079 -0.000776 0.001478 -98928.200000 0 0 1
-6.986097 30.464136 -2.118028 31.326589 -1.345372 1.638459 -0.011926 0.005166 -107221.000000 0 0 1
-7.050897 31.931036 -1.681628 32.743458 -1.353467 1.622177 -0.015804 0.004657 -553774.000000 0 0 1
-7.137997 33.002036 -2.685428 33.871771 -1.357788 1.650162 -0.015607 0.005164 549215.000000 0 0 1
-5.993597 33.114736 -3.570128 33.841613 -1.391740 1.676488 -0.017219 0.007021 1063120.000000 0 0 1
-4.719897 33.700536 -2.891528 34.152079 -1.431647 1.655564 -0.023050 0.006100 -456916.000000 0 0 1
-4.797297 -34.195620 -2.841328 34.647187 1.431416 1.652896 -0.021298 0.005114 73040.700000 0 0 1
-3.847397 -33.565020 -2.009528 33.844515 1.456669 1.630207 -0.025513 0.009645 -62142.000000 0 0 1
-3.993797 -32.052320 -2.152328 32.371810 1.446833 1.637333 -0.012670 0.001382 253226.000000 0 0 1
-5.134497 -31.584320 -1.456828 32.032088 1.409641 1.616292 -0.021312 0.000181 -87290.700000 0 0 1
-5.474697 -30.324120 -1.930228 30.874752 1.392181 1.633355 -0.013661 0.008618 -192732.000000 0 0 1
-6.745197 -29.745120 -1.296128 30.527852 1.347801 1.613266 0.006536 0.001897 4727.530000 0 0 1
-6.581497 -29.346520 0.027572 30.075489 1.350178 1.569880 -0.008324 0.002798 -344882.000000 0 0 1
-7.843197 -28.954920 0.489472 30.002378 1.306268 1.554481 -0.004170 0.005694 -232232.000000 0 0 1
-7.786097 -28.466020 1.958372 29.576558 1.303804 1.504534 0.000965 0.005231 21915.800000 0 0 1
-7.338497 -27.128820 1.974172 28.173103 1.306613 1.500666 0.011638 0.005253 -114122.000000 0 0 1
-7.414497 -26.645420 3.327372 27.857217 1.299397 1.451067 0.009254 0.004243 381641.000000 0 0 1
-8.418397 -25.444720 3.528372 27.032435 1.251282 1.439899 0.002152 0.012167 295921.000000 0 0 1
-7.876597 -24.165620 3.314072 25.632031 1.255712 1.441139 0.010145 0.006995 -867471.000000 0 0 1
-8.790097 -23.243720 3.724572 25.127848 1.209249 1.422023 0.007497 0.006592 -318941.000000 0 0 1
-8.096397 -21.871820 4.045972 23.670615 1.216263 1.399025 0.005994 0.007664 540186.000000 0 1 0
-7.291097 -21.873820 5.199272 23.635916 1.249053 1.349009 0.000399 0.004298 17214.700000 0 1 0
-6.475697 -20.706820 5.399272 22.357530 1.267700 1.326888 -0.003811 0.005554 72105.800000 0 1 0
-7.197397 -19.435520 5.882072 21.543925 1.216133 1.294258 0.000570 -0.003770 -37925.800000 0 1 0
-7.865597 -19.744820 7.108772 22.411161 1.191702 1.248023 0.004428 -0.003810 -32887.600000 0 1 0
-8.492597 -18.683020 7.704672 21.921254 1.144155 1.211655 -0.001185 -0.013184 -694010.000000 0 1 0
-26.160897 28.935436 -5.589328 39.406758 -0.835714 1.713113 0.040283 -0.006707 -531819.000000 0 0 1
-25.494067 29.908436 -4.909828 39.605156 -0.864908 1.695085 0.038537 -0.015006 -244530.000000 0 0 1
-24.346997 29.439336 -4.226528 38.435846 -0.879794 1.680982 0.026456 -0.007551 303999.000000 0 0 1
-23.536497 30.488536 -3.413728 38.667441 -0.913377 1.659196 0.021381 -0.018591 -469265.000000 0 0 1
-24.192597 30.951336 -2.256328 39.349180 -0.907355 1.628169 0.022571 -0.020797 -29515.400000 0 0 1
-23.502397 31.944836 -1.506628 39.687594 -0.936498 1.608768 0.029323 -0.024132 -223495.000000 0 0 1
-22.212897 31.457936 -0.828928 38.518848 -0.955979 1.592318 0.021086 -0.020452 -59912.700000 0 0 1
-21.147397 31.283736 -1.770328 37.802362 -0.976369 1.617645 0.015327 -0.022429 380061.000000 0 0 1
-19.969297 30.946436 -1.028928 36.844449 -0.997742 1.598726 0.009318 -0.018274 95639.300000 0 0 1
-18.786597 30.418236 -1.838928 35.799259 -1.017529 1.622187 0.021335 -0.016461 -99230.300000 0 0 1
-17.603497 30.329636 -1.071928 35.084454 -1.044909 1.601354 0.012274 -0.011118 170337.000000 0 0 1
-16.619697 29.468936 -1.658528 33.873045 -1.057288 1.619779 0.012524 -0.010821 -25816.600000 0 0 1
-15.233697 29.728336 -1.075228 33.421484 -1.097254 1.602974 0.012719 -0.004239 -479820.000000 0 0 1
-15.041897 29.166136 0.168672 32.816925 -1.094643 1.565657 0.009984 -0.009245 978418.000000 0 0 1
-13.792497 29.554636 0.809172 32.624595 -1.134160 1.545991 0.012265 -0.009989 1074890.000000 0 0 1
-13.630797 28.832636 2.191472 31.967516 -1.129181 1.502189 0.004986 -0.007082 -677502.000000 0 0 1
-14.476597 29.302836 3.191972 32.839256 -1.111933 1.473443 -0.010658 0.002328 -508547.000000 0 0 1
-14.215397 28.793136 4.491672 32.423715 -1.112195 1.431819 -0.006886 -0.008766 137797.000000 0 0 1
-13.004197 29.382736 5.258172 32.559218 -1.154130 1.408590 0.010891 -0.004751 -57134.500000 0 0 1
-13.214297 30.635936 5.873172 33.877313 -1.163574 1.396550 -0.003648 -0.013799 -373658.000000 0 0 1
-12.999997 31.712736 5.026072 34.640423 -1.181759 1.425190 0.000553 0.002756 -152186.000000 0 0 1
-12.862897 32.993436 5.805872 35.884942 -1.199060 1.408291 0.007555 0.003310 -42214.800000 0 0 1
-14.017197 33.411036 6.487672 36.808545 -1.173561 1.393616 0.010125 0.009353 -165227.000000 0 0 1
-13.647597 34.503136 7.305772 37.816631 -1.194135 1.376385 0.027676 -0.001067 150491.000000 0 0 1
-14.705197 -34.323020 8.313472 38.254755 1.166019 1.351730 0.013031 0.001987 -241294.000000 0 0 1
-14.799197 34.158636 9.446272 38.406519 -1.161959 1.322292 -0.006920 0.006442 -321584.000000 0 0 1
-15.981597 34.371936 10.167772 39.245700 -1.135571 1.308727 0.006955 0.002475 -944313.000000 0 0 1
-16.239197 33.487636 11.389272 38.921058 -1.119276 1.273826 0.008534 0.004062 8596.190000 0 0 1
-15.538597 33.737136 12.586572 39.218161 -1.139180 1.244077 0.018984 -0.000609 -897576.000000 0 0 1
-14.158297 33.615736 12.470172 38.548414 -1.172165 1.241377 0.017850 0.004097 -1061470.000000 0 0 1
-13.452897 33.882736 13.824972 38.989102 -1.192842 1.208326 0.036318 0.004157 -149408.000000 0 0 1
-13.751497 32.829036 14.752372 38.528973 -1.174119 1.177873 0.029392 0.005632 688747.000000 0 0 1
-12.778397 31.745436 14.837672 37.299017 -1.188113 1.161675 0.019869 0.009506 298183.000000 0 0 1
-13.203097 30.464536 14.130972 36.084541 -1.161839 1.168418 0.012719 0.001970 -12845.900000 0 0 1
-13.108097 30.579736 12.707072 35.614774 -1.165836 1.205965 0.003600 0.006320 480285.000000 0 0 1
-14.307697 30.069236 12.123072 35.437805 -1.126675 1.221652 -0.010079 0.001743 373909.000000 0 0 1
-14.208397 30.011636 10.555872 34.842550 -1.128630 1.263000 -0.006218 0.005694 -239412.000000 0 0 1
-13.510397 28.837536 10.145972 33.422673 -1.132664 1.262364 -0.010261 0.003888 240190.000000 0 0 1
-14.010297 28.426636 8.912672 32.921084 -1.112879 1.296647 -0.006823 0.004880 -305220.000000 0 0 1
-13.335497 27.151236 8.430672 31.402250 -1.114249 1.298988 0.004690 0.002535 553702.000000 0 0 1
-12.033597 27.343136 7.864972 30.891946 -1.156209 1.313366 0.009045 -0.000554 452050.000000 0 0 1
-11.341597 26.141836 7.760472 29.533918 -1.161455 1.304910 0.018277 -0.008142 -726525.000000 0 0 1
-10.155497 26.250936 6.841372 28.966362 -1.201667 1.332360 0.026051 -0.016001 -738686.000000 0 0 1
-10.600897 26.303536 5.470272 28.882155 -1.187688 1.380246 0.025512 -0.018362 511017.000000 0 0 1
-9.597397 26.015736 4.522672 28.095962 -1.217378 1.409121 0.036825 -0.004905 -263121.000000 0 0 1
-9.989397 26.670636 3.230872 28.662683 -1.212423 1.457836 0.020340 -0.004640 -18082.500000 0 0 1
-9.583297 28.003236 2.996672 29.748964 -1.241068 1.469893 0.018640 -0.003323 -35523.900000 0 0 1
-9.997197 28.480236 1.729272 30.233395 -1.233211 1.513568 0.010179 0.002014 -214254.000000 0 0 1
-9.481897 29.860236 1.298472 31.356436 -1.263324 1.529374 0.022872 -0.002573 -247988.000000 0 0 1
-10.166897 30.879436 1.922572 32.566879 -1.252730 1.511727 0.011014 -0.009697 -424581.000000 0 0 1
-9.619097 32.167836 1.787672 33.622797 -1.280231 1.517603 0.010391 -0.001641 -51758.400000 0 0 1
-10.512797 33.233036 2.485172 34.944665 -1.264421 1.499619 0.014124 0.004695 660850.000000 0 0 1
-11.772997 33.626936 1.973972 35.682921 -1.234027 1.515448 0.018410 0.006042 9065.730000 0 0 1
-11.632897 34.512636 0.851772 36.430370 -1.245694 1.547413 0.017571 -0.000290 303262.000000 0 0 1
-12.977797 -34.263420 0.237272 36.639615 1.208729 1.564320 0.020624 -0.003459 798228.000000 0 0 1
-13.682297 33.998636 -0.469928 36.651512 -1.188191 1.583618 0.009116 -0.002367 8928.160000 0 0 1
-13.785997 34.300836 -1.888928 37.015795 -1.188641 1.621849 0.015951 -0.006067 -251633.000000 0 0 1
-12.485897 33.975436 -2.617628 36.291594 -1.218619 1.642987 0.017319 -0.005330 -433708.000000 0 0 1
-12.290497 32.560036 -2.708228 34.907689 -1.209860 1.648457 0.009569 -0.000360 -283485.000000 0 0 1
-10.951997 32.188836 -2.937128 34.127615 -1.242841 1.656966 -0.004176 0.009153 -33400.500000 0 0 1
-10.795897 30.678136 -3.086828 32.668454 -1.232422 1.665427 -0.009255 -0.003741 -136803.000000 0 0 1
-11.080597 30.166636 -4.407628 32.438137 -1.218782 1.707096 -0.009562 0.000911 -15268.500000 0 0 1
-9.936597 30.036736 -5.263728 32.072547 -1.251314 1.735662 -0.018520 -0.001266 163420.000000 0 0 1
-10.103397 29.199536 -6.527028 31.579956 -1.237678 1.778979 -0.003442 -0.005961 -415496.000000 0 0 1
-10.533597 27.855536 -6.394028 30.459336 -1.209266 1.782290 0.001878 0.006162 181857.000000 0 0 1
-10.619097 27.262336 -7.647628 30.240476 -1.199361 1.826466 -0.001719 0.005852 -286586.000000 0 0 1
-11.120997 25.785236 -7.470328 29.057886 -1.163607 1.830800 0.013086 -0.003917 -425245.000000 0 0 1
-10.308497 24.942736 -6.752728 27.820936 -1.178889 1.815966 -0.010133 0.002341 -415062.000000 0 0 1
-10.831797 23.667536 -6.911928 26.930555 -1.141587 1.830359 0.009235 -0.007119 173921.000000 0 0 1
-10.036197 22.626336 -6.064228 25.484332 -1.153309 1.811060 0.001991 -0.002317 159303.000000 0 0 1
-8.712297 22.335836 -6.457728 24.829336 -1.198889 1.833906 0.004526 -0.005830 241388.000000 0 1 0
-8.074297 21.184036 -5.902428 23.426402 -1.206645 1.825497 0.016726 -0.003675 -90098.400000 0 1 0
-7.748797 21.074436 -4.340428 22.869521 -1.218452 1.761746 0.005825 -0.008834 178660.000000 0 1 0
-8.861397 20.885136 -3.471928 22.951417 -1.169525 1.722652 -0.001390 -0.010926 164744.000000 0 1 0
-9.610797 19.699236 -3.528428 22.200836 -1.116894 1.730405 0.005630 -0.010907 -176905.000000 0 1 0
-10.858697 19.679636 -2.615728 22.628332 -1.066593 1.686651 0.010493 -0.014925 -17472.800000 0 1 0
-10.730897 19.606536 -1.232028 22.384957 -1.070019 1.625862 0.006661 -0.013521 -57284.200000 0 1 0
-11.101397 18.327836 -0.744328 21.440723 -1.026187 1.605519 0.026649 -0.022200 -147694.000000 0 1 0
-10.845897 18.107436 0.761272 21.120896 -1.031131 1.534745 0.019385 -0.022647 -365345.000000 0 1 0
-11.973697 18.304336 1.544972 21.927267 -0.991512 1.500279 0.032992 -0.016452 -404429.000000 0 1 0
-11.541697 18.362936 2.862772 21.877012 -1.009661 1.439562 0.023442 -0.017412 154195.000000 0 1 0
-12.735097 18.545736 3.828672 22.820730 -0.969062 1.402227 0.021003 -0.008995 253758.000000 0 1 0
-13.477497 17.327636 3.992272 22.312062 -0.909737 1.390899 0.014714 -0.007483 23093.600000 0 1 0
-14.491197 17.490036 4.942572 23.244895 -0.878894 1.356530 0.007456 -0.010684 -514068.000000 0 1 0
-15.058997 16.120936 5.349472 22.699665 -0.819443 1.332896 -0.003666 -0.000817 -497723.000000 0 1 0
-14.407397 15.379836 6.413072 22.028162 -0.818033 1.275388 0.002304 -0.006865 290190.000000 0 1 0
-14.769597 15.921036 7.652772 23.025753 -0.822898 1.231995 -0.003807 0.005864 -1826130.000000 0 1 0
-13.814797 15.732036 8.791572 22.707648 -0.850195 1.173243 -0.012179 0.009763 129127.000000 0 1 0
-12.588497 16.452036 8.672472 22.457772 -0.917661 1.174323 -0.002540 -0.002710 233576.000000 0 1 0
-11.651497 15.973936 7.752472 21.237345 -0.940606 1.197121 -0.001156 -0.007703 -378794.000000 0 1 0
-10.532097 17.069036 7.402072 21.379142 -1.017949 1.217248 0.012818 -0.021546 1013920.000000 0 1 0
-9.537397 17.194436 8.416272 21.387945 -1.064368 1.166355 0.018526 -0.012440 -71918.000000 0 1 0
-8.922497 18.469036 8.300272 22.127150 -1.120755 1.186273 0.020687 -0.014497 -71957.700000 0 1 0
-7.737797 18.518836 9.279272 22.111664 -1.175011 1.137731 0.028226 -0.009979 303994.000000 0 1 0
-6.574797 17.733536 8.959672 20.928019 -1.215753 1.128387 0.016149 -0.009690 688882.000000 0 1 0
-5.402897 17.987836 9.716872 21.146421 -1.279006 1.093359 0.018518 -0.006252 456126.000000 0 1 0
-4.501697 19.020736 9.062172 21.544759 -1.338399 1.136667 0.016379 -0.010319 -1502420.000000 0 1 0
-4.946997 20.314336 9.202872 22.843771 -1.331923 1.156155 0.024673 -0.017164 -157717.000000 0 1 0
-4.352097 21.336536 8.393972 23.337679 -1.369583 1.202877 0.020812 -0.018329 -449322.000000 0 1 0
-2.917997 21.754036 8.725972 23.619809 -1.437456 1.192396 0.017087 -0.016966 -567909.000000 0 1 0
-1.888697 20.866236 8.409172 22.576119 -1.480528 1.189116 0.003539 -0.002656 -44584.300000 0 1 0
-0.668497 21.599836 8.295972 23.147850 -1.539857 1.204253 -0.000083 -0.001708 323334.000000 0 1 0
0.595503 20.722236 8.139172 22.271323 1.542067 1.196674 -0.005876 0.005214 40500.900000 0 1 0
1.002103 20.190436 9.347772 22.271928 1.521204 1.137669 -0.006923 0.003890 -773466.000000 0 1 0
2.321003 19.757236 9.199772 21.917373 1.453856 1.137629 -0.011096 0.000483 -83311.600000 0 1 0
3.167903 19.519436 10.498172 22.388738 1.409904 1.082747 -0.018709 -0.002280 -360036.000000 0 1 0
3.421503 18.170536 10.885772 21.456353 1.384676 1.038695 -0.013827 0.000266 112241.000000 0 1 0
4.144203 17.967236 12.063072 22.034375 1.344107 0.991463 -0.020576 0.004717 485391.000000 0 1 0
5.619203 18.542936 12.170672 22.881022 1.276555 1.009940 -0.000932 0.008106 892194.000000 0 1 0
6.533503 17.771136 11.371072 22.086222 1.218488 1.029965 -0.013320 0.006367 366358.000000 0 1 0
7.145403 16.676336 12.105072 21.810313 1.165985 0.982414 -0.006904 0.003685 -422017.000000 0 1 0
8.394703 16.048536 11.439772 21.421833 1.088854 1.007443 -0.003513 -0.006594 47746.200000 0 1 0
9.458703 16.925636 11.243972 22.413637 1.061192 1.045282 0.009945 -0.012660 80866.400000 0 1 0
10.574603 16.331936 10.570072 22.142285 0.996195 1.073137 0.017267 -0.020994 1248990.000000 0 1 0
11.632603 17.363836 10.031972 23.183199 0.980536 1.123282 0.017853 -0.016487 1344670.000000 0 1 0
12.776603 16.934536 9.253072 23.143886 0.924440 1.159491 0.021164 -0.015516 969292.000000 0 1 0
13.533403 18.065336 8.815472 24.232662 0.927848 1.198469 0.018855 -0.007903 309321.000000 0 1 0
14.616103 17.640136 7.778572 24.193203 0.878875 1.243463 0.013785 -0.009119 -622080.000000 0 1 0
15.605003 16.878836 8.324372 24.448035 0.824592 1.223356 0.023624 -0.016530 -447129.000000 0 1 0
16.729703 16.787836 7.452172 24.844502 0.787133 1.266153 0.039909 -0.006043 269349.000000 0 1 0
18.091203 16.615336 8.151272 25.880577 0.742900 1.250385 0.028511 -0.013454 -255165.000000 0 0 1
18.344203 15.347336 8.679472 25.443737 0.696681 1.222684 0.032310 -0.014592 20442.000000 0 0 1
19.520103 15.346236 9.440772 26.564442 0.666255 1.207464 0.037328 -0.017927 -343640.000000 0 0 1
19.743303 14.057436 10.267872 26.321830 0.618741 1.170067 0.034761 -0.028165 -76235.400000 0 0 1
20.096803 12.873136 9.512272 25.692070 0.569708 1.191527 0.036942 -0.036291 376738.000000 0 0 1
20.374703 11.833536 10.418072 25.762324 0.526179 1.154483 0.038985 -0.037082 -536833.000000 0 0 1
21.473803 10.937636 9.833272 26.027857 0.471098 1.183379 0.044212 -0.030278 -1361630.000000 0 0 1
22.762403 11.260636 10.301472 27.405278 0.459401 1.185435 0.027292 -0.032927 925825.000000 0 0 1
23.775003 10.386836 9.734572 27.710991 0.411890 1.211849 0.039545 -0.029205 148390.000000 0 0 1
23.835103 9.058836 10.422572 27.546409 0.363202 1.182768 0.049793 -0.032326 -982568.000000 0 0 1
22.676303 8.309936 10.113072 26.182895 0.351262 1.174237 0.046198 -0.024529 380473.000000 0 0 1
22.680503 6.928336 10.396372 25.893853 0.296472 1.157643 0.040945 -0.021827 50960.300000 0 0 1
23.687603 6.017736 9.598072 26.257165 0.248783 1.196582 0.048890 -0.021034 567757.000000 0 0 1
23.233103 5.842136 8.275472 25.345435 0.246350 1.238190 0.052302 -0.016378 257233.000000 0 0 1
24.294703 5.431236 7.455372 25.986795 0.219940 1.279817 0.033209 -0.011972 -255856.000000 0 0 1
23.944003 5.193536 5.970872 25.217840 0.213595 1.331755 0.031933 -0.012760 -267907.000000 0 0 1
23.224503 3.976236 5.704672 24.243170 0.169565 1.333258 0.040981 -0.010938 671010.000000 0 1 0
23.158603 3.683436 4.317072 23.843777 0.157731 1.388736 0.039376 -0.008025 21223.800000 0 1 0
22.111603 2.580336 4.045072 22.626174 0.116171 1.391052 0.027016 -0.005856 2559.470000 0 1 0
22.665303 1.297336 4.374572 23.120033 0.057176 1.380437 0.032655 -0.003052 720135.000000 0 1 0
21.881903 0.262336 3.793372 22.209822 0.011988 1.399158 0.018512 -0.001250 -296507.000000 0 1 0
22.375003 -1.121164 4.254672 22.803509 -0.050066 1.383117 0.014201 -0.001942 -530233.000000 0 1 0
22.185203 -1.489564 5.584072 22.925617 -0.067042 1.324748 0.013793 -0.003481 616910.000000 0 1 0
22.384503 -2.879564 5.724372 23.283606 -0.127938 1.322395 0.006782 -0.002395 -693338.000000 0 1 0
21.850703 -3.399464 7.070672 23.216460 -0.154340 1.261326 0.006702 -0.002175 -296576.000000 0 1 0
22.083903 -4.792064 7.316772 23.752849 -0.213681 1.257667 0.010773 -0.007175 424679.000000 0 1 0
21.791103 -5.182664 8.621172 24.000767 -0.233496 1.203381 0.013665 -0.005180 -73859.200000 0 1 0
21.741603 -6.734064 8.889072 24.434822 -0.300361 1.198466 0.024113 -0.014039 -194850.000000 0 1 0
20.581403 -7.354064 8.402872 23.415480 -0.343177 1.203750 0.021750 -0.016508 -112754.000000 0 1 0
20.270303 -8.489964 9.226672 23.834768 -0.396639 1.173301 0.013022 -0.009121 -254857.000000 0 1 0
-25.382837 -32.825120 5.241772 41.824073 0.912565 1.445137 0.026884 -0.015940 -18836.300000 0 0 1
-25.749577 -34.114520 5.782072 43.130888 0.924231 1.436333 0.033466 -0.021658 277585.000000 0 0 1
-26.006487 -33.941520 7.190972 43.359822 0.916998 1.404182 0.026768 0.002559 -62338.500000 0 0 1
-26.809847 34.158436 7.753972 44.109984 -0.905351 1.394091 0.025146 -0.000227 39472.500000 0 0 1
-28.182557 34.034836 7.444672 44.811267 -0.879184 1.403889 0.036788 -0.012745 -215939.000000 0 0 1
-28.718117 32.836936 7.960072 44.343628 -0.852211 1.390309 0.034485 -0.010797 -1087090.000000 0 0 1
-30.218537 32.954136 8.040072 45.428821 -0.828675 1.392877 0.033182 -0.008716 -1024600.000000 0 0 1
-30.823987 33.111436 6.766272 45.741314 -0.821160 1.422327 0.019521 -0.005371 198260.000000 0 0 1
-32.225857 32.904436 6.886172 46.568520 -0.795817 1.422380 0.003109 -0.003182 338342.000000 0 0 1
-32.911487 32.779736 5.487872 46.773858 -0.783393 1.453198 -0.008293 0.006013 -212187.000000 0 0 1
-32.667097 31.518536 4.891872 45.656190 -0.767506 1.463444 -0.014671 0.001980 261159.000000 0 0 1
-33.225907 31.555736 3.594372 45.963516 -0.759622 1.492516 -0.012001 0.011670 -182661.000000 0 0 1
-32.936447 30.362436 2.641072 44.873849 -0.744756 1.511907 -0.014341 0.008708 -76539.500000 0 0 1
-33.199887 29.105336 3.294972 44.274258 -0.719775 1.496306 -0.005126 0.005519 544591.000000 0 0 1
-32.665987 28.074336 2.448172 43.141958 -0.709947 1.514019 -0.015798 0.010412 -488908.000000 0 0 1
-32.900147 26.695136 3.108672 42.481923 -0.681653 1.497555 -0.005691 0.005719 -350044.000000 0 0 1
-34.283271 26.448236 3.231472 43.419975 -0.657096 1.496304 0.008938 0.003030 -99707.200000 0 0 1
-34.510425 25.363736 4.177072 43.031807 -0.633805 1.473574 0.006695 0.001740 675622.000000 0 0 1
33.950302 24.856136 4.124772 42.278413 0.631968 1.473079 0.018554 -0.000837 621257.000000 0 0 1
33.598792 24.059236 2.998372 41.433270 0.621433 1.498367 0.009183 -0.006432 100303.000000 0 0 1
34.262799 22.834136 3.028972 41.285734 0.587846 1.497364 0.013033 -0.005693 -879707.000000 0 0 1
33.605662 21.732536 2.098472 40.075519 0.574047 1.518409 0.009158 -0.008687 1231440.000000 0 0 1
32.183152 21.544236 2.311972 38.797610 0.589910 1.511170 0.015948 -0.019901 1525640.000000 0 0 1
31.816272 20.883536 3.511672 38.219485 0.580847 1.478785 0.014319 -0.014114 -458751.000000 0 0 1
32.001332 19.297136 3.411672 37.524714 0.542630 1.479753 0.010756 -0.015653 -836959.000000 0 0 1
31.154392 18.780036 2.426672 36.457847 0.542480 1.504186 0.017135 -0.021772 246835.000000 0 0 1
31.231182 17.398536 2.115272 35.812988 0.508269 1.511698 0.004258 -0.010448 -443848.000000 0 0 1
30.554522 16.368536 3.080872 34.799418 0.491810 1.482148 0.017584 -0.006602 1445800.000000 0 0 1
29.100032 16.397036 3.011072 33.537161 0.513127 1.480892 0.017697 -0.009364 1565910.000000 0 0 1
28.432232 15.521136 3.866172 32.622764 0.499689 1.452006 0.012627 -0.009599 454496.000000 0 0 1
26.880672 15.542236 3.739672 31.274858 0.524231 1.450935 -0.002345 -0.002812 522308.000000 0 0 1
26.286982 14.897136 2.602172 30.326578 0.515583 1.484886 0.008682 -0.007631 791023.000000 0 0 1
24.967122 15.406736 2.383672 29.434785 0.552884 1.489726 -0.000752 0.002026 404146.000000 0 0 1
24.300582 14.768336 1.113072 28.458056 0.546088 1.531674 0.001139 -0.002855 -298350.000000 0 0 1
24.789982 15.232036 -0.111828 29.095886 0.550972 1.574640 0.022272 -0.003874 904205.000000 0 0 1
26.118802 14.779436 -0.424928 30.013398 0.514934 1.584955 0.023242 -0.001616 -102274.000000 0 0 1
26.801572 15.568136 -1.621728 31.037414 0.526232 1.623071 0.035650 -0.000905 208610.000000 0 0 1
27.206872 16.917036 -1.357928 32.066243 0.556290 1.613157 0.043818 -0.013773 -172963.000000 0 0 1
28.085792 17.055436 -0.320128 32.860342 0.545742 1.580539 0.033116 -0.010087 -1466530.000000 0 0 1
28.779522 18.426336 -0.235528 34.173765 0.569497 1.577688 0.049935 -0.010490 -684939.000000 0 0 1
29.740152 18.512436 -1.251228 35.053566 0.556780 1.606499 0.017270 -0.004503 -68550.500000 0 0 1
30.489652 19.695836 -1.046128 36.313072 0.573547 1.599609 0.012698 0.005281 -266359.000000 0 0 1
30.077642 20.782136 -2.002228 36.613803 0.604626 1.625509 0.022282 0.000783 151942.000000 0 0 1
30.996472 21.858736 -2.236528 37.994574 0.614208 1.629695 -0.035202 0.008280 795607.000000 0 0 1
30.358302 22.771936 -3.127728 38.078474 0.643569 1.653028 0.001595 0.003811 -136443.000000 0 0 1
31.277372 23.969936 -3.350928 39.548205 0.653894 1.655628 -0.018555 0.008003 -337628.000000 0 0 1
31.363572 24.726736 -2.167528 39.997291 0.667622 1.625015 -0.005237 0.009535 858200.000000 0 0 1
32.475122 24.317436 -1.338028 40.592629 0.642734 1.603765 0.002372 0.016408 5315.720000 0 0 1
32.610582 25.119936 -0.073828 41.163900 0.656367 1.572590 0.006461 -0.003580 -129975.000000 0 0 1
32.988272 26.444636 -0.263128 42.280185 0.675739 1.577020 0.022842 -0.005196 216700.000000 0 0 1
34.161861 26.771936 0.468372 43.404938 0.664710 1.560005 0.013218 -0.003665 12402.200000 0 0 1
34.551527 28.247736 0.328672 44.630153 0.685353 1.563432 -0.004195 -0.004421 -528657.000000 0 0 1
-34.845781 28.664636 -0.950228 45.130840 -0.688379 1.591853 -0.019278 -0.000161 261351.000000 0 0 1
34.226795 28.691036 -2.091128 44.710422 0.697640 1.617584 -0.022292 -0.002764 -73485.200000 0 0 1
34.733718 27.950836 -3.368328 44.710468 0.677611 1.646204 -0.027327 -0.002936 582275.000000 0 0 1
-34.204091 28.670736 -4.132328 44.821948 -0.697618 1.663122 -0.020921 -0.000861 650564.000000 0 0 1
-33.974287 28.073836 -5.410328 44.403424 -0.690589 1.692945 -0.016450 -0.005354 -388369.000000 0 0 1
34.881046 28.255336 -6.464728 45.352443 0.680838 1.713828 -0.029547 -0.005442 248038.000000 0 0 1
33.722532 27.449836 -6.250028 43.929096 0.683214 1.713556 -0.033397 0.004333 -62332.200000 0 0 1
32.765942 27.556136 -7.269128 43.425658 0.699245 1.738981 -0.040092 0.004170 295638.000000 0 0 1
31.585372 26.579936 -6.994828 41.869515 0.699554 1.738646 -0.036027 0.011555 -7805.550000 0 0 1
31.869562 25.294036 -7.443928 41.362655 0.670872 1.751750 -0.036264 0.011815 279726.000000 0 0 1
32.802922 24.456336 -6.740128 41.467739 0.640649 1.734060 -0.037359 0.011335 372092.000000 0 0 1
32.790522 22.977036 -7.245928 40.689875 0.611210 1.749828 -0.035141 0.014811 -16631.400000 0 0 1
31.809202 22.290336 -6.497128 39.381430 0.611230 1.736534 -0.028508 0.013836 318169.000000 0 0 1
32.095652 20.905336 -6.612728 38.870195 0.577320 1.741751 -0.011710 0.006148 -60547.500000 0 0 1
30.944032 20.075836 -6.036628 37.376639 0.575516 1.733015 0.001119 0.003272 127337.000000 0 0 1
29.804692 19.920236 -6.871228 36.501359 0.589173 1.760172 -0.002142 -0.002981 626227.000000 0 0 1
28.831822 19.057036 -6.244828 35.120399 0.584050 1.749559 0.042238 -0.010616 772282.000000 0 0 1
27.518092 18.884636 -7.067428 34.114856 0.601447 1.779473 0.034169 -0.016156 291893.000000 0 0 1
27.540402 17.755736 -7.937528 33.715638 0.572652 1.808453 0.033666 -0.014767 261642.000000 0 0 1
26.296522 17.577736 -8.618928 32.783681 0.589232 1.836826 0.047871 -0.011874 366624.000000 0 0 1
26.308742 16.313636 -9.503028 32.381972 0.555057 1.868647 0.044535 -0.014675 -464641.000000 0 0 1
25.544382 16.478436 -10.653428 32.211020 0.572916 1.907882 0.026937 -0.016492 -87564.000000 0 0 1
25.592002 15.366036 -11.513928 31.994314 0.540731 1.938929 0.015841 -0.006306 -220779.000000 0 0 1
24.936652 15.537536 -12.896128 32.086784 0.557218 1.984402 0.021333 -0.001527 -421493.000000 0 0 1
23.538582 15.707736 -12.898328 31.099271 0.588454 1.998461 0.024744 0.004327 8089.950000 0 0 1
22.952582 15.675736 -14.173228 31.199841 0.599199 2.042352 0.009970 0.008890 -362833.000000 0 0 1
22.881682 14.239136 -14.877128 30.783977 0.556651 2.075188 0.002606 0.001204 293250.000000 0 0 1
24.085882 13.684036 -15.481428 31.734163 0.516660 2.080418 0.022234 -0.003191 873577.000000 0 0 1
24.373282 14.308136 -16.703128 32.829470 0.530837 2.104569 0.037005 -0.009520 -386572.000000 0 0 1
25.810272 14.059036 -17.205628 34.056721 0.498770 2.100416 0.055323 -0.004530 98263.400000 0 0 1
25.898742 12.677236 -17.482028 33.720593 0.455206 2.115819 0.064680 -0.008366 657633.000000 0 0 1
27.239072 12.226536 -17.743528 34.731657 0.421906 2.106998 0.062700 0.001181 747480.000000 0 0 1
27.303822 10.774436 -18.306828 34.593743 0.375854 2.128448 0.037495 0.004979 -323538.000000 0 0 1
26.810612 10.670036 -19.637228 34.903857 0.378762 2.168335 0.049175 -0.007473 -64293.200000 0 0 1
27.032662 9.399136 -20.225528 35.045406 0.334620 2.185998 0.021656 0.006499 531433.000000 0 0 1
28.434192 8.959836 -20.782128 36.341144 0.305259 2.179570 0.008597 0.003694 414233.000000 0 0 1
28.836102 9.726536 -21.954128 37.524791 0.325320 2.195746 0.008857 -0.001813 394921.000000 0 0 1
29.492032 8.957736 -22.967228 38.438451 0.294879 2.211184 -0.018537 0.003274 911699.000000 0 0 1
31.026252 8.624036 -22.976228 39.558935 0.271115 2.190520 -0.029228 0.009146 868160.000000 0 0 1
31.863022 9.762636 -22.992328 40.487138 0.297312 2.174739 -0.029428 0.011545 1470.960000 0 0 1
33.216482 9.407036 -23.207528 41.598273 0.275977 2.162645 -0.051738 0.017677 292512.000000 0 0 1
34.099487 10.694836 -23.107228 42.557003 0.303920 2.144768 -0.022828 0.017147 -144381.000000 0 0 1
34.004955 11.220336 -21.801628 41.923071 0.318713 2.117693 -0.035231 0.013174 189990.000000 0 0 1
34.865104 12.309636 -21.610628 42.826648 0.339402 2.099723 -0.049375 0.013183 -113346.000000 0 0 1
34.516285 13.136836 -20.281028 42.133958 0.363670 2.072986 -0.060381 0.021438 -171936.000000 0 0 1
34.970392 12.404236 -19.181328 41.769807 0.340862 2.047908 -0.049786 0.026872 275504.000000 0 0 1
34.557965 12.972336 -17.999928 41.067406 0.359103 2.024505 -0.037341 0.023041 -252444.000000 0 0 1
-34.817611 12.176136 -16.776228 40.521181 -0.336418 1.997653 -0.047899 0.022761 -623266.000000 0 0 1
34.446273 10.966736 -16.601028 39.779506 0.308226 2.001297 -0.048763 0.022643 415007.000000 0 0 1
-34.957731 10.388436 -15.459228 39.609977 -0.288860 1.971739 -0.048100 0.008117 80312.300000 0 0 1
34.349319 8.970336 -15.295328 38.656043 0.255445 1.977602 -0.011792 0.017338 615096.000000 0 0 1
33.167172 8.933536 -14.493328 37.281710 0.263105 1.970073 -0.004174 0.017995 874418.000000 0 0 1
33.485932 8.647836 -13.154728 37.001886 0.252731 1.934261 -0.012570 0.019281 -194083.000000 0 0 1
32.338682 8.991236 -12.180128 35.706976 0.271184 1.918897 -0.002550 0.018592 -97595.700000 0 0 1
32.415362 10.410236 -11.917828 36.071641 0.310747 1.907517 0.002124 0.014407 46588.100000 0 0 1
31.440782 10.925136 -11.055628 35.072899 0.334431 1.891483 -0.003322 0.017910 -458464.000000 0 0 1
31.509192 10.615536 -9.523028 34.586223 0.324960 1.849741 0.008324 0.019956 -118827.000000 0 0 1
32.533102 11.195736 -8.726328 35.495014 0.331439 1.819189 0.005968 0.018279 216380.000000 0 0 1
32.373162 12.564036 -8.456428 35.740562 0.370206 1.809667 0.014296 0.016507 -910821.000000 0 0 1
32.221342 12.875436 -6.971028 35.391905 0.380156 1.769059 0.015992 0.010376 -956666.000000 0 0 1
33.440062 12.871836 -6.326428 36.386063 0.367441 1.745554 0.020617 0.012788 -172017.000000 0 0 1
33.178352 13.173736 -4.953528 36.040086 0.377968 1.708678 0.015886 0.013631 -509036.000000 0 0 1
34.491148 13.103736 -4.223628 37.137396 0.363074 1.684773 0.014087 0.004661 -536082.000000 0 0 1
-34.524629 14.137236 -4.479928 37.575007 -0.388654 1.690307 0.013699 0.014486 -152762.000000 0 0 1
-33.317677 13.876436 -3.814728 36.292908 -0.394639 1.676100 0.006269 -0.001355 -83569.900000 0 0 1
-32.409337 15.100836 -3.668228 35.942402 -0.436031 1.673033 0.007709 0.004659 44081.200000 0 0 1
-32.996247 16.019036 -2.794328 36.785460 -0.451965 1.646832 0.009813 0.007168 623335.000000 0 0 1
-32.072877 17.078736 -2.476628 36.420960 -0.489307 1.638849 0.009871 0.006010 416119.000000 0 0 1
-32.613037 17.988836 -1.335428 37.269179 -0.504059 1.606636 -0.001448 0.009003 -252770.000000 0 0 1
-33.578147 18.908336 -1.723228 38.574429 -0.512856 1.615484 -0.024341 0.012703 -163207.000000 0 0 1
-33.973097 19.776036 -0.678528 39.315687 -0.527160 1.588056 -0.030471 0.010430 483085.000000 0 0 1
34.754108 20.693636 -1.057528 40.462241 0.537052 1.596935 -0.026745 0.012587 595301.000000 0 0 1
-34.793823 21.912236 -1.672528 41.152807 -0.562025 1.611449 -0.026193 0.014504 120857.000000 0 0 1
34.774690 21.874236 -3.029128 41.193893 0.561490 1.644396 -0.044516 0.023101 -90792.500000 0 0 1
-34.924348 23.160236 -3.794128 42.077333 -0.585567 1.661089 -0.025800 -0.001876 -706787.000000 0 0 1
-33.572177 23.274836 -4.105928 41.056883 -0.606200 1.670970 -0.019535 0.009803 -668441.000000 0 0 1
-33.254367 24.451836 -4.790528 41.553512 -0.634025 1.686339 -0.013936 0.000371 -249210.000000 0 0 1
-31.754607 24.498536 -5.085728 40.427688 -0.657117 1.696929 -0.003351 -0.007352 -389438.000000 0 0 1
-31.472447 23.648036 -6.160128 39.845849 -0.644389 1.726018 -0.012803 0.003330 1125570.000000 0 0 1
-30.104307 23.939736 -6.577328 39.021039 -0.671823 1.740163 -0.000750 0.003069 1051780.000000 0 0 1
-29.584367 23.140336 -7.810528 38.362928 -0.663781 1.775825 -0.001364 -0.009830 -123546.000000 0 0 1
-30.365197 23.312636 -8.993228 39.324322 -0.654760 1.801532 0.005520 -0.018827 -150590.000000 0 0 1
-29.767867 22.765836 -10.118228 38.817363 -0.652893 1.834505 -0.000132 -0.018782 -594267.000000 0 0 1
-30.615257 22.585536 -11.371728 39.707890 -0.635597 1.861248 0.002966 -0.006822 -473045.000000 0 0 1
-31.193327 23.828636 -11.765028 40.978572 -0.652339 1.861996 0.019317 -0.009321 18954.400000 0 0 1
-31.790817 23.740336 -13.006428 41.754362 -0.641429 1.887566 0.018997 -0.004313 -735355.000000 0 0 1
-32.277887 25.119336 -13.517028 43.076131 -0.661319 1.889982 0.021334 -0.004919 130004.000000 0 0 1
-31.287377 26.124936 -13.756428 43.019199 -0.695721 1.896287 0.014130 -0.010582 55880.800000 0 0 1
-30.486987 25.899536 -14.912428 42.692187 -0.704220 1.927621 0.005195 -0.010598 321049.000000 0 0 1
-29.043987 26.479736 -14.807528 41.999910 -0.739248 1.931103 -0.009857 -0.008033 368767.000000 0 0 1
-28.106317 25.917836 -13.888628 40.676691 -0.744911 1.919244 -0.005771 -0.011388 418410.000000 0 0 1
-28.477587 25.620636 -12.493328 40.292346 -0.732637 1.886060 0.003702 -0.007513 -950397.000000 0 0 1
-28.760267 26.779336 -11.530328 40.954050 -0.749746 1.856198 0.021155 -0.001239 -524252.000000 0 0 1
-27.610867 27.491436 -11.201428 40.541472 -0.783231 1.850734 0.019952 0.000896 -363951.000000 0 0 1
-27.916387 28.654536 -10.468128 41.352010 -0.798446 1.826728 0.004061 -0.005359 -613463.000000 0 0 1
-26.642387 29.210536 -9.899028 40.756140 -0.831346 1.816134 0.001621 -0.002236 -540745.000000 0 0 1
-26.774727 30.507436 -9.418328 41.668867 -0.850470 1.798794 -0.001185 -0.000278 109837.000000 0 0 1
-25.526917 31.073336 -9.023628 41.214094 -0.883079 1.791530 0.012983 -0.005350 41442.900000 0 0 1
33.342102 -25.597914 34.022890 54.078702 -0.654756 0.890354 -0.011538 0.001587 -289583.000000 0 0 1
32.821752 -24.338464 34.361680 53.388700 -0.638061 0.871586 -0.011420 -0.009800 181327.000000 0 0 1
32.145412 -24.371564 -33.642928 52.527585 -0.648707 2.265921 -0.009153 -0.004607 228401.000000 0 0 1
31.695862 -22.949364 -33.328948 51.401554 -0.626685 2.276282 -0.016422 -0.006416 -141200.000000 0 0 1
30.870742 -22.258964 -34.213141 51.176197 -0.624706 2.303035 -0.020035 -0.004544 -102696.000000 0 0 1
30.599382 -20.970764 -33.641038 50.078084 -0.600814 2.307394 -0.025313 0.002574 225079.000000 0 0 1
30.147132 -19.856364 34.630400 50.023888 -0.582431 0.806156 -0.023992 0.013124 876489.000000 0 0 1
31.239252 -19.445164 33.769238 49.943635 -0.556770 0.828276 -0.018265 -0.005721 626733.000000 0 0 1
30.760662 -18.969564 32.537635 48.628802 -0.552596 0.837796 -0.018994 -0.003572 189725.000000 0 0 1
31.847592 -18.809464 31.415535 48.528351 -0.533486 0.866675 -0.027154 0.001887 -177752.000000 0 0 1
32.708142 -17.750364 31.639025 48.845940 -0.497213 0.866194 -0.032750 -0.004176 294965.000000 0 0 1
33.717772 -17.711564 30.591915 48.851335 -0.483673 0.894095 -0.008840 -0.002982 -164192.000000 0 0 1
34.760044 -16.643464 30.880955 49.385209 -0.446553 0.895270 0.000339 -0.009989 -1344810.000000 0 0 1
-34.340668 -16.332764 29.808515 48.317576 0.443946 0.905962 0.005053 -0.005724 990313.000000 0 0 1
-33.270957 -15.386264 30.074215 47.414682 0.433162 0.883719 0.005338 -0.016812 1005410.000000 0 0 1
-32.163217 -15.829464 31.053975 47.427775 0.457356 0.856927 0.037797 -0.022701 -1515040.000000 0 0 1
-31.259587 -14.864564 31.417735 46.746028 0.443873 0.833763 0.030358 -0.024259 373357.000000 0 0 1
-30.222707 -15.522864 32.212495 46.818972 0.474481 0.812036 0.023341 -0.024788 1195370.000000 0 0 1
-28.976567 -14.644164 32.553825 45.976564 0.467942 0.784060 0.035134 -0.027946 329053.000000 0 0 1
-29.214147 -13.910464 33.713472 46.728638 0.444390 0.764868 0.035316 -0.026378 446618.000000 0 0 1
-28.104467 -13.169764 34.208342 46.189982 0.438214 0.736832 0.039048 -0.027169 64832.000000 0 0 1
-28.403737 -12.636364 -33.653488 45.814923 0.418591 2.395804 0.026881 -0.014885 -219831.000000 0 0 1
-28.384287 -13.663464 -32.672778 45.385773 0.448636 2.374441 0.040859 -0.012018 135008.000000 0 0 1
-28.475367 -13.117864 -31.371218 44.351755 0.431695 2.356507 0.045882 -0.007293 -641177.000000 0 0 1
-28.743187 -14.217964 -30.345688 44.149542 0.459363 2.328615 0.050672 -0.009893 -460792.000000 0 0 1
-29.999707 -14.818564 -30.409788 45.214239 0.458802 2.308474 0.033274 -0.008995 -570265.000000 0 0 1
-30.133877 -15.744464 -29.332828 44.903824 0.481472 2.282648 0.022509 -0.004373 602933.000000 0 0 1
-31.491837 -16.496664 -29.367408 46.112041 0.482537 2.261229 0.008570 -0.006915 210766.000000 0 0 1
-31.251597 -17.651064 -30.135188 46.865253 0.514139 2.269228 0.009433 -0.009289 120641.000000 0 0 1
-32.296937 -18.605864 -30.076918 47.894585 0.522651 2.249753 -0.001956 -0.005410 87063.200000 0 0 1
-31.983817 -19.946064 -30.768188 48.656874 0.557613 2.255380 0.005088 -0.004789 526598.000000 0 0 1
-33.103867 -20.798164 -30.498838 49.584360 0.560947 2.233296 -0.023154 -0.001547 359635.000000 0 0 1
-32.864307 -22.038164 -31.135658 50.350497 0.590707 2.237474 -0.018175 -0.009287 48652.600000 0 0 1
-34.083342 -22.982864 -31.349848 51.698154 0.593278 2.222324 -0.009093 -0.006579 130300.000000 0 0 1
-34.501916 -23.585464 -30.142718 51.529018 0.599633 2.195634 -0.036089 -0.000324 -339782.000000 0 0 1
34.587622 -24.696564 -30.267848 52.176302 -0.620079 2.189657 -0.023535 0.000681 -72589.600000 0 0 1
-34.753836 -25.999684 -30.908428 53.283614 0.642290 2.189616 -0.031420 0.007130 -62134.800000 0 0 1
-34.526176 -26.089094 -32.344068 54.026256 0.647096 2.212640 -0.017040 0.001023 -189142.000000 0 0 1
-33.819197 -27.296194 -32.596948 54.326617 0.679068 2.214320 -0.019299 -0.001114 -73991.100000 0 0 1
-34.171008 -27.928164 -33.959068 55.685352 0.685205 2.226653 -0.011334 -0.013955 638421.000000 0 0 1
34.440617 -28.469384 -34.008348 56.153625 -0.690765 2.221354 -0.006912 -0.005665 394903.000000 0 0 1
34.278236 -29.685004 34.586171 57.029818 -0.713711 0.919198 -0.005444 -0.003126 54532.000000 0 0 1
-34.931179 -30.933924 -34.101189 57.792612 0.724784 2.201931 -0.010106 -0.007768 -99787.300000 0 0 1
34.624924 -31.199584 -32.747178 56.962067 -0.733408 2.183272 0.002960 -0.016142 3217.260000 0 0 1
-34.594494 -32.259694 -32.147138 57.191829 0.750489 2.167711 0.000152 -0.017132 -303004.000000 0 0 1
34.838708 -32.635354 -30.766458 56.792401 -0.752755 2.143297 -0.001774 -0.014212 -379146.000000 0 0 1
33.820442 -33.589534 -30.773558 56.737033 -0.781973 2.144075 0.007922 -0.006600 -165579.000000 0 0 1
33.399562 -33.773524 -29.429338 55.877254 -0.790965 2.125485 0.011432 -0.005460 40188.600000 0 0 1
32.113902 -34.626446 -29.339688 55.597758 -0.823027 2.126703 0.015821 -0.008191 133594.000000 0 0 1
30.899812 -34.123534 -29.864068 54.873277 -0.834936 2.146276 0.019954 -0.003775 -56067.600000 0 0 1
29.999622 34.063380 -29.870548 54.337287 0.848747 2.152831 0.020729 -0.005426 1548290.000000 0 0 1
28.635712 34.347975 -30.672388 54.227140 0.875845 2.171991 0.000992 -0.005041 1256070.000000 0 0 1
28.702602 34.164322 -32.033628 54.928986 0.872058 2.193437 0.004939 0.000329 -598326.000000 0 0 1
27.584052 34.605384 -32.749008 55.053701 0.897824 2.207882 0.003504 0.017390 -321028.000000 0 0 1
27.483682 33.890911 -34.149980 55.409094 0.889417 2.234863 0.002093 0.000407 -193222.000000 0 0 1
27.096942 32.535021 -34.038708 54.326839 0.876341 2.247920 -0.007354 0.002256 123911.000000 0 0 1
26.878692 31.927541 33.952951 53.801811 0.871044 0.887859 0.001394 0.001414 -22105.100000 0 0 1
26.938472 30.436071 34.093561 53.050981 0.846284 0.872836 -0.000021 -0.008362 -933134.000000 0 0 1
28.234522 29.958611 34.090297 53.449555 0.815017 0.879154 0.001743 -0.003532 -1139240.000000 0 0 1
28.253122 28.590601 34.444944 52.935012 0.791335 0.862287 0.002477 -0.011082 578966.000000 0 0 1
29.697432 28.069041 -34.590966 53.538243 0.757216 2.273258 0.017755 -0.013848 504926.000000 0 0 1
30.318312 28.426981 -33.359768 53.293221 0.753214 2.247167 0.018515 -0.006848 118132.000000 0 0 1
31.423682 27.583241 -33.055568 53.300596 0.720405 2.239759 0.031033 -0.011955 284512.000000 0 0 1
32.047342 27.724341 -31.650798 52.890871 0.713199 2.212320 0.018986 -0.006836 -616925.000000 0 0 1
32.804992 28.868541 -31.315218 53.760608 0.721657 2.192590 0.010043 -0.008031 -112993.000000 0 0 1
32.285012 30.197911 -31.395258 54.220826 0.752008 2.188330 0.007886 -0.004649 40490.000000 0 0 1
31.186482 30.546781 -30.344288 53.164634 0.775036 2.178228 0.013898 0.003654 264000.000000 0 0 1
31.697512 30.731231 -29.041418 52.844534 0.769921 2.152638 0.007614 0.003526 -290931.000000 0 0 1
30.688202 30.861241 -28.094908 51.802565 0.788210 2.144023 0.013295 0.005983 -707436.000000 0 0 1
31.314512 31.093781 -26.745878 51.601975 0.781861 2.115671 0.015456 -0.002850 219208.000000 0 0 1
31.999662 32.355481 -26.634218 52.727953 0.790927 2.100323 0.015702 -0.003130 250810.000000 0 0 1
32.238092 32.720681 -25.300418 52.440906 0.792827 2.074253 0.015491 -0.012297 157935.000000 0 0 1
32.428092 34.228848 -25.158728 53.443023 0.812407 2.060946 0.022758 -0.007413 -91240.100000 0 0 1
31.174202 -34.497749 -25.476678 53.018739 -0.835963 2.072046 0.027406 -0.000086 221953.000000 0 0 1
31.054732 -33.090134 -25.364928 51.987815 -0.817119 2.080480 0.024096 0.002851 -716943.000000 0 0 1
31.629962 -32.159234 -26.447048 52.288786 -0.793695 2.101092 0.022374 -0.002718 1226460.000000 0 0 1
33.017492 -32.258494 -26.846328 53.399349 -0.773771 2.097569 0.021556 -0.006374 1009210.000000 0 0 1
33.961426 -31.687134 -25.974218 53.217599 -0.750769 2.080680 0.023176 -0.005127 215137.000000 0 0 1
-34.501792 -32.056374 -26.342868 53.962315 0.748674 2.080790 0.007573 -0.002967 773166.000000 0 0 1
-33.972577 -33.397154 -26.161058 54.349856 0.776857 2.072985 0.012406 -0.005546 113547.000000 0 0 1
-33.980577 -33.749684 -24.745728 53.907994 0.781989 2.047707 0.013080 -0.004679 604780.000000 0 0 1
-32.612417 -33.411314 -24.001928 52.497411 0.797498 2.045643 -0.013024 0.002808 1049710.000000 0 0 1
-32.458937 -32.022834 -23.825428 51.446044 0.778635 2.052303 -0.035240 0.010211 30214.400000 0 0 1
-31.819517 -31.608184 -22.571128 50.209708 0.782066 2.037043 -0.014723 0.008369 120554.000000 0 0 1
-31.661827 -30.077154 -22.450828 49.103423 0.759737 2.045658 -0.033668 0.020432 -37926.100000 0 0 1
-32.863857 -29.364744 -22.654528 49.553495 0.729227 2.045610 -0.044157 0.024554 -364939.000000 0 0 1
-33.032267 -28.991804 -24.008228 50.080439 0.720347 2.070760 -0.045713 0.020454 -785958.000000 0 0 1
-34.172590 -28.065674 -24.299928 50.457254 0.687590 2.073269 -0.056691 0.017660 -671831.000000 0 0 1
-34.159548 -26.801144 -23.616528 49.425868 0.665272 2.068965 -0.069455 0.021775 -203936.000000 0 0 1
34.774501 -25.933314 -24.133528 49.641010 -0.640780 2.078488 -0.052555 0.018839 156977.000000 0 0 1
-34.918870 -25.357704 -25.584838 50.168960 0.628087 2.105950 -0.048974 0.015992 -911278.000000 0 0 1
-33.845187 -24.459564 -25.589858 48.975583 0.625792 2.120579 -0.058143 0.011506 -573676.000000 0 0 1
-33.675207 -23.954164 -26.861378 49.288489 0.618289 2.147165 -0.041827 0.001893 -262911.000000 0 0 1
-32.407757 -23.100364 -27.041498 48.115820 0.619267 2.167608 -0.037055 -0.007891 -331320.000000 0 0 1
-32.365247 -21.771264 -26.430368 47.117528 0.592150 2.166324 -0.039413 0.009358 175985.000000 0 0 1
-33.371447 -20.874464 -26.930108 47.693054 0.558972 2.170811 -0.048265 0.006968 1090850.000000 0 0 1
-34.565673 -20.670364 -25.903838 47.885890 0.538950 2.142362 -0.050706 0.005030 262463.000000 0 0 1
-34.238620 -19.940464 -24.734228 46.708535 0.527375 2.128859 -0.045201 0.004578 87724.500000 0 0 1
-33.405157 -20.713564 -23.823928 45.962330 0.555047 2.115700 -0.062517 0.015618 -11170.400000 0 0 1
-33.963727 -21.978164 -23.091928 46.581236 0.574339 2.089477 -0.042282 0.019729 -33888.800000 0 0 1
-34.932988 -21.641664 -22.125528 46.671343 0.554649 2.064705 -0.042719 0.019861 -187000.000000 0 0 1
34.446194 -22.728864 -21.479028 46.524081 -0.583259 2.050679 -0.038683 0.025613 -438632.000000 0 0 1
33.370102 -22.671964 -20.413928 45.214047 -0.596773 2.039237 -0.044192 0.018310 -164285.000000 0 0 1
32.175722 -22.071164 -20.855328 44.242039 -0.601239 2.061664 -0.010425 0.013550 -325723.000000 0 0 1
31.145392 -22.063764 -19.901528 43.045510 -0.616349 2.051425 0.003646 0.005335 48002.400000 0 0 1
29.864082 -21.363764 -20.400728 42.005517 -0.620965 2.077923 0.000522 0.002421 -522933.000000 0 0 1
29.364142 -22.055764 -21.548828 42.580060 -0.644213 2.101428 0.005683 -0.000307 1044790.000000 0 0 1
28.092402 -21.526364 -21.996328 41.670203 -0.653833 2.126884 0.037531 -0.007816 980587.000000 0 0 1
28.205652 -20.291264 -22.940128 41.635846 -0.623631 2.154323 0.022381 -0.008757 -359063.000000 0 0 1
28.682482 -19.105264 -22.289028 41.042620 -0.587607 2.144886 0.018724 0.002470 91604.900000 0 0 1
28.725302 -17.960064 -23.144628 41.029022 -0.558768 2.170144 0.010901 0.000067 -264685.000000 0 0 1
29.274712 -16.745864 -22.407628 40.491166 -0.519596 2.157232 0.005240 0.000017 -692529.000000 0 0 1
28.641752 -16.531864 -21.207128 39.286063 -0.523482 2.141011 -0.004930 0.000537 150433.000000 0 0 1
29.474882 -16.069364 -20.134228 39.145629 -0.499142 2.111036 -0.015257 0.001172 19444.700000 0 0 1
30.477632 -17.047464 -19.477528 39.985949 -0.509988 2.079573 -0.004737 -0.004915 93379.900000 0 0 1
31.557312 -17.294564 -20.373028 41.352462 -0.501335 2.085949 -0.005134 -0.001872 68639.800000 0 0 1
32.399162 -18.324364 -19.862928 42.190329 -0.514727 2.060986 -0.008193 0.006455 -323549.000000 0 0 1
33.505472 -18.750964 -20.814828 43.674619 -0.510213 2.067567 -0.021758 0.006543 -161346.000000 0 0 1
34.449501 -17.695864 -20.872428 43.995113 -0.474528 2.065108 -0.025636 0.006152 -249514.000000 0 0 1
-34.349766 -17.999664 -21.626928 44.402909 0.482672 2.079518 -0.033336 0.013794 186287.000000 0 0 1
-33.478357 -16.756264 -21.909628 43.377466 0.464056 2.100285 -0.025573 0.011282 80745.400000 0 0 1
-32.686347 -16.262064 -20.849928 42.042496 0.461660 2.089696 -0.010248 0.009201 -152274.000000 0 0 1
-31.788267 -15.252564 -21.307428 41.196372 0.447372 2.114391 -0.002111 0.010223 -383342.000000 0 0 1
-30.866137 -14.850364 -20.141928 39.735991 0.448431 2.102374 0.006213 -0.002039 438409.000000 0 0 1
-29.797497 -15.805664 -19.846728 39.135692 0.487699 2.102643 0.006246 -0.005107 929544.000000 0 0 1
-30.184817 -17.164464 -19.462528 39.806180 0.517046 2.081662 -0.005295 0.000389 -812243.000000 0 0 1
-28.978857 -18.080664 -19.273428 39.219250 0.557827 2.084525 -0.013526 -0.007146 -185395.000000 0 0 1
-29.403257 -19.442164 -19.129028 40.105722 0.584226 2.067995 -0.009736 0.001825 420447.000000 0 0 1
-28.343377 -20.393264 -19.061228 39.781436 0.623698 2.070481 -0.012941 0.003359 86451.900000 0 0 1
-28.956977 -21.744164 -18.877328 40.837099 0.644085 2.051338 -0.015973 0.030437 -187233.000000 0 0 1
-29.560637 -22.222364 -20.077628 42.080587 0.644624 2.068175 -0.022729 0.030654 -45653.300000 0 0 1
-30.267657 -23.385564 -19.814828 43.077175 0.657825 2.048774 -0.035389 0.044142 205709.000000 0 0 1
-31.276547 -23.895264 -20.908928 44.568927 0.652401 2.059110 -0.053955 0.044110 363206.000000 0 0 1
-30.633467 -24.289164 -22.085128 44.901288 0.670394 2.085021 -0.049634 0.036369 285298.000000 0 0 1
-31.438417 -25.301644 -22.686028 46.294741 0.677661 2.082926 -0.045312 0.035351 160173.000000 0 0 1
-31.163397 -25.464904 -24.200628 46.960505 0.685106 2.112201 -0.042184 0.026820 505377.000000 0 0 1
-29.934577 -26.148204 -24.506528 46.694511 0.717986 2.123308 -0.014979 0.020658 376216.000000 0 0 1
-29.774637 -26.157564 -25.945298 47.369881 0.720819 2.150430 -0.005588 0.021473 1041210.000000 0 0 1
-28.283287 -26.432984 -26.400808 46.857759 0.751595 2.169321 0.009344 0.012640 1200570.000000 0 0 1
-27.549147 -25.199634 -26.431658 45.745050 0.740886 2.186831 0.018315 0.003307 -662136.000000 0 0 1
-26.182457 -25.423684 -26.545798 45.128307 0.770696 2.199664 0.029467 -0.000743 -266137.000000 0 0 1
-25.335637 -24.153164 -26.857498 44.120234 0.761509 2.225261 0.040796 0.001572 -39980.400000 0 0 1
-25.502967 -23.562764 -28.135378 44.690096 0.745876 2.251791 0.040166 -0.001217 -258553.000000 0 0 1
-24.677197 -22.467164 -28.367818 43.800349 0.738554 2.275308 0.049219 -0.017129 -125312.000000 0 0 1
-24.495297 -22.049464 -29.857938 44.471281 0.732898 2.306890 0.033955 -0.006115 116856.000000 0 0 1
-23.678597 -22.975464 -30.567798 44.977085 0.770328 2.318055 0.045557 -0.007755 279116.000000 0 0 1
-23.525497 -22.595764 -31.884148 45.613774 0.765242 2.344798 0.038879 -0.009643 -314087.000000 0 0 1
-22.892797 -23.712364 -32.728528 46.449035 0.802982 2.352672 0.041535 -0.018389 -506119.000000 0 0 1
-23.750397 -24.789264 -33.025338 47.636770 0.806797 2.336819 0.029246 -0.019972 -33600.600000 0 0 1
-23.094797 -26.010054 -33.395458 48.219800 0.844697 2.335838 0.034270 -0.012496 172694.000000 0 0 1
-19.070697 -14.126164 -11.793128 26.501280 0.637539 2.031973 0.006049 0.011702 -106888.000000 0 0 1
-19.485497 -13.837964 -10.499228 26.103785 0.617517 1.984727 0.001027 0.011788 -389513.000000 0 0 1
-18.816297 -14.576764 -9.538028 25.641939 0.659115 1.951927 -0.001105 0.002472 -400458.000000 0 0 1
-19.139297 -14.236964 -8.050828 25.175775 0.639560 1.896299 0.005352 -0.010951 383989.000000 0 0 1
-20.504997 -14.530264 -7.746428 26.298110 0.616488 1.869794 0.027285 -0.017094 600647.000000 0 0 1
-20.769797 -14.031164 -6.437128 25.878459 0.594132 1.822180 0.023839 -0.020348 275059.000000 0 0 1
-21.935097 -14.743364 -5.681428 27.033199 0.591779 1.782540 0.024006 -0.025087 -216984.000000 0 0 1
-21.725497 -16.126464 -5.269128 27.564901 0.638544 1.763134 0.021419 -0.025910 547875.000000 0 0 1
-20.800697 -16.275364 -4.178028 26.739715 0.663944 1.727687 0.021698 -0.022244 194573.000000 0 0 1
-20.651097 -17.765664 -3.712628 27.493094 0.710430 1.706249 0.011901 -0.013690 -167858.000000 0 0 1
-21.849397 -18.215764 -3.178728 28.623670 0.694953 1.682078 0.018796 -0.016753 -252492.000000 0 0 1
-21.459697 -19.438264 -2.578828 29.069142 0.736012 1.659627 -0.000529 0.001334 63771.400000 0 0 1
-22.580397 -20.336064 -2.024528 30.455353 0.733150 1.637321 -0.011466 -0.009937 1053.410000 0 0 1
-23.208197 -21.082764 -3.069128 31.504331 0.737447 1.668370 -0.034582 -0.002721 188891.000000 0 0 1
-24.121597 -22.084664 -2.657228 32.812264 0.741343 1.651868 -0.026179 -0.001162 180286.000000 0 0 1
-24.244597 -23.157964 -3.768728 33.738629 0.762479 1.682734 -0.025254 0.001612 -815649.000000 0 0 1
-23.086797 -23.938764 -3.775428 33.471159 0.803513 1.683833 -0.029998 0.005473 -593330.000000 0 0 1
-23.062797 -24.718664 -4.941828 34.166162 0.820039 1.715946 -0.022754 0.009990 1279830.000000 0 0 1
-21.645597 -24.751164 -5.696328 33.370648 0.852233 1.742335 -0.016285 0.014680 1552410.000000 0 0 1
-21.182497 -23.551864 -6.381128 32.312649 0.838314 1.769584 -0.018419 0.021726 308562.000000 0 0 1
-20.857797 -22.440264 -5.543728 31.134323 0.821930 1.749809 -0.020709 0.019001 -451049.000000 0 0 1
-20.861997 -21.093964 -6.302128 30.329772 0.790927 1.780108 -0.010499 0.018615 -213148.000000 0 0 1
-19.641597 -20.731364 -6.919728 29.384765 0.812384 1.808516 -0.009759 0.023618 120927.000000 0 0 1
-19.719497 -19.411064 -7.422428 28.648567 0.777516 1.832872 -0.010034 0.025883 -259170.000000 0 0 1
-18.520897 -19.076264 -8.280828 27.847793 0.800169 1.872723 0.012228 0.017798 -754843.000000 0 0 1
-18.500297 -19.914064 -9.451428 28.777776 0.822185 1.905435 -0.000395 0.014965 714818.000000 0 0 1
-17.349697 -19.696764 -10.319328 28.203954 0.848668 1.945377 0.021440 0.016685 821021.000000 0 0 1
-17.147097 -18.264964 -10.904628 27.322934 0.816955 1.981333 0.029009 0.014775 -78254.100000 0 0 1
-16.723897 -17.162164 -10.116528 26.011012 0.798331 1.970269 0.022150 0.006402 -755800.000000 0 0 1
-15.491697 -17.273764 -9.507428 25.075222 0.839733 1.959681 0.027258 0.014666 -1064440.000000 0 0 1
-15.372397 -16.190764 -8.454328 23.873146 0.811320 1.932786 0.011697 0.012747 -144021.000000 0 1 0
-15.895997 -16.506364 -7.193228 24.018436 0.804233 1.874952 -0.010472 0.017150 147898.000000 0 1 0
-15.953697 -15.366964 -6.367728 23.048036 0.766667 1.850718 -0.013673 0.009456 -360554.000000 0 1 0
-16.518497 -15.601464 -4.996128 23.264301 0.756856 1.787237 -0.016102 0.008138 -126768.000000 0 1 0
-17.136397 -14.438864 -4.496028 22.855003 0.700173 1.768807 -0.011589 0.007727 110262.000000 0 1 0
-17.542597 -14.629164 -3.154428 23.058741 0.695086 1.708026 -0.009247 0.000619 77859.100000 0 1 0
-18.320697 -13.412464 -2.524328 22.845445 0.631942 1.681518 -0.002365 -0.001989 -423113.000000 0 1 0
-19.620497 -13.311164 -3.021828 23.901515 0.596103 1.697564 0.009788 -0.014856 -694607.000000 0 1 0
-20.300797 -12.396964 -2.220728 23.890138 0.548224 1.663887 0.001482 -0.009257 -890173.000000 0 1 0
-21.788497 -12.390064 -2.565628 25.195927 0.517050 1.672800 0.001111 -0.009583 -587133.000000 0 0 1
-22.163197 -11.700164 -3.730028 25.338000 0.485725 1.718544 0.005685 -0.021961 870047.000000 0 0 1
-23.574297 -11.771564 -3.971128 26.647458 0.463119 1.720378 0.005430 -0.014496 468680.000000 0 0 1
-24.165197 -11.283564 -5.292828 27.189880 0.436847 1.766709 0.008403 -0.019425 -203469.000000 0 0 1
-23.778297 -12.065464 -6.396628 27.420789 0.469562 1.806242 0.005922 -0.025245 358942.000000 0 0 1
-24.357897 -11.552164 -7.605328 28.010724 0.442851 1.845763 0.015368 -0.027556 230316.000000 0 0 1
-23.418997 -11.832264 -8.841728 27.688048 0.467833 1.895823 0.035925 -0.030004 -313440.000000 0 0 1
-22.401097 -10.921264 -8.938828 26.476136 0.453624 1.915182 0.025677 -0.022797 -825684.000000 0 0 1
-21.567197 -11.219164 -10.047628 26.305293 0.479673 1.962715 0.007480 -0.015806 -30640.900000 0 0 1
-20.215897 -10.481664 -9.913728 24.836058 0.478327 1.981404 -0.000394 -0.010194 -372198.000000 0 1 0
-20.262797 -9.065264 -10.117528 24.395170 0.420677 1.998448 -0.000269 -0.019388 55063.200000 0 1 0
-19.070397 -8.423464 -9.751328 23.015716 0.415933 2.008302 -0.006914 -0.009572 -374011.000000 0 1 0
-19.056697 -7.013964 -10.370028 22.801115 0.352670 2.042948 -0.017627 -0.013332 -165358.000000 0 1 0
-18.782497 -7.028664 -11.766528 23.251569 0.358081 2.101399 0.003294 -0.013687 339291.000000 0 1 0
-18.739597 -5.762164 -12.388428 23.191554 0.298310 2.134332 0.001968 -0.025688 -302908.000000 0 1 0
-17.958697 -5.831964 -13.700628 23.328819 0.314000 2.198495 0.000817 -0.013867 -383084.000000 0 1 0
-18.696797 -6.559464 -14.652728 24.643441 0.337417 2.207551 0.003859 -0.013156 470460.000000 0 1 0
-18.091397 -6.429164 -15.934628 24.950855 0.341452 2.263527 -0.003749 -0.008488 -347190.000000 0 1 0
-18.546797 -7.422464 -17.065028 26.273405 0.380680 2.277746 -0.005763 -0.002158 272664.000000 0 0 1
-19.842797 -7.177464 -17.602928 27.479367 0.347074 2.266059 0.005907 -0.002568 638164.000000 0 0 1
-20.167097 -8.099164 -18.683228 28.659575 0.381887 2.280886 0.007203 -0.002013 6572.360000 0 0 1
-21.557997 -7.680364 -19.221228 29.886298 0.342245 2.269395 -0.003141 0.000406 -945809.000000 0 0 1
-21.627797 -6.489964 -20.021328 30.178383 0.291526 2.296194 0.004960 -0.003304 112338.000000 0 0 1
-22.867397 -6.402864 -20.694628 31.498922 0.273008 2.287622 0.000259 -0.006879 185930.000000 0 0 1
-24.029097 -5.971464 -19.770728 31.684973 0.243576 2.244619 0.020144 -0.004344 -916372.000000 0 0 1
-24.153497 -4.594464 -19.472728 31.363795 0.187974 2.240644 0.031619 -0.006035 140473.000000 0 0 1
-25.322427 -4.377964 -18.714428 31.790276 0.171196 2.200226 0.045209 0.004704 -163634.000000 0 0 1
-25.484857 -2.895564 -18.300928 31.508509 0.113134 2.190538 0.044001 0.000806 9104.370000 0 0 1
-25.700397 -1.866164 -19.262628 32.172065 0.072485 2.212720 0.048630 0.004367 -314565.000000 0 0 1
-27.003387 -1.810064 -19.763528 33.512031 0.066931 2.201538 0.041310 0.008293 -504839.000000 0 0 1
-27.261377 -0.746064 -20.859228 34.334336 0.027360 2.223747 0.036634 0.008533 -447636.000000 0 0 1
-26.607077 -0.912164 -22.101628 34.601308 0.034269 2.263670 0.041117 0.008176 -45093.100000 0 0 1
-27.081617 -1.871064 -22.995828 35.577000 0.068980 2.273611 0.036192 0.007378 -491340.000000 0 0 1
-26.239807 -1.793964 -24.254928 35.777748 0.068262 2.315744 0.039100 0.001753 -728232.000000 0 0 1
-26.442257 -0.817464 -25.212398 36.544852 0.030905 2.332151 0.039823 0.004106 -73200.200000 0 0 1
-26.178637 0.553436 -24.836728 36.090031 -0.021138 2.329785 0.031691 0.012050 645486.000000 0 0 1
-24.670097 0.873136 -24.516028 34.790971 -0.035378 2.352749 0.033907 0.012233 1078370.000000 0 0 1
-23.795597 0.652136 -25.663328 35.003744 -0.027399 2.393753 0.024047 0.012590 -132496.000000 0 0 1
-22.481897 0.595436 -25.188928 33.767918 -0.026479 2.412745 0.015054 0.012821 -159702.000000 0 0 1
-21.488897 -0.113964 -26.153908 33.849853 0.005303 2.453793 -0.006003 0.013955 75209.100000 0 0 1
-21.531097 0.530936 -27.406888 34.856958 -0.024654 2.475541 -0.018365 0.017077 -158704.000000 0 0 1
-20.711297 -0.065864 -28.359058 35.116923 0.003180 2.510801 -0.028387 0.009915 -389700.000000 0 0 1
-20.636897 0.935436 -29.512378 36.024117 -0.045297 2.530880 -0.029916 0.021691 -325722.000000 0 0 1
-19.892297 2.103236 -29.301258 35.478032 -0.105340 2.542590 -0.026672 0.018354 -19867.200000 0 0 1
-19.761497 2.923036 -30.458848 36.425297 -0.146851 2.561114 -0.025224 0.017707 -141143.000000 0 0 1
-19.028397 2.420636 -31.724198 37.072417 -0.126532 2.597768 -0.030907 0.019155 -668027.000000 0 0 1
-17.629897 2.441836 -31.652948 36.313701 -0.137630 2.629361 -0.032731 0.023688 -731470.000000 0 0 1
-17.170197 1.897936 -32.878468 37.140429 -0.110090 2.657822 -0.026925 0.016284 -469431.000000 0 0 1
-15.650197 1.867036 -33.002848 36.573247 -0.118737 2.696050 -0.013071 0.007579 -541071.000000 0 0 1
-15.071297 3.166236 -33.130438 36.534845 -0.207072 2.706468 -0.005924 0.011532 -756425.000000 0 0 1
-13.701197 3.000236 -33.303028 36.136074 -0.215574 2.742981 -0.000898 0.015907 -639955.000000 0 0 1
-12.999997 4.339836 -33.640588 36.325242 -0.322201 2.754721 0.003919 0.017071 -272622.000000 0 0 1
-12.871297 5.190636 -32.515748 35.353738 -0.383324 2.738178 0.018253 -0.002745 71213.400000 0 0 1
-12.397197 6.518236 -32.816488 35.680523 -0.484061 2.738191 0.019959 0.005582 -181536.000000 0 0 1
-12.054697 7.371436 -31.539598 34.560093 -0.548832 2.720399 0.029739 -0.010118 407491.000000 0 0 1
-10.852897 6.941036 -30.881278 33.460673 -0.568998 2.746375 0.047869 -0.014618 680223.000000 0 0 1
-11.029097 5.717036 -30.165138 32.623013 -0.478227 2.750933 0.037415 -0.008411 418233.000000 0 0 1
-9.659097 4.957336 -29.935598 31.843576 -0.474175 2.793669 0.043939 -0.013443 1039810.000000 0 0 1
-9.062197 4.348636 -31.092118 32.676503 -0.447411 2.828914 0.041668 -0.007860 699379.000000 0 0 1
-9.692697 3.066136 -31.402738 33.007294 -0.306375 2.828507 0.041524 -0.003014 384227.000000 0 0 1
-9.202497 2.504936 -32.733708 34.094813 -0.265763 2.858080 0.046861 -0.012454 -24729.600000 0 0 1
-9.964197 1.340536 -32.932308 34.432821 -0.133732 2.845288 0.043492 -0.010176 188501.000000 0 0 1
-9.658797 0.576736 -34.081742 35.428662 -0.059640 2.864966 0.040694 -0.005117 -462719.000000 0 0 1
-10.157197 1.186236 33.867342 35.377573 -0.116261 0.293244 0.031273 -0.000041 -884004.000000 0 0 1
-11.525097 0.955136 33.830545 35.752565 -0.082685 0.329386 -0.002200 0.007516 -1079480.000000 0 0 1
-11.906697 1.203436 32.476005 34.610816 -0.100730 0.353059 -0.016834 0.018312 670824.000000 0 0 1
-13.431097 1.030436 32.161845 34.868903 -0.076570 0.396639 -0.002699 0.021908 394209.000000 0 0 1
-14.167697 2.200336 32.296145 35.335621 -0.154076 0.417803 -0.011228 0.033142 131975.000000 0 0 1
-15.440897 2.002236 31.681595 35.300902 -0.128951 0.456791 -0.014530 0.025205 555717.000000 0 0 1
-16.277897 3.328736 31.482015 35.597299 -0.201713 0.485604 -0.010483 0.022536 220174.000000 0 0 1
-16.757697 3.906036 32.678745 36.932071 -0.229000 0.484659 -0.013598 0.022940 386593.000000 0 0 1
-15.906897 4.941436 33.138805 37.089453 -0.301196 0.465754 -0.009487 0.019930 -342357.000000 0 0 1
-16.495497 5.528436 34.441069 38.585648 -0.323383 0.467744 -0.006799 0.018042 144715.000000 0 0 1
-17.705997 6.242436 34.215615 39.027921 -0.338954 0.501846 -0.009998 0.013826 -137332.000000 0 0 1
-18.709197 5.584336 -34.297791 39.465900 -0.290062 2.624073 -0.018721 0.017259 -30173.300000 0 0 1
-20.092197 6.270536 -34.441759 40.363978 -0.302510 2.593039 -0.019849 0.011429 -17642.800000 0 0 1
-20.216097 7.563336 -33.829888 40.129240 -0.358003 2.573676 -0.014878 0.001527 115362.000000 0 0 1
-19.905897 8.568936 34.506615 40.747734 -0.406497 0.560790 -0.019064 0.000934 -295122.000000 0 0 1
-19.822697 9.944936 -34.135622 40.707269 -0.465002 2.565437 -0.011662 0.000008 66590.800000 0 0 1
-18.714397 10.136636 -33.234078 39.464971 -0.496409 2.571991 0.001120 -0.003455 752071.000000 0 0 1
-18.432397 11.530036 -33.083558 39.588089 -0.558981 2.560193 0.009425 -0.008857 51413.700000 0 0 1
-17.652597 12.303336 -34.221182 40.423700 -0.608690 2.580290 -0.002614 -0.022012 -279525.000000 0 0 1
-18.408597 12.465736 33.887508 40.529424 -0.595238 0.580623 -0.003250 -0.016196 -138885.000000 0 0 1
-17.583897 12.534436 32.764135 39.240209 -0.619289 0.582730 -0.003558 -0.010974 238324.000000 0 0 1
-18.326097 12.033036 31.450545 38.337665 -0.581006 0.608763 0.000049 -0.007144 87659.200000 0 0 1
-18.546097 10.630536 31.458945 38.034605 -0.520477 0.596844 -0.002768 -0.005996 455459.000000 0 0 1
-17.376197 9.905136 31.084145 36.963062 -0.518099 0.571757 -0.005131 -0.010573 478937.000000 0 0 1
-17.575697 8.369736 31.328575 36.884105 -0.444436 0.555989 0.005380 0.001088 -284086.000000 0 0 1
-18.395197 7.891736 30.331775 36.341152 -0.405263 0.583318 0.014081 -0.002730 -276423.000000 0 0 1
-18.698497 6.553936 30.615585 36.467820 -0.337126 0.574391 0.012268 -0.002364 -118671.000000 0 0 1
-19.370897 5.799936 29.421005 35.699670 -0.290920 0.602140 0.017892 -0.006828 181706.000000 0 0 1
-20.731997 6.091236 29.153085 36.288031 -0.285767 0.637846 0.038755 -0.018070 -148693.000000 0 0 1
-21.222497 5.130836 28.261395 35.713111 -0.237212 0.657790 0.030349 -0.019598 180553.000000 0 0 1
-22.741997 5.356036 28.024285 36.486245 -0.231298 0.694962 0.012175 -0.011809 67981.300000 0 0 1
-22.972997 6.321236 27.069165 36.061840 -0.268514 0.721778 0.010869 -0.013871 -369343.000000 0 0 1
-24.308097 6.699636 26.949375 36.905792 -0.268936 0.752151 0.016034 -0.011935 -936211.000000 0 0 1
-24.670397 7.390336 25.622205 36.328266 -0.291056 0.787955 0.015500 -0.006260 -244409.000000 0 0 1
-24.651397 6.573836 24.442785 35.332087 -0.260607 0.806816 0.010016 -0.008271 134459.000000 0 0 1
-25.490767 5.462336 24.393355 35.702270 -0.211094 0.818600 0.001195 -0.004116 -667921.000000 0 0 1
-25.571097 4.890136 22.928555 34.691685 -0.188955 0.848747 0.007786 0.001746 188728.000000 0 0 1
-26.434137 5.595836 22.028155 34.861391 -0.208610 0.886822 0.001425 0.008336 219840.000000 0 0 1
-26.489557 4.899636 20.757755 34.008638 -0.182898 0.914272 0.023470 0.011173 -121754.000000 0 0 1
-27.364317 5.682336 19.772555 34.235197 -0.204745 0.955071 0.024383 0.007823 -292125.000000 0 0 1
-28.737007 5.660536 20.035755 35.486458 -0.194487 0.970844 0.025118 0.003712 -593694.000000 0 0 1
-29.494397 6.047736 18.924355 35.561577 -0.202244 1.009650 0.034767 0.005274 768238.000000 0 0 1
-30.979247 6.400536 19.334355 37.074221 -0.203741 1.022184 0.023771 0.004136 820923.000000 0 0 1
-31.119737 7.598936 20.084755 37.809777 -0.239497 1.010774 0.021792 -0.011139 -383351.000000 0 0 1
-32.406427 7.733636 20.594955 39.168071 -0.234264 1.017129 0.021153 -0.010736 -951458.000000 0 0 1
-32.599527 8.916836 21.580655 40.099423 -0.266996 1.002522 0.021580 0.005099 -54225.700000 0 0 1
-32.109447 8.780136 22.901055 40.405020 -0.266919 0.968195 0.013174 0.016689 90368.200000 0 0 1
-32.739107 9.763836 23.609655 41.528272 -0.289834 0.966091 0.011060 0.029083 -154011.000000 0 0 1
0.286103 33.021036 12.228672 35.213791 1.562132 1.216139 -0.018518 -0.002171 -211253.000000 0 0 1
-0.203897 33.099336 13.581572 35.778020 -1.564636 1.181425 -0.018636 0.001393 277911.000000 0 0 1
-0.030197 34.353136 14.194972 37.170366 -1.569917 1.178956 -0.030431 0.009268 -377454.000000 0 0 1
-0.114297 34.396836 15.788372 37.847432 -1.567473 1.140480 -0.038244 0.013070 -384677.000000 0 0 1
-1.385297 34.379236 16.359672 38.098422 -1.530524 1.126962 -0.032431 0.015785 -624864.000000 0 0 1
-1.287897 34.528336 17.766372 38.852395 -1.533514 1.095864 -0.035826 0.011530 543449.000000 0 0 1
-2.626197 -34.516620 18.552272 39.274429 1.494858 1.078812 -0.041697 0.015569 312413.000000 0 0 1
-3.439697 33.636036 18.595972 38.587882 -1.468888 1.067961 -0.036087 0.008584 -540397.000000 0 0 1
-4.367097 33.806236 19.625572 39.333144 -1.442328 1.048401 -0.027956 0.001948 -241503.000000 0 0 1
-5.568797 32.814436 19.514572 38.582603 -1.402692 1.040503 -0.017646 0.005884 -32894.900000 0 0 1
-6.469297 33.306136 18.539472 38.663452 -1.378948 1.070701 -0.009599 0.002745 -772496.000000 0 0 1
-7.421697 32.323036 18.376672 37.915199 -1.345098 1.064801 0.000583 0.001281 -494338.000000 0 0 1
-8.454597 32.737536 17.278872 37.970856 -1.318064 1.098361 0.005768 -0.001320 -184206.000000 0 0 1
-9.141097 33.912536 17.525872 39.252719 -1.307505 1.107960 0.020866 -0.002736 -200999.000000 0 0 1
-10.157697 34.103236 16.551572 39.244924 -1.281312 1.135421 0.022927 -0.000252 217840.000000 0 0 1
-11.212997 -34.128020 16.907372 39.702799 1.253351 1.130897 0.028235 0.000472 -282336.000000 0 0 1
-12.144897 -34.545420 17.836572 40.731165 1.232730 1.117524 0.029441 0.005867 34146.400000 0 0 1
-13.404597 -33.865420 17.734072 40.509840 1.193899 1.117677 0.024242 0.003147 856037.000000 0 0 1
-14.445997 -34.476420 18.681072 41.788668 1.174009 1.107346 0.027604 0.008439 41313.500000 0 0 1
-14.125797 -34.063220 19.955672 41.929344 1.177688 1.074769 0.022080 0.000686 513872.000000 0 0 1
-15.221897 -34.399520 20.811772 42.990266 1.154194 1.065457 0.021539 0.005365 497183.000000 0 0 1
-15.076997 -33.785920 22.217472 43.155767 1.151065 1.029998 0.024475 0.000232 21473.400000 0 0 1
-15.045397 -32.369620 22.129072 41.998239 1.135703 1.015842 0.030378 0.004323 -98611.900000 0 0 1
-14.854297 -31.826120 23.410272 42.208919 1.134115 0.982880 0.021263 0.006733 -5243.840000 0 0 1
-14.867897 -30.260420 23.470572 41.080593 1.114108 0.962671 0.026020 0.001449 5010.110000 0 0 1
-14.753097 -29.691120 24.792072 41.398832 1.109643 0.928720 0.031067 -0.002543 -318160.000000 0 0 1
-14.824197 -28.255220 24.833972 40.433160 1.087621 0.909427 0.019196 -0.004792 -483768.000000 0 0 1
-16.070097 -27.438220 24.494872 40.138543 1.040971 0.914410 0.034791 -0.000014 -399626.000000 0 0 1
-17.097597 -27.644920 25.439172 41.276154 1.016905 0.906740 0.046748 -0.000950 -1158220.000000 0 0 1
-18.123497 -26.780220 25.265172 41.036206 0.975846 0.907548 0.048555 0.000158 -1289800.000000 0 0 1
-19.203697 -26.830320 26.404572 42.259312 0.949580 0.895892 0.030902 0.005493 177297.000000 0 0 1
-19.926297 -28.033020 26.566372 43.458942 0.952849 0.913096 0.026485 0.005271 -41792.800000 0 0 1
-20.598397 -28.590620 25.469572 43.478921 0.946470 0.944940 0.028419 0.002324 -390049.000000 0 0 1
-21.995497 -27.939720 25.225772 43.597814 0.903879 0.953783 0.034264 0.009622 -34950.200000 0 0 1
-21.936097 -26.632920 24.614372 42.383630 0.881802 0.951144 0.037703 0.004146 1040100.000000 0 0 1
-23.251797 -26.434320 24.045372 42.633311 0.849363 0.971569 0.029720 0.005743 826359.000000 0 0 1
-23.515097 -24.984020 23.682072 41.689346 0.815677 0.966649 0.026564 0.018390 -140185.000000 0 0 1
-23.795897 -24.197920 24.827072 42.049584 0.793775 0.939213 0.018063 0.021419 233220.000000 0 0 1
-24.106797 -22.812320 24.560372 41.288636 0.757816 0.933723 0.010257 0.023750 28623.300000 0 0 1
-24.683297 -22.037020 25.737972 41.920622 0.728818 0.909717 0.008712 0.025114 323538.000000 0 0 1
-25.973417 -22.431320 26.187772 43.169224 0.712352 0.918981 -0.001808 0.035367 440413.000000 0 0 1
-26.296887 -21.664420 27.338472 43.683697 0.689109 0.894604 -0.003379 0.029616 -1265040.000000 0 0 1
-27.426277 -22.247820 28.178272 45.179433 0.681525 0.897333 -0.006723 0.029546 1310890.000000 0 0 1
-28.785657 -21.854820 27.811672 45.604126 0.649380 0.914925 -0.010686 0.028583 1596100.000000 0 0 1
-29.254477 -22.242420 26.551772 45.338132 0.650066 0.945128 -0.011341 0.032307 -241545.000000 0 0 1
-30.677817 -22.910120 26.565472 46.601785 0.641448 0.964226 -0.029831 0.032991 585145.000000 0 0 1
-31.222107 -23.386120 25.356172 46.525971 0.642876 0.994420 -0.033923 0.027821 179749.000000 0 0 1
-30.742277 -24.653720 24.869272 46.598006 0.675928 1.007829 -0.036134 0.026743 -428891.000000 0 0 1
-31.215907 -25.058620 23.476272 46.405847 0.676417 1.040382 -0.045236 0.025021 -643633.000000 0 0 1
-32.522027 -25.552820 23.399672 47.520243 0.665965 1.055934 -0.051633 0.021922 -428362.000000 0 0 1
-32.755617 -26.245620 22.156072 47.462138 0.675506 1.085110 -0.038823 0.020374 461614.000000 0 0 1
-33.887697 -27.337620 22.126572 48.839601 0.678820 1.100617 -0.023248 0.009452 -328254.000000 0 0 1
-33.692707 -28.475920 22.962672 49.732894 0.701681 1.090863 -0.025265 0.006850 1486570.000000 0 0 1
-32.514817 -29.315720 22.676772 49.303760 0.733704 1.092869 -0.035306 0.010213 637298.000000 0 0 1
-32.804617 -30.401420 21.639772 49.685701 0.747395 1.120166 -0.028486 0.007593 -212817.000000 0 0 1
-33.064777 -29.900020 20.353972 49.005865 0.735178 1.142483 -0.040561 0.011474 603064.000000 0 0 1
-33.824107 -30.902920 19.660872 49.855898 0.740298 1.165432 -0.024665 0.014012 -221439.000000 0 0 1
-34.153335 -30.481120 18.215272 49.268094 0.728644 1.192091 -0.021846 0.017211 -320974.000000 0 0 1
-33.022717 -30.426320 17.322372 48.128217 0.744500 1.202613 -0.010441 0.010322 634827.000000 0 0 1
-33.204457 -29.764020 16.086672 47.404787 0.730815 1.224574 -0.012031 0.016691 -316756.000000 0 0 1
-34.014087 -30.476220 15.013072 48.074425 0.730594 1.253196 -0.002788 0.014334 -174101.000000 0 0 1
-33.246597 -31.472620 14.365372 47.981516 0.757995 1.266739 0.005454 -0.000883 110750.000000 0 0 1
-33.949997 -32.224920 13.403972 48.689980 0.759336 1.291903 0.006365 -0.006837 -54313.200000 0 0 1
-34.180838 -31.730920 11.987072 48.154655 0.748246 1.319222 0.016532 -0.010605 -95483.300000 0 0 1
34.860420 -30.673020 11.838872 47.919118 -0.721588 1.321152 0.009820 -0.005016 27258.600000 0 0 1
34.558989 -30.608620 10.429772 47.328548 -0.724854 1.348603 -0.003570 -0.003613 -346734.000000 0 0 1
33.475682 -29.586320 10.061072 45.795161 -0.723801 1.349292 0.019169 -0.000114 -366275.000000 0 0 1
33.868102 -28.256720 9.980872 45.222874 -0.695318 1.348260 0.029981 -0.022037 290103.000000 0 0 1
32.765752 -27.370220 9.727972 43.787633 -0.695916 1.346764 0.017716 -0.018509 246106.000000 0 0 1
32.929972 -26.311420 8.556272 43.010273 -0.674138 1.370525 0.016929 -0.022856 -39798.100000 0 0 1
33.738552 -25.216320 8.911872 43.053154 -0.641837 1.362292 0.036362 -0.032052 -51749.500000 0 0 1
33.946965 -24.437520 7.714272 42.533502 -0.623940 1.388418 0.038824 -0.032945 98794.300000 0 0 1
34.478787 -22.976620 7.847372 42.169812 -0.587817 1.383615 0.058421 -0.044113 -152993.000000 0 0 1
33.540922 -22.066120 8.378272 41.013443 -0.581899 1.365067 0.049868 -0.038533 -349405.000000 0 0 1
33.873292 -20.714320 8.110172 40.524780 -0.548850 1.369307 0.062322 -0.029425 125457.000000 0 0 1
33.023282 -19.728620 8.925772 39.489555 -0.538517 1.342797 0.071780 -0.023321 151365.000000 0 0 1
33.383232 -19.790020 10.262172 40.142212 -0.535118 1.312281 0.061626 -0.038137 -215120.000000 0 0 1
32.629872 -18.831520 10.958172 39.235395 -0.523430 1.287739 0.055925 -0.021540 -94831.300000 0 0 1
32.948542 -18.915520 12.472772 39.987164 -0.521152 1.253584 0.044084 -0.029866 1112430.000000 0 0 1
34.318212 -18.602420 12.813572 41.085001 -0.496724 1.253626 0.009980 -0.015024 1070270.000000 0 0 1
34.589789 -18.790220 14.188272 41.842955 -0.497631 1.224853 0.027069 -0.013839 51056.900000 0 0 1
-34.118073 -18.004420 14.692572 41.280427 0.485568 1.206897 0.024571 -0.009117 191080.000000 0 0 1
-32.901487 -18.442420 14.135872 40.279691 0.510895 1.212218 0.020770 -0.013392 -773579.000000 0 0 1
-31.832927 -17.773120 14.664572 39.297184 0.509212 1.188372 0.011045 -0.006830 -372352.000000 0 0 1
-30.471197 -17.832220 13.914672 37.948649 0.529478 1.195368 0.020117 -0.006731 358856.000000 0 0 1
-29.946697 -19.144120 13.909972 38.167909 0.568797 1.197763 0.007510 0.001280 132122.000000 0 0 1
-28.710217 -19.200520 13.234172 36.987563 0.589457 1.204885 -0.028843 0.011555 98550.500000 0 0 1
-28.016957 -20.620920 13.066672 37.160599 0.634491 1.211488 -0.047584 -0.002411 78590.900000 0 0 1
-28.689717 -21.476720 12.177372 37.850201 0.642596 1.243245 -0.031614 -0.003102 -264097.000000 0 0 1
-27.811827 -21.962120 11.190572 37.162633 0.668409 1.264925 -0.041236 0.005056 -590968.000000 0 0 1
-28.498357 -22.616620 9.948472 37.717899 0.670833 1.303878 -0.016432 -0.007369 247993.000000 0 0 1
-29.163747 -23.855420 10.088172 39.004825 0.685610 1.309183 -0.007126 -0.011464 -423297.000000 0 0 1
-30.386717 -23.686820 10.761272 40.002787 0.662123 1.298428 0.008490 -0.014858 -954576.000000 0 0 1
-31.206647 -24.983320 10.842872 41.419668 0.675093 1.305929 0.027461 -0.022273 -38688.300000 0 0 1
-31.522277 -25.512820 9.531072 41.658123 0.680421 1.339959 0.035030 -0.020301 -520807.000000 0 0 1
-32.441507 -26.519220 9.725072 43.015083 0.685289 1.342739 0.039676 -0.017119 -228178.000000 0 0 1
-32.769717 -27.194020 8.373572 43.399144 0.692680 1.376635 0.039813 -0.024295 636401.000000 0 0 1
-31.611657 -27.906620 7.920472 42.904663 0.723228 1.385125 0.033540 -0.020103 458175.000000 0 0 1
-31.784877 -28.389120 6.592972 43.124097 0.729026 1.417311 0.032334 -0.012772 -693211.000000 0 0 1
-30.435847 -28.740220 5.975272 42.285279 0.756752 1.429013 0.033692 -0.011913 41978.600000 0 0 1
-29.651357 -27.618420 5.546072 40.899132 0.749916 1.434774 0.038594 -0.005513 552185.000000 0 0 1
-28.388267 -28.057220 5.035072 40.230004 0.779533 1.445310 0.037990 -0.009742 668599.000000 0 0 1
-27.622127 -26.970220 4.173272 38.830282 0.773457 1.463114 0.029507 -0.008565 199133.000000 0 0 1
-28.038677 -26.633520 2.867172 38.777989 0.759702 1.496791 0.032420 -0.002689 -254192.000000 0 0 1
-27.162657 -25.674720 2.313972 37.448039 0.757245 1.508965 0.020139 -0.007294 -280070.000000 0 0 1
-27.538497 -25.076420 0.924672 37.256552 0.738638 1.545975 0.016417 -0.008686 -280359.000000 0 0 1
-27.165737 -25.843920 -0.245028 37.495939 0.760468 1.577331 0.013793 -0.009667 -184809.000000 0 0 1
-27.330267 -25.225720 -1.535028 37.224141 0.745376 1.612045 0.004853 -0.008714 -724249.000000 0 0 1
-28.733787 -24.993520 -2.068028 38.138999 0.715895 1.625046 0.012261 -0.003952 -439629.000000 0 0 1
-29.415457 -23.872420 -1.474828 37.912223 0.681750 1.609707 0.017223 -0.004583 530260.000000 0 0 1
-30.740987 -23.823920 -2.008428 38.943821 0.659303 1.622392 0.027666 -0.006810 595428.000000 0 0 1
-31.513567 -22.485320 -1.747128 38.752380 0.619737 1.615896 0.024200 -0.008536 80632.600000 0 0 1
-31.794377 -22.140220 -0.413128 38.745869 0.608276 1.581459 0.032121 -0.008714 439305.000000 0 0 1
-32.670587 -21.045820 -0.159028 38.862823 0.572275 1.574888 0.024415 -0.002738 32420.200000 0 0 1
-32.678367 -20.610520 1.322272 38.657697 0.562694 1.536585 0.022956 -0.006783 -9970.240000 0 0 1
-33.455317 -21.574420 2.042672 39.860837 0.572762 1.519529 0.044454 -0.012094 522524.000000 0 0 1
-33.713407 -21.152620 3.411672 39.945796 0.560341 1.485285 0.053254 -0.021880 -857053.000000 0 0 1
-34.727405 -21.979820 4.239672 41.316824 0.564277 1.468002 0.071071 -0.018300 749142.000000 0 0 1
33.854402 -21.936820 3.830572 40.521819 -0.574951 1.476124 0.051797 -0.007459 467786.000000 0 0 1
33.226792 -20.672020 4.112372 39.347982 -0.556547 1.466092 0.055679 -0.017049 -423502.000000 0 0 1
32.060022 -20.356620 3.121972 38.104903 -0.565725 1.488773 0.033534 -0.001223 1401800.000000 0 0 1
30.910952 -21.204520 3.400672 37.638852 -0.601259 1.480323 0.024511 0.008598 741110.000000 0 0 1
29.769972 -20.937920 2.616472 36.489637 -0.612953 1.499030 0.012183 0.008962 718591.000000 0 0 1
28.511602 -21.831020 2.805872 36.019130 -0.653467 1.492818 -0.013562 0.028027 415913.000000 0 0 1
28.596642 -23.143820 2.271472 36.858702 -0.680398 1.509131 -0.027105 0.025609 712553.000000 0 0 1
27.326992 -23.827620 2.432772 36.337836 -0.717097 1.503797 -0.041177 0.031925 1070510.000000 0 0 1
26.990982 -24.877720 1.388872 36.733404 -0.744678 1.532978 -0.040914 0.034459 63078.100000 0 0 1
26.436022 -24.485420 0.129272 36.033536 -0.747111 1.567209 -0.047154 0.023058 118598.000000 0 0 1
26.323162 -25.689020 -0.627028 36.786244 -0.773207 1.587842 -0.029052 0.014629 -350732.000000 0 0 1
25.520812 -25.567320 -1.942528 36.176969 -0.786309 1.624517 -0.025497 0.002648 -55470.500000 0 0 1
26.263352 -24.940920 -2.995228 36.342599 -0.759577 1.653306 -0.024086 -0.010129 235232.000000 0 0 1
26.660472 -25.788820 -4.065528 37.314508 -0.768781 1.679966 -0.008563 -0.016288 -490240.000000 0 0 1
25.563172 -26.344120 -5.033928 37.051704 -0.800442 1.707080 -0.009982 -0.023372 176362.000000 0 0 1
25.006952 -25.539620 -6.072828 36.256021 -0.795936 1.739088 -0.005861 -0.037626 503452.000000 0 0 1
24.061382 -24.652420 -5.474828 34.880734 -0.797530 1.728407 0.002991 -0.032559 -830321.000000 0 0 1
23.475882 -23.572920 -6.380128 33.874852 -0.787461 1.760272 0.013551 -0.044548 -282695.000000 0 0 1
22.645682 -24.093020 -7.379228 33.878511 -0.816355 1.790371 0.003985 -0.036615 -122059.000000 0 0 1
21.693882 -23.246320 -7.995128 32.786246 -0.819929 1.817136 0.016743 -0.039718 -186243.000000 0 0 1
21.965682 -21.800620 -8.589828 32.117648 -0.781627 1.841541 0.017602 -0.035145 -678564.000000 0 0 1
22.556782 -21.851820 -9.867728 32.919333 -0.769525 1.875232 0.023117 -0.033070 127192.000000 0 0 1
22.416782 -20.551320 -10.462428 32.161020 -0.742010 1.902140 0.022620 -0.027562 -403345.000000 0 0 1
22.989182 -20.509720 -11.871028 33.016244 -0.728459 1.938583 0.008682 -0.018160 -391259.000000 0 0 1
24.391482 -20.569420 -11.871628 34.043809 -0.700593 1.926997 0.013748 -0.017628 -805728.000000 0 0 1
24.906932 -20.282920 -13.118828 34.696624 -0.683429 1.958540 0.007175 -0.016376 348046.000000 0 0 1
26.450192 -20.487720 -13.238928 35.980946 -0.659046 1.947592 -0.005266 -0.023058 448408.000000 0 0 1
26.879342 -21.817020 -13.401628 37.122567 -0.681813 1.940147 -0.010851 -0.021681 58468.500000 0 0 1
27.040732 -22.552020 -12.234228 37.275610 -0.695133 1.905204 0.006086 -0.026495 -656676.000000 0 0 1
27.423962 -23.957120 -12.519028 38.506406 -0.718027 1.901930 -0.001837 -0.015156 -332562.000000 0 0 1
28.711122 -24.068820 -13.087328 39.685195 -0.697668 1.906865 -0.005340 -0.020966 171029.000000 0 0 1
28.941362 -25.395220 -13.465828 40.790294 -0.720228 1.907231 -0.007219 -0.008740 -82630.400000 0 0 1
-3.908097 -9.459864 -28.223868 30.022474 1.179028 2.793694 -0.005109 0.007372 -40401.700000 0 0 1
-3.825497 -8.227364 -27.493208 28.951691 1.135561 2.822829 -0.007794 0.012475 50598.800000 0 0 1
-4.647797 -7.198164 -28.008088 29.289393 0.997456 2.844712 -0.016650 0.005591 -32373.100000 0 0 1
-4.510297 -5.874964 -27.305318 28.292019 0.916054 2.876714 -0.015933 0.005417 -235790.000000 0 0 1
-5.100797 -5.847864 -26.041568 27.173128 0.853526 2.851990 -0.012983 0.008051 121122.000000 0 0 1
-4.833497 -4.626164 -25.428758 26.294216 0.763484 2.884312 -0.007718 0.007308 -123949.000000 0 0 1
-5.438897 -4.509164 -24.027028 25.044205 0.692210 2.855609 -0.009090 0.007683 -49009.400000 0 0 1
-4.878997 -5.479264 -23.120728 24.256855 0.843284 2.834322 -0.009998 0.003195 381903.000000 0 1 0
-5.355497 -5.285564 -21.835828 23.095928 0.778826 2.809741 -0.005312 0.000733 -179839.000000 0 1 0
-4.753897 -6.322964 -20.861128 22.310671 0.926115 2.779138 0.003849 -0.002529 -261490.000000 0 1 0
-5.236397 -7.663164 -21.033628 22.990377 0.971353 2.726028 0.001971 0.002445 515160.000000 0 1 0
-4.389697 -8.544264 -20.310928 22.467925 1.096202 2.699823 0.012615 -0.005008 -771428.000000 0 1 0
-5.037197 -9.963964 -20.263328 23.135609 1.102725 2.637991 0.019925 -0.002067 671545.000000 0 1 0
-6.114597 -10.203464 -19.346228 22.710691 1.030916 2.590314 0.023062 -0.003453 -294107.000000 0 1 0
-7.259997 -9.479764 -19.645328 22.989397 0.917234 2.595458 0.020436 -0.004404 -786766.000000 0 1 0
-8.395597 -9.743764 -18.549728 22.572536 0.859585 2.535330 0.016392 0.005146 652952.000000 0 1 0
-8.980297 -11.036664 -18.609728 23.425961 0.887770 2.488826 0.025549 0.007552 -139450.000000 0 1 0
-9.726297 -11.351164 -17.431428 22.963111 0.862336 2.432735 0.023636 0.008886 13601.500000 0 1 0
-10.636497 -12.594764 -17.683528 24.175820 0.869494 2.391250 0.029575 0.013103 148068.000000 0 1 0
-11.857897 -12.416664 -18.370028 25.144407 0.808413 2.389969 0.033499 0.005872 147322.000000 0 0 1
-11.662197 -12.133464 -19.728528 25.931498 0.805200 2.435332 0.028656 0.007679 -106983.000000 0 0 1
-12.984797 -11.795164 -20.542228 27.013218 0.737427 2.434804 0.016127 0.009855 1174710.000000 0 0 1
-13.833497 -12.894464 -20.819828 28.126465 0.750280 2.404197 0.010421 0.014926 -61798.900000 0 0 1
-14.629597 -13.442364 -19.789828 28.042103 0.743131 2.354233 0.009100 0.013739 -428329.000000 0 0 1
-15.620197 -14.493364 -20.289528 29.423003 0.747996 2.331706 0.005947 0.011807 330136.000000 0 0 1
-14.943997 -15.670264 -20.731428 29.977864 0.809117 2.334440 0.020335 0.020751 240270.000000 0 0 1
-15.914297 -16.417764 -21.464128 31.361068 0.800969 2.324604 0.007172 0.006603 434081.000000 0 0 1
-15.613697 -17.877164 -21.619328 32.105698 0.852880 2.309567 0.011466 0.000297 -228756.000000 0 0 1
-15.849697 -18.750364 -20.497128 31.983141 0.869037 2.266431 0.024449 0.008850 263344.000000 0 0 1
-15.213197 -19.972464 -20.850428 32.635579 0.919844 2.263846 0.024965 0.006151 21232.300000 0 0 1
-15.807597 -21.115964 -20.033928 33.122837 0.928186 2.220358 0.029998 -0.003301 225401.000000 0 0 1
-15.231497 -22.368764 -20.420428 33.902123 0.972986 2.217219 0.034052 0.003773 365262.000000 0 0 1
-16.111897 -23.385064 -20.010028 34.739828 0.967503 2.184619 0.045918 0.000457 223616.000000 0 0 1
-15.518497 -24.803664 -20.352428 35.640803 1.011727 2.178572 0.046360 0.002819 47343.100000 0 0 1
-15.553897 -25.068424 -21.783728 36.672611 1.015470 2.206825 0.032520 0.006805 319940.000000 0 0 1
-15.007597 -26.394384 -21.983828 37.485733 1.053792 2.197476 0.027660 0.002486 -139752.000000 0 0 1
-15.036697 -26.899094 -23.434628 38.714923 1.061067 2.220955 0.034405 -0.000955 -445596.000000 0 0 1
-16.269397 -27.386134 -23.880028 39.811422 1.034745 2.214083 0.032418 0.002082 -547007.000000 0 0 1
-16.343097 -28.751684 -23.983128 40.852742 1.053919 2.198222 0.031503 0.011248 -34772.700000 0 0 1
-17.401597 -29.380014 -24.933528 42.280984 1.036063 2.201496 0.036051 0.005373 -572057.000000 0 0 1
-17.246997 -29.288244 -26.358018 43.011687 1.038600 2.230409 0.035655 0.005091 -119080.000000 0 0 1
-17.405897 -27.962144 -26.879858 42.513216 1.014011 2.255277 0.058065 -0.007471 733263.000000 0 0 1
-16.172697 -27.589134 -27.797428 42.372319 1.040587 2.286340 0.046807 -0.012715 351956.000000 0 0 1
-16.171497 -28.062424 -29.165288 43.584756 1.048009 2.303878 0.047456 -0.006531 416227.000000 0 0 1
-14.952197 -27.681684 -29.812878 43.343414 1.075549 2.329291 0.022380 0.004511 304919.000000 0 0 1
-15.048297 -28.123784 -31.343328 44.719153 1.079485 2.347445 0.022305 -0.000568 126870.000000 0 0 1
-14.762697 -29.482824 -31.617108 45.681677 1.106571 2.335216 -0.000846 0.001793 15154.700000 0 0 1
-15.567697 -29.864684 -32.700278 46.942099 1.090274 2.341456 0.006828 0.012065 -56721.400000 0 0 1
-15.705797 -31.400474 -33.009848 48.190371 1.107007 2.325384 -0.001001 0.016744 -47983.400000 0 0 1
-14.593997 -31.985394 -33.691928 48.694930 1.142740 2.334911 -0.006015 0.023947 56647.700000 0 0 1
-14.989897 -32.882064 34.568629 50.009172 1.143073 0.807585 -0.015450 0.031675 -196428.000000 0 0 1
-13.886397 -33.559064 33.716352 49.556384 1.178459 0.822538 -0.013327 0.018645 -82097.400000 0 0 1
-13.157797 -34.503329 34.438876 50.493995 1.206471 0.820249 0.000224 0.022548 -361625.000000 0 0 1
-12.193097 34.133595 33.658281 49.463661 -1.227707 0.822400 0.007509 0.013169 -411788.000000 0 0 1
-11.214497 33.306062 34.485138 49.237013 -1.246010 0.794852 0.031019 0.009349 -406746.000000 0 0 1
-10.442797 34.128880 -33.955778 49.262839 -1.273861 2.331288 0.028325 0.014748 -219230.000000 0 0 1
-9.452297 33.327416 -33.327888 48.070892 -1.294435 2.336864 0.022094 0.005426 10226.600000 0 0 1
-8.577197 34.158625 -32.352588 47.823320 -1.324784 2.313799 0.022424 0.005981 -106448.000000 0 0 1
-9.248697 -34.541326 -31.242728 47.484204 1.309176 2.288903 0.014522 0.004985 -140289.000000 0 0 1
-8.835097 -33.238004 -30.845258 46.197985 1.310991 2.301878 0.005130 0.004124 -109995.000000 0 0 1
-9.946397 -32.676744 -29.933548 45.417152 1.275319 2.290391 -0.002463 0.005831 190825.000000 0 0 1
-10.068797 -33.115464 -28.578168 44.885703 1.275627 2.260991 0.007043 0.007581 -120510.000000 0 0 1
-10.400797 -34.474481 -28.395068 45.857892 1.277785 2.238516 0.019440 0.001669 -209033.000000 0 0 1
-10.723297 34.422232 -26.946438 45.010995 -1.268802 2.212628 0.030384 -0.005903 13885.000000 0 0 1
-9.581097 34.383445 -26.126148 44.233407 -1.299036 2.202652 0.023548 -0.002427 -254381.000000 0 0 1
-9.925297 34.524657 -24.759328 43.628979 -1.290861 2.174259 0.027418 -0.009503 157928.000000 0 0 1
-8.725997 34.457208 -23.785628 42.769128 -1.322769 2.160530 0.027077 -0.012690 -71701.600000 0 0 1
-8.046597 33.236231 -23.729328 41.623020 -1.333264 2.177425 0.012395 -0.017049 -265637.000000 0 0 1
-7.375597 33.046181 -22.497728 40.652150 -1.351205 2.157262 0.022133 -0.012539 -107577.000000 0 0 1
-6.470097 31.819421 -22.417728 39.457474 -1.370193 2.175051 0.007786 -0.015011 -122280.000000 0 0 1
-5.326897 31.852331 -23.269728 39.804862 -1.405093 2.195177 -0.010728 -0.016270 -54988.400000 0 0 1
-4.609497 30.665681 -23.117028 38.678527 -1.421599 2.211389 -0.018141 -0.015079 -1061050.000000 0 0 1
-3.118697 30.705361 -23.381928 38.720279 -1.469575 2.219141 -0.028690 -0.011349 -911132.000000 0 0 1
-2.567397 30.968691 -24.627728 39.650679 -1.488083 2.240964 -0.027535 -0.002571 -379841.000000 0 0 1
-2.960497 32.190901 -25.229248 41.006507 -1.479087 2.233499 -0.025602 -0.008831 -897514.000000 0 0 1
-2.306597 32.611251 -26.541228 42.109985 -1.500184 2.252715 -0.022575 0.012204 419085.000000 0 0 1
-1.186597 33.496900 -26.557008 42.763594 -1.535387 2.240839 -0.019224 0.002171 390397.000000 0 0 1
-1.683497 -34.535434 -26.775688 43.731771 1.522088 2.229726 -0.019296 0.008950 -207211.000000 0 0 1
-0.620497 -33.484964 -27.135838 43.104310 1.552268 2.251756 -0.026521 0.019793 614943.000000 0 0 1
0.362503 -33.143244 -26.112668 42.195704 -1.559859 2.238070 -0.002992 0.011623 1296790.000000 0 0 1
1.308403 -32.163184 -26.624928 41.774024 -1.530139 2.261859 -0.008427 0.015174 251610.000000 0 0 1
2.484803 -31.886514 -25.697648 41.027956 -1.493027 2.247652 -0.001530 0.011329 -806966.000000 0 0 1
2.200403 -31.106394 -24.562628 39.695997 -1.500176 2.237970 -0.004071 0.011817 287489.000000 0 0 1
3.360303 -30.594444 -23.924328 38.983139 -1.461401 2.231547 -0.012417 0.011941 -133773.000000 0 0 1
3.162703 -29.994204 -22.549028 37.657849 -1.465741 2.212782 -0.007935 0.012206 -338129.000000 0 0 1
2.992703 -30.966444 -21.560128 37.851236 -1.474452 2.176817 0.000745 0.011761 237962.000000 0 0 1
2.981703 -30.310784 -20.293928 36.598876 -1.472741 2.158553 0.002137 0.013274 -399486.000000 0 0 1
2.673003 -31.268134 -19.105128 36.740265 -1.485517 2.117653 0.005382 0.015344 -146082.000000 0 0 1
1.442103 -31.955234 -19.219528 37.317649 -1.525698 2.111833 0.006276 0.010823 35298.900000 0 0 1
1.487103 -33.151644 -19.927128 38.708312 -1.525969 2.111573 0.003840 0.012323 -279069.000000 0 0 1
2.063303 -34.374573 -19.145428 39.400709 -1.510844 2.078207 -0.011535 0.007465 -80943.000000 0 0 1
3.373403 -34.147128 -18.688728 39.072686 -1.472326 2.069522 -0.003706 0.005760 -498840.000000 0 0 1
3.826203 34.153385 -17.815028 38.710060 1.459232 2.049036 0.006050 -0.000305 39093.500000 0 0 1
4.791903 33.103381 -18.391728 38.171348 1.427039 2.073527 0.013310 -0.001948 -48652.300000 0 0 1
6.030203 33.663821 -18.775628 39.014618 1.393546 2.072872 0.029697 -0.006960 -48233.300000 0 0 1
6.935503 32.693701 -19.344428 38.615880 1.361759 2.095487 0.023251 -0.011519 1103260.000000 0 0 1
8.291803 33.408703 -19.680828 39.651361 1.327519 2.090182 0.018949 -0.004250 252919.000000 0 0 1
9.148503 33.528927 -18.591528 39.414832 1.304426 2.062001 0.010600 0.002104 -188055.000000 0 0 1
10.310103 34.283417 -18.917328 40.490940 1.278669 2.056916 0.007738 0.016860 -186815.000000 0 0 1
11.308503 34.375846 -17.801928 40.329762 1.252981 2.027965 -0.005384 0.019318 -607760.000000 0 0 1
11.977503 33.165221 -17.430428 39.334619 1.224226 2.029886 -0.004487 0.010034 -46948.700000 0 0 1
12.874103 33.532461 -16.408628 39.489385 1.204220 1.999311 -0.017827 0.006092 146098.000000 0 0 1
13.902703 32.464331 -15.939228 38.746315 1.166180 1.994757 -0.013831 0.009830 385981.000000 0 0 1
13.433803 31.524351 -15.027828 37.417742 1.167960 1.984085 -0.009507 0.012789 -61636.400000 0 0 1
14.444803 30.555481 -14.843028 36.913483 1.129193 1.984609 -0.007555 0.017198 340013.000000 0 0 1
13.931603 29.498601 -13.857028 35.443959 1.129569 1.972466 -0.018480 0.015961 -195352.000000 0 0 1
14.121403 29.971941 -12.526528 35.420971 1.130491 1.932264 -0.001440 0.013321 -272855.000000 0 0 1
13.030903 29.673231 -11.704628 34.457269 1.157005 1.917379 0.015497 0.013059 -200330.000000 0 0 1
12.672803 28.211921 -11.422428 32.969445 1.148608 1.924586 0.003317 0.015282 -354480.000000 0 0 1
11.986403 27.596531 -12.552628 32.600780 1.161037 1.966048 -0.007110 0.008056 106774.000000 0 0 1
11.711003 26.198191 -12.421728 31.269668 1.150427 1.979309 0.009660 0.000701 242807.000000 0 0 1
10.793003 25.799661 -11.213928 30.130775 1.174581 1.952148 0.010610 -0.002530 605269.000000 0 0 1
9.522803 26.471141 -11.198528 30.278906 1.225468 1.949639 0.007684 0.002699 457592.000000 0 0 1
9.006603 26.689411 -9.935528 29.869019 1.245337 1.909894 -0.009037 0.009374 381579.000000 0 0 1
7.857703 27.767641 -9.984728 30.536539 1.295026 1.903899 -0.008232 0.004344 543618.000000 0 0 1
8.340503 29.062671 -10.395728 31.973020 1.291324 1.901957 0.000161 0.003394 321167.000000 0 0 1
7.343503 30.099051 -10.403328 32.681939 1.331494 1.894754 0.008397 -0.002575 476682.000000 0 0 1
7.921403 31.484571 -10.873528 34.238289 1.324316 1.893977 0.021257 -0.005302 16105.700000 0 0 1
8.790103 32.155741 -9.951928 34.789344 1.303955 1.860911 0.000545 -0.001679 148071.000000 0 0 1
9.441703 33.303222 -10.505728 36.174863 1.294538 1.865457 0.024417 -0.002794 77346.700000 0 0 1
10.462503 33.138141 -11.653128 36.652364 1.264977 1.894349 0.005416 -0.009416 -1166460.000000 0 0 1
11.737203 33.111821 -11.090428 36.839547 1.230143 1.876587 0.000953 0.000431 -699927.000000 0 0 1
12.643203 33.797186 -11.962528 38.015818 1.212823 1.890908 0.023901 0.004868 750823.000000 0 0 1
14.161703 33.645985 -11.629828 38.312649 1.172401 1.879213 0.024411 0.002343 586678.000000 0 0 1
14.467903 34.266581 -10.394028 38.620650 1.171286 1.843287 0.037263 -0.005551 -1159310.000000 0 0 1
15.792003 34.636100 -10.446628 39.473774 1.143013 1.838634 0.021549 -0.011810 -1125510.000000 0 0 1
16.278503 -33.813494 -9.322628 38.668507 -1.122123 1.814286 0.040480 -0.024796 -273304.000000 0 0 1
16.224503 -34.329503 -7.992628 38.802466 -1.129299 1.778264 0.022728 -0.019997 287083.000000 0 0 1
16.777603 -33.409934 -7.032728 38.041700 -1.105411 1.756735 0.015585 -0.016402 -716571.000000 0 0 1
17.248403 -34.086465 -5.720028 38.627882 -1.102345 1.719423 0.012343 -0.001898 288558.000000 0 0 1
18.257803 34.215849 -5.625328 39.188212 1.080626 1.714840 0.009052 -0.008571 -113515.000000 0 0 1
19.517403 34.607168 -6.110628 40.198568 1.057291 1.723399 0.009920 -0.007991 -1007770.000000 0 0 1
20.059203 33.471942 -7.064328 39.656617 1.030903 1.749890 0.002343 0.001883 7201.660000 0 0 1
20.160803 32.150401 -6.525128 38.505630 1.010704 1.741077 0.013757 0.008820 -667628.000000 0 0 1
21.229303 32.083871 -5.643728 38.883284 0.986253 1.716456 0.018033 0.006879 -853755.000000 0 0 1
21.654603 30.682281 -5.139228 37.904299 0.956209 1.706800 0.014397 0.003634 -461199.000000 0 0 1
22.251203 29.859841 -6.117828 37.737965 0.930382 1.733628 0.012810 0.011570 -174745.000000 0 0 1
22.770803 28.781811 -5.442428 37.101512 0.901473 1.718018 0.009302 0.019471 144060.000000 0 0 1
23.681503 27.846391 -6.373528 37.106023 0.866051 1.743418 -0.003573 0.023399 -606315.000000 0 0 1
24.863103 28.486281 -6.738628 38.406396 0.853208 1.747165 0.002321 0.013977 -239091.000000 0 0 1
25.892003 27.606651 -7.209928 38.529289 0.817437 1.759035 -0.007690 0.020856 313709.000000 0 0 1
26.518103 26.652761 -6.163528 38.099456 0.787931 1.733285 -0.004854 0.016308 -856563.000000 0 0 1
27.627603 27.293371 -5.529028 39.227321 0.779313 1.712216 0.000958 0.008696 185904.000000 0 0 1
28.140203 26.379751 -4.586128 38.843209 0.753119 1.689140 -0.002419 0.010588 185082.000000 0 0 1
29.333503 26.885161 -3.714328 39.963265 0.741875 1.663874 -0.000555 0.004393 102953.000000 0 0 1
28.999103 27.952221 -2.825228 40.376436 0.767018 1.640826 0.017453 -0.008516 61697.800000 0 0 1
30.136603 28.465061 -2.160228 41.510735 0.756882 1.622860 0.026716 -0.014515 25824.700000 0 0 1
29.936203 29.789351 -1.375428 42.254864 0.782939 1.603353 0.035595 -0.013732 -32427.600000 0 0 1
30.003903 30.924681 -2.217228 43.144944 0.800509 1.622209 0.014499 -0.010969 36892.300000 0 0 1
29.552503 32.021071 -1.426328 43.597407 0.825468 1.603518 0.025800 -0.007156 -115959.000000 0 0 1
32.412092 23.231136 19.691355 44.474474 0.621875 1.112126 0.003113 0.001290 103322.000000 0 0 1
32.768312 22.955436 21.026855 45.197820 0.611087 1.086915 -0.010399 -0.002878 76819.300000 0 0 1
33.423142 24.056836 21.594355 46.498967 0.623869 1.087834 -0.004536 -0.001193 -228555.000000 0 0 1
33.303462 24.060436 23.089555 47.129106 0.625642 1.058797 -0.002129 -0.004306 121416.000000 0 0 1
31.964362 24.308836 23.475455 46.515985 0.650186 1.041791 -0.003607 -0.007975 334289.000000 0 0 1
31.776902 24.395936 24.879875 47.158682 0.654749 1.015050 0.000907 -0.010954 186409.000000 0 0 1
30.487522 25.077036 25.453875 46.970698 0.688331 0.998089 0.012137 -0.014042 417577.000000 0 0 1
30.321122 26.482336 25.185015 47.486519 0.717921 1.011770 0.005288 -0.008911 448581.000000 0 0 1
29.038862 26.954436 25.565665 47.152946 0.748189 0.997760 0.001217 -0.016174 40214.900000 0 0 1
28.903132 28.477236 25.742505 48.052269 0.777976 1.005438 -0.006264 -0.005864 -405570.000000 0 0 1
28.718432 29.257036 24.584465 47.802912 0.794688 1.030619 -0.003229 -0.015959 238406.000000 0 0 1
28.622102 30.617136 25.039705 48.822336 0.819063 1.032267 -0.009010 -0.010115 -368133.000000 0 0 1
28.722072 31.572836 23.845455 48.891789 0.832643 1.061321 -0.006540 -0.006108 57652.200000 0 0 1
30.073442 31.767636 23.469555 49.642870 0.812787 1.078367 -0.017796 -0.007291 141612.000000 0 0 1
30.062702 32.509136 22.285755 49.570806 0.824476 1.104508 -0.018010 -0.001664 302979.000000 0 0 1
31.481222 33.015336 21.938255 50.619826 0.809180 1.122542 -0.016301 -0.009736 168551.000000 0 0 1
31.900002 34.107336 22.685755 51.918821 0.818826 1.118595 -0.009706 0.001518 445934.000000 0 0 1
33.316832 34.283936 22.667755 52.907718 0.799703 1.128031 -0.011274 0.004150 642201.000000 0 0 1
33.914447 -33.867020 23.512555 53.385438 -0.784698 1.114719 -0.007312 -0.000410 -161452.000000 0 0 1
33.571192 -32.611120 22.971555 52.136382 -0.770893 1.114524 -0.019918 0.002792 -92291.300000 0 0 1
34.010434 -31.650020 23.846955 52.221744 -0.749465 1.096573 -0.009843 -0.004310 -853892.000000 0 0 1
33.220232 -30.315620 23.806555 50.885879 -0.739714 1.083949 -0.011445 0.002002 1840400.000000 0 0 1
31.780872 -30.414820 24.050555 50.134960 -0.763438 1.070465 -0.017734 0.007156 1987420.000000 0 0 1
30.874802 -30.924420 23.093355 49.425460 -0.786201 1.084634 -0.021859 0.013849 -465853.000000 0 0 1
30.405702 -32.371720 23.218455 50.115183 -0.816705 1.089079 -0.032539 0.009665 -425529.000000 0 0 1
29.364042 -32.506620 24.174255 50.033208 -0.836147 1.066531 -0.025010 0.000962 303750.000000 0 0 1
28.699922 -33.741820 24.200755 50.476454 -0.865969 1.070773 -0.032946 0.003073 163944.000000 0 0 1
27.882792 -33.946420 25.515015 50.801825 -0.883156 1.044602 -0.036386 0.004465 -43143.300000 0 0 1
27.493582 34.033636 25.711875 50.747275 0.891296 1.039484 -0.031913 -0.008303 138655.000000 0 0 1
26.722182 33.876636 26.888355 50.839798 0.902917 1.013511 -0.031257 -0.005739 -467498.000000 0 0 1
26.347562 32.385436 27.114305 49.781482 0.887840 0.994805 -0.025201 -0.008665 338664.000000 0 0 1
25.505372 31.705036 26.198005 48.394925 0.893343 0.998769 -0.027067 -0.000256 549718.000000 0 0 1
24.163282 32.167336 26.070685 47.940403 0.926544 0.995821 -0.022487 -0.002215 10098.700000 0 0 1
23.594382 31.910036 24.681105 46.734379 0.934112 1.014418 0.002055 -0.011451 -113086.000000 0 0 1
23.938682 32.871736 23.655255 47.044474 0.941364 1.043930 0.008696 -0.018008 230151.000000 0 0 1
25.187532 32.581436 23.061355 47.199447 0.912697 1.060319 -0.011004 -0.004931 -220440.000000 0 0 1
25.539792 33.609236 21.926055 47.566938 0.920987 1.091729 0.003784 -0.004990 -875597.000000 0 0 1
26.735372 33.490036 21.266755 47.839706 0.897088 1.110134 -0.006862 -0.000623 -731554.000000 0 0 1
26.594152 34.204236 20.041755 47.737308 0.909920 1.137534 -0.001125 -0.000676 -228313.000000 0 0 1
27.940192 34.580736 19.433955 48.519689 0.891215 1.158693 -0.006928 -0.000892 269092.000000 0 0 1
28.883482 33.531036 19.119655 48.209409 0.859724 1.162991 -0.004579 -0.000200 561214.000000 0 0 1
29.885652 34.037136 18.256755 48.836338 0.850252 1.187655 -0.008408 0.007801 -223189.000000 0 0 1
30.849142 32.984336 17.673655 48.497361 0.818835 1.197781 -0.022971 0.004157 161559.000000 0 0 1
31.781482 32.598036 18.692655 49.214935 0.798081 1.181198 -0.015129 0.003028 315664.000000 0 0 1
32.538302 31.449836 18.315055 48.818792 0.768389 1.186223 0.002789 -0.007168 446530.000000 0 0 1
33.438202 30.900736 19.453155 49.511555 0.745980 1.167012 0.025232 -0.026011 664340.000000 0 0 1
34.415420 31.783536 20.025355 50.947317 0.745662 1.166839 0.033196 -0.015746 571230.000000 0 0 1
-34.597770 31.118836 20.865455 50.997596 -0.732509 1.149279 0.027558 -0.012395 18890.600000 0 0 1
-33.530377 32.068736 21.407655 51.097727 -0.763120 1.138502 0.012876 -0.006447 -407633.000000 0 0 1
-32.720397 32.535536 20.324055 50.420756 -0.782565 1.155907 0.019189 -0.009606 642991.000000 0 0 1
-31.548657 33.298236 20.650455 50.304389 -0.812372 1.147783 0.009042 0.002939 555948.000000 0 0 1
-31.698487 34.621236 21.499655 51.630022 -0.829440 1.141295 -0.004486 0.003212 -451519.000000 0 0 1
-31.994117 34.438736 22.851555 52.267041 -0.822180 1.118305 0.010838 0.000375 133770.000000 0 0 1
-31.986237 -33.617920 23.563055 52.043265 0.810265 1.100939 -0.001029 0.004350 8338.740000 0 0 1
-31.948737 -33.740920 25.126915 52.825498 0.812674 1.075083 0.007968 -0.009757 809006.000000 0 0 1
-33.176177 -34.356020 25.588895 54.182897 0.802867 1.078933 0.013962 -0.008344 867362.000000 0 0 1
-33.216147 -34.323220 26.963375 54.849060 0.801788 1.056879 0.015425 -0.008170 -428742.000000 0 0 1
-34.467633 34.290336 27.450855 55.833630 -0.782820 1.056808 0.007334 -0.017784 -549754.000000 0 0 1
-34.381432 33.849036 28.814585 56.197156 -0.777595 1.032422 0.019396 -0.019191 -19890.800000 0 0 1
34.274220 33.660236 29.378945 56.310354 0.776361 1.021916 0.022573 -0.024093 95102.900000 0 0 1
34.326940 32.562736 30.485375 56.285243 0.759029 0.998430 0.018125 -0.018129 -192126.000000 0 0 1
34.151805 31.171036 30.143475 55.196090 0.739798 0.993075 0.013039 -0.017373 332343.000000 0 0 1
-34.871989 30.624636 29.188435 54.825985 -0.720640 1.009383 0.014141 -0.021161 -156123.000000 0 0 1
34.871430 29.129636 28.895225 53.846879 0.695924 1.004372 0.018519 -0.019432 -658917.000000 0 0 1
33.572692 28.888236 28.409005 52.618698 0.710540 1.000474 0.010249 -0.004597 447.071000 0 0 1
33.405762 27.658036 27.694525 51.457736 0.691548 1.002497 0.016627 -0.018755 -138142.000000 0 0 1
33.183372 26.461636 28.661295 51.213515 0.673176 0.976841 0.008915 -0.016200 -100893.000000 0 0 1
34.362608 26.044736 29.351575 52.159678 0.648562 0.973117 0.005441 -0.014198 326619.000000 0 0 1
34.123745 24.822736 29.984295 51.765395 0.628901 0.953007 -0.004155 -0.012100 -170555.000000 0 0 1
34.508446 23.582236 29.104785 50.931750 0.599481 0.962529 -0.004137 -0.006901 -523895.000000 0 0 1
33.693632 23.528836 27.977335 49.715171 0.609596 0.973085 -0.021639 -0.014110 -79116.600000 0 0 1
34.176730 22.758236 26.886785 49.080397 0.587471 0.991051 -0.021639 -0.012381 -545972.000000 0 0 1
34.308448 21.213836 27.044145 48.564207 0.553786 0.980179 -0.022182 -0.013921 -490412.000000 0 0 1
33.023042 20.663936 26.923595 47.353981 0.559133 0.966042 -0.002950 0.005698 69733.200000 0 0 1
32.858082 19.518536 27.720735 47.212985 0.536015 0.943272 0.007017 0.004656 -613097.000000 0 0 1
32.456892 19.581736 29.198955 47.848439 0.542854 0.914435 -0.001126 0.000101 1348040.000000 0 0 1
31.194252 20.286536 29.494705 47.482233 0.576607 0.900557 -0.004191 0.004352 1745580.000000 0 0 1
31.237142 21.689636 29.274495 47.991618 0.606927 0.914746 -0.000158 -0.007167 -1166560.000000 0 0 1
30.202942 22.401136 30.165395 48.207672 0.638160 0.894718 0.007076 -0.009631 1281460.000000 0 0 1
28.789192 22.129436 29.878235 47.023807 0.655344 0.882289 0.004139 -0.011577 1869470.000000 0 0 1
28.256772 22.866336 28.780425 46.364073 0.680346 0.901099 0.007599 -0.015437 -264352.000000 0 0 1
28.095152 24.337636 28.995325 47.142199 0.713857 0.908333 0.005419 -0.011831 -329968.000000 0 0 1
29.349822 24.990136 28.779045 48.105637 0.705340 0.929485 0.004500 -0.009186 567179.000000 0 0 1
29.328712 26.364536 29.258185 49.105025 0.732225 0.932499 0.003310 -0.010572 -187129.000000 0 0 1
29.553532 26.413136 30.761265 50.172905 0.729345 0.910811 0.000451 -0.012648 228297.000000 0 0 1
30.906102 26.049436 31.028025 50.955849 0.700333 0.916098 0.005212 -0.012639 490912.000000 0 0 1
31.421472 25.960936 32.359655 52.042543 0.690523 0.899767 0.013651 -0.016567 2353.090000 0 0 1
30.895992 24.717136 33.119785 51.598636 0.674748 0.873858 0.020233 -0.013085 -398745.000000 0 0 1
31.225652 24.607836 34.458253 52.611387 0.667421 0.856669 0.010202 -0.013058 378603.000000 0 0 1
30.132612 24.079736 -34.065438 51.461267 0.674207 2.294231 0.000046 -0.017994 -339219.000000 0 0 1
30.637832 23.456136 -32.734238 50.600369 0.653407 2.274331 -0.010936 -0.010734 -148971.000000 0 0 1
31.248052 24.324036 -31.811898 50.794648 0.661442 2.247574 -0.007947 -0.012822 346902.000000 0 0 1
31.720362 23.640636 -30.697368 50.073839 0.640475 2.230702 -0.005912 -0.012078 -393124.000000 0 0 1
32.532902 24.486136 -29.716448 50.408608 0.645200 2.201250 -0.001484 -0.005487 95886.000000 0 0 1
33.204152 23.781736 -28.686898 49.910167 0.621534 2.183120 -0.009427 -0.008681 33122.500000 0 0 1
33.871342 24.628336 -27.763978 50.246006 0.628693 2.156230 0.006463 -0.008585 139010.000000 0 0 1
34.396339 23.884236 -26.504298 49.558477 0.606946 2.135077 0.004087 -0.010863 -872797.000000 0 0 1
-34.410258 23.138036 -26.703498 49.320496 -0.591973 2.142931 -0.007104 -0.000844 -868146.000000 0 0 1
-34.689054 21.737936 -26.724878 48.888520 -0.559786 2.149154 -0.019498 0.007344 -383873.000000 0 0 1
-33.570917 20.814536 -27.232738 47.977842 -0.555008 2.174397 -0.020335 0.013270 -188879.000000 0 0 1
-32.603007 20.527436 -26.245108 46.616921 -0.561913 2.168802 -0.027533 0.016186 -480647.000000 0 0 1
-31.715087 19.516836 -26.553578 45.736704 -0.551652 2.190231 -0.033784 0.016730 -573075.000000 0 0 1
-30.338087 19.683736 -25.925018 44.496691 -0.575540 2.192755 -0.013391 0.006336 -482560.000000 0 0 1
-30.379307 19.603336 -24.518828 43.684848 -0.573054 2.166711 -0.015142 -0.000184 665943.000000 0 0 1
-29.084297 19.676336 -23.893128 42.472768 -0.594799 2.168265 -0.004455 0.006089 728312.000000 0 0 1
-29.156657 20.019436 -22.390428 41.859523 -0.601687 2.135179 -0.017258 0.009947 -400342.000000 0 0 1
-29.986047 19.157236 -21.703528 41.679801 -0.568512 2.118491 -0.039869 0.017647 -365955.000000 0 0 1
-30.314367 19.746936 -20.492128 41.579197 -0.577362 2.086154 -0.033197 0.018022 -630061.000000 0 0 1
-31.497307 18.982236 -19.860828 41.795431 -0.542375 2.065978 -0.032833 0.011196 107858.000000 0 0 1
-32.226087 19.591536 -18.800528 42.140346 -0.546237 2.033245 -0.032896 0.004276 398499.000000 0 0 1
-33.127547 20.618536 -19.157428 43.469132 -0.556726 2.027190 -0.035049 0.006500 -322870.000000 0 0 1
-34.322277 20.793436 -18.182328 44.056585 -0.544695 1.996217 -0.021731 -0.004320 -511329.000000 0 0 1
-33.922317 21.137436 -16.890328 43.391219 -0.557241 1.970621 -0.013400 -0.008076 -168471.000000 0 0 1
-34.904322 20.947536 -15.919328 43.709678 -0.540524 1.943576 -0.012589 0.002336 -1053030.000000 0 0 1
-34.657025 21.768436 -14.641028 43.466468 -0.560833 1.914350 -0.006510 0.001098 -260318.000000 0 0 1
-34.788841 23.172536 -14.744928 44.324291 -0.587604 1.909919 -0.002250 -0.005991 607805.000000 0 0 1
33.822582 23.641636 -14.921028 43.880873 0.610048 1.917750 -0.002959 0.004920 53356.600000 0 0 1
33.583272 25.133436 -15.055228 44.566642 0.642471 1.915390 -0.005951 -0.002365 -328082.000000 0 0 1
33.929089 25.894936 -13.956728 44.905690 0.651900 1.886832 -0.007305 0.001741 75021.400000 0 0 1
33.884508 27.289036 -14.250328 45.781253 0.677997 1.887325 -0.019890 0.009494 -280708.000000 0 0 1
-34.832436 27.894636 -14.942828 47.060571 -0.675243 1.893913 0.004710 0.002353 -219200.000000 0 0 1
-34.831747 27.679636 -16.359028 47.402854 -0.671481 1.923148 0.023181 0.001084 -95392.600000 0 0 1
-33.700557 28.294036 -16.913528 47.141780 -0.698409 1.937757 0.029046 -0.007178 -1003800.000000 0 0 1
-33.481907 28.037936 -18.420528 47.397044 -0.697137 1.969955 0.019555 -0.016294 -242125.000000 0 0 1
-32.928797 26.799236 -18.718528 46.399224 -0.683132 1.986051 0.016665 -0.019277 -163820.000000 0 0 1
-31.586747 26.609336 -18.347528 45.193042 -0.700078 1.988849 0.015992 -0.009079 -531315.000000 0 0 1
-31.062467 25.198736 -18.859428 44.221388 -0.681550 2.011391 0.011082 -0.012275 -78127.800000 0 0 1
-30.657307 25.114536 -20.241428 44.500851 -0.686340 2.043006 0.002424 -0.013244 373738.000000 0 0 1
-30.354797 23.806636 -20.677828 43.769192 -0.665081 2.062841 0.003429 -0.010123 -248191.000000 0 0 1
-30.109307 23.705736 -22.155728 44.265207 -0.666963 2.094998 -0.011750 0.000175 -615374.000000 0 0 1
-31.213977 23.869636 -22.980628 45.521216 -0.652849 2.099985 0.001875 -0.006976 -261944.000000 0 0 1
-30.916747 23.420736 -24.285928 45.762237 -0.648311 2.130220 0.006406 -0.003266 -250702.000000 0 0 1
-31.798677 24.100536 -25.307588 47.248975 -0.648544 2.136040 -0.015378 0.003849 -596699.000000 0 0 1
-31.686727 25.534536 -25.436108 47.990173 -0.678294 2.129429 -0.025876 0.005812 -289205.000000 0 0 1
-32.638997 26.114836 -26.291478 49.381480 -0.674809 2.132248 -0.016656 -0.002427 -401764.000000 0 0 1
-32.347507 27.569536 -26.583528 50.131073 -0.705823 2.129728 -0.021171 0.006003 -354317.000000 0 0 1
-31.174067 27.800636 -27.306918 49.903562 -0.728259 2.149804 -0.031033 0.005876 -596182.000000 0 0 1
-30.892107 29.157836 -27.444408 50.573680 -0.756526 2.144399 -0.029188 0.002545 -530330.000000 0 0 1
-29.512647 29.439736 -28.033628 50.235233 -0.784161 2.162827 -0.031946 0.011969 -204385.000000 0 0 1
-28.417057 28.852036 -27.310798 48.845151 -0.792993 2.164133 -0.067731 0.016402 144211.000000 0 0 1
-27.165107 29.024936 -27.942778 48.592065 -0.818485 2.183459 -0.019348 0.021605 483270.000000 0 0 1
-26.502357 30.465136 -27.742578 48.991326 -0.854848 2.172776 -0.029032 0.016345 -725472.000000 0 0 1
-25.874097 30.646736 -26.509088 48.077261 -0.869639 2.154820 -0.029638 0.018422 -253640.000000 0 0 1
-26.705237 30.982436 -25.436668 48.167469 -0.859407 2.127144 -0.041316 0.026258 110584.000000 0 0 1
-25.838997 31.553036 -24.223328 47.434348 -0.884633 2.106761 -0.056593 0.022622 712018.000000 0 0 1
-25.331987 32.848836 -24.466328 48.159700 -0.913884 2.103687 -0.038636 0.022178 -521383.000000 0 0 1
-24.241797 33.184536 -23.679928 47.430129 -0.939883 2.093540 -0.028368 0.029081 -357311.000000 0 0 1
-23.659197 34.607236 -23.936328 48.273866 -0.971129 2.089603 -0.029617 0.032464 -331600.000000 0 0 1
-24.530297 -33.648720 -23.513228 47.820954 0.940864 2.084829 -0.039944 0.015792 56463.700000 0 0 1
-23.919497 -32.367720 -23.490828 46.600757 0.934377 2.099121 -0.022969 0.009667 58961.700000 0 0 1
16.067003 8.323836 -25.540718 31.301168 0.477999 2.525196 0.032750 -0.024948 272340.000000 0 0 1
14.782903 7.880436 -25.119318 30.192973 0.489758 2.553426 0.032239 -0.025435 307120.000000 0 0 1
14.380103 6.607136 -25.634868 30.126202 0.430696 2.588523 0.036782 -0.030667 -194756.000000 0 0 1
12.881403 6.390936 -25.434248 29.217727 0.460552 2.627029 0.028997 -0.028449 -279778.000000 0 0 1
12.414703 6.256936 -24.093828 27.817021 0.466838 2.618251 0.024813 -0.033984 409502.000000 0 0 1
11.057903 5.827836 -24.028728 27.085432 0.485036 2.661919 0.019982 -0.026700 302524.000000 0 0 1
10.462403 6.023136 -22.634328 25.652541 0.522355 2.651613 0.031886 -0.032498 -127078.000000 0 0 1
11.061103 5.163936 -21.659328 24.862436 0.436782 2.628370 0.018508 -0.029935 138703.000000 0 1 0
10.654903 5.342536 -20.279028 23.522513 0.464780 2.610218 0.026017 -0.028176 117916.000000 0 1 0
11.156103 6.730736 -19.644128 23.572297 0.542859 2.555949 0.028411 -0.032702 -113620.000000 0 1 0
10.754503 6.856936 -18.313928 22.317636 0.567600 2.533262 0.021004 -0.024502 -433176.000000 0 1 0
10.826603 8.167536 -17.810628 22.386211 0.646308 2.490805 0.023444 -0.023060 1170430.000000 0 1 0
12.265103 8.625536 -17.284528 22.882035 0.612909 2.427023 0.017074 -0.022092 886015.000000 0 1 0
12.680803 7.749636 -16.265128 22.032113 0.548564 2.401263 0.009819 -0.030685 -760692.000000 0 1 0
14.063603 7.820736 -16.209328 22.840559 0.507513 2.359830 0.000330 -0.028999 -976385.000000 0 1 0
14.705203 7.605936 -14.843928 22.235905 0.477334 2.301731 0.020794 -0.024647 50052.600000 0 1 0
16.131403 7.568336 -14.846828 23.193322 0.438679 2.265469 0.014471 -0.022526 843395.000000 0 1 0
16.627603 7.832036 -13.549228 22.834175 0.440201 2.206042 0.010394 -0.024704 -65456.300000 0 1 0
17.303703 9.226036 -13.463128 23.786418 0.489840 2.172443 0.031779 -0.021569 -33674.100000 0 1 0
16.295103 10.213636 -13.300928 23.382973 0.559887 2.175878 0.040033 -0.016835 734228.000000 0 1 0
16.828803 11.487936 -13.458728 24.419636 0.598977 2.154531 0.038223 -0.011426 -275612.000000 0 1 0
15.740403 12.565436 -13.300028 24.135891 0.673699 2.154416 0.053489 -0.010045 -57008.800000 0 1 0
15.005003 12.651836 -12.081828 23.047552 0.700518 2.122587 0.067711 -0.007090 246774.000000 0 1 0
15.537603 13.428236 -11.036428 23.313888 0.712704 2.063925 0.062890 -0.009524 -267823.000000 0 1 0
15.126503 14.928436 -11.123528 23.987542 0.778808 2.052987 0.057098 -0.013262 351591.000000 0 1 0
13.807103 15.174236 -10.661928 23.120775 0.832536 2.050077 0.058270 -0.021691 493858.000000 0 1 0
13.449303 16.565736 -10.704228 23.872324 0.888856 2.035765 0.038029 -0.019521 414193.000000 0 1 0
12.237003 17.070636 -9.866128 23.205416 0.948854 2.009940 0.030131 -0.018274 349847.000000 0 1 0
12.424503 17.011536 -8.459028 22.700568 0.939985 1.952643 0.032734 -0.010424 -104252.000000 0 1 0
11.234203 17.379636 -7.845028 22.131505 0.996956 1.933147 0.021438 -0.000302 -507715.000000 0 1 0
11.383003 17.138036 -6.343728 21.529699 0.984507 1.869886 0.011850 0.000763 298893.000000 0 1 0
12.304803 18.103936 -5.836428 22.654460 0.973842 1.831363 0.007019 0.008595 310962.000000 0 1 0
12.629103 17.781236 -4.557528 22.280881 0.953225 1.776799 -0.006360 0.008881 -248276.000000 0 1 0
13.785303 18.629636 -4.017028 23.520936 0.933748 1.742423 -0.006612 0.007582 483003.000000 0 1 0
15.056803 18.560536 -4.698128 24.357201 0.889247 1.764897 0.001560 0.000049 1294070.000000 0 1 0
15.930903 19.468636 -3.995728 25.471304 0.885005 1.728319 0.005930 0.002187 135993.000000 0 0 1
17.212503 19.806836 -4.842728 26.683947 0.855364 1.753292 0.007874 0.005316 884354.000000 0 0 1
18.395503 19.072036 -4.513228 26.879478 0.803453 1.739502 0.012916 -0.001875 629391.000000 0 0 1
18.353803 17.739036 -4.958428 26.002336 0.768367 1.762663 0.008222 -0.011588 -887093.000000 0 0 1
19.468703 16.834336 -4.405028 26.111866 0.712959 1.740305 0.032922 -0.021485 -834573.000000 0 0 1
20.691103 17.143436 -4.957628 27.323931 0.691904 1.753246 0.041812 -0.027514 -206416.000000 0 0 1
21.756803 16.313836 -4.494528 27.562665 0.643390 1.734594 0.050635 -0.027872 668230.000000 0 0 1
23.216903 16.718736 -4.815428 29.012568 0.624096 1.737545 0.061574 -0.023996 435399.000000 0 0 1
23.796103 17.901436 -4.222828 30.075708 0.644961 1.711668 0.068651 -0.023562 660279.000000 0 0 1
25.211803 17.831536 -4.366428 31.187568 0.615588 1.711263 0.053984 -0.015226 181072.000000 0 0 1
25.773503 19.145136 -3.728828 32.322034 0.638892 1.686419 0.061571 -0.012313 -311135.000000 0 0 1
25.747903 20.355836 -4.493628 33.128647 0.668972 1.706857 0.062654 -0.012787 209760.000000 0 0 1
25.780503 21.510536 -3.677228 33.776612 0.695351 1.679882 0.073123 0.011239 -124715.000000 0 0 1
25.846403 22.874836 -4.395228 34.793860 0.724482 1.697457 0.043959 0.013652 561936.000000 0 0 1
27.045703 23.155836 -5.155728 35.975607 0.708068 1.714603 0.032222 0.018502 899318.000000 0 0 1
27.108803 22.517536 -6.422928 35.821511 0.693144 1.751075 0.029991 0.012853 177634.000000 0 0 1
28.110203 23.126436 -7.449728 37.155269 0.688434 1.772667 0.000484 0.021258 321816.000000 0 0 1
27.598903 24.295736 -8.164928 37.664948 0.721832 1.789309 -0.009153 0.017839 98307.600000 0 0 1
28.625203 25.065436 -8.722528 39.035379 0.719194 1.796151 -0.023892 0.020266 -85886.600000 0 0 1
29.504203 24.452136 -9.868628 39.570125 0.692038 1.822853 -0.022082 0.009490 24414.600000 0 0 1
28.885603 24.307736 -11.116028 39.354926 0.699549 1.857150 -0.019875 0.014084 18404.200000 0 0 1
29.860203 23.987936 -12.120528 40.174121 0.676775 1.877271 -0.022778 0.012018 156978.000000 0 0 1
29.415303 23.336436 -13.442628 39.881745 0.670669 1.914591 -0.014850 0.010839 -104905.000000 0 0 1
29.054603 24.268836 -14.465928 40.526651 0.695888 1.935795 -0.001489 0.008485 137122.000000 0 0 1
28.894103 23.625236 -15.674628 40.481044 0.685410 1.968399 0.005579 0.003852 -219817.000000 0 0 1
28.972103 24.517636 -16.896328 41.544953 0.702313 1.989635 0.010275 0.003897 -1221910.000000 0 0 1
30.230203 24.950336 -17.226928 42.815318 0.690005 1.984883 0.006352 0.007664 -1062180.000000 0 0 1
30.230803 25.406436 -18.550528 43.629239 0.698903 2.009963 0.012415 -0.008065 122597.000000 0 0 1
31.590403 26.040836 -18.939428 45.108543 0.689400 2.004091 0.007013 -0.016389 621743.000000 0 0 1
32.598603 25.028036 -19.009328 45.281630 0.654774 2.004024 0.014156 -0.018270 -615865.000000 0 0 1
33.907703 25.482336 -19.120528 46.526083 0.644474 1.994307 0.009597 -0.023387 -1103370.000000 0 0 1
34.831903 24.294636 -18.984328 46.517690 0.609034 1.991179 0.006591 -0.022306 -696708.000000 0 0 1
34.707803 23.324736 -20.044628 46.373074 0.591708 2.017780 0.002598 -0.017551 818128.000000 0 0 1
-34.328475 23.625836 -21.156128 46.735490 -0.602782 2.040563 0.009178 -0.024219 447122.000000 0 0 1
-34.400775 22.699236 -22.394228 46.905970 -0.583266 2.068522 0.006202 -0.021687 -110171.000000 0 0 1
-34.061675 21.364436 -22.039628 45.851739 -0.560200 2.072217 -0.014219 -0.011380 238808.000000 0 0 1
-33.686475 20.671536 -23.175328 45.816883 -0.550392 2.101134 -0.021969 0.000690 -228473.000000 0 0 1
-33.415475 19.136536 -23.034128 44.870614 -0.520093 2.109875 -0.041787 0.012307 -645029.000000 0 0 1
-34.506475 18.322536 -22.835028 45.253183 -0.488130 2.099722 -0.037403 0.001098 -550701.000000 0 0 1
-34.045975 17.036836 -23.075828 44.518266 -0.463973 2.115711 -0.047913 0.006503 178876.000000 0 0 1
34.715603 16.037736 -22.926128 44.586875 0.432767 2.110859 -0.044826 0.005045 542273.000000 0 0 1
33.719403 16.163236 -23.937128 44.398586 0.446988 2.140214 -0.005533 -0.003242 715169.000000 0 0 1
32.548103 15.381336 -23.735628 43.120118 0.441466 2.153704 0.006348 0.006266 255253.000000 0 0 1
32.627703 13.948936 -24.335228 43.027237 0.404002 2.171929 -0.031785 0.005461 -588433.000000 0 0 1
32.778503 13.866636 -25.728418 43.916573 0.400210 2.196722 -0.034282 0.015678 343173.000000 0 0 1
33.300003 12.586636 -26.100888 44.142609 0.361378 2.203448 -0.032926 0.016605 -372449.000000 0 0 1
33.151403 12.385536 -27.630458 44.898321 0.357547 2.233691 -0.011509 0.004364 -617794.000000 0 0 1
31.818903 12.217236 -28.022788 44.124597 0.366604 2.258912 -0.014201 -0.001048 -68152.600000 0 0 1
31.204503 13.481436 -28.464588 44.336248 0.407814 2.267921 0.002591 -0.003129 89644.000000 0 0 1
31.373703 13.701636 -29.979988 45.506524 0.411759 2.290027 0.011193 -0.005315 1583640.000000 0 0 1
32.791103 13.996036 -30.235518 46.747535 0.403415 2.274155 -0.005210 0.000242 1702330.000000 0 0 1
33.078903 13.956536 -31.641178 47.855646 0.399256 2.293186 -0.003632 -0.003260 185697.000000 0 0 1
34.586203 14.262536 -31.958858 49.203597 0.391130 2.277753 0.008625 -0.008047 1095510.000000 0 0 1
-34.436175 13.230536 -31.587728 48.566261 -0.366816 2.278914 0.001357 -0.006940 333695.000000 0 0 1
-34.132375 13.117636 -30.204948 47.428159 -0.366913 2.261211 -0.010719 -0.006143 -1018390.000000 0 0 1
-33.009775 12.179536 -29.778278 46.094817 -0.353471 2.273158 -0.010488 -0.010527 -457454.000000 0 0 1
-33.290275 10.797936 -29.960828 46.070479 -0.313650 2.278810 -0.009674 -0.014306 -747778.000000 0 0 1
-32.252575 9.934436 -29.771968 45.003240 -0.298798 2.293682 -0.005542 -0.015788 -963518.000000 0 0 1
-32.655475 8.577636 -30.316428 45.376664 -0.256868 2.302457 0.004074 -0.012759 -750862.000000 0 0 1
-32.788475 8.509836 -31.717638 46.405926 -0.253935 2.323319 0.001511 -0.016017 -52569.600000 0 0 1
-33.026775 7.224436 -32.226098 46.706335 -0.215353 2.332248 0.001958 -0.012049 -107355.000000 0 0 1
-34.341375 6.501736 -31.795808 47.250143 -0.187112 2.308952 0.008101 -0.002864 -157638.000000 0 0 1
-34.377775 6.127036 -30.448508 46.330158 -0.176375 2.287903 0.009442 -0.012689 155804.000000 0 0 1
34.398903 5.345636 -30.279498 46.137928 0.154168 2.286677 -0.002231 -0.004386 -123501.000000 0 0 1
34.495103 4.486936 -28.968538 45.268321 0.129348 2.265203 0.004390 -0.009602 43029.700000 0 0 1
-34.576375 3.366336 -29.087738 45.309540 -0.097054 2.267872 0.023704 -0.006116 461708.000000 0 0 1
34.943103 2.299536 -28.304478 45.027234 0.065713 2.250558 0.031761 -0.008307 -218929.000000 0 0 1
-33.925175 1.217736 -28.187888 44.124340 -0.035879 2.263771 0.051531 -0.012841 -502114.000000 0 0 1
-32.827775 1.454536 -27.366018 42.763038 -0.044279 2.265224 0.059045 -0.019034 -563284.000000 0 0 1
-32.016475 0.321436 -27.333868 42.098673 -0.010039 2.277435 0.056594 -0.014883 -310901.000000 0 0 1
-30.819875 0.415136 -26.395838 40.580504 -0.013469 2.278981 0.055139 -0.014213 -264344.000000 0 0 1
-31.279675 0.444536 -25.087158 40.099640 -0.014211 2.246723 0.044847 -0.007425 343061.000000 0 0 1
-30.200875 0.622736 -24.187328 38.697641 -0.020617 2.245971 0.052643 -0.002898 154265.000000 0 0 1
-30.601175 0.118136 -22.753928 38.133805 -0.003860 2.210162 0.038232 0.008132 -295498.000000 0 0 1
-30.499375 -1.267064 -22.613328 37.989208 0.041520 2.208381 0.050037 -0.000785 54008.900000 0 0 1
-30.882275 -1.699564 -21.304228 37.556272 0.054978 2.173973 0.041309 0.007655 763529.000000 0 0 1
-32.364975 -1.591264 -20.766928 38.487517 0.049127 2.140729 0.036833 0.007706 951794.000000 0 0 1
-33.229075 -2.659464 -21.163128 39.485721 0.079864 2.136452 0.049947 -0.012269 1427280.000000 0 0 1
-34.567575 -2.441564 -20.635928 40.332617 0.070515 2.107893 0.039794 -0.009654 1545090.000000 0 0 1
34.448403 -3.666664 -20.420028 40.213362 -0.106040 2.103416 0.035409 -0.008304 87745.600000 0 0 1
33.934503 -4.371264 -21.539728 40.430414 -0.128109 2.132656 0.032617 -0.006757 117638.000000 0 0 1
34.908403 -4.992264 -22.348428 41.748911 -0.142047 2.135666 0.041855 -0.013045 -360473.000000 0 0 1
34.348703 -5.881264 -23.474728 42.017681 -0.169578 2.163598 0.032462 -0.012284 68177.000000 0 0 1
33.563903 -7.035564 -23.030228 41.308911 -0.206625 2.162183 0.030064 -0.004233 881343.000000 0 0 1
33.025903 -7.860664 -24.073928 41.617957 -0.233667 2.187624 0.031153 -0.000315 81747.800000 0 0 1
31.727803 -7.393364 -24.760528 40.919422 -0.228939 2.220693 0.008046 0.007775 -564767.000000 0 0 1
31.759803 -6.317664 -25.659368 41.315870 -0.196357 2.240883 0.008590 0.003409 543515.000000 0 0 1
30.438003 -5.788764 -25.822288 40.333266 -0.187938 2.265585 -0.029861 0.013109 698945.000000 0 0 1
30.346103 -4.513164 -26.663488 40.647217 -0.147641 2.286268 -0.006541 -0.013731 -29551.500000 0 0 1
30.572603 -4.772264 -28.052508 41.766036 -0.154847 2.307241 -0.002350 -0.008989 302949.000000 0 0 1
30.183703 -3.633864 -28.839588 41.904448 -0.119815 2.329833 0.005151 -0.013133 111651.000000 0 0 1
30.128603 -4.062764 -30.302568 42.924170 -0.134039 2.354568 0.015674 -0.007195 70448.900000 0 0 1
29.621403 -3.080364 -31.190818 43.125205 -0.103619 2.379311 0.023892 -0.024667 -225321.000000 0 0 1
29.085503 -3.657664 -32.315178 43.630445 -0.125099 2.404843 0.033379 -0.028705 -925787.000000 0 0 1
28.447603 -2.535064 -33.197418 43.792251 -0.088879 2.431139 0.039053 -0.024316 -463270.000000 0 0 1
27.391403 -1.799164 -32.661248 42.664776 -0.065589 2.442664 0.031628 -0.023506 -165419.000000 0 0 1
26.221903 -2.405864 -32.173648 41.575474 -0.091494 2.455711 0.035812 -0.023429 -818135.000000 0 0 1
25.212303 -2.833364 -33.216548 41.797455 -0.111911 2.489314 0.037509 -0.025610 -1260870.000000 0 0 1
25.636503 -3.922764 -33.964338 42.733998 -0.151837 2.489449 0.048068 -0.031229 -177901.000000 0 0 1
25.077003 -3.892664 34.048312 42.465238 -0.153999 0.640508 0.041697 -0.021649 -661299.000000 0 0 1
25.744703 -4.849664 33.036105 42.162699 -0.186193 0.670456 0.032809 -0.023435 377999.000000 0 0 1
27.073703 -4.599064 32.595935 42.621964 -0.168266 0.700114 0.026317 -0.019640 248022.000000 0 0 1
27.297803 -3.571264 31.665125 41.959554 -0.130087 0.715663 0.032048 -0.020450 -557798.000000 0 0 1
28.011603 -2.301464 32.168645 42.717308 -0.081977 0.718098 0.022727 -0.025410 -65741.300000 0 0 1
29.339403 -2.568864 32.573965 43.914267 -0.087334 0.735101 0.011879 -0.021383 -353476.000000 0 0 1
29.956403 -1.352264 32.890545 44.508456 -0.045110 0.739252 0.008973 -0.015985 134537.000000 0 0 1
31.434203 -1.572064 33.334230 45.844862 -0.049970 0.756694 0.007598 -0.013106 545008.000000 0 0 1
32.252003 -2.001464 32.247045 45.651610 -0.061978 0.786436 0.019503 -0.012376 510585.000000 0 0 1
33.624503 -2.103564 32.645195 46.912056 -0.062479 0.801151 0.022944 -0.008938 521513.000000 0 0 1
34.539803 -2.755964 31.630905 46.915962 -0.079622 0.830911 0.001681 -0.000158 -353143.000000 0 0 1
34.642703 -1.951964 30.482035 46.185295 -0.056286 0.849985 0.007471 0.009120 52936.200000 0 0 1
-34.209575 -2.241564 29.625365 45.309843 0.065431 0.858148 0.005708 0.012410 188773.000000 0 0 1
-34.220675 -1.512464 28.299715 44.432150 0.044169 0.880300 0.007207 0.011027 214895.000000 0 0 1
34.816403 -1.996864 27.304975 44.291433 -0.057291 0.906527 0.002128 -0.005836 -63702.100000 0 0 1
-34.696175 -1.536964 26.020725 43.396600 0.044269 0.927792 0.005334 0.001525 -167282.000000 0 0 1
-25.920757 15.532136 12.535872 32.715149 -0.539843 1.177557 0.022992 0.006774 -433626.000000 0 0 1
-27.067307 14.794336 12.869172 33.423451 -0.500210 1.175551 -0.002279 0.008048 87110.200000 0 0 1
-27.794157 15.591336 13.786872 34.722943 -0.511217 1.162492 0.008193 0.003507 976449.000000 0 0 1
-29.218847 15.087036 14.259372 35.842563 -0.476639 1.161642 0.010397 -0.003172 1128410.000000 0 0 1
-30.022527 16.027536 14.976672 37.182452 -0.490360 1.156235 0.013625 -0.006458 414082.000000 0 0 1
-31.127757 15.262536 15.500672 37.975691 -0.455873 1.150344 0.008394 0.011165 552905.000000 0 0 1
-32.211127 16.150636 16.210572 39.511800 -0.464766 1.148044 0.023307 0.007440 254670.000000 0 0 1
-31.639057 16.667736 17.366872 39.754894 -0.484864 1.118704 0.022399 0.014785 561777.000000 0 0 1
-32.573607 16.560936 18.432272 40.927413 -0.470358 1.103622 0.012673 0.013851 495118.000000 0 0 1
-31.803077 16.774136 19.777472 41.036030 -0.485356 1.067913 0.005252 0.012866 76487.800000 0 0 1
-31.269507 15.580036 20.305572 40.408363 -0.462247 1.044298 0.012191 0.010025 110073.000000 0 0 1
-30.020267 15.714936 20.957072 39.841869 -0.482253 1.016898 0.006523 0.011930 315994.000000 0 0 1
-30.081197 16.391136 22.372672 40.915574 -0.498916 0.992258 0.020697 0.004219 -376138.000000 0 0 1
-30.646137 17.724136 22.260772 41.819525 -0.524347 1.009474 0.001857 0.007889 88858.300000 0 0 1
-30.786827 18.431836 23.499172 42.892568 -0.539457 0.990991 -0.001328 -0.006464 -384302.000000 0 0 1
-31.612277 17.659236 24.632872 43.794555 -0.509437 0.973433 -0.020377 -0.000814 812656.000000 0 0 1
-33.009117 17.464636 24.385172 44.601030 -0.486644 0.992330 0.007056 -0.001150 845966.000000 0 0 1
-33.803587 18.644736 24.479672 45.711738 -0.504041 1.005670 0.000000 -0.004000 -1235170.000000 0 0 1
34.692867 18.404136 24.094872 46.074614 0.487739 1.020484 -0.034677 -0.008277 -64703.200000 0 0 1
33.986096 17.753636 25.220272 45.894536 0.481390 0.988999 -0.014915 -0.005377 1729130.000000 0 0 1
32.899312 16.813736 24.862272 44.533122 0.472462 0.978476 -0.005209 -0.005817 1433710.000000 0 0 1
32.465382 15.805136 25.952172 44.467050 0.453057 0.947608 0.000594 0.000690 -460184.000000 0 0 1
31.858132 16.382736 27.072572 44.902770 0.474975 0.923646 -0.006556 -0.001475 181515.000000 0 0 1
31.574552 15.497536 28.189172 45.074997 0.456280 0.895173 -0.013020 0.003289 -118760.000000 0 0 1
30.441142 14.467736 27.983372 43.806936 0.443668 0.877874 -0.010406 0.000073 -376403.000000 0 0 1
30.748532 13.257936 27.169672 43.121180 0.407088 0.889144 -0.011366 0.002766 171259.000000 0 0 1
29.960832 12.131036 27.539172 42.464332 0.384720 0.865152 -0.012928 0.007397 -272799.000000 0 0 1
30.509302 10.737936 27.146672 42.226326 0.338416 0.872537 -0.007154 0.014977 -160.547000 0 0 1
31.476482 10.197836 28.051172 43.377794 0.313312 0.867584 0.001066 0.007238 253249.000000 0 0 1
32.012632 8.966236 27.612272 43.216195 0.273087 0.877685 -0.010842 0.012203 -276919.000000 0 0 1
32.949332 8.302336 28.634772 44.435767 0.246835 0.870547 -0.001774 0.018741 10506.800000 0 0 1
34.124074 9.073836 28.829372 45.584203 0.259893 0.886094 0.004981 0.015347 -80093.300000 0 0 1
-34.843065 8.238536 29.409972 46.334211 -0.232183 0.883130 -0.005809 0.017435 -176009.000000 0 0 1
-33.422377 8.789936 29.573272 45.485126 -0.257172 0.862982 -0.005078 0.014093 -312678.000000 0 0 1
-32.786777 9.059136 28.357772 44.285482 -0.269579 0.875855 -0.011860 0.019846 -384066.000000 0 0 1
-31.597267 9.703736 28.715872 43.785284 -0.297964 0.855510 -0.000002 0.019357 -146903.000000 0 0 1
-30.775677 10.328636 27.536272 42.568407 -0.323798 0.867322 -0.000636 0.018021 102071.000000 0 0 1
-30.440097 9.394536 26.561472 41.477326 -0.299350 0.875796 -0.002055 0.014779 528311.000000 0 0 1
-29.494957 9.897836 25.609572 40.296027 -0.323769 0.882094 0.000245 0.006257 410583.000000 0 0 1
-28.880167 8.894536 24.570572 38.947270 -0.298762 0.888125 0.008528 0.006535 154419.000000 0 0 1
-27.985597 9.483236 23.669472 37.859864 -0.326717 0.895426 0.005779 0.002343 -633591.000000 0 0 1
-27.287877 8.549536 22.928172 36.652747 -0.303622 0.894958 -0.000136 0.005582 -835469.000000 0 0 1
-26.161747 9.199036 22.176072 35.508273 -0.338119 0.896263 -0.005993 0.014376 -1510690.000000 0 0 1
-25.087547 9.628736 22.983372 35.360047 -0.366468 0.863236 0.003958 0.004424 439489.000000 0 0 1
-24.003697 10.311836 22.365572 34.390845 -0.405755 0.862771 -0.003354 0.015384 911762.000000 0 0 1
-23.211397 9.578836 21.211272 32.870064 -0.391388 0.869372 -0.004337 0.020774 -892297.000000 0 0 1
-23.962697 9.464736 20.013872 32.624334 -0.376170 0.910356 -0.000362 0.019288 39102.300000 0 0 1
-23.546097 8.591236 18.935072 31.412815 -0.349859 0.923813 -0.000453 0.017297 -439090.000000 0 0 1
-23.571697 7.070136 19.233572 31.233668 -0.291403 0.907400 -0.009440 0.025664 -402654.000000 0 0 1
-22.398697 6.594536 19.856972 30.651083 -0.286326 0.866052 -0.004738 0.023529 338363.000000 0 0 1
-22.385597 5.257236 20.279272 30.659458 -0.230669 0.848064 0.000213 0.014623 -342958.000000 0 0 1
-22.557997 4.048436 19.334372 29.984513 -0.177577 0.870019 -0.001122 0.014675 -95376.900000 0 0 1
-23.853897 3.864336 18.772572 30.599852 -0.160605 0.910329 0.015225 0.009110 659928.000000 0 0 1
-23.812397 2.974636 17.619772 29.771380 -0.124276 0.937462 0.021896 0.009273 -70554.200000 0 0 1
-23.559697 1.497436 17.925272 29.641474 -0.063474 0.921362 0.012229 0.016533 791576.000000 0 0 1
-22.195297 1.228836 18.313972 28.801785 -0.055308 0.881671 -0.023044 0.021354 1174230.000000 0 0 1
-22.176397 -0.117764 18.749672 29.040603 0.005310 0.868940 -0.010508 0.012437 125405.000000 0 0 1
-20.801297 -0.801764 19.015072 28.194144 0.038525 0.830599 -0.007286 0.020345 561621.000000 0 0 1
-20.034297 -0.326164 20.156172 28.420955 0.016279 0.782432 -0.028953 0.020801 565124.000000 0 0 1
-18.967297 -1.254664 20.375072 27.865321 0.066053 0.750720 -0.040802 0.020262 410252.000000 0 0 1
-18.012797 -0.805564 21.502672 28.061979 0.044692 0.697802 -0.029970 0.012829 280535.000000 0 0 1
-18.710997 -0.856964 22.721272 29.446426 0.045768 0.689422 -0.026143 0.007532 150157.000000 0 0 1
-17.800697 -0.898164 23.800972 29.734791 0.050414 0.642764 -0.023732 0.005268 -98851.800000 0 0 1
-18.556497 -0.980764 25.195372 31.306744 0.052804 0.635474 -0.009025 0.008790 495685.000000 0 0 1
-19.078497 0.294036 25.583972 31.915750 -0.015411 0.640814 -0.003707 -0.007164 -543540.000000 0 0 1
-20.478397 0.288636 25.472972 32.685170 -0.014094 0.677179 0.004402 -0.013169 -754879.000000 0 0 1
-21.015097 1.395736 26.376472 33.753528 -0.066318 0.673821 0.007906 -0.021742 -492549.000000 0 0 1
-20.821997 2.761536 25.889672 33.338518 -0.131856 0.681594 0.009771 -0.016772 425753.000000 0 0 1
-22.028197 3.132836 25.237072 33.644701 -0.141272 0.722575 0.011136 -0.014583 -364033.000000 0 0 1
-21.872097 4.218436 24.092272 32.811909 -0.190529 0.746229 0.011900 -0.005924 -54203.700000 0 0 1
-21.278797 3.824036 22.825472 31.439030 -0.177813 0.758275 0.003831 -0.000329 2051690.000000 0 0 1
-19.873297 3.435336 22.983672 30.577748 -0.171170 0.720241 -0.013866 0.014531 1014270.000000 0 0 1
-19.334197 2.647436 21.736372 29.211127 -0.136084 0.731591 -0.022372 0.015949 -354683.000000 0 0 1
-19.133697 3.451936 20.623272 28.343140 -0.178491 0.755938 -0.023678 0.017564 296851.000000 0 0 1
-18.891497 2.686036 19.424072 27.228625 -0.141236 0.776502 -0.029530 0.016853 -223515.000000 0 0 1
-18.478097 3.598236 18.294272 26.250100 -0.192323 0.799700 -0.023864 0.012314 260254.000000 0 0 1
-17.075897 3.789536 18.150472 25.206873 -0.218384 0.766907 -0.022465 0.005082 359690.000000 0 0 1
-16.721797 4.529036 16.945172 24.233644 -0.264500 0.796460 -0.011278 0.005065 -505652.000000 0 1 0
-15.250097 4.947536 16.844672 23.254818 -0.313713 0.760702 0.003463 0.002536 -524595.000000 0 1 0
-14.765697 5.880836 17.783972 23.851199 -0.379020 0.729329 0.002505 0.000832 -229071.000000 0 1 0
-15.249497 7.186336 17.699872 24.443323 -0.440385 0.761040 -0.009081 -0.014892 -884391.000000 0 1 0
-14.858997 8.136536 16.527472 23.667495 -0.500986 0.797749 -0.004945 -0.008988 -38060.600000 0 1 0
-15.431097 7.806836 15.254572 23.060082 -0.468369 0.847960 0.002511 -0.004449 45922.600000 0 1 0
-16.816297 8.008536 15.144972 24.006138 -0.444457 0.888111 -0.005018 -0.001906 -642944.000000 0 1 0
-17.281197 7.482036 13.775172 23.331866 -0.408592 0.939240 -0.006942 0.001182 -102869.000000 0 1 0
-16.995097 6.098736 13.676372 22.651072 -0.344540 0.922556 -0.005369 -0.003890 435219.000000 0 1 0
-17.517897 5.641836 12.436172 22.211830 -0.311572 0.976544 -0.009755 -0.007871 128282.000000 0 1 0
-17.273497 4.097836 12.403972 21.656973 -0.232927 0.960943 -0.010941 -0.001616 25386.800000 0 1 0
-17.910097 3.392636 13.469872 22.665370 -0.187208 0.934410 -0.017581 0.005598 303620.000000 0 1 0
-17.540297 2.018136 13.516372 22.235719 -0.114553 0.917424 -0.016130 -0.001680 -9021.350000 0 1 0
-18.417397 1.220836 14.616572 23.544323 -0.066190 0.901020 -0.012238 0.002421 277804.000000 0 1 0
-19.746097 1.107836 14.207572 24.351401 -0.056045 0.947839 -0.009334 0.008266 -233804.000000 0 1 0
-20.565497 0.456136 15.170172 25.559379 -0.022176 0.935363 -0.020265 0.010514 1311930.000000 0 0 1
-22.032397 0.116336 14.671372 26.470535 -0.005280 0.983331 -0.005173 0.007029 1082650.000000 0 0 1
-21.934297 -0.943164 13.736672 25.897859 0.042973 1.011704 0.004444 0.003215 333538.000000 0 0 1
-23.195097 -1.224464 13.185572 26.709009 0.052741 1.054486 0.017306 -0.003658 -311233.000000 0 0 1
-23.139697 -2.538164 12.269972 26.314256 0.109252 1.085708 0.013176 -0.001755 -372864.000000 0 0 1
-22.941397 -3.745364 13.015272 26.640810 0.161830 1.060373 0.016440 0.002680 226359.000000 0 0 1
-22.885997 -4.744464 12.037372 26.290247 0.204413 1.095205 0.022969 -0.002941 -165334.000000 0 0 1
-22.571997 -6.155964 12.581072 26.564531 0.266251 1.077418 0.022040 -0.001702 180142.000000 0 0 1
-23.684397 -6.700764 13.271472 27.963956 0.275713 1.076296 0.016013 -0.001816 454326.000000 0 0 1
-23.522897 -8.077064 13.691272 28.390431 0.330756 1.067576 0.022169 -0.004850 202823.000000 0 0 1
-24.513397 -8.418764 14.861572 29.877224 0.330815 1.050172 0.020638 0.004029 1159540.000000 0 0 1
-25.917807 -8.248964 14.636672 30.887057 0.308136 1.077108 0.017267 -0.001826 738058.000000 0 0 1
-26.613267 -8.552164 15.830372 32.124853 0.310927 1.055519 0.012417 0.006760 16217.100000 0 0 1
-28.049077 -7.891364 15.889872 33.189040 0.274252 1.071545 0.005202 -0.000095 1086420.000000 0 0 1
-29.120857 -8.441664 15.128072 33.884282 0.282150 1.107988 0.006231 0.002911 700734.000000 0 0 1
-29.332577 -9.834664 15.045972 34.402063 0.323503 1.118139 0.009630 -0.002056 -1063070.000000 0 0 1
-29.714627 -10.555464 16.382572 35.535412 0.341325 1.091651 0.007015 -0.000780 -451624.000000 0 0 1
-28.691847 -10.517264 17.333472 35.132381 0.351350 1.054830 0.010607 0.007144 48317.500000 0 0 1
-29.232957 -11.053464 18.485672 36.310672 0.361500 1.036660 0.018100 0.005939 -124709.000000 0 0 1
-28.195587 -11.305364 19.600872 36.152407 0.381336 0.997775 0.010844 0.011430 -184250.000000 0 0 1
-27.108297 -12.062764 19.111672 35.293428 0.418675 0.998567 0.017527 0.014399 119577.000000 0 0 1
-25.922737 -11.726564 19.823572 34.676716 0.424820 0.962259 0.007609 0.012395 85864.000000 0 0 1
-24.753797 -12.647964 19.452172 33.927989 0.472370 0.960223 0.026751 0.010969 -172625.000000 0 0 1
-24.250597 -12.492664 18.130972 32.755003 0.475693 0.984196 0.020307 0.012006 731179.000000 0 0 1
-23.048197 -13.243864 17.885072 32.038962 0.521546 0.978547 0.020519 0.000900 546018.000000 0 0 1
-22.736597 -13.364964 16.392372 31.052938 0.531413 1.014688 0.017764 -0.008034 -476640.000000 0 0 1
-22.150297 -12.178364 15.879972 29.851662 0.502694 1.009880 0.020555 -0.008277 -121371.000000 0 0 1
-22.226297 -12.029664 14.517272 29.145708 0.496089 1.049398 0.004125 -0.009989 -368203.000000 0 0 1
-20.996497 -11.419064 13.843272 27.620356 0.498114 1.045813 0.004447 -0.009208 -484636.000000 0 0 1
-20.883397 -10.020164 14.118772 27.126734 0.447370 1.023390 0.006067 -0.005527 13530.500000 0 0 1
-19.672697 -9.407164 13.727072 25.767077 0.446043 1.008965 0.015767 -0.001640 93852.900000 0 0 1
-19.211097 -9.392464 12.192572 24.615918 0.454735 1.052602 0.022889 0.006616 -531057.000000 0 1 0
-18.615297 -10.614464 11.843872 24.484146 0.518220 1.065878 0.019905 -0.002606 128054.000000 0 1 0
-18.344397 -10.549464 10.472572 23.611075 0.521893 1.111246 0.025530 -0.002785 -1373320.000000 0 1 0
-17.702297 -11.762564 9.906672 23.449336 0.586477 1.134626 0.015912 -0.005588 487834.000000 0 1 0
-16.277297 -11.839164 9.890772 22.426403 0.628842 1.114048 0.022407 -0.016792 905496.000000 0 1 0
-15.588897 -11.823764 11.153272 22.521336 0.648902 1.052695 0.021728 -0.015336 -344676.000000 0 1 0
-14.111397 -12.282864 11.103372 21.755118 0.716231 1.035170 0.030754 -0.015910 256120.000000 0 1 0
-13.844297 -13.654164 10.885772 22.284541 0.778484 1.060438 0.027794 -0.015354 677694.000000 0 1 0
-12.442697 -13.953064 10.950072 21.665936 0.842556 1.040945 0.035159 -0.015440 811602.000000 0 1 0
-12.309397 -15.522164 10.834772 22.579883 0.900326 1.070322 0.043956 -0.011496 -167353.000000 0 1 0
-12.519397 -16.045164 9.529772 22.472186 0.908209 1.132862 0.025432 -0.013760 49903.200000 0 1 0
-12.303897 -17.474564 9.471572 23.376419 0.957322 1.153625 0.017499 -0.005129 -139715.000000 0 1 0
-12.661497 -18.050564 8.087272 23.484896 0.959101 1.219239 0.010120 -0.013107 -388105.000000 0 1 0
-11.892497 -17.716164 6.962672 22.444883 0.979607 1.255380 0.015067 -0.028904 -374207.000000 0 1 0
-12.072597 -18.560564 5.903572 22.914936 0.994109 1.310228 0.002463 -0.007993 -310190.000000 0 1 0
-11.305997 -18.270464 4.650272 21.983186 1.016659 1.357648 0.011486 -0.010582 -315809.000000 0 1 0
-11.605797 -19.181464 3.560272 22.700190 1.026670 1.413307 0.011321 -0.001829 74833.200000 0 1 0
-10.803397 -18.917964 2.433572 21.920881 1.051924 1.459551 0.017951 -0.015666 88273.200000 0 1 0
-11.009397 -19.942564 1.290772 22.816195 1.066377 1.514193 0.017043 -0.004535 107681.000000 0 1 0
-10.661197 -21.239564 1.814372 23.834264 1.105590 1.494598 0.006798 -0.000779 -80067.100000 0 1 0
-11.180497 -22.300064 0.949872 24.963947 1.106056 1.532737 0.012776 -0.001286 480285.000000 0 1 0
-10.308997 -22.765864 -0.313028 24.993158 1.145594 1.583321 0.030436 0.005628 464998.000000 0 1 0
-10.325797 -21.835064 -1.380128 24.192909 1.129063 1.627874 0.028498 0.000303 885112.000000 0 1 0
-11.447497 -21.976764 -2.305228 24.886491 1.090576 1.663559 0.037232 0.006458 1736800.000000 0 1 0
-12.585297 -20.848864 -2.186328 24.450866 1.027702 1.660333 0.038931 0.005718 664522.000000 0 1 0
-13.314897 -20.985764 -1.003328 24.873589 1.005414 1.611144 0.025596 0.010884 -353714.000000 0 1 0
-14.204997 -19.901364 -0.884328 24.466881 0.950888 1.606948 0.018872 0.017379 -41016.000000 0 1 0
26.226003 -21.429364 -4.614328 34.180593 -0.685083 1.706208 0.013946 0.010495 169707.000000 0 0 1
24.946303 -21.287864 -4.023428 33.040569 -0.706434 1.692872 0.022338 0.000741 173341.000000 0 0 1
24.773803 -22.096264 -2.912928 33.323736 -0.728333 1.658321 -0.006707 0.004774 -496507.000000 0 0 1
23.364803 -22.007164 -2.311128 32.180283 -0.755485 1.642676 -0.021420 -0.002466 -27309.800000 0 0 1
22.407903 -22.638264 -3.161328 32.009360 -0.790512 1.669720 -0.003502 -0.014845 -355406.000000 0 0 1
21.242003 -22.936564 -2.449228 31.357733 -0.823736 1.648982 -0.015549 -0.011482 -47613.200000 0 0 1
20.110203 -23.633064 -3.274028 31.203546 -0.865760 1.675915 -0.007041 -0.022565 520197.000000 0 0 1
19.449603 -22.582864 -4.042028 30.076749 -0.859804 1.705595 -0.000806 -0.025866 -617850.000000 0 0 1
18.467003 -23.213664 -4.793228 30.047953 -0.898791 1.731000 0.014350 -0.019290 -45527.700000 0 0 1
17.530903 -22.159464 -5.516328 28.788961 -0.901491 1.763601 -0.002050 -0.006796 692811.000000 0 0 1
16.550503 -21.455364 -4.715728 27.504362 -0.913744 1.743101 -0.002773 0.001363 938314.000000 0 0 1
17.112103 -20.517064 -3.772728 26.981614 -0.875640 1.711082 -0.004673 -0.005271 -428871.000000 0 0 1
16.204203 -20.211464 -2.592728 26.034626 -0.894999 1.670549 0.031226 -0.000899 -207840.000000 0 0 1
16.244103 -21.243064 -1.588728 26.789228 -0.917967 1.630136 0.039405 -0.009079 175717.000000 0 0 1
15.265203 -20.870064 -0.647228 25.865129 -0.939280 1.595822 0.061398 0.002427 -229567.000000 0 0 1
14.987803 -21.656064 0.631672 26.344229 -0.965403 1.546816 0.044685 -0.001763 -198587.000000 0 0 1
14.032503 -22.689564 0.398572 26.681198 -1.016916 1.555857 0.054882 -0.006358 35097.900000 0 0 1
13.161903 -22.774964 1.510972 26.348012 -1.046777 1.513418 0.057090 -0.005648 206113.000000 0 0 1
12.195203 -23.973464 1.403572 26.933622 -1.100216 1.518660 0.053278 -0.008046 380230.000000 0 0 1
12.853203 -25.131544 1.852872 28.288381 -1.098041 1.505250 0.043446 -0.011842 397339.000000 0 0 1
11.970603 -26.191654 1.532572 28.838288 -1.142104 1.517628 0.038919 -0.005922 330188.000000 0 0 1
12.283903 -27.484644 2.252572 30.188972 -1.150493 1.496111 0.034086 -0.015673 -18775.600000 0 0 1
11.958903 -27.487964 3.614772 30.193876 -1.160436 1.450790 0.059471 -0.020605 -85709.500000 0 0 1
12.188003 -28.742714 4.174572 31.497906 -1.169741 1.437870 0.055819 -0.016552 -111588.000000 0 0 1
11.501003 -28.975424 5.540772 31.663045 -1.192946 1.394899 0.058639 -0.017376 -98006.900000 0 0 1
11.902803 -30.123834 6.239072 32.985575 -1.194496 1.380504 0.038016 -0.009187 -333020.000000 0 0 1
11.269103 -30.244774 7.470772 33.129315 -1.214134 1.343337 0.025002 -0.007351 -338054.000000 0 0 1
12.037103 -31.286944 8.309272 34.537063 -1.203520 1.327823 0.035760 -0.002446 188340.000000 0 0 1
11.521303 -31.689874 9.551672 35.046013 -1.222089 1.294757 0.030350 -0.006364 64568.300000 0 0 1
10.729003 -32.900744 9.509972 35.888857 -1.255568 1.302609 0.021260 -0.007141 372602.000000 0 0 1
10.542603 -33.441604 10.913572 36.723200 -1.265404 1.269054 0.013923 -0.005216 -147042.000000 0 0 1
11.733303 -33.955084 11.495572 37.719575 -1.238088 1.261106 0.013634 -0.009774 87512.900000 0 0 1
11.701803 -34.303439 12.833072 38.449264 -1.242049 1.230500 0.015447 -0.008652 1002080.000000 0 0 1
10.600003 33.918819 13.340272 37.957993 1.267901 1.211679 0.005778 -0.004867 1320510.000000 0 0 1
10.959403 32.596551 12.855972 36.714026 1.246456 1.213049 -0.001872 -0.005459 125725.000000 0 0 1
9.895703 31.713801 13.095772 35.709794 1.268338 1.195307 -0.003014 -0.003834 -221502.000000 0 0 1
9.955603 30.618101 11.980072 34.352646 1.256425 1.214572 -0.009668 -0.005161 -2350.560000 0 0 1
9.374303 30.934821 10.714472 34.053497 1.276558 1.250723 -0.022276 -0.002132 287566.000000 0 0 1
10.204303 31.867731 9.980272 34.918275 1.260905 1.280936 -0.017472 -0.004839 220788.000000 0 0 1
9.738503 32.212931 8.595772 34.733250 1.277216 1.320718 -0.020727 -0.002747 -140738.000000 0 0 1
8.511703 32.940621 8.574072 35.086298 1.317932 1.323925 -0.023351 -0.003467 31894.200000 0 0 1
8.085803 33.210931 7.263772 34.944364 1.331975 1.361403 -0.031979 -0.002184 -433661.000000 0 0 1
8.687303 34.453396 6.550472 36.130519 1.323798 1.388488 -0.022076 0.003925 -240686.000000 0 0 1
8.125303 -33.661314 7.004772 35.329470 -1.333943 1.371204 -0.015992 0.004313 -99320.200000 0 0 1
8.549903 -32.580594 6.206072 34.250712 -1.314160 1.388594 0.010936 -0.005800 -394409.000000 0 0 1
7.768003 -31.277874 6.426672 32.862584 -1.327367 1.373966 0.012414 -0.005250 -172549.000000 0 0 1
7.964203 -30.665354 7.655572 32.594482 -1.316697 1.333708 0.022217 -0.002864 21015.300000 0 0 1
7.137503 -29.514234 7.705972 31.327560 -1.333519 1.322265 0.025571 -0.003740 121088.000000 0 0 1
7.891203 -28.205324 7.410872 30.211462 -1.297994 1.322967 0.045063 -0.007278 -374957.000000 0 0 1
8.622103 -27.726484 8.497572 30.254046 -1.269306 1.286092 0.045724 -0.010024 470590.000000 0 0 1
9.605203 -26.716384 8.151772 29.537713 -1.225661 1.291189 0.066444 -0.017763 578524.000000 0 0 1
9.032703 -25.395554 7.618172 28.010006 -1.229070 1.295346 0.045631 -0.016642 -397775.000000 0 0 1
8.865803 -25.587524 6.207472 27.782307 -1.237252 1.345462 0.041436 -0.011840 -713109.000000 0 0 1
7.994903 -24.645364 5.685772 26.526222 -1.257109 1.354775 0.041646 -0.013989 -136761.000000 0 0 1
7.791603 -24.963164 4.192572 26.484832 -1.268254 1.411827 0.055669 -0.014691 -55525.600000 0 0 1
6.942103 -26.013874 3.886772 27.203335 -1.310012 1.427427 0.030917 -0.008800 -545900.000000 0 0 1
7.564503 -27.314374 3.961172 28.617960 -1.300625 1.431935 0.041551 -0.007699 799359.000000 0 0 1
6.640403 -28.525434 3.462572 29.492114 -1.342081 1.453118 0.033295 -0.003166 721102.000000 0 0 1
5.513803 -28.814084 4.292772 29.649306 -1.381724 1.425501 0.015200 -0.000154 319933.000000 0 0 1
4.528503 -29.566764 3.598872 30.127276 -1.418815 1.451055 0.004353 0.011487 333473.000000 0 0 1
4.649203 -31.038634 3.949472 31.632424 -1.422114 1.445614 -0.002656 0.005929 -267922.000000 0 0 1
5.659303 -31.757894 3.294572 32.426004 -1.394446 1.469018 0.005118 0.000527 -193932.000000 0 0 1
5.521703 -33.134414 3.555072 33.778945 -1.405668 1.465356 -0.010682 0.006048 759284.000000 0 0 1
6.682103 -34.037006 2.952672 34.812161 -1.376943 1.485877 -0.009453 0.006375 744498.000000 0 0 1
6.567703 -34.214434 1.562872 34.874128 -1.381146 1.525967 0.002927 0.003521 57411.900000 0 0 1
7.578603 34.191255 1.130472 35.039337 1.352670 1.538528 -0.005496 0.003641 -50122.000000 0 0 1
7.157503 33.560603 -0.241228 34.316208 1.360673 1.577826 0.005770 0.004636 391385.000000 0 0 1
6.092903 32.635671 -0.125028 33.199791 1.386227 1.574562 -0.003307 0.008478 103887.000000 0 0 1
4.836503 33.245031 -0.405728 33.597447 1.426329 1.582873 0.005348 0.003904 97972.200000 0 0 1
3.586303 32.366041 -0.202228 32.564752 1.460442 1.577006 0.009297 0.008369 70209.700000 0 0 1
3.526703 31.287431 -1.077028 31.503983 1.458551 1.604990 0.008790 0.009893 -323081.000000 0 0 1
2.371503 30.511731 -0.932228 30.617949 1.493228 1.601248 -0.003423 0.005305 -161620.000000 0 0 1
2.217103 29.407191 -2.059528 29.562478 1.495545 1.640520 0.000130 0.006480 -182179.000000 0 0 1
1.896903 29.989801 -3.266528 30.226753 1.507629 1.679075 0.011962 -0.005932 -69478.100000 0 0 1
1.729503 28.974651 -4.234328 29.333447 1.511177 1.715654 0.016610 -0.016013 -108164.000000 0 0 1
1.362703 29.564851 -5.619128 30.124939 1.524737 1.758423 0.022474 -0.020491 691972.000000 0 0 1
0.088703 30.239011 -5.693928 30.770546 1.567863 1.756914 0.021926 -0.012150 789637.000000 0 0 1
-0.058297 30.907011 -6.955428 31.680036 -1.568910 1.792152 0.012371 -0.014917 -142824.000000 0 0 1
-0.164497 30.037261 -8.273928 31.156412 -1.565320 1.839582 0.017855 -0.017753 388841.000000 0 0 1
-1.513397 29.536721 -8.382928 30.740555 -1.519603 1.846994 0.004849 -0.012049 910294.000000 0 0 1
-1.850297 29.085191 -9.679928 30.709493 -1.507265 1.891474 0.014585 -0.017869 166334.000000 0 0 1
-2.133397 30.125711 -10.777028 32.066403 -1.500098 1.913553 0.004454 -0.022647 164992.000000 0 0 1
-0.864997 30.710921 -11.103128 32.667849 -1.542638 1.917585 0.008384 -0.024014 492136.000000 0 0 1
-0.894497 31.887791 -11.849828 34.030130 -1.542752 1.926463 -0.006646 -0.025256 -330104.000000 0 0 1
-0.930897 33.283431 -11.104628 35.099375 -1.542835 1.892704 -0.011053 -0.006788 749526.000000 0 0 1
0.160903 33.558158 -10.174828 35.067121 1.566002 1.865183 -0.008705 -0.015424 607696.000000 0 0 1
-0.230597 34.436848 -9.173328 35.638457 -1.564100 1.831127 -0.007581 -0.001749 -205811.000000 0 0 1
0.793603 -34.634667 -8.036428 35.563663 -1.547887 1.798738 0.014034 -0.007833 240298.000000 0 0 1
1.868403 -33.749624 -8.286128 34.802126 -1.515492 1.811198 0.023862 -0.001052 -273550.000000 0 0 1
2.637703 -33.573474 -7.116028 34.420539 -1.492392 1.779036 0.037051 -0.009413 -113082.000000 0 0 1
3.936403 -32.769524 -7.458528 33.837355 -1.451245 1.793044 0.010818 0.001608 883651.000000 0 0 1
4.890703 -33.479854 -8.264128 34.829807 -1.425743 1.810353 0.027202 0.004618 657365.000000 0 0 1
5.749203 -34.360065 -7.502328 35.636391 -1.405010 1.782908 0.046657 0.005274 -317722.000000 0 0 1
6.115703 33.698103 -8.337028 35.248688 1.391265 1.809579 0.041153 0.003272 227583.000000 0 0 1
5.078103 32.743951 -8.523628 34.214115 1.416937 1.822574 0.037670 0.001069 -73407.500000 0 0 1
4.184603 33.018561 -9.598228 34.639028 1.444734 1.851564 0.036017 -0.002254 445856.000000 0 0 1
3.299603 31.785961 -9.894928 33.453614 1.467360 1.871069 0.027602 -0.009144 171538.000000 0 0 1
4.036903 30.854351 -10.625228 32.881348 1.440698 1.899840 0.024726 -0.015799 -18977.800000 0 0 1
3.342803 29.631621 -10.631828 31.658223 1.458459 1.913284 0.017454 -0.020567 157886.000000 0 0 1
3.935603 28.675251 -11.696528 31.218068 1.434401 1.954839 0.023023 -0.021882 183167.000000 0 0 1
3.720203 29.222741 -12.991228 32.195970 1.444172 1.986140 0.028454 -0.014235 99907.100000 0 0 1
4.882103 29.111711 -13.785328 32.578550 1.404640 2.007706 0.034122 -0.015042 -54008.700000 0 0 1
4.621303 29.581911 -15.219028 33.586675 1.415828 2.041066 0.031108 -0.007002 201981.000000 0 0 1
3.647303 28.759951 -15.856528 33.043412 1.444651 2.071302 0.013173 -0.006116 141258.000000 0 0 1
3.373903 29.292981 -17.125328 34.098956 1.456124 2.096966 0.029047 -0.003138 758229.000000 0 0 1
2.238503 28.589361 -17.979228 33.846936 1.492657 2.130803 0.014734 -0.002904 189215.000000 0 0 1
2.650603 27.352451 -18.489828 33.121836 1.474192 2.163055 0.032914 0.005500 187956.000000 0 0 1
1.828703 26.738121 -19.501528 33.144847 1.502510 2.199841 -0.001341 0.002487 220374.000000 0 0 1
2.610203 25.579281 -20.163228 32.675198 1.469105 2.235823 0.012357 0.001198 276864.000000 0 0 1
2.800103 24.403601 -19.369328 31.281739 1.456555 2.238507 0.016044 -0.002822 196015.000000 0 0 1
3.642103 23.487491 -20.080628 31.115250 1.416956 2.272295 0.019508 0.003687 326988.000000 0 0 1
4.258203 22.328491 -19.223628 29.769811 1.382352 2.272791 0.020605 -0.001131 -397321.000000 0 0 1
3.345703 21.386191 -18.738728 28.630453 1.415612 2.284322 0.023365 0.003491 -77976.200000 0 0 1
4.096603 20.339791 -18.063928 27.509903 1.372047 2.287143 0.020102 0.000924 683337.000000 0 0 1
3.211503 19.202991 -17.530828 26.199209 1.405090 2.303842 0.017939 -0.009486 -9129.820000 0 0 1
2.309403 19.393391 -16.467428 25.546294 1.452272 2.271311 0.020270 -0.017195 -592639.000000 0 0 1
1.497303 18.309891 -16.199228 24.493040 1.489202 2.293455 0.007475 -0.010334 -500847.000000 0 1 0
1.988503 17.170691 -15.294428 23.080431 1.455502 2.295158 0.007147 -0.009956 -35543.100000 0 1 0
3.105603 16.358591 -15.657628 22.856281 1.383184 2.325465 0.009879 -0.022075 -395531.000000 0 1 0
2.965003 15.304991 -16.645728 22.806013 1.379439 2.388947 0.008952 -0.020693 -256728.000000 0 1 0
2.748403 15.639091 -18.149528 24.115146 1.396833 2.422828 -0.004365 -0.013411 -456052.000000 0 1 0
3.913603 16.160291 -18.734528 25.049028 1.333197 2.415711 -0.000586 -0.010852 -551645.000000 0 0 1
3.848903 16.599291 -20.123228 26.368444 1.342951 2.438979 -0.012309 -0.001556 -390010.000000 0 0 1
4.147903 15.466191 -21.175328 26.548120 1.308771 2.494136 -0.009668 -0.002786 19518.200000 0 0 1
3.198903 14.470691 -21.414828 26.042825 1.353234 2.536225 -0.014845 -0.000426 -263407.000000 0 0 1
1.983303 14.844291 -22.032528 26.640547 1.437976 2.544600 -0.011113 0.001595 73588.200000 0 0 1
1.291503 13.655091 -22.740928 26.557095 1.476496 2.598865 -0.001410 0.012392 -132718.000000 0 0 1
0.770403 12.707391 -21.868528 25.304225 1.510244 2.614403 0.001716 0.014199 53399.500000 0 0 1
-0.096397 11.872891 -22.639428 25.564008 -1.562677 2.658576 0.003606 0.022096 -93440.500000 0 0 1
-0.756697 10.853791 -21.683228 24.259838 -1.501192 2.676525 0.004037 0.018480 -356318.000000 0 1 0
-1.640697 11.521491 -20.728928 23.772360 -1.429344 2.630021 0.007420 0.016358 651579.000000 0 1 0
-2.155097 10.622291 -19.732728 22.513508 -1.370629 2.639306 0.003525 0.015273 1012450.000000 0 1 0
-3.264697 9.555091 -20.164428 22.551323 -1.241561 2.677342 0.005834 0.013125 278972.000000 0 1 0
-2.734597 8.515591 -20.954128 22.783081 -1.260070 2.738171 0.005815 0.015224 229895.000000 0 1 0
-3.749497 7.578091 -21.332628 22.947052 -1.111333 2.764246 0.003614 0.018171 187233.000000 0 1 0
-3.148397 6.379691 -22.126128 23.241738 -1.112360 2.830500 0.000871 0.010041 -124810.000000 0 1 0
-2.500397 5.486191 -21.336128 22.171617 -1.143161 2.866195 0.007269 0.008329 -384829.000000 0 1 0
-2.157897 4.350091 -22.080128 22.607783 -1.110307 2.925117 0.011220 0.005328 -223143.000000 0 1 0
-1.568797 3.268091 -21.132528 21.441205 -1.123248 2.971704 0.008407 0.001338 574059.000000 0 1 0
-0.178897 3.501991 -20.887528 21.179820 -1.519756 2.975266 0.004554 0.001338 309802.000000 0 1 0
0.348303 2.476791 -20.046828 20.202255 1.431086 3.017468 0.005880 0.004409 923061.000000 0 1 0
1.911503 2.406691 -20.142828 20.375954 0.899574 2.990178 0.011059 0.002484 837632.000000 0 1 0
2.428203 1.863491 -21.361728 21.579902 0.654567 2.999275 0.019009 0.000098 468246.000000 0 1 0
3.858103 1.815191 -21.246228 21.669842 0.439760 2.943539 0.023922 0.000670 701222.000000 0 1 0
4.563803 1.218291 -22.463928 22.955186 0.260864 2.934337 0.026742 0.000426 589723.000000 0 1 0
5.984203 1.387191 -22.494928 23.318593 0.227786 2.875014 0.029387 0.001245 621676.000000 0 1 0
6.584703 0.869291 -23.671528 24.585671 0.131258 2.868043 0.032902 -0.001152 1185850.000000 0 1 0
8.164003 0.962791 -23.625828 25.015148 0.117389 2.806746 0.024679 -0.009766 981829.000000 0 0 1
8.683003 2.237091 -23.650928 25.293586 0.252156 2.779214 0.019563 -0.014351 176840.000000 0 0 1
10.103003 2.132791 -23.636428 25.793414 0.208050 2.729724 0.014056 -0.015779 45268.500000 0 0 1
13.306903 -21.953564 22.210955 33.946416 -1.025875 0.857547 -0.000685 0.013250 -1101160.000000 0 0 1
12.204103 -22.780164 22.457655 34.237732 -1.078972 0.855378 -0.015671 0.025368 -215370.000000 0 0 1
10.985903 -22.077764 22.257555 33.219219 -1.109070 0.836560 -0.018445 0.019040 241298.000000 0 0 1
10.515903 -21.785364 20.807455 31.908251 -1.121080 0.860442 -0.006439 0.005964 -498940.000000 0 0 1
11.253803 -20.717564 20.148955 31.013641 -1.073188 0.863632 -0.020241 0.000940 491965.000000 0 0 1
10.688603 -20.473564 18.847155 29.809870 -1.089650 0.886348 0.016364 -0.009323 256468.000000 0 0 1
11.043403 -19.080064 18.292055 28.646202 -1.046116 0.878183 0.017983 -0.012181 42274.800000 0 0 1
10.383003 -18.003664 18.958355 28.131084 -1.047673 0.831282 0.018237 -0.012085 -155241.000000 0 0 1
10.769903 -16.747164 18.455155 27.148685 -0.999295 0.823333 0.017274 -0.012061 -506268.000000 0 0 1
9.903003 -15.617264 18.985755 26.503345 -1.005676 0.772235 0.026222 -0.004081 916564.000000 0 0 1
8.541603 -15.687864 18.546855 25.749833 -1.072207 0.766604 0.014473 -0.002526 741069.000000 0 0 1
7.613303 -14.750064 19.108755 25.311485 -1.094309 0.715228 0.001911 0.004023 630506.000000 0 0 1
6.161403 -14.920964 18.629755 24.650879 -1.179188 0.714007 -0.017272 0.012494 -271108.000000 0 1 0
6.033803 -14.761864 17.222955 23.472315 -1.182776 0.746962 -0.022414 0.007843 210005.000000 0 1 0
4.698103 -14.896764 16.738955 22.894942 -1.265292 0.750834 -0.023228 0.002302 402113.000000 0 1 0
4.090303 -16.342464 16.746355 23.753886 -1.325548 0.788381 -0.029408 0.005782 241670.000000 0 1 0
2.733403 -16.293164 16.291655 23.202515 -1.404580 0.792383 -0.017541 0.000586 -63136.500000 0 1 0
2.080303 -17.467264 16.592655 24.181588 -1.452257 0.814587 -0.015359 -0.001832 -720134.000000 0 1 0
0.608603 -17.379064 16.246855 23.798373 -1.535791 0.819362 -0.007659 -0.002002 -759915.000000 0 1 0
0.321903 -17.334964 14.852655 22.829936 -1.552229 0.862451 -0.002797 -0.008064 -430494.000000 0 1 0
-1.054697 -17.459664 14.604455 22.786890 1.510462 0.875107 0.001339 -0.007882 -229302.000000 0 1 0
-1.443997 -18.241064 13.298755 22.620310 1.491799 0.942321 -0.003577 -0.003818 16149.400000 0 1 0
-2.835097 -18.482164 13.226455 22.903434 1.418586 0.955148 -0.007908 -0.000061 26168.200000 0 1 0
-3.046097 -19.601064 12.405755 23.396221 1.416625 1.011906 -0.002804 -0.008059 745619.000000 0 1 0
-4.530897 -20.085464 12.239755 23.953423 1.348929 1.034470 0.000034 -0.002987 691244.000000 0 1 0
-4.968197 -20.699764 13.430755 25.170387 1.335240 1.007952 -0.012463 -0.000083 -192006.000000 0 0 1
-6.335697 -21.041264 13.455055 25.766536 1.278323 1.021378 -0.003427 -0.006351 -252197.000000 0 0 1
-6.731197 -21.961164 14.658355 27.248286 1.273383 1.002787 -0.003693 -0.001166 -392260.000000 0 0 1
-7.970397 -21.759564 15.268855 27.751465 1.219680 0.988193 -0.009758 0.007690 -436614.000000 0 0 1
-8.291897 -22.753864 16.206655 29.140171 1.221336 0.981036 -0.011914 0.005646 810534.000000 0 0 1
-9.782897 -22.627164 16.714555 29.783720 1.162715 0.974964 -0.004533 0.008211 1056670.000000 0 0 1
-9.892597 -21.393064 17.419555 29.308148 1.137661 0.934328 -0.009765 0.004302 -29391.200000 0 0 1
-10.811597 -20.578164 16.705755 28.625753 1.087042 0.947651 0.017972 0.002349 -96474.100000 0 0 1
-11.068897 -19.303664 17.493355 28.304936 1.050158 0.904559 0.003951 0.011006 -256874.000000 0 0 1
-11.773097 -19.677964 18.667455 29.568597 1.031636 0.887533 0.003387 0.012911 36419.500000 0 0 1
-12.125497 -18.537764 19.489455 29.504495 0.991546 0.849233 0.012605 0.006421 -25352.800000 0 0 1
-12.539397 -18.960264 20.894355 30.875592 0.986483 0.827488 0.020146 0.006980 -176529.000000 0 0 1
-13.715497 -19.741664 20.887555 31.845535 0.963603 0.855419 0.028061 0.009243 -99078.200000 0 0 1
-13.899097 -20.463464 22.082355 33.159744 0.974156 0.842045 0.017808 0.020914 25409.000000 0 0 1
-15.285097 -21.154164 22.061855 34.173942 0.945091 0.869020 0.019965 0.009072 -188021.000000 0 0 1
-15.449797 -22.240564 21.196055 34.389121 0.963658 0.906685 0.021632 0.003021 449125.000000 0 0 1
-16.744797 -22.493464 20.641155 34.819555 0.930870 0.936261 0.021681 0.005283 1058300.000000 0 0 1
-17.765597 -23.227764 21.591055 36.349953 0.917863 0.934802 0.021992 0.003256 28398.800000 0 0 1
-18.501197 -22.397464 22.458555 36.719577 0.880378 0.912685 0.033274 0.011006 414227.000000 0 0 1
-19.346097 -23.137164 23.367355 38.152760 0.874399 0.911617 0.028135 0.007172 379880.000000 0 0 1
-19.911397 -22.269464 24.500815 38.635252 0.841244 0.883879 0.029690 0.013975 -381145.000000 0 0 1
-20.932997 -21.440864 24.057355 38.427299 0.797383 0.894321 0.019312 0.020907 -193776.000000 0 0 1
-20.891297 -20.255864 24.875855 38.282561 0.769956 0.863480 0.023116 0.013431 -78571.200000 0 0 1
-21.795897 -19.155664 24.342925 37.875831 0.721015 0.872775 0.016393 0.015149 -174173.000000 0 0 1
-21.375197 -18.682864 23.060255 36.574907 0.718288 0.888607 0.028702 0.018937 -71225.000000 0 0 1
-22.186597 -17.595864 22.644355 36.257776 0.670510 0.896257 0.017514 0.018406 -279457.000000 0 0 1
-21.854697 -16.989664 21.256655 34.901602 0.660803 0.915940 0.018938 0.019354 104587.000000 0 0 1
-20.858697 -15.967764 21.155655 33.728570 0.653361 0.892802 0.017439 0.020671 -136410.000000 0 0 1
-20.710597 -15.664364 19.812355 32.662372 0.647550 0.919044 0.018181 0.019424 516281.000000 0 0 1
-19.730097 -14.473164 19.523755 31.303773 0.632895 0.897346 0.017375 0.008721 493343.000000 0 0 1
-19.338997 -14.364264 18.161955 30.169280 0.638852 0.924791 0.015683 0.006659 12499.300000 0 0 1
-18.541797 -13.236764 17.870155 28.954319 0.619986 0.905637 0.027998 -0.002946 -275127.000000 0 0 1
-18.430297 -13.003764 16.316755 27.839005 0.614451 0.944545 0.016861 -0.004595 236952.000000 0 0 1
-17.860897 -11.757664 15.865455 26.626433 0.582182 0.932468 0.017690 -0.002538 302880.000000 0 0 1
-16.454997 -11.665164 16.041755 25.771707 0.616683 0.898919 0.015169 -0.007952 -54333.800000 0 0 1
-15.863797 -10.429664 15.385355 24.436593 0.581595 0.889754 0.018943 -0.013767 26505.100000 0 1 0
-16.383197 -9.234964 15.942255 24.654598 0.513289 0.867646 0.005998 -0.003408 198342.000000 0 1 0
-15.973897 -8.134764 15.103455 23.440438 0.471023 0.870645 -0.006034 0.000249 -362345.000000 0 1 0
-16.330997 -6.696964 15.673055 23.604987 0.389163 0.844678 -0.000408 0.008511 527817.000000 0 1 0
-15.545097 -6.412964 16.837855 23.796838 0.391269 0.784747 -0.012156 0.007591 1136260.000000 0 1 0
-14.155697 -6.140664 16.534455 22.615917 0.409296 0.750866 -0.000821 -0.000669 7217.750000 0 1 0
-13.363197 -6.107764 17.796255 23.077836 0.428708 0.690166 0.008169 -0.000692 -560433.000000 0 1 0
-13.333397 -7.233964 18.685255 24.067581 0.497101 0.681917 0.015248 -0.001778 -8348.600000 0 1 0
-12.878697 -8.463064 18.135855 23.799023 0.581376 0.704336 0.018894 -0.002187 -522492.000000 0 1 0
-12.946897 -9.653264 19.093255 25.007199 0.640682 0.702065 0.029757 -0.001974 1308080.000000 0 0 1
-14.243297 -10.200464 19.472855 26.193760 0.621489 0.732633 0.028693 0.003216 1086900.000000 0 0 1
-15.037997 -9.362164 20.293055 26.936955 0.556848 0.717649 0.021434 0.005341 -1160820.000000 0 0 1
-16.403697 -9.955164 20.696055 28.222566 0.545467 0.747610 0.007126 0.011362 333047.000000 0 0 1
-17.369997 -10.219864 19.692455 28.177210 0.531819 0.796968 0.012820 0.006924 239328.000000 0 0 1
-17.807797 -9.051764 19.020455 27.583143 0.470268 0.809904 0.008523 0.003176 -152637.000000 0 0 1
-19.024197 -9.420364 18.051455 27.866079 0.459783 0.866112 0.014733 0.007392 471497.000000 0 0 1
-20.231197 -9.599864 18.735655 29.197320 0.443047 0.874095 0.014033 0.009258 -726645.000000 0 0 1
-21.233097 -9.664964 17.744555 29.310837 0.427157 0.920538 0.023282 0.006064 679168.000000 0 0 1
-22.699697 -9.627364 18.302555 30.707424 0.401124 0.932248 0.018555 0.008296 857147.000000 0 0 1
-23.239397 -8.465564 19.015355 31.198062 0.349336 0.915361 0.021107 0.012877 -84789.300000 0 0 1
-24.609897 -8.583064 19.218855 32.383335 0.335574 0.935421 0.010261 0.016939 -636637.000000 0 0 1
-25.185687 -7.338064 19.934855 32.947905 0.283510 0.920978 0.023962 0.014211 -137727.000000 0 0 1
-25.109367 -7.377864 21.341955 33.769694 0.285786 0.886684 0.031642 0.007689 77775.000000 0 0 1
-25.811657 -6.344864 21.968055 34.483247 0.241035 0.880112 0.031293 0.005247 -708773.000000 0 0 1
-25.807907 -6.520364 23.563255 35.549827 0.247471 0.846213 0.030951 0.002617 603375.000000 0 0 1
-24.597197 -6.235164 24.288615 35.126004 0.248261 0.807273 0.021371 -0.000024 666851.000000 0 0 1
-23.450597 -7.016964 24.015555 34.291619 0.290744 0.794932 0.012259 0.008087 -384086.000000 0 0 1
-22.376597 -6.839664 25.077915 34.298614 0.296643 0.750770 0.001497 0.007637 -414669.000000 0 0 1
-21.783097 -5.580264 25.072135 33.678696 0.250781 0.731084 -0.007176 0.006870 -29666.300000 0 0 1
-20.882397 -5.453164 26.173655 33.924500 0.255433 0.689559 0.003809 -0.003493 214796.000000 0 0 1
-20.290097 -4.019464 26.142895 33.336093 0.195568 0.669355 0.005657 -0.006099 -595194.000000 0 0 1
-19.384397 -3.736064 27.142165 33.562034 0.190401 0.628830 -0.000939 -0.009956 -420279.000000 0 0 1
-19.950797 -3.503664 28.487795 34.955177 0.173843 0.618100 0.002300 -0.015515 298162.000000 0 0 1
-20.440297 -2.054364 28.810545 35.384653 0.100169 0.619429 0.022632 -0.024596 78368.600000 0 0 1
-21.674697 -1.826564 28.189655 35.605975 0.084073 0.657191 0.021311 -0.022492 -462257.000000 0 0 1
-22.526997 -0.959364 28.946075 36.691432 0.042562 0.661770 0.012389 -0.021994 109525.000000 0 0 1
-23.849697 -0.704164 28.231045 36.963438 0.029517 0.701684 0.016374 -0.014297 -1030890.000000 0 0 1
-23.590297 -0.231564 26.890525 35.772280 0.009816 0.720139 0.015443 -0.017889 251694.000000 0 0 1
-24.744897 -0.074664 26.067395 35.941961 0.003017 0.759379 0.009549 -0.013192 -480526.000000 0 0 1
-25.555017 -1.261364 25.644615 36.225629 0.049319 0.784257 0.007385 -0.005145 -409950.000000 0 0 1
-26.259927 -1.777364 26.792905 37.557989 0.067580 0.776495 0.002385 0.002047 106659.000000 0 0 1
-26.739027 -3.124964 26.579515 37.831357 0.116341 0.791781 -0.003604 -0.000213 86255.700000 0 0 1
-25.649367 -4.212264 26.681995 37.249994 0.162772 0.772318 0.018964 -0.015652 172366.000000 0 0 1
-25.582427 -4.662464 28.013465 38.222419 0.180274 0.748212 0.023205 -0.013678 -315445.000000 0 0 1
-24.530297 -5.572064 28.165545 37.763491 0.223360 0.729000 0.023967 -0.016975 -364004.000000 0 0 1
-24.280997 -5.998164 29.611645 38.760731 0.242183 0.701368 0.017134 -0.014223 -399185.000000 0 0 1
-25.327907 -6.673664 30.274025 40.031953 0.257635 0.713239 0.026783 -0.013908 -314245.000000 0 0 1
-25.004997 -7.333164 31.424795 40.823313 0.285269 0.692307 0.033486 -0.008657 105743.000000 0 0 1
-26.193427 -8.076764 32.152625 42.250692 0.299100 0.705949 0.014056 -0.013329 578061.000000 0 0 1
-26.875607 -9.043264 31.397345 42.306880 0.324585 0.734549 0.010243 -0.019243 -830947.000000 0 0 1
-28.229837 -9.000764 31.687575 43.382483 0.308649 0.751855 0.016444 -0.013577 -747927.000000 0 0 1
-29.043937 -9.880464 30.683095 43.389240 0.327909 0.785324 0.018949 -0.024995 -245320.000000 0 0 1
-28.773217 -11.233264 30.801255 43.621113 0.372209 0.786808 0.033208 -0.021533 -164811.000000 0 0 1
-29.496147 -11.980064 29.864925 43.651556 0.385803 0.817336 0.022913 -0.014925 -661256.000000 0 0 1
-28.793927 -13.168964 29.311335 43.147030 0.428951 0.823939 0.031697 -0.017625 -61362.300000 0 0 1
-27.766787 -12.709864 28.407655 41.707672 0.429269 0.821514 0.031232 -0.009553 -316542.000000 0 0 1
-26.960107 -13.797164 28.077005 41.298030 0.473013 0.823220 0.034099 -0.008361 913935.000000 0 0 1
-25.579587 -13.141264 27.542145 39.819315 0.474579 0.806986 0.030780 -0.008517 1461320.000000 0 0 1
-24.722997 -12.568564 28.576405 39.822183 0.470325 0.770446 0.023594 -0.010691 24675.000000 0 0 1
-25.086177 -11.253064 29.108555 40.040675 0.421669 0.756891 0.027941 -0.009742 -541527.000000 0 0 1
-24.947397 -10.079564 28.125565 38.923227 0.383978 0.763253 0.020868 -0.007913 251602.000000 0 0 1
-23.672897 -9.643364 27.671165 37.670862 0.386834 0.745792 0.010832 -0.003108 253399.000000 0 0 1
-22.979197 -10.479464 26.704955 36.756187 0.427867 0.757519 0.014055 -0.002602 248238.000000 0 0 1
-23.595597 -10.394664 25.234775 36.077626 0.414954 0.796158 0.019740 0.005219 762220.000000 0 0 1
-24.952097 -10.859564 25.224635 37.105518 0.410492 0.823295 0.024197 -0.001473 398384.000000 0 0 1
-25.521357 -10.617964 23.971655 36.588537 0.394259 0.856391 0.013790 0.005709 171947.000000 0 0 1
-26.888327 -11.310764 23.617955 37.532963 0.398186 0.890197 0.032749 0.000315 1270400.000000 0 0 1
-28.075867 -10.743564 24.185255 38.582444 0.365471 0.893298 0.031314 -0.004891 370049.000000 0 0 1
-28.222057 -10.808164 25.586485 39.597590 0.365739 0.868251 0.036657 -0.010767 14366.100000 0 0 1
-29.701047 -10.867964 26.122465 41.020092 0.350779 0.880428 0.017563 -0.011784 767387.000000 0 0 1
-30.365677 -9.631464 25.827675 41.011074 0.307145 0.889535 0.019926 -0.016485 16489.100000 0 0 1
-31.756657 -9.514464 26.072275 42.175512 0.291095 0.904365 0.020486 -0.010949 340508.000000 0 0 1
-32.210387 -9.430164 27.544915 43.418422 0.284809 0.883556 0.014466 -0.001666 -714920.000000 0 0 1
-32.511287 -10.713264 28.047255 44.253885 0.318319 0.884365 0.013222 -0.011613 526467.000000 0 0 1
-33.170377 -10.582864 29.353525 45.540096 0.308837 0.870343 -0.003367 -0.005515 -43289.700000 0 0 1
-33.736357 -11.919364 29.919615 46.641144 0.339620 0.874363 -0.016350 -0.009606 -152780.000000 0 0 1
-34.793251 -12.586764 29.303525 47.198448 0.347112 0.900960 -0.014883 -0.005612 539741.000000 0 0 1
33.853462 -12.118664 29.731165 46.656844 -0.343761 0.879897 -0.014474 0.003450 695643.000000 0 0 1
32.726822 -12.766564 28.898075 45.487677 -0.371938 0.882406 -0.016255 -0.000267 -248002.000000 0 0 1
32.569562 -12.160064 27.641405 44.414984 -0.357329 0.899062 -0.008626 0.009465 -455447.000000 0 0 1
31.621672 -12.833864 26.888545 43.446887 -0.385545 0.903476 -0.020854 0.017776 -745607.000000 0 0 1
31.418892 -12.461264 25.426055 42.295557 -0.377587 0.925855 -0.010696 0.022396 -150810.000000 0 0 1
30.964192 -11.158464 25.214365 41.461508 -0.345880 0.917082 -0.008620 0.018321 40569.500000 0 0 1
30.984692 -10.822864 23.862155 40.578171 -0.336049 0.942146 -0.004160 0.010836 -373528.000000 0 0 1
30.825992 -9.262864 23.677255 39.958163 -0.291905 0.936574 -0.020405 0.034710 -206642.000000 0 0 1
29.530992 -8.772364 23.875155 38.975080 -0.288754 0.911482 -0.022813 0.028897 -652225.000000 0 0 1
29.575942 -7.358264 23.636555 38.568991 -0.243842 0.911149 -0.023334 0.034163 -604347.000000 0 0 1
28.230592 -6.635364 23.475555 37.310803 -0.230851 0.890287 -0.021841 0.028985 -6732.610000 0 0 1
27.425282 -7.045564 22.352855 36.075423 -0.251462 0.902545 -0.022775 0.028754 319764.000000 0 0 1
26.762992 -8.277764 22.481255 35.919158 -0.299966 0.894531 -0.033430 0.027213 -669180.000000 0 0 1
13.740903 -17.287764 26.531735 34.519736 -0.899213 0.694153 -0.017670 0.013223 -372603.000000 0 0 1
12.983603 -18.451564 26.430005 34.750242 -0.957619 0.706605 -0.039305 0.020825 165765.000000 0 0 1
13.800203 -19.561664 26.024735 35.360870 -0.956407 0.743690 -0.014532 0.026551 -936659.000000 0 0 1
13.099403 -20.915064 25.801055 35.703343 -1.011252 0.763166 -0.039301 0.015342 -78785.100000 0 0 1
12.538303 -21.447364 26.982815 36.677933 -1.041771 0.744143 -0.030599 0.012654 218476.000000 0 0 1
11.314603 -20.793664 27.297725 36.132569 -1.072466 0.714398 -0.024712 0.014047 -1067730.000000 0 0 1
10.710903 -21.337564 28.573465 37.235171 -1.105571 0.696054 -0.034637 0.022010 -800465.000000 0 0 1
11.477603 -21.212064 29.731635 38.283902 -1.074821 0.681531 -0.031908 0.012665 -170468.000000 0 0 1
10.876203 -20.352564 30.695105 38.401929 -1.080017 0.644648 -0.029405 0.012706 31714.300000 0 0 1
10.709003 -18.830664 30.401525 37.330007 -1.053709 0.619103 -0.024366 0.024361 -352350.000000 0 0 1
11.907403 -18.149464 30.482575 37.421607 -0.990163 0.618806 -0.028182 0.038229 -698131.000000 0 0 1
11.694903 -16.916264 29.819405 36.223303 -0.965906 0.603753 -0.026503 0.033987 227964.000000 0 0 1
12.430003 -15.715564 30.452445 36.453194 -0.901607 0.581964 -0.028388 0.027571 130571.000000 0 0 1
12.205903 -14.407364 29.807285 35.284989 -0.867931 0.564683 -0.011413 0.021411 -207313.000000 0 0 1
12.864703 -13.374964 30.467915 35.674698 -0.804842 0.547078 -0.010591 0.027410 -134374.000000 0 0 1
12.328403 -11.975264 30.086295 34.649410 -0.770869 0.519019 -0.003933 0.018891 32601.900000 0 0 1
12.437003 -11.425764 28.768065 33.359087 -0.743046 0.530853 0.011516 0.015007 622474.000000 0 0 1
13.790303 -11.213564 28.330035 33.444093 -0.682707 0.560318 0.013495 0.021388 426220.000000 0 0 1
13.935403 -10.067964 27.280595 32.245778 -0.625650 0.562320 0.016158 0.011444 14073.400000 0 0 1
14.120503 -8.709964 27.816795 32.388674 -0.552703 0.537789 0.010608 0.009080 1207570.000000 0 0 1
15.517403 -8.452764 28.136755 33.225232 -0.498787 0.560764 0.016019 0.003371 749146.000000 0 0 1
15.834703 -6.988964 27.930905 32.859076 -0.415654 0.554771 0.010976 -0.001759 -1141910.000000 0 0 1
17.191003 -6.836664 28.167715 33.700011 -0.378512 0.581141 0.015998 -0.006851 -701442.000000 0 0 1
17.582903 -5.506364 27.755345 33.314227 -0.303491 0.586039 0.021456 -0.001168 112420.000000 0 0 1
19.098203 -5.295564 27.511465 33.906711 -0.270485 0.624275 0.032309 -0.007033 -942952.000000 0 0 1
19.544003 -5.966364 26.386415 33.373769 -0.296292 0.658954 0.031265 0.003014 43415.200000 0 0 1
20.932303 -5.944364 26.154695 34.023005 -0.276696 0.693935 0.034144 0.007134 234462.000000 0 0 1
21.949703 -6.394764 27.235075 35.558850 -0.283490 0.698332 0.041874 -0.002829 -887933.000000 0 0 1
22.456503 -5.275364 27.914505 36.212478 -0.230731 0.690617 0.048076 -0.006598 -77139.000000 0 0 1
23.330303 -5.567964 28.966655 37.608142 -0.234276 0.691606 0.040362 -0.013780 -110424.000000 0 0 1
23.915703 -4.266464 29.658085 38.337522 -0.176539 0.686286 0.047505 -0.013764 23182.500000 0 0 1
24.749603 -3.525864 28.787885 38.127640 -0.141509 0.715082 0.036689 -0.004571 179899.000000 0 0 1
24.821503 -2.154864 29.231835 38.408992 -0.086597 0.705839 0.028780 -0.012281 -514927.000000 0 0 1
25.829603 -1.391964 28.344725 38.373551 -0.053838 0.739727 0.020026 -0.011577 -79370.700000 0 0 1
27.167003 -1.753964 28.625575 39.503747 -0.064473 0.760300 0.016082 -0.009628 -585645.000000 0 0 1
27.989003 -1.078364 27.717665 39.405788 -0.038509 0.790640 0.006699 0.000494 -252415.000000 0 0 1
29.414303 -1.086564 28.321375 40.847058 -0.036923 0.804666 -0.007909 -0.001246 -278125.000000 0 0 1
29.621903 -0.022464 29.236345 41.619966 -0.000758 0.791949 -0.013977 0.009930 1338000.000000 0 0 1
30.963603 0.024036 29.815405 42.984924 0.000776 0.804287 -0.002746 0.004582 1497150.000000 0 0 1
31.173503 1.264636 30.749065 43.805155 0.040545 0.792663 0.009505 -0.008502 -160990.000000 0 0 1
31.194903 2.484036 29.992765 43.345800 0.079462 0.806621 0.002868 0.007451 -69309.200000 0 0 1
31.452403 3.519136 30.883235 44.220043 0.111424 0.797638 -0.005514 0.007789 -71524.000000 0 0 1
31.799103 4.907336 30.191705 44.122602 0.153115 0.817196 -0.002125 0.013920 -140441.000000 0 0 1
31.909103 6.035936 31.056755 44.934902 0.186951 0.807717 -0.004259 0.010482 -389510.000000 0 0 1
30.715303 6.486236 31.613425 44.552326 0.208115 0.781895 -0.005439 0.006340 -699867.000000 0 0 1
30.904703 7.383836 32.858665 45.709010 0.234526 0.768626 0.003937 -0.001670 -133058.000000 0 0 1
31.340003 6.642936 33.995175 46.711844 0.208872 0.755741 -0.004916 0.002691 220022.000000 0 0 1
31.297003 7.521236 -34.205051 46.968680 0.235846 2.386565 0.002722 -0.005951 -214613.000000 0 0 1
31.450103 6.835036 -32.824828 45.970600 0.214002 2.366048 0.013374 -0.010980 -98434.700000 0 0 1
30.388803 6.005636 -32.386628 44.815630 0.195112 2.378445 0.011194 -0.007513 107980.000000 0 0 1
30.392603 4.671036 -32.879168 45.017425 0.152497 2.389653 0.022722 -0.010169 -307299.000000 0 0 1
31.161403 3.610136 -32.098918 44.882142 0.115339 2.367681 0.018411 -0.012936 -247477.000000 0 0 1
30.756603 2.302236 -32.432498 44.756406 0.074714 2.381315 0.025595 -0.011731 22138.900000 0 0 1
31.243703 1.467736 -31.449568 44.355367 0.046942 2.358927 0.013078 -0.010986 -89491.000000 0 0 1
31.303703 -0.041664 -31.749648 44.586587 -0.001331 2.363266 0.018122 -0.018781 -129759.000000 0 0 1
32.461503 -0.331364 -32.548788 45.970453 -0.010208 2.357511 0.019183 -0.017774 314197.000000 0 0 1
32.892003 -1.674064 -32.356948 46.169887 -0.050852 2.347348 0.018772 -0.015700 97645.600000 0 0 1
33.853903 -1.765064 -31.172288 46.053379 -0.052091 2.314303 0.017119 -0.012780 -904084.000000 0 0 1
33.184603 -1.583264 -29.940268 44.722972 -0.047675 2.304279 0.016043 -0.014292 -281777.000000 0 0 1
34.001703 -1.800664 -28.844918 44.624965 -0.052909 2.273634 0.019410 -0.015059 -447372.000000 0 0 1
33.297003 -1.474464 -27.524608 43.225785 -0.044253 2.261090 0.017534 -0.018248 17192.300000 0 0 1
32.793303 -0.153064 -27.428788 42.752340 -0.004668 2.267345 0.012052 -0.022116 389596.000000 0 0 1
31.984603 0.113336 -26.298258 41.408043 0.003543 2.258935 0.007857 -0.019030 76264.900000 0 0 1
31.369603 1.525936 -26.268748 40.944201 0.048605 2.267345 -0.001517 -0.013690 103916.000000 0 0 1
30.532303 1.763336 -27.391918 41.056645 0.057689 2.301205 0.005794 -0.023226 285068.000000 0 0 1
30.090403 3.121836 -27.452968 40.851483 0.103379 2.307728 0.001594 -0.008763 120425.000000 0 0 1
29.229903 3.380036 -28.717318 41.115645 0.115125 2.344029 0.011199 -0.010435 -128209.000000 0 0 1
28.461703 4.550336 -28.686588 40.665642 0.158534 2.353820 0.006637 -0.007091 -561303.000000 0 0 1
27.815503 4.678636 -29.869458 41.082555 0.166643 2.384825 0.021075 -0.006487 -1090280.000000 0 0 1
26.599903 5.572636 -29.642668 40.215630 0.206512 2.399555 0.011434 -0.017126 -554066.000000 0 0 1
25.631603 4.917936 -28.835148 38.892556 0.189566 2.405958 0.014561 -0.011788 277495.000000 0 0 1
24.689503 5.842536 -28.296148 38.004984 0.232366 2.410639 0.017951 -0.019168 530954.000000 0 0 1
23.267403 5.311336 -27.985188 36.779792 0.224428 2.435472 0.011574 -0.010717 505418.000000 0 0 1
22.518203 4.769836 -29.055298 37.067926 0.208736 2.471621 0.016418 -0.015628 1055940.000000 0 0 1
21.120403 4.548736 -28.821408 36.019939 0.212131 2.498344 0.025208 -0.015947 849372.000000 0 0 1
20.256903 4.373536 -30.080748 36.528363 0.212640 2.538332 0.004528 -0.009609 -113420.000000 0 0 1
20.508203 3.097736 -30.689778 37.041123 0.149915 2.547278 -0.001532 -0.009219 -26347.600000 0 0 1
19.791303 2.806236 -31.874978 37.624259 0.140852 2.581474 -0.020968 -0.011456 -348266.000000 0 0 1
20.078603 3.664636 -33.144108 38.924436 0.180527 2.589633 -0.008905 -0.010877 -1098220.000000 0 0 1
21.336903 3.371436 -33.585758 39.932858 0.156714 2.570028 0.002242 -0.012946 -1230990.000000 0 0 1
21.510103 3.891036 34.361716 40.725327 0.178958 0.566577 0.011070 -0.021984 -1198690.000000 0 0 1
22.772803 3.398636 33.745679 40.852444 0.148148 0.598755 0.026652 -0.006985 -1092030.000000 0 0 1
22.893103 1.974536 33.645552 40.743296 0.086037 0.599188 0.037334 -0.017934 -20226.000000 0 0 1
24.216203 1.574936 33.368818 41.259944 0.064945 0.628779 0.025985 -0.017579 -523873.000000 0 0 1
24.539103 0.053636 33.329647 41.388837 0.002186 0.634647 0.018260 -0.010952 -388889.000000 0 0 1
24.139803 -0.679564 32.173025 40.228043 -0.028144 0.643891 0.026513 -0.011660 1160110.000000 0 0 1
22.734003 -0.651364 31.862955 39.147249 -0.028644 0.619919 0.031461 -0.014775 721520.000000 0 0 1
21.840703 -1.726164 32.576635 39.258542 -0.078870 0.592052 0.030163 -0.021299 -238903.000000 0 0 1
22.123903 -3.096264 32.250605 39.232072 -0.139048 0.605800 0.029350 -0.024574 54869.900000 0 0 1
21.358903 -3.966164 33.033815 39.536896 -0.183600 0.581720 0.040330 -0.022619 -186777.000000 0 0 1
21.242203 -5.342764 32.421715 39.127279 -0.246405 0.594155 0.041630 -0.025174 335309.000000 0 0 1
22.513703 -5.967264 32.569735 40.040763 -0.259093 0.620798 0.045162 -0.018230 326217.000000 0 0 1
22.481203 -7.378164 32.488655 40.191473 -0.317117 0.629458 0.050227 -0.013152 -1197230.000000 0 0 1
23.847403 -8.025564 32.483745 41.088952 -0.324632 0.659055 0.036087 -0.009925 -783485.000000 0 0 1
24.407103 -7.663564 31.242835 40.380090 -0.304241 0.686106 0.036349 -0.005773 35766.400000 0 0 1
25.664003 -8.251664 30.942785 41.038847 -0.311087 0.716685 0.022471 -0.000575 375162.000000 0 0 1
26.157803 -8.149864 29.472725 40.240433 -0.302033 0.748933 0.010360 0.005374 73448.100000 0 0 1
25.297003 -8.809564 28.577535 39.169150 -0.335111 0.753070 0.007456 0.016520 -143297.000000 0 0 1
25.698803 -8.520064 27.258865 38.419601 -0.320132 0.782002 -0.000452 0.027618 163130.000000 0 0 1
24.971703 -9.293764 26.118095 37.311056 -0.356289 0.795385 -0.010090 0.025810 -64941.100000 0 0 1
23.657003 -8.903464 25.809035 36.125223 -0.359959 0.774984 0.003951 0.016277 -348137.000000 0 0 1
23.250003 -9.895064 24.860645 35.447519 -0.402374 0.793525 0.000961 0.018407 -337316.000000 0 0 1
21.848903 -9.510164 24.355605 34.073645 -0.410537 0.774468 -0.000681 0.022254 -87379.000000 0 0 1
20.872303 -9.586064 25.407565 34.250402 -0.430538 0.735019 0.008905 0.019966 -667701.000000 0 0 1
19.640903 -9.296364 24.836925 33.000914 -0.442074 0.718774 0.016778 0.021266 -107159.000000 0 0 1
18.481103 -9.226864 25.902085 33.130110 -0.463055 0.673202 0.022648 0.010162 479769.000000 0 0 1
17.832603 -10.376864 26.440615 33.537847 -0.527007 0.662623 0.009591 0.016275 326116.000000 0 0 1
18.673803 -11.184964 27.236895 34.866356 -0.539658 0.674243 0.009624 0.015900 -334377.000000 0 0 1
17.856803 -12.165264 28.047545 35.405139 -0.598043 0.656410 0.011610 0.009338 -52246.300000 0 0 1
17.358203 -13.238264 27.222825 34.894714 -0.651549 0.675904 0.008560 0.013570 561017.000000 0 0 1
16.375803 -14.019364 27.898645 35.256828 -0.708026 0.657868 -0.009982 0.017214 100065.000000 0 0 1
16.965703 -15.059064 28.836285 36.689806 -0.725932 0.666568 0.009076 0.017570 -246968.000000 0 0 1
15.908203 -15.891564 29.262365 36.903912 -0.784875 0.655187 0.001257 0.015491 468961.000000 0 0 1
16.380703 -17.124764 29.840755 38.105848 -0.807602 0.671159 0.011661 0.015129 35339.600000 0 0 1
16.678303 -18.286964 28.887735 38.040506 -0.831373 0.708415 0.008198 0.015954 -518612.000000 0 0 1
17.789503 -18.099264 28.086815 37.853916 -0.794029 0.734779 0.013022 0.014936 -349560.000000 0 0 1
18.342103 -19.295664 27.573715 38.328386 -0.810728 0.767848 0.002707 0.019216 -540596.000000 0 0 1
19.332103 -18.965664 26.472335 37.870980 -0.775830 0.796779 0.009542 0.012235 -746872.000000 0 0 1
20.513103 -18.489464 27.074625 38.674061 -0.733560 0.795298 0.031246 0.000636 -127278.000000 0 0 1
21.301403 -17.783464 26.092565 38.089675 -0.695632 0.816152 0.023326 0.000148 424625.000000 0 0 1
22.772203 -17.569864 26.545145 39.139725 -0.657150 0.825466 0.030443 -0.004530 137847.000000 0 0 1
23.524403 -18.767864 26.580695 40.151757 -0.673401 0.847305 0.036039 -0.017542 -576045.000000 0 0 1
24.844103 -18.453064 26.911875 41.012121 -0.638848 0.855034 0.039472 -0.025310 -709243.000000 0 0 1
25.736003 -19.716364 26.852065 42.096440 -0.653726 0.879067 0.018300 -0.010927 -216403.000000 0 0 1
25.319803 -20.592464 27.918305 42.948501 -0.682795 0.863157 0.021779 -0.003785 328543.000000 0 0 1
26.365303 -21.423064 28.374205 44.262540 -0.682345 0.874939 0.014769 0.003319 -134408.000000 0 0 1
25.817003 -22.536264 29.248595 45.054203 -0.717653 0.864281 0.018489 0.017155 16612.200000 0 0 1
25.294603 -22.177364 30.523315 45.423840 -0.719827 0.833935 0.021323 0.009415 -8173.870000 0 0 1
24.855903 -23.361164 31.218505 46.240188 -0.754408 0.829645 0.013863 0.018690 -180975.000000 0 0 1
24.252703 -23.103464 32.621905 46.756308 -0.761135 0.798614 0.016226 0.007020 63216.800000 0 0 1
24.048103 -24.273264 33.392329 47.776043 -0.790058 0.796890 -0.001635 0.011261 -154420.000000 0 0 1
23.709403 -24.010664 -34.544138 48.290219 -0.791711 2.367913 -0.002682 0.009863 -223425.000000 0 0 1
23.431903 -25.360214 -33.738578 48.275109 -0.824899 2.344629 -0.001618 0.010131 1695350.000000 0 0 1
22.234703 -26.194944 -33.992238 48.332488 -0.866990 2.350825 -0.001423 0.012191 1094800.000000 0 0 1
21.941003 -26.502404 33.960901 48.343850 -0.879281 0.791911 -0.004896 0.005285 -191121.000000 0 0 1
20.621303 -27.265384 33.760121 48.045656 -0.923264 0.791657 0.005334 -0.000790 123672.000000 0 0 1
20.847303 -28.663144 33.943315 49.074785 -0.941969 0.807004 0.005948 -0.001456 233862.000000 0 0 1
19.612403 -29.319504 34.139875 49.089824 -0.981235 0.801740 0.014566 -0.004502 28880.100000 0 0 1
19.770603 -30.844034 34.157240 50.089403 -1.000784 0.820404 0.002040 -0.007429 59092.300000 0 0 1
20.397503 -31.220184 -33.848938 50.363763 -0.992074 2.307823 0.000991 -0.009067 373269.000000 0 0 1
20.999003 -32.480704 -33.845598 51.395319 -0.996881 2.289666 -0.023973 -0.003062 -427248.000000 0 0 1
21.891503 -32.640844 -32.619468 51.075359 -0.980022 2.263544 -0.013843 0.002684 -910379.000000 0 0 1
22.561403 -33.904664 -32.563578 52.143358 -0.983646 2.245289 -0.023121 0.004081 398117.000000 0 0 1
23.095603 -34.173804 -31.251958 51.748823 -0.976478 2.219202 -0.021500 0.012753 646377.000000 0 0 1
24.335303 -33.337334 -30.777378 51.486229 -0.940237 2.211524 -0.020576 0.006683 -95272.100000 0 0 1
24.578803 -33.639274 -29.424388 51.005029 -0.939789 2.185715 -0.007991 0.010407 -372506.000000 0 0 1
25.551203 -32.776844 -28.903268 50.621975 -0.908650 2.178475 -0.005102 0.013176 -421180.000000 0 0 1
26.051003 -33.095954 -27.491138 50.296716 -0.903949 2.149070 -0.002215 0.013040 459377.000000 0 0 1
26.889703 -34.252455 -27.361608 51.429023 -0.905241 2.131789 0.002724 0.020813 229612.000000 0 0 1
27.576803 -34.400607 -26.132158 51.252039 -0.895058 2.105836 0.005508 0.015067 318696.000000 0 0 1
-25.635547 -30.964920 9.851172 41.389046 0.879279 1.330476 0.027288 0.004267 -251026.000000 0 0 1
-25.671927 -32.306820 10.245372 42.517597 0.899339 1.327433 0.028773 -0.001444 1167200.000000 0 0 1
-24.355197 -32.578320 10.783072 42.080841 0.928840 1.311659 0.009434 0.000857 1282340.000000 0 0 1
-24.462297 -33.953920 11.469272 43.391437 0.946473 1.303296 0.000665 0.001189 168355.000000 0 0 1
-24.658197 34.274336 10.574772 43.526803 -0.947145 1.325392 0.003332 0.001293 90478.000000 0 0 1
-24.679397 33.022236 11.211672 42.722854 -0.928989 1.305259 0.000650 -0.002717 -54881.200000 0 0 1
-24.625297 31.870736 10.226972 41.554061 -0.912949 1.322129 -0.003969 0.002658 -280622.000000 0 0 1
-25.809717 31.770536 9.480172 42.016450 -0.888553 1.343207 0.007279 -0.007720 -104444.000000 0 0 1
-25.821687 30.602436 8.712472 40.977747 -0.869925 1.356546 0.011207 -0.007475 -771900.000000 0 0 1
-24.986897 30.517236 7.458272 40.140659 -0.884709 1.383907 0.007338 0.003761 474365.000000 0 0 1
-23.609997 30.259936 7.815172 39.168515 -0.908221 1.369921 -0.004714 0.000143 521319.000000 0 0 1
-22.864597 30.148336 6.648672 38.417662 -0.921939 1.396858 -0.013085 0.003205 -1224140.000000 0 0 1
-21.594297 29.377236 6.846272 37.097265 -0.936920 1.385183 0.016328 0.010295 -1157220.000000 0 0 1
-21.740997 27.927136 7.162572 36.109532 -0.909310 1.371115 0.002163 0.006303 260840.000000 0 0 1
-22.124397 27.122736 6.019572 35.515729 -0.886547 1.400484 0.001108 0.002793 -708087.000000 0 0 1
-22.537997 25.683536 6.338272 34.753115 -0.850537 1.387390 -0.003277 0.010362 -351102.000000 0 0 1
-23.788497 25.545036 6.982472 35.597701 -0.820989 1.373367 -0.000812 0.005711 350412.000000 0 0 1
-24.029097 24.197636 7.415772 34.898664 -0.788893 1.356669 -0.001128 0.002025 -93894.000000 0 0 1
-24.270697 23.072736 6.383572 34.090583 -0.760100 1.382431 -0.002635 -0.011952 -588720.000000 0 0 1
-25.594437 23.162336 5.908772 35.021173 -0.735557 1.401265 0.000547 -0.013021 -62433.500000 0 0 1
-25.875037 22.638336 4.628272 34.690527 -0.718779 1.436981 -0.003587 -0.011650 -139178.000000 0 0 1
-25.646657 23.563036 3.388172 34.992104 -0.743082 1.473818 -0.002243 -0.015846 498213.000000 0 0 1
-24.321597 24.109936 3.237672 34.399296 -0.781028 1.476537 0.000038 -0.015721 1047040.000000 0 0 1
-24.288197 25.005436 2.138072 34.925058 -0.799947 1.509539 0.005401 -0.012963 342712.000000 0 0 1
-22.916697 25.736736 2.024172 34.520310 -0.843295 1.512126 0.016730 -0.009196 408766.000000 0 0 1
-22.643697 26.459836 0.851172 34.836538 -0.862958 1.546361 0.015908 -0.015884 18068.900000 0 0 1
-21.321497 26.964736 0.979272 34.389856 -0.901741 1.542317 0.018803 -0.018565 -317451.000000 0 0 1
-20.717897 27.559536 -0.337528 34.480040 -0.926176 1.580586 0.024832 -0.019784 117547.000000 0 0 1
-20.341797 26.627936 -1.326628 33.534991 -0.918441 1.610366 0.029484 -0.019574 67879.800000 0 0 1
-19.218497 25.805536 -1.089128 32.194137 -0.930668 1.604633 0.027911 -0.021057 -215303.000000 0 0 1
-18.922997 24.718036 -2.191028 31.206757 -0.917415 1.641064 0.037364 -0.025864 189788.000000 0 0 1
-20.032897 23.852436 -2.338428 31.236579 -0.872214 1.645728 0.027260 -0.022030 218894.000000 0 0 1
-19.697597 22.863636 -3.310228 30.359492 -0.859649 1.680048 0.030482 -0.020435 975803.000000 0 0 1
-21.005497 22.251436 -3.958828 30.854977 -0.814193 1.699455 0.013308 -0.011624 990858.000000 0 0 1
-21.773997 23.116636 -4.807828 32.118546 -0.815298 1.721051 0.004424 -0.004164 275202.000000 0 0 1
-22.792497 22.336536 -5.406428 32.367394 -0.775295 1.738616 0.003476 -0.005292 -20098.700000 0 0 1
-23.127597 22.868536 -6.774228 33.222670 -0.779766 1.776140 -0.004166 0.004175 -677332.000000 0 0 1
-22.226697 22.416936 -7.727428 32.500126 -0.789659 1.810862 -0.013498 -0.003171 -72204.700000 0 0 1
-21.987397 23.279736 -8.855228 33.223587 -0.813940 1.840592 -0.004349 -0.008390 36275.900000 0 0 1
-21.198197 22.676436 -10.057028 32.630171 -0.819078 1.884110 -0.014010 -0.009894 -213188.000000 0 0 1
-21.947097 21.884536 -10.908128 32.857194 -0.783971 1.909205 -0.024986 -0.008328 -621462.000000 0 0 1
-21.128397 21.251336 -11.854728 32.226743 -0.788299 1.947496 -0.035174 -0.005690 -256669.000000 0 0 1
-21.525797 21.523236 -13.342928 33.236175 -0.785339 1.983905 -0.024593 -0.002145 -590723.000000 0 0 1
-22.815797 21.108536 -13.649828 33.947734 -0.746549 1.984588 -0.037512 -0.004519 -692998.000000 0 0 1
-22.720997 20.007036 -14.472528 33.555614 -0.721966 2.016729 -0.012185 -0.007701 216884.000000 0 0 1
-24.009997 19.208236 -14.835928 34.140021 -0.674747 2.020347 -0.008229 -0.016027 360555.000000 0 0 1
-23.590197 18.122436 -15.682528 33.628288 -0.655060 2.055956 -0.015229 -0.009229 712141.000000 0 0 1
-24.674697 17.221536 -15.912628 34.038708 -0.609344 2.057241 0.019237 -0.010258 246792.000000 0 0 1
-24.344497 16.267836 -17.085528 33.900033 -0.589087 2.099017 0.021511 -0.008090 -336660.000000 0 0 1
-23.301597 15.370136 -16.862728 32.612223 -0.583106 2.114218 0.021369 -0.006211 -311426.000000 0 0 1
-22.995197 14.796836 -18.142228 32.815634 -0.571775 2.156581 0.024379 -0.009626 -30959.600000 0 0 1
-22.197597 13.475336 -17.972528 31.580528 -0.545597 2.176209 0.016756 -0.002328 319672.000000 0 0 1
-20.916097 13.661836 -17.386528 30.437152 -0.578603 2.178796 0.015388 -0.004683 -59925.800000 0 0 1
-20.278297 12.429136 -17.266028 29.390618 -0.549871 2.198722 0.017834 0.004155 -498963.000000 0 0 1
-19.174897 12.510836 -16.227728 28.063086 -0.578102 2.187389 0.021157 0.001239 -252984.000000 0 0 1
-18.108897 13.386936 -16.517628 27.928018 -0.636583 2.203635 0.017756 0.006621 273024.000000 0 0 1
-17.267697 13.769536 -15.434728 26.944467 -0.673163 2.180756 0.022076 0.006364 -149057.000000 0 0 1
-16.290397 14.834236 -15.882828 27.160556 -0.738647 2.195400 0.010691 0.012968 -194258.000000 0 0 1
-15.430097 14.468236 -16.965428 27.115373 -0.753238 2.246794 0.019480 0.008528 362598.000000 0 0 1
-14.710197 15.594936 -17.497028 27.671969 -0.814584 2.255317 0.009823 0.008193 232784.000000 0 0 1
-13.880997 15.176136 -18.735528 27.821164 -0.829941 2.309631 0.006121 0.010819 262539.000000 0 0 1
-12.888197 14.206136 -18.410528 26.586979 -0.834002 2.335695 0.007790 0.009636 -147943.000000 0 0 1
-11.913697 14.234536 -19.433928 26.874444 -0.873923 2.379131 0.013148 0.011007 12538.400000 0 0 1
-11.127097 12.941236 -19.480228 25.899172 -0.860630 2.422125 0.011566 0.001406 28794.600000 0 0 1
-11.820397 11.994436 -20.265628 26.349268 -0.792706 2.448252 0.014329 0.013936 40638.800000 0 0 1
-11.163697 10.770436 -20.159228 25.436684 -0.767471 2.485736 -0.000006 0.026035 -107677.000000 0 0 1
-11.690697 9.630836 -21.096428 25.970842 -0.689088 2.518902 -0.001049 0.019735 -41999.100000 0 0 1
-11.403497 9.862936 -22.468628 27.058390 -0.713084 2.550578 -0.003972 0.020164 175931.000000 0 0 1
-10.708097 8.725936 -23.036728 26.860680 -0.683755 2.601454 -0.005804 0.032380 78367.100000 0 0 1
-10.658597 8.619736 -24.576128 28.140568 -0.680031 2.632802 0.000241 0.013296 87638.000000 0 0 1
-9.965597 9.556736 -25.395298 28.906149 -0.764458 2.643600 0.001151 -0.001176 -29130.200000 0 0 1
-10.055297 9.062836 -26.765348 29.993796 -0.733533 2.673350 0.010617 -0.005708 -477984.000000 0 0 1
-9.525697 9.965836 -27.921418 31.139402 -0.807975 2.682960 0.023325 -0.010267 -835221.000000 0 0 1
-8.181097 10.248936 -27.840188 30.774130 -0.897130 2.701382 0.011430 -0.006410 -995679.000000 0 0 1
-7.751097 11.336936 -27.044148 30.331362 -0.971092 2.671714 -0.002729 0.003376 -75613.000000 0 0 1
-6.242997 11.676936 -27.091818 30.154476 -1.079820 2.686987 -0.003043 0.008661 147584.000000 0 0 1
-5.755797 12.223536 -28.281428 31.342992 -1.130716 2.695919 -0.001024 0.000505 181600.000000 0 0 1
-4.397297 12.626036 -28.185188 31.195477 -1.235662 2.698669 -0.000189 0.002008 247663.000000 0 0 1
-3.774097 12.819536 -29.571038 32.450433 -1.284483 2.717149 -0.002006 0.004900 498455.000000 0 0 1
-2.345097 12.843836 -29.551818 32.307484 -1.390200 2.725574 -0.004229 -0.000205 328984.000000 0 0 1
-1.780297 12.699136 -30.831838 33.392210 -1.431514 2.747445 -0.004966 0.001809 -797068.000000 0 0 1
-0.280797 12.542436 -30.796168 33.253503 -1.548412 2.754745 -0.002875 -0.005254 -1423200.000000 0 0 1
0.079503 11.395836 -30.020908 32.111155 1.563820 2.778790 -0.015294 0.008270 291390.000000 0 0 1
1.404103 10.927536 -30.278788 32.220918 1.443004 2.792620 0.003799 -0.000718 527583.000000 0 0 1
1.617603 10.251036 -31.665758 33.322974 1.414288 2.824892 0.007108 -0.002509 -679314.000000 0 0 1
1.691803 11.229636 -32.648848 34.567531 1.421266 2.806849 0.011450 -0.004071 161676.000000 0 0 1
1.796603 10.582136 -33.897598 35.556385 1.402623 2.834934 0.010318 -0.004468 -103080.000000 0 0 1
1.917603 11.446936 34.154058 36.072278 1.404816 0.327583 0.010739 -0.005697 153991.000000 0 0 1
3.200403 12.030336 33.978100 36.186777 1.310791 0.351188 0.006815 -0.008131 282654.000000 0 0 1
3.052203 13.066236 33.011805 35.634558 1.341317 0.386063 0.014383 -0.003269 -363871.000000 0 0 1
4.384803 13.573536 32.469435 35.464512 1.258338 0.413930 0.019677 0.003870 -377327.000000 0 0 1
4.991203 12.570236 31.684925 34.450797 1.192822 0.403442 0.014148 0.006263 -842841.000000 0 0 1
6.351403 12.757336 31.529905 34.600937 1.108860 0.424501 0.016918 0.007423 -734506.000000 0 0 1
7.110503 11.477836 30.994035 33.807250 1.016163 0.410838 0.002629 0.014936 -5744.500000 0 0 1
6.819503 10.999436 29.666975 32.366999 1.015810 0.411352 0.005427 0.006183 131770.000000 0 0 1
7.763103 10.002036 29.323265 31.939949 0.910767 0.407600 0.010329 0.005573 84252.800000 0 0 1
7.348903 9.145536 28.159065 30.505412 0.893894 0.394772 0.007471 0.006842 644530.000000 0 0 1
6.364303 8.142736 28.531175 30.345287 0.907381 0.347527 0.005378 0.001836 554529.000000 0 0 1
5.925703 7.400236 27.415265 29.008175 0.895601 0.332934 0.018475 -0.005514 -582308.000000 0 0 1
5.148203 6.169736 27.781855 28.920600 0.875412 0.281553 0.034214 -0.021959 -189243.000000 0 0 1
5.904903 5.161636 28.448715 29.509994 0.718335 0.269002 0.019874 -0.007538 249382.000000 0 0 1
5.089103 4.544436 29.431505 30.211990 0.728920 0.227797 0.019733 -0.006921 333851.000000 0 0 1
5.837803 3.372436 30.198685 30.942105 0.523853 0.219650 0.024886 -0.002576 355691.000000 0 0 1
5.833503 2.113236 29.498015 30.143464 0.347553 0.207313 0.026290 -0.009604 -464462.000000 0 0 1
6.941403 1.841936 28.692615 29.577727 0.259377 0.245257 0.023765 -0.008607 -595142.000000 0 0 1
6.993703 0.458536 28.123345 28.983524 0.065470 0.244238 0.010573 -0.004056 -126993.000000 0 0 1
7.172003 -0.578964 29.080685 29.957621 -0.080551 0.242555 -0.004557 -0.000133 12845.700000 0 0 1
7.315803 -1.845764 28.423475 29.407852 -0.247141 0.259468 0.006414 -0.002208 -373774.000000 0 0 1
7.814903 -3.021164 29.285625 30.460597 -0.368893 0.278654 0.000578 0.008167 -326606.000000 0 0 1
9.175103 -3.013264 29.589165 31.125246 -0.317320 0.315477 -0.004464 0.001260 -492327.000000 0 0 1
9.987803 -3.880964 28.826955 30.754047 -0.370615 0.355885 -0.016103 0.013601 417987.000000 0 0 1
11.510803 -3.738364 29.170115 31.581158 -0.314024 0.393284 -0.019591 0.013405 761535.000000 0 0 1
12.285703 -4.824264 28.668925 31.561358 -0.374174 0.431462 -0.017864 0.011326 256988.000000 0 0 1
12.535303 -5.910964 29.573945 32.660244 -0.440626 0.438233 -0.001608 0.007397 -613753.000000 0 0 1
11.810503 -7.179164 29.176045 32.284206 -0.546181 0.442404 -0.002281 0.012101 -411015.000000 0 0 1
10.418603 -7.048964 29.409315 31.986607 -0.594831 0.404178 -0.002503 0.011626 -88341.800000 0 0 1
9.882603 -8.353664 29.134775 31.879220 -0.701753 0.417979 -0.004103 0.019195 -314780.000000 0 0 1
8.412703 -8.318564 28.703715 31.046342 -0.779772 0.390959 0.001682 0.013488 -480090.000000 0 0 1
7.627503 -7.822564 29.738725 31.682220 -0.798023 0.352082 -0.003741 0.020491 143671.000000 0 0 1
6.338503 -7.375464 29.293195 30.865278 -0.860868 0.320537 -0.010116 0.027149 605809.000000 0 0 1
5.678603 -6.535864 30.405955 31.614651 -0.855467 0.277410 -0.015741 0.016568 28911.100000 0 0 1
5.459603 -7.225464 31.644175 32.914562 -0.923717 0.278738 -0.027334 0.016885 11719.700000 0 0 1
4.672103 -6.513064 32.574145 33.545841 -0.948525 0.241276 -0.027691 0.014921 135374.000000 0 0 1
5.418903 -5.366864 33.335640 34.196968 -0.780573 0.224917 -0.014547 0.020374 63627.500000 0 0 1
5.501303 -4.138264 32.651185 33.368989 -0.644929 0.207792 -0.003743 0.015599 -71881.900000 0 0 1
6.141403 -3.168564 33.468927 34.174928 -0.476314 0.203617 -0.002185 0.022771 -437755.000000 0 0 1
6.135303 -1.816164 32.806225 33.424374 -0.287800 0.192620 0.001690 0.024402 236235.000000 0 0 1
4.842603 -1.304464 32.490925 32.875715 -0.263127 0.153149 0.004024 0.022958 -86238.600000 0 0 1
4.917003 -0.044064 31.869775 32.246882 -0.008961 0.153083 0.016734 0.006637 -204462.000000 0 0 1
3.496203 0.470336 31.594425 31.790759 0.133725 0.111195 0.014542 0.003399 837.536000 0 0 1
2.812303 0.579736 32.838105 32.963408 0.203295 0.087220 0.007763 0.004584 -89732.600000 0 0 1
1.548503 1.207736 32.675915 32.734873 0.662387 0.060027 0.015582 0.005255 157811.000000 0 0 1
0.690603 1.141236 33.943977 33.970177 1.026609 0.039278 0.013217 -0.001476 -551626.000000 0 0 1
0.915503 2.248736 -34.465913 34.551326 1.184168 3.071264 0.008263 -0.001150 103664.000000 0 0 1
0.288603 2.083236 -33.201918 33.268461 1.433136 3.078333 0.003620 0.003759 -237389.000000 0 0 1
0.873003 3.038636 -32.169378 32.324361 1.291030 3.043629 0.005483 0.014240 174238.000000 0 0 1
2.145103 2.702936 -31.653428 31.840961 0.899958 3.033006 -0.004906 0.007701 56765.300000 0 0 1
2.759603 3.820536 -31.023878 31.379817 0.945255 2.990832 -0.010023 0.012987 133850.000000 0 0 1
3.877403 3.446636 -30.025918 30.470794 0.726650 2.970503 -0.004307 0.010575 110608.000000 0 0 1
3.416703 2.795936 -28.835698 29.171709 0.685809 2.989668 -0.001429 -0.004097 611341.000000 0 0 1
4.495703 2.092536 -28.200588 28.633253 0.435630 2.967531 0.017681 -0.011154 129691.000000 0 0 1
4.155903 1.483936 -26.822168 27.182757 0.342957 2.978529 0.014982 -0.010752 -257495.000000 0 0 1
3.189003 0.474636 -26.852388 27.045254 0.147751 3.022096 0.015802 -0.007686 -279628.000000 0 0 1
2.923203 -0.183264 -25.637788 25.804551 -0.062611 3.027843 0.018116 -0.006894 -181121.000000 0 0 1
3.610203 -1.549464 -25.310558 25.613644 -0.405414 2.987603 0.028473 -0.014859 447078.000000 0 0 1
5.007403 -1.486064 -25.051728 25.590458 -0.288494 2.936038 0.027510 -0.016586 164576.000000 0 0 1
5.462303 -2.848264 -25.087768 25.833030 -0.480652 2.900806 0.030217 -0.022911 -135502.000000 0 0 1
6.871703 -3.104164 -24.535528 25.668040 -0.424293 2.843432 0.040004 -0.024898 206334.000000 0 0 1
7.908803 -2.484864 -25.284408 26.608739 -0.304423 2.824768 0.030504 -0.012983 -1601130.000000 0 0 1
9.096503 -2.767564 -24.707128 26.473533 -0.295347 2.774227 0.022093 -0.013244 -1331950.000000 0 0 1
-28.289417 -4.699464 17.786655 33.745239 0.164618 1.015628 0.020662 0.005072 615236.000000 0 0 1
-29.680657 -4.402764 17.928655 34.953718 0.147264 1.032207 0.010758 0.005052 567148.000000 0 0 1
-30.273027 -5.056964 19.067055 36.132833 0.165517 1.014914 0.009055 0.002805 -16315.300000 0 0 1
-31.718997 -4.613964 19.295155 37.412383 0.144451 1.028922 0.012752 0.002521 -190370.000000 0 0 1
-32.622057 -4.931064 18.246855 37.702277 0.150022 1.065608 0.010610 0.007612 355021.000000 0 0 1
-33.949397 -4.675864 18.668355 39.024770 0.136869 1.071997 0.006121 0.017733 -334059.000000 0 0 1
34.946053 -4.692464 17.584655 39.401344 -0.133479 1.108175 0.004062 0.018217 -249849.000000 0 0 1
33.650742 -4.891964 18.118955 38.530511 -0.144363 1.081223 0.002698 0.021454 -164380.000000 0 0 1
32.682562 -4.757264 17.089255 37.186342 -0.144545 1.093300 0.001232 0.019897 1172700.000000 0 0 1
31.315552 -5.473064 17.509155 36.293094 -0.173024 1.067361 0.001389 0.026778 1047040.000000 0 0 1
30.684182 -4.772064 18.565255 36.179556 -0.154286 1.031955 0.007725 0.019974 636820.000000 0 0 1
29.579192 -5.519264 19.110855 35.645696 -0.184471 1.004946 -0.012346 0.017881 1033730.000000 0 0 1
28.878552 -4.851964 20.384155 35.679491 -0.166458 0.962692 -0.010225 0.019392 484245.000000 0 0 1
28.116742 -3.648564 20.302855 34.872182 -0.129044 0.949355 -0.001243 0.009601 508871.000000 0 0 1
28.876672 -2.491664 19.907955 35.162440 -0.086073 0.968943 0.011588 0.008245 -56259.700000 0 0 1
28.080172 -1.210864 20.174955 34.597558 -0.043095 0.948217 -0.000777 0.009527 -82533.200000 0 0 1
28.713082 -0.008064 19.827555 34.893739 -0.000281 0.966447 -0.008108 0.005833 211767.000000 0 0 1
27.821172 1.027136 20.256155 34.429412 0.036902 0.941794 -0.007083 0.010475 316830.000000 0 0 1
28.017242 2.443836 19.727155 34.352566 0.087006 0.959102 -0.020496 0.014922 -473018.000000 0 0 1
28.060662 2.529236 18.340655 33.618111 0.089892 0.993741 -0.034992 0.011140 72016.500000 0 0 1
27.853572 3.814036 17.809055 33.279585 0.136085 1.006129 -0.044632 0.019891 -33488.200000 0 0 1
28.036222 3.796236 16.225455 32.614514 0.134586 1.050091 -0.040765 0.018055 -256300.000000 0 0 1
27.859232 5.079436 15.589255 32.325877 0.180344 1.067571 -0.051113 0.017730 218203.000000 0 0 1
27.522392 4.987136 14.252255 31.392361 0.179258 1.099542 -0.023661 0.014785 -655879.000000 0 0 1
27.113252 6.286736 13.610255 30.982100 0.227843 1.115984 -0.014137 0.009616 -759792.000000 0 0 1
25.860162 6.653436 14.058655 30.177176 0.251823 1.086178 -0.011238 0.004950 -745233.000000 0 0 1
25.332762 7.814836 13.482655 29.742267 0.299225 1.100314 0.008619 -0.014082 -831525.000000 0 0 1
24.123782 8.475436 14.180855 29.238442 0.337860 1.064425 0.003524 -0.009480 -44296.800000 0 0 1
22.888782 7.826836 13.992455 27.945384 0.329486 1.046381 0.017031 -0.005671 256224.000000 0 0 1
22.711282 6.505636 14.494255 27.716584 0.278979 1.020494 0.017613 -0.003906 -1399290.000000 0 0 1
21.347082 5.868936 14.230655 26.318318 0.268300 0.999512 0.040826 -0.006717 -522268.000000 0 0 1
20.970782 5.843736 12.858155 25.283494 0.271766 1.037286 0.044471 -0.006530 1020700.000000 0 0 1
19.737082 5.150936 12.627155 23.990197 0.255284 1.016498 0.045013 -0.007092 348951.000000 0 1 0
19.357582 4.963236 11.115355 22.867024 0.250991 1.063190 0.043130 -0.011806 -275644.000000 0 1 0
20.247382 4.138236 10.406855 23.138368 0.201607 1.104293 0.033905 -0.011117 431079.000000 0 1 0
19.959982 4.137936 9.042355 22.299945 0.204416 1.153284 0.042111 -0.009196 262983.000000 0 1 0
21.073682 3.330436 8.292955 22.890281 0.156741 1.200071 0.039509 -0.001109 -646765.000000 0 1 0
21.059582 1.942936 8.683355 22.862231 0.091999 1.181203 0.018213 0.000734 966474.000000 0 1 0
21.926682 1.169736 7.828955 23.311803 0.053297 1.228303 0.007195 0.004408 586335.000000 0 1 0
23.477882 1.399036 7.802455 24.779962 0.059519 1.250477 0.015160 -0.000757 810218.000000 0 1 0
24.255582 1.023536 8.998655 25.891247 0.042173 1.215833 0.011929 0.011877 1181820.000000 0 0 1
23.980382 1.888936 10.073755 26.078867 0.078608 1.174201 0.011070 0.012073 -687207.000000 0 0 1
24.644682 1.293336 11.340755 27.159635 0.052431 1.140039 -0.003329 0.020680 566829.000000 0 0 1
26.069682 1.359536 11.381955 28.478510 0.052103 1.159641 -0.002796 0.017587 576723.000000 0 0 1
26.628202 0.529536 12.357655 29.360742 0.019884 1.136370 -0.003162 0.016246 1191660.000000 0 0 1
28.186352 0.826936 12.476555 30.835348 0.029330 1.154235 -0.007206 0.022294 1382920.000000 0 0 1
28.587302 2.084936 13.063655 31.499839 0.072803 1.143160 -0.017514 0.017072 -101002.000000 0 0 1
29.989132 2.056936 13.174955 32.820092 0.068482 1.157719 -0.014299 0.015829 202373.000000 0 0 1
30.700032 3.429636 13.534955 33.726093 0.111253 1.157839 -0.019760 0.007819 -582783.000000 0 0 1
30.623852 4.406036 12.522655 33.377392 0.142895 1.186201 -0.014622 0.003941 177806.000000 0 0 1
31.443772 5.532036 12.813255 34.401943 0.174152 1.189141 -0.020809 0.002727 205068.000000 0 0 1
32.862642 5.444936 12.203955 35.475866 0.164196 1.219615 -0.016657 0.005167 -87693.000000 0 0 1
33.604742 4.397836 12.835055 36.240285 0.130130 1.208775 -0.016082 0.008620 1917120.000000 0 0 1
-34.900941 4.581836 12.582055 37.381506 -0.130535 1.227508 -0.007112 0.010033 2088380.000000 0 0 1
-33.997137 3.534036 13.340855 36.691595 -0.103579 1.198673 0.013460 0.017410 -228198.000000 0 0 1
-33.975217 2.122336 12.982055 36.432862 -0.062386 1.206461 0.007836 0.022119 464484.000000 0 0 1
34.805747 1.334936 13.251455 37.266917 0.038335 1.207259 0.022349 0.028739 338779.000000 0 0 1
34.397103 1.089836 14.760255 37.446142 0.031673 1.165629 0.019235 0.029834 -232868.000000 0 0 1
-34.793205 0.120036 15.448355 38.068795 -0.003450 1.152941 0.024951 0.025154 36134.400000 0 0 1
34.876686 0.137136 16.820455 38.721179 0.003932 1.121425 0.025571 0.015065 252310.000000 0 0 1
-34.016287 -0.648564 17.691655 38.347399 0.019064 1.091278 0.026115 0.014386 823229.000000 0 0 1
-32.688967 -0.131464 17.590355 37.121509 0.004022 1.077129 0.021976 0.008369 1172680.000000 0 0 1
-31.631397 -0.790964 18.331355 36.567875 0.025000 1.045700 0.030970 -0.002088 879972.000000 0 0 1
-31.649247 -0.716264 19.898555 37.391715 0.022627 1.009641 0.021940 -0.010459 -664063.000000 0 0 1
-32.693267 -1.413364 20.535855 38.633776 0.043204 1.010365 0.018421 -0.007267 17780.800000 0 0 1
-32.629887 -1.315764 21.950855 39.348199 0.040302 0.978989 0.010764 -0.003801 267524.000000 0 0 1
-33.454187 -2.505064 22.524155 40.407864 0.074741 0.979521 0.005789 0.001997 141664.000000 0 0 1
-32.809987 -3.742264 22.240955 39.814066 0.113568 0.978075 0.009421 -0.003109 86914.300000 0 0 1
-33.415677 -4.913464 22.708155 40.699016 0.145995 0.978879 0.008534 -0.000174 -516328.000000 0 0 1
-33.669247 -4.994264 24.243655 41.788942 0.147259 0.951889 0.008049 -0.010125 68609.400000 0 0 1
-32.508907 -4.882064 25.055425 41.333254 0.149062 0.919547 0.005908 -0.011332 -354487.000000 0 0 1
-32.771977 -4.847864 26.422705 42.375271 0.146862 0.897533 0.008088 -0.012994 -161473.000000 0 0 1
-31.695297 -4.139064 27.290265 42.029540 0.129854 0.864118 0.005568 -0.003727 174582.000000 0 0 1
-31.503747 -2.763464 26.987315 41.574487 0.087495 0.864354 0.006875 0.002718 -399544.000000 0 0 1
-30.626107 -2.577364 25.918495 40.204099 0.083958 0.870201 0.003244 0.000038 -809630.000000 0 0 1
-30.451407 -1.067864 25.668485 39.840929 0.035053 0.870722 0.002532 -0.001016 -118808.000000 0 0 1
-31.600367 -0.389664 25.238155 40.443782 0.012330 0.896906 0.024344 -0.018072 56012.700000 0 0 1
-31.287217 1.047436 25.157225 40.160590 -0.033466 0.893850 -0.007226 0.002641 -609124.000000 0 0 1
-32.519277 1.901436 24.901295 41.002357 -0.058405 0.918121 0.033706 0.000050 -327484.000000 0 0 1
-33.214207 1.459436 23.743355 40.854135 -0.043912 0.950626 0.029020 0.005339 494310.000000 0 0 1
-34.460631 2.099836 23.430555 41.724516 -0.060859 0.974534 0.011046 0.015259 974246.000000 0 0 1
-34.261436 3.575836 22.863755 41.344696 -0.103993 0.984832 0.014509 0.015848 -311632.000000 0 0 1
-33.748717 3.614936 21.527255 40.192864 -0.106706 1.005580 0.025518 -0.006702 -183660.000000 0 0 1
-34.654841 3.334136 20.488555 40.396229 -0.095915 1.038875 0.010046 0.000076 -29382.500000 0 0 1
-33.936607 2.738536 19.221555 39.098095 -0.080521 1.056843 0.019761 -0.001980 -159378.000000 0 0 1
-33.116487 3.611936 18.539755 38.124405 -0.108638 1.062950 0.026235 0.000444 -262139.000000 0 0 1
-32.644177 2.985836 17.331655 37.080234 -0.091212 1.084438 0.031543 0.013261 296883.000000 0 0 1
-31.662997 3.927436 16.520455 35.929035 -0.123408 1.093017 0.019829 0.012275 484659.000000 0 0 1
-32.295477 5.164236 16.216455 36.505350 -0.158563 1.110491 0.018070 0.001452 481668.000000 0 0 1
-31.467697 5.926036 15.305855 35.490886 -0.186141 1.124906 0.014800 0.007969 468641.000000 0 0 1
-31.956167 7.355836 14.951555 36.039616 -0.226244 1.143003 0.025390 -0.014534 177354.000000 0 0 1
-31.072867 7.863836 13.972555 34.965629 -0.247873 1.159707 0.021219 -0.004887 186683.000000 0 0 1
-31.410067 9.198536 13.662855 35.466589 -0.284887 1.175337 0.010858 -0.012509 -504739.000000 0 0 1
-30.555447 9.824936 12.548155 34.461876 -0.311103 1.198112 0.009095 -0.007954 -395748.000000 0 0 1
-30.890567 11.169436 12.257855 35.060496 -0.346954 1.213631 0.006585 -0.006975 259243.000000 0 0 1
-30.344077 11.607636 11.020455 34.306714 -0.365359 1.243765 -0.011818 -0.009794 -143377.000000 0 0 1
-30.675607 13.097636 10.831555 35.069410 -0.403540 1.256802 -0.004426 -0.004711 11849.600000 0 0 1
-29.924477 13.720436 9.826955 34.355403 -0.429902 1.280707 -0.014161 -0.002733 172426.000000 0 0 1
-29.794887 15.072836 10.100255 34.884679 -0.468346 1.277058 -0.006297 -0.000776 36469.300000 0 0 1
-29.108227 15.968736 8.973055 34.391934 -0.501767 1.306836 0.000922 -0.001926 139623.000000 0 0 1
-27.712437 15.744936 8.987555 33.115831 -0.516674 1.295952 -0.000466 0.006395 -9510.070000 0 0 1
-26.986087 16.477936 8.048655 32.627474 -0.548183 1.321540 -0.003257 -0.008026 981849.000000 0 0 1
-25.451957 16.545136 8.463855 31.514766 -0.576413 1.298890 0.012796 -0.000075 762401.000000 0 0 1
-25.199187 17.239236 9.667255 32.025710 -0.599988 1.264154 0.009142 0.001840 256240.000000 0 0 1
-25.516767 18.636036 9.772755 33.074370 -0.630803 1.270840 0.005084 -0.000960 -268566.000000 0 0 1
-25.736977 19.184436 11.252755 34.015570 -0.640553 1.233633 0.017556 0.015594 213446.000000 0 0 1
-24.505097 19.335136 11.946555 33.422558 -0.668013 1.205271 0.010163 0.023105 291252.000000 0 0 1
-24.543397 19.978336 13.253655 34.309934 -0.683220 1.174188 0.019896 0.013501 22778.600000 0 0 1
-25.128927 19.140236 14.444355 34.734003 -0.650935 1.141912 0.013512 0.010852 194651.000000 0 0 1
-24.356997 17.975536 14.654055 33.632194 -0.635779 1.119964 0.028561 0.004557 194194.000000 0 0 1
-24.730397 17.320336 15.868055 34.108382 -0.610972 1.086908 0.025522 0.003505 -402070.000000 0 0 1
-23.785897 16.181836 16.301255 33.065868 -0.597390 1.055269 0.022062 -0.000576 309821.000000 0 0 1
-22.586497 16.671236 16.939255 32.787472 -0.635846 1.027877 0.024966 -0.005190 314540.000000 0 0 1
-21.592697 15.688736 17.005055 31.647320 -0.628340 1.003528 0.004553 -0.023241 -247506.000000 0 0 1
-21.830597 14.522436 18.034455 31.823225 -0.587009 0.968292 0.009140 -0.000999 -549019.000000 0 0 1
-21.530297 14.777336 19.384355 32.521939 -0.601507 0.932237 0.020206 0.005374 95429.000000 0 0 1
-22.254797 13.899036 20.188655 33.106509 -0.558269 0.914976 0.012957 0.007226 -564073.000000 0 0 1
-22.232197 14.255136 21.698355 34.180375 -0.570159 0.883022 0.013528 0.005739 -85927.200000 0 0 1
-20.979797 14.034736 22.350155 33.714316 -0.589592 0.846074 0.005387 0.006998 138681.000000 0 0 1
-20.243397 15.228936 22.273955 33.731953 -0.644966 0.849549 0.011485 0.020747 -843402.000000 0 0 1
-18.723197 14.979536 22.466455 32.858578 -0.674773 0.817932 0.016891 0.009690 86969.700000 0 0 1
-18.112697 14.329736 21.378655 31.471543 -0.669317 0.823986 0.004597 0.002959 -143585.000000 0 0 1
-17.864397 15.141736 20.243455 30.954907 -0.703095 0.857981 0.005199 0.003360 -1491360.000000 0 0 1
-16.643797 14.599136 19.455955 29.473461 -0.720047 0.849821 -0.006781 0.000499 1737320.000000 0 0 1
-15.364797 14.517136 20.156755 29.208200 -0.757039 0.809161 -0.012116 0.003060 1196620.000000 0 0 1
-14.891097 15.727836 20.723255 29.976038 -0.812719 0.807472 -0.024727 0.002898 -1359320.000000 0 0 1
-13.763997 15.576736 21.744455 30.081616 -0.847102 0.762880 -0.048658 0.019706 -866198.000000 0 0 1
-12.641297 14.928836 21.272455 28.899651 -0.868180 0.743536 -0.019329 0.006885 -1213070.000000 0 0 1
-11.747597 14.757036 22.307655 29.213141 -0.898458 0.701899 0.013973 0.007923 -364511.000000 0 0 1
-10.561797 13.842436 21.958255 28.023732 -0.919026 0.670422 0.005910 0.006808 -982290.000000 0 0 1
-10.195297 12.884936 22.927455 28.206982 -0.901409 0.621804 0.019973 0.001828 557049.000000 0 0 1
-9.010197 12.139336 22.663255 27.242802 -0.932286 0.588276 0.021380 0.012309 -18644.400000 0 0 1
-7.637897 12.782836 22.693555 27.142877 -1.032208 0.580702 0.014350 0.017905 -979770.000000 0 0 1
-7.417597 13.585636 21.598255 26.572069 -1.071038 0.621823 0.007493 0.017009 -422055.000000 0 0 1
-6.472897 14.613436 21.807155 27.037065 -1.153828 0.632478 0.015111 0.019763 -183208.000000 0 0 1
-6.927297 15.830136 22.700355 28.528700 -1.158300 0.650630 0.012009 0.013871 460673.000000 0 0 1
-8.045197 16.520136 22.089555 28.733056 -1.117608 0.693857 -0.019684 0.019055 408540.000000 0 0 1
-7.694697 17.432836 21.033255 28.381507 -1.155125 0.736104 -0.003485 0.025117 -1053550.000000 0 0 1
-8.722297 17.425936 19.863755 27.826434 -1.106721 0.775823 0.001910 0.026052 767705.000000 0 0 1
-9.909897 18.202236 19.947555 28.765124 -1.072237 0.804512 -0.024900 0.032975 509773.000000 0 0 1
-10.693697 18.020136 21.152955 29.774619 -1.035221 0.780679 -0.018616 0.023820 -1592680.000000 0 0 1
-11.950897 18.851636 21.152655 30.751307 -1.005791 0.812257 -0.027578 0.020840 -83042.600000 0 0 1
-12.826497 18.527836 20.018455 30.141968 -0.965269 0.844455 -0.016862 0.021828 719391.000000 0 0 1
-13.889997 19.476736 19.967255 31.160336 -0.951294 0.875268 -0.014997 0.009614 122973.000000 0 0 1
-14.619597 19.507036 18.631055 30.681807 -0.927646 0.918221 0.003494 0.009164 -442532.000000 0 0 1
-15.383897 18.350536 18.352455 30.169837 -0.873113 0.916873 0.007397 0.007260 -267486.000000 0 0 1
-15.909497 18.521536 17.083255 29.799278 -0.861116 0.960296 0.019698 -0.007404 -897601.000000 0 0 1
-16.915597 17.379336 16.756855 29.478312 -0.798919 0.966179 0.015052 -0.012962 585109.000000 0 0 1
-18.031597 17.207936 17.610555 30.518571 -0.762029 0.955692 0.020752 -0.018766 -51273.400000 0 0 1
-18.994997 18.223236 17.632155 31.682631 -0.764665 0.980600 0.030927 -0.016050 -788381.000000 0 0 1
32.965432 -10.115164 12.340772 36.624184 -0.297722 1.227113 0.006490 0.014269 -549841.000000 0 0 1
31.663182 -10.477164 11.993172 35.442407 -0.319554 1.225596 -0.008451 0.022471 -316288.000000 0 0 1
31.273982 -11.726964 12.624472 35.706595 -0.358749 1.209421 0.013144 0.012530 -173778.000000 0 0 1
29.802612 -12.101364 12.310172 34.440950 -0.385711 1.205283 -0.000921 0.018711 -529534.000000 0 0 1
29.029602 -11.110664 13.000972 33.692579 -0.365535 1.174645 -0.004953 0.021843 -564861.000000 0 0 1
27.673112 -11.408764 12.878172 32.585401 -0.391038 1.164497 -0.007917 0.015568 -307780.000000 0 0 1
27.056212 -12.425564 13.888772 32.853177 -0.430520 1.134316 -0.028606 0.017155 -803656.000000 0 0 1
27.279132 -11.828264 15.114772 33.354388 -0.409133 1.100493 -0.022599 0.013398 61507.500000 0 0 1
26.628642 -12.466564 16.176872 33.558769 -0.437856 1.067808 -0.021474 0.010572 995878.000000 0 0 1
25.123172 -12.014464 16.401872 32.319383 -0.446074 1.038523 -0.024072 0.006705 488367.000000 0 0 1
24.970662 -10.672464 16.740172 31.900922 -0.403902 1.018369 -0.030090 0.015858 28046.800000 0 0 1
24.572382 -9.918064 15.584472 30.741596 -0.383629 1.039153 -0.017250 0.008152 -205608.000000 0 0 1
24.316682 -8.372664 15.849772 30.209565 -0.331604 1.018480 0.007288 -0.008033 -796231.000000 0 0 1
25.429832 -7.582964 16.015672 30.994829 -0.289797 1.027780 -0.017066 -0.002109 -1108790.000000 0 0 1
25.116692 -6.358964 16.500372 30.717209 -0.247966 1.003718 -0.005200 0.004037 -110510.000000 0 0 1
26.270062 -5.331764 16.517572 31.486093 -0.200240 1.018552 -0.004631 0.006662 136110.000000 0 0 1
26.637882 -4.907164 15.187572 31.053492 -0.182175 1.059764 0.011597 0.010500 712365.000000 0 0 1
27.916822 -4.272964 15.122172 32.035718 -0.151882 1.079192 0.005486 0.018279 351997.000000 0 0 1
28.035342 -3.466664 13.801672 31.440170 -0.123029 1.116331 0.008070 0.016861 -317637.000000 0 0 1
28.482912 -4.232564 12.701072 31.472338 -0.147521 1.155389 -0.008395 0.021534 375790.000000 0 0 1
28.722212 -3.385564 11.603272 31.161890 -0.117331 1.189252 -0.002485 0.020438 -98760.800000 0 0 1
29.099932 -4.184064 10.293172 31.149026 -0.142804 1.234017 0.006533 0.018183 -794969.000000 0 0 1
30.329872 -4.808464 10.284472 32.385071 -0.157230 1.247632 0.013847 0.014455 -708587.000000 0 0 1
30.496582 -5.679464 9.187972 32.353000 -0.184124 1.282842 0.013276 0.006482 -380296.000000 0 0 1
31.855802 -6.377364 9.305272 33.794245 -0.197583 1.291842 0.009801 0.008602 272035.000000 0 0 1
32.957292 -5.511264 8.981072 34.600820 -0.165691 1.308227 0.006315 0.008451 610997.000000 0 0 1
34.142176 -6.265564 8.779172 35.805297 -0.181494 1.323079 0.013938 -0.000535 -114313.000000 0 0 1
-34.538910 -5.571464 8.314772 35.959879 0.159932 1.337461 0.014398 -0.004684 -434269.000000 0 0 1
-34.602543 -4.942264 7.071972 35.661951 0.141870 1.371167 0.016257 -0.008690 372567.000000 0 0 1
-33.457937 -4.136964 6.793072 34.390316 0.123022 1.371960 0.008432 0.005684 -172142.000000 0 0 1
-33.686707 -3.262664 5.548572 34.296149 0.096552 1.408298 0.011957 -0.010884 -664887.000000 0 0 1
-33.183927 -3.877464 4.401272 33.698352 0.116320 1.439814 0.012211 -0.009913 96579.300000 0 0 1
-33.224417 -3.058264 3.231572 33.521007 0.091790 1.474242 0.007305 -0.004066 -322392.000000 0 0 1
-32.437787 -3.649264 2.056372 32.707121 0.112029 1.507883 0.017495 -0.003032 -292460.000000 0 0 1
-32.908557 -4.891364 1.632072 33.310092 0.147555 1.521780 0.020365 0.002922 148136.000000 0 0 1
-33.938527 -4.811164 0.632872 34.283690 0.140823 1.552335 0.018632 0.005762 249995.000000 0 0 1
-33.482117 -4.913964 -0.882628 33.852300 0.145724 1.596872 0.038682 0.006731 -833160.000000 0 0 1
-33.279217 -6.244164 -1.314528 33.885452 0.185473 1.609599 0.031597 0.001584 446747.000000 0 0 1
-32.315637 -6.368264 -2.368228 33.022169 0.194571 1.642574 0.035349 -0.000799 937510.000000 0 0 1
-30.823147 -6.129964 -1.956128 31.487605 0.196314 1.632960 0.041856 -0.003580 -352622.000000 0 0 1
-30.396447 -7.091964 -1.134828 31.233440 0.229215 1.607138 0.042367 -0.000353 -658658.000000 0 0 1
-29.355587 -6.605064 -0.354528 30.091577 0.221316 1.582578 0.026430 -0.008173 -694251.000000 0 0 1
-28.879667 -7.657664 0.651072 29.884760 0.259193 1.549009 0.005872 0.000837 -637704.000000 0 0 1
-28.228427 -8.688264 -0.033728 29.535252 0.298583 1.571938 0.007584 -0.000744 262549.000000 0 0 1
-27.776527 -9.698564 0.795772 29.431800 0.335930 1.543755 0.018109 0.000029 -339425.000000 0 0 1
-27.501207 -11.050464 0.070772 29.638389 0.382072 1.568408 0.009588 -0.003446 246178.000000 0 0 1
-26.495147 -11.014564 -0.951028 28.709195 0.393984 1.603929 0.010042 -0.009327 738170.000000 0 0 1
-25.984477 -12.269264 -1.419228 28.770507 0.441142 1.620146 0.006517 0.003121 -432649.000000 0 0 1
-26.898417 -13.154964 -2.276528 30.029327 0.454858 1.646679 0.007990 -0.000194 -514608.000000 0 0 1
-27.818797 -13.919964 -1.523828 31.144388 0.463951 1.619744 0.020104 -0.008244 240156.000000 0 0 1
-28.223517 -15.058464 -2.271828 32.070008 0.490121 1.641695 0.014016 -0.013557 -247526.000000 0 0 1
-29.120427 -16.070364 -1.521328 33.295199 0.504269 1.616504 0.019464 -0.012857 48942.800000 0 0 1
-28.503247 -16.505864 -0.339928 32.939250 0.524900 1.581116 0.001718 -0.002300 206006.000000 0 0 1
-29.356797 -17.364464 0.395572 34.110154 0.534144 1.559199 0.008367 0.002772 -349248.000000 0 0 1
-29.302797 -18.875964 0.083872 34.856319 0.572265 1.568390 0.008240 -0.003257 -301837.000000 0 0 1
-28.108287 -19.583464 0.329872 34.259257 0.608518 1.561167 0.017737 -0.006097 -10383.300000 0 0 1
-28.167747 -20.955864 0.085772 35.108084 0.639629 1.568353 0.029063 -0.008917 118591.000000 0 0 1
-29.043667 -21.769564 1.073472 36.312544 0.643210 1.541230 0.033656 -0.009360 -51130.600000 0 0 1
-28.424397 -21.757864 2.349372 35.872978 0.653325 1.505258 0.037636 -0.012906 -126978.000000 0 0 1
-29.301087 -22.354564 3.256172 36.998417 0.651723 1.482674 0.040424 -0.012600 15627.500000 0 0 1
-28.683537 -22.530364 4.688772 36.774273 0.665825 1.442947 0.026846 -0.016890 -34101.600000 0 0 1
-28.074347 -21.365264 5.176172 35.657204 0.650520 1.425117 0.013739 -0.014084 29467.800000 0 0 1
-27.697637 -21.504364 6.546572 35.671478 0.660182 1.386226 -0.008687 -0.015894 109436.000000 0 0 1
-27.067417 -20.220664 7.114472 34.527323 0.641609 1.363256 -0.013187 -0.005802 -230628.000000 0 0 1
-26.339727 -20.311264 8.281372 34.276957 0.656886 1.326780 -0.018344 -0.002792 -377723.000000 0 0 1
-25.799847 -18.981964 8.508972 33.141359 0.634312 1.311141 -0.012735 -0.006120 366363.000000 0 0 1
-24.793797 -18.972364 9.680872 32.686423 0.653162 1.270112 -0.016375 0.003053 -24560.400000 0 0 1
-25.453407 -19.286364 10.880672 33.737646 0.648419 1.242418 -0.022343 0.001476 -136798.000000 0 0 1
-24.594897 -19.333264 11.988372 33.502315 0.666188 1.204846 -0.014717 0.023822 -368338.000000 0 0 1
-24.429797 -17.978764 12.719672 32.891351 0.634439 1.173726 -0.014037 0.010547 -56610.600000 0 0 1
-23.412997 -17.144364 12.120872 31.448580 0.632049 1.175135 -0.014543 0.006629 456540.000000 0 0 1
-22.952197 -16.177364 13.039972 30.960480 0.613959 1.136049 -0.008532 0.013684 -22806.700000 0 0 1
-22.076197 -16.559164 14.237872 31.052880 0.643560 1.094485 0.012876 0.013704 -352018.000000 0 0 1
-22.840197 -17.221364 15.272772 32.426957 0.646052 1.080384 0.004301 0.000633 239409.000000 0 0 1
-22.030797 -17.578064 16.375872 32.596220 0.673451 1.044441 0.022078 0.003341 -103681.000000 0 0 1
-22.801597 -18.407564 17.436972 34.099842 0.679172 1.034041 0.008792 0.024628 -5255.190000 0 0 1
-23.714897 -17.615364 18.146272 34.669649 0.638876 1.019954 0.018876 0.007183 30345.800000 0 0 1
-24.494397 -18.395164 19.066972 36.081948 0.644137 1.014040 0.005370 0.019194 93798.900000 0 0 1
-25.614767 -17.621064 19.767172 36.842357 0.602577 1.004472 0.009564 0.020727 -209935.000000 0 0 1
-25.097927 -16.958064 20.897372 36.799212 0.594214 0.966874 0.014813 0.019378 215441.000000 0 0 1
-25.994347 -15.982164 21.408672 37.275553 0.551254 0.959004 0.016578 0.013438 -36850.300000 0 0 1
-25.433137 -15.194664 22.612972 37.270213 0.538532 0.918855 0.010927 0.014147 200123.000000 0 0 1
-24.365097 -14.365464 22.195672 35.953753 0.532731 0.905440 0.007591 0.013101 -393833.000000 0 0 1
-23.354197 -14.216464 23.126872 35.810314 0.546816 0.868705 0.002467 0.013451 -662784.000000 0 0 1
-22.200797 -13.384364 22.567672 34.370284 0.542533 0.854489 0.006898 0.017203 -397377.000000 0 0 1
-22.534597 -12.025564 22.381072 33.960781 0.490203 0.851272 0.003435 0.014092 1069730.000000 0 0 1
-21.431297 -11.370364 21.701372 32.550503 0.487787 0.841026 -0.001285 0.016830 213217.000000 0 0 1
-21.232397 -9.883564 22.164972 32.245705 0.435664 0.812924 -0.005754 0.012976 -17285.200000 0 0 1
-20.808897 -9.781064 23.494072 32.873254 0.439396 0.774620 -0.011074 0.008719 -450979.000000 0 0 1
-19.468297 -10.139564 23.655872 32.271127 0.480168 0.748023 -0.008315 0.008388 -903936.000000 0 0 1
-18.950197 -10.052664 25.102472 33.019693 0.487732 0.707133 -0.016065 0.009266 362959.000000 0 0 1
-19.392997 -11.179364 25.857272 34.200366 0.522934 0.713536 -0.012845 0.014901 230790.000000 0 0 1
-18.445197 -11.325664 26.896472 34.524139 0.550662 0.677627 -0.015180 0.011764 -590593.000000 0 0 1
-18.571397 -12.707364 27.661572 35.658610 0.600073 0.682920 -0.018959 -0.004475 -252343.000000 0 0 1
-19.681697 -12.834064 28.496272 36.933994 0.577837 0.689529 -0.013262 0.000732 -860884.000000 0 0 1
-20.824797 -13.244464 27.816872 37.186911 0.566467 0.725710 -0.024257 0.006782 98923.200000 0 0 1
-22.066697 -13.784464 28.628072 38.684843 0.558364 0.737676 -0.019286 0.003002 -15864.600000 0 0 1
-21.955697 -15.039564 29.337872 39.609997 0.600585 0.736732 -0.012038 -0.001499 -314595.000000 0 0 1
-21.187897 -14.892464 30.516972 40.024968 0.612654 0.703708 -0.011611 0.000200 -196884.000000 0 0 1
-21.441397 -15.954764 31.664772 41.436045 0.639721 0.701021 -0.006594 -0.005189 -891859.000000 0 0 1
-21.206397 -17.302164 31.334172 41.604164 0.684357 0.717959 -0.001172 -0.000380 -205830.000000 0 0 1
-21.419997 -18.116264 32.455372 42.899493 0.702030 0.712784 0.014973 -0.003892 -314613.000000 0 0 1
-22.841797 -18.395564 32.980872 44.134821 0.677993 0.726844 0.021587 -0.003743 -359260.000000 0 0 1
-23.330997 -17.292364 33.695172 44.482872 0.637829 0.711342 0.035565 -0.004884 -281879.000000 0 0 1
-24.652297 -17.512764 34.141772 45.608039 0.617666 0.724862 0.040184 -0.012279 33705.000000 0 0 1
-25.286117 -16.322164 -34.339210 45.661604 0.573205 2.421943 0.042863 -0.012756 -45596.100000 0 0 1
-24.698797 -16.058564 -33.109110 44.318407 0.576499 2.414445 0.059488 -0.016617 -242552.000000 0 0 1
-25.363677 -14.974264 -32.519010 43.875172 0.533318 2.405610 0.060463 -0.016494 -396693.000000 0 0 1
-24.863397 -14.591964 -31.099910 42.406584 0.530721 2.394069 0.053378 -0.008124 -157705.000000 0 0 1
-25.279477 -15.398164 -30.025610 42.162693 0.547096 2.363334 0.060417 -0.003030 427373.000000 0 0 1
-24.603897 -14.970064 -28.821210 40.744530 0.546604 2.356558 0.067552 -0.001286 336526.000000 0 0 1
-25.165117 -15.768964 -27.597810 40.541121 0.559763 2.319564 0.050925 0.000897 546112.000000 0 0 1
-26.452197 -15.452364 -27.068810 40.880494 0.528692 2.294474 0.063204 -0.001653 514990.000000 0 0 1
-26.549317 -14.275364 -26.223810 39.954230 0.493345 2.286762 0.039004 0.003252 -140876.000000 0 0 1
-25.642517 -14.170664 -24.911610 38.456920 0.504855 2.275463 0.015141 0.002125 635867.000000 0 0 1
-24.281197 -13.836764 -25.222110 37.645550 0.517959 2.304991 -0.001040 -0.000443 1038400.000000 0 0 1
-23.448697 -14.108664 -24.086710 36.456349 0.541656 2.292547 -0.010935 -0.000718 257537.000000 0 0 1
-22.766797 -15.513664 -23.992310 36.532612 0.598144 2.287280 -0.008410 -0.007465 -660702.000000 0 0 1
-21.967197 -15.834464 -25.103910 36.925524 0.624565 2.318358 0.005402 0.005768 97250.700000 0 0 1
-21.693697 -17.244164 -25.201510 37.457894 0.671619 2.308778 0.021560 0.008905 -190218.000000 0 0 1
-20.728397 -17.583564 -26.353310 37.859545 0.703497 2.340721 0.019871 0.012539 -407827.000000 0 0 1
-21.201997 -17.487064 -27.653010 38.987319 0.689671 2.359276 0.030372 0.009352 -152445.000000 0 0 1
-22.204697 -18.428064 -27.945310 40.169422 0.692719 2.340171 0.044976 -0.000930 -386500.000000 0 0 1
-22.792497 -18.340064 -29.342910 41.435036 0.677572 2.357694 0.045489 -0.004442 -145116.000000 0 0 1
-21.989297 -18.930064 -30.357110 41.993221 0.710775 2.378794 0.054518 -0.002615 514435.000000 0 0 1
-22.500497 -18.670264 -31.682810 43.112082 0.692632 2.396307 0.040924 -0.000461 644372.000000 0 0 1
-21.512597 -19.285164 -32.772210 43.688982 0.730855 2.419048 0.042161 -0.006040 1069530.000000 0 0 1
-20.309997 -18.522964 -32.973410 42.928335 0.739412 2.446671 0.030593 0.002250 1071570.000000 0 0 1
-19.057797 -19.187164 -32.844510 42.545373 0.788781 2.452759 0.032377 -0.005049 622634.000000 0 0 1
-18.627397 -20.382764 -33.721910 43.584449 0.830366 2.455479 0.029095 -0.003423 -889739.000000 0 0 1
-18.372097 -20.006264 34.264272 43.724420 0.827953 0.670290 0.035288 -0.007455 17970.500000 0 0 1
-18.359897 -20.993464 33.265772 43.409941 0.852220 0.697708 0.021230 -0.012314 -184946.000000 0 0 1
-19.721997 -21.458764 32.705072 43.807048 0.827547 0.727903 0.017670 -0.005255 126445.000000 0 0 1
-20.385097 -22.366264 33.605472 45.223110 0.831707 0.733099 0.024253 -0.006466 838039.000000 0 0 1
-21.630197 -22.921664 33.123672 45.721393 0.814378 0.760534 0.029315 0.001151 803639.000000 0 0 1
-21.481997 -24.130564 32.171572 45.593534 0.843400 0.787503 0.024985 0.012920 -201356.000000 0 0 1
-20.838897 -25.212414 32.857872 46.363404 0.880085 0.783139 0.027087 0.012781 -193988.000000 0 0 1
-21.014997 -26.425034 32.200572 46.656075 0.898947 0.809074 0.028764 0.020968 20584.500000 0 0 1
-20.376897 -27.719114 32.788672 47.525406 0.936886 0.809419 0.021887 0.006431 -306803.000000 0 0 1
-21.091697 -28.126994 33.928472 48.858251 0.927376 0.803174 0.034863 0.002179 -19405.700000 0 0 1
-20.586497 -29.209894 -34.560110 49.713408 0.956871 2.339476 0.036235 -0.008984 -930805.000000 0 0 1
-21.700797 -29.825384 -33.723410 49.977460 0.941789 2.311453 0.042028 -0.018504 -55543.600000 0 0 1
-22.688497 -30.611934 -34.399510 51.334050 0.932974 2.305155 0.045136 -0.014553 807031.000000 0 0 1
-23.739397 -29.854504 34.224372 51.246054 0.899008 0.839488 0.040296 -0.009850 -286484.000000 0 0 1
-25.027397 -29.913984 -34.203110 51.875522 0.874107 2.290724 0.026009 -0.011144 -686756.000000 0 0 1
-25.985117 -29.030584 34.517172 52.052246 0.840698 0.845810 0.024016 0.000563 155732.000000 0 0 1
-26.959847 -28.694334 -33.763410 51.866810 0.816554 2.279650 0.017625 0.005843 -203970.000000 0 0 1
-27.982937 -27.669724 -34.241110 52.164279 0.779770 2.286845 0.011764 -0.008885 -911073.000000 0 0 1
-29.059287 -28.302854 34.453672 53.221699 0.772212 0.866679 0.011558 -0.009854 -1266460.000000 0 0 1
-30.139837 -27.473884 34.202172 53.226052 0.739158 0.872931 -0.001613 -0.017113 -309457.000000 0 0 1
