# x y z rho theta phi s1 s2 stress_xx np intf bulk
-0.723824 -10.770557 -14.322092 17.934635 1.503693 2.495715 0.007881 0.000445 -1578830.000000 1 0 0
2.222776 -13.526257 -13.037592 18.917694 -1.407922 2.331145 0.012764 0.004339 -56600.300000 1 0 0
2.136976 -11.238657 -14.743792 18.661551 -1.382894 2.481707 0.004466 0.002406 -116421.000000 1 0 0
-5.568224 -6.301857 -16.344092 18.380638 0.847125 2.666393 0.026148 -0.005417 -313186.000000 1 0 0
4.629476 -14.128757 -11.466692 18.776018 -1.254157 2.227753 0.008539 0.003716 1327870.000000 1 0 0
14.139676 -10.644957 -7.816692 19.348029 -0.645318 1.986687 0.044999 -0.010328 714080.000000 1 0 0
6.963376 10.815343 -10.868492 16.839963 0.998762 2.272342 0.031093 -0.011173 -515051.000000 1 0 0
5.730076 -4.132457 -12.550992 14.402721 -0.624804 2.628911 0.004266 -0.001074 1812290.000000 1 0 0
13.729876 0.612743 -10.025292 17.011508 0.044599 2.201018 0.030851 -0.004350 665480.000000 1 0 0
14.175176 5.055143 -10.475092 18.336238 0.342560 2.178859 0.032336 -0.008053 522490.000000 1 0 0
4.097776 4.334943 -13.527992 14.784792 0.813515 2.726289 0.013056 0.000273 1486220.000000 1 0 0
10.266876 -5.007957 -13.599392 17.760401 -0.453822 2.442947 0.029104 -0.003983 -466599.000000 1 0 0
2.612076 -7.521557 -11.984892 14.388690 -1.236548 2.555193 -0.001945 0.001845 -119914.000000 1 0 0
-5.615324 -1.999757 -15.191192 16.318799 0.342121 2.767669 0.018593 -0.006052 158557.000000 1 0 0
10.731776 0.202743 -9.638692 14.426243 0.018890 2.302497 0.011354 -0.003242 3575740.000000 1 0 0
-1.676124 -9.540657 -16.796492 19.389576 1.396889 2.618471 0.023482 -0.008648 604614.000000 1 0 0
8.724576 1.610143 -17.918092 19.994219 0.182499 2.681843 0.043517 -0.009337 -813708.000000 1 0 0
16.326876 -5.910557 -8.783992 19.459190 -0.347337 2.039137 0.089441 -0.006570 -2171240.000000 1 0 0
10.071776 7.617743 -9.912692 16.054038 0.647550 2.236303 0.030606 -0.008089 987540.000000 1 0 0
13.786576 -2.159757 -10.599392 17.523736 -0.155394 2.220385 0.046685 -0.006379 -792669.000000 1 0 0
7.225976 -1.745257 -13.663492 15.554795 -0.236987 2.643322 0.013000 -0.004677 1985330.000000 1 0 0
-2.829924 6.640943 -13.851692 15.619858 -1.167966 2.661171 0.004371 -0.003487 1136310.000000 1 0 0
11.279376 1.789343 -13.893092 17.984551 0.157327 2.453567 0.029109 -0.007513 777888.000000 1 0 0
-2.447924 10.820743 -13.062592 17.138032 -1.348316 2.437500 0.003732 0.001594 -836617.000000 1 0 0
2.862476 -1.054657 -15.290392 15.591734 -0.353009 2.944668 0.014432 -0.001817 811373.000000 1 0 0
-9.114624 0.392743 -15.288992 17.804042 -0.043063 2.603596 0.017000 0.002005 -376021.000000 1 0 0
2.492276 -1.894157 -17.967492 18.238148 -0.649877 2.969099 0.031891 -0.012403 849709.000000 1 0 0
0.989576 7.843743 -13.182392 15.371370 1.445298 2.601369 0.006309 -0.002874 291056.000000 1 0 0
9.399376 -9.055557 -9.810492 16.327802 -0.766770 2.215355 0.020176 -0.001280 277221.000000 1 0 0
3.873376 7.244143 -13.595492 15.884522 1.079783 2.598076 0.011484 -0.002298 360617.000000 1 0 0
-2.751624 9.074943 -15.623392 18.276116 -1.276396 2.596064 0.003813 -0.001739 -641313.000000 1 0 0
5.496276 -7.591657 -15.230292 17.883067 -0.944151 2.589941 0.021550 -0.007912 160206.000000 1 0 0
4.104676 7.185643 -16.480092 18.441130 1.051798 2.676232 0.020946 -0.002258 -622634.000000 1 0 0
-0.289124 5.036343 -13.517092 14.427755 -1.513452 2.784397 0.010488 -0.005635 1322020.000000 1 0 0
8.793276 4.147843 -16.662692 19.291750 0.440758 2.613404 0.037464 -0.008473 446353.000000 1 0 0
5.330176 0.314743 -14.398692 15.356828 0.058981 2.786483 0.006465 0.000998 328141.000000 1 0 0
6.233276 8.013543 -11.684892 15.479254 0.909713 2.426259 0.009951 0.000707 393708.000000 1 0 0
2.775176 -8.431657 -15.003392 17.432619 -1.252827 2.607342 0.010063 -0.004995 665589.000000 1 0 0
4.087876 11.307443 -13.914292 18.389576 1.223895 2.428955 0.018164 -0.011384 -1031540.000000 1 0 0
0.582176 -4.561657 -13.740392 14.489514 -1.443859 2.818629 0.008124 -0.003390 789133.000000 1 0 0
8.518676 0.009343 -11.647392 14.430165 0.001097 2.510115 0.005771 -0.002557 895860.000000 1 0 0
-1.013824 -5.045057 -16.280292 17.074201 1.372484 2.835447 0.012763 -0.008506 -418589.000000 1 0 0
4.463176 0.878043 -11.741592 12.591897 0.194250 2.771993 0.005919 -0.002748 534634.000000 1 0 0
-2.898924 -7.128757 -15.564592 17.363164 1.184569 2.682409 0.006292 -0.001390 1641750.000000 1 0 0
11.396376 -3.743757 -11.298992 16.479087 -0.317398 2.326301 0.016427 -0.002034 293632.000000 1 0 0
6.478076 -7.010757 -12.501192 15.728826 -0.824868 2.489466 0.016852 -0.000900 -1035870.000000 1 0 0
3.418476 -3.999857 -14.635492 15.552571 -0.863609 2.796469 0.011817 -0.005007 3092440.000000 1 0 0
-0.401524 -1.556557 -18.278792 18.349341 1.318343 3.053874 0.030846 -0.015351 1000220.000000 1 0 0
15.027176 3.026943 -8.487192 17.521724 0.198771 2.076452 0.028368 -0.005739 -1193880.000000 1 0 0
6.948876 4.390643 -14.354292 16.541170 0.563510 2.621538 0.015500 -0.002445 2788500.000000 1 0 0
10.121976 -9.702757 -13.964892 19.789292 -0.764255 2.354178 0.052056 -0.012848 197419.000000 1 0 0
9.103676 -3.245457 -15.508092 18.273227 -0.342453 2.584278 0.048221 -0.011353 272126.000000 1 0 0
-5.274824 -2.155557 -18.074192 18.951164 0.387941 2.836186 0.015959 0.001631 224586.000000 1 0 0
5.002376 -9.061657 -11.102592 15.179095 -1.066390 2.391227 -0.004482 0.004907 1702590.000000 1 0 0
-2.537324 3.956843 -17.298692 17.925941 -1.000597 2.876273 0.017804 -0.001558 1469800.000000 1 0 0
9.483376 9.398243 -14.556792 19.752508 0.780889 2.399357 0.067863 -0.009396 -1379150.000000 1 0 0
9.739776 10.041343 -11.623892 18.188091 0.800642 2.264115 0.041241 -0.016538 488084.000000 1 0 0
12.021176 -5.915557 -9.642992 16.507264 -0.457303 2.194649 0.028940 -0.001749 109741.000000 1 0 0
8.152676 6.997043 -13.791392 17.482197 0.709265 2.479784 0.021618 -0.001120 -1319860.000000 1 0 0
4.182676 -4.278057 -17.432292 18.430446 -0.796671 2.810975 0.036027 -0.013976 -211487.000000 1 0 0
9.278076 -7.455657 -12.298492 17.114976 -0.676919 2.372556 0.025731 -0.005959 710316.000000 1 0 0
12.072376 -8.669757 -8.740392 17.242430 -0.622803 2.102395 0.037580 -0.006875 258910.000000 1 0 0
-2.991424 -2.394457 -13.863292 14.383077 0.675009 2.871932 0.011521 -0.006884 -1595950.000000 1 0 0
-0.486724 6.028543 -17.739292 18.742004 -1.490234 2.813005 0.018641 -0.004395 762779.000000 1 0 0
1.022076 -8.453357 -17.360392 19.336160 -1.450473 2.685590 0.025034 -0.013979 -99999.400000 1 0 0
-0.035924 8.435543 -16.028192 18.112499 -1.566538 2.657128 0.006863 -0.001010 -1230170.000000 1 0 0
1.723876 3.325143 -14.973192 15.434533 1.092509 2.896479 0.017546 -0.002996 1596980.000000 1 0 0
-1.927524 -0.365657 -15.848092 15.969066 0.187475 3.018425 0.019608 -0.011405 2981100.000000 1 0 0
14.149476 -4.214157 -8.488092 17.029812 -0.289466 2.092578 0.048643 -0.002496 427137.000000 1 0 0
0.515876 0.676143 -14.536292 14.561150 0.919047 3.083153 0.011504 -0.004388 847531.000000 1 0 0
8.844876 2.804643 -12.565692 15.620322 0.307063 2.505537 0.015267 -0.003901 1765200.000000 1 0 0
5.928676 0.952543 -17.200992 18.218964 0.159306 2.805728 0.028840 0.004298 -631792.000000 1 0 0
15.372376 1.524043 -12.402992 19.810776 0.098819 2.247303 0.076778 -0.016569 -792893.000000 1 0 0
8.834976 -11.229657 -11.848792 18.562216 -0.904185 2.263121 0.038504 -0.003546 908357.000000 1 0 0
-4.746424 0.747143 -15.168592 15.911410 -0.156131 2.834828 0.016088 -0.007160 1370630.000000 1 0 0
2.245576 4.969343 -17.323592 18.161603 1.146375 2.836630 0.025718 -0.003172 1202230.000000 1 0 0
5.944576 -11.648657 -12.366892 17.999145 -1.098925 2.328262 0.011923 0.001223 1584040.000000 1 0 0
12.803476 7.155243 -8.751092 17.079464 0.509614 2.108745 0.017623 -0.011192 1307390.000000 1 0 0
-5.104024 3.633143 -15.774792 16.973357 -0.618614 2.763541 0.009101 -0.003481 1007360.000000 1 0 0
-0.611024 -4.377857 -19.111792 19.616309 1.432121 2.914303 0.030748 -0.012146 -1221970.000000 1 0 0
9.763676 4.477743 -10.279492 14.867666 0.429993 2.334220 0.008525 -0.003688 -265235.000000 1 0 0
13.345676 3.562143 -12.785592 18.821989 0.260833 2.317591 0.053145 -0.014648 -13079.400000 1 0 0
-6.231124 5.900443 -17.054092 19.091469 -0.758147 2.675394 0.009442 -0.004865 -1754610.000000 1 0 0
-10.318924 3.051843 -15.483592 18.855651 -0.287555 2.534245 0.028402 0.001748 -648550.000000 1 0 0
10.394776 13.639143 -8.306992 19.054755 0.919578 2.021894 0.087477 -0.020963 -678783.000000 1 0 0
7.325576 13.370443 -12.343692 19.616308 1.069572 2.251393 0.062205 -0.019436 286803.000000 1 0 0
5.153176 15.073443 -11.311592 19.537554 1.241382 2.188257 0.032406 -0.013052 -97528.300000 1 0 0
14.355076 9.511443 -9.696092 19.762337 0.585171 2.083615 0.090564 -0.026792 -392921.000000 1 0 0
8.432476 -17.215957 -1.932392 19.267329 -1.115337 1.671259 0.028292 -0.011557 -294818.000000 1 0 0
0.787076 -15.875757 0.001908 15.895256 -1.521260 1.570676 0.006422 -0.012120 1533570.000000 1 0 0
-9.174724 -11.722457 7.455308 16.648519 0.906717 1.106486 0.019546 -0.006837 318022.000000 1 0 0
2.165576 -15.867057 -2.547492 16.215515 -1.435152 1.728552 0.008598 -0.010360 709421.000000 1 0 0
-1.225824 -11.004557 -9.422492 14.539129 1.459861 2.275855 -0.004472 0.000158 -248201.000000 1 0 0
-4.693524 -12.717057 -12.943292 18.742506 1.217232 2.333094 0.027057 -0.006267 279662.000000 1 0 0
-8.261024 -17.766957 -1.503692 19.651218 1.135567 1.647390 0.052379 -0.027781 -2881070.000000 1 0 0
-11.330824 -7.111857 -8.868992 16.050704 0.560507 2.156230 0.026965 -0.006838 761869.000000 1 0 0
-13.458824 -11.521957 -4.756292 18.344420 0.708019 1.833070 0.030073 -0.004806 -561713.000000 1 0 0
-5.668024 -13.346057 9.693408 17.441499 1.169183 0.981511 0.015206 -0.011503 371096.000000 1 0 0
0.265576 -13.987557 -3.695992 14.470060 -1.551812 1.829082 0.004263 -0.006395 1523930.000000 1 0 0
-14.650224 -11.659257 1.994508 18.829376 0.672200 1.464672 -0.002339 0.002623 1182660.000000 1 0 0
-3.876924 -16.575157 -7.480292 18.593578 1.341027 1.984830 0.021590 -0.011727 -1442100.000000 1 0 0
0.568976 -15.330457 -9.192092 17.884105 -1.533699 2.110616 0.005849 -0.001088 2031890.000000 1 0 0
4.609976 -14.128057 -2.476192 15.066034 -1.255390 1.735901 0.006512 -0.005853 530807.000000 1 0 0
-3.346324 -17.983057 -2.411192 18.449988 1.386819 1.701859 0.021481 -0.021516 583270.000000 1 0 0
-0.800924 -13.424357 0.677308 13.465273 1.511205 1.520475 0.008545 -0.009235 3860730.000000 1 0 0
-8.463524 -11.498657 -10.435492 17.684735 0.936287 2.201960 0.035345 -0.007405 2148210.000000 1 0 0
-3.587824 -14.172557 -0.389992 14.624840 1.322852 1.597466 0.006932 -0.008038 3602770.000000 1 0 0
-1.501324 -14.997157 -7.276592 16.736711 1.471021 2.020577 0.008288 -0.003765 -10622.300000 1 0 0
-14.170924 -7.898857 -1.858692 16.329782 0.508506 1.684866 0.011266 -0.002842 1178650.000000 1 0 0
-10.704924 -7.417257 -11.669792 17.487000 0.605933 2.301429 0.040197 -0.005938 59114.900000 1 0 0
-9.353824 -14.694457 6.840208 18.713886 1.003931 1.196610 0.007320 -0.003110 -105842.000000 1 0 0
-2.345224 -14.308657 -12.247492 18.979958 1.408338 2.272193 0.020073 -0.005705 -580078.000000 1 0 0
2.418476 -17.683557 -4.761792 18.472463 -1.434875 1.831518 0.025749 -0.016342 100652.000000 1 0 0
-6.604824 -9.680157 -9.193792 14.894796 0.972045 2.236037 0.015442 -0.005625 1016600.000000 1 0 0
-10.861624 -15.274057 0.446208 18.747555 0.952649 1.546993 0.026340 -0.013048 1036970.000000 1 0 0
-12.602424 -10.982957 4.097108 17.211413 0.716842 1.330443 0.010685 -0.002370 2163630.000000 1 0 0
-16.938724 -9.107857 -1.602192 19.298717 0.493346 1.653913 0.004010 -0.000285 625290.000000 1 0 0
-1.293324 -19.292857 -3.953492 19.736188 1.503860 1.772478 0.038840 -0.019950 -1632960.000000 1 0 0
3.389276 -14.291557 -8.795292 17.119958 -1.337946 2.110340 0.011218 -0.003648 1371590.000000 1 0 0
-4.233224 -7.890657 -13.025592 15.806603 1.078388 2.539338 0.008664 -0.000418 736429.000000 1 0 0
5.607276 -16.488757 1.213208 17.458308 -1.242998 1.501249 0.020020 -0.015022 4737640.000000 1 0 0
-2.701924 -13.737757 -3.237892 14.370466 1.376596 1.798063 0.005747 -0.006083 -896308.000000 1 0 0
-0.287424 -13.845057 3.666708 14.325256 1.550039 1.311955 0.008698 -0.006270 -2712160.000000 1 0 0
1.284776 -16.087257 7.083008 17.624400 -1.491103 1.157220 0.027149 -0.008873 2571880.000000 1 0 0
-5.387624 -10.320357 -14.427292 18.538690 1.089674 2.462632 0.032587 -0.012096 -401791.000000 1 0 0
-0.257624 -17.264357 -5.870192 18.236873 1.555875 1.898517 0.024988 -0.013009 829656.000000 1 0 0
-6.444024 -13.375757 -1.167092 14.892899 1.121840 1.649242 0.013997 -0.008929 3300960.000000 1 0 0
-1.433524 -17.755557 -0.127292 17.813787 1.490234 1.577942 0.013369 -0.014221 1447210.000000 1 0 0
-9.403624 -9.802957 -4.878792 14.433597 0.806187 1.915605 0.015033 -0.003748 1437280.000000 1 0 0
-0.752824 -16.485557 4.934908 17.224797 1.525162 1.280224 0.013129 -0.011434 1914820.000000 1 0 0
-6.726024 -9.932557 -6.301992 13.550284 0.975558 2.054523 0.011813 -0.005301 3703930.000000 1 0 0
-5.912624 -14.547657 -8.547192 17.878701 1.184758 2.069247 0.016379 -0.010887 -591120.000000 1 0 0
-5.629724 -12.226557 -10.242392 16.914168 1.139286 2.221254 0.022706 -0.008193 750993.000000 1 0 0
-10.536724 -12.462457 -8.576692 18.436243 0.868934 2.054666 0.046657 -0.014140 -1023450.000000 1 0 0
4.019476 -17.108057 6.584308 18.766857 -1.340035 1.212320 0.050177 -0.014386 -235018.000000 1 0 0
-6.570024 -14.368857 -4.039592 16.307899 1.141937 1.821110 0.021240 -0.019013 26830.700000 1 0 0
-2.748624 -12.209857 -7.120792 14.399348 1.349372 2.088081 0.003444 -0.003653 1301040.000000 1 0 0
-6.990024 -12.807357 4.387108 15.235995 1.071197 1.278717 0.009984 -0.005560 2069070.000000 1 0 0
2.704876 -16.305257 2.351708 16.694559 -1.406404 1.429460 0.017212 -0.013943 1943390.000000 1 0 0
-6.195324 -11.967857 7.186008 15.272536 1.093118 1.080918 0.009570 -0.009008 1765000.000000 1 0 0
-11.225424 -12.854957 -1.050292 17.098631 0.852966 1.632261 0.027828 -0.002518 855109.000000 1 0 0
-14.303424 -8.655957 4.631508 17.348326 0.544210 1.300547 0.007323 -0.002185 -1018620.000000 1 0 0
-7.815024 -15.551657 4.467308 17.969014 1.105134 1.319550 0.003519 -0.001392 768594.000000 1 0 0
-16.367224 -9.241657 1.207308 18.834857 0.514017 1.506653 -0.010498 0.005763 -1789060.000000 1 0 0
-6.448624 -17.089557 2.414408 18.424632 1.209973 1.439376 0.007183 -0.006910 2212880.000000 1 0 0
-11.516724 -15.016557 -4.494492 19.450768 0.916545 1.803974 0.060372 -0.015186 -548041.000000 1 0 0
-10.092024 -10.094857 -12.494192 18.969974 0.785538 2.289793 0.041710 -0.005600 1431910.000000 1 0 0
-4.213224 -15.957457 -4.539092 17.117098 1.312659 1.839186 0.010557 -0.010791 -630616.000000 1 0 0
-11.757724 -8.216257 -0.026292 14.344046 0.609918 1.572629 -0.000629 0.001323 2001100.000000 1 0 0
-9.595824 -11.129857 3.503208 15.107152 0.859279 1.336775 0.007980 0.000824 2771050.000000 1 0 0
-14.134024 -13.056757 -0.507892 19.248571 0.745800 1.597185 0.015957 0.006312 -951513.000000 1 0 0
5.702576 -14.856457 -7.057292 17.408017 -1.204294 1.988218 0.011457 -0.011049 1178860.000000 1 0 0
-7.500224 -10.546557 -1.307592 13.007422 0.952624 1.671493 0.009907 -0.002916 1683950.000000 1 0 0
-11.628824 -8.216157 -6.064292 15.476125 0.615098 1.973436 0.017356 -0.006020 -479279.000000 1 0 0
-14.248424 -6.558257 -9.204192 18.186409 0.431369 2.101456 0.033856 -0.017484 1914600.000000 1 0 0
-3.669224 -16.465757 1.482608 16.934653 1.351539 1.483135 0.010475 -0.012291 2245540.000000 1 0 0
-7.855924 -15.470657 0.353408 17.354586 1.100932 1.550431 0.030123 -0.014498 1937660.000000 1 0 0
1.032076 -18.483057 3.729108 18.883718 -1.515015 1.372012 0.018776 -0.013521 1678760.000000 1 0 0
-14.053024 -8.727457 -4.614492 17.174095 0.555745 1.842828 0.022197 -0.009438 -504926.000000 1 0 0
-3.264424 -14.437257 11.146208 18.529134 1.348425 0.925356 0.012535 -0.016110 1176610.000000 1 0 0
-10.771924 -12.136057 -3.795592 16.665076 0.844876 1.800570 0.034122 -0.012025 432154.000000 1 0 0
-10.034624 -10.677357 0.561108 14.663372 0.816420 1.532521 0.008857 0.001865 1418070.000000 1 0 0
0.060376 -13.193657 -11.059692 17.216069 -1.566220 2.268429 0.006474 -0.004604 979669.000000 1 0 0
-5.741124 -12.660957 -6.275992 15.252817 1.145076 1.994857 0.007800 -0.010077 1957620.000000 1 0 0
1.958076 -15.836557 9.978808 18.820393 -1.447778 1.011945 0.032380 -0.010691 8903.170000 1 0 0
-8.928324 -15.785257 -5.131192 18.847240 1.056046 1.846529 0.058489 -0.023269 -2050490.000000 1 0 0
-3.270524 -15.300057 5.911308 16.725180 1.360207 1.209553 0.003594 -0.006820 -1302060.000000 1 0 0
-17.453724 -5.488757 -6.503192 19.417787 0.304683 1.912305 0.030703 -0.014696 -506207.000000 1 0 0
18.862376 5.622843 -2.907092 19.896149 0.289711 1.717435 0.021238 -0.001120 -191509.000000 1 0 0
12.932276 -12.436657 -5.781592 18.850491 -0.765864 1.882528 0.031952 -0.004323 -972354.000000 1 0 0
11.064976 -13.476557 -1.582692 17.508746 -0.883349 1.661314 0.027608 -0.006731 3402640.000000 1 0 0
18.842576 -2.859457 4.578808 19.600628 -0.150606 1.335013 0.094149 -0.018255 -362344.000000 1 0 0
8.705676 -16.989957 4.988208 19.731438 -1.097277 1.315218 0.064429 -0.027202 -883745.000000 1 0 0
18.123976 -0.923457 6.709308 19.348025 -0.050908 1.216671 0.111355 -0.024821 -1972280.000000 1 0 0
18.039676 -4.096257 -4.954492 19.150880 -0.223283 1.832481 0.095145 -0.006355 -131165.000000 1 0 0
5.392576 -11.684257 14.815808 19.624217 -1.138400 0.715179 0.017403 -0.001721 -509371.000000 1 0 0
16.126876 -8.848157 -0.833992 18.413624 -0.501813 1.616104 0.049571 -0.004508 1171480.000000 1 0 0
13.937276 -12.426957 -1.380092 18.723823 -0.728174 1.644571 0.039617 -0.001062 69015.500000 1 0 0
11.449276 -2.006757 13.931808 18.144097 -0.173511 0.695330 0.053368 -0.008083 -2040970.000000 1 0 0
17.173976 -6.081857 -1.384292 18.271581 -0.340351 1.646631 0.061994 -0.010446 -1444620.000000 1 0 0
17.783976 3.715943 -0.955992 18.193184 0.205985 1.623367 0.013200 0.001571 1260810.000000 1 0 0
9.900276 -11.047357 9.470408 17.599664 -0.840103 1.002613 0.023361 -0.002199 750977.000000 1 0 0
9.161276 -11.047057 4.332108 14.991117 -0.878446 1.277637 0.014641 -0.008949 -1088910.000000 1 0 0
14.124476 -10.125057 6.733608 18.637571 -0.621942 1.201143 0.052557 -0.013429 154555.000000 1 0 0
16.220976 -0.455657 -4.716392 16.898876 -0.028083 1.853648 0.027265 -0.000789 -1966320.000000 1 0 0
15.898376 -0.524557 -1.643692 15.991724 -0.032982 1.673762 0.027140 -0.000078 432661.000000 1 0 0
13.004176 -5.198657 -0.223692 14.006593 -0.380307 1.586767 0.013699 -0.005246 855845.000000 1 0 0
14.432076 -7.528957 1.028208 16.310341 -0.480843 1.507714 0.037595 -0.007457 2387950.000000 1 0 0
15.493376 2.513743 3.668908 16.119072 0.160845 1.341171 0.034674 -0.008532 2218140.000000 1 0 0
16.024376 -7.070757 4.974408 18.207717 -0.415554 1.294075 0.065327 -0.016785 -518172.000000 1 0 0
13.741876 -12.162257 3.280808 18.641978 -0.724494 1.393885 0.036004 -0.005426 786077.000000 1 0 0
13.953176 -0.882557 9.185408 16.728471 -0.063167 0.989523 0.061499 -0.015813 1908900.000000 1 0 0
14.261276 -2.787957 -1.595792 14.618592 -0.193057 1.680176 0.017190 -0.002972 1105820.000000 1 0 0
15.011676 1.894143 9.100808 17.656808 0.125515 1.029290 0.069834 -0.013629 -1053820.000000 1 0 0
14.507476 -10.071157 -3.008892 17.915035 -0.606826 1.739550 0.048284 -0.006689 786619.000000 1 0 0
7.407476 -12.639357 6.147308 15.887524 -1.040687 1.173500 0.005934 -0.003090 -411829.000000 1 0 0
12.491276 -4.605457 6.936708 15.011999 -0.353231 1.090460 0.021190 -0.006790 2358500.000000 1 0 0
15.035076 -8.952857 -5.695792 18.402423 -0.537078 1.885477 0.065603 -0.007932 839089.000000 1 0 0
14.383676 -4.553257 4.653208 15.788433 -0.306577 1.271631 0.025149 -0.010857 715577.000000 1 0 0
17.298076 -4.213957 0.988908 17.831399 -0.238954 1.515309 0.045868 -0.013522 -726138.000000 1 0 0
10.199676 -14.509857 1.158008 17.773866 -0.958095 1.505598 0.039349 -0.012823 1323100.000000 1 0 0
16.424376 -2.482557 8.568708 18.690799 -0.150015 1.094551 0.100774 -0.021866 535547.000000 1 0 0
16.144976 -2.644057 3.235908 16.677001 -0.162329 1.375524 0.036313 -0.005965 1730490.000000 1 0 0
7.876476 -15.241257 2.752908 17.375652 -1.093810 1.411691 0.032197 -0.016553 1710210.000000 1 0 0
16.827676 -6.956657 7.785708 19.803610 -0.392009 1.166746 0.098656 -0.021138 -1929450.000000 1 0 0
10.373476 -8.563957 5.130408 14.396925 -0.690135 1.206433 0.014423 -0.007796 2482310.000000 1 0 0
10.964276 -11.932457 2.270008 16.363123 -0.827658 1.431620 0.027055 -0.010798 440640.000000 1 0 0
12.494876 -7.161357 12.063108 18.786312 -0.520438 0.873533 0.056913 -0.020423 -1804790.000000 1 0 0
15.247576 -9.860557 4.268008 18.653017 -0.574050 1.339941 0.048816 -0.014226 791818.000000 1 0 0
7.474576 -10.278657 7.786508 14.904690 -0.942052 1.021110 0.005495 -0.000817 1078330.000000 1 0 0
15.221776 -3.280557 -4.346392 16.166497 -0.212271 1.842997 0.043876 -0.002357 1989860.000000 1 0 0
11.969176 -8.883957 9.824108 17.852141 -0.638514 0.988068 0.044533 -0.009574 -1318030.000000 1 0 0
17.086076 -6.693557 2.386908 18.505000 -0.373379 1.441449 0.064635 -0.012993 809079.000000 1 0 0
17.526276 4.059743 1.980208 18.098980 0.227623 1.461167 0.031841 -0.000444 -70488.500000 1 0 0
14.856176 -4.921157 8.782308 17.945826 -0.319877 1.059419 0.071324 -0.016899 2821190.000000 1 0 0
13.012276 -12.702957 6.126508 19.189021 -0.773370 1.245836 0.046419 -0.008811 -522543.000000 1 0 0
18.353176 0.854943 -1.113292 18.406776 0.046549 1.631316 0.042084 -0.002245 1078810.000000 1 0 0
11.800776 -2.166957 11.008008 16.282820 -0.181605 0.828407 0.033164 -0.007242 788331.000000 1 0 0
5.842576 -12.384157 10.504508 17.258265 -1.129980 0.916419 0.000956 0.002069 -930577.000000 1 0 0
10.788576 -4.961157 11.134008 16.277978 -0.431017 0.817575 0.033691 -0.010652 1392590.000000 1 0 0
17.917576 1.319843 4.922008 18.628142 0.073529 1.303397 0.078100 -0.011893 -1522390.000000 1 0 0
12.338076 -7.681557 7.145308 16.195365 -0.556864 1.113867 0.028318 -0.012336 -1263370.000000 1 0 0
10.848776 -7.844557 14.389808 19.654505 -0.626050 0.749341 0.065359 -0.019731 -118685.000000 1 0 0
14.271476 -0.249857 3.740308 14.755587 -0.017506 1.314516 0.012206 -0.002488 2443520.000000 1 0 0
11.855376 -7.732657 2.592708 14.389790 -0.577955 1.389630 0.017431 -0.005312 1203350.000000 1 0 0
9.249576 6.002543 3.535108 11.579385 0.575639 1.260550 0.004208 -0.001551 2289240.000000 1 0 0
-4.051224 14.865543 -10.003492 18.370265 -1.304733 2.146646 0.020955 -0.004400 -342753.000000 1 0 0
8.939476 -6.432957 9.268908 14.394784 -0.623768 0.871202 0.015960 -0.006507 1366160.000000 1 0 0
5.902976 -10.579157 -8.543992 14.824422 -1.061846 2.185046 -0.002827 0.002956 70832.800000 1 0 0
5.350876 1.043843 0.532708 5.477705 0.192659 1.473392 0.001163 0.000986 4834640.000000 1 0 0
-0.599424 9.892743 10.946408 14.766500 -1.510278 0.735791 0.013679 -0.001336 -927666.000000 1 0 0
-6.289824 -5.128157 1.072108 8.185921 0.684007 1.439449 0.010959 -0.005645 2552760.000000 1 0 0
-1.072224 4.009143 -10.866192 11.631725 -1.309468 2.776766 0.009407 -0.004817 673514.000000 1 0 0
10.861676 5.793643 1.278608 12.376475 0.490011 1.467302 0.007884 -0.000467 825394.000000 1 0 0
-10.107624 -1.887157 -13.593292 17.044149 0.184581 2.493993 0.019587 -0.005867 497741.000000 1 0 0
7.286876 10.897143 -6.068392 14.445472 0.981390 2.004340 0.007970 -0.000694 276023.000000 1 0 0
-12.494524 -2.910857 -9.648692 16.052523 0.228888 2.215636 0.017569 -0.005671 1078690.000000 1 0 0
-3.861824 -8.706757 2.372008 9.815688 1.153325 1.326726 0.013841 -0.007101 -377800.000000 1 0 0
8.054576 -6.645757 -5.878192 11.983130 -0.689854 2.083504 0.000644 -0.005972 2315480.000000 1 0 0
14.339076 3.152843 -4.237292 15.280843 0.216434 1.851773 0.015748 -0.001980 405992.000000 1 0 0
-2.559324 -4.914657 9.785108 11.245103 1.090684 0.515257 0.008057 -0.004640 2460780.000000 1 0 0
3.547376 -1.905557 -4.564192 6.086614 -0.492942 2.418668 0.002855 -0.002321 -1284410.000000 1 0 0
-4.074724 8.398143 -3.481092 9.962439 -1.119064 1.927750 0.000900 0.000549 753830.000000 1 0 0
5.942776 0.025243 11.750408 13.167737 0.004248 0.468241 0.014577 -0.007269 1411150.000000 1 0 0
7.200176 4.753443 12.459108 15.154772 0.583501 0.605664 0.020336 -0.008386 -18745.400000 1 0 0
1.377576 -14.466957 12.497208 19.166918 -1.475860 0.860551 0.014144 -0.003931 -283906.000000 1 0 0
2.965176 8.742143 -9.132292 12.985226 1.243791 2.350802 0.004301 0.000665 331528.000000 1 0 0
-4.302524 -8.901657 -4.573492 10.893486 1.120566 2.004062 0.010743 -0.005701 488327.000000 1 0 0
5.765976 -6.571057 -3.991592 9.610311 -0.850563 1.999118 -0.000845 -0.004894 2151210.000000 1 0 0
-3.129324 3.423543 8.686108 9.846918 -0.830267 0.490464 0.002163 0.000110 2040750.000000 1 0 0
-3.755624 3.091443 -11.144292 12.159646 -0.688698 2.730033 0.006456 -0.007370 1614870.000000 1 0 0
3.091576 -6.142257 8.563208 10.982426 -1.104489 0.676579 0.003682 -0.004345 8040.370000 1 0 0
-5.107324 -8.750857 10.407008 14.524740 1.042495 0.772021 0.012639 -0.009209 1183370.000000 1 0 0
-13.317524 -2.545357 6.568408 15.065832 0.188851 1.119669 0.023203 -0.005291 -1408910.000000 1 0 0
4.005376 -5.838757 -8.309592 10.917117 -0.969530 2.435885 -0.003231 -0.002882 2635870.000000 1 0 0
2.984876 -0.534757 12.339908 12.707036 -0.177275 0.240965 0.011894 -0.007287 2352030.000000 1 0 0
1.445376 -1.399557 -7.546092 7.809698 -0.769294 2.881035 0.003638 -0.004853 211256.000000 1 0 0
3.589276 -3.483957 3.425008 6.062304 -0.770510 0.970402 0.005101 -0.003821 1542870.000000 1 0 0
1.502376 0.476643 -11.857792 11.962088 0.307215 3.009444 0.010520 -0.006633 1272080.000000 1 0 0
3.937776 3.545243 -10.686492 11.927948 0.732990 2.681295 0.005864 -0.000364 887717.000000 1 0 0
2.899276 3.265043 3.356408 5.507429 0.844665 0.915451 -0.005533 0.003444 -453565.000000 1 0 0
-5.363624 0.818043 2.588808 6.011621 -0.151351 1.125601 0.007568 -0.003102 852988.000000 1 0 0
-9.409724 -9.254357 5.724708 14.386046 0.777074 1.161532 0.011235 -0.001687 -960818.000000 1 0 0
-3.051724 3.770843 -0.592792 4.887093 -0.890413 1.692393 0.004958 -0.002924 31071.800000 1 0 0
-15.867924 -6.448357 4.889608 17.812372 0.385992 1.292720 0.034406 -0.011475 537201.000000 1 0 0
0.939076 6.747243 -8.134792 10.610466 1.432506 2.444444 0.002444 0.000276 645324.000000 1 0 0
-1.700124 6.623243 -9.504392 11.708597 -1.319531 2.517930 0.003876 -0.000492 871616.000000 1 0 0
2.097576 -0.349157 5.255108 5.669029 -0.164945 0.384502 0.006622 -0.002193 3171950.000000 1 0 0
-3.472524 -0.585657 -6.340192 7.252548 0.167082 2.634586 0.010731 -0.008177 -959830.000000 1 0 0
1.898676 -1.186657 -2.460692 3.326880 -0.558594 2.403331 0.007018 -0.001739 1147590.000000 1 0 0
2.501976 -8.563557 -7.671492 11.766315 -1.286543 2.280999 -0.005587 0.001148 1252970.000000 1 0 0
-2.503524 14.025443 -5.604092 15.309688 -1.394158 1.945556 0.007662 0.000884 2484550.000000 1 0 0
6.898176 -5.059557 -8.112092 11.789401 -0.632833 2.329641 0.001229 -0.002579 2681730.000000 1 0 0
-14.170824 -4.984657 -2.200892 15.182325 0.338237 1.716273 0.002459 -0.000179 593776.000000 1 0 0
-2.808924 6.948843 -6.873692 10.169765 -1.186650 2.312975 0.004756 -0.000006 -2015040.000000 1 0 0
-5.724224 -1.122457 -8.115092 9.994067 0.193632 2.518352 0.014389 -0.010864 -888667.000000 1 0 0
-5.696624 -10.592857 3.419508 12.504127 1.077384 1.293797 0.010613 -0.006700 -2597540.000000 1 0 0
8.158776 -7.568757 6.621108 12.949547 -0.747901 1.034099 0.008943 -0.007458 1559370.000000 1 0 0
8.840176 -6.037557 13.185008 16.983675 -0.599203 0.681967 0.039221 -0.015030 1299070.000000 1 0 0
-4.808724 9.522043 -0.795292 10.696991 -1.103149 1.645212 -0.000502 0.001532 1508900.000000 1 0 0
2.795076 6.565243 12.057908 14.010996 1.168300 0.534343 0.007866 -0.007479 2264880.000000 1 0 0
6.129576 -2.842957 10.898908 12.823428 -0.434279 0.554960 0.018496 -0.006754 239937.000000 1 0 0
-9.557224 -6.455557 -1.152092 11.590603 0.594068 1.670360 0.011040 -0.001719 931088.000000 1 0 0
1.024676 -13.306757 6.274708 14.747600 -1.493944 1.131312 0.009973 -0.005924 347962.000000 1 0 0
-0.501324 -3.177457 8.683008 9.259708 1.414311 0.354790 0.007222 -0.005532 1489740.000000 1 0 0
4.272176 0.713943 3.410608 5.513025 0.165585 0.903779 -0.001217 0.002083 1387610.000000 1 0 0
-10.277324 5.565643 8.326008 14.349989 -0.496329 0.951810 0.004647 -0.003336 1198740.000000 1 0 0
9.277676 7.960843 -0.031092 12.225026 0.709157 1.573340 0.001984 -0.000949 723127.000000 1 0 0
4.271476 2.826943 8.277908 9.734519 0.584639 0.554115 -0.000259 -0.001331 3475320.000000 1 0 0
1.261176 2.671743 -9.762792 10.200043 1.129764 2.847731 0.009972 -0.005379 1487050.000000 1 0 0
-1.313124 -10.117257 2.982708 10.629192 1.441727 1.286362 0.008908 -0.008801 -2214630.000000 1 0 0
-9.946624 9.489843 9.031008 16.448452 -0.761901 0.989570 0.014099 -0.010879 1769020.000000 1 0 0
9.817876 -1.838257 -7.663892 12.589881 -0.185093 2.225261 0.008759 -0.002413 -926869.000000 1 0 0
-5.263424 -1.953357 6.701208 8.742164 0.355364 0.697362 0.004089 -0.003790 283643.000000 1 0 0
3.220776 -7.803657 -4.915792 9.769108 -1.179367 2.098091 -0.006415 -0.004086 1651380.000000 1 0 0
-5.136724 4.862743 -13.117092 14.902695 -0.758005 2.647043 0.001714 -0.007857 3107960.000000 1 0 0
-5.664824 9.533143 5.487508 12.372704 -1.034635 1.111277 -0.002385 0.000492 1032600.000000 1 0 0
-0.466624 -1.719257 -9.380492 9.548152 1.305770 2.953917 0.007395 -0.007473 -530170.000000 1 0 0
-16.755924 0.170443 6.377408 17.929344 -0.010172 1.207137 0.040022 -0.014777 413306.000000 1 0 0
-6.030024 -2.954857 4.087808 7.861460 0.455635 1.023968 -0.000150 -0.003648 2079150.000000 1 0 0
1.043976 -5.733357 -5.152492 7.778781 -1.390682 2.294785 0.001562 -0.003846 307304.000000 1 0 0
-7.127524 1.363043 -8.456092 11.142934 -0.188955 2.432380 0.004884 -0.005018 888658.000000 1 0 0
8.002876 1.962643 4.794208 9.533227 0.240496 1.043852 -0.001370 -0.000309 1870280.000000 1 0 0
0.649176 -8.043357 -0.495092 8.084685 -1.490261 1.632073 0.003164 -0.004609 1421840.000000 1 0 0
5.368376 5.538743 -3.369192 8.417160 0.801017 1.982615 -0.000975 0.001880 413622.000000 1 0 0
-0.746024 -0.412357 -1.242492 1.506777 0.504944 2.540295 0.008283 -0.003222 1240870.000000 1 0 0
8.979676 6.347943 -6.333692 12.690414 0.615357 2.093348 0.008481 -0.001785 589940.000000 1 0 0
-14.930024 -7.042257 2.445908 16.687764 0.440739 1.423697 -0.009009 -0.001477 377429.000000 1 0 0
-6.411924 6.842543 8.968608 12.975712 -0.817875 0.807670 0.002398 -0.000245 1424390.000000 1 0 0
-9.487724 -3.172157 -9.636192 13.890129 0.322659 2.337471 0.010927 -0.002895 1121310.000000 1 0 0
14.909576 3.449743 -1.270192 15.356092 0.227376 1.653607 0.011437 -0.000124 1596060.000000 1 0 0
12.079076 1.739443 -5.787292 13.506387 0.143021 2.013612 0.008016 -0.001698 -1018340.000000 1 0 0
1.719876 -9.414557 12.771408 15.959346 -1.390106 0.643090 -0.000657 -0.002653 1167320.000000 1 0 0
-3.592324 6.365843 7.826008 10.708649 -1.057031 0.751286 0.000217 0.002094 2072530.000000 1 0 0
-4.136624 13.175943 -12.486992 18.618327 -1.266588 2.305925 0.013419 -0.004041 623393.000000 1 0 0
-10.192524 7.766343 6.468308 14.354186 -0.651115 1.103335 0.000838 -0.005457 347743.000000 1 0 0
8.160076 -9.243957 -7.107992 14.232397 -0.847595 2.093729 0.004190 -0.002055 1186060.000000 1 0 0
5.957576 -3.826457 -0.293892 7.086667 -0.570932 1.612279 0.006898 -0.002124 -1034960.000000 1 0 0
-1.631724 -4.462157 4.163508 6.317291 1.220221 0.851221 0.006286 -0.004390 912550.000000 1 0 0
9.965676 -1.951557 -2.679792 10.502597 -0.193381 1.828805 0.007487 -0.002041 -1679870.000000 1 0 0
13.484276 7.097543 1.364208 15.299081 0.484510 1.481508 0.014155 -0.005738 902638.000000 1 0 0
5.487276 -3.672557 -3.259092 7.363392 -0.589814 2.029301 0.002597 -0.003347 -1598980.000000 1 0 0
-12.257124 -5.917157 1.858708 13.736981 0.449755 1.435073 -0.001473 0.000865 272875.000000 1 0 0
3.867576 -5.738557 -0.218092 6.923636 -0.977759 1.602301 0.003709 -0.004251 -621780.000000 1 0 0
-5.293924 3.685143 -8.714092 10.841647 -0.608109 2.504386 0.005121 -0.005827 1652810.000000 1 0 0
-1.591924 -9.250957 7.207508 11.834804 1.400383 0.915985 0.009160 -0.007947 1568840.000000 1 0 0
-7.361624 -7.391457 2.555608 10.740497 0.787420 1.330551 0.014195 -0.005526 -4298930.000000 1 0 0
-5.791624 13.113043 -8.584892 16.709135 -1.154892 2.110386 0.016706 -0.009441 1671240.000000 1 0 0
9.267576 -13.834657 -4.113292 17.152401 -0.980572 1.812965 0.017086 -0.004514 1066600.000000 1 0 0
-6.473024 -5.111357 -6.659392 10.600638 0.668392 2.250043 0.014396 -0.004669 554430.000000 1 0 0
3.426276 0.407743 -6.191192 7.087770 0.118448 2.633150 0.004154 -0.005580 85420.900000 1 0 0
-3.598224 5.735043 4.950808 8.387398 -1.010466 0.939406 0.002626 0.004296 1090720.000000 1 0 0
-2.508424 -10.732157 -2.832592 11.379585 1.341188 1.822360 0.010325 -0.003730 769000.000000 1 0 0
-12.652424 -0.445957 1.738908 12.779144 0.035232 1.434299 0.003565 -0.003782 1216420.000000 1 0 0
8.478376 -11.891857 -5.994492 15.787117 -0.951428 1.960277 0.013692 -0.007370 -1017550.000000 1 0 0
6.121976 3.959043 1.004408 7.359446 0.574047 1.433890 -0.002619 0.002393 -441936.000000 1 0 0
3.463376 -4.763657 -10.930892 12.416594 -0.942151 2.647386 -0.000080 -0.000958 -901546.000000 1 0 0
-7.697924 4.238643 8.622608 12.311519 -0.503320 0.794882 0.000256 0.002598 1641610.000000 1 0 0
8.227676 8.624243 4.150308 12.621302 0.808926 1.235728 0.006830 -0.001224 1006110.000000 1 0 0
0.116876 10.594943 -6.319592 12.337087 1.559766 2.108591 -0.001650 0.002534 1033870.000000 1 0 0
5.418176 8.080243 3.319408 10.279369 0.980113 1.241984 0.000949 0.001032 2696990.000000 1 0 0
7.994076 6.684343 -3.733492 11.069085 0.696405 1.914833 0.002017 -0.001005 306637.000000 1 0 0
10.530076 2.610443 -8.187492 13.591613 0.243005 2.217292 0.007536 -0.002087 1161670.000000 1 0 0
3.419776 -12.419057 -0.225092 12.883265 -1.302091 1.588269 -0.000949 -0.010212 -1737270.000000 1 0 0
0.646276 2.138443 5.214108 5.672524 1.277306 0.404786 0.003551 0.002014 755860.000000 1 0 0
-4.954224 13.371343 1.412008 14.329373 -1.215967 1.472097 -0.004256 0.003194 1531810.000000 1 0 0
8.170476 4.069443 -8.048692 12.169572 0.462100 2.293451 0.004325 -0.000513 2640190.000000 1 0 0
-13.927424 -0.532957 -3.598392 14.394639 0.038248 1.823457 0.005900 -0.005436 -188057.000000 1 0 0
-8.593424 0.002243 -0.495892 8.607721 -0.000261 1.628438 0.004754 -0.003714 -315391.000000 1 0 0
1.837076 -3.851557 -1.136592 4.416014 -1.125742 1.831106 0.005630 -0.002248 -501210.000000 1 0 0
8.196776 -5.613957 -0.256792 9.938289 -0.600518 1.596638 0.007597 -0.003787 1508530.000000 1 0 0
-2.354324 -1.288057 7.322508 7.798786 0.500616 0.351291 0.009864 -0.003530 1355180.000000 1 0 0
-5.976324 8.843343 -11.792692 15.905620 -0.976498 2.405975 0.001313 -0.001501 -98203.200000 1 0 0
-6.237224 9.173343 -8.959492 14.259232 -0.973668 2.250200 0.011072 -0.001506 -186196.000000 1 0 0
-1.607324 14.074643 -8.452492 16.496172 -1.457089 2.108763 0.016261 -0.001109 4146.170000 1 0 0
-1.450824 7.175843 9.761908 12.202150 -1.371304 0.643475 0.004653 -0.002281 1098810.000000 1 0 0
10.011576 2.391543 -4.019792 11.050333 0.234484 1.943110 0.007225 -0.001709 -2220400.000000 1 0 0
-2.851924 -7.528057 -6.925992 10.619533 1.208664 2.281271 0.009788 -0.004545 722729.000000 1 0 0
-5.436624 -5.012557 -1.586892 7.563124 0.744837 1.782187 0.013113 -0.005702 66291.900000 1 0 0
5.645676 7.414443 -8.970692 12.935259 0.920012 2.337142 0.000136 0.002845 694991.000000 1 0 0
-9.677124 5.240943 -7.498992 13.317248 -0.496356 2.168933 -0.001778 -0.000530 -475936.000000 1 0 0
-0.510824 6.202843 -5.351592 8.208273 -1.488628 2.280983 0.004172 0.000888 571343.000000 1 0 0
-8.337324 2.781543 -6.356892 10.847029 -0.322013 2.196971 0.003244 -0.001847 1731130.000000 1 0 0
3.622476 1.459243 -2.061692 4.416140 0.382944 2.056526 0.000653 -0.001198 2202280.000000 1 0 0
-6.844824 12.434243 -3.454992 14.608182 -1.067583 1.809569 0.012239 0.001197 603718.000000 1 0 0
-6.612224 3.106843 -2.356892 7.676518 -0.439249 1.882863 0.005336 -0.001520 -1969860.000000 1 0 0
12.121076 4.060943 -0.799592 12.808243 0.323278 1.633265 0.005709 -0.000790 1794800.000000 1 0 0
2.164376 12.388143 -5.530892 13.738318 1.397829 1.985139 0.001941 -0.000513 333994.000000 1 0 0
-9.256224 -1.350857 -4.268492 10.282146 0.144917 1.998889 0.006031 -0.001915 40990.800000 1 0 0
-1.159024 5.706243 3.416708 6.751181 -1.370407 1.040151 0.003047 0.002469 1042850.000000 1 0 0
11.607276 2.739643 12.051708 16.955181 0.231786 0.780164 0.056300 -0.005124 504899.000000 1 0 0
-7.063224 -2.318957 -5.738092 9.391081 0.317227 2.228139 0.014184 -0.005222 106242.000000 1 0 0
7.542576 -7.360257 10.846208 15.122964 -0.773165 0.771019 0.012997 -0.006113 -621630.000000 1 0 0
-5.524324 -1.909257 -10.939392 12.402972 0.332758 2.650881 0.014536 -0.006411 -724938.000000 1 0 0
0.830376 -6.159557 4.499308 7.672903 -1.436793 0.944202 0.004338 -0.005945 1954940.000000 1 0 0
-4.691824 -9.323257 7.331308 12.754780 1.104561 0.958450 0.007132 -0.008662 3157380.000000 1 0 0
-8.776524 9.364943 1.635108 12.938436 -0.817822 1.444081 -0.000583 -0.001914 454555.000000 1 0 0
-8.216524 7.207743 -9.110792 14.229173 -0.720089 2.265672 0.004817 -0.000397 -1392340.000000 1 0 0
-1.139624 -10.603157 -0.068192 10.664442 1.463728 1.577191 0.006085 -0.006355 -947714.000000 1 0 0
-4.021324 10.295143 7.771008 13.511091 -1.198416 0.957999 0.002230 0.001377 2107600.000000 1 0 0
-7.488524 12.020543 1.986808 14.301009 -1.013653 1.431418 -0.007409 -0.003133 1543400.000000 1 0 0
-8.057824 -8.291657 -2.860892 11.910702 0.799699 1.813363 0.016154 -0.006675 -1027780.000000 1 0 0
5.347676 4.651343 -8.187992 10.829397 0.715870 2.428113 0.004649 0.001101 776187.000000 1 0 0
-8.974824 -0.123557 -10.214292 13.597592 0.013766 2.420650 0.005740 -0.005650 -1482630.000000 1 0 0
-15.283624 -2.254357 -1.523892 15.523967 0.146445 1.669119 0.009120 -0.005962 487431.000000 1 0 0
-7.197824 -5.801057 8.766808 12.740403 0.678356 0.811914 0.008802 -0.005789 -2083430.000000 1 0 0
8.127176 3.408243 -0.958092 8.864821 0.397087 1.679086 0.001693 0.002355 1314970.000000 1 0 0
11.805876 7.253343 -5.890492 15.056148 0.550929 1.972770 0.010122 -0.003366 -2301.770000 1 0 0
3.579976 13.364643 -9.531392 16.801111 1.309072 2.174029 0.000626 0.000157 737783.000000 1 0 0
-9.792624 5.430443 -0.434992 11.205999 -0.506325 1.609624 0.003186 -0.001520 1351600.000000 1 0 0
11.284676 -1.232857 -5.240592 12.503105 -0.108819 2.003298 0.012902 -0.003950 -1612250.000000 1 0 0
10.615776 1.739943 -1.197692 10.823888 0.162457 1.681676 0.006939 0.000320 1092550.000000 1 0 0
14.556876 5.061443 4.876608 16.164843 0.334625 1.264342 0.025626 -0.009813 2382670.000000 1 0 0
0.838076 -0.831357 10.306108 10.373494 -0.781374 0.114044 0.009847 -0.005898 1213140.000000 1 0 0
-8.001224 1.320943 -12.576492 14.964379 -0.163617 2.568870 0.002006 -0.005439 -1299040.000000 1 0 0
3.189376 -11.527757 -7.842492 14.302656 -1.300879 2.151155 -0.005964 0.000670 951472.000000 1 0 0
2.841876 5.044943 -6.802192 8.932946 1.057790 2.436378 0.002303 0.002427 -904562.000000 1 0 0
6.372376 7.979143 0.541508 10.225807 0.896892 1.517817 0.000191 -0.001772 496134.000000 1 0 0
-9.100624 -5.434457 6.748008 12.565441 0.538323 1.003885 0.004882 -0.001214 -3250470.000000 1 0 0
-0.217424 -6.892357 -11.773892 13.644647 1.539261 2.611766 -0.003391 0.002240 1898790.000000 1 0 0
6.449276 -13.228057 -4.576492 15.411649 -1.117162 1.872294 0.005297 -0.007323 2903980.000000 1 0 0
-3.315624 -0.510157 9.963808 10.513377 0.152667 0.324762 0.006237 -0.000887 -561526.000000 1 0 0
8.587276 8.424743 7.012708 13.924643 0.775844 1.043014 0.000125 -0.000074 -1803050.000000 1 0 0
-7.964324 5.612743 -2.694492 10.109087 -0.613897 1.840599 0.002159 -0.001949 310624.000000 1 0 0
-5.417124 5.787643 -6.470892 10.233010 -0.818454 2.255385 0.004651 -0.000678 -1661890.000000 1 0 0
3.411676 -13.583857 2.576708 14.240791 -1.324729 1.388856 0.004119 -0.009719 -1770720.000000 1 0 0
-11.301124 -7.094257 6.561608 14.869384 0.560573 1.113768 0.015625 -0.001708 -402657.000000 1 0 0
-12.933624 -3.757757 -6.781892 15.079570 0.282757 2.037271 0.015667 -0.006162 -315637.000000 1 0 0
6.005476 0.384143 -7.321992 9.477598 0.063878 2.453656 0.004825 -0.000518 532990.000000 1 0 0
-1.452124 2.093143 -2.552692 3.606404 -0.964275 2.357206 0.007476 -0.003628 4314960.000000 1 0 0
7.647276 0.921743 -5.000092 9.183210 0.119954 2.146568 0.007700 -0.000509 -58501.000000 1 0 0
3.709276 -4.420357 10.834708 12.275552 -0.872644 0.489379 0.011900 -0.006495 -15542.400000 1 0 0
6.038476 -2.555157 2.120208 6.891103 -0.400299 1.258050 0.008233 -0.001971 -2053520.000000 1 0 0
-6.402124 7.686143 1.053908 10.058564 -0.876288 1.465826 -0.002569 0.000848 871489.000000 1 0 0
6.151576 -3.425257 7.949808 10.619497 -0.508056 0.724841 0.010295 -0.006141 999437.000000 1 0 0
6.802676 -2.210457 -7.855792 10.624311 -0.314177 2.403000 0.002780 -0.002816 1902550.000000 1 0 0
12.118276 -8.101557 -5.807292 15.691159 -0.589299 1.949913 0.026174 -0.010524 960845.000000 1 0 0
5.692476 -9.615057 10.002308 14.996658 -1.036252 0.840663 -0.000742 0.000741 2688470.000000 1 0 0
-6.710624 7.521943 -4.507392 11.042133 -0.842341 1.991277 0.006788 0.000084 602213.000000 1 0 0
-1.332324 -7.509257 9.781008 12.402909 1.395199 0.662258 0.005789 -0.005890 -561159.000000 1 0 0
10.144176 -9.315157 0.877308 13.800222 -0.742821 1.507181 0.013421 -0.007410 2655820.000000 1 0 0
11.103776 6.109443 9.848108 16.050058 0.503007 0.910201 0.011919 -0.008917 2022600.000000 1 0 0
-15.282824 -4.254157 -4.986992 16.629271 0.271489 1.875376 0.015062 -0.010076 1737390.000000 1 0 0
-4.786524 -4.678057 7.809108 10.284804 0.773938 0.708581 0.005357 -0.005712 -939433.000000 1 0 0
2.797876 10.967043 -11.170692 15.902469 1.321008 2.349631 0.000679 0.002440 -516024.000000 1 0 0
9.947676 -1.319357 1.511808 10.148030 -0.131860 1.421264 0.007553 -0.001137 209997.000000 1 0 0
-1.608924 -2.611257 0.715508 3.149484 1.018587 1.341613 0.007684 -0.006210 502078.000000 1 0 0
1.634076 3.004843 0.861108 3.527151 1.072715 1.324167 -0.003264 0.000883 -1347390.000000 1 0 0
-9.015224 -2.416157 4.297508 10.275245 0.261855 1.139291 0.001423 -0.003084 2602100.000000 1 0 0
9.863876 4.906843 -2.687892 11.340102 0.461610 1.810099 0.004888 -0.000591 1013790.000000 1 0 0
2.548276 8.503543 2.526008 9.229554 1.279640 1.293572 -0.001674 0.000896 2172930.000000 1 0 0
-8.151724 -0.110257 2.454108 8.513837 0.013525 1.278398 0.004078 -0.005059 869419.000000 1 0 0
6.997376 2.013843 13.727008 15.538648 0.280227 0.487705 0.034514 -0.012791 -153764.000000 1 0 0
6.796276 4.304843 3.795808 8.895459 0.564626 1.129941 -0.004510 0.001751 419647.000000 1 0 0
-0.318024 3.340443 7.734208 8.430757 -1.475878 0.409349 0.003021 0.001022 552277.000000 1 0 0
2.777676 -10.154757 9.206608 13.985571 -1.303793 0.852247 0.001953 -0.004293 1628900.000000 1 0 0
1.423276 -4.601857 6.894408 8.410449 -1.270845 0.609834 0.005198 -0.006285 1923.980000 1 0 0
-0.218024 10.826043 -1.940492 11.000739 -1.550660 1.748121 0.002037 -0.001113 2280760.000000 1 0 0
8.750876 5.494243 8.175808 13.176053 0.560647 0.901410 0.002493 -0.004006 -427950.000000 1 0 0
2.503276 11.397043 -2.936092 12.032440 1.354587 1.817300 0.005404 -0.005395 2558570.000000 1 0 0
1.460376 2.460443 -6.727992 7.311112 1.035139 2.739495 0.005213 -0.002874 1842250.000000 1 0 0
-13.597724 -2.210057 3.609908 14.241274 0.161122 1.314518 0.006680 -0.005776 1515460.000000 1 0 0
-0.827324 -10.564757 -5.292692 11.845300 1.492646 2.034002 0.002944 -0.002729 1835340.000000 1 0 0
-5.729824 2.843743 0.434108 6.411413 -0.460688 1.503036 0.008177 -0.002488 1561120.000000 1 0 0
3.737976 7.235843 -5.054792 9.585448 1.093964 2.126263 0.001371 0.000785 -2542090.000000 1 0 0
2.892676 9.792443 -6.557092 12.134866 1.283566 2.141651 0.001393 0.001408 2574720.000000 1 0 0
-12.291824 1.739743 -2.562092 12.675960 -0.140603 1.774321 0.005323 -0.003197 -424714.000000 1 0 0
-2.636924 9.656343 -5.855292 11.596671 -1.304219 2.100076 -0.001031 0.002671 1514840.000000 1 0 0
-1.283724 3.267043 1.721208 3.909485 -1.196398 1.114903 0.002867 -0.000045 1318190.000000 1 0 0
12.871476 3.773443 9.628808 16.511441 0.285173 0.948183 0.038323 -0.008196 733880.000000 1 0 0
-2.547124 -9.609357 11.538608 15.230465 1.311688 0.711167 0.006881 -0.009881 431163.000000 1 0 0
-0.373924 -8.924557 -7.510292 11.670134 1.528922 2.269921 -0.000582 -0.001216 2016960.000000 1 0 0
2.314076 7.610143 -0.448592 7.966835 1.275603 1.627134 -0.000197 0.000568 -78667.000000 1 0 0
-11.933724 -1.291157 -5.561892 13.229343 0.107775 2.004705 0.007299 -0.002810 -1184940.000000 1 0 0
-6.148924 -7.195657 -10.913992 14.446521 0.863677 2.427176 0.014064 -0.001529 2527060.000000 1 0 0
-4.638724 -2.280957 -1.432592 5.364033 0.457002 1.841151 0.008875 -0.004852 -1816370.000000 1 0 0
-10.503624 3.571543 4.539108 11.986891 -0.327765 1.182435 0.004900 -0.005349 5269030.000000 1 0 0
6.736176 9.363643 -3.629492 12.092439 0.947171 1.875642 -0.000895 0.001694 869919.000000 1 0 0
1.244076 -2.652257 -11.543192 11.909134 -1.132203 2.893051 0.003996 -0.005219 -981073.000000 1 0 0
1.239176 8.789043 7.596308 11.682753 1.430729 0.862928 0.003312 0.001572 1383270.000000 1 0 0
10.461076 0.473043 10.524208 14.846441 0.045189 0.782900 0.021194 -0.006161 1275530.000000 1 0 0
-5.269524 -0.831157 -3.920192 6.620167 0.156440 2.204532 0.010979 -0.006881 -723786.000000 1 0 0
11.688276 5.582243 5.447108 14.051626 0.445562 1.172716 0.005443 -0.002992 1859690.000000 1 0 0
10.036376 -3.473457 3.643408 11.228008 -0.333184 1.240321 0.012271 -0.006040 -1057400.000000 1 0 0
7.315876 -1.708757 -3.492292 8.284805 -0.229455 2.005928 0.003998 0.000494 -3375040.000000 1 0 0
2.292876 9.321543 10.536208 14.253425 1.329609 0.738907 0.005897 -0.000909 2362090.000000 1 0 0
2.541176 -10.841157 6.370508 12.828547 -1.340552 1.051132 -0.002678 -0.003949 865059.000000 1 0 0
6.007776 -7.547157 -1.199292 9.720661 -0.898480 1.694487 0.001813 -0.006998 496300.000000 1 0 0
-0.156124 -5.639057 -2.392092 6.127434 1.543117 1.971852 0.006128 -0.003506 596071.000000 1 0 0
7.734676 -5.030057 2.799508 9.641780 -0.576604 1.276202 0.007152 -0.006150 2888580.000000 1 0 0
-2.592724 -12.376457 4.638408 13.468992 1.364294 1.219221 0.008936 -0.007423 -235981.000000 1 0 0
4.935276 -10.225257 -1.111592 11.408263 -1.121120 1.668389 -0.002083 -0.006378 5708.420000 1 0 0
1.020776 0.167243 1.048808 1.473075 0.162396 0.778475 0.000736 -0.000261 -2191710.000000 1 0 0
-1.693924 8.535743 2.363408 9.017427 -1.374891 1.305606 -0.000394 0.003404 -370419.000000 1 0 0
-7.571124 0.645543 -3.069992 8.195334 -0.085058 1.954764 0.006220 -0.001955 -474589.000000 1 0 0
4.453376 -6.285857 12.830308 14.965338 -0.954405 0.540726 0.021498 -0.009820 -122487.000000 1 0 0
-5.197624 12.981943 8.439308 16.333036 -1.189968 1.027802 0.009805 -0.009530 3210530.000000 1 0 0
0.682476 6.044543 8.263708 10.261147 1.458365 0.634548 0.001116 0.003891 1120760.000000 1 0 0
7.963476 -0.511957 -0.769092 8.016891 -0.064200 1.666878 0.005356 -0.000708 4654800.000000 1 0 0
2.531276 -9.212957 -2.388392 9.848368 -1.302661 1.815755 -0.003470 -0.004309 539259.000000 1 0 0
-7.173424 12.065843 4.890308 14.864646 -1.034414 1.235563 -0.004867 -0.006327 -500526.000000 1 0 0
-15.071224 0.299543 0.193608 15.075444 -0.019873 1.557953 0.010104 -0.007095 1218540.000000 1 0 0
6.932176 -0.534857 3.986308 8.014473 -0.077003 1.050210 0.004052 0.000670 996262.000000 1 0 0
-4.213624 -5.142257 5.108208 8.383986 0.884331 0.915642 0.007399 -0.006097 1952970.000000 1 0 0
2.924276 5.103543 6.884508 9.055053 1.050474 0.707030 -0.002288 0.001541 -36626.800000 1 0 0
2.157276 -7.132057 1.822808 7.670900 -1.277070 1.330875 0.000075 -0.006511 1095830.000000 1 0 0
-2.504724 6.373443 -1.815892 7.084623 -1.196344 1.830004 0.002012 0.002025 1001780.000000 1 0 0
2.683376 -3.783957 -6.543792 8.021225 -0.953959 2.524924 -0.000279 -0.004211 -308324.000000 1 0 0
-5.183324 0.937943 -12.234792 13.320538 -0.179017 2.735043 0.008624 -0.005610 1436480.000000 1 0 0
-7.562424 6.380843 -12.015792 15.565497 -0.700858 2.452700 0.006135 -0.003534 2886760.000000 1 0 0
-1.124224 11.226243 -9.128192 14.512626 -1.470987 2.251040 0.001366 0.004776 215278.000000 1 0 0
4.511076 5.863343 -0.560792 7.419103 0.915014 1.646456 -0.001241 0.001885 -31157.000000 1 0 0
-2.713224 13.307143 3.576208 14.043892 -1.369661 1.313316 -0.004139 0.004174 1185630.000000 1 0 0
1.435676 -7.882557 10.240108 13.002141 -1.390638 0.663939 0.000976 -0.004190 26608.800000 1 0 0
13.063376 -0.233457 -1.093892 13.111174 -0.017869 1.654325 0.012557 -0.003024 1069260.000000 1 0 0
-1.048524 3.155243 -5.463892 6.396021 -1.249965 2.594930 0.005527 -0.005516 714761.000000 1 0 0
6.618676 1.071143 7.332808 9.936009 0.160445 0.740690 0.001555 -0.000483 2076400.000000 1 0 0
5.512976 -6.183657 6.965508 10.823530 -0.842675 0.871666 0.005160 -0.004540 476056.000000 1 0 0
12.329976 -4.857357 2.627008 13.510121 -0.375277 1.375102 0.015603 -0.005286 -252861.000000 1 0 0
4.432076 -9.102857 13.910308 17.204708 -1.117693 0.629168 0.011899 -0.003151 -812936.000000 1 0 0
-2.659824 -4.348157 -1.403392 5.286837 1.021809 1.839467 0.011325 -0.006734 2064120.000000 1 0 0
-9.258524 -5.260257 -7.561192 13.059947 0.516673 2.188249 0.015459 -0.003304 583927.000000 1 0 0
-10.616224 -3.205457 7.881508 13.605048 0.293235 0.952917 0.003622 -0.000442 901030.000000 1 0 0
12.127576 -0.568457 1.651608 12.252716 -0.046839 1.435590 0.010114 -0.002279 467341.000000 1 0 0
-7.608624 4.660243 4.415208 9.955054 -0.549556 1.111280 0.003934 -0.002132 2312440.000000 1 0 0
-1.160924 10.530843 6.905008 12.646167 -1.460999 0.993195 0.004605 0.003393 1247640.000000 1 0 0
7.448976 -9.989257 1.969108 12.615462 -0.930054 1.414069 0.004105 -0.007190 2867330.000000 1 0 0
-4.342024 -1.756257 1.718908 4.989214 0.384361 1.219064 0.004041 -0.003133 2768260.000000 1 0 0
6.878276 -14.858157 -0.869292 16.396072 -1.137243 1.623840 0.015871 -0.013387 -1304370.000000 1 0 0
-10.447324 1.595043 2.417108 10.841271 -0.151505 1.345952 0.001323 -0.002316 -387317.000000 1 0 0
-3.047424 8.387143 -11.458192 14.523124 -1.222283 2.479914 -0.002095 -0.000178 -311887.000000 1 0 0
-1.188924 -5.115157 -6.926992 8.692617 1.342420 2.492913 0.002611 -0.005052 786590.000000 1 0 0
12.840076 -0.432657 6.388208 14.347959 -0.033683 1.109360 0.017044 -0.008362 2859620.000000 1 0 0
6.026376 -13.302457 3.734208 15.073715 -1.145428 1.320460 0.010700 -0.008868 481458.000000 1 0 0
-5.641224 3.477343 -5.020492 8.313884 -0.552403 2.219142 0.007195 -0.002911 1380380.000000 1 0 0
-4.455524 7.992143 3.295408 9.725521 -1.062222 1.225111 0.000482 0.002468 -362085.000000 1 0 0
13.965976 6.164243 -4.077392 15.800997 0.415659 1.831796 0.019640 -0.003161 690133.000000 1 0 0
-6.671124 -8.452757 5.268508 11.987918 0.902660 1.115771 0.013364 -0.006695 587709.000000 1 0 0
1.604376 11.349643 2.713808 11.779354 1.430368 1.338321 0.000935 -0.001352 981776.000000 1 0 0
-7.342824 7.236043 6.012508 11.934305 -0.778074 1.042804 0.001832 -0.002551 -461002.000000 1 0 0
-17.404224 -4.088857 5.155408 18.606558 0.230750 1.290048 0.041466 -0.011011 -611616.000000 1 0 0
7.586376 -13.073857 -8.512292 17.347563 -1.045010 2.083679 0.015838 -0.003307 -770405.000000 1 0 0
-2.398324 12.806343 -2.861092 13.339424 -1.385664 1.786960 -0.002112 0.001824 443495.000000 1 0 0
-5.596724 13.863043 -5.772692 16.025956 -1.187091 1.939288 0.019762 -0.003001 2758090.000000 1 0 0
-5.678924 2.406843 7.439808 9.664048 -0.400871 0.692200 0.004323 -0.000590 1016830.000000 1 0 0
-7.482424 5.048343 1.502008 9.150326 -0.593539 1.405902 0.004978 -0.001454 1371640.000000 1 0 0
10.764576 -5.735657 -4.876792 13.136093 -0.489563 1.951153 0.009237 -0.006481 2427610.000000 1 0 0
-9.543624 -0.836257 6.871908 11.789962 0.087401 0.948551 -0.000398 -0.001051 973024.000000 1 0 0
-11.271224 -4.578857 -2.604492 12.441455 0.385877 1.781696 0.004729 -0.001126 1886840.000000 1 0 0
6.586376 -4.306957 13.519208 15.642864 -0.579125 0.527156 0.033710 -0.016547 55255.800000 1 0 0
0.134376 10.291843 -11.812992 15.668021 1.557741 2.424859 0.000537 0.004542 -2006580.000000 1 0 0
-11.809024 -3.154857 1.413508 12.304641 0.261060 1.455666 0.000310 -0.002913 4232510.000000 1 0 0
5.186876 5.957243 5.422208 9.580854 0.854416 0.969221 -0.003724 0.002417 -5766280.000000 1 0 0
-7.147524 -0.078957 8.159508 10.847622 0.011046 0.719412 0.001353 -0.000876 543127.000000 1 0 0
1.700276 2.028343 9.639408 9.996164 0.873159 0.267969 0.004392 -0.003419 1913930.000000 1 0 0
10.637376 -4.865857 -1.928392 11.855337 -0.429016 1.734183 0.007019 -0.003748 3337590.000000 1 0 0
-9.625924 -2.391057 -1.672392 10.058453 0.243470 1.737839 0.007343 -0.002609 -1256100.000000 1 0 0
-1.959724 -5.131057 -9.947292 11.362961 1.205961 2.637087 0.009561 -0.005030 557690.000000 1 0 0
7.754876 -1.574257 6.612408 10.312144 -0.200281 0.874702 0.008306 -0.003594 1561390.000000 1 0 0
1.617676 -11.815957 -2.578092 12.201650 -1.434736 1.783691 -0.002179 -0.004752 -3441980.000000 1 0 0
-0.748424 -1.537757 4.781108 5.077778 1.117846 0.343520 0.009246 -0.003140 2504330.000000 1 0 0
7.680376 1.511043 9.986308 12.688489 0.194260 0.664806 0.010465 -0.001946 -191921.000000 1 0 0
-3.916724 10.698443 -8.149492 14.007556 -1.219849 2.191727 0.007783 0.004103 3267530.000000 1 0 0
-9.561024 12.626243 6.355208 17.065283 -0.922681 1.189197 0.011841 -0.012683 950866.000000 1 0 0
-2.568524 -2.384157 -11.111092 11.650661 0.748190 2.836063 0.013754 -0.008569 154265.000000 1 0 0
1.358776 -11.897257 11.069008 16.306868 -1.457080 0.824677 0.004260 0.001467 2650440.000000 1 0 0
1.367376 3.464343 -2.020092 4.236999 1.194867 2.067778 0.002269 0.000136 2581970.000000 1 0 0
-1.885724 -9.427257 -11.999892 15.376168 1.373373 2.466136 -0.002699 0.001894 588626.000000 1 0 0
1.309176 -2.692757 1.530608 3.362684 -1.118262 1.098228 0.009432 -0.002838 1430000.000000 1 0 0
-1.087124 -2.158357 -6.581492 7.011161 1.104208 2.789684 0.006863 -0.009147 271888.000000 1 0 0
1.832576 5.835443 4.005808 7.311445 1.266507 0.990966 -0.007037 0.004762 -1266050.000000 1 0 0
-10.981224 8.573543 3.651008 14.402180 -0.662890 1.314496 0.002387 -0.006549 1620300.000000 1 0 0
-16.374824 -1.536257 3.983308 16.922225 0.093544 1.333177 0.027261 -0.011247 -229156.000000 1 0 0
-12.241724 0.198243 6.814308 14.011920 -0.016193 1.062921 0.002617 0.000659 1473230.000000 1 0 0
-5.127724 2.984743 4.684208 7.559369 -0.527138 0.902492 0.004894 0.001320 136880.000000 1 0 0
5.174076 -6.019257 4.074908 8.922297 -0.860763 1.096502 0.004378 -0.005766 2108180.000000 1 0 0
9.871976 3.454143 6.301108 12.210281 0.336580 1.028564 0.000059 0.001715 -385180.000000 1 0 0
-12.154524 5.788143 3.241208 13.847039 -0.444438 1.334532 0.006116 -0.006018 1899940.000000 1 0 0
-4.920124 12.281543 -1.322492 13.296350 -1.189763 1.670424 -0.002226 0.005511 125279.000000 1 0 0
-1.525124 -12.148157 10.275008 15.983726 1.445906 0.872594 0.016224 -0.007447 1956550.000000 1 0 0
5.155076 6.289743 13.873108 16.081007 0.884218 0.530209 0.020391 -0.011366 883802.000000 1 0 0
12.908676 -3.718457 -5.962592 14.697392 -0.280466 1.988530 0.007611 -0.004229 2081580.000000 1 0 0
3.616076 -2.577157 6.352208 7.750373 -0.619195 0.610083 0.004624 -0.003309 1994950.000000 1 0 0
7.354276 -11.739857 -0.598492 13.866067 -1.011165 1.613972 0.005550 -0.007253 -1269200.000000 1 0 0
-5.973024 -6.611757 -4.081492 9.800558 0.836109 2.000339 0.017502 -0.004789 -1001930.000000 1 0 0
0.434676 -8.961957 4.995008 10.269163 -1.522332 1.062822 0.005560 -0.009421 2138320.000000 1 0 0
-10.320724 2.484343 -0.354292 10.621433 -0.236220 1.604159 0.002865 -0.001159 -674126.000000 1 0 0
-1.897924 8.861943 -0.445192 9.073828 -1.359818 1.619879 0.001397 0.000174 -481240.000000 1 0 0
-3.603424 2.277143 -6.673592 7.918768 -0.563573 2.573180 0.012229 -0.008154 627873.000000 1 0 0
-12.782824 2.941543 6.369308 14.581542 -0.226179 1.118751 0.008187 -0.006807 -733626.000000 1 0 0
11.328076 1.616843 7.975608 13.948111 0.141771 0.962091 0.011078 -0.007892 -2224040.000000 1 0 0
6.044376 2.618943 -3.246292 7.343824 0.408868 2.028672 0.000907 0.000977 769173.000000 1 0 0
10.552776 -2.404057 6.351108 12.548989 -0.223990 1.040133 0.010873 -0.006198 2520640.000000 1 0 0
-1.050824 10.960243 3.995308 11.712969 -1.475212 1.222708 0.002163 0.004199 938466.000000 1 0 0
-1.423924 -12.130157 7.398208 14.279417 1.453944 1.026165 0.009806 -0.002958 -865117.000000 1 0 0
8.033176 8.682443 -7.779392 14.157530 0.824221 2.152548 0.008567 -0.000732 1990690.000000 1 0 0
-4.637024 -5.936457 -8.700892 11.508651 0.907680 2.428024 0.011718 -0.004396 1490370.000000 1 0 0
-8.522624 -5.367957 -11.655192 15.404337 0.562078 2.428921 0.018400 0.000824 1100820.000000 1 0 0
6.024176 -0.677857 -9.973792 11.671620 -0.112051 2.595449 0.005380 -0.001060 632604.000000 1 0 0
-11.153724 -5.455757 -5.392492 13.536980 0.454924 1.980516 0.008575 -0.006142 565660.000000 1 0 0
3.827176 8.933843 -2.755192 10.102074 1.166057 1.847031 0.004870 -0.003217 1834860.000000 1 0 0
11.779576 -10.378657 -3.937492 16.185758 -0.722259 1.816531 0.017732 -0.005928 319717.000000 1 0 0
4.057776 -11.275357 3.979408 12.626753 -1.225347 1.250174 -0.000874 -0.007196 -563483.000000 1 0 0
-0.943624 0.849243 3.130508 3.378124 -0.732804 0.385262 0.005807 -0.000109 -1235910.000000 1 0 0
-10.615324 -5.123957 4.516308 12.622879 0.449707 1.204899 0.007634 -0.002771 2382380.000000 1 0 0
4.600776 -8.628957 2.853708 10.186740 -1.080959 1.286857 -0.000746 -0.006513 6014480.000000 1 0 0
-3.635824 -5.825657 2.551108 7.325684 1.012841 1.215102 0.008495 -0.004706 2467390.000000 1 0 0
10.091176 5.154443 12.449808 16.834424 0.472240 0.738403 0.030708 -0.000807 1435530.000000 1 0 0
1.762476 -12.271457 -5.254792 13.465059 -1.428148 1.971704 -0.002519 -0.002414 1179780.000000 1 0 0
9.946676 -10.690757 -1.673392 14.697921 -0.821437 1.684896 0.013045 -0.007336 1134080.000000 1 0 0
9.697876 -4.458757 -9.118392 14.038318 -0.430946 2.277770 0.010910 -0.002065 2413960.000000 1 0 0
-7.428324 -3.068257 -13.087492 15.358276 0.391704 2.590869 0.015710 -0.002703 1516770.000000 1 0 0
0.444776 6.254243 -2.542792 6.766031 1.499800 1.956075 0.002709 -0.000516 2528980.000000 1 0 0
-5.961124 -9.520957 0.921508 11.270883 1.011402 1.488945 0.012754 -0.005345 176333.000000 1 0 0
-8.944224 -4.011357 0.569708 9.819099 0.421594 1.512743 0.004999 -0.003247 2597040.000000 1 0 0
1.822976 3.800443 12.067408 12.782368 1.123541 0.336044 0.003749 -0.008038 -202442.000000 1 0 0
6.626776 4.254943 9.712308 12.503904 0.570790 0.681320 0.000966 -0.000934 1549630.000000 1 0 0
-8.377224 9.814943 -3.632792 13.405528 -0.864264 1.845220 0.010764 -0.001290 2532510.000000 1 0 0
16.452376 2.125743 -6.029892 17.651035 0.128494 1.919433 0.039061 -0.001053 682612.000000 1 0 0
-11.059824 2.687743 -5.060192 12.455891 -0.238397 1.989142 -0.001828 0.000357 1713420.000000 1 0 0
-13.794924 4.011243 1.551108 14.449773 -0.282974 1.463244 0.008252 -0.003644 -1406190.000000 1 0 0
-17.458724 10.406343 3.429708 20.612179 -0.537513 1.403627 0.048127 -0.023064 -1031310.000000 1 0 0
-14.359624 2.903343 -1.142292 14.694661 -0.199498 1.648610 0.009704 -0.004263 -419472.000000 1 0 0
-14.415224 5.004843 5.156408 16.107008 -0.334171 1.244925 0.012774 -0.008165 -282677.000000 1 0 0
-17.544524 7.477743 3.159008 19.331485 -0.402899 1.406648 0.038186 -0.009713 -2078210.000000 1 0 0
-15.320524 12.496343 -3.332192 20.049453 -0.684217 1.737770 0.049754 -0.007587 -476803.000000 1 0 0
-8.547024 12.489943 -9.537592 17.888990 -0.970677 2.133121 0.021289 -0.014724 1599400.000000 1 0 0
-12.588524 8.746943 -9.965292 18.283517 -0.607251 2.147236 0.007127 0.000613 -235915.000000 1 0 0
-14.013024 -3.528157 -12.199192 18.911188 0.246650 2.271922 0.039711 -0.001591 -567824.000000 1 0 0
-14.831824 5.709343 -7.603892 17.618138 -0.367455 2.017056 0.014740 0.000034 -526983.000000 1 0 0
-11.027024 13.464043 -8.489492 19.363553 -0.884578 2.024643 0.025809 -0.011046 533314.000000 1 0 0
-10.881324 13.528443 3.921508 17.798883 -0.893421 1.348650 0.014024 -0.010680 -839768.000000 1 0 0
-15.342024 3.264543 3.055808 15.980392 -0.209657 1.378389 0.012901 -0.001065 1619280.000000 1 0 0
-11.249024 9.393143 -12.525892 19.278736 -0.695732 2.278020 0.023509 -0.010896 -80343.100000 1 0 0
-13.186924 11.506543 -9.198492 19.771388 -0.717453 2.054705 0.026307 -0.012186 -81192.700000 1 0 0
-9.064524 14.495143 -3.533992 17.457488 -1.011946 1.774639 0.022376 -0.007657 1725330.000000 1 0 0
-16.878424 8.142443 -4.076492 19.178070 -0.449483 1.784990 0.037087 -0.004971 -580562.000000 1 0 0
-17.041124 6.627743 0.375008 18.288454 -0.370924 1.550290 0.032182 -0.001980 -856308.000000 1 0 0
-10.579624 2.724143 -12.579992 16.661501 -0.252015 2.426502 0.007445 -0.003735 98119.400000 1 0 0
-17.060124 0.852043 2.306008 17.236342 -0.049902 1.436606 0.031176 -0.009875 -845755.000000 1 0 0
-12.714324 1.250143 -6.961792 14.549345 -0.098011 2.069737 0.004585 -0.003405 1909950.000000 1 0 0
-12.367224 9.057243 -5.470892 16.276135 -0.632115 1.913601 0.012654 0.000116 -796851.000000 1 0 0
-9.692124 13.859543 1.240108 16.957655 -0.960533 1.497601 0.019027 -0.008744 558199.000000 1 0 0
-12.290024 11.054543 2.812408 16.767745 -0.732524 1.402273 0.014350 -0.009099 -15621.200000 1 0 0
-12.668424 6.862343 -3.672292 14.868304 -0.496440 1.820367 0.005943 0.000351 1012440.000000 1 0 0
-15.741024 3.646843 -9.432792 18.709807 -0.227661 2.099209 0.011881 -0.004604 -2073620.000000 1 0 0
-15.174624 5.791643 -4.689092 16.905619 -0.364602 1.851851 0.016279 0.001091 1614490.000000 1 0 0
-17.891624 5.163543 7.567508 20.100736 -0.280967 1.184803 0.038199 -0.019747 2507350.000000 1 0 0
-15.998924 9.954043 -2.040792 18.952926 -0.556561 1.678682 0.029039 -0.003787 -499307.000000 1 0 0
-8.860624 9.931243 -8.319992 15.695940 -0.842309 2.129483 0.008205 -0.004904 1377320.000000 1 0 0
-17.077424 4.147243 -1.334892 17.624415 -0.238237 1.646610 0.022421 -0.000231 967690.000000 1 0 0
-10.242724 5.432343 -4.589392 12.469414 -0.487640 1.947709 0.004496 -0.001630 -453780.000000 1 0 0
-18.232424 2.700743 6.092308 19.412149 -0.147059 1.251562 0.061069 -0.024793 -265216.000000 1 0 0
-10.420124 10.141343 -5.722192 15.625918 -0.771841 1.945717 0.012153 -0.003166 103991.000000 1 0 0
-15.420024 0.498143 -5.911792 16.521943 -0.032294 1.936723 0.010007 -0.002636 789326.000000 1 0 0
-16.402424 -4.161857 -8.811692 19.078954 0.248490 2.050881 0.038619 -0.020426 -853147.000000 1 0 0
-9.987424 9.624243 -1.046992 13.909382 -0.766882 1.646140 0.008558 -0.000700 1898230.000000 1 0 0
-17.385624 -3.096057 -3.264792 17.958407 0.176234 1.753610 0.023261 -0.006926 -305994.000000 1 0 0
-12.084124 4.971143 -11.537692 17.431485 -0.390276 2.294131 0.002521 -0.001075 15870.700000 1 0 0
-16.353124 7.019343 5.868908 18.738728 -0.405453 1.252239 0.034323 -0.015248 1579280.000000 1 0 0
-12.179824 5.968543 -8.784392 16.159739 -0.455644 2.145513 0.003837 -0.001366 1100330.000000 1 0 0
-14.630624 8.299343 0.051508 16.820729 -0.515997 1.567734 0.021092 -0.003043 1305120.000000 1 0 0
-14.932524 11.835543 3.921908 19.453579 -0.670213 1.367802 0.028770 -0.022180 632845.000000 1 0 0
-17.340824 3.948843 -4.089692 18.248922 -0.223901 1.796822 0.024096 -0.001098 -1070640.000000 1 0 0
-13.902124 13.262443 -0.815692 19.230882 -0.761854 1.613225 0.035613 -0.011209 658032.000000 1 0 0
-10.167024 6.716543 -13.091692 17.884986 -0.583805 2.392040 -0.000831 -0.005374 821794.000000 1 0 0
-15.919424 -1.112357 -8.343392 18.007710 0.069761 2.052538 0.017972 -0.011563 -1341520.000000 1 0 0
-11.565124 11.805643 -0.023192 16.526520 -0.795689 1.572200 0.021224 -0.007501 165458.000000 1 0 0
-11.985724 7.364743 -0.946392 14.099386 -0.550984 1.637970 0.007541 -0.000246 1638370.000000 1 0 0
-11.549524 0.079943 -11.639592 16.397500 -0.006922 2.360067 0.011845 -0.005458 497749.000000 1 0 0
-19.108524 -1.348957 -4.673292 19.717887 0.070478 1.810081 0.030513 -0.012177 -787831.000000 1 0 0
-18.063724 1.309543 -5.061992 18.805234 -0.072369 1.843338 0.018640 -0.004130 186742.000000 1 0 0
-13.380024 -0.124357 -9.490692 16.404687 0.009294 2.187728 0.010665 -0.007573 -209870.000000 1 0 0
-6.205224 11.385943 -13.263492 18.548982 -1.071808 2.367495 0.006117 -0.005882 -2236300.000000 1 0 0
16.464776 5.904943 6.970108 18.829222 0.344352 1.191599 0.065211 -0.018803 -80455.300000 1 0 0
14.706476 10.159143 -5.414192 18.676244 0.604521 1.864916 0.055821 -0.026883 1014600.000000 1 0 0
2.233276 16.898843 4.353408 17.592913 1.439402 1.320746 0.018465 -0.006719 855791.000000 1 0 0
-4.001124 18.112643 -5.945292 19.478792 -1.353386 1.880964 0.023576 -0.011629 765938.000000 1 0 0
5.444176 14.436343 5.651008 16.431097 1.210172 1.219706 0.014819 -0.007182 38808.400000 1 0 0
10.152776 6.071643 15.194408 19.256524 0.538968 0.661531 0.055220 -0.003778 -2838610.000000 1 0 0
4.537076 12.702343 -1.116592 13.534451 1.227736 1.653390 0.006804 -0.007720 1830430.000000 1 0 0
3.461176 13.822643 12.953808 19.257371 1.325442 0.832988 0.029897 -0.010795 615621.000000 1 0 0
-0.839024 12.360043 9.187108 15.423280 -1.503018 0.932703 0.014369 -0.000637 1149990.000000 1 0 0
-7.853024 13.956643 8.403308 18.085172 -1.058276 1.087555 0.018102 -0.017460 2047510.000000 1 0 0
11.293676 12.826443 -4.130192 17.581901 0.848860 1.807924 0.071920 -0.014241 -315350.000000 1 0 0
-5.916424 16.117643 0.775308 17.186727 -1.218989 1.525670 -0.000786 0.002310 -66677.300000 1 0 0
3.249276 10.566543 6.874508 13.018006 1.272468 1.014462 0.004477 0.003156 2390910.000000 1 0 0
-1.356024 15.517343 2.425308 15.764164 -1.483630 1.416333 0.002309 0.001232 -1602300.000000 1 0 0
9.925376 8.836943 9.545508 16.362193 0.727451 0.947902 0.016758 -0.005189 1784200.000000 1 0 0
7.286376 12.154243 6.271808 15.496853 1.030750 1.154129 0.009956 -0.003746 44453.500000 1 0 0
11.749376 14.070143 -1.584492 18.399113 0.875041 1.657021 0.067975 -0.008843 -820260.000000 1 0 0
9.586576 15.934643 -1.118792 18.629734 1.029188 1.630887 0.055556 -0.007467 -375713.000000 1 0 0
10.026676 13.661143 2.934108 17.197966 0.937643 1.399350 0.038691 -0.012742 2469790.000000 1 0 0
-6.092024 14.560543 6.229708 16.968543 -1.174535 1.194872 -0.004712 -0.006615 70553.700000 1 0 0
-1.008924 18.261043 -6.172492 19.302417 -1.515602 1.896292 0.035361 -0.001197 1653490.000000 1 0 0
-3.649624 15.687643 5.330208 16.965642 -1.342219 1.251207 -0.006017 -0.000296 2370590.000000 1 0 0
7.039176 12.322143 10.588008 17.705680 1.051776 0.929792 0.021246 -0.004025 2366540.000000 1 0 0
1.388676 14.581643 6.159908 15.890160 1.475848 1.172709 0.009839 -0.000200 1572010.000000 1 0 0
17.487376 7.712943 -1.427692 19.166014 0.415393 1.645356 0.025312 -0.005374 115263.000000 1 0 0
1.893776 16.157643 -3.280292 16.595666 1.454122 1.769766 0.012649 -0.008052 1239700.000000 1 0 0
6.634776 11.103543 0.564908 12.947125 1.032190 1.527151 0.009546 -0.005858 2219310.000000 1 0 0
12.669376 9.301343 3.202208 16.040019 0.633286 1.369807 0.027694 -0.005753 -2186710.000000 1 0 0
5.948676 14.290343 -3.390192 15.845947 1.176341 1.786410 0.015938 -0.004553 825686.000000 1 0 0
2.937776 16.445343 1.518908 16.774591 1.394022 1.480124 0.019840 -0.016656 -2048700.000000 1 0 0
2.491976 18.867043 -2.450092 19.187970 1.439476 1.698835 0.023120 -0.027697 -638989.000000 1 0 0
3.986276 11.963943 10.692608 16.533547 1.249174 0.867518 0.020141 -0.007123 2533550.000000 1 0 0
7.966576 11.433443 3.374608 14.337989 0.962236 1.333206 0.009335 -0.002976 1899320.000000 1 0 0
0.712476 12.502543 0.189208 12.524257 1.513871 1.555688 0.005228 -0.003848 -1526770.000000 1 0 0
11.800176 9.859043 -4.601292 16.050444 0.696015 1.861553 0.041685 -0.009708 1019260.000000 1 0 0
-1.416224 16.543743 9.803108 19.282169 -1.485400 1.037467 0.010608 -0.003709 -202709.000000 1 0 0
7.883676 14.861343 -7.932192 18.599235 1.083061 2.011393 0.043026 -0.004644 1582360.000000 1 0 0
14.495676 7.610743 -1.354792 16.428131 0.483475 1.653358 0.022563 -0.003902 758886.000000 1 0 0
12.484376 8.321243 5.972208 16.148374 0.587910 1.191967 0.018244 -0.008336 -1151570.000000 1 0 0
-3.124824 14.187843 10.209208 17.756333 -1.354011 0.958239 0.021459 -0.011508 1666790.000000 1 0 0
-4.834524 17.062043 -3.232792 18.026006 -1.294684 1.751112 0.026950 -0.006408 1545750.000000 1 0 0
-7.318824 16.342943 -1.874992 18.004793 -1.149750 1.675124 0.020887 -0.004532 321240.000000 1 0 0
8.286676 11.224643 -1.904992 14.081569 0.934853 1.706495 0.014529 -0.006130 -31855.200000 1 0 0
8.492376 12.940343 -4.219592 16.043001 0.990025 1.836945 0.038625 -0.004215 3149560.000000 1 0 0
2.477276 14.826643 -7.315292 16.717648 1.405243 2.023701 0.000460 -0.001463 -1396110.000000 1 0 0
11.403076 11.371343 9.710908 18.805300 0.784005 1.028164 0.031556 -0.006285 280665.000000 1 0 0
8.443076 15.663443 1.499608 17.857150 1.076414 1.486719 0.025340 -0.010989 78478.500000 1 0 0
6.073476 9.866443 7.786908 13.959575 1.019008 0.979041 0.004086 0.004142 1567150.000000 1 0 0
14.397876 11.431743 2.553208 18.560777 0.671064 1.432799 0.046181 -0.013497 1479750.000000 1 0 0
12.021576 12.622143 1.052308 17.462649 0.809763 1.510499 0.047374 -0.009723 3069600.000000 1 0 0
5.279776 15.691443 8.214008 18.481541 1.246221 1.110243 0.025060 -0.008588 -2407880.000000 1 0 0
11.536876 14.966543 5.048408 19.559738 0.914088 1.309739 0.051247 -0.017164 1967330.000000 1 0 0
5.784376 16.733243 1.774808 17.793548 1.237974 1.470886 0.019312 -0.020534 -258737.000000 1 0 0
-0.779524 16.105043 -4.219692 16.666910 -1.522432 1.826760 0.010917 -0.003837 947246.000000 1 0 0
16.058876 6.479543 2.518708 17.499024 0.383509 1.426360 0.019685 -0.007543 -444545.000000 1 0 0
7.667476 16.674343 -3.187492 18.627507 1.139792 1.742760 0.048570 -0.014994 -205749.000000 1 0 0
14.916876 8.199143 7.392508 18.557702 0.502579 1.161076 0.055025 -0.015547 481424.000000 1 0 0
2.066076 12.914243 8.610208 15.658289 1.412156 0.988574 0.011206 -0.001769 2589130.000000 1 0 0
15.839776 7.444343 -5.933692 18.480407 0.439343 1.897666 0.022579 -0.011810 -369143.000000 1 0 0
-3.192924 16.943243 0.690608 17.255295 -1.384532 1.530763 -0.001372 -0.003375 -123445.000000 1 0 0
-2.987624 18.540643 4.639308 19.344367 -1.411030 1.328608 0.000377 0.001465 1440080.000000 1 0 0
-1.111724 19.042443 0.931808 19.097613 -1.512481 1.521985 0.006770 -0.013526 602971.000000 1 0 0
6.806376 16.874043 -5.968992 19.149124 1.187394 1.887790 0.038910 -0.007103 1189660.000000 1 0 0
10.932676 9.984643 0.821108 14.828712 0.740106 1.515395 0.024301 -0.005206 -1589170.000000 1 0 0
9.178876 8.687043 14.259008 19.053498 0.757876 0.725200 0.049382 -0.013914 -629435.000000 1 0 0
6.153676 12.362843 -8.347392 16.136498 1.108946 2.114488 0.022492 -0.004483 923845.000000 1 0 0
6.296976 8.972743 13.418108 17.326501 0.958870 0.684988 0.029352 -0.013515 1333710.000000 1 0 0
16.616776 9.514443 2.796408 19.351014 0.520014 1.425779 0.032729 -0.011462 -2839080.000000 1 0 0
2.439976 14.685743 -0.766592 14.906784 1.406154 1.622245 0.008818 -0.011027 224165.000000 1 0 0
9.103176 12.838343 8.349308 17.815774 0.954015 1.083038 0.024422 -0.008473 382432.000000 1 0 0
7.209676 9.390243 10.652908 15.926096 0.916010 0.838073 0.014159 -0.003887 1037500.000000 1 0 0
4.177476 15.807643 -5.225992 17.165194 1.312433 1.880160 0.023757 -0.009169 1583850.000000 1 0 0
0.234076 16.467043 -8.106992 18.355970 1.556582 2.028238 0.012808 0.000670 719459.000000 1 0 0
-2.607524 15.643643 -2.040192 15.990158 -1.405632 1.698736 -0.003165 0.000345 1109830.000000 1 0 0
13.294476 10.487943 7.637008 18.575896 0.667933 1.147109 0.048354 -0.016308 2631900.000000 1 0 0
-1.113024 15.852443 6.935708 17.339055 -1.500700 1.159274 0.006661 -0.002652 3476880.000000 1 0 0
13.373376 13.256443 6.608208 19.956174 0.781007 1.233289 0.058022 -0.020252 -977578.000000 1 0 0
5.235676 17.310043 4.532708 18.643909 1.277080 1.325215 0.018517 -0.012419 2070820.000000 1 0 0
10.723176 9.451843 -1.881992 14.417549 0.722466 1.701705 0.020624 -0.001975 466900.000000 1 0 0
3.126876 12.686843 4.769108 13.909627 1.329147 1.220833 0.005220 -0.000763 1981610.000000 1 0 0
-0.317124 18.023043 3.539208 18.369993 -1.553203 1.376922 0.000357 -0.005637 2530130.000000 1 0 0
-7.898624 15.754843 -5.894692 18.583615 -1.106073 1.893570 0.039307 -0.013361 -493491.000000 1 0 0
-12.438924 -9.171157 8.313108 17.548354 0.635320 1.077280 0.027722 -0.007720 -672943.000000 1 0 0
-13.251124 -11.752257 6.806308 18.974553 0.725523 1.203914 0.028248 -0.002502 559630.000000 1 0 0
-6.551524 -12.240057 12.236508 18.506042 1.079346 0.848357 0.024563 -0.013393 120925.000000 1 0 0
-1.755424 -10.760257 14.324208 18.001321 1.409081 0.650583 0.011808 -0.008511 125898.000000 1 0 0
-8.881324 2.891643 10.996308 14.427693 -0.314763 0.704143 0.003212 0.000217 1789470.000000 1 0 0
0.526976 10.047543 15.086308 18.133602 1.518396 0.588178 0.012474 -0.013400 823137.000000 1 0 0
1.006176 -6.775057 16.532708 17.895369 -1.423362 0.392766 0.015381 -0.016458 2690170.000000 1 0 0
6.070576 2.482443 17.626008 18.806663 0.388181 0.356221 0.054976 -0.022663 1353490.000000 1 0 0
-5.013724 -2.829857 17.656208 18.571139 0.513848 0.315202 0.012878 -0.016060 289383.000000 1 0 0
-4.460224 8.173143 12.956208 15.954849 -1.071247 0.623132 0.008205 -0.003777 -519718.000000 1 0 0
0.142976 -4.808557 18.431808 19.049257 -1.541072 0.255304 0.023424 -0.025313 564239.000000 1 0 0
-11.643324 2.025343 11.163408 16.257020 -0.172226 0.813881 0.012421 -0.007391 1232510.000000 1 0 0
-3.389024 -6.031757 14.322108 15.905670 1.058890 0.450015 0.010438 -0.011423 1268060.000000 1 0 0
-7.523324 -2.259257 14.663108 16.634644 0.291732 0.491809 0.016105 -0.005582 1130810.000000 1 0 0
-6.192224 -1.154557 10.706308 12.421822 0.184336 0.531801 0.003687 -0.002836 658485.000000 1 0 0
-3.941624 2.295143 11.120608 12.019651 -0.527291 0.389228 0.001237 0.000550 725118.000000 1 0 0
-6.465424 6.189143 13.493708 16.192201 -0.763569 0.585662 -0.000988 -0.001334 328650.000000 1 0 0
-9.016524 5.424943 12.498108 16.338005 -0.541644 0.699799 0.001232 -0.003681 -484116.000000 1 0 0
-12.277524 -2.156957 15.898108 20.202473 0.173909 0.664964 0.045250 -0.006770 1737090.000000 1 0 0
-3.476524 -7.531957 16.910608 18.835744 1.138363 0.456063 0.014838 -0.013507 -2143730.000000 1 0 0
-0.518624 -5.353657 14.328008 15.304327 1.474225 0.359120 0.011088 -0.008307 2207790.000000 1 0 0
-14.228824 -2.206257 13.763408 19.918795 0.153830 0.807958 0.047169 -0.009756 -162197.000000 1 0 0
-6.515824 1.472043 12.202708 13.911469 -0.222188 0.500862 0.004076 -0.005204 2978420.000000 1 0 0
2.181476 -2.175657 14.559608 14.882019 -0.784063 0.208534 0.013567 -0.007976 831274.000000 1 0 0
-12.650124 3.927543 9.100108 16.070570 -0.301039 0.968836 0.009239 -0.002874 -555302.000000 1 0 0
-9.193424 -3.016057 12.661908 15.935481 0.317003 0.652492 0.010351 -0.003679 1671530.000000 1 0 0
-7.026624 -7.268657 15.273108 18.315967 0.802327 0.584717 0.020996 -0.015276 224867.000000 1 0 0
-3.202524 6.062343 19.309208 20.490331 -1.084793 0.341190 0.033094 -0.017895 -316064.000000 1 0 0
0.597576 5.476643 16.123008 17.038254 1.462113 0.329257 0.009992 -0.011437 1470730.000000 1 0 0
3.436476 1.581243 16.723308 17.145808 0.431250 0.222457 0.031388 -0.011824 1397580.000000 1 0 0
-11.795924 11.342443 7.752508 18.107905 -0.765802 1.128376 0.021309 -0.022180 416164.000000 1 0 0
0.572576 -9.439757 15.422408 18.091089 -1.510215 0.550073 -0.001608 -0.002800 76279.600000 1 0 0
-2.474524 -3.500357 18.852108 19.333332 0.955431 0.223584 0.007428 -0.020621 2051240.000000 1 0 0
-12.826724 2.281043 13.782008 18.965014 -0.175995 0.757280 0.012125 -0.015927 420407.000000 1 0 0
-5.385024 -0.539257 15.758908 16.662307 0.099807 0.330803 0.010687 -0.007283 936822.000000 1 0 0
-4.529024 -6.022857 11.673308 13.894351 0.926034 0.573241 0.007578 -0.006062 -1084920.000000 1 0 0
2.393976 1.817243 13.943108 14.263371 0.649293 0.212311 0.013143 -0.009520 -681920.000000 1 0 0
0.060076 3.250843 14.244608 14.610970 1.552318 0.224410 0.008560 -0.007839 -581514.000000 1 0 0
-13.058724 7.221243 12.194308 19.271165 -0.505130 0.885665 0.016761 -0.005114 913275.000000 1 0 0
0.837276 1.482943 18.205008 18.284487 1.056810 0.093273 0.014105 -0.007842 411653.000000 1 0 0
-2.081824 6.451943 12.434508 14.162576 -1.258677 0.499163 0.000277 -0.002065 1585740.000000 1 0 0
-13.559124 -2.722257 10.914208 17.617618 0.198135 0.902684 0.038443 -0.006771 755100.000000 1 0 0
-2.583324 3.593643 13.440108 14.150065 -0.947525 0.318115 0.001634 -0.002174 -834443.000000 1 0 0
3.502176 6.188743 16.312308 17.794863 1.055832 0.411089 0.020346 -0.011977 -566700.000000 1 0 0
-3.817724 12.367843 12.308408 17.861564 -1.271394 0.810550 0.021624 -0.012535 340743.000000 1 0 0
3.710876 -1.376257 17.002408 17.456992 -0.355146 0.228709 0.043635 -0.020949 -713297.000000 1 0 0
-15.920624 0.276043 9.142408 18.360994 -0.017337 1.049591 0.042564 -0.007965 1015540.000000 1 0 0
-4.621324 4.609743 15.116508 16.465576 -0.784144 0.407619 0.010435 -0.004989 -459398.000000 1 0 0
-8.007124 -8.291657 10.451708 15.559686 0.802854 0.834272 0.017475 -0.011661 4287890.000000 1 0 0
-2.671624 -0.507757 14.696608 14.946092 0.187816 0.182970 0.005519 -0.004603 1563340.000000 1 0 0
-1.855624 0.916643 17.195508 17.319615 -0.458821 0.119785 0.007519 -0.010187 2071700.000000 1 0 0
-0.676024 -2.435757 14.383508 14.603945 1.300069 0.173968 0.008697 -0.004927 -821886.000000 1 0 0
5.377476 -8.073757 16.375508 19.033130 -0.983225 0.534804 0.041653 -0.017252 1445190.000000 1 0 0
-4.573624 10.017943 10.635308 15.309703 -1.142514 0.802825 0.004720 -0.003754 -988780.000000 1 0 0
-6.231424 2.243043 15.194208 16.574856 -0.345517 0.411049 0.007788 -0.004099 -2142380.000000 1 0 0
-4.869424 6.774343 17.093008 19.020356 -0.947561 0.454070 0.017962 -0.011185 -287624.000000 1 0 0
-4.286924 9.234143 15.693408 18.706421 -1.136158 0.575479 0.019651 -0.005982 -252352.000000 1 0 0
-4.537524 -9.856757 18.289208 21.265933 1.139372 0.535480 0.035855 -0.021216 -127439.000000 1 0 0
-6.906724 -4.172357 11.166608 13.776957 0.543429 0.625743 0.008869 -0.002258 1090740.000000 1 0 0
-2.324624 -0.700557 19.642408 19.791888 0.292707 0.122981 0.012324 -0.012752 -700458.000000 1 0 0
-5.678124 -4.509457 15.218708 16.857798 0.671183 0.444631 0.011373 -0.010324 811700.000000 1 0 0
-13.000924 -0.016257 9.725208 16.235885 0.001250 0.928551 0.016440 -0.000473 2359170.000000 1 0 0
-14.602124 8.814143 10.398008 19.975728 -0.543077 1.023322 0.030179 -0.013486 -230141.000000 1 0 0
-8.499124 10.647143 12.755108 18.662517 -0.897121 0.818303 0.018058 -0.018393 -1216040.000000 1 0 0
-10.560824 7.135843 10.822408 16.720520 -0.594224 0.866821 0.014048 -0.003415 982392.000000 1 0 0
-9.797824 -6.617557 14.764208 18.914842 0.594032 0.675232 0.036636 -0.019574 629586.000000 1 0 0
-0.609624 -13.456957 14.457308 19.760442 1.525525 0.750088 0.011496 -0.012931 -263591.000000 1 0 0
3.816176 -5.570757 16.995308 18.287619 -0.970183 0.378191 0.045404 -0.024004 2701080.000000 1 0 0
-7.346024 9.427943 10.365008 15.820353 -0.908883 0.856390 0.009944 -0.007068 1141910.000000 1 0 0
-10.317624 -6.790457 11.783408 17.070805 0.582077 0.808939 0.029943 -0.018523 752702.000000 1 0 0
-10.907324 -4.036557 10.714108 15.813147 0.354448 0.826378 0.018323 -0.004437 -1815920.000000 1 0 0
-10.081824 -10.329357 9.762708 17.425535 0.797525 0.976105 0.022241 -0.010830 1213710.000000 1 0 0
-9.877024 -3.685757 15.314508 18.592326 0.357161 0.602890 0.034101 -0.021518 2770930.000000 1 0 0
5.641576 -3.325957 15.982408 17.272137 -0.532696 0.388894 0.049444 -0.027250 978275.000000 1 0 0
-11.303024 0.550643 15.299208 19.029643 -0.048678 0.636860 0.024745 -0.013971 -808892.000000 1 0 0
-3.141724 3.111743 18.697308 19.213087 -0.780604 0.232233 0.018458 -0.015417 31055.500000 1 0 0
0.439576 7.364043 13.858208 15.699436 1.511175 0.489176 0.002151 -0.010659 1777850.000000 1 0 0
-13.125624 -7.267557 12.321208 19.414210 0.505674 0.883242 0.047959 -0.019526 282650.000000 1 0 0
-1.518324 -1.140357 12.073608 12.222018 0.644181 0.155997 0.008134 -0.005438 829380.000000 1 0 0
2.024276 -4.807457 13.093208 14.094021 -1.172259 0.379121 0.014608 -0.011563 836624.000000 1 0 0
-14.662724 -4.243857 8.647808 17.543956 0.281733 1.055351 0.045417 -0.011112 -417807.000000 1 0 0
8.116276 1.009943 16.167708 18.118739 0.123798 0.468338 0.061908 -0.022966 478744.000000 1 0 0
-1.327024 11.305643 13.302608 17.508225 -1.453954 0.707803 0.017754 -0.010660 -676381.000000 1 0 0
2.817276 -12.334857 -13.857192 18.764528 -1.346249 2.401607 0.009634 0.004116 -314266.000000 1 0 0
0.796176 -10.780057 -14.003592 17.690227 -1.497074 2.484220 0.003061 0.003982 -2880780.000000 1 0 0
3.393476 -14.442357 -12.441592 19.362091 -1.340016 2.268650 0.016397 0.004818 -207938.000000 1 0 0
-5.044624 -10.242557 -15.983292 19.642399 1.113154 2.521309 0.027216 -0.013935 -247841.000000 1 0 0
-1.122024 -12.185357 -15.000792 19.358864 1.478976 2.457321 0.018465 -0.005384 76045.000000 1 0 0
5.861976 -15.063457 -11.994792 20.128227 -1.199676 2.209206 0.009101 0.005598 860138.000000 1 0 0
1.885176 -11.832157 -16.205492 20.153704 -1.412798 2.504948 0.014418 -0.003060 -436321.000000 1 0 0
1.392276 -14.432757 -14.048892 20.189459 -1.474628 2.340403 0.028210 0.007825 -612838.000000 1 0 0
-1.131424 -10.670957 -15.842692 19.134794 1.465163 2.546242 0.019099 -0.006728 -336217.000000 1 0 0
-6.124924 -5.669157 -14.978692 17.146873 0.746774 2.633250 0.026861 -0.001299 141069.000000 1 0 0
-6.294324 -7.682557 -16.520892 19.276412 0.884397 2.600317 0.027857 -0.001233 291453.000000 1 0 0
5.027576 -12.560757 -11.439092 17.717279 -1.190065 2.272665 0.003899 0.006570 -275331.000000 1 0 0
-1.723024 -15.580357 -13.072792 20.411130 1.460654 2.265911 0.025951 -0.003996 388152.000000 1 0 0
15.398176 -7.222457 -8.932492 19.210859 -0.438579 2.054398 0.057676 -0.003607 -286376.000000 1 0 0
19.261076 -3.414057 -4.170392 20.000925 -0.175430 1.780848 0.103013 -0.009738 744057.000000 1 0 0
14.909076 -11.730157 -8.691792 20.866824 -0.666628 2.000428 0.044814 -0.010832 20815.900000 1 0 0
18.014476 -3.446957 -6.414192 19.430510 -0.189059 1.907216 0.108567 -0.003564 747788.000000 1 0 0
9.533976 -9.338257 -15.398292 20.376632 -0.775028 2.427494 0.080747 -0.018059 317970.000000 1 0 0
1.241876 1.868843 -15.241692 15.405973 0.984284 2.995425 0.014751 -0.004245 -135745.000000 1 0 0
4.846676 -4.271457 -13.925692 15.351238 -0.722397 2.707229 0.008865 -0.001961 955343.000000 1 0 0
13.212076 -5.428057 -8.712592 16.731169 -0.389817 2.118514 0.034494 -0.001356 -2124620.000000 1 0 0
2.974176 0.891443 -12.316692 12.702019 0.291207 2.894649 0.008121 -0.004502 -1724080.000000 1 0 0
0.647076 6.247443 -13.062192 14.493796 1.467590 2.693388 0.012706 -0.005077 -41725.500000 1 0 0
3.201776 -1.104757 -16.817992 17.155661 -0.332254 2.942859 0.023864 -0.003402 -694428.000000 1 0 0
13.206076 4.208543 -11.375092 17.930560 0.308507 2.258024 0.031257 -0.012650 414349.000000 1 0 0
-3.907424 9.363143 -16.707792 19.547039 -1.175449 2.595861 0.009224 -0.001263 -10651.500000 1 0 0
-0.248824 -5.043157 -17.687692 18.394287 1.521497 2.863520 0.019124 -0.008981 716116.000000 1 0 0
-0.527924 -8.675057 -17.473092 19.515232 1.510016 2.680028 0.024631 -0.009050 -2334820.000000 1 0 0
5.559776 -10.109857 -12.197892 16.790142 -1.068002 2.383998 0.004498 0.000639 450953.000000 1 0 0
1.670876 -9.753957 -18.028592 20.566031 -1.401141 2.639588 0.046726 -0.017845 -341252.000000 1 0 0
10.950276 8.781843 -14.686692 20.315714 0.675944 2.378820 0.081460 -0.023007 -936048.000000 1 0 0
10.982076 -3.831957 -12.835692 17.321803 -0.335720 2.405375 0.019486 -0.004641 353127.000000 1 0 0
4.924376 7.408343 -12.407992 15.267328 0.984152 2.519594 0.003792 0.001306 -51529.000000 1 0 0
9.575976 -5.936457 -12.549392 16.864995 -0.554947 2.409996 0.017385 -0.004494 -1206660.000000 1 0 0
-3.375624 0.386243 -15.945292 16.303262 -0.113926 2.931651 0.019746 -0.008681 633467.000000 1 0 0
-0.860324 10.745443 -12.972292 16.866685 -1.490903 2.448240 0.000282 0.002969 -1246830.000000 1 0 0
6.623476 -5.427157 -12.368192 15.043159 -0.686448 2.536027 0.011524 -0.003870 -158322.000000 1 0 0
17.684676 -6.289857 -8.030392 20.415613 -0.341714 1.975064 0.083383 -0.007407 63367.500000 1 0 0
13.028876 4.699043 -13.859392 19.593758 0.346143 2.356520 0.056156 -0.020811 439018.000000 1 0 0
14.246976 0.812943 -11.504892 18.330295 0.056999 2.249319 0.034974 -0.005418 40435.400000 1 0 0
14.873976 6.260643 -11.331792 19.719034 0.398403 2.182988 0.044623 -0.013072 52088.600000 1 0 0
8.332976 1.580443 -11.707092 14.456566 0.187435 2.514627 0.005461 -0.000534 691694.000000 1 0 0
9.938576 1.322543 -8.875992 13.390580 0.132294 2.295420 0.004657 -0.002557 -21811.700000 1 0 0
-0.128624 -5.830657 -12.976692 14.227004 1.548740 2.719215 0.002610 -0.002829 674271.000000 1 0 0
10.609376 -5.706457 -8.936492 14.999446 -0.493482 2.209043 0.014667 -0.004941 -1271130.000000 1 0 0
10.099276 8.514643 -11.240592 17.344896 0.700471 2.275835 0.039894 -0.017895 710528.000000 1 0 0
8.471976 8.206043 -14.768392 18.900236 0.769454 2.467681 0.049463 -0.006191 -133314.000000 1 0 0
8.498276 10.510343 -10.689392 17.232269 0.890856 2.239937 0.051936 -0.015893 -1358140.000000 1 0 0
7.149876 1.576243 -17.989292 19.422150 0.216987 2.755070 0.034000 -0.000731 -2422680.000000 1 0 0
12.170976 2.505243 -12.845592 17.872273 0.203002 2.372791 0.033307 -0.010997 -1635090.000000 1 0 0
2.677776 -0.971557 -19.280992 19.490281 -0.348052 2.994913 0.047237 -0.013835 -1006340.000000 1 0 0
10.366676 -2.224757 -15.528092 18.802637 -0.211400 2.542498 0.050405 -0.007164 296455.000000 1 0 0
8.292376 -0.627557 -13.090292 15.508484 -0.075535 2.575630 0.008004 -0.003906 1250530.000000 1 0 0
0.429576 4.203343 -14.672392 15.268652 1.468951 2.861207 0.011419 -0.002382 239562.000000 1 0 0
3.994076 -7.667357 -15.666392 17.893486 -1.090554 2.637341 0.024696 -0.011592 -2153550.000000 1 0 0
11.412476 -5.806357 -14.382392 19.256469 -0.470641 2.414163 0.061323 -0.008383 -719450.000000 1 0 0
-5.925524 4.348543 -16.906692 18.435235 -0.633095 2.731505 0.015043 -0.004606 -109287.000000 1 0 0
11.454476 7.893243 -9.170192 16.661354 0.603371 2.153624 0.037385 -0.015062 -959992.000000 1 0 0
9.438276 6.285843 -13.256692 17.445136 0.587537 2.433967 0.018804 -0.005016 -1889000.000000 1 0 0
12.166076 0.874343 -10.120392 15.849297 0.071744 2.263395 0.009673 0.001084 32451.800000 1 0 0
5.500576 -7.183757 -13.702092 16.419806 -0.917325 2.557995 0.017278 -0.004420 -1024930.000000 1 0 0
8.652476 -10.206057 -10.646092 17.098778 -0.867593 2.242887 0.021586 -0.000377 62089.600000 1 0 0
10.093976 4.638743 -15.822992 19.333219 0.430772 2.529479 0.058897 -0.017122 192227.000000 1 0 0
9.959376 -0.250657 -10.979492 14.825695 -0.025163 2.404717 0.009634 -0.000558 120083.000000 1 0 0
-1.780824 5.419043 -13.918692 15.042186 -1.253291 2.752650 0.005760 -0.005364 -64664.300000 1 0 0
1.325276 -0.655957 -15.004592 15.077282 -0.459607 3.043358 0.012329 -0.005368 479155.000000 1 0 0
11.504576 -10.554757 -14.165392 21.081188 -0.742367 2.307628 0.084966 -0.015325 957119.000000 1 0 0
9.428376 -7.773357 -10.727892 16.260597 -0.689481 2.291279 0.021880 -0.003029 -78814.100000 1 0 0
14.058576 -0.872057 -9.632292 17.064146 -0.061951 2.170594 0.030562 -0.002547 750370.000000 1 0 0
3.881476 11.223943 -12.328492 17.118250 1.237849 2.374881 0.013738 -0.004843 -708208.000000 1 0 0
-1.392724 2.844043 -17.164592 17.454268 -1.115424 2.959151 0.017948 -0.005981 22733.400000 1 0 0
5.782176 -0.527557 -17.822092 18.744035 -0.090987 2.826650 0.012200 0.004918 -304475.000000 1 0 0
6.365376 -6.416957 -15.990092 18.367863 -0.789434 2.627110 0.030465 -0.012404 424676.000000 1 0 0
-1.837224 -5.144157 -19.816892 20.555947 1.227768 2.872628 0.033845 -0.015246 -440407.000000 1 0 0
-0.006924 -4.378257 -15.238992 15.855474 1.569215 2.861822 0.007655 -0.005645 138064.000000 1 0 0
0.363776 0.694243 -12.975792 12.999442 1.088142 3.081263 0.010085 -0.007138 1279930.000000 1 0 0
15.651676 0.533743 -13.658892 20.780403 0.034088 2.288023 0.100915 -0.024657 554365.000000 1 0 0
-0.255924 6.925743 -16.451892 17.852063 -1.533860 2.742897 0.015111 0.001815 -146546.000000 1 0 0
-4.953424 -0.604657 -18.338392 19.005227 0.121468 2.875908 0.018271 -0.004966 -220337.000000 1 0 0
10.352076 -8.329257 -13.137792 18.685384 -0.677538 2.350551 0.026163 -0.013189 733968.000000 1 0 0
4.097276 8.513443 -17.387892 19.789016 1.122244 2.643853 0.042113 -0.006835 -123273.000000 1 0 0
9.323676 0.583743 -16.838192 19.256074 0.062527 2.635067 0.033572 -0.006263 115953.000000 1 0 0
3.071676 4.747643 -18.663492 19.501314 0.996540 2.847404 0.030405 -0.001637 -471872.000000 1 0 0
1.409176 -8.269457 -15.842692 17.926533 -1.402010 2.654627 0.011029 -0.010415 589025.000000 1 0 0
4.405876 7.706043 -15.001692 17.431168 1.051413 2.607291 0.015891 -0.000439 528245.000000 1 0 0
-5.775024 -0.452657 -15.355892 16.412167 0.078222 2.780866 0.012383 -0.003858 -877646.000000 1 0 0
2.870776 3.349443 -13.853392 14.538796 0.862200 2.833313 0.011198 -0.002280 632064.000000 1 0 0
-2.447524 -10.234757 -18.051492 20.894904 1.336066 2.613795 0.035624 -0.009367 235673.000000 1 0 0
6.235476 -9.014657 -15.452392 18.945227 -0.965660 2.524622 0.024596 -0.011414 500017.000000 1 0 0
-1.936724 5.437343 -17.461892 18.391120 -1.228618 2.822352 0.015817 -0.002707 -75410.400000 1 0 0
10.055776 -12.258157 -11.628492 19.662219 -0.883779 2.203606 0.053835 -0.006657 71029.500000 1 0 0
10.843776 3.668043 -9.401392 14.813108 0.326180 2.258374 0.007976 -0.005139 -1508990.000000 1 0 0
4.854576 -0.522557 -11.061392 12.091086 -0.107229 2.725904 0.005919 -0.006263 559961.000000 1 0 0
6.151676 9.565343 -11.433592 16.126560 0.999272 2.358863 0.019944 -0.007578 54184.800000 1 0 0
10.885576 -9.514757 -9.380792 17.234431 -0.718303 2.146357 0.037573 -0.003717 -403764.000000 1 0 0
3.197276 -2.406157 -14.542492 15.082978 -0.645141 2.873077 0.010214 -0.002474 -142015.000000 1 0 0
9.136676 -4.562157 -14.627492 17.839721 -0.463106 2.532102 0.036391 -0.009655 153414.000000 1 0 0
-3.979724 -6.486957 -16.495492 18.166455 1.020512 2.709328 0.009105 -0.005427 -1328360.000000 1 0 0
5.841876 -7.722457 -11.206992 14.810825 -0.923162 2.429010 0.002225 0.001184 -34275.600000 1 0 0
5.318576 6.257343 -16.911992 18.800454 0.866318 2.689540 0.027292 -0.008965 -1405090.000000 1 0 0
9.145676 1.152143 -19.391992 21.471380 0.125317 2.697860 0.057930 -0.012894 444144.000000 1 0 0
13.134276 5.729243 -9.416492 17.146537 0.411323 2.152176 0.016586 -0.008897 1140240.000000 1 0 0
-1.448324 -0.722757 -17.303292 17.378836 0.462871 3.048318 0.020928 -0.011611 1394130.000000 1 0 0
-0.229724 -0.504957 -19.471292 19.479193 1.143843 3.113109 0.041229 -0.018765 -471075.000000 1 0 0
2.757276 6.341743 -16.671792 18.049070 1.160670 2.748405 0.016818 0.002470 -322264.000000 1 0 0
7.651476 3.703143 -15.631292 17.793135 0.450748 2.643512 0.023313 -0.002831 156540.000000 1 0 0
3.098976 -9.999657 -14.807492 18.134459 -1.270274 2.526186 0.014306 -0.004506 237137.000000 1 0 0
8.967876 -10.578557 -13.296392 19.212566 -0.867615 2.335146 0.045289 -0.004579 146274.000000 1 0 0
3.812676 0.157243 -14.859492 15.341634 0.041219 2.890224 0.010762 -0.001593 -1420060.000000 1 0 0
-1.046024 -2.878457 -18.931292 19.177422 1.222236 2.981206 0.036377 -0.008022 380303.000000 1 0 0
9.363376 10.227343 -13.181992 19.132074 0.829470 2.330904 0.065724 -0.018768 205040.000000 1 0 0
4.402976 2.033743 -10.621592 11.676494 0.432707 2.713251 0.008988 -0.000294 -378272.000000 1 0 0
-0.493224 7.046843 -18.972092 20.244544 -1.500918 2.785155 0.030622 -0.009469 191431.000000 1 0 0
0.951676 -1.911257 -17.562292 17.691600 -1.108805 3.020614 0.030901 -0.013864 -2577660.000000 1 0 0
-4.523824 -2.124257 -14.048092 14.910612 0.439009 2.799796 0.016934 -0.009562 -3461890.000000 1 0 0
9.884076 6.081143 -10.271492 15.497703 0.551555 2.295315 0.016361 -0.005289 72385.100000 1 0 0
8.285976 5.398643 -17.542392 20.137981 0.577457 2.628254 0.058671 -0.014618 -30730.900000 1 0 0
11.311276 0.180343 -13.695492 17.763558 0.015942 2.451188 0.018759 0.003843 264207.000000 1 0 0
6.730476 11.997043 -11.848692 18.155436 1.059539 2.281840 0.042099 -0.015603 -413808.000000 1 0 0
-0.938624 0.643243 -15.119092 15.161851 -0.600795 3.066473 0.013495 -0.007974 -1199830.000000 1 0 0
-4.238524 -3.059657 -18.888292 19.598321 0.625252 2.871593 0.022023 -0.002648 -106785.000000 1 0 0
5.875976 -12.078957 -13.877292 19.313403 -1.118036 2.372485 0.018718 -0.001369 197344.000000 1 0 0
2.127776 -4.745357 -14.064792 14.995473 -1.149281 2.787426 0.005368 -0.003270 -1036540.000000 1 0 0
11.876476 2.009043 -15.348492 19.510590 0.167575 2.476201 0.066795 -0.013634 228835.000000 1 0 0
9.744176 2.316643 -13.797692 17.049695 0.233413 2.513693 0.022934 -0.008666 843473.000000 1 0 0
-2.269524 -4.083357 -16.397992 17.050475 1.063512 2.864052 0.013641 -0.006641 -1414490.000000 1 0 0
-3.004524 10.143943 -14.420792 17.885357 -1.282840 2.508650 0.005378 -0.002868 440705.000000 1 0 0
3.457476 5.753543 -13.692692 15.249499 1.029693 2.685797 0.012725 0.000613 -316926.000000 1 0 0
-5.100924 -2.589557 -16.572492 17.532049 0.469760 2.809213 0.017901 -0.005043 197125.000000 1 0 0
-4.335624 6.145343 -13.634992 15.571637 -0.956379 2.637535 0.001534 -0.002745 -152785.000000 1 0 0
5.840676 -1.139157 -14.156692 15.356533 -0.192620 2.743669 0.009497 0.000597 -1365250.000000 1 0 0
6.806276 -2.934957 -12.608792 14.626038 -0.407122 2.610153 0.008359 -0.002730 1437720.000000 1 0 0
3.094976 -3.346857 -18.153292 18.716900 -0.824479 2.895566 0.036358 -0.017815 71762.200000 1 0 0
7.469976 -12.036157 -11.931392 18.521008 -1.015347 2.270784 0.021222 0.000891 204814.000000 1 0 0
-6.074724 -5.430857 -17.556092 19.354918 0.729495 2.707046 0.038736 -0.006055 417976.000000 1 0 0
0.432976 8.704343 -11.944192 14.785695 1.521095 2.511242 0.004670 0.000750 -21467.500000 1 0 0
0.317876 8.484743 -14.485792 16.790774 1.533349 2.611427 0.000824 -0.001336 264698.000000 1 0 0
7.866976 -2.393557 -14.988292 17.095828 -0.295355 2.639801 0.021963 -0.009218 -10280.000000 1 0 0
14.400876 1.620043 -8.958992 17.037409 0.112025 2.124502 0.027673 -0.004477 472232.000000 1 0 0
2.906376 10.544843 -14.695192 18.319099 1.301853 2.501732 0.012948 -0.002807 221667.000000 1 0 0
6.192476 0.873543 -15.598092 16.805068 0.140141 2.760282 0.020404 0.001415 39053.600000 1 0 0
16.606776 -5.393157 -10.282392 20.263236 -0.314012 2.103008 0.115444 -0.015314 58834.900000 1 0 0
4.866176 -4.120457 -11.237592 12.920577 -0.702607 2.625479 0.000850 0.000408 -2111310.000000 1 0 0
8.781776 -3.610557 -17.041692 19.508331 -0.390075 2.633265 0.043861 -0.009854 194158.000000 1 0 0
13.335876 -9.632857 -8.753192 18.634803 -0.625554 2.059773 0.056221 -0.008465 5538.370000 1 0 0
2.373276 -7.832157 -13.566292 15.843592 -1.276574 2.598789 -0.000045 -0.000202 367434.000000 1 0 0
-6.809124 -2.404057 -18.550492 19.906392 0.339402 2.770375 0.017451 -0.004740 602465.000000 1 0 0
-1.461924 -6.429557 -15.775792 17.098305 1.347222 2.745699 0.002645 -0.003337 275831.000000 1 0 0
1.509776 -7.249357 -18.246892 19.692173 -1.365468 2.756081 0.042770 -0.021045 -266055.000000 1 0 0
5.523976 10.726943 -14.328592 18.732063 1.095250 2.441719 0.039081 -0.026304 -163435.000000 1 0 0
5.558976 -3.501457 -17.317892 18.522197 -0.562097 2.779000 0.031977 -0.011191 -922012.000000 1 0 0
3.903576 12.817543 -14.435492 19.695450 1.275171 2.393423 0.023523 -0.006831 150719.000000 1 0 0
9.308976 10.454443 -15.766692 21.084141 0.843292 2.415537 0.090395 -0.019697 189970.000000 1 0 0
2.462176 3.764343 -16.304092 16.913190 0.991559 2.872403 0.025104 -0.001913 421785.000000 1 0 0
16.637876 1.720343 -11.463992 20.278106 0.103033 2.171640 0.108987 -0.012636 -569877.000000 1 0 0
10.031076 -3.656057 -10.448992 14.938898 -0.349510 2.345422 0.015307 -0.001340 138628.000000 1 0 0
14.637176 -2.035357 -11.956292 19.009011 -0.138168 2.251037 0.085909 -0.012267 262165.000000 1 0 0
-2.701324 -8.656057 -15.948292 18.345912 1.268300 2.624602 0.009960 0.000603 -329597.000000 1 0 0
14.055876 8.152543 -8.951392 18.551523 0.525591 2.074320 0.058290 -0.017116 651377.000000 1 0 0
-8.387824 -0.101657 -16.632492 18.628090 0.012119 2.674479 0.014782 -0.001800 -615173.000000 1 0 0
-3.542024 3.944843 -16.027092 16.881215 -0.839150 2.822129 0.009479 -0.004078 291742.000000 1 0 0
15.221576 4.038343 -9.715992 18.504191 0.259330 2.123593 0.033232 -0.008804 699828.000000 1 0 0
5.318576 1.139743 -13.035792 14.125089 0.211102 2.746295 0.009362 -0.002706 -102373.000000 1 0 0
7.834576 -7.791157 -12.881192 16.970793 -0.782620 2.432605 0.031198 -0.003606 -1742670.000000 1 0 0
3.257076 -6.053157 -11.821292 13.674509 -1.077152 2.614904 0.000297 -0.000846 -1111630.000000 1 0 0
-3.377524 3.691543 -18.668992 19.327867 -0.829790 2.879735 0.024830 -0.004595 138279.000000 1 0 0
0.713876 4.982443 -17.802192 18.500065 1.428487 2.866048 0.029807 -0.016276 -556014.000000 1 0 0
6.338576 7.157643 -10.367692 14.103136 0.846012 2.396660 0.003018 0.000037 137425.000000 1 0 0
9.753876 3.866443 -11.760992 15.760977 0.377400 2.413146 0.020718 -0.002983 231313.000000 1 0 0
4.682276 1.820543 -17.651292 18.352280 0.370828 2.864313 0.025839 0.005444 -972777.000000 1 0 0
2.577476 8.047243 -13.257292 15.721237 1.260828 2.574140 0.005251 -0.002110 -1273070.000000 1 0 0
14.380476 -3.400957 -9.829092 17.747553 -0.232231 2.157751 0.059529 -0.002423 192507.000000 1 0 0
-1.345424 9.274843 -16.272792 18.778622 -1.426739 2.619063 0.004411 -0.000712 -2976560.000000 1 0 0
-5.362624 2.067743 -15.832292 16.843241 -0.368018 2.793365 0.013875 -0.006342 645454.000000 1 0 0
4.416776 4.274043 -12.009792 13.491125 0.768976 2.668579 0.009164 -0.001678 442738.000000 1 0 0
9.319976 3.039343 -17.696092 20.229959 0.315236 2.635709 0.047186 -0.008058 873396.000000 1 0 0
-4.436224 14.361043 -13.517792 20.215102 -1.271188 2.303252 0.032224 -0.007513 -146822.000000 1 0 0
15.580776 -4.781057 -7.985892 18.149202 -0.297735 2.026410 0.072235 -0.003884 629076.000000 1 0 0
1.129376 9.137743 -16.870992 19.219891 1.447825 2.642022 0.010645 0.001534 -350184.000000 1 0 0
0.524876 -3.247457 -12.845092 13.259633 -1.410555 2.890883 0.008008 -0.004170 294470.000000 1 0 0
7.622476 3.746143 -13.074392 15.590877 0.456792 2.565491 0.014911 -0.003913 312503.000000 1 0 0
-2.946924 7.554643 -15.160692 17.193126 -1.198870 2.650436 0.004710 -0.002662 -197114.000000 1 0 0
12.165676 -5.096357 -10.973692 17.158043 -0.396703 2.264729 0.033817 -0.002912 -1101410.000000 1 0 0
0.683476 -4.472157 -20.052392 20.556404 -1.419141 2.919695 0.056221 -0.015225 -357714.000000 1 0 0
3.507176 -4.660657 -16.075392 17.100884 -0.925693 2.793523 0.023697 -0.014356 368779.000000 1 0 0
-5.707724 4.111143 -14.384792 16.012553 -0.624206 2.686783 0.001521 -0.003971 718103.000000 1 0 0
12.370876 -7.488057 -9.776592 17.455409 -0.544305 2.165290 0.032708 -0.003602 351891.000000 1 0 0
-2.091024 -1.728857 -15.019592 15.262682 0.690870 2.962877 0.016598 -0.005725 995464.000000 1 0 0
7.140276 5.935643 -14.392292 17.127565 0.693531 2.568633 0.022876 -0.002581 -54440.500000 1 0 0
4.392376 -5.597357 -18.382292 19.711216 -0.905440 2.772293 0.049548 -0.016979 209823.000000 1 0 0
7.536676 7.629343 -12.476992 16.452467 0.791508 2.431599 0.017523 -0.005765 -1556250.000000 1 0 0
12.275876 -2.496457 -11.025092 16.687782 -0.200627 2.292505 0.012545 -0.000828 -1040340.000000 1 0 0
7.485576 -0.596657 -10.598292 12.988981 -0.079539 2.525158 0.003383 -0.000497 -834828.000000 1 0 0
5.373976 4.057543 -14.403492 15.899807 0.646716 2.704275 0.009584 -0.000114 -490864.000000 1 0 0
14.786876 2.901243 -12.962392 19.876934 0.193743 2.281190 0.065586 -0.020903 267015.000000 1 0 0
-6.206724 6.765443 -15.702092 18.189292 -0.828442 2.612490 0.001204 -0.000658 60855.400000 1 0 0
-11.419124 3.708743 -16.444292 20.360892 -0.314036 2.510937 0.063189 -0.018939 -268878.000000 1 0 0
-5.059424 6.459543 -18.021192 19.801183 -0.906354 2.714338 0.014087 0.006866 246809.000000 1 0 0
-10.194624 1.487943 -15.676292 18.758744 -0.144930 2.560165 0.040984 -0.008236 -214501.000000 1 0 0
-7.643724 6.053543 -17.718792 20.224428 -0.669821 2.638526 0.014418 -0.012917 -1330060.000000 1 0 0
-8.934324 3.802543 -15.789292 18.535998 -0.402388 2.590242 0.012613 0.009047 -661863.000000 1 0 0
8.897876 13.348643 -12.010292 20.040099 0.982857 2.213439 0.100350 -0.036500 -724962.000000 1 0 0
14.354176 9.325643 -11.282592 20.501387 0.576151 2.153559 0.095254 -0.019127 328156.000000 1 0 0
8.028476 15.995743 -9.042892 20.052285 1.105619 2.038643 0.058834 -0.014148 -165782.000000 1 0 0
7.060376 13.591943 -13.884492 20.672904 1.091708 2.307200 0.068203 -0.019296 -200362.000000 1 0 0
4.630176 15.627643 -12.723792 20.677443 1.282755 2.233622 0.043074 -0.020190 188781.000000 1 0 0
10.995576 10.912943 -11.197592 19.114944 0.781626 2.196667 0.090023 -0.035276 -398413.000000 1 0 0
15.837876 9.865243 -9.249392 20.825767 0.557080 2.031002 0.100519 -0.028295 -687261.000000 1 0 0
13.302076 10.683743 -9.229992 19.397947 0.676667 2.066696 0.101248 -0.029901 247518.000000 1 0 0
10.134176 12.084743 -8.260692 17.803976 0.872962 2.053279 0.059289 -0.006585 195620.000000 1 0 0
5.170876 16.239543 -10.231192 19.878079 1.262534 2.111451 0.039898 -0.008534 -102538.000000 1 0 0
6.635476 14.535743 -11.482092 19.676275 1.142555 2.193890 0.044600 -0.011130 -708644.000000 1 0 0
10.401276 14.144143 -9.814892 20.114060 0.936720 2.080549 0.089630 -0.017831 -734175.000000 1 0 0
8.367076 -18.523457 -1.063492 20.353315 -1.146528 1.623072 0.062521 -0.016529 -487652.000000 1 0 0
7.498276 -17.296557 -3.242992 19.128827 -1.161738 1.741153 0.023480 -0.011568 -214057.000000 1 0 0
4.482276 -18.458757 5.865408 19.880129 -1.332580 1.271300 0.055400 -0.002357 -87337.100000 1 0 0
9.952476 -16.971757 -2.420092 19.822945 -1.040426 1.693187 0.051277 -0.014332 -505120.000000 1 0 0
-9.570524 -12.460257 -9.806192 18.520646 0.915822 2.128776 0.049422 -0.009648 -785875.000000 1 0 0
-4.978824 -6.958657 -12.003492 14.740944 0.949752 2.522312 0.008938 -0.003133 362684.000000 1 0 0
-10.736724 -9.484457 -5.696392 15.416908 0.723549 1.949256 0.017039 -0.005588 -389377.000000 1 0 0
-4.378124 -11.460957 -13.906292 18.544715 1.205900 2.418675 0.017561 -0.010077 610253.000000 1 0 0
-2.892624 -15.294157 7.467408 17.263855 1.383872 1.123482 0.007229 -0.008280 60649.100000 1 0 0
-4.650524 -12.057757 -11.475292 17.282917 1.202689 2.296908 0.016826 -0.004960 518529.000000 1 0 0
-14.360124 -12.761257 -4.245992 19.674636 0.726514 1.788318 0.051917 -0.009055 526814.000000 1 0 0
-3.083624 -12.178157 -3.166092 12.955323 1.322799 1.817682 0.011931 -0.005460 801703.000000 1 0 0
-2.230024 -17.379457 -1.432992 17.580444 1.443180 1.652397 0.008945 -0.012577 -574053.000000 1 0 0
-5.735024 -12.146257 3.664808 13.923106 1.129665 1.304440 0.008603 -0.006493 151493.000000 1 0 0
-8.794724 -10.840557 -11.862392 18.318875 0.889215 2.275162 0.032812 -0.007300 1044290.000000 1 0 0
-9.749824 -12.410757 -7.182992 17.340166 0.904901 1.997904 0.039697 -0.008433 87370.000000 1 0 0
-10.762624 -15.172057 6.270008 19.630038 0.953808 1.245691 0.038373 -0.017181 -474054.000000 1 0 0
-9.350624 -15.373457 0.942408 18.018476 1.024346 1.518470 0.025767 -0.012212 -587094.000000 1 0 0
-14.599024 -7.596057 -8.045092 18.318163 0.479765 2.025489 0.023657 -0.016409 -216196.000000 1 0 0
-2.324024 -16.416357 5.164508 17.365771 1.430163 1.268832 0.010479 -0.007941 -248821.000000 1 0 0
4.378476 -15.807957 5.679808 17.358651 -1.300591 1.237454 0.031559 -0.009748 -530643.000000 1 0 0
4.325676 -14.708057 -10.011192 18.310171 -1.284759 2.149281 0.009179 -0.000886 66956.500000 1 0 0
-7.338424 -14.015157 -0.045592 15.820214 1.088443 1.573678 0.017590 -0.006810 571411.000000 1 0 0
3.201476 -14.837557 9.701708 18.014596 -1.358286 1.002085 0.029825 -0.010464 -23836.600000 1 0 0
2.560176 -17.292757 10.338108 20.309368 -1.423815 1.036737 0.050287 -0.012117 -281218.000000 1 0 0
-8.157024 -17.171657 -5.148692 19.695479 1.127325 1.835284 0.055595 -0.017362 -526261.000000 1 0 0
-6.457324 -9.148057 -7.688992 13.583246 0.956143 2.172520 0.011566 -0.005417 640541.000000 1 0 0
-5.979224 -13.049957 -4.749292 15.119797 1.141161 1.890316 0.008823 -0.013737 325208.000000 1 0 0
2.342676 -19.285457 -5.006392 20.061928 -1.449915 1.823009 0.027274 -0.017617 110877.000000 1 0 0
-5.359024 -12.864757 8.215608 16.177680 1.176091 1.038125 0.010570 -0.007425 1286240.000000 1 0 0
2.263076 -17.498757 3.337708 17.957402 -1.442182 1.383841 0.018219 -0.012440 1172620.000000 1 0 0
-17.483524 -10.381957 -2.465492 20.482610 0.535858 1.691459 0.034272 -0.006172 796366.000000 1 0 0
-3.235024 -15.477357 2.619508 16.027345 1.364746 1.406620 0.003366 -0.006385 -194317.000000 1 0 0
-10.080524 -10.403657 -14.074292 20.197494 0.801172 2.341770 0.052553 -0.012278 142370.000000 1 0 0
6.074576 -14.386457 -5.583392 16.584477 -1.171264 1.914168 -0.000001 -0.011006 385548.000000 1 0 0
-7.165524 -12.427557 -10.657792 17.871134 1.047773 2.209766 0.030896 -0.010791 -456829.000000 1 0 0
-7.148024 -14.252557 3.837208 16.399811 1.105929 1.334628 0.006503 -0.004415 726959.000000 1 0 0
3.361876 -14.933957 -3.024092 15.603538 -1.349371 1.765839 0.008043 -0.008818 -1182690.000000 1 0 0
-7.613224 -11.448957 7.673808 15.745702 0.983969 1.061734 0.013034 -0.009261 -1333490.000000 1 0 0
-12.784424 -12.515757 -1.095892 17.924471 0.774779 1.631974 0.020508 0.008481 -2044330.000000 1 0 0
-1.811424 -13.555857 3.952008 14.235901 1.437957 1.289492 0.003118 -0.003064 -2342650.000000 1 0 0
-3.256324 -13.801657 5.195008 15.102235 1.339096 1.219634 0.000559 -0.004691 927294.000000 1 0 0
-14.368924 -10.293357 -4.492092 18.237272 0.621623 1.819671 0.029896 -0.008248 359409.000000 1 0 0
-6.200124 -8.662757 -10.369392 14.866378 0.949597 2.342708 0.018254 -0.003079 591350.000000 1 0 0
0.650776 -19.324557 2.407108 19.484768 -1.537133 1.446942 0.020543 -0.016932 247689.000000 1 0 0
6.592576 -14.277157 -8.255892 17.761166 -1.138208 2.054237 0.012520 0.001842 -1572500.000000 1 0 0
-3.915024 -16.750457 -5.903392 18.186678 1.341192 1.901385 0.016418 -0.010534 -329940.000000 1 0 0
-3.479424 -13.720657 -13.163392 19.329711 1.322441 2.319914 0.029188 -0.005955 -859775.000000 1 0 0
-8.113024 -14.638057 -4.415292 17.308630 1.064702 1.828739 0.025965 -0.020937 -281057.000000 1 0 0
-4.466424 -14.299857 10.099108 18.067286 1.268057 0.977651 0.017803 -0.007180 -548525.000000 1 0 0
-0.165624 -12.057157 -9.935092 15.623973 1.557061 2.259955 0.001245 0.000324 454878.000000 1 0 0
2.456676 -17.144757 6.813508 18.611873 -1.428475 1.195999 0.034142 -0.014658 -1648180.000000 1 0 0
-2.748424 -19.179957 -3.361792 19.665356 1.428469 1.742590 0.025306 -0.020199 -674043.000000 1 0 0
0.796176 -15.341257 -3.092392 15.670065 -1.518945 1.769444 0.004808 -0.007650 -1028640.000000 1 0 0
6.049676 -17.820057 0.495908 18.825486 -1.243518 1.544451 0.022411 -0.016127 -715741.000000 1 0 0
-6.826424 -16.708357 3.973208 18.481224 1.182930 1.354119 0.006497 -0.002809 -28431.300000 1 0 0
-5.092324 -13.481057 -9.432892 17.223534 1.209626 2.150379 0.018000 -0.009544 388436.000000 1 0 0
5.786476 -15.126957 -2.000092 16.318961 -1.205443 1.693668 0.011384 -0.010180 351159.000000 1 0 0
-8.965824 -10.280557 -0.589692 13.653703 0.853603 1.613999 0.009188 -0.000190 1823440.000000 1 0 0
-7.191324 -18.118557 -2.583092 19.663917 1.192962 1.702539 0.043653 -0.036348 -953143.000000 1 0 0
8.042976 -15.973057 -1.045892 17.914293 -1.104326 1.629213 0.017196 -0.010258 -56354.700000 1 0 0
-8.068824 -10.296757 -9.482192 16.156766 0.906118 2.198005 0.029744 -0.006624 -163167.000000 1 0 0
-9.126424 -15.464957 -6.713792 19.171112 1.037661 1.928585 0.059303 -0.017344 173798.000000 1 0 0
-11.488024 -10.673157 -11.852192 19.656181 0.748645 2.218022 0.063503 -0.006027 993082.000000 1 0 0
6.614576 -16.242257 2.491708 17.713614 -1.184060 1.429662 0.035784 -0.017760 1152360.000000 1 0 0
-2.149724 -11.243457 -6.007392 12.927699 1.381879 2.054083 0.005319 -0.004018 1263770.000000 1 0 0
-12.558724 -15.308857 -3.343092 20.081308 0.883765 1.738053 0.051701 -0.017544 -154522.000000 1 0 0
-0.203624 -19.749957 -2.915092 19.964970 1.560487 1.717331 0.039142 -0.021412 -572085.000000 1 0 0
-5.743724 -15.585957 -4.678692 17.256958 1.217720 1.845352 0.015383 -0.015260 -2238510.000000 1 0 0
2.072376 -15.798257 -0.941692 15.961405 -1.440364 1.629829 0.002188 -0.014123 264335.000000 1 0 0
-13.186724 -11.948457 5.209808 18.541775 0.736174 1.285985 0.019070 -0.002342 203054.000000 1 0 0
2.103376 -15.225957 -8.708692 17.666218 -1.433521 2.086282 0.016060 -0.001098 -351255.000000 1 0 0
-11.544524 -16.711357 0.187308 20.312080 0.966259 1.561575 0.064914 -0.026018 593363.000000 1 0 0
-7.745824 -16.447457 -0.834792 18.199272 1.130663 1.616682 0.043756 -0.019440 381382.000000 1 0 0
-2.876524 -14.395957 -1.802692 14.790797 1.373579 1.692979 0.006094 -0.006259 387240.000000 1 0 0
-1.757424 -10.485657 -13.126792 16.892312 1.404737 2.460820 0.004206 -0.001434 46045.300000 1 0 0
1.510376 -19.483157 4.915908 20.150454 -1.493429 1.324349 0.040532 -0.017719 -49994.600000 1 0 0
-17.296024 -9.349257 2.481108 19.817088 0.495554 1.445266 0.019901 -0.005621 -735190.000000 1 0 0
-2.567224 -15.885257 -8.010392 17.974938 1.410571 2.032688 0.008849 -0.003161 -1863980.000000 1 0 0
-10.636724 -12.136057 0.244808 16.139508 0.851142 1.555628 0.013708 0.002243 700519.000000 1 0 0
-6.760124 -11.485457 -6.496292 14.826220 1.038815 2.024350 0.015476 -0.006007 107410.000000 1 0 0
-2.299924 -13.703957 -6.767392 15.455927 1.404517 2.024003 0.003485 -0.001476 469188.000000 1 0 0
-14.344724 -14.632357 -0.782292 20.505828 0.795324 1.608955 0.053525 -0.000180 428250.000000 1 0 0
-9.557624 -11.305457 -4.413092 15.447878 0.868979 1.860508 0.021510 -0.007004 797211.000000 1 0 0
9.388476 -15.051157 -5.170792 18.477497 -1.013081 1.854427 0.016634 -0.008635 112334.000000 1 0 0
-5.550324 -10.893357 -9.377792 15.408255 1.099566 2.225118 0.016426 -0.006525 22760.500000 1 0 0
-10.317024 -16.056157 -4.489892 19.606129 0.999670 1.801851 0.065283 -0.021576 -2314560.000000 1 0 0
2.200176 -17.320557 -3.215992 17.753452 -1.444446 1.752949 0.015836 -0.012111 526202.000000 1 0 0
-0.252624 -14.507257 -8.105692 16.620065 1.553384 2.080256 0.003457 -0.002141 -773987.000000 1 0 0
-0.488924 -18.295757 -7.077292 19.622992 1.544079 1.939775 0.032239 -0.013707 91666.000000 1 0 0
-1.671924 -9.915957 -10.491292 14.532334 1.403758 2.377380 -0.001102 0.001184 365655.000000 1 0 0
-4.880524 -17.315957 2.106008 18.113452 1.296072 1.454265 0.015371 -0.010458 -16190.000000 1 0 0
0.366176 -12.786557 -2.659792 13.065398 -1.542167 1.775805 0.001204 -0.005341 -1456920.000000 1 0 0
2.724476 -14.921657 3.082408 15.478367 -1.390200 1.370313 0.008420 -0.008356 -892188.000000 1 0 0
-9.434924 -13.117357 6.729208 17.503288 0.947254 1.176180 0.010994 -0.003899 -342440.000000 1 0 0
-0.957124 -17.873057 -4.602892 18.481041 1.517296 1.822506 0.029782 -0.016301 -186112.000000 1 0 0
-9.690224 -17.708757 -2.143292 20.300104 1.070106 1.676574 0.065342 -0.025656 -1327420.000000 1 0 0
1.392976 -16.103157 1.475008 16.230456 -1.484508 1.479792 0.006010 -0.015331 138290.000000 1 0 0
-0.379024 -17.815957 4.151808 18.297254 1.549525 1.341894 0.024655 -0.014631 1061570.000000 1 0 0
-17.242624 -9.337657 -0.064892 19.608777 0.496329 1.574106 -0.008005 -0.000303 99529.500000 1 0 0
-14.739924 -7.181357 -10.551092 19.497764 0.453359 2.142593 0.058730 -0.024905 406630.000000 1 0 0
2.904776 -12.744257 -8.837692 15.778422 -1.346697 2.165318 -0.002174 0.000935 845557.000000 1 0 0
-11.754324 -14.641157 1.649508 18.848037 0.894334 1.483168 0.031922 -0.007117 213623.000000 1 0 0
-2.337624 -15.719457 10.744708 19.183706 1.423169 0.976295 0.031956 -0.002335 336850.000000 1 0 0
-6.824724 -15.872157 1.468508 17.339514 1.164714 1.486003 0.024828 -0.011080 -1389560.000000 1 0 0
-12.366224 -15.314857 -5.818092 20.526046 0.891520 1.858185 0.057974 -0.012889 509167.000000 1 0 0
1.047776 -13.690357 -5.085292 14.641854 -1.494411 1.925499 0.002190 -0.003055 879304.000000 1 0 0
5.978776 -16.447157 -7.085492 18.880120 -1.222133 1.955504 0.027627 -0.019121 196440.000000 1 0 0
-6.547424 -12.815957 5.897108 15.552923 1.098482 1.181904 0.012736 -0.007638 -164069.000000 1 0 0
-2.465824 -13.572957 0.638308 13.809884 1.391084 1.524559 0.007598 -0.008760 3639530.000000 1 0 0
-4.090324 -15.584857 0.192208 16.113828 1.314130 1.558868 0.008439 -0.011615 328417.000000 1 0 0
-17.651824 -7.724757 -2.037192 19.375472 0.412510 1.676134 0.009690 -0.005742 707641.000000 1 0 0
1.371976 -12.835657 -11.902492 17.558637 -1.464313 2.315659 0.007510 0.000997 -272934.000000 1 0 0
1.332876 -17.033657 -5.713592 18.015748 -1.492706 1.893513 0.027150 -0.015468 -73478.900000 1 0 0
-12.650124 -6.341457 -9.280792 16.922554 0.464684 2.151279 0.028872 -0.006737 -365132.000000 1 0 0
-11.464524 -13.789657 -8.640592 19.906024 0.877209 2.019801 0.064179 -0.014461 388116.000000 1 0 0
-4.264924 -9.856157 3.452808 11.280749 1.162408 1.259724 0.011611 -0.006830 -3137910.000000 1 0 0
-6.941424 -14.311557 9.573608 18.564967 1.119202 1.028994 0.010277 -0.008007 -1248170.000000 1 0 0
-5.106524 -15.901857 -8.205592 18.608530 1.260071 2.027463 0.016897 -0.010695 -635486.000000 1 0 0
-0.107024 -13.417057 2.129808 13.585468 1.562820 1.413376 0.005713 -0.009992 318841.000000 1 0 0
-10.951724 -13.507257 -4.564492 17.978344 0.889503 1.827495 0.053789 -0.013653 -693892.000000 1 0 0
-9.776724 -10.525457 6.562508 15.793546 0.822261 1.142284 0.017378 -0.005935 -478585.000000 1 0 0
-15.442924 -8.038857 -5.011892 18.117014 0.479954 1.851092 0.034286 -0.011177 -31676.900000 1 0 0
-14.509224 -7.233057 5.391408 17.085139 0.462458 1.249748 0.016752 -0.002893 556261.000000 1 0 0
-1.320124 -19.384357 -0.036792 19.429292 1.502799 1.572690 0.013389 -0.014343 -240026.000000 1 0 0
-15.275024 -12.333857 -1.358992 19.679869 0.679269 1.639906 0.023262 0.009047 -176799.000000 1 0 0
-4.298724 -12.109857 -6.812992 14.544570 1.229694 2.058300 0.007075 -0.004773 -433650.000000 1 0 0
-7.240224 -18.427457 2.056608 19.905317 1.196422 1.467292 0.028031 -0.010716 -314260.000000 1 0 0
-2.393124 -11.769257 -8.638492 14.794120 1.370194 2.194338 0.000988 -0.001830 5126.900000 1 0 0
-1.107624 -20.436457 -5.042792 21.078552 1.516651 1.812377 0.058798 -0.014786 -3127.410000 1 0 0
-5.245324 -8.867557 -13.742692 17.175814 1.036637 2.498290 0.019882 -0.005233 -6910.470000 1 0 0
-8.335024 -18.975357 -0.465092 20.730488 1.156914 1.593233 0.053911 -0.027521 -160520.000000 1 0 0
-17.085424 -7.226557 5.579408 19.371749 0.400147 1.278640 0.050491 -0.015959 -880597.000000 1 0 0
-3.504324 -14.540457 -4.374892 15.583480 1.334301 1.855360 0.005241 -0.009352 -2657480.000000 1 0 0
-2.922624 -14.826757 -10.819792 18.586080 1.376173 2.192161 0.019335 -0.008442 14888.500000 1 0 0
-0.070724 -16.574957 6.368708 17.756538 1.566529 1.203955 0.028796 -0.009752 -413260.000000 1 0 0
-11.098124 -11.546457 3.871908 16.476672 0.805194 1.333585 0.010981 0.000596 215605.000000 1 0 0
-0.106324 -14.549557 -0.157092 14.550793 1.563489 1.581593 0.008487 -0.010098 158839.000000 1 0 0
-7.267024 -9.615457 -2.536892 12.316756 0.923616 1.778252 0.013529 -0.003741 -385497.000000 1 0 0
-10.947724 -14.414457 -0.902792 18.123032 0.921245 1.620632 0.030558 -0.010765 440306.000000 1 0 0
0.312676 -14.614057 -10.536192 18.018873 -1.549404 2.195345 0.005520 -0.004535 -126738.000000 1 0 0
-1.311824 -13.984357 -3.934492 14.586410 1.477263 1.843916 0.002356 -0.004378 -1979380.000000 1 0 0
-11.468424 -8.123457 -7.617892 15.985856 0.616296 2.067511 0.021958 -0.008379 405959.000000 1 0 0
0.040876 -17.195457 -0.279892 17.197783 -1.568419 1.587072 0.008500 -0.013323 -1272440.000000 1 0 0
-12.919124 -9.460757 4.601008 16.660701 0.632081 1.291001 0.008277 -0.003672 -639762.000000 1 0 0
4.009776 -16.711957 1.516508 17.253046 -1.335313 1.482785 0.016551 -0.016856 1490210.000000 1 0 0
-3.788924 -18.041857 -8.037992 20.111536 1.363797 1.981954 0.041863 -0.018567 225334.000000 1 0 0
-13.283224 -11.210257 2.689708 17.588304 0.700966 1.417268 -0.001502 -0.000827 -285072.000000 1 0 0
-8.443224 -12.092657 4.144608 15.319862 0.961272 1.296844 0.013087 -0.005144 1106120.000000 1 0 0
-8.223924 -9.466557 -5.908892 13.862310 0.855526 2.011146 0.014841 -0.006704 367140.000000 1 0 0
3.932776 -17.330557 -5.173892 18.509027 -1.347648 1.854104 0.009903 -0.011767 -341040.000000 1 0 0
-2.386924 -13.091957 11.309008 17.463974 1.390457 0.866416 0.011482 -0.007855 1081920.000000 1 0 0
0.094476 -16.887757 -9.373992 19.315201 -1.565202 2.077522 0.022972 -0.005328 -60393.100000 1 0 0
-6.940524 -10.724157 -14.397792 19.247723 0.996402 2.415879 0.034014 -0.004215 -465545.000000 1 0 0
-4.446824 -18.623657 -1.491692 19.205207 1.336412 1.648546 0.030728 -0.030840 -1215690.000000 1 0 0
-2.292424 -17.265757 1.124308 17.453528 1.438795 1.506334 0.012632 -0.016471 1323370.000000 1 0 0
4.144076 -14.657657 -7.411192 16.939482 -1.295263 2.023624 0.011505 -0.008015 280327.000000 1 0 0
-1.054424 -15.884357 -6.040992 17.026984 1.504512 1.933485 0.008120 -0.005316 -557479.000000 1 0 0
-9.404824 -15.201257 8.369108 19.737551 1.016749 1.132917 0.019065 -0.008476 -436878.000000 1 0 0
-7.286424 -12.094257 -1.642992 14.214867 1.028563 1.686638 0.010209 -0.007908 1089370.000000 1 0 0
-7.204424 -15.057457 -9.318892 19.117335 1.124527 2.079972 0.037803 -0.017035 -418785.000000 1 0 0
-4.879524 -13.252657 -0.641692 14.136988 1.218007 1.616203 0.014138 -0.008609 2457380.000000 1 0 0
-6.358624 -13.757957 -7.217592 16.787112 1.137861 2.015232 0.014717 -0.014608 821365.000000 1 0 0
5.857376 -15.220857 0.287708 16.311533 -1.203439 1.553157 0.015579 -0.012116 301006.000000 1 0 0
-14.331124 -12.853657 1.046308 19.279325 0.731103 1.516499 0.001993 0.003747 654988.000000 1 0 0
1.091976 -15.289357 11.164608 18.963262 -1.499497 0.941286 0.027907 -0.008462 -140486.000000 1 0 0
-9.301324 -10.717257 1.991808 14.329743 0.856011 1.431347 0.011762 0.001139 273704.000000 1 0 0
-9.339724 -8.881157 -3.537992 13.364984 0.760236 1.838711 0.013082 -0.002661 -1261070.000000 1 0 0
-12.205424 -7.389257 -12.271792 18.819415 0.544386 2.281123 0.057301 -0.007861 111493.000000 1 0 0
-13.256824 -8.226557 -0.601892 15.613517 0.555395 1.609355 0.001854 -0.002639 -372660.000000 1 0 0
-11.223424 -9.633957 0.515108 14.800126 0.709339 1.535985 0.000881 0.003561 51337.900000 1 0 0
-15.711324 -12.163857 3.138608 20.116063 0.658816 1.414131 0.027054 -0.003416 395405.000000 1 0 0
-10.389424 -12.369257 -2.304592 16.317163 0.872172 1.712507 0.032558 -0.012023 538455.000000 1 0 0
-3.311124 -8.791657 -12.080392 15.303354 1.210605 2.480619 0.003184 0.000659 -1705020.000000 1 0 0
-0.104424 -15.375557 3.912708 15.865936 1.564005 1.321615 0.009855 -0.011318 -429952.000000 1 0 0
-15.689724 -7.767257 1.220908 17.549597 0.459683 1.501171 -0.009315 0.001409 509360.000000 1 0 0
-6.100924 -13.398757 -13.307692 19.845469 1.143515 2.305767 0.034748 -0.009859 -128419.000000 1 0 0
-15.240224 -10.407257 1.200208 18.493673 0.599144 1.505852 -0.004311 0.002914 459299.000000 1 0 0
-9.839324 -8.534557 -12.368592 17.961989 0.714505 2.330350 0.033959 -0.006884 437688.000000 1 0 0
-13.124424 -11.650057 -6.310992 18.649476 0.725957 1.916013 0.040968 -0.008589 -58810.500000 1 0 0
-12.149324 -11.358557 -3.856492 17.073237 0.751772 1.798642 0.025713 -0.003372 -1654550.000000 1 0 0
-11.409524 -11.112357 -8.730392 18.162639 0.772204 2.072225 0.046857 -0.022034 204236.000000 1 0 0
-13.140424 -8.502757 -5.847392 16.708071 0.574312 1.928340 0.019469 -0.006823 -3328100.000000 1 0 0
-13.474124 -8.080957 -3.264792 16.047204 0.540228 1.775676 0.013921 -0.006227 -56602.600000 1 0 0
-4.130524 -16.841457 -3.185092 17.630675 1.330284 1.752450 0.012887 -0.019941 616719.000000 1 0 0
-15.351124 -8.973857 -1.813792 17.873919 0.528999 1.672448 0.006851 -0.001392 -807051.000000 1 0 0
-9.215624 -15.835757 3.724808 18.696875 1.043754 1.370234 0.015324 -0.003991 -993188.000000 1 0 0
4.706776 -16.969657 8.007808 19.345490 -1.300233 1.144022 0.053620 -0.030516 -363547.000000 1 0 0
-8.117524 -15.372057 6.056608 18.408608 1.084946 1.235542 0.004091 -0.004298 -958.402000 1 0 0
1.042476 -15.877857 8.660508 18.116222 -1.505234 1.072360 0.032237 -0.013694 280778.000000 1 0 0
-10.766924 -7.888057 -10.165192 16.777343 0.632284 2.221678 0.032428 -0.004848 1034260.000000 1 0 0
-4.711424 -15.913257 5.823208 17.588036 1.282950 1.233339 0.005638 -0.007632 -2219550.000000 1 0 0
-1.203724 -13.237457 -12.014492 17.917233 1.480113 2.305753 0.005811 -0.004637 -919994.000000 1 0 0
-6.447224 -14.289057 -2.477392 15.870769 1.146945 1.727535 0.019587 -0.015084 821336.000000 1 0 0
-17.582724 -6.923957 -7.150492 20.204527 0.375144 1.932540 0.052334 -0.024118 177517.000000 1 0 0
-17.402624 -4.011557 -10.080392 20.507516 0.226557 2.084661 0.066398 -0.023775 1174430.000000 1 0 0
-15.228224 -5.289657 -8.953192 18.440145 0.334320 2.077762 0.027939 -0.023710 1223770.000000 1 0 0
-16.103424 -5.401257 -5.677192 17.908779 0.323619 1.893367 0.023550 -0.015253 -428820.000000 1 0 0
-15.369724 -4.414757 -12.260492 20.150389 0.279707 2.224902 0.071731 -0.019097 169148.000000 1 0 0
-18.731824 -5.155157 -5.595092 20.217862 0.268560 1.851196 0.050231 -0.017956 -322980.000000 1 0 0
-17.422624 -4.342857 -7.652592 19.518463 0.244287 1.973676 0.039992 -0.020488 479727.000000 1 0 0
12.312876 -7.759457 8.736608 16.974816 -0.562323 1.030161 0.040585 -0.010752 228000.000000 1 0 0
16.189376 -3.393457 1.806308 16.639537 -0.206619 1.462027 0.035122 -0.006836 105140.000000 1 0 0
12.201376 -2.260057 12.560408 17.656310 -0.183154 0.779331 0.064410 -0.010292 756733.000000 1 0 0
9.800276 -9.996357 5.272408 14.958972 -0.795303 1.210600 0.009941 -0.005793 -400805.000000 1 0 0
16.990476 -1.802157 7.270208 18.568251 -0.105674 1.168492 0.091050 -0.023955 -1154550.000000 1 0 0
5.238276 -12.677957 9.035408 16.425855 -1.178980 0.988346 0.006672 0.001282 -392144.000000 1 0 0
15.353576 -8.979457 -2.209592 17.923315 -0.529201 1.694391 0.047261 -0.008483 266078.000000 1 0 0
11.177476 -8.468757 6.488808 15.451875 -0.648387 1.137421 0.015966 -0.010434 -3026840.000000 1 0 0
20.137776 -2.964357 3.649508 20.679369 -0.146154 1.393387 0.127150 -0.024718 9995.950000 1 0 0
13.655276 -8.547257 6.834108 17.499348 -0.559268 1.169584 0.040959 -0.012164 -802481.000000 1 0 0
8.454576 -11.085557 8.794408 16.483659 -0.919238 1.008036 0.010471 0.000436 -544324.000000 1 0 0
17.021976 0.026743 -0.704592 17.036573 0.001571 1.612166 0.031931 -0.000626 -758053.000000 1 0 0
12.486276 -12.412757 2.315508 17.757961 -0.782446 1.440031 0.032428 -0.008051 -435782.000000 1 0 0
10.353676 -11.769657 3.712008 16.109079 -0.849315 1.338277 0.024494 -0.006765 -1333540.000000 1 0 0
16.230876 3.208543 2.382408 16.715620 0.195165 1.427783 0.026212 -0.005050 264479.000000 1 0 0
18.510576 -3.213257 0.578608 18.796309 -0.171878 1.540008 0.065407 -0.015155 780315.000000 1 0 0
13.457376 -11.392857 -0.270892 17.634385 -0.702510 1.586159 0.039784 -0.005668 -179722.000000 1 0 0
17.148076 -7.566457 -0.793092 18.759978 -0.415547 1.613085 0.057253 -0.008696 869706.000000 1 0 0
10.282776 -5.707057 9.818408 15.320154 -0.506683 0.875150 0.027519 -0.010417 609680.000000 1 0 0
11.548376 -13.379757 6.017308 18.670588 -0.858733 1.242651 0.039841 -0.008215 93577.200000 1 0 0
13.160576 -1.719457 10.342608 16.826373 -0.129916 0.908833 0.051868 -0.006812 -302958.000000 1 0 0
15.717176 -2.081257 -1.387192 15.914947 -0.131653 1.658070 0.025513 -0.002820 952022.000000 1 0 0
10.776176 -12.197957 8.858608 18.530813 -0.847206 1.072366 0.043654 -0.021160 -247681.000000 1 0 0
14.569876 1.257943 3.264908 14.984102 0.086125 1.351143 0.017954 -0.004226 793302.000000 1 0 0
15.024576 -5.846257 5.294008 16.968886 -0.371086 1.253517 0.050574 -0.014129 -255423.000000 1 0 0
14.261676 -3.440057 -3.033292 14.980996 -0.236689 1.774682 0.015415 -0.003920 1685390.000000 1 0 0
14.086476 0.672643 9.575908 17.046385 0.047715 0.974290 0.063033 -0.010024 220539.000000 1 0 0
15.526176 -3.489557 4.426208 16.517580 -0.221079 1.299511 0.040783 -0.009961 -853797.000000 1 0 0
18.333976 4.845443 -4.207992 19.424731 0.258380 1.789158 0.012289 -0.005063 570968.000000 1 0 0
18.394976 -5.651957 -5.071492 19.900748 -0.298100 1.828478 0.108996 -0.010373 673197.000000 1 0 0
17.422976 0.131043 5.768608 18.353585 0.007521 1.251073 0.089180 -0.013380 472538.000000 1 0 0
17.147476 -6.662057 3.934908 18.812294 -0.370567 1.360073 0.077611 -0.021192 -15284.700000 1 0 0
9.838276 -6.629557 14.266608 18.554751 -0.592962 0.693689 0.054288 -0.020391 -1072390.000000 1 0 0
8.641776 -12.214657 5.283708 15.868072 -0.955060 1.231337 0.015305 -0.007975 -2038700.000000 1 0 0
16.989176 -10.190557 -0.618892 19.820761 -0.540292 1.602026 0.051451 -0.003798 106151.000000 1 0 0
15.050676 -8.814557 0.358008 17.445556 -0.529808 1.550273 0.044752 -0.008722 30448.800000 1 0 0
10.002376 -12.978857 1.653308 16.469113 -0.914199 1.470239 0.023843 -0.012711 -548461.000000 1 0 0
17.177176 -8.060157 8.903008 20.959128 -0.438735 1.132078 0.114406 -0.022097 473932.000000 1 0 0
19.172076 0.077343 -2.255592 19.304460 0.004034 1.687907 0.080895 0.000231 -32955.400000 1 0 0
13.378776 -1.164857 7.713808 15.487135 -0.086849 1.049415 0.031684 -0.012951 -42121.600000 1 0 0
12.930076 -9.759857 -3.027692 16.480552 -0.646578 1.755559 0.026987 -0.006977 -784914.000000 1 0 0
8.892576 -15.379657 1.561508 17.833958 -1.046558 1.483126 0.037490 -0.010996 -601229.000000 1 0 0
11.676676 -8.152457 11.162308 18.094320 -0.609505 0.906004 0.060150 -0.015497 -194264.000000 1 0 0
13.948476 -3.913857 -0.457492 14.494397 -0.273559 1.602365 0.020530 -0.005424 -168509.000000 1 0 0
7.145876 -13.325657 10.664508 18.503200 -1.078571 0.956529 0.015399 0.004585 -221998.000000 1 0 0
15.581476 -6.714157 1.803708 17.062111 -0.406863 1.464884 0.040351 -0.012788 -266133.000000 1 0 0
16.104076 -6.096157 -2.565592 17.409384 -0.361877 1.718703 0.066036 -0.008064 -373844.000000 1 0 0
11.444976 -8.577657 3.888008 14.821615 -0.643161 1.305371 0.018770 -0.008946 1282360.000000 1 0 0
10.667976 -14.510357 -0.387092 18.014050 -0.936836 1.592286 0.038083 -0.014037 767475.000000 1 0 0
13.612576 -12.940357 4.669908 19.353632 -0.760087 1.327098 0.042152 -0.006478 317821.000000 1 0 0
12.966576 -11.193357 6.527008 18.330989 -0.712135 1.206744 0.039920 -0.005709 -313708.000000 1 0 0
10.941076 -10.522857 1.512908 15.255377 -0.765916 1.471461 0.019724 -0.009476 169955.000000 1 0 0
14.034176 -7.477057 11.891208 19.856115 -0.489522 0.928708 0.070784 -0.023199 -1369500.000000 1 0 0
15.303876 -1.740657 -4.859592 16.150979 -0.113253 1.876417 0.030528 -0.000385 -338885.000000 1 0 0
13.014676 -11.344157 -6.901992 18.593256 -0.716926 1.951108 0.042283 -0.004901 477979.000000 1 0 0
17.854876 -5.388057 1.976008 18.754529 -0.293079 1.465239 0.086344 -0.015091 780225.000000 1 0 0
10.687476 -9.667357 9.278808 17.139901 -0.735323 0.998746 0.027968 -0.006568 -917704.000000 1 0 0
16.525676 1.794643 9.642708 19.217193 0.108173 1.045147 0.109497 -0.020376 503927.000000 1 0 0
18.180876 3.656543 0.598308 18.554582 0.198473 1.538545 0.015878 -0.000528 696402.000000 1 0 0
13.349076 -3.996557 5.750908 15.074589 -0.290895 1.179381 0.018401 -0.011510 -1243970.000000 1 0 0
12.207176 -6.174957 6.671408 15.220148 -0.468314 1.117059 0.019108 -0.009949 -182063.000000 1 0 0
16.638976 -10.199457 3.551408 19.836757 -0.549913 1.390794 0.049068 -0.012532 9222.920000 1 0 0
16.260476 -7.928857 -5.600392 18.937641 -0.453691 1.871014 0.073101 -0.009589 170349.000000 1 0 0
14.097076 -0.347157 5.346808 15.080995 -0.024621 1.208375 0.021249 -0.006988 1391580.000000 1 0 0
18.509776 -4.305257 5.159908 19.691919 -0.228530 1.305669 0.118401 -0.019894 158874.000000 1 0 0
13.902976 -13.534657 7.159308 20.681764 -0.771975 1.217316 0.079093 -0.015684 -127121.000000 1 0 0
14.976976 -13.469357 -0.771092 20.157578 -0.732449 1.609059 0.041620 -0.002218 60464.800000 1 0 0
17.964376 -5.827457 7.804808 20.435094 -0.313680 1.178911 0.117777 -0.027005 -494349.000000 1 0 0
14.376076 3.352843 9.283308 17.438260 0.229128 1.009419 0.049539 -0.013760 43222.900000 1 0 0
18.708876 3.973243 3.037308 19.365793 0.209263 1.413307 0.055211 -0.004667 -243063.000000 1 0 0
14.876476 -10.426657 8.140808 19.907221 -0.611318 1.149507 0.058347 -0.023600 -146203.000000 1 0 0
14.934876 -4.780557 10.401508 18.817428 -0.309788 0.985125 0.088960 -0.018683 176179.000000 1 0 0
18.016376 -7.916157 2.010308 19.781220 -0.413993 1.468993 0.091376 -0.018186 -125732.000000 1 0 0
18.626876 -5.787357 -1.990592 19.606541 -0.301244 1.672499 0.076002 -0.011887 -202695.000000 1 0 0
14.382976 -13.056857 -5.514692 20.193150 -0.737108 1.847407 0.049804 -0.005874 -761325.000000 1 0 0
15.483476 -1.427457 9.271208 18.103341 -0.091932 1.033137 0.115631 -0.018894 337116.000000 1 0 0
13.095976 -9.970757 10.168908 19.347539 -0.650732 1.017386 0.045738 -0.022165 -1471940.000000 1 0 0
16.628976 2.153743 4.776308 17.434866 0.128800 1.293297 0.055866 -0.009915 -1542110.000000 1 0 0
14.959776 2.463443 -0.034492 15.161287 0.163206 1.573071 0.011946 0.000464 -1050840.000000 1 0 0
15.271176 -9.826857 -7.010092 19.465798 -0.571786 1.939197 0.070781 -0.006818 1468590.000000 1 0 0
16.066176 -0.040857 -3.177492 16.377427 -0.002543 1.766051 0.020299 0.002345 18306.500000 1 0 0
12.246576 2.657043 13.516808 18.432107 0.213651 0.747590 0.082650 -0.011918 -166635.000000 1 0 0
17.658676 -2.927057 9.504208 20.266387 -0.164264 1.082679 0.106129 -0.028367 188909.000000 1 0 0
7.814676 -18.179557 4.430008 20.277831 -1.164816 1.350555 0.074082 -0.030868 -150806.000000 1 0 0
6.849876 -11.190057 6.617508 14.694542 -1.021499 1.103653 0.008839 -0.004074 193056.000000 1 0 0
18.005176 2.311843 -1.654292 18.228210 0.127700 1.661676 0.023291 0.002311 227754.000000 1 0 0
17.654076 -2.323257 3.641008 18.174731 -0.130847 1.369098 0.054651 -0.011894 -873273.000000 1 0 0
12.683876 -13.331657 -1.800392 18.489326 -0.810293 1.668326 0.032448 -0.000147 1264190.000000 1 0 0
15.132776 -8.249457 4.325208 17.769689 -0.499103 1.324923 0.045947 -0.011473 -295253.000000 1 0 0
12.354276 -2.822657 14.970008 19.613685 -0.224621 0.702479 0.084570 -0.023761 197340.000000 1 0 0
12.115376 -13.654757 -6.381492 19.337998 -0.845062 1.907097 0.021185 -0.011711 -658674.000000 1 0 0
10.611976 -11.992657 -1.167492 16.056179 -0.846402 1.643574 0.019966 -0.010599 -1331490.000000 1 0 0
13.342676 -8.025457 2.121608 15.714203 -0.541513 1.435371 0.029441 -0.009086 -748837.000000 1 0 0
8.784376 -7.880057 10.013908 15.477044 -0.731185 0.867131 0.015902 -0.005243 -1642820.000000 1 0 0
15.664976 -3.755257 7.991608 17.982191 -0.235283 1.110272 0.088637 -0.022982 -107037.000000 1 0 0
10.210776 -17.400057 5.332408 20.867594 -1.040121 1.312395 0.077831 -0.025784 -712957.000000 1 0 0
15.478876 -6.343257 8.272308 18.661821 -0.388927 1.111548 0.074348 -0.013263 -1040500.000000 1 0 0
16.777476 -4.940157 -0.343992 17.493061 -0.286359 1.590462 0.046571 -0.009534 -185339.000000 1 0 0
13.971876 -10.570257 3.522308 17.870375 -0.647672 1.372394 0.035761 -0.011545 1262550.000000 1 0 0
15.042176 -9.991057 -4.489192 18.607555 -0.586295 1.814457 0.056091 -0.009876 96519.800000 1 0 0
13.788876 -6.590057 -0.077592 15.282930 -0.445833 1.575873 0.029431 -0.005820 -263233.000000 1 0 0
17.743176 -0.848057 -4.869492 18.418779 -0.047760 1.838354 0.068029 -0.003307 -1425650.000000 1 0 0
14.534976 0.252943 -1.444492 14.608766 0.017401 1.669837 0.014591 -0.000436 -1636320.000000 1 0 0
4.903476 -12.843657 11.741308 18.079323 -1.206093 0.863958 0.003929 0.003918 -411374.000000 1 0 0
12.137476 -7.372457 13.598508 19.661914 -0.545852 0.807071 0.067895 -0.023340 -409820.000000 1 0 0
12.135076 -5.651157 11.662708 17.754278 -0.435823 0.854102 0.046069 -0.014340 738991.000000 1 0 0
13.311276 -4.690857 8.331008 16.389017 -0.338809 1.037553 0.038337 -0.011877 362788.000000 1 0 0
15.457876 -1.198857 3.140508 15.819164 -0.077401 1.370943 0.031381 -0.001940 874833.000000 1 0 0
15.335876 -10.387457 5.748608 19.394196 -0.595349 1.269866 0.063506 -0.015184 134558.000000 1 0 0
13.723276 -7.991457 -5.758492 16.892362 -0.527325 1.918663 0.046982 -0.007685 -47765.600000 1 0 0
9.947276 -2.430057 13.891208 17.257437 -0.239601 0.635221 0.051102 -0.007218 -1583540.000000 1 0 0
10.249776 -9.116357 13.657208 19.356787 -0.726939 0.787595 0.066803 -0.013898 -479308.000000 1 0 0
20.359276 6.197743 -3.142892 21.512552 0.295506 1.717417 0.124328 -0.008497 610845.000000 1 0 0
11.322476 -3.568957 10.521408 15.863037 -0.305352 0.845622 0.026733 -0.005588 909468.000000 1 0 0
10.370976 -13.938357 -2.960892 17.623899 -0.931108 1.739601 0.021085 -0.004383 531372.000000 1 0 0
15.023476 -12.793057 2.590708 19.901731 -0.705386 1.440251 0.044742 -0.004275 -350740.000000 1 0 0
11.398676 -0.442657 14.267008 18.266726 -0.038815 0.674470 0.065262 -0.015892 465490.000000 1 0 0
19.043376 -1.851057 5.775108 19.985706 -0.096898 1.277654 0.135416 -0.022129 550631.000000 1 0 0
18.902576 -0.260857 7.917008 20.495229 -0.013799 1.174195 0.126963 -0.025492 -129437.000000 1 0 0
19.237876 0.849743 0.259608 19.258383 0.044142 1.557316 0.076341 -0.009081 217968.000000 1 0 0
18.533776 0.831243 3.486908 18.877244 0.044820 1.385015 0.067722 -0.012673 572509.000000 1 0 0
16.670076 -3.896757 -4.157292 17.617015 -0.229634 1.809025 0.063786 -0.007204 -911872.000000 1 0 0
11.262776 -8.099057 15.949608 21.138468 -0.623430 0.715859 0.090843 -0.024002 303869.000000 1 0 0
16.652876 -7.570157 6.326408 19.355851 -0.426661 1.237831 0.077522 -0.015498 48484.800000 1 0 0
18.931276 2.203243 5.823308 19.928833 0.115860 1.274265 0.091205 -0.012914 428528.000000 1 0 0
15.163276 1.867243 7.536608 17.035609 0.122526 1.112520 0.056910 -0.013127 271152.000000 1 0 0
8.699376 -15.696457 4.026708 18.392180 -1.064715 1.350073 0.047788 -0.025133 468469.000000 1 0 0
11.522276 -15.117357 1.901108 19.102658 -0.919540 1.471111 0.057984 -0.015061 1061690.000000 1 0 0
8.033976 -16.358157 6.295808 19.281371 -1.114270 1.238174 0.047509 -0.011920 135127.000000 1 0 0
14.710776 -11.573357 -2.494292 18.883088 -0.666595 1.703275 0.046578 -0.003411 677104.000000 1 0 0
13.816276 -4.816057 3.180008 14.973187 -0.335408 1.356786 0.020704 -0.006218 -1892520.000000 1 0 0
-1.179624 10.235943 -5.502192 11.680760 -1.456059 2.061274 -0.002259 0.004181 -763172.000000 1 0 0
8.331476 -1.687457 -8.060092 11.714354 -0.199837 2.329598 0.003421 -0.003117 -2853830.000000 1 0 0
2.960676 -10.041757 7.643408 12.962414 -1.284083 0.940159 0.001004 -0.004870 702469.000000 1 0 0
-6.327924 1.253143 8.314208 10.523262 -0.195504 0.659859 0.002237 -0.001119 -7666.130000 1 0 0
7.182476 -6.238257 -7.129792 11.888555 -0.715159 2.213946 -0.000068 -0.003511 -97519.300000 1 0 0
-11.363224 -4.505057 -4.146192 12.907723 0.377450 1.897812 0.007453 -0.004095 202132.000000 1 0 0
2.112776 -3.230757 2.834408 4.789100 -0.991645 0.937450 0.006079 -0.002575 774996.000000 1 0 0
-3.668524 -4.266157 8.844508 10.482532 0.860575 0.566587 0.004150 -0.004584 -1116580.000000 1 0 0
-4.768124 -1.009657 -2.422592 5.442736 0.208669 2.032089 0.008810 -0.004120 93885.200000 1 0 0
5.093876 -5.177957 -3.641592 8.125269 -0.793584 2.035526 0.003966 -0.003557 -20736.900000 1 0 0
2.628376 14.436543 -8.852492 17.137350 1.390705 2.113626 0.008630 0.000294 -461725.000000 1 0 0
5.424276 -5.367257 13.702408 15.683947 -0.780115 0.508125 0.032856 -0.014988 -906586.000000 1 0 0
-4.797524 -1.016957 9.986308 11.125502 0.208883 0.456490 0.006649 -0.002001 -3790430.000000 1 0 0
-1.059024 12.018343 -2.693692 12.361961 -1.482906 1.790460 -0.001579 0.000147 -306779.000000 1 0 0
2.937176 9.485143 -10.559292 14.494606 1.270500 2.386923 0.005140 0.002285 -456262.000000 1 0 0
-10.695024 2.613443 1.205808 11.075541 -0.239664 1.461709 0.001380 -0.001762 358687.000000 1 0 0
5.734676 -8.988257 -0.615692 10.679623 -1.002890 1.628479 0.000470 -0.007164 204096.000000 1 0 0
-7.094124 5.440043 9.429708 12.993847 -0.654191 0.758737 0.000692 0.000987 125152.000000 1 0 0
-5.560224 -1.903057 5.141008 7.808181 0.329765 0.852088 0.004908 -0.004719 511563.000000 1 0 0
6.739576 -3.720657 -7.284792 10.598743 -0.504424 2.328598 0.002034 -0.003166 353742.000000 1 0 0
6.325376 4.838743 11.147108 13.699702 0.653015 0.620350 0.010724 -0.008705 80332.000000 1 0 0
3.802776 -9.903357 3.357008 11.126863 -1.204169 1.264318 -0.004519 -0.006631 956558.000000 1 0 0
-6.653224 6.562143 -5.822992 11.010647 -0.778506 2.128043 0.003218 -0.000375 -249363.000000 1 0 0
-10.994124 8.419843 5.281408 14.820857 -0.653568 1.206438 0.004518 -0.005470 5651.590000 1 0 0
-9.189724 -5.546757 5.113308 11.889637 0.543050 1.126232 0.005719 -0.002394 -1231990.000000 1 0 0
3.339976 9.820943 -8.068692 13.141923 1.242980 2.231871 0.000141 0.001742 724408.000000 1 0 0
-8.060224 -8.452857 6.034308 13.146516 0.809171 1.093922 0.009625 -0.005798 -1458120.000000 1 0 0
-7.716124 -5.649457 -7.450292 12.122780 0.631987 2.232637 0.012961 -0.003717 -1347510.000000 1 0 0
9.332676 -1.521057 6.965108 11.744155 -0.161561 0.935930 0.007922 -0.004777 1322190.000000 1 0 0
-4.159124 -0.357957 -4.905892 6.441601 0.085854 2.436567 0.012333 -0.007939 -1187960.000000 1 0 0
9.096376 1.216143 -4.496392 10.219618 0.132907 2.026369 0.004668 -0.000354 -3660900.000000 1 0 0
-1.704724 -10.619957 10.594008 15.097105 1.411633 0.792981 0.003458 -0.006890 570785.000000 1 0 0
-12.943624 0.312743 -2.693992 13.224705 -0.024157 1.775941 0.006458 -0.004735 -880910.000000 1 0 0
-9.756824 -5.127157 -6.087792 12.591448 0.483835 2.075429 0.013351 -0.005293 -932117.000000 1 0 0
-5.751524 8.353943 -0.233892 10.145102 -0.967844 1.593853 -0.000277 0.002698 892441.000000 1 0 0
6.119076 9.583643 0.417008 11.378189 1.002554 1.534138 0.007049 -0.003340 605311.000000 1 0 0
-0.439024 -12.023057 -0.021092 12.031088 1.534297 1.572549 0.005897 -0.005424 -669152.000000 1 0 0
6.221276 4.732943 2.366208 8.167249 0.650357 1.276863 -0.002128 0.001332 329112.000000 1 0 0
3.533176 -7.408057 -8.165492 11.577474 -1.125769 2.353630 -0.004620 -0.001477 615876.000000 1 0 0
-6.512924 -9.860757 4.564108 12.668220 0.987083 1.202228 0.014510 -0.006077 -2639830.000000 1 0 0
-0.139424 6.726943 -9.266492 11.451597 -1.550073 2.513565 0.005839 -0.000179 -1975980.000000 1 0 0
-17.398924 -2.729357 4.344508 18.139645 0.155601 1.328942 0.045035 -0.011446 1114690.000000 1 0 0
-8.479424 0.872143 -9.156092 12.509808 -0.102494 2.391922 0.003904 -0.004440 602509.000000 1 0 0
-9.969824 -5.954357 -11.932292 16.650266 0.538386 2.369773 0.024765 0.005384 -333433.000000 1 0 0
2.207476 9.368343 6.440208 11.580806 1.339386 0.981098 0.001653 0.003031 805795.000000 1 0 0
-11.438724 1.712743 -1.221192 11.630530 -0.148628 1.675989 0.004073 -0.003903 -1331020.000000 1 0 0
-5.894124 -5.432657 -3.080292 8.587355 0.744679 1.937672 0.017672 -0.006439 812919.000000 1 0 0
-6.913924 -8.310457 1.321108 10.890885 0.876872 1.449193 0.014314 -0.005335 -197615.000000 1 0 0
-0.196024 10.945143 -7.853792 13.472811 -1.552889 2.193134 0.003990 0.004391 603213.000000 1 0 0
-3.070824 9.266243 -4.360592 10.691491 -1.250788 1.990901 0.001403 0.000437 -96630.000000 1 0 0
3.392876 -4.757557 9.320008 11.000386 -0.951296 0.560022 0.010427 -0.005641 -767997.000000 1 0 0
-9.011424 1.557443 -0.393092 9.153465 -0.171139 1.613754 0.003681 -0.001879 -1206070.000000 1 0 0
2.362076 3.619043 -10.476392 11.332770 0.992540 2.750344 0.008274 -0.002628 -974275.000000 1 0 0
-13.789824 0.464143 1.133708 13.844132 -0.033646 1.488814 0.007478 -0.004430 -349084.000000 1 0 0
9.529076 -12.525657 -5.023892 16.520740 -0.920441 1.879786 0.021446 -0.005746 -1891400.000000 1 0 0
-4.735324 9.382943 -8.542792 13.544084 -1.103417 2.253302 0.007711 0.000157 -1618540.000000 1 0 0
-2.331224 7.197843 8.365408 11.279344 -1.257579 0.735259 0.002156 0.000209 -62951.000000 1 0 0
-10.810324 -1.328557 -4.484492 11.778746 0.122284 1.961379 0.007278 -0.004426 -3297930.000000 1 0 0
2.736776 -7.146757 9.727308 12.376857 -1.205083 0.666602 0.001781 -0.005234 -950737.000000 1 0 0
-16.155724 -6.516757 3.300208 17.730396 0.383409 1.383572 0.020354 -0.003337 -307777.000000 1 0 0
-10.783724 -0.108157 6.183708 12.431358 0.010029 1.050165 0.002362 -0.001875 -287574.000000 1 0 0
-8.459224 10.014143 9.385108 16.122090 -0.869371 0.949454 0.008686 -0.012573 412473.000000 1 0 0
0.163176 -6.151957 -3.863992 7.266611 -1.544278 2.131457 0.001609 -0.002836 622660.000000 1 0 0
4.862176 1.570443 -3.059692 5.955565 0.312415 2.110350 0.000406 0.000145 302062.000000 1 0 0
0.354776 5.348343 3.728608 6.529407 1.504560 0.963014 0.000351 0.004383 -1951190.000000 1 0 0
6.104676 -11.212957 -1.476992 12.852197 -1.072239 1.685972 -0.002735 -0.007574 -1785530.000000 1 0 0
6.366576 -13.509857 5.259508 15.833886 -1.130409 1.232195 0.013496 -0.009907 163676.000000 1 0 0
8.171976 -8.234357 -5.923092 13.025699 -0.789200 2.042858 0.000211 -0.004779 789738.000000 1 0 0
-13.165024 -1.405457 -4.633892 14.027335 0.106354 1.907468 0.005641 -0.004362 -3210000.000000 1 0 0
-6.811824 -1.627257 -7.112992 9.982163 0.234492 2.363951 0.013604 -0.006170 -959136.000000 1 0 0
-5.819224 12.757943 -4.620292 14.763996 -1.142860 1.889087 0.009661 0.000355 575707.000000 1 0 0
-4.376724 6.892843 -6.809192 10.631656 -1.005062 2.265899 0.004596 0.001007 -3038620.000000 1 0 0
-9.371224 -3.747957 -8.099992 12.941287 0.380457 2.247085 0.010978 -0.003184 789498.000000 1 0 0
-2.223824 -6.326757 9.218308 11.399581 1.232790 0.628937 0.005103 -0.003941 -385609.000000 1 0 0
7.563776 -5.962957 10.045308 13.916744 -0.667601 0.764376 0.017841 -0.008352 1016330.000000 1 0 0
9.565876 -5.033157 12.158108 16.268320 -0.484354 0.726734 0.029090 -0.011377 -593915.000000 1 0 0
-6.563824 2.739643 -8.966892 11.445287 -0.395403 2.471006 0.004892 -0.005070 -108551.000000 1 0 0
7.334276 5.423343 8.904508 12.747333 0.636716 0.797443 0.000918 -0.001752 -258339.000000 1 0 0
12.688376 3.363843 11.121208 17.204406 0.259151 0.867918 0.048454 -0.006318 -843800.000000 1 0 0
-7.344624 -7.383557 -3.936992 11.133747 0.788042 1.932223 0.017081 -0.008041 -1127160.000000 1 0 0
2.307476 1.439043 -5.812392 6.417101 0.557624 2.703980 0.003430 -0.002084 -89280.500000 1 0 0
12.686376 6.904643 -7.155792 16.119044 0.498423 2.030781 0.009133 -0.004150 -147387.000000 1 0 0
0.908576 -7.681157 1.016108 7.801164 -1.453057 1.440174 0.000264 -0.004757 491421.000000 1 0 0
-10.186324 -6.086757 -8.552292 14.627082 0.538610 2.195293 0.017790 -0.003187 -745477.000000 1 0 0
-6.756824 0.268643 3.125408 7.449498 -0.039738 1.137851 0.006296 -0.004032 -1008870.000000 1 0 0
10.854176 -7.928857 1.347308 13.509076 -0.630897 1.470897 0.012735 -0.005601 317790.000000 1 0 0
6.293876 1.037743 10.577308 12.351891 0.163411 0.542674 0.011933 -0.004081 -488227.000000 1 0 0
-12.962024 5.312943 1.921308 14.139762 -0.388999 1.434495 0.006659 -0.004568 312040.000000 1 0 0
2.011876 7.413143 3.569908 8.470335 1.305787 1.135742 -0.004819 0.003887 81226.200000 1 0 0
10.213076 -9.432057 -0.693592 13.919471 -0.745663 1.620646 0.008258 -0.006531 770529.000000 1 0 0
6.867176 -11.720057 -9.090292 16.344762 -1.040784 2.160554 -0.000278 -0.001438 -264123.000000 1 0 0
10.245476 3.619143 12.076108 16.245010 0.339561 0.732697 0.026210 -0.004729 -168524.000000 1 0 0
-10.969124 -3.172657 -1.865592 11.570129 0.281552 1.732745 0.001655 -0.001984 -1090390.000000 1 0 0
12.285076 1.010743 6.820608 14.087774 0.082089 1.065404 0.009308 -0.007923 -111586.000000 1 0 0
-9.520324 9.098243 3.117808 13.532750 -0.762732 1.338318 0.000204 -0.004607 2032950.000000 1 0 0
-6.724824 7.651443 -8.874292 13.510030 -0.849764 2.287452 0.005586 -0.001061 -1433990.000000 1 0 0
8.542676 5.562343 12.285508 15.964043 0.577165 0.692623 0.022983 -0.005078 -1321310.000000 1 0 0
1.336376 4.931443 -2.719692 5.788070 1.306161 2.059950 0.001246 -0.000363 450999.000000 1 0 0
1.234176 0.522443 9.504908 9.598928 0.400441 0.140077 0.007809 -0.005572 624808.000000 1 0 0
2.412476 12.548843 -4.003592 13.391126 1.380867 1.874413 0.003928 -0.002818 361127.000000 1 0 0
2.141476 0.614343 12.918408 13.109104 0.279376 0.170776 0.012442 -0.009775 -396558.000000 1 0 0
-12.289124 -1.729457 0.815308 12.436974 0.139813 1.505194 0.000268 -0.004079 448245.000000 1 0 0
3.244676 8.658543 -1.287692 9.335761 1.212256 1.709169 0.003863 -0.001763 -120033.000000 1 0 0
3.708076 -2.885057 -5.789192 7.455744 -0.661211 2.459847 0.001548 -0.003293 -873528.000000 1 0 0
-7.776124 -7.226757 9.229608 14.066975 0.748797 0.855132 0.011602 -0.008060 19308.800000 1 0 0
-7.154224 10.857143 -3.416392 13.443668 -0.988161 1.827741 0.015332 0.002538 579468.000000 1 0 0
0.424676 0.347343 2.517408 2.576497 0.685562 0.214580 0.003042 -0.000089 -2312110.000000 1 0 0
-7.159724 4.531743 -1.917592 8.687664 -0.564295 1.793355 0.004050 -0.001277 -1100900.000000 1 0 0
-6.998524 -3.897757 -5.835092 9.910608 0.508156 2.200336 0.009159 -0.003718 -106456.000000 1 0 0
2.982676 -6.066557 13.407508 15.015350 -1.113844 0.467006 0.016339 -0.009576 -747226.000000 1 0 0
-5.505324 -0.554357 -11.789392 13.023274 0.100356 2.702777 0.012128 -0.007047 -856851.000000 1 0 0
11.894276 2.445443 -0.632992 12.159550 0.202773 1.622877 0.005389 -0.000343 -1862670.000000 1 0 0
6.239176 -10.851657 10.873208 16.580483 -1.048999 0.855576 0.005049 0.001962 689611.000000 1 0 0
-8.190024 6.430343 -10.538492 14.815047 -0.665616 2.362195 0.000344 -0.002919 388411.000000 1 0 0
2.842076 7.939043 11.195408 14.015811 1.227024 0.645548 0.006162 -0.004803 1077700.000000 1 0 0
-6.270424 -10.116957 -0.484792 11.912433 1.015950 1.611504 0.017042 -0.002476 -943200.000000 1 0 0
11.253176 4.213043 6.173608 13.509150 0.358233 1.096183 0.002906 -0.002770 -506632.000000 1 0 0
-7.918224 10.631343 1.327008 13.322338 -0.930632 1.471023 -0.005018 0.001174 221800.000000 1 0 0
4.402776 -2.566157 -3.488192 6.175522 -0.527714 2.171038 0.003917 -0.002990 -5955690.000000 1 0 0
6.391776 6.401243 6.223808 10.980277 0.786138 0.968159 -0.000797 0.001990 -5197650.000000 1 0 0
-0.427924 10.468243 -10.345792 14.724220 -1.529941 2.349894 -0.000525 0.005077 -528996.000000 1 0 0
13.988476 6.607843 -2.534492 15.676884 0.441307 1.733180 0.018272 0.000195 937083.000000 1 0 0
1.301076 9.563143 -6.291192 11.520660 1.435576 2.148473 0.001182 0.000644 86619.800000 1 0 0
0.636176 7.330243 7.299808 10.364573 1.484225 0.789354 -0.000794 0.004218 45486.000000 1 0 0
12.146876 6.438343 1.914408 13.880339 0.487391 1.432433 0.010489 -0.004688 -1357470.000000 1 0 0
-6.904624 6.695743 -3.170892 10.127259 -0.770041 1.889257 0.002049 -0.002064 227147.000000 1 0 0
0.967076 9.878843 11.190708 14.958567 1.473214 0.725582 0.012607 -0.003752 -1617210.000000 1 0 0
-3.666624 13.798843 -11.122892 18.098921 -1.311078 2.232626 0.012632 -0.000194 32225.900000 1 0 0
-9.942624 -5.467857 -2.324992 11.582695 0.502798 1.772899 0.007378 -0.000938 1032830.000000 1 0 0
-4.021524 3.879543 -12.469292 13.664068 -0.767430 2.720299 0.004467 -0.008958 273721.000000 1 0 0
-3.264224 8.479443 2.389108 9.394890 -1.203325 1.313674 0.001512 0.003490 -3164820.000000 1 0 0
7.072276 8.822143 7.124108 13.364139 0.895050 1.008564 0.002918 0.001636 -1911290.000000 1 0 0
-1.353524 -2.184057 -8.166592 8.561271 1.015996 2.836768 0.006832 -0.008820 -1858240.000000 1 0 0
0.844876 -1.291057 4.911408 5.148065 -0.991330 0.304390 0.008037 -0.002506 53662.100000 1 0 0
2.705576 -8.736157 -6.089992 10.987656 -1.270466 2.158267 -0.007048 -0.002079 219448.000000 1 0 0
5.236576 3.911643 8.993108 11.117494 0.641569 0.628492 0.003217 -0.000518 372223.000000 1 0 0
6.199676 -7.472257 -2.772992 10.097529 -0.878211 1.848992 0.000932 -0.005799 1042200.000000 1 0 0
1.680376 2.275143 -8.291092 8.760260 0.934644 2.812833 0.007579 -0.004825 88785.700000 1 0 0
-5.490824 10.919643 -0.681792 12.241430 -1.104880 1.626521 -0.002914 0.002409 519170.000000 1 0 0
-5.530624 3.300443 -3.458092 7.310207 -0.538032 2.063546 0.007161 -0.000552 -661354.000000 1 0 0
1.907276 13.709543 -6.361692 15.233529 1.432563 2.001611 -0.004528 0.002528 642872.000000 1 0 0
-5.431924 -2.520757 2.662308 6.553465 0.434487 1.152456 -0.001563 -0.005065 713827.000000 1 0 0
10.618376 -3.236857 -2.007792 11.280885 -0.295887 1.749731 0.007661 -0.003086 -124140.000000 1 0 0
2.372376 -3.346057 6.990108 8.104682 -0.954051 0.530651 0.006502 -0.005671 -1204620.000000 1 0 0
-2.935224 9.937143 -11.829992 15.726127 -1.283584 2.422268 0.000019 0.002444 -2398090.000000 1 0 0
0.487676 -2.007957 9.216808 9.445595 -1.332538 0.220545 0.008902 -0.006094 479725.000000 1 0 0
9.476776 2.664543 5.000308 11.041383 0.274089 1.100815 -0.001024 -0.000709 1005180.000000 1 0 0
13.432576 2.063143 -5.047292 14.497096 0.152402 1.926403 0.010934 -0.002164 -1958430.000000 1 0 0
-6.450824 3.776343 7.705008 10.735038 -0.529619 0.770240 0.001966 -0.000246 408331.000000 1 0 0
10.681476 0.109343 1.836708 10.838790 0.010236 1.400518 0.003741 0.000851 1489630.000000 1 0 0
15.357376 6.592943 -4.702792 17.361801 0.405508 1.845093 0.021099 -0.007172 -201530.000000 1 0 0
8.100376 -4.811257 -9.158692 13.139479 -0.535963 2.342052 0.006095 -0.000470 1550560.000000 1 0 0
4.317176 5.638343 -2.149092 7.419401 0.917334 1.864666 -0.000677 0.000475 472859.000000 1 0 0
-1.605424 -10.555057 1.472908 10.777573 1.419853 1.433703 0.009898 -0.007373 -972865.000000 1 0 0
-2.978624 12.293343 -13.123892 18.227316 -1.333082 2.374616 0.006240 0.000158 -555942.000000 1 0 0
8.365776 4.131943 -9.627392 13.406932 0.458764 2.371851 0.009649 -0.002144 -2083340.000000 1 0 0
4.111276 7.652143 -9.233892 12.677643 1.077778 2.386722 0.005728 0.000004 -1944570.000000 1 0 0
-1.621024 -5.027957 -2.434992 5.816980 1.258916 2.002700 0.008238 -0.005277 -263706.000000 1 0 0
-3.151924 -9.176757 6.939708 11.929251 1.239952 0.949932 0.011587 -0.007941 -1268340.000000 1 0 0
1.076576 7.219543 -1.388292 7.430220 1.422767 1.758745 0.001864 -0.000874 99908.000000 1 0 0
0.311676 -1.037557 -2.306892 2.548611 -1.278978 2.702544 0.009746 0.001412 -49572.200000 1 0 0
4.269376 -6.811157 7.679608 11.117365 -1.010889 0.808235 0.002164 -0.004605 -787141.000000 1 0 0
-14.048624 3.700243 5.963808 15.704224 -0.257539 1.181261 0.010348 -0.005909 -1871280.000000 1 0 0
4.309076 6.309843 12.520908 14.668176 0.971630 0.547919 0.011941 -0.009284 -1017070.000000 1 0 0
8.206076 10.107943 -7.123792 14.841112 0.888875 2.071456 0.025020 -0.004436 456724.000000 1 0 0
12.478576 5.346043 9.454608 16.543417 0.404762 0.962460 0.022683 -0.007327 812354.000000 1 0 0
7.546776 3.995843 0.312608 8.545075 0.486950 1.534205 0.001212 0.002288 -1298970.000000 1 0 0
-10.803024 -7.448657 -1.046492 13.163699 0.603642 1.650379 0.005903 -0.000714 -878759.000000 1 0 0
10.324176 6.846343 0.220408 12.389899 0.585555 1.553006 0.007637 -0.001561 -1196610.000000 1 0 0
14.642376 3.589443 4.380308 15.699375 0.240400 1.288032 0.024628 -0.005410 -202943.000000 1 0 0
2.217676 5.541643 8.271708 10.200443 1.190132 0.625080 -0.002823 0.001407 241056.000000 1 0 0
4.363576 0.090343 11.747408 12.531981 0.020701 0.355725 0.013804 -0.005641 -497652.000000 1 0 0
-1.581224 -1.454357 -0.347592 2.176292 0.743629 1.731201 0.013254 -0.006951 -879046.000000 1 0 0
3.193176 -5.174357 -9.425492 11.216516 -1.017887 2.568674 -0.003417 0.000428 -240403.000000 1 0 0
-3.907324 -5.324757 -1.241192 6.720177 0.937742 1.756559 0.010315 -0.006819 -1145910.000000 1 0 0
-1.163024 -8.505057 8.531208 12.102484 1.434894 0.788495 0.006629 -0.004922 -235751.000000 1 0 0
3.828876 8.541543 -6.009192 11.123337 1.149386 2.141510 0.002706 0.000357 773100.000000 1 0 0
-14.390024 -1.669757 -2.655592 14.727969 0.115519 1.752097 0.006955 -0.004537 -1130250.000000 1 0 0
8.958476 -10.472557 -6.563492 15.264605 -0.863162 2.015268 0.001801 -0.003636 84160.900000 1 0 0
14.766576 6.187243 1.677508 16.098067 0.396780 1.466401 0.013054 -0.004074 -1088630.000000 1 0 0
-5.843924 0.415643 -8.467792 10.296976 -0.071004 2.536338 0.011234 -0.008480 -119337.000000 1 0 0
-8.046924 -4.542657 -12.949792 15.908672 0.513923 2.521816 0.021971 -0.002136 495775.000000 1 0 0
1.021776 -10.623857 11.966908 16.034876 -1.474914 0.728303 0.004722 -0.003576 -293375.000000 1 0 0
0.209276 11.712043 3.369208 12.188819 1.552930 1.290732 0.002511 0.002015 -1490460.000000 1 0 0
5.192376 -13.068957 -3.590292 14.513738 -1.192614 1.820763 0.005398 -0.009206 649373.000000 1 0 0
-7.576324 1.528943 -6.985992 10.418371 -0.199131 2.305740 0.004127 -0.004108 920331.000000 1 0 0
1.528476 2.766643 4.055608 5.141839 1.066062 0.662029 0.000991 0.002267 -743657.000000 1 0 0
17.199676 5.594543 1.925008 18.188826 0.314476 1.464763 0.020735 -0.007499 -460898.000000 1 0 0
2.573176 -8.195857 -3.543692 9.292527 -1.266581 1.962051 -0.003382 -0.002654 445039.000000 1 0 0
-0.267724 -9.380657 -0.597092 9.403453 1.542264 1.634336 0.007813 -0.004085 -617465.000000 1 0 0
0.647576 11.900243 -5.677992 13.201316 1.516433 2.015409 -0.000001 0.001692 -450553.000000 1 0 0
6.119176 -5.020257 7.833708 11.136169 -0.687065 0.790560 0.008577 -0.004466 -795851.000000 1 0 0
-6.052524 -1.859357 -9.481392 11.401187 0.298052 2.552805 0.014468 -0.007489 -600276.000000 1 0 0
2.111376 -1.222557 11.176608 11.439804 -0.524860 0.214922 0.009650 -0.008477 -57558.900000 1 0 0
18.048376 2.170043 -5.704392 19.052376 0.119660 1.874866 0.058862 -0.000513 542293.000000 1 0 0
-8.944124 4.802043 7.835508 12.823890 -0.492725 0.913462 0.002134 -0.002110 -755545.000000 1 0 0
11.492476 -7.114957 -4.740692 14.323888 -0.554343 1.908121 0.012828 -0.009220 -133857.000000 1 0 0
10.889376 0.532043 8.991308 14.131709 0.048820 0.881168 0.008378 -0.004349 -564702.000000 1 0 0
-8.328024 -7.439557 -1.567592 11.276540 0.729110 1.710262 0.015021 -0.004633 222775.000000 1 0 0
10.357476 -10.373857 -3.191392 15.002639 -0.786188 1.785156 0.013577 -0.006161 652841.000000 1 0 0
7.714076 -13.793657 -3.729592 16.238282 -1.060881 1.802544 0.009406 -0.012474 -325976.000000 1 0 0
1.687776 -1.142057 -11.713892 11.889834 -0.594892 2.969347 0.007807 -0.006643 228137.000000 1 0 0
-11.912224 -2.585057 -6.410792 13.772504 0.213695 2.054970 0.010916 -0.004288 215939.000000 1 0 0
2.824776 -12.120657 -6.392392 13.991153 -1.341829 2.045290 -0.001050 -0.000373 122530.000000 1 0 0
-5.591624 1.404843 1.131108 5.875309 -0.246146 1.377068 0.007743 -0.003573 456840.000000 1 0 0
0.062476 6.852343 -3.992292 7.930757 1.561679 2.098318 0.004443 -0.000657 1051670.000000 1 0 0
5.553476 -11.754957 3.669108 13.508607 -1.129441 1.295728 -0.001961 -0.008102 -2489340.000000 1 0 0
-4.394924 -9.261957 0.991108 10.299587 1.127745 1.474419 0.013171 -0.006232 -813995.000000 1 0 0
7.208676 -6.227257 -4.582592 10.570898 -0.712483 2.019181 0.003293 -0.005087 177915.000000 1 0 0
-6.899024 -5.946857 2.212708 9.373245 0.711411 1.332481 0.010805 -0.005374 -224107.000000 1 0 0
-6.060624 -0.733257 7.238708 9.469304 0.120402 0.700625 0.004110 -0.001357 -465580.000000 1 0 0
4.200576 -4.969957 3.340308 7.314572 -0.869099 1.096554 0.004027 -0.002125 -488211.000000 1 0 0
-2.527224 10.529043 -8.975492 14.064390 -1.335229 2.262917 -0.002745 0.002951 -760595.000000 1 0 0
-2.206224 -5.012257 2.724208 6.116490 1.156150 1.109189 0.005024 -0.003943 1785070.000000 1 0 0
15.114776 5.196943 6.398008 17.216247 0.331169 1.190036 0.036693 -0.015834 1065290.000000 1 0 0
6.840776 0.316043 0.126508 6.849241 0.046167 1.552325 0.004233 -0.000201 5435030.000000 1 0 0
-9.708724 9.092243 0.415708 13.307931 -0.752620 1.539554 0.003434 -0.003973 -2030500.000000 1 0 0
7.046276 10.464043 -2.589892 12.878421 0.978161 1.773280 0.001686 -0.001165 340997.000000 1 0 0
1.584376 -4.292157 -5.450692 7.116383 -1.217179 2.443292 0.000776 -0.003891 -238140.000000 1 0 0
0.987176 -8.155257 -7.982292 11.454245 -1.450335 2.341841 -0.004536 -0.000052 644448.000000 1 0 0
-10.482724 0.255743 -10.476092 14.822329 -0.024392 2.355729 0.003789 -0.003681 -3475460.000000 1 0 0
5.901176 -2.505857 0.566208 6.436131 -0.401563 1.482709 0.006225 -0.000804 239664.000000 1 0 0
-3.359024 5.182743 -1.210992 6.293677 -0.995746 1.764418 0.006063 -0.002546 788364.000000 1 0 0
-0.395924 4.609443 -5.205792 6.964481 -1.485112 2.415053 0.003978 -0.002023 -1200250.000000 1 0 0
4.080376 -9.592457 9.963608 14.420062 -1.168609 0.807988 0.001504 -0.001738 -546718.000000 1 0 0
7.508876 -13.358257 -0.771192 15.343434 -1.058699 1.621080 0.009913 -0.011964 600005.000000 1 0 0
13.098876 -0.096957 0.480108 13.108030 -0.007402 1.534161 0.007997 -0.002051 631276.000000 1 0 0
9.322776 2.438343 -0.530692 9.650974 0.255816 1.625813 0.004709 0.000845 74624.100000 1 0 0
-0.744824 -5.738357 4.545808 7.358524 1.441720 0.904904 0.003223 -0.004100 608438.000000 1 0 0
11.556476 -3.704457 3.324608 12.582851 -0.310204 1.303404 0.014368 -0.005482 -2400940.000000 1 0 0
1.696876 -8.201657 11.732708 14.415374 -1.366781 0.619959 0.002746 -0.002964 355288.000000 1 0 0
9.514476 -5.974257 -5.833292 12.658763 -0.560691 2.049705 0.001795 -0.005837 -478913.000000 1 0 0
3.073476 6.276343 -0.112792 6.989382 1.115429 1.586935 -0.005271 0.001826 -1852220.000000 1 0 0
6.562876 -1.393757 11.317708 13.156915 -0.209261 0.535115 0.014846 -0.004924 544466.000000 1 0 0
-4.728424 -7.514857 -3.859792 9.681377 1.009175 1.980876 0.015534 -0.005123 -655172.000000 1 0 0
-3.302324 -8.564457 -5.768392 10.841108 1.202778 2.131858 0.011563 -0.004660 -813135.000000 1 0 0
9.729276 5.263743 2.196308 11.277835 0.495923 1.374798 0.003293 -0.003044 -696695.000000 1 0 0
8.907576 -1.388657 0.246608 9.018541 -0.154651 1.543448 0.006591 -0.000138 1443800.000000 1 0 0
-3.982124 9.610443 9.218908 13.899863 -1.177977 0.845660 0.003115 0.000158 273731.000000 1 0 0
-14.373824 -3.543257 -6.129992 16.023055 0.241689 1.963376 0.015564 -0.006645 -569303.000000 1 0 0
10.511776 6.309343 -5.987792 13.644006 0.540579 2.025125 0.004388 -0.003641 -1827420.000000 1 0 0
-1.802324 4.405543 2.750508 5.497497 -1.182467 1.046828 0.003730 0.000390 484196.000000 1 0 0
6.942076 -3.680557 2.684908 8.303472 -0.487500 1.241531 0.008587 -0.003935 -1727040.000000 1 0 0
8.393176 -11.035557 -1.537692 13.949674 -0.920573 1.681252 0.009325 -0.007524 -2009910.000000 1 0 0
4.539876 0.467943 1.817208 4.912401 0.102711 1.191871 0.002492 0.001252 -33582.300000 1 0 0
-10.792424 2.134243 3.874208 11.663658 -0.195235 1.232203 0.001146 -0.003456 224433.000000 1 0 0
-0.825024 -3.088257 4.293708 5.352936 1.309744 0.639956 0.006254 -0.005262 228121.000000 1 0 0
8.711176 -8.567157 -8.458492 14.860244 -0.777063 2.176332 0.005257 -0.003124 -710398.000000 1 0 0
12.134276 -4.768557 1.029008 13.078174 -0.374442 1.492034 0.011681 -0.004886 -118050.000000 1 0 0
2.950776 4.871843 3.386908 6.626694 1.026211 1.034331 -0.006087 0.000965 -447949.000000 1 0 0
6.067976 7.480143 2.006108 9.838564 0.889257 1.365454 -0.001796 -0.000248 4216.520000 1 0 0
-1.679624 -1.246457 -10.301992 10.512176 0.638429 2.941287 0.011439 -0.007069 1719990.000000 1 0 0
-0.824724 -8.646457 5.981108 10.545854 1.475701 0.967752 0.004924 -0.008019 473827.000000 1 0 0
-4.246324 -0.271657 2.260308 4.818097 0.063888 1.082492 0.005349 -0.002518 735745.000000 1 0 0
-8.474624 6.087543 -8.037692 13.171254 -0.622920 2.227166 0.000695 -0.000256 -994317.000000 1 0 0
6.377676 11.149543 -9.408992 15.922192 1.051210 2.203015 0.012603 -0.004424 228571.000000 1 0 0
-11.157424 -5.741357 3.111508 12.927984 0.475241 1.327730 0.000734 -0.000010 1936360.000000 1 0 0
1.566876 -6.225457 3.028908 7.098288 -1.324229 1.129945 0.003695 -0.006598 980212.000000 1 0 0
10.099276 2.214443 7.214308 12.607354 0.215852 0.961574 0.006086 -0.002786 -1958560.000000 1 0 0
-4.084024 -2.477257 -10.615992 11.641106 0.545238 2.718784 0.012167 -0.009051 -1653000.000000 1 0 0
-8.303124 11.744043 5.906608 15.548390 -0.955383 1.181124 0.003750 -0.008159 -808359.000000 1 0 0
6.821776 5.992443 -2.930192 9.541070 0.720769 1.882955 0.001851 0.000796 -2945400.000000 1 0 0
3.986876 -9.873557 -2.303492 10.894420 -1.187024 1.783842 -0.005743 -0.005082 -1974710.000000 1 0 0
8.518676 -12.813957 -7.261492 17.014541 -0.984089 2.011727 0.013341 -0.006002 548067.000000 1 0 0
-1.153324 9.441743 3.552708 10.153738 -1.449247 1.213341 0.001266 0.003986 -144909.000000 1 0 0
0.620776 -13.104557 4.759508 13.955919 -1.523461 1.222775 0.007808 -0.006354 -1150690.000000 1 0 0
-11.102424 -7.004457 -5.151592 14.101955 0.562827 1.944763 0.010828 -0.006711 371625.000000 1 0 0
3.527176 10.290943 -3.460092 11.415635 1.240599 1.878742 0.005810 -0.003724 48350.000000 1 0 0
11.598476 -8.084757 -7.323592 15.922403 -0.608746 2.048741 0.032797 -0.007037 139806.000000 1 0 0
11.691876 -4.715857 -5.695392 13.833899 -0.383386 1.995113 0.010894 -0.007100 -68219.300000 1 0 0
1.409776 -10.256557 -2.671792 10.692189 -1.434201 1.823355 -0.003122 -0.002963 -1762980.000000 1 0 0
2.523476 -11.943457 -3.897392 12.814201 -1.362574 1.879838 -0.002985 -0.002919 -1201660.000000 1 0 0
-7.662824 -5.629957 7.256208 11.961097 0.633644 0.918956 0.006148 -0.001725 -3841250.000000 1 0 0
-7.297424 -0.896957 9.568708 12.067191 0.122301 0.655157 0.001647 -0.001580 274784.000000 1 0 0
16.233676 2.674743 -7.504892 18.083414 0.163298 1.998756 0.050307 -0.006890 -494486.000000 1 0 0
-2.112524 6.306943 -5.629992 8.714190 -1.247590 2.273223 0.003885 0.001419 486320.000000 1 0 0
7.744876 1.188143 8.454608 11.527149 0.152223 0.747410 0.007711 -0.002416 -192120.000000 1 0 0
7.845176 8.260243 -3.780192 12.002843 0.811164 1.891191 0.002393 0.002037 -666642.000000 1 0 0
8.067476 0.584543 3.982808 9.016020 0.072330 1.113250 0.002371 -0.000794 370192.000000 1 0 0
-6.972924 5.802743 5.402308 10.558335 -0.694058 1.033677 0.006411 -0.004804 180181.000000 1 0 0
-6.064124 -2.067757 -4.521192 7.841582 0.328618 2.185316 0.011793 -0.005425 -572161.000000 1 0 0
-15.148124 -2.146057 3.173408 15.625036 0.140735 1.366276 0.015594 -0.007627 -755048.000000 1 0 0
1.065876 1.305943 -10.559792 10.693493 0.886271 2.983295 0.010564 -0.007765 456362.000000 1 0 0
1.500576 -9.241257 9.407908 13.272576 -1.409823 0.782968 0.001582 -0.005607 -879951.000000 1 0 0
-0.049424 -6.824257 -1.286092 6.944563 1.563554 1.757066 0.003896 -0.003805 674459.000000 1 0 0
-0.341924 -10.251957 -8.356692 13.230791 1.537457 2.254424 -0.001897 0.000389 -212190.000000 1 0 0
-4.358324 6.449143 3.713908 8.624358 -0.976498 1.125606 0.002501 0.002924 42720.500000 1 0 0
10.801176 -1.061857 -8.614992 13.856804 -0.097994 2.241728 0.013167 -0.002620 -267863.000000 1 0 0
3.121076 -1.087557 6.250908 7.070908 -0.335298 0.486378 0.003695 -0.002040 913468.000000 1 0 0
1.902976 -12.167957 6.902408 14.118205 -1.415661 1.059967 0.005210 -0.003781 -830363.000000 1 0 0
2.986876 -4.932057 -1.253792 5.900729 -1.026266 1.784909 0.005720 -0.003063 -1432600.000000 1 0 0
-1.085024 9.476043 -1.710092 9.690051 -1.456791 1.748205 0.001406 -0.001601 520941.000000 1 0 0
4.558976 -2.588557 2.578008 5.842175 -0.516402 1.113777 0.006132 -0.000742 -2545750.000000 1 0 0
17.793876 6.762943 -2.678492 19.223260 0.363209 1.710587 0.015038 -0.001687 232897.000000 1 0 0
-7.149124 3.471743 -5.572892 9.706704 -0.452076 2.182335 0.004608 -0.002826 -868435.000000 1 0 0
-13.781424 -5.967457 2.178908 15.175172 0.408633 1.426715 -0.009796 -0.000057 -1508870.000000 1 0 0
6.731776 -6.007757 3.566508 9.702058 -0.728627 1.194366 0.005371 -0.005686 1463630.000000 1 0 0
-4.711224 1.952643 3.549508 6.213490 -0.392915 0.962758 0.008230 -0.002202 660036.000000 1 0 0
7.022576 -11.917857 -5.305192 14.815429 -1.038320 1.937013 0.006593 -0.008467 22382.000000 1 0 0
3.024376 -12.338857 3.462508 13.167505 -1.330425 1.304709 0.001179 -0.009495 -1373180.000000 1 0 0
3.181676 11.327143 -6.135692 13.269286 1.296963 2.051494 -0.000380 0.002713 -772933.000000 1 0 0
-5.526024 -8.257457 6.392108 11.814465 0.981031 0.999122 0.011160 -0.005631 467595.000000 1 0 0
-4.028924 6.526543 6.309708 9.931788 -1.017743 0.882394 0.003054 0.000948 223949.000000 1 0 0
4.307876 4.529343 -7.024492 9.402990 0.810454 2.414408 0.003472 0.000643 -1823460.000000 1 0 0
-0.269024 -2.745457 1.597308 3.187679 1.473119 1.045941 0.007012 -0.003793 -1399010.000000 1 0 0
-13.296224 -0.978357 6.671508 14.908246 0.073449 1.106823 0.011942 -0.001095 78235.100000 1 0 0
-0.409924 -9.199757 -5.970392 10.974933 1.526268 2.145996 0.000667 -0.001356 -349871.000000 1 0 0
2.090676 -1.804157 -3.876392 4.759446 -0.711967 2.522599 0.003932 -0.002215 -70313.000000 1 0 0
11.398776 -1.902257 1.119708 11.610530 -0.165359 1.474207 0.009080 -0.003777 625787.000000 1 0 0
0.644676 -4.321257 -2.110492 4.852118 -1.422702 2.020794 0.003930 -0.001803 -888658.000000 1 0 0
1.234576 -7.288657 -11.238692 13.452022 -1.403006 2.559775 -0.004760 0.002535 -1421890.000000 1 0 0
-4.529324 4.061843 -10.074292 11.768802 -0.731038 2.598311 0.004633 -0.006042 944968.000000 1 0 0
-1.059624 5.826243 -2.156792 6.302354 -1.390892 1.920075 0.003273 -0.000801 -772463.000000 1 0 0
-11.447324 1.722643 -3.872092 12.206631 -0.149364 1.893585 0.002022 -0.002136 -646658.000000 1 0 0
-1.657324 -11.204457 4.100808 12.045879 1.423945 1.223420 0.011110 -0.007560 -881035.000000 1 0 0
-3.486624 -5.328957 -9.614092 11.531917 0.991419 2.556560 0.006687 -0.000479 -1475050.000000 1 0 0
-12.863924 -3.742657 -8.361592 15.792538 0.283126 2.128766 0.022190 -0.006205 6071.450000 1 0 0
11.450576 4.487743 0.555808 12.311151 0.373524 1.525634 0.009178 0.000729 343862.000000 1 0 0
-8.910624 -2.337457 -3.105492 9.721472 0.256542 1.895942 0.008236 -0.003258 -50375.000000 1 0 0
-2.332824 -6.123557 -6.351792 9.126077 1.206812 2.340614 0.004602 -0.003971 586594.000000 1 0 0
-0.032424 2.681043 -1.961592 3.322181 -1.558703 2.202416 0.005153 -0.002415 833936.000000 1 0 0
7.971076 6.046743 -5.151392 11.253355 0.648973 2.046276 0.004295 0.000985 -731511.000000 1 0 0
-9.763424 -0.941357 -1.022792 9.861882 0.096120 1.674695 0.004364 -0.002235 -453442.000000 1 0 0
6.087776 0.519343 -8.907792 10.801828 0.085103 2.540390 0.004190 -0.001712 248808.000000 1 0 0
-4.188824 2.524743 7.927808 9.315080 -0.542427 0.552772 0.003590 0.000502 -1776140.000000 1 0 0
-10.146224 -3.238057 1.376608 10.738991 0.308922 1.442255 0.003768 -0.003488 3416280.000000 1 0 0
-1.695024 -8.117357 -7.847992 11.417336 1.364940 2.328665 0.001154 -0.003478 -832234.000000 1 0 0
-9.315224 -9.730557 4.225408 14.117762 0.807202 1.266840 0.005134 -0.003720 -753797.000000 1 0 0
-0.914424 -10.675957 7.334308 12.984772 1.485352 0.970558 0.011685 -0.006509 -140747.000000 1 0 0
9.367176 3.821743 -3.786892 10.802326 0.387378 1.928968 0.005258 -0.001408 -671555.000000 1 0 0
12.923076 -0.783957 3.041308 13.299249 -0.060589 1.340072 0.008595 -0.002067 202086.000000 1 0 0
6.369276 11.904843 -6.808992 15.121354 1.079530 2.037886 0.010618 0.000980 -351631.000000 1 0 0
-11.921924 -0.063957 -6.525792 13.591260 0.005365 2.071618 0.004139 -0.003216 440144.000000 1 0 0
-7.604224 -6.679157 -11.406092 15.249076 0.720723 2.415818 0.022656 -0.002036 -153344.000000 1 0 0
4.157376 6.040343 6.617908 9.877561 0.967988 0.836595 -0.003286 0.002546 -2575390.000000 1 0 0
-4.305024 -1.330057 -7.458892 8.714204 0.299652 2.598175 0.010976 -0.009829 -1683950.000000 1 0 0
9.552376 9.216843 0.903708 13.304690 0.767523 1.502820 0.013767 -0.002533 -1549780.000000 1 0 0
-8.914524 3.857543 4.967208 10.909745 -0.408396 1.098087 0.004613 -0.003565 3284880.000000 1 0 0
-7.022124 7.825443 -12.396792 16.255099 -0.839450 2.438181 0.003698 -0.002086 -693939.000000 1 0 0
11.231876 -3.585457 7.194308 13.811900 -0.308997 1.022918 0.017146 -0.005757 708491.000000 1 0 0
11.850576 6.914343 6.375108 15.128988 0.528169 1.135826 0.008946 -0.006321 26243.000000 1 0 0
-9.993124 -0.873557 -14.817992 17.894092 0.087194 2.546496 0.018028 0.000948 746279.000000 1 0 0
1.936776 -13.058357 11.978308 17.825590 -1.423553 0.833927 0.011822 -0.000710 -45517.800000 1 0 0
2.876976 3.034343 12.992208 13.648505 0.812013 0.311371 0.008793 -0.008214 -1316560.000000 1 0 0
-2.561724 -1.529357 10.929408 11.329312 0.538213 0.266488 0.007447 -0.005067 -400034.000000 1 0 0
2.665876 -10.051057 -8.245492 13.270975 -1.311533 2.241220 -0.007955 0.003561 -1207050.000000 1 0 0
14.001876 3.723343 -7.495392 16.312471 0.259903 2.048216 0.018143 -0.004275 -3056380.000000 1 0 0
7.428476 -1.584957 5.040308 9.115868 -0.210210 0.984937 0.004758 -0.002275 309284.000000 1 0 0
-1.163724 8.687643 10.119808 13.388051 -1.437637 0.713794 0.005610 -0.000973 -49001.700000 1 0 0
-12.197324 -4.618557 0.886408 13.072548 0.361970 1.502937 -0.002006 -0.001228 14943.500000 1 0 0
-4.892824 4.853043 -5.318892 8.705307 -0.781316 2.228112 0.006103 -0.002271 -74050.400000 1 0 0
-11.227124 0.256143 1.941708 11.396673 -0.022811 1.399586 -0.000253 -0.002473 -1150560.000000 1 0 0
-1.409824 2.283743 -4.134592 4.929294 -1.017731 2.565835 0.007002 -0.005284 1086450.000000 1 0 0
3.193076 -9.857257 13.275708 16.840596 -1.257531 0.662729 0.003749 0.001349 -1523120.000000 1 0 0
8.832176 4.666443 -1.552492 10.109068 0.486066 1.724981 0.002658 -0.001224 -1598420.000000 1 0 0
4.103376 2.293343 3.730808 6.001337 0.509644 0.899933 -0.005076 0.002985 -406466.000000 1 0 0
-5.628024 -3.388957 7.365408 9.869596 0.542004 0.728352 0.004962 -0.004623 -76789.400000 1 0 0
1.834076 -5.868657 7.719408 9.868851 -1.267893 0.672608 0.002642 -0.006511 -1815860.000000 1 0 0
-5.882224 -6.308857 -9.631592 12.929416 0.820379 2.411236 0.013012 -0.003233 335248.000000 1 0 0
-11.673424 -5.875857 5.545208 14.196615 0.466327 1.169512 0.006449 -0.000948 -2450640.000000 1 0 0
10.526276 6.122343 4.502108 12.982856 0.526799 1.216668 0.004330 -0.001147 -461082.000000 1 0 0
1.421576 -3.771157 0.391908 4.049209 -1.210308 1.473858 0.011156 -0.002440 -642378.000000 1 0 0
8.763176 4.377443 7.026708 12.055284 0.463269 0.948536 -0.000725 0.002627 161801.000000 1 0 0
-7.947824 11.984743 3.474408 14.794374 -0.985224 1.333736 -0.002441 -0.006532 213877.000000 1 0 0
-6.208924 13.109143 -7.036592 16.121849 -1.128464 2.022460 0.021066 -0.008950 558432.000000 1 0 0
4.608776 -6.884057 -0.964192 8.340307 -0.980845 1.686662 0.003539 -0.006703 -1123890.000000 1 0 0
-1.967824 -8.171057 11.129008 13.946086 1.334468 0.646823 0.005398 -0.006682 -363435.000000 1 0 0
11.526676 8.861043 -5.834492 15.666002 0.655389 1.952423 0.027281 -0.008345 200873.000000 1 0 0
-3.230924 -2.930757 -1.805792 4.721133 0.736721 1.963287 0.011876 -0.006932 -2541740.000000 1 0 0
-2.010224 5.908543 4.737908 7.835793 -1.242858 0.921471 0.001307 0.002920 237296.000000 1 0 0
0.478376 -11.415257 -5.661092 12.750878 -1.528914 2.030828 -0.005624 -0.004414 233403.000000 1 0 0
-8.893524 6.217043 -1.571992 10.964377 -0.610090 1.714665 0.005859 -0.002196 -219989.000000 1 0 0
2.965276 -0.064857 3.922108 4.917316 -0.021869 0.647471 0.001604 0.000268 -18418.400000 1 0 0
-10.145624 3.960143 -0.904392 10.928603 -0.372143 1.653646 0.006790 -0.002478 107202.000000 1 0 0
6.464476 5.405543 13.718308 16.099730 0.696423 0.550844 0.027316 -0.007798 -432650.000000 1 0 0
-8.817324 -1.706157 5.713408 10.644210 0.191138 1.004202 0.000545 -0.003299 382335.000000 1 0 0
13.052776 -1.759057 -1.627692 13.270969 -0.133958 1.693757 0.012687 -0.004598 -1986760.000000 1 0 0
5.027576 -5.576357 5.588008 9.359386 -0.837105 0.930979 0.007301 -0.007597 496422.000000 1 0 0
-9.098124 -1.175057 3.273408 9.740217 0.128443 1.228054 0.002161 -0.002290 740079.000000 1 0 0
2.006476 5.473043 5.584908 8.072877 1.219401 0.806802 -0.001162 0.001085 -924910.000000 1 0 0
9.265376 3.153243 -7.336492 12.231690 0.328030 2.214040 0.006770 -0.002858 -299636.000000 1 0 0
2.354276 -2.383157 -1.512092 3.675387 -0.791495 1.994797 0.005902 -0.002318 181357.000000 1 0 0
-6.295124 0.330843 -3.973492 7.451623 -0.052507 2.133220 0.005853 -0.002221 -1853020.000000 1 0 0
-4.062324 4.142843 5.019008 7.671771 -0.795211 0.857649 0.005310 0.001234 437222.000000 1 0 0
-6.555124 1.835343 -12.322992 14.078149 -0.272996 2.636909 0.003790 -0.006087 -1573210.000000 1 0 0
-0.203424 3.075143 6.158308 6.886410 -1.504741 0.464000 0.002226 0.001459 1326790.000000 1 0 0
-8.847024 9.355343 -2.173092 13.058125 -0.813317 1.737991 0.008202 0.000413 424183.000000 1 0 0
-1.334524 -3.697357 -6.157292 7.305043 1.224409 2.573414 0.004168 -0.004646 655659.000000 1 0 0
-3.282224 7.085543 -3.017292 8.371497 -1.136996 1.939519 0.003406 0.001431 793389.000000 1 0 0
7.094276 -0.434757 -4.380992 8.349302 -0.061206 2.123175 0.005278 -0.000100 -79639.700000 1 0 0
-5.173624 -10.794157 6.846608 13.789715 1.123847 1.051233 0.006159 -0.007139 592532.000000 1 0 0
9.668776 8.363943 -1.492492 12.871220 0.713165 1.687014 0.006559 0.000906 -624882.000000 1 0 0
13.697876 4.603443 -4.329892 15.085471 0.324211 1.861915 0.007494 -0.005859 714258.000000 1 0 0
4.696276 1.125543 -6.768092 8.314380 0.235230 2.521840 0.002806 -0.001874 -1171840.000000 1 0 0
9.154976 -4.798857 3.537508 10.925043 -0.482804 1.241055 0.009490 -0.005760 625408.000000 1 0 0
-8.645124 -3.253057 -0.771792 9.269100 0.359899 1.654158 0.006534 -0.003194 442065.000000 1 0 0
-8.611824 -4.266057 -10.448792 14.196479 0.459938 2.397958 0.013382 -0.003193 154453.000000 1 0 0
10.596976 -1.101557 10.767508 15.147559 -0.103578 0.780103 0.028801 -0.009156 1175180.000000 1 0 0
2.437976 -11.576657 9.894708 15.422968 -1.363235 0.874270 0.002239 -0.003126 496218.000000 1 0 0
-6.378424 -10.577657 2.024908 12.516844 1.028167 1.408308 0.017351 -0.004550 -1118140.000000 1 0 0
-3.719924 -1.701857 6.664908 7.820176 0.429071 0.550485 0.009028 -0.004452 -3062040.000000 1 0 0
4.704876 -7.526657 3.998908 9.735383 -1.012129 1.147509 -0.001187 -0.005069 144211.000000 1 0 0
11.587576 -9.476057 -5.221092 15.853308 -0.685487 1.906398 0.018967 -0.007938 593021.000000 1 0 0
11.393276 1.242743 11.567308 16.283542 0.108647 0.780775 0.042785 -0.004690 -104290.000000 1 0 0
-10.285124 -3.475057 4.420908 11.721955 0.325830 1.184082 0.006727 -0.001192 1135110.000000 1 0 0
1.982976 8.792543 9.053108 12.774966 1.348978 0.783199 0.004517 -0.001444 -184149.000000 1 0 0
6.609476 8.709043 4.168608 11.700850 0.921610 1.206528 0.001786 0.000334 63754.100000 1 0 0
-4.264624 3.478243 0.385108 5.516657 -0.684183 1.500931 0.008179 -0.002173 -653450.000000 1 0 0
4.817376 6.992243 4.279708 9.508652 0.967518 1.103935 -0.001280 0.001853 -1195540.000000 1 0 0
-8.354024 13.011343 1.076308 15.499781 -1.000025 1.501300 -0.001502 -0.001542 167737.000000 1 0 0
8.881076 8.308043 -9.099592 15.188800 0.752074 2.213171 0.011802 -0.007097 -441377.000000 1 0 0
7.090676 1.937843 6.112008 9.559788 0.266780 0.877150 -0.001493 0.000261 -777011.000000 1 0 0
11.805176 -6.291757 3.147508 13.742459 -0.489671 1.339710 0.014599 -0.004837 184714.000000 1 0 0
11.334276 4.752243 -2.063092 12.462181 0.397016 1.737110 0.006996 -0.000905 425723.000000 1 0 0
-4.060424 14.281043 -5.929992 15.987497 -1.293784 1.950790 0.013758 -0.002159 -66920.500000 1 0 0
7.325876 -3.026157 6.970008 10.554956 -0.391729 0.849506 0.008804 -0.004840 -731722.000000 1 0 0
-8.020824 -0.516557 0.915608 8.089425 0.064313 1.457367 0.005549 -0.003650 154507.000000 1 0 0
-3.242924 0.954543 10.604408 11.130192 -0.286262 0.308597 0.004729 0.000299 -22542.700000 1 0 0
7.133976 -1.286157 -1.949692 7.506604 -0.178370 1.833539 0.006335 -0.000228 -1592780.000000 1 0 0
-7.780424 5.389343 3.018608 9.934386 -0.605796 1.262060 0.004997 -0.001551 850601.000000 1 0 0
9.527576 -2.212257 2.795608 10.172718 -0.228152 1.292400 0.006398 -0.003732 -1285100.000000 1 0 0
0.307176 3.422543 1.627008 3.802014 1.481285 1.128592 0.000936 0.001981 -2504550.000000 1 0 0
-7.620524 -3.130957 4.061308 9.185287 0.389832 1.112798 0.001149 -0.002921 -738149.000000 1 0 0
-2.424924 8.472043 -6.863992 11.170056 -1.292023 2.232547 -0.001309 0.002292 -732306.000000 1 0 0
4.534476 9.770043 7.432908 13.086762 1.136262 0.966757 0.003269 0.003750 -485733.000000 1 0 0
-11.942924 -3.188757 6.935608 14.174070 0.260913 1.059490 0.017426 -0.005457 -1111470.000000 1 0 0
-4.854824 2.284343 -5.695092 7.824424 -0.439795 2.385994 0.008504 -0.005760 -769656.000000 1 0 0
-2.750724 2.791843 -1.831992 4.326323 -0.792817 2.008049 0.007623 -0.001577 1929250.000000 1 0 0
2.259476 5.223443 11.386208 12.729309 1.162536 0.463513 0.008266 -0.007258 237534.000000 1 0 0
-0.635724 1.637043 4.453508 4.787253 -1.200384 0.375608 0.004833 -0.000359 -146743.000000 1 0 0
5.143476 1.552443 7.762508 9.440442 0.293133 0.605424 -0.000707 -0.000340 667358.000000 1 0 0
3.348076 -8.211557 1.962908 9.082526 -1.183646 1.352958 0.000784 -0.007475 1538380.000000 1 0 0
4.995476 6.377143 -4.685592 9.358285 0.906296 2.095191 0.003920 0.000057 -2957860.000000 1 0 0
-4.069424 2.874743 -8.038492 9.457363 -0.615025 2.586728 0.012547 -0.009365 845820.000000 1 0 0
-8.700124 -2.142357 -12.954192 15.750967 0.241441 2.536480 0.016809 -0.003313 -1724440.000000 1 0 0
-7.888624 8.100443 1.359808 11.388444 -0.798645 1.451108 0.002626 -0.000327 -2053010.000000 1 0 0
7.337876 0.877343 -6.571892 9.889586 0.118999 2.297656 0.005163 -0.000427 421288.000000 1 0 0
8.952676 8.743943 5.523708 13.679119 0.773604 1.155123 0.005728 0.000433 -89049.600000 1 0 0
9.421876 -1.054757 -1.442892 9.589900 -0.111483 1.721829 0.004711 -0.001222 2073340.000000 1 0 0
5.487276 0.107743 4.271608 6.954742 0.019633 0.909424 -0.000767 0.001174 -880062.000000 1 0 0
-4.079624 -7.212857 -7.886692 11.439779 1.056052 2.331470 0.013557 -0.004817 -291645.000000 1 0 0
-2.216524 7.334643 -0.610292 7.686509 -1.277323 1.650278 0.002603 0.000124 472884.000000 1 0 0
13.248676 -3.319557 -7.491092 15.577655 -0.245503 2.072462 0.023445 -0.001014 1196570.000000 1 0 0
-4.759324 -5.081657 1.662708 7.158142 0.818141 1.336373 0.009195 -0.006311 1567280.000000 1 0 0
-8.916424 1.291243 2.494708 9.348449 -0.143816 1.300665 0.003264 -0.002835 -2151560.000000 1 0 0
-1.083824 11.161443 10.158708 15.131154 -1.473995 0.834731 0.012903 -0.003449 349975.000000 1 0 0
-8.532624 0.254743 7.411408 11.304846 -0.029846 0.855825 -0.000314 -0.001499 -68994.400000 1 0 0
-6.075824 12.938843 -2.170192 14.458182 -1.131779 1.721467 0.000001 0.001867 -344176.000000 1 0 0
-13.028124 -0.753357 3.281608 13.456170 0.057761 1.324438 0.007396 -0.004484 508487.000000 1 0 0
-6.807524 12.732943 8.618208 16.814985 -1.079823 1.032666 0.013534 -0.013741 1805530.000000 1 0 0
-8.111724 0.836743 -14.106692 16.294139 -0.102789 2.617448 0.004389 -0.001307 -71965.800000 1 0 0
7.196276 2.827643 3.741408 8.589533 0.374398 1.120117 -0.001025 0.001815 -550296.000000 1 0 0
-1.598424 0.569443 -2.125592 2.719810 -0.342234 2.467898 0.007253 -0.004688 337548.000000 1 0 0
-6.442024 9.573843 -10.470092 15.581431 -0.978506 2.307648 0.007312 -0.002088 -343279.000000 1 0 0
-9.991724 13.701543 5.278208 17.760245 -0.940714 1.269046 0.002604 -0.009567 655186.000000 1 0 0
-5.654724 8.217743 2.339508 10.246000 -0.968094 1.340430 -0.001636 0.001506 -2074780.000000 1 0 0
-2.275524 -10.650457 -1.224492 10.959454 1.360306 1.682759 0.009640 -0.004796 142736.000000 1 0 0
-2.112924 -12.288057 8.822608 15.274135 1.400512 0.954989 0.011569 -0.003562 419346.000000 1 0 0
-14.786324 -6.380857 -1.736892 16.197763 0.407395 1.678233 0.009454 -0.003068 654396.000000 1 0 0
-2.608124 -9.251157 3.233208 10.140998 1.296004 1.246306 0.010640 -0.007595 48592.300000 1 0 0
4.787576 -2.697257 7.471708 9.274831 -0.513063 0.634126 0.006527 -0.003141 -261479.000000 1 0 0
-15.139324 -1.234657 -0.312792 15.192806 0.081373 1.591386 0.011496 -0.006535 303589.000000 1 0 0
5.442676 8.765143 -2.871992 10.709752 1.015118 1.842285 0.000180 0.000184 433423.000000 1 0 0
-5.676624 -5.749557 8.531208 11.750020 0.791781 0.758223 0.007223 -0.005551 -4223820.000000 1 0 0
3.502576 3.582343 7.040308 8.641016 0.796656 0.618490 -0.001003 0.000849 665886.000000 1 0 0
3.261876 2.235143 9.356908 10.158121 0.600746 0.399833 0.005968 -0.005226 -589490.000000 1 0 0
9.981276 -3.226057 5.165408 11.692508 -0.312613 1.113225 0.011187 -0.005891 -580090.000000 1 0 0
6.420176 9.975543 -5.073592 12.902382 0.998939 1.974937 0.000147 0.000471 366546.000000 1 0 0
-4.574324 12.067143 -8.727592 15.579193 -1.208460 2.165433 0.010548 -0.001982 35275.300000 1 0 0
-3.383324 -7.241957 1.979608 8.234784 1.133745 1.328023 0.009526 -0.005906 1017990.000000 1 0 0
-7.448024 -4.024857 1.163208 8.545501 0.495437 1.434253 0.005444 -0.004233 1510100.000000 1 0 0
-1.978124 -3.900257 -10.946292 11.787548 1.101423 2.761504 0.011883 -0.005546 -637581.000000 1 0 0
-5.326924 8.282443 -4.442592 10.803315 -0.999246 1.994594 0.007398 -0.000644 -1415430.000000 1 0 0
-11.004024 -3.246057 -10.155392 15.321796 0.286852 2.295357 0.015166 -0.000265 132957.000000 1 0 0
4.784076 -11.370457 -7.762192 14.574851 -1.172534 2.132436 -0.000563 0.000569 -1266550.000000 1 0 0
-9.448324 -3.980257 7.198608 12.527300 0.398704 0.958640 0.002691 -0.000776 -1079320.000000 1 0 0
-5.616024 -9.620757 -5.120492 12.260430 1.042418 2.001647 0.013345 -0.007084 839057.000000 1 0 0
4.623076 4.425343 -9.535092 11.483661 0.763549 2.550475 0.005710 0.003209 -129053.000000 1 0 0
-3.287724 -7.039757 -14.012192 16.022136 1.133877 2.635308 0.004388 0.000005 272329.000000 1 0 0
0.587276 -0.742057 -8.753592 8.804596 -0.901312 3.033903 0.007276 -0.010026 -216929.000000 1 0 0
-7.796224 2.249643 -2.957992 8.636650 -0.280924 1.920365 0.005282 -0.002285 -566816.000000 1 0 0
-2.352224 7.582643 -12.629692 14.917726 -1.269998 2.580404 0.000647 -0.002842 -74559.400000 1 0 0
-9.721224 8.831243 7.578408 15.163289 -0.737464 1.047444 0.003103 -0.007996 -232247.000000 1 0 0
-10.680524 -3.242357 -14.227992 18.083756 0.294735 2.476376 0.029237 -0.000734 -251131.000000 1 0 0
-3.279424 4.812243 7.973408 9.873578 -0.972612 0.630810 0.001886 0.000874 80124.600000 1 0 0
8.764976 -2.317257 -3.599292 9.754454 -0.258463 1.948718 0.003781 -0.000238 -4466310.000000 1 0 0
2.095576 -8.438057 -1.084092 8.761706 -1.327373 1.694845 -0.003855 -0.003513 -237716.000000 1 0 0
-13.503824 -2.878357 5.070908 14.708920 0.210008 1.218823 0.024338 -0.008082 445187.000000 1 0 0
7.034076 2.739943 -1.979692 7.804146 0.371443 1.827271 0.001844 0.000486 931544.000000 1 0 0
-11.190724 4.404343 8.848608 14.930787 -0.374952 0.936462 0.007373 -0.001779 -3114710.000000 1 0 0
-1.730924 -2.621857 7.855808 8.460730 0.987291 0.380437 0.007546 -0.004747 -1012260.000000 1 0 0
2.779176 12.065643 -9.964492 15.893227 1.344407 2.248447 -0.002123 0.001553 366213.000000 1 0 0
3.689276 -4.929457 -7.100792 9.398486 -0.928311 2.427252 -0.003361 -0.004879 551458.000000 1 0 0
8.573976 -13.692857 -9.576292 18.780648 -1.011360 2.105867 0.020375 -0.001579 -223390.000000 1 0 0
-6.226324 -5.754957 -0.386292 8.487395 0.746076 1.616326 0.014989 -0.005785 -83140.400000 1 0 0
-1.186524 -4.072757 9.854608 10.728862 1.287311 0.406491 0.005876 -0.004176 1307780.000000 1 0 0
2.846176 3.215343 1.784808 4.650235 0.846227 1.176877 -0.004932 0.002518 -1548980.000000 1 0 0
-9.216824 13.415943 7.702608 18.007430 -0.968845 1.128799 0.012795 -0.020885 799001.000000 1 0 0
4.123976 -10.999357 0.041808 11.747118 -1.212088 1.567237 -0.002819 -0.006683 -35443.400000 1 0 0
-12.571124 -1.437357 -9.098092 15.584430 0.113844 2.194190 0.010398 -0.004608 101598.000000 1 0 0
-4.403224 1.015443 -13.641692 14.370639 -0.226651 2.821719 0.009423 -0.008062 398137.000000 1 0 0
3.989776 -2.965757 4.887908 6.971776 -0.639225 0.793858 0.003479 -0.002577 -43507.500000 1 0 0
1.742376 -1.251357 1.097808 2.409761 -0.622830 1.097787 0.004383 -0.001073 54548.200000 1 0 0
8.265376 -9.005957 7.343308 14.260009 -0.828251 1.029838 0.012615 -0.002773 -1542760.000000 1 0 0
-0.098524 2.309843 -6.410192 6.814370 -1.528168 2.795447 0.005125 -0.005456 -692726.000000 1 0 0
-3.620624 -9.675957 -3.350092 10.860763 1.212738 1.884368 0.014414 -0.003806 599251.000000 1 0 0
-9.526224 2.333343 -5.376292 11.184720 -0.240210 2.072228 0.000796 -0.001664 287508.000000 1 0 0
9.040376 -7.614157 5.239908 12.929053 -0.699971 1.153509 0.009875 -0.008112 2232740.000000 1 0 0
-5.551624 -4.401457 4.603008 8.448730 0.670350 0.994626 0.004105 -0.004463 -23615.200000 1 0 0
0.038376 -12.458057 10.282308 16.153344 -1.567716 0.880788 0.013576 -0.004346 -207272.000000 1 0 0
-14.270124 -8.260257 3.108808 16.778945 0.524723 1.384439 -0.003918 -0.003304 -2259000.000000 1 0 0
10.959676 -1.152757 -3.692492 11.622299 -0.104796 1.894107 0.012243 -0.003983 380789.000000 1 0 0
-13.749424 2.987643 2.802308 14.346624 -0.213966 1.374204 0.006715 -0.003408 419786.000000 1 0 0
-6.474924 6.104643 0.915708 8.945940 -0.755972 1.468257 -0.000732 0.000450 172017.000000 1 0 0
7.311876 -6.924857 -0.515492 10.083794 -0.758220 1.621939 0.006700 -0.007234 269785.000000 1 0 0
-6.897024 7.909143 10.043908 14.525962 -0.853650 0.807309 0.003504 -0.002119 32600.000000 1 0 0
-12.598024 -5.236157 -2.060992 13.797654 0.393910 1.720730 -0.001956 -0.001751 -1910970.000000 1 0 0
-9.335824 -5.535757 0.143608 10.854623 0.535226 1.557566 0.008384 -0.003461 -948324.000000 1 0 0
-1.773524 1.779443 2.124408 3.290124 -0.787064 0.868867 0.006904 -0.000064 220509.000000 1 0 0
-7.105824 7.290343 7.614008 12.712787 -0.798215 0.928638 0.002728 -0.003079 -259610.000000 1 0 0
5.484476 7.143243 -0.441292 9.016659 0.916010 1.619758 0.000502 -0.002095 -2061180.000000 1 0 0
0.037476 -4.116357 7.498508 8.554146 -1.561693 0.502059 0.006368 -0.005361 -901655.000000 1 0 0
6.601676 0.648943 13.052608 14.641510 0.097985 0.470196 0.026207 -0.011799 316927.000000 1 0 0
5.722876 6.164743 -8.083292 11.665975 0.822551 2.336292 0.000099 0.003203 -319462.000000 1 0 0
9.893676 5.280443 9.217808 14.516745 0.490258 0.882817 0.005945 -0.006954 -2146070.000000 1 0 0
-1.208724 -4.915457 -8.550192 9.936222 1.329678 2.607061 0.008448 -0.005097 442759.000000 1 0 0
9.988476 -3.410657 -7.916692 13.193795 -0.329046 2.214337 0.006594 -0.006215 377225.000000 1 0 0
8.298676 -5.566057 1.363708 10.085073 -0.590801 1.435160 0.006210 -0.005946 1604560.000000 1 0 0
15.692376 3.142743 -5.044692 16.780238 0.197657 1.876153 0.012954 0.000675 -1191740.000000 1 0 0
-6.917424 3.621943 1.212708 7.901892 -0.482347 1.416717 0.005664 -0.002125 777586.000000 1 0 0
-1.732624 3.716943 0.263908 4.109416 -1.134600 1.506532 0.006450 -0.004087 -823046.000000 1 0 0
-2.632324 9.925943 7.013508 12.435545 -1.311567 0.971588 0.000468 0.003173 331867.000000 1 0 0
5.568676 -5.648857 -8.747692 11.808550 -0.792546 2.405047 -0.000937 -0.002707 -75424.900000 1 0 0
-1.317224 -0.945757 6.176708 6.386020 0.622699 0.256738 0.010237 -0.004077 199377.000000 1 0 0
-5.682724 5.014143 -7.885992 10.937269 -0.722977 2.376070 0.004346 -0.002189 -46791.000000 1 0 0
6.804576 -1.268557 2.592208 7.391280 -0.184311 1.212465 0.003954 0.000936 -969475.000000 1 0 0
8.762376 7.444543 3.256008 11.949981 0.704264 1.294837 0.003709 -0.000887 -412454.000000 1 0 0
-5.217324 -4.888657 -7.645292 10.467566 0.752888 2.389673 0.014753 -0.007291 1231970.000000 1 0 0
-2.391724 7.980443 -10.057192 13.059668 -1.279616 2.449787 0.001300 -0.000551 461229.000000 1 0 0
-2.844424 -2.386557 1.759708 4.108890 0.698091 1.128221 0.004943 -0.001678 1574300.000000 1 0 0
6.001176 -2.081357 -9.252192 11.222710 -0.333843 2.539968 0.000835 -0.000532 1166700.000000 1 0 0
1.238776 -7.617857 5.080608 9.240070 -1.409593 0.988617 0.001980 -0.006873 308790.000000 1 0 0
1.686876 11.789143 1.185408 11.968067 1.428674 1.471586 0.005062 -0.002817 -101067.000000 1 0 0
-1.151024 7.021343 2.460908 7.528624 -1.408309 1.237803 0.001841 0.003696 727871.000000 1 0 0
8.719376 7.848343 -6.660592 13.490274 0.732872 2.087173 0.010709 -0.001071 -401729.000000 1 0 0
3.859576 -11.119957 5.552308 13.014526 -1.236720 1.130040 0.003728 -0.006348 -253500.000000 1 0 0
8.042576 -7.169057 12.359208 16.395988 -0.728037 0.716978 0.027948 -0.011174 399383.000000 1 0 0
-8.822624 0.104743 -3.843292 9.623958 -0.011872 1.981600 0.005438 -0.003316 -958314.000000 1 0 0
-3.398324 -5.030357 11.156308 12.701036 0.976660 0.498339 0.004366 -0.004583 549352.000000 1 0 0
-8.275524 0.126143 -11.606992 14.255612 -0.015242 2.522155 0.007913 -0.004581 -1749270.000000 1 0 0
1.394776 -4.978557 5.358808 7.446358 -1.297642 0.767491 0.005060 -0.004702 -764228.000000 1 0 0
6.590276 3.714443 -7.871692 10.917525 0.513244 2.376061 0.004391 0.001412 804034.000000 1 0 0
16.282576 4.275943 -1.199992 16.877379 0.256810 1.641957 0.011937 0.003162 118883.000000 1 0 0
7.801176 7.384343 0.148708 10.742857 0.757956 1.556953 0.000911 -0.001713 -1153100.000000 1 0 0
5.417176 -10.300657 13.988708 18.197068 -1.086639 0.693937 0.012377 -0.004277 -839872.000000 1 0 0
-5.143424 -9.262557 8.867408 13.815958 1.063899 0.873922 0.006349 -0.009692 571015.000000 1 0 0
-12.644324 -3.187757 2.795308 13.336209 0.246963 1.359628 0.000755 -0.004358 236230.000000 1 0 0
-2.225424 -1.381457 -5.896992 6.452554 0.555545 2.723587 0.009304 -0.008666 -2490190.000000 1 0 0
-2.466624 12.952443 -4.448592 13.915459 -1.382613 1.896196 0.005193 0.002735 570661.000000 1 0 0
3.938276 -0.447957 -5.020992 6.396956 -0.113258 2.473337 0.002919 -0.001656 -376613.000000 1 0 0
-9.032324 3.777343 -7.389892 12.266284 -0.396099 2.217371 -0.001119 -0.001839 666115.000000 1 0 0
-4.614824 8.050643 -11.462792 14.748053 -1.050298 2.461065 0.001070 0.000600 -742385.000000 1 0 0
-10.106724 -6.487857 7.410508 14.112186 0.570684 1.017947 0.005468 0.000327 -1651660.000000 1 0 0
8.045076 5.228043 4.208208 10.476864 0.576265 1.157460 -0.002179 0.001051 -1592400.000000 1 0 0
-6.573824 -7.538357 3.959908 10.757456 0.853640 1.193823 0.015358 -0.005484 -885147.000000 1 0 0
-4.134524 11.814743 8.132308 14.927052 -1.234169 0.994642 0.001637 -0.002423 300013.000000 1 0 0
-7.263524 9.935843 -7.977292 14.666866 -0.939539 2.145873 0.011672 -0.003768 728313.000000 1 0 0
13.022076 5.369943 4.663908 14.837883 0.391126 1.251051 0.011323 -0.004372 -1956540.000000 1 0 0
5.344876 3.998943 -3.710092 7.637017 0.642337 2.078079 0.001638 0.001372 957610.000000 1 0 0
-2.893524 -4.219057 5.095408 7.220534 0.969649 0.787410 0.007167 -0.003875 -638214.000000 1 0 0
12.421176 -2.303457 -5.394692 13.736601 -0.183363 1.974388 0.010100 -0.008241 -1396960.000000 1 0 0
-5.313124 9.761343 7.008308 13.138854 -1.072338 1.008177 -0.001616 0.001247 -542896.000000 1 0 0
1.801376 3.761843 -0.499492 4.200703 1.124208 1.689985 -0.001740 0.000180 350752.000000 1 0 0
-0.105524 9.648643 7.679308 12.332040 -1.559860 0.898593 0.005355 0.002221 -450743.000000 1 0 0
-5.620724 2.079643 5.923508 8.426470 -0.354376 0.791239 0.006201 -0.000801 898784.000000 1 0 0
8.959076 1.024643 10.722508 14.010250 0.113875 0.699238 0.021787 -0.006144 -1468260.000000 1 0 0
0.414476 -2.785457 -10.188792 10.570811 -1.423080 2.871931 0.004316 -0.005871 -2161380.000000 1 0 0
1.116176 10.573843 -2.718692 10.974666 1.465626 1.821127 0.003899 -0.001905 -1073030.000000 1 0 0
2.340876 -4.211457 11.654208 12.610973 -1.063484 0.392038 0.011441 -0.007829 174849.000000 1 0 0
6.686476 -3.046257 9.418208 11.945345 -0.427489 0.662525 0.012819 -0.005919 517453.000000 1 0 0
-10.630124 -8.267057 5.662408 14.608444 0.660995 1.172757 0.007206 0.000948 -1243040.000000 1 0 0
-3.032324 0.807843 -6.901992 7.581893 -0.260363 2.714867 0.011826 -0.008573 617183.000000 1 0 0
11.027676 2.665243 -5.108892 12.442424 0.237139 1.993911 0.006630 -0.002643 -3391810.000000 1 0 0
-1.938324 -4.033157 0.014608 4.474782 1.122791 1.567532 0.007784 -0.005231 1271310.000000 1 0 0
-1.272224 -6.456557 -10.638192 12.509069 1.376245 2.587614 0.003437 -0.001225 1367540.000000 1 0 0
0.250876 6.867443 -6.633392 9.551262 1.534281 2.338527 0.003018 0.001324 -2119170.000000 1 0 0
1.957676 3.887743 -6.208992 7.582785 1.104312 2.530162 0.002457 -0.000669 -2000630.000000 1 0 0
1.742976 -14.689857 6.466208 16.144402 -1.452697 1.158709 0.016855 -0.006713 -437862.000000 1 0 0
-1.756824 5.427643 -10.554792 11.997891 -1.257758 2.646071 0.005721 -0.003623 4157.630000 1 0 0
13.695776 4.415043 -0.870992 14.416154 0.311847 1.631251 0.008779 -0.003581 265750.000000 1 0 0
-2.448824 3.281343 -6.202992 7.432433 -0.929676 2.558174 0.009377 -0.005911 -513277.000000 1 0 0
5.625176 7.752543 14.194508 17.123918 0.943101 0.593607 0.030837 -0.014527 510671.000000 1 0 0
15.829376 0.654043 -5.810592 16.874830 0.041295 1.922327 0.018202 -0.004161 238780.000000 1 0 0
6.189576 -8.226257 10.631408 14.798952 -0.925750 0.769312 0.006437 -0.002516 885571.000000 1 0 0
0.210076 -5.812357 -6.466492 8.697307 -1.534669 2.409093 0.000757 -0.002906 -463291.000000 1 0 0
8.588576 5.533943 -7.628292 12.750647 0.572384 2.212133 0.004649 -0.001404 -500070.000000 1 0 0
-15.953024 -0.695957 5.280308 16.818591 0.043598 1.251439 0.026016 -0.014453 -97889.700000 1 0 0
-0.387224 4.015043 -12.317392 12.961044 -1.474650 2.825121 0.007622 -0.005547 682962.000000 1 0 0
-11.474024 3.681943 5.793408 13.370621 -0.310513 1.122652 0.004246 -0.004721 -491499.000000 1 0 0
5.206776 -9.615957 -9.605492 14.554814 -1.074524 2.291552 -0.007409 0.002139 26370.500000 1 0 0
1.426776 11.165043 -11.928992 16.401059 1.443696 2.385221 0.000003 0.006385 -2910820.000000 1 0 0
5.922876 2.384343 1.166508 6.490477 0.382716 1.390088 0.000657 0.002248 -138706.000000 1 0 0
5.660876 4.526943 4.910608 8.755158 0.674552 0.975346 -0.006235 0.001992 -14451.000000 1 0 0
0.395076 -1.524157 -6.332892 6.525692 -1.317169 2.897907 0.004474 -0.005212 775359.000000 1 0 0
12.612576 6.813443 -4.627492 15.063657 0.495296 1.883041 0.012361 -0.006915 -42286.900000 1 0 0
7.431376 3.183843 12.703408 15.057847 0.404774 0.566769 0.025003 -0.007613 -272811.000000 1 0 0
-2.577024 -0.292457 8.540008 8.925151 0.113003 0.294844 0.007694 -0.001580 836718.000000 1 0 0
2.502176 -15.226057 13.412908 20.445043 -1.407917 0.855227 0.023594 -0.004945 563655.000000 1 0 0
18.891776 4.660143 -1.590192 19.522931 0.241848 1.652339 0.014895 -0.000638 658233.000000 1 0 0
-0.283524 -13.194157 7.192308 15.029819 1.549311 1.071810 0.008042 -0.002737 -1803650.000000 1 0 0
4.387276 1.645243 -0.636492 4.728650 0.358774 1.705809 0.000802 -0.000318 907517.000000 1 0 0
2.728776 -0.424557 -7.365192 7.865909 -0.154348 2.782863 0.002997 -0.003090 830293.000000 1 0 0
7.291076 -11.248957 0.954508 13.439118 -0.995719 1.499712 0.000771 -0.006258 361805.000000 1 0 0
-11.778724 -7.320457 1.264808 13.925774 0.556077 1.479846 -0.000852 0.001216 562734.000000 1 0 0
0.126976 -6.981757 10.111708 12.288519 -1.552612 0.604374 0.003136 -0.006982 -1288110.000000 1 0 0
-4.661824 -7.200657 10.575408 13.616950 0.996239 0.681489 0.010250 -0.006797 -1166680.000000 1 0 0
11.949476 0.830643 -1.627092 12.088315 0.069401 1.705807 0.005672 -0.001222 2250200.000000 1 0 0
6.609476 -9.652457 -7.429992 13.858567 -0.970382 2.136642 -0.005570 -0.002321 1040300.000000 1 0 0
-11.000124 4.700443 3.500208 12.463882 -0.403824 1.286140 0.003223 -0.005173 567012.000000 1 0 0
6.050476 -9.108057 2.112108 11.136694 -0.984434 1.379988 -0.000385 -0.007814 4939130.000000 1 0 0
11.626376 -1.324657 5.826408 13.071892 -0.113446 1.108818 0.011890 -0.008732 18356.500000 1 0 0
-6.500324 3.551743 4.247508 8.538760 -0.500071 1.050153 0.003051 -0.001789 -2357580.000000 1 0 0
9.450776 6.305843 -3.222592 11.809569 0.588393 1.847181 0.005683 -0.000295 -352438.000000 1 0 0
-2.378424 6.601443 10.901108 12.964186 -1.224985 0.571920 0.002895 -0.003097 96272.400000 1 0 0
1.835276 9.818143 3.058708 10.446045 1.386002 1.273632 -0.000457 -0.000167 -248265.000000 1 0 0
2.800176 6.106243 -5.622692 8.760243 1.140834 2.267694 0.000146 0.001711 -1791520.000000 1 0 0
11.876576 0.111043 -5.876792 13.251493 0.009349 2.030276 0.008592 -0.002660 329806.000000 1 0 0
-2.513124 -12.379157 6.248008 14.092442 1.370506 1.111454 0.011432 -0.005018 100012.000000 1 0 0
10.823676 1.892843 -2.778592 11.333816 0.173129 1.818480 0.004979 -0.000625 315718.000000 1 0 0
-8.965024 5.253043 0.904308 10.429952 -0.530023 1.483984 0.004322 -0.002595 186348.000000 1 0 0
1.380676 -10.172857 5.449708 11.622934 -1.435899 1.082779 0.000425 -0.006043 199633.000000 1 0 0
9.683876 -5.569157 -0.803692 11.199950 -0.521906 1.642617 0.009108 -0.002657 -333180.000000 1 0 0
-7.905624 8.569843 -4.551792 12.516386 -0.825692 1.942997 0.011738 -0.002235 -456542.000000 1 0 0
-7.468224 -0.006457 -1.620592 7.642038 0.000865 1.784482 0.006239 -0.003055 -1379020.000000 1 0 0
4.124876 8.889843 2.798008 10.191799 1.136362 1.292690 0.000415 -0.000416 1798770.000000 1 0 0
-1.219024 -10.379257 -3.720892 11.093243 1.453884 1.912847 0.007249 -0.001705 -605863.000000 1 0 0
3.155276 7.865243 -3.728592 9.258521 1.189284 1.985283 0.003437 -0.002053 -263301.000000 1 0 0
-4.370824 1.587543 -11.064092 12.001605 -0.348398 2.743712 0.008202 -0.007942 -320304.000000 1 0 0
1.252176 2.773343 10.963408 11.377860 1.146692 0.270738 0.004492 -0.003052 427857.000000 1 0 0
1.987876 5.558643 -8.101492 10.024188 1.227350 2.511876 0.002926 0.002087 456974.000000 1 0 0
15.510976 6.068143 3.972708 17.122942 0.372911 1.336652 0.023988 -0.010663 1369280.000000 1 0 0
-4.454124 8.955143 4.600508 11.009018 -1.109246 1.139680 -0.001005 0.003604 261721.000000 1 0 0
-0.799624 -8.263457 -12.362592 14.891535 1.474330 2.550219 -0.004647 0.001770 772583.000000 1 0 0
14.272976 -4.230557 -5.248892 15.785003 -0.288154 1.909775 0.036946 -0.002242 1544210.000000 1 0 0
-5.931224 -6.191957 -5.589992 10.235613 0.806902 2.148536 0.014785 -0.004177 930766.000000 1 0 0
-9.041424 2.487443 -12.285592 15.455436 -0.268474 2.489646 0.002812 -0.005860 -1160040.000000 1 0 0
10.724076 5.460643 13.861808 18.356855 0.470976 0.714944 0.047492 -0.004828 624955.000000 1 0 0
-0.590224 10.769543 5.483008 12.099372 -1.516046 1.100484 0.003783 0.006626 575999.000000 1 0 0
0.356776 11.169943 -0.499392 11.186792 1.538867 1.615452 0.003257 -0.001987 87756.100000 1 0 0
-1.432224 -0.568657 3.661008 3.972105 0.377956 0.398409 0.006766 -0.002057 360222.000000 1 0 0
-4.818324 6.796543 8.793308 12.113278 -0.954097 0.758421 0.001192 -0.000265 -83830.800000 1 0 0
3.430176 -8.705157 -11.289792 14.663058 -1.195439 2.449556 -0.004064 0.003303 689806.000000 1 0 0
6.812376 -3.817457 11.995608 14.313492 -0.510771 0.577073 0.026964 -0.008771 -266642.000000 1 0 0
-2.433924 -1.747757 -12.543992 12.896914 0.622759 2.907112 0.011924 -0.009932 1155520.000000 1 0 0
-16.024324 -4.905257 5.182208 17.541260 0.297056 1.270891 0.028408 -0.011024 391876.000000 1 0 0
-8.908624 7.178643 5.777708 12.817114 -0.678273 1.103157 0.003923 -0.002869 -2993220.000000 1 0 0
-12.908224 1.425443 6.022008 14.314983 -0.109983 1.136603 0.005001 -0.004989 594631.000000 1 0 0
-3.524724 3.549543 10.193808 11.355028 -0.788906 0.456195 0.001666 -0.000489 619934.000000 1 0 0
2.141976 -12.169657 -1.112092 12.406666 -1.396571 1.660553 0.001201 -0.006585 -2686200.000000 1 0 0
10.188376 -5.210257 -3.438592 11.948794 -0.472720 1.862702 0.013205 -0.004568 874086.000000 1 0 0
3.052676 -13.255257 1.075008 13.644644 -1.344444 1.491929 -0.003505 -0.008504 500414.000000 1 0 0
10.007076 -1.611457 -6.074292 11.816741 -0.159661 2.110686 0.008775 -0.002177 -849321.000000 1 0 0
12.140576 -5.410357 -1.563792 13.383235 -0.419224 1.687911 0.013864 -0.004641 547115.000000 1 0 0
1.458976 0.959443 5.938908 6.190296 0.581709 0.285965 0.004903 -0.002327 667122.000000 1 0 0
-10.861324 11.731443 6.521108 17.266151 -0.823892 1.183505 0.013176 -0.013460 16511.200000 1 0 0
4.897976 -14.050557 2.955208 15.170417 -1.235372 1.374742 0.006991 -0.011484 -3547100.000000 1 0 0
5.431176 -3.473857 -1.729292 6.675013 -0.569039 1.832855 0.003964 -0.001546 -1440500.000000 1 0 0
2.011776 -2.860657 -7.702692 8.459436 -0.957888 2.715395 0.000720 -0.003349 -121182.000000 1 0 0
-2.873324 14.863643 -8.991492 17.607692 -1.379839 2.106745 0.016775 -0.004842 -2465760.000000 1 0 0
-2.401024 6.169543 -8.186792 10.528616 -1.199658 2.461597 0.006500 -0.001758 -358096.000000 1 0 0
2.564076 -3.495257 -11.236792 12.043953 -0.937882 2.773407 0.001272 -0.000148 -1121920.000000 1 0 0
14.637276 2.773143 -2.704792 15.141204 0.187238 1.750398 0.014654 0.000867 665608.000000 1 0 0
-3.590924 13.094443 2.258008 13.764366 -1.303144 1.406004 -0.006088 0.002690 266472.000000 1 0 0
7.910576 -5.035557 14.065108 16.904476 -0.566869 0.588031 0.040392 -0.017779 -86806.100000 1 0 0
-11.462924 7.202543 2.952508 13.856138 -0.560993 1.356067 0.003898 -0.004350 1014510.000000 1 0 0
-2.400324 11.810043 4.065308 12.718703 -1.370283 1.245455 -0.002362 0.003477 -30004.500000 1 0 0
1.882076 1.434443 0.760508 2.485600 0.651238 1.259844 -0.003306 0.000715 -1510170.000000 1 0 0
-6.911224 8.585443 5.368508 12.259516 -0.893018 1.117529 -0.000368 -0.002843 -1414780.000000 1 0 0
-1.249924 9.143443 0.977108 9.280065 -1.434937 1.465310 0.000027 0.002559 239772.000000 1 0 0
4.688676 12.905443 -8.475492 16.135926 1.222314 2.123812 0.012169 -0.009182 -2401550.000000 1 0 0
8.917776 6.821243 7.285208 13.383958 0.652972 0.995213 0.000043 -0.000965 -971027.000000 1 0 0
7.351076 -13.711357 2.932408 15.831571 -1.078664 1.384495 0.021561 -0.012842 -189005.000000 1 0 0
4.323576 -13.304957 -1.173792 14.038980 -1.256601 1.654504 -0.003010 -0.003282 -3034260.000000 1 0 0
12.247976 -11.828657 -4.475392 17.605657 -0.767984 1.827819 0.023271 -0.002667 -909782.000000 1 0 0
2.799476 0.086843 -2.037492 3.463521 0.031011 2.199716 0.004266 -0.002371 1326770.000000 1 0 0
-13.686824 -3.228857 -10.674892 17.655254 0.231674 2.220097 0.029749 -0.007608 503956.000000 1 0 0
-6.661724 13.572643 5.071608 15.947301 -1.114520 1.247153 0.001018 -0.007706 -161581.000000 1 0 0
7.454676 -4.236157 -0.566292 8.592898 -0.516750 1.636746 0.006605 -0.001406 -1580050.000000 1 0 0
11.831076 2.289443 -7.283292 14.080563 0.191148 2.114441 0.009966 -0.002076 -859194.000000 1 0 0
-7.565624 -4.620757 9.759608 13.184840 0.548291 0.737407 0.008803 -0.005022 260406.000000 1 0 0
0.994976 2.793543 8.433308 8.939493 1.228636 0.338130 0.002787 -0.001824 -1476090.000000 1 0 0
1.595176 8.089743 -8.730892 12.009039 1.376109 2.384778 0.002759 0.001441 -1363660.000000 1 0 0
-8.574924 -1.826857 -5.612192 10.409776 0.209908 2.140197 0.013390 -0.003207 -389529.000000 1 0 0
6.747676 -0.485257 7.180408 9.865336 -0.071791 0.755626 0.004999 -0.001222 8024.740000 1 0 0
-10.968324 6.553743 7.260408 14.695891 -0.538591 1.054062 0.006173 -0.003185 767162.000000 1 0 0
-6.024024 10.954843 4.828208 13.401830 -1.068033 1.202245 -0.006549 0.000855 89239.700000 1 0 0
6.010176 -1.160657 -6.949592 9.261002 -0.190767 2.419486 0.002538 -0.001045 -732448.000000 1 0 0
4.526676 -5.653957 11.401608 13.507579 -0.895677 0.565931 0.017325 -0.008266 -1588020.000000 1 0 0
-8.906224 -7.360557 2.734408 11.873315 0.690663 1.338412 0.009654 -0.003164 -3066110.000000 1 0 0
-1.299924 12.804443 -9.415992 15.946927 -1.469622 2.202423 0.010260 0.002815 662394.000000 1 0 0
-4.722224 9.290843 -2.335692 10.680572 -1.100557 1.791264 0.000637 -0.000492 682476.000000 1 0 0
-3.262824 9.613943 -0.383492 10.159773 -1.243610 1.608551 0.000171 -0.001526 -1918360.000000 1 0 0
-3.549124 10.762643 -6.572792 13.100854 -1.252262 2.096367 0.008192 0.000815 495455.000000 1 0 0
5.073876 -4.959557 0.390908 7.105929 -0.774005 1.515757 0.006403 -0.003916 -1852500.000000 1 0 0
-2.191724 2.922843 -10.876392 11.473560 -0.927385 2.817540 0.009463 -0.005298 -1317150.000000 1 0 0
-3.702824 12.072643 -2.320992 12.839261 -1.273193 1.752569 -0.002256 0.003662 -1241710.000000 1 0 0
-0.040424 0.417143 -0.076892 0.426093 -1.474190 1.752249 0.001137 -0.001981 -1996400.000000 1 0 0
-4.809324 -1.776057 0.149208 5.128961 0.353759 1.541701 0.004718 -0.002264 377493.000000 1 0 0
2.545276 2.499743 -2.561592 4.391913 0.776373 2.193523 -0.003175 0.000145 749626.000000 1 0 0
6.237876 -9.640357 8.533708 14.306353 -0.996492 0.931666 0.004631 -0.000328 -751994.000000 1 0 0
-4.128724 -5.520257 6.636208 9.568639 0.928626 0.804409 0.011623 -0.006569 308612.000000 1 0 0
-6.373324 5.275043 -12.147192 14.696926 -0.691390 2.543680 0.001344 -0.003804 1380680.000000 1 0 0
-13.016924 2.951043 7.934808 15.527722 -0.222940 1.034438 0.011322 -0.006517 553258.000000 1 0 0
4.772076 -7.434357 -4.930492 10.116922 -1.000140 2.079850 -0.003959 -0.004814 56887.900000 1 0 0
-6.078424 2.398943 -1.061692 6.620375 -0.375899 1.731859 0.009245 -0.003022 -932750.000000 1 0 0
-6.802624 -2.837557 -14.570592 16.328796 0.395183 2.673266 0.017132 -0.003580 -581393.000000 1 0 0
2.929076 -6.096557 0.978108 6.834046 -1.122913 1.427180 0.001841 -0.004669 -642807.000000 1 0 0
4.837176 -7.831757 13.021508 15.946609 -1.017510 0.615354 0.015029 -0.007133 -136197.000000 1 0 0
-9.969724 -1.748057 8.144608 12.991757 0.173572 0.893221 0.004755 -0.001894 200749.000000 1 0 0
-4.582224 13.262043 -0.141292 14.032054 -1.238123 1.580866 -0.006164 0.005297 320275.000000 1 0 0
6.797076 2.169743 -4.507192 8.439360 0.308993 2.134201 0.003133 0.001315 -1590290.000000 1 0 0
4.977576 4.538743 0.109208 6.737089 0.739317 1.554586 -0.004608 0.002041 -1129800.000000 1 0 0
-5.900824 12.224743 1.891508 13.705542 -1.121088 1.432344 -0.007281 0.002383 -795568.000000 1 0 0
6.571876 -7.312657 6.602508 11.843041 -0.838701 0.979424 0.005495 -0.005676 -570435.000000 1 0 0
-0.259224 4.925443 7.681108 9.128341 -1.518215 0.570822 0.001760 0.001561 -747661.000000 1 0 0
-5.729924 -3.429357 -1.658092 6.880537 0.539315 1.814175 0.010008 -0.004843 -437346.000000 1 0 0
2.422676 -6.460857 -5.093992 8.576758 -1.212045 2.206731 -0.002956 -0.002597 -1292200.000000 1 0 0
-14.399224 -4.781357 -3.769292 15.633509 0.320601 1.814299 0.006484 -0.007489 -324213.000000 1 0 0
-12.366624 -5.160657 -6.395292 14.848082 0.395335 2.016081 0.016987 -0.012225 -940838.000000 1 0 0
-14.755624 -3.779957 -1.268892 15.284849 0.250778 1.653908 0.002328 -0.004140 670516.000000 1 0 0
11.864876 2.928543 8.735408 15.021950 0.241988 0.950213 0.011523 -0.006423 -1208320.000000 1 0 0
8.807276 -6.575257 7.680108 13.408436 -0.641303 0.960901 0.013363 -0.008847 -83582.800000 1 0 0
-8.894524 -1.697957 -9.785592 13.332420 0.188630 2.394945 0.007760 -0.005662 -162399.000000 1 0 0
-8.842724 5.127243 -3.930492 10.951309 -0.525454 1.937892 0.001838 -0.001480 -1311250.000000 1 0 0
-4.034824 -6.367357 4.068308 8.565872 1.005984 1.075896 0.012042 -0.005626 -1333210.000000 1 0 0
-0.086224 -9.267957 3.479108 9.899831 1.561493 1.211697 0.003837 -0.008303 -426240.000000 1 0 0
7.960576 -10.397957 3.461008 13.544993 -0.917392 1.312411 0.005846 -0.008354 370700.000000 1 0 0
-0.038324 6.392943 9.658708 11.582825 -1.564802 0.584692 -0.000815 -0.000820 635773.000000 1 0 0
-0.064724 3.561143 -9.711692 10.344220 -1.552623 2.790077 0.009097 -0.004766 -658986.000000 1 0 0
4.562976 -3.124757 10.902608 12.225044 -0.600456 0.469431 0.014268 -0.009361 -1931680.000000 1 0 0
8.590176 -9.087457 1.352208 12.577816 -0.813521 1.463081 0.006031 -0.006438 804560.000000 1 0 0
-0.324824 -0.411757 11.305308 11.317466 0.902876 0.046357 0.010684 -0.005914 -1627020.000000 1 0 0
10.941076 6.032643 11.447808 16.945566 0.503899 0.829067 0.024773 -0.005470 196223.000000 1 0 0
-6.365424 -2.887157 -11.849892 13.757698 0.425818 2.608674 0.015621 -0.004671 359196.000000 1 0 0
-1.669724 2.827843 8.418708 9.036555 -1.037422 0.371929 0.005370 -0.000880 -251203.000000 1 0 0
-1.832824 13.573643 -6.956092 15.361974 -1.436580 2.040713 0.011146 0.000290 358878.000000 1 0 0
7.651176 3.056643 9.852408 12.843422 0.380075 0.696461 0.007097 -0.000934 175279.000000 1 0 0
6.457676 8.434943 -7.991892 13.293614 0.917394 2.215777 0.002355 0.001015 531114.000000 1 0 0
6.759276 -3.105357 -3.999992 8.445767 -0.430661 2.064180 0.001844 0.000622 -1823940.000000 1 0 0
2.022976 8.331943 0.964808 8.628126 1.332608 1.458741 -0.000429 0.003313 912779.000000 1 0 0
-17.708524 6.286143 6.458208 19.869974 -0.341103 1.239760 0.048725 -0.017112 1520650.000000 1 0 0
-14.559124 2.957843 -10.266092 18.058505 -0.200433 2.175466 0.009811 -0.004557 -1041770.000000 1 0 0
-18.265424 -0.050857 -4.300892 18.765020 0.002784 1.802049 0.028626 -0.009370 167886.000000 1 0 0
-13.080924 7.952043 0.073208 15.308525 -0.546216 1.566014 0.008203 -0.001935 -413632.000000 1 0 0
-12.856324 -4.439257 -12.801092 18.677795 0.332479 2.325900 0.045664 0.003890 -455536.000000 1 0 0
-17.402324 -0.638457 -8.593892 19.419153 0.036672 2.029234 0.034755 -0.017665 -1202020.000000 1 0 0
-16.786424 -2.168457 -2.121992 17.058403 0.128468 1.695515 0.023577 -0.011865 615023.000000 1 0 0
-15.369224 4.107643 1.691608 15.998354 -0.261160 1.464862 0.012234 -0.001565 -1663940.000000 1 0 0
-13.230024 5.787743 4.443508 15.108815 -0.412386 1.272282 0.006994 -0.005647 117018.000000 1 0 0
-10.089324 14.173743 2.748308 17.613707 -0.952173 1.414124 0.017254 -0.011716 83209.900000 1 0 0
-11.957224 2.537443 -6.381992 13.789259 -0.209108 2.051974 0.003744 -0.000028 193703.000000 1 0 0
-15.967224 10.596143 3.938308 19.563762 -0.585889 1.368105 0.032318 -0.016382 -635261.000000 1 0 0
-12.743124 1.071243 -8.550392 15.383237 -0.083867 2.160152 0.004488 -0.005673 949885.000000 1 0 0
-12.235924 14.368243 4.140508 19.321182 -0.865377 1.354822 0.038263 -0.018674 191546.000000 1 0 0
-10.453524 11.123043 -0.946692 15.293609 -0.816418 1.632737 0.012417 -0.000766 34179.600000 1 0 0
-16.960124 5.516843 8.851508 19.910564 -0.314488 1.110110 0.035937 -0.021628 266043.000000 1 0 0
-11.769024 12.253843 -9.247892 19.343994 -0.805577 2.069259 0.017075 -0.018240 -848912.000000 1 0 0
-17.110824 -0.593657 2.980608 17.378630 0.034681 1.398434 0.023614 -0.009584 414019.000000 1 0 0
-13.179924 14.668643 -0.629492 19.730072 -0.838805 1.602707 0.040047 -0.014902 -19889.000000 1 0 0
-16.353624 4.785143 -10.416792 19.971184 -0.284658 2.119511 0.044706 -0.009133 602217.000000 1 0 0
-11.972324 7.545943 -9.055892 16.801399 -0.562389 2.140041 0.005331 -0.001360 162256.000000 1 0 0
-15.002124 13.354543 -1.998492 20.184190 -0.727361 1.669972 0.047916 -0.012963 993643.000000 1 0 0
-11.945024 10.629343 -5.498692 16.908642 -0.727182 1.902020 0.022030 -0.006041 1123220.000000 1 0 0
-17.687524 2.714143 -0.853092 17.914878 -0.152262 1.618434 0.034189 -0.003419 -136550.000000 1 0 0
-9.562624 15.325243 0.604308 18.074071 -1.012932 1.537355 0.021346 -0.010049 27545.000000 1 0 0
-8.253124 13.130343 -3.536792 15.906881 -1.009646 1.795014 0.013842 -0.000498 -934701.000000 1 0 0
-17.948024 11.565043 2.413308 21.487342 -0.572402 1.458246 0.099065 -0.012025 160571.000000 1 0 0
-8.211424 15.482843 -7.429392 19.035278 -1.083160 1.971749 0.053303 -0.023265 -631776.000000 1 0 0
-6.478924 15.179843 -5.516292 17.402114 -1.167393 1.893350 0.022252 -0.005932 -1088970.000000 1 0 0
-17.456324 5.210343 -0.216392 18.218610 -0.290061 1.582674 0.045229 -0.001550 653632.000000 1 0 0
-5.521224 12.395543 -12.261692 18.288863 -1.151758 2.305606 0.005207 -0.007166 -125760.000000 1 0 0
-11.230724 3.624543 -11.467792 16.455295 -0.312182 2.341870 0.006773 -0.003570 216566.000000 1 0 0
-11.894424 10.929443 1.248808 16.201530 -0.743144 1.493640 0.013892 -0.006446 348567.000000 1 0 0
-13.037924 0.131443 -10.997892 17.057502 -0.010081 2.271498 0.019581 -0.007005 1192500.000000 1 0 0
-14.300224 -2.206957 -13.082792 19.507089 0.153122 2.305906 0.054836 -0.005398 331500.000000 1 0 0
-18.795124 -2.572357 -3.732092 19.333966 0.136018 1.765049 0.030834 -0.009930 -273208.000000 1 0 0
-18.329324 4.561843 -5.218692 19.596155 -0.243926 1.840361 0.053925 -0.009142 333833.000000 1 0 0
-8.505724 15.349043 -2.274492 17.695022 -1.064770 1.699691 0.026387 -0.007288 440589.000000 1 0 0
-16.330824 9.051043 -5.270092 19.400801 -0.506085 1.845896 0.040061 -0.005342 72146.800000 1 0 0
-18.492624 1.509943 2.279708 18.693693 -0.081470 1.448541 0.076073 -0.011713 -951697.000000 1 0 0
-15.750024 -2.686657 -8.664692 18.175761 0.168955 2.067712 0.018437 -0.010738 -77980.300000 1 0 0
-9.712624 10.516243 -7.101692 15.980002 -0.825104 2.031313 0.017312 -0.006167 293309.000000 1 0 0
-14.045124 11.911943 -7.941892 20.055761 -0.703401 1.977943 0.038817 -0.012904 -442429.000000 1 0 0
-11.116824 6.522143 -3.869692 13.457216 -0.530576 1.862470 0.005363 -0.001184 -398242.000000 1 0 0
-13.305724 4.805543 -12.598592 18.943602 -0.346585 2.298368 0.023981 -0.009178 1162910.000000 1 0 0
-17.659024 8.966643 2.683608 19.986085 -0.469841 1.436116 0.037535 -0.019542 776915.000000 1 0 0
-13.512824 8.717043 -6.565792 17.369309 -0.572919 1.958443 0.010173 -0.002557 194967.000000 1 0 0
-15.904424 6.924243 -3.758492 17.748863 -0.410618 1.784171 0.020498 0.000529 -394222.000000 1 0 0
-14.948124 -0.283757 -9.300192 17.607399 0.018980 2.127273 0.018383 -0.012173 -744754.000000 1 0 0
-10.175024 5.819343 -6.132292 13.228790 -0.519520 2.052801 0.000492 -0.000853 292218.000000 1 0 0
-12.862524 12.050743 -0.884492 17.647869 -0.752825 1.620936 0.025639 -0.007701 -805857.000000 1 0 0
-10.606224 3.406743 -13.987492 17.881494 -0.310793 2.469038 0.010270 -0.001293 399942.000000 1 0 0
-11.087924 6.118643 -11.932992 17.400464 -0.504247 2.326479 0.000752 -0.003337 -535019.000000 1 0 0
-5.772724 11.637343 -14.785992 19.681912 -1.110312 2.420747 0.016184 -0.012212 -301450.000000 1 0 0
-15.466224 13.271843 3.453608 20.670591 -0.709188 1.402931 0.028190 -0.027009 203051.000000 1 0 0
-15.336724 10.973343 -3.085592 19.108905 -0.621049 1.732980 0.036978 -0.000356 599426.000000 1 0 0
-18.320224 7.589143 -4.555292 20.346410 -0.392730 1.796597 0.046792 -0.004753 335684.000000 1 0 0
-4.164124 16.323243 -10.642392 19.926081 -1.321020 2.134232 0.039592 -0.005826 62805.200000 1 0 0
-15.845824 4.350643 -4.423292 17.017161 -0.267958 1.833747 0.014987 0.004063 -600094.000000 1 0 0
-18.837724 -1.786757 -6.216392 19.917226 0.094567 1.888211 0.042852 -0.014810 452698.000000 1 0 0
-10.863824 8.618343 -5.815692 15.037313 -0.670646 1.967902 0.008295 0.000880 142262.000000 1 0 0
-11.563224 13.676043 -6.985792 19.223517 -0.868915 1.942709 0.030282 -0.000245 154896.000000 1 0 0
-9.558324 10.541543 -4.464792 14.913754 -0.834276 1.874833 0.006295 -0.001700 -387583.000000 1 0 0
-11.120324 6.257643 -0.215092 12.761896 -0.512558 1.587651 0.004088 -0.002919 -1199780.000000 1 0 0
-14.843124 9.140543 -1.301492 17.480325 -0.551963 1.645320 0.022473 -0.001441 229211.000000 1 0 0
-18.600824 3.511943 4.773808 19.522132 -0.186609 1.323758 0.054124 -0.019770 86079.900000 1 0 0
-14.749324 12.948743 0.550008 19.634537 -0.720482 1.542780 0.025725 -0.017877 410448.000000 1 0 0
-16.817224 2.502843 -9.183992 19.324310 -0.147742 2.066051 0.031323 -0.007934 -383136.000000 1 0 0
-9.202524 8.444443 -8.860892 15.313735 -0.742466 2.187837 0.007825 -0.000779 -1789260.000000 1 0 0
-17.719524 4.630643 -2.707092 18.513583 -0.255613 1.717544 0.030733 0.001870 717258.000000 1 0 0
-13.603124 5.777743 -4.455492 15.436279 -0.401647 1.863600 0.007723 0.002248 -767583.000000 1 0 0
-12.147724 9.586143 3.389608 15.841426 -0.668078 1.355158 0.008188 -0.005341 243473.000000 1 0 0
-17.568624 2.389043 -4.018192 18.179933 -0.135155 1.793660 0.025345 0.002475 947598.000000 1 0 0
-11.360124 1.333343 -12.607992 17.023269 -0.116836 2.404808 0.017236 -0.002036 209668.000000 1 0 0
-11.260024 12.012443 3.556208 16.844392 -0.817718 1.358074 0.013303 -0.010570 226681.000000 1 0 0
-16.738424 13.002943 -3.914292 21.553957 -0.660454 1.753414 0.068191 -0.009605 325780.000000 1 0 0
-11.163724 4.173943 -4.496892 12.738626 -0.357792 1.931585 -0.000116 -0.001350 -357978.000000 1 0 0
-11.371024 14.870143 -9.186692 20.852258 -0.917961 2.027020 0.042931 -0.017265 392779.000000 1 0 0
-15.532224 6.983443 -0.007092 17.029930 -0.422530 1.571213 0.019417 0.002105 -418030.000000 1 0 0
-12.793124 8.419543 -4.082192 15.849828 -0.582070 1.831287 0.008830 -0.000314 779210.000000 1 0 0
-19.480824 1.845743 -5.645592 20.366197 -0.094465 1.851679 0.086636 -0.020138 1170770.000000 1 0 0
-13.012524 9.974443 -9.030592 18.718090 -0.653994 2.074249 0.023756 -0.007161 878911.000000 1 0 0
-16.909224 10.758943 -0.961892 20.064944 -0.566667 1.618754 0.043372 -0.011235 831226.000000 1 0 0
-10.833824 6.435843 -14.537792 19.239003 -0.536034 2.427430 0.024954 -0.010500 115488.000000 1 0 0
-14.196524 12.776943 -4.430892 19.606743 -0.732818 1.798754 0.039776 -0.005930 -55862.200000 1 0 0
-18.030524 7.642943 -0.311092 19.585994 -0.400929 1.586680 0.062508 -0.005679 -747275.000000 1 0 0
-12.792324 6.686943 -2.115892 14.588892 -0.481667 1.716344 0.004969 0.001079 472330.000000 1 0 0
-13.951524 8.334943 -10.738292 19.478892 -0.538522 2.154692 0.014994 -0.004178 -24826.500000 1 0 0
-14.946124 1.430143 -0.939392 15.043750 -0.095396 1.633281 0.006379 -0.004490 -1201560.000000 1 0 0
-13.434524 2.829443 -2.437792 13.943996 -0.207576 1.746527 0.009905 -0.001140 -532067.000000 1 0 0
-11.516824 9.365143 -10.963892 18.453999 -0.682720 2.206968 0.014025 -0.005523 -382432.000000 1 0 0
-15.345524 4.270143 -8.016292 17.831999 -0.271400 2.037053 0.005962 -0.001496 376118.000000 1 0 0
-18.435924 10.452343 4.707008 21.709231 -0.515767 1.352240 0.093738 -0.037763 382754.000000 1 0 0
-15.362124 6.244143 -6.180092 17.696828 -0.386066 1.927535 0.014801 0.001636 691066.000000 1 0 0
-7.786924 11.340643 -13.174792 19.047875 -0.969094 2.334591 0.011707 -0.006582 -1439370.000000 1 0 0
-17.019124 8.972143 -2.769292 19.437565 -0.485154 1.713754 0.042150 -0.004737 633850.000000 1 0 0
-20.686824 -1.028157 -4.635092 21.224653 0.049660 1.790953 0.066644 -0.018019 436109.000000 1 0 0
-15.486224 4.326043 4.206208 16.620168 -0.272404 1.314935 0.023807 -0.006925 -148348.000000 1 0 0
-6.949824 12.591743 -9.526792 17.251430 -1.066469 2.155835 0.017570 -0.009328 -779712.000000 1 0 0
-17.322624 1.477243 5.661308 18.284036 -0.085072 1.255991 0.051829 -0.017564 -33340.000000 1 0 0
-10.589724 14.060643 -3.203392 17.891497 -0.925284 1.750813 0.036113 -0.014143 477459.000000 1 0 0
-10.078024 8.331843 -12.878192 18.353038 -0.690831 2.348567 0.002584 -0.011107 310361.000000 1 0 0
-13.830424 11.450343 2.871708 18.183446 -0.691529 1.412203 0.029505 -0.017822 -1000450.000000 1 0 0
-17.061124 6.553743 1.963808 18.381786 -0.366754 1.463758 0.033179 -0.004044 791894.000000 1 0 0
-9.439724 13.299743 -8.477992 18.381184 -0.953545 2.050180 0.035296 -0.013395 -380608.000000 1 0 0
-5.735524 9.895343 -12.943492 17.272754 -1.045498 2.417890 0.004970 -0.005443 -213537.000000 1 0 0
-16.082324 1.795543 3.140208 16.484115 -0.111187 1.379126 0.019653 -0.005039 74379.700000 1 0 0
-18.628224 -4.887957 4.456508 19.767735 0.256610 1.343398 0.052719 -0.011674 544475.000000 1 0 0
-5.348724 14.521343 -9.162092 17.983943 -1.217881 2.105353 0.017661 -0.006889 -551696.000000 1 0 0
-15.539724 -0.816757 -6.825592 16.992317 0.052511 1.984155 0.014466 -0.006833 879972.000000 1 0 0
-9.027724 10.940043 -9.531092 17.088770 -0.880877 2.162457 0.009776 -0.010697 325771.000000 1 0 0
-16.816424 1.272943 -6.041792 17.914122 -0.075552 1.914806 0.015177 -0.003790 173557.000000 1 0 0
-11.193624 8.651643 -1.493792 14.226017 -0.658002 1.675994 0.009206 -0.001038 -588730.000000 1 0 0
-10.787424 10.861443 -12.928892 20.037358 -0.788817 2.272133 0.032766 -0.013841 -208790.000000 1 0 0
-14.063124 11.831743 -10.513592 21.173031 -0.699440 2.090423 0.050689 -0.014094 80658.300000 1 0 0
-13.245424 5.657643 -7.627292 16.298030 -0.403681 2.057810 0.007135 0.002155 -858983.000000 1 0 0
-9.065424 15.182043 -4.973692 18.368831 -1.032501 1.844987 0.036162 -0.013964 320203.000000 1 0 0
-8.717824 6.045543 -13.090092 16.849319 -0.606329 2.460510 0.004949 -0.004482 -212049.000000 1 0 0
-16.450224 7.397743 4.311108 18.545138 -0.422608 1.336184 0.032174 -0.008132 127875.000000 1 0 0
-12.742524 5.327943 -10.156392 17.143839 -0.396031 2.204859 0.001597 -0.000642 108245.000000 1 0 0
-12.492924 8.935943 -13.404792 20.386581 -0.620908 2.288332 0.043258 -0.018151 -1434290.000000 1 0 0
-10.818524 5.172843 -8.551292 14.728319 -0.446013 2.190264 -0.000820 0.002081 -1929530.000000 1 0 0
-17.628924 -4.532157 -2.667192 18.396558 0.251637 1.716292 0.011741 -0.008747 163834.000000 1 0 0
-8.944924 13.142343 -10.943392 19.300018 -0.973197 2.173673 0.036742 -0.016611 54038.000000 1 0 0
-15.143524 6.009743 6.135008 17.409241 -0.377790 1.210662 0.029892 -0.013982 -595638.000000 1 0 0
-16.333124 -3.122857 -4.521092 17.232628 0.188918 1.836260 0.011618 -0.004998 374404.000000 1 0 0
-11.191524 -1.212457 -12.541792 16.852799 0.107916 2.410127 0.015055 -0.001231 1446180.000000 1 0 0
-15.370824 6.822943 -8.655092 18.913630 -0.417761 2.046103 0.005079 0.000054 -58019.700000 1 0 0
-15.010024 9.170643 1.306908 17.638297 -0.548445 1.496633 0.027434 -0.008283 -207742.000000 1 0 0
-19.472824 5.289743 8.105908 21.745759 -0.265247 1.188817 0.082661 -0.034511 2366270.000000 1 0 0
-16.470624 0.571143 0.900008 16.505081 -0.034663 1.516240 0.024431 -0.008872 -98281.300000 1 0 0
-17.514024 3.691643 7.038208 19.232931 -0.207741 1.196148 0.039972 -0.020217 -70205.600000 1 0 0
-15.472824 3.978143 -1.484192 16.044835 -0.251655 1.663432 0.011465 -0.001346 -486621.000000 1 0 0
-10.980924 13.181743 0.572308 17.165855 -0.876231 1.537450 0.021814 -0.012279 -474629.000000 1 0 0
-13.498724 3.414943 0.089208 13.924272 -0.247784 1.564390 0.009497 -0.002877 -327206.000000 1 0 0
-15.113724 0.219343 -4.351092 15.729106 -0.014512 1.851078 0.009907 -0.002567 -400906.000000 1 0 0
-18.980624 6.960743 3.620308 20.538322 -0.351500 1.393600 0.063238 -0.011887 -5343.810000 1 0 0
-14.250824 1.406243 -6.493792 15.723640 -0.098360 1.996537 0.005396 -0.001144 -24143.200000 1 0 0
-14.279224 11.904243 5.390008 19.356122 -0.694940 1.288601 0.028924 -0.023514 213923.000000 1 0 0
17.718976 5.547543 6.088008 19.539733 0.303418 1.253951 0.065391 -0.019498 -564078.000000 1 0 0
18.505476 7.518343 -0.239692 19.975874 0.385906 1.582796 0.034898 -0.006430 -301317.000000 1 0 0
16.880076 5.285143 8.397808 19.580420 0.303431 1.127535 0.087525 -0.011879 525789.000000 1 0 0
11.659276 12.361843 10.939808 20.209732 0.814638 0.998797 0.034505 -0.009022 526951.000000 1 0 0
-2.491924 16.308743 -0.589092 16.508538 -1.419172 1.606488 -0.002559 -0.001314 134163.000000 1 0 0
15.112876 12.654243 3.326108 19.989794 0.697084 1.403629 0.063582 -0.022392 428852.000000 1 0 0
13.560276 11.696843 6.646108 19.101517 0.711753 1.215428 0.053225 -0.014311 728254.000000 1 0 0
-0.792624 15.895543 8.487608 18.037074 -1.520973 1.080866 0.008371 -0.000498 68552.100000 1 0 0
0.668176 12.845743 9.405608 15.935025 1.518828 0.939431 0.010191 -0.001870 -213531.000000 1 0 0
0.567176 15.355043 -3.794692 15.827152 1.533876 1.812913 0.005063 -0.002670 589668.000000 1 0 0
5.371176 10.273143 13.585008 17.858876 1.089047 0.706426 0.035449 -0.014242 382341.000000 1 0 0
-1.567624 16.493743 -2.902792 16.820440 -1.476037 1.744240 0.003101 0.000539 -765042.000000 1 0 0
8.564176 9.962143 3.387608 13.567066 0.860714 1.318433 0.009522 -0.004126 325308.000000 1 0 0
12.528676 13.450543 -4.919792 19.028641 0.820868 1.832314 0.099202 -0.028149 44216.400000 1 0 0
2.455476 11.559043 7.886308 14.206854 1.361479 0.982306 0.010917 0.000005 380124.000000 1 0 0
-0.465524 15.154643 -8.666392 17.463856 -1.540088 2.090067 0.012147 0.001607 -1058950.000000 1 0 0
2.228976 15.907743 0.237808 16.064905 1.431584 1.555993 0.015928 -0.012724 -850088.000000 1 0 0
1.762176 13.339143 5.270808 14.450585 1.439451 1.197435 0.007707 0.001288 229387.000000 1 0 0
17.613476 9.254143 -1.910492 19.988088 0.483762 1.666524 0.028445 -0.008953 566879.000000 1 0 0
-7.183424 14.998343 7.355408 18.183891 -1.124132 1.154363 0.009225 -0.011867 -446634.000000 1 0 0
8.414376 15.848743 -0.074692 17.944078 1.082722 1.574959 0.037270 -0.013453 -644677.000000 1 0 0
15.501976 10.383243 2.092408 18.775014 0.590170 1.459118 0.038147 -0.011440 -2175630.000000 1 0 0
14.219176 7.417743 8.647308 18.220423 0.480834 1.076293 0.044706 -0.013732 -696573.000000 1 0 0
4.059176 18.571643 -2.384292 19.159010 1.355612 1.695567 0.037034 -0.021860 -956331.000000 1 0 0
-0.482924 17.478343 -4.902392 18.159272 -1.543173 1.844154 0.025389 -0.006921 95332.800000 1 0 0
1.318876 13.604743 -0.824292 13.693353 1.474156 1.631029 0.006116 -0.008003 -1707310.000000 1 0 0
10.192476 14.642343 4.192908 18.326627 0.962695 1.339964 0.035729 -0.017980 1051650.000000 1 0 0
-1.742024 15.350143 -5.265292 16.321300 -1.457794 1.899274 0.010254 -0.001177 2125.010000 1 0 0
14.888876 8.697043 -6.147492 18.305978 0.528669 1.913271 0.038094 -0.024209 -177052.000000 1 0 0
-2.568324 18.364643 1.017808 18.571277 -1.431846 1.515963 0.005290 -0.010308 139154.000000 1 0 0
-3.852024 19.382643 3.604908 20.087815 -1.374617 1.390361 0.011072 -0.005908 -423668.000000 1 0 0
1.598976 17.535743 -2.510392 17.786542 1.479864 1.712409 0.016468 -0.018494 -15641.700000 1 0 0
2.812076 12.175743 3.328808 12.932032 1.343819 1.310458 0.005594 -0.001312 300896.000000 1 0 0
-2.785124 16.035943 1.898808 16.386393 -1.398832 1.454658 -0.001127 -0.003809 -461481.000000 1 0 0
11.629676 12.846443 -2.570792 17.518260 0.835070 1.718078 0.052563 -0.005029 227522.000000 1 0 0
7.132476 11.532543 4.761708 14.371695 1.016910 1.233088 0.006735 -0.003338 69603.300000 1 0 0
6.921076 15.637643 1.903408 17.206398 1.154121 1.459947 0.017281 -0.014911 -1634930.000000 1 0 0
5.489076 12.133243 10.145308 16.741350 1.145949 0.919770 0.019986 -0.004338 525356.000000 1 0 0
-1.410024 14.072243 3.130608 14.485058 -1.470931 1.352951 -0.002211 0.000586 -866063.000000 1 0 0
4.427176 15.988543 1.602808 16.667405 1.300668 1.474483 0.018046 -0.017799 -3689250.000000 1 0 0
7.116576 13.183043 11.950808 19.164031 1.075796 0.897449 0.032401 -0.007288 378701.000000 1 0 0
0.890876 17.280543 -9.319892 19.653784 1.519288 2.064855 0.019336 0.000257 243636.000000 1 0 0
9.863576 9.537543 15.444308 20.658691 0.768595 0.726365 0.054578 -0.020379 -85623.700000 1 0 0
13.478676 7.543343 -0.162392 15.446783 0.510222 1.581310 0.014997 -0.003709 -281973.000000 1 0 0
12.280976 13.650543 -0.155692 18.362569 0.838164 1.579275 0.058354 -0.011161 408620.000000 1 0 0
9.303276 12.358143 3.491108 15.857568 0.925502 1.348824 0.020387 -0.003826 1139700.000000 1 0 0
-0.778024 12.948243 0.573308 12.984260 -1.510781 1.526628 0.001340 -0.003967 144418.000000 1 0 0
16.017976 7.375243 -0.919292 17.658280 0.431498 1.622880 0.022137 -0.001307 -852008.000000 1 0 0
-4.471524 18.379243 -2.338692 19.059396 -1.332141 1.693812 0.024381 -0.008616 88578.900000 1 0 0
11.462476 9.121743 -3.212092 14.997069 0.672170 1.786650 0.029124 -0.007083 -227959.000000 1 0 0
14.785776 9.794143 7.713908 19.340341 0.585045 1.160533 0.056957 -0.017495 1544300.000000 1 0 0
4.385176 13.698743 4.651908 15.117062 1.260989 1.257995 0.010560 0.000517 1147370.000000 1 0 0
2.134976 15.886143 5.584408 16.973900 1.437204 1.235552 0.011802 -0.000659 350697.000000 1 0 0
5.873976 18.356243 5.555108 20.057778 1.261094 1.290172 0.031584 -0.020460 -142072.000000 1 0 0
10.550776 17.090943 -0.712292 20.097924 1.017731 1.606245 0.078465 -0.017311 -1852720.000000 1 0 0
9.941176 13.661343 -4.437092 17.468459 0.941729 1.827616 0.072069 -0.010015 1320030.000000 1 0 0
16.536076 8.009643 2.252108 18.511298 0.451069 1.448833 0.020891 -0.008656 245933.000000 1 0 0
3.873376 13.968843 -0.519692 14.505230 1.300305 1.606632 0.008503 -0.010069 534266.000000 1 0 0
5.502676 13.119843 -2.340292 14.418276 1.173665 1.733832 0.005969 -0.008252 155833.000000 1 0 0
-6.408624 16.730243 -3.102092 18.182257 -1.204981 1.742246 0.025762 -0.007129 -512101.000000 1 0 0
17.946176 10.128243 2.196008 20.723633 0.513807 1.464631 0.043295 -0.020560 -876196.000000 1 0 0
7.965576 12.949043 9.455408 17.903431 1.019313 1.014395 0.031136 -0.002342 -269329.000000 1 0 0
-2.720724 15.796043 6.638408 17.348942 -1.400229 1.178144 0.003064 0.000880 1303960.000000 1 0 0
11.078176 15.965943 6.213308 20.402022 0.964201 1.261337 0.052614 -0.023951 361759.000000 1 0 0
13.459176 11.955443 1.374908 18.054706 0.726299 1.494570 0.047748 -0.011997 491521.000000 1 0 0
17.368976 7.913743 -5.630792 19.900112 0.427522 1.857668 0.023373 0.000199 827601.000000 1 0 0
9.442476 9.268743 8.061108 15.493592 0.776113 1.023610 0.010950 -0.001988 -91793.600000 1 0 0
-2.198724 14.127443 -1.937892 14.428252 -1.416400 1.705516 -0.003358 0.000088 194652.000000 1 0 0
10.836976 11.556943 0.747708 15.860707 0.817537 1.523637 0.029719 -0.005923 626394.000000 1 0 0
11.696376 9.702243 -0.583792 15.207877 0.692477 1.609193 0.025755 -0.004007 -1016880.000000 1 0 0
-0.313424 16.317343 10.943908 19.650014 -1.551591 0.980098 0.017446 -0.006329 -222671.000000 1 0 0
2.036776 19.832643 -1.255592 19.976454 1.468457 1.633691 0.043033 -0.034543 -830906.000000 1 0 0
9.061376 14.290843 1.858508 17.023242 1.005702 1.461404 0.025883 -0.011353 -672122.000000 1 0 0
8.362376 11.683243 -5.172592 15.270337 0.949573 1.916368 0.029551 -0.002901 -644309.000000 1 0 0
10.711776 10.050343 10.229608 17.899620 0.753551 0.962465 0.019162 -0.004997 482160.000000 1 0 0
-5.227924 15.812243 5.718208 17.608411 -1.251485 1.240056 -0.006535 -0.002513 1027380.000000 1 0 0
14.321176 9.138243 -1.876392 17.091647 0.567959 1.680802 0.030954 -0.005297 -178861.000000 1 0 0
12.186376 9.549143 6.915508 16.956360 0.664656 1.150708 0.020776 -0.010056 -702146.000000 1 0 0
3.173376 13.034343 9.776908 16.599769 1.331980 0.941002 0.017053 -0.004573 143924.000000 1 0 0
8.427276 12.596943 -2.687592 15.392371 0.981184 1.746301 0.030293 -0.006946 -1187040.000000 1 0 0
9.207376 16.950243 2.140608 19.407955 1.073189 1.460276 0.029637 -0.016427 -224136.000000 1 0 0
9.373776 14.475243 -7.446592 18.784357 0.996129 1.978416 0.082926 -0.016529 -373614.000000 1 0 0
6.403476 11.373743 7.388308 14.998454 1.058023 1.055716 0.006084 0.000375 -637888.000000 1 0 0
5.272676 16.897843 -5.443592 18.519474 1.268337 1.869141 0.048738 -0.009195 -642449.000000 1 0 0
-4.218524 17.170243 -4.703292 18.295741 -1.329880 1.830786 0.021537 -0.005018 290600.000000 1 0 0
-0.478224 18.827343 -0.520492 18.840607 -1.545401 1.598426 0.009665 -0.006179 -890241.000000 1 0 0
6.559776 15.619343 -2.747392 17.162246 1.173187 1.731572 0.032924 -0.005602 299658.000000 1 0 0
-1.300424 20.636343 1.154408 20.709477 -1.507863 1.515024 0.006090 -0.015083 1188.270000 1 0 0
-1.417024 18.889443 4.279808 19.419984 -1.495920 1.348591 -0.006340 -0.001768 662780.000000 1 0 0
7.113876 13.765443 -4.372992 16.100239 1.093805 1.845862 0.033714 -0.002530 818660.000000 1 0 0
-1.018124 11.922143 7.669808 14.212671 -1.485605 1.000780 0.006872 0.002390 480892.000000 1 0 0
7.621976 10.900043 10.919508 17.208751 0.960566 0.883393 0.021564 -0.007168 376788.000000 1 0 0
1.418276 16.014643 -7.097692 17.574343 1.482466 1.986536 0.009847 -0.005832 388532.000000 1 0 0
9.096176 7.188243 14.824408 18.819520 0.668767 0.663706 0.046212 -0.008623 21221.800000 1 0 0
11.138176 11.346043 -4.705792 16.581198 0.794643 1.858554 0.062912 -0.010878 -952008.000000 1 0 0
-3.412924 16.999843 4.447508 17.900364 -1.372668 1.319707 -0.005702 0.001794 -580144.000000 1 0 0
3.819876 15.274943 -6.675192 17.101857 1.325747 1.971775 0.026517 -0.011714 -1733260.000000 1 0 0
-4.527224 13.999643 9.483708 17.505042 -1.258029 0.998255 0.014872 -0.011515 -219609.000000 1 0 0
6.070376 17.675643 0.487908 18.695344 1.239985 1.544696 0.024946 -0.025100 -229970.000000 1 0 0
9.756176 10.685543 -2.040492 14.612577 0.830831 1.710894 0.030599 -0.004530 -1465420.000000 1 0 0
7.172976 18.007243 -2.480792 19.541410 1.191723 1.698090 0.057741 -0.016018 -240766.000000 1 0 0
3.516276 10.409843 10.522508 15.213553 1.245046 0.807020 0.012005 -0.003230 1430280.000000 1 0 0
-0.081224 18.502043 2.017308 18.611871 -1.566406 1.462195 0.003351 -0.013834 176831.000000 1 0 0
-0.897524 17.364243 -7.481292 18.928609 -1.519154 1.977122 0.027953 0.001215 -240732.000000 1 0 0
10.077776 8.871743 12.945608 18.650956 0.721839 0.803629 0.030553 -0.008515 15600.900000 1 0 0
3.641076 11.454543 5.623008 13.269597 1.263025 1.133214 0.003926 0.000939 691546.000000 1 0 0
13.177676 13.822643 8.092608 20.741429 0.809281 1.169984 0.060438 -0.024737 39086.900000 1 0 0
-0.549024 17.339943 6.552108 18.544680 -1.539144 1.209684 0.005395 -0.003938 -643719.000000 1 0 0
12.167276 13.609143 5.628008 19.103032 0.841277 1.271745 0.043668 -0.017517 -408215.000000 1 0 0
4.730276 14.614843 -4.333992 15.960972 1.257775 1.845786 0.014106 -0.005027 -988710.000000 1 0 0
3.619576 17.550143 4.631808 18.508444 1.367406 1.317854 0.018450 -0.010649 -724579.000000 1 0 0
7.050076 11.572643 2.044508 13.704366 1.023638 1.421051 0.011782 -0.005008 670168.000000 1 0 0
6.500876 8.635843 11.876808 16.059195 0.925519 0.738373 0.019895 -0.010481 625582.000000 1 0 0
-5.532624 14.826943 1.652908 15.911640 -1.213651 1.466728 -0.003504 0.002883 -277916.000000 1 0 0
6.765576 13.625243 5.945708 16.333147 1.109915 1.198208 0.012389 -0.006309 -701924.000000 1 0 0
5.781876 15.817443 4.881708 17.534328 1.220347 1.288660 0.009765 -0.011853 808613.000000 1 0 0
1.105976 18.078443 4.334708 18.623721 1.509696 1.335890 0.023985 -0.006603 1057740.000000 1 0 0
6.965076 18.206743 -6.829592 20.655292 1.205419 1.907784 0.045015 -0.006586 360545.000000 1 0 0
-2.532024 18.722043 -5.945292 19.805871 -1.436369 1.875676 0.036663 -0.002885 -992332.000000 1 0 0
13.372476 10.100243 -4.545692 17.363794 0.646885 1.835674 0.036616 -0.014026 -1487200.000000 1 0 0
-1.604924 18.136843 9.565508 20.567445 -1.482536 1.087071 0.014130 -0.005382 -416133.000000 1 0 0
3.350676 11.714143 -1.600292 12.288576 1.292199 1.701393 0.007961 -0.005729 600428.000000 1 0 0
4.142376 13.920643 -10.872892 18.142860 1.281570 2.213414 0.013138 -0.011699 -418250.000000 1 0 0
11.480276 13.404643 2.296608 17.797629 0.862575 1.441395 0.044705 -0.013939 207184.000000 1 0 0
15.857876 6.441043 -7.172492 18.558122 0.385817 1.967617 0.023096 -0.008015 55349.700000 1 0 0
2.301976 16.116143 2.949208 16.544697 1.428919 1.391582 0.013564 -0.007161 -341608.000000 1 0 0
13.415876 10.661943 3.541708 17.498755 0.671517 1.366991 0.039326 -0.008859 -211129.000000 1 0 0
-5.000024 19.367143 -5.885592 20.850100 -1.318143 1.856968 0.024487 -0.012750 -133082.000000 1 0 0
5.410076 12.055343 0.104008 13.214047 1.148966 1.562925 0.009097 -0.005585 1216190.000000 1 0 0
5.474076 15.073243 9.691108 18.737282 1.222442 1.027209 0.039527 -0.012513 -93976.200000 1 0 0
7.761176 9.265943 14.006008 18.500319 0.873544 0.711982 0.038431 -0.017189 -1947090.000000 1 0 0
-5.089824 13.620443 7.006308 16.140357 -1.213175 1.121773 -0.002491 -0.002200 -1519890.000000 1 0 0
-4.723824 17.100843 0.438108 17.746698 -1.301284 1.546107 0.008380 -0.001970 -2895220.000000 1 0 0
-0.802824 16.491343 3.502908 16.878367 -1.522153 1.361739 0.003540 -0.003226 -1819790.000000 1 0 0
7.806776 16.927843 -4.739492 19.234355 1.138684 1.819768 0.058647 -0.012762 349069.000000 1 0 0
2.888976 16.421043 -4.457492 17.258797 1.396647 1.832031 0.010973 -0.009444 -29152.400000 1 0 0
9.417176 14.398443 8.112608 19.021377 0.991585 1.130177 0.028224 -0.010032 448262.000000 1 0 0
12.816976 10.937043 9.097908 19.148517 0.706421 1.075692 0.040220 -0.014204 287546.000000 1 0 0
3.813776 12.423843 12.219208 17.838324 1.272955 0.816196 0.029414 -0.009137 425557.000000 1 0 0
-3.374424 18.903443 6.154408 20.164415 -1.394148 1.260636 0.007359 -0.006497 -101575.000000 1 0 0
-2.745424 15.745143 10.174308 18.946330 -1.398165 1.003911 0.019205 -0.013211 -171500.000000 1 0 0
2.014776 14.167443 7.621608 16.213102 1.429532 1.081404 0.013481 -0.000023 393934.000000 1 0 0
4.111676 16.732643 8.265608 19.110403 1.329843 1.123512 0.020060 -0.011757 -758696.000000 1 0 0
-1.948224 13.470443 9.406208 16.544642 -1.427163 0.966072 0.014129 -0.004516 -626296.000000 1 0 0
5.725876 17.583843 3.092608 18.749438 1.255992 1.405095 0.012739 -0.022411 412668.000000 1 0 0
7.017376 15.517643 -6.762592 18.324122 1.146098 1.948787 0.030633 -0.002355 -458576.000000 1 0 0
11.034476 7.674143 9.432608 16.420299 0.607679 0.958867 0.011390 -0.007808 822770.000000 1 0 0
9.098576 16.369043 -2.550492 18.900652 1.063480 1.706151 0.071696 -0.014004 -189909.000000 1 0 0
14.649876 11.346743 -6.503092 19.638168 0.659015 1.908314 0.095260 -0.027234 468979.000000 1 0 0
11.368676 6.671443 15.933108 20.678947 0.530677 0.691173 0.088019 -0.025733 -1498250.000000 1 0 0
8.539176 8.558743 10.279308 15.869271 0.786543 0.866170 0.014266 -0.004003 -89704.900000 1 0 0
16.565476 9.492343 4.405708 19.594127 0.520345 1.344009 0.057807 -0.017950 60822.400000 1 0 0
-3.486824 14.260043 4.630908 15.393248 -1.330985 1.265223 -0.006802 0.003631 -1087030.000000 1 0 0
4.501476 15.050543 12.682808 20.189991 1.280174 0.891593 0.028773 0.004694 -348612.000000 1 0 0
15.962776 10.465443 -4.438592 19.596857 0.580313 1.799274 0.056909 -0.034026 152228.000000 1 0 0
14.665176 13.976943 6.014608 21.132861 0.761374 1.282198 0.069081 -0.022584 -988136.000000 1 0 0
6.252676 9.529643 9.354308 14.744936 0.990125 0.883554 0.009128 -0.000101 606216.000000 1 0 0
10.485276 12.182143 8.725908 18.288988 0.860118 1.073430 0.022229 -0.003598 -926989.000000 1 0 0
7.930176 11.408643 -0.349792 13.898459 0.963365 1.595967 0.008641 -0.006141 473644.000000 1 0 0
7.164676 13.591743 -8.637092 17.625760 1.085678 2.082917 0.034488 -0.006100 -416781.000000 1 0 0
2.641476 15.192243 -2.252692 15.583846 1.398647 1.715858 0.013403 -0.010790 434365.000000 1 0 0
11.848576 13.876943 -7.669892 19.793573 0.864082 1.968708 0.090657 -0.030095 -361669.000000 1 0 0
-8.094124 14.696243 9.796008 19.428232 -1.067369 1.042323 0.032152 -0.030899 127239.000000 1 0 0
11.475576 9.598543 2.254508 15.129563 0.696564 1.421226 0.028964 -0.003863 -2511620.000000 1 0 0
12.107676 8.657043 4.476208 15.542736 0.620725 1.278665 0.019899 -0.004937 193483.000000 1 0 0
14.031276 7.979543 6.074108 17.246582 0.517084 1.210884 0.026606 -0.012783 -2138340.000000 1 0 0
16.319576 7.484043 7.132408 19.318662 0.429977 1.192651 0.070340 -0.019947 3248.560000 1 0 0
13.625576 8.413343 2.300408 16.178150 0.553164 1.428120 0.027516 -0.008015 -2520540.000000 1 0 0
-4.228624 17.223043 -7.282192 19.171458 -1.330037 1.960426 0.036124 -0.019232 149608.000000 1 0 0
2.144576 19.647243 -3.815092 20.128793 1.462073 1.761484 0.027707 -0.021238 321519.000000 1 0 0
-0.205324 14.807343 6.180308 16.046675 -1.556931 1.175431 0.006975 0.002036 98241.600000 1 0 0
6.656176 16.379143 7.876808 19.355235 1.184801 1.151673 0.032980 -0.002021 -1085460.000000 1 0 0
12.768876 15.214043 -2.146692 19.977977 0.872558 1.678457 0.105413 -0.018488 539967.000000 1 0 0
12.619176 15.698943 4.066308 20.548364 0.893728 1.371592 0.061484 -0.022972 417707.000000 1 0 0
2.878276 18.066843 1.298408 18.340697 1.412811 1.499943 0.023150 -0.021265 -699482.000000 1 0 0
10.306276 14.529343 -1.246692 17.857082 0.953828 1.640668 0.060916 -0.003788 -2497500.000000 1 0 0
-6.559724 15.720943 -0.650592 17.047032 -1.175500 1.608970 0.006917 -0.000566 -299421.000000 1 0 0
-4.114824 15.732943 -2.623992 16.472481 -1.314985 1.730773 0.013361 -0.002906 329105.000000 1 0 0
-6.984424 16.994843 1.545008 18.438924 -1.180866 1.486907 0.007620 -0.002860 -362151.000000 1 0 0
-0.017224 19.506843 -6.203392 20.469472 -1.569913 1.878694 0.049068 -0.012126 114215.000000 1 0 0
4.864176 14.640543 7.110108 16.987034 1.250030 1.138936 0.021241 -0.004477 -269569.000000 1 0 0
8.726376 12.253843 6.889108 16.545879 0.951973 1.141354 0.020872 -0.007176 -1384020.000000 1 0 0
-7.796824 17.336643 -5.637092 19.827417 -1.148166 1.859081 0.048067 -0.020567 422040.000000 1 0 0
-7.997124 17.744543 -1.376492 19.511985 -1.147376 1.641401 0.041309 -0.008368 459643.000000 1 0 0
-13.807624 -9.262457 9.133608 18.970145 0.590874 1.068462 0.051488 -0.015435 -75367.500000 1 0 0
-12.492924 -12.956757 7.600308 19.537538 0.803622 1.171239 0.029538 -0.005789 211527.000000 1 0 0
-3.973024 -14.845557 12.513308 19.818132 1.309301 0.887430 0.024867 -0.018171 60977.800000 1 0 0
-1.892224 -14.144457 15.075308 20.758398 1.437807 0.757979 0.035364 -0.011007 -872483.000000 1 0 0
-7.332124 -13.594157 12.632408 19.953418 1.076160 0.885251 0.035748 -0.017934 -70834.400000 1 0 0
-9.913324 -11.621157 8.878608 17.667908 0.864539 1.044277 0.023491 -0.007588 532124.000000 1 0 0
-10.591724 -10.804557 11.207108 18.828764 0.795345 0.933267 0.049388 -0.017560 396883.000000 1 0 0
-5.956024 -12.155557 10.755308 17.288969 1.115194 0.899386 0.017896 -0.008307 780012.000000 1 0 0
-12.474124 -10.413257 7.281908 17.806344 0.695597 1.149493 0.018450 -0.005249 -209006.000000 1 0 0
-7.586924 -11.038757 12.477408 18.305772 0.968646 0.820835 0.026793 -0.020269 -63760.800000 1 0 0
-14.823924 -11.687357 7.252808 20.222420 0.667635 1.203973 0.052029 -0.006688 1220370.000000 1 0 0
-11.154824 -9.268557 9.225508 17.188550 0.693301 1.004247 0.027229 -0.007317 -573805.000000 1 0 0
-5.289824 -12.029257 13.239908 18.654233 1.156502 0.781648 0.024434 -0.014522 139756.000000 1 0 0
3.957976 -12.408257 14.783808 19.702573 -1.262020 0.722206 0.008735 -0.000279 -557383.000000 1 0 0
6.484476 -12.704357 14.218308 20.139746 -1.098853 0.786987 0.025522 -0.000749 78036.200000 1 0 0
6.877176 -7.984557 15.762408 18.960543 -0.859773 0.589306 0.048786 -0.027105 337734.000000 1 0 0
0.674276 -1.639657 14.488808 14.596872 -1.180647 0.121757 0.007276 -0.006765 -1991840.000000 1 0 0
-0.182024 -6.280257 15.566408 16.786537 1.541821 0.383622 0.010324 -0.010427 -1060.860000 1 0 0
-1.436324 -4.595457 18.295108 18.918040 1.267863 0.257333 0.014138 -0.024262 -1084050.000000 1 0 0
-5.294924 12.559343 12.911808 18.774667 -1.171815 0.812446 0.022955 -0.017519 -9105.550000 1 0 0
-4.116724 8.870143 11.585108 15.160527 -1.136270 0.701054 0.003600 0.001469 -189329.000000 1 0 0
-0.619524 -3.910157 15.003308 15.516842 1.413663 0.257990 0.007457 -0.007193 -319402.000000 1 0 0
-4.569724 9.314043 14.095708 17.502079 -1.114675 0.634491 0.016082 -0.009351 415072.000000 1 0 0
-13.520824 -2.339357 16.908308 21.775586 0.171323 0.681736 0.067979 -0.009015 -174790.000000 1 0 0
-0.239024 0.817743 17.259108 17.280123 -1.286421 0.049323 0.010024 -0.006741 -108397.000000 1 0 0
-3.219124 -7.188357 15.379308 17.278841 1.149753 0.473307 0.012623 -0.012673 347734.000000 1 0 0
-7.443024 5.414443 12.553608 15.566242 -0.628914 0.632650 -0.003369 0.000880 -2211570.000000 1 0 0
-9.967724 10.208043 13.149408 19.402747 -0.797309 0.826154 0.025518 -0.022669 -883437.000000 1 0 0
-5.528024 2.174643 11.177308 12.657817 -0.374791 0.488504 0.004165 -0.001883 -1162580.000000 1 0 0
-6.917524 -7.430657 16.858208 19.679075 0.821146 0.542043 0.025230 -0.022881 -756073.000000 1 0 0
-4.731724 3.033743 18.426608 19.264804 -0.570128 0.296069 0.012602 -0.013488 -399266.000000 1 0 0
0.958676 -8.355657 16.554808 18.568730 -1.456562 0.470057 0.012485 -0.006929 639501.000000 1 0 0
-15.186724 -3.503857 14.136508 21.041732 0.226751 0.834117 0.080422 -0.020605 1094830.000000 1 0 0
-14.291324 2.272543 13.068608 19.498588 -0.157695 0.836273 0.020606 -0.009533 481330.000000 1 0 0
-5.515224 1.029843 15.985908 16.941887 -0.184601 0.337537 0.011034 -0.010970 404726.000000 1 0 0
4.448676 5.699243 15.150908 16.787558 0.908014 0.445238 0.023078 -0.012067 -690885.000000 1 0 0
-0.907024 -12.023057 13.845008 18.359217 1.495499 0.716487 0.006199 -0.008141 -198839.000000 1 0 0
-5.784924 -3.967957 16.735508 18.146274 0.601209 0.396920 0.015483 -0.015264 443472.000000 1 0 0
-13.032924 -1.593657 9.928208 16.461050 0.121675 0.923373 0.020774 0.000888 -318884.000000 1 0 0
-14.911024 10.364043 10.216408 20.835715 -0.607402 1.058326 0.044118 -0.009704 503706.000000 1 0 0
-3.468124 -3.171857 17.660808 18.275467 0.740809 0.260089 0.006523 -0.018734 -1810550.000000 1 0 0
-8.018324 9.423643 11.845008 17.129004 -0.865796 0.807208 0.007584 -0.006618 28920.200000 1 0 0
-4.536824 10.659443 16.373408 20.057293 -1.168404 0.615765 0.024673 -0.008106 159220.000000 1 0 0
-12.695824 12.548543 8.254108 19.666728 -0.779564 1.137683 0.038599 -0.027625 267538.000000 1 0 0
-12.639124 3.093643 10.464308 16.697899 -0.240048 0.893506 0.010876 -0.002961 809176.000000 1 0 0
-10.176524 -3.537157 13.794708 17.503345 0.334517 0.663050 0.023939 -0.008827 -1293370.000000 1 0 0
-4.218024 -6.394557 17.719408 19.304391 0.987683 0.408053 0.018068 -0.014240 -1186490.000000 1 0 0
0.886976 -3.537657 17.717908 18.089389 -1.325136 0.203010 0.026711 -0.026029 -387893.000000 1 0 0
-5.974124 1.945943 13.638108 15.015820 -0.314891 0.431715 0.003539 -0.004111 -708615.000000 1 0 0
-10.563824 8.648243 10.237308 17.064260 -0.686019 0.927387 0.016821 -0.011870 -66487.400000 1 0 0
4.544976 2.610343 17.183708 17.965258 0.521335 0.296049 0.038775 -0.015764 -947268.000000 1 0 0
0.536776 -5.331657 13.168908 14.217413 -1.470457 0.386452 0.011126 -0.008190 -1962850.000000 1 0 0
-4.085524 5.788343 20.646108 21.827922 -0.956175 0.330569 0.045835 -0.018768 -163986.000000 1 0 0
-10.825724 10.795943 8.877408 17.679284 -0.784021 1.044729 0.021112 -0.020763 -94544.300000 1 0 0
0.649076 4.169243 13.055008 13.719953 1.416354 0.312609 0.007055 -0.007366 -2566130.000000 1 0 0
-3.219424 7.238943 13.224708 15.416222 -1.152328 0.539737 0.004744 -0.000430 -834675.000000 1 0 0
0.675376 8.859143 14.108908 16.673387 1.494709 0.561996 0.005928 -0.006578 223019.000000 1 0 0
-4.149424 -6.659257 13.081008 15.253727 1.013560 0.540286 0.011738 -0.009887 -379967.000000 1 0 0
-5.228724 8.112043 16.373108 19.005880 -0.998253 0.532627 0.025721 -0.008311 371272.000000 1 0 0
1.493976 -10.676457 15.677908 19.026705 -1.431767 0.602370 0.003676 -0.004797 -1022480.000000 1 0 0
-15.091824 -0.894657 14.234308 20.764852 0.059212 0.815506 0.050197 -0.008733 811057.000000 1 0 0
-13.495224 -5.365357 8.522108 16.838482 0.378414 1.040129 0.036180 -0.008362 -178980.000000 1 0 0
-14.153124 -2.008957 12.211908 18.800998 0.141002 0.863824 0.037494 -0.007813 466876.000000 1 0 0
9.358876 1.468243 17.085608 19.536179 0.155614 0.506264 0.070852 -0.020400 -251156.000000 1 0 0
5.048876 -6.589057 16.836608 18.771739 -0.916975 0.458059 0.049052 -0.023859 599446.000000 1 0 0
-6.196124 -2.712057 11.203308 13.086685 0.412580 0.543151 0.003845 -0.001773 250198.000000 1 0 0
0.675276 -6.211157 17.975308 19.030138 -1.462502 0.334512 0.025671 -0.019317 -615224.000000 1 0 0
-8.664524 12.092043 12.064208 19.152979 -0.949051 0.889389 0.027532 -0.018702 327546.000000 1 0 0
-6.581224 -5.774457 14.901608 17.283367 0.720195 0.531212 0.017285 -0.009548 -700695.000000 1 0 0
-4.155024 -8.968157 17.025508 19.686543 1.136930 0.525985 0.028291 -0.019349 69702.400000 1 0 0
2.511576 -6.232957 16.258808 17.592800 -1.187749 0.391929 0.026822 -0.016863 1239610.000000 1 0 0
2.195676 5.410243 15.962308 16.996676 1.185268 0.350670 0.016069 -0.011758 -2148860.000000 1 0 0
0.837876 -8.865857 13.991308 16.584998 -1.476570 0.566821 0.001763 -0.006301 -336275.000000 1 0 0
-9.988724 -2.896757 11.280208 15.343041 0.282260 0.744834 0.004821 -0.004358 -859265.000000 1 0 0
-1.370724 10.032543 12.316008 15.944117 -1.435009 0.688109 0.008048 -0.007141 -513123.000000 1 0 0
-12.354624 -3.763857 11.307308 17.165622 0.295719 0.851682 0.028766 -0.008250 -280896.000000 1 0 0
-1.812724 6.635643 19.826408 20.985809 -1.304123 0.333956 0.031013 -0.016080 -782899.000000 1 0 0
0.447276 -13.359057 15.626808 20.563598 -1.537328 0.707597 0.007974 -0.013664 -1054920.000000 1 0 0
4.203976 -8.570557 15.376908 18.099093 -1.114767 0.555578 0.020544 -0.009604 638569.000000 1 0 0
4.367676 -4.344957 16.155608 17.290428 -0.782791 0.364318 0.047870 -0.021390 920918.000000 1 0 0
8.188576 1.719843 14.747008 16.955379 0.207021 0.516093 0.038504 -0.012722 268229.000000 1 0 0
-6.352024 -0.134257 11.930208 13.516512 0.021133 0.489348 0.003304 -0.003792 181837.000000 1 0 0
-3.401424 -10.992257 18.308708 21.624250 1.270703 0.561091 0.048508 -0.021962 84549.800000 1 0 0
3.236676 -1.533757 13.535408 14.001277 -0.442524 0.258687 0.014421 -0.008419 805507.000000 1 0 0
-2.729924 8.922543 15.918208 18.451385 -1.273882 0.530191 0.015792 0.001311 -923417.000000 1 0 0
-3.315324 3.855743 14.800008 15.649229 -0.860617 0.330950 0.004122 -0.004976 -2219210.000000 1 0 0
-4.567624 -9.109157 19.769508 22.241254 1.106004 0.475931 0.044889 -0.021186 119248.000000 1 0 0
-5.565624 -2.799857 19.151208 20.139120 0.466095 0.314518 0.024357 -0.021799 -1782890.000000 1 0 0
-6.574924 -8.731557 11.053808 15.545301 0.925373 0.779777 0.020779 -0.012823 -198054.000000 1 0 0
-11.670524 2.409443 12.694308 17.411261 -0.203595 0.753811 0.013337 -0.013587 -309863.000000 1 0 0
-11.648324 -7.626057 11.777508 18.235951 0.579666 0.868673 0.037032 -0.014397 -616119.000000 1 0 0
-11.110324 -7.456857 15.205808 20.254891 0.591110 0.721641 0.070691 -0.042230 483137.000000 1 0 0
0.191876 5.729143 17.640508 18.548515 1.537318 0.314190 0.011426 -0.012092 -266596.000000 1 0 0
-2.273024 -0.183757 13.151708 13.347952 0.080667 0.171688 0.005384 -0.002967 206352.000000 1 0 0
-6.016124 -10.506557 18.172308 21.836077 1.050763 0.587706 0.059870 -0.024407 268443.000000 1 0 0
0.254676 2.600643 19.195808 19.372848 1.473180 0.135296 0.016637 -0.013361 -737593.000000 1 0 0
-0.823424 10.813343 14.731608 18.292804 -1.494794 0.634577 0.018342 -0.012286 -337963.000000 1 0 0
-12.798824 -2.227857 14.403908 19.397057 0.172341 0.733879 0.037203 -0.010096 -1595140.000000 1 0 0
-13.703824 8.551143 11.644908 19.912828 -0.557878 0.946170 0.019928 -0.015627 -665746.000000 1 0 0
-18.064424 -0.668957 6.880508 19.341983 0.037015 1.207102 0.077019 -0.023868 335287.000000 1 0 0
-2.053224 -7.587557 17.626708 19.299937 1.306521 0.419473 0.021342 -0.017816 -1929700.000000 1 0 0
5.707876 2.615343 14.456208 15.760768 0.429651 0.409733 0.033033 -0.013851 -2350380.000000 1 0 0
-14.228324 -7.031057 11.178108 19.412137 0.458964 0.957176 0.066513 -0.016530 718153.000000 1 0 0
3.082476 7.726543 16.273308 18.276260 1.191199 0.472558 0.025426 -0.022072 -347237.000000 1 0 0
0.965976 1.991743 14.554508 14.721883 1.119229 0.150936 0.011587 -0.009043 -2471500.000000 1 0 0
-14.480424 0.620443 9.764908 17.476300 -0.042821 0.977917 0.027853 -0.001465 -270439.000000 1 0 0
-9.643024 -5.253957 15.636308 19.107227 0.498877 0.612270 0.040109 -0.015850 8236.990000 1 0 0
-2.581724 -0.131457 18.165208 18.348225 0.050874 0.141360 0.010724 -0.012711 40454.100000 1 0 0
6.933076 3.807343 17.316308 19.037277 0.502195 0.428476 0.065530 -0.025320 -295977.000000 1 0 0
-4.217424 -0.893557 14.717508 15.335911 0.208785 0.284948 0.009633 -0.004504 -727777.000000 1 0 0
5.334376 -8.928957 17.678508 20.511252 -1.032273 0.531805 0.053387 -0.011148 -30525.200000 1 0 0
1.873776 6.796943 13.385608 15.128912 1.301799 0.484796 0.011144 -0.007986 226068.000000 1 0 0
-3.656624 -0.602357 20.505808 20.837992 0.163264 0.178795 0.021451 -0.016925 -1534570.000000 1 0 0
-10.742924 1.737843 16.280608 19.582868 -0.160377 0.589228 0.026230 -0.017062 -85382.500000 1 0 0
-3.851124 7.112343 18.299208 20.006939 -1.074525 0.416172 0.026551 -0.012341 36380.300000 1 0 0
-12.666524 0.981943 14.649408 19.390983 -0.077368 0.714417 0.029494 -0.016100 -838804.000000 1 0 0
-16.047524 -5.021757 8.424008 18.807046 0.303277 1.106361 0.064962 -0.018772 -1002000.000000 1 0 0
-2.413524 0.698143 15.739308 15.938580 -0.281577 0.158295 0.007024 -0.004575 -441959.000000 1 0 0
-13.638524 -8.548457 13.168908 20.796769 0.559884 0.885091 0.066296 -0.032007 682062.000000 1 0 0
6.123176 -3.115357 14.461608 16.010522 -0.470648 0.443497 0.037886 -0.021415 946802.000000 1 0 0
-15.809824 0.545443 7.601608 17.550855 -0.034487 1.122846 0.038582 -0.010700 527746.000000 1 0 0
-14.126824 6.038443 12.495308 19.803098 -0.403940 0.887984 0.028670 -0.009828 -4038.920000 1 0 0
0.401076 9.489343 16.596408 19.121957 1.528556 0.519789 0.013760 -0.018410 -449575.000000 1 0 0
-10.396224 -5.530457 10.807508 15.983418 0.488894 0.828245 0.022181 -0.011522 -113699.000000 1 0 0
-3.130324 -11.130257 15.017008 18.952363 1.296634 0.656136 0.016570 -0.012948 -1149040.000000 1 0 0
-3.435724 2.572343 12.642108 13.350807 -0.642672 0.327290 0.000239 -0.000436 -1566490.000000 1 0 0
-12.436224 -7.779157 7.481708 16.466661 0.558976 1.099148 0.025957 -0.004027 328936.000000 1 0 0
-8.271324 -1.833157 13.275808 15.748725 0.218103 0.568004 0.010690 -0.003767 -33184.000000 1 0 0
-9.902824 6.341543 9.617908 15.191618 -0.569581 0.885237 0.006881 -0.002651 -606702.000000 1 0 0
-17.870224 -3.744057 6.664208 19.436423 0.206526 1.220824 0.067198 -0.019563 396908.000000 1 0 0
-1.275124 0.052843 20.594108 20.633614 -0.041418 0.061891 0.015878 -0.010853 -959933.000000 1 0 0
-2.807924 2.583343 20.177708 20.535287 -0.743766 0.186889 0.029359 -0.013200 -570482.000000 1 0 0
-3.844324 11.309543 11.143708 16.336059 -1.243131 0.820092 0.008963 -0.009482 -862284.000000 1 0 0
-4.136324 -4.712757 14.873908 16.141635 0.850447 0.398968 0.008054 -0.010149 -65448.300000 1 0 0
0.051776 -14.345357 13.317008 19.573825 -1.567187 0.822559 0.013404 -0.012553 -1236930.000000 1 0 0
-12.162824 0.358143 8.390908 14.780727 -0.029437 0.967096 0.005479 0.000295 -31277.000000 1 0 0
-7.772424 2.171543 15.335208 17.329016 -0.272444 0.484423 0.007994 -0.006475 -2727980.000000 1 0 0
3.610776 -2.150457 18.407308 18.880973 -0.537153 0.224466 0.053231 -0.022771 -236754.000000 1 0 0
-2.176024 4.878343 12.606608 13.691599 -1.151225 0.400785 0.000685 -0.001450 -334268.000000 1 0 0
-10.026624 -6.249757 13.266408 17.764860 0.557388 0.727592 0.015823 -0.019754 363929.000000 1 0 0
2.335976 -3.748457 14.248608 14.917457 -1.013505 0.300585 0.018043 -0.011614 -693887.000000 1 0 0
6.751476 1.226243 16.956108 18.291957 0.179667 0.384541 0.054598 -0.021102 -1157060.000000 1 0 0
-1.951924 -5.702457 13.699808 14.967056 1.241002 0.414468 0.004923 -0.007218 -867947.000000 1 0 0
-12.777524 3.620243 14.635108 19.762532 -0.276093 0.736911 0.006627 -0.010693 80525.300000 1 0 0
-13.198124 -6.038257 13.308108 19.691541 0.429081 0.828708 0.051392 -0.037932 -148890.000000 1 0 0
-9.500324 6.860843 12.032908 16.796375 -0.625450 0.772169 0.002492 -0.002525 636327.000000 1 0 0
-0.949324 -2.440657 12.810108 13.075048 1.199841 0.201652 0.008255 -0.004589 367208.000000 1 0 0
0.056476 6.578243 15.164008 16.529477 1.562211 0.409319 0.005189 -0.012091 93785.500000 1 0 0
-16.455924 -1.249357 9.476308 19.030469 0.075776 1.049558 0.061486 -0.009410 248050.000000 1 0 0
-1.310924 2.717543 13.756508 14.083504 -1.121333 0.215911 0.004118 -0.004511 -3311300.000000 1 0 0
-11.263924 -3.363857 16.110608 19.943501 0.290208 0.630365 0.046404 -0.021936 653318.000000 1 0 0
-5.158824 -1.377657 17.102508 17.916673 0.260959 0.302622 0.018204 -0.008949 196849.000000 1 0 0
-12.053524 6.638543 11.113808 17.688257 -0.503423 0.891410 0.019316 -0.004894 -1085880.000000 1 0 0
-2.796824 4.654843 18.641308 19.416183 -1.029758 0.283468 0.024163 -0.011050 169839.000000 1 0 0
5.098076 -1.856957 16.356608 17.233029 -0.349310 0.320294 0.047185 -0.022703 91229.700000 1 0 0
-8.102124 -4.146757 12.214908 15.232990 0.473052 0.640375 0.015561 -0.007838 -1278970.000000 1 0 0
-11.562824 -0.722557 16.211708 19.925874 0.062409 0.620478 0.038622 -0.009922 421679.000000 1 0 0
2.045076 2.045643 17.346708 17.586224 0.785537 0.165230 0.016664 -0.014166 -1211000.000000 1 0 0
-9.031124 -7.693957 11.551608 16.558920 0.705618 0.798745 0.021353 -0.013870 354622.000000 1 0 0
-7.269624 6.609143 14.842908 17.800004 -0.737845 0.584712 0.001189 -0.008893 -1297340.000000 1 0 0
-5.667224 3.613043 15.751908 17.125832 -0.567561 0.403290 0.004396 -0.003919 -279139.000000 1 0 0
-9.457924 4.270043 11.539808 15.519432 -0.424082 0.732400 0.005201 -0.004000 -402148.000000 1 0 0
-10.212424 0.126043 14.207608 17.497589 -0.012342 0.623268 0.015325 -0.008262 -631718.000000 1 0 0
8.188876 -0.586357 15.874508 17.871807 -0.071482 0.477290 0.059178 -0.018939 173263.000000 1 0 0
-8.533624 -7.579157 14.826608 18.710817 0.726231 0.656049 0.036372 -0.015369 -1269260.000000 1 0 0
0.055276 4.036443 15.649208 16.161486 1.557103 0.252453 0.010201 -0.009869 279472.000000 1 0 0
-8.127924 3.073143 9.605208 12.952505 -0.361483 0.735387 -0.002386 0.002617 -600983.000000 1 0 0
-2.228924 -9.815957 13.108308 16.527215 1.347511 0.654858 0.007221 -0.005790 876369.000000 1 0 0
-6.119124 10.388543 10.510608 15.994949 -1.038485 0.853804 0.013589 -0.006361 -2407270.000000 1 0 0
-8.615024 -2.781857 15.726008 18.145652 0.312338 0.522340 0.024063 -0.014117 -62648.400000 1 0 0
4.017176 5.676543 17.759108 19.072146 0.954935 0.373231 0.030216 -0.020169 253729.000000 1 0 0
-6.791224 -0.980157 15.158408 16.639073 0.143337 0.425063 0.009904 -0.005626 -636158.000000 1 0 0
-0.961724 -9.900757 15.438208 18.365407 1.473964 0.572382 -0.001393 -0.007733 -302875.000000 1 0 0
-4.151724 5.781743 16.012208 17.523018 -0.948042 0.418299 0.013962 -0.008450 486956.000000 1 0 0
3.720176 0.158643 17.379408 17.773820 0.042618 0.211060 0.040408 -0.015331 -612913.000000 1 0 0
1.381876 0.316843 19.205308 19.257565 0.225389 0.073686 0.020221 -0.010302 -217180.000000 1 0 0
-6.193624 6.092343 17.675408 19.695118 -0.777155 0.456839 0.010352 -0.015014 -952730.000000 1 0 0
-12.198124 0.597343 10.957508 16.407865 -0.048931 0.839520 0.018792 -0.002235 -176692.000000 1 0 0
-5.342424 5.147643 13.782308 15.652212 -0.766832 0.493808 0.002902 -0.000779 -1559640.000000 1 0 0
-8.655124 -9.649557 9.895108 16.307614 0.839671 0.918795 0.020660 -0.009160 -629712.000000 1 0 0
6.910776 -3.610057 16.899008 18.610959 -0.481392 0.432278 0.057033 -0.029281 -731304.000000 1 0 0
-16.943224 1.298243 9.796408 19.614482 -0.076474 1.047835 0.060265 -0.014205 -300227.000000 1 0 0
-4.102224 -9.626657 11.269708 15.378787 1.167967 0.748356 0.010913 -0.009084 -1193710.000000 1 0 0
-11.044624 -3.962957 9.160808 14.886543 0.344505 0.907935 0.013643 -0.001185 -73935.500000 1 0 0
3.525876 -5.333957 18.541008 19.612544 -0.986710 0.332085 0.038126 -0.021301 -546642.000000 1 0 0
2.527976 -1.767057 16.076308 16.369509 -0.610055 0.189553 0.021557 -0.016084 -1606630.000000 1 0 0
-3.257424 -4.338757 19.995308 20.718300 0.926800 0.264957 0.013516 -0.028275 -1105900.000000 1 0 0
-6.415024 -3.372857 14.378508 16.101869 0.484054 0.466892 0.014828 -0.004925 -112692.000000 1 0 0
-9.699424 5.178343 13.932108 17.748175 -0.490384 0.668119 0.013248 -0.006854 97659.400000 1 0 0
-5.945124 -5.352857 11.724408 14.193637 0.733024 0.598764 0.008925 -0.003388 -1078440.000000 1 0 0
6.240976 2.198743 19.208308 20.316086 0.338729 0.331753 0.086194 -0.030111 165491.000000 1 0 0
-2.768324 11.916343 13.403608 18.147164 -1.342532 0.739796 0.023278 -0.018104 -1713400.000000 1 0 0
3.391076 1.413543 15.144408 15.583664 0.394941 0.237993 0.021594 -0.010394 -767940.000000 1 0 0
-5.815624 7.421843 12.742108 15.851390 -0.906147 0.637060 0.001578 -0.006032 -1225890.000000 1 0 0
-1.820524 -1.725757 15.202808 15.408372 0.758681 0.163529 0.005247 -0.006555 -836778.000000 1 0 0
-7.576024 10.861543 14.102908 19.345834 -0.961744 0.753952 0.042894 -0.019204 749208.000000 1 0 0
-10.159924 2.036543 10.545608 14.784499 -0.197827 0.776618 0.003632 0.001006 -388656.000000 1 0 0
-13.748624 5.120443 9.102808 17.265709 -0.356518 1.015472 0.020877 -0.008115 426224.000000 1 0 0
0.476276 -4.749857 19.981108 20.543433 -1.470859 0.234514 0.043243 -0.031829 -266342.000000 1 0 0
-14.438724 -3.097757 7.523108 16.573172 0.211341 1.099622 0.035330 -0.007834 -93859.800000 1 0 0
-2.311324 2.350243 17.569408 17.875960 -0.793747 0.185462 0.008691 -0.010991 -482061.000000 1 0 0
-6.106824 -8.334457 14.469808 17.780096 0.938446 0.620100 0.016906 -0.015255 -203055.000000 1 0 0
-8.049124 2.022043 12.064808 14.643656 -0.246120 0.602550 0.001041 -0.003022 1295150.000000 1 0 0
-14.641424 -3.554557 10.122108 18.151123 0.238166 0.979235 0.041398 -0.010522 -117891.000000 1 0 0
-0.620224 7.065243 12.710108 14.555040 -1.483235 0.508975 0.004200 -0.005412 -309849.000000 1 0 0
-1.785124 -2.190457 19.517908 19.721397 0.887003 0.143777 0.010394 -0.012382 86188.900000 1 0 0
-12.838324 10.182643 7.284408 17.932412 -0.670547 1.152489 0.018982 -0.023202 664737.000000 1 0 0
-19.577024 2.155443 6.874208 20.860502 -0.109659 1.234988 0.089276 -0.033499 1485310.000000 1 0 0
-16.017024 8.359743 6.712408 19.273993 -0.481036 1.215079 0.033541 -0.014550 402256.000000 1 0 0
-12.346824 7.616143 13.594008 19.880814 -0.552717 0.817872 0.018346 -0.009813 -1930.430000 1 0 0
-16.028124 8.031643 10.559008 20.806266 -0.464525 1.038525 0.044470 -0.015963 798926.000000 1 0 0
1.846876 10.994543 14.917208 18.622943 1.404369 0.641812 0.030442 -0.024183 674066.000000 1 0 0
2.005176 14.452943 12.581108 19.266358 1.432938 0.859245 0.024657 -0.008815 122099.000000 1 0 0
-3.256524 13.735543 11.709808 18.340930 -1.338007 0.878311 0.013823 -0.015315 540527.000000 1 0 0
9.421976 4.851643 15.936408 19.138473 0.475519 0.586849 0.060404 -0.001930 48595.800000 1 0 0
-0.362324 12.458843 12.799808 17.865865 -1.541723 0.772111 0.016685 -0.014668 -485728.000000 1 0 0
3.638676 13.572043 14.557108 20.232392 1.308855 0.767721 0.036230 -0.012614 311806.000000 1 0 0
-2.894624 -4.033957 -13.737492 14.607202 0.948379 2.794778 0.007931 -0.007295 15620.100000 1 0 0
5.758576 -11.495057 16.352908 20.801806 -1.106380 0.666275 0.025185 -0.004602 130972.000000 1 0 0
7.886476 -13.588957 7.376708 17.357191 -1.044944 1.131841 0.001113 -0.001381 -125924.000000 1 0 0
-0.267224 15.474043 1.298408 15.530721 -1.553529 1.487096 0.003908 -0.006174 -2430860.000000 1 0 0
-13.861124 8.264643 9.095008 18.524423 -0.537655 1.057589 0.021353 -0.005756 462634.000000 1 0 0
-15.435824 -9.690757 5.064308 18.916201 0.560617 1.299767 0.021244 -0.003652 -1441090.000000 1 0 0
9.640376 -11.388357 11.009008 18.542647 -0.868331 0.935131 0.030392 -0.003920 34037.000000 1 0 0
-5.607924 -10.827057 -16.476792 20.497772 1.092888 2.504508 0.040969 -0.014014 52788.800000 1 0 0
-1.945224 -12.495357 -14.641992 19.346984 1.416360 2.429215 0.026232 -0.010145 -212849.000000 1 0 0
5.813576 -15.520257 -12.826392 20.956917 -1.212394 2.229429 0.028619 -0.003943 126861.000000 1 0 0
0.999576 -12.071057 -16.452492 20.430224 -1.488177 2.506980 0.026777 -0.005757 174738.000000 1 0 0
0.536776 -14.774257 -13.816392 20.235105 -1.534480 2.322375 0.031032 0.013435 222283.000000 1 0 0
-6.994224 -5.929557 -14.697392 17.323168 0.703203 2.583797 0.036744 0.003761 -15598.700000 1 0 0
-6.019324 -8.304257 -17.184492 20.012489 0.943588 2.603501 0.022012 -0.006764 -177810.000000 1 0 0
-2.234824 -16.380157 -13.042292 21.057193 1.435199 2.238742 0.029042 -0.010247 52107.000000 1 0 0
15.902676 -8.022357 -9.022592 19.966484 -0.467214 2.039676 0.073007 -0.009793 78359.000000 1 0 0
19.000376 -2.822257 -3.474492 19.520540 -0.147459 1.749741 0.102713 -0.012704 82049.700000 1 0 0
15.799776 -11.409757 -8.772392 21.372186 -0.625435 1.993753 0.061648 -0.010544 52499.100000 1 0 0
18.198876 -2.515057 -6.417492 19.460442 -0.137329 1.906857 0.157123 0.000544 -231611.000000 1 0 0
8.871676 -9.896557 -15.788292 20.637796 -0.839951 2.441866 0.074555 -0.008944 183587.000000 1 0 0
-4.751724 9.215643 -16.298092 19.316697 -1.094735 2.574993 0.009936 -0.012494 403819.000000 1 0 0
2.558876 -9.749557 -18.366092 20.950299 -1.314125 2.639652 0.056814 -0.007466 346963.000000 1 0 0
11.214476 8.067343 -14.119192 19.753432 0.623607 2.367094 0.105516 -0.060618 317094.000000 1 0 0
18.227876 -5.532157 -7.847792 20.602137 -0.294665 1.961589 0.080127 -0.016847 127244.000000 1 0 0
12.161176 5.060443 -13.721692 19.020702 0.394321 2.376630 0.055075 -0.018633 6004.050000 1 0 0
15.613876 6.453443 -10.767992 20.034712 0.391932 2.138227 0.034412 -0.024991 15267.200000 1 0 0
3.552576 -0.696957 -19.529592 19.862314 -0.193723 2.958298 0.052340 -0.000543 126957.000000 1 0 0
10.382876 -1.717157 -14.725192 18.099282 -0.163900 2.521077 0.035544 -0.005405 179501.000000 1 0 0
12.226776 -6.010057 -13.937292 19.490073 -0.456864 2.367559 0.059879 -0.003870 612929.000000 1 0 0
10.157576 6.174043 -13.867092 18.264484 0.546154 2.432938 0.045377 0.010598 300700.000000 1 0 0
10.918976 4.728843 -16.285192 20.169122 0.408699 2.510582 0.093414 -0.031273 501363.000000 1 0 0
12.097676 -10.165657 -14.797292 21.648422 -0.698835 2.323381 0.108510 -0.016980 353362.000000 1 0 0
-1.445624 2.199043 -17.859992 18.052837 -0.989245 2.995296 0.015578 -0.007377 240641.000000 1 0 0
6.151476 -1.156357 -17.213292 18.315983 -0.185812 2.792830 0.020248 0.008890 71543.100000 1 0 0
7.291076 -6.615057 -16.068792 18.844756 -0.736823 2.591915 0.038652 -0.003404 232472.000000 1 0 0
-2.547024 -4.535457 -19.984892 20.650753 1.059106 2.886961 0.050446 -0.027991 141858.000000 1 0 0
16.059976 -0.302657 -13.468692 20.962349 -0.018843 2.268576 0.102550 -0.016156 -78365.700000 1 0 0
-4.047124 -0.359457 -18.482692 18.924015 0.088585 2.925204 0.018213 -0.013576 190545.000000 1 0 0
4.712876 8.514743 -18.111492 20.560598 1.065273 2.648522 0.062478 -0.008832 191354.000000 1 0 0
9.928776 -0.091557 -17.121592 19.792369 -0.009221 2.616067 0.057126 -0.010192 14302.900000 1 0 0
3.972676 4.493543 -18.501792 19.449689 0.846844 2.828106 0.037122 -0.003066 363352.000000 1 0 0
-2.820524 -11.084757 -17.849292 21.199633 1.321633 2.571706 0.042781 -0.021850 202461.000000 1 0 0
5.637076 -9.592257 -15.911592 19.415632 -1.039493 2.531378 0.021232 -0.017038 11249.200000 1 0 0
10.263476 -12.514557 -10.737592 19.422898 -0.883905 2.156555 0.035139 0.002506 93314.700000 1 0 0
6.105076 6.767543 -17.065492 19.346902 0.836816 2.651053 0.051437 -0.014449 430555.000000 1 0 0
8.718576 1.586943 -20.120792 21.985864 0.180048 2.726725 0.071678 -0.018251 59289.100000 1 0 0
-0.706324 -0.725557 -20.262892 20.288177 0.798829 3.091662 0.044170 -0.015858 142924.000000 1 0 0
-0.840824 6.602943 -19.736792 20.828990 -1.444137 2.816320 0.029896 -0.014008 14371.800000 1 0 0
8.982776 5.952843 -17.873792 20.871010 0.585248 2.599040 0.095403 -0.030085 -82383.600000 1 0 0
11.772176 -0.024057 -12.890392 17.457002 -0.002044 2.401503 0.001588 -0.005896 -24269.900000 1 0 0
-4.269224 -2.757557 -19.788492 20.430732 0.573498 2.890192 0.013205 -0.009835 396933.000000 1 0 0
5.757376 -11.356657 -14.482892 19.284066 -1.101596 2.420415 0.015492 -0.008024 125225.000000 1 0 0
11.190076 2.188043 -15.980492 19.631135 0.193098 2.521868 0.047896 -0.009614 -193909.000000 1 0 0
-2.928724 -4.321157 -17.039392 17.821075 0.975150 2.844314 0.015054 -0.008495 230310.000000 1 0 0
-6.489524 -4.619557 -17.287292 19.034303 0.618634 2.709802 0.025169 -0.016000 -55762.100000 1 0 0
3.029776 10.553843 -15.637092 19.107114 1.291236 2.529402 0.010153 -0.003730 260600.000000 1 0 0
17.123976 -6.064857 -10.711092 21.088872 -0.340388 2.103544 0.123660 -0.016672 60633.600000 1 0 0
9.507976 -3.453757 -17.633792 20.329305 -0.348428 2.620765 0.039895 -0.014724 119234.000000 1 0 0
-7.290724 -1.622857 -18.796092 20.225761 0.219021 2.763348 0.018027 -0.004048 593400.000000 1 0 0
1.755776 -7.594457 -19.097192 20.626713 -1.343596 2.754069 0.063083 -0.028094 203223.000000 1 0 0
5.615276 9.921043 -14.823192 18.699878 1.055755 2.486004 0.042577 -0.011466 472909.000000 1 0 0
6.367176 -3.922557 -17.586092 19.110155 -0.552144 2.739511 0.052937 -0.025046 441203.000000 1 0 0
4.684176 13.356643 -14.384692 20.180703 1.233498 2.364271 0.035726 -0.020336 -150805.000000 1 0 0
9.408976 11.335943 -15.426892 21.331231 0.878021 2.379231 0.105276 -0.025145 76926.200000 1 0 0
17.271876 1.041343 -11.662692 20.866731 0.060218 2.163871 0.137003 -0.010771 -30144.800000 1 0 0
14.858476 -2.839857 -12.410392 19.566730 -0.188850 2.257847 0.107309 -0.011140 66107.600000 1 0 0
-8.854424 0.330143 -17.338392 19.471252 -0.037268 2.669154 0.033054 -0.012452 367055.000000 1 0 0
-3.425324 4.484443 -19.190092 20.002568 -0.918507 2.855598 0.027404 -0.006497 8026.950000 1 0 0
3.882976 1.659643 -17.163692 17.675527 0.403915 2.900354 0.021712 0.002970 504604.000000 1 0 0
-4.814424 14.000143 -14.311092 20.591019 -1.239580 2.339239 0.023668 -0.011388 285620.000000 1 0 0
1.036176 8.954043 -17.798392 19.950722 1.455587 2.672807 0.017193 -0.015105 379705.000000 1 0 0
1.205276 -5.238557 -19.845592 20.560708 -1.344654 2.877077 0.049767 -0.008267 424174.000000 1 0 0
3.716376 -6.263557 -18.340992 19.734122 -1.035293 2.763594 0.044465 -0.014173 -146610.000000 1 0 0
-6.970424 7.285243 -15.480692 18.474669 -0.807478 2.564297 0.009423 -0.010824 31391.500000 1 0 0
-11.999024 3.034043 -16.777392 20.848571 -0.247666 2.506011 0.082364 -0.025435 289052.000000 1 0 0
-4.414224 6.921543 -17.498892 19.328848 -1.003080 2.702941 0.007209 0.011779 267092.000000 1 0 0
-8.118824 5.231443 -17.748692 20.206419 -0.572400 2.643235 0.015334 -0.010443 365357.000000 1 0 0
-8.506824 4.231743 -15.057492 17.804544 -0.461608 2.578692 -0.002829 -0.014439 423340.000000 1 0 0
9.462176 13.385043 -12.773592 20.781165 0.955440 2.232766 0.108076 -0.046899 551247.000000 1 0 0
14.990376 9.919043 -11.664192 21.427836 0.584552 2.146408 0.154460 -0.033610 73088.000000 1 0 0
8.315676 15.765943 -9.918792 20.398477 1.085434 2.078591 0.070245 -0.018115 75478.500000 1 0 0
7.560476 14.337443 -14.195392 21.546049 1.085529 2.290072 0.099164 -0.032505 261920.000000 1 0 0
3.692076 15.763343 -12.787792 20.631094 1.340725 2.239324 0.034744 -0.016994 139855.000000 1 0 0
10.767576 11.829443 -11.300892 19.585366 0.832355 2.185856 0.092021 -0.031145 308289.000000 1 0 0
15.850376 10.660043 -8.728992 21.001577 0.592059 1.999437 0.099024 -0.059230 349919.000000 1 0 0
12.446576 10.340343 -9.000292 18.516079 0.693228 2.078395 0.078825 -0.051711 385878.000000 1 0 0
10.591776 11.627043 -7.565392 17.453051 0.831959 2.019137 0.068222 -0.016235 118591.000000 1 0 0
5.607676 17.043943 -10.485692 20.782006 1.252939 2.099664 0.061360 -0.003968 -10147.300000 1 0 0
11.187676 13.945243 -10.309492 20.637818 0.894680 2.093868 0.138597 -0.045658 1447.980000 1 0 0
8.328676 -19.325157 -1.571692 21.102103 -1.163875 1.645346 0.054691 -0.019263 187990.000000 1 0 0
7.956376 -17.046657 -4.036792 19.240273 -1.134108 1.782176 0.027042 -0.009628 158997.000000 1 0 0
3.777976 -18.961457 5.473308 20.093955 -1.374127 1.294925 0.062933 -0.017959 -193701.000000 1 0 0
10.483476 -17.616557 -1.967692 20.594129 -1.033993 1.666489 0.060906 -0.025636 360093.000000 1 0 0
-3.491924 -14.714757 7.923008 17.073127 1.337799 1.088220 0.032333 -0.034108 8714.150000 1 0 0
-15.169424 -12.831857 -4.738492 20.425996 0.702111 1.804913 0.048932 -0.002473 235409.000000 1 0 0
-9.017624 -13.003657 -7.061492 17.328512 0.964467 1.990519 0.036454 -0.009138 89031.900000 1 0 0
-11.424424 -15.515857 6.858508 20.452345 0.936117 1.228829 0.038881 -0.008467 361612.000000 1 0 0
-14.407724 -8.513057 -8.203192 18.637248 0.533677 2.026562 0.042000 -0.014361 -106730.000000 1 0 0
5.305676 -15.602957 5.706008 17.440212 -1.243019 1.237483 0.039578 -0.016634 129322.000000 1 0 0
2.970476 -14.050657 9.222108 17.067277 -1.362452 0.999957 0.023025 -0.005872 318061.000000 1 0 0
3.458376 -17.374357 10.039508 20.362229 -1.374314 1.055209 0.046282 -0.014432 127018.000000 1 0 0
-8.670624 -17.938657 -4.924092 20.523689 1.120558 1.813082 0.065005 -0.017519 -77244.400000 1 0 0
2.089776 -19.725657 -4.203492 20.276539 -1.465248 1.779619 0.034333 -0.016581 83176.200000 1 0 0
-17.175524 -11.215357 -2.129392 20.623219 0.578471 1.674233 -0.041046 0.001087 -445332.000000 1 0 0
-3.863624 -14.831757 2.920408 15.602480 1.315963 1.382510 0.004594 -0.005764 19501.200000 1 0 0
-10.878624 -10.120157 -14.504592 20.764037 0.749294 2.344157 0.068195 -0.007684 236585.000000 1 0 0
0.105676 -20.060657 2.659208 20.236415 -1.565529 1.439008 0.020778 -0.019083 299007.000000 1 0 0
6.812876 -18.294157 0.804608 19.538138 -1.214301 1.529603 0.048295 -0.017922 159481.000000 1 0 0
-6.945424 -17.380357 -3.128092 18.976319 1.190623 1.736394 0.018634 -0.067195 41154.600000 1 0 0
-8.711324 -16.091957 -7.294392 19.698894 1.074621 1.950122 0.068146 -0.013355 -21937.300000 1 0 0
-11.926324 -11.338057 -12.370192 20.586656 0.760117 2.215403 0.066918 -0.002388 429205.000000 1 0 0
-13.447224 -14.977257 -3.398292 20.413095 0.839174 1.738051 0.060903 -0.018697 260738.000000 1 0 0
-0.190124 -20.669657 -2.677692 20.843246 1.561598 1.699620 0.047366 -0.020271 375734.000000 1 0 0
-11.953024 -16.733957 -0.670092 20.575450 0.950539 1.603370 0.063191 -0.019930 179784.000000 1 0 0
0.813276 -19.933057 5.378608 20.661984 -1.530019 1.307449 0.052549 -0.024053 181139.000000 1 0 0
-18.021724 -8.736257 2.474808 20.179926 0.451384 1.447850 0.039396 -0.005230 -90683.900000 1 0 0
-15.227024 -14.895957 -0.548592 21.308514 0.774408 1.596544 0.071510 -0.009253 -13655.300000 1 0 0
10.198576 -15.525557 -5.025092 19.243321 -0.989593 1.834993 0.021251 -0.003369 44265.200000 1 0 0
-0.053824 -19.138557 -7.022192 20.386232 1.567984 1.922457 0.043950 -0.013940 143052.000000 1 0 0
-9.729824 -18.388757 -2.805492 20.992538 1.084126 1.704840 0.054612 0.022761 538515.000000 1 0 0
-15.031724 -6.533557 -11.181692 19.841128 0.410017 2.169487 0.091125 -0.027748 83806.300000 1 0 0
-12.641324 -14.966857 1.747808 19.668877 0.869433 1.481817 0.057527 -0.019811 472314.000000 1 0 0
-2.754624 -16.567357 10.646408 19.884951 1.406035 1.005815 0.033785 -0.010561 218065.000000 1 0 0
-12.057024 -14.778257 -6.538492 20.162356 0.886458 1.901060 0.043068 -0.010551 118261.000000 1 0 0
5.249076 -16.936557 -7.446792 19.231601 -1.270258 1.968407 0.022680 -0.014145 75869.900000 1 0 0
-17.343824 -7.672857 -2.934292 19.190911 0.416513 1.724299 -0.004120 -0.009653 -30113.800000 1 0 0
-12.029324 -13.722757 -9.401592 20.528240 0.851063 2.046522 0.074354 -0.026181 3918.950000 1 0 0
-7.766124 -13.977557 9.906308 18.810096 1.063653 1.016143 0.022733 -0.004079 614525.000000 1 0 0
-15.756424 -8.082357 -5.907592 18.667861 0.473959 1.892789 0.044962 -0.010962 145669.000000 1 0 0
-0.460024 -19.721557 -0.258092 19.728610 1.547475 1.583879 0.013006 -0.012236 173786.000000 1 0 0
-14.878424 -11.730457 -1.976292 19.049327 0.667640 1.674729 0.014668 0.012327 -121584.000000 1 0 0
-6.771024 -19.108557 1.589008 20.334912 1.230256 1.492575 0.024929 -0.021546 48994.600000 1 0 0
-1.774924 -21.110557 -4.988492 21.764444 1.486916 1.802056 0.057787 -0.013970 -764.688000 1 0 0
-9.110024 -19.205257 0.033908 21.256425 1.127878 1.569201 0.063612 -0.045209 72190.500000 1 0 0
-17.828624 -7.348957 5.000508 19.921649 0.390979 1.317074 0.056578 -0.013391 -280790.000000 1 0 0
-2.585124 -15.695457 -10.635592 19.134943 1.407557 2.160146 0.022835 -0.008000 33792.300000 1 0 0
-2.871824 -18.266657 -8.141592 20.204050 1.414856 1.985554 0.031178 -0.014237 189096.000000 1 0 0
4.337976 -16.561257 -4.791192 17.777761 -1.314616 1.843675 0.005364 -0.037802 523522.000000 1 0 0
0.843776 -17.465657 -9.289192 19.800258 -1.522523 2.059119 0.035526 -0.005296 78522.500000 1 0 0
-7.576524 -10.029057 -14.519292 19.204050 0.923812 2.428059 0.028951 -0.014323 417891.000000 1 0 0
-4.974224 -19.268957 -1.947692 19.995727 1.318165 1.668356 0.039777 -0.032386 355677.000000 1 0 0
-8.798024 -15.925357 8.468708 20.068414 1.066071 1.135155 0.004235 -0.009512 262707.000000 1 0 0
-7.108424 -15.057757 -10.263992 19.560554 1.129735 2.123193 0.032800 -0.017006 269303.000000 1 0 0
-12.678624 -8.211557 -12.222892 19.431322 0.574735 2.251102 0.066821 -0.016468 384304.000000 1 0 0
-15.418224 -13.041857 3.352208 20.470686 0.702093 1.406299 0.035097 -0.004409 296089.000000 1 0 0
-6.247524 -14.300357 -13.046692 20.340795 1.158907 2.267125 0.026972 -0.008979 388176.000000 1 0 0
-13.728924 -11.126757 -6.823992 18.943467 0.681087 1.939310 0.051657 -0.026362 242822.000000 1 0 0
-11.471024 -10.518857 -7.991192 17.495425 0.742125 2.045145 0.034363 -0.012209 102237.000000 1 0 0
-9.714124 -15.027357 3.746408 18.281719 0.996935 1.364408 0.014503 0.002054 557722.000000 1 0 0
5.342276 -17.666257 8.123808 20.165138 -1.277139 1.156152 0.072162 -0.040043 243901.000000 1 0 0
-4.822624 -16.721257 5.336008 18.202503 1.290004 1.273280 0.001695 0.005222 250401.000000 1 0 0
-18.231524 -7.556457 -6.865192 20.895439 0.392920 1.905564 0.062560 -0.028326 16176.300000 1 0 0
-17.244724 -3.277457 -10.662392 20.537986 0.187816 2.116658 0.078621 -0.025420 -157739.000000 1 0 0
-16.096524 -4.037257 -12.742092 20.922678 0.245746 2.225606 0.080761 -0.025114 321925.000000 1 0 0
-19.514524 -5.256057 -6.124092 21.117464 0.263097 1.865025 0.071698 -0.015619 -114788.000000 1 0 0
5.438576 -13.583457 8.829608 17.089482 -1.189960 1.027840 0.020612 -0.001245 241180.000000 1 0 0
19.970776 -2.728957 2.744408 20.342341 -0.135806 1.435473 0.091645 -0.018124 -77617.300000 1 0 0
18.204776 -2.433057 0.131008 18.367111 -0.132862 1.563664 0.053087 -0.016305 271826.000000 1 0 0
14.139876 -11.263857 0.377308 18.081839 -0.672666 1.549928 0.036715 -0.003612 128148.000000 1 0 0
11.360376 -14.088957 5.413908 18.890930 -0.892206 1.280133 0.037599 0.002909 451495.000000 1 0 0
10.367576 -12.570657 8.086108 18.190469 -0.881149 1.110153 0.039826 -0.033063 80645.200000 1 0 0
17.603776 5.350943 -4.545192 18.952158 0.295091 1.812981 0.003925 -0.000126 -158031.000000 1 0 0
19.232776 -5.811057 -5.490092 20.828086 -0.293422 1.837539 0.114350 -0.006172 -99896.100000 1 0 0
17.896476 -10.142157 -0.341492 20.573376 -0.515584 1.587396 0.060133 -0.003599 465593.000000 1 0 0
17.830576 -8.702957 8.653208 21.645990 -0.454076 1.159541 0.147240 -0.029804 -37137.600000 1 0 0
19.891076 0.601443 -2.588392 20.067795 0.030228 1.700139 0.109543 -0.003032 112237.000000 1 0 0
7.653576 -13.252157 11.464008 19.121202 -1.047060 0.927865 0.025516 0.000173 464906.000000 1 0 0
16.442676 -6.206157 -3.446392 17.909650 -0.360910 1.764436 0.075348 -0.006398 191407.000000 1 0 0
14.581376 -6.731957 11.672608 19.854106 -0.432526 0.942312 0.090324 -0.043031 418005.000000 1 0 0
17.056676 1.061443 9.354708 19.482490 0.062150 1.069959 0.164236 -0.043048 505547.000000 1 0 0
16.599476 -10.122457 2.605308 19.616176 -0.547598 1.437588 0.028914 -0.012498 322010.000000 1 0 0
15.960476 -7.038757 -5.458392 18.277717 -0.415354 1.874060 0.070615 -0.012206 211407.000000 1 0 0
17.849876 -4.267557 5.842308 19.260391 -0.234675 1.262608 0.095313 -0.026957 2312.980000 1 0 0
13.683576 -13.383757 8.071208 20.772809 -0.774322 1.171742 0.078202 -0.022758 172645.000000 1 0 0
15.328976 -14.066057 -1.421192 20.853087 -0.742461 1.639002 0.049249 -0.003892 236754.000000 1 0 0
18.799176 -6.208957 7.559708 21.192200 -0.318998 1.206040 0.162384 -0.038249 46033.700000 1 0 0
19.539076 3.684343 2.677108 20.062820 0.186374 1.436961 0.074025 -0.004597 233696.000000 1 0 0
15.737076 -10.033657 8.227208 20.396489 -0.567595 1.155606 0.095619 -0.045203 258156.000000 1 0 0
14.225576 -4.209957 10.673208 18.275889 -0.287730 0.947143 0.074676 -0.016876 -28838.800000 1 0 0
18.940476 -7.704057 1.949908 20.540113 -0.386313 1.475721 0.094313 -0.021501 119038.000000 1 0 0
19.307876 -6.170857 -1.450492 20.321847 -0.309343 1.642233 0.084279 -0.018008 151373.000000 1 0 0
14.731076 -13.436657 -6.312892 20.914133 -0.739477 1.877427 0.060564 -0.014106 564636.000000 1 0 0
13.923876 -9.548157 10.365408 19.811191 -0.601091 1.020183 0.053286 -0.017055 384539.000000 1 0 0
14.324176 2.417843 0.670108 14.542249 0.167218 1.524700 0.006273 -0.001602 -148528.000000 1 0 0
13.186376 2.525043 13.558908 19.081413 0.189198 0.780471 0.082849 -0.014016 230101.000000 1 0 0
18.254176 -3.407657 8.941208 20.610004 -0.184554 1.122059 0.130738 -0.034940 123040.000000 1 0 0
7.607776 -18.922657 4.984408 20.994988 -1.188528 1.331098 0.081263 -0.030093 312586.000000 1 0 0
13.242676 -2.486257 14.981208 20.149107 -0.185585 0.732482 0.097777 -0.014987 394709.000000 1 0 0
11.363076 -13.371357 -6.887792 18.850845 -0.866414 1.944841 0.021330 -0.012332 154385.000000 1 0 0
10.707176 -17.628457 4.555208 21.122406 -1.024968 1.353431 0.071756 -0.032632 576623.000000 1 0 0
18.259376 -0.053457 -4.800892 18.880048 -0.002928 1.827904 0.086911 -0.009649 169102.000000 1 0 0
4.760376 -13.782657 11.753508 18.728795 -1.238235 0.892377 0.020870 0.002288 294254.000000 1 0 0
9.676876 -3.059857 14.549008 17.739173 -0.306255 0.609101 0.068491 -0.013562 482493.000000 1 0 0
9.306676 -9.156057 13.764608 18.971347 -0.777240 0.758967 0.061214 -0.023319 334194.000000 1 0 0
20.998376 5.565843 -3.450692 21.995856 0.259102 1.728326 0.158189 -0.006264 550798.000000 1 0 0
14.895376 -13.661157 2.226608 20.333647 -0.742205 1.461073 0.046821 -0.001461 289498.000000 1 0 0
11.836876 -0.243157 15.085908 19.176949 -0.020539 0.665402 0.086007 -0.019534 14922.200000 1 0 0
19.576076 0.358843 7.662408 21.025318 0.018329 1.197768 0.152970 -0.029111 87349.800000 1 0 0
20.139876 1.143043 0.204608 20.173324 0.056694 1.560654 0.110080 -0.010760 343141.000000 1 0 0
17.946376 0.239943 3.031008 18.202115 0.013369 1.403497 0.055819 -0.005311 82294.400000 1 0 0
10.514576 -8.163757 16.531508 21.224843 -0.660198 0.677926 0.082871 -0.018095 193035.000000 1 0 0
18.946376 3.121543 5.580608 19.996309 0.163290 1.287958 0.073732 -0.006279 80302.400000 1 0 0
15.564476 2.625943 7.129208 17.319760 0.167140 1.146562 0.068666 -0.011515 39326.100000 1 0 0
11.650876 -16.039957 1.714608 19.898819 -0.942593 1.484523 0.050025 -0.012717 310063.000000 1 0 0
8.729476 -16.203357 6.924208 19.664617 -1.076635 1.210966 0.040801 -0.010162 437465.000000 1 0 0
6.203676 6.739843 7.091308 11.584374 0.826798 0.912027 0.001554 0.000967 -1107610.000000 1 0 0
18.542176 2.587143 -6.400592 19.785681 0.138632 1.900218 0.084718 -0.003878 164681.000000 1 0 0
14.389876 4.469443 -7.053592 16.637235 0.301150 2.008614 0.018353 -0.008373 295378.000000 1 0 0
-10.508724 -4.110757 -13.883192 17.890630 0.372876 2.459101 0.028158 -0.003173 -105988.000000 1 0 0
8.165976 -14.370957 -10.101892 19.371520 -1.054067 2.119383 0.022143 0.004628 78335.500000 1 0 0
2.161176 -15.811257 14.079108 21.281161 -1.434952 0.847878 0.020007 -0.011899 279183.000000 1 0 0
-9.365924 -7.586857 1.934408 12.207492 0.680838 1.411665 0.009902 0.002970 221029.000000 1 0 0
-13.708324 3.071543 -9.858892 17.162468 -0.220423 2.182722 0.004653 -0.001890 257858.000000 1 0 0
-13.136424 -5.314757 -13.040892 19.258171 0.384450 2.314695 0.057127 -0.001847 127963.000000 1 0 0
-18.107224 -1.231357 -8.361392 19.982510 0.067899 2.002518 0.072780 -0.032246 485811.000000 1 0 0
-12.103224 15.306943 4.078008 19.935413 -0.901751 1.364781 0.039799 -0.023485 470699.000000 1 0 0
-17.459424 5.994543 9.503508 20.762531 -0.330731 1.095363 0.050088 -0.027610 332617.000000 1 0 0
-13.792624 15.163043 -0.097892 20.497901 -0.832691 1.575572 0.058322 -0.032131 323887.000000 1 0 0
-15.690924 5.198043 -10.957992 19.831852 -0.319899 2.156211 0.011285 -0.004136 4255.050000 1 0 0
-18.278424 2.882543 -0.128592 18.504767 -0.156414 1.577746 0.065032 -0.007778 -175407.000000 1 0 0
-10.050324 15.400243 -0.207492 18.390747 -0.992590 1.582079 0.024953 -0.012378 101459.000000 1 0 0
-18.726124 12.056043 2.649908 22.428507 -0.572011 1.452371 0.154640 -0.038504 87496.300000 1 0 0
-9.136524 15.465943 -7.644492 19.522032 -1.037205 1.973147 0.073671 -0.050436 -265817.000000 1 0 0
-15.029524 -1.651657 -12.833192 19.831929 0.109455 2.274568 0.052691 -0.027048 91443.000000 1 0 0
-18.958624 5.126343 -4.785192 20.214027 -0.264081 1.809791 0.080738 -0.009201 -171665.000000 1 0 0
-16.997424 9.637143 -5.608692 20.328413 -0.515784 1.850326 0.046863 0.005986 -162832.000000 1 0 0
-18.982424 1.400343 3.086308 19.282601 -0.073637 1.410048 0.072667 -0.025744 434448.000000 1 0 0
-14.752524 11.291543 -7.810692 20.152986 -0.653283 1.968790 0.050267 -0.010907 117098.000000 1 0 0
-13.013424 5.134643 -13.440492 19.400016 -0.375812 2.336173 0.036358 -0.016714 100220.000000 1 0 0
-14.232624 9.333843 -6.503192 18.220311 -0.580446 1.935765 0.023462 -0.005352 207132.000000 1 0 0
-6.413524 11.233043 -15.359092 20.080246 -1.052010 2.441660 0.027597 -0.036045 141142.000000 1 0 0
-14.791824 13.939843 3.414008 20.610016 -0.755754 1.404381 0.029464 -0.027435 -113616.000000 1 0 0
-18.930024 8.308543 -4.670192 21.194065 -0.413592 1.792973 0.090004 -0.012403 145935.000000 1 0 0
-4.570824 16.277043 -11.499692 20.446943 -1.297033 2.168101 0.037018 -0.002614 139659.000000 1 0 0
-19.338424 -2.528457 -6.535392 20.568887 0.130010 1.894133 0.041903 -0.016935 -45839.700000 1 0 0
-12.502524 13.685243 -6.843292 19.759293 -0.830531 1.924456 0.068734 -0.007070 180427.000000 1 0 0
-19.521924 3.463643 4.546308 20.341369 -0.175596 1.345392 0.089493 -0.018067 26959.600000 1 0 0
-15.056624 12.062343 0.699308 19.305209 -0.675431 1.534565 0.024421 -0.020429 108405.000000 1 0 0
-17.272424 2.644943 -8.362392 19.371680 -0.151951 2.017152 0.021908 -0.015882 93878.900000 1 0 0
-16.723724 13.932243 -4.110892 22.151519 -0.694590 1.757459 0.048848 0.029575 325619.000000 1 0 0
-11.380424 15.682343 -8.693992 21.237595 -0.943040 1.992558 0.068503 -0.013980 69490.800000 1 0 0
-19.441424 1.824243 -6.594492 20.610293 -0.093559 1.896485 0.087088 -0.023855 255790.000000 1 0 0
-17.426924 10.221143 -0.374292 20.206671 -0.530445 1.589321 0.057773 -0.010682 60838.300000 1 0 0
-11.678724 6.842243 -14.691092 19.975913 -0.529967 2.397113 0.029970 -0.012086 365728.000000 1 0 0
-13.951424 12.012943 -4.939492 19.061785 -0.710877 1.832918 0.042344 -0.015097 226074.000000 1 0 0
-18.894824 7.251343 -0.264592 20.240217 -0.366441 1.583869 0.081697 -0.011108 -98443.500000 1 0 0
-14.726124 8.810843 -10.462492 20.098593 -0.539179 2.118301 0.019424 -0.001206 225216.000000 1 0 0
-18.854124 11.302143 4.781108 22.496121 -0.540016 1.356633 0.104504 -0.041708 5251.020000 1 0 0
-8.202124 11.958843 -13.764792 19.993956 -0.969622 2.330143 0.014870 -0.012797 446218.000000 1 0 0
-20.981224 -0.659657 -5.459792 21.690004 0.031430 1.825253 0.071528 -0.016038 155071.000000 1 0 0
-11.019324 13.324643 -3.623292 17.666349 -0.879814 1.777358 0.027058 0.001419 558586.000000 1 0 0
-18.456524 -5.026857 3.532608 19.452298 0.265912 1.388179 0.028070 -0.013440 -143118.000000 1 0 0
-11.470324 11.515343 -13.021992 20.826516 -0.787357 2.246261 0.050404 -0.017110 224346.000000 1 0 0
-14.910924 11.403043 -10.511592 21.514150 -0.652871 2.081269 0.044548 -0.013447 266502.000000 1 0 0
-12.778224 9.568143 -14.053892 21.268387 -0.642723 2.292664 0.066979 -0.021100 370740.000000 1 0 0
-18.422524 -4.893257 -3.044492 19.302909 0.259618 1.729180 0.021165 -0.011713 -374213.000000 1 0 0
-9.253224 12.523543 -11.594892 19.413985 -0.934459 2.210857 0.026442 -0.017082 39928.100000 1 0 0
-15.264024 7.711843 -8.337492 19.025686 -0.467823 2.024417 -0.003902 -0.000912 -236160.000000 1 0 0
-14.703024 8.891943 2.161708 17.318157 -0.543919 1.445647 0.027668 -0.006161 -142911.000000 1 0 0
-19.921424 6.100343 7.895708 22.280474 -0.297154 1.208548 0.095815 -0.033969 412173.000000 1 0 0
-19.014824 6.049443 3.886408 20.328883 -0.308018 1.378436 0.061097 -0.010300 165185.000000 1 0 0
-14.561524 12.678743 5.862108 20.178028 -0.716390 1.276027 0.040662 -0.027836 -19855.500000 1 0 0
17.913176 6.224143 5.450108 19.731333 0.334412 1.290942 0.054885 -0.022216 163940.000000 1 0 0
18.472576 8.250543 0.364708 20.234637 0.420054 1.552771 0.048939 0.002228 46738.300000 1 0 0
16.180876 5.214843 9.037108 19.253172 0.311774 1.082205 0.063343 0.001788 6059.410000 1 0 0
11.965576 13.213143 10.649808 20.764888 0.834906 1.032265 0.050680 -0.014065 121516.000000 1 0 0
15.757976 12.427743 3.985708 20.460901 0.667790 1.374747 0.072290 -0.020203 311179.000000 1 0 0
4.766276 10.137543 14.304808 18.169059 1.131304 0.664351 0.044956 -0.022671 171391.000000 1 0 0
12.368476 14.356243 -5.157392 19.638727 0.859641 1.836526 0.074303 0.007721 311221.000000 1 0 0
17.943576 9.325443 -2.798392 20.414867 0.479290 1.708305 0.037719 -0.015539 -60768.300000 1 0 0
14.425776 7.704343 9.529208 18.927908 0.490529 1.043212 0.049743 -0.012306 80979.900000 1 0 0
4.556776 19.148443 -1.816692 19.766827 1.337171 1.662832 0.034030 -0.025037 719582.000000 1 0 0
-4.513124 18.852343 3.175708 19.643428 -1.335825 1.408416 0.004576 -0.022075 166678.000000 1 0 0
8.031376 13.125243 12.200608 19.637460 1.021671 0.900405 0.076864 -0.006098 -10905.000000 1 0 0
0.361276 17.325343 -10.107292 20.061291 1.549947 2.098812 0.015548 0.011536 102927.000000 1 0 0
10.680776 9.177643 15.768708 21.141434 0.709850 0.728960 0.061001 -0.024211 36698.400000 1 0 0
-1.470424 12.305243 0.475608 12.401909 -1.451865 1.532437 -0.004203 0.004260 445825.000000 1 0 0
-4.752224 19.213143 -2.697092 19.975055 -1.328321 1.706233 0.026404 0.000721 -16428.100000 1 0 0
5.444876 18.373043 6.402508 20.204145 1.282690 1.248347 0.033844 -0.017957 153422.000000 1 0 0
11.317676 17.183943 -1.265092 20.614998 0.988386 1.632202 0.088187 -0.020698 413485.000000 1 0 0
18.441176 10.693543 2.777308 21.497494 0.525489 1.441242 0.054122 -0.021161 304676.000000 1 0 0
11.788976 16.583443 6.339908 21.311616 0.952800 1.268738 0.061625 -0.014231 99748.500000 1 0 0
18.019876 7.754943 -6.304292 20.605804 0.406398 1.881730 0.039075 0.005658 458687.000000 1 0 0
0.058176 15.447243 11.030208 18.981206 1.567030 0.950702 0.013501 -0.002642 477651.000000 1 0 0
1.354876 20.408843 -1.580492 20.514739 1.504507 1.647915 0.039022 -0.012819 224970.000000 1 0 0
14.216476 9.756643 -1.162992 17.281574 0.601466 1.638144 0.035315 -0.013393 13993.400000 1 0 0
10.083176 16.940243 1.772508 19.793536 1.033899 1.481126 0.057488 -0.031414 136677.000000 1 0 0
-0.143024 17.938543 -0.506192 17.946254 -1.562823 1.599006 0.009040 -0.003420 80298.900000 1 0 0
-0.487324 21.083243 1.358508 21.132585 -1.547686 1.506467 0.021694 -0.014954 254837.000000 1 0 0
6.255676 17.166743 -0.292592 18.273373 1.221345 1.586809 0.029649 -0.034240 -139616.000000 1 0 0
6.468176 18.447043 -2.941592 19.768249 1.233556 1.720155 0.043209 -0.028055 17669.200000 1 0 0
10.135176 9.781843 12.679108 18.951676 0.767660 0.837903 0.033549 -0.006771 99418.200000 1 0 0
12.898376 14.727243 8.171708 21.214066 0.851504 1.175369 0.075902 -0.023435 163520.000000 1 0 0
0.211176 17.581743 7.068008 18.950436 1.558786 1.188585 0.007589 0.000434 272838.000000 1 0 0
7.014876 18.160243 -7.777192 20.963960 1.202176 1.950860 0.051899 -0.009058 6277.170000 1 0 0
-0.878724 18.683343 9.842308 21.135527 -1.523798 1.086398 0.017236 0.007427 198234.000000 1 0 0
16.191776 6.917243 -7.923592 19.308163 0.403739 1.993662 0.062137 -0.004336 -222304.000000 1 0 0
-5.472424 19.473543 -6.702892 21.309507 -1.296843 1.890778 0.043023 -0.022376 320871.000000 1 0 0
4.788876 15.297343 10.309708 19.058649 1.267408 0.999234 0.032673 -0.007962 130208.000000 1 0 0
9.074576 14.656043 7.264808 18.706281 1.016401 1.171943 0.031130 -0.016723 55681.300000 1 0 0
-2.659924 19.033643 6.766808 20.375094 -1.431947 1.232255 0.006471 -0.003627 148740.000000 1 0 0
4.321076 17.653943 8.166608 19.925533 1.330750 1.148500 0.023631 -0.016036 185265.000000 1 0 0
14.600676 12.222043 -6.137192 20.005579 0.696950 1.882598 0.066967 -0.022680 182145.000000 1 0 0
12.033576 6.914343 15.299508 20.656477 0.521524 0.736738 0.091675 -0.025768 143180.000000 1 0 0
17.284876 9.046243 4.837008 20.099704 0.482162 1.327760 0.071028 -0.023239 163580.000000 1 0 0
5.389376 14.714643 12.718508 20.182332 1.219711 0.889011 0.036268 -0.013455 114146.000000 1 0 0
15.731276 10.642643 -3.534392 19.319182 0.594798 1.754780 0.055899 -0.034198 283811.000000 1 0 0
15.424976 13.615743 6.456008 21.563821 0.723179 1.266742 0.082911 -0.017494 221682.000000 1 0 0
12.550276 13.445543 -8.143192 20.114761 0.819823 1.987596 0.156714 -0.057114 504616.000000 1 0 0
-8.516824 15.532443 9.638908 20.166845 -1.069240 1.072468 0.037651 -0.027223 153928.000000 1 0 0
-4.255624 17.646743 -8.131992 19.890882 -1.334158 1.991968 0.022073 0.032513 84558.200000 1 0 0
2.415976 19.066643 -4.516392 19.742634 1.444756 1.801604 0.044130 -0.041332 205531.000000 1 0 0
7.005376 16.859943 8.618108 20.189224 1.176996 1.129771 0.038330 -0.002392 446472.000000 1 0 0
13.601776 15.360443 -1.713692 20.588547 0.846047 1.654128 0.124453 -0.026763 331514.000000 1 0 0
12.780076 16.622443 4.220308 21.388009 0.915343 1.372172 0.082988 -0.033545 357459.000000 1 0 0
2.213176 18.346643 0.680408 18.492172 1.450745 1.533994 0.018616 -0.026041 -47629.700000 1 0 0
-7.007924 17.941343 1.467108 19.317226 -1.198418 1.494775 -0.009040 0.019681 74622.100000 1 0 0
0.207076 19.982743 -5.412392 20.703789 1.560434 1.835290 0.057434 -0.002241 192540.000000 1 0 0
-8.148224 17.841143 -6.361392 20.619584 -1.142377 1.884425 0.073857 -0.026880 42784.800000 1 0 0
-7.446624 18.483443 -1.607692 19.991862 -1.187809 1.651301 0.043926 -0.009189 144855.000000 1 0 0
-14.549524 -9.630457 8.668208 19.482613 0.584701 1.109711 0.051361 -0.009573 411347.000000 1 0 0
-12.941324 -13.790857 7.675508 20.410268 0.817167 1.185255 0.033514 -0.003139 9587.810000 1 0 0
-3.706024 -15.578057 13.056108 20.660891 1.337238 0.886763 0.040439 -0.004868 -15948.700000 1 0 0
-1.662124 -15.037457 15.303408 21.519342 1.460711 0.779668 0.031355 -0.010231 486214.000000 1 0 0
-8.229524 -13.443557 12.905308 20.371580 1.021488 0.884734 0.047582 -0.021304 90806.000000 1 0 0
-9.988224 -10.538957 11.891008 18.767800 0.812221 0.884617 0.054045 -0.023265 21541.800000 1 0 0
-7.282624 -10.350757 13.057508 18.184425 0.957669 0.769785 0.030528 -0.016202 321421.000000 1 0 0
-15.109924 -12.440757 7.755908 21.053179 0.688817 1.193513 0.053211 0.002189 245089.000000 1 0 0
-4.640024 -12.720957 13.197408 18.908309 1.221038 0.798239 0.032342 -0.014522 305374.000000 1 0 0
3.308076 -11.997457 14.225808 18.901215 -1.301750 0.718734 0.006232 0.002354 490741.000000 1 0 0
6.410576 -13.562557 14.618808 20.946312 -1.129253 0.798310 0.023305 -0.000161 320571.000000 1 0 0
7.525276 -8.305657 16.378308 19.845974 -0.834653 0.600114 0.070729 -0.026281 469760.000000 1 0 0
-5.398224 13.185043 13.619208 19.709617 -1.182195 0.807934 0.023397 -0.014811 520442.000000 1 0 0
-13.689124 -1.495857 17.311708 22.120690 0.108842 0.671961 0.076453 -0.029010 379507.000000 1 0 0
-10.380924 10.917243 13.627808 20.314205 -0.810574 0.835440 0.020968 0.025799 236555.000000 1 0 0
-7.157524 -8.305057 17.141608 20.347945 0.859476 0.569029 0.042423 -0.024327 38655.700000 1 0 0
-4.938524 2.108343 18.368508 19.137299 -0.403494 0.284409 0.015303 -0.009089 562674.000000 1 0 0
-15.829124 -3.775357 13.491408 21.138415 0.234133 0.878585 0.096451 -0.036230 196792.000000 1 0 0
-14.406824 3.078843 12.579508 19.372142 -0.210540 0.864053 0.024439 -0.004590 294514.000000 1 0 0
-14.163124 10.878443 9.936008 20.436704 -0.654974 1.063078 -0.011768 0.010885 -103960.000000 1 0 0
-5.251524 11.081443 15.911208 20.088390 -1.128244 0.656620 0.053567 -0.010491 245502.000000 1 0 0
-13.381124 12.810243 7.650508 20.042133 -0.763605 1.179138 0.042148 -0.043505 5164.480000 1 0 0
-3.917724 -6.261657 18.610808 20.022964 1.011716 0.377814 0.018285 -0.017405 185004.000000 1 0 0
0.288776 -2.852857 17.442808 17.676926 -1.469917 0.162933 0.009265 -0.030928 149733.000000 1 0 0
-4.491524 6.606043 20.908808 22.382847 -0.973680 0.364943 0.049106 -0.018754 335264.000000 1 0 0
2.141176 -10.576157 16.366008 19.603213 -1.371043 0.582911 0.012469 -0.006367 340103.000000 1 0 0
-14.983324 -0.124857 13.688208 20.294892 0.008333 0.830556 0.031345 -0.013676 16494.000000 1 0 0
-13.897024 -6.099757 8.073108 17.190387 0.413606 1.081926 0.030239 -0.005241 -51976.100000 1 0 0
10.083176 1.842543 16.597908 19.507843 0.180740 0.553229 0.068569 -0.012860 419450.000000 1 0 0
-8.013424 12.260643 11.393408 18.556618 -0.991902 0.909702 0.035183 -0.027887 150006.000000 1 0 0
-1.839724 7.580243 19.923208 21.395768 -1.332700 0.373173 0.040763 -0.019567 487533.000000 1 0 0
1.105576 -14.042657 15.670108 21.070614 -1.492229 0.732216 0.001082 0.004056 553436.000000 1 0 0
-3.320524 -11.559057 17.550608 21.275843 1.291063 0.600757 0.040712 -0.029295 291003.000000 1 0 0
-2.451824 8.753843 16.810808 19.111370 -1.297708 0.495726 0.026288 -0.013832 462831.000000 1 0 0
-5.309524 -9.300257 20.331308 22.979293 1.052048 0.484804 0.094806 -0.035542 160605.000000 1 0 0
-6.512524 -2.723257 19.153008 20.412418 0.396060 0.353110 0.030039 -0.023305 -5319.860000 1 0 0
-10.839924 -8.331357 15.459808 20.637857 0.655287 0.724095 0.087995 -0.039283 150013.000000 1 0 0
-0.067324 6.628543 17.802508 18.996616 -1.560640 0.356451 0.014990 -0.009773 133988.000000 1 0 0
-6.202524 -10.995757 18.965008 22.782658 1.057205 0.587315 0.083510 -0.030379 548384.000000 1 0 0
0.198676 3.474443 18.827408 19.146345 1.513677 0.182780 0.016676 -0.010266 176491.000000 1 0 0
-18.837924 -0.120257 6.936508 20.074785 0.006384 1.217989 0.094871 -0.024846 87691.500000 1 0 0
-1.598724 -8.414357 17.515608 19.497534 1.383035 0.454798 0.019640 -0.016923 284434.000000 1 0 0
5.095476 3.102543 13.917708 15.142399 0.546925 0.404951 0.035569 -0.021172 -377521.000000 1 0 0
-14.596124 -7.866157 10.914008 19.850412 0.494297 0.988656 0.090100 0.012804 121621.000000 1 0 0
3.573876 8.401343 16.726708 19.056178 1.168593 0.499634 0.039883 -0.018192 -22784.100000 1 0 0
6.598076 4.274843 16.560108 18.331559 0.574892 0.443242 0.073390 -0.063844 369899.000000 1 0 0
6.208176 -9.064857 18.025708 21.110169 -0.970303 0.547387 0.069538 -0.006410 284645.000000 1 0 0
-4.425624 -0.438657 19.972508 20.461663 0.098795 0.219097 0.017798 -0.016264 710592.000000 1 0 0
-11.451424 2.332943 16.496108 20.216313 -0.200975 0.616374 0.055436 -0.029904 217755.000000 1 0 0
-16.744124 -4.380557 8.502408 19.283307 0.255883 1.114172 0.065712 -0.026795 208.498000 1 0 0
-13.260424 -8.649957 14.034508 21.157222 0.578000 0.845518 0.074235 -0.040214 48970.300000 1 0 0
-14.779824 6.274743 13.143608 20.750182 -0.401488 0.884830 0.037007 -0.014388 445398.000000 1 0 0
1.239876 9.147743 16.883108 19.242085 1.436078 0.500370 0.023673 -0.030609 -5607.980000 1 0 0
-3.831324 -10.494357 14.935508 18.651541 1.220747 0.642224 0.023765 -0.016465 625663.000000 1 0 0
-18.540624 -3.095057 6.842408 20.003817 0.165409 1.221693 0.121460 -0.020330 -218262.000000 1 0 0
-1.122424 -0.345557 21.442908 21.475045 0.298658 0.054715 0.020834 -0.009724 367502.000000 1 0 0
-1.887024 2.423343 20.347308 20.577813 -0.909187 0.149817 0.020273 -0.014717 95344.500000 1 0 0
-8.037924 2.130243 16.246408 18.250806 -0.259068 0.473068 0.005841 0.002778 664509.000000 1 0 0
2.809076 -1.887957 18.844208 19.145743 -0.591749 0.177713 0.033168 -0.016302 186891.000000 1 0 0
-11.973624 4.126143 14.651908 19.366754 -0.331858 0.712776 -0.014330 -0.004515 115930.000000 1 0 0
-13.589924 -5.270757 12.908008 19.470069 0.369982 0.846022 0.069007 -0.028083 -84391.400000 1 0 0
-17.354724 -1.367557 9.192408 19.686468 0.078638 1.084969 0.075705 -0.032722 208096.000000 1 0 0
-7.662324 7.470643 14.764008 18.234518 -0.772732 0.627201 0.011758 -0.015258 165538.000000 1 0 0
-9.463224 0.709543 14.180308 17.062743 -0.074839 0.589770 0.015833 -0.007428 215261.000000 1 0 0
8.042076 -0.941857 15.005908 17.051080 -0.116585 0.494816 0.064284 -0.022169 214890.000000 1 0 0
4.077976 6.403443 18.367708 19.874774 1.003727 0.391934 0.036771 -0.014045 100627.000000 1 0 0
1.567276 0.704243 20.052608 20.126087 0.422307 0.085477 0.031879 -0.008545 217626.000000 1 0 0
-6.843024 6.713143 17.984308 20.379612 -0.775817 0.489718 0.007972 -0.004822 413906.000000 1 0 0
7.669976 -3.158057 16.550208 18.512461 -0.390588 0.464594 0.055560 -0.023750 352663.000000 1 0 0
-16.584324 2.177243 9.762608 19.367207 -0.130537 1.042481 0.052855 -0.007296 354267.000000 1 0 0
3.366676 -6.162057 18.978408 20.235746 -1.070755 0.354369 0.043421 -0.034906 165467.000000 1 0 0
-3.496024 -3.782457 20.727508 21.357873 0.824731 0.243560 0.011903 -0.021782 537359.000000 1 0 0
-9.437324 5.842943 14.558308 18.307032 -0.554368 0.651409 0.001627 -0.004799 -498579.000000 1 0 0
7.104676 2.490543 19.475408 20.879912 0.337165 0.368873 0.108514 -0.040880 205664.000000 1 0 0
-7.719624 11.696443 14.532908 20.189225 -0.987425 0.767232 0.049495 -0.022639 129830.000000 1 0 0
-14.497224 4.975343 9.669408 18.122390 -0.330598 1.007990 0.024781 -0.009696 309320.000000 1 0 0
0.916176 -5.546457 20.253708 21.019402 -1.407092 0.270744 0.052791 -0.028001 223246.000000 1 0 0
-6.327524 -8.432057 13.550908 17.168700 0.927031 0.661161 0.023800 -0.008370 328877.000000 1 0 0
-12.822624 10.053843 6.343308 17.485337 -0.664952 1.199548 0.003863 -0.025011 135302.000000 1 0 0
-19.512024 2.283043 7.813308 21.141882 -0.116477 1.192255 0.065212 -0.036611 -15607.600000 1 0 0
-16.303924 9.113443 6.210308 19.683514 -0.509706 1.249804 0.049969 -0.019907 123574.000000 1 0 0
-13.016024 7.998043 14.149708 20.823060 -0.550996 0.823687 0.026711 -0.012719 223941.000000 1 0 0
-16.842624 8.427543 10.271808 21.452448 -0.463944 1.071489 0.069886 -0.037956 636043.000000 1 0 0
2.305276 10.945343 14.086608 17.987422 1.363213 0.671102 0.032329 -0.057890 423687.000000 1 0 0
1.403476 14.382343 13.312908 19.648284 1.473521 0.826355 0.030197 -0.022422 454045.000000 1 0 0
9.007176 5.224543 16.705408 19.684911 0.525615 0.557387 0.064610 -0.012759 120010.000000 1 0 0
-0.401124 13.248443 13.326508 18.795690 -1.540528 0.782690 0.020440 -0.003156 101533.000000 1 0 0
4.268276 12.877043 14.708508 20.009413 1.250729 0.745013 0.052381 -0.011385 117174.000000 1 0 0
-3.691824 -4.457657 -13.442092 14.635235 0.879096 2.735002 0.008277 -0.007886 134353.000000 1 0 0
5.119276 -11.702357 17.024308 21.283308 -1.158422 0.643684 -0.009449 0.010756 147093.000000 1 0 0
8.721876 -13.954457 7.110508 17.926441 -1.012179 1.162933 0.013384 -0.003791 238236.000000 1 0 0
-0.527524 15.395843 0.388108 15.409766 -1.536546 1.545608 0.002148 -0.006323 -438108.000000 1 0 0
-14.450224 7.758543 8.547908 18.495154 -0.492742 1.090355 0.031330 -0.006706 10217.600000 1 0 0
-15.991424 -10.006257 4.361308 19.361607 0.559122 1.343591 0.022021 -0.007982 151046.000000 1 0 0
9.116276 -10.714957 11.426508 18.124069 -0.865839 0.888650 0.014892 0.003573 217026.000000 1 0 0
-26.469674 5.951143 30.892446 41.114511 -0.221151 0.720652 0.067505 -0.031404 -1006540.000000 0 0 1
-25.264944 5.361443 30.638836 40.072444 -0.209107 0.700397 0.067007 -0.033799 -537810.000000 0 0 1
-24.312024 5.420643 31.734800 40.342973 -0.219373 0.665472 0.052712 -0.024128 659465.000000 0 0 1
-22.964424 4.797943 31.334368 39.143680 -0.205967 0.642674 0.048583 -0.025676 -361733.000000 0 0 1
-22.973724 3.372943 31.378774 39.035833 -0.145776 0.637064 0.031810 -0.027237 -425634.000000 0 0 1
-21.853224 2.867043 30.726736 37.814226 -0.130450 0.622247 0.049893 -0.027129 -417899.000000 0 0 1
-21.229924 1.611943 31.396171 37.934518 -0.075782 0.595904 0.041994 -0.026601 -485470.000000 0 0 1
-22.039524 0.481343 31.416465 38.379247 -0.021837 0.611863 0.038621 -0.019003 -257907.000000 0 0 1
-21.727224 -0.476557 32.418174 39.028674 0.021930 0.590568 0.034361 -0.012535 -180470.000000 0 0 1
-22.329724 -1.898357 32.249706 39.271668 0.084811 0.607294 0.054881 -0.027007 -341607.000000 0 0 1
-21.733724 -2.780657 31.303630 38.210000 0.127251 0.610690 0.080753 -0.036680 295932.000000 0 0 1
-22.251724 -4.099157 31.389223 38.694001 0.182175 0.624566 0.098629 -0.039317 334964.000000 0 0 1
-23.730924 -4.473557 31.001966 39.297473 0.186325 0.661772 0.082322 -0.023121 1107140.000000 0 0 1
-24.772924 -4.075157 31.894936 40.590537 0.163040 0.666852 0.068938 -0.020733 477237.000000 0 0 1
-24.772724 -4.720857 33.198515 41.690716 0.188309 0.649635 0.058482 -0.022209 -361273.000000 0 0 1
-25.909194 -4.217357 -33.225022 42.343530 0.161359 2.472934 0.067312 -0.013886 343841.000000 0 0 1
-25.797434 -4.602857 -31.830832 41.229793 0.176565 2.452833 0.076124 -0.025516 575731.000000 0 0 1
-26.892414 -4.133957 -31.027732 41.267563 0.152528 2.421686 0.087790 -0.020650 347374.000000 0 0 1
-26.991554 -4.852757 -29.637882 40.379417 0.177888 2.394967 0.080315 -0.022797 -250173.000000 0 0 1
-27.362764 -6.235457 -29.653622 40.828166 0.224055 2.383725 0.080271 -0.018704 530396.000000 0 0 1
-27.306674 -6.811157 -28.376032 39.965554 0.244444 2.360312 0.071016 -0.022194 -151260.000000 0 0 1
-27.456314 -8.348957 -28.363802 40.349220 0.295197 2.350344 0.068845 -0.021281 260303.000000 0 0 1
-28.821904 -8.752357 -28.408272 41.404539 0.294821 2.326931 0.080539 -0.020261 122009.000000 0 0 1
-29.070924 -10.115357 -28.106692 41.682433 0.334851 2.310820 0.070541 -0.009757 -1454260.000000 0 0 1
-30.479264 -10.304357 -27.711122 42.462591 0.326014 2.281808 0.103380 -0.016024 -1454690.000000 0 0 1
-30.627894 -11.308557 -26.742352 42.203137 0.353697 2.257069 0.118617 -0.021484 251832.000000 0 0 1
-31.939054 -11.252057 -26.180322 42.803286 0.338720 2.228932 0.122942 -0.028511 121461.000000 0 0 1
-31.986984 -11.839357 -24.816492 42.180515 0.354495 2.199801 0.127186 -0.017901 -85476.900000 0 0 1
-31.412084 -11.066357 -23.788392 40.927630 0.338719 2.191037 0.143193 -0.015742 154777.000000 0 0 1
-31.344924 -11.852757 -22.587992 40.412987 0.361520 2.163890 0.158693 -0.020983 -301378.000000 0 0 1
-30.647114 -10.970657 -21.528092 39.026397 0.343755 2.155112 0.169880 -0.026798 26844.700000 0 0 1
-30.407624 -11.512957 -20.254392 38.306817 0.361941 2.127913 0.185988 -0.027666 -150009.000000 0 0 1
-29.542164 -12.603457 -20.086092 37.881892 0.403247 2.129667 0.176220 -0.033719 -346844.000000 0 0 1
-29.331614 -12.894557 -18.565192 37.030792 0.414183 2.095949 0.157775 -0.043190 -98483.000000 0 0 1
-28.633734 -11.849657 -17.921192 35.797685 0.392376 2.095116 0.143792 -0.046199 92761.600000 0 0 1
-28.486774 -12.118057 -16.563292 35.109632 0.402203 2.062081 0.131956 -0.048744 -26551.900000 0 0 1
-27.966594 -10.867257 -15.829592 33.923497 0.370623 2.056269 0.129183 -0.041660 955896.000000 0 0 1
-26.567374 -10.500557 -15.909092 32.698414 0.376398 2.078922 0.111181 -0.042329 1426720.000000 0 0 1
-26.417104 -9.101157 -15.627392 32.014213 0.331782 2.080753 0.102660 -0.042697 37101.900000 0 0 1
-24.939524 -8.647357 -15.759192 30.742622 0.333761 2.109026 0.103052 -0.040687 670598.000000 0 0 1
-24.131224 -9.206157 -14.692092 29.714086 0.364461 2.087997 0.094555 -0.041982 -47422.900000 0 0 1
-22.817624 -8.739157 -14.691292 28.510540 0.365766 2.112146 0.125084 -0.058980 -652145.000000 0 0 1
-22.010924 -9.199957 -13.487292 27.404873 0.395903 2.085354 0.114536 -0.033655 -408318.000000 0 0 1
-21.140224 -10.249057 -13.836992 27.265631 0.451424 2.103064 0.093591 -0.030813 50355.300000 0 0 1
-20.094124 -10.359657 -12.912692 26.035244 0.476015 2.089748 0.126825 -0.033576 -4858.960000 0 0 1
-19.028924 -11.462857 -13.196992 25.839072 0.542176 2.106839 0.119703 -0.020638 319161.000000 0 0 1
-18.249724 -11.164857 -14.356692 25.764726 0.549038 2.161834 0.146522 -0.019704 306270.000000 0 0 1
-18.796924 -11.554957 -15.607492 27.026565 0.551177 2.186444 0.118884 -0.025138 -373955.000000 0 0 1
-18.289324 -10.712957 -16.766492 27.025582 0.529875 2.240040 0.139560 -0.035433 -138430.000000 0 0 1
-18.893524 -10.966657 -18.022692 28.320492 0.525917 2.260597 0.082270 -0.018182 506642.000000 0 0 1
-18.302624 -10.160857 -19.103992 28.340635 0.506795 2.310521 0.086670 -0.026967 -303188.000000 0 0 1
-18.961724 -10.261457 -20.455592 29.719955 0.496036 2.329909 0.093230 -0.018206 -195125.000000 0 0 1
-20.307824 -9.826457 -20.345492 30.379369 0.450665 2.304620 0.089699 -0.029968 675521.000000 0 0 1
-21.128324 -10.608557 -21.268892 31.801153 0.465327 2.303402 0.089282 -0.011242 243242.000000 0 0 1
-22.253224 -9.839057 -21.937392 32.760681 0.416299 2.304501 0.077264 -0.018843 -379682.000000 0 0 1
-21.741224 -8.897857 -22.819592 32.750366 0.388465 2.341686 0.068869 -0.026958 146670.000000 0 0 1
-22.733824 -8.436057 -23.704092 33.909848 0.355329 2.344840 0.074110 -0.028074 -62124.900000 0 0 1
-22.174624 -7.503357 -24.820592 34.118560 0.326282 2.385439 0.052106 -0.033043 117209.000000 0 0 1
-21.364324 -8.270157 -25.720562 34.443826 0.369338 2.413943 0.060135 -0.030038 434071.000000 0 0 1
-20.736424 -7.408457 -26.695332 34.605278 0.343135 2.451872 0.044597 -0.037387 -256335.000000 0 0 1
-19.718624 -8.255857 -27.478132 34.814237 0.396508 2.480430 0.064754 -0.039382 -526780.000000 0 0 1
-20.229524 -9.200257 -28.362892 36.032375 0.426833 2.476971 0.068036 -0.032498 131339.000000 0 0 1
-19.191324 -10.009457 -28.889812 36.098718 0.480748 2.498592 0.044715 -0.031627 -7215.190000 0 0 1
-19.665224 -11.057757 -29.880582 37.441210 0.512238 2.494876 0.064163 -0.027315 -238255.000000 0 0 1
-20.053424 -10.624957 -31.182392 38.566451 0.487228 2.512458 0.070227 -0.024770 279544.000000 0 0 1
-20.264824 -11.768357 -31.980512 39.647326 0.526129 2.509215 0.064892 -0.026700 71618.900000 0 0 1
-20.778424 -11.518657 -33.403762 40.990654 0.506182 2.523373 0.093808 -0.032850 281863.000000 0 0 1
-19.748324 -10.904257 33.205537 40.143578 0.504501 0.596745 0.085927 -0.035264 366839.000000 0 0 1
-20.230424 -10.691157 31.915366 39.270365 0.486163 0.622010 0.092000 -0.035361 78634.300000 0 0 1
-19.902224 -11.843957 30.881176 38.600841 0.536814 0.643479 0.104375 -0.036504 826000.000000 0 0 1
-18.555124 -11.697657 30.348726 37.445601 0.562493 0.625834 0.108904 -0.037952 1323470.000000 0 0 1
-18.244924 -12.677557 29.368086 36.825022 0.607264 0.647650 0.107896 -0.036605 -19027.600000 0 0 1
-18.210924 -14.158157 29.853446 37.726906 0.660841 0.657858 0.096054 -0.024663 -2396130.000000 0 0 1
-19.433024 -14.726757 29.847996 38.541182 0.648488 0.684960 0.097822 -0.027879 -1674720.000000 0 0 1
-19.528024 -16.041957 30.448226 39.569971 0.687704 0.692773 0.090064 -0.029673 -152780.000000 0 0 1
-19.715324 -16.006257 31.959898 40.820698 0.681936 0.671429 0.066104 -0.029829 -235252.000000 0 0 1
-18.524324 -15.673657 32.618847 40.654684 0.702233 0.639592 0.077634 -0.028086 -147896.000000 0 0 1
-18.844624 -15.389657 -33.443172 41.357069 0.684817 2.512641 0.073169 -0.024299 -149513.000000 0 0 1
-17.588724 -15.088657 -32.609942 40.005489 0.709039 2.523761 0.053701 -0.022599 -238408.000000 0 0 1
-17.122424 -13.838057 -33.069902 39.727669 0.679711 2.554248 0.051164 -0.019388 -138959.000000 0 0 1
-16.014124 -13.310157 -32.351032 38.473390 0.693449 2.569681 0.052769 -0.018677 291884.000000 0 0 1
-16.295124 -12.851557 -30.875392 37.201928 0.667797 2.549798 0.057721 -0.019614 -325123.000000 0 0 1
-16.621724 -13.923357 -30.027752 37.037920 0.697286 2.516194 0.051415 -0.023880 -221783.000000 0 0 1
-16.781724 -13.530657 -28.652402 35.856172 0.678554 2.496581 0.041410 -0.019109 -315438.000000 0 0 1
-17.024524 -14.808957 -27.768622 35.780386 0.715912 2.459230 0.047057 -0.017274 -210174.000000 0 0 1
-15.867924 -15.571457 -27.561402 35.410340 0.775969 2.462819 0.075066 -0.041186 -220391.000000 0 0 1
-15.256524 -16.203257 -28.711172 36.326829 0.815483 2.482188 0.076066 -0.044332 -180368.000000 0 0 1
-13.901524 -16.814957 -28.295822 35.730221 0.879964 2.484759 0.130649 -0.032205 -355407.000000 0 0 1
-12.832324 -15.943757 -28.031192 34.707631 0.893105 2.510931 0.110640 -0.035426 -253088.000000 0 0 1
-11.791224 -16.756457 -27.453472 34.256459 0.957603 2.500445 0.166061 -0.044997 478921.000000 0 0 1
-10.429624 -16.202857 -27.946812 33.946045 0.998869 2.537947 0.145034 -0.055374 7192.800000 0 0 1
-10.393724 -14.840657 -27.591782 33.008803 0.959832 2.560552 0.124920 -0.039544 -1004980.000000 0 0 1
-9.097624 -14.404257 -27.755912 32.567469 1.007470 2.591084 0.159120 -0.043346 -741451.000000 0 0 1
-8.897924 -12.884557 -27.650502 31.776330 0.966415 2.626324 0.121379 -0.044210 -1241.060000 0 0 1
-9.493424 -12.176657 -28.742562 32.627151 0.908593 2.648641 0.152921 -0.046903 237106.000000 0 0 1
-9.045224 -10.855857 -28.970102 32.232476 0.876130 2.687789 0.116485 -0.037910 -445492.000000 0 0 1
-7.827524 -10.736757 -29.866872 32.689113 0.940845 2.723006 0.112489 -0.026953 -370510.000000 0 0 1
-6.543924 -11.123357 -29.369522 32.079913 1.039021 2.727573 0.116760 -0.031373 1381720.000000 0 0 1
-5.393324 -10.771357 -30.149022 32.466500 1.106581 2.761471 0.117654 -0.032711 695877.000000 0 0 1
-5.186724 -9.280157 -30.439892 32.242991 1.061142 2.805583 0.106532 -0.031038 -1369980.000000 0 0 1
-3.977424 -8.937257 -31.075092 32.578456 1.152076 2.836616 0.128169 -0.044788 -52987.800000 0 0 1
-3.902524 -7.524857 -31.272372 32.400840 1.092366 2.876895 0.136102 -0.041730 162621.000000 0 0 1
-2.558424 -6.965057 -31.811712 32.665618 1.218773 2.912440 0.140628 -0.049995 157702.000000 0 0 1
-2.134024 -7.416457 -33.112842 34.000268 1.290623 2.912617 0.149872 -0.048053 -196543.000000 0 0 1
-0.958724 -6.731157 -33.467942 34.151585 1.429317 2.941168 0.191435 -0.049386 -61393.900000 0 0 1
-0.386024 -7.234657 32.562551 33.358792 1.517489 0.218927 0.180413 -0.050214 -93735.800000 0 0 1
-0.978824 -6.731657 31.376277 32.105203 1.426402 0.213498 0.189047 -0.050304 -1266.580000 0 0 1
-0.491724 -7.488157 30.299956 31.215407 1.505224 0.242781 0.150787 -0.047032 -73454.100000 0 0 1
-0.652624 -6.988657 28.823436 29.665767 1.477683 0.238870 0.138756 -0.036927 237207.000000 0 0 1
0.216676 -5.885057 28.533196 29.134587 -1.533995 0.203535 0.156182 -0.051358 345539.000000 0 0 1
0.033976 -5.334557 27.167926 27.686728 -1.564427 0.193892 0.138890 -0.041635 848721.000000 0 0 1
-1.227524 -4.352657 27.028396 27.404136 1.295918 0.165786 0.105700 -0.027480 1324660.000000 0 0 1
-2.406324 -5.136057 26.911046 27.502253 1.132652 0.207721 0.059260 -0.011769 237068.000000 0 0 1
-3.549424 -4.258557 26.879856 27.445590 0.875971 0.203392 0.046477 -0.015123 654728.000000 0 0 1
-4.919224 -4.862557 27.245886 28.110168 0.779605 0.248617 0.034269 -0.007660 59309.500000 0 0 1
-5.427624 -5.669457 26.225796 27.375066 0.807187 0.290790 0.030530 -0.009905 -235507.000000 0 0 1
-6.776424 -6.051357 26.399806 27.919324 0.728935 0.331440 0.023164 -0.009750 348039.000000 0 0 1
-7.086124 -7.533957 26.261326 28.224651 0.816020 0.375186 0.027713 -0.007862 345646.000000 0 0 1
-6.432324 -8.286057 27.311696 29.256833 0.910685 0.366701 0.014413 -0.001883 190893.000000 0 0 1
-6.403124 -9.704157 27.151306 29.535811 0.987540 0.404581 0.018552 -0.008219 119485.000000 0 0 1
-5.891524 -10.468557 28.430116 30.863770 1.058192 0.399775 0.014917 -0.004074 -48750.900000 0 0 1
-5.887224 -11.879257 28.290146 31.242736 1.110684 0.438251 0.035827 -0.005917 57120.300000 0 0 1
-5.432524 -12.418957 29.506056 32.470759 1.158438 0.430646 0.046695 -0.003143 -137487.000000 0 0 1
-5.450924 -13.964357 29.452156 33.047623 1.198640 0.470805 0.094954 -0.033949 1113770.000000 0 0 1
-6.808924 -14.490857 29.423616 33.497695 1.131536 0.498340 0.097874 -0.035129 1161580.000000 0 0 1
-6.821924 -15.920257 29.486296 34.197002 1.165960 0.531105 0.146260 -0.046171 30873.800000 0 0 1
-7.045124 -16.497957 30.901086 35.730848 1.167207 0.525986 0.144166 -0.038227 252494.000000 0 0 1
-8.416424 -16.512557 31.262354 36.343301 1.099420 0.535143 0.139721 -0.036880 150651.000000 0 0 1
-8.515424 -16.964057 32.602717 37.725706 1.105575 0.527230 0.170772 -0.049393 -902398.000000 0 0 1
-9.945524 -17.036157 33.089342 38.523352 1.042382 0.537595 0.169583 -0.047083 -442950.000000 0 0 1
-10.663124 -18.103157 32.457615 38.664238 1.038489 0.574482 0.180617 -0.045486 212751.000000 0 0 1
-11.581424 -17.749157 31.453206 37.927116 0.992662 0.592931 0.151614 -0.046450 -610039.000000 0 0 1
-12.285024 -18.999557 30.917316 38.311688 0.996818 0.631752 0.135600 -0.045247 -260326.000000 0 0 1
-13.123624 -19.511057 31.950779 39.670684 0.978680 0.634446 0.134215 -0.046703 92301.400000 0 0 1
-13.366524 -20.870057 31.835437 40.344991 1.001154 0.661486 0.131765 -0.042160 -294957.000000 0 0 1
-12.734624 -21.730457 32.950715 41.474487 1.040715 0.652643 0.148311 -0.041014 584102.000000 0 0 1
-11.329724 -21.910257 32.667317 40.933796 1.093565 0.646740 0.156320 -0.050365 624716.000000 0 0 1
-10.556924 -22.512557 33.628816 41.822974 1.132308 0.636678 0.176001 -0.063456 -116554.000000 0 0 1
-10.950724 -24.011957 -33.531542 42.671498 1.142920 2.474795 0.179032 -0.044875 -473928.000000 0 0 1
-10.542124 -24.829057 32.794144 42.462623 1.169275 0.688333 0.163955 -0.042830 -106444.000000 0 0 1
-10.575824 -26.171267 33.147897 43.538103 1.186760 0.705398 0.166160 -0.046047 -890045.000000 0 0 1
-10.062624 -27.095247 32.048184 43.156633 1.215203 0.733850 0.135458 -0.035820 469462.000000 0 0 1
-8.713824 -26.931607 31.628995 42.445678 1.257873 0.730015 0.168275 -0.048907 339008.000000 0 0 1
-7.732724 -27.423797 32.497441 43.219710 1.295961 0.719838 0.146242 -0.044604 -431255.000000 0 0 1
-6.269624 -26.980787 32.296235 42.547830 1.342475 0.708933 0.148839 -0.054609 139060.000000 0 0 1
-6.016924 -25.596467 32.536916 41.833401 1.339919 0.679680 0.159458 -0.065548 -860123.000000 0 0 1
-4.724724 -25.415567 32.062204 41.185665 1.386996 0.678556 0.233823 -0.053135 -646434.000000 0 0 1
-4.112324 -24.092757 32.526662 40.686065 1.401738 0.644410 0.243931 -0.065405 -215947.000000 0 0 1
-3.592624 -24.127457 -33.509882 41.448201 1.422980 2.512355 0.210880 -0.066094 37868.600000 0 0 1
-2.818224 -22.957257 -33.372512 40.604219 1.448648 2.535531 0.200443 -0.060952 -134458.000000 0 0 1
35.131990 -15.342357 2.308308 38.405376 -0.411744 1.510656 0.210141 -0.059413 -724779.000000 0 0 1
36.127960 -15.666557 3.185908 39.507221 -0.409167 1.490068 0.164185 -0.052045 -481768.000000 0 0 1
35.616350 -16.445657 4.224108 39.456648 -0.432578 1.463534 0.119516 -0.047850 -217096.000000 0 0 1
36.561180 -16.445657 5.402108 40.451975 -0.422698 1.436852 0.089327 -0.030570 -420702.000000 0 0 1
37.753060 -17.169057 5.286208 41.809258 -0.426816 1.444021 0.117860 -0.034244 -270763.000000 0 0 1
-37.338014 -17.002357 6.511108 41.540366 0.427305 1.413406 0.107758 -0.021340 -41411.800000 0 0 1
-36.054174 -17.832357 6.677208 40.773540 0.459317 1.406292 0.117866 -0.029011 11651.000000 0 0 1
-36.299214 -19.237457 6.656508 41.617566 0.487334 1.410162 0.093310 -0.024743 589914.000000 0 0 1
-35.137452 -19.872957 7.208008 41.006467 0.514724 1.394101 0.068137 -0.012100 664844.000000 0 0 1
-35.365433 -21.431357 7.361708 42.002520 0.544818 1.394618 0.077170 -0.014057 -259817.000000 0 0 1
-35.365411 -22.021157 6.100008 42.105270 0.556926 1.425410 0.098871 -0.021929 230857.000000 0 0 1
-35.525008 -23.420457 6.330808 43.018870 0.582862 1.423096 0.104118 -0.024649 -209199.000000 0 0 1
-34.811365 -24.332757 5.290308 42.800719 0.610047 1.446876 0.116192 -0.019766 -36171.600000 0 0 1
-35.451626 -24.383357 4.067008 43.219283 0.602486 1.476555 0.112071 -0.014718 -197868.000000 0 0 1
-34.668525 -25.108057 3.152408 42.921543 0.626805 1.497284 0.109724 -0.018116 980.202000 0 0 1
-35.057598 -24.941957 1.679408 43.057599 0.618374 1.531783 0.112630 -0.019214 -804967.000000 0 0 1
-36.313074 -25.414127 1.345008 44.343278 0.610633 1.540460 0.101211 -0.021890 -733079.000000 0 0 1
-36.894754 -24.879657 0.197008 44.500102 0.593297 1.566369 0.092733 -0.016346 181447.000000 0 0 1
-37.855434 -23.671557 0.423508 44.649254 0.558826 1.561311 0.100190 -0.011713 209427.000000 0 0 1
36.564060 -23.926257 0.056508 43.696676 -0.579438 1.569503 0.086276 -0.018247 401256.000000 0 0 1
35.857660 -22.702657 0.314008 42.441501 -0.564426 1.563398 0.099997 -0.026823 -720210.000000 0 0 1
34.358220 -22.827857 0.226808 41.251058 -0.586437 1.565298 0.075436 -0.022289 -646967.000000 0 0 1
33.731740 -22.814057 -1.058692 40.736130 -0.594668 1.596788 0.086327 -0.031794 58164.400000 0 0 1
32.325540 -22.776157 -0.967292 39.555398 -0.613798 1.595253 0.080811 -0.022689 30411.100000 0 0 1
31.762920 -22.594557 -2.379692 39.052017 -0.618303 1.631771 0.083537 -0.018507 -143069.000000 0 0 1
32.177050 -21.413857 -3.025392 38.769431 -0.587195 1.648911 0.126043 -0.031587 115917.000000 0 0 1
31.788610 -21.269957 -4.399292 38.500397 -0.589690 1.685313 0.138696 -0.044171 61874.200000 0 0 1
31.974500 -19.869457 -4.839892 37.955086 -0.556018 1.698661 0.154706 -0.047188 -58501.500000 0 0 1
31.174500 -19.067257 -4.029992 36.764801 -0.548927 1.680633 0.183297 -0.045419 -191694.000000 0 0 1
31.163290 -17.630357 -4.250492 36.056162 -0.514848 1.688956 0.182301 -0.043963 -54232.700000 0 0 1
30.199840 -16.968157 -3.223792 34.789963 -0.511905 1.663594 0.179134 -0.036774 -28642.500000 0 0 1
30.549140 -16.880157 -1.814492 34.949707 -0.504805 1.622737 0.178106 -0.037323 -71255.400000 0 0 1
31.095590 -17.983557 -1.080092 35.937594 -0.524334 1.600856 0.158659 -0.035736 -73146.600000 0 0 1
30.115940 -19.173657 -0.933692 35.713733 -0.566941 1.596943 0.142752 -0.028636 14633.700000 0 0 1
29.017240 -18.782757 -0.132092 34.566018 -0.574472 1.574618 0.121229 -0.012519 63296.200000 0 0 1
28.256940 -19.963657 0.125608 34.597948 -0.615078 1.567166 0.107099 -0.011360 151631.000000 0 0 1
27.206540 -19.734057 1.260508 33.633580 -0.627533 1.533310 0.113884 -0.010936 162380.000000 0 0 1
26.259540 -20.764257 1.398408 33.506318 -0.669064 1.529049 0.093548 -0.008841 223752.000000 0 0 1
25.362440 -20.644957 2.491708 32.797503 -0.683218 1.494751 0.081434 0.001019 895596.000000 0 0 1
23.894740 -20.231357 2.104508 31.379856 -0.702567 1.503680 0.051085 -0.002694 502622.000000 0 0 1
23.569940 -18.860657 1.864508 30.244716 -0.674863 1.509110 0.105135 -0.023555 251219.000000 0 0 1
23.692540 -18.013157 2.999708 29.913350 -0.650053 1.470348 0.129980 -0.031877 -459640.000000 0 0 1
23.400340 -16.559557 2.664508 28.790527 -0.615850 1.478116 0.126034 -0.015660 580203.000000 0 0 1
22.077640 -16.431257 2.118708 27.602488 -0.639810 1.493963 0.101532 -0.013895 537035.000000 0 0 1
21.894940 -15.095357 1.666208 26.646472 -0.603607 1.508225 0.107947 -0.026444 102933.000000 0 0 1
20.448640 -14.769757 1.230708 25.254846 -0.625527 1.522045 0.056098 -0.009697 592187.000000 0 0 1
19.525140 -14.529757 2.363208 24.452601 -0.639751 1.474001 0.060962 -0.015947 1065130.000000 0 1 0
18.633940 -13.458957 2.030708 23.075767 -0.625524 1.482681 0.082154 -0.024445 -216574.000000 0 1 0
19.130540 -12.028657 2.285108 22.713165 -0.561304 1.470019 0.086881 -0.023111 -521698.000000 0 1 0
19.925940 -11.426857 1.279808 23.005522 -0.520681 1.515137 0.085030 -0.026118 296597.000000 0 1 0
20.337140 -10.172957 1.765108 22.807979 -0.463820 1.493329 0.106378 -0.025115 -481730.000000 0 1 0
21.251040 -9.419557 0.800908 23.258895 -0.417228 1.536355 0.114167 -0.022454 -142134.000000 0 1 0
20.605040 -9.185657 -0.473092 22.564746 -0.419353 1.591764 0.120644 -0.017596 454056.000000 0 1 0
21.565140 -8.792557 -1.390692 23.330202 -0.387144 1.630441 0.111658 -0.009678 -989584.000000 0 1 0
21.061940 -8.241157 -2.768592 22.785677 -0.372968 1.692603 0.135493 -0.009026 -205199.000000 0 1 0
22.015340 -7.709957 -3.674192 23.613943 -0.336860 1.727025 0.144593 -0.011576 355410.000000 0 1 0
22.992740 -8.516957 -4.299992 24.893666 -0.354749 1.744401 0.135154 -0.011178 -429505.000000 0 1 0
22.504640 -9.634257 -5.305792 25.048536 -0.404494 1.784234 0.113944 -0.013171 -318845.000000 0 0 1
21.891540 -9.174957 -6.506092 24.611960 -0.396871 1.838323 0.117437 -0.021651 1049470.000000 0 1 0
20.493240 -8.860557 -6.381692 23.220860 -0.408092 1.849205 0.118803 -0.009332 507313.000000 0 1 0
19.678040 -8.938257 -7.673592 22.934727 -0.426362 1.911960 0.110531 -0.006872 -306217.000000 0 1 0
19.551240 -10.253757 -8.194692 23.548747 -0.483020 1.926221 0.101258 -0.009049 1024750.000000 0 1 0
20.660540 -10.627057 -9.049792 24.933732 -0.475073 1.942232 0.103222 -0.010636 491965.000000 0 1 0
20.623040 -12.088557 -9.568392 25.748730 -0.530186 1.951535 0.087125 -0.018033 145606.000000 0 0 1
19.573340 -12.223657 -10.525692 25.363825 -0.558244 1.998726 0.109065 -0.020466 365449.000000 0 0 1
19.549640 -13.494357 -11.065692 26.205641 -0.604160 2.006738 0.113361 -0.017724 -76070.800000 0 0 1
18.448240 -13.738457 -12.099192 25.989867 -0.640102 2.055035 0.117256 -0.019816 18463.100000 0 0 1
18.524040 -15.071057 -12.475192 26.942666 -0.682975 2.052204 0.119547 -0.026998 601110.000000 0 0 1
17.382940 -15.383857 -13.272792 26.739422 -0.724464 2.090215 0.112219 -0.024104 10468.700000 0 0 1
17.329040 -16.842157 -13.649292 27.753505 -0.771151 2.084957 0.100132 -0.029989 85013.000000 0 0 1
16.536640 -17.593457 -12.686992 27.275446 -0.816353 2.054593 0.093292 -0.023467 566795.000000 0 0 1
16.633540 -18.992157 -12.896992 28.349763 -0.851507 2.043083 0.098093 -0.028831 -482859.000000 0 0 1
15.654540 -19.831257 -12.038292 27.986851 -0.902560 2.015445 0.087262 -0.023401 44775.900000 0 0 1
14.345140 -19.510457 -12.487592 27.246668 -0.936800 2.046896 0.071705 -0.021481 -186906.000000 0 0 1
13.420540 -20.101857 -11.592492 26.806369 -0.982129 2.018008 0.057387 -0.009280 -475453.000000 0 0 1
11.984640 -20.090557 -12.083192 26.329937 -1.032931 2.047569 0.033465 -0.015936 -318183.000000 0 0 1
11.066440 -20.705957 -11.206592 26.015197 -1.079965 2.016143 0.035390 -0.021852 -197080.000000 0 0 1
9.726040 -20.687957 -11.633492 25.650060 -1.131329 2.041537 0.014804 -0.017445 -50101.900000 0 0 1
8.797240 -21.337457 -10.592792 25.394601 -1.179739 2.001079 0.004979 -0.006583 -394362.000000 0 0 1
8.921740 -22.717457 -10.472992 26.558687 -1.196576 1.976139 0.027307 -0.006712 125939.000000 0 0 1
8.169840 -23.233857 -9.379792 26.354106 -1.232666 1.934688 0.030463 -0.020584 100177.000000 0 0 1
8.390440 -24.714357 -9.457092 27.760323 -1.243509 1.918425 0.041444 -0.007005 404568.000000 0 0 1
9.748040 -25.091097 -9.314692 28.484222 -1.200238 1.903937 0.024616 0.004078 -234818.000000 0 0 1
9.954040 -26.387627 -9.752592 29.841294 -1.210077 1.903728 0.029405 -0.000160 -148148.000000 0 0 1
11.348740 -26.924607 -9.444392 30.707082 -1.171893 1.883428 0.012952 0.010498 -193531.000000 0 0 1
11.583840 -26.966257 -8.037592 30.429710 -1.165063 1.838105 0.021824 0.004165 177593.000000 0 0 1
12.909740 -27.373187 -7.711492 31.231712 -1.130109 1.820289 0.050101 0.009986 167613.000000 0 0 1
13.095640 -27.426337 -6.175992 31.013588 -1.125323 1.771275 0.059919 -0.006125 -12807.200000 0 0 1
12.721340 -28.632187 -5.508392 31.811586 -1.152691 1.744830 0.063037 -0.004192 -92800.400000 0 0 1
11.354240 -28.717587 -5.183392 31.312715 -1.194283 1.737098 0.061573 -0.008537 -210026.000000 0 0 1
11.094440 -30.057367 -4.485292 32.351967 -1.217200 1.709885 0.073906 -0.017976 -107737.000000 0 0 1
11.270940 -31.257087 -5.180992 33.628593 -1.224720 1.725478 0.081275 -0.015579 -145425.000000 0 0 1
10.268140 -31.563717 -6.121792 33.751730 -1.256280 1.753183 0.084190 -0.014967 149600.000000 0 0 1
10.467240 -33.041287 -6.564292 35.275766 -1.264005 1.757972 0.084655 -0.012941 92011.400000 0 0 1
10.333940 33.699459 -5.547792 35.682234 1.273250 1.726907 0.079432 -0.012860 -27731.500000 0 0 1
10.486140 32.357296 -5.962592 34.532683 1.257403 1.744331 0.085653 -0.009056 101747.000000 0 0 1
10.342040 31.438299 -4.769092 33.437533 1.252984 1.713911 0.101342 -0.010746 167867.000000 0 0 1
8.999340 31.125659 -4.474692 32.708066 1.289342 1.708034 0.104290 -0.018319 -469352.000000 0 0 1
8.783340 30.096969 -3.464192 31.543228 1.286847 1.680842 0.076371 -0.016604 1132420.000000 0 0 1
7.292040 29.580269 -3.573492 30.674680 1.329098 1.687558 0.068264 -0.016577 1232810.000000 0 0 1
6.998540 28.811949 -4.759592 30.029347 1.332507 1.729966 0.059334 -0.022643 151824.000000 0 0 1
6.569340 29.678929 -5.857692 30.956543 1.352962 1.761167 0.075924 -0.026733 -104838.000000 0 0 1
6.628040 28.895229 -7.164892 30.499194 1.345315 1.807933 0.101616 -0.034541 104953.000000 0 0 1
5.618840 27.923229 -7.382192 29.424052 1.372224 1.824396 0.120424 -0.044295 41544.200000 0 0 1
6.010540 26.613339 -6.972292 28.160420 1.348676 1.820990 0.088950 -0.036712 -171534.000000 0 0 1
4.994040 25.533059 -7.386192 27.045024 1.377644 1.847418 0.094693 -0.039969 1280910.000000 0 0 1
3.632840 25.768649 -6.914992 26.926528 1.430740 1.830516 0.097348 -0.037733 1470310.000000 0 0 1
2.661140 26.287339 -7.837292 27.559553 1.469907 1.859152 0.097351 -0.034729 748601.000000 0 0 1
2.126340 25.373519 -8.977792 26.998843 1.487190 1.909776 0.102353 -0.035983 -89268.900000 0 0 1
3.114240 25.000379 -9.944992 27.085426 1.446867 1.946762 0.089607 -0.038791 227106.000000 0 0 1
2.649240 24.249009 -11.078292 26.791070 1.461976 1.997099 0.109478 -0.034059 -641523.000000 0 0 1
2.247440 22.771769 -10.809892 25.307276 1.472421 2.012130 0.110501 -0.034185 209167.000000 0 0 1
1.027140 22.545649 -10.125392 24.736306 1.525270 1.992519 0.136003 -0.033620 24107.900000 0 1 0
0.783240 21.180349 -9.880992 23.384923 1.533834 2.007039 0.082702 -0.029176 -117732.000000 0 1 0
-0.554060 20.840549 -9.198692 22.787088 -1.544217 1.986332 0.095971 -0.017764 807600.000000 0 1 0
-1.747660 20.712249 -9.997192 23.065026 -1.486618 2.019097 0.108277 -0.024799 489675.000000 0 1 0
-2.844560 20.411849 -9.149092 22.548636 -1.432330 1.988595 0.096396 -0.017299 345207.000000 0 1 0
-4.092760 20.111549 -10.052092 22.853219 -1.370035 2.026233 0.105186 -0.020831 -109705.000000 0 1 0
-5.109860 19.531149 -9.284292 22.221038 -1.314906 2.001836 0.082787 -0.028255 -409140.000000 0 1 0
-6.112860 19.069349 -10.178192 22.463364 -1.260586 2.041038 0.081000 -0.024659 13823.700000 0 1 0
-7.038460 18.022249 -9.431892 21.524450 -1.198469 2.024385 0.073012 -0.031770 660344.000000 0 1 0
-8.125560 18.519449 -8.604392 21.977949 -1.157330 1.973059 0.077617 -0.024191 299159.000000 0 1 0
-9.297360 18.329349 -9.376192 22.590239 -1.101374 1.998800 0.071226 -0.033936 -461513.000000 0 1 0
-10.483160 18.686549 -8.441892 23.029314 -1.059547 1.946118 0.086807 -0.040969 -177236.000000 0 1 0
-10.669760 17.663049 -7.483992 21.950790 -1.027388 1.918717 0.081101 -0.033460 -803098.000000 0 1 0
-11.449360 18.088949 -6.462392 22.362031 -1.006502 1.863967 0.087304 -0.025622 -624839.000000 0 1 0
-12.002260 16.913749 -5.563192 21.472732 -0.953646 1.832868 0.068554 -0.027346 125624.000000 0 1 0
-12.883460 17.387449 -4.558992 22.115409 -0.933104 1.778431 0.068945 -0.021117 68054.700000 0 1 0
-13.427960 16.256949 -3.850392 21.434178 -0.880412 1.751415 0.067756 -0.017267 727751.000000 0 1 0
-14.670460 16.694649 -2.936792 22.417815 -0.849845 1.702177 0.056249 -0.013472 -258252.000000 0 1 0
-15.787360 16.642649 -3.736292 23.241738 -0.811765 1.732255 0.102265 -0.029944 -1511010.000000 0 1 0
-16.828460 17.152549 -2.965892 24.211640 -0.794935 1.693603 0.108927 -0.024226 -1277790.000000 0 1 0
-18.151660 17.270049 -3.683792 25.324053 -0.760514 1.716780 0.121646 -0.038297 -795440.000000 0 0 1
-18.255260 18.233249 -4.735292 26.232210 -0.784795 1.752306 0.108280 -0.036912 -691749.000000 0 0 1
-19.546860 18.526149 -5.142892 27.418010 -0.758595 1.759488 0.100671 -0.040018 -561964.000000 0 0 1
-19.539260 19.498249 -6.347392 28.324084 -0.784348 1.796815 0.105432 -0.021963 -44367.200000 0 0 1
-19.102260 20.779049 -6.045792 28.865495 -0.827418 1.781806 0.107003 -0.033822 224460.000000 0 0 1
-19.514060 21.625749 -7.136692 29.990064 -0.836683 1.811070 0.099564 -0.014696 -102629.000000 0 0 1
-19.257260 23.103659 -6.873992 30.852437 -0.875950 1.795484 0.102995 -0.023777 1238560.000000 0 0 1
-17.851260 23.343939 -6.598092 30.118794 -0.917949 1.791656 0.099466 -0.028430 1292180.000000 0 0 1
-17.775760 24.005049 -5.393392 30.353067 -0.933402 1.749433 0.109623 -0.037868 -535326.000000 0 0 1
-16.386960 24.498259 -5.015792 29.897413 -0.981247 1.739360 0.088065 -0.036983 -1142210.000000 0 0 1
-16.337860 25.316949 -3.896192 30.381802 -0.997709 1.699391 0.086250 -0.037827 626443.000000 0 0 1
-15.034860 25.804639 -3.545792 30.074890 -1.043238 1.688970 0.104835 -0.042907 759162.000000 0 0 1
-14.485760 26.937329 -4.496892 30.914057 -1.077401 1.716779 0.115538 -0.037473 -544968.000000 0 0 1
-15.328760 28.030519 -4.520692 32.266353 -1.070367 1.711364 0.137398 -0.038698 -242270.000000 0 0 1
-14.979260 28.993299 -5.483792 33.091714 -1.093921 1.737279 0.114543 -0.042363 28439.800000 0 0 1
-15.707160 30.322419 -5.122992 34.531275 -1.092849 1.719704 0.110846 -0.034200 352187.000000 0 0 1
-17.103260 30.254179 -5.334892 35.161028 -1.056268 1.723112 0.144839 -0.034289 -20291.300000 0 0 1
-17.797860 31.322289 -4.715692 36.333006 -1.054075 1.700954 0.144842 -0.028673 257584.000000 0 0 1
13.369376 -8.256157 18.415216 24.207943 -0.553219 0.706391 0.126721 -0.036634 -78917.200000 0 1 0
13.985376 -9.443957 18.808716 25.269485 -0.593938 0.731272 0.133243 -0.035233 -147799.000000 0 0 1
14.008076 -10.464957 17.815816 24.962869 -0.641621 0.776040 0.133674 -0.039081 -343874.000000 0 1 0
14.562376 -11.716057 18.454316 26.265768 -0.677505 0.791752 0.168543 -0.049434 72011.600000 0 0 1
15.935976 -11.441557 18.769816 27.150885 -0.622685 0.807489 0.158898 -0.040530 1054320.000000 0 0 1
16.510076 -12.483357 19.638316 28.532092 -0.647397 0.811669 0.152902 -0.045978 219536.000000 0 0 1
16.965776 -13.821957 18.958116 28.953311 -0.683638 0.856902 0.144183 -0.043932 -12708.400000 0 0 1
15.881076 -14.439457 18.267416 28.185191 -0.737888 0.865682 0.156546 -0.054701 664190.000000 0 0 1
16.351876 -15.617157 17.707316 28.719827 -0.762420 0.906438 0.161372 -0.055370 -323138.000000 0 0 1
15.805676 -15.927557 16.321816 27.747219 -0.789239 0.941925 0.147420 -0.057637 -314565.000000 0 0 1
14.418576 -16.132457 16.161316 27.006289 -0.841438 0.929259 0.181577 -0.059176 68841.000000 0 0 1
14.016576 -15.933857 14.818516 25.883211 -0.849326 0.961227 0.207259 -0.061382 -212050.000000 0 0 1
13.423976 -17.266857 14.272416 26.116074 -0.909963 0.992618 0.138965 -0.040655 -108710.000000 0 0 1
14.383376 -18.267357 13.978416 27.128840 -0.903797 1.029485 0.142150 -0.044664 345722.000000 0 0 1
13.748076 -19.424457 13.426316 27.323709 -0.954874 1.057123 0.117768 -0.040018 331699.000000 0 0 1
14.814376 -20.392457 12.830316 28.283123 -0.942530 1.099952 0.122987 -0.034249 42537.900000 0 0 1
15.724376 -20.840957 13.794416 29.527739 -0.924425 1.084711 0.115745 -0.031112 -241754.000000 0 0 1
16.105076 -22.144657 13.454316 30.508653 -0.942004 1.114084 0.091136 -0.021622 80861.400000 0 0 1
17.111776 -22.836957 14.438716 31.981495 -0.927742 1.102383 0.098512 -0.026294 1540060.000000 0 0 1
18.475176 -22.368257 14.248616 32.321728 -0.880428 1.114265 0.069113 -0.024768 981013.000000 0 0 1
19.294776 -22.922857 15.265816 33.627234 -0.871125 1.099578 0.088617 -0.033096 -465594.000000 0 0 1
20.616576 -22.216157 15.494816 34.039538 -0.822726 1.098199 0.056106 -0.026008 -9072.670000 0 0 1
21.539876 -22.582357 14.460316 34.395201 -0.809021 1.136892 0.057334 -0.025448 226248.000000 0 0 1
22.876376 -22.190057 14.723616 35.107151 -0.770170 1.138022 0.057994 -0.025801 -250373.000000 0 0 1
23.977076 -22.874557 13.983116 35.967667 -0.761870 1.171501 0.053743 -0.031674 -708690.000000 0 0 1
24.316076 -24.023457 14.704216 37.210375 -0.779345 1.164549 0.048918 -0.030531 446346.000000 0 0 1
25.359776 -24.702957 13.976916 38.061903 -0.772279 1.194783 0.055721 -0.037037 630824.000000 0 0 1
25.973776 -25.904467 14.751416 39.538370 -0.784062 1.188458 0.057685 -0.034843 -59081.800000 0 0 1
26.544576 -25.633337 16.044416 40.238113 -0.767936 1.160657 0.075021 -0.031664 301125.000000 0 0 1
27.053476 -26.834147 16.608616 41.566911 -0.781328 1.159756 0.110638 -0.025422 83680.600000 0 0 1
27.510876 -26.726727 18.085716 42.405888 -0.770942 1.130187 0.088822 -0.015538 -226701.000000 0 0 1
26.461776 -26.351437 18.913716 41.861109 -0.783309 1.101991 0.090542 -0.013057 -73554.000000 0 0 1
26.959276 -26.074837 20.216516 42.607596 -0.768723 1.076421 0.092803 -0.014111 492242.000000 0 0 1
25.754576 -25.559747 21.059216 41.953420 -0.781601 1.044925 0.076983 -0.019351 507517.000000 0 0 1
25.074676 -26.665667 21.602116 42.502336 -0.816138 1.037636 0.086210 -0.015211 -418628.000000 0 0 1
24.005676 -26.388467 22.451586 42.150888 -0.832646 1.009070 0.092271 -0.013866 -161288.000000 0 0 1
23.135176 -27.631587 22.778386 42.633271 -0.873738 1.007133 0.101325 -0.017905 -79828.700000 0 0 1
23.914576 -28.634027 23.428886 44.053685 -0.874969 1.010041 0.103350 -0.018286 632713.000000 0 0 1
23.618876 -29.864687 22.789806 44.374836 -0.901652 1.031450 0.116205 -0.028467 -700731.000000 0 0 1
24.620076 -30.941897 23.118066 45.803866 -0.898691 1.041740 0.099071 -0.013567 -544277.000000 0 0 1
24.564276 -31.382807 24.448826 46.754992 -0.906675 1.020531 0.093066 -0.013850 334811.000000 0 0 1
25.821076 -31.733247 24.994736 47.942296 -0.887762 1.022364 0.093078 -0.013779 -340765.000000 0 0 1
25.679676 -32.090447 26.520616 48.914064 -0.895916 0.997757 0.095337 -0.023465 309438.000000 0 0 1
24.999676 -33.308487 26.836276 49.544170 -0.926943 0.998381 0.093661 -0.012089 376088.000000 0 0 1
23.615976 -33.383687 26.556706 48.759035 -0.955114 0.994822 0.090029 -0.014123 -307560.000000 0 0 1
22.893776 33.015919 27.077956 48.449887 0.964503 0.977755 0.122331 -0.032813 -244648.000000 0 0 1
22.502276 33.207194 28.403956 49.151346 0.975240 0.954658 0.094659 -0.010263 225743.000000 0 0 1
21.748076 32.123985 28.944416 48.401533 0.975671 0.929785 0.100665 -0.021758 202613.000000 0 0 1
21.463676 32.202098 30.465626 49.252602 0.982888 0.903889 0.086402 -0.023192 895316.000000 0 0 1
22.656576 32.084290 31.283333 50.213235 0.955949 0.898212 0.073042 -0.002745 833101.000000 0 0 1
22.462776 32.486973 32.580679 51.200394 0.965839 0.881057 0.064978 -0.006174 -437560.000000 0 0 1
23.720576 32.149219 33.350076 52.042920 0.935131 0.875232 0.035796 0.011651 -360896.000000 0 0 1
23.942176 30.834879 -33.649452 51.539336 0.910572 2.282188 0.043776 0.013297 681996.000000 0 0 1
25.199076 30.693769 -32.950602 51.602742 0.883391 2.263401 0.014453 0.025974 805319.000000 0 0 1
25.410876 29.191799 -32.617272 50.613833 0.854532 2.271079 0.034694 0.009521 -77858.500000 0 0 1
25.845076 28.433489 33.635976 51.066722 0.833050 0.851750 0.042543 0.004191 404066.000000 0 0 1
25.189676 27.166309 33.563316 49.990242 0.823134 0.834704 0.069995 -0.010722 -18968.400000 0 0 1
25.456076 26.504899 32.190599 48.854438 0.805580 0.851430 0.128542 -0.014868 -586038.000000 0 0 1
26.743776 25.985279 32.090677 49.196299 0.771014 0.860183 0.120237 -0.025836 -294755.000000 0 0 1
26.850576 25.171879 30.951626 48.089293 0.753141 0.871567 0.156792 -0.041943 -548330.000000 0 0 1
28.189776 24.431049 30.760596 48.350324 0.714089 0.881230 0.120861 -0.026591 -74357.400000 0 0 1
28.615776 23.601849 31.839401 48.884122 0.689672 0.861468 0.132865 -0.031578 540978.000000 0 0 1
29.232276 24.275259 32.949158 50.293749 0.693020 0.856436 0.113237 -0.035387 -1127540.000000 0 0 1
29.038476 23.572979 -33.052962 49.914093 0.681885 2.294543 0.114016 -0.043172 604304.000000 0 0 1
27.735576 23.687889 -32.442672 48.815010 0.706847 2.297761 0.114227 -0.042459 1444990.000000 0 0 1
26.645776 23.032759 -33.099462 48.333009 0.712798 2.325154 0.109904 -0.036427 -146102.000000 0 0 1
26.547976 21.541649 -32.911772 47.455478 0.681668 2.337173 0.108987 -0.036123 -489396.000000 0 0 1
26.222676 21.000049 -31.663392 46.164934 0.675250 2.326602 0.086213 -0.054348 202395.000000 0 0 1
26.040276 19.629349 -31.727962 45.498031 0.645933 2.342487 0.091942 -0.053262 -194417.000000 0 0 1
25.705976 18.959949 -30.350522 44.061673 0.635498 2.330655 0.099221 -0.047248 -736333.000000 0 0 1
24.497276 19.287549 -29.763872 43.104688 0.666970 2.332979 0.082066 -0.040206 -472668.000000 0 0 1
24.519876 18.727649 -28.431082 41.955638 0.652258 2.315354 0.093671 -0.036463 -26389.600000 0 0 1
23.088876 18.641049 -27.849662 40.696296 0.679213 2.324480 0.085752 -0.031968 -53876.300000 0 0 1
22.878576 18.062649 -26.575332 39.445364 0.668306 2.310034 0.089920 -0.025857 -68466.100000 0 0 1
23.402376 18.781049 -25.498632 39.377395 0.676280 2.275155 0.094272 -0.017471 -305839.000000 0 0 1
23.592776 18.047349 -24.142592 38.277808 0.653002 2.253277 0.119419 -0.013733 23485.300000 0 0 1
24.497276 16.964049 -24.208092 38.391759 0.605666 2.253064 0.122742 -0.017814 232976.000000 0 0 1
24.595376 16.289949 -22.950092 37.376485 0.584986 2.231946 0.127456 -0.018525 -788615.000000 0 0 1
25.717976 15.300649 -23.020892 37.755603 0.536690 2.226522 0.144182 -0.021636 -281834.000000 0 0 1
27.072376 15.779649 -22.923692 38.825333 0.527728 2.202389 0.161704 -0.028470 692333.000000 0 0 1
28.074876 14.827749 -22.976892 39.191815 0.485913 2.197240 0.160905 -0.035958 -202576.000000 0 0 1
28.147076 13.946049 -21.669292 38.161608 0.460018 2.174663 0.154337 -0.026244 -562604.000000 0 0 1
27.090776 12.985649 -21.670392 37.042450 0.446982 2.195695 0.155299 -0.020748 273578.000000 0 0 1
26.801176 12.481249 -20.381292 35.909353 0.435831 2.174355 0.125723 -0.027980 3522.830000 0 0 1
25.490176 11.624349 -20.358192 34.631352 0.427859 2.199200 0.140469 -0.029585 607961.000000 0 0 1
24.407576 12.528049 -20.136392 34.031692 0.474219 2.203956 0.146418 -0.028673 201314.000000 0 0 1
23.217376 12.101849 -20.792592 33.434012 0.480496 2.241962 0.128979 -0.029560 718366.000000 0 0 1
22.040576 13.110949 -20.649092 32.925202 0.536628 2.248687 0.105709 -0.022778 31450.100000 0 0 1
22.306876 14.306649 -21.378092 34.048491 0.570275 2.249612 0.108344 -0.018844 109471.000000 0 0 1
21.411176 15.344949 -21.103992 33.753287 0.621833 2.246239 0.078934 -0.011197 -492779.000000 0 0 1
20.151176 15.531249 -21.971092 33.615747 0.656641 2.283121 0.072955 -0.006273 -598210.000000 0 0 1
19.222476 14.575049 -21.642292 32.408709 0.648747 2.302035 0.051564 -0.001891 -787945.000000 0 0 1
18.059476 14.698649 -22.414092 32.320063 0.683161 2.337138 0.051065 -0.010522 -49883.500000 0 0 1
17.058976 13.532149 -22.191892 31.090316 0.670616 2.365688 0.052822 -0.005703 -343542.000000 0 0 1
15.894776 13.646849 -22.929092 31.058391 0.709451 2.401280 0.045703 -0.005373 -266920.000000 0 0 1
14.839676 12.843749 -22.339192 29.735792 0.713424 2.420759 0.059419 -0.006665 1043830.000000 0 0 1
13.501076 13.046249 -23.120392 29.783153 0.768267 2.459557 0.063410 -0.013825 240987.000000 0 0 1
12.989276 14.373449 -23.026792 30.092365 0.835941 2.442154 0.094229 -0.012515 136760.000000 0 0 1
12.504576 14.783749 -24.309992 31.078921 0.868727 2.468989 0.085084 -0.020791 -467310.000000 0 0 1
12.029176 16.260349 -24.229192 31.561903 0.933864 2.445997 0.090937 -0.035035 270179.000000 0 0 1
13.059876 17.235549 -24.018092 32.318620 0.922367 2.408586 0.072004 -0.020610 582817.000000 0 0 1
14.141476 17.280549 -24.965792 33.494618 0.884968 2.411882 0.072863 -0.027339 -20376.100000 0 0 1
13.918376 17.446849 -26.478552 34.629863 0.897424 2.441242 0.098144 -0.035192 -1299870.000000 0 0 1
15.028876 17.719349 -27.245972 35.807617 0.867370 2.435493 0.076745 -0.036730 -623429.000000 0 0 1
14.718276 17.666449 -28.638732 36.727483 0.876184 2.465083 0.124926 -0.037649 -196052.000000 0 0 1
15.919576 18.143449 -29.463302 38.088106 0.850593 2.455230 0.109550 -0.043431 -94588.100000 0 0 1
16.994976 17.211849 -29.474512 38.129041 0.791738 2.454384 0.064132 -0.036672 464748.000000 0 0 1
18.104376 17.665249 -30.258422 39.438579 0.773122 2.445306 0.061321 -0.032354 245374.000000 0 0 1
19.236976 16.607749 -30.169962 39.447499 0.712179 2.441547 0.079303 -0.031735 -5194.080000 0 0 1
20.481576 17.024249 -30.725032 40.661377 0.693477 2.427415 0.085848 -0.032960 170908.000000 0 0 1
21.251476 15.847949 -30.877142 40.696199 0.640765 2.432147 0.110485 -0.031996 -935957.000000 0 0 1
22.590476 16.145549 -31.498072 41.989723 0.620528 2.419067 0.116972 -0.034263 -914942.000000 0 0 1
22.541376 16.614249 -32.838942 43.157189 0.635165 2.435518 0.126391 -0.041961 192804.000000 0 0 1
23.833776 17.084649 -33.173732 44.276750 0.621929 2.417704 0.131109 -0.045664 87979.700000 0 0 1
23.948176 17.494949 32.758907 44.189754 0.630926 0.735756 0.098747 -0.033724 -603624.000000 0 0 1
25.097476 18.222149 32.524368 44.941790 0.627999 0.761648 0.086240 -0.027146 -544648.000000 0 0 1
25.039576 18.857149 31.241976 44.256451 0.645478 0.787060 0.102676 -0.027863 100250.000000 0 0 1
26.102176 19.978849 31.153036 45.287853 0.653290 0.812219 0.139786 -0.034109 861188.000000 0 0 1
27.451876 19.536149 31.045866 45.816071 0.618503 0.826275 0.112527 -0.027066 866963.000000 0 0 1
28.387176 20.599149 30.754886 46.647826 0.627734 0.850910 0.113777 -0.040431 2155240.000000 0 0 1
29.886676 20.331149 31.251702 47.783239 0.597364 0.857896 0.141093 -0.031545 1424690.000000 0 0 1
29.945976 20.019349 32.639165 48.609165 0.589281 0.834618 0.110933 -0.036141 155119.000000 0 0 1
31.262676 20.052249 33.152613 49.784971 0.570314 0.842075 0.107343 -0.022402 71186.100000 0 0 1
31.415076 19.644749 -32.744102 49.446935 0.558836 2.294556 0.083721 -0.007202 -222194.000000 0 0 1
30.728476 20.567349 -31.912242 48.843078 0.589841 2.282814 0.064987 -0.030018 207296.000000 0 0 1
30.399576 19.881649 -30.695502 47.556577 0.579190 2.272412 0.089330 -0.041906 139226.000000 0 0 1
31.496576 19.966749 -29.588442 47.604424 0.564998 2.241514 0.104402 -0.051503 502875.000000 0 0 1
32.634276 19.137749 -29.832912 48.179373 0.530382 2.238526 0.102653 -0.051770 196769.000000 0 0 1
33.587176 19.438349 -28.831162 48.344427 0.524643 2.209768 0.125102 -0.056133 -149102.000000 0 0 1
34.977876 18.804049 -28.951602 49.145084 0.493272 2.200747 0.078002 -0.039312 83952.400000 0 0 1
35.964776 19.493049 -29.689642 50.546205 0.496683 2.198609 0.082466 -0.042719 242866.000000 0 0 1
37.131476 19.663149 -28.885552 50.987852 0.487011 2.173071 0.051082 -0.022519 666701.000000 0 0 1
-37.582289 20.662349 -29.499832 52.053830 -0.502682 2.173313 0.049507 -0.024500 600112.000000 0 0 1
-36.972089 20.021549 -30.614902 52.010287 -0.496318 2.200161 0.040158 -0.025676 310037.000000 0 0 1
-36.078589 20.887449 -31.333842 52.151316 -0.524793 2.215330 0.039969 -0.016889 541350.000000 0 0 1
-35.264889 20.140449 -32.454422 51.985956 -0.518913 2.245021 0.046149 -0.019001 157114.000000 0 0 1
-34.343689 19.207749 -31.938372 50.680235 -0.509940 2.252599 0.058530 -0.017293 25143.800000 0 0 1
-33.452889 18.750949 -32.909592 50.534494 -0.510883 2.280001 0.067970 -0.017291 -73078.900000 0 0 1
-32.517389 17.591349 -32.490592 49.218642 -0.495894 2.291785 0.058266 -0.010034 316846.000000 0 0 1
-33.329189 16.447449 -32.322632 49.255517 -0.458422 2.286599 0.062885 -0.013996 713509.000000 0 0 1
-32.597189 15.265849 -32.693492 48.625994 -0.437982 2.308170 0.063094 -0.011063 -683825.000000 0 0 1
-33.462689 14.078649 -32.784172 48.915865 -0.398246 2.305295 0.066370 -0.015950 -845592.000000 0 0 1
-32.873789 12.812649 -32.875132 48.224727 -0.371641 2.320890 0.071786 -0.027811 -296592.000000 0 0 1
-33.913689 11.883349 -32.899262 48.720773 -0.337031 2.312116 0.092318 -0.029871 -244512.000000 0 0 1
-33.494789 10.409349 -33.062212 48.201300 -0.301313 2.326663 0.093465 -0.027524 -62741.000000 0 0 1
-32.951389 10.214249 33.022019 47.755405 -0.300587 0.807257 0.069243 -0.029461 134843.000000 0 0 1
-33.259889 8.887949 32.589000 47.405261 -0.261126 0.812817 0.109309 -0.039210 -252824.000000 0 0 1
-32.189789 8.378149 31.630144 45.900348 -0.254624 0.810544 0.121741 -0.032547 855615.000000 0 0 1
-30.969789 8.099349 32.364833 45.521530 -0.255795 0.779907 0.084408 -0.022648 483420.000000 0 0 1
-30.008989 7.404349 31.625729 44.221607 -0.241906 0.773937 0.080881 -0.022015 -128711.000000 0 0 1
22.118476 -3.938757 -31.663552 38.824236 -0.176228 2.524495 0.106530 -0.065508 -357554.000000 0 0 1
23.451576 -4.231557 -32.045782 39.935130 -0.178517 2.502179 0.083273 -0.059437 447594.000000 0 0 1
24.406376 -3.194857 -31.744832 40.169798 -0.130162 2.482040 0.094566 -0.061789 458253.000000 0 0 1
24.138976 -1.732257 -32.230022 40.304655 -0.071639 2.497525 0.086108 -0.054441 -1717990.000000 0 0 1
25.138076 -0.910657 -31.829392 40.569229 -0.036210 2.472798 0.091821 -0.043853 -494868.000000 0 0 1
24.740276 0.475343 -32.022752 40.469295 0.019211 2.483704 0.074280 -0.047136 -342394.000000 0 0 1
25.694476 1.401843 -31.295912 40.516729 0.054504 2.453438 0.077554 -0.038630 -457925.000000 0 0 1
26.909376 1.460443 -31.997272 41.833872 0.054219 2.441628 0.082192 -0.041635 -318216.000000 0 0 1
27.801776 2.389643 -31.385522 41.996430 0.085742 2.414843 0.087867 -0.040294 2494970.000000 0 0 1
29.402476 2.299643 -31.654512 43.264328 0.078054 2.391541 0.093939 -0.042110 2490420.000000 0 0 1
29.726176 2.720243 -32.971432 44.476517 0.091256 2.405835 0.097209 -0.036442 87575.300000 0 0 1
29.597976 1.649343 33.467576 44.708379 0.055667 0.724886 0.091061 -0.033520 -406315.000000 0 0 1
30.149776 2.096343 32.089550 44.081094 0.069419 0.755445 0.076105 -0.034131 423668.000000 0 0 1
29.387676 3.109943 31.364601 43.093450 0.105432 0.755648 0.061199 -0.022794 669279.000000 0 0 1
29.661176 4.387543 31.899373 43.779058 0.146857 0.754455 0.081728 -0.025529 -37211.500000 0 0 1
29.202476 5.496643 30.971596 42.921294 0.186048 0.764699 0.080634 -0.019968 -173225.000000 0 0 1
29.526776 6.770343 31.413959 43.640633 0.225399 0.767235 0.096796 -0.030536 78899.600000 0 0 1
29.047176 7.753943 30.527946 42.846442 0.260860 0.777746 0.093204 -0.029528 -105669.000000 0 0 1
29.489776 9.204743 30.867356 43.671133 0.302551 0.785813 0.095989 -0.024608 788232.000000 0 0 1
30.884576 9.404443 30.611676 44.490171 0.295583 0.811991 0.094543 -0.028904 435266.000000 0 0 1
31.258176 10.750343 30.747586 45.144850 0.331249 0.821550 0.093742 -0.018722 -137547.000000 0 0 1
32.717976 11.131943 30.423926 46.043473 0.327953 0.848959 0.097432 -0.024890 -662370.000000 0 0 1
33.581276 10.584243 31.423984 47.193168 0.305327 0.842152 0.116783 -0.044772 1058300.000000 0 0 1
34.983076 10.618443 31.103136 47.999708 0.294693 0.865859 0.122476 -0.049451 584790.000000 0 0 1
35.644876 11.971843 31.072686 48.779033 0.324027 0.880184 0.115590 -0.045128 -1250110.000000 0 0 1
35.834476 12.587343 32.327015 49.875713 0.337800 0.865642 0.123765 -0.038034 260247.000000 0 0 1
36.369176 13.926443 32.295880 50.593345 0.365695 0.878453 0.127530 -0.025595 557208.000000 0 0 1
35.266976 15.023543 32.078870 49.985201 0.402713 0.873996 0.117147 -0.023534 320781.000000 0 0 1
34.594676 15.036843 30.803986 48.700963 0.410022 0.886003 0.104868 -0.032512 -25679.700000 0 0 1
33.769276 16.145243 30.639506 48.371605 0.445978 0.884832 0.089937 -0.022596 689706.000000 0 0 1
32.268276 15.775143 30.978646 47.431775 0.454708 0.859099 0.090797 -0.016800 399610.000000 0 0 1
31.731376 14.912943 30.001556 46.145091 0.439340 0.863005 0.087544 -0.006731 -1031440.000000 0 0 1
30.443176 14.590143 30.375946 45.413185 0.446917 0.838096 0.074198 -0.014517 -1026180.000000 0 0 1
29.621076 13.978443 29.208686 43.885674 0.440923 0.842548 0.091076 -0.008788 -246191.000000 0 0 1
30.010876 12.693143 28.756196 43.459031 0.400134 0.847732 0.094205 -0.012629 155270.000000 0 0 1
29.352476 12.454643 27.516516 42.117035 0.401289 0.858816 0.102972 -0.020887 224140.000000 0 0 1
28.918776 10.973543 27.203566 41.191604 0.362676 0.849425 0.095532 -0.014465 290281.000000 0 0 1
29.972776 10.113643 26.795826 41.456837 0.325431 0.867999 0.099965 -0.019938 79227.800000 0 0 1
29.570676 8.752643 26.707456 40.796101 0.287774 0.857067 0.096925 -0.017319 -499134.000000 0 0 1
30.722276 7.840943 26.378926 41.245441 0.249886 0.876871 0.107947 -0.027339 -511723.000000 0 0 1
31.124876 8.056843 25.036946 40.749470 0.253296 0.909156 0.109783 -0.027638 89116.200000 0 0 1
32.289176 7.324543 24.719226 41.319244 0.223067 0.929481 0.127586 -0.024898 384748.000000 0 0 1
32.983076 7.584843 23.328116 41.104916 0.226032 0.967298 0.136977 -0.029833 316048.000000 0 0 1
33.591376 8.862443 23.150796 41.747848 0.257953 0.982988 0.126868 -0.038049 250625.000000 0 0 1
32.722676 9.929343 22.749906 41.072175 0.294609 0.983754 0.138305 -0.046313 -148909.000000 0 0 1
32.282176 9.957343 21.330216 39.953294 0.299188 1.007615 0.140593 -0.033316 -54912.200000 0 0 1
33.304576 10.249443 20.393616 40.375059 0.298551 1.041294 0.134155 -0.042394 -169221.000000 0 0 1
32.790876 10.282043 19.100716 39.316654 0.303854 1.063498 0.158478 -0.048771 -990883.000000 0 0 1
33.774976 11.026043 18.159616 39.901056 0.315548 1.098294 0.172076 -0.074936 -171234.000000 0 0 1
34.939676 10.354643 17.816316 40.563785 0.288112 1.116069 0.182047 -0.065382 -521806.000000 0 0 1
35.877976 10.221643 18.877416 41.809903 0.277547 1.102344 0.156811 -0.058603 -1733490.000000 0 0 1
37.257076 9.789243 18.433216 42.704829 0.256941 1.124484 0.162698 -0.046301 -745296.000000 0 0 1
37.263376 8.502443 17.879116 42.196131 0.224331 1.133254 0.146901 -0.043793 885545.000000 0 0 1
-37.195989 8.116843 17.455916 41.882380 -0.214850 1.140892 0.156951 -0.043127 482316.000000 0 0 1
-37.105389 6.629143 17.001516 41.349813 -0.176792 1.147067 0.148983 -0.036738 -472119.000000 0 0 1
37.738676 6.271643 16.025916 41.477357 0.164681 1.174096 0.156196 -0.036422 -206448.000000 0 0 1
-37.842489 5.013843 15.431216 41.174204 -0.131725 1.186638 0.162955 -0.035188 -142863.000000 0 0 1
36.688276 4.092943 15.494916 40.035911 0.111101 1.173393 0.166597 -0.034470 16425.200000 0 0 1
36.503476 3.440443 16.737916 40.305064 0.093972 1.142545 0.161189 -0.025767 -895395.000000 0 0 1
35.343376 2.732743 16.884916 39.264774 0.077166 1.126274 0.143374 -0.027168 -984448.000000 0 0 1
35.247576 1.869443 18.205616 39.715625 0.052988 1.094603 0.155872 -0.040475 333249.000000 0 0 1
36.051676 0.676643 18.301016 40.436473 0.018766 1.101132 0.162679 -0.033863 291154.000000 0 0 1
35.796576 -0.030457 19.474216 40.750961 -0.000851 1.072553 0.151303 -0.028841 59369.200000 0 0 1
36.276276 -1.484957 19.494216 41.209195 -0.040912 1.078041 0.147381 -0.028913 359225.000000 0 0 1
35.741676 -2.225657 20.618516 41.322441 -0.062190 1.048390 0.169764 -0.018973 436212.000000 0 0 1
36.375176 -3.493857 20.695016 41.995763 -0.095757 1.055505 0.117723 -0.016671 99177.600000 0 0 1
35.645576 -4.336457 21.798716 42.007094 -0.121060 1.025198 0.113268 -0.018978 111666.000000 0 0 1
35.709376 -3.799057 23.101946 42.700027 -0.105990 0.999136 0.101334 -0.024551 196902.000000 0 0 1
35.244076 -4.625757 24.132746 42.964310 -0.130503 0.974366 0.091613 -0.022699 -97947.200000 0 0 1
35.473976 -3.968557 25.499056 43.867462 -0.111409 0.950502 0.069968 -0.014507 199712.000000 0 0 1
34.629076 -4.503157 26.508336 43.842254 -0.129314 0.921495 0.075551 -0.015047 253724.000000 0 0 1
34.820376 -3.819057 27.775336 44.704732 -0.109242 0.900387 0.074639 -0.005894 -290819.000000 0 0 1
33.972676 -4.420057 28.879656 44.807523 -0.129379 0.870392 0.065378 -0.006489 -263531.000000 0 0 1
34.496276 -5.672557 29.274796 45.598077 -0.162981 0.873669 0.069594 -0.018207 567312.000000 0 0 1
33.570676 -6.496857 30.008256 45.493899 -0.191165 0.850496 0.070382 -0.034038 324992.000000 0 0 1
34.154076 -7.890757 30.109666 46.209922 -0.227050 0.861125 0.069438 -0.033974 -157128.000000 0 0 1
35.237376 -7.962057 30.982256 47.591672 -0.222223 0.861893 0.076434 -0.038482 -586326.000000 0 0 1
35.905376 -9.187157 30.990706 48.311735 -0.250497 0.874379 0.075671 -0.017209 -532857.000000 0 0 1
37.176776 -9.161957 31.811220 49.779593 -0.241628 0.877545 0.096536 -0.016145 -549434.000000 0 0 1
36.873476 -9.133157 33.182991 50.439852 -0.242802 0.852806 0.073804 -0.024731 244000.000000 0 0 1
-37.752689 -9.087257 -33.376762 51.204023 0.236211 2.280803 0.053754 -0.030171 -116747.000000 0 0 1
37.656876 -8.966657 -31.901522 50.161223 -0.233762 2.260074 0.074686 -0.035322 37045.100000 0 0 1
36.845476 -7.883957 -31.426772 49.065139 -0.210795 2.265960 0.074258 -0.044058 537935.000000 0 0 1
37.344276 -6.571257 -31.588052 49.351610 -0.174181 2.265374 0.055661 -0.035832 -265308.000000 0 0 1
36.725076 -5.655657 -30.505152 48.075794 -0.152799 2.258186 0.073142 -0.024169 -65388.800000 0 0 1
37.191076 -5.941157 -29.232692 47.676239 -0.158408 2.230838 0.074221 -0.017579 -64140.200000 0 0 1
36.576876 -5.126657 -28.315712 46.539553 -0.139254 2.224868 0.085330 -0.028650 -581547.000000 0 0 1
37.247576 -5.257457 -26.948042 46.273315 -0.140223 2.192433 0.085193 -0.033307 -49394.800000 0 0 1
-37.182289 -4.838157 -26.948342 46.175140 0.129393 2.193965 0.085214 -0.029351 -213207.000000 0 0 1
-36.621289 -4.980557 -25.664752 44.995603 0.135172 2.177769 0.097777 -0.030263 606085.000000 0 0 1
-35.086089 -4.680557 -25.609712 43.689800 0.132619 2.197121 0.124406 -0.027165 196609.000000 0 0 1
-34.665389 -4.367457 -24.286692 42.551231 0.125329 2.178232 0.148479 -0.029147 1979590.000000 0 0 1
-33.221389 -4.107357 -24.149792 41.276428 0.123012 2.195768 0.171986 -0.029321 2186230.000000 0 0 1
-32.599189 -2.855757 -24.850992 41.090562 0.087379 2.220293 0.156850 -0.026996 -347672.000000 0 0 1
-32.328889 -3.120857 -26.215222 41.738887 0.096236 2.249875 0.154585 -0.021061 53377.800000 0 0 1
-31.412189 -2.254257 -26.863852 41.394128 0.071641 2.277036 0.148090 -0.023686 182180.000000 0 0 1
-30.909289 -2.886857 -28.174942 41.923090 0.093128 2.307787 0.128847 -0.024112 11747.100000 0 0 1
-31.901289 -2.946457 -29.160682 43.321118 0.092100 2.309228 0.145288 -0.027263 -141255.000000 0 0 1
-31.397889 -3.797357 -30.160502 43.702440 0.120358 2.332469 0.119713 -0.014947 99068.300000 0 0 1
-32.480189 -4.241157 -31.208802 45.243115 0.129842 2.332012 0.109269 -0.018569 -400444.000000 0 0 1
-33.440289 -5.235457 -30.844132 45.793268 0.155301 2.309800 0.099790 -0.020508 590081.000000 0 0 1
-34.489389 -4.868257 -29.966522 45.947909 0.140226 2.281259 0.113632 -0.025787 101879.000000 0 0 1
-35.503089 -3.828757 -30.608432 47.031955 0.107428 2.279435 0.134978 -0.030797 -840422.000000 0 0 1
-35.038589 -2.539857 -31.041682 46.880056 0.072361 2.294482 0.160024 -0.023777 -312869.000000 0 0 1
-34.701889 -1.642357 -30.020692 45.914708 0.047292 2.283440 0.169158 -0.022683 -224613.000000 0 0 1
-34.366389 -0.227457 -30.580902 46.003174 0.006618 2.297964 0.160701 -0.025319 -232566.000000 0 0 1
-35.511389 0.388943 -31.092962 47.201508 -0.010952 2.289923 0.174906 -0.023174 -344034.000000 0 0 1
-35.252889 1.725143 -31.488712 47.299908 -0.048897 2.299261 0.169697 -0.019704 -52728.300000 0 0 1
-36.501489 2.500643 -31.921782 48.555248 -0.068401 2.288202 0.158320 -0.017687 -137575.000000 0 0 1
-37.006189 2.202943 -33.177002 49.749618 -0.059459 2.300810 0.167338 -0.016293 497759.000000 0 0 1
37.526176 2.848843 -33.461472 50.358712 0.075771 2.297571 0.151800 -0.018518 899543.000000 0 0 1
36.578276 2.503943 32.720522 49.141353 0.068348 0.842171 0.125897 -0.012139 266284.000000 0 0 1
36.980476 2.822843 31.399259 48.594624 0.076186 0.868271 0.140636 -0.014145 -344330.000000 0 0 1
-37.775389 2.020643 30.906296 48.849383 -0.053440 0.885780 0.128671 -0.012441 -461015.000000 0 0 1
-37.584589 2.132743 29.411016 47.771935 -0.056684 0.907580 0.136961 -0.013060 10912.000000 0 0 1
-36.927889 3.354243 29.098896 47.134549 -0.090584 0.905416 0.140871 -0.017854 132901.000000 0 0 1
-36.623889 3.414443 27.685166 46.037334 -0.092961 0.925590 0.135479 -0.016237 121657.000000 0 0 1
-35.848589 4.708743 27.357256 45.339972 -0.130603 0.923063 0.124636 -0.015855 -59149.800000 0 0 1
-35.448089 4.943243 26.044566 44.264231 -0.138557 0.941732 0.116367 -0.011341 307028.000000 0 0 1
-34.705189 6.149843 25.853366 43.711180 -0.175382 0.937929 0.122545 -0.017131 250167.000000 0 0 1
-33.753589 6.217943 24.625376 42.241884 -0.182173 0.948428 0.112043 -0.011860 411968.000000 0 0 1
-32.562189 5.421443 24.805416 41.291608 -0.164982 0.926373 0.097935 -0.005185 696496.000000 0 0 1
-31.657689 5.612043 23.717356 39.952688 -0.175450 0.935227 0.091875 -0.004017 230959.000000 0 0 1
-32.118389 5.202443 22.271516 39.429390 -0.160582 0.970550 0.099161 -0.013986 -321246.000000 0 0 1
-32.302089 3.812043 22.119416 39.334784 -0.117469 0.973587 0.086045 -0.010917 -79149.700000 0 0 1
-33.100489 3.448143 21.005716 39.354443 -0.103798 1.007759 0.096810 -0.018540 -348594.000000 0 0 1
-32.898889 2.001743 20.576216 38.855174 -0.060770 1.012712 0.092473 -0.013982 336518.000000 0 0 1
-31.650089 1.729743 19.941016 37.448155 -0.054598 1.009249 0.113149 -0.009096 259026.000000 0 0 1
-31.482789 2.116343 18.519616 36.587171 -0.067121 1.040049 0.115760 -0.019666 156072.000000 0 0 1
-30.093089 1.828843 17.872816 35.048199 -0.060698 1.035670 0.126015 -0.028485 112430.000000 0 0 1
-29.851789 0.449943 17.876516 34.798011 -0.015071 1.031279 0.132844 -0.027131 466927.000000 0 0 1
-28.617689 0.019043 17.306616 33.443855 -0.000665 1.026890 0.140518 -0.029710 287916.000000 0 0 1
-28.306989 0.218543 15.761016 32.399738 -0.007720 1.062769 0.170685 -0.030618 -224567.000000 0 0 1
-27.881389 1.521443 15.332416 31.855449 -0.054514 1.068645 0.177044 -0.035872 318584.000000 0 0 1
-27.924789 1.489543 13.939816 31.246297 -0.053291 1.108363 0.192556 -0.037896 -165891.000000 0 0 1
-27.160189 2.629443 13.252816 30.335243 -0.096512 1.118671 0.183607 -0.037361 373546.000000 0 0 1
-25.749589 2.442443 13.236216 29.055194 -0.094571 1.097802 0.179284 -0.047909 276177.000000 0 0 1
-25.087789 3.591543 12.750816 28.370401 -0.142193 1.104657 0.175683 -0.050282 -20817.600000 0 0 1
-23.549489 3.537943 12.778416 27.025606 -0.149119 1.078301 0.149656 -0.051451 -255539.000000 0 0 1
-23.001089 3.801443 14.055416 27.222340 -0.163792 1.028249 0.132270 -0.039643 -842476.000000 0 0 1
-21.651289 4.045843 13.864816 26.026531 -0.184733 1.008987 0.111312 -0.035562 -946252.000000 0 0 1
-21.061089 4.890443 15.006716 26.318956 -0.228159 0.964063 0.105016 -0.040153 -379743.000000 0 0 1
-21.405089 6.260243 14.960516 26.854898 -0.284530 0.979922 0.098027 -0.024604 333021.000000 0 0 1
-20.961989 6.898643 16.127616 27.333062 -0.317938 0.939687 0.086200 -0.017254 -224752.000000 0 0 1
-21.311789 8.393143 16.384816 28.162021 -0.375173 0.949850 0.100480 -0.017878 -275368.000000 0 0 1
-20.424489 9.234443 15.670716 27.349699 -0.424621 0.960664 0.080091 -0.017860 669701.000000 0 0 1
-20.741489 10.656243 15.742316 28.135128 -0.474599 0.976983 0.093707 -0.014345 -19553.400000 0 0 1
-20.345289 11.325443 17.077216 28.876076 -0.507943 0.938007 0.097968 -0.012191 -83325.800000 0 0 1
-21.221089 10.855443 18.084516 29.920311 -0.472837 0.921755 0.118758 -0.019665 626441.000000 0 0 1
-20.678089 11.041843 19.401616 30.429071 -0.490467 0.879416 0.111805 -0.014764 30228.100000 0 0 1
-12.691824 -32.907962 -19.695592 40.397187 1.202699 2.080076 0.156218 -0.065523 -361150.000000 0 0 1
-13.818124 -33.220362 -18.960092 40.669622 1.176613 2.055785 0.166808 -0.052704 -266402.000000 0 0 1
-14.984624 -32.457262 -19.231492 40.593881 1.138278 2.064344 0.150122 -0.074757 658670.000000 0 0 1
-16.241424 -32.994962 -18.486292 41.160593 1.113376 2.036583 0.144189 -0.055042 -851659.000000 0 0 1
-16.786524 33.507943 -19.056592 42.044302 -1.106372 2.041205 0.127498 -0.059852 33055.800000 0 0 1
-17.738324 32.873643 -18.242692 41.570667 -1.075980 2.025099 0.147698 -0.060199 -232688.000000 0 0 1
-19.105824 33.486943 -17.972392 42.537216 -1.052316 2.007009 0.145738 -0.054067 -1352480.000000 0 0 1
-19.040424 -33.126462 -17.018992 41.827579 1.049127 1.989837 0.163731 -0.054709 741517.000000 0 0 1
-20.329924 -32.799062 -16.471192 41.956936 1.015922 1.974225 0.124588 -0.047916 572411.000000 0 0 1
-20.783224 -33.666562 -15.220092 42.391403 1.017735 1.938032 0.133251 -0.045685 -185028.000000 0 0 1
-20.960324 32.590643 -15.455492 41.717592 -0.999259 1.950321 0.149288 -0.051649 -9775.200000 0 0 1
-21.251524 31.930943 -14.196392 40.899266 -0.983570 1.925280 0.135959 -0.049155 -27215.500000 0 0 1
-21.090924 30.382343 -14.138692 39.595662 -0.963985 1.935933 0.143583 -0.045940 -572208.000000 0 0 1
-19.912724 29.830743 -13.682492 38.387503 -0.982201 1.935241 0.180725 -0.054185 -861384.000000 0 0 1
-19.878524 28.437743 -13.879792 37.369902 -0.960729 1.951330 0.176939 -0.049974 75544.300000 0 0 1
-18.740724 27.625043 -13.207392 35.899763 -0.974717 1.947542 0.166503 -0.050560 -397881.000000 0 0 1
-17.496324 27.883143 -13.775192 35.683987 -1.010410 1.967124 0.189994 -0.056451 -590512.000000 0 0 1
-16.513924 26.948143 -13.339592 34.305347 -1.021015 1.970178 0.193151 -0.063539 -1018150.000000 0 0 1
-15.158124 27.354943 -13.784892 34.177257 -1.064790 1.985955 0.160187 -0.065229 -1352120.000000 0 0 1
-14.944324 27.403943 -15.193692 34.715374 -1.071542 2.023796 0.134622 -0.051693 836711.000000 0 0 1
-13.587124 27.879143 -15.400792 34.627171 -1.117313 2.031703 0.152321 -0.053077 981533.000000 0 0 1
-13.248724 28.098843 -16.878092 35.354543 -1.130204 2.068484 0.173453 -0.061179 -185366.000000 0 0 1
-13.226724 26.860143 -17.611992 34.736088 -1.113224 2.102524 0.128180 -0.062584 -52656.800000 0 0 1
-13.846424 26.980243 -18.880892 35.723173 -1.096640 2.127668 0.111998 -0.058470 -39666.900000 0 0 1
-13.356124 25.906643 -19.860092 35.269866 -1.094788 2.168916 0.082252 -0.036638 -261616.000000 0 0 1
-12.135524 26.133143 -20.499292 35.361463 -1.136054 2.189166 0.057720 -0.026070 -558608.000000 0 0 1
-11.710424 25.040143 -21.283692 34.887510 -1.133349 2.226941 0.064222 -0.031958 550698.000000 0 0 1
-10.388924 25.420243 -22.029592 35.205418 -1.182824 2.246882 0.080681 -0.029648 446891.000000 0 0 1
-10.578924 26.304943 -23.115192 36.581085 -1.188425 2.254785 0.068389 -0.024066 974837.000000 0 0 1
-9.350124 26.389843 -23.890792 36.805144 -1.230289 2.277218 0.069117 -0.029239 729744.000000 0 0 1
-9.521324 26.926243 -25.365032 38.197684 -1.230911 2.297014 0.061767 -0.021513 -149466.000000 0 0 1
-10.208324 26.140343 -26.306452 38.465008 -1.198489 2.323900 0.063557 -0.020284 -452319.000000 0 0 1
-10.576424 26.892243 -27.360742 39.795272 -1.196089 2.328889 0.075366 -0.013722 -136481.000000 0 0 1
-11.914924 26.364243 -27.928612 40.212512 -1.146334 2.338556 0.059567 -0.013329 -76220.100000 0 0 1
-12.381624 27.046543 -29.070412 41.592174 -1.141484 2.344710 0.075152 -0.009029 213781.000000 0 0 1
-13.639724 26.475343 -29.421952 41.864509 -1.095074 2.350108 0.067136 -0.004534 184859.000000 0 0 1
-14.021524 26.753643 -30.931452 43.233266 -1.088057 2.368071 0.067882 -0.010088 -465749.000000 0 0 1
-13.243724 26.249243 -31.958402 43.425321 -1.103525 2.397849 0.073927 -0.010524 -333645.000000 0 0 1
-13.241524 24.835343 -32.117242 42.704209 -1.080964 2.422018 0.063023 -0.010361 -63129.000000 0 0 1
-12.396624 24.271043 -33.246212 42.989190 -1.098580 2.454924 0.053342 -0.007808 96988.200000 0 0 1
-13.042924 24.531243 32.905418 43.065837 -1.082122 0.701194 0.068133 -0.007860 281840.000000 0 0 1
-12.284424 23.881943 31.902720 41.701773 -1.095710 0.699723 0.066094 -0.010023 -229528.000000 0 0 1
-12.952324 23.719643 30.527626 40.771561 -1.070984 0.724625 0.082150 -0.003198 -357252.000000 0 0 1
-14.042224 22.847243 30.455956 40.580117 -1.019701 0.721956 0.085540 -0.015148 -480763.000000 0 0 1
-14.727924 22.991343 29.248106 40.012065 -1.001068 0.751036 0.093327 -0.009753 36910.900000 0 0 1
-15.961924 22.060643 29.173966 39.907084 -0.944441 0.750941 0.091234 -0.013990 303326.000000 0 0 1
-15.569224 20.702043 29.269276 39.085367 -0.925977 0.724463 0.069571 -0.015567 1817980.000000 0 0 1
-16.800024 19.900043 29.493036 39.345797 -0.869667 0.723361 0.066581 -0.015926 1944240.000000 0 0 1
-16.467524 18.425243 29.649566 38.597484 -0.841446 0.694813 0.051659 -0.021413 -29166.900000 0 0 1
-16.145324 17.872743 28.399126 37.237304 -0.836134 0.703392 0.066757 -0.028112 89280.900000 0 0 1
-15.611324 16.552243 28.535806 36.496335 -0.814644 0.673118 0.050947 -0.033482 -84801.400000 0 0 1
-15.116324 16.035243 27.203236 35.009261 -0.814888 0.680863 0.050124 -0.030526 -862222.000000 0 0 1
-14.008724 16.683743 26.719006 34.474584 -0.872334 0.684026 0.036573 -0.027336 -1139710.000000 0 0 1
-13.438824 15.933743 25.746566 33.126603 -0.870135 0.680565 0.035425 -0.020589 274006.000000 0 0 1
-12.271524 16.631443 24.953746 32.401924 -0.935116 0.691749 0.042001 -0.019142 564060.000000 0 0 1
-12.730224 17.577943 23.989846 32.350509 -0.944002 0.735404 0.038270 -0.025276 -65837.400000 0 0 1
-13.239724 18.808343 24.407276 33.537430 -0.957439 0.755743 0.034460 -0.024086 -367753.000000 0 0 1
-12.243924 19.754943 25.078816 34.192375 -1.015952 0.747395 0.043554 -0.016821 -229818.000000 0 0 1
-11.916624 19.324043 26.444336 34.852941 -1.018207 0.709419 0.057992 -0.016634 412583.000000 0 0 1
-12.945424 19.503843 27.424306 36.056574 -0.984825 0.706573 0.060049 -0.011705 198932.000000 0 0 1
-12.374724 19.227043 28.811516 36.782013 -0.998926 0.670832 0.059867 -0.018099 -213681.000000 0 0 1
-11.337424 20.047043 29.257446 37.234652 -1.056100 0.666875 0.063720 -0.028423 -228836.000000 0 0 1
-11.169024 19.826743 30.694316 38.209788 -1.057776 0.637963 0.061971 -0.028250 -349232.000000 0 0 1
-10.130524 20.736043 31.362531 38.938662 -1.116353 0.634389 0.045380 -0.020368 -474974.000000 0 0 1
-8.823324 20.254243 31.232076 38.256085 -1.159958 0.615656 0.055045 -0.028442 30040.900000 0 0 1
-7.863924 21.110043 31.890233 39.044362 -1.214201 0.615007 0.068142 -0.025583 772315.000000 0 0 1
-6.610524 20.329643 32.368813 38.790895 -1.256414 0.583674 0.064363 -0.023766 -126077.000000 0 0 1
-6.827924 19.473443 33.466786 39.317443 -1.233563 0.552540 0.064063 -0.028322 296605.000000 0 0 1
-5.612824 19.023843 -33.327262 38.782945 -1.283895 2.604750 0.059738 -0.026011 565215.000000 0 0 1
-4.753524 17.937243 33.355686 38.169916 -1.311743 0.507682 0.046856 -0.029600 39839.700000 0 0 1
-5.409024 16.684343 33.356866 37.686939 -1.257290 0.484079 0.042252 -0.025062 14067.400000 0 0 1
-4.891024 15.869243 32.312273 36.329574 -1.271827 0.474720 0.051729 -0.018742 -194408.000000 0 0 1
-5.407124 14.428743 32.262383 35.753140 -1.212248 0.445570 0.065065 -0.026705 -524624.000000 0 0 1
-4.872124 13.418443 33.078090 36.027105 -1.222507 0.407424 0.068279 -0.021105 -201932.000000 0 0 1
-5.435324 12.128243 32.879366 35.463922 -1.149478 0.384139 0.074259 -0.019740 275899.000000 0 0 1
-4.490024 11.046843 33.479966 35.540135 -1.184739 0.342159 0.075102 -0.030798 315221.000000 0 0 1
-4.682424 10.749643 -32.536582 34.584810 -1.159991 2.795710 0.097791 -0.043830 482320.000000 0 0 1
-3.642224 9.830443 -32.116052 33.783786 -1.215973 2.826072 0.112275 -0.040131 743270.000000 0 0 1
-3.636724 9.399343 -30.592352 32.209710 -1.201623 2.823350 0.130613 -0.042475 -168134.000000 0 0 1
-4.735324 8.582243 -30.320432 31.865448 -1.066604 2.828918 0.133150 -0.035654 -175669.000000 0 0 1
-5.597924 9.085643 -29.294652 31.177914 -1.018602 2.792245 0.163701 -0.043162 315687.000000 0 0 1
-6.690824 8.038843 -29.004132 30.832285 -0.876661 2.795503 0.144813 -0.041688 -158656.000000 0 0 1
-6.094524 6.936443 -28.355662 29.821151 -0.849918 2.826790 0.143775 -0.033628 184008.000000 0 0 1
-7.031524 5.919243 -28.062682 29.529543 -0.699723 2.825077 0.144328 -0.051657 -297837.000000 0 0 1
-6.799424 5.204343 -26.717202 28.055770 -0.653290 2.831447 0.130656 -0.054536 -206714.000000 0 0 1
-7.059524 6.115043 -25.668202 27.314598 -0.713831 2.792621 0.089880 -0.033512 -677355.000000 0 0 1
-5.904624 6.763543 -25.304642 26.850233 -0.853096 2.800640 0.107512 -0.041835 -964581.000000 0 0 1
-6.073124 7.796943 -24.148992 26.093083 -0.909047 2.753134 0.060448 -0.028058 -5245.780000 0 0 1
-6.301724 7.227443 -22.906492 24.832540 -0.853716 2.745145 0.045921 -0.022541 136388.000000 0 1 0
-7.568824 7.599343 -22.381592 24.818799 -0.787410 2.694713 0.054829 -0.018748 247588.000000 0 1 0
-7.511024 7.662543 -20.844192 23.443771 -0.795384 2.666203 0.040637 -0.015958 190902.000000 0 1 0
-6.887624 8.899543 -20.436092 23.329704 -0.912155 2.638237 0.026549 -0.011094 17475.900000 0 1 0
-6.753124 9.108343 -19.047592 22.167033 -0.932808 2.604648 0.026948 -0.012148 -466168.000000 0 1 0
-8.002024 9.489243 -18.242392 22.064972 -0.870220 2.544116 0.028147 -0.004177 -723272.000000 0 1 0
-7.796124 9.615943 -16.876492 20.929928 -0.889535 2.508722 0.014651 -0.000579 13327.800000 0 1 0
-8.972324 9.927543 -16.161592 20.982273 -0.835896 2.450029 0.032192 -0.006356 549488.000000 0 1 0
-9.672824 11.304243 -16.456192 22.184583 -0.863013 2.406525 0.059503 -0.012942 213397.000000 0 1 0
-8.712324 12.253043 -15.993892 21.950997 -0.952704 2.387098 0.038277 -0.014085 725823.000000 0 1 0
-9.154624 13.587043 -16.217092 23.052309 -0.977888 2.351094 0.066232 -0.020501 -528550.000000 0 1 0
-8.055524 14.519443 -15.830292 22.941313 -1.064268 2.332333 0.074055 -0.022630 -821972.000000 0 1 0
-7.569124 14.606943 -14.533592 21.951759 -1.092705 2.294373 0.068692 -0.019271 85707.000000 0 1 0
-8.394724 15.254743 -13.546492 22.060962 -1.067721 2.231976 0.061353 -0.029647 -999347.000000 0 1 0
-7.710524 15.868543 -12.310592 21.513101 -1.118492 2.180027 0.049728 -0.031936 73396.800000 0 1 0
-7.151624 17.185743 -12.556692 22.453641 -1.176457 2.164250 0.058308 -0.031844 540892.000000 0 1 0
-6.272224 17.382343 -13.665092 22.983068 -1.224498 2.207530 0.080411 -0.024692 -527258.000000 0 1 0
-6.172524 18.860543 -14.057392 24.319342 -1.254511 2.187113 0.110632 -0.013702 209295.000000 0 1 0
-5.506324 19.749443 -13.181292 24.374302 -1.298892 2.142168 0.110661 -0.024835 30802.900000 0 1 0
-5.821124 21.062543 -13.555392 25.715071 -1.301154 2.126025 0.113780 -0.015806 -52823.800000 0 0 1
-5.576424 22.088643 -12.459592 25.966249 -1.323507 2.071266 0.130925 -0.014027 -712450.000000 0 0 1
-5.760124 23.454643 -12.749392 27.310187 -1.329977 2.056506 0.112635 -0.017607 318121.000000 0 0 1
-7.080224 23.991543 -12.855692 28.124590 -1.283829 2.045526 0.107315 -0.022066 493567.000000 0 0 1
-7.854724 24.054743 -11.493392 27.792543 -1.255176 1.997138 0.060385 -0.027470 -312594.000000 0 0 1
-8.185824 22.727443 -11.031892 26.556488 -1.225087 1.999192 0.070704 -0.021414 -157596.000000 0 0 1
-8.662824 22.569843 -9.700292 26.048762 -1.204313 1.952379 0.064755 -0.027015 -218293.000000 0 0 1
-7.607524 22.802643 -8.620592 25.537219 -1.248784 1.915130 0.064882 -0.024092 -245600.000000 0 0 1
-7.432124 24.175843 -8.585992 26.710057 -1.272547 1.898058 0.056133 -0.020542 -258680.000000 0 0 1
-6.874624 24.639243 -7.389992 26.626392 -1.298705 1.852033 0.061017 -0.019932 -125217.000000 0 0 1
-7.029924 26.206843 -7.305292 28.099569 -1.308718 1.833797 0.068031 -0.019830 34442.700000 0 0 1
-6.157424 27.087643 -8.001492 28.908099 -1.347280 1.851249 0.063768 -0.019989 -46239.800000 0 0 1
-6.044324 26.805843 -9.408192 29.044813 -1.349020 1.900666 0.061847 -0.020450 26069.400000 0 0 1
-5.211624 27.943743 -10.086192 30.161981 -1.386411 1.911766 0.060099 -0.019461 389609.000000 0 0 1
-5.890324 29.194043 -10.142492 31.462012 -1.371705 1.899031 0.046117 -0.019204 -124768.000000 0 0 1
-6.809924 29.263243 -11.224492 32.073380 -1.342153 1.928328 0.061033 -0.023504 -269123.000000 0 0 1
-7.809724 30.386343 -11.009492 33.249520 -1.319227 1.908284 0.069081 -0.024932 -880771.000000 0 0 1
-8.934524 29.961243 -10.311192 32.921460 -1.280989 1.889363 0.091747 -0.022912 -518643.000000 0 0 1
-9.900424 31.005343 -10.254092 34.124714 -1.261716 1.876001 0.091517 -0.040401 -84929.800000 0 0 1
-11.085424 30.658943 -9.367392 33.920576 -1.223850 1.850589 0.107936 -0.040921 -161563.000000 0 0 1
-12.016224 29.747843 -9.958492 33.593085 -1.186901 1.871764 0.117721 -0.052129 -38342.400000 0 0 1
-13.075924 29.565343 -9.027292 33.564584 -1.154388 1.843102 0.156341 -0.045601 -51347.700000 0 0 1
-14.161924 28.666343 -9.605992 33.385542 -1.111939 1.862651 0.165079 -0.056267 -155313.000000 0 0 1
-13.981424 27.326043 -9.205092 32.045695 -1.097871 1.862150 0.122064 -0.052011 262715.000000 0 0 1
-15.117924 26.554843 -9.584192 32.024492 -1.053249 1.874731 0.152705 -0.050087 439899.000000 0 0 1
-15.289324 25.219743 -8.870492 30.797476 -1.025798 1.862962 0.123834 -0.043386 283030.000000 0 0 1
-14.301224 24.258643 -9.234092 29.635709 -1.038110 1.887659 0.105151 -0.036278 326946.000000 0 0 1
-14.641524 23.015843 -8.722192 28.638783 -1.004219 1.880271 0.101531 -0.033567 573170.000000 0 0 1
-13.584224 21.916543 -9.155792 27.362283 -1.015934 1.911991 0.088017 -0.019702 458972.000000 0 0 1
-13.619624 21.563843 -10.506392 27.584013 -1.007468 1.961552 0.084793 -0.018356 -16608.300000 0 0 1
-12.987324 20.355843 -10.845992 26.470106 -1.002893 1.992971 0.077810 -0.021477 -231608.000000 0 0 1
-13.197024 19.872343 -12.266192 26.824074 -0.984580 2.045734 0.090109 -0.017563 -586057.000000 0 0 1
-14.480624 19.448043 -12.589192 27.320370 -0.930773 2.049691 0.111622 -0.015920 -789621.000000 0 0 1
-14.689524 19.053543 -13.957392 27.814177 -0.914015 2.096485 0.109619 -0.012890 105781.000000 0 0 1
-16.157424 18.657843 -14.209492 28.479592 -0.857095 2.093167 0.110550 -0.013538 29216.600000 0 0 1
-16.971024 19.759343 -14.523992 29.822704 -0.861166 2.079461 0.103813 -0.021144 -5448.390000 0 0 1
-18.272524 19.294943 -14.892292 30.462442 -0.812607 2.081595 0.105857 -0.023793 110111.000000 0 0 1
-19.086724 20.439743 -15.519492 31.983445 -0.819616 2.077428 0.106947 -0.031934 -229202.000000 0 0 1
-19.608624 21.420043 -14.648292 32.525203 -0.829520 2.037973 0.109867 -0.035130 278557.000000 0 0 1
-20.269324 22.471443 -15.313492 33.916284 -0.836875 2.039252 0.118475 -0.034751 -269432.000000 0 0 1
-20.933524 23.503543 -14.454892 34.634851 -0.843169 2.001325 0.118412 -0.029336 -296752.000000 0 0 1
-22.244524 23.199843 -14.041692 35.074502 -0.806417 1.982683 0.153062 -0.035354 -73894.300000 0 0 1
-22.824224 24.302243 -13.371292 35.921243 -0.816751 1.952217 0.151657 -0.040342 -13142.600000 0 0 1
-26.123584 -0.361257 3.824308 26.404498 0.013828 1.425450 0.189334 -0.052880 -323718.000000 0 0 1
-26.765324 0.325643 4.841708 27.201669 -0.012166 1.391850 0.222504 -0.052542 206304.000000 0 0 1
-28.112084 -0.116057 4.930508 28.541420 0.004128 1.397176 0.250452 -0.052638 87540.800000 0 0 1
-28.818434 0.459143 6.165408 29.474145 -0.015931 1.360060 0.244453 -0.050107 -353490.000000 0 0 1
-29.168684 1.789743 5.814708 29.796412 -0.061282 1.374388 0.267408 -0.055186 48538.100000 0 0 1
-29.667844 2.538643 6.887408 30.562429 -0.085361 1.343489 0.288736 -0.046860 -514212.000000 0 0 1
-28.632824 3.129843 7.846608 29.853037 -0.108877 1.304831 0.296976 -0.051427 -447744.000000 0 0 1
-27.966864 2.167543 8.598708 29.339079 -0.077349 1.273349 0.269672 -0.061167 223860.000000 0 0 1
-26.768304 2.626943 9.174208 28.418463 -0.097823 1.242083 0.258745 -0.073299 113754.000000 0 0 1
-25.901734 1.530243 9.930208 27.782198 -0.059010 1.205281 0.223670 -0.066162 489714.000000 0 0 1
-24.862824 0.974043 9.101908 26.494406 -0.039157 1.220112 0.220472 -0.064437 804510.000000 0 0 1
-25.197734 -0.256257 8.464108 26.582562 0.010169 1.246746 0.187696 -0.057286 -475617.000000 0 0 1
-23.955424 -0.857757 7.811808 25.211554 0.035791 1.255761 0.161985 -0.056623 -143093.000000 0 0 1
-23.036224 -1.388057 8.743808 24.678908 0.060183 1.208628 0.172599 -0.073761 -240222.000000 0 1 0
-21.965024 -2.076857 8.184708 23.532214 0.094273 1.215563 0.193865 -0.056880 -1269850.000000 0 1 0
-20.819024 -2.186257 9.130608 22.838115 0.104629 1.159501 0.154928 -0.036743 -513775.000000 0 1 0
-20.067424 -0.980057 9.394308 22.179158 0.048799 1.133420 0.133568 -0.043749 991220.000000 0 1 0
-20.610024 -0.348557 10.545208 23.153747 0.016910 1.097927 0.142526 -0.046664 -268725.000000 0 1 0
-20.152724 1.135043 10.681108 22.836521 -0.056263 1.084086 0.100144 -0.034724 -345163.000000 0 1 0
-20.512324 2.178143 9.817308 22.844678 -0.105791 1.126590 0.107294 -0.036701 1379990.000000 0 1 0
-21.936324 2.398443 9.648508 24.084197 -0.108904 1.158608 0.148758 -0.051002 841717.000000 0 1 0
-22.264624 3.824243 9.099408 24.354416 -0.170103 1.187883 0.142403 -0.059169 -370067.000000 0 1 0
-22.367824 4.692743 10.162408 25.012316 -0.206800 1.152399 0.132878 -0.052239 545619.000000 0 0 1
-22.969324 5.924643 9.741708 25.643559 -0.252435 1.181120 0.128838 -0.047236 68152.600000 0 0 1
-23.037624 6.997743 10.842008 26.405486 -0.294896 1.147688 0.128133 -0.046287 -56052.700000 0 0 1
-24.062424 6.714743 11.764408 27.613210 -0.272132 1.130682 0.130130 -0.038714 72383.400000 0 0 1
-24.147424 7.634543 12.881408 28.413290 -0.306219 1.100267 0.115956 -0.026198 -187042.000000 0 0 1
-25.099824 7.235043 14.012008 29.642594 -0.280643 1.078446 0.132124 -0.028281 -995394.000000 0 0 1
-26.419464 7.157343 13.621908 30.574042 -0.264561 1.109021 0.144018 -0.033364 -1270110.000000 0 0 1
-27.139504 6.442243 14.587608 31.477826 -0.233062 1.088940 0.140303 -0.040832 -43027.800000 0 0 1
-28.639804 6.456243 14.192308 32.608942 -0.221723 1.120505 0.148708 -0.035886 -29604.000000 0 0 1
-28.904264 5.650543 13.054508 32.214986 -0.193057 1.153565 0.183529 -0.030092 702090.000000 0 0 1
-30.262324 5.875543 12.651908 33.322681 -0.191768 1.181348 0.224588 -0.037012 443717.000000 0 0 1
-30.732014 4.949043 11.484008 33.178791 -0.159668 1.217359 0.257728 -0.041907 -206422.000000 0 0 1
-31.037414 3.644643 11.992608 33.472782 -0.116892 1.204372 0.223404 -0.038268 112536.000000 0 0 1
-31.565874 2.823243 11.013908 33.551174 -0.089202 1.236323 0.225741 -0.029329 359892.000000 0 0 1
-32.900864 2.149043 11.481308 34.912830 -0.065226 1.235704 0.181562 -0.014236 399543.000000 0 0 1
-32.684344 0.980643 12.238508 34.914311 -0.029994 1.212660 0.173898 -0.015555 -694280.000000 0 0 1
-33.883374 0.344043 12.531508 36.128107 -0.010153 1.216572 0.139064 -0.020499 -720281.000000 0 0 1
-33.813534 -0.614857 13.757008 36.510114 0.018182 1.184457 0.106043 -0.021152 27926.400000 0 0 1
-33.247414 -1.918157 13.496608 35.933666 0.057630 1.185755 0.135871 -0.016728 330077.000000 0 0 1
-33.523104 -2.899057 14.465808 36.625983 0.086265 1.164772 0.121773 -0.013486 -125338.000000 0 0 1
-33.314624 -4.375857 14.098708 36.438797 0.130602 1.173513 0.126163 -0.015055 752547.000000 0 0 1
-34.403132 -4.874457 13.274108 37.195938 0.140750 1.205881 0.112669 -0.027150 832420.000000 0 0 1
-34.530315 -6.273157 13.221608 37.503414 0.179711 1.210508 0.133307 -0.023662 -54674.300000 0 0 1
-35.711792 -6.784857 12.283108 38.369795 0.187752 1.244936 0.128695 -0.034148 1614050.000000 0 0 1
-37.051934 -6.595757 12.753508 39.736656 0.176168 1.244063 0.115907 -0.035832 648367.000000 0 0 1
-37.484294 -5.269657 12.963508 40.011175 0.139668 1.240845 0.124586 -0.037823 -1819640.000000 0 0 1
36.834430 -5.137257 12.605908 39.269270 -0.138575 1.243998 0.135316 -0.035603 -941401.000000 0 0 1
35.973390 -5.897657 13.426908 38.847767 -0.162499 1.217888 0.129363 -0.036465 345353.000000 0 0 1
34.622950 -5.651557 13.021308 37.419824 -0.161805 1.215382 0.149237 -0.034641 1007090.000000 0 0 1
33.559910 -6.732957 13.393808 36.755875 -0.197996 1.197809 0.148185 -0.031694 556479.000000 0 0 1
32.858610 -6.561257 14.634508 36.563741 -0.197089 1.159011 0.144522 -0.020712 425076.000000 0 0 1
31.694640 -7.354157 14.743308 35.721128 -0.227997 1.145343 0.128243 -0.025268 256344.000000 0 0 1
31.087240 -7.335157 16.176908 35.803818 -0.231716 1.101991 0.118442 -0.017791 257591.000000 0 0 1
32.064950 -7.723257 17.145008 37.172046 -0.236361 1.091411 0.105343 -0.013747 358349.000000 0 0 1
31.509050 -8.078357 18.405308 37.374262 -0.250976 1.055883 0.086916 -0.020089 -252168.000000 0 0 1
32.550930 -8.778757 19.308008 38.851368 -0.263426 1.050691 0.087658 -0.018047 716349.000000 0 0 1
33.620800 -7.961757 19.790808 39.817381 -0.232527 1.050613 0.090272 -0.015940 801448.000000 0 0 1
34.798950 -8.087057 18.982608 40.456233 -0.228341 1.082396 0.061831 -0.009352 629060.000000 0 0 1
36.126050 -7.539857 19.569308 41.771985 -0.205756 1.083228 0.040844 -0.008615 593940.000000 0 0 1
36.576110 -8.104257 20.828208 42.863796 -0.218050 1.063385 0.040400 -0.015059 15710.500000 0 0 1
-37.838344 -7.838257 21.056108 44.006116 0.204262 1.071872 0.049522 -0.013320 7188.430000 0 0 1
-37.308484 -8.498157 22.371408 44.324052 0.223960 1.041734 0.044597 -0.019303 -223094.000000 0 0 1
-37.797694 -7.873757 23.531308 45.214867 0.205376 1.023438 0.037609 -0.014529 104360.000000 0 0 1
37.712390 -8.788557 24.541708 45.844940 -0.228955 1.005910 0.019667 -0.022164 -428505.000000 0 0 1
37.061890 -8.264157 25.827008 45.922917 -0.219393 0.973512 0.046066 -0.022208 298921.000000 0 0 1
-37.820074 -7.476257 26.596908 46.836396 0.195163 0.966882 0.027801 -0.025729 331565.000000 0 0 1
37.263540 -6.973357 27.729008 46.969107 -0.184996 0.939283 0.039825 -0.023615 574444.000000 0 0 1
-37.542874 -6.328257 28.785308 47.729532 0.166991 0.923424 0.049327 -0.018240 748169.000000 0 0 1
-36.746824 -7.253857 29.527008 47.694777 0.194895 0.903222 0.044731 -0.014050 495538.000000 0 0 1
-35.413177 -6.731357 29.647808 46.673299 0.187840 0.882503 0.052912 -0.020947 827907.000000 0 0 1
-34.840631 -7.236457 30.993108 47.189073 0.204790 0.854248 0.050033 -0.021721 -96380.900000 0 0 1
-34.754414 -8.644057 30.989808 47.359869 0.243772 0.857477 0.044889 -0.023974 174232.000000 0 0 1
-34.261468 -9.147057 32.190808 47.893267 0.260893 0.833706 0.038109 -0.019431 -291849.000000 0 0 1
-34.382333 -10.698457 32.314708 48.382251 0.301665 0.839407 0.046613 -0.019400 126071.000000 0 0 1
-35.733844 -11.058957 32.557008 49.589988 0.300132 0.854595 0.047038 -0.024638 246620.000000 0 0 1
-35.939396 -12.446757 32.533708 50.050016 0.333398 0.863180 0.048205 -0.022509 -1045760.000000 0 0 1
-37.375064 -12.781157 32.806008 51.346739 0.329503 0.877714 0.065112 -0.026521 -1118460.000000 0 0 1
-37.656574 -14.147457 32.809808 51.910034 0.359381 0.886599 0.072701 -0.037004 -442902.000000 0 0 1
36.805310 -14.323657 33.239308 51.620244 -0.371139 0.871185 0.072384 -0.038327 -501508.000000 0 0 1
36.332720 -15.825757 33.221008 51.712247 -0.410797 0.873144 0.066058 -0.020373 -88442.600000 0 0 1
36.721250 -16.550557 -33.023501 52.085725 -0.423442 2.257540 0.083072 -0.039601 224143.000000 0 0 1
36.346340 -17.901657 -33.164401 52.358411 -0.457654 2.256750 0.089814 -0.053952 -193629.000000 0 0 1
36.892750 -18.754557 -31.931501 52.272642 -0.470308 2.227948 0.093419 -0.044851 106318.000000 0 0 1
36.249410 -18.415457 -30.730501 50.965797 -0.470044 2.218007 0.105493 -0.042965 -214314.000000 0 0 1
36.643890 -19.201357 -29.633201 50.888047 -0.482662 2.192378 0.105270 -0.043890 -381894.000000 0 0 1
35.692890 -19.077057 -28.371301 49.425168 -0.490848 2.182210 0.101407 -0.033570 1288660.000000 0 0 1
34.371450 -19.624157 -28.406701 48.718013 -0.518780 2.193316 0.088708 -0.022619 1144820.000000 0 0 1
33.456140 -18.994957 -29.336101 48.381076 -0.516374 2.222265 0.066636 -0.014795 -907583.000000 0 0 1
32.238390 -19.848757 -29.577401 48.042789 -0.551874 2.234003 0.048031 -0.004983 -549297.000000 0 0 1
31.364970 -19.277957 -30.552501 47.841993 -0.551110 2.263490 0.035612 0.003112 727570.000000 0 0 1
30.239940 -20.155357 -30.723201 47.587892 -0.587897 2.272618 0.031251 0.007159 1433530.000000 0 0 1
29.061140 -19.788757 -31.726301 47.357184 -0.597816 2.304919 0.021813 0.014464 1227960.000000 0 0 1
29.475040 -19.861657 -33.095501 48.565168 -0.592957 2.320560 0.016644 0.012133 904600.000000 0 0 1
28.290340 -19.625357 33.488108 48.030733 -0.606494 0.799281 0.060158 0.004466 1035240.000000 0 0 1
28.552940 -19.628457 31.923308 47.113101 -0.602247 0.826317 0.060916 -0.003462 -368140.000000 0 0 1
29.386840 -18.568357 31.564708 46.954244 -0.563517 0.833561 0.052097 -0.010436 -168265.000000 0 0 1
29.582940 -18.393857 30.166208 46.081280 -0.556275 0.857103 0.057579 -0.022846 19595.800000 0 0 1
28.428140 -17.714557 29.380908 44.555610 -0.557257 0.850748 0.060226 -0.017502 -23335.900000 0 0 1
28.186540 -16.388057 29.928608 44.258005 -0.526641 0.828163 0.065575 -0.024632 194784.000000 0 0 1
27.294040 -15.653557 29.125508 42.875327 -0.520718 0.823978 0.052170 -0.021129 -84985.900000 0 0 1
27.173240 -14.178757 29.497908 42.538790 -0.480928 0.804550 0.064949 -0.025671 -967568.000000 0 0 1
28.383240 -13.554057 29.344208 43.016314 -0.445517 0.820077 0.078215 -0.025645 -917423.000000 0 0 1
28.341840 -12.223857 29.723308 42.850410 -0.407195 0.804248 0.110799 -0.035304 -499726.000000 0 0 1
29.714740 -11.577657 29.884708 43.704733 -0.371532 0.817857 0.124101 -0.038619 -576893.000000 0 0 1
30.262540 -11.266057 28.634808 43.158980 -0.356382 0.845346 0.111028 -0.038150 751203.000000 0 0 1
31.675570 -11.010857 28.770908 44.185358 -0.334547 0.861709 0.103598 -0.032484 953525.000000 0 0 1
32.329230 -10.309857 27.567308 43.719889 -0.308707 0.888543 0.115387 -0.039883 -145493.000000 0 0 1
32.043130 -8.921457 27.566108 43.200056 -0.271543 0.878764 0.103129 -0.031203 54750.600000 0 0 1
32.603200 -8.301857 26.435408 42.786917 -0.249335 0.904805 0.101324 -0.025823 -8438.640000 0 0 1
32.365070 -6.792857 26.393108 42.311190 -0.206880 0.897220 0.103105 -0.020332 429523.000000 0 0 1
30.983560 -6.443757 26.297108 41.146578 -0.205050 0.877458 0.102411 -0.015964 325892.000000 0 0 1
30.882840 -5.059957 26.358808 40.916253 -0.162401 0.870802 0.107979 -0.013264 247831.000000 0 0 1
29.423940 -4.580057 26.198908 39.662677 -0.154418 0.849254 0.091780 -0.011124 321958.000000 0 0 1
28.864740 -4.769657 24.877108 38.403038 -0.163762 0.866116 0.106104 -0.012297 214462.000000 0 0 1
27.468340 -4.591657 24.802608 37.292927 -0.165630 0.843202 0.100532 -0.015183 28387.100000 0 0 1
26.760640 -5.100557 23.508808 35.983490 -0.188340 0.858832 0.104101 -0.016022 -139456.000000 0 0 1
26.897440 -4.230757 22.389608 35.251470 -0.156014 0.882607 0.123320 -0.007791 533179.000000 0 0 1
26.037640 -4.631557 21.312608 33.965236 -0.176038 0.892480 0.120087 -0.008789 302339.000000 0 0 1
26.401940 -3.786957 20.068808 33.379043 -0.142463 0.925745 0.148708 -0.007768 192712.000000 0 0 1
25.961940 -2.446957 20.178208 32.972261 -0.093974 0.912241 0.123390 -0.000500 -126728.000000 0 0 1
26.317940 -1.681657 19.046208 32.530293 -0.063811 0.945310 0.145574 -0.007438 -589747.000000 0 0 1
25.325540 -0.614857 18.665608 31.466902 -0.024273 0.935790 0.115649 -0.015448 -1087460.000000 0 0 1
24.173040 -1.191857 18.176308 30.267715 -0.049265 0.926648 0.114221 -0.013010 -970214.000000 0 0 1
23.215740 -0.320957 17.629308 29.152463 -0.013824 0.921372 0.119352 -0.018091 505994.000000 0 0 1
21.928140 -1.048857 17.167808 27.868926 -0.047795 0.907117 0.121491 -0.028643 -156947.000000 0 0 1
22.257740 -1.900957 16.082608 27.525823 -0.085200 0.946812 0.148000 -0.021158 820069.000000 0 0 1
21.084140 -2.580657 15.605708 26.357900 -0.121792 0.937172 0.156561 -0.031067 232469.000000 0 0 1
21.252240 -3.023657 14.187208 25.730858 -0.141326 0.986792 0.177806 -0.039183 -208103.000000 0 0 1
20.284740 -3.909257 13.650708 24.760751 -0.190385 0.986870 0.188979 -0.044093 512100.000000 0 1 0
20.475440 -4.147057 12.217408 24.201380 -0.199835 1.041620 0.193711 -0.048989 -256177.000000 0 1 0
19.452740 -5.154257 11.696908 23.276450 -0.259011 1.044284 0.189973 -0.051952 -185183.000000 0 1 0
19.641340 -6.451057 12.314608 24.063415 -0.317343 1.033568 0.197602 -0.057743 592345.000000 0 1 0
18.437740 -7.178857 12.196208 23.242929 -0.371298 1.018401 0.192137 -0.041561 -117337.000000 0 1 0
18.537840 -8.656557 12.437308 23.943143 -0.436874 1.024587 0.197278 -0.056671 -331440.000000 0 1 0
19.135340 -9.380657 11.382208 24.160145 -0.455799 1.080242 0.187424 -0.064726 420941.000000 0 1 0
18.922040 -10.775657 11.508808 24.629475 -0.517673 1.084587 0.208726 -0.064341 72736.400000 0 1 0
19.565240 -11.411557 10.258608 24.864860 -0.528017 1.145518 0.215693 -0.066484 318521.000000 0 1 0
18.881240 -10.966957 9.079908 23.647835 -0.526211 1.176711 0.179961 -0.056149 450949.000000 0 1 0
19.499640 -11.398357 7.890308 23.925206 -0.528976 1.234715 0.194286 -0.068448 16361.600000 0 1 0
18.845840 -10.832557 6.608508 22.719647 -0.521683 1.275658 0.152997 -0.046644 820.563000 0 1 0
19.043840 -9.433357 6.501008 22.224292 -0.459920 1.273937 0.122572 -0.042585 282353.000000 0 1 0
19.740840 -9.157957 5.330608 22.405007 -0.434360 1.330572 0.110030 -0.037746 -424738.000000 0 1 0
20.074040 -7.692157 5.223008 22.122752 -0.365931 1.332454 0.117935 -0.037066 -465781.000000 0 1 0
20.674540 -7.374657 3.952808 22.303517 -0.342633 1.392627 0.114855 -0.033871 708210.000000 0 1 0
21.093540 -6.010557 3.823108 22.263881 -0.277591 1.398223 0.134050 -0.034619 -268354.000000 0 1 0
22.115940 -5.914857 2.666108 23.047960 -0.261331 1.454860 0.170234 -0.033488 -182100.000000 0 1 0
21.535640 -6.286757 1.447308 22.481143 -0.284031 1.506373 0.143567 -0.034390 569463.000000 0 1 0
22.017740 -5.547057 0.328408 22.708117 -0.246800 1.556334 0.152645 -0.028846 131667.000000 0 1 0
-25.433054 -14.354957 -0.228392 29.205431 0.513848 1.578617 0.174203 -0.036247 -546243.000000 0 0 1
-24.223724 -13.749757 -0.621692 27.860925 0.516267 1.593112 0.127083 -0.021043 430069.000000 0 0 1
-23.074524 -14.415857 -0.098192 27.207724 0.558421 1.574405 0.127451 -0.010529 476291.000000 0 0 1
-22.658224 -14.152057 1.369408 26.749787 0.558303 1.519581 0.158775 -0.034994 -424672.000000 0 0 1
-23.538824 -14.755457 2.303808 27.876644 0.559933 1.488059 0.151801 -0.013842 176526.000000 0 0 1
-23.041824 -14.476757 3.567208 27.444984 0.560956 1.440451 0.156453 -0.014260 652420.000000 0 0 1
-23.828124 -15.262457 4.724808 28.688777 0.569684 1.405351 0.194629 -0.012106 527422.000000 0 0 1
-23.471224 -16.677757 4.804308 29.191220 0.617779 1.405464 0.239952 -0.047727 -93565.600000 0 0 1
-24.249924 -17.382957 5.712508 30.378591 0.621929 1.381626 0.228804 -0.042788 -168981.000000 0 0 1
-24.658524 -18.817757 5.276008 31.464060 0.651854 1.402317 0.183130 -0.035887 -41044.800000 0 0 1
-25.259304 -19.514057 6.319508 32.538701 0.657777 1.375339 0.180245 -0.043152 -166105.000000 0 0 1
-25.595164 -20.816257 5.927808 33.519664 0.682791 1.393016 0.170463 -0.049676 -220181.000000 0 0 1
-26.019534 -21.605857 7.138608 34.565719 0.692987 1.362777 0.142486 -0.036576 -562829.000000 0 0 1
-25.054744 -21.978957 8.040808 34.285119 0.720096 1.334064 0.141972 -0.029464 -866420.000000 0 0 1
-25.644094 -22.806357 8.996208 35.477898 0.726895 1.314425 0.129166 -0.027632 -319676.000000 0 0 1
-24.746924 -23.068857 10.177208 35.329279 0.750318 1.278588 0.127899 -0.039642 -206343.000000 0 0 1
-24.625324 -21.958557 11.060708 34.798335 0.728214 1.247334 0.130463 -0.042350 -103830.000000 0 0 1
-23.703024 -22.219957 12.087108 34.664939 0.753115 1.214630 0.136862 -0.048405 -236068.000000 0 0 1
-24.032124 -21.484257 13.400608 34.909778 0.729480 1.176819 0.092984 -0.031395 51834.800000 0 0 1
-25.178994 -22.096657 13.979308 36.299656 0.720291 1.175471 0.078009 -0.029235 14884.800000 0 0 1
-25.520524 -21.183157 15.039408 36.417126 0.692794 1.145077 0.067204 -0.009224 714309.000000 0 0 1
-26.982234 -21.512757 15.565408 37.856593 0.673088 1.147062 0.036952 -0.005570 339338.000000 0 0 1
-28.004584 -21.250757 14.656208 38.087476 0.649129 1.175801 0.049268 -0.006425 -381750.000000 0 0 1
-28.356404 -22.361257 13.887808 38.690861 0.667738 1.203661 0.039798 -0.019354 -201234.000000 0 0 1
-29.498854 -23.233157 14.488208 40.247611 0.667131 1.202553 0.028915 -0.015150 -177401.000000 0 0 1
-29.212434 -23.879157 15.755208 40.887737 0.685280 1.175233 0.024808 -0.004826 -309599.000000 0 0 1
-30.156244 -24.874257 16.110108 42.280768 0.689708 1.179890 0.000646 0.004789 -104189.000000 0 0 1
-30.146044 -26.197337 15.257008 42.753488 0.715430 1.205892 0.016005 -0.004837 -201803.000000 0 0 1
-30.699414 -26.193177 13.986508 42.710174 0.706357 1.237167 0.032432 -0.013907 -224508.000000 0 0 1
-31.759944 -27.131317 13.974008 44.046286 0.706963 1.247960 0.047730 -0.020436 210862.000000 0 0 1
-32.357664 -27.431987 12.541508 44.235978 0.703200 1.283340 0.086144 -0.031872 45886.100000 0 0 1
-31.624834 -28.382427 11.804008 44.102459 0.731417 1.299843 0.072052 -0.031956 -5960.610000 0 0 1
-32.269504 -28.730867 10.584908 44.483974 0.727453 1.330543 0.098380 -0.027472 -41460.900000 0 0 1
-31.700054 -29.977027 9.997108 44.760002 0.757469 1.345547 0.086039 -0.036146 -48727.000000 0 0 1
-31.987654 -31.124387 10.747808 45.907002 0.771721 1.334482 0.081336 -0.027456 -228904.000000 0 0 1
-31.472784 -32.222667 10.082508 46.157268 0.797171 1.350583 0.103795 -0.034179 -183246.000000 0 0 1
-31.797354 -33.517887 10.758108 47.436878 0.811734 1.342018 0.097783 -0.034720 -141770.000000 0 0 1
-33.124544 33.684118 10.655208 48.429213 -0.793774 1.348965 0.075030 -0.025824 -36063.400000 0 0 1
-33.310284 32.505104 11.466508 47.933679 -0.773165 1.329238 0.105592 -0.034551 -393475.000000 0 0 1
-34.701192 32.442458 12.108308 49.023432 -0.751771 1.321223 0.111256 -0.031085 183952.000000 0 0 1
-35.759686 31.924117 11.310008 49.252621 -0.728790 1.339096 0.063556 -0.024753 22134.400000 0 0 1
-36.502364 32.925525 10.690008 50.306948 -0.733925 1.356668 0.093579 -0.022736 -140019.000000 0 0 1
37.825660 32.511265 10.320408 50.934013 0.709985 1.366760 0.092086 -0.005353 179594.000000 0 0 1
37.817370 31.878131 9.067708 50.285107 0.700387 1.389479 0.061289 -0.003952 164822.000000 0 0 1
36.524420 31.856875 8.500208 49.205155 0.717246 1.397175 0.053960 -0.000970 -106338.000000 0 0 1
36.390060 31.095059 7.219308 48.407205 0.707097 1.421101 0.047383 -0.003635 -186292.000000 0 0 1
36.505500 29.692109 7.338908 47.624914 0.682834 1.416082 0.084484 -0.012536 107669.000000 0 0 1
36.700260 29.126199 6.065308 47.244391 0.670841 1.442059 0.097294 -0.013622 -132470.000000 0 0 1
36.917190 27.617389 6.032308 46.497181 0.642278 1.440695 0.113480 -0.024289 -287275.000000 0 0 1
35.799780 26.837429 6.361108 45.192206 0.643279 1.429571 0.127116 -0.032807 -226230.000000 0 0 1
36.022370 26.256289 7.603908 45.219722 0.629852 1.401839 0.114704 -0.026754 -785970.000000 0 0 1
34.856020 25.465569 8.076908 43.916668 0.630965 1.385829 0.117957 -0.029316 -968860.000000 0 0 1
34.689840 24.367559 7.192908 42.998847 0.612362 1.402725 0.137270 -0.038549 4614.350000 0 0 1
33.515650 23.613579 7.424408 41.665594 0.613776 1.391649 0.143024 -0.041373 -523382.000000 0 0 1
33.572360 22.166249 6.855308 40.809817 0.583549 1.402014 0.131363 -0.043158 1027690.000000 0 0 1
34.646590 21.345849 7.397508 41.361269 0.552175 1.390978 0.144108 -0.041232 1240100.000000 0 0 1
36.006230 21.677649 7.134108 42.629386 0.541927 1.402653 0.160118 -0.041547 109693.000000 0 0 1
36.911170 20.455349 6.900508 42.760645 0.506045 1.408712 0.121152 -0.036333 -136056.000000 0 0 1
36.864450 19.722949 5.728908 42.199559 0.491264 1.434618 0.152208 -0.046552 -362928.000000 0 0 1
37.604980 18.565749 5.827608 42.341263 0.458599 1.432724 0.165996 -0.046339 -251386.000000 0 0 1
37.086750 17.455449 4.871508 41.277734 0.439906 1.452503 0.164510 -0.050311 -256069.000000 0 0 1
37.488110 17.594449 3.537908 41.562481 0.438815 1.485571 0.190784 -0.049065 68574.200000 0 0 1
36.987500 16.560849 2.673508 40.613846 0.420974 1.504921 0.159163 -0.040488 -864207.000000 0 0 1
-37.856264 16.183549 1.529808 41.198839 -0.403986 1.533655 0.191904 -0.033227 -347501.000000 0 0 1
-36.689904 15.497949 1.846008 39.871584 -0.399669 1.524481 0.192001 -0.056182 -535359.000000 0 0 1
-35.586434 16.271949 2.220808 39.193145 -0.428868 1.514103 0.212728 -0.056913 -238492.000000 0 0 1
-34.280018 15.421049 2.336208 37.661469 -0.422734 1.508725 0.210028 -0.054584 310488.000000 0 0 1
-34.096288 14.605649 3.479108 37.255685 -0.404717 1.477275 0.209300 -0.055301 173976.000000 0 0 1
-32.758074 14.145249 3.479008 35.850844 -0.407624 1.473602 0.213761 -0.056188 100579.000000 0 0 1
-32.349044 13.462449 4.781308 35.363245 -0.394361 1.435175 0.227454 -0.041513 -242676.000000 0 0 1
-32.964984 12.224349 4.952508 35.505665 -0.355108 1.430855 0.253840 -0.046815 183194.000000 0 0 1
-32.439274 11.546849 6.078508 34.965476 -0.341968 1.396065 0.215217 -0.036764 -123426.000000 0 0 1
-32.667204 10.018249 6.020208 34.695165 -0.297570 1.396396 0.254152 -0.045341 -677064.000000 0 0 1
-34.021814 9.726649 6.052908 35.898875 -0.278466 1.401377 0.244897 -0.025814 -827251.000000 0 0 1
-34.091030 8.330449 6.158008 35.630265 -0.239662 1.397093 0.273456 -0.026739 246031.000000 0 0 1
-35.555213 7.819649 6.120208 36.915810 -0.216483 1.404239 0.230691 -0.012152 305202.000000 0 0 1
-36.391044 8.024849 7.250708 37.964181 -0.217044 1.378628 0.205898 -0.012916 -99908.000000 0 0 1
-37.621634 7.375649 7.121308 38.993597 -0.193593 1.387138 0.165252 -0.017391 -78430.500000 0 0 1
37.606380 6.692449 8.420608 39.114388 0.176117 1.353816 0.149041 -0.022245 -295065.000000 0 0 1
37.133950 7.491449 9.451708 39.043397 0.199069 1.326285 0.179166 -0.027709 322580.000000 0 0 1
-37.701354 8.283949 10.180308 39.920604 -0.216288 1.312934 0.186424 -0.031875 -125287.000000 0 0 1
37.416370 9.024449 11.333908 40.123346 0.236670 1.284421 0.164575 -0.036887 -355469.000000 0 0 1
37.002880 8.261149 12.431308 39.899839 0.219655 1.253959 0.149349 -0.037241 481328.000000 0 0 1
36.599160 9.178949 13.434208 40.052835 0.245728 1.228754 0.168188 -0.049333 -480998.000000 0 0 1
36.038810 8.486849 14.673208 39.826191 0.231278 1.193475 0.191271 -0.059536 -201920.000000 0 0 1
34.684400 8.086849 14.585008 38.485415 0.229063 1.182108 0.193572 -0.052084 282074.000000 0 0 1
34.279860 7.410549 15.811808 38.471266 0.212902 1.147242 0.191187 -0.049837 486805.000000 0 0 1
32.769530 7.085449 15.948408 37.126775 0.212943 1.126784 0.189527 -0.040023 368710.000000 0 0 1
31.934790 8.227749 16.035408 36.669619 0.252158 1.118209 0.155799 -0.043025 437435.000000 0 0 1
30.525040 8.091949 16.085708 35.440199 0.259132 1.099678 0.156032 -0.033543 923426.000000 0 0 1
29.819040 7.510649 17.367908 35.316133 0.246742 1.056659 0.159551 -0.053786 -16229.700000 0 0 1
30.168540 8.311349 18.511508 36.357877 0.268828 1.036603 0.174890 -0.062153 303364.000000 0 0 1
29.335840 8.052149 19.631908 36.205530 0.267884 0.997701 0.177260 -0.048618 -161838.000000 0 0 1
29.447540 6.743849 20.495508 36.506204 0.225130 0.974689 0.173263 -0.043890 448819.000000 0 0 1
28.446440 6.814949 21.524108 36.317085 0.235140 0.936424 0.141254 -0.037859 304012.000000 0 0 1
28.568240 5.715849 22.447208 36.778967 0.197470 0.914323 0.135789 -0.034510 -261100.000000 0 0 1
27.501440 5.688149 23.541608 36.645485 0.203955 0.873151 0.145459 -0.026913 1461010.000000 0 0 1
26.232640 5.194849 23.043408 35.300659 0.195501 0.859554 0.088484 -0.022478 2245000.000000 0 0 1
25.006840 5.982149 23.075808 34.548821 0.234808 0.839387 0.129819 -0.016249 1232760.000000 0 0 1
23.723640 5.302249 22.620908 33.205879 0.219887 0.821352 0.120371 -0.018658 -951108.000000 0 0 1
23.501840 5.354549 21.210008 32.107197 0.224011 0.849179 0.104107 -0.022505 884388.000000 0 0 1
22.140640 5.249749 20.794408 30.824912 0.232810 0.830377 0.067614 -0.014644 202645.000000 0 0 1
21.227640 4.029549 21.226708 30.288993 0.187594 0.794270 0.096523 -0.019691 -449373.000000 0 0 1
20.031540 3.879549 20.537308 28.949862 0.191304 0.782136 0.083884 -0.018318 -49630.700000 0 0 1
18.936540 4.717949 20.916008 28.606485 0.244174 0.750771 0.101582 -0.021163 -1224520.000000 0 0 1
17.781440 4.295249 20.098308 27.176658 0.237018 0.738405 0.140204 -0.027431 -1539050.000000 0 0 1
17.325140 3.013049 20.337708 26.886080 0.172190 0.712943 0.131252 -0.025806 1046690.000000 0 0 1
16.029040 2.682549 19.769208 25.591947 0.165819 0.688063 0.137714 -0.030692 681128.000000 0 0 1
15.267340 1.655849 20.589208 25.685579 0.108035 0.640853 0.154877 -0.033952 -589822.000000 0 0 1
15.612040 0.308749 20.421208 25.707136 0.019774 0.652812 0.113835 -0.044743 145037.000000 0 0 1
14.888940 -0.432651 21.376508 26.054228 -0.029050 0.608577 0.127910 -0.051651 -76361.300000 0 0 1
15.061040 -1.938651 21.386308 26.229134 -0.128016 0.617438 0.103970 -0.039576 -115224.000000 0 0 1
14.633340 -2.419351 20.157208 25.026005 -0.163849 0.634361 0.111910 -0.037530 38777.400000 0 0 1
14.811940 -3.858651 20.175508 25.324571 -0.254845 0.649019 0.092302 -0.027073 -52933.000000 0 0 1
14.378940 -4.584451 18.875808 24.167483 -0.308642 0.674464 0.105981 -0.034252 503643.000000 0 1 0
12.991340 -4.381051 18.622508 23.125015 -0.325252 0.634620 0.118851 -0.036937 198763.000000 0 1 0
12.635640 -4.920651 17.363008 22.030575 -0.371358 0.663028 0.126192 -0.037234 -322921.000000 0 1 0
11.122340 -5.001351 17.215508 21.097243 -0.422577 0.616326 0.119513 -0.036396 -270033.000000 0 1 0
10.417540 -5.884251 18.068408 21.670646 -0.514166 0.584889 0.113709 -0.032329 -884302.000000 0 1 0
9.055640 -5.583451 18.016208 20.922794 -0.552516 0.533406 0.101805 -0.037342 -196350.000000 0 1 0
8.201340 -6.396151 19.066208 21.718495 -0.662359 0.499382 0.102308 -0.033717 143789.000000 0 1 0
8.141040 -7.789151 18.875508 21.982543 -0.763312 0.538149 0.097785 -0.038817 215299.000000 0 1 0
9.260040 -8.408051 19.492408 23.160260 -0.737214 0.570499 0.130926 -0.035224 367171.000000 0 1 0
9.382140 -9.891651 19.061808 23.435483 -0.811827 0.620868 0.143753 -0.045116 196803.000000 0 1 0
9.347040 -10.064751 17.655708 22.369408 -0.822354 0.661162 0.108618 -0.027863 159754.000000 0 1 0
10.053640 -11.238751 17.261608 22.920478 -0.841000 0.718022 0.116523 -0.036473 302713.000000 0 1 0
9.825840 -11.706651 15.780408 21.968480 -0.872525 0.769411 0.095717 -0.029869 340851.000000 0 1 0
10.491840 -12.901851 15.422408 22.680105 -0.888056 0.823037 0.082098 -0.024658 -127476.000000 0 1 0
9.930340 -13.361051 14.214108 21.889957 -0.931642 0.864075 0.050533 -0.003067 -147362.000000 0 1 0
10.721740 -14.603651 13.670908 22.696169 -0.937496 0.924362 0.080611 -0.016951 -190169.000000 0 1 0
11.946840 -14.284951 13.093808 22.764767 -0.874296 0.957974 0.059798 -0.021590 -647951.000000 0 1 0
11.809240 -13.592151 11.850708 21.555603 -0.855473 0.988703 0.011320 -0.018687 -587473.000000 0 1 0
13.183940 -13.094351 11.347208 21.772401 -0.781989 1.022570 0.069200 -0.036819 62297.500000 0 1 0
14.044340 -14.053451 10.805908 22.616601 -0.785722 1.072663 0.087224 -0.040479 -46261.400000 0 1 0
15.264040 -13.473051 10.350508 22.839594 -0.723155 1.100464 0.107564 -0.054443 677663.000000 0 1 0
16.223940 -14.485851 9.636808 23.789161 -0.728861 1.153716 0.096771 -0.064105 36888.200000 0 1 0
16.822440 -15.399651 10.526608 25.118782 -0.741271 1.138372 0.091521 -0.052104 173020.000000 0 0 1
16.053740 -16.565551 10.753908 25.451652 -0.801087 1.134569 0.122449 -0.047804 63324.100000 0 0 1
16.630140 -17.403451 11.921008 26.861722 -0.808116 1.110971 0.117496 -0.042071 -417189.000000 0 0 1
17.929540 -17.875351 11.699708 27.890496 -0.783885 1.137916 0.150687 -0.054915 -146868.000000 0 0 1
18.520940 -18.222851 12.992908 29.050184 -0.777286 1.107100 0.121450 -0.045607 -213394.000000 0 0 1
19.670640 -19.196451 12.838008 30.335660 -0.773199 1.133824 0.087951 -0.049514 -243853.000000 0 0 1
20.761340 -18.681051 12.113408 30.442562 -0.732705 1.161558 0.104979 -0.050666 152340.000000 0 0 1
21.919640 -19.528751 12.170008 31.779740 -0.727779 1.177810 0.088617 -0.049441 553441.000000 0 0 1
23.017340 -19.058251 11.211508 31.917281 -0.691580 1.211872 0.148395 -0.052935 -924006.000000 0 0 1
22.860840 -19.229951 9.797408 31.438802 -0.699348 1.253884 0.120667 -0.049194 -225269.000000 0 0 1
21.776040 -18.666751 9.075108 30.083236 -0.708668 1.264356 0.127324 -0.055549 -53362.500000 0 0 1
21.487140 -17.142051 9.270608 29.008469 -0.673387 1.245507 0.193738 -0.060023 60452.100000 0 0 1
22.502140 -16.274051 8.765208 29.120782 -0.626142 1.265061 0.199047 -0.051743 209404.000000 0 0 1
22.078140 -14.916951 8.771408 28.051690 -0.594192 1.252775 0.217874 -0.062533 50203.800000 0 0 1
-35.834448 24.829043 7.873808 44.301083 -0.605933 1.392113 0.155074 -0.032250 -383124.000000 0 0 1
-35.032651 23.975043 8.633308 43.320011 -0.600154 1.370162 0.157143 -0.040527 -587222.000000 0 0 1
-33.968490 24.668043 9.173708 42.971242 -0.628097 1.355656 0.162965 -0.034838 -761444.000000 0 0 1
-32.927684 23.757043 9.859908 41.783337 -0.625005 1.332572 0.171433 -0.049485 -107299.000000 0 0 1
-32.206324 23.001843 8.901308 40.565569 -0.620194 1.349566 0.164022 -0.042026 -605929.000000 0 0 1
-31.312604 22.188343 9.553108 39.548244 -0.616479 1.326828 0.160638 -0.042436 -626286.000000 0 0 1
-30.552044 21.287443 8.589108 38.214597 -0.608548 1.344100 0.139901 -0.046839 -101157.000000 0 0 1
-31.361934 20.217543 8.110108 38.184995 -0.572607 1.356776 0.156438 -0.049444 186489.000000 0 0 1
-30.842494 19.620543 6.935708 37.206575 -0.566579 1.383289 0.152388 -0.052951 -316392.000000 0 0 1
-31.880394 19.047843 5.955608 37.611822 -0.538563 1.411783 0.161217 -0.050617 -456048.000000 0 0 1
-32.532194 17.929343 6.433708 37.698775 -0.503707 1.399296 0.182664 -0.054492 308512.000000 0 0 1
-33.527794 17.374243 5.570608 38.170787 -0.478105 1.424334 0.165934 -0.055620 106220.000000 0 0 1
-34.299541 16.218843 6.182108 38.441226 -0.441700 1.409275 0.160136 -0.048151 -341545.000000 0 0 1
-35.147213 16.610243 7.243208 39.543531 -0.441481 1.386586 0.128235 -0.040008 946945.000000 0 0 1
-36.212174 15.648843 7.460108 40.147990 -0.407905 1.383895 0.133495 -0.043410 527366.000000 0 0 1
-37.109844 15.953043 8.655508 41.310507 -0.406003 1.359709 0.106009 -0.034806 -186472.000000 0 0 1
37.446590 16.570343 8.315208 41.784759 0.416605 1.370458 0.129775 -0.041584 -299189.000000 0 0 1
36.821740 16.973943 9.496208 41.642926 0.431944 1.340733 0.123484 -0.033164 121125.000000 0 0 1
35.820990 18.160443 9.405108 41.248043 0.469214 1.340759 0.095938 -0.029103 722711.000000 0 0 1
34.508250 17.826143 8.965208 39.861832 0.476821 1.343949 0.095038 -0.040105 585695.000000 0 0 1
33.650770 18.978443 9.045308 39.678372 0.513515 1.340808 0.091374 -0.037188 -159432.000000 0 0 1
32.213010 18.776043 8.573508 38.258631 0.527730 1.344784 0.080493 -0.042620 -658923.000000 0 0 1
31.536160 20.044943 8.667408 38.359524 0.566198 1.342876 0.085800 -0.042175 390343.000000 0 0 1
30.238140 20.105143 8.081008 37.200330 0.586774 1.351821 0.047835 -0.036518 314928.000000 0 0 1
30.195640 19.928343 6.547408 36.766616 0.583355 1.391761 0.035222 -0.025359 -1274890.000000 0 0 1
30.316240 18.563743 6.217408 36.087991 0.549441 1.397648 0.049718 -0.026976 17279.600000 0 0 1
29.903140 18.243143 4.905808 35.370567 0.547794 1.431650 0.047054 -0.030146 -43212.600000 0 0 1
28.404940 18.485143 4.587308 34.199189 0.576918 1.436256 0.082235 -0.030603 -1088160.000000 0 0 1
27.510940 17.641543 5.285908 33.106143 0.570203 1.410445 0.094132 -0.034059 1311280.000000 0 0 1
26.139740 17.866643 4.854508 32.032315 0.599570 1.418660 0.114974 -0.029485 1317990.000000 0 0 1
25.324640 19.159043 5.040308 32.152932 0.647672 1.413387 0.116887 -0.022961 -922895.000000 0 0 1
25.849040 20.222543 4.322208 33.102955 0.663875 1.439854 0.092281 -0.027268 -80213.300000 0 0 1
25.472040 21.502843 4.841308 33.684349 0.701102 1.426571 0.105729 -0.021199 -234227.000000 0 0 1
26.245040 22.743843 4.324408 34.996929 0.714050 1.446914 0.046419 -0.011288 274003.000000 0 0 1
27.521740 22.804143 4.956008 36.083752 0.691930 1.433013 0.049398 -0.018389 345436.000000 0 0 1
28.309740 23.884843 4.480008 37.309484 0.700823 1.450429 0.067087 -0.013798 -215709.000000 0 0 1
29.589440 24.013243 5.366408 38.483362 0.681743 1.430893 0.073807 -0.023729 771305.000000 0 0 1
30.611340 22.995843 5.177408 38.635068 0.644281 1.436384 0.054128 -0.031076 903587.000000 0 0 1
31.228780 22.771443 3.909808 38.846646 0.630043 1.469978 0.058198 -0.030974 -813644.000000 0 0 1
32.147410 23.806543 3.294908 40.138060 0.637421 1.488614 0.091289 -0.041123 -810574.000000 0 0 1
31.618110 25.078043 3.291608 40.490095 0.670553 1.489412 0.076296 -0.037443 -200778.000000 0 0 1
32.363890 25.872543 2.359508 41.501532 0.674391 1.513912 0.116985 -0.033815 -246003.000000 0 0 1
31.864600 27.363043 2.494908 42.075093 0.709540 1.511465 0.096883 -0.019695 815207.000000 0 0 1
30.571040 27.754643 2.024608 41.340147 0.737148 1.521802 0.111080 -0.022201 428393.000000 0 0 1
29.528540 27.230943 2.806408 40.265803 0.744941 1.501043 0.086894 -0.020326 -281057.000000 0 0 1
28.069440 27.628243 2.422208 39.459858 0.777477 1.509374 0.057596 -0.010741 494473.000000 0 0 1
27.767740 28.956243 2.735108 40.211842 0.806347 1.502726 0.043428 -0.009875 -339801.000000 0 0 1
26.478840 29.283643 2.304308 39.547068 0.835655 1.512496 0.041478 -0.012222 -264952.000000 0 0 1
26.033540 30.722043 2.691308 40.358794 0.867820 1.504062 0.055050 -0.019995 -139944.000000 0 0 1
25.825840 31.017043 4.092408 40.568199 0.876471 1.469747 0.027054 -0.022462 -615737.000000 0 0 1
26.976440 31.095343 4.871508 41.453351 0.856207 1.453006 0.036641 -0.021949 -582453.000000 0 0 1
26.678040 31.095043 6.334808 41.457802 0.861704 1.417394 0.030869 -0.026282 -28791.400000 0 0 1
26.293940 29.848443 7.040108 40.396336 0.848626 1.395626 0.043732 -0.035571 582547.000000 0 0 1
27.213040 28.727843 6.920608 40.171300 0.812470 1.397655 0.070082 -0.037818 692308.000000 0 0 1
26.549540 27.373543 7.368608 38.839224 0.800678 1.379919 0.081932 -0.036820 662812.000000 0 0 1
25.503440 26.966143 6.475708 37.676692 0.813268 1.398063 0.049199 -0.038981 411836.000000 0 0 1
24.927940 25.701243 6.736708 36.432668 0.800671 1.384818 0.058789 -0.038242 -249569.000000 0 0 1
23.687140 25.467743 5.845308 35.268317 0.821607 1.404290 0.063649 -0.022834 -364652.000000 0 0 1
23.842740 25.229443 4.438408 34.995721 0.813649 1.443627 0.059661 -0.024679 222664.000000 0 0 1
24.139440 26.416743 3.632008 35.968714 0.830413 1.469647 0.049665 -0.018760 -123258.000000 0 0 1
24.269240 26.033843 2.135608 35.655544 0.820463 1.510865 0.061511 -0.011819 228878.000000 0 0 1
25.513040 25.439943 1.778108 36.073087 0.783964 1.521485 0.048351 0.008498 391809.000000 0 0 1
25.618140 25.231843 0.391108 35.959532 0.777802 1.559920 0.059826 -0.004540 -103084.000000 0 0 1
26.892940 24.499643 -0.098292 36.379560 0.738863 1.573498 0.078388 -0.012841 -2375420.000000 0 0 1
27.998740 25.350743 -0.127692 37.770437 0.735804 1.574177 0.094600 -0.010550 73689.200000 0 0 1
29.145340 24.730343 -0.719492 38.230333 0.703633 1.589617 0.086796 -0.012630 458731.000000 0 0 1
29.656340 23.423743 0.048108 37.791170 0.668515 1.569523 0.071784 -0.015589 -1944530.000000 0 0 1
28.806640 22.315043 -0.037492 36.438785 0.659091 1.571825 0.063129 -0.013846 -315969.000000 0 0 1
29.254440 21.413643 0.888408 36.265075 0.631868 1.546296 0.061771 -0.015566 252715.000000 0 0 1
28.111940 20.481943 1.413308 34.810754 0.629654 1.530185 0.065938 -0.021224 276606.000000 0 0 1
27.458940 19.683043 0.494908 33.788467 0.621924 1.556149 0.089944 -0.032294 471928.000000 0 0 1
26.389740 18.905843 1.008708 32.478713 0.621654 1.539734 0.102962 -0.030518 280957.000000 0 0 1
25.700640 17.976743 -0.083492 31.363883 0.610368 1.573458 0.102609 -0.025848 589953.000000 0 0 1
24.484540 17.424243 0.450808 30.054953 0.618497 1.555796 0.115372 -0.024837 797625.000000 0 0 1
23.750840 16.746243 -0.553592 29.066227 0.614127 1.589843 0.127547 -0.041231 270303.000000 0 0 1
22.406940 16.209443 0.000308 27.655325 0.626266 1.570785 0.120173 -0.032932 511660.000000 0 0 1
21.528840 15.664743 -1.004992 26.643670 0.629021 1.608525 0.116464 -0.033163 325548.000000 0 0 1
20.213940 15.373843 -0.623292 25.403679 0.650223 1.595334 0.128453 -0.037290 -474664.000000 0 0 1
19.210640 16.395843 -1.190192 25.284163 0.706509 1.617886 0.149993 -0.036288 -435241.000000 0 0 1
19.305840 17.647943 -0.632492 26.164201 0.740564 1.594973 0.129387 -0.028400 302738.000000 0 0 1
18.359840 18.502843 -1.251892 26.096095 0.789277 1.618787 0.113938 -0.029121 180789.000000 0 0 1
18.306940 19.906743 -0.569292 27.050815 0.827238 1.591843 0.107866 -0.029363 -234503.000000 0 0 1
17.695340 19.813043 0.730908 26.574724 0.841798 1.543289 0.109849 -0.029264 146402.000000 0 0 1
17.767840 20.999243 1.482408 27.547448 0.868560 1.516957 0.120706 -0.031607 224764.000000 0 0 1
16.837940 22.116243 0.912008 27.811440 0.920078 1.537998 0.103645 -0.039805 -627775.000000 0 0 1
15.491640 21.894843 1.146008 26.845640 0.955023 1.528095 0.086465 -0.034908 -848070.000000 0 0 1
14.672040 22.945643 0.689108 27.244195 1.001890 1.545500 0.075073 -0.033517 -337946.000000 0 0 1
13.247240 22.868143 1.230208 26.456658 1.045745 1.524281 0.077889 -0.039717 -286967.000000 0 0 1
13.222540 23.140943 2.596708 26.778381 1.051678 1.473673 0.070098 -0.022885 15174.700000 0 0 1
11.866640 23.088843 2.973108 26.129508 1.096047 1.456766 0.067149 -0.033124 77274.500000 0 0 1
11.669740 23.250443 4.507808 26.402391 1.105618 1.399221 0.095040 -0.035822 22473.600000 0 0 1
12.138440 22.196243 5.332708 25.854452 1.070360 1.363046 0.104032 -0.053650 62411.300000 0 0 1
11.599140 22.270343 6.651708 25.976017 1.090621 1.311841 0.093782 -0.039510 -586493.000000 0 0 1
12.198940 21.245343 7.674508 25.672491 1.049568 1.267216 0.108205 -0.037878 982504.000000 0 0 1
13.458340 21.543643 8.298908 26.723161 1.012412 1.255024 0.137136 -0.039282 195870.000000 0 0 1
14.574440 21.526643 7.488308 27.053381 0.975645 1.290337 0.124480 -0.033143 -761693.000000 0 0 1
15.953440 21.572443 8.201508 28.056145 0.934031 1.274139 0.135923 -0.040098 -6367.710000 0 0 1
16.155140 20.338943 8.858908 27.443422 0.899543 1.242103 0.144922 -0.045803 1237970.000000 0 0 1
17.419040 20.139443 9.560508 28.291756 0.857703 1.226084 0.123811 -0.048414 1136130.000000 0 0 1
17.618640 21.018443 10.780208 29.468701 0.873165 1.196284 0.097654 -0.046980 -338826.000000 0 0 1
16.807640 20.742643 11.905108 29.231586 0.889810 1.151335 0.109188 -0.052581 -73507.000000 0 0 1
17.124540 21.499343 13.068508 30.434479 0.898184 1.126970 0.099019 -0.052127 -115878.000000 0 0 1
18.107940 20.908143 14.101208 31.046610 0.857046 1.099328 0.114256 -0.040242 977015.000000 0 0 1
19.497740 20.954543 13.732208 31.746311 0.821395 1.123465 0.115724 -0.043015 723347.000000 0 0 1
20.305940 20.473443 14.819708 32.420932 0.789506 1.096061 0.103372 -0.046273 438742.000000 0 0 1
21.756540 21.017143 14.761908 33.659787 0.768114 1.116798 0.110290 -0.044262 73958.400000 0 0 1
22.373140 20.702243 13.523008 33.346844 0.746628 1.153242 0.110290 -0.051863 -244532.000000 0 0 1
23.653540 21.289743 13.527408 34.579385 0.732851 1.168863 0.144695 -0.049545 58244.700000 0 0 1
24.702040 20.771543 12.519708 34.617783 0.699178 1.200753 0.140056 -0.046342 109847.000000 0 0 1
24.393540 21.133243 11.209208 34.165847 0.713907 1.236524 0.147479 -0.037934 396515.000000 0 0 1
25.365240 20.640943 10.282608 34.280840 0.683069 1.266154 0.156365 -0.059448 -18277.900000 0 0 1
25.236940 21.236243 8.842608 34.147809 0.699524 1.308860 0.132222 -0.047675 -398948.000000 0 0 1
25.460940 22.647543 8.792408 35.192004 0.726984 1.318280 0.095957 -0.036471 -89539.500000 0 0 1
26.773740 22.957443 8.411508 36.257838 0.708810 1.336672 0.073422 -0.037656 -371372.000000 0 0 1
27.550340 23.848243 9.414708 37.635046 0.713495 1.317953 0.106617 -0.043912 715449.000000 0 0 1
28.821640 24.327443 8.933808 38.759829 0.701041 1.338214 0.101676 -0.034399 753150.000000 0 0 1
29.350940 25.351043 9.735608 39.986687 0.712406 1.324853 0.116012 -0.028361 16921.300000 0 0 1
30.608340 25.920843 9.043408 41.116223 0.702666 1.349036 0.114876 -0.040590 25853.300000 0 0 1
30.351640 26.747243 7.902408 41.219960 0.722356 1.377889 0.115894 -0.041030 193639.000000 0 0 1
31.584970 27.107843 7.299208 42.257827 0.709265 1.397195 0.127349 -0.033941 207098.000000 0 0 1
31.519350 28.075843 6.051008 42.641964 0.727681 1.428413 0.148497 -0.014154 33513.300000 0 0 1
31.292530 29.404243 6.370808 43.409897 0.754298 1.423505 0.137852 -0.017885 -20244.900000 0 0 1
31.349510 30.313743 5.256108 43.924270 0.768603 1.450846 0.133980 -0.011576 56742.000000 0 0 1
31.343530 31.795343 5.654108 45.003663 0.792554 1.444827 0.084583 -0.002291 1111090.000000 0 0 1
30.073940 32.365943 6.074408 44.597024 0.822089 1.434165 0.088445 -0.010695 996574.000000 0 0 1
30.189840 33.732343 6.456808 45.727320 0.840761 1.429120 0.061443 0.000736 -215764.000000 0 0 1
28.846740 -33.515662 7.055708 44.779650 -0.860126 1.412572 0.074437 -0.018825 260756.000000 0 0 1
27.798640 -33.458562 6.089208 43.924005 -0.877533 1.431718 0.064671 -0.013391 -535429.000000 0 0 1
26.670840 -32.776262 6.525108 42.757387 -0.887743 1.417590 0.053743 -0.028137 -497513.000000 0 0 1
25.553040 -32.772162 5.467508 41.914987 -0.908545 1.439981 0.053000 -0.023382 -250200.000000 0 0 1
25.952840 -32.153362 4.243008 41.537835 -0.891706 1.468470 0.033383 -0.001551 -503354.000000 0 0 1
25.052240 -32.273062 3.174908 40.978596 -0.910700 1.493241 0.039549 -0.010456 -370936.000000 0 0 1
25.464640 -31.418162 1.947808 40.488798 -0.889681 1.522670 0.045261 0.001281 -59718.400000 0 0 1
25.359940 -30.036462 2.097708 39.366432 -0.869618 1.517484 0.048809 0.004235 -103500.000000 0 0 1
26.263140 -29.385162 1.227108 39.430269 -0.841442 1.539670 0.043528 0.011324 -288262.000000 0 0 1
26.328040 -27.844962 1.415308 38.347239 -0.813392 1.533880 0.041805 0.007071 1509350.000000 0 0 1
25.044040 -27.132262 1.258908 36.945209 -0.825399 1.536715 0.040990 0.006036 1501990.000000 0 0 1
24.695640 -26.901962 -0.092892 36.518473 -0.828132 1.573340 0.051515 0.005725 170163.000000 0 0 1
23.599240 -25.828362 -0.382292 34.988206 -0.830466 1.581723 0.036975 0.009777 210281.000000 0 0 1
24.005140 -24.463062 -0.278392 34.274855 -0.794846 1.578919 0.039270 -0.001815 -161440.000000 0 0 1
24.006740 -23.907262 1.045608 33.896520 -0.783322 1.539944 0.035997 0.003229 259369.000000 0 0 1
22.645540 -23.786562 1.798708 32.891585 -0.809967 1.516083 0.031876 -0.002893 271245.000000 0 0 1
22.651640 -23.205262 3.089108 32.574892 -0.797470 1.475823 0.047640 -0.005988 -468520.000000 0 0 1
21.375740 -22.901462 3.595908 31.532995 -0.819843 1.456511 0.043090 -0.011717 -115312.000000 0 0 1
21.381940 -22.133762 4.937108 31.168347 -0.802673 1.411725 0.055111 -0.023175 -76626.000000 0 0 1
21.597940 -20.731062 5.011008 30.353882 -0.764922 1.404951 0.090573 -0.024519 440790.000000 0 0 1
20.434740 -19.975962 4.659108 28.953842 -0.774046 1.409179 0.067192 -0.016935 17490.000000 0 0 1
20.397840 -18.503362 5.111908 28.010318 -0.736737 1.387267 0.079055 -0.021088 47633.600000 0 0 1
19.892440 -18.235162 6.392108 27.732460 -0.741959 1.338213 0.118391 -0.036899 566865.000000 0 0 1
18.472840 -18.230462 6.602708 26.780428 -0.778795 1.321678 0.089697 -0.030719 664423.000000 0 0 1
20.488776 -25.923337 -12.239492 35.236550 -0.901961 1.925542 0.122115 -0.040670 108141.000000 0 0 1
20.175676 -24.699157 -12.818392 34.371753 -0.885861 1.952965 0.160286 -0.039966 1032630.000000 0 0 1
18.742476 -24.458057 -12.932092 33.417300 -0.916938 1.968159 0.138671 -0.038899 1675610.000000 0 0 1
18.472576 -22.889157 -13.201292 32.240094 -0.891774 1.992667 0.136343 -0.041699 74301.300000 0 0 1
18.453776 -22.073457 -12.072692 31.201430 -0.874477 1.968094 0.150795 -0.046121 76299.600000 0 0 1
19.638176 -22.018257 -11.280692 31.586636 -0.842472 1.935995 0.136908 -0.052664 -146792.000000 0 0 1
19.377976 -22.533257 -9.872792 31.316539 -0.860541 1.891525 0.150961 -0.036328 225586.000000 0 0 1
18.562276 -21.718257 -9.043192 29.966983 -0.863588 1.877347 0.127207 -0.041560 189582.000000 0 0 1
17.178676 -21.969357 -9.187392 29.362692 -0.907166 1.889034 0.119148 -0.019821 -357679.000000 0 0 1
16.271176 -21.314357 -8.139892 28.023397 -0.918780 1.865512 0.101868 -0.025648 -858970.000000 0 0 1
16.158776 -19.886757 -8.246792 26.918371 -0.888456 1.882166 0.081638 -0.030004 23441.700000 0 0 1
15.253376 -19.272057 -7.360292 25.656413 -0.901274 1.861764 0.075596 -0.034841 409919.000000 0 0 1
13.765576 -19.413357 -7.803492 25.045239 -0.954004 1.887647 0.049181 -0.017602 -138309.000000 0 0 1
13.301076 -20.674057 -7.516992 25.706816 -0.999096 1.867545 0.056144 -0.018090 -368066.000000 0 0 1
11.969076 -20.984257 -7.891592 25.414072 -1.052438 1.886537 0.046189 -0.014100 265892.000000 0 0 1
11.662976 -22.458757 -7.435692 26.376320 -1.091823 1.856578 0.044531 -0.008905 -27140.000000 0 0 1
11.587776 -22.636957 -6.052992 26.140908 -1.097677 1.804470 0.050984 -0.012074 86645.200000 0 0 1
11.051476 -23.882357 -5.697792 26.925210 -1.137393 1.784024 0.031029 -0.006000 147090.000000 0 0 1
11.414176 -24.259557 -4.241892 27.144118 -1.131024 1.727712 0.061447 -0.014616 -103072.000000 0 0 1
10.622476 -25.342257 -3.833192 27.744555 -1.173882 1.709400 0.059524 -0.015892 -159827.000000 0 0 1
11.156476 -25.930967 -2.686792 28.356672 -1.164498 1.665689 0.067963 -0.019239 15643.900000 0 0 1
10.110876 -26.810097 -1.943692 28.719141 -1.210160 1.638527 0.064327 -0.016668 90375.700000 0 0 1
9.136576 -25.983407 -1.384692 27.577741 -1.232669 1.621028 0.065003 -0.014713 -440023.000000 0 0 1
8.611176 -26.578157 -0.172892 27.938874 -1.257474 1.576985 0.070476 -0.025330 58103.500000 0 0 1
7.765876 -25.645117 0.704708 26.804430 -1.276754 1.544503 0.077334 -0.028828 -75037.300000 0 0 1
6.392776 -25.621927 0.388708 26.410260 -1.326284 1.556078 0.081388 -0.029857 -422112.000000 0 0 1
5.733376 -25.134347 1.529908 25.825329 -1.346524 1.511521 0.089989 -0.025400 265127.000000 0 0 1
4.262976 -24.635457 1.402008 25.040853 -1.399451 1.514778 0.057142 -0.027563 914923.000000 0 0 1
3.442576 -25.714987 0.915508 25.960548 -1.437713 1.535524 0.047604 -0.031934 -691037.000000 0 0 1
2.093376 -25.454877 0.815908 25.553839 -1.488742 1.538862 0.048480 -0.033188 -369956.000000 0 0 1
1.220776 -26.363357 -0.128592 26.391920 -1.524524 1.575669 0.075565 -0.037669 706926.000000 0 0 1
0.693876 -27.596367 0.468008 27.609056 -1.545658 1.553844 0.079638 -0.030344 -115608.000000 0 0 1
1.671176 -28.594157 0.419008 28.646015 -1.512418 1.556169 0.064589 -0.024529 -323067.000000 0 0 1
1.249576 -29.769317 1.333908 29.825375 -1.528846 1.526057 0.111469 -0.031393 120052.000000 0 0 1
1.250576 -29.503967 2.709808 29.654528 -1.528435 1.479289 0.098274 -0.028724 378780.000000 0 0 1
0.559176 -30.549007 3.463008 30.749747 -1.552494 1.457938 0.130781 -0.038661 299959.000000 0 0 1
0.868476 -30.414147 4.972408 30.830171 -1.542249 1.408805 0.127266 -0.034371 -520676.000000 0 0 1
2.212476 -30.475787 5.341208 31.019303 -1.498326 1.397744 0.060310 -0.013691 -493118.000000 0 0 1
2.337876 -30.245237 6.677208 31.061634 -1.493652 1.354139 0.067024 -0.020450 71074.100000 0 0 1
3.732976 -30.716197 7.124908 31.751916 -1.449858 1.344476 0.069537 -0.014701 83384.400000 0 0 1
3.848576 -32.156657 7.147608 33.165500 -1.451681 1.353579 0.061761 -0.017602 996186.000000 0 0 1
5.232676 -32.525267 7.378208 33.759618 -1.411283 1.350467 0.056350 -0.015099 1397810.000000 0 0 1
5.396976 33.622417 7.200608 34.805790 1.411637 1.362412 0.042328 -0.006179 -233089.000000 0 0 1
5.537176 33.169718 5.850108 34.133770 1.405387 1.398558 0.042830 -0.010427 -58373.100000 0 0 1
5.485176 31.768417 5.780308 32.752578 1.399821 1.393383 0.043786 -0.013903 -606843.000000 0 0 1
5.784076 31.298209 4.333508 32.121841 1.388053 1.435475 0.049272 -0.014516 -830585.000000 0 0 1
7.115976 31.452799 4.031408 32.498737 1.348299 1.446428 0.057617 -0.015756 -903493.000000 0 0 1
7.897376 30.270719 4.418508 31.594432 1.315593 1.430486 0.052656 -0.024613 34026.500000 0 0 1
9.287976 30.282929 3.759408 31.897577 1.273198 1.452663 0.045930 -0.020630 68324.900000 0 0 1
10.308676 30.993819 4.476008 32.968473 1.249702 1.434609 0.053682 -0.020415 67719.000000 0 0 1
11.420876 31.144049 3.600508 33.366927 1.219312 1.462679 0.050741 -0.027987 556831.000000 0 0 1
12.667676 31.570069 4.452008 34.306845 1.189208 1.440659 0.059263 -0.031416 464691.000000 0 0 1
13.267376 30.566859 5.253508 33.733595 1.161290 1.414425 0.072169 -0.031646 278838.000000 0 0 1
14.443676 30.948889 5.958608 34.669273 1.134146 1.398069 0.091154 -0.029982 566081.000000 0 0 1
15.031376 29.734409 6.781908 34.001053 1.102741 1.369988 0.084459 -0.030461 -24107.300000 0 0 1
14.477276 29.528659 8.072708 33.862986 1.114956 1.330085 0.076736 -0.022080 -51721.200000 0 0 1
15.238376 28.625309 8.804608 33.602641 1.081613 1.305680 0.072657 -0.034857 116445.000000 0 0 1
14.794576 28.621969 10.287808 33.822116 1.093724 1.261725 0.044960 -0.010572 -12209.400000 0 0 1
15.367276 29.732299 10.899508 35.198892 1.093756 1.255966 0.038757 -0.020185 -288920.000000 0 0 1
14.928076 30.045459 12.171208 35.689148 1.109672 1.222780 0.020867 -0.011840 30545.800000 0 0 1
15.975276 30.911609 12.981608 37.138378 1.093795 1.213709 0.023950 -0.013620 2164650.000000 0 0 1
17.192876 30.178169 13.400308 37.227477 1.052945 1.202574 0.025418 -0.012460 1648340.000000 0 0 1
17.976776 31.026999 14.260808 38.590280 1.045668 1.192278 0.034651 -0.009966 -645045.000000 0 0 1
19.038376 30.216929 14.924608 38.707447 1.008569 1.174966 0.055756 -0.013070 -664370.000000 0 0 1
20.261276 30.076279 14.237308 38.958988 0.977966 1.196687 0.065714 -0.028642 -78488.600000 0 0 1
20.832076 28.819059 14.488708 38.398387 0.944894 1.183889 0.057233 -0.021405 -908412.000000 0 0 1
22.200176 28.430089 13.979408 38.685160 0.907830 1.201066 0.098351 -0.029163 -394831.000000 0 0 1
23.213876 28.955799 14.831408 39.966147 0.895019 1.190604 0.117073 -0.030448 770760.000000 0 0 1
24.515676 28.772219 14.246908 40.395956 0.865107 1.210361 0.130015 -0.033619 1092740.000000 0 0 1
25.738576 28.954959 15.205608 41.618198 0.844138 1.196777 0.144988 -0.042240 238767.000000 0 0 1
26.052276 27.798379 15.919708 41.290532 0.817812 1.174989 0.141675 -0.036097 246417.000000 0 0 1
26.991476 28.041339 16.974208 42.461514 0.804473 1.159547 0.126430 -0.039993 179176.000000 0 0 1
27.855276 26.811059 17.375308 42.386915 0.766299 1.148428 0.075612 -0.025307 -51993.700000 0 0 1
27.172276 25.707299 17.958608 41.493486 0.757701 1.123194 0.090472 -0.025485 37430.000000 0 0 1
26.667776 25.892349 19.253208 41.860124 0.770646 1.092867 0.102365 -0.023360 -171278.000000 0 0 1
26.251376 24.578629 19.970008 41.134474 0.752501 1.063883 0.122149 -0.026520 756264.000000 0 0 1
27.287976 23.550969 20.101308 41.271592 0.712023 1.062088 0.082730 -0.025896 634800.000000 0 0 1
26.696976 22.275649 20.074408 40.148660 0.695361 1.047195 0.091265 -0.033468 -228155.000000 0 0 1
27.655076 21.088449 20.160508 40.199153 0.651486 1.045446 0.060135 -0.034995 -578432.000000 0 0 1
27.029976 19.819349 20.063508 39.063672 0.632685 1.031409 0.059795 -0.014473 355396.000000 0 0 1
27.880176 18.636349 20.138808 39.117634 0.589232 1.029991 0.073108 -0.025467 499229.000000 0 0 1
28.576076 18.350249 21.494208 40.191102 0.570840 1.006525 0.113871 -0.021624 126109.000000 0 0 1
27.634976 17.962149 22.491608 39.902419 0.576360 0.971980 0.092358 -0.013303 484016.000000 0 0 1
28.275976 17.437649 23.627308 40.765820 0.552605 0.952575 0.133354 -0.014133 -249769.000000 0 0 1
27.199476 16.816249 24.497108 40.282825 0.553735 0.917096 0.105918 -0.007250 -103232.000000 0 0 1
26.732176 15.615049 23.933508 39.131212 0.528668 0.912687 0.101990 -0.014683 -694102.000000 0 0 1
25.697976 15.066449 24.634008 38.655118 0.530277 0.879837 0.095915 -0.012790 -845893.000000 0 0 1
25.075276 13.860249 23.857408 37.283399 0.504949 0.876437 0.091462 -0.005331 367473.000000 0 0 1
23.714576 13.582249 24.144208 36.466441 0.520133 0.847187 0.070453 -0.015976 460522.000000 0 0 1
23.242576 12.414649 23.465108 35.283879 0.490580 0.843252 0.085796 -0.015592 1136550.000000 0 0 1
21.816176 11.938349 23.973508 34.542709 0.500710 0.803731 0.093136 -0.027180 496436.000000 0 0 1
20.770576 12.805149 23.685008 34.005415 0.552467 0.800278 0.114158 -0.040012 -969426.000000 0 0 1
19.596976 12.060949 23.760008 33.076365 0.551702 0.769386 0.115696 -0.039567 -733389.000000 0 0 1
18.239176 12.753949 23.811008 32.592865 0.610230 0.751656 0.117858 -0.050447 -217235.000000 0 0 1
17.983476 13.159049 25.152608 33.603863 0.631705 0.724994 0.142097 -0.036406 639661.000000 0 0 1
16.765376 13.912349 25.171008 33.289802 0.692665 0.713436 0.148666 -0.043443 182435.000000 0 0 1
16.409376 14.468649 26.579208 34.424754 0.722629 0.688664 0.144896 -0.033029 -187543.000000 0 0 1
15.819076 13.487449 27.396608 34.390821 0.706005 0.649104 0.134519 -0.027656 -98921.300000 0 0 1
15.966576 13.726249 28.799408 35.675584 0.710091 0.631305 0.113814 -0.021077 334230.000000 0 0 1
17.341376 13.228949 29.395308 36.603449 0.651677 0.638359 0.121188 -0.022672 1083310.000000 0 0 1
18.320976 14.281249 29.245308 37.348363 0.662117 0.671256 0.150925 -0.046797 -130411.000000 0 0 1
19.599376 13.779349 29.504008 38.006479 0.612770 0.682039 0.131045 -0.030683 -939764.000000 0 0 1
20.648976 14.856249 29.245008 38.760273 0.623672 0.715889 0.151504 -0.037063 -555706.000000 0 0 1
20.770976 15.497649 27.949508 38.115424 0.641014 0.747654 0.154197 -0.050050 173219.000000 0 0 1
21.088576 14.687549 26.809208 37.137390 0.608353 0.764263 0.132393 -0.040221 -163126.000000 0 0 1
21.094176 15.468449 25.485908 36.520797 0.632730 0.798410 0.117341 -0.036289 -855732.000000 0 0 1
22.213576 16.231649 25.319108 37.389391 0.631040 0.826882 0.116824 -0.030729 -730659.000000 0 0 1
21.991876 16.945349 24.188308 36.822027 0.656510 0.854099 0.094541 -0.029694 -268980.000000 0 0 1
23.179376 17.825349 23.809808 37.708533 0.655562 0.887417 0.098148 -0.029640 -420798.000000 0 0 1
22.966976 18.640649 22.657308 37.260023 0.681791 0.917149 0.085870 -0.041596 907033.000000 0 0 1
24.149076 19.381849 22.230908 38.118856 0.676319 0.948134 0.089388 -0.034961 1092570.000000 0 0 1
24.424176 20.717949 22.868208 39.353890 0.703481 0.950727 0.105874 -0.044821 458432.000000 0 0 1
23.444676 21.642449 22.346108 38.953779 0.745447 0.959833 0.102026 -0.035005 749106.000000 0 0 1
23.544976 22.860409 23.092808 40.127820 0.770647 0.957604 0.126958 -0.034942 -191612.000000 0 0 1
22.659176 23.923659 22.506508 39.903917 0.812536 0.971553 0.128688 -0.044597 -334673.000000 0 0 1
23.164076 24.367249 21.275508 39.786737 0.810706 1.006598 0.136662 -0.044454 217889.000000 0 0 1
22.296076 25.369469 20.748708 39.638792 0.849787 1.019908 0.137357 -0.044830 93219.500000 0 0 1
22.690076 26.115629 19.419308 39.673355 0.855471 1.059303 0.137195 -0.044873 -225680.000000 0 0 1
22.433476 25.352739 18.298108 38.481722 0.846412 1.075263 0.127805 -0.044837 -222969.000000 0 0 1
22.973276 25.977249 17.230408 38.723065 0.846689 1.109661 0.128671 -0.055449 -356997.000000 0 0 1
22.612276 25.313939 15.913508 37.488001 0.841710 1.132391 0.099379 -0.031161 1303540.000000 0 0 1
21.191776 25.262229 15.561508 36.461378 0.872798 1.129851 0.094028 -0.030474 1435390.000000 0 0 1
21.114376 24.648019 14.276208 35.456336 0.862462 1.156395 0.101055 -0.022929 304575.000000 0 0 1
19.626576 24.500039 13.875908 34.321934 0.895395 1.154597 0.081277 -0.029931 501625.000000 0 0 1
18.947576 25.718249 13.458208 34.663558 0.935838 1.172062 0.055885 -0.024241 413997.000000 0 0 1
18.014676 26.261079 14.407308 34.953445 0.969539 1.145945 0.070341 -0.017807 880753.000000 0 0 1
16.529776 25.857429 14.128008 33.785214 1.002004 1.139365 0.062816 -0.023260 -101373.000000 0 0 1
16.247776 24.445539 14.153808 32.586881 0.984190 1.121490 0.062148 -0.025524 -1087.230000 0 0 1
15.955176 23.783879 15.422908 32.528550 0.979910 1.076816 0.083675 -0.027206 -462997.000000 0 0 1
14.890076 24.396659 16.309408 32.907569 1.022814 1.052256 0.103782 -0.040197 -939128.000000 0 0 1
15.222376 25.630249 16.852808 34.243941 1.034858 1.056250 0.091669 -0.036605 757078.000000 0 0 1
14.193976 26.227989 17.723408 34.691433 1.074752 1.034580 0.080504 -0.038162 1018220.000000 0 0 1
14.713976 27.534079 18.459908 36.268371 1.080016 1.036796 0.083052 -0.035511 -228259.000000 0 0 1
14.834076 28.627679 17.539608 36.704654 1.092717 1.072582 0.072488 -0.022257 -112323.000000 0 0 1
15.463676 29.690629 18.117208 38.064313 1.090626 1.074738 0.063428 -0.016388 -606149.000000 0 0 1
15.411676 31.005919 17.335108 38.721992 1.109507 1.106626 0.032245 -0.011550 -216193.000000 0 0 1
14.106476 31.491339 17.143508 38.530467 1.149650 1.109696 0.034379 -0.010796 -181093.000000 0 0 1
14.148676 32.683381 16.404308 39.210837 1.162252 1.139156 0.018555 -0.009279 -143635.000000 0 0 1
12.880876 33.546620 16.517008 39.548757 1.204185 1.139954 0.030867 -0.011784 -292266.000000 0 0 1
12.960276 -32.732827 16.032608 38.683992 -1.193794 1.143457 0.052052 -0.022927 -301641.000000 0 0 1
13.596176 -31.670387 16.706308 38.301046 -1.165287 1.119443 0.042213 -0.015603 -233207.000000 0 0 1
13.416676 -31.494657 18.210308 38.775455 -1.168080 1.081919 0.045640 -0.013409 -228899.000000 0 0 1
14.154076 -32.512927 18.876408 40.171471 -1.160203 1.081624 0.046528 -0.011106 449719.000000 0 0 1
13.847876 -32.463437 20.265408 40.697975 -1.167598 1.049567 0.048069 -0.020245 -474533.000000 0 0 1
15.022876 -33.003607 21.050608 41.929142 -1.143636 1.044827 0.061693 -0.014640 -209228.000000 0 0 1
16.226976 -32.263827 20.880108 41.716282 -1.104794 1.046589 0.076447 -0.015506 103508.000000 0 0 1
17.228676 -32.854587 21.674408 42.965464 -1.087826 1.042039 0.089671 -0.014631 -767366.000000 0 0 1
18.583376 -32.200287 21.723408 43.059340 -1.047372 1.041994 0.112685 -0.024913 -667370.000000 0 0 1
18.642776 -30.973037 22.349208 42.501402 -1.028978 1.017086 0.112239 -0.021953 973799.000000 0 0 1
19.975876 -30.449157 22.155408 42.626856 -0.990187 1.024235 0.115654 -0.026748 894474.000000 0 0 1
-5.281424 13.032843 18.304616 23.082622 -1.185781 0.655072 0.041074 -0.014653 55782.400000 0 1 0
-4.680624 14.159743 17.715716 23.157141 -1.251545 0.699721 0.040234 -0.022605 -81503.600000 0 1 0
-5.748024 14.904543 17.262416 23.519698 -1.202716 0.746668 0.038098 -0.023728 -365521.000000 0 1 0
-5.351624 16.373843 17.115916 24.283682 -1.254901 0.788610 0.046700 -0.026951 -347562.000000 0 1 0
-5.146824 17.038543 18.340016 25.556955 -1.277442 0.770427 0.043623 -0.017995 105371.000000 0 0 1
-4.783324 18.327743 18.092716 26.194136 -1.315503 0.808317 0.043382 -0.009406 -587212.000000 0 0 1
-4.204324 19.007643 19.333916 27.436603 -1.353110 0.788830 0.038519 -0.010709 132587.000000 0 0 1
-5.181124 19.152643 20.371816 28.437277 -1.306602 0.772200 0.040400 -0.011375 484548.000000 0 0 1
-4.664924 20.016143 21.401916 29.672370 -1.341825 0.765156 0.047864 -0.005968 -59851.800000 0 0 1
-5.681424 20.228043 22.522656 30.801337 -1.296982 0.750683 0.055337 -0.005710 -119337.000000 0 0 1
-5.835224 19.134143 23.360576 30.755192 -1.274792 0.708152 0.053843 -0.007267 -360333.000000 0 0 1
-6.449224 19.538543 24.558926 32.038852 -1.251979 0.697367 0.046367 -0.012472 -50967.200000 0 0 1
-5.580824 20.225243 25.647946 33.136433 -1.301562 0.685646 0.048789 -0.016299 -305848.000000 0 0 1
-5.292224 21.610843 25.332646 33.716156 -1.330635 0.720690 0.062024 -0.019121 -255010.000000 0 0 1
-4.313124 22.202543 26.131916 34.560570 -1.378924 0.713433 0.064023 -0.014437 856825.000000 0 0 1
-2.811124 21.921743 25.742786 33.928694 -1.443258 0.709432 0.063493 -0.009847 573498.000000 0 0 1
-2.359724 20.580943 26.008886 33.250650 -1.456639 0.672596 0.072468 -0.003889 -549106.000000 0 0 1
-1.022524 20.467943 25.634626 32.819450 -1.520880 0.674402 0.066883 -0.003301 -478974.000000 0 0 1
-0.319924 19.236643 26.300156 32.586025 -1.554167 0.631574 0.062801 0.003697 -85266.800000 0 0 1
-0.897124 17.990643 25.958196 31.595823 -1.520971 0.606636 0.064070 -0.000143 3846.720000 0 0 1
-0.184824 16.879943 26.502906 31.422455 -1.559847 0.567145 0.052694 0.005171 1016880.000000 0 0 1
1.218576 16.429343 25.907956 30.702287 1.496761 0.566388 0.054396 0.008652 691378.000000 0 0 1
1.241576 16.160943 24.484496 29.363381 1.494121 0.584760 0.041771 -0.000135 -271039.000000 0 0 1
0.674376 14.926743 24.066626 28.327812 1.525648 0.555616 0.044474 0.004202 -230510.000000 0 0 1
0.827076 14.569543 22.609226 26.909715 1.514090 0.573166 0.050419 -0.017021 53602.600000 0 0 1
2.185176 14.285843 22.317956 26.588559 1.419012 0.574651 0.055442 -0.018016 -29692.500000 0 0 1
2.376176 14.075843 20.930816 25.335245 1.403561 0.598549 0.049848 -0.021556 -787945.000000 0 0 1
3.825176 13.809343 20.615116 25.106034 1.300573 0.607422 0.052090 -0.024594 -747566.000000 0 0 1
4.583376 14.932343 20.232116 25.560140 1.272982 0.657456 0.067579 -0.027655 134878.000000 0 0 1
5.952676 14.580443 20.087416 25.525046 1.183186 0.664916 0.083381 -0.025904 342811.000000 0 0 1
6.705376 15.573243 19.179216 25.599420 1.164217 0.723935 0.101472 -0.037120 -112247.000000 0 0 1
6.575576 15.076643 17.858716 24.279150 1.159525 0.744307 0.103694 -0.049524 218405.000000 0 1 0
6.966876 16.075543 16.911816 24.350975 1.161846 0.803068 0.101824 -0.035473 -173761.000000 0 1 0
6.889376 15.478443 15.449516 22.928874 1.152029 0.831454 0.094800 -0.031164 -28994.300000 0 1 0
8.032576 14.816243 14.972916 22.543992 1.074003 0.844421 0.087970 -0.027413 38494.000000 0 1 0
8.430876 13.581943 15.613316 22.345570 1.015265 0.797188 0.092878 -0.032201 787869.000000 0 1 0
9.734476 13.006843 14.930316 22.064731 0.928312 0.827580 0.101524 -0.031951 445608.000000 0 1 0
10.927576 13.713743 15.096616 23.138420 0.897989 0.859986 0.096805 -0.028083 -245691.000000 0 1 0
11.876376 13.184743 14.193316 22.723028 0.837558 0.896148 0.108639 -0.020828 -759176.000000 0 1 0
13.271276 13.756543 14.247816 23.840501 0.803351 0.930254 0.103005 -0.013147 -1741450.000000 0 1 0
13.904876 13.541943 15.479516 24.826301 0.772176 0.897568 0.086946 -0.020749 712638.000000 0 1 0
15.275576 13.939443 15.559416 25.879465 0.739696 0.925761 0.084693 -0.017032 1264750.000000 0 0 1
16.315676 13.313143 14.554116 25.598112 0.684405 0.966039 0.096126 -0.019258 149873.000000 0 0 1
17.677876 13.772543 14.656116 26.776706 0.661856 0.991607 0.096939 -0.037551 1204450.000000 0 0 1
18.410876 13.132943 13.618616 26.398887 0.619613 1.028764 0.101135 -0.030198 925150.000000 0 0 1
19.941476 13.516343 13.563616 27.646440 0.595671 1.058007 0.095299 -0.041017 813899.000000 0 0 1
20.718076 13.151143 14.688516 28.599716 0.565592 1.031433 0.071303 -0.032867 -33764.400000 0 0 1
22.053876 13.522243 14.433416 29.623437 0.550030 1.061882 0.096174 -0.041939 -288291.000000 0 0 1
23.014076 13.180943 15.569016 30.753524 0.520130 1.039964 0.105244 -0.032224 -353772.000000 0 0 1
23.074976 11.854343 15.804316 30.376905 0.474572 1.023624 0.113827 -0.028947 555283.000000 0 0 1
24.131176 11.658143 16.736116 31.596258 0.450049 1.012565 0.106342 -0.033119 -62517.300000 0 0 1
24.381076 10.200343 16.960016 31.402643 0.396243 1.000261 0.127356 -0.033542 -187023.000000 0 0 1
23.228776 9.549143 17.463716 30.589925 0.390031 0.963198 0.100708 -0.023633 371600.000000 0 0 1
23.148576 8.225543 17.035916 29.895461 0.341421 0.964473 0.092124 -0.020742 -537917.000000 0 0 1
21.929976 7.506743 17.589116 29.097286 0.329803 0.921667 0.133658 -0.014086 -362802.000000 0 0 1
21.929576 6.130043 17.297916 28.595483 0.272576 0.921134 0.141667 -0.030177 141448.000000 0 0 1
20.601776 5.743643 17.529616 27.653391 0.271890 0.884205 0.148941 -0.021459 -363357.000000 0 0 1
20.269876 4.267943 17.127816 26.878342 0.207525 0.879891 0.148920 -0.016780 -398582.000000 0 0 1
20.014376 3.999043 15.729516 25.767911 0.197211 0.914192 0.166405 -0.022359 400181.000000 0 0 1
20.068976 2.682843 15.253416 25.350111 0.132893 0.925156 0.155865 -0.032996 85652.100000 0 0 1
19.158976 1.643143 15.996116 25.012837 0.085554 0.876927 0.166394 -0.030503 -25063.600000 0 0 1
19.655176 1.231543 17.247116 26.178343 0.062576 0.851532 0.153735 -0.032237 -86099.700000 0 0 1
18.663376 0.691343 18.078916 25.993206 0.037026 0.801646 0.154849 -0.030785 -348196.000000 0 0 1
19.263876 0.092543 19.390116 27.332802 0.004804 0.782138 0.130870 -0.033100 -2672.280000 0 0 1
19.590476 -1.275357 19.271216 27.509872 -0.065009 0.794670 0.133017 -0.028359 -618288.000000 0 0 1
18.543376 -2.120257 19.606216 27.069466 -0.113846 0.760788 0.097517 -0.027110 -485096.000000 0 0 1
18.676376 -3.514657 19.043816 26.904029 -0.186012 0.784357 0.083148 -0.029189 -121175.000000 0 0 1
18.276876 -3.529657 17.699316 25.685958 -0.190773 0.810597 0.109743 -0.038505 182674.000000 0 0 1
18.279776 -4.845857 17.218116 25.575302 -0.259133 0.832225 0.129477 -0.034242 -206077.000000 0 0 1
17.784576 -4.949557 15.776816 24.283681 -0.271437 0.863622 0.133896 -0.035396 1485620.000000 0 1 0
16.353276 -4.639057 15.666016 23.116543 -0.276416 0.826170 0.122785 -0.032114 1681150.000000 0 1 0
16.009676 -4.693357 14.245716 21.938043 -0.285168 0.864052 0.126079 -0.033489 240052.000000 0 1 0
16.388276 -3.455157 13.335316 21.408978 -0.207788 0.898372 0.125906 -0.031760 117078.000000 0 1 0
15.582376 -2.307657 13.617016 20.822076 -0.147025 0.857976 0.130574 -0.021241 502943.000000 0 1 0
15.939976 -1.224257 12.783816 20.469675 -0.076654 0.896274 0.134195 -0.028060 147494.000000 0 1 0
15.033776 -0.026157 13.149616 19.973170 -0.001740 0.852153 0.128429 -0.019467 -1232.030000 0 1 0
15.217076 1.213043 12.503916 19.732683 0.079548 0.884514 0.122056 -0.021075 -26899.000000 0 1 0
16.124376 2.088443 13.132816 20.900429 0.128804 0.891364 0.144276 -0.030225 -135092.000000 0 1 0
16.336576 3.499043 12.542716 20.891308 0.210997 0.926821 0.124801 -0.028642 -610736.000000 0 1 0
15.195276 4.263543 12.716516 20.267807 0.273550 0.892555 0.099348 -0.023177 -291560.000000 0 1 0
15.272776 5.542643 12.201516 20.318848 0.348129 0.926667 0.113445 -0.026719 -371250.000000 0 1 0
14.141776 6.468143 12.628016 20.032311 0.428973 0.888751 0.077352 -0.019155 -615255.000000 0 1 0
14.299476 7.711643 12.012716 20.205192 0.494588 0.934108 0.052816 -0.022129 502655.000000 0 1 0
13.355576 8.749543 12.323716 20.169281 0.579968 0.913455 0.041362 -0.012793 -176320.000000 0 1 0
13.720576 9.692843 13.470116 21.532520 0.615039 0.894933 0.050200 -0.019466 -127861.000000 0 1 0
13.542776 9.049043 14.694116 21.936477 0.589051 0.836792 0.071975 -0.023444 522921.000000 0 1 0
13.871876 9.999843 15.677916 23.199631 0.624597 0.828770 0.088375 -0.026808 -318580.000000 0 1 0
13.507376 9.620943 17.127216 23.840161 0.618916 0.769270 0.077737 -0.021054 816857.000000 0 1 0
12.088576 9.614343 17.385516 23.255654 0.671884 0.726382 0.074074 -0.038614 687773.000000 0 1 0
11.763976 8.916143 18.606016 23.750212 0.648550 0.670672 0.108250 -0.032529 -166856.000000 0 1 0
12.286476 9.323443 20.002316 25.258201 0.649133 0.656860 0.135802 -0.028447 -680775.000000 0 0 1
13.614676 8.915743 20.150416 25.901528 0.579786 0.679380 0.171092 -0.040515 -360729.000000 0 0 1
14.315476 9.365043 21.339716 27.349961 0.579315 0.675736 0.148698 -0.026597 -108497.000000 0 0 1
15.758076 8.885743 21.153816 27.834463 0.513441 0.707504 0.137460 -0.031219 -452039.000000 0 0 1
16.369776 9.708043 20.180316 27.739157 0.535291 0.756121 0.132285 -0.031055 209185.000000 0 0 1
17.526876 9.137243 19.557716 27.806202 0.480564 0.790686 0.113455 -0.023224 489988.000000 0 0 1
18.409276 10.167243 18.820416 28.222019 0.504599 0.840796 0.117739 -0.025544 -50169.800000 0 0 1
19.492076 10.668543 19.577016 29.614496 0.500789 0.848563 0.108711 -0.031485 226843.000000 0 0 1
20.270276 11.521443 18.717116 29.899133 0.516853 0.894372 0.103719 -0.035009 275637.000000 0 0 1
21.204676 12.389743 19.579616 31.408683 0.528790 0.897735 0.092325 -0.027769 -166200.000000 0 0 1
20.531376 13.587143 20.030216 31.738894 0.584608 0.887834 0.081900 -0.026874 331228.000000 0 0 1
21.180876 14.396043 20.995116 33.116015 0.596952 0.884099 0.094708 -0.021927 -157746.000000 0 0 1
22.507176 15.133943 20.671716 34.101746 0.591965 0.919551 0.061228 -0.018653 131203.000000 0 0 1
23.650676 14.327243 20.541216 34.446566 0.544663 0.931886 0.031877 -0.015494 136194.000000 0 0 1
24.841876 15.091943 20.418116 35.521613 0.545931 0.958427 0.041752 -0.018200 1149060.000000 0 0 1
26.158376 14.208343 20.398416 36.086466 0.497581 0.970042 0.041010 -0.026487 728943.000000 0 0 1
26.273576 13.236243 19.379816 35.228911 0.466671 0.988299 0.068772 -0.041085 -558830.000000 0 0 1
27.357576 12.402843 19.585616 35.858944 0.425645 0.992993 0.100022 -0.047431 -294173.000000 0 0 1
27.832476 11.633043 18.249116 35.256271 0.395898 1.026737 0.145046 -0.053651 -23693.300000 0 0 1
28.460676 12.418043 17.286716 35.539392 0.411422 1.062820 0.150325 -0.066830 51414.500000 0 0 1
28.780176 11.793343 16.035916 34.993315 0.388903 1.094764 0.197852 -0.078106 432017.000000 0 0 1
27.571176 11.575143 15.051416 33.476840 0.397482 1.104471 0.177681 -0.066824 233616.000000 0 0 1
27.122576 12.772943 14.450516 33.280619 0.440126 1.121644 0.201745 -0.058249 -169295.000000 0 0 1
26.112576 12.495943 13.525416 31.952341 0.446334 1.133712 0.197913 -0.053890 -346756.000000 0 0 1
25.789876 13.792443 12.605416 31.847224 0.491099 1.163848 0.176189 -0.053193 -112878.000000 0 0 1
25.142876 14.733843 13.409816 32.079176 0.530065 1.139529 0.157362 -0.053821 21540.000000 0 0 1
25.303076 16.035843 12.893816 32.613562 0.564867 1.164346 0.153766 -0.047862 565519.000000 0 0 1
24.105176 17.017643 13.187016 32.319608 0.614725 1.150513 0.139394 -0.051637 -57168.800000 0 0 1
22.933076 16.826043 12.489816 31.065048 0.632989 1.157038 0.159323 -0.065454 -483597.000000 0 0 1
21.982376 17.791843 12.897716 31.082561 0.680427 1.142908 0.128296 -0.056838 299376.000000 0 0 1
20.947576 18.309843 11.803816 30.222200 0.718308 1.169548 0.150102 -0.047632 1533480.000000 0 0 1
19.862376 17.437143 11.429516 28.795864 0.720469 1.162643 0.131085 -0.044241 50726.600000 0 0 1
18.738476 17.464143 12.233116 28.386192 0.750213 1.125248 0.117678 -0.038332 -700990.000000 0 0 1
17.477676 16.853443 11.576716 26.898477 0.767217 1.125876 0.117156 -0.029679 -126656.000000 0 0 1
17.299576 15.457643 11.417716 25.856881 0.729227 1.113445 0.114287 -0.028176 727169.000000 0 0 1
16.124076 15.286443 10.603816 24.619140 0.758737 1.125512 0.112303 -0.031585 675226.000000 0 1 0
16.161176 13.962743 9.839716 23.515140 0.712548 1.139067 0.111931 -0.037078 -162196.000000 0 1 0
16.008776 12.819343 10.602416 23.087392 0.675210 1.093668 0.090758 -0.029858 595199.000000 0 1 0
16.534676 11.701343 9.823316 22.512540 0.615865 1.119260 0.095227 -0.028194 -45270.300000 0 1 0
16.603776 10.371443 10.642216 22.282481 0.558343 1.072870 0.086240 -0.034086 -999594.000000 0 1 0
17.222176 9.461943 9.802616 21.959576 0.502386 1.108065 0.080380 -0.030219 166872.000000 0 1 0
17.747676 8.292643 10.363816 22.162053 0.437108 1.084180 0.079821 -0.028988 386207.000000 0 1 0
19.019876 8.460443 11.260616 23.667198 0.418539 1.074934 0.093645 -0.027003 -149584.000000 0 1 0
18.770776 9.279743 12.381116 24.325865 0.459135 1.036809 0.095959 -0.027396 862836.000000 0 1 0
19.935576 9.328843 13.248016 25.689773 0.437680 1.028981 0.111643 -0.030114 194102.000000 0 0 1
19.654376 9.896743 14.665616 26.444665 0.466475 0.982941 0.087401 -0.013700 300522.000000 0 0 1
18.876176 9.034943 15.527316 26.058353 0.446416 0.932451 0.093050 -0.014236 1922910.000000 0 0 1
17.454476 8.940643 15.233916 24.832761 0.473381 0.910361 0.089402 -0.020287 839930.000000 0 1 0
16.913676 7.529043 15.559816 24.184020 0.418809 0.871875 0.121081 -0.025891 -142211.000000 0 1 0
16.687876 7.139543 16.918016 24.812850 0.404264 0.820542 0.149794 -0.029931 218164.000000 0 1 0
16.216476 5.808343 17.120316 24.286131 0.343939 0.788455 0.140582 -0.011676 580778.000000 0 1 0
14.693476 5.749843 17.513916 23.573209 0.373001 0.733317 0.120261 -0.022510 1091840.000000 0 1 0
14.138276 4.387743 17.503116 22.923835 0.300920 0.702029 0.113620 -0.020988 482308.000000 0 1 0
13.848376 3.729943 16.302216 21.712951 0.263098 0.721515 0.124234 -0.020058 -383463.000000 0 1 0
13.748276 2.194143 16.476416 21.570852 0.158259 0.701573 0.129759 -0.023947 1057600.000000 0 1 0
15.013476 1.552643 16.841216 22.615077 0.103050 0.730726 0.127535 -0.019093 1232320.000000 0 1 0
15.138276 0.134043 16.842916 22.646615 0.008854 0.732167 0.141033 -0.015669 643486.000000 0 1 0
14.008476 -0.675457 17.647916 22.542018 -0.048180 0.671499 0.124140 -0.030700 1696000.000000 0 1 0
12.693076 -0.601557 17.084716 21.292336 -0.047357 0.639510 0.127128 -0.037083 718364.000000 0 1 0
11.699576 -1.172157 17.954416 21.461945 -0.099855 0.579804 0.106365 -0.040489 616210.000000 0 1 0
-26.274994 13.990343 28.627666 41.299495 -0.489276 0.804915 0.090696 -0.014726 -521825.000000 0 0 1
-25.233494 14.050843 29.551336 41.321144 -0.508074 0.773940 0.077411 -0.016329 201224.000000 0 0 1
-24.550724 12.771543 29.660516 40.565954 -0.479685 0.750764 0.053435 -0.005666 -358626.000000 0 0 1
-23.427924 12.920443 30.657906 40.690450 -0.503992 0.717515 0.058864 -0.012954 -719785.000000 0 0 1
-23.838124 13.009343 31.996731 41.967726 -0.499564 0.703763 0.056910 -0.011456 380489.000000 0 0 1
-22.716824 13.211443 32.847481 42.066060 -0.526758 0.674763 0.047443 -0.010148 354143.000000 0 0 1
-23.170324 13.511843 -33.055582 42.568831 -0.527940 2.459921 0.053317 -0.010468 389483.000000 0 0 1
-23.777224 12.411243 -32.367902 42.036608 -0.481077 2.449627 0.048487 -0.013905 291068.000000 0 0 1
-24.751224 12.747743 -31.405612 41.969519 -0.475603 2.416286 0.047337 -0.015410 -93696.900000 0 0 1
-25.552674 11.522443 -30.915872 41.731247 -0.423626 2.405106 0.042720 -0.020186 27174.800000 0 0 1
-24.831524 10.476943 -30.201162 40.478156 -0.399260 2.412997 0.060553 -0.022271 342805.000000 0 0 1
-24.403524 9.468743 -31.094042 40.645154 -0.370125 2.441857 0.051788 -0.021835 -83230.700000 0 0 1
-23.719524 8.295343 -30.352912 39.404668 -0.336431 2.450088 0.056909 -0.014597 60918.900000 0 0 1
-24.554024 7.633243 -29.426382 39.077852 -0.301404 2.423435 0.056581 -0.013113 507319.000000 0 0 1
-23.747324 6.677143 -28.717412 37.857752 -0.274098 2.431898 0.062280 -0.011484 217371.000000 0 0 1
-24.446924 5.853143 -27.616792 37.344325 -0.234999 2.403150 0.063711 -0.011276 -339724.000000 0 0 1
-25.302294 4.843743 -28.043372 38.080161 -0.189147 2.398574 0.071637 -0.020234 -185883.000000 0 0 1
-25.480214 3.845543 -27.055352 37.363373 -0.149792 2.380546 0.104963 -0.017495 -572456.000000 0 0 1
-26.314714 2.581343 -27.448052 38.111981 -0.097782 2.374879 0.115517 -0.016171 377073.000000 0 0 1
-27.684594 2.794543 -27.713382 39.271845 -0.100601 2.354180 0.124206 -0.029615 57756.500000 0 0 1
-27.976654 3.577443 -28.852562 40.348007 -0.127182 2.367553 0.118140 -0.028650 -2136840.000000 0 0 1
-29.388784 3.313143 -29.267002 41.608112 -0.112261 2.350961 0.134500 -0.039812 -1299050.000000 0 0 1
-30.352244 3.993043 -28.474002 41.808754 -0.130806 2.319997 0.121403 -0.036787 329858.000000 0 0 1
-31.652834 3.940943 -29.052352 43.144781 -0.123868 2.309552 0.120891 -0.030866 564175.000000 0 0 1
-32.062654 5.274243 -29.746102 44.052946 -0.163038 2.312080 0.112753 -0.033960 -549708.000000 0 0 1
-31.326864 5.450243 -30.930202 44.359384 -0.172256 2.342370 0.125363 -0.037039 116379.000000 0 0 1
-31.608314 6.670543 -31.598142 45.188763 -0.207986 2.345141 0.115176 -0.034178 -912636.000000 0 0 1
-31.145684 8.014443 -30.929782 44.619910 -0.251857 2.336693 0.080399 -0.026233 -838102.000000 0 0 1
-29.764464 8.161143 -30.813452 43.611884 -0.267614 2.355390 0.057981 -0.025301 -467072.000000 0 0 1
-29.172754 7.496343 -29.718812 42.313740 -0.251522 2.349482 0.047885 -0.024910 -848280.000000 0 0 1
-29.064554 8.338943 -28.443752 41.513050 -0.279406 2.325642 0.046793 -0.016991 -123720.000000 0 0 1
-30.258494 8.498143 -27.702202 41.895190 -0.273798 2.293249 0.048721 -0.020629 102539.000000 0 0 1
-30.737314 7.369843 -26.971052 41.551591 -0.235326 2.277194 0.053215 -0.017946 755324.000000 0 0 1
-32.188754 7.596543 -26.377762 42.303779 -0.231759 2.244049 0.046569 -0.021578 1030190.000000 0 0 1
-32.355964 8.488143 -25.269012 41.922309 -0.256555 2.217750 0.022158 -0.010453 -160463.000000 0 0 1
-32.250264 7.824043 -24.021092 40.967159 -0.238006 2.197342 0.032969 -0.014720 -117964.000000 0 0 1
-31.836154 8.803943 -22.948092 40.220207 -0.269797 2.177985 0.043574 -0.011627 -10982.600000 0 0 1
-32.777874 9.773343 -22.531492 40.958216 -0.289776 2.153291 0.043412 -0.010012 349709.000000 0 0 1
-32.058104 10.733543 -21.845992 40.251439 -0.323084 2.144490 0.053199 -0.013637 88073.900000 0 0 1
-33.105704 11.760743 -21.358192 41.115388 -0.341343 2.117026 0.041041 -0.010174 -90878.400000 0 0 1
-33.936924 11.137443 -20.399592 41.132722 -0.317106 2.089720 0.055994 -0.016112 194793.000000 0 0 1
-34.514764 12.130143 -19.474192 41.444583 -0.337964 2.059957 0.044045 -0.020200 56188.000000 0 0 1
-33.572394 12.829643 -18.424692 40.387804 -0.365023 2.044510 0.061647 -0.018244 50726.600000 0 0 1
-33.048844 12.016043 -17.394492 39.232382 -0.348725 2.030152 0.105191 -0.011108 -127103.000000 0 0 1
-33.996693 11.562543 -16.476792 39.508888 -0.327835 2.000983 0.105055 0.002659 -366380.000000 0 0 1
-34.209064 12.476243 -15.283692 39.490606 -0.349715 1.968195 0.092981 0.012717 -254420.000000 0 0 1
-34.751898 13.713243 -15.672392 40.513842 -0.375846 1.967999 0.059407 -0.003035 -124578.000000 0 0 1
-35.435534 14.312343 -14.617892 40.917026 -0.383862 1.936126 0.040550 -0.000882 -358204.000000 0 0 1
-36.236744 15.505043 -15.143092 42.223468 -0.404309 1.937609 0.021564 -0.008401 -201496.000000 0 0 1
-37.446674 15.087843 -15.743592 43.333095 -0.383017 1.942621 0.026764 -0.015867 -212314.000000 0 0 1
37.649190 16.203343 -16.195692 44.071649 0.406416 1.947100 0.028256 -0.019033 -683911.000000 0 0 1
37.208590 16.142043 -17.662792 44.238207 0.409322 1.981512 0.030364 -0.013290 -632967.000000 0 0 1
36.200590 15.276043 -18.043092 43.236482 0.399313 2.001281 0.068161 -0.029287 -688911.000000 0 0 1
34.964180 15.951943 -18.054992 42.461054 0.428028 2.009994 0.124174 -0.031352 -1065080.000000 0 0 1
33.827480 14.970643 -18.280592 41.262557 0.416648 2.029773 0.125244 -0.039265 -768850.000000 0 0 1
33.747080 14.484443 -19.615292 41.634411 0.405428 2.061370 0.123556 -0.029751 350774.000000 0 0 1
33.067110 13.239143 -19.870692 40.786678 0.380827 2.079661 0.072736 -0.020896 96861.000000 0 0 1
33.682680 11.946943 -19.253892 40.595132 0.340848 2.064954 0.083498 -0.018905 -249834.000000 0 0 1
33.656780 11.886943 -17.819792 39.895153 0.339506 2.033831 0.123454 -0.027593 177880.000000 0 0 1
34.061440 10.588143 -17.442092 39.705378 0.301385 2.025602 0.110217 -0.038828 -224958.000000 0 0 1
33.955120 10.423843 -15.928392 38.927116 0.297856 1.992357 0.088778 -0.036851 -530926.000000 0 0 1
32.607610 10.458443 -15.535592 37.603057 0.310371 1.996703 0.104138 -0.037751 -17166.800000 0 0 1
32.519390 10.116343 -14.179292 36.890425 0.301597 1.965313 0.084953 -0.027116 -334595.000000 0 0 1
31.783730 11.179943 -13.393392 36.257131 0.338233 1.949160 0.107233 -0.037125 -322986.000000 0 0 1
30.388640 11.130143 -13.622392 35.112948 0.351086 1.969213 0.090715 -0.037467 214909.000000 0 0 1
29.683340 12.080643 -12.840692 34.524281 0.386512 1.951886 0.125110 -0.037538 -877009.000000 0 0 1
28.191940 11.893943 -12.828092 33.178477 0.399235 1.967781 0.129322 -0.023755 -1768510.000000 0 0 1
27.698540 10.777543 -12.107592 32.092964 0.371076 1.957639 0.124555 -0.041441 492919.000000 0 0 1
26.306540 10.582543 -12.346392 30.926650 0.382469 1.981457 0.139575 -0.024121 310761.000000 0 0 1
25.800940 10.183143 -13.746392 30.957200 0.375913 2.030905 0.111958 -0.041163 -1011830.000000 0 0 1
26.158040 8.886243 -14.248892 31.084390 0.327482 2.046983 0.117582 -0.039753 670470.000000 0 0 1
27.465140 8.821943 -14.829192 32.435560 0.310796 2.045629 0.108323 -0.042489 412362.000000 0 0 1
28.526140 8.159043 -13.923292 32.774513 0.278582 2.009560 0.101896 -0.043695 -583320.000000 0 0 1
28.490640 6.737843 -13.665492 32.308834 0.232227 2.007511 0.108242 -0.054934 254185.000000 0 0 1
27.431240 6.370243 -12.815492 30.940100 0.228181 1.997864 0.121273 -0.050110 -235782.000000 0 0 1
27.272940 4.850143 -12.826492 30.526317 0.175997 2.004438 0.130112 -0.048906 -574998.000000 0 0 1
26.260240 4.506843 -11.939792 29.197097 0.169966 1.992086 0.169485 -0.048397 277446.000000 0 0 1
26.005940 3.129943 -12.138892 28.869676 0.119779 2.004762 0.182871 -0.048870 -327039.000000 0 0 1
25.330440 2.403543 -10.929592 27.692313 0.094604 1.976515 0.244385 -0.035865 -59781.500000 0 0 1
26.115540 2.215243 -9.746792 27.962988 0.084622 1.926831 0.252535 -0.032221 721266.000000 0 0 1
25.427440 1.361443 -8.834792 26.952955 0.053491 1.904755 0.286286 -0.019835 122792.000000 0 0 1
26.309540 1.023643 -7.562092 27.393886 0.038888 1.850479 0.317282 -0.007060 91293.100000 0 0 1
26.235540 -0.314357 -6.961092 27.145150 -0.011982 1.830133 0.285080 -0.006202 516856.000000 0 0 1
26.770340 -1.301357 -7.856792 27.929802 -0.048574 1.855950 0.238846 -0.010586 -261739.000000 0 0 1
27.046740 -2.703657 -7.273792 28.137945 -0.099631 1.832270 0.218199 -0.014539 -263557.000000 0 0 1
28.203740 -2.729857 -6.474092 29.065735 -0.096490 1.795420 0.210082 -0.024638 244570.000000 0 0 1
28.262340 -3.924257 -5.761392 29.109334 -0.137969 1.770034 0.206588 -0.040805 322902.000000 0 0 1
29.632840 -4.215157 -5.051892 30.354479 -0.141298 1.738004 0.151133 -0.028472 128757.000000 0 0 1
30.618640 -4.520757 -5.960292 31.519255 -0.146588 1.761042 0.146864 -0.023892 -48732.600000 0 0 1
31.871090 -5.006657 -5.484692 32.724835 -0.155817 1.739191 0.205327 -0.033406 544196.000000 0 0 1
32.890090 -5.167157 -6.627292 33.946701 -0.155830 1.767285 0.219526 -0.046510 -226770.000000 0 0 1
32.623160 -6.318257 -7.386492 34.040435 -0.191306 1.789528 0.216064 -0.044762 -227693.000000 0 0 1
33.369930 -6.463757 -8.596792 35.060479 -0.191331 1.818521 0.217491 -0.046975 -755576.000000 0 0 1
32.626760 -7.149757 -9.771492 34.800956 -0.215728 1.855405 0.196473 -0.044232 1980820.000000 0 0 1
31.315430 -6.550757 -10.069792 33.540562 -0.206213 1.875727 0.162094 -0.043835 1822070.000000 0 0 1
30.254640 -6.717057 -9.174392 32.320761 -0.218474 1.858608 0.156208 -0.037335 -1373190.000000 0 0 1
28.999240 -5.890657 -9.400992 31.048904 -0.200405 1.878405 0.137063 -0.034096 -370062.000000 0 0 1
28.090040 -6.494357 -10.316592 30.621220 -0.227206 1.914429 0.123154 -0.032597 289899.000000 0 0 1
26.956040 -5.660957 -10.443592 29.457480 -0.206999 1.933209 0.172273 -0.023210 633232.000000 0 0 1
25.580540 -6.415157 -10.454692 28.369329 -0.245715 1.948214 0.204056 -0.014484 -120260.000000 0 0 1
25.405640 -7.228257 -9.287692 27.999205 -0.277189 1.908915 0.186224 -0.022130 1158280.000000 0 0 1
24.073240 -7.692657 -8.998892 26.826813 -0.309297 1.912873 0.164234 -0.011729 496149.000000 0 0 1
23.206740 -6.612957 -8.317592 25.523838 -0.277601 1.902734 0.183297 -0.010715 -644716.000000 0 0 1
22.849040 -5.492557 -9.109292 25.203691 -0.235909 1.940594 0.199720 -0.006048 410133.000000 0 0 1
22.882540 -4.319057 -8.359492 24.741584 -0.186554 1.915451 0.247709 -0.017754 -164200.000000 0 1 0
22.857440 -3.013657 -9.222692 24.831487 -0.131090 1.951325 0.273052 -0.021587 439340.000000 0 1 0
24.110240 -2.879557 -9.910892 26.226348 -0.118870 1.958322 0.246251 -0.029188 1129870.000000 0 0 1
24.041740 -2.196057 -11.138392 26.587435 -0.091091 2.003068 0.250575 -0.031000 603242.000000 0 0 1
25.463040 -2.135357 -11.840692 28.162531 -0.083665 2.004728 0.193000 -0.033991 920455.000000 0 0 1
26.371440 -1.238157 -11.244592 28.695413 -0.046916 1.973449 0.199765 -0.039999 47583.400000 0 0 1
27.604340 -1.319557 -11.894692 30.086949 -0.047766 1.977239 0.160029 -0.035328 -880292.000000 0 0 1
28.733240 -0.421457 -11.414092 30.920191 -0.014667 1.948887 0.115984 -0.015718 57517.600000 0 0 1
29.932340 -0.739857 -12.141692 32.309643 -0.024713 1.956047 0.101484 -0.018708 945915.000000 0 0 1
31.047290 0.104843 -11.876892 33.241627 0.003377 1.936161 0.116345 -0.019663 363629.000000 0 0 1
31.025600 1.436243 -12.729892 33.566364 0.046259 1.959777 0.112777 -0.017782 -431094.000000 0 0 1
31.145440 1.314943 -14.119492 34.221741 0.042194 1.996090 0.092922 -0.021726 382735.000000 0 0 1
31.330480 2.606943 -14.716892 34.712851 0.083017 2.008611 0.095684 -0.024243 -19220.800000 0 0 1
31.568350 2.500143 -16.288192 35.610625 0.079033 2.045862 0.093922 -0.014274 140968.000000 0 0 1
30.440040 1.891543 -16.894392 34.865376 0.062060 2.076657 0.087924 -0.012811 170406.000000 0 0 1
30.602040 1.799943 -18.297492 35.700460 0.058750 2.108923 0.071947 -0.012221 -349781.000000 0 0 1
29.505940 1.085943 -19.099892 35.165120 0.036788 2.144979 0.054440 -0.013387 -291767.000000 0 0 1
29.355840 -0.268757 -18.764992 34.841965 -0.009155 2.139541 0.065814 -0.015336 447683.000000 0 0 1
28.714040 -0.944557 -19.882492 34.938543 -0.032883 2.176171 0.035221 -0.011905 -15040.100000 0 0 1
28.598740 -2.458857 -19.885892 34.919659 -0.085767 2.176664 0.049140 -0.020852 540921.000000 0 0 1
27.350840 -2.873257 -19.285592 33.589554 -0.104668 2.182367 0.049930 -0.014469 1004670.000000 0 0 1
27.173940 -4.320957 -19.213692 33.559792 -0.157691 2.180374 0.051484 -0.013558 -384308.000000 0 0 1
28.031340 -5.150457 -18.244092 33.839771 -0.181712 2.140202 0.039575 -0.009112 35969.000000 0 0 1
29.424240 -5.148857 -18.527792 35.150757 -0.173233 2.125975 0.053608 -0.007742 286456.000000 0 0 1
30.173740 -5.401557 -17.354392 35.225081 -0.177139 2.085953 0.070276 -0.019070 785885.000000 0 0 1
31.701370 -5.163357 -17.650392 36.649331 -0.161457 2.073278 0.105300 -0.019572 675582.000000 0 0 1
32.357550 -6.191957 -18.384192 37.727045 -0.189075 2.079785 0.082764 -0.017471 216259.000000 0 0 1
33.659830 -5.752157 -18.738292 38.951188 -0.169256 2.072672 0.120130 -0.022088 -394865.000000 0 0 1
34.415060 -6.910757 -19.323692 40.069440 -0.198171 2.074023 0.105226 -0.009898 -604695.000000 0 0 1
34.980920 -7.763957 -18.370292 40.266753 -0.218408 2.044533 0.125867 -0.021577 448070.000000 0 0 1
35.648800 -8.905457 -18.967992 41.351286 -0.244801 2.047332 0.107734 -0.011746 389753.000000 0 0 1
36.456020 -9.786257 -17.962092 41.802500 -0.262257 2.014945 0.123452 -0.017817 -42297.200000 0 0 1
35.618520 -10.445557 -17.029692 40.838695 -0.285264 2.000937 0.113030 -0.022878 658940.000000 0 0 1
36.390400 -11.139757 -16.039592 41.299200 -0.297060 1.969664 0.132444 -0.032172 189925.000000 0 0 1
37.444280 -10.394357 -15.145292 41.707273 -0.270777 1.942425 0.153789 -0.035473 -130954.000000 0 0 1
-37.851904 -11.067057 -14.030392 41.858074 0.284449 1.912603 0.143022 -0.035388 509850.000000 0 0 1
-37.171544 -12.340757 -14.181092 41.654788 0.320545 1.918185 0.129472 -0.026346 188525.000000 0 0 1
-35.680873 -12.246457 -14.627992 40.460828 0.330624 1.940710 0.135766 -0.029121 176142.000000 0 0 1
-35.470474 -12.080257 -16.022492 40.753005 0.328251 1.974863 0.153355 -0.018585 1097290.000000 0 0 1
-34.069146 -12.211357 -16.379192 39.725331 0.344164 1.995786 0.170731 -0.026591 1140890.000000 0 0 1
-33.659374 -11.743557 -17.814592 39.852532 0.335689 2.034219 0.195300 -0.028519 14187.100000 0 0 1
-33.689084 -10.346157 -17.958292 39.553731 0.297964 2.042071 0.196192 -0.034506 -256235.000000 0 0 1
-34.888861 -9.883757 -18.510292 40.713047 0.276059 2.042778 0.181857 -0.030666 -235245.000000 0 0 1
-35.246353 -8.410857 -18.217992 40.557899 0.234250 2.036649 0.193111 -0.033458 306819.000000 0 0 1
-36.556274 -7.976757 -18.558292 41.766016 0.214837 2.031233 0.196497 -0.030860 435135.000000 0 0 1
-36.809824 -6.619757 -18.264892 41.621997 0.177935 2.025090 0.179192 -0.033769 121.874000 0 0 1
25.896876 27.081843 -26.935412 46.147490 0.807761 2.194051 0.071229 -0.004611 -56653.100000 0 0 1
26.235376 26.089343 -25.991572 45.216264 0.782607 2.183190 0.083059 -0.020823 -90593.100000 0 0 1
27.469776 25.525043 -26.373512 45.844068 0.748718 2.183752 0.081523 -0.027679 -129951.000000 0 0 1
28.013676 24.464543 -25.366272 45.019192 0.717870 2.169358 0.099936 -0.033546 -318391.000000 0 0 1
28.405076 25.012043 -24.127292 44.884038 0.721964 2.138322 0.093822 -0.031979 185837.000000 0 0 1
28.809576 24.048543 -23.174392 44.106423 0.695569 2.124005 0.102327 -0.032032 -312271.000000 0 0 1
29.425876 24.662243 -21.921492 44.211539 0.697553 2.089589 0.103114 -0.022225 -144964.000000 0 0 1
28.624276 25.487543 -21.089792 43.746352 0.727495 2.073838 0.099442 -0.022963 -184885.000000 0 0 1
29.392876 26.354543 -20.287392 44.385598 0.730950 2.045496 0.076365 -0.018737 -259656.000000 0 0 1
28.560776 27.478643 -19.692092 44.255759 0.766090 2.031927 0.088656 -0.013780 -219655.000000 0 0 1
27.580276 26.984443 -18.793092 42.918668 0.774479 2.024032 0.110481 -0.015760 240403.000000 0 0 1
26.774076 28.072943 -18.366392 42.921622 0.809075 2.012970 0.102903 -0.010418 192889.000000 0 0 1
25.652776 27.750143 -17.346292 41.581597 0.824652 2.001118 0.094991 -0.005548 370906.000000 0 0 1
24.616976 26.895743 -17.817092 40.581095 0.829606 2.025336 0.100692 -0.016806 398097.000000 0 0 1
23.578676 26.756243 -16.846892 39.441961 0.848443 2.012114 0.082528 -0.004965 211217.000000 0 0 1
22.483976 25.834243 -17.408792 38.418789 0.854625 2.041072 0.087445 -0.012793 -165104.000000 0 0 1
21.628476 26.291243 -18.441192 38.718187 0.882397 2.067230 0.083289 -0.013676 -21146.000000 0 0 1
20.976476 25.200743 -19.039792 37.915744 0.876624 2.096892 0.089816 -0.010669 290767.000000 0 0 1
20.185876 25.523343 -20.326492 38.367654 0.901642 2.129140 0.080562 -0.006783 715020.000000 0 0 1
19.096676 26.420943 -20.183992 38.342441 0.944941 2.125173 0.063706 -0.006375 -37083.300000 0 0 1
18.159376 26.368043 -21.240692 38.421395 0.967702 2.156559 0.065265 -0.009456 555204.000000 0 0 1
16.993176 27.400243 -21.034892 38.496857 1.015668 2.148863 0.066303 -0.007985 140279.000000 0 0 1
16.408476 27.207143 -19.791592 37.432256 1.028105 2.127901 0.075552 -0.004494 -348335.000000 0 0 1
15.363576 28.116443 -19.534992 37.525854 1.070701 2.118320 0.074003 -0.014971 140044.000000 0 0 1
14.780576 28.138243 -18.088492 36.570749 1.087127 2.088190 0.073736 -0.012344 519034.000000 0 0 1
13.929776 27.014043 -17.819392 35.232484 1.094708 2.101066 0.078018 -0.009571 63932.200000 0 0 1
13.367776 27.071243 -16.529592 34.420590 1.112121 2.071706 0.100786 -0.009249 449911.000000 0 0 1
12.243476 26.040043 -16.262092 33.052113 1.131289 2.085198 0.115813 -0.012032 322034.000000 0 0 1
12.888776 24.775543 -16.039592 32.205847 1.091103 2.092126 0.120344 -0.016567 589969.000000 0 0 1
11.971976 23.693143 -16.089092 31.041136 1.102923 2.115676 0.127663 -0.019409 551444.000000 0 0 1
12.846676 22.431343 -16.176092 30.493740 1.050684 2.129954 0.123109 -0.024259 655619.000000 0 0 1
13.472476 22.138943 -17.435492 31.235185 1.024120 2.163012 0.113399 -0.019339 -469636.000000 0 0 1
14.359776 21.064743 -17.422592 30.878363 0.972460 2.170300 0.110576 -0.017215 -157291.000000 0 0 1
13.749676 19.645143 -17.662092 29.781449 0.960136 2.205646 0.112025 -0.022789 130471.000000 0 0 1
12.989276 19.149543 -16.571092 28.460980 0.974778 2.192276 0.123175 -0.039948 -231451.000000 0 0 1
12.691376 17.738043 -16.666292 27.449490 0.949750 2.223281 0.115894 -0.033070 -532493.000000 0 0 1
13.766776 16.656943 -16.584492 27.240104 0.880111 2.225377 0.125719 -0.030940 -688049.000000 0 0 1
14.345476 16.487843 -15.305492 26.681449 0.854769 2.181737 0.140620 -0.043883 413161.000000 0 0 1
15.474476 15.631943 -15.442992 26.875696 0.790460 2.182922 0.142097 -0.044377 -33808.300000 0 0 1
16.037576 14.921943 -14.176392 26.092879 0.749379 2.145165 0.195497 -0.052274 -144395.000000 0 0 1
16.824676 15.628543 -13.201492 26.487742 0.748558 2.092549 0.175726 -0.051542 2359270.000000 0 0 1
18.174476 16.080043 -13.554192 27.795602 0.724331 2.080179 0.142733 -0.039379 2028190.000000 0 0 1
19.247176 15.173843 -14.273492 28.362508 0.667607 2.098154 0.134364 -0.037237 66999.700000 0 0 1
19.854576 14.119843 -13.538492 27.872296 0.618179 2.077998 0.163780 -0.041725 804182.000000 0 0 1
21.008076 14.431143 -12.750292 28.498545 0.601902 2.034654 0.151300 -0.031149 426624.000000 0 0 1
21.736276 13.155943 -12.205492 28.187205 0.544273 2.018632 0.168170 -0.050585 351038.000000 0 0 1
20.990976 12.515843 -11.128792 26.853629 0.537657 1.998106 0.246094 -0.060305 624838.000000 0 0 1
21.597976 11.326143 -10.679592 26.623444 0.482983 1.983552 0.257600 -0.032975 -294063.000000 0 0 1
21.500976 10.092643 -11.574492 26.422003 0.438873 2.024239 0.197778 -0.027760 -662404.000000 0 0 1
22.416676 9.965043 -12.627492 27.590995 0.418302 2.046166 0.171874 -0.022191 163221.000000 0 0 1
22.124576 8.845243 -13.437992 27.355343 0.380328 2.084307 0.152340 -0.031999 5191.910000 0 0 1
22.504876 7.427243 -12.902892 26.983661 0.318773 2.069371 0.173090 -0.012036 -538629.000000 0 0 1
21.589276 7.053543 -11.934392 25.656948 0.315782 2.054603 0.170452 -0.033731 -135038.000000 0 0 1
22.031776 6.130743 -10.991892 25.373349 0.271402 2.018843 0.186643 -0.017955 -527057.000000 0 0 1
22.491476 4.735043 -11.490392 25.696619 0.207496 2.034379 0.211048 -0.033646 465847.000000 0 0 1
21.440776 3.852343 -11.952592 24.847774 0.177777 2.072629 0.184548 -0.045383 1388360.000000 0 1 0
20.773176 4.110843 -13.214892 24.961114 0.195368 2.128712 0.135586 -0.049283 -61554.400000 0 1 0
19.703476 3.071843 -13.644892 24.162911 0.154659 2.170871 0.131664 -0.055676 -232498.000000 0 1 0
20.051976 1.793243 -14.079092 24.566609 0.089192 2.181078 0.148559 -0.079373 2392.950000 0 1 0
20.252876 0.910243 -12.956592 24.059942 0.044914 2.139468 0.205990 -0.087082 -403596.000000 0 1 0
21.296776 -0.247857 -13.053292 24.980042 -0.011638 2.120634 0.232232 -0.078419 428705.000000 0 1 0
22.633376 0.258843 -12.892892 26.049249 0.011436 2.088566 0.272772 -0.059183 1460810.000000 0 0 1
23.425976 0.701543 -14.028292 27.314126 0.029938 2.110161 0.183047 -0.052890 316615.000000 0 0 1
23.760176 -0.355757 -15.103192 28.156330 -0.014972 2.136968 0.144667 -0.033752 -516543.000000 0 0 1
22.631276 -0.856657 -15.802492 27.615707 -0.037835 2.180017 0.160270 -0.037368 132609.000000 0 0 1
23.103276 -1.629057 -16.884192 28.661666 -0.070395 2.200724 0.112560 -0.024975 -130991.000000 0 0 1
22.019676 -2.278457 -17.751892 28.375820 -0.103107 2.246696 0.116987 -0.032790 -155009.000000 0 0 1
21.333176 -3.375357 -17.122392 27.562179 -0.156920 2.241105 0.146785 -0.027381 465753.000000 0 0 1
20.670476 -4.094457 -18.154492 27.814002 -0.195551 2.281953 0.125668 -0.015624 -226911.000000 0 0 1
19.815176 -5.292457 -17.668192 27.070580 -0.260999 2.281901 0.130904 -0.012776 -463377.000000 0 0 1
20.535376 -6.298357 -17.021092 27.405994 -0.297599 2.240906 0.131055 -0.017129 177976.000000 0 0 1
19.715076 -7.326257 -16.496192 26.729807 -0.355793 2.235907 0.137236 -0.005918 -283465.000000 0 0 1
20.518976 -8.374857 -15.767992 27.199194 -0.387514 2.189185 0.165623 -0.010032 10530.200000 0 0 1
21.285476 -9.240757 -16.617092 28.541037 -0.409582 2.192250 0.143920 -0.013842 716191.000000 0 0 1
22.002776 -10.212057 -15.864392 28.984257 -0.434539 2.149985 0.129144 -0.016707 -90874.300000 0 0 1
22.773176 -11.219257 -16.795092 30.439520 -0.457752 2.155261 0.115199 -0.012237 726332.000000 0 0 1
23.914476 -10.739457 -17.541692 31.542813 -0.422087 2.160510 0.102697 -0.007515 728326.000000 0 0 1
24.196176 -11.689457 -18.561892 32.659488 -0.450046 2.175291 0.099462 -0.015131 27347.600000 0 0 1
23.271776 -11.606757 -19.848392 32.714691 -0.462646 2.222714 0.107487 -0.013210 832527.000000 0 0 1
21.893776 -11.880157 -19.674592 31.742166 -0.497165 2.239316 0.104096 -0.021911 309386.000000 0 0 1
21.496876 -13.230857 -19.500392 31.897281 -0.551723 2.228561 0.092911 -0.014480 -236488.000000 0 0 1
19.968876 -13.488057 -19.495092 30.995843 -0.594061 2.251009 0.097056 -0.020554 226713.000000 0 0 1
19.403676 -13.227757 -20.772992 31.352725 -0.598348 2.295025 0.092098 -0.006571 1560790.000000 0 0 1
17.974876 -13.535457 -20.843992 30.672084 -0.645432 2.317980 0.095012 -0.009970 1965160.000000 0 0 1
17.209476 -12.896657 -22.070692 30.815666 -0.643112 2.369162 0.092141 -0.017073 -23143.700000 0 0 1
17.558976 -13.428857 -23.291492 32.111453 -0.652897 2.382314 0.083155 -0.011912 442014.000000 0 0 1
16.741376 -12.850757 -24.303292 32.187973 -0.654673 2.426515 0.105176 -0.023707 66031.500000 0 0 1
16.875876 -13.588557 -25.684712 33.602805 -0.677907 2.440848 0.098190 -0.031441 -212504.000000 0 0 1
16.214476 -14.849157 -25.659352 33.790665 -0.741474 2.433129 0.105012 -0.028045 324243.000000 0 0 1
16.188076 -15.497057 -26.921502 35.028272 -0.763593 2.447391 0.098352 -0.028021 -207745.000000 0 0 1
17.127376 -16.715957 -27.043592 36.112686 -0.773242 2.417147 0.090954 -0.024515 1342230.000000 0 0 1
18.535676 -16.360557 -26.988292 36.600642 -0.723148 2.399968 0.084552 -0.017960 1271750.000000 0 0 1
19.361076 -17.510757 -26.944972 37.516788 -0.735258 2.372024 0.100327 -0.019727 -241463.000000 0 0 1
20.852676 -17.274857 -26.764432 38.073476 -0.691834 2.350358 0.072692 -0.007007 -358099.000000 0 0 1
21.227676 -16.762357 -25.501032 37.173828 -0.668396 2.326766 0.077855 -0.007831 412739.000000 0 0 1
22.626976 -16.471357 -25.452282 37.829939 -0.629241 2.308794 0.073024 -0.000778 475085.000000 0 0 1
23.002276 -15.703357 -24.131692 36.851576 -0.599012 2.284760 0.086527 -0.003096 54752.100000 0 0 1
22.633776 -14.335557 -24.008692 35.975176 -0.564596 2.301466 0.090080 -0.003575 -798278.000000 0 0 1
21.285976 -14.010157 -24.020392 35.019373 -0.582109 2.326660 0.115949 -0.010579 -717796.000000 0 0 1
21.116076 -12.506957 -23.727492 34.136586 -0.534735 2.339321 0.123182 -0.001150 141065.000000 0 0 1
21.752376 -11.725857 -24.733492 34.962940 -0.494406 2.356638 0.133621 -0.015316 388207.000000 0 0 1
21.788376 -10.427157 -24.096592 34.118978 -0.446353 2.354986 0.139034 -0.024002 -43122.300000 0 0 1
22.150376 -9.217257 -24.950792 34.614144 -0.394327 2.375790 0.156825 -0.033360 -150921.000000 0 0 1
21.753976 -8.095857 -24.215192 33.543313 -0.356274 2.377352 0.157965 -0.034428 124619.000000 0 0 1
21.663676 -6.911057 -24.972492 33.774294 -0.308810 2.402965 0.133623 -0.037203 -269835.000000 0 0 1
21.175376 -5.768757 -24.111492 32.604281 -0.265973 2.403152 0.137965 -0.046411 145554.000000 0 0 1
19.809176 -5.980457 -23.756792 31.504833 -0.293202 2.425031 0.149570 -0.048248 364281.000000 0 0 1
19.293876 -5.081257 -22.787092 30.287363 -0.257514 2.422438 0.148151 -0.043853 129561.000000 0 0 1
19.886476 -5.299157 -21.367492 29.666862 -0.260419 2.374956 0.137556 -0.033505 -202479.000000 0 0 1
19.409376 -6.428357 -20.560492 28.996232 -0.319828 2.358981 0.140073 -0.036518 342387.000000 0 0 1
19.518776 -7.653357 -21.157192 29.785622 -0.373680 2.360743 0.130114 -0.038206 -185123.000000 0 0 1
19.350376 -8.863057 -20.209392 29.349793 -0.429512 2.330312 0.122892 -0.031088 162447.000000 0 0 1
17.951976 -9.031457 -20.082392 28.410264 -0.466116 2.355861 0.134203 -0.032192 81040.400000 0 0 1
17.699076 -10.102957 -19.178092 27.984393 -0.518686 2.325831 0.133693 -0.018275 -329842.000000 0 0 1
16.217276 -10.288957 -18.879492 26.931355 -0.565362 2.347627 0.148880 -0.019352 -445131.000000 0 0 1
15.629976 -9.341757 -17.980892 25.590565 -0.538713 2.349894 0.159551 -0.018695 -387917.000000 0 0 1
14.249176 -9.542657 -17.953792 24.828209 -0.590099 2.379106 0.134572 -0.033913 -844808.000000 0 1 0
13.620976 -8.256757 -17.323592 23.533207 -0.544951 2.398137 0.160195 -0.022797 -779177.000000 0 1 0
12.263376 -8.220857 -17.605392 22.976568 -0.590554 2.443753 0.141639 -0.034956 -881781.000000 0 1 0
11.632776 -7.018757 -17.293692 21.992185 -0.542887 2.475685 0.135050 -0.034540 -136492.000000 0 1 0
10.138476 -6.901257 -17.607092 21.457533 -0.597655 2.533178 0.119949 -0.032780 -164559.000000 0 1 0
9.800576 -6.401757 -18.874392 22.209828 -0.578623 2.586443 0.109153 -0.044065 918879.000000 0 1 0
8.374976 -6.419857 -19.070092 21.795027 -0.654011 2.636179 0.095829 -0.043132 878754.000000 0 1 0
7.826476 -5.897857 -20.424592 22.653971 -0.645787 2.694227 0.102855 -0.051391 -14793.300000 0 1 0
7.912676 -6.863857 -21.462892 23.882603 -0.714538 2.687554 0.104131 -0.044781 -10263.900000 0 1 0
7.107776 -6.469557 -22.528192 24.492756 -0.738427 2.738341 0.115523 -0.049188 -203872.000000 0 1 0
7.242276 -7.368757 -23.798592 25.944597 -0.794055 2.732005 0.107872 -0.043600 3298.220000 0 0 1
6.854876 -8.723757 -23.436292 25.929771 -0.904792 2.699451 0.118355 -0.037863 253078.000000 0 0 1
6.852276 -9.560257 -24.552392 27.224477 -0.948920 2.694829 0.099822 -0.023886 -133664.000000 0 0 1
5.795276 -10.728257 -24.482792 27.351194 -1.075518 2.679512 0.095781 -0.025028 273510.000000 0 0 1
6.174176 -11.841057 -23.728492 27.228155 -1.090159 2.628986 0.080830 -0.029609 -40084.300000 0 0 1
5.081276 -12.688257 -23.500692 27.186279 -1.189884 2.614816 0.101218 -0.040180 -4650.940000 0 0 1
5.692476 -13.798357 -22.586592 27.073106 -1.179520 2.557625 0.100920 -0.031555 1013560.000000 0 0 1
6.707676 -14.693257 -23.114192 28.198415 -1.142539 2.531680 0.094299 -0.020744 1314000.000000 0 0 1
8.034576 -14.222357 -23.396292 28.534476 -1.056566 2.532086 0.080616 -0.023383 1438300.000000 0 0 1
8.913476 -13.723257 -22.162192 27.548876 -0.994761 2.505576 0.086404 -0.015526 18859.900000 0 0 1
9.523676 -14.675257 -21.301192 27.564549 -0.995152 2.453998 0.078440 -0.005606 -18267.500000 0 0 1
8.652776 -15.424757 -20.460392 27.044802 -1.059572 2.428798 0.082669 -0.006523 -250097.000000 0 0 1
9.137976 -15.810057 -19.069292 26.402621 -1.046722 2.377846 0.083782 -0.002809 -626906.000000 0 0 1
10.122576 -16.783357 -19.159492 27.408644 -1.028077 2.344838 0.078109 -0.004650 -815952.000000 0 0 1
10.590876 -17.147457 -17.877692 26.940932 -1.017510 2.296402 0.077315 0.005875 -183748.000000 0 0 1
9.684476 -17.906857 -16.828892 26.413182 -1.075025 2.261578 0.044880 -0.004401 -330910.000000 0 0 1
9.295876 -19.254757 -17.194392 27.437312 -1.121017 2.248081 0.051223 -0.013970 168884.000000 0 0 1
8.377976 -19.499057 -18.252292 27.991961 -1.164985 2.281088 0.067722 -0.008879 251435.000000 0 0 1
6.903976 -19.055957 -18.018892 27.119639 -1.223206 2.297517 0.077090 -0.014445 -93946.900000 0 0 1
6.707776 -17.638157 -17.868492 25.988110 -1.207388 2.328925 0.079989 -0.015025 -324150.000000 0 0 1
5.336276 -17.312457 -17.931792 25.490119 -1.271803 2.351079 0.074908 -0.014544 14749.600000 0 0 1
5.061076 -15.944457 -17.475192 24.191373 -1.263436 2.378024 0.066224 -0.007882 -221057.000000 0 1 0
5.045176 -15.844957 -16.105492 23.149586 -1.262537 2.340210 0.024340 -0.002421 119086.000000 0 1 0
4.649476 -14.562557 -15.738992 21.940865 -1.261750 2.370769 0.015763 -0.000108 -194545.000000 0 1 0
10.770876 29.410243 -17.927192 36.088203 1.219738 2.090658 0.095352 -0.029524 170426.000000 0 0 1
9.858276 28.981943 -18.951592 36.004187 1.242921 2.125124 0.125878 -0.043829 220882.000000 0 0 1
8.892576 28.204243 -18.237792 34.744414 1.265370 2.123409 0.122558 -0.041328 737238.000000 0 0 1
7.609476 27.794543 -19.057592 34.548988 1.303569 2.155090 0.129935 -0.039026 1023640.000000 0 0 1
6.815576 28.907543 -19.496792 35.527778 1.339253 2.151696 0.139566 -0.052700 -168003.000000 0 0 1
6.373976 28.690443 -20.795492 36.003077 1.352183 2.186586 0.121973 -0.048644 -268249.000000 0 0 1
5.297076 29.643443 -21.290192 36.879059 1.393970 2.186212 0.115499 -0.052120 100924.000000 0 0 1
4.002476 29.376943 -20.779492 36.205136 1.435385 2.182103 0.115533 -0.037926 426201.000000 0 0 1
2.995976 30.277243 -21.192792 37.078589 1.472166 2.179207 0.116508 -0.052193 861571.000000 0 0 1
1.516376 30.059943 -20.667792 36.511056 1.520394 2.172526 0.113850 -0.038773 1164460.000000 0 0 1
0.856676 28.838343 -20.936692 35.647286 1.541099 2.198551 0.117701 -0.057991 8464.430000 0 0 1
0.539576 28.684443 -22.298392 36.336025 1.551988 2.231499 0.158446 -0.070037 -970928.000000 0 0 1
-0.174024 27.330343 -22.450492 35.369514 -1.564429 2.258470 0.153283 -0.062868 334776.000000 0 0 1
-1.456924 27.399643 -21.836192 35.066827 -1.517673 2.242988 0.158062 -0.059477 392028.000000 0 0 1
-2.235724 26.217943 -22.131092 34.382615 -1.485728 2.270082 0.166075 -0.070320 748070.000000 0 0 1
-3.356724 26.015743 -21.053592 33.635401 -1.442479 2.247127 0.127365 -0.060726 -360279.000000 0 0 1
-4.482024 26.804843 -21.105092 34.409491 -1.405120 2.231093 0.122277 -0.055488 -91501.000000 0 0 1
-5.520624 26.160743 -20.348792 33.599630 -1.362821 2.221348 0.101557 -0.053924 671164.000000 0 0 1
-6.753824 27.043243 -20.010992 34.313131 -1.326061 2.193443 0.091183 -0.056607 841445.000000 0 0 1
-7.855924 26.312343 -19.443392 33.646700 -1.280657 2.186912 0.089150 -0.040957 345915.000000 0 0 1
-8.653924 27.203043 -18.671492 34.110417 -1.262797 2.150031 0.091319 -0.048235 -52049.800000 0 0 1
-9.900924 26.557943 -18.036992 33.595918 -1.213952 2.137531 0.107496 -0.045847 -357018.000000 0 0 1
-9.680724 25.616743 -17.041792 32.254560 -1.209480 2.127456 0.114587 -0.057743 -1389670.000000 0 0 1
-10.847324 25.103643 -16.563492 31.971966 -1.162926 2.115381 0.077017 -0.049431 -1279540.000000 0 0 1
-10.668224 24.305443 -15.265592 30.620318 -1.157192 2.092715 0.078156 -0.042736 -148973.000000 0 0 1
-10.012924 23.079743 -15.364692 29.478924 -1.161462 2.119064 0.081149 -0.036711 -230437.000000 0 0 1
-10.219024 22.464043 -14.143292 28.444585 -1.143870 2.091191 0.097747 -0.028088 -93259.000000 0 0 1
-9.657724 21.001243 -14.092492 27.072536 -1.139769 2.118286 0.111906 -0.012664 230885.000000 0 0 1
-10.413724 19.911143 -14.664892 26.832039 -1.088911 2.149028 0.093224 -0.014640 -74111.600000 0 0 1
-10.668724 19.782343 -16.101792 27.648336 -1.076201 2.192448 0.112474 -0.010300 -582675.000000 0 0 1
-9.477324 19.946743 -17.023692 27.883657 -1.127241 2.227521 0.120779 -0.016198 -783420.000000 0 0 1
-8.609324 18.873043 -16.863492 26.733679 -1.142823 2.253375 0.114603 -0.013219 -586247.000000 0 0 1
-7.804624 18.762243 -18.020292 27.159986 -1.176595 2.296266 0.116122 -0.019070 -84781.900000 0 0 1
-7.152424 17.367643 -18.183892 26.142803 -1.180138 2.339996 0.107256 -0.018740 279553.000000 0 0 1
-8.020524 16.318443 -18.645992 26.044067 -1.113971 2.368766 0.113866 -0.028244 423476.000000 0 0 1
-7.500524 15.618243 -19.792492 26.304565 -1.123080 2.422548 0.100901 -0.032036 182135.000000 0 0 1
-6.281924 14.683943 -19.624192 25.301970 -1.166549 2.458460 0.073840 -0.023211 -272218.000000 0 0 1
-6.608324 13.509543 -18.882292 24.139566 -1.115858 2.469007 0.059662 -0.019087 199879.000000 0 1 0
-5.456024 12.717843 -18.677992 23.246056 -1.165538 2.503932 0.053629 -0.010029 531548.000000 0 1 0
-4.515424 13.213143 -17.532092 22.413176 -1.241501 2.469022 0.036261 -0.000481 221163.000000 0 1 0
-3.724824 14.369543 -17.783892 23.165166 -1.317162 2.446040 0.045230 -0.011460 -149317.000000 0 1 0
-3.227524 14.910143 -16.559192 22.515242 -1.357620 2.397150 0.040034 -0.000990 -220524.000000 0 1 0
-2.378824 16.159943 -16.692392 23.354625 -1.424641 2.367043 0.072387 -0.006194 -205316.000000 0 1 0
-3.072724 17.367643 -16.905592 24.431040 -1.395686 2.335013 0.080728 -0.011492 -60463.200000 0 1 0
-2.175124 18.457843 -17.119192 25.268357 -1.453494 2.315148 0.104091 -0.017686 271233.000000 0 0 1
-2.858724 19.784043 -17.552292 26.601948 -1.427293 2.291365 0.103153 -0.015524 354287.000000 0 0 1
-3.647024 19.791843 -18.725592 27.489373 -1.388571 2.320188 0.113262 -0.021358 -227640.000000 0 0 1
-4.113424 21.059343 -19.106192 28.730868 -1.377900 2.298298 0.147894 -0.023889 -543810.000000 0 0 1
-3.134824 22.196343 -19.438592 29.670922 -1.430493 2.285164 0.130950 -0.037548 -841342.000000 0 0 1
-2.296624 21.912543 -20.551192 30.129479 -1.466369 2.321421 0.145600 -0.035508 432362.000000 0 0 1
-1.145124 22.763143 -20.582992 30.710447 -1.520533 2.305312 0.129582 -0.044765 938728.000000 0 0 1
0.030076 22.381243 -19.624792 29.766649 1.569453 2.290668 0.131324 -0.043398 -331347.000000 0 0 1
-0.228224 22.570643 -18.223592 29.010090 -1.560685 2.250010 0.125303 -0.030612 -873179.000000 0 0 1
0.814176 22.044043 -17.481692 28.146266 1.533879 2.240944 0.120590 -0.025985 -490823.000000 0 0 1
0.604376 22.130343 -15.947792 27.284601 1.543493 2.195057 0.129969 -0.023613 -207134.000000 0 0 1
-0.280824 21.132343 -15.513892 26.217087 -1.557508 2.204021 0.120665 -0.015993 -296304.000000 0 0 1
-0.200924 21.077543 -14.073392 25.344892 -1.561264 2.159490 0.121204 -0.018115 155928.000000 0 0 1
-1.150324 20.042643 -13.438692 24.158420 -1.513465 2.160691 0.105383 -0.012487 140101.000000 0 1 0
-0.828024 18.713743 -13.727892 23.223799 -1.526578 2.203235 0.076162 -0.007017 86263.400000 0 1 0
-1.751124 17.903843 -13.030392 22.212725 -1.473299 2.197673 0.059794 -0.002373 179708.000000 0 1 0
-1.348724 16.422543 -13.098292 21.049566 -1.488854 2.242422 0.035979 0.004784 -127786.000000 0 1 0
-0.332924 16.110743 -12.134292 20.171959 -1.550135 2.216227 0.027731 -0.000514 479798.000000 0 1 0
-0.013224 14.734043 -12.060992 19.041001 -1.569899 2.256764 0.020570 0.000536 20505.200000 0 1 0
0.701676 14.098143 -13.239792 19.353090 1.521067 2.324190 0.009273 0.003776 -462602.000000 0 1 0
-0.161524 13.877043 -14.343692 19.958455 -1.559157 2.372695 0.017843 -0.007719 339295.000000 0 1 0
0.385876 12.848143 -15.214292 19.917288 1.540772 2.440091 0.014360 -0.011818 118304.000000 0 1 0
-0.239124 12.695443 -16.652092 20.940956 -1.551963 2.490121 0.016173 -0.006414 -13865.000000 0 1 0
-0.108524 13.861143 -17.526792 22.345727 -1.562967 2.472438 0.030398 -0.009491 -57874.600000 0 1 0
-0.247024 13.512343 -18.894492 23.230288 -1.552517 2.520694 0.045259 -0.016850 -312150.000000 0 1 0
-0.820724 14.718343 -19.649192 24.564079 -1.515092 2.497951 0.054697 -0.006656 470428.000000 0 1 0
0.074176 15.874943 -19.742992 25.333872 1.566124 2.464364 0.056700 -0.015842 412493.000000 0 0 1
-0.603124 17.006143 -20.191592 26.405928 -1.535346 2.441312 0.095310 -0.028303 -25006.100000 0 0 1
0.342676 18.225143 -20.433592 27.382567 1.551996 2.413171 0.111803 -0.036432 331929.000000 0 0 1
1.219076 17.993643 -21.514892 28.073972 1.503149 2.443959 0.131106 -0.049754 122264.000000 0 0 1
1.926976 19.174643 -21.877492 29.154842 1.470637 2.419448 0.135214 -0.051763 189809.000000 0 0 1
2.695576 19.076343 -23.205292 30.160547 1.430421 2.448686 0.162156 -0.058869 361943.000000 0 0 1
3.852176 18.237043 -23.240092 29.791456 1.362628 2.465610 0.153031 -0.054383 274565.000000 0 0 1
4.179076 18.039443 -24.574592 30.770063 1.343149 2.495849 0.160105 -0.065237 -308321.000000 0 0 1
5.138676 16.916143 -24.838492 30.487909 1.275881 2.523008 0.126993 -0.055094 292787.000000 0 0 1
6.522776 17.170843 -24.536992 30.650423 1.207758 2.498998 0.117468 -0.037233 568555.000000 0 0 1
7.317776 16.075143 -24.939792 30.560649 1.143607 2.525384 0.131113 -0.039241 103825.000000 0 0 1
7.986576 16.153443 -26.344252 31.917687 1.111623 2.541673 0.112825 -0.045036 -572604.000000 0 0 1
9.173976 16.941943 -26.425752 32.703389 1.074506 2.511619 0.099009 -0.033104 754338.000000 0 0 1
9.804476 16.942643 -27.739282 33.950680 1.046196 2.527066 0.114903 -0.041442 429276.000000 0 0 1
10.428876 15.609343 -28.146532 33.832533 0.981790 2.553386 0.110627 -0.049360 -1003760.000000 0 0 1
11.499576 15.045643 -27.449942 33.348327 0.918198 2.537694 0.121001 -0.043880 -83252.500000 0 0 1
11.639976 13.650843 -27.820022 33.102691 0.864741 2.568846 0.114454 -0.035708 -12883.000000 0 0 1
10.757776 12.700243 -26.973152 31.695060 0.868016 2.588722 0.099524 -0.028615 288716.000000 0 0 1
9.366076 12.870543 -27.162812 31.483212 0.941711 2.611522 0.101630 -0.032088 -273146.000000 0 0 1
8.656976 12.015043 -26.293072 30.176649 0.946437 2.628652 0.119090 -0.028099 1278170.000000 0 0 1
7.099976 11.953943 -26.597722 30.012418 1.034841 2.659926 0.127744 -0.043397 1134740.000000 0 0 1
6.475976 12.998943 -25.908172 29.700912 1.108596 2.630687 0.146002 -0.043338 1124460.000000 0 0 1
5.017976 12.917143 -25.897032 29.371567 1.200265 2.650258 0.168058 -0.050006 1746640.000000 0 0 1
4.329376 13.951843 -26.834872 30.553360 1.269909 2.643081 0.178714 -0.039459 -262300.000000 0 0 1
4.392376 13.453543 -28.186182 31.539684 1.255222 2.676263 0.179388 -0.053576 263041.000000 0 0 1
3.984376 14.398443 -29.163182 32.767081 1.300829 2.668174 0.155033 -0.068215 -86786.000000 0 0 1
3.908276 13.671843 -30.515052 33.665447 1.292359 2.705527 0.186419 -0.061233 -334407.000000 0 0 1
5.185176 13.188143 -30.809572 33.912282 1.196192 2.710495 0.165911 -0.058016 -407076.000000 0 0 1
5.240576 12.704243 -32.117362 34.934029 1.179556 2.737277 0.169099 -0.058757 -941131.000000 0 0 1
6.455476 11.821943 -32.329622 35.023363 1.070984 2.746829 0.172097 -0.043370 -35867.600000 0 0 1
7.736676 12.422643 -32.109662 35.287514 1.013789 2.713945 0.167779 -0.037902 839581.000000 0 0 1
8.194576 12.571043 -30.695982 34.167609 0.993114 2.686896 0.158952 -0.043318 -264801.000000 0 0 1
8.457176 11.219243 -30.001072 33.127927 0.924861 2.703619 0.152144 -0.038129 -798356.000000 0 0 1
9.619676 10.519543 -30.290602 33.477149 0.830051 2.701740 0.128803 -0.038784 -426895.000000 0 0 1
9.555176 9.240643 -29.656872 32.499553 0.768666 2.720228 0.121230 -0.038863 -602488.000000 0 0 1
10.697776 8.389243 -30.128712 33.053912 0.665035 2.717718 0.083254 -0.029623 144082.000000 0 0 1
11.951976 8.658843 -29.471222 32.960252 0.626960 2.677313 0.074529 -0.030905 562896.000000 0 0 1
12.698576 7.482843 -29.454652 32.936656 0.532490 2.677620 0.043565 -0.018320 -1363680.000000 0 0 1
14.101376 7.589743 -28.929002 33.065695 0.493760 2.636015 0.040995 -0.010131 -881896.000000 0 0 1
14.789276 6.398143 -28.636112 32.858573 0.408307 2.629041 0.037411 -0.001264 570828.000000 0 0 1
15.932376 6.246543 -29.501692 34.105861 0.373648 2.615954 0.025807 -0.001196 265124.000000 0 0 1
16.812376 5.007443 -29.181312 34.048193 0.289476 2.600330 0.049079 -0.005403 -66781.900000 0 0 1
17.657876 5.170443 -28.085072 33.575368 0.284850 2.561622 0.035102 -0.013230 -279607.000000 0 0 1
18.330876 3.988743 -27.809882 33.545799 0.214257 2.548136 0.046965 -0.017593 -148663.000000 0 0 1
19.045376 4.135143 -26.423612 32.833413 0.213802 2.506098 0.067867 -0.009052 151926.000000 0 0 1
20.089276 5.094243 -26.389352 33.554854 0.248345 2.475843 0.096499 -0.013384 -51551.100000 0 0 1
20.544376 5.314643 -25.099492 32.867937 0.253141 2.439739 0.113968 -0.020596 -369092.000000 0 0 1
21.503576 6.520243 -24.972092 33.593492 0.294405 2.408878 0.115709 -0.023504 -374847.000000 0 0 1
20.992476 7.805043 -25.292332 33.783203 0.355964 2.416844 0.114448 -0.013926 124690.000000 0 0 1
21.909476 8.661743 -25.971372 35.065126 0.376485 2.404850 0.114543 -0.029873 -909295.000000 0 0 1
22.055576 8.542043 -27.505942 36.276601 0.369507 2.431388 0.140870 -0.036881 98396.100000 0 0 1
20.968076 8.691743 -28.406652 36.361305 0.392963 2.467435 0.105462 -0.021109 727247.000000 0 0 1
19.716176 8.090943 -28.054272 35.231139 0.389415 2.491937 0.099281 -0.018167 108795.000000 0 0 1
18.491876 8.696743 -28.784522 35.300588 0.439607 2.524237 0.076847 0.000354 -240929.000000 0 0 1
18.385676 8.443643 -30.210722 36.359537 0.430521 2.551499 0.063704 -0.003432 45402.700000 0 0 1
17.502276 9.327943 -30.831882 36.659857 0.489664 2.569973 0.044606 -0.001589 -656957.000000 0 0 1
17.392576 8.917243 -32.343252 37.790275 0.473759 2.598011 0.022702 0.001047 71831.100000 0 0 1
16.647676 7.752143 -32.749662 37.547053 0.435800 2.630539 0.027553 0.003729 944758.000000 0 0 1
15.246476 8.015443 -32.830852 37.075156 0.484015 2.658412 0.027979 0.002181 504722.000000 0 0 1
14.286476 6.875643 -33.215332 36.805382 0.448551 2.696239 0.043947 -0.010031 72280.700000 0 0 1
14.331076 5.799143 -32.256272 35.769776 0.384513 2.694654 0.037940 -0.011288 496661.000000 0 0 1
13.255476 4.883543 -32.489312 35.427560 0.352987 2.731448 0.041799 -0.023858 440640.000000 0 0 1
13.139476 3.697543 -31.505072 34.334927 0.274313 2.732748 0.058163 -0.027852 -15637.400000 0 0 1
14.194976 2.758843 -31.592762 34.744944 0.191960 2.712339 0.049390 -0.030141 21070.900000 0 0 1
14.229676 1.752043 -30.575122 33.769682 0.122509 2.703121 0.076839 -0.030135 -51572.700000 0 0 1
13.366876 0.463443 -30.651852 33.442849 0.034657 2.730149 0.084900 -0.026701 181080.000000 0 0 1
13.943876 -0.598157 -31.415752 34.376430 -0.042871 2.723524 0.083041 -0.031032 -471040.000000 0 0 1
14.805176 -1.338657 -30.627602 34.044607 -0.090173 2.689721 0.083066 -0.032092 -220510.000000 0 0 1
15.237076 -2.651557 -31.406312 35.007937 -0.172295 2.684003 0.093692 -0.039137 -541762.000000 0 0 1
14.259876 -3.616657 -31.419682 34.693237 -0.248387 2.703690 0.092591 -0.044900 -488846.000000 0 0 1
14.569176 -4.709657 -32.306912 35.751620 -0.312659 2.699011 0.105627 -0.050117 -75480.500000 0 0 1
13.571876 -5.887657 -32.224252 35.457901 -0.409312 2.711203 0.104828 -0.050031 -130536.000000 0 0 1
13.707776 -6.641657 -31.043252 34.578870 -0.451185 2.685436 0.124245 -0.044036 -87108.200000 0 0 1
13.222776 -7.909857 -31.090142 34.698769 -0.539095 2.681477 0.151977 -0.047274 -441806.000000 0 0 1
13.387476 -8.740057 -29.705442 33.734647 -0.578378 2.647843 0.127388 -0.047530 -89764.700000 0 0 1
14.754176 -8.951257 -29.431202 34.117537 -0.545326 2.611265 0.128092 -0.052287 -108152.000000 0 0 1
15.028376 -9.512457 -28.109562 33.263890 -0.564307 2.577450 0.135679 -0.052146 117739.000000 0 0 1
15.111176 -11.021257 -28.027622 33.695153 -0.630150 2.553139 0.110658 -0.040117 1125220.000000 0 0 1
13.789676 -11.566257 -28.288292 33.528509 -0.697934 2.574951 0.078322 -0.036443 1142890.000000 0 0 1
13.891476 -12.908057 -28.704792 34.402850 -0.748719 2.557790 0.077170 -0.034696 156701.000000 0 0 1
-10.206624 -3.554457 -18.369892 21.313430 0.335115 2.609787 0.038751 0.016692 273305.000000 0 1 0
-11.126524 -2.822757 -19.178492 22.351332 0.248454 2.602251 0.060575 -0.000420 -121014.000000 0 1 0
-12.208924 -3.656857 -19.489592 23.286791 0.291019 2.562460 0.074354 -0.005560 -688097.000000 0 1 0
-13.266024 -2.962357 -20.321892 24.448768 0.219700 2.552065 0.095623 -0.034844 -608807.000000 0 1 0
-14.082524 -1.977057 -19.769992 24.353210 0.139479 2.518028 0.092644 -0.032765 164547.000000 0 1 0
-15.007224 -1.554457 -20.792592 25.689784 0.103213 2.513878 0.083466 -0.028297 661789.000000 0 0 1
-15.732024 -0.192757 -20.490192 25.833732 0.012252 2.486771 0.074179 -0.025539 416957.000000 0 0 1
-14.886524 0.939343 -20.571192 25.409937 -0.063017 2.514220 0.083509 -0.027489 -132771.000000 0 0 1
-15.648924 2.020643 -20.188792 25.623410 -0.128413 2.478194 0.093517 -0.017099 -91481.900000 0 0 1
-15.245724 3.337243 -20.912592 26.094172 -0.215498 2.500475 0.130694 -0.033552 -20820.000000 0 0 1
-14.007824 3.847243 -20.489692 25.116686 -0.268040 2.524873 0.132412 -0.035698 -57062.100000 0 0 1
-13.583424 4.933343 -21.264992 25.710838 -0.348375 2.544694 0.143536 -0.044179 -5693.140000 0 0 1
-12.247524 5.597043 -20.880592 24.846084 -0.428655 2.568813 0.115184 -0.036974 -139701.000000 0 1 0
-12.350124 6.376343 -19.683892 24.096451 -0.476601 2.526776 0.120308 -0.039874 1447570.000000 0 1 0
-11.065324 6.561843 -19.024192 22.965606 -0.535264 2.547001 0.085573 -0.027784 1052730.000000 0 1 0
-11.221224 7.262643 -17.633592 22.127030 -0.574421 2.492985 0.086392 -0.025307 50436.000000 0 1 0
-11.865824 8.510643 -17.662992 22.917463 -0.622203 2.450770 0.098936 -0.030009 325216.000000 0 1 0
-13.141024 8.552643 -17.036592 23.153395 -0.576962 2.397664 0.124127 -0.020548 -13985.600000 0 1 0
-13.668824 9.995143 -16.937392 23.950259 -0.631384 2.356313 0.136518 -0.028717 -202311.000000 0 1 0
-12.996424 10.911943 -16.091292 23.386048 -0.698432 2.329626 0.093069 -0.016867 -27213.100000 0 1 0
-13.563824 12.157343 -16.356892 24.481141 -0.730771 2.302506 0.107226 -0.021693 -104247.000000 0 1 0
-12.874024 13.363343 -15.630592 24.261798 -0.804046 2.270835 0.114894 -0.014819 37856.000000 0 1 0
-13.186524 13.454043 -14.234292 23.611666 -0.795440 2.217865 0.111006 -0.016313 141522.000000 0 1 0
-12.649324 14.670443 -13.720492 23.737717 -0.859244 2.187077 0.100403 -0.013988 -283905.000000 0 1 0
-13.196924 14.893043 -12.299092 23.392931 -0.845707 2.124406 0.072627 -0.017199 607367.000000 0 1 0
-14.585524 15.130643 -12.167192 24.284037 -0.803740 2.095593 0.072442 -0.014969 207890.000000 0 1 0
-15.490124 14.058343 -12.227992 24.230245 -0.736981 2.099782 0.076402 -0.021493 906739.000000 0 1 0
-16.823124 14.336043 -11.381292 24.861083 -0.705748 2.046310 0.045845 -0.017816 1136700.000000 0 1 0
-17.922924 13.565043 -11.779892 25.377302 -0.647873 2.053516 0.052464 -0.023188 -803162.000000 0 0 1
-19.047824 13.832343 -11.013592 25.989470 -0.628088 2.008401 0.135254 -0.029189 -490282.000000 0 0 1
-20.323324 13.399743 -11.771292 27.039859 -0.582905 2.021202 0.122626 -0.036340 -215335.000000 0 0 1
-20.463824 11.998043 -11.707692 26.453567 -0.530289 2.029265 0.136144 -0.039288 1011690.000000 0 0 1
-21.802524 11.637743 -12.099392 27.516948 -0.490305 2.026069 0.178959 -0.037260 736108.000000 0 0 1
-22.175924 10.261343 -11.447492 26.983548 -0.433385 2.008918 0.177794 -0.039017 -519617.000000 0 0 1
-21.436824 9.237743 -11.991892 26.242691 -0.406882 2.045372 0.155339 -0.038777 122.997000 0 0 1
-21.561824 7.981543 -11.264792 25.602985 -0.354530 2.026372 0.136000 -0.036487 -871498.000000 0 0 1
-20.435524 7.017743 -11.542592 24.496751 -0.330791 2.061434 0.134587 -0.036941 -846890.000000 0 1 0
-20.380124 6.323843 -12.789392 24.877882 -0.300874 2.110739 0.132246 -0.033965 -153597.000000 0 1 0
-19.340724 5.415943 -12.674492 23.749501 -0.273035 2.133735 0.133301 -0.038703 -632951.000000 0 1 0
-19.499924 4.254243 -13.594492 24.148620 -0.214801 2.168748 0.152262 -0.046898 162545.000000 0 1 0
-20.358124 3.213543 -13.078592 24.409622 -0.156559 2.136247 0.146108 -0.044446 843087.000000 0 1 0
-21.199324 2.648343 -14.072692 25.582528 -0.124282 2.153268 0.133687 -0.040829 -88142.000000 0 0 1
-21.951524 1.410243 -13.586792 25.854577 -0.064155 2.124109 0.155469 -0.045101 -358615.000000 0 0 1
-22.956024 1.006643 -14.476792 27.158238 -0.043823 2.133002 0.136962 -0.039522 120930.000000 0 0 1
-23.462924 -0.293857 -14.147092 27.399551 0.012524 2.113351 0.123883 -0.047217 -340860.000000 0 0 1
-24.735524 -0.701457 -14.900392 28.885289 0.028351 2.112792 0.131793 -0.035958 172823.000000 0 0 1
-25.922414 -0.022857 -14.457992 29.681739 0.000882 2.079563 0.167605 -0.046910 1423010.000000 0 0 1
-27.056574 -0.584457 -15.202992 31.040792 0.021598 2.082628 0.172258 -0.030711 1320640.000000 0 0 1
-28.408234 -0.131257 -14.572292 31.927993 0.004620 2.044754 0.160581 -0.037571 231608.000000 0 0 1
-28.747574 -0.765557 -13.341092 31.701638 0.026624 2.005160 0.171302 -0.032086 -747184.000000 0 0 1
-29.947484 -0.396757 -12.783092 32.564040 0.013248 1.974201 0.197644 -0.041545 -674022.000000 0 0 1
-30.236534 -0.901557 -11.293392 32.289341 0.029808 1.928107 0.186578 -0.040588 -121210.000000 0 0 1
-30.520114 -2.261757 -11.027492 32.529963 0.073972 1.916645 0.193176 -0.024094 1052720.000000 0 0 1
-29.429654 -3.191657 -11.220992 31.657573 0.108028 1.933121 0.189011 -0.032553 533825.000000 0 0 1
-29.942834 -4.607057 -10.768692 32.152186 0.152665 1.912326 0.182852 -0.039705 -265489.000000 0 0 1
-30.867544 -5.182957 -11.631492 33.391016 0.166358 1.926598 0.174481 -0.031690 -225389.000000 0 0 1
-31.380224 -6.429457 -11.284992 33.961853 0.202092 1.909521 0.179099 -0.036629 -330693.000000 0 0 1
-30.547114 -7.633357 -11.728892 33.600019 0.244873 1.927379 0.181624 -0.042965 15870.800000 0 0 1
-29.294964 -7.783757 -11.078292 32.272440 0.259702 1.921197 0.131239 -0.033561 99785.600000 0 0 1
-28.503354 -8.666857 -11.842792 32.059435 0.295181 1.949161 0.118883 -0.037327 316533.000000 0 0 1
-27.094394 -8.882957 -11.194792 30.632279 0.316809 1.944920 0.128693 -0.048457 39033.200000 0 0 1
-26.152764 -7.878157 -11.545992 29.653708 0.292590 1.970734 0.121505 -0.043018 1075290.000000 0 0 1
-24.787824 -8.150157 -11.203192 28.396704 0.317662 1.976347 0.142940 -0.038860 707566.000000 0 0 1
-24.528624 -7.942657 -9.654192 27.530758 0.313157 1.929082 0.151524 -0.038559 -718291.000000 0 0 1
-24.671824 -6.684857 -9.065292 27.121316 0.264598 1.911605 0.141842 -0.031956 769024.000000 0 0 1
-26.021364 -6.250357 -8.918792 28.208566 0.235735 1.892489 0.145591 -0.043656 89327.700000 0 0 1
-26.184984 -4.774357 -8.473392 27.932889 0.180351 1.879001 0.145729 -0.038478 -269203.000000 0 0 1
-26.065464 -4.585457 -7.088492 27.398569 0.174139 1.832491 0.151438 -0.035962 398341.000000 0 0 1
-26.415634 -3.281757 -6.590292 27.422393 0.123602 1.813497 0.195678 -0.046863 -115414.000000 0 0 1
-26.013354 -2.969557 -5.140192 26.682100 0.113663 1.764654 0.182682 -0.041250 -1120190.000000 0 0 1
-24.649624 -2.915857 -4.952792 25.310795 0.117745 1.767746 0.133809 -0.033378 -1155450.000000 0 0 1
-24.418024 -2.643957 -3.583692 24.820823 0.107859 1.715685 0.114025 -0.025583 969773.000000 0 1 0
-22.934524 -3.083157 -3.262192 23.369642 0.133632 1.710845 0.091714 -0.016720 818403.000000 0 1 0
-22.757524 -4.502657 -3.154392 23.412156 0.195331 1.705940 0.105454 -0.022301 627072.000000 0 1 0
-21.428324 -4.769557 -2.720192 22.120606 0.219012 1.694079 0.075259 -0.018372 119044.000000 0 1 0
-21.287624 -6.334457 -2.642192 22.366705 0.289222 1.689203 0.093285 -0.018659 -27047.000000 0 1 0
-21.818424 -6.864157 -1.434392 22.917630 0.304800 1.633426 0.095458 -0.016204 388267.000000 0 1 0
-22.366024 -8.126257 -1.667092 23.854859 0.348501 1.640738 0.110324 -0.020124 -132016.000000 0 1 0
-22.601524 -9.111357 -0.446192 24.373035 0.383202 1.589104 0.122170 -0.029187 -557301.000000 0 1 0
-21.441624 -9.616157 0.126508 23.499569 0.421590 1.565413 0.079596 -0.022187 -229863.000000 0 1 0
-21.729824 -10.522457 1.172408 24.171924 0.450961 1.522274 0.048768 -0.019337 -124264.000000 0 1 0
-20.453824 -11.116257 1.777008 23.347117 0.497824 1.494610 0.066762 -0.018392 -262697.000000 0 1 0
-20.038124 -12.290157 1.070008 23.531241 0.550170 1.525309 0.071931 -0.009588 495758.000000 0 1 0
-18.817024 -12.689857 1.680808 22.758251 0.593325 1.496874 0.038051 -0.016428 39699.100000 0 1 0
-18.214124 -14.002457 1.121108 23.001739 0.655406 1.522037 0.031561 -0.005408 61464.300000 0 1 0
-18.935124 -15.169257 1.554908 24.311788 0.675422 1.506796 0.068107 -0.004762 524037.000000 0 1 0
-18.630424 -16.309757 0.738708 24.771891 0.719077 1.540971 0.065861 -0.012514 -741337.000000 0 1 0
-17.490524 -17.158157 1.254708 24.533550 0.775806 1.519631 0.079619 -0.007475 -515907.000000 0 1 0
-16.273524 -16.431157 1.134108 23.153762 0.790218 1.521795 0.075656 -0.002547 66462.300000 0 1 0
-15.156924 -17.095657 1.707908 22.910932 0.845437 1.496182 0.085202 -0.006539 415348.000000 0 1 0
-14.913624 -16.886157 3.238808 22.760676 0.847349 1.428013 0.080978 -0.018541 -246470.000000 0 1 0
-14.545624 -15.540457 3.492308 21.570285 0.818452 1.408177 0.044777 -0.015381 294364.000000 0 1 0
-13.871724 -15.245957 4.765708 21.155990 0.832559 1.343581 0.022847 -0.020241 83671.800000 0 1 0
-14.553424 -15.601557 6.057908 22.179021 0.820142 1.294144 0.102183 -0.028611 -818593.000000 0 1 0
-15.515324 -14.681357 6.550208 22.342174 0.757787 1.273248 0.087194 -0.027367 319699.000000 0 1 0
-16.025324 -14.997557 7.866308 23.315586 0.752281 1.226660 0.110471 -0.030037 692162.000000 0 1 0
-16.974124 -16.270757 8.070608 24.859468 0.764244 1.240155 0.114104 -0.033439 502410.000000 0 1 0
-16.240924 -17.505357 8.026308 25.191800 0.822849 1.246536 0.114832 -0.022962 158047.000000 0 0 1
-16.981824 -18.576357 8.573608 26.588910 0.830211 1.242479 0.129291 -0.041733 -20747.900000 0 0 1
-16.756124 -18.818857 10.107308 27.149121 0.843316 1.189323 0.149505 -0.043371 109248.000000 0 0 1
-15.450624 -19.291557 10.353908 26.797190 0.895506 1.174092 0.107966 -0.033883 -94738.600000 0 0 1
-15.253124 -19.552457 11.717008 27.427079 0.908300 1.129396 0.119592 -0.032626 -169873.000000 0 0 1
-13.936724 -20.275657 11.991408 27.370210 0.968602 1.117291 0.102956 -0.027617 -508408.000000 0 0 1
-12.782924 -19.530757 11.866408 26.185211 0.991263 1.100476 0.084107 -0.026217 -1610380.000000 0 0 1
-11.620224 -20.256357 11.983508 26.247935 1.049971 1.096682 0.089333 -0.026086 -103719.000000 0 0 1
-10.398324 -19.404257 12.423908 25.278525 1.078860 1.057007 0.084848 -0.023973 492762.000000 0 0 1
-9.675224 -18.674557 11.380508 23.913699 1.092776 1.074810 0.069682 -0.025503 111038.000000 0 1 0
-8.602524 -18.019257 12.034508 23.313653 1.125386 1.028388 0.061662 -0.015511 -39736.800000 0 1 0
-7.717724 -17.353657 10.962908 21.929387 1.152332 1.047292 0.034553 -0.010295 121404.000000 0 1 0
-6.921924 -18.159257 10.123108 21.912302 1.206620 1.090567 0.038437 -0.015795 -223259.000000 0 1 0
-6.168224 -17.412257 9.203208 20.638137 1.230344 1.108581 0.029295 -0.008437 333897.000000 0 1 0
-5.045424 -18.213057 8.464408 20.707920 1.300551 1.149710 0.031308 -0.011635 605411.000000 0 1 0
-3.803324 -18.307357 9.123008 20.805140 1.365962 1.116870 0.043697 -0.011524 -226586.000000 0 1 0
-2.831824 -18.995557 8.361108 20.946564 1.422808 1.160192 0.045355 -0.007444 11880.500000 0 1 0
-1.471524 -18.991757 9.083408 21.103566 1.493469 1.125838 0.054214 -0.021802 -5368.760000 0 1 0
-0.486224 -19.687857 8.296208 21.369960 1.546105 1.172099 0.061087 -0.008685 76981.400000 0 1 0
0.652076 -19.765657 9.134808 21.784194 -1.537818 1.138087 0.072760 -0.020172 584691.000000 0 1 0
2.037876 -20.107657 8.476508 21.916249 -1.469793 1.173672 0.075974 -0.041572 836907.000000 0 1 0
2.261876 -21.389757 7.905908 22.915959 -1.465442 1.218562 0.089590 -0.037067 -144288.000000 0 1 0
2.466576 -22.404957 8.889808 24.230039 -1.461147 1.195130 0.099891 -0.045842 -318277.000000 0 1 0
2.397176 -23.819157 8.295808 25.336123 -1.470493 1.237214 0.106701 -0.038735 124694.000000 0 0 1
2.443076 -24.805157 9.284808 26.598347 -1.472622 1.214213 0.107975 -0.045543 -78367.500000 0 0 1
2.094676 -26.039037 8.701608 27.534289 -1.490526 1.249256 0.125256 -0.047392 -909105.000000 0 0 1
1.943076 -27.168797 9.720308 28.920641 -1.499399 1.228020 0.130201 -0.048834 475980.000000 0 0 1
0.929176 -27.055337 10.711508 29.113417 -1.536466 1.194022 0.117876 -0.055210 869409.000000 0 0 1
-0.448424 -27.028027 10.271908 28.917597 1.554207 1.207654 0.117975 -0.045325 830450.000000 0 0 1
-1.368124 -27.101817 11.516608 29.479018 1.520358 1.169436 0.107019 -0.048473 32158.900000 0 0 1
-1.299724 -28.361427 12.105508 30.864270 1.525001 1.167755 0.111251 -0.058627 -175754.000000 0 0 1
-1.599624 -28.190997 13.500908 31.298013 1.514115 1.124790 0.105022 -0.064814 -387405.000000 0 0 1
-1.395124 -29.451327 14.299308 32.768845 1.523461 1.119237 0.094904 -0.061741 -5283.510000 0 0 1
-1.630324 -29.230807 15.649508 33.196463 1.515080 1.079895 0.109665 -0.063736 -59506.900000 0 0 1
-1.312324 -30.296517 16.476508 34.511975 1.527507 1.073087 0.130120 -0.060284 -147298.000000 0 0 1
-1.586024 -29.974167 17.956808 34.977323 1.517933 1.031673 0.138653 -0.056290 652993.000000 0 0 1
-3.002724 -29.873287 18.187908 35.103128 1.470617 1.026136 0.130988 -0.056301 820410.000000 0 0 1
-3.292124 -29.642377 19.556508 35.664627 1.460188 0.990413 0.126482 -0.051129 -53955.400000 0 0 1
-4.796324 -29.595217 19.869408 35.967693 1.410129 0.985527 0.134123 -0.045600 -32480.900000 0 0 1
-5.495724 -28.415747 19.409008 34.847772 1.379751 0.980069 0.104191 -0.039690 434811.000000 0 0 1
-6.619924 -28.025987 20.191008 35.170387 1.338841 0.959303 0.102594 -0.035029 207132.000000 0 0 1
-6.394124 -26.912167 21.245208 34.878481 1.337529 0.915845 0.143657 -0.035580 -634609.000000 0 0 1
-5.551624 -27.364447 22.267308 35.713674 1.370636 0.897591 0.161227 -0.033821 -140851.000000 0 0 1
-5.353724 -26.348547 23.250508 35.545666 1.370337 0.857801 0.185874 -0.035323 -228158.000000 0 0 1
-4.271324 -26.525037 24.357008 36.264109 1.411137 0.834355 0.216391 -0.034496 135008.000000 0 0 1
-4.450524 -27.729387 25.050108 37.632884 1.411655 0.842440 0.205323 -0.035267 100708.000000 0 0 1
-3.698124 -28.813677 24.523208 38.016994 1.443148 0.869696 0.212804 -0.028453 -118014.000000 0 0 1
-4.093724 -30.207537 25.045208 39.452710 1.436097 0.883026 0.207792 -0.032243 -161753.000000 0 0 1
-3.735624 -30.379267 26.369108 40.400304 1.448444 0.859659 0.196484 -0.040779 27470.700000 0 0 1
-4.118324 -31.654207 26.900708 41.744431 1.441420 0.870539 0.160218 -0.032802 -66806.100000 0 0 1
-3.708224 -31.762427 28.412208 42.776819 1.454574 0.844378 0.183315 -0.032804 163584.000000 0 0 1
-2.320424 -31.936647 28.629208 42.953060 1.498267 0.841261 0.194212 -0.041995 243134.000000 0 0 1
-2.114224 -31.939417 29.999008 43.869543 1.504698 0.817807 0.188547 -0.054783 -32808.800000 0 0 1
-29.570594 3.075843 -10.027292 31.375587 -0.103644 1.896092 0.225603 -0.044473 -472320.000000 0 0 1
-30.504944 2.844843 -11.007392 32.554684 -0.092989 1.915715 0.206668 -0.065229 -464072.000000 0 0 1
-30.920104 4.055843 -11.601892 33.273212 -0.130427 1.926965 0.190338 -0.055950 -251472.000000 0 0 1
-31.785264 3.733443 -12.823092 34.477142 -0.116923 1.951884 0.197985 -0.046364 -159161.000000 0 0 1
-32.986584 3.096443 -12.435792 35.388581 -0.093596 1.929870 0.193400 -0.052682 -265707.000000 0 0 1
-33.865544 2.954043 -13.510992 36.580711 -0.087008 1.949103 0.217287 -0.050173 -593299.000000 0 0 1
-35.062723 2.072343 -13.162992 37.509379 -0.059035 1.929355 0.211786 -0.046688 -303309.000000 0 0 1
-34.777111 0.690143 -13.138192 37.182467 -0.019842 1.931939 0.209652 -0.042353 -290851.000000 0 0 1
-35.911233 0.002843 -12.700492 38.090933 -0.000079 1.910731 0.190054 -0.040708 -94998.300000 0 0 1
-35.630461 -1.484957 -12.275492 37.715018 0.041653 1.902316 0.187164 -0.039232 221638.000000 0 0 1
-35.204061 -2.413657 -13.302592 37.710882 0.068455 1.931307 0.186487 -0.029296 227922.000000 0 0 1
-35.053724 -3.757657 -12.792192 37.503650 0.106789 1.918875 0.185701 -0.031861 56960.000000 0 0 1
-34.745222 -4.796457 -13.900192 37.728661 0.137179 1.948111 0.194099 -0.032542 -52610.100000 0 0 1
-34.605302 -6.142157 -13.451492 37.632376 0.175662 1.936327 0.181475 -0.038547 255893.000000 0 0 1
-34.801444 -7.052857 -14.492192 38.352405 0.199952 1.958290 0.182569 -0.033360 -843622.000000 0 0 1
-34.777024 -8.486257 -13.934492 38.413904 0.239342 1.942009 0.158002 -0.036081 -421237.000000 0 0 1
-33.571044 -8.963657 -13.406692 37.243812 0.260919 1.939033 0.154985 -0.040970 -324933.000000 0 0 1
-32.699054 -9.261857 -14.451992 36.930614 0.276016 1.972871 0.162972 -0.039996 -778034.000000 0 0 1
-31.587324 -10.319957 -14.213492 36.142550 0.315780 1.974973 0.135895 -0.042399 -99102.200000 0 0 1
-32.073224 -11.609457 -13.997792 36.870170 0.347296 1.960215 0.119342 -0.042634 -155972.000000 0 0 1
-31.067424 -12.539257 -13.660992 36.180665 0.383618 1.957975 0.138283 -0.042671 -284988.000000 0 0 1
-31.213354 -13.980157 -14.159892 37.016494 0.421098 1.963329 0.153396 -0.033373 -355384.000000 0 0 1
-31.175174 -14.012357 -15.556392 37.553149 0.422414 1.997915 0.155142 -0.035464 -55373.100000 0 0 1
-31.214834 -15.353657 -16.049492 38.310402 0.457123 2.003066 0.179209 -0.038721 574487.000000 0 0 1
-29.949314 -16.273057 -15.794592 37.566514 0.497726 2.004730 0.129629 -0.029455 801451.000000 0 0 1
-28.777534 -15.649157 -16.322192 36.598587 0.498069 2.033064 0.134668 -0.035404 -730255.000000 0 0 1
-27.715504 -16.530257 -16.207192 36.111932 0.537788 2.036223 0.140735 -0.030736 -1682690.000000 0 0 1
-26.413244 -15.922957 -16.559992 35.006191 0.542505 2.063556 0.133970 -0.035028 -1236730.000000 0 0 1
-26.334984 -15.522857 -17.946292 35.447989 0.532618 2.101652 0.141044 -0.036113 529434.000000 0 0 1
-24.977454 -15.612557 -18.390892 34.725352 0.558647 2.128937 0.094826 -0.024881 81808.600000 0 0 1
-24.916524 -15.324057 -19.938892 35.400838 0.551387 2.169089 0.117397 -0.030010 -229732.000000 0 0 1
-25.474474 -16.242357 -20.819892 36.691020 0.567604 2.174188 0.122095 -0.035742 -250711.000000 0 0 1
-26.868804 -16.093057 -20.879292 37.641254 0.539647 2.158789 0.122163 -0.039522 -473481.000000 0 0 1
-27.620674 -17.277657 -21.570792 39.073241 0.558983 2.155630 0.135652 -0.037458 8166.330000 0 0 1
-27.278534 -17.359457 -22.982692 39.669552 0.566739 2.188732 0.125905 -0.029122 314932.000000 0 0 1
-27.925344 -18.423357 -23.673292 40.983774 0.583189 2.186614 0.119981 -0.033570 -75265.500000 0 0 1
-27.225494 -18.756157 -25.066292 41.489034 0.603250 2.219516 0.103996 -0.034174 219674.000000 0 0 1
-25.909194 -19.236257 -25.030692 40.839386 0.638651 2.230529 0.106934 -0.032809 -345030.000000 0 0 1
-25.688074 -20.476257 -24.365492 40.900263 0.672977 2.208970 0.090075 -0.033378 -1424960.000000 0 0 1
-24.240924 -20.880657 -24.406792 40.240723 0.711064 2.222472 0.083959 -0.020574 -650440.000000 0 0 1
-23.617924 -21.204857 -25.642392 40.804223 0.731614 2.250323 0.071222 -0.021377 373690.000000 0 0 1
-22.220624 -21.442557 -25.518892 40.059372 0.767580 2.261431 0.058858 -0.020338 865301.000000 0 0 1
-21.360424 -21.303257 -26.823402 40.368198 0.784058 2.297579 0.048715 -0.017043 -255655.000000 0 0 1
-21.749824 -22.258357 -27.772282 41.710778 0.796953 2.299402 0.078429 -0.019723 -61482.300000 0 0 1
-22.150824 -21.704057 -29.024112 42.474983 0.775211 2.323100 0.077194 -0.016920 -148805.000000 0 0 1
-21.018424 -21.787957 -30.058092 42.661202 0.803373 2.352623 0.073343 -0.021088 96641.200000 0 0 1
-20.927024 -22.993357 -30.813182 43.773131 0.832411 2.351711 0.076881 -0.025596 -100076.000000 0 0 1
-20.244224 -22.850657 -32.033252 44.250541 0.845806 2.380244 0.074839 -0.019115 -8348.600000 0 0 1
-20.155224 -24.250657 -32.749742 45.462875 0.877365 2.375121 0.081742 -0.018502 -67423.200000 0 0 1
-19.464524 -24.238157 33.393236 45.623067 0.894197 0.749635 0.092548 -0.022828 -199352.000000 0 0 1
-20.210124 -23.876957 32.238841 44.921054 0.868380 0.770335 0.092991 -0.020106 -755743.000000 0 0 1
-19.330024 -23.855757 30.976506 43.615260 0.889814 0.780983 0.098695 -0.017846 114213.000000 0 0 1
-18.505524 -22.706657 30.929456 42.599037 0.886986 0.758222 0.076935 -0.022628 -193774.000000 0 0 1
-17.750624 -22.606857 29.749226 41.366304 0.905153 0.768195 0.083926 -0.028743 62445.300000 0 0 1
-16.947524 -21.270557 29.641396 40.227696 0.898034 0.742411 0.061848 -0.026566 441325.000000 0 0 1
-17.757224 -20.105157 29.418926 39.812179 0.847331 0.739296 0.075170 -0.029140 409789.000000 0 0 1
-16.984224 -18.900457 29.236336 38.735701 0.838747 0.715501 0.075932 -0.027467 375089.000000 0 0 1
-16.380924 -18.157457 30.484666 39.081234 0.836789 0.676077 0.076924 -0.032005 112929.000000 0 0 1
-15.800324 -16.938557 30.168686 38.035702 0.820151 0.654804 0.082432 -0.025340 -351700.000000 0 0 1
-15.378424 -16.293657 31.314920 38.504590 0.814287 0.621033 0.072130 -0.028374 324220.000000 0 0 1
-14.586724 -14.954257 30.917596 37.313538 0.797839 0.594213 0.085614 -0.036433 -363808.000000 0 0 1
-13.327124 -15.072457 30.365246 36.425807 0.846777 0.585168 0.097101 -0.040148 -840562.000000 0 0 1
-12.910424 -13.877857 29.796596 35.314461 0.821496 0.566563 0.083268 -0.037230 257620.000000 0 0 1
-11.392224 -13.851457 29.446486 34.478126 0.882511 0.547050 0.105811 -0.034346 382880.000000 0 0 1
-10.995224 -12.523057 29.405326 33.799336 0.850271 0.515600 0.101820 -0.034736 -346327.000000 0 0 1
-9.683224 -12.379257 29.888196 33.768552 0.906995 0.484110 0.077992 -0.028283 -121660.000000 0 0 1
-9.206624 -10.911957 29.989286 33.214305 0.869960 0.444321 0.054786 -0.011709 -147684.000000 0 0 1
-9.970524 -10.198657 30.956266 34.083932 0.796709 0.431746 0.053381 -0.008326 396064.000000 0 0 1
-9.664724 -8.831157 30.925946 33.582888 0.740361 0.400454 0.031103 -0.003468 -261245.000000 0 0 1
-10.545424 -8.088157 31.926064 34.581756 0.654282 0.394457 0.014273 -0.004448 582316.000000 0 0 1
-11.889424 -7.876157 31.446406 34.529245 0.585078 0.425777 0.046846 -0.013984 782441.000000 0 0 1
-12.816424 -7.358557 32.346090 35.562321 0.521196 0.428571 0.044083 -0.017186 -205798.000000 0 0 1
-12.606124 -5.889857 32.747646 35.581078 0.437083 0.401779 0.027259 -0.020386 -617257.000000 0 0 1
-12.683524 -5.027957 31.594947 34.415009 0.377413 0.407644 0.030572 -0.017210 313867.000000 0 0 1
-13.023424 -3.711157 31.940968 34.693050 0.277602 0.400994 0.039438 -0.021420 -338864.000000 0 0 1
-12.421224 -2.610557 31.039976 33.534787 0.207154 0.388165 0.057610 -0.021065 446710.000000 0 0 1
-11.035924 -2.380957 31.302655 33.276370 0.212489 0.346146 0.060193 -0.023152 633893.000000 0 0 1
-10.548824 -1.313857 30.478816 32.279439 0.123912 0.335585 0.062878 -0.019825 1137100.000000 0 0 1
-9.009024 -1.000257 30.689076 31.999726 0.110575 0.287196 0.075244 -0.026231 1255270.000000 0 0 1
-8.783424 -0.386857 31.944458 33.132260 0.044016 0.268576 0.095752 -0.049267 405389.000000 0 0 1
-7.392924 -0.135757 32.147554 32.986952 0.018361 0.226075 0.126466 -0.050644 510785.000000 0 0 1
-7.086924 0.477543 33.559776 34.303224 -0.067282 0.208574 0.165798 -0.066495 -245706.000000 0 0 1
-7.577724 1.764343 -33.484762 34.376796 -0.228757 2.913287 0.157485 -0.060683 12603.500000 0 0 1
-6.958324 2.836243 33.210856 34.050309 -0.387045 0.222510 0.161009 -0.059103 318042.000000 0 0 1
-7.790624 4.169643 33.334226 34.485510 -0.491420 0.259122 0.146258 -0.057146 149894.000000 0 0 1
-9.054524 4.069043 32.732414 34.204568 -0.422349 0.294455 0.110556 -0.044353 -357448.000000 0 0 1
-9.753224 5.278743 32.862845 34.683672 -0.496086 0.325466 0.096360 -0.024536 439221.000000 0 0 1
-11.224824 5.154143 32.352040 34.629704 -0.430456 0.364708 0.079116 -0.018932 507120.000000 0 0 1
-11.969424 6.360343 32.232143 34.966157 -0.488437 0.398073 0.086448 -0.018080 33822.500000 0 0 1
-13.002624 6.241543 31.246216 34.414403 -0.447538 0.432454 0.058238 -0.014456 349348.000000 0 0 1
-13.853224 7.546543 31.298486 35.049357 -0.498804 0.466866 0.067644 -0.019936 -382758.000000 0 0 1
-14.732024 7.547943 32.374802 36.361131 -0.473478 0.472643 0.060246 -0.014084 -486433.000000 0 0 1
-15.262024 8.860443 32.513335 36.993970 -0.525999 0.497283 0.065337 -0.006114 51207.900000 0 0 1
-16.234124 9.052343 33.678466 38.467269 -0.508669 0.504307 0.060372 -0.006192 227304.000000 0 0 1
-15.541824 8.999743 -32.462852 37.099602 -0.524885 2.636271 0.060270 -0.016555 44247.000000 0 0 1
-16.386524 9.448943 -31.427832 36.681185 -0.523058 2.599796 0.066125 -0.011041 -622640.000000 0 0 1
-15.636424 9.690543 -30.115572 35.289546 -0.554809 2.593241 0.088140 -0.020956 268666.000000 0 0 1
-14.773024 10.802843 -29.973502 35.119147 -0.631396 2.593424 0.093540 -0.021054 106380.000000 0 0 1
-13.479624 10.649843 -30.534592 35.035421 -0.668656 2.629120 0.097675 -0.028154 -499399.000000 0 0 1
-12.651624 11.883043 -30.601852 35.181581 -0.754082 2.625646 0.103559 -0.029312 -426615.000000 0 0 1
-13.107124 12.849243 -31.571342 36.519165 -0.775463 2.614980 0.101037 -0.031310 87550.000000 0 0 1
-12.266724 13.977343 -31.766232 36.809403 -0.850487 2.611959 0.101603 -0.037358 -23024.300000 0 0 1
-12.509224 15.063343 -30.709452 36.420536 -0.877767 2.573987 0.117255 -0.038013 39277.000000 0 0 1
-13.678824 15.810343 -30.960962 37.358511 -0.857554 2.547671 0.098495 -0.032452 37854.000000 0 0 1
-13.895024 16.925943 -30.131672 37.248851 -0.883422 2.513124 0.092213 -0.025603 381779.000000 0 0 1
-15.379124 17.371043 -30.334562 38.189740 -0.846145 2.488670 0.063724 -0.029504 208808.000000 0 0 1
-15.609124 18.137443 -31.481922 39.543938 -0.860179 2.491661 0.062436 -0.029525 161189.000000 0 0 1
-16.938524 18.613343 -31.576612 40.378863 -0.832473 2.468678 0.052174 -0.027642 294209.000000 0 0 1
-17.469424 19.793243 -30.698612 40.488987 -0.847681 2.431339 0.031197 -0.020426 -242551.000000 0 0 1
-16.780124 21.043743 -30.811932 40.911940 -0.897647 2.423600 0.042653 -0.023994 378975.000000 0 0 1
-17.411524 22.150043 -30.153632 41.267749 -0.904606 2.390118 0.028928 -0.014963 906130.000000 0 0 1
-18.760724 22.714843 -30.746302 42.582437 -0.880447 2.377545 0.038159 -0.015501 1277670.000000 0 0 1
-19.989624 22.173243 -30.273432 42.517273 -0.837142 2.363177 0.042214 -0.015550 1080090.000000 0 0 1
-21.066724 22.318343 -31.212402 43.773615 -0.814239 2.364623 0.077328 -0.027646 1151640.000000 0 0 1
-22.420124 21.614343 -30.794942 43.796921 -0.767101 2.350587 0.095972 -0.030253 664833.000000 0 0 1
-23.321324 22.254643 -29.922952 43.983365 -0.761998 2.319001 0.131210 -0.030672 413469.000000 0 0 1
-24.134524 23.294143 -30.447342 45.300475 -0.767681 2.307864 0.145374 -0.030301 279454.000000 0 0 1
-25.441974 22.869543 -31.195292 46.297476 -0.732202 2.310137 0.146535 -0.038847 -278426.000000 0 0 1
-25.213504 22.134543 -32.350862 46.607264 -0.720461 2.337988 0.147050 -0.034777 82838.300000 0 0 1
-26.364374 21.808743 -33.107542 47.611037 -0.691111 2.339738 0.150640 -0.035982 -71632.200000 0 0 1
-26.114264 20.686243 33.232117 47.055808 -0.669932 0.786641 0.142447 -0.026519 -118247.000000 0 0 1
-25.860624 19.383843 -33.684482 46.681363 -0.643213 2.376883 0.130109 -0.029808 329788.000000 0 0 1
-25.480134 18.597643 32.567506 45.340402 -0.630505 0.769457 0.120496 -0.036584 -203612.000000 0 0 1
-25.084304 17.162043 32.963373 44.836838 -0.600026 0.744857 0.095436 -0.020720 -365858.000000 0 0 1
-26.156014 16.307843 33.304046 45.378876 -0.557508 0.746735 0.087628 -0.018552 295834.000000 0 0 1
-26.508734 15.533243 32.161139 44.478461 -0.530037 0.762557 0.091944 -0.019747 -86125.000000 0 0 1
-27.349354 14.294943 32.647438 44.924245 -0.481626 0.757258 0.065626 -0.017708 92531.800000 0 0 1
-28.664784 14.698043 32.969439 46.094319 -0.473800 0.773800 0.079867 -0.014453 370347.000000 0 0 1
-29.674924 13.664543 32.989775 46.428937 -0.431530 0.780526 0.082803 -0.017519 354594.000000 0 0 1
-29.573284 12.367443 -33.482572 46.353160 -0.396094 2.377971 0.070363 -0.017117 -691735.000000 0 0 1
-28.509274 11.530443 33.512936 45.484577 -0.384333 0.742474 0.062100 -0.020301 -325661.000000 0 0 1
-28.788484 10.173843 -33.653582 45.440593 -0.339700 2.404768 0.073390 -0.021098 -66686.400000 0 0 1
-27.528164 9.283343 -33.387832 44.257515 -0.325254 2.425535 0.060390 -0.026006 967934.000000 0 0 1
-26.578564 8.917043 32.957137 43.267848 -0.323697 0.704863 0.050760 -0.019968 505506.000000 0 0 1
-25.725294 10.031443 32.738349 42.827797 -0.371808 0.700658 0.047799 -0.020866 -951854.000000 0 0 1
-24.497424 9.548043 31.953878 41.380422 -0.371645 0.688503 0.046614 -0.015619 -466422.000000 0 0 1
-24.778624 9.297243 30.606746 40.462228 -0.358957 0.712962 0.048789 -0.015678 142152.000000 0 0 1
-23.591024 8.903343 29.937926 39.141862 -0.360876 0.699977 0.048731 -0.014167 314373.000000 0 0 1
-23.672824 8.866743 28.394236 38.016502 -0.358379 0.727420 0.070157 -0.017758 -129522.000000 0 0 1
-23.912024 10.166243 27.917496 38.138223 -0.401999 0.749531 0.074166 -0.019740 148392.000000 0 0 1
-23.731224 10.165043 26.524556 37.014203 -0.404697 0.771874 0.067172 -0.015377 -1210420.000000 0 0 1
-23.885724 11.597943 25.963496 37.136818 -0.452029 0.796615 0.073022 -0.016481 73257.500000 0 0 1
-25.185144 12.127043 25.928256 38.126515 -0.448751 0.822954 0.086917 -0.016417 -153679.000000 0 0 1
-26.135804 11.412243 25.151246 38.025054 -0.411698 0.848061 0.091506 -0.012284 -124412.000000 0 0 1
-27.550244 12.075643 25.207296 39.245954 -0.413093 0.873314 0.105188 -0.013021 409404.000000 0 0 1
-27.514824 13.356143 24.713186 39.321670 -0.451913 0.891189 0.111242 -0.021502 -699379.000000 0 0 1
-28.681344 14.030343 25.030726 40.571016 -0.454954 0.905921 0.115570 -0.024207 -474663.000000 0 0 1
-28.928634 15.414743 24.349136 40.833328 -0.489584 0.931905 0.128696 -0.028722 -397881.000000 0 0 1
-28.206114 16.444943 24.907076 41.065600 -0.527846 0.919121 0.140041 -0.027884 -156834.000000 0 0 1
-28.239894 17.629243 24.185756 41.148908 -0.558072 0.942507 0.115232 -0.028031 -324357.000000 0 0 1
-23.881124 -8.630657 31.515402 40.472422 0.346795 0.678224 0.100213 -0.023961 -258466.000000 0 0 1
-22.836224 -8.054257 30.785186 39.167485 0.339075 0.666503 0.105561 -0.032826 -98025.400000 0 0 1
-22.994824 -8.343157 29.404516 38.249128 0.348057 0.693892 0.107486 -0.036039 207456.000000 0 0 1
-21.771724 -8.093857 28.465416 36.739603 0.355927 0.684416 0.134324 -0.037045 -631409.000000 0 0 1
-21.424924 -6.730257 28.335726 36.155735 0.304371 0.670175 0.130347 -0.035299 501810.000000 0 0 1
-20.087424 -6.415057 28.730976 35.638835 0.309119 0.633145 0.121911 -0.027996 267945.000000 0 0 1
-18.984224 -6.815257 27.722326 34.283756 0.344666 0.629004 0.130025 -0.033820 -1028770.000000 0 0 1
-18.677624 -8.259757 27.563556 34.304911 0.416371 0.637666 0.131193 -0.036337 539139.000000 0 0 1
-18.052324 -8.955357 28.696296 35.065115 0.460505 0.612224 0.120433 -0.036789 751158.000000 0 0 1
-16.626324 -8.458857 29.199056 34.649269 0.470633 0.568511 0.100639 -0.037287 275930.000000 0 0 1
-15.603924 -8.976657 28.401216 33.625763 0.522046 0.564929 0.095697 -0.026219 351270.000000 0 0 1
-14.397724 -8.957157 29.229316 33.791686 0.556528 0.525675 0.083310 -0.031632 1096220.000000 0 0 1
-13.240224 -9.782757 28.650506 33.043266 0.636337 0.521525 0.069694 -0.022660 -201932.000000 0 0 1
-12.787824 -9.364857 27.435916 31.685304 0.632093 0.523874 0.096912 -0.028772 -484847.000000 0 0 1
-11.563024 -9.958657 27.116456 31.115601 0.710989 0.512595 0.091786 -0.025258 -312879.000000 0 0 1
-11.169124 -9.746657 25.625926 29.604641 0.717493 0.524439 0.076273 -0.026304 354743.000000 0 0 1
-12.011424 -10.408157 24.652546 29.331759 0.714008 0.572641 0.091355 -0.034354 233151.000000 0 0 1
-11.602324 -10.123657 23.316206 27.941865 0.717443 0.583655 0.090141 -0.038873 -154778.000000 0 0 1
-12.600724 -10.543757 22.215916 27.631432 0.696756 0.636790 0.119775 -0.049971 -364904.000000 0 0 1
-12.718124 -11.977357 22.034716 28.120037 0.755411 0.670365 0.108061 -0.040921 1324840.000000 0 0 1
-13.985724 -12.354457 21.434716 28.419714 0.723546 0.716331 0.113319 -0.036410 1925460.000000 0 0 1
-15.255724 -12.386657 22.382336 29.784818 0.681976 0.720512 0.121389 -0.036467 1737580.000000 0 0 1
-16.491024 -12.879557 21.750216 30.181266 0.663050 0.766053 0.088116 -0.021079 1222580.000000 0 0 1
-17.551424 -12.458957 22.556486 31.178088 0.617309 0.761977 0.088799 -0.013746 -281258.000000 0 0 1
-18.899124 -13.188557 22.362186 32.112028 0.609275 0.800455 0.102271 -0.019437 -121793.000000 0 0 1
-18.870624 -14.565557 22.774716 32.968828 0.657348 0.808208 0.087681 -0.009967 137293.000000 0 0 1
-20.099124 -15.265157 22.649126 33.911396 0.649549 0.839424 0.090325 -0.003824 207777.000000 0 0 1
-20.968624 -15.226757 23.943836 35.282356 0.628074 0.824894 0.089040 -0.010461 -263037.000000 0 0 1
-20.459724 -15.971057 25.054156 36.074724 0.662805 0.803062 0.087270 -0.007949 4358.360000 0 0 1
-21.236024 -15.923157 26.230126 37.316688 0.643385 0.791321 0.090967 -0.021727 -248541.000000 0 0 1
-20.740524 -16.883857 27.340486 38.245734 0.683250 0.774367 0.093207 -0.026138 63761.600000 0 0 1
-21.000624 -18.272857 27.046606 38.812916 0.716054 0.799806 0.094503 -0.019189 186013.000000 0 0 1
-20.618424 -19.101557 28.117866 39.756802 0.747228 0.785200 0.086392 -0.020967 -158918.000000 0 0 1
-20.655124 -20.600157 27.694376 40.224111 0.784066 0.811375 0.083960 -0.016021 -437058.000000 0 0 1
-21.943224 -21.137157 27.720326 41.191031 0.766690 0.832580 0.088583 -0.014335 -566232.000000 0 0 1
-21.906424 -22.507457 27.350706 41.647787 0.798930 0.854342 0.094099 -0.007481 150738.000000 0 0 1
-23.267024 -23.000257 26.815046 42.301453 0.779632 0.884206 0.094504 -0.000235 -181006.000000 0 0 1
-24.195224 -23.409457 27.762196 43.636580 0.768894 0.881215 0.091386 -0.004467 -270266.000000 0 0 1
-25.254984 -24.111157 27.127926 44.216360 0.762232 0.910277 0.067715 0.000484 65178.000000 0 0 1
-25.949424 -25.126957 28.032496 45.722614 0.769297 0.910819 0.042629 -0.001185 -359346.000000 0 0 1
-26.697594 -24.501557 29.045836 46.440806 0.742532 0.895104 0.038244 0.006250 266222.000000 0 0 1
-27.206484 -25.400787 30.061396 47.844334 0.751088 0.891409 0.016176 0.014265 326413.000000 0 0 1
-28.248324 -24.735157 31.022486 48.705138 0.719188 0.880268 0.024230 0.002336 62766.700000 0 0 1
-29.368014 -24.315357 30.303786 48.703556 0.691555 0.899235 0.011885 0.001754 -804651.000000 0 0 1
-30.300294 -23.652357 31.081316 49.432682 0.662798 0.890838 0.031683 -0.016234 -207166.000000 0 0 1
-31.446164 -23.012357 30.217396 49.310454 0.631752 0.911199 0.046205 -0.022146 -215637.000000 0 0 1
-32.526984 -23.874557 30.058406 50.314083 0.633177 0.930522 0.053430 -0.022285 -704069.000000 0 0 1
-33.391514 -23.483557 29.021776 50.087266 0.612923 0.952774 0.046009 -0.018715 -686052.000000 0 0 1
-34.725268 -24.173357 29.307406 51.469598 0.608125 0.965006 0.060622 -0.023477 -1000290.000000 0 0 1
-34.698647 -25.551507 29.536506 52.242520 0.634729 0.969911 0.064734 -0.030693 -785579.000000 0 0 1
-35.933075 -26.042277 29.932416 53.528830 0.627140 0.977396 0.074693 -0.027339 -436080.000000 0 0 1
-35.876415 -27.561467 30.060176 54.317270 0.655069 0.984333 0.078293 -0.026512 240468.000000 0 0 1
-35.073548 -27.986367 31.164856 54.631848 0.673480 0.963740 0.073006 -0.025179 138832.000000 0 0 1
-35.161040 -29.377407 31.328061 55.504759 0.696022 0.971064 0.074645 -0.028089 340694.000000 0 0 1
-34.218589 -29.989257 32.440273 55.880576 0.719624 0.951419 0.079784 -0.026891 357527.000000 0 0 1
-34.567784 -29.718447 -33.598982 56.630464 0.710107 2.205951 0.086212 -0.026154 -189758.000000 0 0 1
-33.508294 -30.070767 -32.746342 55.672073 0.731384 2.199628 0.082094 -0.026470 61884.700000 0 0 1
-33.937124 -29.768707 -31.300762 54.933069 0.720059 2.177057 0.087445 -0.031978 59682.400000 0 0 1
-33.952204 -28.376597 -31.020332 54.039286 0.696181 2.182219 0.069173 -0.023512 -203676.000000 0 0 1
-32.669374 -27.818997 -30.868272 52.858631 0.705382 2.194417 0.069079 -0.020163 -180203.000000 0 0 1
-32.689944 -26.304907 -30.630502 51.950055 0.677587 2.201378 0.064927 -0.019674 -28076.000000 0 0 1
-33.467294 -25.835707 -29.534232 51.573389 0.657414 2.180548 0.062821 -0.031240 -38918.700000 0 0 1
-33.389074 -24.464157 -29.208602 50.660317 0.632337 2.185306 0.067210 -0.027787 360367.000000 0 0 1
-32.010774 -23.932957 -28.702572 49.206847 0.641997 2.193587 0.076872 -0.032061 326948.000000 0 0 1
-32.031014 -22.542457 -28.322192 48.335234 0.613251 2.196852 0.078839 -0.029068 547674.000000 0 0 1
-30.746764 -22.213357 -27.788132 47.021028 0.625642 2.203060 0.099480 -0.030382 589706.000000 0 0 1
-30.327844 -20.724757 -27.911742 46.134142 0.599469 2.220578 0.108594 -0.033291 -3364.190000 0 0 1
-30.120314 -20.338557 -29.265712 46.662320 0.593917 2.248725 0.112509 -0.026693 229436.000000 0 0 1
-29.689844 -19.024057 -29.431832 45.930756 0.569852 2.266319 0.100620 -0.035106 -261937.000000 0 0 1
-29.236454 -18.624457 -30.840342 46.397924 0.567202 2.297878 0.110249 -0.021330 995927.000000 0 0 1
-30.315424 -18.287857 -31.753232 47.557738 0.542808 2.301881 0.099191 -0.025031 898657.000000 0 0 1
-31.093174 -17.157757 -31.447052 47.435126 0.504238 2.295547 0.101675 -0.026902 -559984.000000 0 0 1
-31.835464 -16.502457 -32.675172 48.512831 0.478233 2.309780 0.088338 -0.029898 739567.000000 0 0 1
-32.855094 -17.339857 -33.258912 49.862642 0.485614 2.300986 0.086725 -0.032345 1139550.000000 0 0 1
-34.159719 -16.998857 -32.776442 50.300524 0.461749 2.280504 0.091699 -0.037409 99138.400000 0 0 1
-35.282162 -17.477757 33.683266 51.815687 0.459937 0.863134 0.094800 -0.039310 -415406.000000 0 0 1
-35.392077 -18.886457 33.637286 52.352311 0.490192 0.873017 0.087505 -0.043667 -227579.000000 0 0 1
-36.243834 -19.278157 32.613512 52.429992 0.488842 0.899452 0.089781 -0.046048 -518164.000000 0 0 1
-36.679814 -20.722857 32.697106 53.328664 0.514261 0.910787 0.087187 -0.039571 -248839.000000 0 0 1
-35.543187 -21.497557 32.511575 52.749082 0.543963 0.906705 0.086523 -0.034262 -365105.000000 0 0 1
-35.837288 -22.866257 32.924556 53.769911 0.567934 0.911801 0.087012 -0.036502 340389.000000 0 0 1
-34.564551 -23.794757 33.086722 53.438094 0.602908 0.903124 0.090438 -0.035845 1010960.000000 0 0 1
-33.687264 -23.547857 -33.206652 52.839522 0.610064 2.250347 0.077256 -0.046264 266907.000000 0 0 1
-32.994414 -22.311257 -33.179712 51.839337 0.594583 2.265358 0.076889 -0.040434 240666.000000 0 0 1
-31.585754 -22.353957 -32.440852 50.495229 0.615890 2.268492 0.076376 -0.029627 691839.000000 0 0 1
-30.720274 -23.262557 -33.111322 50.805920 0.648117 2.280649 0.057766 -0.023482 1127190.000000 0 0 1
-29.341054 -23.244757 -32.669832 49.684345 0.669983 2.288356 0.064856 -0.023271 1084880.000000 0 0 1
-29.020304 -23.753057 -31.217142 48.794423 0.685919 2.264994 0.078548 -0.018827 -964933.000000 0 0 1
-29.077354 -25.141027 -31.044292 49.409633 0.712924 2.250168 0.073080 -0.024286 -85907.200000 0 0 1
-28.525484 -25.422037 -29.791402 48.451118 0.727934 2.233024 0.068539 -0.027713 -249331.000000 0 0 1
-28.261234 -26.927037 -29.468002 48.909364 0.761227 2.217429 0.075359 -0.028209 -18455.000000 0 0 1
-29.315864 -27.855417 -29.654152 50.146913 0.759859 2.203523 0.056298 -0.016377 194544.000000 0 0 1
-28.936394 -29.085057 -29.098732 50.299023 0.787960 2.187703 0.056478 -0.008672 -57654.600000 0 0 1
-29.728254 -30.245357 -29.694262 51.771613 0.794020 2.181645 0.061960 0.003082 -146696.000000 0 0 1
-29.410604 -30.453747 -31.048792 52.501827 0.802822 2.203572 0.081957 -0.024194 249628.000000 0 0 1
-29.946224 -31.676427 -31.500412 53.781487 0.813468 2.196553 0.112253 -0.019107 -225546.000000 0 0 1
-29.479744 -32.157237 -32.882362 54.629598 0.828811 2.216693 0.085873 -0.029570 965206.000000 0 0 1
-28.048054 -32.326397 -32.944582 54.009581 0.856143 2.226827 0.090333 -0.027213 942389.000000 0 0 1
-27.574874 -32.726947 33.143981 54.129015 0.870629 0.911812 0.098204 -0.032178 -253249.000000 0 0 1
-26.043004 -32.595337 33.049906 53.225843 0.896678 0.900859 0.104354 -0.031468 23158.700000 0 0 1
-25.503184 -33.106547 31.850725 52.544501 0.914406 0.919564 0.100446 -0.028611 -94566.300000 0 0 1
-24.803424 33.346896 32.123682 52.527672 -0.931275 0.912769 0.096257 -0.019423 -228261.000000 0 0 1
-24.484124 32.470271 30.868096 51.055168 -0.924710 0.921529 0.091500 -0.027032 356263.000000 0 0 1
-25.658184 31.800857 30.402246 50.930673 -0.891899 0.931122 0.086677 -0.042235 483595.000000 0 0 1
-25.447204 30.917259 29.335886 49.639010 -0.882143 0.938518 0.084400 -0.036950 662284.000000 0 0 1
-26.803534 30.223299 28.951596 49.699821 -0.845294 0.948959 0.080560 -0.035582 756225.000000 0 0 1
-27.414014 29.401999 29.908646 50.105218 -0.820374 0.931144 0.080577 -0.043128 999180.000000 0 0 1
-28.702824 28.880229 29.524886 50.295513 -0.788479 0.943413 0.080714 -0.044240 1193500.000000 0 0 1
-29.487764 27.964969 30.503326 50.813587 -0.758899 0.926922 0.093567 -0.049215 -69913.100000 0 0 1
-28.782084 26.760759 30.700536 49.870528 -0.749022 0.907643 0.085854 -0.052261 -65552.300000 0 0 1
-29.490004 25.670359 31.228616 50.038527 -0.716262 0.896828 0.088360 -0.041671 406612.000000 0 0 1
-30.512014 25.027699 30.205486 49.696480 -0.686971 0.917510 0.087165 -0.034609 502704.000000 0 0 1
-29.815714 24.528719 29.087656 48.339700 -0.688417 0.925126 0.076698 -0.028985 244497.000000 0 0 1
-30.609474 23.578979 28.298196 47.892547 -0.656377 0.938661 0.066714 -0.019661 341393.000000 0 0 1
-29.992244 23.154139 26.994196 46.522419 -0.657436 0.951772 0.075244 -0.028479 -173939.000000 0 0 1
-28.805134 22.410049 27.091376 45.452049 -0.661174 0.932232 0.077058 -0.026560 -136149.000000 0 0 1
-28.229274 22.085749 25.856796 44.195544 -0.663898 0.945849 0.078716 -0.021082 -117094.000000 0 0 1
-26.892484 21.310249 25.873066 42.973806 -0.670104 0.924710 0.093347 -0.022920 -68210.000000 0 0 1
-26.857304 20.019749 26.415316 42.659982 -0.640558 0.903065 0.103909 -0.030487 133776.000000 0 0 1
-25.544354 19.516649 26.384396 41.587859 -0.652420 0.883531 0.094968 -0.019818 -249169.000000 0 0 1
-25.358364 18.311849 27.317256 41.528339 -0.625420 0.852905 0.115571 -0.032632 93383.800000 0 0 1
-24.005424 17.941849 27.509826 40.681210 -0.641840 0.828164 0.097522 -0.019562 194144.000000 0 0 1
-23.903524 16.864149 28.447866 40.805136 -0.614414 0.799363 0.087126 -0.013552 152295.000000 0 0 1
-22.572324 16.042249 28.437416 39.693201 -0.617874 0.772124 0.074269 -0.012077 111540.000000 0 0 1
-21.542824 16.735149 29.119656 39.901289 -0.660453 0.752778 0.116195 -0.013443 -574252.000000 0 0 1
-20.580124 15.762849 29.317616 39.134787 -0.653616 0.724026 0.095403 -0.011865 -379550.000000 0 0 1
-19.352024 15.979149 30.219996 39.282085 -0.690222 0.693040 0.082578 -0.020678 141755.000000 0 0 1
-19.826824 16.012949 31.578299 40.579631 -0.679383 0.679032 0.071422 -0.014939 134801.000000 0 0 1
-18.818124 16.190149 32.511318 40.905116 -0.710471 0.652121 0.059590 -0.015684 -693364.000000 0 0 1
-19.325224 16.012249 -33.385222 41.766368 -0.691919 2.496980 0.050433 -0.019309 513806.000000 0 0 1
-20.135824 17.033549 -32.779032 42.072059 -0.702128 2.464051 0.063503 -0.025396 539529.000000 0 0 1
-21.520724 16.995849 -33.058802 42.952123 -0.668456 2.449115 0.073117 -0.024801 -190034.000000 0 0 1
-22.347824 17.762849 -32.001412 42.883965 -0.671584 2.413181 0.095408 -0.024830 -131137.000000 0 0 1
-22.244024 17.122849 -30.747482 41.634075 -0.656036 2.401665 0.086575 -0.024846 206383.000000 0 0 1
-22.928624 17.937349 -29.824812 41.677209 -0.663862 2.368300 0.101525 -0.024728 -440290.000000 0 0 1
-23.163424 17.310849 -28.410572 40.538504 -0.641794 2.347356 0.093806 -0.021994 90110.200000 0 0 1
-23.891924 16.096349 -28.361492 40.426362 -0.592866 2.348380 0.097235 -0.024881 820530.000000 0 0 1
-25.298274 16.198049 -28.652722 41.513347 -0.569514 2.332569 0.118579 -0.024331 916540.000000 0 0 1
-26.196434 15.279349 -27.735752 41.097246 -0.528020 2.311600 0.116405 -0.022833 282700.000000 0 0 1
-26.039364 13.854049 -27.909772 40.607124 -0.488952 2.328579 0.083434 -0.013676 281373.000000 0 0 1
-27.038794 13.095049 -27.214742 40.536636 -0.451014 2.306841 0.070669 -0.015998 410526.000000 0 0 1
-26.799044 11.594849 -27.190812 39.899493 -0.408340 2.320583 0.075108 -0.014888 676733.000000 0 0 1
-25.723054 11.114049 -26.352632 38.466334 -0.407840 2.325514 0.065860 -0.019170 495697.000000 0 0 1
-24.980024 10.107049 -27.023882 38.163389 -0.384470 2.357614 0.057288 -0.011631 -296261.000000 0 0 1
-23.873324 9.590949 -26.100982 36.649464 -0.382008 2.363394 0.087387 -0.016420 -281619.000000 0 0 1
-24.286024 8.777649 -25.046392 35.974711 -0.346819 2.340917 0.082691 -0.011500 574308.000000 0 0 1
-23.129624 8.592849 -24.226392 34.579396 -0.355706 2.347037 0.119426 -0.000848 672414.000000 0 0 1
-23.394324 7.384349 -23.252692 33.801046 -0.305749 2.329427 0.115664 -0.007063 270764.000000 0 0 1
-23.804524 6.217049 -23.968192 34.347945 -0.255464 2.343126 0.115831 -0.025836 223288.000000 0 0 1
-23.906824 5.101149 -23.150992 33.667884 -0.210224 2.329014 0.110044 -0.020004 -117479.000000 0 0 1
36.128540 24.252043 -9.519392 44.542697 0.591183 1.786171 0.048361 0.011275 -17481.900000 0 0 1
36.855760 23.704643 -8.462692 44.630419 0.571561 1.761569 0.058642 -0.001944 376659.000000 0 0 1
-37.738194 23.034643 -8.948092 45.109139 -0.548017 1.770486 0.077111 -0.002725 506451.000000 0 0 1
-36.875244 22.533743 -7.796092 43.912780 -0.548527 1.749278 0.129476 -0.006518 -462504.000000 0 0 1
-37.447794 21.557543 -6.987192 43.770833 -0.522337 1.731113 0.075291 -0.011477 -483440.000000 0 0 1
-36.498774 20.985943 -6.131292 42.546011 -0.521817 1.715410 0.167204 -0.028107 -560992.000000 0 0 1
-36.950764 19.880743 -5.227692 42.283941 -0.493609 1.694747 0.113267 -0.013791 -244287.000000 0 0 1
-37.243114 18.690243 -6.002792 42.099980 -0.465122 1.713868 0.075961 -0.005918 636035.000000 0 0 1
37.762460 17.762443 -5.221492 42.056768 0.439666 1.695271 0.086073 -0.025981 -95893.100000 0 0 1
36.946890 16.741043 -5.959992 40.998253 0.425438 1.716685 0.067765 -0.010326 -720499.000000 0 0 1
35.836110 17.288543 -6.583092 40.329364 0.449496 1.734763 0.062981 -0.009139 -922559.000000 0 0 1
35.092020 16.264843 -7.172792 39.337564 0.434016 1.754162 0.079800 -0.006526 -266032.000000 0 0 1
33.861500 16.726443 -7.956992 38.596487 0.458809 1.778444 0.059011 -0.011594 -332722.000000 0 0 1
33.233700 15.704143 -8.641892 37.759518 0.441437 1.801710 0.073738 -0.011487 -151931.000000 0 0 1
33.030590 15.904143 -10.008692 38.001784 0.448736 1.837315 0.038239 -0.019056 -337509.000000 0 0 1
32.585390 14.658343 -10.785592 37.322964 0.422724 1.863958 0.064044 -0.030436 -181043.000000 0 0 1
31.360780 14.038943 -10.470692 35.919714 0.420906 1.866594 0.066250 -0.027686 266326.000000 0 0 1
31.339690 13.353943 -9.217392 35.291136 0.402805 1.835042 0.075832 -0.022847 -806493.000000 0 0 1
30.289440 12.273243 -9.180592 33.946516 0.384980 1.844649 0.090942 -0.015330 -799564.000000 0 0 1
30.736040 11.057343 -9.791692 34.100531 0.345336 1.862038 0.094462 -0.021446 -171763.000000 0 0 1
29.841640 10.000143 -9.833192 32.972989 0.323346 1.873623 0.139203 -0.024137 -1105660.000000 0 0 1
30.382940 8.693943 -10.424492 33.277285 0.278698 1.889422 0.130924 -0.026173 -349702.000000 0 0 1
31.524990 8.310643 -9.695392 34.013121 0.257757 1.859853 0.120398 -0.033916 144904.000000 0 0 1
31.513430 6.868843 -9.525492 33.630526 0.214609 1.857967 0.149786 -0.036958 -863856.000000 0 0 1
32.541190 6.309843 -8.561592 34.235129 0.191527 1.823561 0.169724 -0.030524 -480298.000000 0 0 1
33.868090 6.454643 -9.004792 35.634200 0.188323 1.826267 0.138411 -0.027434 -107420.000000 0 0 1
34.793480 6.173543 -7.972492 36.225123 0.175606 1.792695 0.141102 -0.023033 -688766.000000 0 0 1
36.222770 6.332943 -8.438592 37.728041 0.173084 1.796374 0.133722 -0.021543 -735935.000000 0 0 1
36.638360 5.457843 -9.496492 38.240565 0.147878 1.821758 0.143539 -0.029236 -619683.000000 0 0 1
-37.756384 5.488743 -9.618292 39.346949 -0.144361 1.817747 0.141283 -0.027634 -1098720.000000 0 0 1
-37.301404 4.658143 -10.836992 39.122033 -0.124235 1.851472 0.139651 -0.037406 598579.000000 0 0 1
-35.907488 4.534943 -11.139192 37.868127 -0.125630 1.869370 0.170616 -0.046476 1124910.000000 0 0 1
-35.184240 5.647543 -11.713292 37.510355 -0.159156 1.888376 0.174663 -0.047852 391122.000000 0 0 1
-34.291873 6.469643 -10.710892 36.503590 -0.186472 1.868599 0.162738 -0.033177 -341136.000000 0 0 1
-35.020263 7.423743 -9.984992 37.164914 -0.208892 1.842805 0.148344 -0.027783 267104.000000 0 0 1
-35.202746 8.640443 -10.639592 37.776865 -0.240690 1.856302 0.150336 -0.032292 -539029.000000 0 0 1
-36.145654 9.585643 -9.919492 38.688360 -0.259228 1.830087 0.141371 -0.021972 -262054.000000 0 0 1
-35.675607 10.100243 -8.675492 38.079234 -0.275893 1.800642 0.124635 -0.008946 302233.000000 0 0 1
-36.587514 11.083343 -8.138192 39.086019 -0.294140 1.780543 0.108746 -0.020133 282339.000000 0 0 1
-36.064044 12.064043 -7.045392 38.675496 -0.322816 1.753986 0.127656 -0.031179 -130140.000000 0 0 1
-35.145619 13.027943 -7.527692 38.230982 -0.354982 1.768992 0.133952 -0.026886 -21108.000000 0 0 1
-34.992475 14.006143 -6.516692 38.250656 -0.380732 1.742000 0.160815 -0.031285 159870.000000 0 0 1
-34.150926 15.199443 -7.009892 38.032189 -0.418744 1.756171 0.128860 -0.019474 358019.000000 0 0 1
-34.884693 16.014143 -7.948292 39.199106 -0.430362 1.774979 0.099706 -0.016587 322276.000000 0 0 1
-34.408712 17.362443 -7.937792 39.350000 -0.467316 1.773913 0.088943 -0.013955 285752.000000 0 0 1
-35.005253 18.219843 -9.085692 40.495435 -0.479904 1.797086 0.084949 -0.007964 418827.000000 0 0 1
-34.213815 18.081143 -10.268992 40.037047 -0.486167 1.830182 0.069539 -0.005964 428669.000000 0 0 1
-35.069854 18.269943 -11.374892 41.146977 -0.480274 1.850890 0.059426 -0.011800 212600.000000 0 0 1
-34.314396 18.349543 -12.727392 40.941056 -0.491058 1.886906 0.024118 0.007988 182298.000000 0 0 1
-33.367364 19.384343 -12.951192 40.704633 -0.526285 1.894600 0.033162 -0.000305 323594.000000 0 0 1
-33.273984 19.598343 -14.347392 41.195883 -0.532291 1.926524 0.000594 0.003331 -240948.000000 0 0 1
-32.382534 20.794343 -14.770992 41.221541 -0.570835 1.937277 0.023780 0.001499 -558646.000000 0 0 1
-31.060174 20.720543 -14.327892 39.992047 -0.588309 1.937209 0.046213 0.001907 -54394.200000 0 0 1
-30.304904 21.923043 -14.401492 40.080045 -0.626269 1.938334 0.058280 -0.005414 271518.000000 0 0 1
-29.712664 22.425343 -15.765092 40.426187 -0.646528 1.971398 0.058359 -0.009371 -588257.000000 0 0 1
-30.614184 23.034543 -16.657392 41.776634 -0.645044 1.980923 0.050302 0.003463 197299.000000 0 0 1
-29.993474 23.627743 -17.822192 42.136793 -0.667235 2.007506 0.067247 -0.000349 220359.000000 0 0 1
-29.282404 25.036743 -17.574792 42.345850 -0.707395 1.998772 0.082903 -0.003387 611795.000000 0 0 1
-30.216284 26.060843 -17.272292 43.480150 -0.711693 1.979310 0.107797 -0.015728 527360.000000 0 0 1
-29.578434 27.332043 -17.479492 43.902813 -0.745946 1.980285 0.108577 -0.021516 101590.000000 0 0 1
-30.411124 28.478243 -16.929292 44.971633 -0.752588 1.956751 0.113580 -0.024821 -203330.000000 0 0 1
-30.261624 28.624243 -15.495292 44.443417 -0.757599 1.926929 0.104605 -0.026528 -193890.000000 0 0 1
-29.207024 29.454543 -15.133792 44.154864 -0.789618 1.920632 0.094831 -0.023137 -572916.000000 0 0 1
-29.222984 30.151643 -13.762892 44.187347 -0.801038 1.887533 0.110911 -0.011629 251425.000000 0 0 1
-30.177294 31.213243 -13.530992 45.475525 -0.802271 1.872916 0.097232 -0.012944 545665.000000 0 0 1
-30.155244 31.859743 -12.292492 45.557517 -0.812877 1.844006 0.094466 -0.015077 540862.000000 0 0 1
-29.063264 33.010043 -12.218692 45.646826 -0.848895 1.841780 0.089750 -0.026480 678065.000000 0 0 1
-29.339384 -33.550262 -13.015792 46.430921 0.852255 1.854930 0.079142 -0.038033 298515.000000 0 0 1
-28.176224 -32.733862 -13.209292 45.165150 0.860085 1.867601 0.099500 -0.043923 299988.000000 0 0 1
-28.151824 -31.793662 -14.384492 44.836099 0.846076 1.897396 0.084492 -0.035140 -301114.000000 0 0 1
-27.693544 -32.448762 -15.546892 45.404410 0.864300 1.920276 0.066954 -0.040522 -204490.000000 0 0 1
-27.903204 -31.679362 -16.705492 45.400928 0.848690 1.947605 0.066722 -0.021930 88781.100000 0 0 1
-27.187134 -32.387862 -17.914792 45.924434 0.872475 1.971529 0.063800 -0.022414 4737.170000 0 0 1
-27.544794 -33.686862 -18.382392 47.238043 0.885372 1.970498 0.066548 -0.013653 -143563.000000 0 0 1
-27.228744 32.887343 -17.507192 46.146329 -0.879249 1.959927 0.055763 -0.041189 -622400.000000 0 0 1
-27.407724 31.444943 -18.082392 45.463620 -0.853890 1.979841 0.081501 -0.055838 926167.000000 0 0 1
-28.738444 30.995443 -18.417992 46.106812 -0.823164 1.981728 0.109036 -0.044195 646962.000000 0 0 1
-29.012774 31.422143 -19.734492 47.101405 -0.825244 2.003117 0.124456 -0.025472 -412842.000000 0 0 1
-30.511184 31.493343 -20.090892 48.232841 -0.801237 2.000432 0.126792 -0.035051 -7544.150000 0 0 1
-31.078964 30.191743 -20.096392 47.763044 -0.770919 2.005070 0.123310 -0.043246 787294.000000 0 0 1
-32.451974 30.247843 -20.511092 48.875020 -0.750259 2.003872 0.126874 -0.040919 773903.000000 0 0 1
-32.987764 28.808343 -20.888492 48.522596 -0.717869 2.015832 0.122782 -0.039427 -740102.000000 0 0 1
-34.373899 28.700643 -21.012292 49.465223 -0.695694 2.009525 0.120627 -0.035700 -146696.000000 0 0 1
-34.554800 27.326743 -21.464892 49.005374 -0.669120 2.024181 0.111987 -0.027021 -68337.500000 0 0 1
-36.041034 26.909943 -21.448092 49.830933 -0.641352 2.015751 0.101481 -0.020905 375085.000000 0 0 1
-36.834024 27.431843 -22.519392 51.150507 -0.640127 2.026682 0.095817 -0.020041 829310.000000 0 0 1
37.882500 26.573743 -23.011392 51.679510 0.611717 2.032273 0.088168 -0.016474 1015260.000000 0 0 1
37.109250 27.372543 -24.121792 52.040498 0.635531 2.052760 0.110340 -0.016673 -119091.000000 0 0 1
37.743490 27.344043 -25.391122 53.075200 0.626961 2.069627 0.114464 -0.030888 -21813.700000 0 0 1
36.934890 27.709443 -26.518732 53.246995 0.643644 2.092125 0.134694 -0.023295 118082.000000 0 0 1
37.798170 27.692343 -27.791082 54.478544 0.632296 2.106131 0.139353 -0.028396 363482.000000 0 0 1
-37.651684 26.342143 -28.220932 53.925679 -0.610476 2.121551 0.087201 -0.013649 -195954.000000 0 0 1
-37.208794 26.327543 -29.566152 54.330390 -0.615783 2.146222 0.066427 -0.011248 -891999.000000 0 0 1
-36.692724 24.977943 -30.104852 53.633532 -0.597678 2.166760 0.056704 -0.010936 1198100.000000 0 0 1
-35.457434 24.451643 -29.591492 52.256760 -0.603716 2.172771 0.058612 -0.010875 66044.300000 0 0 1
-34.307590 25.226243 -29.671992 51.901842 -0.634024 2.179366 0.048396 -0.007727 -936384.000000 0 0 1
-33.156914 24.667143 -28.801872 50.372579 -0.639619 2.179466 0.040300 -0.008139 -115438.000000 0 0 1
-32.773244 23.435143 -29.268262 49.798822 -0.620768 2.199047 0.048632 -0.006203 -224496.000000 0 0 1
-33.319034 22.409343 -28.458132 49.215871 -0.592078 2.187355 0.026891 0.001668 -96457.400000 0 0 1
-32.956704 20.915543 -28.762952 48.486201 -0.565499 2.205848 0.040045 -0.011574 351975.000000 0 0 1
-31.578964 20.548943 -28.736542 47.384374 -0.576879 2.222392 0.095331 -0.018634 373693.000000 0 0 1
-31.387144 19.240243 -29.253482 47.022399 -0.549922 2.242241 0.081203 -0.020357 271228.000000 0 0 1
-29.901684 18.834043 -29.447182 45.999657 -0.562091 2.265504 0.110416 -0.024490 258827.000000 0 0 1
-29.154754 19.543543 -30.471612 46.480845 -0.590540 2.285738 0.115154 -0.022467 977520.000000 0 0 1
-27.899094 18.911443 -30.778162 45.643153 -0.595706 2.310842 0.123171 -0.026187 591055.000000 0 0 1
-27.875504 17.513043 -31.509172 45.569489 -0.560940 2.334295 0.119319 -0.024104 -566698.000000 0 0 1
-28.108144 16.543143 -30.493862 44.649961 -0.531960 2.322595 0.086405 -0.016398 87528.900000 0 0 1
-28.296274 15.363143 -31.152502 44.801604 -0.497406 2.339694 0.060677 -0.010154 28030.400000 0 0 1
-28.864284 14.139843 -30.307182 44.177000 -0.455514 2.326828 0.062602 -0.008177 388496.000000 0 0 1
-30.275284 14.162443 -30.132662 45.001611 -0.437548 2.304454 0.061945 -0.013354 572960.000000 0 0 1
-30.955954 12.902143 -30.124932 45.080461 -0.394897 2.302648 0.053218 -0.010060 134702.000000 0 0 1
-30.773564 11.969043 -28.876822 43.865033 -0.370935 2.289369 0.040872 -0.017394 -417568.000000 0 0 1
-31.370514 12.537443 -27.749942 43.719057 -0.380211 2.258460 0.032544 -0.014744 192734.000000 0 0 1
-31.529554 11.614943 -26.740692 42.942803 -0.352957 2.242991 0.030056 -0.012664 41959.700000 0 0 1
-31.385484 12.262643 -25.337452 42.159311 -0.372473 2.215539 0.026671 -0.012799 940271.000000 0 0 1
-30.004954 12.589943 -25.109092 41.100736 -0.397284 2.228013 0.050117 -0.016948 647366.000000 0 0 1
-29.725454 13.126843 -23.812992 40.286167 -0.415849 2.203213 0.049069 -0.012963 615838.000000 0 0 1
-28.266764 13.597143 -23.504792 39.196524 -0.448356 2.213879 0.080626 -0.010735 -73559.600000 0 0 1
-27.820994 14.813343 -24.123592 39.691190 -0.489271 2.224061 0.091844 -0.014515 575678.000000 0 0 1
-26.436784 15.152743 -24.032892 38.808364 -0.520457 2.238610 0.099587 -0.023800 917752.000000 0 0 1
-25.775584 15.252343 -22.593092 37.516164 -0.534321 2.217079 0.110198 -0.019779 -604860.000000 0 0 1
-26.068824 16.411043 -21.858092 37.771446 -0.561848 2.187922 0.126603 -0.018613 100280.000000 0 0 1
-26.359594 16.192743 -20.485792 37.103919 -0.550869 2.155700 0.122793 -0.002308 5559.560000 0 0 1
-27.825354 16.353343 -20.045292 37.993367 -0.531336 2.126569 0.115230 -0.013515 -2727.860000 0 0 1
-28.758564 15.429843 -20.592592 38.590024 -0.492443 2.133677 0.109167 -0.012959 846212.000000 0 0 1
-30.054884 15.783843 -20.068592 39.435697 -0.483578 2.104696 0.088303 -0.009200 -61872.900000 0 0 1
-31.156514 14.779443 -20.517692 40.126500 -0.442927 2.107522 0.041509 -0.009524 -83943.400000 0 0 1
-31.612654 14.895443 -21.843892 41.211525 -0.440332 2.129448 0.032516 -0.009664 -182077.000000 0 0 1
-32.384304 16.048643 -22.011992 42.318198 -0.460096 2.117828 0.016774 -0.002426 -1115990.000000 0 0 1
-33.068394 16.047143 -23.364592 43.553802 -0.451795 2.137026 0.014276 -0.009704 -602385.000000 0 0 1
-34.111869 15.141443 -23.549092 44.129839 -0.417750 2.133686 0.020675 -0.006770 -460787.000000 0 0 1
-34.478905 15.230943 -24.883092 45.165748 -0.415969 2.154273 0.016532 -0.010764 476876.000000 0 0 1
-35.699322 14.297043 -25.247672 46.003174 -0.380924 2.151754 0.021522 -0.009368 544271.000000 0 0 1
-35.448820 12.915043 -25.270202 45.409254 -0.349383 2.160962 0.025122 -0.015493 -30775.900000 0 0 1
-35.576461 12.336743 -24.018892 44.663039 -0.333792 2.138598 0.019040 -0.012173 -312294.000000 0 0 1
-35.646674 10.803243 -24.207892 44.423164 -0.294266 2.147112 0.031176 -0.018833 -1057720.000000 0 0 1
-36.745074 10.359143 -24.865792 45.561167 -0.274788 2.148101 0.042193 -0.019693 -1336190.000000 0 0 1
-36.442274 9.253443 -25.653802 45.516845 -0.248665 2.169547 0.045055 -0.015930 -34287.000000 0 0 1
-37.637764 8.558943 -26.347012 46.733520 -0.223601 2.169741 0.075806 -0.012182 236701.000000 0 0 1
37.240070 7.963643 -25.419802 45.786557 0.210673 2.159376 0.066833 0.000612 295072.000000 0 0 1
36.142010 7.322243 -26.078192 45.165609 0.199891 2.186325 0.086010 -0.008918 56344.800000 0 0 1
35.377850 6.474043 -25.073992 43.843022 0.180994 2.179621 0.083553 -0.007473 -302684.000000 0 0 1
35.973240 5.227543 -24.802892 44.006643 0.144307 2.169554 0.070496 -0.002663 213042.000000 0 0 1
35.232220 4.502143 -23.844792 42.780284 0.127096 2.162021 0.079727 -0.002728 153355.000000 0 0 1
36.176150 3.622743 -22.998692 43.020669 0.099809 2.134826 0.073605 -0.001979 98068.300000 0 0 1
36.423840 2.365843 -23.652492 43.494065 0.064862 2.145766 0.077781 -0.006753 588552.000000 0 0 1
37.470470 1.690243 -22.943992 43.969533 0.045078 2.119774 0.113814 -0.005374 267124.000000 0 0 1
-37.878214 0.353843 -23.571392 44.614962 -0.009341 2.127428 0.136197 -0.018493 252181.000000 0 0 1
36.964370 -0.714657 -23.584892 43.853421 -0.019331 2.138636 0.095887 -0.031503 529898.000000 0 0 1
37.650300 -1.855657 -24.150992 44.768951 -0.049247 2.140590 0.115717 -0.029677 662596.000000 0 0 1
-23.546724 28.499143 26.677436 45.588760 -0.880267 0.945700 0.068990 -0.025676 209499.000000 0 0 1
-24.841424 29.102643 26.425026 46.500992 -0.864228 0.966397 0.055027 -0.029549 1522000.000000 0 0 1
-25.300074 28.781643 25.100956 45.809767 -0.849686 0.990898 0.052284 -0.020035 -254902.000000 0 0 1
-25.901784 27.401343 24.724836 45.089395 -0.813523 0.990405 0.061020 -0.017381 101225.000000 0 0 1
-27.177824 27.010843 25.232086 45.878949 -0.782317 0.988467 0.063477 -0.019801 497482.000000 0 0 1
-27.291764 26.804243 26.678646 46.637517 -0.776386 0.961802 0.061829 -0.027684 -797036.000000 0 0 1
-26.703444 25.502143 27.305616 45.924176 -0.762391 0.934053 0.075909 -0.023708 1091090.000000 0 0 1
-25.367514 25.558743 27.850136 45.523513 -0.789153 0.912494 0.087948 -0.017419 688956.000000 0 0 1
-25.325444 26.226843 29.090076 46.641805 -0.802882 0.897340 0.087336 -0.025102 376104.000000 0 0 1
-23.929724 25.970243 29.736086 46.166222 -0.826268 0.870938 0.114721 -0.014932 211693.000000 0 0 1
-22.769724 26.435543 29.056426 45.404562 -0.859761 0.876370 0.112832 -0.017767 68380.800000 0 0 1
-21.673924 26.296243 29.943816 45.363901 -0.881460 0.849871 0.137032 -0.014846 172623.000000 0 0 1
-20.842724 24.997543 29.712116 44.069334 -0.875788 0.830898 0.136884 -0.004969 -279415.000000 0 0 1
-20.099424 24.909743 28.474416 42.840105 -0.891868 0.843748 0.123270 -0.015897 124454.000000 0 0 1
-20.646524 24.121843 27.445086 41.968739 -0.862872 0.858014 0.128978 -0.025233 -86226.500000 0 0 1
-20.437824 22.553143 27.347866 40.917658 -0.834562 0.838790 0.118410 -0.007530 56990.300000 0 0 1
-21.075524 21.930743 28.436096 41.638285 -0.805281 0.819028 0.107996 -0.010681 63550.500000 0 0 1
-20.955224 20.534243 28.407546 40.838282 -0.775252 0.801527 0.111715 -0.011663 97361.500000 0 0 1
-21.247124 19.913243 29.792556 41.660220 -0.753003 0.773983 0.113507 -0.013529 275325.000000 0 0 1
-20.276324 20.347243 30.738666 42.071430 -0.787144 0.751552 0.104875 -0.023858 303196.000000 0 0 1
-20.589924 19.885943 32.003441 42.937350 -0.768007 0.729734 0.095938 -0.017027 188525.000000 0 0 1
-19.469024 20.198143 33.053395 43.353603 -0.803777 0.703761 0.115692 -0.018103 -62115.200000 0 0 1
-19.402924 21.560943 33.422156 44.253681 -0.838031 0.714776 0.074392 -0.017443 255565.000000 0 0 1
-18.601924 22.448243 32.635609 43.761150 -0.878823 0.729111 0.101336 -0.010141 -546088.000000 0 0 1
-17.119924 22.434543 32.962451 43.392669 -0.918960 0.708050 0.099788 -0.005466 -757957.000000 0 0 1
-16.428224 21.221443 32.713097 42.312917 -0.912028 0.687046 0.123240 -0.024677 -243391.000000 0 0 1
-15.061824 21.450243 32.984952 42.130495 -0.958612 0.671445 0.085832 -0.025137 -1113560.000000 0 0 1
-14.264424 20.162643 32.914368 41.150476 -0.955076 0.643745 0.066350 -0.026848 223066.000000 0 0 1
-12.903324 20.078243 33.349406 41.009932 -0.999604 0.621161 0.047823 -0.026876 665997.000000 0 0 1
-12.729124 20.390843 -32.665652 40.556897 -1.012732 2.507193 0.063086 -0.025572 -691480.000000 0 0 1
-11.295124 20.298943 -32.132482 39.650011 -1.063023 2.515636 0.058325 -0.025378 225455.000000 0 0 1
-10.374924 21.316143 -32.543852 40.263126 -1.117832 2.512020 0.055100 -0.021966 -524071.000000 0 0 1
-9.136224 21.115243 -31.971202 39.388854 -1.162435 2.517821 0.056397 -0.023956 -588696.000000 0 0 1
-8.268324 22.430843 -31.943672 39.898698 -1.217636 2.499125 0.058000 -0.028235 168892.000000 0 0 1
-8.634024 23.479343 -31.043562 39.868894 -1.218416 2.463294 0.060005 -0.025000 88839.000000 0 0 1
-8.252824 23.232643 -29.697142 38.597734 -1.229474 2.448699 0.060696 -0.029772 27037.700000 0 0 1
-8.021224 24.585243 -28.866902 38.756577 -1.255424 2.411070 0.065053 -0.029567 -59258.400000 0 0 1
-6.918224 25.302543 -29.355432 39.367778 -1.303900 2.412338 0.084534 -0.023418 803.527000 0 0 1
-6.409524 26.291743 -28.495962 39.298316 -1.331676 2.382004 0.090797 -0.017804 897454.000000 0 0 1
-4.965124 26.825443 -28.848332 39.704951 -1.387777 2.384110 0.099897 -0.028383 285679.000000 0 0 1
-3.904224 26.061543 -28.355822 38.710459 -1.422094 2.392799 0.112321 -0.026231 382975.000000 0 0 1
-2.729424 25.971043 -29.174292 39.154619 -1.466086 2.411488 0.111104 -0.023796 975011.000000 0 0 1
-1.769124 27.200143 -29.011702 39.807744 -1.505847 2.387357 0.125832 -0.034065 -274604.000000 0 0 1
-1.103524 27.256143 -27.740972 38.905997 -1.530331 2.364600 0.145748 -0.054911 74142.900000 0 0 1
-0.315224 28.370443 -27.629812 39.602878 -1.559686 2.342939 0.141586 -0.049738 -1150200.000000 0 0 1
0.351376 28.675743 -26.278392 38.896987 1.558544 2.312560 0.153216 -0.064883 55006.300000 0 0 1
1.245376 27.697243 -25.762362 37.846896 1.525863 2.319513 0.202386 -0.077611 873893.000000 0 0 1
2.528876 27.745243 -26.405252 38.385298 1.479901 2.329388 0.198882 -0.078576 155993.000000 0 0 1
3.713576 28.016643 -25.450732 38.032390 1.439016 2.303909 0.189473 -0.080718 -227337.000000 0 0 1
4.257876 26.932643 -24.761992 36.832771 1.414001 2.308083 0.194087 -0.073017 206631.000000 0 0 1
5.530476 27.326743 -24.280592 36.971397 1.371110 2.287284 0.148636 -0.063415 125442.000000 0 0 1
6.269176 26.151543 -23.600092 35.779465 1.335511 2.291081 0.142456 -0.059227 635615.000000 0 0 1
7.602576 26.459443 -23.177492 35.987462 1.291004 2.270569 0.132063 -0.059395 367058.000000 0 0 1
8.219976 25.338543 -22.536392 34.892675 1.257102 2.272968 0.116446 -0.048392 99134.400000 0 0 1
9.692576 25.574043 -22.195992 35.222717 1.208523 2.252557 0.111079 -0.020879 -653312.000000 0 0 1
9.774576 26.228643 -20.891092 34.927379 1.214072 2.211961 0.118084 -0.019864 1368090.000000 0 0 1
11.151576 26.338343 -20.424592 35.145838 1.170284 2.190923 0.130898 -0.029835 1535030.000000 0 0 1
11.877976 25.065543 -19.899392 34.137275 1.128265 2.193117 0.094884 -0.008973 -111029.000000 0 0 1
12.147276 24.163643 -20.931092 34.198663 1.104984 2.229439 0.079640 -0.016377 -327134.000000 0 0 1
12.689976 23.021343 -20.377892 33.260731 1.067012 2.230232 0.066042 -0.003283 48174.700000 0 0 1
13.155576 22.006143 -21.552092 33.493763 1.031986 2.269814 0.064685 -0.012036 1114330.000000 0 0 1
11.978676 21.571243 -22.296092 33.255419 1.063887 2.305611 0.069436 -0.019703 1148470.000000 0 0 1
12.239776 20.641743 -23.371392 33.497994 1.035568 2.342972 0.063794 -0.017604 -187410.000000 0 0 1
11.277876 20.819343 -24.545192 34.104281 1.074346 2.374181 0.078850 -0.020499 228320.000000 0 0 1
9.904876 20.601343 -24.232492 33.312694 1.122636 2.385358 0.074843 -0.023978 333751.000000 0 0 1
9.288776 20.285943 -25.490622 33.875842 1.141399 2.422604 0.077063 -0.026742 -912116.000000 0 0 1
7.770976 20.197143 -25.468832 33.421162 1.203500 2.437280 0.095139 -0.039341 -506292.000000 0 0 1
7.140776 21.467643 -25.267232 33.915828 1.249679 2.411329 0.109922 -0.045514 59000.300000 0 0 1
6.927276 21.806343 -23.882792 33.074031 1.263206 2.377631 0.118948 -0.047400 -312585.000000 0 0 1
5.457176 21.807443 -23.384292 32.437177 1.325588 2.375911 0.141518 -0.052757 -3348.580000 0 0 1
4.775176 22.909243 -23.928892 33.469801 1.365300 2.367334 0.141187 -0.050600 -759347.000000 0 0 1
3.419276 22.839943 -23.596492 33.017403 1.422194 2.366946 0.173306 -0.053905 -447719.000000 0 0 1
2.679276 24.055543 -24.259092 34.268808 1.459875 2.357325 0.155376 -0.046352 718459.000000 0 0 1
1.267676 23.804443 -24.294992 34.036821 1.517593 2.365685 0.195397 -0.070085 543348.000000 0 0 1
0.552776 24.619743 -25.150792 35.199427 1.548348 2.366738 0.188956 -0.060764 -868004.000000 0 0 1
-0.955624 24.555243 -25.189562 35.190726 -1.531899 2.368567 0.198490 -0.057936 -674637.000000 0 0 1
-1.382224 23.358843 -25.823932 34.848552 -1.511692 2.405404 0.214070 -0.059663 422715.000000 0 0 1
-2.721024 23.401443 -26.321872 35.325238 -1.455040 2.411525 0.191827 -0.043269 475717.000000 0 0 1
-3.134724 22.093243 -26.999912 35.027605 -1.429851 2.450921 0.186740 -0.047413 -470066.000000 0 0 1
-2.533424 21.704843 -28.219072 35.690818 -1.454600 2.482672 0.208512 -0.057521 -139313.000000 0 0 1
-3.105124 20.546643 -28.737302 35.463205 -1.420806 2.515531 0.180733 -0.050140 -91158.400000 0 0 1
-4.437924 20.502043 -29.524262 36.217551 -1.357623 2.523857 0.144097 -0.042524 -13682.100000 0 0 1
-4.420224 21.118543 -30.794072 37.600613 -1.364470 2.530424 0.137031 -0.039945 51866.200000 0 0 1
-4.067824 22.510143 -30.875392 38.425819 -1.392015 2.503959 0.152779 -0.042666 -239877.000000 0 0 1
-3.624324 22.910243 -32.292422 39.759470 -1.413900 2.518700 0.122502 -0.036621 184912.000000 0 0 1
-2.442724 22.170943 -32.611722 39.510025 -1.461062 2.541713 0.117419 -0.037203 521488.000000 0 0 1
-1.997524 22.354643 33.459136 40.289378 -1.481677 0.590845 0.110146 -0.023517 -214190.000000 0 0 1
-0.729424 21.576943 33.081193 39.502682 -1.537003 0.578211 0.121515 -0.019431 -271483.000000 0 0 1
-0.959924 20.171343 32.991444 38.681261 -1.523244 0.549271 0.101923 -0.014950 331917.000000 0 0 1
0.095576 19.395043 32.436314 37.792742 1.565869 0.538910 0.109819 -0.010145 34897.200000 0 0 1
-0.486024 18.083543 31.942458 36.709282 -1.543926 0.515297 0.085766 -0.004068 206092.000000 0 0 1
-1.117724 18.062343 30.675396 35.615692 -1.508994 0.532996 0.069275 -0.009002 174044.000000 0 0 1
-1.567824 16.825543 30.176556 34.585857 -1.477883 0.510477 0.062518 -0.007777 119384.000000 0 0 1
-2.640324 17.033143 29.057926 33.785535 -1.417009 0.535389 0.069923 -0.001337 589109.000000 0 0 1
-3.959924 17.274143 29.563756 34.468721 -1.345450 0.540021 0.055042 -0.010431 478915.000000 0 0 1
-4.546524 18.406743 28.966276 34.619709 -1.328640 0.579569 0.072208 -0.014134 732581.000000 0 0 1
-6.095024 18.547643 29.150416 35.084344 -1.253299 0.590133 0.057538 -0.019393 743441.000000 0 0 1
-6.872724 17.824043 28.215896 34.074443 -1.202776 0.595147 0.059040 -0.013705 445358.000000 0 0 1
-8.244424 18.177143 28.428066 34.735199 -1.144986 0.612136 0.063350 -0.022772 192397.000000 0 0 1
-9.298824 17.418843 27.595616 33.932319 -1.080447 0.621073 0.063503 -0.021404 -120898.000000 0 0 1
-9.431124 16.061143 27.987896 33.618875 -1.039841 0.587182 0.068894 -0.028650 -220851.000000 0 0 1
-10.245224 15.919443 29.092966 34.710143 -0.998957 0.576879 0.073874 -0.029630 -989478.000000 0 0 1
-10.791024 14.446543 29.346476 34.443642 -0.929242 0.550975 0.078930 -0.030124 301931.000000 0 0 1
-9.793224 13.445443 29.574416 33.931303 -0.941284 0.512346 0.083374 -0.024105 622276.000000 0 0 1
-8.977624 13.573443 30.730506 34.773555 -0.986441 0.487019 0.074115 -0.021731 -39430.000000 0 0 1
-9.659524 13.065843 32.013492 35.901064 -0.934181 0.469677 0.102511 -0.033377 -76077.400000 0 0 1
-9.877524 11.638743 31.987827 35.443574 -0.867071 0.445257 0.109788 -0.031535 118131.000000 0 0 1
-10.606724 11.262543 33.101003 36.537979 -0.815377 0.437216 0.116851 -0.028956 -323150.000000 0 0 1
-10.970824 9.764343 33.295056 36.390413 -0.727278 0.415436 0.103475 -0.027893 -274065.000000 0 0 1
-9.850124 8.925143 33.513416 36.053186 -0.736172 0.377593 0.125172 -0.031077 46262.500000 0 0 1
-9.929424 8.278043 -32.629372 35.096943 -0.694948 2.764374 0.152068 -0.036042 -164335.000000 0 0 1
-9.088024 9.091643 -31.611132 34.124974 -0.785597 2.755359 0.124323 -0.042790 -226544.000000 0 0 1
-9.625224 10.386643 -31.274062 34.330661 -0.823428 2.716416 0.115979 -0.039707 677500.000000 0 0 1
-8.753424 11.096243 -30.363552 33.491706 -0.902883 2.705950 0.110154 -0.033027 119735.000000 0 0 1
-7.708524 11.980343 -31.024022 34.138540 -0.999053 2.711119 0.082637 -0.034199 -476980.000000 0 0 1
-8.150024 13.277443 -31.251562 34.919529 -1.020273 2.679137 0.083043 -0.031376 -473438.000000 0 0 1
-7.162424 14.044043 -31.836982 35.526454 -1.099183 2.681809 0.061850 -0.029088 -541798.000000 0 0 1
-7.632724 15.481543 -32.102272 36.448492 -1.112748 2.648255 0.063587 -0.026109 -468375.000000 0 0 1
-8.479824 15.536843 -33.181352 37.607221 -1.071193 2.651551 0.061682 -0.031229 -463325.000000 0 0 1
-8.915324 16.847543 -33.405132 38.460702 -1.084081 2.623070 0.072959 -0.031603 -1226270.000000 0 0 1
-9.511924 17.018643 32.567631 37.957365 -1.061137 0.539422 0.095460 -0.037392 898667.000000 0 0 1
-10.747624 16.345243 32.271466 37.737593 -0.989140 0.544948 0.080164 -0.035796 692145.000000 0 0 1
-11.863624 16.761743 33.029119 38.892472 -0.954868 0.556248 0.066362 -0.042153 -1060680.000000 0 0 1
-13.179724 16.151243 32.529108 38.635614 -0.886364 0.569916 0.080414 -0.045105 -216629.000000 0 0 1
-13.161824 14.741143 32.448161 37.992343 -0.841938 0.547034 0.083041 -0.045242 -69228.500000 0 0 1
-14.455224 14.332443 32.801891 38.604877 -0.781133 0.555413 0.074495 -0.033966 -278252.000000 0 0 1
-14.818724 12.826243 32.577534 38.018454 -0.713449 0.541595 0.080129 -0.029448 -54447.300000 0 0 1
-14.908224 12.337143 31.255253 36.760728 -0.691309 0.554365 0.053526 -0.027279 149918.000000 0 0 1
-13.649124 11.958443 30.738356 35.695231 -0.719471 0.533301 0.066696 -0.017846 -130846.000000 0 0 1
-13.711424 11.281543 29.349316 34.302460 -0.688480 0.544080 0.059443 -0.018207 -336783.000000 0 0 1
-14.515024 10.132343 29.277586 34.212971 -0.609422 0.543807 0.061738 -0.015291 46380.300000 0 0 1
-14.348324 9.505443 28.010446 32.875720 -0.585097 0.550983 0.053495 -0.015312 188574.000000 0 0 1
-15.282124 8.297443 27.813686 32.802318 -0.497415 0.558750 0.065609 -0.010493 397039.000000 0 0 1
-14.592524 7.126643 28.213456 32.553494 -0.454305 0.522288 0.052693 -0.016444 80527.200000 0 0 1
-15.261424 6.046143 27.619716 32.129670 -0.377202 0.536246 0.066541 -0.010231 -56992.900000 0 0 1
-14.546824 4.668643 27.668596 31.606290 -0.310554 0.504504 0.073740 -0.012714 -39662.800000 0 0 1
-13.574224 4.477643 26.664126 30.253669 -0.318625 0.492080 0.067868 -0.018007 -73340.400000 0 0 1
-14.096024 4.429943 25.350436 29.342238 -0.304496 0.527721 0.070900 -0.013874 -645468.000000 0 0 1
-12.972624 4.222343 24.344876 27.906812 -0.314667 0.510781 0.053553 -0.009596 -441436.000000 0 0 1
-12.319924 2.984143 24.496266 27.581746 -0.237644 0.477529 0.066664 -0.016508 -18804.100000 0 0 1
-11.507424 2.780343 23.350206 26.179826 -0.237070 0.469232 0.065238 -0.019577 -730802.000000 0 0 1
-10.593124 1.584443 23.503216 25.828781 -0.148472 0.427603 0.059566 -0.023624 -698878.000000 0 0 1
-9.311524 2.078343 23.816506 25.656383 -0.219602 0.381015 0.037011 -0.029901 -283352.000000 0 0 1
-8.456824 0.994243 24.173326 25.629204 -0.117030 0.338678 0.030177 -0.024089 97034.900000 0 0 1
-6.957924 1.342743 24.189666 25.206262 -0.190637 0.284974 0.050277 -0.033486 -317889.000000 0 0 1
-6.456024 1.729943 22.923166 23.877699 -0.261808 0.283708 0.047227 -0.027145 1087080.000000 0 1 0
-5.010624 1.756943 22.852246 23.460997 -0.337248 0.228300 0.038065 -0.023109 1066560.000000 0 1 0
-4.299124 3.017843 23.287546 23.872571 -0.612045 0.221842 0.043851 -0.025550 -727681.000000 0 1 0
-4.093424 3.011543 24.733746 25.250420 -0.634288 0.202643 0.056979 -0.025085 51550.800000 0 0 1
-3.644424 4.304043 25.084746 25.710914 -0.868195 0.221150 0.060265 -0.026792 -64313.000000 0 0 1
4.035976 -23.718357 12.672208 27.192543 -1.402248 1.086012 0.142192 -0.039567 150903.000000 0 0 1
3.747076 -24.856357 13.451208 28.509894 -1.421174 1.079456 0.156965 -0.054987 213043.000000 0 0 1
2.451376 -25.379277 13.167508 28.696693 -1.474505 1.094095 0.121368 -0.051190 316181.000000 0 0 1
1.968876 -26.634147 13.909108 30.111751 -1.497008 1.090642 0.111642 -0.038747 -152947.000000 0 0 1
1.538376 -26.397807 15.238308 30.519122 -1.512586 1.048001 0.159368 -0.051422 -4348.460000 0 0 1
1.415776 -27.606377 15.932908 31.905705 -1.519557 1.047919 0.170812 -0.054770 -89256.100000 0 0 1
1.109776 -27.337217 17.434308 32.442412 -1.530223 1.003454 0.155002 -0.058345 -88434.900000 0 0 1
2.191376 -26.734937 18.105608 32.363127 -1.489012 0.977072 0.185276 -0.056186 -85764.200000 0 0 1
2.157276 -26.903287 19.492308 33.292503 -1.490781 0.945316 0.186512 -0.054784 -384944.000000 0 0 1
3.328876 -26.232897 20.178308 33.262748 -1.444574 0.918977 0.157638 -0.051598 -478135.000000 0 0 1
2.948076 -25.036247 20.904508 32.749096 -1.453584 0.878478 0.148662 -0.042647 229369.000000 0 0 1
4.022276 -24.295457 21.473508 32.673529 -1.406728 0.853680 0.120467 -0.044400 219890.000000 0 0 1
3.504876 -23.026957 22.236508 32.202285 -1.419748 0.808581 0.134760 -0.037408 -189542.000000 0 0 1
2.828376 -22.035957 21.498308 30.915374 -1.443142 0.801831 0.131770 -0.031400 300368.000000 0 0 1
3.609776 -21.225157 20.604408 29.800661 -1.402338 0.807361 0.108515 -0.026729 212222.000000 0 0 1
2.676376 -20.302057 19.752708 28.451818 -1.439724 0.803417 0.075911 -0.026196 148888.000000 0 0 1
2.221876 -19.289257 20.576308 28.291281 -1.456115 0.756414 0.066817 -0.023043 92354.900000 0 0 1
1.663976 -18.288057 19.725108 26.949986 -1.480059 0.749668 0.061565 -0.034968 5289.560000 0 0 1
1.311476 -16.895057 20.279408 26.427586 -1.493327 0.696086 0.075131 -0.041960 1335840.000000 0 0 1
2.488676 -16.023857 20.347508 26.018812 -1.416717 0.672879 0.040630 -0.020126 1523220.000000 0 0 1
2.018276 -14.733057 20.720308 25.504266 -1.434654 0.622497 0.058189 -0.022619 260125.000000 0 0 1
3.011876 -13.603957 20.392308 24.697880 -1.352914 0.599407 0.014536 -0.006872 -387568.000000 0 1 0
3.111176 -13.154857 19.047708 23.356902 -1.338560 0.617192 0.005599 -0.012025 518803.000000 0 1 0
1.910876 -12.654257 18.424008 22.432693 -1.420922 0.607107 0.011777 -0.010370 859601.000000 0 1 0
1.135176 -11.464757 19.075908 22.284962 -1.472104 0.543316 0.006790 -0.012204 -389659.000000 0 1 0
1.880776 -10.297257 19.212308 21.878839 -1.390139 0.498872 0.011795 0.007185 -605692.000000 0 1 0
1.356176 -9.498157 20.193308 22.356741 -1.428972 0.443556 0.031508 -0.009613 987840.000000 0 1 0
-0.050624 -8.791457 20.062808 21.904532 1.565038 0.413001 0.041986 -0.023527 981482.000000 0 1 0
-0.183924 -7.914557 21.167508 22.599501 1.547562 0.357896 0.056932 -0.031252 -90251.900000 0 1 0
-1.449924 -7.274757 21.163808 22.426126 1.374065 0.337117 0.051252 -0.030053 138510.000000 0 1 0
-1.885624 -6.766257 22.523308 23.593160 1.299012 0.302300 0.043194 -0.020855 -384658.000000 0 1 0
-2.350624 -7.766357 23.380608 24.748627 1.276894 0.334046 0.048017 -0.021739 -37164.400000 0 1 0
-2.477124 -7.285357 24.668108 25.840436 1.243045 0.302375 0.054232 -0.015709 -153215.000000 0 0 1
-2.782124 -8.292457 25.756108 27.200775 1.247096 0.327378 0.053877 -0.012922 -338257.000000 0 0 1
-1.872524 -9.338857 25.793908 27.496296 1.372911 0.353732 0.074043 -0.009922 -339430.000000 0 0 1
-2.192424 -10.293457 26.777108 28.771088 1.360940 0.374488 0.081816 -0.014123 -251069.000000 0 0 1
-1.001624 -11.238157 27.072308 29.329325 1.481904 0.394872 0.108812 -0.024957 -78373.900000 0 0 1
-0.016924 -10.567357 27.814708 29.754450 1.569195 0.363077 0.114575 -0.027119 -866642.000000 0 0 1
1.136376 -11.316857 28.016008 30.236721 -1.470717 0.385646 0.150575 -0.043295 -386527.000000 0 0 1
2.122076 -10.426657 28.830508 30.731361 -1.370015 0.353560 0.188671 -0.056343 -55145.800000 0 0 1
1.741576 -10.071857 30.137008 31.823178 -1.399574 0.326987 0.190372 -0.062276 913457.000000 0 0 1
2.930076 -9.705557 30.884108 32.505558 -1.277600 0.317183 0.254389 -0.075216 782744.000000 0 0 1
2.585676 -9.459257 32.352208 33.805748 -1.303966 0.294308 0.236470 -0.081745 -325445.000000 0 0 1
2.026776 -10.600557 32.976408 34.697595 -1.381881 0.316294 0.232366 -0.078840 61274.300000 0 0 1
2.094976 -10.679357 -32.980901 34.730065 -1.377086 2.822867 0.198858 -0.078139 310155.000000 0 0 1
3.439276 -11.246657 -32.341701 34.413682 -1.274023 2.792817 0.180548 -0.059018 1425460.000000 0 0 1
4.568976 -10.391357 -32.606801 34.526212 -1.156549 2.806583 0.169296 -0.066117 307580.000000 0 0 1
4.875976 -9.398557 -31.660501 33.384058 -1.092222 2.818859 0.175167 -0.062483 -657761.000000 0 0 1
3.909576 -8.256057 -31.352801 32.656475 -1.128540 2.858081 0.164161 -0.046087 -623722.000000 0 0 1
3.791376 -7.235157 -32.318501 33.334779 -1.088117 2.894032 0.194028 -0.057006 147135.000000 0 0 1
3.236876 -6.030157 -31.776401 32.505073 -1.078158 2.929454 0.172063 -0.032595 111430.000000 0 0 1
3.278776 -4.810557 -32.664401 33.179134 -0.972541 2.965218 0.177097 -0.035906 298429.000000 0 0 1
2.399376 -4.872557 33.601108 34.037233 -1.113226 0.160254 0.188599 -0.048300 -23032.700000 0 0 1
2.689476 -3.818657 32.736708 33.068224 -0.957191 0.141718 0.184722 -0.033450 92934.100000 0 0 1
1.798576 -3.792457 31.492608 31.771087 -1.127959 0.132499 0.204867 -0.034059 848714.000000 0 0 1
0.425876 -3.452657 31.755008 31.944995 -1.448069 0.109117 0.193036 -0.040643 790376.000000 0 0 1
-0.319424 -3.502557 30.522908 30.724873 1.479850 0.114722 0.185251 -0.036335 585972.000000 0 0 1
-1.856924 -3.541457 30.701208 30.960527 1.087868 0.129519 0.161094 -0.033348 479433.000000 0 0 1
-2.619524 -2.444857 30.219908 30.431597 0.750922 0.118019 0.141353 -0.035876 -628695.000000 0 0 1
-3.987224 -2.685157 30.310208 30.689033 0.592677 0.157286 0.102162 -0.028728 -252217.000000 0 0 1
-4.797424 -1.561957 29.561708 29.989157 0.314759 0.169041 0.056929 -0.019899 -86608.600000 0 0 1
-4.560224 -1.619657 28.190408 28.602763 0.341274 0.170008 0.059922 -0.024499 142136.000000 0 0 1
-5.368124 -0.801057 27.316408 27.850397 0.148132 0.196138 0.047301 -0.022895 157070.000000 0 0 1
-5.510624 0.702843 27.598408 28.151964 -0.126858 0.198635 0.075081 -0.029774 -153228.000000 0 0 1
-6.528124 0.867343 28.551508 29.301148 -0.132089 0.226688 0.069743 -0.029919 -435333.000000 0 0 1
-6.806824 2.240643 28.821708 29.699229 -0.318004 0.243695 0.077110 -0.029536 456047.000000 0 0 1
-8.203424 2.454943 29.534108 30.750389 -0.290776 0.282195 0.073192 -0.032214 -335189.000000 0 0 1
-9.213124 2.250243 28.675208 30.202861 -0.239553 0.319412 0.059637 -0.027483 -1487940.000000 0 0 1
-10.427124 2.750543 29.187908 31.116304 -0.257912 0.353906 0.063479 -0.023894 -252902.000000 0 0 1
-11.613124 2.494543 28.253308 30.648602 -0.211589 0.397978 0.062808 -0.014975 -483175.000000 0 0 1
-12.080424 1.130443 28.355108 30.841963 -0.093305 0.404326 0.065675 -0.015467 111187.000000 0 0 1
-12.322324 0.602743 27.077508 29.755578 -0.048876 0.427518 0.064856 -0.015998 -656736.000000 0 0 1
-12.695724 -0.919557 27.127708 29.965639 0.072304 0.438725 0.064276 -0.021270 426628.000000 0 0 1
-11.619424 -1.724857 27.646008 30.038108 0.147370 0.401785 0.069340 -0.023561 843393.000000 0 0 1
-10.417924 -1.763257 26.886808 28.888452 0.167663 0.374444 0.052554 -0.024630 -362037.000000 0 0 1
-10.402824 -2.557557 25.562908 27.716820 0.241071 0.396836 0.056305 -0.019541 -375258.000000 0 0 1
-11.078924 -1.957157 24.439608 26.904785 0.174852 0.431417 0.057957 -0.022833 346153.000000 0 0 1
-10.750324 -2.653157 23.274808 25.774511 0.241963 0.444056 0.057501 -0.017959 -8358.280000 0 0 1
-9.505724 -2.163957 22.505508 24.526300 0.223833 0.408778 0.035804 -0.020745 135235.000000 0 1 0
-8.254824 -2.392057 23.115908 24.661899 0.282052 0.355959 0.036985 -0.024158 -176294.000000 0 1 0
-7.277024 -2.161857 22.120708 23.387057 0.288776 0.330585 0.030330 -0.024649 -265208.000000 0 1 0
-5.801224 -2.271057 22.542208 23.387241 0.373139 0.269637 0.027600 -0.023797 128200.000000 0 1 0
-5.184924 -3.572557 22.438708 23.305412 0.603324 0.273575 0.022624 -0.025044 127726.000000 0 1 0
-5.600924 -4.507057 23.398208 24.477746 0.677599 0.298097 0.030615 -0.021821 -258204.000000 0 1 0
-5.464724 -5.993757 22.938708 24.330488 0.831535 0.339873 0.038361 -0.024608 -142820.000000 0 1 0
-6.457024 -6.381257 21.986408 23.786882 0.779497 0.391578 0.040647 -0.028589 190456.000000 0 1 0
-6.027924 -6.251157 20.663108 22.413765 0.803576 0.397856 0.029937 -0.028213 -611121.000000 0 1 0
-7.253324 -6.243157 19.744308 21.941409 0.710691 0.451336 0.041377 -0.025299 -740816.000000 0 1 0
-7.954424 -5.087657 19.953708 22.075044 0.569030 0.441987 0.037509 -0.026395 -247546.000000 0 1 0
-9.006724 -4.859557 18.991208 21.573186 0.494783 0.494270 0.052014 -0.023009 765340.000000 0 1 0
-9.613924 -3.434657 19.092908 21.650948 0.343127 0.491023 0.047803 -0.026197 223627.000000 0 1 0
-8.692324 -2.471557 18.614808 20.692418 0.277027 0.451954 0.037129 -0.026044 -319730.000000 0 1 0
-9.161924 -1.144857 18.670508 20.828812 0.124314 0.459264 0.029472 -0.018984 146996.000000 0 1 0
-8.114024 -0.056457 18.208808 19.934926 0.006958 0.419206 0.006963 -0.023078 -82772.000000 0 1 0
-7.143024 0.240043 19.177608 20.466095 -0.033593 0.356733 0.022945 -0.012741 32672.900000 0 1 0
-7.594424 1.071643 20.246708 21.650702 -0.140184 0.362107 0.037148 -0.012765 -317116.000000 0 1 0
-7.685824 2.545743 19.822108 21.411881 -0.319853 0.387775 0.037517 -0.026279 -199318.000000 0 1 0
-8.702424 2.821643 18.900408 20.998078 -0.313541 0.450793 0.029662 -0.031604 -317501.000000 0 1 0
-8.668724 4.218743 18.572608 20.925734 -0.452921 0.478799 0.029295 -0.026440 -528912.000000 0 1 0
-9.568924 4.741343 17.491608 20.493926 -0.460036 0.548127 0.021019 -0.016269 -1088960.000000 0 1 0
-10.900124 4.850443 17.901208 21.512619 -0.418680 0.587866 0.024024 -0.009038 -465675.000000 0 1 0
-11.653924 5.653443 16.989608 21.364039 -0.451665 0.651388 0.021308 0.004636 -258330.000000 0 1 0
-11.492724 7.201343 17.018908 21.762015 -0.559749 0.672853 0.019547 0.007658 -538785.000000 0 1 0
-10.224624 7.658443 16.582408 20.932533 -0.642873 0.656418 0.007854 -0.001894 458079.000000 0 1 0
-10.359924 9.076443 16.504208 21.496482 -0.719459 0.695453 0.000310 -0.007899 264168.000000 0 1 0
-9.059324 9.827343 16.871608 21.524386 -0.826040 0.669975 0.009421 -0.002630 113385.000000 0 1 0
-9.051024 10.321643 18.226308 22.817880 -0.850893 0.645543 0.038106 0.016250 -175524.000000 0 1 0
-8.583224 11.668443 18.460508 23.465180 -0.936580 0.665320 0.073695 0.007056 -268164.000000 0 1 0
-9.282824 12.869243 17.783008 23.833246 -0.945905 0.728546 0.077493 -0.003544 -136455.000000 0 1 0
-9.105524 12.886643 16.368108 22.735239 -0.955664 0.767074 0.069016 -0.022594 -107896.000000 0 1 0
-9.731224 13.980343 15.723308 23.181224 -0.962716 0.825380 0.073370 -0.038815 -394681.000000 0 1 0
-9.233124 14.261043 14.263608 22.182841 -0.996225 0.872385 0.073709 -0.036909 520721.000000 0 1 0
-8.029424 15.026843 14.293208 22.239008 -1.080057 0.872767 0.065706 -0.023033 262241.000000 0 1 0
-7.492724 15.321643 13.033508 21.465461 -1.115964 0.918283 0.046991 -0.039254 -104835.000000 0 1 0
-6.512824 16.505543 12.863008 21.915903 -1.194968 0.943540 0.019319 -0.031667 -82221.800000 0 1 0
-5.212124 16.198443 13.275908 21.582528 -1.259491 0.908254 0.010357 -0.026333 -1023760.000000 0 1 0
-4.466824 17.372343 13.289708 22.324139 -1.319125 0.933149 0.008903 -0.026736 1481460.000000 0 1 0
-2.902124 17.120543 13.528908 22.012875 -1.402881 0.908929 0.017576 -0.023255 1444830.000000 0 1 0
-2.382824 16.624843 14.766208 22.363009 -1.428437 0.849583 0.028231 -0.022821 -189047.000000 0 1 0
-2.711224 15.320143 15.113008 21.690102 -1.395639 0.799912 0.028739 -0.019699 -1194280.000000 0 1 0
-1.741724 14.602443 16.023608 21.749045 -1.452081 0.742545 0.033782 -0.018802 -357264.000000 0 1 0
-0.465724 14.391243 15.456808 21.124339 -1.538446 0.749975 0.032574 -0.026543 -254295.000000 0 1 0
0.516476 13.796443 16.250008 21.323024 1.533378 0.704265 0.034829 -0.020321 94339.800000 0 1 0
1.441976 14.743243 17.043508 22.581490 1.473301 0.715515 0.036409 -0.019840 -426403.000000 0 1 0
0.787476 15.557943 17.974608 23.785631 1.520224 0.714086 0.021470 -0.021983 -824847.000000 0 1 0
1.643776 16.507643 18.493108 24.843496 1.471547 0.731184 0.042727 -0.023819 -606562.000000 0 1 0
0.880976 17.754343 19.071208 26.071129 1.521217 0.750267 0.049352 -0.027121 629660.000000 0 0 1
0.192776 18.692843 18.206908 26.095039 1.560484 0.798593 0.031976 -0.023181 386838.000000 0 0 1
-0.928024 18.080243 17.569608 25.227912 -1.519513 0.800378 0.032821 -0.018019 -448378.000000 0 0 1
-1.520024 19.041243 16.479408 25.227967 -1.491137 0.858967 0.025193 -0.014558 -65194.000000 0 0 1
-2.016624 20.264943 17.033008 26.549163 -1.471610 0.874260 0.020432 -0.006751 -104362.000000 0 0 1
-2.801124 20.977843 16.131308 26.610812 -1.438054 0.919530 0.026283 -0.012418 -417162.000000 0 0 1
-3.505024 22.229143 16.765708 28.062590 -1.414407 0.930492 0.028326 -0.006445 -183871.000000 0 0 1
-4.562524 21.789443 17.577608 28.364921 -1.364387 0.902442 0.042537 -0.009175 -128345.000000 0 0 1
-5.148024 22.847543 18.342408 29.748215 -1.349177 0.906394 0.052025 -0.013827 310173.000000 0 0 1
-6.246924 22.490443 19.366808 30.330139 -1.299867 0.878205 0.049781 -0.014208 159886.000000 0 0 1
-7.526724 22.310143 18.816408 30.140525 -1.245419 0.896575 0.040209 -0.015063 -148204.000000 0 0 1
-8.485424 21.761543 19.713608 30.564580 -1.199003 0.869796 0.023064 -0.009200 1143470.000000 0 0 1
-9.963024 22.006143 19.229708 30.875781 -1.145668 0.898469 0.037369 -0.017552 721474.000000 0 0 1
-10.404924 23.330043 19.331508 32.035302 -1.151284 0.922983 0.047325 -0.018347 20516.300000 0 0 1
-11.655724 23.527543 18.718308 32.245562 -1.110829 0.951463 0.038866 -0.021585 12795.600000 0 0 1
-12.421924 24.865243 18.814308 33.564307 -1.107493 0.975752 0.041990 -0.025519 60090.100000 0 0 1
-13.024524 25.154443 20.092408 34.728794 -1.093024 0.953844 0.043834 -0.022798 310264.000000 0 0 1
-13.465424 26.485043 20.201208 35.928595 -1.100438 0.973680 0.039467 -0.016478 -625908.000000 0 0 1
-14.357524 26.761443 21.420908 37.164077 -1.078377 0.956495 0.067524 -0.027064 697655.000000 0 0 1
-15.678124 26.170943 21.271608 37.191439 -1.031064 0.961916 0.072494 -0.027318 1127420.000000 0 0 1
-16.443824 26.579443 22.423408 38.466549 -1.016764 0.948463 0.066947 -0.019158 183436.000000 0 0 1
-17.856924 25.955143 22.314108 38.606458 -0.968175 0.954534 0.096471 -0.013251 41989.700000 0 0 1
-17.911424 24.558543 22.527508 37.834241 -0.940652 0.933000 0.104338 -0.014758 -56400.000000 0 0 1
-19.243824 24.154043 22.748108 38.356473 -0.898063 0.935929 0.124934 -0.011681 128275.000000 0 0 1
28.763676 23.398943 23.302436 43.793414 0.682912 1.009718 0.102139 -0.028212 -92640.800000 0 0 1
28.278276 22.790443 24.467936 43.792066 0.678349 0.977943 0.112590 -0.049772 72576.100000 0 0 1
28.040776 21.416443 24.316026 42.851118 0.652250 0.967386 0.118815 -0.038957 -233736.000000 0 0 1
27.459076 20.738343 25.563826 42.867108 0.646850 0.931849 0.135577 -0.047002 586177.000000 0 0 1
26.220476 21.380643 25.901676 42.609178 0.684072 0.917396 0.137424 -0.041821 445036.000000 0 0 1
25.635076 20.805343 27.041316 42.676131 0.681772 0.884547 0.133733 -0.046684 779143.000000 0 0 1
24.231276 21.362343 27.484496 42.413464 0.722557 0.865823 0.159098 -0.046974 578490.000000 0 0 1
24.320476 22.698943 27.970426 43.463459 0.750925 0.871683 0.173860 -0.059550 319677.000000 0 0 1
23.465176 22.890543 29.103006 43.835789 0.773003 0.844761 0.196874 -0.048043 165640.000000 0 0 1
23.193076 24.372943 29.439456 44.706160 0.810198 0.851959 0.184287 -0.033129 -379564.000000 0 0 1
22.351176 25.052243 28.538176 44.063788 0.842317 0.866292 0.172526 -0.043606 318877.000000 0 0 1
21.682976 26.181743 29.137426 44.773036 0.879112 0.862184 0.146709 -0.035323 696084.000000 0 0 1
20.356376 25.943943 29.924516 44.530292 0.905498 0.833885 0.139399 -0.033544 764933.000000 0 0 1
19.218676 25.680243 29.038916 43.267667 0.928330 0.835043 0.140684 -0.033889 2250110.000000 0 0 1
17.909476 25.891543 29.637866 43.237998 0.965655 0.815563 0.118153 -0.030653 1513650.000000 0 0 1
17.396276 24.770243 30.634186 43.065633 0.958525 0.779397 0.083969 -0.037139 -479985.000000 0 0 1
18.001276 24.802543 31.929502 44.257261 0.942975 0.764899 0.096432 -0.030887 354711.000000 0 0 1
17.374276 23.936143 32.865284 44.214605 0.942925 0.732787 0.085379 -0.030197 400756.000000 0 0 1
18.221376 23.918943 -33.174302 44.773527 0.919788 2.405259 0.122037 -0.038406 323526.000000 0 0 1
18.452576 25.209243 -32.594152 45.148447 0.938930 2.377388 0.111693 -0.041758 145450.000000 0 0 1
18.586776 25.212643 -31.216562 44.222385 0.935537 2.354489 0.085210 -0.025426 -85510.000000 0 0 1
18.903676 26.576943 -30.597802 44.720335 0.952539 2.324307 0.079907 -0.025588 374984.000000 0 0 1
17.725576 27.400743 -30.576972 44.720778 0.996603 2.323659 0.097178 -0.018103 683014.000000 0 0 1
17.811476 28.615043 -29.804702 44.993218 1.014032 2.294850 0.099208 -0.019579 -146507.000000 0 0 1
17.232776 28.529943 -28.388382 43.781577 1.027423 2.276289 0.109799 -0.033008 113276.000000 0 0 1
18.021476 27.667943 -27.564362 43.012588 0.993474 2.266394 0.091620 -0.030518 445369.000000 0 0 1
17.841476 28.169943 -26.226592 42.422849 1.006214 2.237271 0.070915 -0.024932 120631.000000 0 0 1
18.555276 27.246943 -25.185742 41.485127 0.972933 2.223206 0.066808 -0.019023 2067020.000000 0 0 1
20.006476 27.118243 -25.275742 42.125068 0.935182 2.214318 0.073642 -0.019279 1288010.000000 0 0 1
20.660876 26.555243 -24.159192 41.421242 0.909594 2.193528 0.074088 -0.016024 -121765.000000 0 0 1
22.181076 26.590343 -24.308492 42.307792 0.875560 2.182866 0.076498 -0.015016 -331806.000000 0 0 1
22.886676 25.855343 -23.354692 41.686213 0.846229 2.165484 0.077257 -0.015927 -596161.000000 0 0 1
24.270976 25.924843 -23.539192 42.606001 0.818335 2.156139 0.090071 -0.011778 -1763.600000 0 0 1
25.075676 25.823743 -22.188592 42.284617 0.800094 2.123210 0.118295 -0.017416 337282.000000 0 0 1
24.738076 24.641643 -21.485892 40.997884 0.783445 2.122423 0.120794 -0.021972 217996.000000 0 0 1
25.520676 24.596543 -20.306792 40.849243 0.766961 2.091068 0.119298 -0.016964 104827.000000 0 0 1
24.927676 23.714543 -19.160992 39.381622 0.760463 2.078929 0.110396 -0.015850 -459469.000000 0 0 1
25.397276 22.393343 -19.296992 38.972520 0.722625 2.088796 0.117887 -0.012091 5692.600000 0 0 1
24.791876 21.537543 -18.364292 37.626455 0.715270 2.080672 0.116057 -0.017787 -795434.000000 0 0 1
24.677276 20.089643 -18.700192 36.908791 0.683276 2.102102 0.116750 -0.021206 913047.000000 0 0 1
23.692276 19.703243 -19.691092 36.568850 0.693733 2.139412 0.117143 -0.020894 776424.000000 0 0 1
22.319076 19.880043 -19.412592 35.639949 0.727664 2.146811 0.110684 -0.028691 -156435.000000 0 0 1
21.416976 19.613043 -20.674492 35.648183 0.741460 2.189475 0.088922 -0.015892 192480.000000 0 0 1
21.675876 20.403243 -21.853692 36.928577 0.755164 2.204065 0.092400 -0.013691 -59367.200000 0 0 1
21.653076 21.849243 -21.755292 37.676755 0.789907 2.186361 0.089878 -0.010242 51669.800000 0 0 1
21.075976 22.567443 -23.021292 38.515791 0.819559 2.211439 0.086329 -0.018494 1487400.000000 0 0 1
19.628376 22.513843 -22.988092 37.690830 0.853761 2.226746 0.086516 -0.011498 788520.000000 0 0 1
19.099076 23.002843 -24.231692 38.484807 0.877856 2.251890 0.088668 -0.014418 143057.000000 0 0 1
17.557376 22.932943 -24.292792 37.740178 0.917388 2.270100 0.077835 -0.015860 273085.000000 0 0 1
16.895776 23.904043 -23.461192 37.513971 0.955510 2.246439 0.070022 -0.022877 535493.000000 0 0 1
15.487276 23.859543 -23.689292 37.017780 0.995053 2.265221 0.073038 -0.019296 585464.000000 0 0 1
14.757176 25.072843 -23.051192 37.118448 1.038822 2.240836 0.081330 -0.019610 -5492.960000 0 0 1
15.071876 26.313743 -23.638792 38.449538 1.050635 2.232929 0.071518 -0.018855 225623.000000 0 0 1
14.071776 27.290843 -23.361092 38.581675 1.094729 2.221187 0.092189 -0.023152 274640.000000 0 0 1
14.442376 28.660143 -23.916792 40.024979 1.104019 2.211234 0.086869 -0.029798 23210.100000 0 0 1
14.410776 28.627243 -25.364822 40.872530 1.104437 2.240283 0.088304 -0.045781 -68722.800000 0 0 1
13.823276 29.758143 -25.974852 41.848811 1.135933 2.240410 0.122373 -0.052728 7259.930000 0 0 1
14.727076 31.007243 -25.942472 43.027291 1.127384 2.217966 0.122636 -0.045328 231911.000000 0 0 1
15.889976 30.994043 -26.753372 43.918845 1.097058 2.225791 0.097514 -0.027000 -328056.000000 0 0 1
16.525776 32.196943 -26.689422 44.967429 1.096588 2.206232 0.094342 -0.035779 -58087.800000 0 0 1
18.016076 32.134043 -27.128582 45.750800 1.059810 2.205531 0.089517 -0.010841 149721.000000 0 0 1
18.842376 31.405943 -26.230802 45.049122 1.030405 2.192316 0.044449 -0.007905 21011.500000 0 0 1
20.082676 31.170243 -26.868362 45.790903 0.998446 2.197851 0.060505 -0.000826 -785452.000000 0 0 1
20.991076 30.218943 -26.042072 45.077703 0.963681 2.186723 0.033723 -0.000524 -614614.000000 0 0 1
21.459076 30.684543 -24.824992 44.925642 0.960510 2.156252 0.033492 -0.003959 -328998.000000 0 0 1
22.294576 31.779343 -24.893792 46.115893 0.959036 2.141007 0.025746 -0.003175 44432.800000 0 0 1
23.839876 31.617643 -25.185342 46.928845 0.924737 2.137283 0.018170 0.005654 799992.000000 0 0 1
24.126576 31.099243 -26.443772 47.418642 0.910991 2.162368 0.022945 0.009135 -110343.000000 0 0 1
25.255176 31.686443 -27.044692 48.716218 0.897866 2.159337 0.019002 0.025690 -623955.000000 0 0 1
25.554476 31.246543 -28.500462 49.413096 0.885275 2.185577 0.018439 0.019794 149790.000000 0 0 1
24.651076 31.724643 -29.507702 49.848099 0.910218 2.204275 0.037740 0.006796 463359.000000 0 0 1
23.393776 31.050843 -29.464132 48.780720 0.925121 2.219322 0.033275 0.001117 -117763.000000 0 0 1
22.343976 31.817143 -30.277332 49.277791 0.958554 2.232449 0.043373 0.001092 -1295640.000000 0 0 1
21.800376 32.955543 -29.718182 49.441830 0.986373 2.215640 0.070880 -0.003176 385739.000000 0 0 1
20.693376 33.535543 -30.409832 49.775560 1.017929 2.228043 0.077507 -0.013030 156104.000000 0 0 1
19.343976 32.834143 -30.297792 48.684973 1.038399 2.242504 0.086632 -0.024684 -1313490.000000 0 0 1
19.132776 31.546243 -30.833602 48.082633 1.025612 2.266939 0.102061 -0.031317 -62881.600000 0 0 1
19.362676 31.231543 -32.258752 48.897337 1.015821 2.291248 0.117011 -0.030011 -412216.000000 0 0 1
18.460976 31.885143 -33.319802 49.675740 1.045973 2.306010 0.131184 -0.036061 -416063.000000 0 0 1
18.787276 33.235043 -33.485032 50.781662 1.056294 2.290806 0.116129 -0.027951 -75322.800000 0 0 1
18.451076 -33.767762 32.689631 50.490751 -1.070713 0.866578 0.102207 -0.025122 668401.000000 0 0 1
16.952276 -33.293562 32.591687 49.578816 -1.099835 0.853471 0.112022 -0.031449 433190.000000 0 0 1
16.079476 33.251543 32.585932 49.255027 1.120378 0.847878 0.129270 -0.029118 -184568.000000 0 0 1
14.703376 33.497543 32.363612 48.843403 1.157179 0.846512 0.116443 -0.033278 552818.000000 0 0 1
14.314376 33.794643 30.874306 47.960422 1.170138 0.871414 0.089290 -0.034821 -650275.000000 0 0 1
14.739076 -32.538862 30.577156 47.021063 -1.145477 0.862835 0.100117 -0.025077 -141346.000000 0 0 1
14.212376 -32.037562 29.416436 45.757226 -1.153264 0.872543 0.077836 -0.019833 -317391.000000 0 0 1
14.575476 -30.546662 29.150216 44.668537 -1.125592 0.859799 0.081996 -0.013208 -57530.000000 0 0 1
14.160976 -29.699762 30.217196 44.673125 -1.125877 0.827924 0.083740 -0.012673 530305.000000 0 0 1
14.736076 -28.408462 30.027516 43.884444 -1.092284 0.817235 0.087746 -0.019079 -438963.000000 0 0 1
14.200976 -27.390662 31.060496 43.779796 -1.092490 0.782049 0.101062 -0.021909 260767.000000 0 0 1
12.837776 -27.039662 30.853246 42.986912 -1.127531 0.770251 0.093621 -0.017987 383109.000000 0 0 1
12.514476 -26.113062 29.827336 41.571314 -1.123893 0.770593 0.090307 -0.015821 -495017.000000 0 0 1
12.879976 -24.627762 30.159966 41.012730 -1.088929 0.744568 0.099640 -0.017537 -41248.200000 0 0 1
12.086576 -24.121262 31.222346 41.264458 -1.106289 0.712637 0.101636 -0.020695 131116.000000 0 0 1
12.464676 -22.827662 31.622491 40.944502 -1.071003 0.688302 0.100717 -0.022479 287701.000000 0 0 1
11.563376 -22.256862 32.772645 41.268946 -1.091638 0.653232 0.092006 -0.023827 12642.100000 0 0 1
11.723676 -22.864362 -33.326512 42.081826 -1.097002 2.484785 0.099870 -0.024002 1654450.000000 0 0 1
13.032976 -22.944762 -32.661722 41.989387 -1.054227 2.462044 0.094624 -0.023718 1846260.000000 0 0 1
13.774276 -21.682962 -32.098342 41.111861 -1.004854 2.466672 0.090870 -0.028459 117808.000000 0 0 1
14.067476 -20.826962 -33.148742 41.599223 -0.976741 2.492876 0.078137 -0.026486 517807.000000 0 0 1
14.974076 -19.770362 -32.766492 41.094199 -0.922576 2.493689 0.065155 -0.031217 355240.000000 0 0 1
15.058776 -18.658862 33.524736 41.216839 -0.891767 0.620866 0.048241 -0.029414 -389928.000000 0 0 1
15.869876 -19.067862 32.421119 40.823588 -0.876678 0.653146 0.064169 -0.016543 411990.000000 0 0 1
15.764476 -18.180462 31.284186 39.468319 -0.856452 0.655669 0.042201 -0.009522 -90886.100000 0 0 1
16.551376 -16.859562 31.343999 39.250977 -0.794622 0.645908 0.050953 -0.014642 -681977.000000 0 0 1
16.065576 -16.010162 32.370926 39.526003 -0.783671 0.611169 0.046288 -0.018916 124494.000000 0 0 1
16.674776 -14.745862 32.539383 39.424613 -0.724085 0.599962 0.076308 -0.028338 -299249.000000 0 0 1
18.124976 -14.631162 33.065421 40.446356 -0.679139 0.613717 0.081611 -0.019189 912256.000000 0 0 1
19.127876 -14.992962 32.089940 40.254550 -0.664802 0.648194 0.086691 -0.027121 -260943.000000 0 0 1
20.421676 -15.119162 32.582823 41.319176 -0.637296 0.662326 0.098904 -0.016942 -614643.000000 0 0 1
21.242076 -15.921162 31.549455 41.231994 -0.643188 0.699492 0.124293 -0.023492 -347812.000000 0 0 1
21.514276 -15.116962 30.426846 40.214171 -0.612501 0.712668 0.097287 -0.012166 108344.000000 0 0 1
22.080276 -15.965762 29.450376 40.121924 -0.626047 0.746571 0.088606 -0.013327 -220177.000000 0 0 1
22.374676 -15.258862 28.088976 39.018580 -0.598523 0.767157 0.074556 -0.007970 -462929.000000 0 0 1
23.346476 -14.260062 28.287706 39.352276 -0.548324 0.768674 0.064614 -0.014160 194991.000000 0 0 1
23.617476 -13.507462 27.142876 38.431399 -0.519521 0.786583 0.053052 -0.016528 193381.000000 0 0 1
24.653576 -12.395462 27.417486 38.899420 -0.465874 0.788613 0.040253 -0.014855 487145.000000 0 0 1
23.954576 -11.332962 28.102266 38.626352 -0.441899 0.756065 0.053286 -0.014923 969324.000000 0 0 1
24.745376 -10.150462 28.066746 38.769934 -0.389265 0.761313 0.052082 -0.020224 819382.000000 0 0 1
23.769676 -8.914462 28.111896 37.878013 -0.358801 0.734495 0.062211 -0.020260 692154.000000 0 0 1
23.039476 -8.750362 29.319986 38.302061 -0.362971 0.698988 0.069232 -0.026538 -521679.000000 0 0 1
22.040576 -7.822862 29.051886 37.296062 -0.341060 0.677802 0.081307 -0.028483 -992087.000000 0 0 1
20.882876 -7.678062 29.992266 37.344118 -0.352331 0.638262 0.071353 -0.026441 -883738.000000 0 0 1
21.090576 -7.180962 31.339054 38.451462 -0.328171 0.618017 0.083817 -0.034419 -239205.000000 0 0 1
21.250176 -8.292762 32.252471 39.503946 -0.372068 0.615583 0.097787 -0.039293 -329580.000000 0 0 1
21.193376 -7.821362 -33.643192 40.524033 -0.353542 2.550269 0.126582 -0.061541 174961.000000 0 0 1
19.868476 -7.607862 -33.206902 39.437726 -0.365688 2.571792 0.117031 -0.066440 226298.000000 0 0 1
19.981676 -7.086262 -31.904282 38.306210 -0.340801 2.555078 0.128632 -0.074561 564000.000000 0 0 1
18.542276 -6.964662 -31.324252 37.061183 -0.359305 2.577743 0.126231 -0.068076 393414.000000 0 0 1
18.525276 -6.226762 -30.134052 35.916841 -0.324259 2.566230 0.133371 -0.064857 574832.000000 0 0 1
17.229176 -5.953362 -29.599422 34.762232 -0.332696 2.589602 0.124966 -0.057241 474919.000000 0 0 1
17.225776 -4.706762 -28.620582 33.734532 -0.266729 2.583763 0.121059 -0.049143 67836.400000 0 0 1
17.983076 -4.925062 -27.409412 33.150009 -0.267317 2.544244 0.124477 -0.053027 390613.000000 0 0 1
17.572076 -5.962362 -26.508522 32.357833 -0.327119 2.530864 0.144855 -0.057653 1164890.000000 0 0 1
16.109676 -5.880562 -25.879012 31.045546 -0.350004 2.556357 0.149457 -0.053998 1233700.000000 0 0 1
15.871776 -4.784362 -25.038792 30.029061 -0.292776 2.556786 0.157973 -0.045970 -696298.000000 0 0 1
14.559876 -4.681062 -24.576592 28.946696 -0.311067 2.584942 0.102660 -0.041255 -762246.000000 0 0 1
14.400176 -3.506962 -23.628592 27.892189 -0.238886 2.581376 0.115792 -0.040000 -19135.800000 0 0 1
14.503876 -2.238462 -24.255492 28.349639 -0.153127 2.597474 0.092617 -0.039525 82436.600000 0 0 1
14.203276 -1.140462 -23.426492 27.419596 -0.080124 2.595134 0.098059 -0.036401 46381.100000 0 0 1
14.730176 0.219538 -23.951492 28.119393 0.014903 2.590167 0.084306 -0.029445 40253.300000 0 0 1
13.900976 0.755538 -24.971892 28.590267 0.054298 2.633020 0.075970 -0.026047 498387.000000 0 0 1
14.573676 1.877538 -25.506752 29.436569 0.128125 2.618942 0.074581 -0.010895 8393.260000 0 0 1
13.891576 2.324538 -26.815542 30.289481 0.165798 2.657954 0.056177 -0.011656 853745.000000 0 0 1
12.637876 2.998538 -26.557072 29.563241 0.232958 2.686713 0.072066 -0.023492 881250.000000 0 0 1
12.163876 3.498538 -27.784402 30.531502 0.280058 2.714138 0.078610 -0.030904 25884.800000 0 0 1
10.882576 4.354538 -27.634862 30.017962 0.380626 2.740438 0.086124 -0.032141 -126680.000000 0 0 1
11.114976 5.639538 -27.113722 29.841263 0.469536 2.710712 0.068155 -0.030296 -540650.000000 0 0 1
9.926176 6.325538 -26.979072 29.434873 0.567366 2.730209 0.076561 -0.038886 -807473.000000 0 0 1
9.039776 4.828443 -31.136422 32.779692 0.490580 2.823614 0.098105 -0.046510 -56515.900000 0 0 1
8.973776 3.947043 -29.988392 31.550142 0.414374 2.825636 0.081990 -0.031006 86820.400000 0 0 1
8.286076 2.811143 -30.370172 31.605521 0.327076 2.861080 0.069533 -0.021437 -537946.000000 0 0 1
8.204476 1.773543 -29.226222 30.407745 0.212892 2.861913 0.075991 -0.020903 -1774090.000000 0 0 1
9.383976 1.212043 -28.921942 30.430360 0.128450 2.825414 0.092215 -0.031907 -1266310.000000 0 0 1
9.229976 0.411043 -27.738912 29.237111 0.044504 2.820075 0.100920 -0.031691 168541.000000 0 0 1
10.612076 -0.022857 -27.192272 29.189661 -0.002154 2.769510 0.092687 -0.039357 197899.000000 0 0 1
11.120576 -1.109657 -28.009352 30.156630 -0.099455 2.761946 0.087650 -0.035228 1092650.000000 0 0 1
12.338776 -1.575657 -27.356682 30.051891 -0.127012 2.714840 0.086657 -0.036638 928801.000000 0 0 1
12.872176 -2.892257 -27.885082 30.848596 -0.221020 2.699676 0.074931 -0.035941 189869.000000 0 0 1
12.069876 -4.005657 -27.470502 30.271367 -0.320435 2.708030 0.080437 -0.027013 607021.000000 0 0 1
12.700176 -5.243557 -27.860782 31.064651 -0.391554 2.683425 0.094755 -0.032650 47495.500000 0 0 1
12.033376 -6.406757 -27.161752 30.390943 -0.489243 2.676422 0.087682 -0.043427 -6618.670000 0 0 1
12.068576 -6.014157 -25.827842 29.135855 -0.462312 2.660441 0.108407 -0.036091 -27796.400000 0 0 1
11.436276 -6.979457 -25.018992 28.380472 -0.547952 2.649946 0.111740 -0.041780 -6958.990000 0 0 1
11.445276 -6.520757 -23.553592 26.986780 -0.517867 2.631671 0.130355 -0.040659 649124.000000 0 0 1
12.747876 -6.649057 -22.968892 27.097754 -0.480763 2.582300 0.125070 -0.042975 554012.000000 0 0 1
12.582576 -6.401857 -21.566392 25.776234 -0.470653 2.561985 0.150266 -0.050914 -357326.000000 0 0 1
13.847376 -6.492357 -20.721892 25.754559 -0.438419 2.505783 0.153349 -0.051624 -273685.000000 0 0 1
14.644076 -5.338057 -20.732992 25.938403 -0.349551 2.496953 0.141321 -0.049571 453855.000000 0 0 1
15.892676 -5.569957 -20.064992 26.195524 -0.337096 2.443346 0.161318 -0.040711 438542.000000 0 0 1
16.486276 -4.306257 -19.483692 25.883496 -0.255494 2.423019 0.159464 -0.034035 -345064.000000 0 0 1
17.142376 -3.512857 -20.446592 26.912160 -0.202124 2.433729 0.138177 -0.035294 213035.000000 0 0 1
17.709776 -2.321757 -19.979892 26.799679 -0.130357 2.412122 0.151572 -0.019592 -67776.200000 0 0 1
18.679076 -1.595357 -20.937292 28.103794 -0.085202 2.411329 0.106522 -0.022227 452242.000000 0 0 1
19.951976 -2.228957 -21.062992 29.098096 -0.111255 2.380179 0.148017 -0.032789 256484.000000 0 0 1
20.777276 -1.442357 -21.886592 30.212555 -0.069309 2.380990 0.137561 -0.024657 -416101.000000 0 0 1
22.221076 -1.915457 -22.002392 31.329705 -0.085987 2.349399 0.089122 -0.025307 -813517.000000 0 0 1
23.027776 -1.735757 -20.820292 31.093020 -0.075234 2.304484 0.077960 -0.015412 -104094.000000 0 0 1
24.291976 -2.298857 -20.906592 32.132078 -0.094353 2.279231 0.063513 -0.021341 286598.000000 0 0 1
25.415276 -1.554257 -21.748292 33.486417 -0.061078 2.277678 0.061705 -0.025865 -655687.000000 0 0 1
25.085376 -1.403157 -23.087692 34.121642 -0.055877 2.313971 0.078251 -0.033592 143352.000000 0 0 1
25.976376 -0.627357 -23.890692 35.297745 -0.024146 2.314249 0.081397 -0.030110 264482.000000 0 0 1
27.258876 -1.370157 -24.374092 36.592622 -0.050222 2.299755 0.085608 -0.035216 -155285.000000 0 0 1
28.218376 -1.404257 -23.308992 36.627282 -0.049723 2.260597 0.065770 -0.021695 691189.000000 0 0 1
29.372776 -2.222357 -23.524992 37.697799 -0.075517 2.244701 0.055797 -0.023494 867231.000000 0 0 1
30.504476 -1.577457 -24.376392 39.079661 -0.051666 2.244342 0.067576 -0.030122 -700982.000000 0 0 1
30.138276 -1.514157 -25.745432 39.666555 -0.050198 2.277127 0.084785 -0.033262 223000.000000 0 0 1
30.858676 -0.555757 -26.461732 40.654520 -0.018008 2.279556 0.083968 -0.034769 -981645.000000 0 0 1
30.388176 -0.437757 -27.926402 41.273681 -0.014405 2.313952 0.093526 -0.043443 1902770.000000 0 0 1
29.009176 0.049543 -28.150292 40.422440 0.001708 2.341169 0.092638 -0.040320 1999680.000000 0 0 1
28.670076 1.347343 -27.694592 39.884571 0.046960 2.338338 0.075834 -0.040901 -969527.000000 0 0 1
27.238876 1.761743 -28.004892 39.106701 0.064588 2.369016 0.092159 -0.039104 -616156.000000 0 0 1
26.201476 1.200643 -27.249442 37.821832 0.045791 2.375274 0.103532 -0.030688 61132.100000 0 0 1
24.993176 1.871543 -27.567142 37.257332 0.074743 2.403736 0.093256 -0.030756 289181.000000 0 0 1
23.785976 1.550543 -26.646732 35.752275 0.065095 2.411805 0.094694 -0.029047 175455.000000 0 0 1
23.779176 2.278743 -25.449902 34.904719 0.095538 2.387839 0.107924 -0.031814 687948.000000 0 0 1
22.668476 1.832543 -24.662192 33.547604 0.080666 2.396670 0.101202 -0.022715 373938.000000 0 0 1
22.717676 2.383243 -23.215192 32.568662 0.104525 2.364290 0.092751 -0.018048 -214550.000000 0 0 1
22.533176 3.763943 -23.051792 32.454528 0.165512 2.360692 0.113989 -0.030859 397919.000000 0 0 1
22.574476 3.963943 -21.611392 31.501937 0.173822 2.326820 0.108745 -0.026431 -240048.000000 0 0 1
22.096676 5.350343 -21.127892 31.036705 0.237561 2.319567 0.121586 -0.019822 -522340.000000 0 0 1
22.998976 6.352043 -21.444292 32.080508 0.269470 2.302922 0.111652 -0.020413 -236964.000000 0 0 1
22.681476 7.684843 -20.960692 31.825411 0.326677 2.289773 0.114629 -0.026270 -446266.000000 0 0 1
22.863076 7.940443 -19.449092 31.048962 0.334271 2.247724 0.113014 -0.031125 -841418.000000 0 0 1
24.221676 8.072843 -19.172592 31.928806 0.321712 2.214897 0.111706 -0.034019 -139668.000000 0 0 1
24.563576 8.109943 -17.775092 31.386212 0.318893 2.172848 0.110354 -0.043161 -175274.000000 0 0 1
24.317376 9.556843 -17.121992 31.238288 0.374461 2.150898 0.110981 -0.046298 -1003480.000000 0 0 1
23.001276 9.924743 -16.889992 30.213094 0.407352 2.164010 0.117435 -0.050585 -716620.000000 0 0 1
22.958976 11.326543 -16.897392 30.674533 0.458304 2.154191 0.084293 -0.043548 -43931.700000 0 0 1
21.489476 11.811743 -16.679192 29.656539 0.502576 2.168096 0.084162 -0.042338 409979.000000 0 0 1
20.627176 11.632043 -17.761892 29.601851 0.513466 2.214330 0.081442 -0.040254 -43307.800000 0 0 1
20.077576 10.336843 -17.789992 28.747925 0.475453 2.238045 0.086578 -0.040788 -159407.000000 0 0 1
19.113576 10.151843 -19.044092 28.828218 0.488242 2.292422 0.104193 -0.015938 634869.000000 0 0 1
19.920176 9.873443 -20.162292 30.013602 0.460162 2.307394 0.107251 -0.015131 583756.000000 0 0 1
19.137676 9.811943 -21.350992 30.304945 0.473758 2.352569 0.094533 -0.016674 82280.600000 0 0 1
19.981476 9.852043 -22.662292 31.778949 0.458079 2.364739 0.101022 -0.012821 -128171.000000 0 0 1
20.281276 11.205843 -22.900292 32.577975 0.504777 2.350316 0.091282 -0.016468 92526.400000 0 0 1
20.941176 11.451143 -24.097292 33.916677 0.500402 2.360984 0.103537 -0.014990 -189548.000000 0 0 1
21.202376 13.006543 -24.257292 34.743735 0.550249 2.343645 0.128576 -0.016092 7562.250000 0 0 1
21.976576 13.349543 -25.397672 36.141692 0.545875 2.350017 0.135863 -0.014916 88332.400000 0 0 1
22.163676 14.711543 -25.610672 36.926475 0.585993 2.337213 0.132857 -0.008182 -76840.700000 0 0 1
21.000876 15.405743 -26.356002 37.054184 0.632907 2.362118 0.101412 -0.015087 227650.000000 0 0 1
19.772176 15.311543 -25.671162 35.838399 0.658934 2.369286 0.077297 -0.013666 -207783.000000 0 0 1
18.681276 15.788543 -26.447892 36.024424 0.701674 2.395233 0.073585 -0.018324 1340160.000000 0 0 1
17.282676 15.201143 -26.000412 34.724445 0.721407 2.416992 0.065408 -0.021724 849183.000000 0 0 1
17.056076 13.916343 -26.553192 34.491250 0.684371 2.449407 0.074813 -0.016668 -552993.000000 0 0 1
15.811776 13.401543 -26.223372 33.425721 0.703080 2.472729 0.050124 -0.017315 -690077.000000 0 0 1
15.620876 11.878143 -26.497542 32.973046 0.650125 2.504136 0.042423 -0.014903 196770.000000 0 0 1
14.278776 11.437643 -26.373992 32.098140 0.675365 2.535126 0.050048 -0.020416 290133.000000 0 0 1
14.240676 10.025643 -26.164332 31.430600 0.613415 2.554307 0.056185 -0.025529 -444901.000000 0 0 1
12.828176 9.526443 -25.868052 30.405120 0.638760 2.588263 0.083348 -0.034570 -434046.000000 0 0 1
12.327376 10.066243 -24.656592 29.346907 0.684767 2.568406 0.110823 -0.037442 -59485.400000 0 0 1
11.174876 9.321243 -24.331792 28.351358 0.695205 2.602594 0.125622 -0.038960 48609.000000 0 0 1
10.294176 9.884243 -23.171592 27.213802 0.765086 2.589568 0.133190 -0.038282 238031.000000 0 0 1
9.536076 11.047243 -23.510492 27.671674 0.858684 2.586066 0.136026 -0.040754 301270.000000 0 0 1
8.806276 11.631743 -22.437192 26.763324 0.922773 2.565057 0.140301 -0.030931 417233.000000 0 0 1
9.682876 12.626043 -21.583192 26.814347 0.916569 2.506324 0.125646 -0.031638 1032220.000000 0 0 1
10.591576 11.805643 -20.771092 26.134134 0.839551 2.489454 0.150926 -0.027246 869138.000000 0 0 1
11.341576 12.520943 -19.759992 25.997358 0.834781 2.434228 0.174689 -0.039064 391227.000000 0 0 1
12.252576 11.500243 -18.978992 25.349228 0.753735 2.416897 0.171682 -0.038730 -358980.000000 0 0 1
13.350276 10.947743 -19.629492 26.141918 0.686841 2.420193 0.140396 -0.031323 -463484.000000 0 0 1
13.079876 10.065043 -20.681092 26.459324 0.655869 2.468052 0.134226 -0.032719 -1332600.000000 0 0 1
14.234576 9.236043 -21.211792 27.163721 0.575563 2.466881 0.134294 -0.025154 -417250.000000 0 0 1
14.728876 8.298643 -20.265492 26.391238 0.513093 2.446333 0.147636 -0.041914 -326147.000000 0 0 1
15.807276 7.573743 -20.708392 27.130592 0.446813 2.439180 0.109774 -0.035313 -772190.000000 0 0 1
16.257276 6.422143 -19.754092 26.377397 0.376216 2.417200 0.167598 -0.046457 -164576.000000 0 0 1
17.305376 6.868943 -18.939692 26.558809 0.377853 2.364739 0.131411 -0.020788 -196546.000000 0 0 1
17.449576 5.999143 -17.819392 25.651669 0.331140 2.338754 0.137532 -0.041462 -170737.000000 0 0 1
18.687176 6.414743 -16.988592 26.057086 0.330667 2.280984 0.185372 -0.025438 132039.000000 0 0 1
19.898876 6.080143 -17.657092 27.289307 0.296543 2.274483 0.155979 -0.039682 519682.000000 0 0 1
20.989076 6.440843 -16.798792 27.644623 0.297744 2.223919 0.143224 -0.058055 242420.000000 0 0 1
22.070176 5.323543 -16.693492 28.179876 0.236689 2.204819 0.140691 -0.058797 -636251.000000 0 0 1
23.105476 5.651043 -15.799892 28.555803 0.239867 2.157116 0.123230 -0.057123 655813.000000 0 0 1
23.844776 4.534743 -15.247592 28.664024 0.187933 2.131688 0.187827 -0.069273 275344.000000 0 0 1
24.908676 3.914943 -16.217592 29.979646 0.155897 2.142367 0.078779 -0.017067 -194685.000000 0 0 1
25.696376 3.029643 -15.407292 30.114234 0.117360 2.107875 0.091574 -0.025895 290984.000000 0 0 1
26.779376 2.502543 -16.135692 31.364920 0.093180 2.111163 0.063997 -0.027928 8831.100000 0 0 1
27.472476 1.332243 -15.431992 31.538202 0.048456 2.082096 0.079167 -0.039563 974.182000 0 0 1
26.765376 0.130643 -15.604092 30.982093 0.004881 2.098613 0.097417 -0.039711 206425.000000 0 0 1
27.712376 -0.934157 -15.635692 31.832739 -0.033696 2.084243 0.100118 -0.027101 -584.132000 0 0 1
27.109276 -2.288957 -15.951492 31.537315 -0.084235 2.101102 0.080589 -0.027180 8462.900000 0 0 1
26.481676 -2.990757 -14.846392 30.506378 -0.112460 2.079065 0.095267 -0.026495 647373.000000 0 0 1
25.973276 -4.247557 -15.314692 30.449837 -0.162101 2.097803 0.087101 -0.024987 -700158.000000 0 0 1
25.266276 -5.171857 -14.261492 29.470713 -0.201905 2.075926 0.103552 -0.029949 1450170.000000 0 0 1
24.042376 -4.737757 -13.622892 28.036857 -0.194566 2.078180 0.146614 -0.018875 1485830.000000 0 0 1
22.955676 -4.376057 -14.499892 27.501996 -0.188371 2.126134 0.159381 -0.031398 157599.000000 0 0 1
21.645176 -4.083457 -13.686092 25.932554 -0.186463 2.126754 0.181676 -0.034851 191344.000000 0 0 1
20.962376 -5.288057 -13.290092 25.377377 -0.247109 2.121983 0.189885 -0.030619 325587.000000 0 0 1
21.432576 -5.872757 -12.132592 25.318854 -0.267446 2.070530 0.212644 -0.023183 -504615.000000 0 0 1
21.122476 -7.380657 -11.988192 25.384047 -0.336160 2.062664 0.177283 -0.006646 -330578.000000 0 0 1
19.826776 -7.571957 -11.504892 24.141212 -0.364811 2.067541 0.173345 -0.002503 72187.200000 0 1 0
19.234576 -8.789657 -11.930492 24.280931 -0.428636 2.084438 0.150899 -0.016402 -205713.000000 0 1 0
17.879476 -9.117257 -11.279192 23.022167 -0.471559 2.082803 0.147088 -0.030367 -274626.000000 0 1 0
16.847876 -8.266257 -11.691192 22.110312 -0.456132 2.127943 0.135630 -0.020668 246896.000000 0 1 0
15.583676 -8.929257 -11.814192 21.497854 -0.520321 2.152624 0.127141 -0.020397 578544.000000 0 1 0
14.486176 -8.010957 -12.391892 20.678097 -0.505149 2.213393 0.093189 -0.008548 -308040.000000 0 1 0
14.540676 -7.564557 -13.774992 21.410375 -0.479704 2.269701 0.100395 -0.006320 72178.500000 0 1 0
15.611576 -6.669057 -13.905792 21.944673 -0.403721 2.257091 0.109212 -0.002502 -247044.000000 0 1 0
15.330976 -5.563957 -14.964692 22.134553 -0.348140 2.313224 0.100620 -0.007240 -280977.000000 0 1 0
14.344176 -4.773157 -14.378592 20.863420 -0.321234 2.331149 0.103165 -0.011375 -15175.200000 0 1 0
13.776476 -3.697557 -15.146692 20.805900 -0.262217 2.386196 0.086487 -0.021887 -374103.000000 0 1 0
14.665276 -2.460857 -15.389492 21.400061 -0.166253 2.373350 0.120784 -0.027589 -1556750.000000 0 1 0
15.672176 -2.767257 -16.280892 22.767131 -0.174770 2.367571 0.117330 -0.023922 -900004.000000 0 1 0
16.664876 -1.812557 -16.340892 23.410002 -0.108339 2.343439 0.120904 -0.027823 -572902.000000 0 1 0
17.824076 -2.012357 -15.355692 23.612381 -0.112425 2.278807 0.160711 -0.029984 -910778.000000 0 1 0
17.403076 -2.055157 -13.977992 22.415954 -0.117547 2.244102 0.142769 -0.021167 -232100.000000 0 1 0
18.377876 -2.621857 -13.154392 22.752109 -0.141708 2.187270 0.146570 -0.017602 -705630.000000 0 1 0
17.991276 -2.710257 -11.679592 21.620462 -0.149519 2.141483 0.149439 -0.012569 -381803.000000 0 1 0
17.968076 -1.472257 -11.019692 21.129432 -0.081755 2.119443 0.146404 -0.016819 709981.000000 0 1 0
17.655276 -1.709857 -9.639892 20.188112 -0.096546 2.068607 0.133155 -0.018263 -636770.000000 0 1 0
17.581176 -0.415657 -8.782792 19.657262 -0.023638 2.033977 0.117908 -0.016782 823667.000000 0 1 0
18.826076 0.012643 -8.155792 20.516779 0.000672 1.979607 0.135063 -0.012712 2236120.000000 0 1 0
19.834676 0.694343 -8.953492 21.772953 0.034992 1.994589 0.164021 -0.009926 442567.000000 0 1 0
19.500476 1.996143 -9.666792 21.856349 0.102009 2.028944 0.167393 -0.017426 -644675.000000 0 1 0
19.253576 3.104643 -8.790692 21.391944 0.159874 1.994275 0.130282 -0.010088 523297.000000 0 1 0
18.718976 4.133943 -9.591292 21.435541 0.217354 2.034706 0.127014 -0.021559 -355505.000000 0 1 0
18.855476 5.555643 -8.949292 21.598240 0.286535 1.998028 0.119976 -0.008956 -187953.000000 0 1 0
17.960676 6.561143 -9.441392 21.325439 0.350245 2.029436 0.088661 -0.021196 738891.000000 0 1 0
18.513476 7.874743 -9.436092 22.221615 0.402169 2.009356 0.119270 -0.004562 -144542.000000 0 1 0
-27.498574 -28.560067 5.100908 39.973345 0.804331 1.442840 0.143604 -0.019668 139876.000000 0 0 1
-27.826924 -27.612097 6.090508 39.671903 0.781523 1.416665 0.118460 -0.013983 -314198.000000 0 0 1
-26.933044 -26.553447 5.924908 38.282881 0.778301 1.415405 0.149935 -0.022104 -520900.000000 0 0 1
-27.068564 -25.402857 7.017608 37.779083 0.753664 1.383957 0.114016 -0.020666 -642412.000000 0 0 1
-28.203414 -24.594657 6.939308 38.058951 0.717154 1.387440 0.100371 -0.021296 -251085.000000 0 0 1
-29.449854 -25.147007 7.312308 39.409843 0.706749 1.384170 0.094211 -0.016881 5887.160000 0 0 1
-29.732624 -25.344907 8.814308 40.051034 0.705902 1.348903 0.089924 -0.013510 -364138.000000 0 0 1
-28.783594 -26.184767 9.453808 40.043874 0.738155 1.332460 0.088211 -0.014305 -262507.000000 0 0 1
-29.096344 -26.473607 10.802308 40.793860 0.738236 1.302797 0.058586 -0.016079 -401592.000000 0 0 1
-28.120924 -27.405237 11.552608 40.930382 0.772510 1.284657 0.047374 -0.018859 1448610.000000 0 0 1
-26.823704 -26.908787 11.985208 39.840170 0.786982 1.265231 0.056030 -0.018653 901659.000000 0 0 1
-26.943234 -25.966757 13.056408 39.631807 0.766945 1.235083 0.044155 -0.018297 504985.000000 0 0 1
-25.538014 -25.416247 13.519808 38.483256 0.783008 1.211819 0.072015 -0.024316 1317900.000000 0 0 1
-24.740224 -26.423507 14.187608 38.878897 0.818286 1.197252 0.070183 -0.027991 108274.000000 0 0 1
-23.534424 -25.900997 14.717208 37.964812 0.833234 1.172711 0.088921 -0.031428 175008.000000 0 0 1
-22.721624 -27.076347 15.390908 38.552313 0.872624 1.160129 0.080852 -0.033186 89999.200000 0 0 1
-23.457124 -27.808227 16.423808 39.915857 0.870069 1.146740 0.078585 -0.022977 18139.700000 0 0 1
-22.811624 -28.937787 16.854208 40.519502 0.903231 1.141806 0.074245 -0.018681 -159716.000000 0 0 1
-23.730624 -29.844677 17.745008 42.056303 0.899027 1.135218 0.088101 -0.022769 345370.000000 0 0 1
-24.750124 -30.522377 17.033208 42.828896 0.889454 1.161784 0.062402 -0.019158 249242.000000 0 0 1
-25.320344 -31.571087 17.804508 44.213729 0.894831 1.156341 0.072049 -0.014264 -38303.700000 0 0 1
-26.297164 -32.460907 17.031208 45.114448 0.889916 1.183689 0.062361 -0.024700 161853.000000 0 0 1
-25.574974 -33.216777 16.060308 44.892840 0.914654 1.204942 0.062865 -0.026301 568612.000000 0 0 1
-26.384304 33.415457 15.499608 45.309625 -0.902439 1.221665 0.064226 -0.030174 -477827.000000 0 0 1
-25.742444 32.735901 14.269108 44.021814 -0.904423 1.240697 0.078302 -0.039806 813103.000000 0 0 1
-24.554124 31.934575 14.467008 42.802061 -0.915316 1.226008 0.061924 -0.027291 793205.000000 0 0 1
-23.395724 32.748760 14.486308 42.774927 -0.950471 1.225300 0.059615 -0.023656 -845657.000000 0 0 1
-22.118124 31.902197 14.448008 41.421088 -0.964574 1.214497 0.075448 -0.032080 -313508.000000 0 0 1
-21.998024 31.271439 13.201308 40.448615 -0.957756 1.238333 0.064020 -0.024346 -421612.000000 0 0 1
-20.893424 30.436069 13.050408 39.156131 -0.969209 1.231004 0.072316 -0.028764 -284662.000000 0 0 1
-20.838024 29.745299 11.645708 38.139593 -0.959702 1.260496 0.075784 -0.028713 146223.000000 0 0 1
-20.300724 30.614549 10.674208 38.253218 -0.985262 1.288001 0.064674 -0.021998 28026.300000 0 0 1
-20.725724 30.142019 9.376108 37.762526 -0.968439 1.319880 0.079198 -0.029949 325643.000000 0 0 1
-19.918424 30.822279 8.254008 37.614959 -0.997073 1.349562 0.068959 -0.030698 -462575.000000 0 0 1
-18.615124 30.395799 8.045708 36.539853 -1.021291 1.348787 0.074033 -0.035768 -920464.000000 0 0 1
-18.079824 30.965979 6.879408 36.511616 -1.042328 1.381246 0.091784 -0.036517 11412.900000 0 0 1
-17.390424 29.839739 6.035908 35.060933 -1.043124 1.397780 0.108875 -0.045437 -516743.000000 0 0 1
-18.193424 28.767519 5.609608 34.496935 -1.006872 1.407459 0.106105 -0.031552 -256091.000000 0 0 1
-18.522324 27.785859 6.581408 34.035942 -0.982833 1.376204 0.084390 -0.029480 -173733.000000 0 0 1
-19.760024 27.001199 6.106708 34.011986 -0.939032 1.390272 0.077521 -0.017578 74304.500000 0 0 1
-19.483824 26.241469 4.940908 33.055206 -0.932124 1.420760 0.093664 -0.028696 863833.000000 0 0 1
-20.735824 25.850909 4.351208 33.424196 -0.894757 1.440244 0.096458 -0.027044 328397.000000 0 0 1
-20.561924 25.003479 3.022408 32.513099 -0.882568 1.477702 0.108765 -0.042095 -792378.000000 0 0 1
-20.064824 25.559439 1.813808 32.544922 -0.905253 1.515035 0.111993 -0.040551 1073760.000000 0 0 1
-18.773824 26.198039 1.791908 32.280097 -0.949008 1.515257 0.118153 -0.038598 659464.000000 0 0 1
-17.479024 25.414829 2.187408 30.922719 -0.968340 1.499999 0.126405 -0.046898 -198720.000000 0 0 1
-17.156124 24.274969 1.364908 29.756843 -0.955560 1.524912 0.166513 -0.057770 267209.000000 0 0 1
-17.105324 24.570789 -0.046092 29.938569 -0.962649 1.572336 0.137416 -0.050615 -529120.000000 0 0 1
-16.662524 23.369709 -0.935392 28.716858 -0.951401 1.603375 0.131388 -0.054329 372705.000000 0 0 1
-17.642724 22.316749 -0.907992 28.462738 -0.901838 1.602703 0.141129 -0.065145 379113.000000 0 0 1
-17.434124 21.217549 -1.709892 27.514665 -0.882972 1.632981 0.134629 -0.057023 111630.000000 0 0 1
-16.250724 20.288449 -1.284592 26.026090 -0.895456 1.620174 0.130279 -0.055868 339700.000000 0 0 1
-16.545424 19.539749 -0.153892 25.604229 -0.868188 1.576807 0.142350 -0.057169 264718.000000 0 0 1
-15.483524 18.689949 0.224208 24.271464 -0.878952 1.561559 0.147968 -0.060638 3689.070000 0 1 0
-16.085724 17.684749 1.179908 23.935184 -0.832713 1.521480 0.126847 -0.049379 7952.050000 0 1 0
-16.661324 16.682649 0.374408 23.580727 -0.786038 1.554918 0.107587 -0.044200 -8163.360000 0 1 0
-17.163424 15.716749 1.233208 23.304938 -0.741428 1.517855 0.122662 -0.064814 -161956.000000 0 1 0
-17.785524 14.497849 0.521508 22.951786 -0.683910 1.548072 0.107283 -0.055875 44805.900000 0 1 0
-18.948224 14.729249 -0.257192 24.001086 -0.660772 1.581512 0.150426 -0.064320 205940.000000 0 1 0
-19.655424 13.519449 -0.470892 23.860699 -0.602506 1.590533 0.169829 -0.056299 -771792.000000 0 1 0
-21.003324 13.814949 -1.094892 25.163291 -0.581804 1.614322 0.182827 -0.044455 -796337.000000 0 0 1
-21.831324 12.697749 -1.382692 25.293307 -0.526802 1.625490 0.175919 -0.053223 734618.000000 0 0 1
-22.703024 12.173949 -0.406692 25.764273 -0.492207 1.586582 0.184384 -0.057583 -646765.000000 0 0 1
-24.083224 12.793849 -0.219492 27.271458 -0.488322 1.578845 0.206512 -0.062364 -632746.000000 0 0 1
-24.043824 14.189549 0.162008 27.919080 -0.533148 1.564994 0.215534 -0.069365 536370.000000 0 0 1
-25.361214 14.683549 0.400008 29.307982 -0.524818 1.557147 0.213690 -0.062414 377744.000000 0 0 1
-25.403584 16.197449 0.778808 30.138115 -0.567612 1.544952 0.201882 -0.064985 -29058.100000 0 0 1
-25.016694 16.381849 2.129308 29.978891 -0.579768 1.499710 0.183249 -0.062097 -3740.780000 0 0 1
-24.818824 17.765149 2.509008 30.624658 -0.621247 1.488777 0.153173 -0.058890 433445.000000 0 0 1
-26.135814 18.594449 2.669808 32.186366 -0.618372 1.487753 0.162727 -0.051841 -372585.000000 0 0 1
-27.050944 17.957749 3.490808 32.656088 -0.586050 1.463696 0.170191 -0.063486 -1044590.000000 0 0 1
-28.242224 18.635549 3.622708 34.029853 -0.583266 1.464137 0.153353 -0.057422 -417472.000000 0 0 1
-29.377804 18.388649 2.599108 34.755620 -0.559273 1.495944 0.156751 -0.055053 606916.000000 0 0 1
-30.624264 19.052249 2.947908 36.187345 -0.556532 1.489244 0.149130 -0.051452 876262.000000 0 0 1
-31.326124 19.292549 1.755708 36.832201 -0.552001 1.523111 0.145021 -0.044517 -652476.000000 0 0 1
-32.690004 19.908249 2.013008 38.327887 -0.547012 1.518251 0.153191 -0.049563 -1245350.000000 0 0 1
-33.754124 19.050249 2.311008 38.827743 -0.513819 1.511242 0.192052 -0.043653 -390484.000000 0 0 1
-34.963276 19.735949 2.473008 40.225044 -0.513890 1.509278 0.183467 -0.046734 -185732.000000 0 0 1
-35.236776 20.243349 3.926708 40.826984 -0.521455 1.474468 0.167340 -0.054105 -864181.000000 0 0 1
-34.251224 21.117949 4.393508 40.477365 -0.552507 1.462040 0.159491 -0.050161 -59565.000000 0 0 1
-34.627293 21.816049 5.548008 41.300966 -0.562204 1.436058 0.156381 -0.052866 -542254.000000 0 0 1
-33.515074 22.722409 6.030808 40.938230 -0.595791 1.422943 0.149833 -0.048020 -686266.000000 0 0 1
-33.480784 23.925009 5.280708 41.488008 -0.620450 1.443167 0.134995 -0.041768 248499.000000 0 0 1
-32.493974 24.817379 5.737508 41.287766 -0.652245 1.431381 0.119468 -0.041470 -78534.600000 0 0 1
-32.942564 26.319049 5.513508 42.524154 -0.674093 1.440774 0.113866 -0.034692 -90045.200000 0 0 1
-33.961583 26.848539 6.324608 43.751958 -0.668956 1.425732 0.128924 -0.028860 -3510.010000 0 0 1
-34.150436 28.242269 6.114908 44.735558 -0.690986 1.433677 0.113760 -0.022068 250221.000000 0 0 1
-35.246043 28.715199 7.123808 46.017332 -0.683645 1.415364 0.108049 -0.018113 -301127.000000 0 0 1
-34.789992 28.712679 8.452708 45.893461 -0.689987 1.385558 0.117962 -0.020959 521972.000000 0 0 1
-35.736617 29.250929 9.400808 47.128525 -0.685929 1.369978 0.124890 -0.017110 553020.000000 0 0 1
-36.918784 28.296079 9.753808 47.526850 -0.653941 1.364100 0.117803 -0.017505 -266877.000000 0 0 1
-36.612704 27.129999 10.405008 46.741749 -0.637716 1.346309 0.144196 -0.028026 -962847.000000 0 0 1
-37.627134 26.466959 11.057008 47.313408 -0.613005 1.334918 0.133101 -0.031560 -798321.000000 0 0 1
-37.142244 25.183789 11.757908 46.389847 -0.595833 1.314542 0.161653 -0.035824 -12285.300000 0 0 1
-36.126474 25.442709 12.694308 45.973895 -0.613584 1.291042 0.178773 -0.042524 -264557.000000 0 0 1
-35.761493 24.366149 13.453208 45.316470 -0.598100 1.269381 0.177026 -0.039785 -462670.000000 0 0 1
-34.553827 24.754249 14.303108 44.847728 -0.621646 1.246200 0.185217 -0.042328 -271435.000000 0 0 1
-34.747002 25.794249 15.220108 45.873185 -0.638584 1.232600 0.184056 -0.043659 -653090.000000 0 0 1
-33.495134 26.048169 15.769108 45.266940 -0.660976 1.214977 0.197312 -0.042011 -464907.000000 0 0 1
-33.461214 27.096999 16.906308 46.257145 -0.680690 1.196642 0.201504 -0.045542 -145480.000000 0 0 1
-33.463234 28.398899 16.329608 46.828854 -0.703715 1.214604 0.215300 -0.044281 -73384.300000 0 0 1
-33.588724 29.445759 17.284308 47.895745 -0.719767 1.201592 0.186856 -0.043341 81982.100000 0 0 1
-33.348774 30.807039 16.574408 48.331412 -0.745801 1.220759 0.151002 -0.034435 526612.000000 0 0 1
-32.013604 30.974459 16.112808 47.369933 -0.768902 1.223722 0.142756 -0.033965 82882.500000 0 0 1
-31.909914 32.205189 15.503008 47.914090 -0.790004 1.241309 0.110009 -0.017522 -623908.000000 0 0 1
-30.577414 32.586511 14.847408 47.088262 -0.817195 1.250013 0.129847 -0.027359 54011.900000 0 0 1
-30.031024 31.877975 13.694208 45.886807 -0.815223 1.267744 0.125140 -0.028715 102716.000000 0 0 1
-29.577334 30.559109 13.966608 44.763199 -0.801722 1.253487 0.141076 -0.033975 -677578.000000 0 0 1
-30.448494 29.358329 13.668608 44.450569 -0.767172 1.258230 0.180756 -0.035841 -262434.000000 0 0 1
-30.784284 29.239599 12.282408 44.198233 -0.759669 1.289196 0.188527 -0.040457 293117.000000 0 0 1
-31.879694 28.333519 12.120108 44.339601 -0.726572 1.293925 0.181403 -0.033804 469259.000000 0 0 1
-32.002294 28.089539 10.625908 43.887116 -0.720377 1.326247 0.167429 -0.022393 -267632.000000 0 0 1
-31.017594 27.312469 10.018108 42.525576 -0.721963 1.332983 0.145336 -0.016450 -647238.000000 0 0 1
-31.072904 27.287019 8.612108 42.240682 -0.720618 1.365475 0.143868 -0.023120 189180.000000 0 0 1
-29.774034 26.811289 7.906808 40.839392 -0.733087 1.375959 0.141176 -0.024084 251403.000000 0 0 1
-29.643304 27.213999 6.550208 40.770485 -0.742698 1.409436 0.136501 -0.032667 122027.000000 0 0 1
-28.530304 26.544529 5.951708 39.420973 -0.749358 1.419239 0.110189 -0.018604 321929.000000 0 0 1
-28.170964 26.891429 4.489008 39.203359 -0.762164 1.456039 0.099100 -0.014957 108793.000000 0 0 1
-27.351294 28.053169 4.316308 39.417053 -0.798066 1.461073 0.096224 -0.021404 347050.000000 0 0 1
-27.029784 28.273249 2.965508 39.227287 -0.807879 1.495126 0.098517 -0.022652 -279911.000000 0 0 1
-26.129864 29.510139 2.817808 39.516555 -0.846076 1.499429 0.103760 -0.027218 -786377.000000 0 0 1
-24.841224 29.280179 3.286008 38.538463 -0.867233 1.485427 0.099113 -0.022864 -814680.000000 0 0 1
-23.878224 30.128899 2.709108 38.539063 -0.900623 1.500443 0.099873 -0.018444 -248469.000000 0 0 1
-22.484224 29.527559 2.895908 37.226380 -0.919997 1.492926 0.072395 -0.023080 -935674.000000 0 0 1
-21.448724 30.372989 2.539308 37.269482 -0.955936 1.502610 0.083579 -0.025544 -1688930.000000 0 0 1
-20.274224 29.789179 2.990108 36.157711 -0.973216 1.488006 0.098995 -0.038137 -879369.000000 0 0 1
-19.060624 30.579059 2.501508 36.119853 -1.013404 1.501485 0.085015 -0.034306 -448395.000000 0 0 1
-18.895124 31.814028 3.121008 37.133526 -1.034856 1.486649 0.100554 -0.037620 -45537.900000 0 0 1
-17.700924 32.424019 2.674108 37.037691 -1.071091 1.498534 0.096797 -0.024513 206745.000000 0 0 1
-17.210324 33.668873 3.480808 37.972415 -1.098257 1.479001 0.109219 -0.035651 -332162.000000 0 0 1
-18.080224 -32.900577 3.441408 37.698618 1.068305 1.479382 0.123882 -0.042564 -303103.000000 0 0 1
-17.719824 -31.924417 4.408408 36.777638 1.064080 1.450641 0.111058 -0.046369 362615.000000 0 0 1
-18.813824 -30.834377 4.689308 36.424009 1.022942 1.441696 0.147527 -0.040669 376040.000000 0 0 1
-18.968324 -29.784297 3.715008 35.506379 1.003716 1.465975 0.165979 -0.034971 -104959.000000 0 0 1
-19.989824 -28.888857 4.047108 35.362950 0.965489 1.456100 0.194437 -0.043188 -347607.000000 0 0 1
-20.230824 -27.836077 2.986108 34.540560 0.942320 1.484236 0.173560 -0.052533 133877.000000 0 0 1
-19.208324 -26.857897 2.863108 33.143683 0.949953 1.484304 0.183295 -0.053839 29272.300000 0 0 1
-19.581824 -25.911637 1.846908 32.531090 0.923647 1.513992 0.151944 -0.057567 -105548.000000 0 0 1
-18.623224 -24.736957 1.656308 31.007820 0.925474 1.517355 0.140590 -0.047768 213504.000000 0 0 1
-17.446224 -25.135217 0.983308 30.612363 0.964045 1.538670 0.167967 -0.044872 399833.000000 0 0 1
-16.337624 -24.199557 1.107108 29.219210 0.976964 1.532898 0.142752 -0.041357 882731.000000 0 0 1
-15.103324 -24.720057 0.351608 28.970938 1.022346 1.558659 0.132224 -0.040540 -530596.000000 0 0 1
-15.194524 -24.711957 -1.079392 29.029631 1.019518 1.607987 0.112874 -0.034224 23127.900000 0 0 1
-15.354424 -23.438857 -1.712992 28.072633 0.990855 1.631854 0.115186 -0.041572 -314590.000000 0 0 1
-15.549524 -23.608257 -3.215592 28.451319 0.988366 1.684059 0.071897 -0.031610 264964.000000 0 0 1
-14.438624 -24.170757 -3.915992 28.425945 1.032321 1.708997 0.102809 -0.032902 157912.000000 0 0 1
-14.636024 -24.040357 -5.322592 28.644056 1.023924 1.757701 0.081873 -0.033340 578492.000000 0 0 1
-13.411324 -24.439957 -6.229392 28.565371 1.068917 1.790638 0.103363 -0.037528 663958.000000 0 0 1
-13.302724 -25.837977 -6.351892 29.747438 1.095338 1.785981 0.085328 -0.039364 -248172.000000 0 0 1
-12.054024 -26.172947 -6.894092 29.628553 1.139201 1.805633 0.102043 -0.036875 -102322.000000 0 0 1
24.485076 12.402343 27.223056 38.657882 0.468855 0.789494 0.102548 -0.019326 -105240.000000 0 0 1
25.395676 11.348343 27.481986 39.102235 0.420241 0.791437 0.086855 -0.022524 406241.000000 0 0 1
25.126776 10.612243 28.687356 39.584580 0.399622 0.760182 0.093643 -0.023212 -222463.000000 0 0 1
25.235076 11.312843 30.066906 40.851050 0.421438 0.743634 0.115980 -0.032928 -1543.880000 0 0 1
24.189776 12.225643 30.380306 40.713322 0.467963 0.728460 0.127108 -0.032591 175508.000000 0 0 1
24.307876 12.829743 31.684612 41.945081 0.485641 0.714558 0.103974 -0.030473 -452204.000000 0 0 1
23.109376 13.738643 31.979703 41.779121 0.536369 0.699061 0.106241 -0.030415 -350970.000000 0 0 1
21.973976 13.085643 32.472069 41.334307 0.537109 0.667137 0.129067 -0.021335 -401505.000000 0 0 1
21.198876 13.946043 33.265866 41.839005 0.581886 0.651637 0.114063 -0.017961 614947.000000 0 0 1
19.865676 13.245443 -33.636282 41.249076 0.588060 2.524291 0.098207 -0.011003 1114660.000000 0 0 1
18.665576 13.278443 32.982614 40.156863 0.618327 0.607032 0.088436 -0.002655 642410.000000 0 0 1
17.632276 12.627743 -33.686342 40.064032 0.621497 2.569579 0.064655 -0.005156 9353.700000 0 0 1
16.288376 12.359443 33.007296 38.827164 0.649102 0.554605 0.057330 0.003770 72188.600000 0 0 1
16.222276 11.362243 32.037456 37.665122 0.611001 0.553696 0.051216 0.012921 -1274420.000000 0 0 1
14.934576 10.914743 31.855003 36.836319 0.631124 0.526101 0.076782 -0.000708 -839108.000000 0 0 1
14.894976 9.840143 30.704306 35.516801 0.583815 0.526640 0.086837 -0.003095 -98238.600000 0 0 1
15.327676 8.576643 31.164796 35.773468 0.510148 0.513215 0.053313 -0.006565 -41976.800000 0 0 1
15.478976 7.670443 30.080576 34.688261 0.460073 0.521308 0.054108 -0.017260 42021.800000 0 0 1
15.934876 6.265543 30.543236 35.015234 0.374628 0.510942 0.085599 -0.025199 -112941.000000 0 0 1
14.908876 5.436443 31.017496 34.841277 0.349661 0.472899 0.095280 -0.021207 -166731.000000 0 0 1
15.461676 4.140943 31.317602 35.171054 0.261679 0.472492 0.091478 -0.025785 220739.000000 0 0 1
14.405676 3.046643 31.641975 34.900145 0.208418 0.435538 0.072716 -0.028772 -86125.600000 0 0 1
14.912776 1.792343 32.090353 35.431542 0.119615 0.437768 0.073692 -0.033881 116993.000000 0 0 1
13.854076 0.882943 32.382085 35.232293 0.063646 0.405000 0.079297 -0.036763 198759.000000 0 0 1
14.412576 -0.529957 32.843031 35.870153 -0.036754 0.413777 0.056178 -0.036118 -51789.200000 0 0 1
14.877776 -1.276757 31.758373 35.093769 -0.085607 0.439516 0.055347 -0.039490 -14918.600000 0 0 1
15.440376 -2.472357 32.250786 35.841748 -0.158775 0.451461 0.095460 -0.048259 -216013.000000 0 0 1
16.083176 -3.449757 31.209606 35.279015 -0.211293 0.485052 0.105337 -0.048593 -148138.000000 0 0 1
16.457176 -4.804657 31.666040 36.009186 -0.284054 0.496221 0.117953 -0.047255 865541.000000 0 0 1
17.551776 -4.812957 32.608076 37.343219 -0.267636 0.509067 0.098153 -0.044526 1338970.000000 0 0 1
19.031576 -4.656757 32.079803 37.589893 -0.239971 0.548293 0.117360 -0.045617 571121.000000 0 0 1
19.255276 -3.322257 31.691139 37.230785 -0.170855 0.552514 0.118472 -0.055776 585293.000000 0 0 1
20.491776 -3.085757 31.024366 37.308794 -0.149462 0.588892 0.112253 -0.062620 -170416.000000 0 0 1
20.394576 -1.613657 30.572746 36.786348 -0.078957 0.589733 0.104864 -0.055777 -260254.000000 0 0 1
20.178676 -0.725857 31.714963 37.597137 -0.035956 0.566942 0.112268 -0.049832 233223.000000 0 0 1
19.895376 0.586643 31.360036 37.143263 0.029478 0.565540 0.098386 -0.041666 30782.800000 0 0 1
21.143976 1.462743 31.083056 37.621320 0.069070 0.598452 0.104035 -0.033329 58842.500000 0 0 1
21.676776 1.371943 29.782986 36.861784 0.063207 0.630108 0.119961 -0.038199 210586.000000 0 0 1
22.654776 2.313243 29.338726 37.139613 0.101756 0.660056 0.090545 -0.033452 112475.000000 0 0 1
22.229376 3.807143 29.189226 36.886995 0.169621 0.657840 0.065193 -0.013693 -392944.000000 0 0 1
21.853276 4.398343 30.373686 37.675880 0.198614 0.633123 0.065962 -0.019663 212035.000000 0 0 1
21.316176 5.704843 30.188656 37.393576 0.261501 0.631197 0.067260 -0.017507 22403.000000 0 0 1
20.668876 6.203643 31.509416 38.190718 0.291589 0.600498 0.079625 -0.014634 663239.000000 0 0 1
19.482476 5.502643 31.938966 37.814594 0.275270 0.564941 0.079118 -0.003390 760646.000000 0 0 1
19.127076 5.944143 33.200075 38.773997 0.301309 0.542838 0.067958 -0.010428 -628119.000000 0 0 1
18.060176 5.112943 -33.523952 38.420925 0.275887 2.631182 0.073547 -0.007018 -428981.000000 0 0 1
18.502376 3.777243 -33.221022 38.213110 0.201382 2.624706 0.064311 -0.005722 -505376.000000 0 0 1
17.407976 3.030243 -32.853942 37.304175 0.172345 2.648143 0.058105 -0.010740 -621308.000000 0 0 1
17.376776 1.475043 -33.127182 37.437124 0.084683 2.657022 0.070107 -0.029539 -462597.000000 0 0 1
18.450376 0.829543 -32.499542 37.380807 0.044931 2.624819 0.060384 -0.026037 -172909.000000 0 0 1
18.413876 -0.596757 -32.589812 37.436917 -0.032397 2.627067 0.075802 -0.026614 68131.800000 0 0 1
19.506476 -1.345657 -31.745232 37.283685 -0.068876 2.589542 0.084130 -0.032006 54357.700000 0 0 1
19.340576 -1.405957 -30.335692 36.004011 -0.072567 2.572823 0.098658 -0.038113 302564.000000 0 0 1
19.325276 -0.146957 -29.691262 35.426811 -0.007604 2.564590 0.083740 -0.028483 -332867.000000 0 0 1
18.827976 -0.270757 -28.241062 33.942946 -0.014380 2.553528 0.099702 -0.030828 -761914.000000 0 0 1
17.539376 -0.780857 -28.131422 33.160464 -0.044491 2.583643 0.110123 -0.031223 -483785.000000 0 0 1
17.031576 -1.001157 -26.812712 31.780472 -0.058715 2.574907 0.100572 -0.026476 -160794.000000 0 0 1
17.755976 -1.995757 -25.875782 31.445410 -0.111929 2.537256 0.124607 -0.034163 -97315.200000 0 0 1
18.998676 -1.433257 -25.437342 31.781477 -0.075297 2.498730 0.128162 -0.032239 514043.000000 0 0 1
20.034776 -2.389457 -25.285062 32.348665 -0.118705 2.468090 0.113223 -0.032313 802990.000000 0 0 1
20.798676 -2.862757 -26.624462 33.906375 -0.136782 2.473871 0.142397 -0.052055 -168555.000000 0 0 1
21.726876 -1.932957 -27.089902 34.780113 -0.088733 2.463691 0.142278 -0.043849 -569409.000000 0 0 1
22.454776 -2.413257 -28.180812 36.113694 -0.107061 2.465999 0.141310 -0.048971 -370693.000000 0 0 1
23.796476 -1.744357 -28.424972 37.111913 -0.073172 2.443276 0.116206 -0.050693 -529685.000000 0 0 1
24.896776 -2.387857 -27.870862 37.447780 -0.095618 2.410222 0.105029 -0.054061 -170725.000000 0 0 1
26.146276 -1.895057 -28.327142 38.595932 -0.072353 2.394903 0.068123 -0.048973 1083160.000000 0 0 1
27.409376 -2.738857 -27.917822 39.219638 -0.099593 2.362901 0.074941 -0.041485 364887.000000 0 0 1
27.648576 -3.882057 -28.717652 40.052686 -0.139495 2.370281 0.103928 -0.051998 -120948.000000 0 0 1
28.954276 -4.359557 -28.546172 40.893028 -0.149444 2.343494 0.088736 -0.046424 -277669.000000 0 0 1
29.072376 -5.595857 -27.577522 40.460306 -0.190155 2.320736 0.081153 -0.032526 -285773.000000 0 0 1
28.994376 -5.272957 -26.210802 39.439625 -0.179895 2.297728 0.068061 -0.021214 326123.000000 0 0 1
28.920676 -6.422557 -25.456992 39.060378 -0.218529 2.280665 0.039774 -0.011423 -218705.000000 0 0 1
28.902276 -6.315757 -23.928492 38.050007 -0.215139 2.250895 0.021636 -0.000253 500731.000000 0 0 1
30.177676 -5.923357 -23.408192 38.648696 -0.193819 2.221399 0.022801 0.003667 768997.000000 0 0 1
30.107376 -5.582557 -22.057292 37.737821 -0.183339 2.195045 0.030584 -0.007103 -806666.000000 0 0 1
31.422876 -5.112657 -21.478392 38.403876 -0.161292 2.164309 0.038856 -0.013842 -1007480.000000 0 0 1
31.941276 -4.038757 -22.226992 39.122830 -0.125776 2.175032 0.060983 -0.024226 -394138.000000 0 0 1
33.156076 -3.574557 -21.724792 39.800369 -0.107395 2.148192 0.090122 -0.025117 -430761.000000 0 0 1
33.760676 -2.409257 -22.420392 40.598790 -0.071242 2.155848 0.100863 -0.032199 -309268.000000 0 0 1
33.173876 -1.200457 -22.031692 39.841468 -0.036171 2.156738 0.072130 -0.025252 95489.800000 0 0 1
33.703176 -0.089157 -22.703192 40.636768 -0.002645 2.163597 0.080872 -0.022286 -214276.000000 0 0 1
32.816776 1.123943 -22.370892 39.732365 0.034236 2.168855 0.074646 -0.015802 -215287.000000 0 0 1
31.705176 1.176343 -23.228692 39.321420 0.037086 2.202771 0.058547 -0.013494 -298341.000000 0 0 1
30.671276 1.912043 -22.627092 38.162394 0.062259 2.205471 0.052479 -0.006216 -734304.000000 0 0 1
29.464676 1.997343 -23.536692 37.764168 0.067684 2.243694 0.056839 -0.013447 -757244.000000 0 0 1
28.364276 2.728543 -23.041092 36.645177 0.095901 2.250756 0.066072 -0.011614 277432.000000 0 0 1
27.507376 3.034743 -24.135492 36.720394 0.109880 2.287997 0.102016 -0.021415 326208.000000 0 0 1
26.258176 3.876743 -23.765092 35.627244 0.146581 2.301036 0.102668 -0.017177 -6312.480000 0 0 1
26.689376 5.055643 -23.190292 35.716550 0.187207 2.277443 0.091464 -0.016954 128031.000000 0 0 1
25.639076 5.958843 -22.943692 34.918233 0.228359 2.287720 0.113450 -0.026904 -553660.000000 0 0 1
26.141776 7.258543 -22.338892 35.144060 0.270838 2.259631 0.123124 -0.019144 -234193.000000 0 0 1
27.067376 7.936043 -23.156892 36.494729 0.285203 2.258193 0.118159 -0.021891 121046.000000 0 0 1
27.343076 9.233343 -22.763592 36.757034 0.325662 2.238646 0.142664 -0.027853 -377512.000000 0 0 1
28.400076 9.937643 -23.615492 38.249347 0.336600 2.236241 0.173456 -0.019265 -324836.000000 0 0 1
28.013476 10.339543 -24.957092 38.916801 0.353581 2.266979 0.181552 -0.022927 157949.000000 0 0 1
27.170876 11.466043 -25.039592 38.687308 0.399325 2.274742 0.189339 -0.024502 18919.500000 0 0 1
26.909576 11.947443 -26.483432 39.600995 0.417840 2.303332 0.174948 -0.019727 154655.000000 0 0 1
26.165976 10.941143 -27.253802 39.333658 0.396049 2.336282 0.142035 -0.016482 582277.000000 0 0 1
26.885676 9.818243 -27.730192 39.852240 0.350138 2.340365 0.140040 -0.031195 -323548.000000 0 0 1
27.862276 10.092443 -28.861332 41.365932 0.347525 2.342989 0.134817 -0.030235 -1094600.000000 0 0 1
29.116476 10.647843 -28.614812 42.189491 0.350591 2.316168 0.137433 -0.030774 -90485.400000 0 0 1
29.880876 10.916143 -29.756522 43.560068 0.350259 2.322815 0.140791 -0.038605 182991.000000 0 0 1
30.583376 9.729543 -30.527632 44.293828 0.308007 2.331191 0.119601 -0.040052 -187252.000000 0 0 1
29.691776 8.727143 -31.055872 43.843263 0.285874 2.357938 0.112989 -0.032559 438012.000000 0 0 1
30.362776 7.740243 -31.839712 44.671879 0.249609 2.364202 0.111646 -0.028393 416444.000000 0 0 1
29.339276 6.841643 -32.628892 44.409974 0.229097 2.396050 0.108468 -0.033008 328864.000000 0 0 1
28.482976 6.114743 -31.778562 43.110869 0.211471 2.399618 0.108752 -0.036202 -345281.000000 0 0 1
27.324376 5.851943 -32.532142 42.885977 0.210979 2.431917 0.066107 -0.030077 173349.000000 0 0 1
26.002576 5.997443 -31.710732 41.444828 0.226684 2.442041 0.097124 -0.029519 -351697.000000 0 0 1
25.687676 7.333543 -31.318402 41.164060 0.278091 2.435371 0.086975 -0.017972 132137.000000 0 0 1
24.504676 7.490943 -30.567162 39.886649 0.296673 2.443938 0.092547 -0.024479 598396.000000 0 0 1
23.144476 7.300543 -31.314242 39.617502 0.305555 2.482281 0.099015 -0.028883 -100799.000000 0 0 1
22.732776 8.427943 -32.057692 40.193344 0.355030 2.494081 0.105264 -0.023135 177866.000000 0 0 1
21.397576 8.227443 -32.506142 39.776832 0.367076 2.527355 0.100244 -0.016233 207323.000000 0 0 1
21.154376 9.295643 -33.593502 40.773030 0.414020 2.539081 0.106385 -0.006217 -193151.000000 0 0 1
21.795076 8.946943 32.579589 40.205755 0.389528 0.626096 0.093009 -0.007203 -257553.000000 0 0 1
21.995476 10.001043 31.664797 39.830657 0.426744 0.651813 0.096135 -0.017517 659274.000000 0 0 1
20.759076 10.462243 30.743166 38.542704 0.466830 0.647426 0.085798 -0.017839 959375.000000 0 0 1
20.412476 9.568743 29.700766 37.287606 0.438352 0.649259 0.069843 -0.019882 393675.000000 0 0 1
21.394076 9.195943 28.681126 36.944267 0.405960 0.681966 0.095423 -0.017963 35533.200000 0 0 1
21.273676 10.041843 27.333366 36.062734 0.441023 0.710648 0.113255 -0.018129 54256.600000 0 0 1
20.086976 9.762943 26.625086 34.751933 0.452412 0.697972 0.090989 -0.012807 -306014.000000 0 0 1
18.983376 10.522143 27.020116 34.657910 0.506125 0.676732 0.102013 -0.041414 -655333.000000 0 0 1
17.610676 9.964443 26.605446 33.425676 0.514907 0.650207 0.120220 -0.034254 -216481.000000 0 0 1
17.404876 9.964743 25.178366 32.189687 0.519973 0.672627 0.114247 -0.029576 285556.000000 0 0 1
16.109676 9.476643 24.847276 31.092050 0.531741 0.644913 0.140650 -0.033267 457353.000000 0 0 1
15.913876 7.895943 24.724606 30.445090 0.460577 0.623046 0.127922 -0.029508 -130853.000000 0 0 1
16.097976 7.180443 25.945116 31.366426 0.419561 0.596758 0.098867 -0.028468 -24625.200000 0 0 1
15.846576 5.813743 25.781716 30.815750 0.351630 0.579675 0.111260 -0.026988 -160604.000000 0 0 1
16.158876 5.025143 27.111746 31.959476 0.301503 0.557999 0.085175 -0.024568 1297620.000000 0 0 1
17.575976 5.042343 27.460666 32.991337 0.279385 0.587444 0.093915 -0.016634 1461600.000000 0 0 1
17.850576 4.070543 28.475626 33.853710 0.224201 0.571413 0.093188 -0.021009 -716677.000000 0 0 1
18.224776 2.661343 27.918646 33.446614 0.145004 0.583167 0.091172 -0.024327 -6296.490000 0 0 1
17.162076 1.792543 27.484616 32.452337 0.104071 0.560626 0.088412 -0.039464 1191130.000000 0 0 1
16.208876 1.472443 28.540886 32.855410 0.090593 0.518262 0.071091 -0.045434 240984.000000 0 0 1
16.093976 -0.008957 28.939076 33.113234 -0.000557 0.507540 0.087964 -0.048161 -418394.000000 0 0 1
15.570776 -0.842857 27.914496 31.974655 -0.054078 0.509436 0.095507 -0.046513 312936.000000 0 0 1
16.287876 -1.115257 26.691056 31.288196 -0.068365 0.548953 0.107861 -0.040194 -699110.000000 0 0 1
17.496576 -2.097857 26.712736 32.001585 -0.119331 0.583151 0.103468 -0.037261 995325.000000 0 0 1
18.683676 -1.632657 27.396406 33.201030 -0.087163 0.600298 0.104761 -0.050498 1071500.000000 0 0 1
19.400376 -0.593657 26.726786 33.031017 -0.030591 0.628106 0.099382 -0.039917 364740.000000 0 0 1
20.887776 -0.298057 27.175666 34.276885 -0.014268 0.655361 0.104461 -0.036458 1522490.000000 0 0 1
21.852876 -1.226657 26.672686 34.503407 -0.056074 0.687169 0.086664 -0.032929 -152853.000000 0 0 1
23.168676 -0.902157 27.026316 35.609313 -0.038919 0.709070 0.086394 -0.036502 -317751.000000 0 0 1
24.212876 -1.662257 26.198066 35.712255 -0.068544 0.747210 0.081883 -0.024746 -511095.000000 0 0 1
24.324676 -1.231057 24.864406 34.805805 -0.050566 0.775065 0.090542 -0.005953 372692.000000 0 0 1
23.624176 -2.124857 23.996436 33.740860 -0.089703 0.779595 0.106924 -0.001557 197704.000000 0 0 1
23.656376 -1.474357 22.622736 32.765623 -0.062243 0.808698 0.110614 -0.023579 492675.000000 0 0 1
22.641776 -0.457157 22.574966 31.976368 -0.020188 0.786978 0.091201 -0.016576 585780.000000 0 0 1
22.763276 0.140043 21.291416 31.169067 0.006152 0.818805 0.080164 -0.003864 137890.000000 0 0 1
-31.576834 -27.047062 -9.993992 42.761197 0.708283 1.806695 0.056086 0.003369 -75585.700000 0 0 1
-31.674794 -25.860462 -9.276492 41.929815 0.684683 1.793881 0.051720 0.008724 -343751.000000 0 0 1
-32.072804 -26.131362 -7.951592 42.127671 0.683671 1.760685 0.071518 0.004394 -626784.000000 0 0 1
-32.341234 -24.792962 -7.185892 41.379747 0.654044 1.745338 0.103490 -0.005449 322736.000000 0 0 1
-31.231434 -24.049962 -6.721092 39.987201 0.656214 1.739679 0.110653 -0.001684 -240704.000000 0 0 1
-30.286194 -24.807162 -5.931592 39.595867 0.686274 1.721166 0.124278 -0.012818 -311947.000000 0 0 1
-29.092194 -23.917362 -5.606192 38.076573 0.688086 1.718568 0.129452 -0.022415 -664453.000000 0 0 1
-29.194474 -22.997962 -4.491792 37.435275 0.667227 1.691074 0.143602 -0.009799 -470082.000000 0 0 1
-30.088874 -21.966762 -4.680692 37.547142 0.630619 1.695783 0.153134 -0.008659 -328785.000000 0 0 1
-29.782804 -20.817462 -3.688492 36.523789 0.610038 1.671958 0.156847 -0.017552 181181.000000 0 0 1
-28.627594 -20.022562 -3.881992 35.149851 0.610333 1.681463 0.178021 -0.024214 70674.900000 0 0 1
-28.580834 -18.988962 -2.921592 34.438067 0.586428 1.655735 0.206644 -0.027241 448998.000000 0 0 1
-27.352884 -18.069462 -3.218292 32.939993 0.583795 1.668654 0.195699 -0.022517 449781.000000 0 0 1
-27.627534 -17.293762 -4.384292 32.887336 0.559290 1.704507 0.183923 -0.034628 133272.000000 0 0 1
-26.808884 -16.136762 -4.502392 31.613018 0.541829 1.713704 0.149619 -0.035541 -61547.000000 0 0 1
-27.244664 -15.164862 -5.650992 31.688776 0.507910 1.750083 0.168590 -0.050471 -453305.000000 0 0 1
-28.463314 -14.569662 -5.349492 32.419938 0.473103 1.736561 0.155860 -0.036422 -462672.000000 0 0 1
-28.901804 -13.580562 -6.259492 32.541162 0.439268 1.764359 0.174016 -0.055777 253678.000000 0 0 1
-30.277384 -12.943662 -5.929392 33.457676 0.403989 1.748958 0.161991 -0.053466 699286.000000 0 0 1
-31.439114 -13.692162 -6.296892 34.864654 0.410742 1.752403 0.158468 -0.047290 -173476.000000 0 0 1
-32.510624 -12.825562 -6.459292 35.540937 0.375759 1.753554 0.147823 -0.045625 -297366.000000 0 0 1
-33.679864 -13.601762 -7.163792 37.022441 0.383825 1.765523 0.115756 -0.041269 -68364.000000 0 0 1
-34.427076 -14.479962 -6.348192 37.883934 0.398136 1.739160 0.121883 -0.031540 276195.000000 0 0 1
-34.940511 -15.510662 -7.146092 38.890700 0.417783 1.755594 0.126061 -0.038241 -361115.000000 0 0 1
-35.959224 -16.488462 -6.464092 40.083908 0.429927 1.732768 0.130188 -0.039964 1509410.000000 0 0 1
-37.350424 -16.066562 -6.478692 41.172346 0.406231 1.728808 0.103109 -0.034325 1298290.000000 0 0 1
-37.749284 -15.099662 -5.474692 41.024146 0.380505 1.704646 0.128489 -0.033936 -126048.000000 0 0 1
36.508660 -15.010062 -5.197292 39.814521 -0.390070 1.701708 0.158636 -0.031472 -488541.000000 0 0 1
35.885030 -14.232862 -6.213892 39.101435 -0.377593 1.730390 0.194899 -0.050323 1327360.000000 0 0 1
34.453140 -14.423362 -6.241392 37.868288 -0.396469 1.736370 0.193589 -0.036996 1593560.000000 0 0 1
33.525220 -13.789162 -5.147392 36.613891 -0.390216 1.711849 0.231242 -0.048552 -207959.000000 0 0 1
33.686670 -14.352362 -3.872492 36.820894 -0.402764 1.676162 0.202269 -0.041638 196138.000000 0 0 1
32.683100 -13.889362 -2.991892 35.637773 -0.401846 1.654848 0.239209 -0.050826 -777004.000000 0 0 1
32.677050 -14.649862 -1.625192 35.847585 -0.421458 1.616148 0.236990 -0.056116 -558683.000000 0 0 1
33.782380 -14.739362 -0.727592 36.864989 -0.411406 1.590534 0.257081 -0.052198 384966.000000 0 0 1
34.956900 -15.348862 -1.269892 38.199281 -0.413736 1.604046 0.218147 -0.058218 -181159.000000 0 0 1
34.938560 -16.775862 -1.802392 38.799242 -0.447645 1.617267 0.169693 -0.051761 -1222250.000000 0 0 1
34.724800 -17.747862 -0.728992 39.004228 -0.472489 1.589487 0.149826 -0.043799 179081.000000 0 0 1
34.848000 -19.088662 -1.196992 39.751641 -0.501129 1.600913 0.113804 -0.039350 446812.000000 0 0 1
36.131590 -19.600562 -1.956292 41.152168 -0.497049 1.618352 0.094344 -0.046650 345265.000000 0 0 1
36.299770 -19.016162 -3.237892 41.106833 -0.482556 1.649646 0.062979 -0.037783 -439468.000000 0 0 1
37.130800 -19.782462 -4.036792 42.265090 -0.489525 1.666453 0.081457 -0.028958 -366297.000000 0 0 1
37.318170 -19.186162 -5.480492 42.317732 -0.474883 1.700669 0.108907 -0.034834 -183985.000000 0 0 1
36.117480 -19.150162 -6.211092 41.349471 -0.487529 1.721577 0.096263 -0.044192 60174.800000 0 0 1
36.177020 -18.183462 -7.270392 41.137254 -0.465745 1.748465 0.118678 -0.041453 218594.000000 0 0 1
35.128040 -18.481262 -8.409592 40.574099 -0.484318 1.779575 0.117251 -0.041114 244343.000000 0 0 1
35.285760 -19.592762 -9.284392 41.414504 -0.506872 1.796900 0.118252 -0.038546 500556.000000 0 0 1
34.270210 -19.596462 -10.294292 40.797562 -0.519443 1.825880 0.116860 -0.049785 54774.700000 0 0 1
34.187090 -20.919462 -10.991592 41.559549 -0.549132 1.838459 0.116728 -0.041427 -59912.400000 0 0 1
33.844050 -22.042162 -10.174092 41.650796 -0.577279 1.817564 0.103368 -0.042762 183375.000000 0 0 1
33.335690 -23.098262 -10.959892 42.010917 -0.605944 1.834732 0.090163 -0.038790 -347003.000000 0 0 1
32.765530 -24.188962 -10.100392 41.960741 -0.635935 1.813894 0.111299 -0.037366 -62715.900000 0 0 1
31.636340 -23.776262 -9.340692 40.662233 -0.644492 1.802580 0.122916 -0.042226 -16866.100000 0 0 1
30.957070 -24.937462 -8.942192 40.745307 -0.678116 1.792063 0.084650 -0.034528 -401009.000000 0 0 1
29.525740 -24.693562 -8.434492 39.404086 -0.696510 1.786517 0.077805 -0.035865 -296944.000000 0 0 1
28.758740 -24.256562 -9.500492 38.803419 -0.700679 1.818147 0.079494 -0.028939 -831270.000000 0 0 1
27.403040 -24.125162 -9.189592 37.648355 -0.721870 1.817378 0.101976 -0.039875 -798367.000000 0 0 1
26.468040 -23.738062 -10.282092 37.010460 -0.731076 1.852316 0.190099 -0.056815 -806037.000000 0 0 1
26.075240 -24.852662 -11.069892 37.684420 -0.761397 1.868946 0.149428 -0.049257 715077.000000 0 0 1
25.077440 -24.522562 -12.048592 37.086421 -0.774212 1.901680 0.156378 -0.047158 214906.000000 0 0 1
24.382940 -25.753662 -12.666092 37.659113 -0.812731 1.913819 0.146872 -0.044066 -123162.000000 0 0 1
25.210040 -26.643862 -13.411592 39.055247 -0.813042 1.921332 0.135607 -0.032366 317904.000000 0 0 1
24.529640 -27.857962 -13.622092 39.538977 -0.848846 1.922527 0.135877 -0.028015 -208317.000000 0 0 1
25.307040 -28.905462 -14.443992 41.043890 -0.851677 1.930413 0.122382 -0.024000 -228022.000000 0 0 1
25.207440 -28.734562 -15.829792 41.372363 -0.850693 1.963424 0.125509 -0.022101 351435.000000 0 0 1
25.701740 -29.887062 -16.476592 42.723460 -0.860547 1.966716 0.129947 -0.019512 -178199.000000 0 0 1
25.493940 -29.793062 -18.003992 43.147552 -0.863002 2.001231 0.129142 -0.010864 152779.000000 0 0 1
24.112740 -29.891462 -18.307292 42.545043 -0.891998 2.015626 0.133917 -0.014828 208887.000000 0 0 1
23.900040 -29.837162 -19.645992 42.981777 -0.895436 2.045503 0.118781 -0.011762 63141.100000 0 0 1
22.390940 -29.778162 -19.970492 42.271902 -0.926064 2.062842 0.091925 -0.011736 87007.000000 0 0 1
22.256640 -29.371062 -21.303192 42.565753 -0.922338 2.094946 0.052338 -0.005637 -76650.500000 0 0 1
20.917540 -29.500662 -21.712592 42.181385 -0.954020 2.111505 0.051917 -0.013993 -548178.000000 0 0 1
20.849840 -29.570462 -23.262692 43.014892 -0.956662 2.142191 0.045848 -0.010046 -497749.000000 0 0 1
21.095740 -28.402762 -23.932292 42.714187 -0.931961 2.165531 0.053307 -0.013265 367590.000000 0 0 1
21.594140 -28.617762 -25.257452 43.854556 -0.924376 2.184546 0.042573 -0.014534 -878010.000000 0 0 1
22.143440 -27.351062 -25.898782 43.693929 -0.890229 2.205243 0.051587 -0.017289 -227340.000000 0 0 1
21.292140 -26.244362 -26.114592 42.709410 -0.889201 2.228686 0.089055 -0.036036 582043.000000 0 0 1
20.185840 -26.554862 -27.009322 42.920069 -0.920827 2.251440 0.095603 -0.038665 644163.000000 0 0 1
19.366140 -25.276762 -27.414512 42.018062 -0.917030 2.281604 0.099720 -0.039797 -10416.900000 0 0 1
18.395540 -24.949162 -26.438862 40.741502 -0.935459 2.276989 0.082781 -0.021808 88192.100000 0 0 1
17.687840 -23.775062 -26.872202 40.002856 -0.931168 2.307375 0.069657 -0.016384 205327.000000 0 0 1
16.386240 -23.496162 -26.094542 38.749240 -0.961817 2.309623 0.072626 -0.018094 -105899.000000 0 0 1
15.309840 -24.377962 -26.387172 39.050725 -1.010029 2.312731 0.123372 -0.035952 -24953.600000 0 0 1
14.135340 -24.117762 -25.628442 37.924812 -1.040663 2.312805 0.089414 -0.026308 426149.000000 0 0 1
14.110340 -24.367962 -24.078892 37.049863 -1.045921 2.278256 0.073334 -0.028139 -436288.000000 0 0 1
14.917140 -23.392762 -23.431992 36.315295 -1.003129 2.272131 0.047538 -0.017288 -254291.000000 0 0 1
15.008140 -23.800162 -22.068092 35.758813 -1.008187 2.235895 0.058690 -0.029255 455337.000000 0 0 1
16.230340 -23.227162 -21.280192 35.436868 -0.960899 2.214935 0.037965 -0.025901 446686.000000 0 0 1
15.977140 -21.943962 -20.715092 34.145593 -0.941467 2.222661 0.026967 -0.027393 -268372.000000 0 0 1
17.145340 -21.190162 -20.531992 34.125480 -0.890520 2.216376 0.033155 -0.024253 -504168.000000 0 0 1
16.853040 -19.761962 -19.946392 32.747804 -0.864678 2.225710 0.058300 -0.014802 131302.000000 0 0 1
16.195640 -19.742162 -18.702692 31.651894 -0.883765 2.202954 0.065262 -0.019772 59629.100000 0 0 1
14.791140 -19.768962 -18.889192 31.086834 -0.928448 2.223865 0.054054 -0.019796 -65124.900000 0 0 1
13.943240 -19.804762 -17.578992 29.927638 -0.957368 2.198618 0.062851 -0.016073 -100449.000000 0 0 1
13.870340 -18.536162 -17.018492 28.733338 -0.928393 2.204695 0.092856 -0.015930 102917.000000 0 0 1
13.662840 -18.630462 -15.649992 27.905010 -0.938030 2.166185 0.077474 -0.017117 -144282.000000 0 0 1
13.490540 -17.279062 -14.909692 26.511499 -0.907907 2.168065 0.086357 -0.015382 90941.800000 0 0 1
12.272740 -16.616062 -15.208492 25.651743 -0.934627 2.205431 0.064454 -0.022276 193335.000000 0 0 1
12.305840 -15.424962 -14.452392 24.458839 -0.897406 2.202953 0.057538 -0.021933 -209611.000000 0 1 0
10.968240 -14.681762 -14.267692 23.225492 -0.929176 2.232310 0.068654 -0.019902 -253392.000000 0 1 0
10.361540 -14.430362 -15.513492 23.585277 -0.948067 2.288640 0.094698 -0.007253 -805359.000000 0 1 0
9.143640 -13.814762 -15.262692 22.525621 -0.986119 2.315250 0.092955 -0.010280 -691016.000000 0 1 0
8.383740 -13.211462 -16.447692 22.701463 -1.005337 2.381136 0.078795 -0.004651 -26146.100000 0 1 0
8.882440 -11.968962 -16.972192 22.587809 -0.932356 2.420958 0.079854 -0.004971 807229.000000 0 1 0
10.133540 -12.105062 -17.682492 23.704255 -0.873820 2.412776 0.110797 -0.009842 731213.000000 0 1 0
10.543140 -10.877262 -18.513992 23.921550 -0.800995 2.455846 0.122508 -0.015542 -192549.000000 0 1 0
9.765440 -10.838162 -19.670892 24.490275 -0.837416 2.503465 0.118785 -0.019598 246847.000000 0 1 0
10.043740 -9.607062 -20.292492 24.595886 -0.763180 2.541062 0.128664 -0.033911 105848.000000 0 1 0
9.734740 -9.566162 -21.814392 25.732165 -0.776664 2.582521 0.122248 -0.037068 125340.000000 0 0 1
10.583240 -10.445562 -22.537792 27.001237 -0.778851 2.558375 0.116708 -0.030818 -41040.700000 0 0 1
10.139340 -10.556662 -23.852592 27.985630 -0.805560 2.591193 0.111441 -0.027578 -732301.000000 0 0 1
11.243640 -11.166262 -24.690192 29.337867 -0.781945 2.571000 0.115039 -0.026235 -352282.000000 0 0 1
11.543440 -12.531262 -24.424692 29.780012 -0.826407 2.532506 0.104783 -0.025285 -56934.400000 0 0 1
12.665640 -12.980662 -25.141312 31.000026 -0.797681 2.516672 0.094730 -0.034457 -112146.000000 0 0 1
12.877140 -14.496162 -24.895292 31.555269 -0.844475 2.479882 0.082379 -0.026151 289439.000000 0 0 1
11.763940 -15.285562 -25.336532 31.843030 -0.914862 2.490909 0.073483 -0.029079 301620.000000 0 0 1
11.877540 -16.623462 -25.048192 32.323790 -0.950402 2.457377 0.063296 -0.026537 136821.000000 0 0 1
10.621540 -17.494962 -25.335662 32.569719 -1.025158 2.462098 0.065856 -0.024530 364507.000000 0 0 1
10.685540 -18.107662 -26.593212 33.900843 -1.037679 2.472591 0.074592 -0.040187 -895306.000000 0 0 1
9.506640 -18.730462 -26.897292 34.127273 -1.101127 2.478588 0.080038 -0.038432 -1326060.000000 0 0 1
9.690540 -19.562562 -28.157332 35.629142 -1.110866 2.482077 0.085158 -0.039060 -385345.000000 0 0 1
10.474240 -20.675062 -27.803862 36.196998 -1.101873 2.446706 0.079557 -0.043162 28153.000000 0 0 1
10.722240 -21.484362 -28.902542 37.575274 -1.107892 2.448370 0.090788 -0.041908 46063.700000 0 0 1
11.374540 -22.853362 -28.593332 38.330601 -1.108976 2.412781 0.087174 -0.034820 104065.000000 0 0 1
11.511640 -23.850262 -29.563292 39.690567 -1.121114 2.411098 0.095838 -0.032853 -43830.200000 0 0 1
12.281440 -24.924162 -29.031952 40.185842 -1.112964 2.378124 0.127324 -0.038825 164950.000000 0 0 1
11.648640 -25.947562 -28.036612 39.937682 -1.148833 2.349011 0.127636 -0.038513 55198.100000 0 0 1
11.182140 -25.351062 -26.835052 38.572486 -1.155375 2.340197 0.131432 -0.046252 -774868.000000 0 0 1
10.432140 -26.250362 -26.127242 38.477836 -1.192525 2.317224 0.125454 -0.039024 -326545.000000 0 0 1
9.520040 -25.542962 -25.104092 37.057921 -1.214037 2.315057 0.106800 -0.032312 -161323.000000 0 0 1
10.205740 -24.672962 -24.229492 36.055242 -1.178586 2.307716 0.106205 -0.034574 -353341.000000 0 0 1
9.627940 -23.384262 -24.328492 35.091259 -1.180221 2.336844 0.086511 -0.035184 -937574.000000 0 0 1
10.568040 -22.247762 -24.549092 34.775053 -1.127335 2.354545 0.082047 -0.026991 -636208.000000 0 0 1
11.265440 -21.989562 -23.355492 33.998971 -1.097350 2.328076 0.071373 -0.025365 -74811.800000 0 0 1
12.255240 -20.982062 -23.486092 33.793999 -1.042164 2.339186 0.064765 -0.029931 -52142.900000 0 0 1
12.782640 -20.454362 -22.151792 32.748721 -1.012244 2.313683 0.050463 -0.018598 -413012.000000 0 0 1
11.905540 -19.738162 -21.319092 31.398099 -1.028047 2.317187 0.045646 -0.014918 -365279.000000 0 0 1
11.747740 -18.288762 -21.583092 30.631978 -0.999820 2.352646 0.051760 -0.015640 -512488.000000 0 0 1
12.967840 -17.394962 -21.437792 30.501287 -0.930185 2.350191 0.070128 -0.018050 -179461.000000 0 0 1
14.004440 -17.655262 -22.361692 31.747093 -0.900206 2.352331 0.067330 -0.019001 63522.000000 0 0 1
14.838040 -16.508162 -22.527492 31.625540 -0.838628 2.363594 0.075815 -0.004117 277961.000000 0 0 1
16.228240 -16.578462 -23.200192 32.809299 -0.796073 2.356217 0.049432 -0.009658 55564.100000 0 0 1
17.252240 -17.043662 -22.355292 32.983106 -0.779317 2.315536 0.046531 -0.003728 204811.000000 0 0 1
18.509840 -16.591362 -22.822892 33.745694 -0.730797 2.313552 0.062814 0.001068 -609272.000000 0 0 1
19.714240 -16.854962 -21.977892 33.996599 -0.707369 2.273749 0.068231 -0.007621 -660275.000000 0 0 1
20.063440 -18.233262 -21.834392 34.809972 -0.737645 2.248807 0.070182 -0.013974 273078.000000 0 0 1
21.442540 -18.448462 -21.607592 35.595173 -0.710482 2.223123 0.072285 -0.030057 190481.000000 0 0 1
21.765040 -19.950562 -21.365992 36.445130 -0.741929 2.197220 0.088919 -0.034964 -119387.000000 0 0 1
21.178440 -20.478562 -20.210492 35.726206 -0.768599 2.172084 0.092222 -0.039398 184419.000000 0 0 1
21.528540 -21.828962 -20.095092 36.657801 -0.792327 2.150984 0.117987 -0.039922 -3815.810000 0 0 1
-16.840324 12.745443 27.802496 34.914491 -0.647865 0.649639 0.060600 -0.037240 -540538.000000 0 0 1
-18.108324 13.256843 27.563316 35.544222 -0.631937 0.683344 0.061004 -0.027957 -562370.000000 0 0 1
-18.123524 13.557943 26.179876 34.607310 -0.642275 0.712876 0.062684 -0.026592 -464432.000000 0 0 1
-19.439124 14.114143 25.640976 35.136139 -0.628008 0.752824 0.080825 -0.028569 -307617.000000 0 0 1
-19.814424 15.423143 26.144656 36.249522 -0.661418 0.765203 0.074685 -0.023896 69543.400000 0 0 1
-20.700624 16.058243 25.264676 36.396248 -0.659770 0.803550 0.083521 -0.021763 -523597.000000 0 0 1
-20.607624 17.591443 25.502006 37.208674 -0.706602 0.815674 0.086196 -0.014068 16267.200000 0 0 1
-19.432724 18.284543 25.144296 36.663210 -0.754966 0.815069 0.077670 -0.022520 293043.000000 0 0 1
-18.459224 18.456143 26.188396 36.975726 -0.785315 0.783767 0.073736 -0.017435 218954.000000 0 0 1
-17.268624 19.302143 25.693376 36.481882 -0.840946 0.789391 0.074074 -0.016115 -20368.800000 0 0 1
-17.478524 20.671343 25.484226 37.178610 -0.868895 0.815569 0.091513 -0.015906 210499.000000 0 0 1
-16.208024 21.155643 25.087096 36.600870 -0.917050 0.815611 0.110848 -0.022062 327234.000000 0 0 1
-16.142024 22.683343 24.875316 37.334707 -0.952311 0.841589 0.108461 -0.017486 -161761.000000 0 0 1
-15.928524 23.521043 26.022796 38.524580 -0.975535 0.829173 0.110840 -0.011142 52628.100000 0 0 1
-16.233724 24.903643 25.836576 39.385961 -0.993114 0.855310 0.109829 -0.008072 -92679.400000 0 0 1
-15.636024 25.879543 26.894366 40.466566 -1.027306 0.843828 0.087371 0.000525 -159289.000000 0 0 1
-14.240724 26.027443 26.790706 39.974592 -1.070149 0.836327 0.076124 -0.001338 -325274.000000 0 0 1
-13.891324 27.001343 27.778706 41.154562 -1.095641 0.829852 0.086480 0.004073 1087240.000000 0 0 1
-12.326924 27.179243 27.865336 40.830642 -1.145001 0.819671 0.101007 -0.004995 1145170.000000 0 0 1
-11.643424 27.794743 26.773266 40.310357 -1.174097 0.844402 0.077647 -0.008948 -826321.000000 0 0 1
-10.299224 27.538043 26.967316 39.895539 -1.212903 0.828546 0.069717 0.001163 -1237690.000000 0 0 1
-9.379024 28.221543 25.979826 39.488897 -1.249944 0.852767 0.068685 -0.007810 -373158.000000 0 0 1
-8.006124 27.902043 26.097716 39.034765 -1.291367 0.838504 0.061162 -0.012282 277749.000000 0 0 1
-7.374124 28.317143 24.881486 38.409981 -1.316042 0.866120 0.084074 -0.012786 -289752.000000 0 0 1
-5.847124 28.174543 24.963766 38.094401 -1.366169 0.856199 0.105088 -0.023867 -1274050.000000 0 0 1
-5.246424 29.084143 25.840076 39.257126 -1.392328 0.852336 0.115592 -0.023860 -1286090.000000 0 0 1
-3.915724 28.745943 25.918456 38.902809 -1.435411 0.841646 0.123583 -0.020922 -932851.000000 0 0 1
-3.076924 29.678943 24.963536 38.903538 -1.467492 0.874113 0.136119 -0.013092 -612666.000000 0 0 1
-3.439924 29.540443 23.601456 37.967086 -1.454870 0.899975 0.141140 -0.012328 -259696.000000 0 0 1
-2.943324 30.639043 22.825696 38.320054 -1.475026 0.932710 0.133937 -0.013591 -481674.000000 0 0 1
-3.293924 30.465443 21.347716 37.345926 -1.463095 0.962316 0.146081 -0.020557 564681.000000 0 0 1
-4.705324 30.437243 21.162016 37.368393 -1.417419 0.968777 0.138336 -0.020036 266595.000000 0 0 1
-5.194424 29.120343 21.356716 36.484048 -1.394275 0.945458 0.146275 -0.013775 -251957.000000 0 0 1
-6.695124 28.918643 20.957116 36.336116 -1.343289 0.956043 0.108997 -0.018141 476148.000000 0 0 1
-6.948924 28.807543 19.584816 35.520799 -1.334099 0.986800 0.100761 -0.013592 -258923.000000 0 0 1
-7.738624 27.750043 19.138416 34.586561 -1.298837 0.984418 0.061345 -0.012675 -1056620.000000 0 0 1
-7.085424 26.352043 18.823216 33.150368 -1.308133 0.966950 0.047413 -0.013730 208629.000000 0 0 1
-6.117824 26.314543 17.790216 32.347716 -1.342366 0.988470 0.059085 -0.015474 945462.000000 0 0 1
-4.817524 26.804043 18.162316 32.734309 -1.392964 0.982625 0.087385 -0.010294 124956.000000 0 0 1
-3.779424 26.952043 17.053416 32.117218 -1.431477 1.011046 0.073527 -0.015257 -344287.000000 0 0 1
-3.221924 25.756843 16.618616 30.821651 -1.446353 1.001326 0.064010 -0.010526 -570965.000000 0 0 1
-2.488424 26.159543 15.513916 30.515497 -1.475957 1.037477 0.068163 -0.013013 -300554.000000 0 0 1
-1.870324 25.000243 14.685516 29.054684 -1.496123 1.040900 0.051823 -0.018560 472017.000000 0 0 1
-0.776424 24.400943 15.411716 28.870917 -1.538988 1.007691 0.048938 -0.013663 353391.000000 0 0 1
-0.292724 23.367443 14.584416 27.546838 -1.558270 1.012855 0.042848 -0.025130 -164703.000000 0 0 1
1.051276 22.746243 15.018216 27.277162 1.524612 0.987739 0.037717 -0.026159 -159818.000000 0 0 1
2.132176 23.635043 15.001016 28.074756 1.480827 1.007088 0.046443 -0.025533 -962253.000000 0 0 1
3.264276 22.992443 15.490116 27.915079 1.429767 0.982552 0.049142 -0.029915 -1393650.000000 0 0 1
4.464976 23.855343 15.241616 28.658686 1.385768 1.010033 0.095024 -0.046028 -1266340.000000 0 0 1
5.663776 23.165143 15.400716 28.388101 1.331005 0.997379 0.102571 -0.045612 -916304.000000 0 0 1
6.759676 24.020343 15.293716 29.267181 1.296476 1.020951 0.120045 -0.048019 -282089.000000 0 0 1
8.152176 23.355343 15.487816 29.185655 1.234968 1.011411 0.145345 -0.050967 669126.000000 0 0 1
8.704776 22.552143 14.398016 28.136723 1.202430 1.033615 0.128517 -0.053855 217008.000000 0 0 1
8.964576 23.244643 13.180616 28.185204 1.202711 1.084174 0.132253 -0.054692 -530039.000000 0 0 1
9.539376 22.304043 12.069316 27.094989 1.166643 1.109126 0.113806 -0.052125 -378103.000000 0 0 1
10.799976 21.787143 12.374916 27.284751 1.110591 1.100055 0.109981 -0.046832 -640970.000000 0 0 1
11.277576 21.028043 11.306616 26.404581 1.078523 1.128289 0.107302 -0.051428 68082.200000 0 0 1
12.757876 20.625243 11.484916 26.834071 1.016844 1.128520 0.141373 -0.048725 250941.000000 0 0 1
12.814176 19.753743 12.612016 26.710979 0.995338 1.079050 0.132444 -0.043538 589219.000000 0 0 1
14.135276 19.190643 12.641416 26.979478 0.935945 1.083140 0.114391 -0.041280 433397.000000 0 0 1
14.489176 18.657243 14.031916 27.475873 0.910489 1.034798 0.118394 -0.039327 -330730.000000 0 0 1
15.779276 18.103143 14.118516 27.857527 0.853877 1.039314 0.120434 -0.038729 57189.900000 0 0 1
16.195476 17.853043 15.452616 28.632288 0.834042 1.000725 0.108584 -0.042317 -274825.000000 0 0 1
17.623676 17.305643 15.461816 29.140127 0.776293 1.011485 0.083363 -0.037205 -372694.000000 0 0 1
18.258576 17.217143 16.738016 30.165656 0.756050 0.982590 0.078092 -0.042245 336850.000000 0 0 1
19.455276 16.470743 16.541616 30.387797 0.702514 0.995182 0.078339 -0.040042 442073.000000 0 0 1
20.168976 16.021243 17.886116 31.358906 0.671287 0.963843 0.082207 -0.040912 -78953.300000 0 0 1
20.721376 17.067943 18.653416 32.690060 0.689019 0.963543 0.106114 -0.029350 491034.000000 0 0 1
19.737276 17.834843 19.362916 32.902344 0.734807 0.941598 0.086638 -0.026528 293437.000000 0 0 1
20.375876 18.827243 20.385416 34.426830 0.745916 0.937088 0.079636 -0.026916 240518.000000 0 0 1
19.358776 19.688843 20.928616 34.647074 0.793851 0.922221 0.111964 -0.041648 521637.000000 0 0 1
19.870076 20.587743 21.888116 36.024502 0.803135 0.917774 0.099338 -0.032933 188251.000000 0 0 1
18.850476 21.676843 22.384236 36.418127 0.855025 0.908860 0.116051 -0.038717 -364735.000000 0 0 1
17.906376 21.138243 23.203866 36.137004 0.867984 0.873551 0.124876 -0.040323 -482548.000000 0 0 1
17.105276 22.174443 23.781646 36.740483 0.913742 0.866776 0.113076 -0.047647 327183.000000 0 0 1
16.445576 21.864643 25.168736 37.175057 0.925918 0.827073 0.126286 -0.046598 -26798.000000 0 0 1
15.386576 20.949443 25.061536 36.106876 0.937314 0.803637 0.133522 -0.049873 -456225.000000 0 0 1
14.636476 20.851443 26.249786 36.579508 0.958769 0.770433 0.118871 -0.045306 461917.000000 0 0 1
13.394576 19.894843 26.252666 35.558711 0.978237 0.740264 0.137520 -0.039276 335910.000000 0 0 1
13.606676 18.508443 26.094516 34.765326 0.936860 0.721841 0.145963 -0.047516 -166177.000000 0 0 1
14.183376 18.031343 24.902946 33.859330 0.904282 0.744418 0.159453 -0.053104 175265.000000 0 0 1
13.198676 17.972443 23.680996 32.526963 0.937365 0.755335 0.167268 -0.046294 -260801.000000 0 0 1
13.068576 19.186743 22.898306 32.607533 0.972851 0.792258 0.162976 -0.043797 571990.000000 0 0 1
14.208376 19.604343 22.108216 32.786910 0.943648 0.830780 0.159494 -0.041158 736714.000000 0 0 1
14.822176 18.551743 21.132916 31.787800 0.896687 0.843554 0.165140 -0.045675 -134758.000000 0 0 1
13.916376 18.321243 20.072316 30.532464 0.921195 0.853421 0.148739 -0.039551 426301.000000 0 0 1
14.452676 17.283543 19.220616 29.614739 0.874363 0.864498 0.114717 -0.034095 1339680.000000 0 0 1
13.307376 16.477743 18.407116 28.061080 0.891440 0.855334 0.128483 -0.028596 1083060.000000 0 0 1
12.781376 17.234443 17.337516 27.585849 0.932681 0.891182 0.151405 -0.040768 -41598.800000 0 0 1
11.829976 16.475443 16.628516 26.227774 0.948067 0.884076 0.134138 -0.035561 33785.300000 0 0 1
11.180776 17.184643 15.410816 25.647904 0.993981 0.926219 0.120181 -0.030352 530267.000000 0 0 1
10.103876 18.083743 15.743316 26.018495 1.061278 0.920928 0.125347 -0.038536 545025.000000 0 0 1
9.677376 18.605343 14.511616 25.502890 1.091167 0.965485 0.104559 -0.021477 316389.000000 0 0 1
8.443176 19.564643 14.579816 25.819247 1.163389 0.970741 0.107889 -0.028436 966478.000000 0 0 1
7.212576 18.947843 14.947016 25.188396 1.207078 0.935509 0.071789 -0.024552 -166694.000000 0 0 1
6.228876 19.881243 15.249916 25.819037 1.267179 0.938937 0.089971 -0.031675 -881734.000000 0 0 1
4.924476 19.308843 15.735616 25.390776 1.321082 0.902388 0.067657 -0.037161 49925.400000 0 0 1
4.020076 18.757143 14.735016 24.189091 1.359668 0.915796 0.045886 -0.033300 391720.000000 0 1 0
2.810276 18.340943 15.320416 24.062481 1.418755 0.880594 0.029245 -0.031598 584877.000000 0 1 0
1.589276 18.112343 14.376316 23.178897 1.483275 0.901757 0.030354 -0.025927 552199.000000 0 1 0
1.013976 19.324943 13.910716 23.832533 1.518375 0.947535 0.026284 -0.018495 -561104.000000 0 1 0
-0.001624 19.055943 13.010316 23.073736 -1.570711 0.971746 0.022210 -0.018257 -783798.000000 0 1 0
-0.689724 20.211543 12.310016 23.675276 -1.536684 1.024001 0.015570 -0.014853 -85566.700000 0 1 0
-1.852324 20.721943 12.929216 24.494789 -1.481644 1.014746 0.018507 -0.016210 -341596.000000 0 1 0
-2.773824 20.908443 11.866716 24.200745 -1.438901 1.058311 0.024299 -0.020740 174237.000000 0 1 0
-4.124624 21.507743 12.343716 25.138872 -1.381323 1.057535 0.030610 -0.021274 110031.000000 0 0 1
-4.813324 20.773143 13.312316 25.137807 -1.343105 1.012699 0.032980 -0.023287 -26477.500000 0 0 1
-5.885624 21.559543 13.826816 26.279942 -1.304296 1.016746 0.031414 -0.022039 -190403.000000 0 0 1
-6.615324 20.844343 14.932416 26.480676 -1.263483 0.971697 0.032284 -0.028762 -1085890.000000 0 0 1
-7.438824 19.758343 14.565416 25.649164 -1.210720 0.966879 0.043986 -0.033173 92778.800000 0 0 1
-8.031424 19.108443 15.696016 26.000025 -1.172907 0.922672 0.047590 -0.023121 148008.000000 0 0 1
-9.178424 19.854743 16.406216 27.342608 -1.137778 0.927265 0.044401 -0.013375 -137916.000000 0 0 1
-10.297424 20.116843 15.552516 27.433649 -1.097689 0.968042 0.043040 -0.028986 850792.000000 0 0 1
-11.516424 19.767843 16.227716 28.048787 -1.043281 0.953843 0.039878 -0.017018 564811.000000 0 0 1
-12.722724 19.413243 15.349116 27.826913 -0.990660 0.986524 0.050657 -0.025998 485642.000000 0 0 1
-13.569124 20.552343 15.023216 28.848171 -0.987268 1.023046 0.042890 -0.015304 849625.000000 0 0 1
-14.524924 20.312143 13.998116 28.626978 -0.950017 1.059872 0.047513 -0.022148 -275412.000000 0 0 1
-15.559924 21.397843 13.727116 29.806252 -0.942066 1.092187 0.042539 -0.024475 -812194.000000 0 0 1
-16.675024 21.214943 14.541216 30.652524 -0.904648 1.076527 0.044082 -0.023425 -850332.000000 0 0 1
-17.398924 22.419843 14.511316 31.873974 -0.910830 1.098119 0.058051 -0.033115 388862.000000 0 0 1
-18.778924 22.301843 15.241616 32.898740 -0.870945 1.089094 0.129055 -0.039063 678141.000000 0 0 1
-19.674524 21.306843 14.683216 32.506389 -0.825208 1.102124 0.123681 -0.043090 1190300.000000 0 0 1
-20.825324 21.035143 15.515316 33.420000 -0.790410 1.088006 0.126110 -0.037466 1710920.000000 0 0 1
-22.060924 22.025543 15.391716 34.766563 -0.784596 1.112171 0.119194 -0.039363 407093.000000 0 0 1
-22.760624 21.896943 14.147716 34.607514 -0.766060 1.149652 0.130837 -0.038926 -3051.750000 0 0 1
-23.596524 23.010743 13.949416 35.789335 -0.772830 1.170420 0.156138 -0.045716 -76938.700000 0 0 1
-22.953724 24.283643 13.320116 35.972132 -0.813545 1.191475 0.134148 -0.039547 -230805.000000 0 0 1
-21.813324 24.761343 13.984216 35.839971 -0.848610 1.169964 0.103502 -0.041719 -110878.000000 0 0 1
-21.357824 25.979643 13.406716 36.205505 -0.882725 1.191470 0.083412 -0.028367 179147.000000 0 0 1
-19.912424 26.384943 13.829116 35.831750 -0.924301 1.174563 0.063979 -0.024714 599072.000000 0 0 1
-18.970324 25.818243 12.923016 34.546479 -0.937118 1.187396 0.071227 -0.019560 277832.000000 0 0 1
-17.641224 26.226343 13.216616 34.259492 -0.978661 1.174744 0.032056 -0.019839 650781.000000 0 0 1
-16.540324 25.766043 12.207416 32.961983 -1.000106 1.191412 0.047846 -0.021824 139710.000000 0 0 1
-15.294824 26.338743 12.468216 32.910750 -1.044691 1.182244 0.033029 -0.021283 308206.000000 0 0 1
-14.228024 25.773043 11.677016 31.670793 -1.066380 1.193186 0.038694 -0.020830 891192.000000 0 0 1
-12.820324 26.412143 11.794916 31.639881 -1.118901 1.188786 0.042248 -0.017595 -539032.000000 0 0 1
-11.847824 25.585543 11.207416 30.341344 -1.137129 1.192457 0.032217 -0.017269 737191.000000 0 0 1
-10.499224 26.036943 11.436616 30.314226 -1.187497 1.183951 0.043988 -0.020740 793626.000000 0 0 1
-9.997724 27.296043 10.746316 30.992125 -1.219701 1.216699 0.057271 -0.030717 -413214.000000 0 0 1
-8.752824 27.698143 11.329216 31.179324 -1.264719 1.198928 0.074552 -0.028522 577603.000000 0 0 1
-8.457424 29.039943 10.988716 32.180712 -1.287401 1.222317 0.085224 -0.035171 423036.000000 0 0 1
-7.103224 29.590543 11.538516 32.545252 -1.335204 1.208377 0.088027 -0.035691 798259.000000 0 0 1
-5.920824 29.096943 10.925216 31.639352 -1.370051 1.218233 0.098392 -0.033890 -26453.000000 0 0 1
-4.808924 29.594543 11.629016 32.158930 -1.409711 1.200801 0.134407 -0.043238 403374.000000 0 0 1
-3.406124 29.341443 10.993916 31.518061 -1.455228 1.214492 0.128163 -0.042551 445420.000000 0 0 1
-3.266924 30.134243 9.814416 31.860135 -1.462806 1.257657 0.132952 -0.050153 633566.000000 0 0 1
-1.872924 30.207443 9.484616 31.716800 -1.508874 1.267109 0.123828 -0.049224 984284.000000 0 0 1
-1.627324 30.877443 8.100916 31.963878 -1.518142 1.314562 0.126261 -0.058194 -15305.300000 0 0 1
-1.950824 30.076443 6.977416 30.936750 -1.506025 1.343301 0.137370 -0.050737 -207483.000000 0 0 1
-1.998724 30.857943 5.791716 31.460317 -1.506115 1.385644 0.142632 -0.045100 107391.000000 0 0 1
12.368676 -33.327262 -26.628702 44.415969 -1.215425 2.213710 0.208634 -0.063415 -58690.600000 0 0 1
12.748376 -33.047462 -25.294342 43.525390 -1.202626 2.190925 0.187688 -0.056063 -512486.000000 0 0 1
13.958676 -32.373262 -25.349222 43.421835 -1.163704 2.194185 0.173838 -0.047578 -887854.000000 0 0 1
14.704376 -32.388362 -24.041992 42.932995 -1.144619 2.165168 0.136057 -0.040228 -634415.000000 0 0 1
14.110876 -31.533562 -23.073492 41.543572 -1.150034 2.159646 0.140105 -0.038939 154135.000000 0 0 1
14.687076 -31.499562 -21.774492 41.012938 -1.134501 2.130479 0.091017 -0.028357 845013.000000 0 0 1
16.197176 -31.089462 -21.558292 41.154139 -1.090501 2.122152 0.047728 -0.015494 1137710.000000 0 0 1
17.094076 -32.173362 -21.698592 42.404735 -1.082414 2.107961 0.064987 -0.020042 442026.000000 0 0 1
18.465676 -31.937462 -21.420292 42.659250 -1.046574 2.096851 0.038844 -0.020436 32191.400000 0 0 1
19.290076 -33.220462 -21.332392 43.940609 -1.044712 2.077711 0.025111 -0.010929 -1500510.000000 0 0 1
20.620176 -33.006062 -21.074092 44.257306 -1.012385 2.067093 0.032279 -0.001909 -1039000.000000 0 0 1
21.274976 33.395443 -21.321792 44.972203 1.003570 2.064750 0.034461 0.003975 541736.000000 0 0 1
22.824076 33.417943 -21.135392 45.655253 0.971579 2.052099 0.071401 0.002822 363784.000000 0 0 1
23.504876 -33.510462 -22.120892 46.527026 -0.959119 2.066262 0.060294 0.008857 -226089.000000 0 0 1
24.886176 -33.526162 -21.882092 47.139699 -0.932247 2.053524 0.063996 0.006727 347801.000000 0 0 1
25.816376 -32.858462 -22.984392 47.691153 -0.904846 2.073667 0.084634 0.007042 448390.000000 0 0 1
25.803576 -31.439662 -22.910392 46.681505 -0.883540 2.083782 0.092706 0.003352 -361009.000000 0 0 1
24.702376 -30.857762 -23.521492 45.996407 -0.895736 2.107582 0.064897 0.005439 -508705.000000 0 0 1
24.777076 -29.303262 -23.368892 44.929832 -0.868897 2.117787 0.059112 -0.009892 194372.000000 0 0 1
25.690076 -28.568762 -24.219392 45.417322 -0.838403 2.133250 0.061037 -0.013270 430491.000000 0 0 1
25.715076 -27.169962 -23.942892 44.415471 -0.812902 2.140125 0.075489 -0.011876 45457.500000 0 0 1
26.532676 -26.464262 -25.014492 45.056241 -0.784107 2.159380 0.077877 -0.013914 -69899.200000 0 0 1
25.809576 -26.343462 -26.286252 45.288842 -0.795635 2.190033 0.059599 -0.011930 100554.000000 0 0 1
26.458176 -25.742162 -27.408052 45.977117 -0.771682 2.209461 0.058751 -0.008931 67368.800000 0 0 1
25.426476 -25.404562 -28.561652 45.909317 -0.784967 2.242259 0.055395 -0.012372 791211.000000 0 0 1
24.695876 -24.204562 -28.458092 44.784039 -0.775351 2.259390 0.068158 -0.017331 731777.000000 0 0 1
23.527276 -24.257462 -27.614352 43.640688 -0.800678 2.255917 0.065999 -0.014292 687605.000000 0 0 1
22.613676 -23.033662 -27.386042 42.331114 -0.794599 2.274372 0.067500 -0.014869 320399.000000 0 0 1
22.045376 -22.395062 -28.539082 42.450166 -0.793267 2.308102 0.076715 -0.020963 293132.000000 0 0 1
21.362976 -21.218862 -28.169152 41.232487 -0.782014 2.322903 0.065155 -0.010104 -619607.000000 0 0 1
20.413176 -20.648362 -29.204942 41.182293 -0.791126 2.359106 0.085928 -0.022313 -837255.000000 0 0 1
19.349876 -21.527562 -29.346262 41.219616 -0.838621 2.363066 0.082794 -0.029823 -509936.000000 0 0 1
18.384976 -21.032262 -30.272922 41.192392 -0.852458 2.396338 0.075297 -0.035199 291926.000000 0 0 1
17.065576 -21.823262 -30.062152 40.880578 -0.907134 2.397002 0.089702 -0.040574 -107151.000000 0 0 1
17.270276 -23.127262 -30.545952 42.026038 -0.929379 2.384497 0.079793 -0.026945 -324641.000000 0 0 1
16.234976 -23.993862 -30.187502 41.839756 -0.975927 2.376767 0.099287 -0.036604 -385187.000000 0 0 1
16.517176 -25.516762 -30.489442 43.052623 -0.996317 2.357728 0.117420 -0.035665 368182.000000 0 0 1
15.587376 -26.377062 -29.822782 42.756450 -1.037062 2.342704 0.136378 -0.040311 226990.000000 0 0 1
15.725176 -27.724762 -30.346982 44.010032 -1.054852 2.331660 0.166492 -0.038261 347857.000000 0 0 1
14.879276 -28.744762 -29.503232 43.796060 -1.093141 2.309933 0.172012 -0.052323 151589.000000 0 0 1
15.340876 -28.991462 -28.180942 43.243645 -1.084100 2.280591 0.209365 -0.066796 -272419.000000 0 0 1
15.185776 -27.958962 -27.243202 41.886793 -1.073231 2.278908 0.168147 -0.060132 618992.000000 0 0 1
16.367876 -27.827762 -26.186712 41.569648 -1.039110 2.252282 0.108722 -0.035993 653708.000000 0 0 1
16.434076 -28.922262 -25.313772 41.801473 -1.054076 2.221280 0.107473 -0.041119 223433.000000 0 0 1
17.242476 -28.585062 -24.164792 41.210993 -1.028028 2.197364 0.122651 -0.044015 -381281.000000 0 0 1
16.586376 -27.633662 -23.104192 39.655149 -1.030212 2.192755 0.099975 -0.036743 817332.000000 0 0 1
15.460376 -28.082462 -22.331392 39.068388 -1.067543 2.179248 0.096169 -0.040207 146537.000000 0 0 1
14.270976 -28.129862 -23.086892 39.089058 -1.101306 2.202627 0.126320 -0.043413 -1373750.000000 0 0 1
13.082476 -27.932362 -22.173192 37.987083 -1.132777 2.194079 0.100844 -0.031339 -726837.000000 0 0 1
12.878776 -26.562462 -21.985492 36.807460 -1.119343 2.210940 0.070567 -0.030723 -1257310.000000 0 0 1
11.600476 -26.302162 -21.579592 35.945147 -1.155413 2.214732 0.066856 -0.028666 -1353590.000000 0 0 1
11.252376 -24.813862 -21.309592 34.589629 -1.145059 2.234538 0.061762 -0.028475 -157659.000000 0 0 1
11.765476 -24.197462 -20.161492 33.621858 -1.118227 2.213865 0.038131 -0.028878 -102923.000000 0 0 1
11.136176 -22.972862 -20.134392 32.514006 -1.119420 2.238587 0.039314 -0.032580 -230489.000000 0 0 1
11.370276 -22.215662 -18.822892 31.258920 -1.097743 2.217001 0.033465 -0.027420 -148139.000000 0 0 1
10.499976 -22.658362 -17.819692 30.678857 -1.136852 2.190564 0.044827 -0.034253 66995.700000 0 0 1
10.620076 -21.836462 -16.693192 29.466587 -1.118131 2.173064 0.040607 -0.027767 -328263.000000 0 0 1
9.882176 -22.364562 -15.452092 28.924007 -1.154726 2.134394 0.037724 -0.022112 75420.600000 0 0 1
10.333476 -23.666862 -15.058092 29.893933 -1.159123 2.098693 0.034111 -0.021199 293306.000000 0 0 1
9.590476 -24.099962 -13.915992 29.435357 -1.192062 2.063222 0.020918 -0.015961 303834.000000 0 0 1
9.834676 -25.619662 -13.595492 30.625567 -1.204270 2.030772 0.036817 -0.017302 444651.000000 0 0 1
11.196076 -25.922862 -13.323592 31.222828 -1.163096 2.011666 0.035667 -0.015179 65797.600000 0 0 1
11.480076 -27.285762 -13.302092 32.453823 -1.172544 1.993116 0.043109 -0.021508 507781.000000 0 0 1
12.857576 -27.735062 -12.624092 33.074441 -1.136702 1.962417 0.053288 -0.027957 2016450.000000 0 0 1
14.114776 -27.421162 -13.263792 33.571941 -1.095426 1.976957 0.063790 -0.027746 829010.000000 0 0 1
14.237176 -27.567262 -14.667392 34.318851 -1.094074 2.012396 0.064235 -0.033939 -766269.000000 0 0 1
15.660376 -27.090862 -15.078592 34.735085 -1.046659 2.019838 0.061937 -0.031850 650361.000000 0 0 1
16.698076 -27.997162 -14.681792 35.752229 -1.033013 1.993967 0.110089 -0.035639 571785.000000 0 0 1
17.950876 -27.360562 -15.025092 36.008162 -0.990155 2.001235 0.133041 -0.042686 1028160.000000 0 0 1
19.137676 -28.320662 -14.718092 37.214685 -0.976532 1.977399 0.123645 -0.042242 231486.000000 0 0 1
19.176976 -29.479662 -15.538992 38.448240 -0.994059 1.986850 0.095549 -0.033222 329349.000000 0 0 1
20.522576 -29.959362 -15.572592 39.512594 -0.970199 1.975903 0.104981 -0.023673 691405.000000 0 0 1
20.836776 -30.895462 -16.741892 40.853296 -0.977439 1.993037 0.103960 -0.021389 80914.000000 0 0 1
20.391076 -32.209562 -16.518992 41.546708 -1.006411 1.979697 0.079053 -0.012910 -43241.200000 0 0 1
20.919276 -33.002562 -17.535192 42.828357 -1.005845 1.992625 0.072026 -0.012379 39642.000000 0 0 1
20.743476 33.125743 -17.342992 42.759631 1.011332 1.988423 0.053118 -0.004956 -257906.000000 0 0 1
21.551876 32.594143 -16.335892 42.352366 0.986574 1.966778 0.078375 -0.009201 98177.300000 0 0 1
21.180076 31.296843 -15.892292 40.995767 0.975847 1.968885 0.068440 -0.010692 -311025.000000 0 0 1
22.304176 30.953143 -14.894392 40.956272 0.946392 1.942996 0.072372 -0.014223 -58954.600000 0 0 1
23.542676 30.601043 -15.510592 41.608411 0.915031 1.952795 0.080315 -0.007231 719668.000000 0 0 1
24.553976 30.321043 -14.508892 41.626570 0.890108 1.926819 0.081352 -0.013707 550329.000000 0 0 1
24.350776 29.233443 -13.396992 40.336508 0.876269 1.909358 0.075879 -0.004510 -1090440.000000 0 0 1
24.631176 27.999943 -13.925492 39.807172 0.849318 1.928179 0.090021 0.000075 -7849.210000 0 0 1
24.507476 26.879843 -13.016692 38.633879 0.831532 1.914445 0.047172 0.003322 962167.000000 0 0 1
23.004476 26.530643 -12.695692 37.339811 0.856463 1.917718 0.050992 0.001331 538124.000000 0 0 1
22.162876 26.090943 -13.728092 36.883477 0.866623 1.952176 0.061113 -0.006047 721660.000000 0 0 1
20.752676 26.197843 -13.526692 36.055123 0.900859 1.955373 0.069690 -0.008486 929721.000000 0 0 1
20.084576 27.658243 -13.499792 36.750687 0.942722 1.946938 0.077165 -0.011931 -201940.000000 0 0 1
20.001276 28.405243 -14.715192 37.728580 0.957297 1.971458 0.080910 -0.010168 250204.000000 0 0 1
19.385776 27.660843 -15.796392 37.288826 0.959508 2.008237 0.078313 -0.006633 -92792.100000 0 0 1
19.311976 28.439243 -17.161092 38.421947 0.974262 2.033812 0.069304 -0.001796 -263499.000000 0 0 1
18.349176 29.434843 -17.312292 38.766193 1.013361 2.033738 0.062534 -0.001668 -281288.000000 0 0 1
18.535976 30.066043 -18.530792 39.886584 1.018326 2.053965 0.050809 -0.001821 -152161.000000 0 0 1
17.483276 31.161143 -18.811392 40.380072 1.059501 2.055401 0.032893 -0.002578 -106532.000000 0 0 1
17.576176 32.422343 -18.140392 41.099928 1.074038 2.027924 0.053598 -0.017850 -407139.000000 0 0 1
16.610576 33.348143 -18.527692 41.608716 1.108673 2.032288 0.052630 -0.015661 -369696.000000 0 0 1
16.699076 -32.935262 -17.763392 40.977173 -1.101543 2.019164 0.049009 -0.019423 369165.000000 0 0 1
15.665276 -32.014762 -18.145592 39.995104 -1.115734 2.041704 0.035014 -0.015996 383060.000000 0 0 1
15.528476 -31.049662 -17.084892 38.692488 -1.107055 2.028128 0.046518 -0.022703 -158814.000000 0 0 1
14.272976 -30.213462 -17.309392 37.632249 -1.129468 2.048748 0.053420 -0.025764 -1380810.000000 0 0 1
13.055076 -30.814962 -17.482792 37.757713 -1.170061 2.052202 0.050299 -0.018762 -1106110.000000 0 0 1
12.119576 -29.732962 -17.483492 36.559618 -1.183743 2.069422 0.035885 -0.017428 268469.000000 0 0 1
10.680276 -30.215462 -17.790292 36.654290 -1.231033 2.077564 0.065285 -0.019227 -736338.000000 0 0 1
9.991876 -30.976762 -16.733292 36.597820 -1.258773 2.045664 0.065986 -0.013996 725844.000000 0 0 1
8.883876 -31.739762 -17.188392 37.172256 -1.297883 2.051495 0.094867 -0.007551 329009.000000 0 0 1
7.709876 -31.013662 -17.887392 36.623056 -1.327139 2.081073 0.098752 -0.003979 -1102460.000000 0 0 1
7.839876 -30.503362 -19.232992 36.902937 -1.319225 2.119027 0.092009 0.003889 -343415.000000 0 0 1
7.589076 -31.483462 -20.245692 38.192807 -1.334259 2.129505 0.115974 -0.013285 -548930.000000 0 0 1
7.729076 -31.178662 -21.782092 38.811173 -1.327799 2.166671 0.129930 -0.016381 782388.000000 0 0 1
9.031076 -30.959462 -22.361992 39.244201 -1.286966 2.177079 0.116339 -0.013878 1169780.000000 0 0 1
9.975376 -32.051462 -22.393792 40.352029 -1.269069 2.159112 0.120963 -0.017504 363058.000000 0 0 1
9.670176 -33.294862 -23.309292 41.777784 -1.288133 2.162692 0.146448 -0.037451 242449.000000 0 0 1
8.453876 33.662643 -23.017392 41.646631 1.324750 2.156377 0.156764 -0.046226 254217.000000 0 0 1
8.221976 32.651343 -23.937092 41.312171 1.324114 2.188813 0.167789 -0.062392 -315540.000000 0 0 1
7.026076 31.805343 -23.454892 40.138231 1.353379 2.194879 0.170102 -0.074894 -193156.000000 0 0 1
5.787376 32.458743 -23.404492 40.433080 1.394351 2.188108 0.172213 -0.069716 -165922.000000 0 0 1
5.516976 33.211843 -22.236892 40.347775 1.406185 2.154515 0.140326 -0.052188 -1236860.000000 0 0 1
4.171976 -33.767662 -22.363292 40.715811 -1.447870 2.152267 0.130816 -0.043481 -900064.000000 0 0 1
3.042876 33.095443 -22.159992 39.945371 1.479112 2.158868 0.121933 -0.051218 187851.000000 0 0 1
1.914176 33.796143 -22.701792 40.758002 1.514218 2.161553 0.119062 -0.037330 207584.000000 0 0 1
0.523076 33.233843 -22.394392 40.078308 1.555058 2.163693 0.097051 -0.038032 -68040.100000 0 0 1
0.153176 33.445943 -20.996492 39.490597 1.566217 2.131383 0.086267 -0.034744 476106.000000 0 0 1
-1.129624 33.019343 -20.548692 38.907606 -1.536599 2.127206 0.097680 -0.043818 326629.000000 0 0 1
-1.384024 33.316143 -19.045592 38.400723 -1.529278 2.089747 0.106302 -0.032173 404932.000000 0 0 1
-0.575224 32.515543 -18.151092 37.243168 -1.553107 2.079868 0.101294 -0.042439 253394.000000 0 0 1
-1.040624 32.512443 -16.822692 36.621644 -1.538800 2.048076 0.070980 -0.028686 -62459.200000 0 0 1
-0.263324 31.555043 -15.912692 35.341249 -1.562452 2.037851 0.047235 -0.023510 -28699.600000 0 0 1
1.047776 31.956043 -15.601792 35.576712 1.538020 2.024769 0.033771 -0.019402 52157.200000 0 0 1
1.705076 30.958943 -14.753192 34.336862 1.515777 2.014913 0.043407 -0.009420 99119.000000 0 0 1
2.666476 31.505843 -13.716892 34.465655 1.486363 1.980118 0.064736 -0.021342 -670754.000000 0 0 1
3.772076 32.088243 -14.336192 35.346999 1.453780 1.988414 0.071754 -0.024194 -456904.000000 0 0 1
4.688076 32.517243 -13.334892 35.456572 1.427611 1.956370 0.083933 -0.033658 -100267.000000 0 0 1
6.018076 33.002343 -13.953392 36.332754 1.390425 1.964969 0.090224 -0.039185 -366365.000000 0 0 1
6.769576 31.884843 -14.292492 35.591371 1.361590 1.984029 0.090541 -0.030950 -668721.000000 0 0 1
7.908176 32.296043 -15.050892 36.497986 1.330656 1.995857 0.083995 -0.022267 15070.300000 0 0 1
8.876976 31.123843 -15.150992 35.735793 1.292959 2.008623 0.077850 -0.024578 -511099.000000 0 0 1
9.785476 30.987443 -14.095692 35.421261 1.264918 1.980071 0.069018 -0.027585 -482284.000000 0 0 1
10.663376 29.894043 -14.203792 34.772246 1.228160 1.991585 0.077144 -0.029909 70539.900000 0 0 1
10.088076 28.483843 -13.943692 33.279500 1.230413 2.003126 0.084298 -0.027238 -267159.000000 0 0 1
9.458976 27.834843 -15.026492 33.015847 1.243215 2.043314 0.101512 -0.036087 -146216.000000 0 0 1
9.127776 26.529043 -14.614192 31.633543 1.239417 2.051027 0.084066 -0.027576 -366919.000000 0 0 1
8.198176 25.796243 -15.610992 31.246749 1.263086 2.093938 0.084114 -0.025496 157576.000000 0 0 1
8.810976 25.234543 -16.757392 31.547197 1.234867 2.130795 0.107246 -0.027952 93513.900000 0 0 1
7.910476 24.291343 -17.310092 30.859103 1.255977 2.166317 0.097603 -0.022318 451153.000000 0 0 1
8.687276 23.436543 -18.375192 31.022379 1.215825 2.204732 0.113387 -0.018699 -26803.400000 0 0 1
7.992776 22.538443 -19.206392 30.671671 1.230004 2.247457 0.112256 -0.027892 -430538.000000 0 0 1
8.839076 21.695443 -19.983692 30.792360 1.183913 2.277042 0.110153 -0.020519 274616.000000 0 0 1
8.025076 20.696143 -20.862192 30.462489 1.200889 2.325192 0.092967 -0.023207 523465.000000 0 0 1
7.210376 19.757443 -20.120192 29.106154 1.220870 2.334041 0.111782 -0.029088 297399.000000 0 0 1
6.842076 18.678243 -21.039692 28.954437 1.219664 2.384227 0.110107 -0.029298 -82430.800000 0 0 1
25.580676 -12.890757 -9.564392 30.199672 -0.466783 1.893050 0.131032 -0.019482 -32739.100000 0 0 1
26.161676 -12.176657 -8.530592 30.091116 -0.435618 1.858230 0.142413 -0.029085 -59009.800000 0 0 1
25.213676 -12.174057 -7.533892 28.994769 -0.449822 1.833649 0.113826 -0.016350 -671379.000000 0 0 1
25.548376 -11.336457 -6.253592 28.641616 -0.417624 1.790909 0.097165 -0.019799 -424219.000000 0 0 1
25.700376 -9.900557 -6.378792 28.270467 -0.367709 1.798391 0.114439 -0.033683 855521.000000 0 0 1
26.854776 -9.402457 -7.058092 29.315556 -0.336784 1.813948 0.090963 -0.025135 -652145.000000 0 0 1
27.196776 -7.890857 -6.682392 29.096127 -0.282386 1.802531 0.136886 -0.022745 -170415.000000 0 0 1
27.679076 -7.576457 -5.373992 29.196125 -0.267181 1.755917 0.134298 -0.038180 67401.100000 0 0 1
28.866376 -8.245757 -5.080792 30.447900 -0.278243 1.738449 0.141984 -0.049334 -1020310.000000 0 0 1
29.195476 -8.207157 -3.557792 30.535080 -0.274038 1.687576 0.162381 -0.069718 -392174.000000 0 0 1
29.509076 -6.875557 -3.131992 30.460929 -0.228914 1.673798 0.184704 -0.048125 394186.000000 0 0 1
30.179576 -6.950957 -1.883092 31.026902 -0.226372 1.631526 0.256230 -0.050949 -400504.000000 0 0 1
30.974776 -5.687857 -1.587292 31.532649 -0.181605 1.621156 0.241366 -0.055407 -997249.000000 0 0 1
30.221676 -4.595657 -1.138292 30.590283 -0.150909 1.608016 0.233333 -0.046691 -464757.000000 0 0 1
30.851776 -3.384257 -0.723392 31.045266 -0.109257 1.594100 0.221206 -0.033793 -114550.000000 0 0 1
31.774576 -3.424057 0.504608 31.962516 -0.107347 1.555008 0.191886 -0.035085 566377.000000 0 0 1
30.983376 -3.642457 1.677708 31.241827 -0.117025 1.517070 0.240854 -0.054445 448958.000000 0 0 1
31.783976 -3.259857 2.747708 32.068640 -0.102206 1.485009 0.177313 -0.038702 150769.000000 0 0 1
31.242776 -3.753057 4.137708 31.738259 -0.119553 1.440054 0.199274 -0.042769 13845.200000 0 0 1
31.494076 -5.115857 4.267808 32.191039 -0.161032 1.437827 0.173662 -0.042871 7747.340000 0 0 1
31.598076 -5.599957 5.607708 32.576744 -0.175403 1.397796 0.171529 -0.036940 -137759.000000 0 0 1
32.139976 -7.034257 5.684608 33.388225 -0.215466 1.399705 0.129539 -0.032897 148904.000000 0 0 1
33.537276 -7.055457 5.471208 34.705366 -0.207353 1.412489 0.139313 -0.048117 -93100.200000 0 0 1
34.056276 -8.350257 5.340108 35.469331 -0.240446 1.419666 0.138964 -0.047268 837916.000000 0 0 1
35.611376 -8.442857 5.499908 37.009470 -0.232785 1.421636 0.201597 -0.066008 746314.000000 0 0 1
36.456276 -8.122857 4.417708 37.610597 -0.219230 1.453065 0.223399 -0.064528 252376.000000 0 0 1
37.786276 -8.107357 4.914408 38.957454 -0.211354 1.444311 0.245478 -0.067519 87641.800000 0 0 1
-36.800989 -7.956157 3.974108 37.860359 0.212917 1.465635 0.272231 -0.064029 -222378.000000 0 0 1
-36.444089 -9.103257 3.243008 37.703554 0.244778 1.484677 0.336252 -0.076450 66856.800000 0 0 1
-35.478089 -8.630857 2.325308 36.586795 0.238637 1.507198 0.354097 -0.078177 -251364.000000 0 0 1
-34.946689 -9.708957 1.347108 36.295311 0.270988 1.533673 0.361762 -0.069839 348178.000000 0 0 1
-34.147389 -10.698357 2.023008 35.841199 0.303613 1.514323 0.357224 -0.067847 216008.000000 0 0 1
-33.881789 -11.798457 1.227508 35.898273 0.335092 1.536596 0.376082 -0.066562 -634966.000000 0 0 1
-33.192289 -12.993557 1.931708 35.697228 0.373125 1.516656 0.240367 -0.060501 878709.000000 0 0 1
-31.802989 -12.995457 2.275908 34.430971 0.387918 1.504647 0.256448 -0.046058 816689.000000 0 0 1
-30.929189 -12.923257 1.171908 33.541000 0.395785 1.535850 0.275590 -0.028556 454890.000000 0 0 1
-29.404389 -13.231057 1.491408 32.278526 0.422828 1.524576 0.271972 -0.034934 1076690.000000 0 0 1
-28.792089 -12.187457 2.237308 31.345240 0.400423 1.499359 0.245452 -0.051218 64494.200000 0 0 1
-27.520289 -12.669757 2.628108 30.410459 0.431451 1.484267 0.220030 -0.029938 271159.000000 0 0 1
-26.703889 -11.625657 3.473908 29.331240 0.410608 1.452081 0.197391 -0.034676 -286325.000000 0 0 1
-25.458989 -12.037957 3.933008 28.434857 0.441682 1.432035 0.168903 -0.026288 -436991.000000 0 0 1
-24.822489 -10.962057 4.589508 27.520651 0.415862 1.403248 0.171019 -0.026356 141647.000000 0 0 1
-23.430689 -11.234957 5.204508 26.501101 0.447111 1.373123 0.148204 -0.012165 170149.000000 0 0 1
-23.491089 -12.145857 6.283008 27.181414 0.477187 1.337536 0.149305 -0.017632 -765999.000000 0 0 1
-22.271789 -12.582957 6.779808 26.463733 0.514266 1.311715 0.126406 -0.011101 -460190.000000 0 0 1
-21.904089 -12.044857 8.177008 26.300782 0.502759 1.254653 0.149522 -0.020068 -381130.000000 0 0 1
-21.655889 -10.640557 8.290408 25.513327 0.456701 1.239844 0.139774 -0.012930 370697.000000 0 0 1
-22.779089 -9.782257 8.460608 26.194681 0.405626 1.241910 0.168226 -0.026898 -322587.000000 0 0 1
-23.476689 -9.791557 9.834908 27.271871 0.395140 1.201859 0.126336 -0.008385 -78168.700000 0 0 1
-24.243589 -10.953457 10.146308 28.472397 0.424357 1.206431 0.116465 -0.015820 329249.000000 0 0 1
-25.556489 -10.992857 9.621208 29.437131 0.406216 1.237839 0.117144 -0.013700 -13982.200000 0 0 1
-26.636689 -10.628457 10.685008 30.604684 0.379658 1.214154 0.105819 -0.012382 -380411.000000 0 0 1
-26.941389 -11.684757 11.567708 31.562380 0.409225 1.195549 0.113253 -0.006948 716796.000000 0 0 1
-27.972389 -11.274557 12.499408 32.646675 0.383142 1.177896 0.107172 -0.010314 581857.000000 0 0 1
-28.097489 -12.066657 13.797508 33.547643 0.405640 1.146937 0.093261 0.000284 -142335.000000 0 0 1
-28.339689 -13.456257 13.787908 34.268283 0.443302 1.156712 0.084799 -0.009482 473998.000000 0 0 1
-28.114789 -13.864857 15.114508 34.801206 0.458154 1.121524 0.069197 0.003493 -551497.000000 0 0 1
-27.999989 -15.412457 15.188908 35.387090 0.503185 1.127165 0.084084 0.001382 47067.800000 0 0 1
-29.147089 -16.236757 15.099108 36.621962 0.508249 1.145823 0.078217 -0.002305 146468.000000 0 0 1
-28.690489 -17.564657 15.129708 36.885897 0.549350 1.148149 0.061815 -0.002924 -64848.500000 0 0 1
-29.691489 -18.530357 15.756708 38.382711 0.557949 1.147777 0.038891 0.000396 -222190.000000 0 0 1
-29.612289 -18.305757 17.132808 38.801050 0.553681 1.113465 0.054774 0.006650 298232.000000 0 0 1
-30.271689 -19.254757 18.026908 40.150843 0.566517 1.105173 0.056051 0.005435 73275.400000 0 0 1
-29.482189 -20.568457 18.161608 40.275363 0.609152 1.102983 0.020764 0.011195 -269273.000000 0 0 1
-28.251489 -20.427457 18.822108 39.619432 0.626034 1.075750 0.029025 0.011187 -283014.000000 0 0 1
-27.673889 -21.641357 19.148508 40.010721 0.663677 1.071755 0.018547 0.014975 -664059.000000 0 0 1
-26.252989 -21.466057 19.683108 39.210149 0.685418 1.044898 0.024748 0.015375 15248.100000 0 0 1
-25.265889 -21.202657 18.689608 37.910675 0.698180 1.055273 0.034027 0.001697 1097180.000000 0 0 1
-23.932389 -21.051657 19.208808 37.214376 0.721447 1.028427 0.059160 0.006026 837028.000000 0 0 1
-22.821689 -20.815557 18.194108 35.848884 0.739458 1.038490 0.067050 -0.009949 -276333.000000 0 0 1
-22.576589 -21.878057 17.308108 35.887635 0.769686 1.067534 0.062869 -0.019811 65020.400000 0 0 1
-21.273789 -21.795857 16.768708 34.768133 0.797519 1.067517 0.078993 -0.023104 34893.700000 0 0 1
-20.974689 -22.891957 15.687308 34.786073 0.829077 1.102950 0.081189 -0.021555 -372254.000000 0 0 1
-20.913989 -24.226857 16.092908 35.823417 0.858656 1.104894 0.085805 -0.027889 218204.000000 0 0 1
-19.861389 -24.613057 16.968108 35.891420 0.891835 1.078374 0.103580 -0.029395 887751.000000 0 0 1
-18.411689 -24.809557 16.387908 34.972388 0.932357 1.083096 0.109676 -0.031577 725401.000000 0 0 1
-17.866089 -23.636657 15.872508 33.612872 0.923553 1.078994 0.113247 -0.036223 -491959.000000 0 0 1
-16.649189 -23.875257 15.196108 32.835120 0.961857 1.089645 0.124397 -0.034157 -208920.000000 0 0 1
-15.830389 -22.587457 15.049308 31.420950 0.959501 1.071329 0.114045 -0.033186 -371472.000000 0 0 1
-16.312889 -21.540957 14.238808 30.542869 0.922642 1.085816 0.130529 -0.032582 442212.000000 0 0 1
-17.389589 -20.740957 14.791708 30.844444 0.873065 1.070645 0.102935 -0.027594 291872.000000 0 0 1
-16.916689 -19.645457 15.781208 30.350698 0.859894 1.023990 0.109298 -0.024448 -114565.000000 0 0 1
-16.253389 -18.537357 15.138508 28.930618 0.850953 1.020113 0.113228 -0.027553 185297.000000 0 0 1
-16.022189 -17.380157 15.958608 28.521177 0.826031 0.976971 0.109346 -0.026846 -721101.000000 0 0 1
-15.250989 -16.244857 15.282308 27.019196 0.816943 0.969624 0.104958 -0.022489 -356702.000000 0 0 1
-15.882389 -15.509557 14.274508 26.392389 0.773522 0.999341 0.106814 -0.027862 -212661.000000 0 0 1
-15.947389 -16.161257 12.999508 26.162810 0.792059 1.050808 0.130320 -0.026439 343760.000000 0 0 1
-16.945389 -15.430657 12.032708 25.885081 0.738647 1.087330 0.112838 -0.019544 -43554.100000 0 0 1
-18.316789 -15.602857 12.225308 26.989110 0.705558 1.100700 0.107558 -0.017175 -641715.000000 0 0 1
-19.005689 -14.649457 11.409908 26.570826 0.656677 1.126952 0.135071 -0.020331 1054780.000000 0 0 1
-20.581489 -14.640657 11.611008 27.798598 0.618303 1.139902 0.120059 -0.017690 1273010.000000 0 0 1
-21.377389 -15.682057 11.139208 28.757636 0.632910 1.173043 0.129443 -0.030219 -55433.900000 0 0 1
-21.430689 -15.802957 9.726008 28.347894 0.635387 1.220587 0.165861 -0.033818 -259455.000000 0 0 1
-22.415489 -16.899157 9.230608 29.550631 0.645996 1.253114 0.168021 -0.023498 97065.600000 0 0 1
-21.892289 -18.153357 9.406508 29.954951 0.692301 1.251370 0.166438 -0.014456 -223159.000000 0 0 1
-22.607989 -19.133657 8.645008 30.853754 0.702355 1.286801 0.156628 -0.026891 402743.000000 0 0 1
-22.033389 -20.607857 8.743608 31.410264 0.751980 1.288702 0.165123 -0.029463 -41589.500000 0 0 1
-20.800489 -20.841157 8.140608 30.549692 0.786375 1.301067 0.189115 -0.028845 -624514.000000 0 0 1
-20.315689 -22.164057 8.267908 31.182222 0.828882 1.302439 0.179845 -0.039825 -65818.800000 0 0 1
-19.004589 -22.417357 7.526408 30.337421 0.867603 1.320088 0.187451 -0.049123 -615195.000000 0 0 1
-17.884089 -21.748757 7.982508 29.267209 0.882603 1.294550 0.156086 -0.053049 -640216.000000 0 0 1
-16.692089 -22.119357 7.338408 28.666078 0.924334 1.311918 0.160744 -0.051451 -543408.000000 0 0 1
-15.434989 -21.843957 8.103008 27.947380 0.955653 1.276634 0.122411 -0.039185 -514602.000000 0 0 1
-14.182789 -21.959657 7.450308 27.182441 0.997339 1.293158 0.109440 -0.035065 -155828.000000 0 0 1
-13.124689 -21.825157 8.350108 26.801478 1.029380 1.253968 0.094902 -0.030916 -369640.000000 0 0 1
-11.782489 -22.016057 7.630808 26.110592 1.079405 1.274218 0.081875 -0.025092 -226853.000000 0 0 1
-11.405489 -23.343457 7.387008 27.010554 1.116315 1.293781 0.066673 -0.016156 -485835.000000 0 0 1
-10.179089 -23.361957 6.686308 26.345808 1.159887 1.314200 0.075815 -0.027152 281975.000000 0 0 1
-9.626089 -24.776157 6.404408 27.341104 1.200224 1.334359 0.100223 -0.021835 422899.000000 0 0 1
-10.427089 -25.465757 5.417108 28.045927 1.182166 1.376423 0.086068 -0.028111 -140878.000000 0 0 1
-10.854989 -26.727417 5.893208 29.443429 1.185011 1.369282 0.115671 -0.027413 -61921.400000 0 0 1
-10.126089 -27.956827 5.264808 30.196689 1.223291 1.395550 0.159276 -0.031242 743432.000000 0 0 1
-8.737089 -27.820587 5.612708 29.695526 1.266499 1.380644 0.147538 -0.036384 589441.000000 0 0 1
-7.884089 -28.886017 5.180208 30.387421 1.304348 1.399488 0.171925 -0.031953 326907.000000 0 0 1
-7.900089 -30.247967 5.970608 31.827646 1.315326 1.382086 0.204785 -0.039850 -197711.000000 0 0 1
-7.544089 -30.000137 7.333208 31.791468 1.324436 1.338034 0.188793 -0.038394 125360.000000 0 0 1
-7.613089 -31.244097 8.062108 33.153436 1.331789 1.325158 0.216457 -0.045863 2812.740000 0 0 1
-7.696089 -31.128667 9.576708 33.465460 1.328422 1.280572 0.178950 -0.053907 -1289570.000000 0 0 1
-6.566089 -30.684517 10.170208 32.986152 1.359989 1.257372 0.173397 -0.048018 -1083630.000000 0 0 1
-6.773089 -30.726737 11.559108 33.520443 1.353836 1.218731 0.146849 -0.046122 -251688.000000 0 0 1
-5.725089 -30.015627 12.429508 32.987985 1.382323 1.184469 0.119758 -0.041344 -96460.000000 0 0 1
-5.816089 -28.591437 12.360508 31.687211 1.370114 1.170079 0.112537 -0.036276 -45256.100000 0 0 1
-5.107089 -27.950767 13.396608 31.413323 1.390073 1.130218 0.080751 -0.042107 -167479.000000 0 0 1
-5.974089 -27.574117 14.668008 31.798933 1.357438 1.091366 0.093267 -0.038784 351874.000000 0 0 1
-6.633089 -28.620687 15.359908 33.152200 1.343058 1.089064 0.088890 -0.038796 174810.000000 0 0 1
-5.779089 -29.468957 16.085508 34.067005 1.377146 1.079042 0.068305 -0.045229 -35491.600000 0 0 1
-6.604089 -30.665127 16.610908 35.494877 1.358675 1.083792 0.075527 -0.040027 312986.000000 0 0 1
-7.181089 -31.303297 15.460608 35.644001 1.345294 1.122145 0.088142 -0.037383 116890.000000 0 0 1
-7.719089 -32.542817 15.737008 36.963126 1.337902 1.131007 0.094211 -0.041899 -68685.900000 0 0 1
-6.673089 -33.606487 15.345408 37.542078 1.374780 1.149710 0.099675 -0.043960 176645.000000 0 0 1
-6.170089 -33.521767 14.015508 36.853946 1.388772 1.180677 0.099759 -0.045070 307315.000000 0 0 1
-5.053089 33.251739 13.879008 36.384594 -1.419986 1.179429 0.135255 -0.051051 200681.000000 0 0 1
-4.061089 -33.815847 12.870808 36.409637 1.451274 1.209486 0.156720 -0.061202 -189073.000000 0 0 1
-4.490089 33.801849 11.513508 35.990092 -1.438734 1.245164 0.162127 -0.056420 -302926.000000 0 0 1
-3.533089 -33.313537 10.675608 35.160248 1.465136 1.262299 0.168292 -0.056572 -246195.000000 0 0 1
-4.128089 -33.039747 9.217908 34.549035 1.446497 1.300718 0.176394 -0.057930 -258563.000000 0 0 1
-4.359089 33.467704 8.379308 34.775015 -1.441278 1.327444 0.182652 -0.063920 401479.000000 0 0 1
-5.235089 32.394419 8.741008 33.958942 -1.410577 1.310466 0.196340 -0.066527 734294.000000 0 0 1
-6.706089 32.738514 9.136208 34.644657 -1.368753 1.303928 0.204943 -0.060315 355540.000000 0 0 1
-7.665089 32.937012 8.141408 34.783370 -1.342146 1.334544 0.193129 -0.052528 -975164.000000 0 0 1
-8.974089 32.941695 8.614908 35.212301 -1.304827 1.323631 0.146179 -0.051773 -157824.000000 0 0 1
-10.034089 33.180907 7.503208 35.467642 -1.277134 1.357635 0.150856 -0.058072 -6001.680000 0 0 1
-10.213089 -33.122087 7.157708 35.392268 1.271700 1.367152 0.149015 -0.043586 -398920.000000 0 0 1
-10.972989 -33.188247 6.007308 35.467647 1.251482 1.400602 0.136565 -0.035723 -481990.000000 0 0 1
-11.513589 -31.901477 5.397208 34.342347 1.224435 1.412983 0.118133 -0.040685 -174512.000000 0 0 1
-12.604289 -31.453687 6.157908 34.440127 1.189665 1.391029 0.105808 -0.035712 -293645.000000 0 0 1
-13.187589 -30.357807 5.423908 33.539942 1.160986 1.408368 0.100211 -0.029645 181068.000000 0 0 1
-14.203089 -29.539117 6.239608 33.364950 1.122608 1.382678 0.068685 -0.024307 -758264.000000 0 0 1
-15.380089 -30.141357 6.607308 34.477602 1.098970 1.377963 0.091053 -0.026332 -447308.000000 0 0 1
-16.244289 -29.227677 7.299508 34.225967 1.063523 1.355872 0.087917 -0.028662 276866.000000 0 0 1
35.144240 -11.849557 -12.221092 39.049772 -0.325199 1.889106 0.163073 -0.040401 23885.200000 0 0 1
33.891460 -12.455157 -11.917692 38.023590 -0.352180 1.889598 0.183884 -0.042719 174847.000000 0 0 1
33.958040 -13.895657 -11.699492 38.511244 -0.388413 1.879469 0.178151 -0.043662 696677.000000 0 0 1
34.923730 -14.466957 -10.538092 39.242976 -0.392725 1.842668 0.153151 -0.035028 1706910.000000 0 0 1
36.308710 -14.582457 -10.892592 40.615502 -0.381906 1.842308 0.164650 -0.040396 649897.000000 0 0 1
37.158560 -14.610057 -9.773392 41.106344 -0.374615 1.810854 0.136588 -0.030894 511623.000000 0 0 1
-37.201514 -15.196357 -10.062992 41.426390 0.387802 1.816164 0.105455 -0.033910 471391.000000 0 0 1
-36.325084 -14.316457 -10.734292 40.493181 0.375428 1.839092 0.118292 -0.043918 -692208.000000 0 0 1
-34.985008 -14.637757 -10.584892 39.373273 0.396268 1.842979 0.104237 -0.045654 -632614.000000 0 0 1
-34.122290 -13.519257 -11.205892 38.375422 0.377226 1.867121 0.102443 -0.051259 -317242.000000 0 0 1
-34.175384 -12.340157 -10.366592 37.784952 0.346514 1.848718 0.114883 -0.049299 120168.000000 0 0 1
-33.521834 -11.244257 -10.883892 36.994673 0.323637 1.869416 0.118849 -0.041507 -548580.000000 0 0 1
-33.766144 -9.979757 -9.995492 36.601338 0.287374 1.847401 0.131937 -0.041380 -554397.000000 0 0 1
-33.312604 -9.956357 -8.691392 35.838512 0.290426 1.815754 0.137914 -0.041427 293752.000000 0 0 1
-33.856694 -8.789857 -8.026692 35.888231 0.254012 1.796362 0.184694 -0.054333 48702.500000 0 0 1
-33.377934 -8.675257 -6.581992 35.109389 0.254284 1.759383 0.175624 -0.051251 -504041.000000 0 0 1
-32.084064 -8.139257 -6.387292 33.711010 0.248444 1.761421 0.157805 -0.059948 -17159.800000 0 0 1
-31.718204 -7.966557 -5.040192 33.089486 0.246076 1.723712 0.196789 -0.054315 -101190.000000 0 0 1
-31.416374 -9.236957 -4.187492 33.012801 0.285959 1.697983 0.178083 -0.049369 -91044.900000 0 0 1
-32.597024 -9.995957 -3.997992 34.328838 0.297549 1.687523 0.184381 -0.047393 305840.000000 0 0 1
-32.504494 -10.757957 -2.824792 34.354843 0.319621 1.653113 0.201023 -0.046628 13697.000000 0 0 1
-33.302184 -12.071757 -2.930292 35.543627 0.347759 1.653332 0.217227 -0.051431 572054.000000 0 0 1
-34.715931 -11.878057 -2.973192 36.812009 0.329664 1.651651 0.255541 -0.061270 675001.000000 0 0 1
-35.408798 -12.999957 -2.439392 37.798578 0.351861 1.635378 0.283322 -0.067078 667029.000000 0 0 1
-36.969174 -12.869457 -2.559992 39.228769 0.334993 1.636101 0.291212 -0.062422 712430.000000 0 0 1
-37.516574 -11.947757 -1.639392 39.407231 0.308311 1.612410 0.332133 -0.081949 -55288.700000 0 0 1
36.869500 -12.029057 -1.499992 38.811187 -0.315371 1.609454 0.314957 -0.078597 -266436.000000 0 0 1
36.471770 -11.285557 -0.205892 38.178478 -0.300088 1.576189 0.314052 -0.092168 -25467.200000 0 0 1
36.736440 -12.019757 0.985908 38.665393 -0.316210 1.545295 0.318088 -0.079096 89195.800000 0 0 1
35.934220 -11.515057 2.014008 37.787841 -0.310109 1.517473 0.322416 -0.069248 -8270.700000 0 0 1
36.353250 -12.033957 3.390408 38.443072 -0.319675 1.482489 0.265198 -0.067912 181334.000000 0 0 1
35.327720 -12.036257 4.372908 37.577142 -0.328368 1.454161 0.216757 -0.068585 -136972.000000 0 0 1
35.867040 -12.373457 5.589108 38.350816 -0.332197 1.424539 0.211117 -0.057277 -184040.000000 0 0 1
35.027520 -12.097257 6.880008 37.690918 -0.332539 1.387230 0.154675 -0.050869 164394.000000 0 0 1
34.640730 -10.789157 7.162108 36.982183 -0.301936 1.375901 0.151453 -0.038331 -66891.400000 0 0 1
34.232850 -10.698857 8.536008 36.867560 -0.302914 1.337144 0.112205 -0.030850 -56844.200000 0 0 1
33.256880 -9.529857 8.823108 35.702738 -0.279075 1.321082 0.118876 -0.044350 -537763.000000 0 0 1
31.940220 -9.724557 8.364308 34.419563 -0.295545 1.325328 0.130903 -0.038730 189023.000000 0 0 1
31.179920 -8.628657 9.005308 33.581791 -0.269981 1.299313 0.146624 -0.029220 -756281.000000 0 0 1
29.721340 -8.874157 8.723108 32.221132 -0.290152 1.296649 0.145923 -0.021838 -987089.000000 0 0 1
29.245140 -8.453057 7.415208 31.332375 -0.281373 1.331867 0.155157 -0.025341 742232.000000 0 0 1
28.090640 -9.188757 6.962308 30.364305 -0.316140 1.339446 0.182042 -0.036090 662675.000000 0 0 1
27.300640 -8.501057 5.825908 29.181058 -0.301870 1.369799 0.191540 -0.037624 184837.000000 0 0 1
26.506440 -7.405857 6.312708 28.236295 -0.272451 1.345324 0.202178 -0.042813 406554.000000 0 0 1
25.647340 -6.837457 5.338008 27.074549 -0.260536 1.372336 0.235341 -0.053694 -277984.000000 0 0 1
26.164340 -5.659957 4.463008 27.139017 -0.213041 1.405596 0.237533 -0.056868 -366999.000000 0 0 1
26.894440 -6.095457 3.351708 27.779479 -0.222878 1.449848 0.216947 -0.050403 54766.400000 0 0 1
27.529540 -4.991057 2.749308 28.113074 -0.179350 1.472845 0.232206 -0.053294 43036.700000 0 0 1
27.864740 -5.242657 1.299208 28.383395 -0.185973 1.525007 0.221666 -0.059093 -332121.000000 0 0 1
26.717240 -5.213257 0.516308 27.226008 -0.192706 1.551831 0.199077 -0.055619 -199370.000000 0 0 1
27.113940 -5.285957 -0.866792 27.637989 -0.192538 1.602164 0.200367 -0.057763 -845447.000000 0 0 1
26.101440 -5.837457 -1.843892 26.809719 -0.220024 1.639628 0.168959 -0.039224 -440479.000000 0 0 1
25.006340 -4.958857 -2.019992 25.573183 -0.195764 1.649867 0.202476 -0.035451 71831.100000 0 0 1
24.271540 -5.247757 -3.199792 25.037677 -0.212933 1.698946 0.197391 -0.031494 799110.000000 0 0 1
22.932140 -4.394957 -3.224192 23.571044 -0.189354 1.708013 0.163805 -0.024880 721252.000000 0 1 0
23.166040 -3.012357 -3.243992 23.585232 -0.129308 1.708777 0.192723 -0.026697 241708.000000 0 1 0
23.467740 -2.465557 -4.517792 24.025491 -0.104678 1.759964 0.212927 -0.022976 -428383.000000 0 1 0
22.317340 -1.651857 -5.094292 22.950907 -0.073882 1.794625 0.187523 -0.008427 -381575.000000 0 1 0
22.117440 -0.309357 -4.708792 22.615251 -0.013986 1.780544 0.184802 -0.001716 326252.000000 0 1 0
21.491440 0.443143 -5.746492 22.250855 0.020617 1.832016 0.193615 0.007750 -344778.000000 0 1 0
21.180740 1.891043 -5.422692 21.945509 0.089045 1.820481 0.168908 0.008897 -525452.000000 0 1 0
22.259940 2.801743 -5.183792 23.026645 0.125206 1.797864 0.221132 0.000817 509945.000000 0 1 0
22.712440 2.806243 -3.841192 23.205273 0.122932 1.737093 0.226482 -0.001212 -207205.000000 0 1 0
23.921540 3.730643 -3.631592 24.481549 0.154707 1.719686 0.280149 -0.013018 -212051.000000 0 1 0
23.538940 5.083143 -3.483492 24.332175 0.212680 1.714454 0.225359 -0.002655 733293.000000 0 1 0
24.621140 5.926543 -3.147592 25.519243 0.236216 1.694453 0.234855 -0.004483 66363.100000 0 0 1
24.104840 7.391743 -3.281192 25.425330 0.297546 1.700209 0.215746 -0.006172 385300.000000 0 0 1
23.061740 7.599643 -2.318992 24.392133 0.318328 1.666011 0.231879 -0.016390 833589.000000 0 1 0
22.427840 8.858643 -2.613892 24.255226 0.376175 1.678772 0.196177 -0.013370 113682.000000 0 1 0
21.416640 9.314143 -1.511392 23.403206 0.410228 1.635422 0.139190 -0.012611 141937.000000 0 1 0
21.992740 9.814243 -0.281492 24.084834 0.419730 1.582484 0.113560 -0.024587 736461.000000 0 1 0
20.991640 10.003643 0.679208 23.263344 0.444715 1.541596 0.063651 -0.030839 -132232.000000 0 1 0
21.699340 10.319543 2.028608 24.113680 0.443913 1.486570 0.096837 -0.031394 176059.000000 0 1 0
22.703640 11.320143 1.976708 25.446184 0.462531 1.493036 0.121428 -0.042379 623130.000000 0 0 1
22.260540 12.670143 1.818508 25.678223 0.517446 1.499918 0.127433 -0.035588 -4336.620000 0 0 1
21.149240 13.298143 2.733908 25.131757 0.561310 1.461798 0.112590 -0.026118 1818670.000000 0 0 1
19.782340 12.767743 2.648708 23.693288 0.573143 1.458771 0.132835 -0.028853 2052510.000000 0 1 0
18.833340 13.630643 3.265908 23.476697 0.626489 1.431231 0.125470 -0.028993 45198.200000 0 1 0
18.702440 13.574343 4.802608 23.603159 0.627836 1.365892 0.117499 -0.030389 -683589.000000 0 1 0
18.112840 12.400043 5.230808 22.565403 0.600315 1.336862 0.077097 -0.023445 218918.000000 0 1 0
18.191440 12.268643 6.619408 22.918653 0.593350 1.277800 0.086251 -0.032410 -105209.000000 0 1 0
18.361440 10.792143 7.020708 22.425503 0.531372 1.252375 0.060934 -0.030444 891666.000000 0 1 0
19.620440 10.226943 6.567908 23.080066 0.480494 1.282238 0.068573 -0.031363 1425890.000000 0 1 0
20.038140 8.982943 7.188008 23.106012 0.421433 1.254458 0.099031 -0.026587 323803.000000 0 1 0
20.949040 8.162943 6.252908 23.336555 0.371558 1.299537 0.110282 -0.029488 188302.000000 0 1 0
20.232840 7.816943 5.073808 22.275905 0.368683 1.341008 0.072387 -0.026160 1165300.000000 0 1 0
21.032340 6.942743 4.231408 22.549187 0.318836 1.382025 0.080798 -0.027367 253914.000000 0 1 0
20.592240 6.781443 2.792508 21.859241 0.318135 1.442697 0.077707 -0.020942 -556352.000000 0 1 0
21.200040 5.672443 2.221208 22.057925 0.261443 1.469927 0.068940 -0.023928 194573.000000 0 1 0
21.032940 5.588143 0.790808 21.776990 0.259686 1.534474 0.077110 -0.012027 -507876.000000 0 1 0
22.223740 4.903443 0.068608 22.758363 0.217161 1.567782 0.177174 -0.019581 27107.400000 0 1 0
22.400840 3.529943 0.445808 22.681642 0.156296 1.551140 0.167630 -0.017399 -340838.000000 0 1 0
23.560640 2.947343 -0.007092 23.744276 0.124450 1.571095 0.226064 -0.016778 -811358.000000 0 1 0
23.431140 1.453643 0.030708 23.476208 0.061960 1.569488 0.248959 -0.021904 -126446.000000 0 1 0
22.395540 0.942543 -0.788392 22.429226 0.042061 1.605954 0.172952 -0.023124 685861.000000 0 1 0
22.669840 -0.387857 -1.332192 22.712261 -0.017107 1.629485 0.212978 -0.030541 -656050.000000 0 1 0
22.448540 -1.601957 -0.380492 22.508843 -0.071241 1.587701 0.222939 -0.024888 442927.000000 0 1 0
23.457140 -1.713957 0.617908 23.527789 -0.072938 1.544530 0.237098 -0.027989 635017.000000 0 1 0
24.756740 -2.117657 0.248708 24.848390 -0.085331 1.560787 0.246774 -0.042098 -68693.700000 0 1 0
25.836540 -1.693657 1.289508 25.924084 -0.065459 1.521034 0.266971 -0.042129 -78208.800000 0 0 1
25.880940 -0.304857 1.458308 25.923786 -0.011779 1.514513 0.264249 -0.036658 109422.000000 0 0 1
26.788740 0.016743 2.464908 26.901908 0.000625 1.479042 0.258160 -0.039001 -455664.000000 0 0 1
26.590840 1.457043 3.000208 26.799198 0.054740 1.458610 0.231307 -0.036251 -27317.900000 0 0 1
27.132940 2.508643 2.281208 27.343987 0.092195 1.487273 0.269225 -0.034003 552277.000000 0 0 1
28.544840 2.717843 2.189008 28.757370 0.094927 1.494603 0.260273 -0.028072 696905.000000 0 0 1
28.862240 3.776343 1.135108 29.130365 0.130101 1.531820 0.293321 -0.032236 -155878.000000 0 0 1
28.649340 3.283743 -0.167492 28.837401 0.114120 1.576605 0.353825 -0.028542 229346.000000 0 0 1
29.177440 4.132743 -1.186492 29.492547 0.140706 1.611037 0.350268 -0.021519 -704676.000000 0 0 1
30.581340 3.866843 -1.674892 30.870311 0.125777 1.625079 0.306038 -0.018934 -992004.000000 0 0 1
31.558350 4.104543 -0.697392 31.831794 0.129336 1.592707 0.247002 -0.018712 286667.000000 0 0 1
32.879830 3.851443 -1.155492 33.124794 0.116606 1.605686 0.210539 -0.011822 631409.000000 0 0 1
34.033530 4.168943 -0.166392 34.288321 0.121888 1.575649 0.126058 -0.000933 149515.000000 0 0 1
34.179800 3.506843 1.060508 34.375592 0.102242 1.539941 0.151755 -0.006560 -136536.000000 0 0 1
33.548700 4.129743 2.130908 33.869025 0.122481 1.507839 0.145087 0.001684 -203662.000000 0 0 1
33.404840 3.326043 3.464908 33.748355 0.099241 1.467946 0.156289 -0.010268 26066.100000 0 0 1
32.431240 2.285943 3.236808 32.672432 0.070369 1.471565 0.189086 -0.022155 505817.000000 0 0 1
32.569400 1.115043 4.039408 32.837874 0.034223 1.447473 0.175303 -0.029782 -277632.000000 0 0 1
33.778090 0.209143 3.808108 33.992717 0.006192 1.458533 0.151849 -0.017532 -925343.000000 0 0 1
35.010900 0.713443 4.174808 35.266147 0.020375 1.452138 0.131312 -0.019505 -616719.000000 0 0 1
35.985220 -0.313657 4.027608 36.211270 -0.008716 1.459340 0.105279 -0.022667 -369503.000000 0 0 1
37.403340 0.127043 4.444608 37.666703 0.003397 1.452522 0.160642 -0.040152 17761.300000 0 0 1
-37.736554 0.925243 3.446808 37.904935 -0.024514 1.479738 0.118642 -0.027011 -71552.000000 0 0 1
-36.782194 0.176043 2.749508 36.885236 -0.004786 1.496185 0.153987 -0.019558 -555394.000000 0 0 1
-36.150254 0.907743 1.552608 36.194965 -0.025105 1.527887 0.148737 -0.023918 115691.000000 0 0 1
-35.224065 1.882343 2.011808 35.331648 -0.053388 1.513825 0.169785 -0.049425 261936.000000 0 0 1
-34.411358 2.440843 1.008608 34.512557 -0.070813 1.541568 0.224441 -0.026487 -32735.700000 0 0 1
-33.533434 3.591943 1.555308 33.761106 -0.106708 1.524712 0.259732 -0.025269 125289.000000 0 0 1
-32.612404 3.168543 2.572708 32.866813 -0.096854 1.492439 0.259583 -0.040211 447660.000000 0 0 1
-32.009404 4.314743 3.189008 32.455951 -0.133988 1.472381 0.268448 -0.028560 -711582.000000 0 0 1
-32.396684 4.604943 4.638908 33.049510 -0.141197 1.429969 0.273294 -0.029578 -247691.000000 0 0 1
-33.656804 5.211743 4.891708 34.407435 -0.153629 1.428143 0.268605 -0.009934 299844.000000 0 0 1
-34.761854 4.348743 4.768208 35.355818 -0.124454 1.435521 0.249122 -0.010733 -806599.000000 0 0 1
-35.095263 3.374543 5.850808 35.739292 -0.095859 1.406348 0.210230 -0.013895 -935167.000000 0 0 1
-35.524038 4.091043 6.992808 36.436154 -0.114658 1.377679 0.214586 -0.016147 238485.000000 0 0 1
-35.250538 3.537443 8.220008 36.368702 -0.100017 1.342808 0.177953 -0.016295 -366434.000000 0 0 1
-35.994534 2.237443 8.537208 37.060715 -0.062081 1.338351 0.155111 -0.022570 -322127.000000 0 0 1
-35.465344 1.098743 7.919708 36.355463 -0.030971 1.351195 0.151924 -0.032827 703756.000000 0 0 1
-36.424224 0.043443 8.076208 37.308862 -0.001193 1.352600 0.137872 -0.030728 452557.000000 0 0 1
-36.337864 -0.798057 9.358108 37.532006 0.021959 1.318801 0.150331 -0.028133 -282049.000000 0 0 1
-35.238283 -1.662257 9.404608 36.509538 0.047137 1.310266 0.141236 -0.038553 -97991.600000 0 0 1
-35.260117 -2.494257 10.528208 36.882792 0.070621 1.281320 0.124358 -0.027721 194038.000000 0 0 1
-34.045131 -3.456957 10.479908 35.788965 0.101194 1.273616 0.132903 -0.026562 258507.000000 0 0 1
-34.261881 -4.492157 9.529608 35.845075 0.130369 1.301705 0.150527 -0.040994 878146.000000 0 0 1
-33.011734 -5.131357 9.212408 34.655070 0.154206 1.301730 0.183143 -0.046424 810432.000000 0 0 1
-33.103064 -6.293557 8.180108 34.674716 0.187878 1.332642 0.189713 -0.039345 -409114.000000 0 0 1
-33.854064 -7.334857 8.638108 35.700346 0.213363 1.326409 0.196519 -0.046684 -534240.000000 0 0 1
-34.187274 -8.103157 7.516708 35.929539 0.232728 1.360032 0.211638 -0.058666 329311.000000 0 0 1
-35.334722 -9.124357 7.781108 37.314101 0.252706 1.360725 0.212350 -0.068346 -555601.000000 0 0 1
-36.597104 -8.596857 7.951908 38.425081 0.230722 1.362344 0.205404 -0.066276 -516954.000000 0 0 1
-37.289884 -9.405557 8.938508 39.482869 0.247075 1.342427 0.208455 -0.069723 175044.000000 0 0 1
8.237276 -23.696157 10.512608 27.200652 -1.236243 1.173980 0.159353 -0.050045 -115574.000000 0 0 1
7.595076 -24.474357 9.548608 27.346942 -1.269892 1.214116 0.147485 -0.050220 -441321.000000 0 0 1
6.338676 -24.936957 10.002408 27.605775 -1.321880 1.200029 0.139796 -0.046700 295941.000000 0 0 1
5.844376 -25.969637 8.964608 28.088128 -1.349438 1.245953 0.121317 -0.037469 -295703.000000 0 0 1
5.428176 -25.410407 7.768908 27.120284 -1.360339 1.280265 0.124577 -0.032424 -400854.000000 0 0 1
5.447776 -26.300427 6.726108 27.688106 -1.366548 1.325417 0.111171 -0.028478 -480949.000000 0 0 1
4.816176 -25.691457 5.455308 26.702189 -1.385485 1.365046 0.095353 -0.025550 881892.000000 0 0 1
3.389876 -25.586397 5.463308 26.381863 -1.439076 1.362201 0.081117 -0.032994 710058.000000 0 0 1
2.664276 -26.790117 5.129408 27.406560 -1.471672 1.382526 0.081018 -0.029814 -126804.000000 0 0 1
1.141576 -26.716527 4.963408 27.197636 -1.528093 1.387274 0.106976 -0.040752 -627798.000000 0 0 1
0.491176 -26.276847 6.126608 26.986094 -1.552106 1.341771 0.101699 -0.039067 178678.000000 0 0 1
-0.930024 -26.286017 6.026808 26.984107 1.535430 1.345550 0.111947 -0.037856 806723.000000 0 0 1
-1.651524 -27.620267 6.232008 28.362733 1.511073 1.349264 0.139753 -0.039099 -463935.000000 0 0 1
-1.332424 -28.272147 7.474708 29.273895 1.523703 1.312600 0.127304 -0.044353 89575.700000 0 0 1
-2.012724 -29.528407 7.648908 30.569326 1.502739 1.317894 0.173831 -0.042761 71900.200000 0 0 1
-1.701224 -30.327647 8.908308 31.654672 1.514760 1.285521 0.157974 -0.049672 700022.000000 0 0 1
-0.314124 -30.622957 9.139308 31.959210 1.560539 1.280780 0.136332 -0.041895 582544.000000 0 0 1
-0.110724 -30.909037 10.500708 32.644229 1.567214 1.243302 0.135755 -0.037100 430387.000000 0 0 1
1.388576 -30.954067 10.927708 32.855703 -1.525967 1.231740 0.109974 -0.033652 321732.000000 0 0 1
2.049576 -32.105027 10.445308 33.823630 -1.507043 1.256847 0.122920 -0.025928 -648415.000000 0 0 1
3.386676 -32.224637 10.826208 34.162898 -1.466085 1.248338 0.115151 -0.021164 -424359.000000 0 0 1
3.754976 -32.724827 12.202208 35.127027 -1.456552 1.216027 0.137285 -0.020756 -656663.000000 0 0 1
3.261776 -32.026907 13.306508 34.834252 -1.469301 1.178842 0.156344 -0.032270 -154873.000000 0 0 1
3.757576 -32.562047 14.506608 35.844776 -1.455907 1.154139 0.155246 -0.037721 -285588.000000 0 0 1
3.346076 -31.634937 15.674108 35.463264 -1.465417 1.112990 0.179628 -0.064642 50696.900000 0 0 1
3.851176 -30.306037 15.647408 34.323881 -1.444398 1.097441 0.182173 -0.060266 58380.700000 0 0 1
5.222676 -30.154877 15.943608 34.507848 -1.399303 1.090515 0.153916 -0.051724 -28699.500000 0 0 1
5.823576 -28.878197 15.339308 33.213832 -1.371805 1.090733 0.161021 -0.047218 -75720.000000 0 0 1
6.072076 -28.850867 13.932708 32.609247 -1.363360 1.129334 0.142710 -0.033710 563527.000000 0 0 1
4.897276 -28.824997 13.090508 32.034749 -1.402506 1.149839 0.134832 -0.028137 82157.400000 0 0 1
5.248876 -28.609257 11.636208 31.327968 -1.389347 1.190246 0.110055 -0.021525 251832.000000 0 0 1
5.781976 -29.759727 10.974108 32.241334 -1.378898 1.223482 0.092356 -0.026154 636200.000000 0 0 1
7.140276 -30.121117 11.253908 32.938058 -1.338041 1.222104 0.101962 -0.019269 257339.000000 0 0 1
7.533876 -31.558947 10.701608 34.165053 -1.336458 1.252201 0.078485 -0.015807 -32641.200000 0 0 1
7.156976 -32.588977 11.614308 35.329249 -1.354615 1.235822 0.059260 -0.012438 225765.000000 0 0 1
7.648576 33.793439 11.150608 36.398259 1.348213 1.259440 0.075957 -0.011401 148208.000000 0 0 1
7.349376 32.502547 12.074808 35.443333 1.348419 1.223157 0.072077 -0.005974 905564.000000 0 0 1
5.925176 32.422029 12.231108 35.155307 1.390039 1.215449 0.095911 -0.008482 776190.000000 0 0 1
5.399876 31.191799 12.814408 34.151076 1.399377 1.186155 0.108071 -0.010488 295642.000000 0 0 1
4.651476 31.313789 14.166008 34.682349 1.423331 1.150041 0.121529 -0.031425 97055.900000 0 0 1
5.360176 31.918727 15.278908 35.790803 1.404417 1.129740 0.100943 -0.030247 239804.000000 0 0 1
4.740676 31.661719 16.526008 36.028424 1.422171 1.094272 0.146427 -0.042628 -535310.000000 0 0 1
5.531176 32.224343 17.690008 37.174434 1.400807 1.074849 0.189846 -0.035087 -564548.000000 0 0 1
5.440076 33.628643 17.819508 38.444959 1.410417 1.088847 0.225291 -0.043839 123314.000000 0 0 1
5.822076 -33.522927 19.099408 39.018849 -1.398837 1.059289 0.182172 -0.031883 -455551.000000 0 0 1
5.355476 -32.096637 19.328408 37.847887 -1.405465 1.034813 0.169687 -0.049499 -532013.000000 0 0 1
3.960976 -32.043807 19.298808 37.615673 -1.447809 1.032059 0.201528 -0.054719 -671537.000000 0 0 1
3.444676 -30.761147 19.565208 36.618456 -1.459280 1.007118 0.172254 -0.043219 350202.000000 0 0 1
1.979976 -30.651157 19.000808 36.117093 -1.506289 1.016801 0.195982 -0.046798 1168440.000000 0 0 1
0.933476 -31.508417 19.493608 37.062818 -1.541179 1.016951 0.224351 -0.056358 681645.000000 0 0 1
0.592276 -31.392087 20.896608 37.715807 -1.551932 0.983570 0.193782 -0.048076 -554432.000000 0 0 1
-0.315524 -32.510347 21.453308 38.952107 1.561091 0.987520 0.215536 -0.050772 17788.200000 0 0 1
-1.664924 -32.367347 21.018108 38.628720 1.519403 0.995473 0.203883 -0.049881 264068.000000 0 0 1
-2.495924 -33.407877 21.503808 39.808663 1.496224 1.000146 0.197789 -0.036209 588360.000000 0 0 1
-3.750624 -32.950587 22.282708 39.954067 1.457458 0.979174 0.196675 -0.033281 495407.000000 0 0 1
-4.816324 -32.376727 21.532908 39.180551 1.423120 0.988933 0.168760 -0.037202 503380.000000 0 0 1
-5.940224 -32.172757 22.409308 39.655386 1.388217 0.970240 0.140129 -0.028831 -272684.000000 0 0 1
-7.159224 -31.682117 21.667908 39.044965 1.348558 0.982496 0.087148 -0.025384 -1038180.000000 0 0 1
-7.819124 -32.674727 20.964408 39.601552 1.335912 1.012923 0.083434 -0.022513 555207.000000 0 0 1
-8.997924 -32.124047 20.320108 39.061795 1.297696 1.023706 0.079263 -0.027393 1237930.000000 0 0 1
-10.092524 -33.214717 19.995208 40.061014 1.275805 1.048215 0.074222 -0.030609 462688.000000 0 0 1
-10.811624 -33.501027 21.176508 41.081072 1.258623 1.029228 0.077998 -0.026293 -475817.000000 0 0 1
-12.175824 -33.755207 20.948808 41.551381 1.224613 1.042380 0.072247 -0.027117 290757.000000 0 0 1
-12.808324 33.277376 22.296708 42.054489 -1.203378 1.011976 0.073993 -0.023717 -27698.800000 0 0 1
-12.889224 -33.467247 23.412608 42.829183 1.203175 0.992437 0.087035 -0.025589 -34148.600000 0 0 1
-11.674224 -33.149497 24.054008 42.588402 1.232191 0.970603 0.077796 -0.023563 -396933.000000 0 0 1
-11.704624 -31.765617 24.784508 41.956221 1.217764 0.938842 0.077625 -0.029933 -557468.000000 0 0 1
-12.450824 -31.689127 25.930108 42.797129 1.196421 0.919919 0.097069 -0.028313 -367338.000000 0 0 1
-13.252124 -30.546837 25.915208 42.193910 1.161471 0.909433 0.113210 -0.029163 -202130.000000 0 0 1
-14.119624 -30.307747 27.148408 43.069239 1.134819 0.888801 0.088248 -0.023892 -145644.000000 0 0 1
-13.396624 -29.841257 28.262108 43.228658 1.148833 0.858225 0.077251 -0.020203 325035.000000 0 0 1
-14.292024 -29.617787 29.355108 44.081715 1.121207 0.842064 0.081271 -0.019495 98691.800000 0 0 1
-13.693624 -29.144177 30.670208 44.469766 1.131552 0.809740 0.069368 -0.016266 -646967.000000 0 0 1
-14.665224 -28.990807 31.644208 45.352967 1.102474 0.798570 0.076316 -0.014034 -131901.000000 0 0 1
-14.162924 -28.457217 32.825408 45.693643 1.108997 0.769325 0.072203 -0.010823 -259545.000000 0 0 1
-13.250324 -29.284567 -33.641801 46.528784 1.145892 2.378978 0.074891 -0.008083 812615.000000 0 0 1
-11.885424 -29.567747 33.386608 46.153879 1.188591 0.762117 0.078373 -0.013495 983497.000000 0 0 1
-11.430024 -30.714517 -33.174701 46.632476 1.214538 2.362296 0.088929 -0.013259 868847.000000 0 0 1
-9.886124 -30.938647 -33.280401 46.502907 1.261511 2.368369 0.089709 -0.024752 745170.000000 0 0 1
-9.017624 -30.005647 -32.680701 45.273443 1.278853 2.377270 0.131750 -0.038489 278485.000000 0 0 1
-7.724724 -30.538397 -32.444201 45.220473 1.323042 2.370956 0.138126 -0.044937 497950.000000 0 0 1
-6.798824 -29.597547 -31.621101 43.842135 1.345004 2.376400 0.157708 -0.044068 6537.890000 0 0 1
-7.164524 -29.492567 -30.279801 42.871998 1.332486 2.355031 0.172755 -0.053004 -745443.000000 0 0 1
-6.211724 -28.823497 -29.555601 41.748210 1.358534 2.357386 0.169220 -0.054233 -470442.000000 0 0 1
-6.405824 -28.806717 -28.004301 40.682950 1.351984 2.330015 0.163919 -0.043233 -299175.000000 0 0 1
-6.011024 -30.044487 -27.405801 41.108169 1.373333 2.300536 0.143489 -0.048622 -278926.000000 0 0 1
-6.938124 -30.605197 -26.498701 41.073066 1.347867 2.272029 0.151100 -0.047911 -171457.000000 0 0 1
-6.508124 -31.787487 -25.606201 41.333733 1.368849 2.238900 0.130915 -0.049880 141920.000000 0 0 1
-5.588524 -31.465577 -24.585201 40.320544 1.395022 2.226534 0.090632 -0.044036 3009.880000 0 0 1
-5.282224 -32.619667 -23.774901 40.708604 1.410256 2.194476 0.101067 -0.049877 -7974.680000 0 0 1
-4.495924 -32.446067 -22.436501 39.703365 1.433107 2.171355 0.127905 -0.058621 126146.000000 0 0 1
-5.167124 -31.806767 -21.369801 38.665721 1.409750 2.156374 0.134516 -0.046676 -81660.900000 0 0 1
-5.295424 -30.385647 -21.459601 37.574506 1.398255 2.178668 0.123079 -0.035057 -866486.000000 0 0 1
-6.092324 -29.767477 -20.366201 36.578699 1.368920 2.161298 0.153946 -0.055684 239994.000000 0 0 1
-7.506224 -30.030677 -20.440001 37.094185 1.325863 2.154394 0.176562 -0.059943 964159.000000 0 0 1
-8.305224 -28.920937 -20.849801 36.607534 1.291151 2.176754 0.177103 -0.056386 98445.300000 0 0 1
-8.132524 -28.352017 -22.289901 36.970454 1.291455 2.217941 0.212200 -0.091788 -386699.000000 0 0 1
-6.874624 -27.684857 -22.477901 36.317596 1.327402 2.238171 0.214879 -0.061367 410977.000000 0 0 1
-6.578524 -27.598277 -23.889401 37.089693 1.336796 2.270640 0.271730 -0.072189 78982.000000 0 0 1
-5.060724 -27.490127 -24.197001 36.970432 1.388742 2.284312 0.241415 -0.065274 153654.000000 0 0 1
-4.438324 -26.229517 -23.891901 35.756247 1.403173 2.302567 0.219717 -0.064546 147587.000000 0 0 1
-4.027724 -26.095057 -22.531901 34.711109 1.417657 2.277232 0.146046 -0.052009 -175077.000000 0 0 1
-2.550924 -26.578847 -22.285701 34.779229 1.475114 2.266305 0.115830 -0.036102 453233.000000 0 0 1
-1.466824 -25.745697 -22.585601 34.279759 1.513884 2.290100 0.117573 -0.041252 118622.000000 0 0 1
-1.371124 -24.562057 -21.842501 32.897864 1.515031 2.296884 0.134327 -0.048556 -1082420.000000 0 0 1
-0.883024 -23.320957 -22.691601 32.550814 1.532950 2.342159 0.131533 -0.050167 36500.300000 0 0 1
-1.761924 -22.848357 -23.726201 32.986124 1.493835 2.373559 0.203700 -0.056165 622140.000000 0 0 1
-3.038524 -22.370657 -23.297001 32.441165 1.435796 2.371909 0.208300 -0.059535 -368418.000000 0 0 1
-3.939324 -22.064457 -24.435901 33.158284 1.394121 2.399339 0.204653 -0.063261 -914440.000000 0 0 1
-3.588224 -21.028257 -25.299901 33.093019 1.401786 2.441075 0.207729 -0.053733 576818.000000 0 0 1
-4.478824 -20.820357 -26.459201 33.965224 1.358908 2.463879 0.278242 -0.055616 621923.000000 0 0 1
-4.180124 -21.711657 -27.654601 35.406870 1.380595 2.467145 0.242726 -0.048227 492987.000000 0 0 1
-4.975724 -21.436257 -28.857401 36.290777 1.342718 2.490087 0.249564 -0.051197 445186.000000 0 0 1
-4.506624 -22.155557 -29.952101 37.527413 1.370126 2.494997 0.263978 -0.043490 -326593.000000 0 0 1
-5.621324 -22.444657 -30.942501 38.636773 1.325392 2.499520 0.282125 -0.060968 -902582.000000 0 0 1
-5.808824 -21.361257 -31.823001 38.765308 1.305284 2.533807 0.303552 -0.073559 -188710.000000 0 0 1
-6.587924 -21.802757 -32.908201 40.021377 1.277359 2.536177 0.295979 -0.066817 -112329.000000 0 0 1
-6.597724 -20.821757 33.268008 39.797436 1.263938 0.580965 0.250550 -0.060908 312918.000000 0 0 1
-5.280024 -20.804557 32.743608 39.151655 1.322252 0.580246 0.248916 -0.068512 66553.300000 0 0 1
-5.095424 -20.174657 31.472708 37.729451 1.323404 0.584174 0.227391 -0.057536 -567415.000000 0 0 1
-3.624924 -20.119457 31.079208 37.200132 1.392539 0.581828 0.197771 -0.064208 -1438610.000000 0 0 1
-3.135224 -21.365357 30.614508 37.464065 1.425093 0.614312 0.250918 -0.063850 1432160.000000 0 0 1
-1.812424 -21.441957 29.993208 36.913885 1.486470 0.622337 0.232674 -0.053160 1811500.000000 0 0 1
-0.617424 -20.822057 30.764408 37.153574 1.541153 0.595205 0.172417 -0.056882 -901599.000000 0 0 1
-0.477124 -19.424457 30.510608 36.172287 1.546238 0.567067 0.134943 -0.060674 -24484.100000 0 0 1
0.417376 -18.733657 31.366008 36.536975 -1.548521 0.538511 0.133961 -0.053120 -114730.000000 0 0 1
0.002276 -18.537757 32.836408 37.707799 -1.570674 0.513945 0.135995 -0.056537 124019.000000 0 0 1
-1.149424 -17.700257 32.867908 37.348623 1.505949 0.494871 0.148725 -0.055385 81308.400000 0 0 1
-1.750924 -17.770557 -33.228101 37.722210 1.472584 2.648479 0.157446 -0.058220 -379957.000000 0 0 1
-2.990824 -16.914357 -33.065301 37.260631 1.395784 2.662483 0.157409 -0.061220 -351135.000000 0 0 1
-2.748024 -15.551257 -33.297301 36.852455 1.395894 2.698733 0.154236 -0.046023 75897.800000 0 0 1
-3.960124 -14.834957 -33.140401 36.524577 1.309934 2.707722 0.173870 -0.048724 244998.000000 0 0 1
-3.815924 -13.354357 -33.350401 36.126851 1.292469 2.746984 0.143430 -0.053684 -61348.900000 0 0 1
-2.894424 -12.763057 -32.403801 34.946811 1.347787 2.757749 0.149418 -0.052017 356078.000000 0 0 1
-2.590124 -11.403157 -32.546301 34.583268 1.347445 2.796664 0.139015 -0.045546 346284.000000 0 0 1
-1.826324 -11.047957 33.508508 35.330057 1.406969 0.322513 0.136203 -0.050983 108623.000000 0 0 1
-2.802224 -11.032157 32.462008 34.399751 1.322052 0.337245 0.108453 -0.037205 259589.000000 0 0 1
-2.325424 -10.808957 31.178608 33.080912 1.358888 0.340777 0.110345 -0.026175 210192.000000 0 0 1
-1.456624 -12.038157 30.624608 32.937905 1.450381 0.377014 0.113392 -0.038961 121737.000000 0 0 1
-2.178224 -13.140057 30.230708 33.034852 1.406520 0.415002 0.113289 -0.038179 -710745.000000 0 0 1
-1.399724 -14.260357 30.262508 33.483375 1.472955 0.442213 0.118768 -0.040245 -709509.000000 0 0 1
-2.195324 -15.559257 30.176908 34.022870 1.430627 0.480077 0.091332 -0.026836 -452771.000000 0 0 1
-2.668324 -15.980857 28.955108 33.179904 1.405352 0.510153 0.126519 -0.031014 -6769.580000 0 0 1
-2.914024 -17.394157 29.111208 34.036901 1.404809 0.544698 0.147304 -0.031363 -85523.000000 0 0 1
-2.727924 -18.322857 27.861308 33.457751 1.423001 0.586774 0.168358 -0.045093 -8060.710000 0 0 1
-3.943824 -18.566257 27.193208 33.162180 1.361488 0.609374 0.172771 -0.055555 -97585.600000 0 0 1
-3.936224 -19.848557 26.553208 33.384606 1.375024 0.651174 0.191765 -0.049178 188720.000000 0 0 1
-4.466024 -19.684557 25.090908 32.202186 1.347694 0.677459 0.174216 -0.049441 -87652.000000 0 0 1
-4.857024 -20.907057 24.447208 32.532471 1.342530 0.720508 0.200678 -0.037793 125452.000000 0 0 1
-3.774524 -21.766457 24.138308 32.721302 1.399094 0.741148 0.221881 -0.054504 -414613.000000 0 0 1
-31.277964 -33.347162 0.068308 45.720334 0.817406 1.569302 0.135799 -0.030713 -154727.000000 0 0 1
-30.397194 -32.257862 0.003408 44.323347 0.815086 1.570719 0.141469 -0.029519 -247015.000000 0 0 1
-30.316724 -31.803762 1.333008 43.958617 0.809332 1.540468 0.130657 -0.024922 -51919.100000 0 0 1
-29.851944 -30.401362 1.462408 42.632383 0.794516 1.536487 0.139432 -0.026743 16361.900000 0 0 1
-28.479004 -30.334062 1.152608 41.623762 0.816929 1.543102 0.169760 -0.030707 -481951.000000 0 0 1
-27.944464 -29.071562 1.470908 40.351114 0.805164 1.534336 0.178504 -0.027006 317721.000000 0 0 1
-26.405124 -28.978262 1.555208 39.235048 0.831825 1.531148 0.183613 -0.030853 -97071.200000 0 0 1
-25.816664 -29.583562 2.649108 39.353591 0.853288 1.503430 0.157682 -0.018271 -125188.000000 0 0 1
-24.468624 -29.167662 2.771008 38.172563 0.872784 1.498141 0.155600 -0.014877 -120300.000000 0 0 1
-23.748224 -29.870162 3.921608 38.361227 0.899082 1.468389 0.148693 -0.023365 -556593.000000 0 0 1
-24.114324 -29.573862 5.188408 38.510175 0.886740 1.435657 0.145375 -0.017524 -158502.000000 0 0 1
-23.404024 -30.302962 6.181708 38.784422 0.913154 1.410727 0.125994 -0.018353 67509.000000 0 0 1
-23.918024 -30.085562 7.612908 39.181237 0.899112 1.375253 0.113653 -0.010700 -92843.700000 0 0 1
-23.688324 -28.830462 8.122408 38.187770 0.882998 1.356462 0.132006 -0.029839 145816.000000 0 0 1
-24.406924 -28.643762 9.343808 38.774603 0.865093 1.327423 0.083211 -0.022051 133178.000000 0 0 1
-23.948324 -27.379662 10.085608 37.747684 0.852150 1.300326 0.104789 -0.031856 808363.000000 0 0 1
-22.603824 -27.503862 10.554608 37.132130 0.882878 1.282578 0.105215 -0.042241 293877.000000 0 0 1
-22.120524 -26.358162 11.256508 36.204686 0.872589 1.254643 0.121179 -0.047300 832069.000000 0 0 1
-20.675724 -26.516362 11.827908 35.644108 0.908535 1.232550 0.110355 -0.051170 316450.000000 0 0 1
-20.640724 -27.433462 12.897508 36.673970 0.925766 1.211431 0.096137 -0.038806 527309.000000 0 0 1
-19.326824 -27.464762 13.482808 36.188747 0.957595 1.189020 0.104541 -0.048020 840544.000000 0 0 1
-19.086724 -28.680562 14.404308 37.341154 0.983606 1.174777 0.106655 -0.048082 227124.000000 0 0 1
-19.261724 -29.961462 13.735308 38.175410 0.999440 1.202749 0.092991 -0.037051 17982.700000 0 0 1
-18.831424 -30.906062 14.699408 39.062512 1.023558 1.184992 0.100112 -0.030254 231941.000000 0 0 1
-18.838424 -32.354662 14.162008 40.028401 1.043532 1.209167 0.092603 -0.035593 18944.900000 0 0 1
-18.308324 -33.222962 15.113708 40.833615 1.067129 1.191648 0.095470 -0.021249 -22217.700000 0 0 1
-18.207024 33.149343 14.563808 40.527512 -1.068535 1.203219 0.080756 -0.027342 -100301.000000 0 0 1
-18.046024 31.966043 15.586908 39.880304 -1.056861 1.169250 0.079684 -0.018398 -653987.000000 0 0 1
-19.038924 31.866043 16.521208 40.630969 -1.032241 1.152049 0.085156 -0.027591 -602672.000000 0 0 1
-18.817124 30.720843 17.242208 39.939305 -1.021222 1.124408 0.049779 -0.015205 68163.100000 0 0 1
-19.624024 30.671843 18.559108 40.869362 -1.001621 1.099425 0.057515 -0.021324 132117.000000 0 0 1
-19.038824 31.481743 19.533708 41.655044 -1.026886 1.082706 0.071381 -0.017368 164693.000000 0 0 1
-19.889924 31.507943 20.668708 42.609331 -1.007703 1.064348 0.069797 -0.007965 189008.000000 0 0 1
-19.561724 32.589943 21.761108 43.798530 -1.030202 1.050836 0.069986 -0.009805 253547.000000 0 0 1
-18.455424 32.188343 22.558508 43.423247 -1.050197 1.024527 0.059653 -0.015314 145477.000000 0 0 1
-18.286024 33.041343 23.665808 44.566574 -1.065325 1.010991 0.065089 -0.020891 81336.100000 0 0 1
-19.175124 32.576043 24.852808 45.238767 -1.038782 0.989187 0.070076 -0.021104 1332940.000000 0 0 1
-20.594524 32.758943 24.644408 45.876243 -1.009563 1.003690 0.063567 -0.023440 667858.000000 0 0 1
-21.380924 31.830843 25.325708 45.953650 -0.979314 0.987097 0.061099 -0.020157 -418211.000000 0 0 1
-22.878724 32.011943 25.083508 46.662436 -0.950277 1.003264 0.080260 -0.029640 -496123.000000 0 0 1
-23.216224 31.748943 23.744108 45.943129 -0.939408 1.027670 0.072908 -0.017997 88432.400000 0 0 1
-24.622024 31.820043 23.617708 46.653567 -0.912243 1.039982 0.061322 -0.024070 5522.550000 0 0 1
-24.851324 31.387243 22.124308 45.740926 -0.901097 1.065934 0.054175 -0.020500 -172957.000000 0 0 1
-24.287524 32.285643 21.187608 45.619747 -0.925844 1.087795 0.047480 -0.014044 205758.000000 0 0 1
-24.296524 31.749843 19.845008 44.634045 -0.917607 1.110051 0.037281 -0.007033 -158877.000000 0 0 1
-23.773724 32.630243 18.705208 44.495028 -0.941146 1.136923 0.041668 -0.000939 -1212210.000000 0 0 1
-22.565224 33.213543 18.952208 44.401745 -0.974031 1.129807 0.046291 0.003419 -1103070.000000 0 0 1
-22.081524 -33.775362 17.826308 44.115146 0.991771 1.154817 0.055827 0.004697 -137915.000000 0 0 1
-20.826024 -32.953662 18.098208 42.979208 1.007194 1.136147 0.059262 0.004178 -191637.000000 0 0 1
-21.165824 -31.829262 18.859308 42.623556 0.983962 1.112454 0.072881 -0.015924 577979.000000 0 0 1
-20.022224 -31.188462 19.439908 41.851161 1.000083 1.087725 0.075011 -0.024539 354683.000000 0 0 1
-20.348724 -30.050562 20.490508 41.676946 0.975571 1.056812 0.056093 -0.010117 -23515.800000 0 0 1
-20.925624 -28.889762 19.905308 40.849987 0.943930 1.061826 0.092368 -0.019546 269260.000000 0 0 1
-21.137424 -27.920462 20.969608 40.817489 0.922793 1.031257 0.102976 -0.012307 -554595.000000 0 0 1
-22.066224 -26.790062 20.648408 40.385424 0.881787 1.034119 0.093508 -0.028336 -616863.000000 0 0 1
-21.470124 -25.746262 19.869608 38.969701 0.875716 1.035759 0.091602 -0.012036 669365.000000 0 0 1
-22.396624 -24.696062 19.631408 38.689746 0.834187 1.038625 0.080763 0.002394 229811.000000 0 0 1
-23.478024 -24.892462 18.522408 38.909278 0.814632 1.074649 0.065465 -0.014911 1540340.000000 0 0 1
-24.645324 -25.744962 18.786008 40.287829 0.807217 1.085699 0.060183 -0.017292 1709510.000000 0 0 1
-25.517944 -25.894262 17.645108 40.410743 0.792718 1.118931 0.038403 -0.013543 1433910.000000 0 0 1
-27.071914 -25.873162 18.034408 41.563794 0.762761 1.121983 0.021902 0.003465 1690540.000000 0 0 1
-27.641434 -27.012462 18.704108 42.936764 0.773890 1.120070 0.024310 -0.004415 23535.800000 0 0 1
-27.715084 -28.166062 17.875108 43.370179 0.793468 1.145982 0.036140 -0.003163 -995856.000000 0 0 1
-28.533244 -29.362762 18.473808 44.917696 0.799725 1.146937 0.051866 -0.005246 -331740.000000 0 0 1
-29.865124 -29.070862 18.725608 45.691236 0.771922 1.148529 0.014137 0.005026 -1100540.000000 0 0 1
-30.671344 -29.160762 17.595908 45.833366 0.760157 1.176769 0.016772 0.003013 -659880.000000 0 0 1
-32.101694 -28.629162 17.893708 46.586828 0.728281 1.176570 0.012162 0.000879 378035.000000 0 0 1
-32.232804 -27.258162 17.546308 45.714702 0.701972 1.176865 0.011609 0.008278 -358233.000000 0 0 1
-33.522084 -26.765962 17.801808 46.444066 0.673800 1.177435 0.038426 0.011959 -195621.000000 0 0 1
-33.903634 -25.487462 17.074308 45.723070 0.644628 1.188094 0.050132 -0.004459 -241617.000000 0 0 1
-34.084669 -25.551162 15.632408 45.376192 0.643269 1.219083 0.063727 -0.021869 28975.100000 0 0 1
-34.676157 -24.384962 15.102408 45.001611 0.612884 1.228557 0.081986 -0.025188 85291.900000 0 0 1
-33.729504 -23.240662 14.600108 43.485296 0.603326 1.228397 0.067979 -0.018343 607728.000000 0 0 1
-32.899954 -22.679062 15.650008 42.914678 0.603532 1.197510 0.055372 -0.004778 284558.000000 0 0 1
-32.778964 -21.280062 15.446308 42.022494 0.575812 1.194399 0.055658 -0.006031 593588.000000 0 0 1
-34.103275 -20.428762 15.649808 42.723345 0.539703 1.195761 0.081408 -0.015977 724673.000000 0 0 1
-34.541625 -20.441662 17.001708 43.589489 0.534367 1.170120 0.078134 -0.012027 210485.000000 0 0 1
-35.458075 -19.349462 17.047408 43.843938 0.499536 1.171446 0.098119 -0.022738 24157.200000 0 0 1
-35.797224 -18.977762 18.546508 44.559732 0.487473 1.141516 0.087790 -0.009246 424588.000000 0 0 1
-36.820454 -19.817262 19.137908 45.986186 0.493749 1.141571 0.094107 -0.004566 826745.000000 0 0 1
-37.171684 -19.260962 20.402408 46.572278 0.478072 1.117334 0.098307 0.002193 19054.600000 0 0 1
37.151620 -19.567362 20.881408 46.895178 -0.484770 1.109311 0.100364 0.005953 479218.000000 0 0 1
36.793880 -20.928762 21.267608 47.372079 -0.517171 1.105208 0.119853 -0.010887 594476.000000 0 0 1
37.614220 -21.386262 22.376208 48.712385 -0.516987 1.093529 0.081111 0.000935 112568.000000 0 0 1
37.130420 -22.728362 22.831908 49.158342 -0.549285 1.087776 0.078897 0.001296 288776.000000 0 0 1
35.969920 -22.611662 23.651608 48.626340 -0.561203 1.062837 0.105319 -0.015925 263556.000000 0 0 1
35.757180 -23.900162 24.199508 49.349872 -0.589203 1.058286 0.110978 -0.030921 -21635.900000 0 0 1
34.738180 -23.971562 25.371808 49.245361 -0.604026 1.029541 0.121451 -0.040558 1227750.000000 0 0 1
33.349550 -23.968562 24.965008 48.061794 -0.623171 1.024606 0.131788 -0.039620 749071.000000 0 0 1
32.561640 -23.978862 26.142908 48.152859 -0.634750 0.996892 0.100338 -0.035204 -725502.000000 0 0 1
31.246000 -24.695062 25.870008 47.491220 -0.668825 0.994726 0.100737 -0.033940 -469900.000000 0 0 1
30.312640 -23.794362 25.241808 46.067089 -0.665506 0.990902 0.097046 -0.026253 819223.000000 0 0 1
29.112440 -24.483062 24.872708 45.448940 -0.699236 0.991701 0.088370 -0.020718 1080150.000000 0 0 1
27.879840 -23.611462 24.423608 43.946550 -0.702692 0.981523 0.071230 -0.016539 476405.000000 0 0 1
27.869440 -22.918062 23.167608 42.879848 -0.688213 1.000013 0.076973 -0.024273 -80037.900000 0 0 1
28.925840 -22.016762 22.873808 42.949425 -0.650596 1.009156 0.096594 -0.019142 -5745.960000 0 0 1
28.827040 -21.499262 21.409908 41.852129 -0.640809 1.033796 0.097144 -0.023106 293936.000000 0 0 1
27.883340 -20.441862 21.267008 40.591083 -0.632611 1.019334 0.083450 -0.013741 133586.000000 0 0 1
27.845140 -19.987062 19.900908 39.634336 -0.622568 1.044756 0.069975 -0.014345 -220816.000000 0 0 1
26.929940 -18.761762 19.678208 38.268228 -0.608500 1.030701 0.060756 -0.008525 -92492.600000 0 0 1
27.188540 -17.563962 20.385108 38.252609 -0.573562 1.008763 0.060771 -0.015294 42993.300000 0 0 1
26.950640 -17.637162 21.807208 38.896797 -0.579479 0.975634 0.063747 -0.012272 -356215.000000 0 0 1
27.158540 -16.347762 22.636008 38.951566 -0.541843 0.950677 0.072738 -0.014852 -71669.800000 0 0 1
26.074040 -15.494762 22.349508 37.675506 -0.536188 0.935755 0.043958 -0.016081 100599.000000 0 0 1
26.276440 -14.328262 23.104308 37.809515 -0.499219 0.913383 0.044092 -0.015775 -216906.000000 0 0 1
25.111740 -13.336162 22.988208 36.563786 -0.488196 0.890896 0.042078 -0.013829 -121801.000000 0 0 1
23.914740 -13.883762 23.486108 36.280448 -0.525997 0.866695 0.052264 -0.013946 657728.000000 0 0 1
22.756940 -13.108062 23.068708 34.955184 -0.522588 0.850043 0.056843 -0.011481 2139540.000000 0 0 1
21.361140 -13.649862 23.630408 34.655638 -0.568607 0.820489 0.067940 -0.014646 1062830.000000 0 0 1
20.864240 -14.640762 22.800908 34.198682 -0.611876 0.840999 0.091468 -0.022212 -470894.000000 0 0 1
19.556240 -14.949262 23.184908 33.815188 -0.652669 0.815319 0.109041 -0.021026 -116285.000000 0 0 1
18.874840 -16.178862 22.552108 33.565052 -0.708639 0.834035 0.131113 -0.026576 126584.000000 0 0 1
19.584340 -17.323062 22.876608 34.741532 -0.724206 0.851999 0.124437 -0.023728 63710.100000 0 0 1
18.888640 -18.388762 22.282008 34.516883 -0.771989 0.869067 0.141185 -0.030628 23004.300000 0 0 1
19.489240 -19.794962 22.514008 35.756839 -0.793180 0.889704 0.127663 -0.021371 -66294.900000 0 0 1
18.900540 -20.514262 23.616608 36.548728 -0.826317 0.868244 0.120653 -0.017695 228856.000000 0 0 1
19.395840 -21.802562 23.890608 37.713545 -0.843750 0.884760 0.116175 -0.015812 -414293.000000 0 0 1
18.994040 -22.938962 22.877508 37.554626 -0.879199 0.915771 0.108192 -0.015717 -150465.000000 0 0 1
19.712740 -23.050962 21.680608 37.282539 -0.863302 0.950198 0.114614 -0.009450 331504.000000 0 0 1
20.934140 -23.788262 21.855008 38.493649 -0.849130 0.967019 0.102778 -0.017476 296116.000000 0 0 1
21.717340 -23.992462 20.534608 38.326900 -0.835130 1.005371 0.089027 -0.015302 -593700.000000 0 0 1
21.030140 -24.681062 19.539508 37.857813 -0.865098 1.028471 0.080579 -0.017517 -209595.000000 0 0 1
21.821140 -25.231162 18.499308 38.144437 -0.857745 1.064455 0.088051 -0.009870 -162228.000000 0 0 1
21.012540 -26.004762 17.412908 37.695940 -0.891180 1.090626 0.082510 -0.013288 210645.000000 0 0 1
20.338740 -27.104362 17.988808 38.365453 -0.927048 1.082774 0.099496 -0.027396 707693.000000 0 0 1
19.430240 -27.836662 17.124008 38.021647 -0.961408 1.103611 0.112671 -0.038372 716115.000000 0 0 1
18.530840 -28.888462 17.809608 38.666748 -1.000447 1.092134 0.098791 -0.022004 633729.000000 0 0 1
17.506440 -28.380662 18.678908 38.220924 -1.018084 1.060187 0.104299 -0.030270 461851.000000 0 0 1
16.815140 -29.389662 19.429108 39.038333 -1.051111 1.049859 0.110016 -0.037620 447257.000000 0 0 1
15.478440 -28.838362 20.020708 38.367460 -1.078198 1.021819 0.093723 -0.024353 -16831.200000 0 0 1
14.571240 -28.579662 19.003108 37.285872 -1.099303 1.036007 0.102981 -0.030461 -26428.600000 0 0 1
13.289840 -28.172162 19.521408 36.761066 -1.130014 1.010975 0.078127 -0.028896 947736.000000 0 0 1
12.423440 -27.710262 18.296908 35.453876 -1.149329 1.028533 0.096021 -0.044511 -130161.000000 0 0 1
11.922940 -28.799062 17.523308 35.757640 -1.178276 1.058640 0.087617 -0.035772 63110.000000 0 0 1
11.321240 -28.310062 16.351908 34.597904 -1.190375 1.078527 0.133959 -0.038637 -131227.000000 0 0 1
10.984940 -29.458662 15.369508 34.995764 -1.213874 1.116108 0.106317 -0.036848 -619000.000000 0 0 1
9.827040 -30.199162 15.574408 35.371207 -1.256196 1.114849 0.120803 -0.037533 -392374.000000 0 0 1
9.644440 -31.200262 14.521908 35.740137 -1.270999 1.152374 0.085715 -0.027301 583485.000000 0 0 1
8.690740 -32.387062 14.924108 36.703948 -1.308632 1.152058 0.082246 -0.024382 474465.000000 0 0 1
9.354740 -33.489962 15.546808 38.089263 -1.298409 1.150350 0.080236 -0.022308 -462475.000000 0 0 1
8.575140 33.005243 15.708508 37.545124 1.316605 1.139124 0.082587 -0.011303 -378606.000000 0 0 1
9.148240 31.796843 16.497308 36.971485 1.290653 1.108263 0.099888 -0.009038 773257.000000 0 0 1
10.253140 31.091643 15.861708 36.378715 1.252255 1.119629 0.062588 -0.011389 823668.000000 0 0 1
10.841540 30.079443 16.643508 36.046057 1.224860 1.090853 0.102999 -0.011017 560101.000000 0 0 1
12.092440 29.386643 16.003608 35.579733 1.180420 1.104260 0.019087 -0.029794 226609.000000 0 0 1
11.735440 28.521643 14.948208 34.273220 1.180452 1.119482 0.090136 -0.016549 824159.000000 0 0 1
12.934340 27.925643 14.389008 33.973258 1.137044 1.133448 0.069577 -0.033826 751991.000000 0 0 1
12.776240 26.707343 13.420508 32.505761 1.124594 1.145198 0.063956 -0.032377 -123854.000000 0 0 1
12.210140 25.586143 14.105508 31.665495 1.125541 1.109116 0.087790 -0.034527 264494.000000 0 0 1
12.415040 24.405743 13.378408 30.475487 1.100218 1.116323 0.087401 -0.038012 -302767.000000 0 0 1
-9.381024 -8.773857 18.852716 22.812477 0.751967 0.598075 0.091290 -0.056748 -262063.000000 0 1 0
-9.405224 -9.179857 17.487616 21.875666 0.773272 0.644485 0.076690 -0.052354 40606.300000 0 1 0
-9.329524 -10.595357 17.357016 22.373369 0.848843 0.682832 0.087410 -0.048011 -64214.000000 0 1 0
-9.703124 -10.979657 15.924216 21.639874 0.847040 0.743840 0.080891 -0.038493 505259.000000 0 1 0
-11.090624 -10.758657 15.614116 21.967050 0.770206 0.780165 0.096738 -0.044855 765992.000000 0 1 0
-11.488924 -11.393257 14.434016 21.682770 0.781217 0.842377 0.096614 -0.037267 -25368.500000 0 1 0
-11.416424 -12.958657 14.378916 22.472534 0.848585 0.876501 0.071530 -0.031755 7913.720000 0 1 0
-10.086124 -13.483657 14.239016 22.051950 0.928560 0.868852 0.068120 -0.025571 477937.000000 0 1 0
-9.963524 -14.851657 14.508416 23.029062 0.979890 0.889237 0.077134 -0.025314 -50260.500000 0 1 0
-9.967024 -15.274957 15.986516 24.253548 0.992660 0.851120 0.116801 -0.032151 -70543.800000 0 1 0
-11.251224 -15.016657 16.510116 24.993479 0.927776 0.849209 0.143649 -0.038230 -144794.000000 0 1 0
-11.243124 -14.985957 17.926016 25.929304 0.927139 0.807452 0.172546 -0.041748 -434115.000000 0 0 1
-12.588424 -14.675257 18.600216 26.829082 0.861792 0.804758 0.122467 -0.041001 -442760.000000 0 0 1
-13.039124 -13.365957 18.315816 26.156007 0.797775 0.795045 0.125745 -0.042847 229774.000000 0 0 1
-14.056724 -13.301557 17.309016 25.963917 0.757802 0.841082 0.140583 -0.051978 87915.300000 0 0 1
-15.469824 -13.291157 17.926416 27.153761 0.709792 0.849736 0.096844 -0.036082 -649386.000000 0 0 1
-16.033224 -14.555057 18.094116 28.218983 0.737111 0.874730 0.114180 -0.024831 -55242.600000 0 0 1
-17.101724 -14.473557 19.012716 29.384285 0.702355 0.867105 0.115267 -0.023333 -182112.000000 0 0 1
-17.581524 -15.862057 19.456216 30.647336 0.734029 0.882992 0.095046 -0.015104 -473570.000000 0 0 1
-18.432524 -16.474657 18.554716 30.910351 0.729369 0.926951 0.076030 -0.003345 -569136.000000 0 0 1
-18.907724 -17.694757 19.025216 32.133555 0.752271 0.937175 0.078799 -0.013386 -741215.000000 0 0 1
-20.159124 -18.192357 18.312916 32.752329 0.734160 0.977456 0.075931 -0.006379 -710035.000000 0 0 1
-20.121324 -18.454257 16.945816 32.133907 0.742209 1.015318 0.078673 -0.010145 -59757.600000 0 0 1
-20.076524 -17.246457 16.162316 31.011733 0.709717 1.022578 0.073318 -0.007332 -482588.000000 0 0 1
-19.521024 -17.509257 14.778216 30.100501 0.731124 1.057602 0.092682 -0.025399 239917.000000 0 0 1
-20.487924 -18.352257 14.091816 30.905334 0.730467 1.097338 0.101740 -0.025908 910811.000000 0 0 1
-20.155024 -18.456857 12.680416 30.127621 0.741446 1.136370 0.135370 -0.036522 297858.000000 0 0 1
-20.530524 -19.834957 12.080816 30.997969 0.768168 1.170459 0.149502 -0.043608 -129903.000000 0 0 1
-19.546924 -20.763657 12.422916 31.105314 0.815573 1.159953 0.139312 -0.043582 -267270.000000 0 0 1
-19.725424 -22.009957 11.774316 31.814542 0.840082 1.191688 0.129318 -0.039551 161991.000000 0 0 1
-18.688124 -23.112357 12.181116 32.121747 0.890847 1.181846 0.117584 -0.035252 83201.900000 0 0 1
-18.719024 -24.232857 11.364916 32.661821 0.913072 1.215405 0.135435 -0.054956 -115321.000000 0 0 1
-17.620824 -24.445357 10.497616 31.910326 0.946230 1.235581 0.130149 -0.053674 -214851.000000 0 0 1
-17.850824 -25.588427 9.516816 32.618849 0.961674 1.274732 0.131695 -0.055951 545361.000000 0 0 1
-19.084324 -25.419287 8.805116 32.983051 0.926795 1.300560 0.131330 -0.054685 275516.000000 0 0 1
-19.179424 -26.219747 7.662416 33.377209 0.939249 1.339160 0.157990 -0.054206 770780.000000 0 0 1
-20.565824 -26.045177 6.939616 33.903726 0.902416 1.364653 0.150562 -0.049109 729758.000000 0 0 1
-20.809724 -24.792857 6.367016 32.988927 0.872522 1.376573 0.182179 -0.053474 -492851.000000 0 0 1
-21.959724 -24.755157 5.571616 33.557267 0.845167 1.403991 0.191576 -0.046369 -298872.000000 0 0 1
-22.213724 -23.327057 4.971016 32.593130 0.809840 1.417681 0.199987 -0.048610 -48557.200000 0 0 1
-23.002824 -23.324757 3.799316 32.978918 0.792347 1.455336 0.197603 -0.053197 147504.000000 0 0 1
-23.015324 -22.083357 3.119016 32.048527 0.764736 1.473320 0.193260 -0.047970 96084.300000 0 0 1
-23.406824 -22.314057 1.611016 32.378881 0.761502 1.521021 0.159617 -0.044010 425070.000000 0 0 1
-22.403524 -23.047157 0.904716 32.154438 0.799558 1.542656 0.167361 -0.057957 618938.000000 0 0 1
-22.804124 -23.146257 -0.465984 32.496068 0.792844 1.585137 0.145538 -0.055964 134357.000000 0 0 1
-21.797324 -24.013257 -1.273084 32.455825 0.833732 1.610032 0.156313 -0.050819 -114725.000000 0 0 1
-20.519724 -23.426857 -1.456884 31.176902 0.851453 1.617543 0.142093 -0.051432 415467.000000 0 0 1
-19.773724 -23.936857 -2.594584 31.156142 0.880355 1.654170 0.119875 -0.046187 230871.000000 0 0 1
-19.429524 -25.423477 -2.715784 32.112849 0.918247 1.655467 0.142776 -0.043179 -1041320.000000 0 0 1
-20.488924 -26.322567 -2.906184 33.483122 0.909379 1.657701 0.182254 -0.046266 -745860.000000 0 0 1
-20.044924 -27.522217 -3.440084 34.221420 0.941317 1.671491 0.171314 -0.036690 -16032.100000 0 0 1
-21.164124 -28.601207 -3.726184 35.774763 0.933743 1.675142 0.180718 -0.043081 882977.000000 0 0 1
-22.077524 -28.176127 -4.762684 36.110862 0.906164 1.703072 0.157242 -0.041214 163219.000000 0 0 1
-22.672824 -29.249717 -5.469784 37.410178 0.911395 1.717533 0.161058 -0.057813 133824.000000 0 0 1
-23.229024 -28.793477 -6.857184 37.625428 0.891955 1.754069 0.139699 -0.015998 294496.000000 0 0 1
-22.252924 -28.162727 -7.704184 36.710847 0.902087 1.782229 0.155472 -0.021871 391107.000000 0 0 1
-22.647124 -28.174407 -9.109084 37.278209 0.893731 1.817650 0.140503 -0.023006 301856.000000 0 0 1
-23.855024 -27.284337 -9.534884 37.475475 0.852356 1.828055 0.117337 -0.013630 374175.000000 0 0 1
-23.456524 -25.935837 -9.857084 36.332331 0.835552 1.845543 0.115731 -0.020172 268364.000000 0 0 1
-23.151524 -25.088127 -8.742984 35.239849 0.825522 1.821514 0.103621 -0.020618 -301659.000000 0 0 1
-22.642324 -23.739257 -9.178484 34.065697 0.809044 1.843602 0.078860 -0.019268 126293.000000 0 0 1
-23.593924 -22.890957 -9.819984 34.308909 0.770277 1.861078 0.090204 -0.021238 456590.000000 0 0 1
-23.014524 -21.625057 -10.073984 33.148100 0.754282 1.879589 0.095738 -0.016617 420590.000000 0 0 1
-24.166224 -20.628157 -10.325184 33.408632 0.706577 1.884998 0.112232 -0.010434 -98896.800000 0 0 1
-24.855524 -20.814857 -11.551784 34.416552 0.697153 1.913087 0.102687 -0.006706 100675.000000 0 0 1
-25.993524 -19.974357 -11.671684 34.797506 0.655196 1.912844 0.098713 -0.007312 -306411.000000 0 0 1
-25.907584 -18.396957 -11.582184 33.820082 0.617472 1.920335 0.104715 -0.021358 -1002270.000000 0 0 1
-25.209474 -17.752757 -12.675684 33.336930 0.613546 1.960841 0.132247 -0.014827 676573.000000 0 0 1
-25.085594 -16.362257 -12.569484 32.480801 0.577960 1.968153 0.109983 -0.033427 -387661.000000 0 0 1
-24.034124 -15.889357 -11.575284 31.049927 0.584150 1.952817 0.093736 -0.030217 -747031.000000 0 0 1
-24.551524 -15.975257 -10.214184 31.021214 0.576855 1.906321 0.131925 -0.037209 -79418.500000 0 0 1
-23.607624 -16.373457 -9.291184 30.194968 0.606395 1.883578 0.124966 -0.039949 -645697.000000 0 0 1
-24.201124 -17.045957 -8.014284 30.667374 0.613637 1.835195 0.117998 -0.039702 -6606.390000 0 0 1
-24.914724 -18.239357 -8.186784 31.944343 0.631928 1.829971 0.127091 -0.034318 -499380.000000 0 0 1
-25.967304 -18.314557 -7.298384 32.603532 0.614269 1.796562 0.138698 -0.033826 -33366.700000 0 0 1
-26.862654 -19.599457 -7.396284 34.065319 0.630328 1.789660 0.144147 -0.031734 538984.000000 0 0 1
-27.473914 -19.853357 -8.661184 34.985538 0.625750 1.820962 0.143609 -0.024441 -202266.000000 0 0 1
-28.121564 -21.102757 -8.704484 36.220392 0.643765 1.813492 0.143873 -0.009033 -291860.000000 0 0 1
-27.265204 -22.407757 -8.745084 36.358980 0.687920 1.813698 0.123112 -0.006522 -7925.410000 0 0 1
-27.874874 -23.661257 -8.506584 37.539655 0.703819 1.799384 0.133517 -0.001822 -761601.000000 0 0 1
-26.912014 -24.611457 -8.786884 37.512527 0.740777 1.807232 0.106524 0.006477 -151186.000000 0 0 1
-27.383494 -26.077157 -8.475884 38.751961 0.760968 1.791300 0.120673 -0.013457 52548.100000 0 0 1
-27.387204 -26.442807 -7.121384 38.729770 0.767856 1.755722 0.150040 -0.040010 33355.900000 0 0 1
-27.658034 -27.841487 -7.071684 39.876359 0.788704 1.749080 0.154359 -0.040100 -118050.000000 0 0 1
-27.551274 -28.379447 -5.658284 39.956000 0.800204 1.712887 0.186696 -0.050657 402843.000000 0 0 1
-28.753814 -28.062697 -4.959284 40.483222 0.773235 1.693607 0.151153 -0.046733 338547.000000 0 0 1
-28.633124 -28.224397 -3.525184 40.359625 0.778210 1.658252 0.147033 -0.051600 -29931.600000 0 0 1
-28.557924 -29.641377 -2.884384 41.261192 0.804012 1.640759 0.151357 -0.033776 319389.000000 0 0 1
-27.432894 -30.322447 -3.450384 41.035590 0.835387 1.654978 0.205226 -0.054468 187337.000000 0 0 1
-27.255014 -31.600747 -2.846384 41.827562 0.859101 1.638899 0.197189 -0.054598 200933.000000 0 0 1
-26.339984 -31.627647 -1.579484 41.189775 0.876364 1.609152 0.218128 -0.054452 472560.000000 0 0 1
-24.964794 -31.367537 -1.880184 40.133507 0.898573 1.617662 0.215628 -0.056292 578961.000000 0 0 1
-24.118024 -31.409027 -0.719784 39.607123 0.915957 1.588970 0.189905 -0.040379 738044.000000 0 0 1
-23.140224 -30.184257 -0.659584 38.039380 0.916735 1.588137 0.212441 -0.033160 604033.000000 0 0 1
-23.821024 -28.902807 -0.600284 37.458961 0.881486 1.586822 0.204122 -0.049168 40103.900000 0 0 1
-24.113324 -28.216927 -1.790884 37.159853 0.863655 1.619009 0.222742 -0.059522 74998.300000 0 0 1
-24.777924 -26.792157 -1.541284 36.525892 0.824436 1.613006 0.171998 -0.046793 734784.000000 0 0 1
-26.106694 -26.933857 -1.033284 37.524123 0.800992 1.598336 0.191379 -0.049535 440235.000000 0 0 1
-26.832814 -25.713117 -0.834384 37.173384 0.764092 1.593244 0.181823 -0.063924 509121.000000 0 0 1
-26.340994 -24.806057 0.346516 36.184368 0.755397 1.561220 0.192439 -0.052098 -311465.000000 0 0 1
-26.640984 -25.320487 1.617016 36.789725 0.759991 1.526829 0.171049 -0.054161 -30988.700000 0 0 1
-26.154394 -24.501257 2.676416 35.937823 0.752775 1.496254 0.178128 -0.044688 132149.000000 0 0 1
-27.184784 -23.408357 3.106116 36.008494 0.710893 1.484428 0.179419 -0.045938 206216.000000 0 0 1
-27.308544 -22.377457 2.113716 35.369125 0.686477 1.510999 0.171428 -0.051617 -187801.000000 0 0 1
-28.075944 -21.259257 2.503716 35.305570 0.648097 1.499821 0.142707 -0.049519 -14435.000000 0 0 1
-27.778074 -19.970057 1.714216 34.254389 0.623308 1.520732 0.145235 -0.034656 -284866.000000 0 0 1
-26.558174 -19.395757 2.080616 32.952405 0.630781 1.507614 0.130957 -0.033891 -618917.000000 0 0 1
-26.210764 -18.375557 1.164816 32.031579 0.611443 1.534424 0.109414 -0.033475 -480552.000000 0 0 1
-24.889224 -17.816557 1.652116 30.653429 0.621274 1.516874 0.125652 -0.037138 -161223.000000 0 0 1
-23.776924 -18.672857 1.381516 30.264274 0.665735 1.525132 0.144212 -0.045046 2132660.000000 0 0 1
-22.452524 -18.134157 1.767416 28.915174 0.679398 1.509634 0.152919 -0.034046 1401090.000000 0 0 1
-21.313024 -19.088457 1.637416 28.658251 0.730392 1.513629 0.142584 -0.045026 -935852.000000 0 0 1
-20.919324 -19.246957 0.329616 28.428368 0.743786 1.559201 0.081232 -0.030618 331064.000000 0 0 1
-19.864624 -20.198957 0.172416 28.330741 0.793743 1.564710 0.110050 -0.030828 406537.000000 0 0 1
-19.417224 -20.527357 -1.297684 28.285773 0.813183 1.616690 0.107652 -0.035584 107242.000000 0 0 1
-18.672924 -19.512157 -1.943984 27.077323 0.807373 1.642652 0.111945 -0.037791 -5165.390000 0 0 1
-18.621324 -19.770457 -3.336484 27.363421 0.815321 1.693033 0.109514 -0.036373 156490.000000 0 0 1
-17.731224 -18.870057 -4.279284 26.244764 0.816503 1.734580 0.118318 -0.026068 966183.000000 0 0 1
-16.324824 -19.143157 -4.224384 25.510895 0.864693 1.737154 0.149947 -0.036820 526711.000000 0 0 1
-15.685524 -18.310457 -5.175884 24.659649 0.862458 1.782262 0.148160 -0.028861 -36096.000000 0 1 0
-14.183624 -18.090257 -4.867184 23.497278 0.905858 1.779445 0.167384 -0.043342 -52763.400000 0 1 0
-13.354724 -19.178757 -5.233984 23.949279 0.962538 1.791119 0.139880 -0.044672 -262858.000000 0 1 0
-12.190324 -18.644757 -5.826384 23.025588 0.991740 1.826617 0.135808 -0.053880 -947008.000000 0 1 0
-11.077824 -19.650457 -5.847084 23.303370 1.057462 1.824418 0.133523 -0.061238 -911151.000000 0 1 0
-11.217824 -20.743457 -6.697384 24.515006 1.075053 1.847509 0.123125 -0.054273 -206679.000000 0 1 0
-10.035824 -21.504457 -6.842084 24.697643 1.134153 1.851502 0.120300 -0.044793 -36722.200000 0 1 0
-10.247024 -22.825857 -7.625884 26.156746 1.148839 1.866639 0.123740 -0.031292 -202883.000000 0 0 1
-10.612124 -22.634357 -8.994584 26.567533 1.132378 1.916178 0.118378 -0.035209 203458.000000 0 0 1
-10.339124 -23.888357 -9.673984 27.769354 1.162329 1.926627 0.142908 -0.031741 -163747.000000 0 0 1
-11.075224 -23.864457 -11.033284 28.529042 1.136288 1.967889 0.170022 -0.044160 -170258.000000 0 0 1
-10.603524 -22.979957 -11.977284 27.999437 1.138482 2.012819 0.145990 -0.033767 234852.000000 0 0 1
-11.673224 -22.420057 -12.757884 28.314073 1.090758 2.038216 0.150888 -0.048350 -170547.000000 0 0 1
-11.316124 -21.340557 -13.761384 27.800175 1.083232 2.088643 0.135341 -0.026868 -494281.000000 0 0 1
-10.909024 -20.126957 -13.117084 26.384827 1.074108 2.091102 0.134383 -0.036200 -91116.800000 0 0 1
-10.713124 -19.085857 -14.042684 26.004575 1.059310 2.141243 0.127208 -0.016721 -198162.000000 0 0 1
-10.404924 -17.683157 -13.376784 24.492751 1.038943 2.148561 0.123913 -0.009116 305124.000000 0 1 0
-11.537024 -17.133557 -12.692684 24.243884 0.978175 2.121799 0.142741 -0.017624 623604.000000 0 1 0
-11.153524 -16.169457 -11.690484 22.858693 0.966956 2.107637 0.124489 -0.019723 96474.200000 0 1 0
-10.817224 -14.690357 -12.081284 21.880958 0.936089 2.155721 0.125811 -0.015330 -123172.000000 0 1 0
-11.911224 -13.937757 -12.540784 22.212825 0.863637 2.170713 0.122996 -0.014504 -189221.000000 0 1 0
-12.130424 -14.095157 -13.926984 23.233199 0.860175 2.213602 0.145637 -0.012789 -314595.000000 0 1 0
-13.417824 -13.376057 -14.371684 23.780290 0.783839 2.219750 0.153986 -0.016398 -461422.000000 0 1 0
-13.483224 -11.992957 -14.116484 22.910772 0.726968 2.234642 0.127217 -0.007276 -267822.000000 0 1 0
-14.504124 -11.302657 -14.780684 23.592123 0.661973 2.247863 0.130679 -0.017258 -429315.000000 0 1 0
-14.659324 -9.854957 -14.287984 22.719209 0.591869 2.250927 0.114058 -0.021576 -228922.000000 0 1 0
-13.700024 -8.855957 -14.522984 21.841147 0.573854 2.298206 0.099903 -0.010606 -8173.880000 0 1 0
-13.642724 -8.300957 -15.836884 22.490814 0.546612 2.352020 0.098999 -0.006513 853579.000000 0 1 0
-12.430824 -7.256057 -15.872284 21.426739 0.528359 2.405012 0.082054 0.004470 793607.000000 0 1 0
-11.160524 -7.823157 -16.031184 21.041814 0.611375 2.436996 0.071990 0.004338 109414.000000 0 1 0
-10.108424 -6.899957 -15.767684 19.960198 0.598949 2.481534 0.048657 0.010535 446231.000000 0 1 0
11.989176 21.709443 15.675216 29.338587 1.066223 1.007133 0.142840 -0.045689 707823.000000 0 0 1
13.129676 21.878143 16.542516 30.408821 1.030283 0.995595 0.155221 -0.049121 532813.000000 0 0 1
13.537376 20.607643 16.963716 29.928300 0.989578 0.968165 0.147902 -0.046352 -273944.000000 0 0 1
14.556576 20.635343 18.109916 31.075398 0.956442 0.948659 0.166042 -0.051484 620033.000000 0 0 1
15.878076 20.854843 17.607616 31.576351 0.920063 0.979280 0.138326 -0.040007 -139298.000000 0 0 1
16.871676 20.832243 18.571616 32.611972 0.890058 0.964933 0.135198 -0.050057 -186350.000000 0 0 1
18.277476 21.233843 18.105016 33.357665 0.860082 0.997083 0.102247 -0.038748 -1125580.000000 0 0 1
18.435376 22.583843 17.957216 34.239665 0.886190 1.018720 0.109738 -0.043759 76246.700000 0 0 1
19.648576 23.042743 17.386616 34.918891 0.864736 1.049604 0.113336 -0.039214 247522.000000 0 0 1
20.976176 22.781243 18.126316 35.882424 0.826626 1.041231 0.104957 -0.043274 -763980.000000 0 0 1
21.430676 21.442343 18.060916 35.288024 0.785670 1.033501 0.112302 -0.038403 -200159.000000 0 0 1
22.699076 21.290243 18.654216 36.283636 0.753382 1.030813 0.119821 -0.047394 8772.360000 0 0 1
23.251776 19.836743 18.536716 35.745647 0.706307 1.025616 0.101963 -0.037449 -172609.000000 0 0 1
23.582276 19.380643 17.204816 35.039103 0.687911 1.057539 0.091114 -0.040449 155488.000000 0 0 1
23.152476 18.050943 16.874316 33.861722 0.662212 1.049125 0.070863 -0.024842 29642.800000 0 0 1
24.081676 16.872143 17.383316 34.158103 0.611143 1.036881 0.080366 -0.028456 398198.000000 0 0 1
25.252876 16.753143 16.597716 34.552275 0.585748 1.069725 0.107009 -0.041353 209885.000000 0 0 1
26.039676 15.645243 17.020716 34.821590 0.541025 1.060085 0.096609 -0.036494 -70864.500000 0 0 1
27.385276 15.491443 16.268216 35.420234 0.514806 1.093599 0.223670 -0.062706 163091.000000 0 0 1
28.315476 16.565243 16.600416 36.766116 0.529335 1.102335 0.190171 -0.065171 696827.000000 0 0 1
29.437076 16.277343 17.407616 37.875037 0.505108 1.093244 0.182910 -0.071444 -556688.000000 0 0 1
30.544176 15.556143 16.688816 38.124229 0.471060 1.117704 0.166904 -0.080197 -1094730.000000 0 0 1
31.279576 16.508043 15.872816 38.766914 0.485607 1.148954 0.207444 -0.066938 762760.000000 0 0 1
32.510176 16.004343 15.342716 39.350343 0.457458 1.170273 0.198578 -0.056002 741713.000000 0 0 1
32.298876 15.323043 13.937616 38.370173 0.442970 1.199052 0.148571 -0.057935 -194929.000000 0 0 1
32.249276 16.301643 12.893916 38.366814 0.468029 1.228056 0.151007 -0.040691 155661.000000 0 0 1
31.725376 15.761143 11.667116 37.296577 0.461084 1.252636 0.139690 -0.040189 611745.000000 0 0 1
30.229176 16.092743 11.354216 36.079047 0.489198 1.250652 0.140018 -0.050041 541534.000000 0 0 1
29.783376 17.452043 11.100016 36.260635 0.530036 1.259684 0.152279 -0.050675 36609.100000 0 0 1
29.976176 18.432643 12.112316 37.216148 0.551310 1.239300 0.170879 -0.057234 -556084.000000 0 0 1
29.385576 18.398943 13.512916 37.210645 0.559405 1.199154 0.178881 -0.060750 909373.000000 0 0 1
28.057776 18.972443 13.666716 36.523575 0.594568 1.187274 0.185319 -0.046799 1200500.000000 0 0 1
27.525176 18.956943 14.967016 36.619838 0.603110 1.149752 0.174461 -0.049480 -230567.000000 0 0 1
28.124576 19.893043 16.012816 37.988619 0.615621 1.135680 0.158257 -0.052805 -215750.000000 0 0 1
27.755876 21.269343 15.852116 38.393530 0.653852 1.145177 0.141634 -0.051158 -288249.000000 0 0 1
26.479076 21.551143 16.349116 37.853492 0.683155 1.124192 0.113880 -0.037452 -421960.000000 0 0 1
26.066576 23.033743 16.227316 38.384183 0.723708 1.134307 0.111370 -0.031610 -44011.500000 0 0 1
25.859876 23.387743 14.858616 37.901163 0.735242 1.167953 0.129021 -0.047739 202669.000000 0 0 1
26.016276 24.795443 14.724816 38.839166 0.761376 1.181948 0.139847 -0.047305 -499964.000000 0 0 1
25.742476 25.407343 13.336116 38.549450 0.778846 1.217547 0.134384 -0.047051 680255.000000 0 0 1
24.342776 25.406543 13.014616 37.515909 0.806777 1.216523 0.133883 -0.046831 728814.000000 0 0 1
24.250976 25.603043 11.603016 37.124865 0.812512 1.252930 0.115408 -0.048740 130976.000000 0 0 1
23.588576 24.380743 10.912816 35.636093 0.801911 1.259567 0.112481 -0.044831 -236701.000000 0 0 1
22.172376 24.331943 10.958316 34.694991 0.831803 1.249447 0.102957 -0.041543 236320.000000 0 0 1
21.664776 23.020043 10.590116 33.338198 0.815718 1.247539 0.117623 -0.045216 257220.000000 0 0 1
21.757476 22.670843 9.095716 32.712183 0.805953 1.289030 0.131921 -0.038745 137911.000000 0 0 1
20.516776 23.019743 8.463216 31.976127 0.842826 1.302932 0.133850 -0.035239 475122.000000 0 0 1
20.663776 23.404743 7.135516 32.026383 0.847516 1.346109 0.115478 -0.036343 473964.000000 0 0 1
19.355176 23.579243 6.267316 31.142941 0.883467 1.368169 0.108141 -0.030870 1209.750000 0 0 1
18.576276 22.426543 6.046016 29.741926 0.879026 1.366087 0.117625 -0.025739 332401.000000 0 0 1
17.849076 22.437343 4.820516 29.073377 0.898801 1.404222 0.136793 -0.039359 -200685.000000 0 0 1
16.593276 23.304643 4.707016 28.993089 0.952051 1.407725 0.114188 -0.030706 -702549.000000 0 0 1
16.825076 24.689143 4.653916 30.237326 0.972611 1.416269 0.110281 -0.038012 -123984.000000 0 0 1
15.726776 25.328943 5.241216 30.271392 1.015150 1.396778 0.108939 -0.039075 -189263.000000 0 0 1
15.626976 26.756243 4.795816 31.354406 1.042188 1.417238 0.097750 -0.041203 -160116.000000 0 0 1
14.938176 26.772243 3.558516 30.863654 1.061853 1.455241 0.090881 -0.031739 379240.000000 0 0 1
14.909476 28.051443 2.975816 31.906604 1.082264 1.477394 0.089410 -0.030943 -12716.900000 0 0 1
14.206076 28.136643 1.584416 31.559367 1.103240 1.520571 0.089227 -0.034294 -254346.000000 0 0 1
15.017576 27.753643 0.507116 31.560251 1.074810 1.554727 0.105726 -0.035823 -259921.000000 0 0 1
15.298376 26.387143 0.395016 30.503732 1.045387 1.557846 0.087035 -0.031350 31320.600000 0 0 1
16.334476 25.927643 -0.668884 30.651349 1.008608 1.592620 0.093609 -0.035814 22854.300000 0 0 1
16.007076 26.257643 -2.027884 30.818868 1.023336 1.636644 0.093177 -0.033314 -763611.000000 0 0 1
17.051276 26.159443 -2.939984 31.364087 0.993142 1.664671 0.093694 -0.024454 -768863.000000 0 0 1
16.696076 26.645043 -4.387484 31.748500 1.011039 1.709435 0.103279 -0.022464 -367609.000000 0 0 1
15.972876 25.712943 -5.135384 30.702774 1.014934 1.738847 0.128732 -0.030061 -391430.000000 0 0 1
15.701076 26.326243 -6.382684 31.310278 1.033025 1.776088 0.122328 -0.018146 41493.300000 0 0 1
14.273576 26.018743 -6.861884 30.459734 1.069038 1.798024 0.132378 -0.029245 -57025.100000 0 0 1
14.136076 24.713443 -7.345184 29.402970 1.051220 1.823281 0.171372 -0.035942 782190.000000 0 0 1
12.733376 24.604143 -7.684984 28.749986 1.093223 1.841390 0.130297 -0.031381 1216690.000000 0 0 1
12.343176 23.195043 -8.196384 27.523530 1.081763 1.873179 0.161172 -0.041409 22068.400000 0 0 1
12.749976 23.012443 -9.540784 27.985013 1.064851 1.918697 0.161939 -0.041262 -87400.800000 0 0 1
12.553976 21.723443 -10.048684 27.027510 1.046785 1.951738 0.171296 -0.037515 143583.000000 0 0 1
12.962976 21.493343 -11.538684 27.625057 1.028089 2.001697 0.156470 -0.033832 180357.000000 0 0 1
12.424076 20.270843 -12.044384 26.652053 1.020943 2.039704 0.165311 -0.035214 141022.000000 0 0 1
12.906876 19.967743 -13.368184 27.276483 0.996966 2.083000 0.160732 -0.034594 257531.000000 0 0 1
14.262276 19.243643 -13.491784 27.491063 0.932988 2.083769 0.151363 -0.046053 382622.000000 0 0 1
15.373476 20.055443 -13.139784 28.481897 0.916788 2.050299 0.138314 -0.032819 -67263.300000 0 0 1
16.621876 19.490643 -13.488084 28.949962 0.864671 2.055459 0.138865 -0.034019 298889.000000 0 0 1
17.794176 20.432043 -13.140584 30.112722 0.854296 2.022368 0.143300 -0.021961 -508783.000000 0 0 1
17.938976 21.626943 -13.862584 31.332136 0.878340 2.029114 0.131522 -0.020100 164425.000000 0 0 1
16.899176 22.615043 -13.955584 31.492549 0.929055 2.029894 0.134766 -0.022682 171358.000000 0 0 1
17.434376 23.882043 -14.631884 32.990930 0.940205 2.030310 0.134168 -0.023483 150356.000000 0 0 1
17.695676 23.816543 -16.005884 33.712801 0.931791 2.065501 0.109699 -0.025998 461872.000000 0 0 1
16.490576 24.112243 -16.713084 33.655111 0.970952 2.090472 0.110145 -0.019466 781987.000000 0 0 1
16.797876 24.060243 -18.238484 34.550054 0.961307 2.126906 0.089886 -0.007094 282304.000000 0 0 1
17.003476 22.788843 -18.777784 34.074253 0.929776 2.154459 0.095499 -0.002256 -118055.000000 0 0 1
16.974476 22.848043 -20.221884 34.915476 0.931836 2.188503 0.096361 0.001180 -83841.900000 0 0 1
17.239876 21.500743 -20.941784 34.612910 0.894942 2.220597 0.094419 0.006438 -140131.000000 0 0 1
16.291576 20.490643 -20.703684 33.375506 0.899066 2.239954 0.094395 0.003005 -191858.000000 0 0 1
16.680576 19.282043 -21.287284 33.214262 0.857610 2.266477 0.075959 0.000936 76106.400000 0 0 1
15.576076 18.187043 -21.260084 32.021459 0.862577 2.296862 0.079386 0.000872 -671543.000000 0 0 1
15.313076 17.569543 -20.015884 30.721568 0.853913 2.280390 0.085478 -0.006390 293152.000000 0 0 1
14.425776 16.458543 -20.167884 29.761219 0.851122 2.315367 0.086100 -0.012982 821457.000000 0 0 1
12.946076 16.702943 -20.604084 29.514699 0.911438 2.343531 0.093622 -0.021791 -375385.000000 0 0 1
12.055676 17.079243 -19.567584 28.634423 0.956144 2.323150 0.098212 -0.024495 -44435.500000 0 0 1
10.844176 17.508943 -20.173984 28.829652 1.016270 2.345865 0.093659 -0.017429 -364546.000000 0 0 1
9.674476 17.093543 -19.301884 27.538108 1.055773 2.347476 0.117180 -0.028660 -941175.000000 0 0 1
9.484176 15.689543 -19.271884 26.599189 1.027082 2.381147 0.144904 -0.036944 107443.000000 0 0 1
8.171376 15.294843 -18.916284 25.661827 1.080120 2.399620 0.134485 -0.029225 394767.000000 0 0 1
7.703776 15.313343 -17.436984 24.451892 1.104691 2.364726 0.129410 -0.037766 53981.600000 0 1 0
7.480776 16.655943 -16.953284 24.915783 1.148662 2.319137 0.132322 -0.040106 -541017.000000 0 1 0
6.746976 16.700143 -15.783884 23.948850 1.186840 2.290373 0.105303 -0.043824 -534576.000000 0 1 0
6.395276 18.168643 -15.424084 24.675929 1.232345 2.246012 0.085346 -0.035887 -68094.400000 0 1 0
7.343076 19.224143 -15.204084 25.586180 1.205928 2.207105 0.088561 -0.037995 -81610.600000 0 0 1
8.030976 19.732743 -16.383484 26.875570 1.184281 2.226359 0.111580 -0.033679 314631.000000 0 0 1
9.303376 20.496343 -15.939984 27.581442 1.144700 2.186979 0.115949 -0.027211 4782.670000 0 0 1
9.144076 21.738843 -15.314784 28.119993 1.172630 2.146735 0.098553 -0.032513 -158582.000000 0 0 1
8.856876 21.562043 -13.900684 27.140283 1.181047 2.108516 0.093214 -0.035810 117625.000000 0 0 1
8.451176 22.795843 -13.004884 27.571721 1.215772 2.061985 0.080139 -0.029671 722135.000000 0 0 1
7.185176 23.373843 -13.394384 27.881406 1.272562 2.071913 0.063712 -0.024989 554818.000000 0 0 1
6.592476 24.192943 -12.381384 27.965298 1.304760 2.029450 0.053842 -0.024871 253456.000000 0 0 1
6.067276 23.627843 -11.002484 26.760819 1.319442 1.994502 0.054576 -0.026492 -785790.000000 0 0 1
7.043976 23.193443 -10.077784 26.251002 1.275943 1.964814 0.043716 -0.024011 -522170.000000 0 0 1
6.466676 22.706943 -8.922784 25.239636 1.293353 1.932131 0.063140 -0.035047 -27919.400000 0 0 1
7.459176 22.592343 -7.746484 25.021216 1.251901 1.885565 0.056347 -0.041756 130152.000000 0 0 1
7.685676 23.798543 -7.054384 25.984699 1.258422 1.845729 0.048468 -0.039048 -414710.000000 0 0 1
8.736976 23.626243 -6.155584 25.931165 1.216593 1.810466 0.075399 -0.036748 -344456.000000 0 0 1
9.154576 24.865843 -5.381084 27.038352 1.218037 1.771151 0.048476 -0.030425 -11517.200000 0 0 1
9.657676 25.836543 -6.281684 28.288818 1.213079 1.794718 0.066360 -0.025488 122117.000000 0 0 1
10.092676 27.006643 -5.541684 29.358664 1.213156 1.760694 0.055118 -0.021558 249526.000000 0 0 1
10.494276 28.202243 -6.432184 30.771242 1.214564 1.781382 0.061893 -0.018397 -301582.000000 0 0 1
11.739276 28.111443 -7.049484 31.269139 1.175212 1.798197 0.070102 -0.019868 -773074.000000 0 0 1
11.907376 29.283743 -7.750584 32.548345 1.184596 1.811231 0.070445 -0.012689 1183990.000000 0 0 1
13.318376 29.476243 -8.443884 33.429436 1.146418 1.826151 0.077108 -0.015583 1545240.000000 0 0 1
14.443276 29.723843 -7.604084 33.910723 1.118480 1.796958 0.076214 -0.009979 622376.000000 0 0 1
15.552776 30.202843 -8.406284 34.996659 1.095265 1.813371 0.085414 -0.012861 635021.000000 0 0 1
16.755676 30.571143 -7.537684 35.667410 1.069422 1.783734 0.075482 -0.009530 -142398.000000 0 0 1
17.412276 29.506843 -6.848684 34.939170 1.037681 1.768091 0.087043 -0.016280 -117182.000000 0 0 1
18.607476 29.980343 -6.270584 35.838238 1.015327 1.746671 0.065001 -0.002774 409042.000000 0 0 1
19.744076 28.938943 -6.117984 35.562911 0.972071 1.743689 0.066017 -0.007951 -133552.000000 0 0 1
19.504976 28.076943 -5.048084 34.557806 0.963638 1.717397 0.088254 -0.018523 -123162.000000 0 0 1
20.494876 27.106143 -4.784384 34.317244 0.923404 1.710668 0.085849 -0.019751 -154294.000000 0 0 1
20.767176 26.017243 -5.861784 33.801376 0.897149 1.745096 0.098515 -0.013563 94162.300000 0 0 1
21.272676 26.552243 -7.141084 34.764111 0.895347 1.777684 0.083516 -0.008468 146095.000000 0 0 1
21.358576 25.477343 -8.056884 34.208144 0.873113 1.808555 0.091760 -0.016102 -201399.000000 0 0 1
22.187376 25.838943 -9.348384 35.317459 0.861285 1.838685 0.090508 -0.015996 -9383.230000 0 0 1
23.566076 26.026243 -9.266684 36.312486 0.834965 1.828843 0.056099 -0.010765 -94040.800000 0 0 1
24.343976 24.819343 -9.236384 35.971374 0.795067 1.830475 0.067768 -0.010657 776067.000000 0 0 1
25.898776 25.053043 -9.232984 37.197440 0.768801 1.821634 0.015523 -0.003079 680575.000000 0 0 1
26.394876 25.458043 -10.498184 38.144636 0.767333 1.849615 0.024814 -0.000263 -1162120.000000 0 0 1
27.742176 25.729043 -10.380584 39.234787 0.747767 1.838561 0.009148 0.011775 -1042650.000000 0 0 1
28.317976 25.679043 -11.856284 40.023649 0.736565 1.871541 0.034713 -0.001809 -117549.000000 0 0 1
27.886976 26.701543 -12.683484 40.638978 0.763686 1.888200 0.029273 0.005556 -193818.000000 0 0 1
28.653076 26.744543 -13.846484 41.569152 0.750960 1.910381 0.051760 0.001947 -26460.600000 0 0 1
28.336976 27.988843 -14.726984 42.464615 0.779218 1.924960 0.060419 -0.006923 96544.100000 0 0 1
29.016176 29.173343 -14.356284 43.578954 0.788099 1.906498 0.070505 -0.006057 70698.300000 0 0 1
29.300376 29.994143 -15.450784 44.686545 0.797098 1.923844 0.094641 -0.006827 -237077.000000 0 0 1
29.714076 31.402743 -15.090884 45.790756 0.813021 1.906636 0.092234 -0.014608 -161040.000000 0 0 1
30.931676 31.355043 -14.391684 46.336032 0.792195 1.886614 0.087276 -0.019437 -72970.900000 0 0 1
31.425676 32.647843 -14.099684 47.457937 0.804470 1.872449 0.093267 -0.025823 -22507.000000 0 0 1
17.013976 -31.794062 -27.835412 45.553792 -1.079441 2.228176 0.115878 -0.049014 -117604.000000 0 0 1
18.105076 -32.427462 -27.194472 46.031222 -1.061584 2.202826 0.091990 -0.036773 152318.000000 0 0 1
18.482376 -31.727862 -26.036382 45.012761 -1.043323 2.187590 0.086919 -0.035794 -326070.000000 0 0 1
19.799276 -32.319862 -25.483172 45.672496 -1.021161 2.162715 0.012468 -0.027788 388233.000000 0 0 1
20.989076 -31.692462 -25.962132 46.032443 -0.985841 2.170014 0.034663 -0.029480 444430.000000 0 0 1
21.599776 -32.414462 -27.010042 47.400317 -0.983004 2.177093 0.044372 -0.023916 -1100560.000000 0 0 1
23.042776 -31.990162 -27.167182 47.878970 -0.946570 2.174158 0.046154 -0.008068 -896804.000000 0 0 1
23.262976 -30.743562 -27.804122 47.533166 -0.923035 2.195604 0.056918 -0.024739 -767165.000000 0 0 1
24.530476 -30.256262 -27.567112 47.719297 -0.889531 2.186696 0.039743 -0.007548 -973359.000000 0 0 1
25.061676 -29.195662 -28.559782 47.918007 -0.861443 2.209324 0.028670 0.002043 70842.700000 0 0 1
25.280276 -29.619062 -29.863312 49.073400 -0.864266 2.225020 0.024746 -0.002668 -184500.000000 0 0 1
25.982776 -28.616662 -30.536692 49.259593 -0.833601 2.239429 0.025709 -0.011054 60579.600000 0 0 1
26.136076 -28.888762 -32.050082 50.446633 -0.835383 2.259228 0.041431 0.004231 217263.000000 0 0 1
27.164676 -29.850662 -32.259522 51.668737 -0.832473 2.245099 0.050220 -0.006926 33565.100000 0 0 1
27.344676 -30.190262 -33.630072 52.822012 -0.834816 2.260966 0.052218 -0.017692 1488530.000000 0 0 1
28.764576 -30.925862 33.504946 53.910956 -0.821591 0.900157 0.046716 -0.021957 2206000.000000 0 0 1
29.858976 -29.996662 33.591576 54.034731 -0.787698 0.899928 0.066180 -0.031632 256489.000000 0 0 1
31.096076 -30.649462 33.371426 54.954595 -0.778165 0.918196 0.064314 -0.022417 473016.000000 0 0 1
32.318876 -29.719262 33.201659 55.046294 -0.743519 0.923341 0.073450 -0.033676 214884.000000 0 0 1
32.365076 -29.070662 31.971233 53.988529 -0.731826 0.937028 0.085943 -0.025097 211250.000000 0 0 1
33.467576 -28.168662 31.928138 54.156793 -0.699638 0.940295 0.087415 -0.032113 296528.000000 0 0 1
33.631576 -27.217762 30.660776 53.028037 -0.680381 0.954276 0.098806 -0.042325 -162717.000000 0 0 1
34.885976 -26.546962 30.629276 53.478267 -0.650481 0.960949 0.095524 -0.046899 559674.000000 0 0 1
35.226476 -25.836762 29.433726 52.676248 -0.632823 0.977899 0.107987 -0.038866 -330028.000000 0 0 1
35.703976 -26.711662 28.271756 52.797528 -0.642311 1.005726 0.096114 -0.031262 106543.000000 0 0 1
34.760976 -27.674162 27.745076 52.382955 -0.672375 1.012598 0.078751 -0.034556 644034.000000 0 0 1
33.687576 -27.196062 26.979986 51.013706 -0.679178 1.013519 0.096971 -0.035471 -398288.000000 0 0 1
32.976376 -28.339762 26.212596 50.770894 -0.709924 1.028281 0.095694 -0.022466 224946.000000 0 0 1
31.844776 -27.854062 25.479946 49.387915 -0.718650 1.028721 0.094804 -0.015240 127687.000000 0 0 1
31.299176 -28.836162 24.692866 49.202645 -0.744463 1.045048 0.078289 -0.004182 -615186.000000 0 0 1
29.994976 -28.366662 24.049896 47.778275 -0.757505 1.043308 0.082702 -0.003994 -150881.000000 0 0 1
28.941976 -28.130062 24.969236 47.459468 -0.771173 1.016768 0.082406 -0.011633 -1013640.000000 0 0 1
27.826376 -27.663262 24.350506 46.179112 -0.782459 1.015370 0.084316 -0.005639 -546856.000000 0 0 1
26.547676 -27.680062 25.246466 45.916762 -0.806277 0.988634 0.079832 -0.008970 356149.000000 0 0 1
26.513076 -26.576262 26.159096 45.755210 -0.786588 0.962198 0.072064 -0.013368 -609811.000000 0 0 1
25.245976 -26.380362 26.681256 45.223581 -0.807368 0.939755 0.075799 -0.020289 -809692.000000 0 0 1
25.208876 -25.487962 27.912976 45.434105 -0.790903 0.909220 0.070665 -0.013019 -407611.000000 0 0 1
23.916976 -25.381962 28.471466 45.020997 -0.815106 0.886143 0.070315 -0.010313 130677.000000 0 0 1
23.825576 -24.351962 29.469706 45.045973 -0.796324 0.857653 0.064335 -0.008424 -474977.000000 0 0 1
23.356576 -22.952262 28.997466 43.740016 -0.776668 0.846043 0.061589 -0.003988 -183826.000000 0 0 1
24.225576 -22.376462 28.007596 43.266731 -0.745740 0.866728 0.074050 -0.006298 427356.000000 0 0 1
23.960776 -20.976362 27.709256 42.212906 -0.719082 0.854737 0.084633 0.001543 -3651.270000 0 0 1
24.663576 -19.953762 28.669646 42.759715 -0.680227 0.835937 0.090521 -0.002793 50113.500000 0 0 1
24.153776 -19.827062 30.002696 43.320654 -0.687336 0.805747 0.075963 0.002868 170883.000000 0 0 1
24.895876 -18.865362 30.748416 43.831172 -0.648456 0.793269 0.086330 -0.005413 6760.630000 0 0 1
24.399876 -18.553562 32.235105 44.482475 -0.650121 0.760241 0.096832 -0.007064 15674.200000 0 0 1
24.679876 -19.511462 33.259236 45.781767 -0.668972 0.757620 0.074800 -0.000537 276030.000000 0 0 1
24.113276 -19.120362 -32.860592 45.020627 -0.670421 2.388973 0.088848 -0.001364 101858.000000 0 0 1
24.157576 -20.248062 -31.806542 44.779779 -0.697584 2.360704 0.048512 0.007516 -34563.300000 0 0 1
25.427176 -20.535362 -31.275972 45.237471 -0.679367 2.334184 0.027565 0.010457 -274798.000000 0 0 1
25.321376 -21.619162 -30.408042 45.091122 -0.706691 2.310906 0.033801 0.001211 -167223.000000 0 0 1
26.574076 -21.976062 -29.592022 45.440253 -0.690973 2.279999 0.046050 0.010111 -387749.000000 0 0 1
27.528976 -22.604962 -30.403942 46.831918 -0.687495 2.277347 0.035328 0.011749 -141904.000000 0 0 1
28.471176 -23.297262 -29.566892 47.197154 -0.685786 2.247793 0.051454 0.000815 735309.000000 0 0 1
29.515776 -24.250362 -30.272322 48.740892 -0.687778 2.240925 0.044181 -0.006830 360025.000000 0 0 1
30.400476 -23.565762 -31.145632 49.493277 -0.659421 2.251436 0.047051 -0.006437 37511.400000 0 0 1
29.967576 -23.378562 -32.475162 49.992489 -0.662506 2.277856 0.045926 -0.003646 -131421.000000 0 0 1
30.141476 -24.669162 -33.320112 51.257253 -0.685888 2.278455 0.052392 0.001469 -239581.000000 0 0 1
29.232876 -25.657662 -32.912062 50.951747 -0.720357 2.273058 0.059389 -0.010474 -54911.300000 0 0 1
29.400976 -26.871162 -33.576582 52.094756 -0.740472 2.271203 0.068524 -0.027174 9224.950000 0 0 1
28.951176 -26.888262 32.314499 51.042885 -0.748471 0.885264 0.069441 -0.031484 -274396.000000 0 0 1
29.794076 -26.131462 31.485885 50.615227 -0.720001 0.899421 0.068811 -0.039392 -177069.000000 0 0 1
29.450476 -26.182862 30.136746 49.609437 -0.726731 0.917912 0.065706 -0.043407 -495320.000000 0 0 1
30.511876 -25.556162 29.196576 49.361240 -0.697240 0.937893 0.078796 -0.042673 -87279.800000 0 0 1
30.816276 -24.118762 29.197936 48.824963 -0.664080 0.929777 0.064557 -0.041829 178876.000000 0 0 1
31.394476 -23.733262 30.432316 49.749439 -0.647311 0.912574 0.066994 -0.031713 -1179390.000000 0 0 1
31.952876 -22.275762 30.298996 49.347999 -0.608807 0.909695 0.072221 -0.026154 212742.000000 0 0 1
33.233876 -22.152762 29.729596 49.790403 -0.587937 0.930922 0.108633 -0.040743 -9424.490000 0 0 1
34.300876 -22.491262 30.587286 51.166288 -0.580375 0.930040 0.094286 -0.035660 -1321050.000000 0 0 1
35.663176 -21.982362 30.170666 51.627081 -0.552383 0.946661 0.090081 -0.038673 -702691.000000 0 0 1
36.215576 -22.493662 28.989836 51.555246 -0.555793 0.973624 0.107867 -0.045797 -992020.000000 0 0 1
37.547776 -22.153362 28.947366 52.331223 -0.533038 0.984648 0.080385 -0.039124 -822990.000000 0 0 1
-37.499089 -22.304962 27.581186 51.617970 0.536597 1.007078 0.081719 -0.035234 149544.000000 0 0 1
-37.061889 -23.643662 27.277336 51.736442 0.567858 1.015451 0.078367 -0.026633 158876.000000 0 0 1
-36.459989 -23.862162 26.016406 50.750241 0.579515 1.032544 0.056686 -0.012257 -77835.000000 0 0 1
-36.295189 -25.345462 25.553986 51.114963 0.609594 1.047277 0.052858 -0.010963 569538.000000 0 0 1
-37.577489 -26.014462 25.570066 52.370299 0.605532 1.060707 0.072500 -0.011795 880181.000000 0 0 1
-37.554689 -27.410762 25.262786 52.914204 0.630505 1.073070 0.063760 -0.004895 -161413.000000 0 0 1
-36.846589 -28.287462 26.280776 53.371630 0.654739 1.055939 0.064906 -0.015434 -1097620.000000 0 0 1
-36.697389 -29.618262 25.910296 53.807837 0.679052 1.068392 0.065249 -0.007425 1060690.000000 0 0 1
-35.498589 -30.196862 26.476126 53.600239 0.704871 1.054163 0.065533 -0.021384 1793210.000000 0 0 1
-34.072889 -29.608562 26.188946 52.187064 0.715409 1.045085 0.056980 -0.020818 -387601.000000 0 0 1
-33.706189 -29.709162 24.857666 51.348272 0.722452 1.065463 0.053348 -0.018508 -88371.300000 0 0 1
-32.433989 -29.151162 24.638306 50.087923 0.732143 1.056524 0.030555 -0.010591 -297879.000000 0 0 1
-32.009389 -29.158762 23.202846 49.124398 0.738829 1.078866 0.028282 -0.005935 -300849.000000 0 0 1
-31.669789 -30.427162 22.687246 49.431760 0.765390 1.093971 0.045841 -0.009008 318165.000000 0 0 1
-31.190489 -30.373262 21.380316 48.502573 0.772124 1.114298 0.038620 -0.002101 -844171.000000 0 0 1
-31.222789 -31.808362 20.797716 49.185155 0.794688 1.134213 0.061015 -0.002361 252626.000000 0 0 1
-30.197589 -32.709562 21.195516 49.305778 0.825308 1.126438 0.074069 -0.020669 227051.000000 0 0 1
-28.884789 -32.354662 20.815716 48.108723 0.841998 1.123332 0.079802 -0.014983 -604562.000000 0 0 1
-27.914089 -33.514462 20.736016 48.294906 0.876316 1.127010 0.087479 -0.014270 -325711.000000 0 0 1
-28.192589 33.255343 19.668516 47.828762 -0.867603 1.146996 0.079735 -0.016606 41741.100000 0 0 1
-29.169189 32.264943 19.932616 47.845348 -0.835747 1.141089 0.096401 -0.022832 -16478.800000 0 0 1
-28.735789 31.158943 20.902816 47.260481 -0.825833 1.112646 0.092783 -0.024935 103821.000000 0 0 1
-27.991389 30.065743 20.339316 45.838353 -0.821113 1.111053 0.084927 -0.021927 250700.000000 0 0 1
-27.944489 29.048043 21.287816 45.583488 -0.804759 1.084893 0.084139 -0.027500 -141410.000000 0 0 1
-27.132989 27.833143 20.758216 44.065707 -0.798135 1.080288 0.082244 -0.019614 -301662.000000 0 0 1
-25.759389 28.037843 20.931516 43.448765 -0.827725 1.068144 0.074711 -0.014201 -966211.000000 0 0 1
-24.924989 26.999643 20.596216 42.124102 -0.825332 1.059921 0.071204 -0.014121 -808518.000000 0 0 1
-23.500689 27.528743 20.743416 41.718142 -0.864171 1.050396 0.051364 -0.007348 -858728.000000 0 0 1
-23.102989 27.737943 22.073316 42.312798 -0.876313 1.021989 0.061789 -0.009751 45143.300000 0 0 1
-21.880089 28.435443 22.044416 42.110201 -0.914953 1.019850 0.093745 -0.008597 -363840.000000 0 0 1
-21.222189 28.426943 23.403456 42.499343 -0.929506 0.987620 0.089726 -0.008610 -634834.000000 0 0 1
-20.778289 27.187843 23.955366 41.770512 -0.918238 0.960025 0.096198 -0.022548 398759.000000 0 0 1
-20.479089 27.335843 25.323776 42.519820 -0.927829 0.932814 0.099093 -0.024026 -538614.000000 0 0 1
-19.037689 27.748343 25.656506 42.316196 -0.969471 0.919391 0.118601 -0.019049 -839323.000000 0 0 1
-18.708289 29.127443 25.377506 42.923488 -0.999860 0.938217 0.096863 -0.016564 -83090.200000 0 0 1
-17.542189 29.565443 26.022326 43.116184 -1.035293 0.922863 0.087488 -0.012214 -406544.000000 0 0 1
-17.434289 29.677043 27.616856 44.129039 -1.039643 0.894613 0.079247 -0.004983 -533576.000000 0 0 1
-17.553789 28.450443 28.298956 43.799477 -1.017974 0.868329 0.090898 -0.006684 268420.000000 0 0 1
-17.706589 28.582943 29.678796 44.847953 -1.016176 0.847626 0.076641 -0.000407 -292617.000000 0 0 1
-17.489189 27.338543 30.561736 44.579002 -1.001677 0.815419 0.080167 0.003583 666185.000000 0 0 1
-16.129789 26.862943 30.631196 43.818466 -1.030048 0.796732 0.079444 0.012256 802514.000000 0 0 1
-15.850189 25.998343 31.695621 43.951732 -1.023303 0.765341 0.094695 0.006206 -171829.000000 0 0 1
-16.174489 26.365743 33.182880 45.363753 -1.020534 0.750300 0.094471 0.002781 -265467.000000 0 0 1
-17.487389 25.955243 33.484166 45.833097 -0.977905 0.751644 0.096610 -0.005732 -214335.000000 0 0 1
-18.113589 26.839443 -32.993822 46.228239 -0.977124 2.365585 0.086697 -0.011149 466847.000000 0 0 1
-19.464289 26.369043 -32.366832 46.062966 -0.934923 2.349932 0.068231 -0.015684 865341.000000 0 0 1
-20.537389 26.261943 -33.295852 47.117807 -0.907115 2.355550 0.067474 -0.015278 -920085.000000 0 0 1
-21.699589 25.846743 -32.733222 47.014786 -0.872401 2.340932 0.088497 -0.023940 -801336.000000 0 0 1
-22.938789 25.965643 -33.687972 48.324757 -0.847213 2.342164 0.106334 -0.035154 168273.000000 0 0 1
-23.037089 25.163643 32.571780 47.168181 -0.829488 0.808553 0.108730 -0.031294 -118196.000000 0 0 1
-23.124589 23.781143 32.813003 46.658146 -0.799395 0.790818 0.103003 -0.031052 -243293.000000 0 0 1
-23.463789 22.930343 31.572153 45.531867 -0.773901 0.804588 0.106066 -0.025951 582295.000000 0 0 1
-24.836589 22.958043 31.173256 45.996737 -0.746114 0.826129 0.109767 -0.029461 305936.000000 0 0 1
-25.033289 22.542243 29.824836 44.992657 -0.733086 0.846134 0.127138 -0.019915 1054960.000000 0 0 1
-26.539089 22.154843 29.572856 45.494111 -0.695603 0.863163 0.106662 -0.023012 1021190.000000 0 0 1
-26.939289 20.864843 30.108156 45.470519 -0.659006 0.847116 0.115074 -0.026432 115116.000000 0 0 1
-28.218589 20.575843 29.573196 45.762736 -0.630029 0.868164 0.108857 -0.030999 -87430.400000 0 0 1
-28.766789 19.233843 30.040346 45.824571 -0.589349 0.855884 0.131853 -0.032325 -455676.000000 0 0 1
-29.312989 19.251043 31.324380 47.022025 -0.581100 0.841743 0.126228 -0.030747 -57740.900000 0 0 1
-29.449089 18.045443 32.029303 47.103749 -0.549754 0.823070 0.113910 -0.023327 401651.000000 0 0 1
-30.464589 16.967843 31.443801 46.954356 -0.508178 0.837035 0.096456 -0.024993 10993.000000 0 0 1
-31.786089 17.400043 31.334015 47.905506 -0.500853 0.857831 0.089438 -0.027217 -523913.000000 0 0 1
-32.621389 16.410943 30.808886 47.777208 -0.466103 0.869976 0.104089 -0.015653 -1093960.000000 0 0 1
-34.099989 16.673143 30.870716 48.926517 -0.454767 0.888005 0.086728 -0.019692 -1084500.000000 0 0 1
-34.641689 16.602343 32.161532 50.100385 -0.446918 0.873768 0.085153 -0.018836 -424368.000000 0 0 1
-36.027489 16.588143 32.200236 51.088175 -0.431494 0.888873 0.108118 -0.020151 -723751.000000 0 0 1
-36.577689 16.848243 33.636996 52.471308 -0.431646 0.874924 0.098494 -0.020198 -192336.000000 0 0 1
37.796076 16.922843 -33.664462 53.368736 0.420974 2.253367 0.090442 -0.023762 -174516.000000 0 0 1
37.313576 17.354843 -32.376512 52.361551 0.435346 2.237407 0.084159 -0.022751 425064.000000 0 0 1
35.825076 17.794443 -32.521622 51.553217 0.461007 2.253426 0.082152 -0.029718 518298.000000 0 0 1
34.995676 16.627743 -32.514632 50.580435 0.443560 2.268984 0.095031 -0.031958 -401009.000000 0 0 1
33.797476 16.904843 -31.835782 49.412145 0.463792 2.270892 0.084512 -0.037880 -118198.000000 0 0 1
32.822876 15.682343 -31.948252 48.414542 0.445720 2.291468 0.096687 -0.030446 175712.000000 0 0 1
32.295076 15.399243 -33.246732 48.841108 0.444940 2.319531 0.100750 -0.033968 117143.000000 0 0 1
31.555576 14.183843 -33.291692 48.013254 0.422428 2.336973 0.097855 -0.038250 -25334.700000 0 0 1
32.367576 12.884443 -33.404772 48.265387 0.378838 2.335199 0.104032 -0.034804 17687.600000 0 0 1
33.019076 12.421143 -32.223882 47.779941 0.359806 2.310979 0.102264 -0.037538 126120.000000 0 0 1
33.813076 11.302943 -32.537332 48.267573 0.322600 2.310546 0.115003 -0.040323 -65157.400000 0 0 1
18.192276 -20.590057 9.585308 29.099613 -0.847146 1.235132 0.071972 -0.035452 38283.900000 0 0 1
17.976776 -21.906657 10.049708 30.067635 -0.883615 1.230001 0.062654 -0.028778 59055.400000 0 0 1
19.166276 -22.417757 10.614608 31.346002 -0.863430 1.225339 0.049478 -0.024826 69337.000000 0 0 1
18.959576 -23.719657 11.385208 32.430088 -0.896471 1.212083 0.056123 -0.025183 -92405.200000 0 0 1
18.553276 -24.891457 10.738908 32.850157 -0.930267 1.237769 0.059171 -0.023554 601085.000000 0 0 1
17.168276 -25.167977 11.010908 32.394704 -0.972153 1.223987 0.056667 -0.014871 986127.000000 0 0 1
16.382076 -26.023847 9.964808 32.325074 -1.008966 1.257424 0.083767 -0.028603 168802.000000 0 0 1
16.258876 -25.333167 8.726708 31.341280 -1.000206 1.288625 0.083019 -0.027927 -207021.000000 0 0 1
15.664776 -26.103367 7.764508 31.417488 -1.030299 1.321069 0.097846 -0.025381 -310309.000000 0 0 1
15.149276 -25.376117 6.485108 30.257305 -1.032593 1.354788 0.095093 -0.016806 296292.000000 0 0 1
14.016276 -24.544657 6.730908 29.055142 -1.051934 1.337013 0.096217 -0.025008 264607.000000 0 0 1
13.815576 -23.803157 5.540608 28.074165 -1.044906 1.372136 0.118258 -0.026255 188090.000000 0 0 1
12.781576 -22.647457 5.726108 26.628261 -1.056986 1.354065 0.148290 -0.037681 122904.000000 0 0 1
12.272776 -22.114157 4.484508 25.685945 -1.064143 1.395307 0.154501 -0.039664 62301.000000 0 0 1
11.359076 -21.059857 4.744308 24.393742 -1.076150 1.375060 0.158092 -0.039501 -204752.000000 0 1 0
10.542776 -20.692257 3.575708 23.496921 -1.099575 1.418025 0.139773 -0.038432 -52662.100000 0 1 0
11.409476 -20.118257 2.629108 23.277298 -1.054904 1.457607 0.127486 -0.040149 133469.000000 0 1 0
10.607676 -19.486057 1.671808 22.249138 -1.072284 1.495585 0.090234 -0.023240 360769.000000 0 1 0
11.436176 -19.045857 0.442008 22.219949 -1.030043 1.550903 0.082597 -0.018129 153800.000000 0 1 0
12.217776 -17.894157 0.703508 21.678787 -0.971721 1.538339 0.076975 -0.015159 -318442.000000 0 1 0
13.013476 -17.633657 -0.413992 21.919576 -0.935026 1.589684 0.086728 -0.015221 -197707.000000 0 1 0
14.140476 -16.615457 -0.084992 21.818196 -0.865697 1.574692 0.068080 -0.002650 489390.000000 0 1 0
15.138376 -17.074757 0.815408 22.833804 -0.845437 1.535078 0.078098 -0.020502 213614.000000 0 1 0
16.327876 -16.317557 0.812508 23.098103 -0.785082 1.535613 0.077136 -0.024128 949542.000000 0 1 0
17.561476 -17.005757 1.516408 24.492870 -0.769323 1.508844 0.066214 -0.016459 503189.000000 0 1 0
18.149876 -18.047657 0.773608 25.607311 -0.782574 1.540581 0.070945 -0.017900 54976.300000 0 0 1
19.328476 -18.546157 1.368008 26.822031 -0.764746 1.519771 0.066599 -0.014173 6746.230000 0 0 1
19.764576 -19.914857 0.874608 28.071425 -0.789186 1.539635 0.041137 -0.013569 -230163.000000 0 0 1
18.885776 -20.987557 1.098508 28.255208 -0.838061 1.531908 0.054799 -0.009293 -215878.000000 0 0 1
19.007876 -22.059257 0.199708 29.119582 -0.859564 1.563938 0.053289 -0.009446 110943.000000 0 0 1
18.035976 -23.242557 0.505908 29.423950 -0.910868 1.553602 0.067505 -0.012222 393570.000000 0 0 1
18.453176 -24.003157 1.638908 30.320904 -0.915383 1.516718 0.048598 -0.000138 -410908.000000 0 0 1
17.431676 -24.851757 2.018108 30.422786 -0.959114 1.504412 0.070246 -0.004410 -566907.000000 0 0 1
17.703176 -25.574177 3.404108 31.289437 -0.965305 1.461786 0.062165 -0.007454 575259.000000 0 0 1
18.600476 -26.707337 3.367608 32.720029 -0.962453 1.467692 0.042160 -0.005645 -131557.000000 0 0 1
19.923176 -26.311957 3.619108 33.201656 -0.922709 1.461575 0.043691 0.003043 -323210.000000 0 0 1
20.895476 -27.529397 3.601308 34.748497 -0.921545 1.466971 0.050971 0.003050 43240.400000 0 0 1
21.214676 -28.073707 2.356008 35.266787 -0.923671 1.503941 0.044371 0.004341 -138531.000000 0 0 1
22.130676 -29.164387 2.421208 36.690469 -0.921671 1.504758 0.058209 0.004513 338948.000000 0 0 1
21.578876 -30.474237 3.083708 37.467803 -0.954653 1.488400 0.060145 -0.005314 91001.200000 0 0 1
21.504676 -30.618697 4.454808 37.680247 -0.958503 1.452293 0.086097 -0.001862 -416077.000000 0 0 1
20.731576 -31.746007 4.639908 38.198638 -0.992283 1.449028 0.078395 -0.022860 -442120.000000 0 0 1
20.521876 -32.226647 6.079608 38.686765 -1.003758 1.412993 0.095422 -0.035776 24208.100000 0 0 1
21.682076 -32.781107 6.671108 39.864985 -0.986435 1.402663 0.076476 -0.045696 158367.000000 0 0 1
21.374876 -33.221947 8.024408 40.310968 -0.999077 1.370395 0.070705 -0.047766 583985.000000 0 0 1
22.506976 33.689394 8.788708 41.458179 0.981821 1.357186 0.080645 -0.046546 1407520.000000 0 0 1
23.721976 -33.281137 9.168608 41.885911 -0.951548 1.350115 0.084081 -0.048406 1190410.000000 0 0 1
24.742276 33.476178 9.563908 42.711860 0.934307 1.344965 0.112858 -0.049870 532338.000000 0 0 1
25.886876 -33.495937 10.382808 43.587966 -0.912839 1.330281 0.110120 -0.045352 543954.000000 0 0 1
26.671476 -32.554337 9.626608 43.172028 -0.884403 1.345923 0.084616 -0.032445 155012.000000 0 0 1
27.554176 -31.755507 10.355508 43.299900 -0.856117 1.329298 0.078758 -0.030624 -82819.400000 0 0 1
28.184076 -30.622107 9.526108 42.694289 -0.826833 1.345779 0.071789 -0.026226 -626707.000000 0 0 1
27.271176 -29.657307 9.091308 41.302842 -0.827288 1.348866 0.051853 -0.030977 -279613.000000 0 0 1
27.693576 -28.884667 7.955108 40.798797 -0.806447 1.374555 0.053037 -0.027570 -5416.370000 0 0 1
27.125776 -27.388997 7.959508 39.361385 -0.790227 1.367176 0.040415 -0.025633 -59854.000000 0 0 1
27.633376 -26.615397 9.022008 39.412935 -0.766635 1.339839 0.039168 -0.035026 43197.600000 0 0 1
27.105976 -25.261087 8.948608 38.117371 -0.750183 1.333820 0.048657 -0.036488 175046.000000 0 0 1
27.814276 -24.428557 10.035808 38.354996 -0.720681 1.306059 0.069802 -0.053870 535678.000000 0 0 1
29.207776 -24.302357 9.812308 39.242580 -0.693981 1.318072 0.087877 -0.041794 -172133.000000 0 0 1
29.828076 -23.380057 10.732608 39.389466 -0.664801 1.294833 0.075756 -0.044514 1095610.000000 0 0 1
31.345276 -23.195057 10.356508 40.345932 -0.637061 1.311198 0.091120 -0.044948 958656.000000 0 0 1
31.413976 -22.633057 9.056008 39.763104 -0.624337 1.341031 0.094016 -0.036298 -25004.300000 0 0 1
32.739376 -22.534157 8.545708 40.653217 -0.602823 1.359007 0.085000 -0.038962 521940.000000 0 0 1
32.871576 -21.734557 7.237408 40.066339 -0.584206 1.389164 0.067876 -0.016674 -70539.600000 0 0 1
32.547876 -20.358457 7.414108 39.099872 -0.558954 1.380021 0.063355 -0.001363 -33066.700000 0 0 1
32.874576 -19.656457 6.254508 38.810216 -0.538891 1.408934 0.053789 -0.004621 -99169.700000 0 0 1
32.535576 -18.156757 6.295608 37.787117 -0.509009 1.403408 0.069994 -0.000946 -8572.990000 0 0 1
33.319076 -17.464657 7.259508 38.312863 -0.482791 1.380164 0.069668 -0.001169 314941.000000 0 0 1
32.902876 -16.085757 7.335208 37.351788 -0.454717 1.373130 0.081304 -0.008053 179233.000000 0 0 1
33.424376 -15.399257 8.625508 37.798484 -0.431732 1.340571 0.083324 -0.033953 809927.000000 0 0 1
34.813076 -15.035057 8.571908 38.877767 -0.407683 1.348486 0.085440 -0.031599 551532.000000 0 0 1
35.269076 -14.426657 9.772808 39.338834 -0.388280 1.319741 0.083595 -0.048791 643985.000000 0 0 1
36.829476 -14.455057 9.855008 40.773522 -0.374012 1.326678 0.089603 -0.055195 463681.000000 0 0 1
37.450176 -13.538657 8.991308 40.824680 -0.346893 1.348734 0.129164 -0.050122 -474270.000000 0 0 1
-36.991389 -13.867557 8.729108 40.458242 0.358671 1.353330 0.135702 -0.050011 -333286.000000 0 0 1
-36.276489 -12.879657 7.892108 39.295732 0.341159 1.368582 0.160388 -0.060063 -697107.000000 0 0 1
-36.930289 -12.713157 6.652008 39.619690 0.331541 1.402101 0.195572 -0.069253 340978.000000 0 0 1
-36.149189 -11.956957 5.689608 38.498108 0.319439 1.422464 0.231098 -0.056176 174951.000000 0 0 1
-34.953389 -12.668157 5.064708 37.521632 0.347705 1.435402 0.250108 -0.059597 -222852.000000 0 0 1
-33.966089 -13.164457 5.910008 36.904286 0.369751 1.409960 0.206933 -0.055967 -552328.000000 0 0 1
-33.152089 -14.165757 5.399608 36.453881 0.403814 1.422128 0.216393 -0.034829 -67988.000000 0 0 1
-32.294589 -14.970757 6.353908 36.158487 0.434080 1.394155 0.167052 -0.027868 207.837000 0 0 1
-33.100189 -15.769457 7.185908 37.362221 0.444603 1.377260 0.124443 -0.036360 -171999.000000 0 0 1
-32.474989 -16.057457 8.410708 37.191489 0.459203 1.342677 0.114110 -0.033953 -169881.000000 0 0 1
-33.405889 -16.765557 9.382608 38.536614 0.465146 1.324852 0.065319 -0.026282 -324850.000000 0 0 1
-34.560589 -15.966257 9.677808 39.281238 0.432771 1.321861 0.065594 -0.027665 729700.000000 0 0 1
-35.432689 -16.593357 10.626608 40.543060 0.437973 1.305592 0.068691 -0.019539 664513.000000 0 0 1
-36.232089 -17.934557 10.291008 41.717112 0.459632 1.321538 0.070139 -0.022120 -115265.000000 0 0 1
-35.385089 -19.064657 10.142508 41.454024 0.494186 1.323618 0.091781 -0.025001 32637.600000 0 0 1
-34.923289 -19.747057 11.344008 41.692552 0.514621 1.295235 0.085571 -0.037661 -213720.000000 0 0 1
-36.013789 -20.579657 12.019408 43.185431 0.519153 1.288751 0.098273 -0.036167 149276.000000 0 0 1
-36.495589 -21.766757 11.384608 43.992375 0.537784 1.309031 0.103787 -0.033846 -373762.000000 0 0 1
-37.886789 -21.911157 11.471608 45.244948 0.524335 1.314454 0.115341 -0.044054 -111059.000000 0 0 1
37.511076 -23.390257 11.368008 45.644458 -0.557560 1.319091 0.132430 -0.044427 147291.000000 0 0 1
-37.597289 -24.106657 12.437308 46.361338 0.570150 1.299201 0.121060 -0.040734 507901.000000 0 0 1
37.735276 -25.453297 12.529508 47.210273 -0.593422 1.302180 0.132632 -0.035815 -158593.000000 0 0 1
36.460776 -25.765867 13.324908 46.592072 -0.615191 1.280756 0.149016 -0.049195 -616754.000000 0 0 1
35.300376 -25.579937 12.550108 45.364688 -0.627070 1.290491 0.140519 -0.043702 495318.000000 0 0 1
34.105576 -25.243037 13.287808 44.463097 -0.637163 1.267309 0.141985 -0.023294 955235.000000 0 0 1
34.026076 -23.747057 13.686908 43.692425 -0.609320 1.252177 0.135736 -0.032381 -1189270.000000 0 0 1
35.045576 -23.420257 14.541408 44.588713 -0.589119 1.238597 0.141821 -0.037782 -910608.000000 0 0 1
35.158876 -22.058957 14.774408 44.057091 -0.560329 1.228823 0.134038 -0.034975 -136570.000000 0 0 1
36.424476 -21.592457 15.508608 45.094274 -0.535109 1.219713 0.105970 -0.026013 -252549.000000 0 0 1
36.537276 -20.280157 16.000808 44.746878 -0.506715 1.205116 0.112533 -0.010487 -131070.000000 0 0 1
35.748576 -19.993157 17.124508 44.395222 -0.509934 1.174799 0.130673 -0.018997 -129516.000000 0 0 1
35.825976 -18.558657 17.645508 44.037350 -0.477961 1.158522 0.119135 -0.011594 -327038.000000 0 0 1
35.310476 -17.599757 16.790808 42.877877 -0.462390 1.168431 0.093067 -0.014254 -54240.700000 0 0 1
35.175876 -16.270757 17.340508 42.459074 -0.433245 1.150090 0.089474 -0.014422 204332.000000 0 0 1
36.470976 -15.493457 17.730208 43.411283 -0.401715 1.150070 0.066298 -0.016644 46339.500000 0 0 1
37.237876 -16.075957 18.751508 44.684615 -0.407540 1.137746 0.087870 -0.008533 -365034.000000 0 0 1
-37.516889 -15.268357 19.217408 44.832449 0.386503 1.127799 0.073617 -0.018514 -477559.000000 0 0 1
-37.209689 -15.358157 20.747708 45.286878 0.391446 1.094895 0.069747 -0.011137 -125599.000000 0 0 1
-36.227089 -16.316557 21.100908 44.987557 0.423184 1.082594 0.073066 -0.001483 354846.000000 0 0 1
-35.863089 -16.278157 22.487908 45.352459 0.426090 1.051986 0.063663 -0.012313 47708.000000 0 0 1
-34.731289 -17.267557 22.791808 44.987748 0.461386 1.039533 0.061935 0.002312 -659188.000000 0 0 1
-35.214389 -18.589557 22.753808 45.862409 0.485715 1.051658 0.066322 -0.003456 557539.000000 0 0 1
-34.232389 -19.561957 23.095908 45.694065 0.519159 1.040897 0.039758 0.002115 -62999.000000 0 0 1
-33.094689 -19.812557 22.087808 44.448477 0.539436 1.050738 0.024476 0.010650 -236376.000000 0 0 1
-32.006089 -18.932057 22.251908 43.335435 0.534157 1.031560 0.037046 0.018697 -354962.000000 0 0 1
-30.794589 -19.554157 21.932808 42.564302 0.565749 1.029454 0.032425 0.012537 -101659.000000 0 0 1
-29.574289 -18.606357 22.094908 41.340296 0.561571 1.006923 0.050026 0.014705 -13328.600000 0 0 1
-29.170789 -18.424657 23.444208 41.713712 0.563341 0.973963 0.032807 0.005237 306106.000000 0 0 1
-28.079089 -17.514257 23.441808 40.554935 0.557698 0.954489 0.064965 -0.002641 -164204.000000 0 0 1
-27.521089 -17.141757 24.797008 40.818400 0.557058 0.917892 0.061135 -0.015426 -1004800.000000 0 0 1
-26.491789 -16.179757 24.655508 39.642067 0.548284 0.899562 0.079442 -0.023761 410286.000000 0 0 1
-25.930589 -15.837857 25.945608 39.955071 0.548307 0.864041 0.082820 -0.031803 663422.000000 0 0 1
-24.930689 -16.843257 26.623008 40.174857 0.594164 0.846407 0.068948 -0.023524 -53407.500000 0 0 1
-25.608689 -18.061957 26.939308 41.325120 0.614278 0.860726 0.061097 -0.015344 -298294.000000 0 0 1
-24.746189 -18.970157 27.558108 41.613580 0.654034 0.846994 0.067174 -0.012484 -418128.000000 0 0 1
-25.297489 -20.268557 28.160908 42.939656 0.675477 0.855521 0.064900 -0.011614 -215837.000000 0 0 1
-26.223789 -19.962457 29.214508 44.041733 0.650653 0.845527 0.046705 -0.011970 439338.000000 0 0 1
-26.747389 -21.197857 29.754208 45.277863 0.670164 0.853769 0.040748 -0.008797 71379.700000 0 0 1
-27.947989 -20.950557 30.695808 46.499984 0.643262 0.849811 0.045563 -0.006530 -592441.000000 0 0 1
-27.536089 -20.349357 31.855408 46.766436 0.636428 0.821451 0.058711 -0.010109 881936.000000 0 0 1
-28.602289 -20.241757 32.828408 48.015873 0.615873 0.817977 0.070343 -0.013595 1490930.000000 0 0 1
-29.870589 -19.344057 32.592708 48.256909 0.574683 0.829290 0.055455 -0.023551 215826.000000 0 0 1
-30.772089 -19.812857 31.636708 48.377185 0.572045 0.857990 0.056286 -0.024159 -931486.000000 0 0 1
-31.935489 -19.080157 31.723708 48.890914 0.538549 0.864702 0.069771 -0.027220 -1174900.000000 0 0 1
-33.094789 -19.580057 30.889808 49.323665 0.534247 0.894040 0.058649 -0.001781 -976155.000000 0 0 1
-32.790289 -19.579257 29.548408 48.287253 0.538288 0.912298 0.050237 -0.016104 318143.000000 0 0 1
-33.866489 -20.022457 28.741508 48.722809 0.533937 0.939863 0.051927 -0.022030 551904.000000 0 0 1
-34.691989 -18.858957 28.015308 48.415409 0.497925 0.953731 0.045236 -0.013979 231645.000000 0 0 1
-35.596389 -19.284457 27.042208 48.685462 0.496490 0.981896 0.030930 -0.015289 186257.000000 0 0 1
-36.214389 -18.218857 26.278308 48.311057 0.466111 0.995671 0.073799 -0.013616 861902.000000 0 0 1
-37.348589 -18.732857 25.282808 48.837049 0.464901 1.026639 0.063367 -0.023713 518074.000000 0 0 1
37.309376 -19.238957 25.965908 49.359450 -0.476097 1.016838 0.065217 -0.022194 -801135.000000 0 0 1
36.260676 -19.498857 25.089208 48.213176 -0.493383 1.023500 0.107912 -0.024748 -366616.000000 0 0 1
35.102276 -20.169357 25.859008 48.038120 -0.521525 1.002376 0.111629 -0.036389 -183211.000000 0 0 1
34.207476 -19.253257 26.462708 47.340408 -0.512646 0.977632 0.110949 -0.044931 93090.500000 0 0 1
33.135876 -20.022957 26.984208 47.191657 -0.543552 0.962098 0.109137 -0.045275 70501.500000 0 0 1
-30.421914 -5.287157 33.038549 45.221595 0.172076 0.751607 0.089144 -0.016895 99224.400000 0 0 1
-31.585614 -4.972857 32.312037 45.458201 0.156159 0.780151 0.092934 -0.011647 315359.000000 0 0 1
-31.302234 -3.824457 31.529428 44.593287 0.121576 0.785487 0.099698 -0.010840 413678.000000 0 0 1
-32.230554 -3.758557 30.243086 44.357408 0.116090 0.820570 0.092039 -0.008193 381788.000000 0 0 1
-32.164384 -4.705557 29.225946 43.713223 0.145267 0.838494 0.081691 -0.007454 -276396.000000 0 0 1
-30.940344 -4.810857 28.538026 42.365885 0.154253 0.831716 0.090332 -0.014227 -165608.000000 0 0 1
-30.736314 -5.997957 27.607546 41.747732 0.192720 0.848253 0.095026 -0.013507 226097.000000 0 0 1
-31.613914 -5.870557 26.500276 41.667345 0.183604 0.881497 0.063022 -0.015671 364061.000000 0 0 1
-31.138684 -6.807457 25.504606 40.822103 0.215231 0.895954 0.067561 -0.018664 330366.000000 0 0 1
-31.594004 -6.442057 24.080476 40.243640 0.201144 0.929335 0.071428 -0.018743 76495.400000 0 0 1
-30.972624 -5.292457 23.564596 39.275995 0.169241 0.927327 0.087758 -0.017453 27276.900000 0 0 1
-31.544004 -4.992857 22.285366 38.943426 0.156980 0.961550 0.086885 -0.018473 221877.000000 0 0 1
-31.086234 -3.688857 21.594416 38.029994 0.118113 0.966934 0.100511 -0.020858 -263429.000000 0 0 1
-29.791124 -3.799857 21.083116 36.693975 0.126865 0.958722 0.124797 -0.016735 -364123.000000 0 0 1
-29.273804 -2.541357 20.636816 35.906717 0.086596 0.958517 0.135029 -0.020196 -31181.100000 0 0 1
-27.790354 -2.580757 20.229116 34.470005 0.092600 0.943619 0.128692 -0.021277 -54515.300000 0 0 1
-27.668224 -3.374057 19.054016 33.763448 0.121348 0.971164 0.144472 -0.021343 -571841.000000 0 0 1
-26.556684 -2.888357 18.378716 32.424949 0.108336 0.968170 0.136027 -0.023245 -448200.000000 0 0 1
-26.169754 -3.649457 17.069416 31.456948 0.138560 0.997234 0.141085 -0.027254 -52018.100000 0 0 1
-27.089234 -3.383157 16.028516 31.657317 0.124246 1.039892 0.137364 -0.015852 187647.000000 0 0 1
-26.672894 -3.816557 14.759016 30.721946 0.142123 1.069678 0.155887 -0.022386 667482.000000 0 0 1
-27.925954 -3.901457 13.791316 31.389181 0.138809 1.115904 0.174173 -0.026827 933682.000000 0 0 1
-28.462314 -2.621857 13.536516 31.626172 0.091858 1.128500 0.168483 -0.028422 -255832.000000 0 0 1
-29.785494 -2.607657 13.072516 32.632288 0.087325 1.158624 0.166879 -0.034885 -85780.900000 0 0 1
-30.081184 -1.396657 12.200016 32.491056 0.046396 1.185873 0.169490 -0.028757 113024.000000 0 0 1
-29.319604 -1.483657 10.975316 31.341634 0.050560 1.213030 0.205870 -0.037895 376135.000000 0 0 1
-29.323284 -0.395257 10.088716 31.012795 0.013478 1.239459 0.204013 -0.028530 -77121.600000 0 0 1
-30.666784 -0.166657 9.348716 32.060536 0.005434 1.274902 0.201201 -0.024937 113293.000000 0 0 1
-30.953314 -1.155557 8.401616 32.094083 0.037315 1.305929 0.214584 -0.041363 -548043.000000 0 0 1
-32.294094 -1.144857 8.036116 33.298625 0.035436 1.327055 0.204137 -0.044375 -701708.000000 0 0 1
-32.611664 -2.134657 6.845916 33.390777 0.065364 1.364308 0.238111 -0.049493 -30454.300000 0 0 1
-32.254494 -1.828357 5.473516 32.766670 0.056625 1.402964 0.259609 -0.060450 530547.000000 0 0 1
-33.032214 -0.780057 4.922416 33.406075 0.023611 1.422907 0.222706 -0.053328 -3016.150000 0 0 1
-32.502674 -0.444357 3.535716 32.697440 0.013671 1.462450 0.241672 -0.043638 -46168.700000 0 0 1
-32.601014 -1.505057 2.607216 32.739715 0.046133 1.491077 0.221627 -0.059880 405203.000000 0 0 1
-32.049144 -1.180957 1.315216 32.097852 0.036832 1.529810 0.219852 -0.057113 -47252.600000 0 0 1
-32.720304 -1.916857 0.127016 32.776650 0.058516 1.566921 0.193498 -0.052878 -352064.000000 0 0 1
-34.066248 -1.547657 0.050416 34.101423 0.045400 1.569318 0.220075 -0.044854 -315274.000000 0 0 1
-34.732733 -2.157457 -1.059784 34.815809 0.062036 1.601241 0.233620 -0.060917 -843855.000000 0 0 1
-36.211054 -1.845157 -0.987284 36.271474 0.050912 1.598019 0.217090 -0.047765 -1072870.000000 0 0 1
-37.001294 -2.426757 0.014116 37.080792 0.065492 1.570416 0.230197 -0.052035 -917022.000000 0 0 1
37.546250 -1.806957 0.079216 37.589789 -0.048089 1.568689 0.186251 -0.034276 -802149.000000 0 0 1
36.444950 -2.707657 0.708216 36.552255 -0.074158 1.551420 0.206836 -0.049508 -65399.000000 0 0 1
36.758510 -3.107257 1.996916 36.943616 -0.084331 1.516717 0.196772 -0.051041 -116489.000000 0 0 1
35.894760 -4.159757 2.326216 36.209787 -0.115373 1.506509 0.198486 -0.045744 -182863.000000 0 0 1
35.796800 -4.550657 3.828116 36.287379 -0.126446 1.465105 0.183796 -0.040839 -96779.300000 0 0 1
35.032580 -3.594457 4.476816 35.499911 -0.102245 1.444352 0.169701 -0.038080 -175655.000000 0 0 1
35.007970 -3.777157 5.904616 35.702792 -0.107478 1.404651 0.146266 -0.046994 -211837.000000 0 0 1
34.409220 -2.524557 6.572716 35.122193 -0.073237 1.382548 0.134442 -0.038166 -104766.000000 0 0 1
33.009510 -2.433257 6.664116 33.763278 -0.073581 1.372114 0.169460 -0.035559 -280944.000000 0 0 1
32.650100 -1.266457 7.326616 33.486001 -0.038769 1.350216 0.168996 -0.031003 904342.000000 0 0 1
31.104910 -1.168357 7.635016 32.049555 -0.037544 1.330258 0.163770 -0.030407 933176.000000 0 0 1
30.320840 -0.960457 6.448216 31.013792 -0.031666 1.361354 0.215394 -0.036783 293046.000000 0 0 1
28.949340 -0.839857 6.766716 29.741522 -0.029003 1.341269 0.193147 -0.025147 650583.000000 0 0 1
28.081140 -2.189557 6.795916 28.974628 -0.077815 1.334044 0.257584 -0.044474 -3205.570000 0 0 1
28.309540 -3.105257 7.880716 29.549592 -0.109253 1.300835 0.200816 -0.044553 331343.000000 0 0 1
27.668440 -4.362357 7.690516 29.046803 -0.156378 1.302838 0.224790 -0.056990 -53900.200000 0 0 1
27.907040 -5.393257 8.825316 29.761994 -0.190904 1.269739 0.184143 -0.041500 112058.000000 0 0 1
26.914040 -5.279357 9.826016 29.133962 -0.193697 1.226781 0.184504 -0.036775 727543.000000 0 0 1
27.298840 -6.265157 10.789216 30.014764 -0.225596 1.203103 0.161217 -0.031462 446774.000000 0 0 1
26.197440 -6.537257 11.853216 29.487969 -0.244544 1.157131 0.139727 -0.033155 535478.000000 0 0 1
24.944340 -6.990357 11.360916 28.287022 -0.273230 1.157500 0.166643 -0.041415 1044720.000000 0 0 1
23.918440 -6.776757 12.390016 27.776406 -0.276092 1.108435 0.171692 -0.044789 1384100.000000 0 0 1
22.911540 -7.981057 12.446016 27.267916 -0.335197 1.096813 0.163552 -0.043285 237731.000000 0 0 1
23.474940 -9.034157 13.185316 28.399672 -0.367372 1.087978 0.149709 -0.045131 241036.000000 0 0 1
22.690140 -10.212157 13.148016 28.142511 -0.422912 1.084682 0.211737 -0.063611 -80675.300000 0 0 1
23.087840 -11.238057 14.244216 29.363923 -0.452993 1.064327 0.142832 -0.056876 -100202.000000 0 0 1
22.747540 -10.719857 15.523116 29.552209 -0.440387 1.017755 0.114034 -0.047298 253486.000000 0 0 1
23.042640 -11.725757 16.462516 30.650793 -0.470720 1.003802 0.100866 -0.049968 -44580.800000 0 0 1
22.768040 -11.360657 17.910316 31.116356 -0.462826 0.957469 0.102435 -0.039670 55386.400000 0 0 1
21.401640 -11.339357 18.285916 30.347750 -0.487230 0.924109 0.101650 -0.042274 46624.700000 0 0 1
21.151540 -11.606157 19.645516 31.113290 -0.501856 0.887415 0.109977 -0.031129 187592.000000 0 0 1
21.601640 -10.502657 20.646716 31.673705 -0.452545 0.860766 0.103099 -0.030123 -141786.000000 0 0 1
20.799340 -9.297857 20.561416 30.689323 -0.420378 0.836606 0.094018 -0.025612 184290.000000 0 0 1
21.174140 -8.253357 19.676216 30.060200 -0.371669 0.857195 0.107706 -0.029544 -1290130.000000 0 0 1
22.326040 -7.357957 20.161116 30.968730 -0.318358 0.861875 0.090010 -0.025310 203716.000000 0 0 1
23.607140 -7.942257 20.241016 32.094785 -0.324539 0.888388 0.104315 -0.024181 -116602.000000 0 0 1
24.262440 -8.144657 19.027516 31.891187 -0.323870 0.931490 0.118061 -0.030891 -969237.000000 0 0 1
25.665840 -8.736357 19.225216 33.236550 -0.328087 0.953986 0.123448 -0.034477 -94163.800000 0 0 1
25.562140 -10.031757 19.751016 33.825461 -0.373977 0.947260 0.086483 -0.037359 -202136.000000 0 0 1
26.807040 -10.665957 19.875016 35.034216 -0.378677 0.967569 0.086412 -0.040773 -84067.500000 0 0 1
26.653740 -12.153457 20.074216 35.512006 -0.427812 0.970024 0.066577 -0.031131 136973.000000 0 0 1
25.946340 -12.741757 18.976416 34.578452 -0.456487 0.989876 0.083741 -0.037004 282405.000000 0 0 1
25.749740 -14.137157 19.118316 35.048799 -0.502092 0.993838 0.060249 -0.029296 -91938.600000 0 0 1
24.722340 -14.759257 18.154116 34.038239 -0.538211 1.008247 0.092587 -0.028847 -464519.000000 0 0 1
25.101040 -14.731757 16.770916 33.590929 -0.530730 1.048041 0.118572 -0.039477 78761.800000 0 0 1
24.147540 -15.261457 15.865816 32.676289 -0.563623 1.063810 0.118130 -0.038579 -56827.600000 0 0 1
23.726540 -16.776257 15.969416 33.157409 -0.615453 1.068289 0.087108 -0.031976 -281111.000000 0 0 1
24.839240 -17.608557 15.713316 34.263062 -0.616675 1.094368 0.133697 -0.040930 83236.200000 0 0 1
24.570340 -18.999157 15.866516 34.877155 -0.658219 1.098507 0.094414 -0.026973 -546143.000000 0 0 1
25.857940 -19.811657 15.793816 36.201926 -0.653772 1.119347 0.085068 -0.020997 -519232.000000 0 0 1
26.443140 -19.764857 14.507116 36.060306 -0.641865 1.156767 0.107843 -0.041351 -231608.000000 0 0 1
27.487040 -20.703157 14.462316 37.327157 -0.645544 1.172935 0.104790 -0.038031 -256126.000000 0 0 1
28.037540 -20.803157 13.041516 37.268702 -0.638345 1.213298 0.107030 -0.054612 25128.800000 0 0 1
27.029440 -21.280157 12.150516 36.483842 -0.666946 1.231272 0.101624 -0.047351 433685.000000 0 0 1
27.194240 -20.774857 10.880616 35.909737 -0.652365 1.262958 0.119603 -0.046887 567636.000000 0 0 1
25.833940 -20.854857 10.102816 34.704242 -0.679156 1.275407 0.078330 -0.039174 623332.000000 0 0 1
25.333040 -22.171757 9.824216 35.069430 -0.718950 1.286860 0.056921 -0.037339 408730.000000 0 0 1
23.933540 -22.142957 9.545016 33.973993 -0.746557 1.286012 0.047197 -0.027783 641081.000000 0 0 1
23.478340 -23.089557 8.432616 33.992192 -0.777050 1.320104 0.035170 -0.027385 -315214.000000 0 0 1
23.790440 -24.414757 8.707216 35.183533 -0.798349 1.320718 0.029158 -0.021732 -63446.500000 0 0 1
23.383440 -25.224817 7.637516 35.233625 -0.823262 1.352294 0.030182 -0.009681 225440.000000 0 0 1
21.905440 -25.719447 7.504916 34.607254 -0.865312 1.352200 0.045929 -0.005118 -46123.200000 0 0 1
21.108240 -24.668957 7.131216 33.241081 -0.863025 1.354586 0.045922 -0.014294 -621806.000000 0 0 1
19.761840 -25.050687 7.424416 32.759566 -0.902876 1.342176 0.053532 -0.021837 621556.000000 0 0 1
18.725940 -23.906357 7.357416 31.245901 -0.906319 1.333096 0.056692 -0.025552 -178492.000000 0 0 1
18.386040 -23.427357 6.069116 30.392790 -0.905386 1.369755 0.062367 -0.022753 -73559.300000 0 0 1
17.431340 -22.405757 6.199716 29.056945 -0.909624 1.355779 0.079208 -0.023680 -236775.000000 0 0 1
17.010240 -21.830257 4.830216 28.093404 -0.908865 1.398004 0.087881 -0.018858 -80680.400000 0 0 1
16.058040 -20.795957 4.999916 26.745684 -0.913256 1.382747 0.116726 -0.028482 35158.400000 0 0 1
15.856240 -20.034957 3.813616 25.833380 -0.901304 1.422631 0.142132 -0.032900 312938.000000 0 0 1
15.075840 -18.687157 3.995416 24.340381 -0.891954 1.405902 0.153881 -0.028940 -50366.300000 0 1 0
15.721640 -17.831757 4.864116 24.265225 -0.848204 1.368973 0.106748 -0.023306 -55913.600000 0 1 0
15.124740 -16.542957 4.974816 22.960313 -0.830153 1.352394 0.091444 -0.008625 -177648.000000 0 1 0
16.228840 -15.485057 5.051916 22.993132 -0.761950 1.349275 0.088270 -0.007670 -567564.000000 0 1 0
16.927940 -15.429357 6.291516 23.752966 -0.739118 1.302724 0.129104 -0.020977 561300.000000 0 1 0
17.946740 -14.410757 6.207116 23.838701 -0.676551 1.307381 0.125405 -0.021528 1149050.000000 0 1 0
19.353240 -14.850357 5.659416 25.042164 -0.654502 1.342831 0.160144 -0.045352 56381.900000 0 0 1
20.202140 -13.740957 5.584416 25.062443 -0.597295 1.346090 0.169673 -0.041223 -26200.500000 0 0 1
21.506840 -14.060357 5.140816 26.204309 -0.579015 1.373333 0.172995 -0.037956 845363.000000 0 0 1
22.436240 -12.754557 5.027316 26.293298 -0.516921 1.378410 0.166288 -0.032208 478020.000000 0 0 1
22.688040 -12.073557 6.246516 26.448760 -0.489040 1.332369 0.202809 -0.044020 314803.000000 0 0 1
23.658240 -11.073357 6.045516 26.811934 -0.437767 1.343362 0.192618 -0.047830 -186693.000000 0 0 1
24.022440 -10.374557 7.369816 27.184982 -0.407675 1.296262 0.211209 -0.049407 -250060.000000 0 0 1
24.682940 -11.284957 8.240516 28.363778 -0.428823 1.276016 0.209306 -0.031964 396507.000000 0 0 1
24.815440 -10.705957 9.491316 28.644522 -0.407299 1.233064 0.225763 -0.054887 -120399.000000 0 0 1
25.213640 -11.735257 10.562816 29.749235 -0.435614 1.207816 0.197139 -0.048538 -405497.000000 0 0 1
24.231140 -12.658457 10.899416 29.430969 -0.481410 1.191423 0.214683 -0.053937 -37601.100000 0 0 1
24.699240 -13.547757 11.875516 30.571589 -0.501698 1.171848 0.213329 -0.057068 -96485.300000 0 0 1
23.649140 -14.651257 12.012616 30.302543 -0.554653 1.163179 0.190496 -0.065753 1176970.000000 0 0 1
22.418540 -14.174457 12.635516 29.379626 -0.563806 1.126218 0.172462 -0.054724 1130080.000000 0 0 1
21.327940 -15.092257 12.480216 28.955363 -0.615827 1.125178 0.133277 -0.052397 -207902.000000 0 0 1
20.080240 -14.422757 13.007816 27.936271 -0.622874 1.086456 0.113321 -0.048011 -1007800.000000 0 0 1
20.069440 -14.249057 14.356316 28.494243 -0.617398 1.042767 0.112995 -0.061723 239655.000000 0 0 1
19.480040 -13.020857 14.838016 27.734120 -0.589216 1.006277 0.136574 -0.067794 187138.000000 0 0 1
17.953440 -12.919357 15.067416 26.763087 -0.623762 0.972794 0.157197 -0.066707 65404.000000 0 0 1
17.291640 -12.918457 13.769416 25.602425 -0.641638 1.002951 0.164518 -0.077346 1172350.000000 0 0 1
15.859040 -12.787857 13.864016 24.642431 -0.678598 0.973260 0.187808 -0.073309 957830.000000 0 1 0
15.385040 -11.309357 13.719916 23.512489 -0.633889 0.947745 0.159119 -0.072244 -540917.000000 0 1 0
15.832140 -10.523757 14.748816 24.061041 -0.586646 0.910976 0.143409 -0.055144 92499.500000 0 1 0
15.491440 -9.141057 14.617816 23.178097 -0.533087 0.888375 0.137468 -0.048064 -672585.000000 0 1 0
16.043140 -8.306757 15.735616 23.958176 -0.477767 0.854235 0.153126 -0.043490 -568495.000000 0 1 0
17.440240 -8.327157 15.600716 24.837187 -0.445460 0.891662 0.146127 -0.053265 -340488.000000 0 1 0
18.091340 -8.982257 16.724316 26.223659 -0.460840 0.879214 0.143024 -0.046807 771726.000000 0 0 1
19.633540 -8.975557 16.434516 27.131713 -0.428787 0.920112 0.115129 -0.039172 606528.000000 0 0 1
20.207640 -7.684657 16.538516 27.219941 -0.363396 0.917776 0.100965 -0.038592 936903.000000 0 0 1
21.398740 -7.524057 15.725916 27.601122 -0.338110 0.964587 0.089317 -0.028999 620572.000000 0 0 1
22.041140 -6.160357 15.907216 27.871157 -0.272539 0.963388 0.074161 -0.017237 -101182.000000 0 0 1
22.655740 -6.052457 17.212716 29.089386 -0.261053 0.937608 0.109433 -0.022841 368704.000000 0 0 1
23.129840 -4.781457 17.516816 29.405623 -0.203851 0.932664 0.122063 -0.025552 -171869.000000 0 0 1
-5.755024 -32.727962 -6.215592 33.806411 1.396732 1.755707 0.079763 -0.029092 -126655.000000 0 0 1
-6.467324 -31.526062 -6.446092 32.821807 1.368461 1.768478 0.072507 -0.031063 262995.000000 0 0 1
-5.814824 -30.493162 -5.683592 31.558649 1.382366 1.751881 0.099172 -0.038715 -78681.200000 0 0 1
-6.538524 -29.095162 -5.888592 30.396649 1.349740 1.765754 0.102176 -0.039312 1200440.000000 0 0 1
-7.873924 -28.939662 -5.406192 30.475066 1.305146 1.749137 0.087789 -0.034438 860801.000000 0 0 1
-8.867524 -29.720762 -6.069392 31.603706 1.280844 1.764044 0.086558 -0.033641 -1091040.000000 0 0 1
-10.305924 -29.431762 -5.715492 31.703431 1.233976 1.752067 0.106955 -0.025770 -141305.000000 0 0 1
-11.267824 -30.158662 -6.475492 32.839622 1.213238 1.769282 0.093986 -0.030641 339739.000000 0 0 1
-12.621324 -29.827762 -6.179692 32.972440 1.170502 1.759331 0.094552 -0.029574 545631.000000 0 0 1
-13.624124 -30.619962 -7.023192 34.242139 1.152156 1.777366 0.101047 -0.032622 -119657.000000 0 0 1
-13.857724 -30.093362 -8.303792 34.155526 1.139252 1.816374 0.134855 -0.050135 -564310.000000 0 0 1
-14.940024 -30.628662 -8.979092 35.241217 1.116973 1.828426 0.140388 -0.046918 -305437.000000 0 0 1
-15.252024 -29.751362 -10.221092 34.960528 1.097080 1.867491 0.160105 -0.045534 -125655.000000 0 0 1
-15.698924 -28.417862 -10.031392 33.980288 1.066088 1.870474 0.162785 -0.049853 -514.039000 0 0 1
-14.722924 -27.474862 -9.648192 32.630050 1.078867 1.870968 0.148838 -0.051491 -348593.000000 0 0 1
-15.302024 -26.122062 -9.177292 31.634424 1.040891 1.865132 0.140819 -0.039565 -45228.800000 0 0 1
-16.020324 -25.358962 -10.123492 31.657746 1.007363 1.896293 0.151497 -0.044223 190340.000000 0 0 1
-16.306524 -24.048862 -9.702892 30.633260 0.974949 1.893091 0.115172 -0.033157 -39957.900000 0 0 1
-16.900724 -23.211562 -10.885692 30.706830 0.941448 1.933180 0.139319 -0.038893 577297.000000 0 0 1
-18.228024 -23.540162 -11.309692 31.848222 0.911900 1.933830 0.141513 -0.041112 264495.000000 0 0 1
-18.521124 -23.024262 -12.591592 32.120039 0.893367 1.973619 0.149499 -0.044336 -1252390.000000 0 0 1
-19.979124 -23.230162 -12.916792 33.251306 0.860496 1.969756 0.115126 -0.027387 -920352.000000 0 0 1
-20.466824 -24.501262 -13.206992 34.548913 0.874876 1.963047 0.151189 -0.030481 20287.400000 0 0 1
-20.450624 -25.401162 -12.058292 34.768513 0.892950 1.924971 0.163822 -0.037955 -1800470.000000 0 0 1
-20.484524 -26.890562 -12.278192 35.964873 0.919803 1.919196 0.155241 -0.043200 1499140.000000 0 0 1
-19.338624 -27.431062 -13.035292 36.005061 0.956729 1.941252 0.157282 -0.046127 2655280.000000 0 0 1
-17.981824 -26.992662 -12.716592 34.837646 0.983135 1.944455 0.182958 -0.053523 608507.000000 0 0 1
-16.952524 -28.061762 -13.145992 35.322340 1.027357 1.952145 0.154813 -0.054165 -366445.000000 0 0 1
-16.903924 -28.213062 -14.563392 35.969597 1.031000 1.987645 0.165941 -0.058772 -107374.000000 0 0 1
-15.986324 -29.198862 -15.032592 36.525538 1.069876 1.994966 0.188814 -0.061187 83698.600000 0 0 1
-16.417324 -30.708062 -15.103592 37.955660 1.079833 1.980053 0.181032 -0.065297 -185399.000000 0 0 1
-16.724024 -31.248062 -13.842592 38.049333 1.079385 1.943147 0.174128 -0.061286 62439.200000 0 0 1
-17.037324 -32.588362 -13.958592 39.333371 1.089072 1.933581 0.161760 -0.055520 -774386.000000 0 0 1
-17.650524 -33.240162 -12.690992 39.717889 1.082657 1.896028 0.200511 -0.059668 989977.000000 0 0 1
-19.042924 -33.079962 -12.350092 40.117847 1.048464 1.883724 0.218523 -0.063709 1219120.000000 0 0 1
-19.673224 -31.783462 -12.392692 39.380237 1.016540 1.890930 0.205615 -0.066797 -418820.000000 0 0 1
-19.141124 -30.671662 -11.489192 37.935934 1.012869 1.878486 0.207875 -0.057299 -435536.000000 0 0 1
-19.486524 -30.886662 -10.141092 37.901877 1.007963 1.841658 0.213870 -0.060286 139060.000000 0 0 1
-19.275624 -29.681662 -9.426692 36.625310 0.994835 1.831108 0.200577 -0.053903 -143870.000000 0 0 1
-19.449024 -29.933162 -7.897992 36.560047 0.994598 1.788541 0.202336 -0.050793 325346.000000 0 0 1
-18.523124 -30.901662 -7.372892 36.774698 1.030802 1.772653 0.202455 -0.044504 348218.000000 0 0 1
-18.699324 -31.028962 -5.953392 36.713814 1.028437 1.733672 0.202653 -0.048090 275237.000000 0 0 1
-17.687524 -31.982662 -5.203892 36.916388 1.065626 1.712232 0.182175 -0.036025 968470.000000 0 0 1
-16.389124 -31.500862 -4.864192 35.840872 1.091060 1.706933 0.167399 -0.038553 556756.000000 0 0 1
-16.349524 -30.996662 -3.568992 35.225527 1.085422 1.672289 0.146926 -0.036344 -518059.000000 0 0 1
-14.949924 -30.637962 -3.102392 34.231708 1.116832 1.661550 0.134700 -0.037209 -426387.000000 0 0 1
-13.948024 -31.628562 -3.043692 34.701259 1.155456 1.658620 0.098167 -0.030406 -217786.000000 0 0 1
-12.753124 -31.019262 -2.591192 33.638536 1.180727 1.647903 0.088930 -0.021979 149834.000000 0 0 1
-11.534124 -31.954562 -2.758192 34.084274 1.224397 1.651808 0.073791 -0.029255 -262500.000000 0 0 1
-11.449924 -32.972062 -1.767592 34.948277 1.236563 1.621395 0.078832 -0.020023 168866.000000 0 0 1
-10.133524 -33.413462 -1.449392 34.946366 1.276336 1.612283 0.122965 -0.031355 931942.000000 0 0 1
-9.119624 -32.522062 -0.643592 33.782633 1.297404 1.589848 0.158211 -0.036810 442560.000000 0 0 1
-9.486824 -32.416862 0.729508 33.784390 1.286095 1.549202 0.160071 -0.034858 250246.000000 0 0 1
-8.419924 -31.789262 1.452608 32.917509 1.311875 1.526653 0.166392 -0.035819 669122.000000 0 0 1
-7.367524 -32.716662 2.058208 33.599057 1.349299 1.509500 0.184790 -0.047409 -274722.000000 0 0 1
-7.893524 -33.471462 3.146508 34.533274 1.339199 1.479555 0.189634 -0.054173 552509.000000 0 0 1
-7.003824 33.154643 3.661008 34.083528 -1.362610 1.463176 0.187325 -0.052329 1156730.000000 0 0 1
-5.907424 33.516643 4.729608 34.360329 -1.396335 1.432711 0.198255 -0.054776 252974.000000 0 0 1
-4.930424 -33.268462 4.252308 33.899584 1.423666 1.445027 0.213879 -0.052463 -571632.000000 0 0 1
-4.094124 -32.991462 5.373908 33.676065 1.447331 1.410535 0.212652 -0.057997 57761.700000 0 0 1
-2.851624 -32.191362 4.906008 32.687681 1.482443 1.420140 0.227273 -0.054563 -186519.000000 0 0 1
-3.082824 -30.828062 4.539508 31.312623 1.471127 1.425310 0.217641 -0.050516 215118.000000 0 0 1
-3.826424 -30.583562 3.330808 31.001453 1.446329 1.463148 0.206208 -0.066378 185478.000000 0 0 1
-3.657124 -29.171062 2.745408 29.527321 1.446079 1.477683 0.187889 -0.059481 743630.000000 0 0 1
-2.323024 -28.916262 2.269608 29.098072 1.490632 1.492718 0.151117 -0.050198 462114.000000 0 0 1
-2.074124 -27.647062 1.600808 27.770931 1.495915 1.513121 0.135012 -0.049187 -305293.000000 0 0 1
-2.182724 -26.298162 2.385408 26.496185 1.487987 1.480646 0.119630 -0.051749 -642065.000000 0 0 1
-2.438224 -25.175662 1.573508 25.342353 1.474249 1.508666 0.111907 -0.056228 247378.000000 0 0 1
-3.192324 -24.086962 2.127408 24.390542 1.439031 1.483463 0.098374 -0.045524 690642.000000 0 1 0
-4.567124 -24.328162 2.845308 24.916137 1.385226 1.456351 0.092707 -0.033773 90233.200000 0 1 0
-4.527124 -25.097462 4.050308 25.822131 1.392334 1.413292 0.122922 -0.035178 101210.000000 0 0 1
-5.663524 -24.814362 4.865708 25.913379 1.346404 1.381907 0.097314 -0.035404 143075.000000 0 0 1
-5.949024 -25.951162 5.885508 27.267067 1.345451 1.353237 0.119589 -0.041165 396656.000000 0 0 1
-4.961724 -26.151062 6.915508 27.501291 1.383292 1.316607 0.114004 -0.035377 410744.000000 0 0 1
-5.584224 -26.836162 7.991808 28.552271 1.365638 1.287105 0.124399 -0.041390 301761.000000 0 0 1
-4.715324 -27.090262 9.242708 29.009382 1.398463 1.246533 0.123947 -0.041111 132620.000000 0 0 1
-4.404124 -26.015962 10.123308 28.261422 1.403101 1.204455 0.112858 -0.047089 210231.000000 0 0 1
-5.518024 -25.704462 10.960708 28.483418 1.359334 1.175794 0.109149 -0.043049 390214.000000 0 0 1
-5.328324 -24.463862 11.847308 27.698922 1.356342 1.128830 0.090433 -0.038362 -237005.000000 0 0 1
-4.464024 -24.800762 12.864308 28.293033 1.392708 1.098782 0.078044 -0.037928 -629743.000000 0 0 1
-3.955224 -23.710862 13.629208 27.633387 1.405508 1.055014 0.069894 -0.040176 -2899.160000 0 0 1
-2.989024 -24.260362 14.678708 28.512522 1.448208 1.030003 0.055360 -0.039079 -91136.800000 0 0 1
-3.654924 -25.100762 15.628608 29.793626 1.426202 1.018596 0.064692 -0.047010 32763.200000 0 0 1
-2.731624 -25.934062 16.255208 30.728963 1.465854 1.013390 0.082850 -0.033842 87647.700000 0 0 1
-3.237424 -26.219862 17.715408 31.808769 1.447946 0.980106 0.110631 -0.033460 121642.000000 0 0 1
-2.930824 -25.133262 18.581008 31.393064 1.454709 0.937404 0.117638 -0.028695 -123429.000000 0 0 1
-3.374224 -25.437262 19.867108 32.452144 1.438917 0.911960 0.155326 -0.032461 -204595.000000 0 0 1
-2.904924 -24.369662 20.955608 32.271606 1.452154 0.864065 0.146105 -0.043968 189834.000000 0 0 1
-1.581724 -24.652062 21.414808 32.692813 1.506722 0.856573 0.104772 -0.060361 201453.000000 0 0 1
-1.191224 -23.899162 22.540908 32.873721 1.520994 0.815257 0.130954 -0.054637 125127.000000 0 0 1
-0.708624 -22.476762 22.199708 31.599589 1.539280 0.791848 0.129632 -0.063919 -288380.000000 0 0 1
-1.754824 -21.618762 21.855108 30.791168 1.489803 0.781603 0.165510 -0.055303 -413556.000000 0 0 1
-1.106324 -20.405962 21.474208 29.644036 1.516634 0.760629 0.159533 -0.045436 308036.000000 0 0 1
-2.015824 -19.341162 20.794408 28.470186 1.466947 0.751900 0.146647 -0.032555 -399229.000000 0 0 1
-2.851024 -18.652862 21.761808 28.803366 1.419124 0.714334 0.159417 -0.054240 547850.000000 0 0 1
-4.213424 -19.053062 21.777008 29.240557 1.353157 0.730631 0.169847 -0.061980 356184.000000 0 0 1
-5.081124 -18.777662 20.496008 28.257827 1.306531 0.759295 0.151488 -0.060279 -603023.000000 0 0 1
-4.916324 -19.662662 19.337408 28.012959 1.325786 0.808890 0.152894 -0.064397 9520.630000 0 0 1
-5.471724 -20.960762 19.662108 29.255629 1.315449 0.833783 0.154137 -0.058513 185614.000000 0 0 1
-5.414124 -21.841962 18.385008 29.058434 1.327817 0.885773 0.128567 -0.055134 -68655.100000 0 0 1
-6.180124 -23.007562 18.512308 30.170307 1.308378 0.910193 0.125785 -0.056937 -197408.000000 0 0 1
-6.168224 -23.769062 17.315108 30.047101 1.316891 0.956645 0.104068 -0.043860 241738.000000 0 0 1
-6.922224 -25.142562 17.429508 31.366437 1.302134 0.981623 0.096769 -0.042737 822009.000000 0 0 1
-8.317924 -25.058562 17.716708 31.796244 1.250301 0.979792 0.120939 -0.042600 -54392.600000 0 0 1
-8.882624 -26.348262 17.590508 32.902248 1.245638 1.006727 0.115788 -0.041848 1082470.000000 0 0 1
-10.432524 -26.320862 17.865008 33.478110 1.193432 1.007906 0.105337 -0.041579 569820.000000 0 0 1
-11.189524 -25.605762 16.941908 32.678567 1.158812 1.025770 0.125920 -0.043182 290000.000000 0 0 1
-12.604324 -25.761962 17.054008 33.367452 1.115777 1.034336 0.138070 -0.042606 926354.000000 0 0 1
-13.347324 -24.839562 18.054108 33.482917 1.077724 1.001305 0.133138 -0.045977 -480100.000000 0 0 1
-13.455624 -23.555462 17.517508 32.292053 1.051799 0.997420 0.134156 -0.041083 -130110.000000 0 0 1
-13.398724 -22.480362 18.432408 32.010095 1.033309 0.957176 0.126752 -0.035861 -455293.000000 0 0 1
-12.031824 -22.098962 18.974108 31.514214 1.072223 0.924691 0.131341 -0.034871 -430088.000000 0 0 1
-11.339624 -23.020162 19.811008 32.418991 1.113090 0.913356 0.141542 -0.039799 626995.000000 0 0 1
-9.942924 -22.715062 19.781208 31.719584 1.158198 0.897422 0.149068 -0.050481 484910.000000 0 0 1
-9.040524 -23.529262 20.678008 32.602719 1.203963 0.883769 0.143007 -0.057933 -295661.000000 0 0 1
-9.134724 -23.154462 22.062808 33.261687 1.195029 0.845563 0.147660 -0.054169 313656.000000 0 0 1
-8.204524 -23.844862 22.910608 34.070334 1.239406 0.833282 0.144532 -0.056070 220806.000000 0 0 1
-8.064224 -23.379762 24.388408 34.733837 1.238651 0.792382 0.160433 -0.050874 308026.000000 0 0 1
-7.180524 -24.063762 25.289708 35.639780 1.280812 0.781877 0.189259 -0.047445 165589.000000 0 0 1
-6.836224 -23.225762 26.399608 35.820515 1.284542 0.742180 0.200915 -0.062274 -594444.000000 0 0 1
-5.731024 -23.798362 27.251608 36.631364 1.334480 0.731846 0.207979 -0.065028 -523836.000000 0 0 1
-4.475424 -23.534462 26.667108 35.847385 1.382875 0.731899 0.208282 -0.058282 -750098.000000 0 0 1
-3.462724 -23.838062 27.575008 36.614543 1.426545 0.718010 0.209825 -0.055007 26426.700000 0 0 1
-2.032424 -23.614762 27.005408 35.931599 1.484942 0.720345 0.191270 -0.044650 295207.000000 0 0 1
-1.702324 -22.247862 26.920708 34.965552 1.494429 0.692079 0.189751 -0.049102 77871.800000 0 0 1
-0.558824 -22.002262 26.090208 34.133719 1.545403 0.700759 0.167864 -0.048399 878964.000000 0 0 1
0.689076 -21.466362 26.862008 34.392543 -1.538707 0.674464 0.131034 -0.033598 531424.000000 0 0 1
1.247376 -22.440662 27.783508 35.736012 -1.515268 0.680171 0.125756 -0.031428 831141.000000 0 0 1
2.359576 -21.887262 28.523308 36.030528 -1.463405 0.657303 0.112228 -0.039200 604276.000000 0 0 1
3.091276 -22.946562 29.388008 37.413309 -1.436886 0.667299 0.109692 -0.038839 -366074.000000 0 0 1
3.873976 -23.851962 28.628208 37.463290 -1.409785 0.701047 0.102239 -0.036067 311653.000000 0 0 1
4.454276 -24.937862 29.338008 38.761531 -1.394045 0.712263 0.095313 -0.026734 -143378.000000 0 0 1
5.692076 -24.615062 30.208008 39.380512 -1.343547 0.696519 0.084503 -0.030132 463902.000000 0 0 1
6.928976 -24.198962 29.618308 38.869585 -1.291924 0.704413 0.088065 -0.023073 1212740.000000 0 0 1
7.681776 -25.205062 28.913208 39.118773 -1.274968 0.739043 0.079068 -0.020912 321887.000000 0 0 1
8.986276 -24.753262 28.180208 38.569434 -1.222557 0.751544 0.071072 -0.012821 344849.000000 0 0 1
8.775876 -23.879562 27.122108 37.186802 -1.218612 0.753428 0.075175 -0.022217 -223422.000000 0 0 1
9.785376 -23.889962 26.156708 36.751289 -1.182040 0.778849 0.071002 -0.019213 -356907.000000 0 0 1
9.600376 -22.719962 25.133808 35.214659 -1.171001 0.775985 0.082058 -0.014796 -254467.000000 0 0 1
8.667176 -23.021362 24.152208 34.473645 -1.210725 0.794559 0.076107 -0.016972 -244437.000000 0 0 1
8.292776 -21.886362 23.313208 33.034658 -1.208610 0.787358 0.078393 -0.015586 152545.000000 0 0 1
7.471076 -22.351262 22.105208 32.311548 -1.248214 0.817390 0.086039 -0.020018 -207162.000000 0 0 1
8.288476 -23.154562 21.309808 32.541366 -1.227045 0.856808 0.072467 -0.022919 -293214.000000 0 0 1
7.786476 -23.331562 20.046308 31.730828 -1.248688 0.886973 0.081449 -0.017760 -200194.000000 0 0 1
8.678976 -24.215262 19.150208 32.069207 -1.226650 0.930850 0.127248 -0.037163 563131.000000 0 0 1
9.878476 -23.561662 18.717208 31.671282 -1.173797 0.938519 0.126364 -0.035830 353747.000000 0 0 1
10.588476 -24.438862 17.825308 32.048641 -1.161947 0.980996 0.144895 -0.040567 110773.000000 0 0 1
11.965076 -23.939262 17.361608 31.901046 -1.107301 0.995322 0.121383 -0.041282 95180.800000 0 0 1
11.791476 -22.784262 16.568808 30.539923 -1.093225 0.997351 0.122163 -0.033093 -216216.000000 0 0 1
13.036076 -22.392862 16.062008 30.485532 -1.043603 1.015879 0.116183 -0.035687 -76433.500000 0 0 1
-12.604824 22.113143 11.391708 27.886264 -1.052716 1.149980 0.065072 -0.027659 -287057.000000 0 0 1
-13.511624 21.185443 10.783908 27.343732 -1.003061 1.165400 0.055758 -0.032555 319076.000000 0 0 1
-12.880824 20.078143 10.104308 25.906457 -1.000395 1.170132 0.078268 -0.038536 -157673.000000 0 0 1
-13.791224 19.383343 9.087008 25.465380 -0.952395 1.205916 0.099965 -0.036027 -203515.000000 0 0 1
-14.082224 20.322543 8.043608 26.000278 -0.964827 1.256270 0.109801 -0.037084 251077.000000 0 0 1
-14.884124 19.849343 6.951808 25.765504 -0.927388 1.297600 0.105236 -0.037129 979813.000000 0 0 1
-16.429224 20.005643 7.139808 26.853715 -0.883244 1.301682 0.105882 -0.036878 963624.000000 0 0 1
-17.078024 19.080043 8.087008 26.853429 -0.840710 1.264894 0.100726 -0.040212 1018400.000000 0 0 1
-18.501324 19.141443 8.118308 27.831651 -0.802402 1.274800 0.107544 -0.034698 502291.000000 0 0 1
-19.090624 18.134743 9.136908 27.871203 -0.759726 1.236795 0.097941 -0.037322 -35442.100000 0 0 1
-19.065224 16.843643 8.605408 26.855989 -0.723610 1.244615 0.099479 -0.040695 41235.400000 0 0 1
-19.537424 15.801143 9.471008 26.853064 -0.680061 1.210344 0.107679 -0.041415 -299218.000000 0 0 1
-18.604224 15.210743 10.537208 26.239600 -0.685379 1.157559 0.103724 -0.028040 -618950.000000 0 0 1
-17.542724 14.492343 9.980908 24.847409 -0.690464 1.157437 0.079113 -0.012833 -559525.000000 0 1 0
-17.033724 13.490543 10.835008 24.280443 -0.669838 1.108232 0.088535 -0.023594 492954.000000 0 1 0
-17.977024 12.362843 11.507608 24.666543 -0.602425 1.085436 0.084792 -0.023133 366774.000000 0 1 0
-18.610724 11.426543 10.671808 24.306634 -0.550633 1.116256 0.078232 -0.026582 27380.500000 0 1 0
-19.209524 10.408543 11.487408 24.684087 -0.496559 1.086736 0.080097 -0.029591 -371214.000000 0 1 0
-20.009224 9.367943 10.753908 24.571812 -0.437870 1.117810 0.077493 -0.031363 -503581.000000 0 1 0
-19.342524 8.565843 9.752408 23.294128 -0.416892 1.138823 0.055137 -0.027761 228663.000000 0 1 0
-19.261124 9.197343 8.462808 22.960861 -0.445493 1.193320 0.083058 -0.029164 -443707.000000 0 1 0
-20.523424 9.299343 7.589108 23.775687 -0.425436 1.245915 0.113301 -0.035756 -348275.000000 0 1 0
-20.950624 8.038143 7.222108 23.573274 -0.366351 1.259421 0.094436 -0.034244 262523.000000 0 1 0
-21.689324 8.154143 6.001608 23.936085 -0.359605 1.317357 0.118309 -0.040376 12565.900000 0 1 0
-21.991424 6.804043 5.362608 23.636314 -0.300054 1.341923 0.141204 -0.037267 235182.000000 0 1 0
-22.762724 5.936143 6.238008 24.337053 -0.255102 1.311586 0.159816 -0.037336 742637.000000 0 1 0
-22.725524 4.616643 5.694308 23.878610 -0.200421 1.330007 0.175101 -0.050528 191059.000000 0 1 0
-24.022324 3.736343 5.731308 24.977594 -0.154300 1.339276 0.227072 -0.044833 485758.000000 0 1 0
-25.020964 4.105943 4.784708 25.803117 -0.162650 1.384285 0.248064 -0.048911 -135875.000000 0 0 1
-26.102864 3.250843 4.908508 26.758568 -0.123902 1.386315 0.263228 -0.046121 -467363.000000 0 0 1
-27.167214 3.464543 3.779608 27.646809 -0.126842 1.433656 0.265836 -0.041731 196539.000000 0 0 1
-26.643664 3.147643 2.476408 26.942997 -0.117593 1.478754 0.251919 -0.035965 735764.000000 0 0 1
-27.667644 2.767843 1.564208 27.849708 -0.099707 1.514601 0.247059 -0.028599 185959.000000 0 0 1
-27.220114 3.034043 0.130608 27.388996 -0.111005 1.566028 0.248640 -0.024287 -267295.000000 0 0 1
-27.261144 4.398743 -0.199992 27.614470 -0.159977 1.578039 0.265126 -0.027216 215457.000000 0 0 1
-27.495934 4.728243 -1.574992 27.943931 -0.170296 1.627189 0.308993 -0.025367 72230.100000 0 0 1
-28.989594 4.816143 -1.967392 29.452716 -0.164630 1.637644 0.284220 -0.037247 -78424.700000 0 0 1
-29.633434 3.576843 -2.001492 29.915551 -0.120122 1.637751 0.229577 -0.037843 -125640.000000 0 0 1
-31.032634 3.746343 -1.949292 31.318672 -0.120141 1.633077 0.196507 -0.002295 -169426.000000 0 0 1
-31.714604 2.360443 -2.179992 31.876954 -0.074291 1.639237 0.158091 0.003349 -306712.000000 0 0 1
-31.750864 1.943843 -3.545292 32.007265 -0.061145 1.681789 0.146149 -0.022168 496848.000000 0 0 1
-32.547254 0.799643 -3.774892 32.775189 -0.024564 1.686228 0.152614 -0.034426 -277124.000000 0 0 1
-32.578644 0.516943 -5.294492 33.010104 -0.015866 1.731882 0.154985 -0.027489 -36320.700000 0 0 1
-31.283324 0.195543 -5.775392 31.812573 -0.006251 1.753353 0.169478 -0.043923 368113.000000 0 0 1
-31.186024 -0.179557 -7.133192 31.991918 0.005758 1.795655 0.176591 -0.046599 -124806.000000 0 0 1
-31.782844 0.783343 -8.243192 32.843767 -0.024642 1.824491 0.176013 -0.045566 -174664.000000 0 0 1
-33.191584 0.860043 -8.198192 34.199873 -0.025906 1.812868 0.182901 -0.042263 41264.900000 0 0 1
-33.704044 1.723643 -9.193392 34.977879 -0.051096 1.836755 0.205976 -0.033386 -398774.000000 0 0 1
-35.228066 1.734843 -9.042792 36.411515 -0.049206 1.821773 0.193831 -0.028398 -378295.000000 0 0 1
-35.663328 2.320943 -7.831792 36.586838 -0.064988 1.786526 0.156930 -0.026057 133062.000000 0 0 1
-37.049024 2.160043 -7.592592 37.880648 -0.058236 1.772598 0.155221 -0.015468 147322.000000 0 0 1
-37.508994 2.910443 -6.298092 38.145266 -0.077438 1.736664 0.177108 -0.015227 339155.000000 0 0 1
36.862620 2.740843 -6.159892 37.474114 0.074216 1.735923 0.175807 -0.011728 364138.000000 0 0 1
36.290440 3.649443 -5.223192 36.845572 0.100225 1.713034 0.167207 -0.014454 14979.900000 0 0 1
34.835930 3.163943 -5.038892 35.340388 0.090576 1.713866 0.192796 -0.013817 -142867.000000 0 0 1
34.764360 1.911643 -4.425692 35.097035 0.054933 1.697232 0.190859 -0.016603 1139690.000000 0 0 1
33.422550 1.346743 -4.347892 33.731065 0.040273 1.700055 0.238960 -0.021501 1228570.000000 0 0 1
33.292820 0.090643 -3.416192 33.467752 0.002723 1.673049 0.286873 -0.028080 -264569.000000 0 0 1
34.021770 -1.049357 -3.819192 34.251543 -0.030834 1.682533 0.192455 -0.023740 144496.000000 0 0 1
33.814450 -2.081457 -2.909792 34.003182 -0.061478 1.656475 0.204981 -0.025716 29919.300000 0 0 1
34.528320 -3.402757 -3.286992 34.850939 -0.098233 1.665252 0.162394 -0.021245 -44553.400000 0 0 1
34.226540 -4.443257 -2.431592 34.599295 -0.129097 1.641133 0.171760 -0.038234 222347.000000 0 0 1
34.962360 -5.636957 -2.773392 35.522297 -0.159854 1.648951 0.212813 -0.044520 262127.000000 0 0 1
34.803500 -6.863157 -1.847192 35.521805 -0.194699 1.622821 0.283895 -0.065385 -100714.000000 0 0 1
35.239910 -6.608057 -0.551692 35.858361 -0.185364 1.586182 0.261180 -0.082083 -69362.500000 0 0 1
35.214690 -7.700257 0.358708 36.048537 -0.215278 1.560845 0.286765 -0.082791 -467030.000000 0 0 1
34.113630 -7.700657 1.389708 34.999588 -0.222014 1.531079 0.289851 -0.066491 -424093.000000 0 0 1
32.817810 -7.951457 0.871308 33.778595 -0.237710 1.544999 0.249677 -0.053990 1043600.000000 0 0 1
31.762120 -7.389057 1.719008 32.655557 -0.228572 1.518131 0.285267 -0.066520 301910.000000 0 0 1
31.173070 -8.422857 2.661608 32.400447 -0.263895 1.488556 0.233010 -0.061074 -150558.000000 0 0 1
30.136340 -9.189257 2.040808 31.572240 -0.295967 1.506112 0.217273 -0.058961 1065800.000000 0 0 1
28.800940 -8.678957 2.162508 30.157833 -0.292688 1.499028 0.227712 -0.055523 -381753.000000 0 0 1
27.748340 -9.716157 1.862008 29.459144 -0.336811 1.507548 0.163490 -0.046703 -649410.000000 0 0 1
26.412440 -9.466557 2.261608 28.148669 -0.344150 1.490365 0.133891 -0.049371 1398600.000000 0 0 1
25.554940 -8.549057 1.503108 26.988899 -0.322833 1.515074 0.139374 -0.048735 333802.000000 0 0 1
24.994040 -9.144957 0.218608 26.615410 -0.350756 1.562583 0.102955 -0.037048 257712.000000 0 0 1
26.077740 -9.399857 -0.773092 27.730912 -0.345958 1.598678 0.107161 -0.050818 1723670.000000 0 0 1
25.699240 -9.848257 -2.073892 27.599640 -0.365951 1.646009 0.092602 -0.044333 -584444.000000 0 0 1
25.050640 -11.226757 -2.210392 27.540161 -0.421325 1.651143 0.089609 -0.030119 438758.000000 0 0 1
23.670640 -11.207457 -1.832792 26.253865 -0.442203 1.640664 0.061445 -0.007365 412175.000000 0 0 1
23.102840 -12.481657 -1.800292 26.320601 -0.495338 1.639248 0.065525 -0.003841 2767.230000 0 0 1
21.589840 -12.479557 -1.470692 24.980462 -0.524108 1.629704 0.059471 -0.009592 -11821.900000 0 1 0
20.842140 -12.059357 -2.583692 24.217728 -0.524539 1.677686 0.073855 -0.002626 40178.400000 0 1 0
19.459040 -12.030457 -2.274792 22.990450 -0.553727 1.669904 0.074184 -0.013799 6756.870000 0 1 0
18.639840 -11.538957 -3.467192 22.194877 -0.554308 1.727655 0.075632 -0.007565 -251974.000000 0 1 0
18.560740 -12.485357 -4.482692 22.814025 -0.592151 1.768572 0.074671 -0.005228 376296.000000 0 1 0
17.983040 -11.917957 -5.674892 22.307663 -0.585274 1.828015 0.086852 -0.003958 9519.920000 0 1 0
18.081440 -12.924057 -6.915692 23.276523 -0.620570 1.872461 0.095031 -0.009540 -97164.100000 0 1 0
17.056040 -13.878857 -7.020292 23.082800 -0.683052 1.879827 0.070920 -0.016943 184176.000000 0 1 0
17.514240 -14.891857 -7.932292 24.319483 -0.704652 1.903046 0.088194 -0.018830 267209.000000 0 1 0
16.452040 -15.946157 -8.421992 24.410643 -0.769785 1.923049 0.078857 -0.023540 -345648.000000 0 1 0
15.745140 -15.350257 -9.435592 23.928440 -0.772700 1.976130 0.100147 -0.010732 -447363.000000 0 1 0
15.123040 -16.346457 -10.209792 24.498017 -0.824255 2.000674 0.088350 -0.007903 -305122.000000 0 1 0
14.343740 -15.764357 -11.400592 24.170878 -0.832547 2.061976 0.084882 -0.023672 41657.600000 0 1 0
13.198240 -14.930057 -11.146292 22.832870 -0.846889 2.080787 0.064973 -0.023586 644554.000000 0 1 0
13.472440 -13.621157 -10.745692 21.966166 -0.790887 2.081960 0.062216 -0.021948 -380881.000000 0 1 0
13.622240 -12.564457 -11.884292 22.015163 -0.745026 2.141023 0.081879 -0.015598 2251.140000 0 1 0
14.812240 -12.600957 -12.641292 23.194586 -0.704908 2.147198 0.100586 -0.014455 -86333.400000 0 1 0
14.706040 -11.839757 -13.825992 23.400973 -0.677840 2.202883 0.123312 -0.020702 -678887.000000 0 1 0
15.988640 -11.420957 -14.522792 24.433304 -0.620270 2.207297 0.137105 -0.029396 -579349.000000 0 1 0
16.741740 -12.455957 -15.088192 25.750539 -0.639654 2.196832 0.136667 -0.026885 386388.000000 0 0 1
17.764340 -12.010957 -16.004992 26.758076 -0.594524 2.211971 0.127015 -0.018149 162619.000000 0 0 1
18.742440 -13.142457 -16.281892 28.090982 -0.611540 2.189050 0.101357 -0.015302 -561531.000000 0 0 1
19.638840 -13.374857 -15.220892 28.217838 -0.597888 2.140529 0.111604 -0.028777 102608.000000 0 0 1
20.550440 -14.430557 -15.501292 29.510195 -0.612202 2.123848 0.097986 -0.031331 44539.500000 0 0 1
21.636140 -14.535457 -14.388392 29.772939 -0.591558 2.075183 0.105509 -0.038145 153529.000000 0 0 1
22.455540 -13.378857 -14.433392 29.859134 -0.537320 2.075311 0.086079 -0.026900 98498.400000 0 0 1
23.518240 -13.424157 -13.486692 30.252380 -0.518670 2.032871 0.111544 -0.037993 675425.000000 0 0 1
24.489040 -12.219857 -13.559592 30.543420 -0.462842 2.030793 0.121454 -0.028899 394583.000000 0 0 1
23.780840 -11.004657 -13.196592 29.339067 -0.433409 2.037333 0.119514 -0.018670 877402.000000 0 0 1
24.584740 -9.851157 -13.464392 29.711018 -0.381111 2.041124 0.134787 -0.019898 469410.000000 0 0 1
25.695040 -9.451857 -12.437692 30.071064 -0.352485 1.997212 0.136485 -0.026251 1064630.000000 0 0 1
26.935740 -10.171757 -12.522992 31.397835 -0.361075 1.981058 0.137114 -0.038895 849938.000000 0 0 1
27.841240 -9.804357 -11.532492 31.690037 -0.338591 1.943264 0.148740 -0.034474 605361.000000 0 0 1
29.269640 -10.459157 -11.490592 33.138188 -0.343197 1.924898 0.192457 -0.042225 1229560.000000 0 0 1
30.058240 -10.203857 -12.662792 34.175471 -0.327263 1.950368 0.166887 -0.039678 101887.000000 0 0 1
31.259760 -10.929157 -12.797892 35.502185 -0.336340 1.939581 0.158483 -0.039501 -292829.000000 0 0 1
32.058750 -10.240957 -13.928492 36.423118 -0.309198 1.963197 0.130649 -0.034537 70253.900000 0 0 1
31.493050 -10.569357 -15.254192 36.554259 -0.323797 2.001272 0.100078 -0.028141 741367.000000 0 0 1
32.214940 -9.911457 -16.306592 37.442546 -0.298475 2.021401 0.076513 -0.026328 719.150000 0 0 1
31.983980 -10.568157 -17.730092 38.065957 -0.319127 2.055304 0.034925 -0.014139 738161.000000 0 0 1
30.675840 -10.345957 -18.275892 37.175990 -0.325287 2.084728 0.038060 -0.012288 754504.000000 0 0 1
30.552840 -9.069257 -18.839892 37.022547 -0.288554 2.104675 0.023142 -0.001778 -111142.000000 0 0 1
29.183640 -8.759857 -19.502092 36.176671 -0.291607 2.140140 0.005266 -0.002069 148760.000000 0 0 1
28.857940 -9.449857 -20.715992 36.759119 -0.316456 2.169486 0.006217 0.010265 278765.000000 0 0 1
27.491540 -9.181557 -20.939192 35.756615 -0.322330 2.196420 0.045159 0.011780 -67784.400000 0 0 1
26.834940 -9.468657 -22.268992 36.134159 -0.339210 2.234815 0.063040 0.002378 -163585.000000 0 0 1
26.792240 -10.833357 -22.502592 36.627208 -0.384248 2.232381 0.068707 -0.002410 482625.000000 0 0 1
25.915640 -11.260957 -23.566492 36.794145 -0.409909 2.265940 0.092812 -0.012501 -120299.000000 0 0 1
26.224540 -12.766457 -23.897692 37.706878 -0.453043 2.257221 0.081982 -0.001212 1293130.000000 0 0 1
27.487940 -13.071857 -24.528292 39.090886 -0.443896 2.249094 0.069297 0.001819 432179.000000 0 0 1
28.643740 -12.872157 -23.775692 39.388321 -0.422345 2.218834 0.041407 0.007587 -839245.000000 0 0 1
29.866740 -13.416957 -24.548992 40.922975 -0.422211 2.214151 0.040974 0.010902 -224373.000000 0 0 1
30.289640 -12.773357 -25.720062 41.738981 -0.399078 2.234720 0.051665 -0.001960 -916227.000000 0 0 1
31.610170 -13.102657 -25.918562 42.926150 -0.392950 2.219049 0.026589 -0.002932 -831764.000000 0 0 1
32.247610 -12.529657 -27.249782 44.039202 -0.370593 2.237962 0.048976 -0.010720 122991.000000 0 0 1
31.857670 -13.233457 -28.419482 44.695665 -0.393705 2.259898 0.064992 -0.018582 265767.000000 0 0 1
32.594360 -12.839957 -29.569912 45.843609 -0.375264 2.271842 0.077214 -0.030666 -3690.200000 0 0 1
32.544200 -13.834057 -30.687062 46.820955 -0.401943 2.285526 0.079834 -0.030824 -1191.360000 0 0 1
33.233990 -15.032157 -30.405802 47.486594 -0.424776 2.265689 0.092247 -0.027860 -225699.000000 0 0 1
33.433970 -15.952457 -31.494802 48.623387 -0.445187 2.275397 0.087594 -0.032203 -166423.000000 0 0 1
32.216070 -16.593057 -32.200152 48.477361 -0.475619 2.297261 0.066013 -0.016977 384797.000000 0 0 1
31.432490 -15.689457 -32.986382 48.189853 -0.462966 2.324726 0.050489 -0.014550 -683023.000000 0 0 1
30.224140 -16.199857 -33.400342 47.869791 -0.492024 2.343025 0.029352 -0.010662 -599083.000000 0 0 1
29.434140 -15.301957 33.001170 46.793116 -0.479418 0.788011 0.058583 -0.016346 -190823.000000 0 0 1
28.939840 -14.064457 33.569896 46.500121 -0.452376 0.764207 0.064144 -0.019444 470369.000000 0 0 1
29.909940 -13.007557 33.529046 46.776041 -0.410218 0.771595 0.075168 -0.027299 -6777.270000 0 0 1
29.339340 -11.683257 -33.349302 45.928981 -0.378963 2.383438 0.087032 -0.032598 -82912.500000 0 0 1
28.394440 -11.162257 33.133394 45.040671 -0.374556 0.744196 0.112394 -0.041781 -303277.000000 0 0 1
27.651740 -10.167457 -33.595082 44.683615 -0.352353 2.421650 0.072752 -0.039431 -196205.000000 0 0 1
21.558076 -29.504162 8.399308 37.493927 -0.939776 1.344861 0.050939 -0.033004 -286001.000000 0 0 1
22.408276 -28.850462 7.533208 37.299185 -0.910422 1.367430 0.061625 -0.026005 -494743.000000 0 0 1
23.567276 -29.574562 7.241408 38.503366 -0.897963 1.381598 0.058260 -0.028615 -41927.100000 0 0 1
24.351376 -29.158962 5.981308 38.457907 -0.875002 1.414634 0.047256 -0.019504 -71644.100000 0 0 1
24.740176 -27.818362 6.022808 37.712223 -0.843898 1.410405 0.046498 -0.009397 -102464.000000 0 0 1
25.087676 -27.439662 4.698808 37.475396 -0.830145 1.445082 0.027561 0.000650 -119732.000000 0 0 1
25.091876 -25.914862 4.496808 36.351115 -0.801532 1.446774 0.029363 -0.007429 252027.000000 0 0 1
25.940976 -25.183862 5.398708 36.555536 -0.770590 1.422569 0.031670 -0.007013 172077.000000 0 0 1
25.830576 -23.797962 5.184708 35.502716 -0.744465 1.424235 0.037749 -0.008762 -130125.000000 0 0 1
26.694176 -22.914062 6.088708 35.703020 -0.709346 1.399421 0.036184 -0.011498 1702140.000000 0 0 1
28.138876 -22.982662 5.741308 36.782628 -0.684876 1.414068 0.034839 -0.005860 2150100.000000 0 0 1
28.946876 -22.084562 6.486508 36.982757 -0.651728 1.394492 0.058310 -0.012886 171946.000000 0 0 1
28.547376 -20.580462 6.434508 35.775843 -0.624631 1.389956 0.067191 -0.015457 -674148.000000 0 0 1
28.690776 -19.943162 5.205308 35.326839 -0.607435 1.422911 0.073110 -0.002130 16222.000000 0 0 1
28.705776 -18.536462 5.399208 34.594413 -0.573375 1.414084 0.097892 -0.007294 -11346.900000 0 0 1
28.953276 -17.629062 4.175708 34.154246 -0.546923 1.448229 0.126609 -0.001812 -123134.000000 0 0 1
30.259176 -17.655162 3.652908 35.223092 -0.528172 1.466902 0.103678 -0.007275 -98020.900000 0 0 1
30.308576 -16.872062 2.520808 34.779746 -0.507954 1.498254 0.119643 -0.002595 56639.900000 0 0 1
31.296776 -15.710962 2.667108 35.120307 -0.465246 1.494781 0.130592 -0.014406 -165205.000000 0 0 1
30.844776 -14.837762 3.676308 34.424913 -0.448370 1.463800 0.144459 -0.014010 216467.000000 0 0 1
31.721176 -13.750062 3.757608 34.776670 -0.409020 1.462535 0.126811 -0.019558 200234.000000 0 0 1
31.179776 -12.853662 4.883708 34.077054 -0.391016 1.426987 0.135675 -0.023675 353751.000000 0 0 1
31.334976 -13.389062 6.224808 34.639514 -0.403807 1.390112 0.119944 -0.020311 -50923.800000 0 0 1
30.614176 -12.607662 7.151608 33.872207 -0.390658 1.358060 0.110888 -0.015333 -29978.300000 0 0 1
30.749176 -12.922062 8.679608 34.464867 -0.397833 1.316216 0.136778 -0.020128 -230605.000000 0 0 1
30.095876 -14.096562 9.110608 34.459802 -0.438040 1.303232 0.092885 -0.012943 -58093.300000 0 0 1
29.727676 -13.987262 10.461208 34.479198 -0.439781 1.262531 0.163403 -0.017462 -75047.400000 0 0 1
30.408076 -14.990362 11.412708 35.771664 -0.458010 1.246077 0.151689 -0.025430 1468980.000000 0 0 1
31.679876 -14.515062 11.992408 36.852671 -0.429635 1.239346 0.105498 -0.014062 1409970.000000 0 0 1
32.094976 -15.525862 12.879308 37.907999 -0.450561 1.224143 0.125082 -0.020081 -399166.000000 0 0 1
33.087976 -14.996862 13.881108 38.889654 -0.425547 1.205811 0.115207 -0.021453 157364.000000 0 0 1
34.381076 -14.721262 13.344208 39.709467 -0.404560 1.228081 0.085482 -0.022217 451175.000000 0 0 1
35.249276 -14.144362 14.289108 40.580205 -0.381598 1.210961 0.056274 -0.022225 390075.000000 0 0 1
36.727076 -14.013062 13.814108 41.666216 -0.364497 1.232859 0.093322 -0.021052 160809.000000 0 0 1
37.118476 -12.742862 13.339308 41.449957 -0.330696 1.243148 0.109355 -0.033452 1131910.000000 0 0 1
-37.416389 -12.748262 12.598308 41.487609 0.328378 1.262260 0.124782 -0.034074 386399.000000 0 0 1
-36.661889 -11.430162 12.633608 40.427104 0.302222 1.252969 0.149863 -0.044088 374857.000000 0 0 1
-35.474389 -11.610562 11.819208 39.152664 0.316306 1.264138 0.133621 -0.044470 317944.000000 0 0 1
-34.688889 -10.487562 11.860308 38.131023 0.293595 1.254508 0.123010 -0.053262 38243.700000 0 0 1
-33.510489 -10.619062 10.808108 36.776794 0.306877 1.272509 0.141196 -0.049984 1109780.000000 0 0 1
-32.385689 -11.446262 11.183908 36.123809 0.339732 1.256025 0.135080 -0.042819 687122.000000 0 0 1
-32.559689 -12.838362 11.057108 36.704448 0.375585 1.264796 0.135954 -0.041352 341580.000000 0 0 1
-31.287589 -13.644662 11.506408 36.020653 0.411239 1.245659 0.093040 -0.031136 289833.000000 0 0 1
-30.229389 -13.631062 10.616908 34.818681 0.423619 1.260942 0.112389 -0.031297 -1042970.000000 0 0 1
-29.327789 -14.661262 10.889108 34.549160 0.463576 1.250153 0.110052 -0.013650 -285138.000000 0 0 1
-28.056389 -14.509462 10.012708 33.135174 0.477276 1.263820 0.111796 -0.010334 -251158.000000 0 0 1
-28.208589 -14.534262 8.607808 32.879532 0.475767 1.305911 0.130549 -0.023642 -879239.000000 0 0 1
-27.042189 -14.383962 7.905108 31.633354 0.488847 1.318222 0.109957 -0.013707 -877562.000000 0 0 1
-27.340389 -14.439562 6.410308 31.576730 0.485906 1.366368 0.162749 -0.021680 -24962.500000 0 0 1
-27.863989 -15.672162 6.044908 32.535511 0.512353 1.383916 0.160757 -0.009823 65890.500000 0 0 1
-28.278589 -15.529162 4.685508 32.600421 0.502190 1.426571 0.179613 -0.009377 -8382.500000 0 0 1
-29.002189 -16.703762 4.022008 33.709334 0.522547 1.451197 0.147886 -0.013014 -207943.000000 0 0 1
-30.277389 -16.955962 4.548508 34.998770 0.510504 1.440466 0.116042 -0.022263 -107010.000000 0 0 1
-30.908389 -18.025062 3.767608 35.978136 0.527958 1.465885 0.127066 -0.012907 217946.000000 0 0 1
-32.433689 -18.082362 3.991708 37.347687 0.508597 1.463712 0.160613 -0.028474 313907.000000 0 0 1
-33.162489 -17.351862 2.985208 37.546628 0.482064 1.491206 0.213330 -0.028121 398345.000000 0 0 1
-34.560989 -17.351362 3.227108 38.806520 0.465287 1.487541 0.213314 -0.033202 568104.000000 0 0 1
-35.429389 -16.270862 2.548808 39.070180 0.430518 1.505513 0.211419 -0.038349 200593.000000 0 0 1
-35.657789 -16.497362 1.166208 39.306500 0.433330 1.541122 0.207610 -0.030377 -270172.000000 0 0 1
-36.583689 -15.602362 0.644608 39.777073 0.403127 1.554590 0.239768 -0.039688 -350198.000000 0 0 1
-37.103089 -16.069762 -0.684592 40.439401 0.408721 1.587726 0.200844 -0.045681 -42886.200000 0 0 1
-36.035689 -16.182862 -1.643092 39.536763 0.422088 1.612367 0.223142 -0.042228 777859.000000 0 0 1
-36.273089 -17.173762 -2.642092 40.220091 0.442189 1.636535 0.177667 -0.029518 -234966.000000 0 0 1
-34.955889 -17.690062 -3.233192 39.310380 0.468490 1.653137 0.164574 -0.024130 -316749.000000 0 0 1
-35.241189 -18.662662 -4.176792 40.095910 0.487023 1.675156 0.136007 -0.022116 539201.000000 0 0 1
-34.115789 -19.320562 -4.775292 39.496514 0.515289 1.691997 0.129722 -0.020352 42513.100000 0 0 1
-34.537589 -20.386762 -5.768192 40.518356 0.533240 1.713642 0.117306 -0.018170 -118507.000000 0 0 1
-35.329289 -21.353962 -5.132392 41.599180 0.543668 1.694489 0.119523 -0.018223 -116522.000000 0 0 1
-35.757089 -22.305562 -6.044092 42.575093 0.557742 1.713241 0.105659 -0.012545 -100962.000000 0 0 1
-36.372789 -23.577762 -5.488892 43.692317 0.575127 1.696755 0.113345 -0.016721 107277.000000 0 0 1
-35.437689 -24.452062 -4.866492 43.329158 0.603984 1.683348 0.132516 -0.015559 -58994.300000 0 0 1
-36.045489 -25.736362 -4.567992 44.525321 0.620058 1.673570 0.110737 -0.013599 -72883.700000 0 0 1
-35.130289 -26.805162 -3.960392 44.365963 0.651783 1.660182 0.088342 -0.017580 -781606.000000 0 0 1
-34.207089 -27.199562 -4.975292 43.985164 0.671773 1.684152 0.077973 -0.017595 293014.000000 0 0 1
-33.437589 -28.398262 -4.756092 44.126569 0.704083 1.678789 0.085658 -0.022576 628375.000000 0 0 1
-32.391089 -28.363062 -3.591292 43.203511 0.719195 1.654017 0.119244 -0.038794 -352972.000000 0 0 1
-32.976489 -28.076262 -2.310092 43.371210 0.705308 1.624085 0.104535 -0.032039 -273445.000000 0 0 1
-32.094189 -28.422662 -1.280092 42.889665 0.724803 1.600647 0.133350 -0.034783 -159786.000000 0 0 1
-32.658689 -28.203262 0.166408 43.151381 0.712323 1.566940 0.103046 -0.024442 -69070.900000 0 0 1
-33.549889 -29.191362 0.595208 44.475667 0.716041 1.557413 0.090690 -0.021786 -103708.000000 0 0 1
-34.222189 -28.795762 1.810008 44.761929 0.699501 1.530349 0.098685 -0.013675 68820.000000 0 0 1
-35.000989 -29.965162 2.369508 46.136696 0.708038 1.519415 0.068325 -0.012945 -797940.000000 0 0 1
-35.896289 -29.807062 3.471408 46.787340 0.692985 1.496533 0.050669 -0.008918 400612.000000 0 0 1
-36.350589 -31.051562 3.988708 47.973687 0.706941 1.487557 0.055959 -0.003523 50260.900000 0 0 1
-37.455889 -31.722862 3.143408 49.185004 0.702714 1.506843 0.038343 0.004928 -568039.000000 0 0 1
37.781276 -32.871262 3.742708 50.219045 -0.716015 1.496200 0.057965 0.002511 -20467.900000 0 0 1
36.788476 -33.388662 2.864508 49.763441 -0.736990 1.513202 0.054215 0.006202 -792347.000000 0 0 1
35.730476 33.377843 3.591508 49.026995 0.751369 1.497475 0.055041 0.006321 -630318.000000 0 0 1
34.898576 -33.672362 4.568608 48.709452 -0.767518 1.476865 0.048967 0.007534 885756.000000 0 0 1
34.091176 -32.542162 4.136508 47.310794 -0.762156 1.483252 0.061833 0.004246 152134.000000 0 0 1
33.152676 -32.772862 2.905308 46.707614 -0.779637 1.508554 0.058535 0.007671 -464071.000000 0 0 1
33.885676 -32.904162 1.677008 47.262409 -0.770704 1.535306 0.049984 0.012745 -81294.600000 0 0 1
32.983676 -32.782862 0.586208 46.507876 -0.782345 1.558192 0.055255 0.014129 -669934.000000 0 0 1
33.481976 -33.459462 -0.664992 47.339418 -0.785062 1.584844 0.048151 0.001391 386247.000000 0 0 1
34.661876 -33.021062 -1.293492 47.890597 -0.761160 1.597809 0.030247 0.011085 -523747.000000 0 0 1
35.866276 -32.999362 -0.576292 48.740945 -0.743792 1.582620 0.036429 0.011459 -1157210.000000 0 0 1
37.005376 -32.567862 -1.512992 49.318887 -0.721703 1.601479 0.019206 0.010733 -514076.000000 0 0 1
37.303176 -33.626562 -2.411692 50.280104 -0.733610 1.618780 0.013027 0.000940 170972.000000 0 0 1
-37.648389 -33.097262 -3.449592 50.246688 0.721156 1.639503 0.022658 -0.002576 -448736.000000 0 0 1
-37.024589 33.509043 -4.362292 50.126897 -0.735597 1.657932 0.025356 -0.006676 -288624.000000 0 0 1
-35.986289 32.852543 -3.678692 48.865482 -0.739907 1.646150 0.043519 -0.002458 -326526.000000 0 0 1
-35.566389 31.683643 -4.355892 47.830901 -0.727726 1.661991 0.072964 -0.017136 496760.000000 0 0 1
-34.249189 31.026843 -3.809692 46.370095 -0.736073 1.653047 0.107563 -0.026936 -989048.000000 0 0 1
-33.162889 31.829343 -3.974892 46.137664 -0.764882 1.657056 0.124208 -0.028004 -833962.000000 0 0 1
-31.901789 31.186143 -3.888692 44.781934 -0.774055 1.657742 0.183011 -0.036834 731244.000000 0 0 1
-31.388689 31.016243 -2.405692 44.193263 -0.779430 1.625259 0.166230 -0.035449 -70993.500000 0 0 1
-32.241289 30.126343 -1.671992 44.157591 -0.751500 1.608670 0.133944 -0.024512 142794.000000 0 0 1
-31.905389 30.213743 -0.319392 43.942305 -0.758173 1.578065 0.119319 -0.017659 545734.000000 0 0 1
-33.026389 29.550543 0.571508 44.320465 -0.729910 1.557901 0.112784 -0.021322 604062.000000 0 0 1
-33.185789 28.156143 0.463008 43.523320 -0.703588 1.560158 0.112922 -0.035109 341601.000000 0 0 1
-34.233889 27.842243 -0.475392 44.129079 -0.682795 1.581569 0.104180 -0.027669 375399.000000 0 0 1
-34.485889 26.385243 -0.874992 43.430671 -0.653097 1.590945 0.109708 -0.015607 129515.000000 0 0 1
-34.925689 25.563543 0.208208 43.282119 -0.631843 1.565986 0.096716 -0.023786 -32899.200000 0 0 1
-35.156489 24.260043 -0.328392 42.715761 -0.604023 1.578484 0.126827 -0.024944 -463816.000000 0 0 1
-34.858289 23.204543 0.691408 41.881132 -0.587321 1.554287 0.147237 -0.036044 -1851610.000000 0 0 1
-33.554389 22.999943 0.943508 40.691333 -0.600896 1.547607 0.151021 -0.043003 -1865430.000000 0 0 1
-33.174089 23.832743 2.073508 40.900113 -0.622978 1.520078 0.142755 -0.043012 -128039.000000 0 0 1
-31.618289 23.849043 2.312108 39.671638 -0.646235 1.512482 0.130930 -0.049745 949514.000000 0 0 1
-30.969889 24.673643 1.321708 39.619056 -0.672724 1.537430 0.133126 -0.046034 -49926.900000 0 0 1
-30.960489 26.018943 1.642208 40.475105 -0.698890 1.530212 0.101379 -0.035078 -74747.000000 0 0 1
-30.151789 26.867843 0.570408 40.389810 -0.727868 1.556673 0.103192 -0.040583 639135.000000 0 0 1
-28.833089 26.415043 0.336408 39.105175 -0.741659 1.562194 0.109164 -0.040002 8874.640000 0 0 1
-28.092689 27.256643 -0.536492 39.146029 -0.770294 1.584502 0.117869 -0.034187 284226.000000 0 0 1
-26.912689 26.572243 -1.236992 37.840548 -0.779033 1.603492 0.119699 -0.037017 -266731.000000 0 0 1
-27.320589 25.647043 -2.241192 37.539424 -0.753813 1.630534 0.142939 -0.044628 406836.000000 0 0 1
-26.230189 25.040843 -2.934292 36.382368 -0.762205 1.651536 0.130755 -0.027511 375095.000000 0 0 1
-25.193989 24.127743 -2.287492 34.958800 -0.763783 1.636277 0.096919 -0.027066 -358371.000000 0 0 1
-25.615389 22.835643 -1.966092 34.372667 -0.728089 1.628027 0.097758 -0.030227 -77670.400000 0 0 1
-24.613389 22.149043 -1.223892 33.134528 -0.732748 1.607742 0.094179 -0.042921 -355162.000000 0 0 1
-25.245389 20.839243 -0.635192 32.741521 -0.690078 1.590198 0.113732 -0.049317 113328.000000 0 0 1
-26.284889 21.002243 0.325908 33.646632 -0.674145 1.561110 0.106036 -0.053543 898967.000000 0 0 1
-27.593789 21.396543 -0.109592 34.917635 -0.659567 1.573935 0.094304 -0.052423 489066.000000 0 0 1
-28.313389 20.546143 -1.173692 35.002422 -0.627746 1.604334 0.116365 -0.051976 -1017760.000000 0 0 1
-28.796689 19.325143 -0.681192 34.686806 -0.591058 1.590436 0.134606 -0.054142 317692.000000 0 0 1
-29.582989 18.689143 -1.710392 35.033737 -0.563441 1.619637 0.162173 -0.049663 354229.000000 0 0 1
-29.864789 17.213043 -1.427392 34.499738 -0.522860 1.612182 0.156068 -0.043274 303529.000000 0 0 1
-30.837589 16.982443 -0.406692 35.206898 -0.503385 1.582348 0.161864 -0.045079 380069.000000 0 0 1
-31.134989 15.625343 -0.142192 34.836175 -0.465133 1.574878 0.172557 -0.053349 -351860.000000 0 0 1
-30.028889 14.767743 0.471308 33.467037 -0.457054 1.556713 0.211539 -0.055913 -548539.000000 0 0 1
-29.848389 14.918843 1.863208 33.421097 -0.463504 1.515018 0.237804 -0.051460 37070.300000 0 0 1
-28.633689 14.427643 2.384908 32.151716 -0.466738 1.496551 0.266625 -0.057872 -63180.700000 0 0 1
-28.585089 12.911943 2.605008 31.473984 -0.424268 1.487935 0.292711 -0.057080 -282563.000000 0 0 1
-28.670389 12.274343 1.343108 31.216256 -0.404510 1.527757 0.285971 -0.061001 187649.000000 0 0 1
-28.350989 10.948043 1.439408 30.425485 -0.368519 1.523469 0.344537 -0.055765 -144139.000000 0 0 1
-27.888489 10.239343 0.154108 29.709186 -0.351873 1.565609 0.307576 -0.047313 -459106.000000 0 0 1
-28.969489 9.963043 -0.680592 30.642401 -0.331244 1.593009 0.283255 -0.034795 2338.430000 0 0 1
-28.614889 9.222543 -1.843892 30.120875 -0.311787 1.632051 0.293057 -0.038460 234473.000000 0 0 1
-29.863789 8.922643 -2.732892 31.287828 -0.290335 1.658255 0.260314 -0.038360 131272.000000 0 0 1
-29.563889 8.434543 -4.015492 31.004665 -0.277916 1.700674 0.253896 -0.033628 358863.000000 0 0 1
-30.691889 8.022843 -4.791292 32.082932 -0.255678 1.720698 0.217138 -0.043066 243773.000000 0 0 1
-11.573124 18.313943 -20.287792 29.680503 -1.007229 2.323397 0.169791 -0.018485 301886.000000 0 0 1
-11.724324 17.456443 -21.382492 29.989968 -0.979363 2.364547 0.180141 -0.027373 -948818.000000 0 0 1
-10.805624 16.452743 -21.358592 29.045546 -0.989678 2.396977 0.172407 -0.033893 -881828.000000 0 0 1
-10.955424 15.469143 -22.524092 29.438927 -0.954581 2.442012 0.161770 -0.025036 -165947.000000 0 0 1
-10.169624 14.324943 -22.257092 28.354954 -0.953441 2.473404 0.186166 -0.038222 -4229.880000 0 0 1
-10.282624 13.356243 -23.263392 28.728157 -0.914697 2.514568 0.161190 -0.038078 -359338.000000 0 0 1
-9.374224 12.209843 -22.886092 27.581326 -0.916026 2.549488 0.134458 -0.033794 -1250040.000000 0 0 1
-8.034524 12.457243 -23.095092 27.443028 -0.997967 2.570970 0.112214 -0.029279 -1161840.000000 0 0 1
-7.301524 11.447743 -22.420092 26.211135 -1.003036 2.597052 0.089458 -0.026824 415590.000000 0 0 1
-5.751524 11.470043 -22.409092 25.822652 -1.105998 2.621569 0.066271 -0.022624 503386.000000 0 0 1
-5.201924 11.214343 -23.700292 26.730607 -1.136474 2.660814 0.057437 -0.030696 157610.000000 0 0 1
-3.794524 11.432243 -23.672892 26.561258 -1.250323 2.670905 0.055457 -0.025412 796280.000000 0 0 1
-3.045624 11.115843 -25.040292 27.565450 -1.303370 2.710223 0.091257 -0.039079 189887.000000 0 0 1
-3.016124 9.725943 -25.269602 27.244151 -1.270089 2.758529 0.098167 -0.044884 61116.100000 0 0 1
-2.459924 9.408543 -26.518912 28.245789 -1.315065 2.790108 0.108252 -0.046215 -261142.000000 0 0 1
-2.274124 7.890243 -26.791352 28.021494 -1.290182 2.844187 0.124734 -0.030144 -145424.000000 0 0 1
-1.220024 7.210243 -26.163172 27.165928 -1.403177 2.869043 0.123494 -0.035369 -126781.000000 0 0 1
-1.137124 7.173643 -24.754792 25.798332 -1.413590 2.856196 0.135435 -0.052187 53080.700000 0 0 1
-0.070324 6.155843 -24.227192 24.997124 -1.559373 2.892754 0.062627 -0.037503 -124055.000000 0 1 0
1.285976 6.449043 -24.494692 25.362055 1.373972 2.879311 0.088537 -0.012631 974691.000000 0 0 1
2.218076 5.676943 -23.648392 24.421179 1.198318 2.889353 0.081624 0.006105 956650.000000 0 1 0
2.254076 6.150443 -22.151292 23.099536 1.219507 2.854071 0.069242 -0.003743 -628591.000000 0 1 0
2.802676 7.414743 -21.968492 23.354829 1.209410 2.795308 0.078358 -0.019179 159214.000000 0 1 0
2.487076 7.921243 -20.709292 22.311576 1.266568 2.760304 0.080610 -0.020713 172145.000000 0 1 0
3.031576 9.378543 -20.588392 22.826069 1.258152 2.695103 0.068017 -0.023448 -121720.000000 0 1 0
2.393276 10.086443 -19.539192 22.118864 1.337828 2.653806 0.075693 -0.027102 157084.000000 0 1 0
2.847876 11.401443 -19.384092 22.668179 1.326023 2.596585 0.071215 -0.021406 1453820.000000 0 1 0
4.229076 11.606943 -18.568692 22.302523 1.221389 2.554550 0.075196 -0.031123 2369330.000000 0 1 0
5.416176 11.018243 -19.120292 22.722725 1.113920 2.570778 0.081633 -0.020984 198322.000000 0 1 0
6.463476 10.982243 -18.173292 22.195827 1.038847 2.530063 0.082652 -0.016232 -176449.000000 0 1 0
7.695776 10.342243 -18.792092 22.788806 0.931075 2.540325 0.121697 -0.021985 -455329.000000 0 1 0
7.526376 8.898843 -18.829292 22.144480 0.868763 2.587338 0.102773 -0.016240 342067.000000 0 1 0
7.205676 8.476243 -20.147892 23.015343 0.866243 2.637082 0.095287 -0.008338 -82629.200000 0 1 0
7.009576 6.978043 -20.323692 22.602648 0.783144 2.688672 0.097088 -0.014774 322923.000000 0 1 0
8.177976 6.156743 -20.347192 22.777028 0.645319 2.675477 0.099796 -0.016429 588037.000000 0 1 0
7.814676 4.860943 -20.811692 22.755756 0.556459 2.725235 0.081745 0.001673 174228.000000 0 1 0
8.240676 4.594743 -22.286392 24.201315 0.508636 2.741116 0.096870 -0.006729 -220540.000000 0 1 0
7.384176 5.292043 -23.168292 24.885770 0.621829 2.767900 0.114951 -0.006517 70667.900000 0 1 0
7.625276 5.002443 -24.513192 26.154653 0.580606 2.785426 0.099373 -0.010247 -526927.000000 0 0 1
6.490276 5.537443 -25.398002 26.792638 0.706344 2.817522 0.099498 -0.021444 -173350.000000 0 0 1
6.418276 6.966343 -25.481492 27.185118 0.826323 2.785690 0.086089 -0.032496 168891.000000 0 0 1
6.061276 7.663743 -24.254492 26.148660 0.901627 2.758630 0.116537 -0.032883 -719905.000000 0 0 1
5.858676 9.206043 -24.412192 26.740053 1.004045 2.721239 0.130867 -0.042940 -430102.000000 0 0 1
4.729176 9.738443 -25.011892 27.254305 1.118719 2.733105 0.127278 -0.050270 -485987.000000 0 0 1
3.603676 9.823143 -24.154292 26.323192 1.219185 2.732809 0.124145 -0.053275 1041.030000 0 0 1
2.275076 10.033343 -24.918792 26.959046 1.347815 2.750047 0.149694 -0.037988 -88375.500000 0 0 1
2.147476 11.290743 -25.493662 27.964609 1.382843 2.718054 0.158447 -0.046331 532997.000000 0 0 1
0.993476 11.370543 -26.355832 28.721179 1.483645 2.732908 0.171595 -0.052872 716472.000000 0 0 1
0.575776 12.844043 -26.703282 29.637244 1.525998 2.692875 0.152230 -0.053372 111776.000000 0 0 1
0.072976 13.495443 -25.551612 28.896664 1.565389 2.655662 0.135663 -0.049616 67572.200000 0 0 1
-0.470324 14.775743 -25.892552 29.815567 -1.538976 2.622811 0.131939 -0.054515 107201.000000 0 0 1
-0.954924 15.579243 -24.604192 29.137450 -1.509578 2.576274 0.134865 -0.048094 -157853.000000 0 0 1
-2.216024 15.094343 -24.216392 28.621384 -1.425026 2.579411 0.114924 -0.038515 -362754.000000 0 0 1
-2.553624 15.749543 -23.008892 27.999611 -1.410056 2.535285 0.099995 -0.042180 1393080.000000 0 0 1
-3.900424 15.172143 -22.290192 27.244447 -1.319167 2.528992 0.088516 -0.035635 1913650.000000 0 0 1
-5.150924 15.433243 -22.888092 28.081698 -1.248666 2.523618 0.095653 -0.035484 -96835.600000 0 0 1
-5.401324 14.915043 -24.194492 28.931061 -1.223348 2.561261 0.098813 -0.039137 -994889.000000 0 0 1
-6.911224 15.024043 -24.407092 29.482080 -1.139649 2.546082 0.084585 -0.035941 -487938.000000 0 0 1
-7.288624 16.346743 -24.602692 30.424209 -1.151377 2.512659 0.095395 -0.036321 -108191.000000 0 0 1
-8.663624 16.451443 -24.907692 31.082173 -1.086082 2.500345 0.115713 -0.036090 -314440.000000 0 0 1
-9.171824 17.856643 -25.368712 32.350481 -1.096299 2.472175 0.126415 -0.031506 -171891.000000 0 0 1
-9.316624 18.680343 -24.244192 31.992742 -1.108158 2.430735 0.129355 -0.034535 -68857.000000 0 0 1
-10.524424 19.372543 -24.466192 32.934078 -1.073139 2.408164 0.115987 -0.022461 161780.000000 0 0 1
-10.881824 20.480743 -23.391892 32.940182 -1.082408 2.360483 0.094566 -0.022391 -71129.900000 0 0 1
-10.174624 21.691643 -23.579792 33.616320 -1.132208 2.348211 0.133776 -0.013427 -44175.400000 0 0 1
-10.890524 22.753043 -24.165892 34.932719 -1.124382 2.334753 0.107053 -0.022233 -476193.000000 0 0 1
-10.892924 22.951443 -25.721232 36.152542 -1.127668 2.362376 0.092529 -0.018375 -543852.000000 0 0 1
-11.679324 22.067243 -26.484712 36.397937 -1.084015 2.385676 0.094670 -0.019091 96941.400000 0 0 1
-11.871124 22.505643 -27.803432 37.688969 -1.085412 2.400465 0.088330 -0.018120 55641.900000 0 0 1
-12.790724 21.587243 -28.641742 38.078355 -1.035900 2.422159 0.093327 -0.015210 -53467.700000 0 0 1
-12.117624 20.472443 -29.222102 37.681415 -1.036355 2.458310 0.110514 -0.022937 44460.700000 0 0 1
-11.766724 19.467943 -28.240882 36.262984 -1.027137 2.463515 0.114942 -0.021437 -698861.000000 0 0 1
-10.578924 18.680043 -28.698232 35.839171 -1.055508 2.499343 0.086509 -0.025213 -1626610.000000 0 0 1
-9.331424 19.365043 -28.729292 35.881090 -1.121758 2.499227 0.075334 -0.028667 444311.000000 0 0 1
-8.344224 18.694743 -29.509312 35.915442 -1.150990 2.535066 0.066810 -0.027323 501204.000000 0 0 1
-7.838324 17.311143 -28.957652 34.636117 -1.145624 2.560847 0.093398 -0.043621 -1060690.000000 0 0 1
-8.876124 16.346043 -28.897622 34.366427 -1.073333 2.569681 0.068828 -0.037773 -126233.000000 0 0 1
-8.522824 15.049543 -28.363262 33.220505 -1.055511 2.594014 0.080214 -0.040482 -78638.600000 0 0 1
-9.775124 14.132943 -28.218902 33.039364 -0.965693 2.594613 0.081427 -0.026126 98705.500000 0 0 1
-10.631924 14.535443 -27.185102 32.608997 -0.939274 2.556514 0.103364 -0.032742 -1189480.000000 0 0 1
-11.685124 13.661043 -27.150702 32.562660 -0.863198 2.556749 0.151427 -0.030190 -960822.000000 0 0 1
-12.825924 14.099443 -26.236572 32.429251 -0.832661 2.513314 0.135566 -0.029706 -43807.900000 0 0 1
-13.533824 15.264343 -26.675632 33.582048 -0.845417 2.488720 0.135558 -0.029918 309270.000000 0 0 1
-14.658024 15.462843 -25.807712 33.466329 -0.812111 2.451449 0.107562 -0.026152 1084390.000000 0 0 1
-15.627324 16.678743 -26.169022 34.744949 -0.817932 2.423672 0.083593 -0.019318 299189.000000 0 0 1
-15.061324 17.956343 -26.210472 35.160526 -0.872855 2.412008 0.093518 -0.014410 -515911.000000 0 0 1
-15.983024 18.953743 -26.520252 36.304617 -0.870225 2.389839 0.063369 -0.010572 -738547.000000 0 0 1
-15.415424 20.381343 -26.290512 36.663681 -0.923244 2.370389 0.078740 -0.012148 122559.000000 0 0 1
-16.237224 21.452343 -26.832242 37.997628 -0.922895 2.354850 0.038900 -0.002918 458848.000000 0 0 1
-15.767124 22.780743 -26.727922 38.496056 -0.965375 2.338247 0.046043 -0.007279 -284827.000000 0 0 1
-15.408124 23.529443 -25.392512 37.892277 -0.991023 2.305172 0.015511 -0.003473 107750.000000 0 0 1
-14.843524 24.769643 -25.740742 38.683992 -1.030919 2.298840 0.039633 -0.011644 -4257.010000 0 0 1
-14.288224 25.325343 -24.589692 38.081220 -1.057126 2.272758 0.050507 -0.015496 -109387.000000 0 0 1
-13.723324 26.796243 -24.671892 38.923907 -1.097487 2.257316 0.068346 -0.017314 905546.000000 0 0 1
-14.744224 27.828043 -24.820192 40.097806 -1.083568 2.238254 0.078016 -0.024634 304492.000000 0 0 1
-15.303624 28.131843 -23.592792 39.777146 -1.072574 2.205730 0.067661 -0.025345 -393944.000000 0 0 1
-16.561424 29.018443 -23.745192 40.990059 -1.052184 2.188656 0.060527 -0.023377 311894.000000 0 0 1
-17.586524 28.321043 -24.444592 41.338909 -1.015100 2.203493 0.041794 -0.021868 -86990.500000 0 0 1
-18.653724 29.134743 -24.900692 42.624396 -1.001301 2.194676 0.041432 -0.023178 510407.000000 0 0 1
-19.942124 28.303343 -25.155902 42.797044 -0.956999 2.199127 0.060528 -0.012609 207600.000000 0 0 1
-20.508824 27.686743 -24.010492 41.996087 -0.933245 2.179411 0.062656 -0.017648 2221.900000 0 0 1
-21.594424 26.810043 -24.255192 42.111898 -0.892735 2.184587 0.065527 -0.030329 -162070.000000 0 0 1
-22.206524 26.399543 -22.911992 41.412860 -0.871450 2.157067 0.075003 -0.030482 -40728.100000 0 0 1
-22.952424 27.518443 -22.371792 42.244237 -0.875621 2.128904 0.089111 -0.027354 93554.100000 0 0 1
-23.198724 27.379343 -20.977492 41.567589 -0.867867 2.099784 0.073176 -0.021233 21329.000000 0 0 1
-24.404424 28.267843 -20.551792 42.626553 -0.858615 2.073887 0.055027 -0.021742 1364500.000000 0 0 1
-25.695144 27.631343 -20.773592 43.072888 -0.821691 2.074062 0.083250 -0.026492 705508.000000 0 0 1
-26.728044 28.493043 -20.395792 44.070741 -0.817350 2.051944 0.089833 -0.031132 486843.000000 0 0 1
-28.166224 27.921143 -20.654692 44.716247 -0.781029 2.050939 0.090958 -0.026631 686480.000000 0 0 1
-28.513264 27.848443 -22.044792 45.546843 -0.773603 2.076019 0.088522 -0.031042 -222555.000000 0 0 1
-29.880264 27.545843 -22.182092 46.299556 -0.744770 2.070425 0.093593 -0.024861 -303295.000000 0 0 1
-30.253254 27.135543 -23.621192 47.005934 -0.731125 2.097302 0.087988 -0.027054 34978.000000 0 0 1
-30.209884 25.755343 -23.824292 46.298723 -0.705971 2.111311 0.091510 -0.011399 -55056.700000 0 0 1
-30.523654 25.580943 -25.179252 47.117649 -0.697527 2.134584 0.090974 -0.008405 -100098.000000 0 0 1
-30.719754 24.121243 -25.598162 46.699075 -0.665653 2.150949 0.080262 -0.010002 13447.300000 0 0 1
-29.612074 23.235743 -25.681352 45.566507 -0.665324 2.169536 0.118890 -0.019103 113623.000000 0 0 1
-30.109594 21.949943 -25.911772 45.385103 -0.629926 2.178436 0.109891 -0.008571 -315850.000000 0 0 1
-29.118074 20.787343 -25.762392 44.087149 -0.619993 2.194877 0.124020 -0.016741 -328144.000000 0 0 1
-28.956804 20.483443 -24.408192 43.056101 -0.615661 2.173525 0.112615 -0.006058 128097.000000 0 0 1
-28.167064 19.311143 -24.300292 41.914293 -0.600991 2.189232 0.134213 -0.007995 -259855.000000 0 0 1
-28.916104 17.977343 -24.414092 41.897182 -0.556228 2.192861 0.111896 -0.010261 15485.500000 0 0 1
-29.570134 17.699543 -25.690852 42.984725 -0.539361 2.211393 0.103968 -0.011525 732773.000000 0 0 1
-30.103334 16.373543 -25.740042 42.858528 -0.498157 2.215025 0.076033 -0.005971 -21754.100000 0 0 1
-30.899634 15.908443 -27.006572 44.013872 -0.475451 2.231398 0.055145 -0.012175 560127.000000 0 0 1
-32.203564 16.455743 -27.100872 45.192016 -0.472402 2.213901 0.040264 -0.013336 464987.000000 0 0 1
-32.961124 15.900043 -28.181252 46.189069 -0.449459 2.227019 0.043424 -0.010328 548985.000000 0 0 1
-34.241459 16.649743 -28.673602 47.664105 -0.452583 2.216269 0.045778 -0.016687 141920.000000 0 0 1
-35.319539 16.287543 -27.851152 47.837648 -0.432086 2.192230 0.023638 -0.011311 -388256.000000 0 0 1
-36.531664 16.554643 -28.525642 49.217182 -0.425478 2.189018 0.038157 -0.012792 73865.700000 0 0 1
-37.830464 16.149443 -27.799632 49.646431 -0.403470 2.165125 0.053541 -0.015278 -40637.500000 0 0 1
37.689740 16.993743 -26.710132 49.221286 0.423590 2.144390 0.053507 -0.019294 -476433.000000 0 0 1
36.589150 16.551943 -25.980532 47.830124 0.424826 2.145020 0.053371 -0.014016 -397000.000000 0 0 1
36.138040 17.647143 -25.006192 47.357040 0.454265 2.127082 0.057576 -0.004016 -10559.500000 0 0 1
35.592900 18.771443 -25.666992 47.728567 0.485321 2.138586 0.061598 -0.028346 123252.000000 0 0 1
34.968650 19.673043 -24.792892 47.164845 0.512458 2.124293 0.091012 -0.018085 -336512.000000 0 0 1
34.338250 20.992943 -25.426702 47.606053 0.548729 2.134247 0.112457 -0.032802 360151.000000 0 0 1
33.044760 20.820943 -25.979312 46.908341 0.562246 2.157755 0.118190 -0.043036 111356.000000 0 0 1
32.053060 21.108843 -24.983192 45.794561 0.582369 2.147841 0.141948 -0.041215 -370073.000000 0 0 1
30.653040 21.277743 -25.586702 45.244122 0.606788 2.171867 0.103502 -0.041280 -299365.000000 0 0 1
30.140940 20.014743 -25.890422 44.490226 0.586181 2.191902 0.124334 -0.051978 -71301.300000 0 0 1
28.880640 20.141043 -26.550882 44.098779 0.608972 2.216897 0.126641 -0.057474 48769.300000 0 0 1
28.404340 18.750143 -26.911312 43.388859 0.583453 2.239839 0.133153 -0.037299 -502076.000000 0 0 1
29.232140 18.001243 -27.769432 44.155454 0.551958 2.250936 0.117548 -0.047688 -277033.000000 0 0 1
30.010140 17.143543 -26.987122 43.849907 0.519018 2.233744 0.122200 -0.036983 -129378.000000 0 0 1
31.042800 16.300143 -27.818492 44.757330 0.483515 2.241504 0.093978 -0.030858 -1607.170000 0 0 1
30.673640 15.111643 -28.507422 44.518615 0.457758 2.265748 0.109512 -0.040914 -55710.700000 0 0 1
30.003240 14.052643 -27.871682 43.295518 0.438026 2.270191 0.121729 -0.031285 -324053.000000 0 0 1
30.790640 13.262043 -26.786932 42.912528 0.406703 2.244931 0.110042 -0.016525 -199940.000000 0 0 1
30.921880 13.907043 -25.532362 42.443728 0.422644 2.216246 0.109544 -0.021018 69302.800000 0 0 1
31.333540 12.971843 -24.575592 41.881012 0.392510 2.197892 0.090060 -0.011368 -14198.300000 0 0 1
-15.982924 -30.605962 -22.597092 41.265087 1.089534 2.150299 0.142877 -0.024035 148924.000000 0 0 1
-15.053324 -29.910462 -23.428392 40.867198 1.104529 2.181301 0.146968 -0.057544 381280.000000 0 0 1
-15.517424 -29.861962 -24.739992 41.768343 1.091562 2.204725 0.126726 -0.042780 68944.600000 0 0 1
-14.571124 -29.005762 -25.603262 41.342217 1.105268 2.238648 0.145583 -0.046778 -132622.000000 0 0 1
-14.758424 -27.607362 -25.342912 40.277050 1.079867 2.251339 0.135831 -0.031748 236176.000000 0 0 1
-13.913524 -26.728162 -26.066802 39.842929 1.090839 2.283972 0.135121 -0.030601 -91144.900000 0 0 1
-14.415924 -25.280362 -25.788292 38.883822 1.052545 2.295901 0.085376 -0.010652 -15299.000000 0 0 1
-14.169224 -24.857662 -24.452892 37.637936 1.052717 2.277969 0.135052 -0.038265 -18794.700000 0 0 1
-14.610324 -23.579262 -24.283892 36.866660 1.016071 2.289880 0.093129 -0.030252 -289984.000000 0 0 1
-14.136124 -22.913362 -22.973792 35.392758 1.018015 2.277210 0.124345 -0.023574 -258284.000000 0 0 1
-12.750524 -22.761662 -22.832192 34.669556 1.060174 2.289708 0.170784 -0.044477 -519015.000000 0 0 1
-12.491324 -21.819362 -21.839192 33.302674 1.050852 2.286010 0.133347 -0.031484 -199971.000000 0 0 1
-11.008724 -21.485262 -21.651592 32.428382 1.097290 2.301876 0.159889 -0.043929 -253366.000000 0 0 1
-10.533924 -20.560562 -22.604292 32.321112 1.097328 2.345307 0.179965 -0.043698 -83941.100000 0 0 1
-9.128524 -20.442862 -22.602092 31.813443 1.150825 2.360944 0.203994 -0.047133 -12968.100000 0 0 1
-8.613524 -19.266662 -23.477592 31.568884 1.150383 2.409376 0.244213 -0.043153 -379576.000000 0 0 1
-8.762224 -17.977462 -22.916392 30.415896 1.117279 2.424067 0.173779 -0.036800 -216388.000000 0 0 1
-8.610024 -16.864662 -23.836092 30.441890 1.098755 2.470275 0.165768 -0.033698 595641.000000 0 0 1
-7.140924 -16.661462 -24.338492 30.347312 1.165889 2.501429 0.195305 -0.046150 466085.000000 0 0 1
-6.887424 -17.525362 -25.458222 31.665376 1.196341 2.504749 0.214669 -0.053204 -368054.000000 0 0 1
-5.929424 -16.999662 -26.341712 31.906620 1.235194 2.542039 0.194501 -0.052159 -164348.000000 0 0 1
-5.718024 -17.745362 -27.669132 33.364271 1.259075 2.548658 0.196924 -0.045371 170925.000000 0 0 1
-6.792624 -17.716762 -28.609062 34.329315 1.204681 2.555976 0.220871 -0.044334 190296.000000 0 0 1
-6.563924 -18.422462 -29.773462 35.622062 1.228520 2.560412 0.229554 -0.050969 -13227.900000 0 0 1
-7.668424 -18.144362 -30.833652 36.588751 1.170931 2.573091 0.236530 -0.054595 62848.000000 0 0 1
-7.566924 -16.966362 -31.651672 36.700738 1.151277 2.610839 0.183843 -0.047575 -128012.000000 0 0 1
-7.403424 -15.760462 -30.964812 35.524955 1.131643 2.629326 0.162012 -0.040191 -78918.000000 0 0 1
-7.935824 -14.452262 -31.589302 35.633260 1.068640 2.660547 0.117923 -0.035541 156160.000000 0 0 1
-7.130724 -14.042062 -32.721672 36.314385 1.100919 2.693019 0.111814 -0.044514 154482.000000 0 0 1
-7.770324 -13.365462 33.567506 36.956610 1.044185 0.431606 0.091470 -0.031690 -356600.000000 0 0 1
-8.240924 -11.896062 -33.481852 36.475520 0.964957 2.733619 0.066783 -0.027227 -426323.000000 0 0 1
-7.240224 -10.955162 -33.244962 35.744425 0.986799 2.765411 0.055788 -0.027649 -527015.000000 0 0 1
-6.827824 -10.266462 32.952043 35.183186 0.983906 0.358041 0.031105 -0.020412 740378.000000 0 0 1
-5.716224 -9.163162 33.200317 34.912746 1.013041 0.314500 0.066736 -0.026924 672443.000000 0 0 1
-5.538124 -8.435562 31.954090 33.509602 0.989851 0.305887 0.041123 -0.021720 -580281.000000 0 0 1
-4.470224 -7.556962 32.018028 33.200071 1.036623 0.267645 0.049918 -0.032707 -1031140.000000 0 0 1
-4.451124 -6.616862 30.782006 31.798228 0.978632 0.253496 0.042034 -0.020957 -492784.000000 0 0 1
-5.413224 -5.622062 30.646696 31.624841 0.804320 0.249361 0.026797 -0.009095 35748.600000 0 0 1
-6.611924 -6.216062 30.099306 31.437640 0.754549 0.292836 0.023903 -0.002154 -264439.000000 0 0 1
-7.851824 -5.334462 30.162016 31.620482 0.596760 0.304903 0.020830 -0.002249 50889.900000 0 0 1
-8.933824 -5.960662 29.459726 31.356310 0.588373 0.349585 0.036963 0.000128 81530.000000 0 0 1
-10.039824 -5.092162 29.276526 31.366275 0.469388 0.367089 0.038141 -0.008767 129538.000000 0 0 1
-11.108224 -5.693062 28.348986 30.975291 0.473604 0.414760 0.043875 -0.007642 -371712.000000 0 0 1
-10.693824 -5.753562 27.043046 29.644354 0.493604 0.422054 0.051525 -0.010668 -458017.000000 0 0 1
-11.615624 -6.319662 26.197256 29.345479 0.498276 0.467454 0.061011 -0.022410 -642705.000000 0 0 1
-11.276424 -6.076162 24.715676 27.837783 0.494233 0.478153 0.055845 -0.022087 200457.000000 0 0 1
-10.106224 -6.766962 24.299336 27.173246 0.590019 0.464072 0.050669 -0.018356 -41192.600000 0 0 1
-9.482124 -6.275062 23.187826 25.825615 0.584611 0.455908 0.057185 -0.026403 -491551.000000 0 0 1
-10.219624 -6.466262 21.832716 24.958381 0.564139 0.505846 0.079043 -0.039758 -369957.000000 0 1 0
-11.264824 -5.527662 21.687516 25.055931 0.456181 0.524520 0.063772 -0.033563 -84216.100000 0 0 1
-12.098324 -5.891662 20.572716 24.582876 0.453179 0.579253 0.069917 -0.038392 -496444.000000 0 1 0
-13.378924 -5.071162 20.537116 25.029692 0.362309 0.608493 0.082953 -0.034558 -487245.000000 0 0 1
-13.170924 -3.657962 20.218116 24.405454 0.270903 0.594504 0.075110 -0.030380 -973026.000000 0 1 0
-14.312424 -2.992362 20.526616 25.202018 0.206106 0.618959 0.089703 -0.024502 -882151.000000 0 0 1
-14.148024 -1.491462 20.241016 24.740449 0.105030 0.612637 0.073862 -0.020833 -108969.000000 0 1 0
-13.116824 -0.850462 20.958216 24.739062 0.064747 0.560158 0.065456 -0.021889 -101572.000000 0 1 0
-12.964224 0.559538 20.698616 24.429837 -0.043133 0.559976 0.066079 -0.027421 -560555.000000 0 1 0
-12.456624 1.055538 19.335316 23.024685 -0.084535 0.573947 0.054616 -0.038579 -129742.000000 0 1 0
-13.256324 1.014538 18.147316 22.496322 -0.076383 0.632285 0.063494 -0.032143 -640665.000000 0 1 0
-14.446024 1.743538 18.240816 23.333558 -0.120112 0.673342 0.061405 -0.026013 119310.000000 0 1 0
-15.556324 1.120538 17.299716 23.292381 -0.071907 0.733673 0.087045 -0.024941 406842.000000 0 1 0
-15.949924 -0.189462 17.685316 23.816096 0.011878 0.733884 0.080728 -0.026422 471675.000000 0 1 0
-16.976324 -0.761462 16.889516 23.958948 0.044824 0.788464 0.095919 -0.023828 49228.300000 0 1 0
-17.006824 -2.315462 17.067216 24.205027 0.135317 0.788217 0.095217 -0.027088 -309058.000000 0 1 0
-17.716824 -2.717462 18.191716 25.538383 0.152197 0.777986 0.115535 -0.026475 -253785.000000 0 0 1
-17.714924 -4.110762 18.417216 25.882635 0.228015 0.779071 0.139829 -0.036325 96773.000000 0 0 1
-18.582424 -4.507462 19.648516 27.416928 0.237970 0.771800 0.132695 -0.033772 -60630.400000 0 0 1
-18.096924 -4.137562 20.925116 27.972819 0.224770 0.725675 0.132779 -0.029097 -69751.200000 0 0 1
-18.923624 -4.478462 22.025616 29.381763 0.232384 0.723285 0.126283 -0.031255 -460155.000000 0 0 1
-19.008224 -5.975362 22.355276 29.946217 0.304575 0.727989 0.138927 -0.035784 -202677.000000 0 0 1
-17.926724 -6.558762 23.020776 29.905534 0.350738 0.692295 0.107652 -0.034431 468294.000000 0 0 1
-16.793824 -6.829762 22.180616 28.647128 0.386254 0.685235 0.111251 -0.026819 1407670.000000 0 0 1
-15.424424 -7.268362 22.873876 28.529917 0.440363 0.640578 0.119469 -0.026020 1117210.000000 0 0 1
-15.398824 -8.561862 23.471216 29.348378 0.507444 0.643926 0.132717 -0.035549 88298.600000 0 0 1
-15.494924 -8.641862 24.855586 30.538085 0.508753 0.619927 0.109860 -0.030339 179505.000000 0 0 1
-16.522524 -9.669362 25.409156 31.813765 0.529483 0.645691 0.106284 -0.019987 -81705.900000 0 0 1
-16.218424 -11.052962 25.303486 32.022987 0.598206 0.659716 0.111098 -0.029679 265801.000000 0 0 1
-15.168124 -11.569062 26.127836 32.350874 0.651594 0.630659 0.114309 -0.026923 345601.000000 0 0 1
-15.234624 -13.120762 26.098406 32.945030 0.710987 0.656423 0.109538 -0.035524 -562721.000000 0 0 1
-16.332224 -13.582062 26.799126 34.196596 0.693721 0.670231 0.095226 -0.039371 -386754.000000 0 0 1
-16.736824 -14.913862 26.478886 34.694034 0.727865 0.702527 0.103800 -0.030028 199536.000000 0 0 1
-15.832324 -16.006862 27.138486 35.261588 0.790880 0.692530 0.099543 -0.026879 298118.000000 0 0 1
-14.479524 -15.918862 26.727016 34.313266 0.832712 0.677867 0.086469 -0.033212 -105082.000000 0 0 1
-13.694224 -16.765762 27.511456 35.007182 0.885897 0.666678 0.094531 -0.033455 36564.300000 0 0 1
-12.245524 -16.900362 26.962536 34.096239 0.943769 0.658718 0.111163 -0.035551 407959.000000 0 0 1
-11.386524 -17.562162 27.884506 34.865860 0.995578 0.643892 0.142396 -0.048324 609732.000000 0 0 1
-10.086424 -17.838462 27.357566 34.181620 1.056183 0.642903 0.143102 -0.049573 474639.000000 0 0 1
-9.181324 -18.542962 28.386436 35.127311 1.111046 0.629874 0.175347 -0.062258 -437111.000000 0 0 1
-9.561624 -19.824162 28.709086 36.175043 1.121391 0.654067 0.178739 -0.055381 211729.000000 0 0 1
-8.780824 -20.344162 29.772486 37.113189 1.163337 0.639812 0.201418 -0.059545 67171.500000 0 0 1
-9.315824 -21.714862 30.244056 38.379979 1.165537 0.663216 0.183178 -0.060967 -74877.500000 0 0 1
-9.328024 -22.805162 29.253866 38.247564 1.182529 0.699979 0.221217 -0.061180 143797.000000 0 0 1
-9.606124 -24.057662 29.843516 39.518151 1.190897 0.714860 0.171613 -0.054481 -292008.000000 0 0 1
-9.491024 -25.211662 28.890466 39.501475 1.210752 0.750458 0.162094 -0.034690 7269.280000 0 0 1
-10.470424 -25.264462 27.855406 39.036477 1.177910 0.776210 0.140102 -0.037208 364272.000000 0 0 1
-10.235924 -26.365162 26.984796 39.090602 1.200472 0.808873 0.119153 -0.029651 -144477.000000 0 0 1
-11.547524 -26.710662 26.225386 39.173661 1.162743 0.837308 0.097599 -0.026685 262164.000000 0 0 1
-11.742224 -26.072462 24.997376 37.980547 1.147636 0.852421 0.102898 -0.026839 106782.000000 0 0 1
-12.299224 -24.789162 25.237576 37.452754 1.110231 0.831388 0.087871 -0.016923 -421844.000000 0 0 1
-12.738824 -24.138162 23.896126 36.276072 1.085199 0.851667 0.108698 -0.035845 -204347.000000 0 0 1
-13.921024 -24.552262 23.266136 36.577611 1.054998 0.881394 0.084331 -0.025521 -186294.000000 0 0 1
-14.016824 -23.844962 22.018016 35.353170 1.039372 0.898478 0.108756 -0.035368 -113198.000000 0 0 1
-15.408824 -23.992762 21.390016 35.645720 0.999904 0.927205 0.099493 -0.035386 -483043.000000 0 0 1
-15.717624 -25.357662 21.057616 36.516818 1.015918 0.956168 0.104530 -0.033702 179498.000000 0 0 1
-17.002424 -25.359062 20.461116 36.753527 0.980167 0.980374 0.098193 -0.034540 -44731.900000 0 0 1
-17.371824 -26.731362 19.928216 37.596274 0.994515 1.012127 0.096953 -0.035676 58312.100000 0 0 1
-16.551424 -27.234362 18.878516 37.041308 1.024705 1.036005 0.105364 -0.039674 71896.300000 0 0 1
-16.868524 -28.575562 18.590416 38.035687 1.037530 1.060126 0.104935 -0.035864 726093.000000 0 0 1
-15.864024 -29.240862 17.547116 37.611123 1.073707 1.085421 0.120677 -0.036749 686360.000000 0 0 1
-16.081424 -28.838062 16.241316 36.797098 1.062102 1.113666 0.116489 -0.046685 249909.000000 0 0 1
-14.821824 -28.819062 15.587316 35.960941 1.095769 1.122477 0.119676 -0.049600 533735.000000 0 0 1
-15.006024 -28.521662 14.060216 35.161850 1.086466 1.159420 0.115360 -0.043070 -36112.500000 0 0 1
-15.414424 -27.185662 13.913216 34.208805 1.054991 1.151942 0.116076 -0.047865 -147253.000000 0 0 1
-15.546624 -26.806062 12.553716 33.434388 1.045237 1.185889 0.124494 -0.040594 712777.000000 0 0 1
-14.188024 -26.620562 11.767916 32.379596 1.081120 1.198843 0.115306 -0.043774 898318.000000 0 0 1
-14.407024 -25.985262 10.490216 31.509377 1.064558 1.231394 0.100842 -0.038040 88833.700000 0 0 1
-13.355724 -26.260262 9.577916 30.979239 1.100300 1.256474 0.097251 -0.032190 67939.000000 0 0 1
-13.577624 -25.591062 8.196116 30.106987 1.083000 1.295083 0.094216 -0.036210 -202901.000000 0 0 1
-14.602824 -26.093062 7.381916 30.799076 1.060579 1.328760 0.098760 -0.042161 -100458.000000 0 0 1
-14.747524 -25.325462 6.202416 29.955609 1.043478 1.362234 0.090829 -0.043956 437630.000000 0 0 1
-15.817724 -25.943262 5.240016 30.833602 1.023272 1.400022 0.085733 -0.042374 607942.000000 0 0 1
-15.267824 -27.054962 4.494616 31.389155 1.057021 1.427112 0.061077 -0.029584 774014.000000 0 0 1
-16.160924 -27.502062 3.442816 32.084138 1.039525 1.463283 0.119507 -0.030785 537416.000000 0 0 1
-15.517324 -28.732262 2.688816 32.765225 1.075612 1.488641 0.117824 -0.029975 1331850.000000 0 0 1
-14.411024 -28.423262 1.777616 31.917384 1.101552 1.515073 0.062777 -0.013168 855583.000000 0 0 1
-13.764224 -29.602162 1.329116 32.672748 1.135560 1.530105 0.065146 -0.020217 1614410.000000 0 0 1
-12.326524 -29.305862 0.663116 31.799630 1.172645 1.549942 0.068204 -0.022474 1457340.000000 0 0 1
-12.317724 -28.641962 -0.635584 31.184809 1.164649 1.591179 0.082070 -0.022060 -108029.000000 0 0 1
-12.698124 -27.258762 -0.636984 30.078036 1.134851 1.591976 0.072601 -0.026005 -242976.000000 0 0 1
-12.386724 -26.509062 -1.981084 29.327223 1.133679 1.638399 0.089589 -0.030986 74379.500000 0 0 1
-11.005224 -26.294862 -2.150484 28.585999 1.174417 1.646096 0.104666 -0.033329 -502346.000000 0 0 1
-10.627524 -25.656562 -3.337784 27.970418 1.178090 1.690414 0.119642 -0.034513 -72113.800000 0 0 1
-9.183724 -25.930662 -3.755184 27.764032 1.230416 1.706466 0.118614 -0.033131 65559.300000 0 0 1
-8.721124 -24.985562 -4.810184 26.897476 1.234971 1.750598 0.115004 -0.038641 283573.000000 0 0 1
-7.375924 -25.294762 -5.157184 26.848199 1.287065 1.764084 0.127359 -0.030227 259555.000000 0 0 1
-6.766224 -24.246962 -6.101284 25.902174 1.298665 1.808582 0.101398 -0.029256 -330488.000000 0 0 1
-7.141424 -24.340362 -7.430084 26.432165 1.285407 1.855737 0.117897 -0.030920 -156548.000000 0 0 1
-6.522424 -23.259062 -8.090184 25.475028 1.297393 1.893965 0.110902 -0.023205 -503492.000000 0 0 1
-6.653024 -23.253562 -9.606984 26.024700 1.292133 1.948889 0.112739 -0.036215 -392669.000000 0 0 1
-5.870724 -24.242562 -10.232184 26.960430 1.333204 1.960080 0.096333 -0.034539 -113429.000000 0 0 1
-6.113424 -24.379162 -11.645184 27.700683 1.325098 2.004675 0.080750 -0.019613 -103325.000000 0 0 1
-7.478724 -24.869362 -12.157584 28.674437 1.278679 2.008639 0.097259 -0.029187 -160937.000000 0 0 1
-7.608824 -24.687262 -13.544384 29.168570 1.271826 2.053695 0.115506 -0.033400 -169970.000000 0 0 1
-8.708424 -25.452062 -13.992884 30.322350 1.241132 2.050449 0.137654 -0.034891 -861106.000000 0 0 1
-8.916024 -25.345462 -15.599284 31.068080 1.232537 2.096822 0.138525 -0.034459 -439335.000000 0 0 1
-7.909324 -25.739862 -16.482384 31.571615 1.272675 2.120065 0.128799 -0.050374 -394791.000000 0 0 1
-6.684524 -25.083262 -16.214684 30.606680 1.310356 2.129133 0.129492 -0.039220 -336820.000000 0 0 1
-5.467224 -25.801062 -16.900584 31.324353 1.361986 2.140681 0.122911 -0.034151 230829.000000 0 0 1
-5.273124 -25.432162 -18.281284 31.761707 1.366352 2.184105 0.191953 -0.050036 -581506.000000 0 0 1
-4.155124 -26.045662 -18.800284 32.389693 1.412597 2.190066 0.165757 -0.049939 -807664.000000 0 0 1
-26.478734 14.829943 -4.303292 30.652388 -0.510542 1.711652 0.182791 -0.048793 -216214.000000 0 0 1
-25.923494 13.700043 -3.710692 29.554830 -0.486171 1.696681 0.194278 -0.051529 -391355.000000 0 0 1
-24.696024 13.453643 -4.327992 28.453922 -0.498819 1.723494 0.205207 -0.045941 -585401.000000 0 0 1
-24.092724 12.038643 -4.101592 27.243556 -0.463391 1.721924 0.197628 -0.046300 -20559.900000 0 0 1
-24.608724 10.890943 -4.780092 27.332238 -0.416653 1.746589 0.206400 -0.027649 530384.000000 0 0 1
-26.008054 10.630043 -4.647592 28.478357 -0.388002 1.734727 0.234023 -0.039393 328590.000000 0 0 1
-26.549714 9.777043 -5.775192 28.876128 -0.352843 1.772153 0.243101 -0.030590 -241305.000000 0 0 1
-26.713844 10.550143 -6.925192 29.544768 -0.376130 1.807394 0.280441 -0.042234 165602.000000 0 0 1
-27.087434 9.710943 -8.023292 29.873144 -0.344230 1.842714 0.272212 -0.039440 63066.800000 0 0 1
-27.534234 10.495743 -9.305792 30.901334 -0.364185 1.876690 0.249444 -0.034176 129821.000000 0 0 1
-26.479844 11.282643 -9.832092 30.416282 -0.402789 1.899959 0.237168 -0.027273 361697.000000 0 0 1
-26.888204 11.858143 -11.069192 31.402518 -0.415358 1.931031 0.221932 -0.027927 381491.000000 0 0 1
-25.732954 12.643943 -11.780292 30.997250 -0.456705 1.960639 0.202569 -0.023965 232447.000000 0 0 1
-25.366074 13.794243 -11.062892 30.920971 -0.498076 1.936685 0.180702 -0.032807 63205.400000 0 0 1
-24.721624 14.737243 -11.861492 31.129408 -0.537567 1.961715 0.149676 -0.028490 -183485.000000 0 0 1
-24.746824 16.204543 -11.324292 31.673840 -0.579751 1.936416 0.155748 -0.036087 56648.000000 0 0 1
-23.868824 16.357043 -10.213492 30.685323 -0.600784 1.910117 0.139080 -0.024696 337857.000000 0 0 1
-23.837424 17.675143 -9.804692 31.253247 -0.638031 1.889902 0.095165 -0.017830 89036.100000 0 0 1
-22.779824 17.927343 -8.691292 30.262990 -0.666753 1.862090 0.099486 -0.020483 33766.400000 0 0 1
-23.117224 17.500143 -7.348692 29.910940 -0.647977 1.819023 0.131633 -0.030302 621430.000000 0 0 1
-24.042324 18.363743 -6.642592 30.973932 -0.652280 1.786933 0.125913 -0.029567 494438.000000 0 0 1
-24.490624 17.804743 -5.225992 30.726382 -0.628619 1.741709 0.134766 -0.023036 352730.000000 0 0 1
-23.350924 17.702643 -4.379692 29.628212 -0.648673 1.719162 0.131033 -0.035735 241667.000000 0 0 1
-23.675524 17.228143 -3.102192 29.444235 -0.629061 1.676350 0.127143 -0.037153 -184449.000000 0 0 1
-22.546524 16.900743 -2.082392 28.254508 -0.643241 1.644564 0.135105 -0.054752 46962.700000 0 0 1
-21.706424 18.006043 -1.779892 28.258706 -0.692487 1.633824 0.117158 -0.054094 833012.000000 0 0 1
-20.776124 17.685043 -0.710392 27.293090 -0.705202 1.596828 0.173528 -0.076562 881158.000000 0 0 1
-20.063624 18.937943 -0.109092 27.589973 -0.756544 1.574750 0.138272 -0.063340 -36099.500000 0 0 1
-21.021424 19.728043 0.542208 28.833834 -0.753669 1.551991 0.123345 -0.057658 88810.200000 0 0 1
-20.734724 21.123143 0.594908 29.605234 -0.794677 1.550700 0.136224 -0.056312 -313180.000000 0 0 1
-21.843724 21.861643 1.341008 30.933445 -0.785808 1.527431 0.105710 -0.042917 -328150.000000 0 0 1
-21.879124 21.616343 2.727908 30.877239 -0.779357 1.482334 0.130597 -0.045805 -160642.000000 0 0 1
-23.143624 21.477943 3.313408 31.747568 -0.748086 1.466239 0.103603 -0.037963 -235010.000000 0 0 1
-22.960624 21.130443 4.789408 31.569357 -0.743913 1.418498 0.124969 -0.031428 154777.000000 0 0 1
-22.258524 22.143543 5.479708 31.871705 -0.782809 1.398008 0.117432 -0.029551 367405.000000 0 0 1
-21.471424 21.776143 6.617208 31.289134 -0.792444 1.357701 0.120430 -0.028916 -84932.900000 0 0 1
-22.198524 21.558443 7.937208 31.945895 -0.770771 1.319708 0.093975 -0.037145 -615828.000000 0 0 1
-23.048824 20.404243 7.971508 31.798214 -0.724613 1.317403 0.104625 -0.036527 622035.000000 0 0 1
-23.485324 19.929043 9.246608 32.159400 -0.703666 1.279155 0.124513 -0.033337 9847.860000 0 0 1
-24.081224 20.974143 10.215008 33.528591 -0.716546 1.261209 0.140579 -0.035948 -61044.300000 0 0 1
-25.333764 21.488543 9.730008 34.615461 -0.703458 1.285868 0.160303 -0.037797 607469.000000 0 0 1
-26.043094 22.099743 10.772308 35.814578 -0.703671 1.265286 0.161633 -0.040477 582370.000000 0 0 1
-27.370604 22.845143 10.341108 37.121275 -0.695521 1.288485 0.159185 -0.037437 516309.000000 0 0 1
-27.918464 23.608043 11.331008 38.277567 -0.701938 1.270271 0.160559 -0.035820 -103459.000000 0 0 1
-27.606914 24.984743 11.184908 38.877774 -0.735580 1.278978 0.147279 -0.030895 62340.900000 0 0 1
-28.025154 25.756243 12.505408 40.064680 -0.743236 1.253362 0.165590 -0.036359 403342.000000 0 0 1
-27.040774 25.793243 13.524308 39.741688 -0.761790 1.223555 0.128618 -0.036799 21827.900000 0 0 1
-27.639754 26.223443 14.707408 40.840334 -0.759110 1.202400 0.153061 -0.033215 79479.600000 0 0 1
-26.673904 26.271343 15.900508 40.675629 -0.777795 1.169176 0.123081 -0.034886 -92692.200000 0 0 1
-26.400124 25.020443 16.491508 39.936938 -0.758573 1.145118 0.133592 -0.038827 -543992.000000 0 0 1
-25.314184 25.136343 17.331508 39.661377 -0.781873 1.118550 0.110372 -0.028886 -764018.000000 0 0 1
-24.879124 23.819643 18.033208 38.878565 -0.763646 1.088478 0.113326 -0.026068 -353837.000000 0 0 1
-23.698424 23.861243 18.782708 38.519662 -0.788822 1.061442 0.116317 -0.035590 10991.200000 0 0 1
-23.368424 22.618043 19.278808 37.806502 -0.769082 1.035689 0.127956 -0.044862 -208145.000000 0 0 1
-21.934924 22.509843 19.845008 37.170664 -0.798333 1.007603 0.129067 -0.042734 -307654.000000 0 0 1
-20.930624 22.686243 18.840708 36.162535 -0.825627 1.022773 0.127742 -0.043798 642617.000000 0 0 1
-19.637924 22.600243 19.434908 35.695024 -0.855417 0.995038 0.106732 -0.044538 319941.000000 0 0 1
-18.981224 21.199043 19.516908 34.505014 -0.840539 0.969605 0.095946 -0.036777 -777663.000000 0 0 1
-19.422824 20.263043 20.471308 34.740631 -0.806567 0.940652 0.119659 -0.037845 -61714.900000 0 0 1
-18.928224 20.422543 21.777808 35.350118 -0.823354 0.907065 0.108142 -0.032485 -614991.000000 0 0 1
-19.937924 20.032943 22.836608 36.336625 -0.787775 0.891207 0.108691 -0.029979 -730856.000000 0 0 1
-21.046524 20.880743 22.884208 37.451950 -0.781444 0.913437 0.118431 -0.026788 -371219.000000 0 0 1
-21.716424 20.821543 24.122308 38.561969 -0.764364 0.894964 0.119951 -0.023163 959904.000000 0 0 1
-22.944024 21.852443 24.098508 39.808235 -0.761035 0.920572 0.118808 -0.025069 264910.000000 0 0 1
-22.534824 23.133643 24.375508 40.461700 -0.798510 0.924249 0.128659 -0.033977 1039680.000000 0 0 1
-23.658124 24.019443 24.623508 41.748744 -0.792976 0.939982 0.122971 -0.037124 1372830.000000 0 0 1
-24.678924 24.258643 23.443308 41.798562 -0.776810 0.975367 0.104084 -0.035519 -7342.070000 0 0 1
-25.673254 23.294443 23.244908 41.738146 -0.736857 0.980121 0.086418 -0.033829 -59778.200000 0 0 1
-26.220424 23.257143 21.933708 41.346014 -0.725578 1.011616 0.080173 -0.026593 297067.000000 0 0 1
-27.506104 22.388343 21.825908 41.643654 -0.683184 1.019125 0.096793 -0.018962 216392.000000 0 0 1
-28.700334 22.973843 22.296308 42.995721 -0.675029 1.025618 0.074743 -0.030578 -5911.890000 0 0 1
-29.742214 22.018343 22.241608 43.175177 -0.637268 1.029616 0.085461 -0.026796 -110471.000000 0 0 1
-31.134004 22.652843 22.384608 44.537043 -0.629005 1.044185 0.107210 -0.013528 -837658.000000 0 0 1
-31.453884 23.481643 21.276508 44.647779 -0.641284 1.074080 0.113172 -0.025041 537347.000000 0 0 1
-32.835944 23.851643 21.322808 45.844981 -0.628218 1.087041 0.124037 -0.023261 921348.000000 0 0 1
-33.780794 22.839843 20.578308 45.675675 -0.594518 1.103436 0.129687 -0.036366 -772674.000000 0 0 1
-33.823614 21.569343 21.267208 45.404489 -0.567680 1.083324 0.117823 -0.034074 228051.000000 0 0 1
-34.373872 20.571543 20.395608 44.952556 -0.539290 1.099868 0.115233 -0.030805 -114711.000000 0 0 1
-35.911415 20.565243 20.324308 46.104625 -0.520078 1.114273 0.138882 -0.033287 -364824.000000 0 0 1
-36.408994 19.617143 19.365108 45.666778 -0.494203 1.132881 0.117889 -0.028302 -377883.000000 0 0 1
-37.805044 19.511943 19.421308 46.766703 -0.476460 1.142545 0.156172 -0.043771 377.811000 0 0 1
37.328020 18.721543 18.230808 45.565772 0.464880 1.159172 0.137672 -0.051986 78778.800000 0 0 1
37.463170 17.321143 18.351508 45.169558 0.433078 1.152417 0.137438 -0.049537 348416.000000 0 0 1
36.765700 16.584743 17.345208 43.904745 0.423762 1.164658 0.153302 -0.061883 109561.000000 0 0 1
36.961490 15.053243 17.497008 43.576337 0.386756 1.157614 0.169504 -0.073596 -470627.000000 0 0 1
35.894510 14.459843 16.843508 42.204344 0.382955 1.160268 0.194674 -0.067988 -371379.000000 0 0 1
36.205210 13.195243 16.379308 41.871391 0.349496 1.168881 0.181774 -0.068531 -508173.000000 0 0 1
35.193860 12.626843 15.420608 40.445520 0.344475 1.179628 0.179008 -0.075075 -576680.000000 0 0 1
35.319760 13.106943 14.115108 40.230755 0.355342 1.212314 0.180363 -0.067450 382228.000000 0 0 1
34.583310 12.322443 13.163408 39.001580 0.342287 1.226526 0.182704 -0.057236 -25980.700000 0 0 1
34.562170 12.909943 11.724708 38.712776 0.357480 1.263100 0.185981 -0.051553 -203388.000000 0 0 1
35.773010 12.737343 11.020808 39.539934 0.342063 1.288329 0.172271 -0.043501 322401.000000 0 0 1
35.571380 12.449943 9.651808 38.903490 0.336674 1.320082 0.174281 -0.042357 -1008300.000000 0 0 1
36.883550 12.575843 8.917908 39.975957 0.328599 1.345822 0.115176 -0.016595 -918853.000000 0 0 1
37.817110 11.579943 9.393608 40.650569 0.297143 1.337607 0.179863 -0.040185 109138.000000 0 0 1
-36.642874 11.753943 8.962108 39.511705 -0.310401 1.341983 0.200268 -0.040090 -200541.000000 0 0 1
-36.406094 11.342843 7.494408 38.861677 -0.302032 1.376732 0.166554 -0.046957 -908578.000000 0 0 1
-37.030954 12.197143 6.594708 39.541776 -0.318186 1.403235 0.153764 -0.048805 -254431.000000 0 0 1
-36.599754 11.897543 5.312308 38.849893 -0.314297 1.433627 0.186696 -0.058027 31118.500000 0 0 1
-37.352804 12.664843 4.174308 39.661759 -0.326896 1.465353 0.188252 -0.058955 -791150.000000 0 0 1
37.133410 12.283443 3.867808 39.303092 0.319462 1.472227 0.162148 -0.054112 -641618.000000 0 0 1
36.128350 13.307543 3.884108 38.696701 0.352920 1.470254 0.132389 -0.054526 497145.000000 0 0 1
35.598480 13.683343 5.248608 38.497189 0.366969 1.434033 0.119356 -0.039666 -925529.000000 0 0 1
34.860030 14.897243 5.294308 38.277660 0.403855 1.432038 0.103404 -0.032271 108140.000000 0 0 1
34.579170 15.357043 6.618508 38.410447 0.417947 1.397622 0.080044 -0.030169 454679.000000 0 0 1
33.243630 14.817043 7.230408 37.107445 0.419281 1.374691 0.128699 -0.040988 220403.000000 0 0 1
33.333360 13.487243 7.691008 36.771867 0.384480 1.360086 0.175942 -0.041527 -139998.000000 0 0 1
32.075530 12.950643 8.020408 35.508953 0.383739 1.342960 0.186943 -0.038666 -453883.000000 0 0 1
31.894450 11.538443 7.372508 34.709444 0.347121 1.356759 0.187682 -0.040322 -200593.000000 0 0 1
31.587220 11.653043 5.989208 34.196732 0.353426 1.394749 0.163943 -0.048324 278344.000000 0 0 1
31.606800 10.415243 5.330308 33.702808 0.318319 1.411973 0.178335 -0.045074 -309454.000000 0 0 1
31.183790 10.469843 3.842308 33.118118 0.323921 1.454516 0.153773 -0.046228 -548218.000000 0 0 1
29.810840 10.625843 3.664408 31.859420 0.342402 1.455523 0.148700 -0.044558 -537522.000000 0 0 1
29.555940 10.973543 2.309508 31.611803 0.355506 1.497673 0.176761 -0.052985 -806940.000000 0 0 1
28.064640 10.967443 2.024608 30.199468 0.372544 1.503705 0.198739 -0.040747 -815126.000000 0 0 1
27.666540 9.685943 1.559608 29.354511 0.336760 1.517641 0.189395 -0.034688 -950215.000000 0 0 1
26.302140 9.479443 1.571808 28.002375 0.345915 1.514636 0.185118 -0.035053 -944645.000000 0 0 1
25.864240 7.986743 1.428308 27.106956 0.299506 1.518080 0.201653 -0.037268 157490.000000 0 0 1
26.320240 7.284743 2.572708 27.430664 0.270014 1.476869 0.217814 -0.031881 145426.000000 0 0 1
27.671240 6.894343 2.524408 28.628694 0.244180 1.482504 0.249193 -0.040194 -525500.000000 0 0 1
28.167840 6.493943 3.932708 29.173013 0.226586 1.435578 0.240071 -0.045730 28043.600000 0 0 1
29.576040 6.320643 3.940008 30.499448 0.210541 1.441251 0.250098 -0.038801 397009.000000 0 0 1
29.956140 5.737543 5.176008 30.936722 0.189240 1.402696 0.235102 -0.028242 361642.000000 0 0 1
31.500190 5.670243 5.336408 32.448280 0.178099 1.405587 0.204785 -0.034036 566734.000000 0 0 1
32.178310 6.894243 5.697208 33.398090 0.211060 1.399373 0.207461 -0.038170 1457170.000000 0 0 1
33.516160 6.703043 6.241808 34.745128 0.197390 1.390170 0.189585 -0.036416 1520850.000000 0 0 1
33.909890 7.916143 7.166808 35.551499 0.229339 1.367816 0.157443 -0.044303 5014.600000 0 0 1
33.290350 7.854543 8.445808 35.231703 0.231703 1.328717 0.183882 -0.042375 54949.600000 0 0 1
33.947300 8.660043 9.372508 36.266506 0.249775 1.309395 0.212913 -0.043396 -237672.000000 0 0 1
33.371330 8.648243 10.841008 36.138141 0.253573 1.266116 0.218282 -0.045921 119196.000000 0 0 1
32.095880 9.259843 10.957108 35.156058 0.280878 1.253846 0.215397 -0.046963 336533.000000 0 0 1
31.774660 9.033343 12.340208 35.263452 0.276986 1.213286 0.211579 -0.045458 -947572.000000 0 0 1
30.351040 9.367843 12.742908 34.224608 0.299373 1.189276 0.182698 -0.043528 -1080180.000000 0 0 1
30.088940 10.764143 13.018008 34.506226 0.343557 1.183955 0.221409 -0.064294 201620.000000 0 0 1
30.101340 11.731143 11.947508 34.444932 0.371614 1.216577 0.222293 -0.060803 -64737.000000 0 0 1
29.066040 11.531843 10.794208 33.080705 0.377698 1.238410 0.170215 -0.046598 30495.100000 0 0 1
29.358040 12.453443 9.766008 33.352026 0.401186 1.273626 0.139456 -0.028771 313242.000000 0 0 1
28.267640 12.634643 8.880308 32.211078 0.420327 1.291488 0.137990 -0.034437 -64378.900000 0 0 1
28.279040 13.953043 8.079108 32.552473 0.458358 1.319988 0.146622 -0.036680 -230987.000000 0 0 1
27.751840 15.034843 8.760108 32.755925 0.496495 1.300065 0.141800 -0.028270 102040.000000 0 0 1
28.179840 16.220843 8.125208 33.514745 0.522299 1.325920 0.141550 -0.024290 -1010250.000000 0 0 1
27.557140 17.577643 8.626008 33.804992 0.567795 1.312773 0.154154 -0.035961 241862.000000 0 0 1
26.214640 17.886543 8.289808 32.800254 0.598755 1.315289 0.164687 -0.041100 507784.000000 0 0 1
25.251540 16.968243 8.832308 31.679192 0.591664 1.288247 0.190760 -0.038066 -1174700.000000 0 0 1
23.935340 17.699543 9.004208 31.100645 0.636730 1.277073 0.188774 -0.047853 -781988.000000 0 0 1
23.252740 18.226143 7.886308 30.579013 0.664802 1.309949 0.180571 -0.044483 -109027.000000 0 0 1
22.267940 19.155943 8.207008 30.498628 0.710413 1.298344 0.214966 -0.052609 -471668.000000 0 0 1
21.407140 19.604943 7.004008 29.860937 0.741483 1.334036 0.182067 -0.047524 -197728.000000 0 0 1
22.077040 20.255843 5.967808 30.550116 0.742404 1.374187 0.124283 -0.030624 -222135.000000 0 0 1
21.261340 20.371943 4.816508 29.837215 0.764039 1.408661 0.148777 -0.037887 129565.000000 0 0 1
18.928976 16.736643 32.447577 41.125012 0.724006 0.661619 0.143930 -0.046539 -72000.900000 0 0 1
18.173376 17.543043 31.582497 40.441119 0.767752 0.674611 0.133764 -0.043555 178861.000000 0 0 1
17.375276 16.768843 30.710776 39.067200 0.767639 0.666320 0.155921 -0.048725 39913.300000 0 0 1
16.891776 17.571343 29.460196 38.235943 0.805114 0.691196 0.158449 -0.056264 317592.000000 0 0 1
17.975876 17.806243 28.555056 38.152138 0.780657 0.725071 0.154394 -0.049864 678953.000000 0 0 1
17.458976 18.023643 27.232116 37.030470 0.801311 0.744543 0.140248 -0.051567 408003.000000 0 0 1
18.553676 18.416943 26.193816 37.007279 0.781700 0.784415 0.125504 -0.045790 157856.000000 0 0 1
19.080076 19.680543 26.471696 38.106742 0.800889 0.802832 0.122181 -0.038667 -827547.000000 0 0 1
20.215976 19.982143 25.777316 38.372409 0.779581 0.834205 0.124276 -0.042666 -1194220.000000 0 0 1
20.714676 21.366243 26.060736 39.557251 0.800881 0.851560 0.150333 -0.043762 -375853.000000 0 0 1
19.869776 22.422943 25.671896 39.454311 0.845694 0.862325 0.116610 -0.044537 208840.000000 0 0 1
20.392276 23.592843 26.209256 40.735639 0.858035 0.871867 0.119272 -0.041368 63171.800000 0 0 1
19.534576 24.759643 25.663776 40.660411 0.902818 0.887731 0.132930 -0.044807 279102.000000 0 0 1
19.911976 25.318443 24.389606 40.402515 0.904365 0.922705 0.137099 -0.041549 344180.000000 0 0 1
19.096576 26.474843 24.235106 40.656327 0.945911 0.932165 0.141125 -0.046261 -125638.000000 0 0 1
19.311176 27.364043 22.998446 40.628080 0.956246 0.969062 0.123762 -0.043667 325613.000000 0 0 1
20.583476 28.013243 23.010156 41.687991 0.937110 0.986082 0.149744 -0.040738 263231.000000 0 0 1
20.721076 28.866043 21.886216 41.732696 0.948200 1.018741 0.140120 -0.040664 -395759.000000 0 0 1
21.978976 29.709343 21.681216 42.846185 0.933855 1.040227 0.149508 -0.033393 -263926.000000 0 0 1
23.097876 28.904443 21.378316 42.731851 0.896597 1.046863 0.157960 -0.036938 152037.000000 0 0 1
24.278576 29.553943 20.917216 43.593746 0.883082 1.070345 0.151008 -0.044317 409934.000000 0 0 1
24.512176 29.779243 19.406316 43.177022 0.882110 1.104636 0.140773 -0.043245 125108.000000 0 0 1
23.640376 30.751943 18.781916 43.096517 0.915407 1.119858 0.118743 -0.036159 562071.000000 0 0 1
23.903876 30.860543 17.408116 42.741209 0.911750 1.151310 0.124873 -0.023136 -98846.600000 0 0 1
23.075176 31.911343 16.627416 42.746562 0.944733 1.171276 0.127965 -0.032735 -226960.000000 0 0 1
23.639276 33.203543 16.847716 44.103698 0.952095 1.178834 0.126089 -0.035221 367349.000000 0 0 1
23.715576 -33.528662 15.734816 43.979361 -0.955173 1.204910 0.116217 -0.039894 -133581.000000 0 0 1
24.684776 33.705643 14.594116 44.253777 0.938679 1.234723 0.099928 -0.038265 -115704.000000 0 0 1
24.250776 32.527943 13.971116 42.911063 0.930158 1.239168 0.129118 -0.040061 540296.000000 0 0 1
23.214476 32.751443 12.997316 42.195961 0.954184 1.257682 0.094434 -0.038072 124504.000000 0 0 1
22.808376 31.454143 12.218316 40.729257 0.943402 1.266116 0.103762 -0.050185 -957049.000000 0 0 1
23.688876 31.015643 11.278116 40.624240 0.918539 1.289480 0.126466 -0.061085 -616762.000000 0 0 1
23.301576 29.705943 10.842616 39.280642 0.905635 1.291136 0.109275 -0.058093 -816544.000000 0 0 1
24.414376 29.036543 10.046316 39.244249 0.871659 1.311920 0.104128 -0.053256 637649.000000 0 0 1
25.643476 28.663043 10.664816 39.911104 0.840943 1.300295 0.117036 -0.048758 430381.000000 0 0 1
26.524176 29.682943 11.063916 41.316089 0.841538 1.299701 0.116303 -0.047296 -182732.000000 0 0 1
28.022076 29.250343 11.094516 41.998900 0.806841 1.303461 0.122743 -0.044798 528673.000000 0 0 1
28.240776 28.184243 11.999416 41.663881 0.784396 1.278653 0.129574 -0.045653 -414027.000000 0 0 1
29.554676 28.306543 12.483316 42.785189 0.763830 1.274722 0.110981 -0.028770 -91658.900000 0 0 1
29.958976 27.217043 13.470316 42.658611 0.737479 1.249528 0.106467 -0.045387 915629.000000 0 0 1
31.255776 27.292943 14.095416 43.823613 0.717817 1.243336 0.076368 -0.049337 823836.000000 0 0 1
31.390976 26.209143 14.996416 43.556917 0.695678 1.219309 0.082496 -0.042865 -449135.000000 0 0 1
32.510476 26.287343 16.007716 44.768319 0.679951 1.205134 0.095392 -0.052977 -239215.000000 0 0 1
33.835076 26.102843 15.522716 45.465652 0.657103 1.222373 0.113821 -0.042351 -289920.000000 0 0 1
34.638976 26.114343 16.665316 46.470962 0.645993 1.204009 0.100436 -0.040078 341088.000000 0 0 1
36.159476 26.112843 16.298016 47.486983 0.625443 1.220464 0.126539 -0.052772 631226.000000 0 0 1
36.633276 27.283143 15.664916 48.288263 0.640142 1.240415 0.128500 -0.038534 698369.000000 0 0 1
-37.714189 27.326943 15.510216 49.088580 -0.627033 1.249324 0.155953 -0.039850 1151720.000000 0 0 1
-37.269189 28.531043 14.674416 49.176736 -0.653373 1.267779 0.116907 -0.036674 18836.800000 0 0 1
-37.697489 29.774143 15.150316 50.369955 -0.668501 1.265285 0.109959 -0.041552 -90342.100000 0 0 1
-37.811389 30.587743 14.007916 50.611589 -0.680178 1.290362 0.096322 -0.010275 363759.000000 0 0 1
37.084276 31.841243 14.358316 50.943788 0.709476 1.285078 0.071211 -0.017434 -57806.300000 0 0 1
36.969976 32.708443 13.244816 51.108184 0.724314 1.308652 0.038239 -0.017678 278368.000000 0 0 1
36.010976 33.736043 13.434216 51.140875 0.752793 1.304987 0.036248 -0.016918 439894.000000 0 0 1
34.537676 33.432043 13.052516 49.808842 0.769133 1.305648 0.081657 -0.018719 452003.000000 0 0 1
33.866376 32.524543 13.967516 48.988456 0.765190 1.281666 0.071545 -0.030632 166323.000000 0 0 1
32.683876 32.032843 13.365416 47.675708 0.775339 1.286648 0.095222 -0.020675 -57003.700000 0 0 1
32.045676 30.863743 14.249216 46.717621 0.766613 1.260850 0.125208 -0.032855 -86173.700000 0 0 1
31.299076 31.362743 15.333516 46.886784 0.786414 1.237634 0.114915 -0.041477 -93047.200000 0 0 1
30.782976 30.314243 16.080616 46.099145 0.777726 1.214477 0.110627 -0.040637 -71260.200000 0 0 1
29.868276 30.700043 17.269916 46.182860 0.799130 1.187536 0.097918 -0.038927 110297.000000 0 0 1
29.539576 29.608843 18.142416 45.589663 0.786569 1.161515 0.078473 -0.030799 469518.000000 0 0 1
30.523876 29.497643 19.185916 46.582371 0.768302 1.146290 0.069069 -0.030880 546010.000000 0 0 1
30.224176 28.287843 20.160816 46.045210 0.752317 1.117592 0.058148 -0.024645 -175549.000000 0 0 1
29.094176 28.379643 20.985916 45.741490 0.772966 1.094159 0.079938 -0.029856 -135428.000000 0 0 1
29.196176 27.317943 21.940816 45.607961 0.752176 1.068917 0.066556 -0.024034 -696793.000000 0 0 1
28.003076 27.308743 22.860816 45.305150 0.772846 1.041882 0.090313 -0.031223 -1578530.000000 0 0 1
26.832076 27.079743 22.128616 44.078889 0.789992 1.044860 0.141420 -0.037934 -135141.000000 0 0 1
25.647176 26.888443 22.898036 43.647292 0.809021 1.018533 0.166771 -0.044098 419359.000000 0 0 1
25.635876 25.702243 23.917366 43.472334 0.786691 0.988223 0.132577 -0.045857 -1269440.000000 0 0 1
26.453576 25.846543 25.071006 44.680989 0.773792 0.975069 0.116574 -0.037879 15698.500000 0 0 1
26.320076 24.820943 26.045046 44.577685 0.756093 0.946826 0.149089 -0.044043 -458205.000000 0 0 1
27.635876 24.643043 26.829596 45.725796 0.728213 0.943757 0.146507 -0.044763 97173.200000 0 0 1
28.047576 25.577043 27.842376 47.074936 0.739360 0.937943 0.182234 -0.041330 306172.000000 0 0 1
28.330976 26.878943 27.318206 47.659272 0.759104 0.960393 0.139792 -0.029962 -834605.000000 0 0 1
28.870476 27.924243 28.310796 49.140298 0.768739 0.956820 0.084122 -0.012065 -1795070.000000 0 0 1
30.221776 27.937143 28.485546 50.052633 0.746136 0.965371 0.071299 -0.008791 -1588200.000000 0 0 1
30.517076 29.081443 29.280716 51.326237 0.761314 0.963703 0.077981 -0.010827 -1730180.000000 0 0 1
31.982076 29.245843 29.406146 52.372645 0.740739 0.974624 0.069160 -0.001508 -1600480.000000 0 0 1
32.547276 29.707543 28.165746 52.298877 0.739815 1.002077 0.058369 -0.006855 -592197.000000 0 0 1
33.937976 29.712143 28.302016 53.250369 0.719104 1.010438 0.073285 -0.011791 -140231.000000 0 0 1
34.715776 30.286143 27.067986 53.433243 0.717357 1.039588 0.075223 -0.010702 -36170.900000 0 0 1
34.489776 31.662243 26.937326 54.015385 0.742681 1.048701 0.068502 -0.007044 133659.000000 0 0 1
34.765876 32.116443 25.628226 53.823211 0.745806 1.074519 0.068580 -0.014804 -149700.000000 0 0 1
34.463276 33.607843 25.384796 54.420514 0.772832 1.085516 0.062023 -0.020238 -24586.400000 0 0 1
35.250576 -33.234562 26.264416 55.108609 -0.755969 1.074020 0.082508 -0.025694 355598.000000 0 0 1
34.843176 -31.867462 26.263636 54.031108 -0.740821 1.063194 0.081756 -0.013553 -39973.500000 0 0 1
35.838776 -30.874462 26.905146 54.420007 -0.711122 1.053654 0.078893 -0.015094 -105478.000000 0 0 1
35.761176 -31.012462 28.310996 55.155662 -0.714401 1.031779 0.090847 -0.025055 519280.000000 0 0 1
36.875576 -30.450562 29.004696 55.931362 -0.690255 1.025611 0.085103 -0.028052 -37917.100000 0 0 1
36.638976 -30.016962 30.484336 56.326968 -0.686377 0.998929 0.098046 -0.033133 -207583.000000 0 0 1
36.599076 -31.046062 31.524443 57.420735 -0.703491 0.989619 0.095524 -0.029320 26703.700000 0 0 1
35.478076 -31.876462 31.358856 57.080475 -0.731977 0.989175 0.094802 -0.031801 -474753.000000 0 0 1
35.304876 -32.932662 32.413190 58.151607 -0.750648 0.979556 0.091750 -0.026287 -559504.000000 0 0 1
35.032576 -32.271362 33.636396 58.310628 -0.744395 0.955931 0.079113 -0.026015 72669.300000 0 0 1
34.968676 -33.157662 -32.616922 58.190226 -0.758821 2.165813 0.088943 -0.025620 15512.600000 0 0 1
33.805576 33.499343 -32.523412 57.643692 0.780848 2.170278 0.097268 -0.022143 -410576.000000 0 0 1
34.046076 32.504843 -33.541472 57.799052 0.762244 2.189908 0.102430 -0.022679 56160.700000 0 0 1
33.324976 31.305543 -33.266392 56.544176 0.754163 2.199783 0.101264 -0.012361 90228.800000 0 0 1
33.462176 30.170043 33.074527 55.891619 0.733707 0.937554 0.099340 -0.010325 -589157.000000 0 0 1
34.795976 29.775843 33.111342 56.513023 0.707809 0.944798 0.103034 -0.012213 -580754.000000 0 0 1
34.952476 28.883443 32.048102 55.524857 0.690611 0.955519 0.093219 -0.007695 880617.000000 0 0 1
36.379776 28.208743 31.974243 56.049741 0.659558 0.963728 0.087052 -0.006653 843886.000000 0 0 1
36.750776 27.192143 32.919326 56.335728 0.637010 0.946727 0.077509 0.002307 870566.000000 0 0 1
-37.644589 26.833743 32.795376 56.680698 -0.619277 0.953787 0.072399 -0.011228 966651.000000 0 0 1
-37.318089 25.459243 33.560846 56.277378 -0.598695 0.931854 0.069736 -0.011235 144762.000000 0 0 1
-37.770789 24.388243 32.792954 55.648870 -0.573340 0.940625 0.066850 -0.003519 -17518.500000 0 0 1
-37.747889 23.137243 33.482766 55.509736 -0.549881 0.923305 0.067228 -0.008897 -38935.100000 0 0 1
37.545776 21.924143 32.625546 54.357884 0.528520 0.927046 0.070122 -0.016616 -18382.500000 0 0 1
-37.230289 21.423743 31.767138 53.424922 -0.522164 0.934012 0.069282 -0.011092 140597.000000 0 0 1
-37.757889 20.341743 31.036916 52.940862 -0.494158 0.944366 0.060312 -0.008407 113946.000000 0 0 1
-36.758989 19.613043 30.112216 51.406617 -0.490132 0.944972 0.063937 -0.023030 -75834.800000 0 0 1
-36.313289 20.410943 29.009596 50.762370 -0.512070 0.962490 0.058019 -0.012254 -195380.000000 0 0 1
-35.169589 19.859043 28.396346 49.372402 -0.514033 0.958014 0.056440 -0.016139 -78511.700000 0 0 1
-35.367089 18.699743 27.377886 48.477418 -0.486369 0.970659 0.085863 -0.018658 -261406.000000 0 0 1
-35.786589 17.484443 27.949236 48.657430 -0.454466 0.958915 0.086672 -0.023420 112585.000000 0 0 1
-36.438789 16.573543 27.085986 48.333408 -0.426865 0.975929 0.104880 -0.029076 148056.000000 0 0 1
-37.133089 15.395743 27.828876 48.891120 -0.393037 0.965263 0.099758 -0.035491 343464.000000 0 0 1
-36.183989 14.535043 28.466716 48.279421 -0.381969 0.940203 0.107916 -0.037307 312404.000000 0 0 1
-36.740189 13.791243 29.507896 49.099448 -0.359097 0.926067 0.116974 -0.054991 -210451.000000 0 0 1
-35.806789 12.640343 29.937276 48.354368 -0.339358 0.903172 0.123573 -0.048799 -371453.000000 0 0 1
-34.508189 13.095843 30.161026 47.665540 -0.362710 0.885679 0.119676 -0.042474 -528652.000000 0 0 1
-33.651989 12.025843 30.482396 46.970776 -0.343216 0.864573 0.106941 -0.036138 697548.000000 0 0 1
-32.142389 12.454243 30.542396 46.055177 -0.369659 0.845751 0.114988 -0.032130 48968.000000 0 0 1
-31.400589 12.495443 29.321136 44.742174 -0.378726 0.856170 0.104093 -0.031698 582919.000000 0 0 1
-29.998789 12.636443 29.446866 43.894476 -0.398675 0.835434 0.085456 -0.029314 809533.000000 0 0 1
-29.133889 11.460343 30.077196 43.413831 -0.374776 0.805429 0.094730 -0.020607 -57256.700000 0 0 1
-28.684489 10.587143 29.035006 42.165378 -0.353579 0.811242 0.106828 -0.023521 1337.990000 0 0 1
-27.794989 9.624343 29.574746 41.711569 -0.333341 0.782675 0.078250 -0.013502 -534173.000000 0 0 1
-27.467789 8.510343 28.507766 40.491951 -0.300451 0.789732 0.070298 -0.014998 236154.000000 0 0 1
-28.415589 7.469543 28.193706 40.720079 -0.257052 0.806016 0.082663 -0.024594 200356.000000 0 0 1
-29.650289 7.960843 27.702026 41.351142 -0.262305 0.836693 0.090809 -0.028756 107180.000000 0 0 1
-30.716489 6.830843 27.543246 41.818579 -0.218823 0.851791 0.093796 -0.023933 173885.000000 0 0 1
-31.269689 6.409443 28.771106 42.972677 -0.202173 0.837233 0.094369 -0.022612 -241345.000000 0 0 1
-31.866089 5.166343 28.629716 43.148574 -0.160728 0.845289 0.114467 -0.023733 -42358.100000 0 0 1
-32.662389 4.675543 29.884156 44.516909 -0.142182 0.834836 0.118592 -0.018718 157707.000000 0 0 1
-33.760789 5.487543 30.208266 45.633796 -0.161133 0.847350 0.129969 -0.029212 -425731.000000 0 0 1
-34.443189 5.076843 31.347330 46.848295 -0.146344 0.837767 0.134078 -0.023289 630688.000000 0 0 1
-35.923889 5.537943 31.529894 48.117864 -0.152954 0.856265 0.142870 -0.025163 627627.000000 0 0 1
-36.130289 6.918843 31.813069 48.634757 -0.189206 0.857775 0.143148 -0.030537 992391.000000 0 0 1
-37.529389 7.272443 31.945207 49.818066 -0.191408 0.874687 0.147252 -0.034415 1248060.000000 0 0 1
-37.640089 8.744443 32.279060 50.350564 -0.228268 0.874883 0.134329 -0.031844 -15026.600000 0 0 1
-37.360089 8.862143 33.675586 51.072096 -0.232904 0.850811 0.137249 -0.034808 116584.000000 0 0 1
-37.798089 10.080843 -33.173852 51.291553 -0.260636 2.274138 0.137724 -0.035873 38039.300000 0 0 1
-37.816689 9.928643 -31.594122 50.267967 -0.256752 2.250438 0.123460 -0.032186 -1447940.000000 0 0 1
36.771476 9.473843 -31.143712 49.110344 0.252157 2.257715 0.144731 -0.031106 -1460370.000000 0 0 1
36.663376 9.564243 -29.702562 48.144782 0.255179 2.235648 0.123578 -0.028689 -30483.700000 0 0 1
35.227076 9.237943 -29.241212 46.704763 0.256465 2.247320 0.103756 -0.021905 -472.017000 0 0 1
34.988076 7.871243 -29.191392 46.241316 0.221285 2.254004 0.109056 -0.027972 565935.000000 0 0 1
33.625476 7.503443 -28.989652 45.026372 0.219551 2.270299 0.124538 -0.034190 267775.000000 0 0 1
36.908260 5.898943 -19.362892 42.094403 0.158487 2.048777 0.079157 -0.009378 -460212.000000 0 0 1
36.262190 6.888443 -18.569692 41.318646 0.187725 2.036920 0.064458 -0.009715 454735.000000 0 0 1
36.879890 8.181543 -18.468692 42.049453 0.218307 2.025519 0.047962 -0.009981 210433.000000 0 0 1
-37.436214 8.260043 -17.914292 42.315722 -0.217164 2.007934 0.076878 -0.017756 719991.000000 0 0 1
-36.369994 7.658843 -18.632592 41.576530 -0.207549 2.035493 0.091223 -0.020930 198989.000000 0 0 1
-35.840972 8.571343 -19.578492 41.729613 -0.234740 2.059153 0.076225 -0.012627 -225656.000000 0 0 1
-34.786886 7.916043 -20.523492 41.158291 -0.223748 2.092834 0.062498 -0.011227 48616.400000 0 0 1
-35.314109 6.757043 -21.157192 41.717751 -0.189056 2.102672 0.065433 -0.004656 353032.000000 0 0 1
-36.108804 7.033843 -22.291192 43.014160 -0.192387 2.115575 0.049149 0.000951 88375.900000 0 0 1
-36.284714 5.876643 -23.319992 43.530880 -0.160565 2.136146 0.078370 -0.004853 482049.000000 0 0 1
-35.124725 5.718543 -24.139692 43.002009 -0.161391 2.166827 0.086435 -0.014660 410071.000000 0 0 1
-34.925683 4.402043 -24.530492 42.906018 -0.125379 2.179405 0.099386 -0.015560 -645646.000000 0 0 1
-33.768974 4.197043 -25.500552 42.523370 -0.123653 2.213902 0.106414 -0.024513 -141005.000000 0 0 1
-32.560034 4.454343 -24.805092 41.173895 -0.135960 2.217360 0.103867 -0.024415 244829.000000 0 0 1
-31.394604 3.961943 -25.469662 40.620461 -0.125535 2.248513 0.112769 -0.029852 829697.000000 0 0 1
-30.065664 4.104143 -24.684992 39.116966 -0.135667 2.253710 0.105760 -0.033750 160175.000000 0 0 1
-29.492654 5.385743 -24.782492 38.897234 -0.180623 2.261562 0.074288 -0.019858 119728.000000 0 0 1
-28.226034 5.510443 -24.152692 37.555646 -0.192801 2.269359 0.086079 -0.029569 375899.000000 0 0 1
-27.748754 6.968543 -24.336792 37.561063 -0.246042 2.275655 0.077804 -0.021285 185747.000000 0 0 1
-28.612314 7.906643 -23.704092 37.987676 -0.269609 2.244640 0.075458 -0.017685 26527.000000 0 0 1
-28.344124 9.189543 -24.197292 38.384190 -0.313520 2.252861 0.063492 -0.021201 520209.000000 0 0 1
-27.048654 9.936243 -23.730092 37.329290 -0.352044 2.259707 0.100423 -0.017789 474657.000000 0 0 1
-27.089694 10.309443 -22.411192 36.638746 -0.363642 2.228979 0.075243 -0.016967 357301.000000 0 0 1
-25.754944 10.607743 -22.025492 35.510050 -0.390699 2.239871 0.119717 -0.022438 16572.600000 0 0 1
-25.541234 11.019843 -20.520092 34.566831 -0.407324 2.206365 0.148800 -0.043138 -1166330.000000 0 0 1
-25.965234 12.274043 -20.151292 35.084471 -0.441579 2.182625 0.138085 -0.041498 1828110.000000 0 0 1
-27.386844 12.401443 -19.828992 36.014219 -0.425201 2.153865 0.132020 -0.020614 1613910.000000 0 0 1
-28.115304 11.416843 -18.849592 35.722847 -0.385730 2.126642 0.104589 -0.016930 -793432.000000 0 0 1
-27.679394 11.502243 -17.544692 34.731350 -0.393841 2.100357 0.120664 -0.024399 203122.000000 0 0 1
-28.396704 10.553543 -16.780692 34.631513 -0.355828 2.076645 0.120367 -0.025135 -578722.000000 0 0 1
-27.827314 10.175943 -15.406592 33.395693 -0.350576 2.050295 0.167785 -0.023422 -152294.000000 0 0 1
-26.770844 9.249443 -15.356592 32.218865 -0.332664 2.067618 0.194065 -0.026201 163180.000000 0 0 1
-25.485434 9.819043 -15.455592 31.381464 -0.367753 2.085764 0.182681 -0.022331 -665074.000000 0 0 1
-24.398224 8.762543 -15.345192 30.125246 -0.344800 2.105260 0.127535 -0.022424 -1077030.000000 0 0 1
-23.100824 9.172943 -15.135692 29.101205 -0.377989 2.117771 0.103086 -0.014727 -389587.000000 0 0 1
-22.149824 8.135643 -14.926792 27.921543 -0.352003 2.134828 0.115845 -0.016475 -153943.000000 0 0 1
-20.709624 8.639343 -14.958292 26.968079 -0.395216 2.158759 0.144904 -0.029343 -614689.000000 0 0 1
-20.200824 8.788743 -16.261992 27.381886 -0.410368 2.206689 0.152684 -0.046252 1034100.000000 0 0 1
-18.793924 9.081943 -16.209492 26.428033 -0.450149 2.231085 0.147651 -0.046709 426755.000000 0 0 1
-18.191524 9.553443 -17.531592 27.010305 -0.483572 2.277158 0.117120 -0.029867 -187980.000000 0 0 1
-18.025724 8.558443 -18.555692 27.248622 -0.443277 2.319893 0.167293 -0.049142 705919.000000 0 0 1
-16.979924 7.577943 -18.354292 26.127057 -0.419763 2.349702 0.178050 -0.047222 -170019.000000 0 0 1
-16.700224 6.686743 -19.546192 26.564331 -0.380850 2.397652 0.171230 -0.048541 -263079.000000 0 0 1
-17.692924 5.827743 -20.035792 27.357543 -0.318191 2.392590 0.162176 -0.038358 -682711.000000 0 0 1
-18.611924 6.501343 -20.835192 28.684080 -0.336061 2.383819 0.140733 -0.040470 -368582.000000 0 0 1
-19.669624 5.607743 -21.527692 29.694822 -0.277729 2.381779 0.132028 -0.026293 123942.000000 0 0 1
-20.520024 4.936943 -20.588492 29.484417 -0.236104 2.343794 0.131838 -0.031247 516881.000000 0 0 1
-21.067524 3.745443 -21.189292 30.114034 -0.175944 2.351297 0.094645 -0.014042 -391274.000000 0 0 1
-21.914224 2.966543 -20.197092 29.949226 -0.134553 2.310918 0.104565 -0.014852 -428985.000000 0 0 1
-22.277124 1.674343 -20.658892 30.428006 -0.075019 2.317119 0.127990 -0.011332 143968.000000 0 0 1
-23.076624 1.161743 -19.596492 30.296910 -0.050300 2.274197 0.112520 -0.012732 -524182.000000 0 0 1
-23.783624 -0.123557 -19.966492 31.053774 0.005195 2.269160 0.124817 -0.000551 -838606.000000 0 0 1
-22.973624 -1.238757 -20.108292 30.555938 0.053869 2.289064 0.094671 -0.012337 -416245.000000 0 0 1
-23.593724 -2.399857 -20.596392 31.410739 0.101367 2.285921 0.119398 -0.021992 -460100.000000 0 0 1
-23.958624 -2.422857 -22.114092 32.694327 0.100784 2.313646 0.127150 -0.021955 1103780.000000 0 0 1
-22.799924 -2.403757 -22.983692 32.463282 0.105040 2.357445 0.077847 -0.019013 1014860.000000 0 0 1
-21.964124 -3.551557 -22.981592 31.987340 0.160311 2.372381 0.059092 -0.026746 380707.000000 0 0 1
-20.895724 -3.559957 -24.113992 32.105906 0.168748 2.420487 0.056706 -0.020768 -172157.000000 0 0 1
-21.578024 -3.527757 -25.312542 33.448184 0.162055 2.429152 0.049875 -0.027207 -571067.000000 0 0 1
-20.885524 -3.832957 -26.450672 33.919533 0.181502 2.465153 0.045978 -0.026186 -1009560.000000 0 0 1
-21.727224 -3.964757 -27.725022 35.446698 0.180493 2.468923 0.041441 -0.030737 -352096.000000 0 0 1
-22.621324 -5.039557 -27.611122 36.048516 0.219199 2.443304 0.060045 -0.031419 -239942.000000 0 0 1
-23.353124 -5.280257 -28.779272 37.436560 0.222366 2.447677 0.044045 -0.026581 -478912.000000 0 0 1
-22.879724 -6.469457 -29.681112 38.030305 0.275566 2.466197 0.062490 -0.030325 -467852.000000 0 0 1
-21.656124 -6.112357 -30.246302 37.698640 0.275090 2.501965 0.058810 -0.034845 -390391.000000 0 0 1
-21.006224 -7.202357 -30.841832 38.004658 0.330307 2.517558 0.067469 -0.031262 741447.000000 0 0 1
-19.560924 -7.003857 -31.446402 37.690317 0.343831 2.557724 0.078830 -0.037845 540023.000000 0 0 1
-19.517824 -6.488557 -32.807912 38.722163 0.320949 2.581610 0.070298 -0.044255 378597.000000 0 0 1
-19.828424 -7.533857 33.647906 39.775709 0.363105 0.562469 0.081679 -0.038741 -562748.000000 0 0 1
-19.563324 -7.210157 32.153635 38.321878 0.353108 0.575278 0.076947 -0.039717 -293086.000000 0 0 1
-18.232424 -7.030357 31.738617 37.271800 0.368028 0.551871 0.094435 -0.040347 127963.000000 0 0 1
-17.672724 -5.731457 32.010435 37.011387 0.313608 0.525884 0.064554 -0.036700 -344207.000000 0 0 1
-16.396724 -5.471457 31.220456 35.686220 0.322073 0.505649 0.065460 -0.033384 -434170.000000 0 0 1
-16.679324 -5.285657 29.869936 34.617209 0.306887 0.529888 0.073937 -0.036360 313481.000000 0 0 1
-15.546224 -4.769057 29.203396 33.425550 0.297653 0.508070 0.060386 -0.023669 71554.900000 0 0 1
-15.812124 -4.801057 27.645776 32.208111 0.294785 0.538755 0.081743 -0.023937 424085.000000 0 0 1
-16.810524 -3.857657 27.215386 32.220374 0.225573 0.564859 0.082948 -0.029415 378597.000000 0 0 1
-17.197924 -4.053457 25.882076 31.338172 0.231470 0.599006 0.101435 -0.032510 173670.000000 0 0 1
-16.086924 -3.735157 24.838466 29.827671 0.228143 0.586772 0.105838 -0.026321 253266.000000 0 0 1
-15.700324 -2.388657 24.799696 29.448783 0.150983 0.569576 0.098325 -0.020838 -91499.600000 0 0 1
-14.617824 -2.204557 23.904896 28.106671 0.149685 0.553849 0.106265 -0.020842 162322.000000 0 0 1
-14.201724 -0.724657 23.870906 27.785505 0.050982 0.537261 0.102017 -0.023718 -257591.000000 0 0 1
-15.144024 0.098943 23.215086 27.718072 -0.006533 0.578025 0.098177 -0.025976 39173.000000 0 0 1
-15.431124 1.254143 23.947066 28.515863 -0.081095 0.573917 0.065002 -0.015467 -84820.000000 0 0 1
-16.107924 2.389743 23.137496 28.293459 -0.147284 0.613273 0.070077 -0.021309 -408174.000000 0 0 1
-15.327724 2.996543 22.152216 27.104227 -0.193063 0.614091 0.055006 -0.023412 -102933.000000 0 0 1
-16.044324 3.952343 21.385716 27.025733 -0.241530 0.657849 0.069623 -0.022566 -315005.000000 0 0 1
-15.215524 4.621243 20.281316 25.772075 -0.294865 0.664947 0.067156 -0.017705 -5146.310000 0 0 1
-14.429424 5.641043 20.888316 26.006757 -0.372672 0.638169 0.048770 -0.018630 -176430.000000 0 0 1
-13.203424 5.761243 20.236716 24.840431 -0.411440 0.618639 0.032376 -0.012505 -417828.000000 0 1 0
-12.293124 6.960943 20.583116 24.964782 -0.515231 0.601503 0.018086 -0.008231 103184.000000 0 1 0
-12.776324 8.240843 20.177316 25.264007 -0.572859 0.645733 0.031316 -0.009862 -154965.000000 0 0 1
-11.779424 9.187443 20.352316 25.246401 -0.662399 0.633185 0.025024 -0.008681 -487004.000000 0 0 1
-12.326524 10.595143 20.441116 26.115886 -0.710007 0.671791 0.018506 -0.004999 -359614.000000 0 0 1
-12.739524 10.978943 19.110216 25.456493 -0.711306 0.721674 0.032311 -0.009198 284201.000000 0 0 1
-13.324424 12.252843 19.137416 26.342232 -0.743527 0.757593 0.020878 -0.007754 -328341.000000 0 0 1
-13.876224 12.746243 17.735716 25.876089 -0.742979 0.815630 0.039701 -0.015553 262046.000000 0 0 1
-12.931424 13.427343 16.880116 25.148630 -0.804210 0.834951 0.042235 -0.020900 430700.000000 0 0 1
-12.695724 14.772043 17.276316 26.035856 -0.860846 0.845231 0.063945 -0.035537 -186102.000000 0 0 1
-13.682924 15.978543 16.859716 26.958974 -0.862638 0.895173 0.065755 -0.024388 404059.000000 0 0 1
-13.638324 16.398943 15.511916 26.373259 -0.877047 0.942004 0.063675 -0.042582 46752.200000 0 0 1
-14.229124 15.507143 14.584716 25.605730 -0.828350 0.964792 0.086437 -0.045303 -318592.000000 0 0 1
-14.733324 16.157643 13.268816 25.577368 -0.831473 1.025383 0.080392 -0.045989 277212.000000 0 0 1
-15.937824 16.833143 13.599416 26.875883 -0.812712 1.040246 0.076836 -0.036062 248373.000000 0 0 1
-16.507624 17.545843 12.468616 27.126088 -0.815877 1.093191 0.086268 -0.033305 260288.000000 0 0 1
-17.795424 18.352243 12.764716 28.573063 -0.800801 1.107679 0.089884 -0.032061 -1060760.000000 0 0 1
-18.934324 17.610343 12.798316 28.851858 -0.749185 1.111199 0.099230 -0.032834 -1655800.000000 0 0 1
-20.038424 18.476243 12.824316 30.122634 -0.744860 1.131020 0.107523 -0.036435 -170757.000000 0 0 1
-21.349024 17.670143 12.960216 30.593823 -0.691392 1.133356 0.115241 -0.029317 34125.800000 0 0 1
-21.843524 17.175543 11.744716 30.167486 -0.666331 1.170906 0.115057 -0.036426 445991.000000 0 0 1
-23.222024 16.799443 11.779516 30.987751 -0.626276 1.180855 0.123929 -0.034281 801533.000000 0 0 1
-23.755024 16.143343 10.487516 30.576081 -0.596887 1.220690 0.126765 -0.030297 33143.500000 0 0 1
-23.162124 14.884343 10.279916 29.388848 -0.571167 1.213450 0.101180 -0.017248 247204.000000 0 0 1
-23.555624 14.375843 8.981016 29.020527 -0.547954 1.256159 0.111842 -0.015529 420202.000000 0 0 1
-22.720824 13.084243 8.554216 27.579121 -0.522488 1.255424 0.132433 -0.009817 -271588.000000 0 0 1
-22.759324 11.893243 9.339816 27.325231 -0.481537 1.221963 0.123412 -0.009574 573612.000000 0 0 1
-24.024124 11.306843 9.669016 28.257621 -0.439889 1.221567 0.156108 -0.002986 794154.000000 0 0 1
-24.984184 10.789143 8.548716 28.525351 -0.407649 1.266430 0.187443 -0.019919 48604.600000 0 0 1
-25.476804 11.970243 7.874116 29.229369 -0.439237 1.298036 0.196137 -0.023367 57626.000000 0 0 1
-26.555124 11.577543 7.037516 29.811756 -0.411135 1.332482 0.245119 -0.036344 -344340.000000 0 0 1
-27.114424 12.794943 6.238016 30.623772 -0.440905 1.365662 0.246070 -0.039955 -120567.000000 0 0 1
-26.445804 13.176443 5.020516 29.970065 -0.462241 1.402485 0.241710 -0.043408 -106144.000000 0 0 1
-25.172964 13.718343 5.189116 29.134138 -0.498968 1.391730 0.223541 -0.046064 -782729.000000 0 0 1
-25.149734 15.254143 5.539916 29.931400 -0.545209 1.384636 0.200648 -0.049392 243688.000000 0 0 1
-23.794724 15.634743 5.821416 29.060678 -0.581328 1.369112 0.174164 -0.057726 1023950.000000 0 0 1
-23.693024 17.066043 5.895116 29.788616 -0.624219 1.371583 0.148160 -0.059869 70928.000000 0 0 1
-22.253624 17.627443 5.973316 29.010878 -0.669915 1.363414 0.133701 -0.047186 108489.000000 0 0 1
-21.524924 17.637843 4.763116 28.233015 -0.686468 1.401278 0.144071 -0.065015 258183.000000 0 0 1
-20.213624 18.105543 5.014316 27.596099 -0.730440 1.388077 0.150438 -0.053960 -212398.000000 0 0 1
-19.526224 18.468143 3.665516 27.125297 -0.757557 1.435249 0.136467 -0.051601 -574537.000000 0 0 1
-18.260824 19.002343 3.911216 26.642905 -0.805295 1.423462 0.132929 -0.050332 -307193.000000 0 0 1
-18.100224 20.251343 3.215116 27.350905 -0.841429 1.452973 0.141475 -0.038670 13737.600000 0 0 1
-18.619124 21.564643 3.858016 28.750477 -0.858569 1.436201 0.125756 -0.057048 -130076.000000 0 0 1
-17.850024 21.912043 4.972916 28.696531 -0.887203 1.396624 0.150842 -0.049883 95486.600000 0 0 1
-18.197724 23.229543 5.398316 29.998511 -0.906268 1.389858 0.129212 -0.046003 -399032.000000 0 0 1
-17.204024 23.754443 6.415016 30.023399 -0.943984 1.355469 0.095190 -0.031595 -291014.000000 0 0 1
-17.465924 23.158143 7.634116 29.993963 -0.924611 1.313443 0.089763 -0.027357 -89672.000000 0 0 1
-16.468924 23.382243 8.577716 29.858533 -0.957167 1.279412 0.084984 -0.031293 -354598.000000 0 0 1
-16.702224 22.517043 9.896716 29.730902 -0.932590 1.231444 0.067478 -0.024962 461057.000000 0 0 1
-17.827224 22.984443 10.619516 30.965605 -0.911098 1.220745 0.073763 -0.019837 217581.000000 0 0 1
-18.895824 22.071743 10.762316 30.984536 -0.862766 1.216058 0.078222 -0.028798 609267.000000 0 0 1
-20.268924 22.647043 11.210316 32.394275 -0.840755 1.217429 0.088569 -0.031755 189059.000000 0 0 1
-21.036524 23.428243 10.330916 33.138283 -0.839135 1.253760 0.097964 -0.024947 125798.000000 0 0 1
-20.545724 24.762443 10.020916 33.700507 -0.878198 1.268878 0.064858 -0.023109 -124320.000000 0 0 1
-21.690624 25.616443 9.444816 34.869613 -0.868194 1.296509 0.088968 -0.018673 256016.000000 0 0 1
-22.568124 26.110043 10.435816 36.054970 -0.858032 1.277153 0.110591 -0.028520 -86788.700000 0 0 1
-23.573024 26.947543 9.895616 37.145401 -0.852094 1.301138 0.109494 -0.016833 114426.000000 0 0 1
-24.525824 27.437443 11.006916 38.411998 -0.841372 1.280174 0.110493 -0.031551 101410.000000 0 0 1
-23.810924 28.228443 11.949316 38.814833 -0.870083 1.257859 0.125091 -0.027607 175276.000000 0 0 1
-24.735424 28.978543 12.642216 40.142531 -0.864229 1.250410 0.117714 -0.032732 -270879.000000 0 0 1
10.455876 -32.198262 27.810636 43.811927 -1.256805 0.883081 0.082118 -0.037194 -523958.000000 0 0 1
11.739276 -32.490662 27.334496 44.052564 -1.224080 0.901420 0.047401 -0.032113 82208.700000 0 0 1
11.883076 -32.380962 25.919676 43.145844 -1.219078 0.926363 0.054171 -0.021252 561751.000000 0 0 1
13.367876 -32.715762 25.506906 43.584670 -1.182893 0.945637 0.006099 -0.001645 833770.000000 0 0 1
13.652476 33.588743 25.644636 44.409922 1.184734 0.955191 0.027890 -0.029957 -296866.000000 0 0 1
15.042576 33.454743 25.538076 44.695551 1.148242 0.962612 0.042730 -0.017022 -688677.000000 0 0 1
15.556876 32.038543 25.147796 43.599269 1.118761 0.955998 0.073178 -0.013642 -65712.700000 0 0 1
15.461076 31.833043 23.744176 42.616586 1.118660 0.979837 0.062281 -0.029438 -222727.000000 0 0 1
16.513676 31.068543 23.256896 42.176286 1.082249 0.986729 0.077880 -0.035109 -565440.000000 0 0 1
16.368676 30.502443 21.780116 40.898729 1.078272 1.009200 0.088581 -0.041892 -431591.000000 0 0 1
15.328776 29.605343 21.520416 39.680928 1.093034 0.997581 0.074650 -0.023652 -412054.000000 0 0 1
15.623376 28.222343 21.773716 38.918957 1.065207 0.977059 0.082510 -0.019869 -132526.000000 0 0 1
15.345376 27.605843 23.207246 39.193614 1.063454 0.937112 0.096470 -0.039827 -175132.000000 0 0 1
16.158776 28.152943 24.237596 40.511175 1.049741 0.929426 0.097241 -0.034113 -91159.300000 0 0 1
15.733176 27.805343 25.512136 40.884459 1.055879 0.896938 0.077844 -0.038291 -1129040.000000 0 0 1
16.639276 28.043143 26.675226 42.128981 1.035284 0.885142 0.091994 -0.036831 -762423.000000 0 0 1
16.833376 29.382643 27.057826 43.345452 1.050540 0.896642 0.091136 -0.031326 115192.000000 0 0 1
17.624376 29.504343 28.228796 44.474598 1.032329 0.883154 0.104801 -0.030182 149983.000000 0 0 1
17.474476 30.848243 28.963026 45.780217 1.055399 0.885821 0.107597 -0.037089 349884.000000 0 0 1
18.209076 31.902443 28.292516 46.365966 1.052144 0.914483 0.102707 -0.024845 245760.000000 0 0 1
17.567376 33.125343 28.442196 47.062295 1.083180 0.921844 0.092271 -0.013267 -233860.000000 0 0 1
18.107876 -33.346762 27.624796 46.936458 -1.073330 0.941523 0.070149 -0.013762 -379207.000000 0 0 1
18.034276 -33.519862 26.222726 46.221723 -1.077199 0.967543 0.092251 -0.014054 -222477.000000 0 0 1
18.134376 -32.217262 25.619016 44.979346 -1.058120 0.964810 0.070726 -0.018918 225875.000000 0 0 1
19.576176 -31.652162 25.399396 45.057911 -1.016901 0.971931 0.091846 -0.017913 371905.000000 0 0 1
20.330676 -31.277362 26.545826 45.785267 -0.994412 0.952326 0.076972 -0.017636 777645.000000 0 0 1
21.305876 -30.285862 26.080206 45.291842 -0.957730 0.957183 0.074671 -0.020895 584488.000000 0 0 1
21.891976 -29.474462 27.250306 45.722880 -0.931955 0.932300 0.083025 -0.021120 -392018.000000 0 0 1
20.907076 -28.768262 27.974036 45.246717 -0.942348 0.904275 0.086837 -0.005408 78506.600000 0 0 1
21.389376 -27.829662 28.935046 45.488816 -0.915508 0.881374 0.094643 -0.008208 -107501.000000 0 0 1
20.247776 -27.199262 29.785326 45.132449 -0.930874 0.850039 0.075819 -0.011585 196524.000000 0 0 1
19.529976 -26.256762 28.978726 43.710458 -0.931270 0.846017 0.090474 -0.002659 1119170.000000 0 0 1
18.173976 -26.092762 29.435246 43.330813 -0.962414 0.823968 0.084430 -0.008298 1005150.000000 0 0 1
17.237976 -25.305462 28.477066 41.814561 -0.972802 0.821625 0.097662 -0.003059 -444361.000000 0 0 1
16.809676 -25.884762 27.238616 41.164649 -0.994840 0.847713 0.096519 -0.005489 307034.000000 0 0 1
16.084076 -25.032462 26.391926 39.772546 -0.999691 0.845214 0.095147 -0.017555 -1111270.000000 0 0 1
14.671476 -24.650862 26.761396 39.231232 -1.033935 0.820104 0.109375 -0.012627 -1267410.000000 0 0 1
13.664476 -25.614662 26.822936 39.525925 -1.080738 0.824919 0.091310 -0.006314 271727.000000 0 0 1
13.189376 -26.176062 25.585566 38.907160 -1.104056 0.853160 0.079001 -0.017215 -193083.000000 0 0 1
12.275976 -27.425962 25.821156 39.618368 -1.149937 0.860911 0.066703 -0.015715 5715.540000 0 0 1
10.914776 -27.159562 26.064466 39.193502 -1.188674 0.843276 0.064882 -0.023379 -6256.400000 0 0 1
10.218776 -28.402262 26.174616 39.952752 -1.225429 0.856429 0.053238 -0.016809 -247233.000000 0 0 1
8.750176 -28.207862 26.595056 39.743504 -1.270005 0.837709 0.051981 -0.030005 1228050.000000 0 0 1
7.666576 -28.054462 25.604416 38.748102 -1.304035 0.848924 0.086374 -0.028333 1490690.000000 0 0 1
7.837176 -26.851762 24.737156 37.341202 -1.286816 0.846695 0.106642 -0.028189 -368811.000000 0 0 1
6.583776 -26.663062 23.818776 36.353805 -1.328714 0.856358 0.109637 -0.026707 107164.000000 0 0 1
6.330176 -27.610062 22.816086 36.372524 -1.345421 0.892729 0.117064 -0.034381 -24080.500000 0 0 1
5.872676 -28.907262 23.145996 37.494737 -1.370368 0.905473 0.118625 -0.030631 -107720.000000 0 0 1
4.442676 -29.012062 23.746796 37.753774 -1.418845 0.890541 0.166988 -0.027559 301181.000000 0 0 1
3.358876 -28.717162 22.836516 36.843778 -1.454361 0.902283 0.172221 -0.030265 1428110.000000 0 0 1
2.111576 -28.621262 23.564186 37.133628 -1.497153 0.883334 0.207008 -0.025845 962023.000000 0 0 1
1.698176 -27.110362 23.725196 36.065780 -1.508239 0.852861 0.166569 -0.030207 -494605.000000 0 0 1
2.494476 -26.523262 24.703886 36.331637 -1.477024 0.823095 0.143302 -0.031520 82451.100000 0 0 1
2.172876 -25.188762 25.011386 35.563529 -1.484746 0.790785 0.121509 -0.030293 72479.300000 0 0 1
3.439676 -24.635962 25.697786 35.765042 -1.432073 0.769129 0.110847 -0.019638 487028.000000 0 0 1
4.558076 -24.325762 24.847696 35.070312 -1.385568 0.783411 0.117885 -0.027727 805028.000000 0 0 1
5.548776 -23.538562 25.533296 35.168197 -1.339291 0.758260 0.102354 -0.025046 187129.000000 0 0 1
5.235576 -22.071862 25.827206 34.374743 -1.337895 0.720702 0.084528 -0.010995 -698350.000000 0 0 1
5.129776 -21.294162 24.668116 32.988967 -1.334400 0.726101 0.079466 -0.020061 173696.000000 0 0 1
4.545776 -20.040062 24.973916 32.341377 -1.347737 0.688505 0.096505 -0.027331 -50398.000000 0 0 1
4.395076 -19.120762 23.750136 30.805669 -1.344862 0.690439 0.102974 -0.029926 -394797.000000 0 0 1
5.610476 -18.645762 23.255456 30.330812 -1.278516 0.697069 0.072269 -0.010141 -545194.000000 0 0 1
5.616976 -18.126762 21.937416 29.006554 -1.270307 0.713170 0.075873 -0.015532 204082.000000 0 0 1
6.937676 -17.325662 21.742716 28.654068 -1.189921 0.709327 0.076101 -0.009557 469325.000000 0 0 1
8.035576 -18.217762 21.611516 29.385625 -1.155381 0.744473 0.084988 -0.017900 920994.000000 0 0 1
9.185076 -17.522662 21.030316 28.873578 -1.087990 0.754873 0.082120 -0.016404 1507200.000000 0 0 1
10.467576 -17.385062 21.917016 29.869150 -1.028833 0.746945 0.086624 -0.009091 102117.000000 0 0 1
10.440576 -16.520462 23.013946 30.192268 -1.007195 0.704020 0.087715 0.003325 111303.000000 0 0 1
11.485076 -16.688262 23.961936 31.378009 -0.968025 0.701843 0.103753 0.000471 70820.800000 0 0 1
11.334676 -15.747562 25.124366 31.744202 -0.946923 0.657597 0.129564 -0.014930 -164849.000000 0 0 1
11.665076 -14.435062 24.750996 30.936335 -0.891132 0.643397 0.147936 -0.019052 176550.000000 0 0 1
11.568676 -13.612362 25.900216 31.463501 -0.866380 0.603802 0.145411 -0.029159 -31026.100000 0 0 1
11.674176 -12.086662 25.694506 30.701489 -0.802756 0.579176 0.151498 -0.031358 249047.000000 0 0 1
10.453076 -11.424062 25.426036 29.770108 -0.829753 0.547018 0.167769 -0.023294 -92004.800000 0 0 1
10.687776 -10.110762 24.988006 28.997526 -0.757662 0.532129 0.162084 -0.025987 382533.000000 0 0 1
9.445976 -9.512162 24.255806 27.713748 -0.788889 0.504892 0.161835 -0.024114 673593.000000 0 0 1
8.288176 -9.428262 25.074966 28.041753 -0.849661 0.464153 0.167579 -0.033525 -112342.000000 0 0 1
7.233876 -8.868762 24.332666 26.889823 -0.886581 0.439646 0.162140 -0.031284 -170105.000000 0 0 1
5.839976 -8.991962 24.969546 27.174233 -0.994796 0.405593 0.152501 -0.034471 -673337.000000 0 0 1
5.598176 -8.075862 26.011796 27.805983 -0.964650 0.361196 0.161556 -0.035024 1565120.000000 0 0 1
4.301476 -8.151862 26.701616 28.247688 -1.085260 0.332383 0.169297 -0.036564 2735680.000000 0 0 1
2.935076 -8.082362 25.900636 27.290698 -1.222459 0.320542 0.142593 -0.029126 657961.000000 0 0 1
2.852176 -6.805862 25.306756 26.360702 -1.173954 0.283729 0.146527 -0.036760 -220250.000000 0 0 1
1.748876 -6.766262 24.438316 25.417950 -1.317862 0.278536 0.118560 -0.026197 -107748.000000 0 0 1
1.724976 -5.557462 23.466306 24.177024 -1.269836 0.243070 0.096317 -0.029854 -65457.300000 0 1 0
1.575876 -4.308562 24.118996 24.551438 -1.220156 0.187966 0.095967 -0.030203 -177627.000000 0 1 0
1.991176 -3.239862 23.306376 23.614586 -1.019720 0.161741 0.094883 -0.038477 -1318930.000000 0 1 0
1.053976 -2.650262 22.236116 22.418288 -1.192285 0.127570 0.057691 -0.037161 825859.000000 0 1 0
-0.139924 -1.974462 22.676666 22.762893 1.500047 0.087068 0.042623 -0.041614 830303.000000 0 1 0
-1.063124 -2.717162 23.469676 23.650347 1.197845 0.123685 0.046422 -0.033796 -818853.000000 0 1 0
-2.159524 -1.820462 24.016736 24.182251 0.700412 0.117066 0.042328 -0.040361 -380319.000000 0 1 0
-1.573524 -0.969462 24.952326 25.020680 0.552180 0.073934 0.064374 -0.046450 -348935.000000 0 0 1
-2.410524 0.032538 25.363856 25.478165 -0.013497 0.094762 0.052090 -0.039043 -952827.000000 0 0 1
-1.717224 0.946538 26.387896 26.460648 -0.503766 0.074171 0.096283 -0.049589 -212332.000000 0 0 1
-1.748024 0.536538 27.787406 27.847503 -0.297811 0.065709 0.129006 -0.048402 141876.000000 0 0 1
-0.907224 -0.558462 28.161156 28.181300 0.551791 0.037812 0.139104 -0.052715 -103373.000000 0 0 1
0.495576 -0.142462 28.717316 28.721946 -0.279921 0.017954 0.149245 -0.046259 489789.000000 0 0 1
1.405876 0.326538 27.710226 27.747788 0.228220 0.052038 0.133246 -0.047911 192220.000000 0 0 1
1.879376 -0.556462 26.703956 26.775791 -0.287865 0.073267 0.123608 -0.047718 -791502.000000 0 0 1
3.037376 -1.458462 27.134806 27.343198 -0.447660 0.123540 0.144984 -0.050406 -613428.000000 0 0 1
2.679476 -2.587462 27.915196 28.162613 -0.767930 0.132651 0.167806 -0.050365 650219.000000 0 0 1
3.753176 -3.513462 28.234546 28.698787 -0.752422 0.180112 0.187147 -0.049079 798535.000000 0 0 1
4.349076 -4.442762 27.107926 27.811729 -0.796054 0.225448 0.183007 -0.047255 1039800.000000 0 0 1
5.484076 -3.774262 26.500436 27.323859 -0.602778 0.246123 0.162642 -0.037758 523807.000000 0 0 1
6.046576 -4.483262 25.411466 26.502893 -0.638010 0.287983 0.157567 -0.034536 196840.000000 0 0 1
7.321976 -3.802262 24.837756 26.172174 -0.478964 0.320703 0.157281 -0.038184 -203550.000000 0 0 1
8.441176 -3.992662 25.657546 27.303928 -0.441814 0.349039 0.138831 -0.038508 749166.000000 0 0 1
9.467876 -4.979362 25.287976 27.457539 -0.484169 0.400196 0.140673 -0.036287 1332100.000000 0 0 1
10.313776 -4.673062 24.010246 26.546250 -0.425420 0.440664 0.132624 -0.026552 -794234.000000 0 0 1
9.659176 -4.966962 22.809116 25.263139 -0.474961 0.444417 0.124261 -0.031468 -257658.000000 0 0 1
10.417876 -4.811562 21.603416 24.462029 -0.432670 0.488280 0.149033 -0.028685 157333.000000 0 1 0
10.211976 -3.363762 20.945516 23.543874 -0.318201 0.474245 0.150890 -0.047426 -269772.000000 0 1 0
8.853876 -3.153562 20.719516 22.751581 -0.342169 0.425858 0.127676 -0.043536 -815428.000000 0 1 0
8.595376 -2.027462 19.817416 21.696107 -0.231644 0.419215 0.109582 -0.052522 -1013570.000000 0 1 0
7.148676 -1.642462 19.730716 21.049998 -0.225838 0.355920 0.102963 -0.041408 -722849.000000 0 1 0
6.596976 -1.178462 20.989316 22.033163 -0.176772 0.309047 0.109052 -0.032909 -322224.000000 0 1 0
5.341276 -0.597462 20.867316 21.548343 -0.111395 0.252081 0.083662 -0.025228 -592713.000000 0 1 0
4.721976 -0.186462 22.198716 22.696141 -0.039468 0.209749 0.082908 -0.031984 -674107.000000 0 1 0
3.399976 0.232538 22.189316 22.449492 0.068288 0.152393 0.067291 -0.025152 -782570.000000 0 1 0
3.020176 0.663538 23.429826 23.632996 0.216266 0.131219 0.080349 -0.030381 787232.000000 0 1 0
1.480676 0.962538 23.582166 23.648202 0.576422 0.074749 0.072283 -0.032152 860906.000000 0 1 0
1.121376 2.240538 23.165286 23.300386 1.106754 0.107738 0.066362 -0.022844 -694549.000000 0 1 0
-0.243224 2.460538 23.117186 23.249037 -1.472266 0.106551 0.040130 -0.017136 -815050.000000 0 1 0
-0.720524 3.875538 22.646346 22.986865 -1.386979 0.172339 0.045029 -0.018761 -256666.000000 0 1 0
-0.568124 5.043538 23.430616 23.974024 -1.458625 0.213320 0.057833 -0.021364 -59485.800000 0 1 0
-1.462424 6.056538 23.017276 23.845657 -1.333869 0.264357 0.046953 -0.021376 -185068.000000 0 1 0
-1.355524 7.381538 23.747516 24.905202 -1.389183 0.306099 0.069792 -0.015552 548387.000000 0 1 0
-0.326524 8.206538 23.169696 24.582285 -1.531029 0.340654 0.051260 -0.017657 387472.000000 0 1 0
-0.247824 9.476538 23.898596 25.710097 -1.544651 0.377630 0.055496 -0.005861 -937038.000000 0 0 1
0.661476 10.478538 23.153666 25.423013 1.507753 0.425732 0.055089 -0.013508 1130310.000000 0 0 1
2.086376 10.314538 23.113476 25.396367 1.371214 0.427248 0.052394 -0.016128 281148.000000 0 0 1
2.673576 10.309538 24.356376 26.583221 1.317056 0.412226 0.075439 -0.013439 -102648.000000 0 0 1
4.032976 11.178538 24.451326 27.186246 1.224552 0.452400 0.070995 -0.015604 1529650.000000 0 0 1
5.123576 10.717538 23.691496 26.502899 1.124858 0.464778 0.079415 -0.018806 -78361.700000 0 0 1
4.931376 10.749538 22.254256 25.201646 1.140688 0.488479 0.073739 -0.027403 -1371930.000000 0 0 1
6.161676 10.222538 21.514916 24.604027 1.028354 0.506502 0.101158 -0.028410 -220355.000000 0 1 0
7.189776 11.184538 21.515416 25.292289 0.999477 0.553536 0.096444 -0.035671 374443.000000 0 0 1
8.391976 10.639538 20.948816 24.949508 0.902951 0.574161 0.116426 -0.043171 1106450.000000 0 1 0
9.543776 11.680538 20.770216 25.669447 0.885735 0.628107 0.110545 -0.043069 5891.200000 0 0 1
9.224176 12.504538 19.654516 25.054918 0.935236 0.668976 0.101792 -0.038058 -204870.000000 0 0 1
10.096176 13.537538 19.367016 25.695895 0.929994 0.717121 0.123716 -0.038769 73733.300000 0 0 1
11.398276 13.134538 18.584816 25.452547 0.856053 0.752218 0.119558 -0.036054 194760.000000 0 0 1
12.484276 12.850538 19.438416 26.435686 0.799854 0.744673 0.131553 -0.039695 67228.000000 0 0 1
13.641376 12.784538 18.609316 26.378745 0.752985 0.787715 0.114650 -0.041825 -106672.000000 0 0 1
14.993276 12.654538 19.303216 27.523623 0.701009 0.793531 0.130861 -0.036300 -198570.000000 0 0 1
15.455676 13.857538 19.897116 28.754208 0.730933 0.806579 0.139319 -0.041457 -400361.000000 0 0 1
16.751676 13.663538 20.392616 29.718171 0.684212 0.814544 0.155310 -0.041920 -56408.200000 0 0 1
17.460376 14.976538 20.811716 31.020782 0.708973 0.835380 0.163234 -0.039562 -129092.000000 0 0 1
16.984176 15.500538 22.035316 31.847827 0.739758 0.806687 0.157136 -0.043634 726707.000000 0 0 1
17.763076 16.687538 22.415026 33.112447 0.754189 0.827204 0.141543 -0.036587 401487.000000 0 0 1
-21.886524 12.864543 -24.057492 34.975411 -0.531389 2.329306 0.062330 -0.013677 -123376.000000 0 0 1
-21.691924 12.697243 -25.443042 35.764619 -0.529574 2.362288 0.061977 -0.029005 115046.000000 0 0 1
-22.503624 13.554143 -26.247702 37.135829 -0.542116 2.355764 0.074313 -0.023913 159369.000000 0 0 1
-22.238224 13.241943 -27.768592 37.960274 -0.537074 2.391341 0.058501 -0.024264 746747.000000 0 0 1
-20.943924 13.721243 -28.155552 37.678317 -0.579981 2.414728 0.059875 -0.018670 228783.000000 0 0 1
-20.903524 14.212443 -29.529962 38.871192 -0.597113 2.433629 0.061195 -0.026375 563080.000000 0 0 1
-19.522424 14.797143 -29.991812 38.724531 -0.648574 2.456707 0.053040 -0.027194 568528.000000 0 0 1
-18.593224 13.828443 -30.453262 38.266630 -0.639480 2.491153 0.047048 -0.022115 356.858000 0 0 1
-17.265224 14.160243 -30.079542 37.461705 -0.686913 2.503010 0.041997 -0.020176 306261.000000 0 0 1
-16.742024 13.373343 -28.897562 35.975141 -0.674002 2.503553 0.093228 -0.022225 -446000.000000 0 0 1
-17.233024 13.853643 -27.676522 35.424433 -0.677115 2.467516 0.088446 -0.015018 -195910.000000 0 0 1
-17.659024 12.767343 -26.838262 34.570775 -0.625991 2.459616 0.099587 -0.014129 169720.000000 0 0 1
-18.505824 13.207743 -25.618092 34.251959 -0.619866 2.415735 0.089644 -0.023628 -125043.000000 0 0 1
-17.664024 13.894243 -24.718192 33.407436 -0.666507 2.403719 0.175367 -0.032376 301647.000000 0 0 1
-18.447824 14.567243 -23.754592 33.418669 -0.668395 2.361457 0.142905 -0.031304 -192896.000000 0 0 1
-17.579924 15.249143 -22.687292 32.500821 -0.714520 2.343471 0.166344 -0.029732 59644.100000 0 0 1
-16.725324 16.279843 -23.126292 32.857193 -0.771902 2.351589 0.133130 -0.027860 -133021.000000 0 0 1
-16.164124 16.888743 -21.960992 32.074815 -0.807318 2.324961 0.143572 -0.021980 -212949.000000 0 0 1
-15.993524 18.434443 -22.146992 32.956195 -0.856179 2.307720 0.119702 -0.021642 502526.000000 0 0 1
-17.190024 19.203443 -22.022492 33.900728 -0.840665 2.277877 0.083451 -0.015999 529995.000000 0 0 1
-18.069824 19.166743 -23.152092 35.069958 -0.814848 2.291840 0.068861 -0.011603 -157523.000000 0 0 1
-19.304824 20.013043 -22.787392 35.950847 -0.803409 2.257315 0.036447 -0.009563 -397380.000000 0 0 1
-19.066924 21.424643 -22.647792 36.544294 -0.843560 2.239202 0.038788 -0.007718 391819.000000 0 0 1
-20.266224 22.184443 -22.750992 37.689216 -0.830554 2.218864 0.043070 -0.023336 127102.000000 0 0 1
-19.896724 23.541843 -23.395592 38.696922 -0.869116 2.220042 0.036848 -0.023386 -111474.000000 0 0 1
-19.269324 24.342843 -22.440492 38.307396 -0.901210 2.196664 0.039662 -0.024208 -279664.000000 0 0 1
-18.373024 25.251043 -23.004892 38.786702 -0.941777 2.205716 0.040821 -0.012699 -675778.000000 0 0 1
-17.165624 25.522943 -22.064992 37.854236 -0.978727 2.193082 0.043928 -0.019650 299841.000000 0 0 1
-16.064524 24.609643 -22.120292 36.783295 -0.992474 2.216008 0.058390 -0.031616 458016.000000 0 0 1
-16.379624 23.355143 -21.588292 35.774421 -0.959179 2.218625 0.075117 -0.018386 -628576.000000 0 0 1
-15.123724 22.463043 -21.391192 34.509397 -0.978235 2.239368 0.110705 -0.021826 400218.000000 0 0 1
-14.406624 22.815143 -20.193192 33.702323 -1.007572 2.213252 0.131850 -0.036148 -138877.000000 0 0 1
-13.440624 21.803843 -19.990292 32.491072 -1.018381 2.233506 0.132769 -0.030868 -92947.300000 0 0 1
-12.503724 22.059243 -18.772992 31.549621 -1.055128 2.208100 0.114162 -0.032231 -15383.000000 0 0 1
-13.008824 21.822843 -17.495392 30.847281 -1.033242 2.173852 0.126622 -0.031238 -142982.000000 0 0 1
-13.939124 22.793643 -17.022092 31.679662 -1.021938 2.138052 0.130429 -0.042267 175163.000000 0 0 1
-14.484324 22.580643 -15.582992 31.024357 -1.000456 2.097033 0.137799 -0.041534 310639.000000 0 0 1
-13.590324 22.967943 -14.540792 30.391742 -1.036496 2.069680 0.126790 -0.045665 -74694.800000 0 0 1
-14.255824 23.569643 -13.433792 30.646752 -1.026827 2.024551 0.132929 -0.052371 134844.000000 0 0 1
-13.317424 24.071643 -12.292892 30.131595 -1.065468 1.991030 0.161504 -0.046885 -159962.000000 0 0 1
-12.700624 25.297243 -12.502892 30.944768 -1.105506 1.986724 0.157494 -0.060266 -310849.000000 0 0 1
-11.683624 25.400343 -11.546492 30.249066 -1.139675 1.962446 0.091429 -0.050063 -164605.000000 0 0 1
-11.066724 26.849143 -11.560492 31.256901 -1.179833 1.949648 0.129908 -0.051806 61555.100000 0 0 1
-10.269624 27.069643 -12.699192 31.614874 -1.208193 1.984151 0.122714 -0.053014 -33345.900000 0 0 1
-10.466924 28.391043 -13.268692 33.040370 -1.217587 1.984049 0.096447 -0.032655 -775076.000000 0 0 1
-9.741224 28.582343 -14.621392 33.550364 -1.242330 2.021728 0.127714 -0.054207 670530.000000 0 0 1
-8.328724 28.793243 -14.555292 33.320790 -1.289222 2.022860 0.088145 -0.050957 696799.000000 0 0 1
-7.616724 27.563543 -14.352992 31.996434 -1.301191 2.035973 0.094945 -0.048441 -450987.000000 0 0 1
-6.136024 27.552243 -14.761392 31.853973 -1.351667 2.052634 0.100959 -0.047485 180768.000000 0 0 1
-5.236824 28.323843 -14.001692 32.026736 -1.387970 2.023266 0.083079 -0.042477 -671667.000000 0 0 1
-3.958524 28.210143 -14.557092 31.990483 -1.431384 2.043218 0.101463 -0.041709 -427823.000000 0 0 1
-2.909024 29.248943 -14.128792 32.612664 -1.471665 2.018870 0.075508 -0.033264 -187539.000000 0 0 1
-3.103924 30.643043 -14.417192 34.007144 -1.469848 2.008594 0.060926 -0.025046 651503.000000 0 0 1
-4.251724 31.188943 -13.708992 34.333130 -1.435310 1.981542 0.046093 -0.023516 896420.000000 0 0 1
-4.370724 32.714443 -13.881892 35.805655 -1.437981 1.968933 0.050807 -0.027407 -128650.000000 0 0 1
-3.315024 33.388243 -13.279992 36.084933 -1.471833 1.947675 0.031320 -0.027236 -294500.000000 0 0 1
-3.474924 -32.829962 -13.536492 35.680781 1.465343 1.959920 0.052703 -0.025969 234550.000000 0 0 1
-2.505124 -32.075662 -12.634792 34.565326 1.492854 1.945002 0.059306 -0.035248 -206341.000000 0 0 1
-2.921324 -32.188962 -11.288392 34.235818 1.480289 1.906808 0.059501 -0.042111 -208610.000000 0 0 1
-2.149424 -31.446262 -10.404192 33.192388 1.502550 1.889621 0.059997 -0.044872 -623240.000000 0 0 1
-2.591024 -31.462862 -8.941692 32.811263 1.488630 1.846806 0.056609 -0.035983 -331949.000000 0 0 1
-1.977124 -30.414562 -8.227292 31.569652 1.505882 1.834448 0.104939 -0.041590 -98995.200000 0 0 1
-1.882924 -30.721462 -6.851892 31.532556 1.509583 1.789840 0.071992 -0.039536 334346.000000 0 0 1
-0.590624 -30.142262 -6.196592 30.778281 1.551204 1.773512 0.090862 -0.047417 302873.000000 0 0 1
-0.557424 -30.418962 -4.820892 30.803652 1.552473 1.727946 0.091422 -0.051215 -97052.500000 0 0 1
0.489376 -29.731962 -4.171992 30.027231 -1.554338 1.710188 0.085692 -0.050367 -335691.000000 0 0 1
0.433776 -30.078262 -2.635192 30.196594 -1.556376 1.658175 0.089073 -0.039065 -246130.000000 0 0 1
0.752976 -31.433762 -2.242292 31.522631 -1.546847 1.641989 0.098638 -0.042288 723134.000000 0 0 1
2.053876 -31.937262 -2.588092 32.107715 -1.506575 1.651490 0.097037 -0.043044 1300100.000000 0 0 1
3.295076 -31.363362 -1.806992 31.587707 -1.466119 1.628033 0.090867 -0.040092 -759748.000000 0 0 1
3.413776 -31.860162 -0.433092 32.045458 -1.464055 1.584312 0.079118 -0.032543 -301367.000000 0 0 1
4.695076 -31.735462 0.117808 32.081103 -1.423918 1.567124 0.068896 -0.029057 -101658.000000 0 0 1
5.164276 -30.262262 0.378208 30.702073 -1.401774 1.558477 0.034802 -0.026156 -595855.000000 0 0 1
5.431176 -29.629162 -0.866492 30.135291 -1.389504 1.599554 0.047203 -0.030925 -186889.000000 0 0 1
5.196776 -28.233262 -0.636792 28.714614 -1.388768 1.592975 0.058486 -0.030445 -257922.000000 0 0 1
4.718776 -27.573062 -1.983092 28.044131 -1.401301 1.641569 0.045296 -0.023861 119615.000000 0 0 1
3.419976 -27.882862 -2.471992 28.200372 -1.448751 1.658567 0.059667 -0.025872 204972.000000 0 0 1
2.969876 -26.897362 -3.382792 27.271442 -1.460827 1.695158 0.055110 -0.029718 -147044.000000 0 0 1
3.547876 -26.984762 -4.784692 27.634364 -1.440069 1.744816 0.057969 -0.026208 -585622.000000 0 0 1
2.781076 -27.797362 -5.626792 28.497167 -1.471080 1.769553 0.065196 -0.030782 -59731.800000 0 0 1
3.323576 -27.720062 -6.926292 28.764936 -1.451468 1.813975 0.079250 -0.037451 21769.800000 0 0 1
2.643676 -28.700562 -7.918492 29.890029 -1.478943 1.838918 0.080874 -0.040552 -36870.300000 0 0 1
1.308676 -28.304062 -8.155792 29.484734 -1.524593 1.851062 0.082984 -0.041556 -284444.000000 0 0 1
0.981276 -28.674862 -9.500392 30.223634 -1.536589 1.890554 0.075133 -0.028124 -332726.000000 0 0 1
-0.456124 -28.262062 -9.808492 29.919203 1.554659 1.904805 0.099222 -0.036417 -1134830.000000 0 0 1
-0.610724 -26.883162 -9.712392 28.590347 1.548083 1.917404 0.106236 -0.039085 950112.000000 0 0 1
-1.998624 -26.475262 -9.749092 28.283897 1.495449 1.922702 0.123592 -0.032190 1649360.000000 0 0 1
-2.986324 -26.867762 -8.598892 28.367864 1.460102 1.878762 0.120561 -0.027661 -222276.000000 0 0 1
-2.702724 -26.315962 -7.323092 27.449267 1.468452 1.840853 0.132905 -0.032064 692167.000000 0 0 1
-1.539924 -26.915362 -6.673592 27.773097 1.513645 1.813461 0.123403 -0.033956 1061850.000000 0 0 1
-1.229624 -26.549462 -5.236492 27.088868 1.524515 1.765329 0.127303 -0.032817 72524.900000 0 0 1
-2.238124 -27.008762 -4.352592 27.448634 1.488119 1.730041 0.135785 -0.036453 26335.100000 0 0 1
-1.947324 -26.642462 -3.036292 26.885534 1.497835 1.683972 0.128092 -0.034419 -312157.000000 0 0 1
-2.971224 -27.013362 -1.937692 27.245267 1.461246 1.641977 0.128218 -0.038115 -173531.000000 0 0 1
-4.011224 -26.066562 -1.934992 26.444277 1.418110 1.644034 0.119447 -0.034482 -525687.000000 0 0 1
-4.848724 -26.205062 -0.806592 26.662071 1.387835 1.601053 0.122974 -0.040500 -121077.000000 0 0 1
-5.959924 -25.155262 -0.841592 25.865347 1.338160 1.603340 0.115652 -0.026720 -297546.000000 0 0 1
-5.434424 -23.887462 -0.640692 24.506210 1.347103 1.596943 0.081910 -0.031839 517583.000000 0 1 0
-6.566924 -23.055662 -0.326292 23.974873 1.293315 1.584407 0.105572 -0.041403 834911.000000 0 1 0
-6.175224 -21.578562 0.034108 22.444797 1.292072 1.569277 0.072629 -0.044563 264423.000000 0 1 0
-5.273624 -21.604162 1.130408 22.267213 1.331376 1.520009 0.061592 -0.041006 -231631.000000 0 1 0
-4.357624 -20.556062 1.115908 21.042477 1.361902 1.517740 0.027652 -0.022959 -266828.000000 0 1 0
-3.477324 -20.438262 2.376308 20.867707 1.402272 1.456674 0.020324 -0.009267 -403647.000000 0 1 0
-4.190624 -20.082462 3.535308 20.817421 1.365077 1.400145 0.020139 -0.013618 -296779.000000 0 1 0
-3.463424 -19.878862 4.726008 20.724373 1.398301 1.340731 0.042656 -0.016211 226534.000000 0 1 0
-2.534424 -21.014162 5.314408 21.823411 1.450770 1.324804 0.047641 -0.023693 544649.000000 0 1 0
-1.450524 -21.365562 4.485808 21.879528 1.503010 1.364309 0.033304 -0.023671 -138637.000000 0 1 0
-0.937324 -22.660562 4.786208 23.179462 1.529456 1.362815 0.042385 -0.024977 -357940.000000 0 1 0
0.007776 -23.226062 3.670208 23.514261 -1.570462 1.414071 0.050924 -0.026839 -69124.500000 0 1 0
1.175676 -22.463862 3.530008 22.769899 -1.518508 1.415139 0.062339 -0.029224 -752949.000000 0 1 0
2.212076 -23.059562 4.258408 23.553571 -1.475160 1.389000 0.073833 -0.025508 -1270020.000000 0 1 0
3.379576 -22.087562 4.420608 22.777702 -1.418966 1.375481 0.084277 -0.026998 -424587.000000 0 1 0
4.135676 -21.848062 3.233508 22.469918 -1.383717 1.426391 0.074143 -0.021721 -911245.000000 0 1 0
5.119276 -20.984862 3.639508 21.904736 -1.331519 1.403871 0.068068 -0.026141 -725457.000000 0 1 0
5.937476 -20.364662 2.513908 21.361012 -1.287103 1.452836 0.066092 -0.027241 33268.400000 0 1 0
6.721276 -21.350962 1.866608 22.461597 -1.265818 1.487598 0.095288 -0.029233 -252635.000000 0 1 0
6.549676 -21.389462 0.461708 22.374551 -1.273652 1.550159 0.065586 -0.032335 -305291.000000 0 1 0
7.572176 -22.268762 -0.250292 23.522293 -1.243026 1.581437 0.097930 -0.024642 -82977.300000 0 1 0
8.894576 -21.764862 -0.248292 23.513493 -1.182841 1.581356 0.094554 -0.026722 -195975.000000 0 1 0
9.704676 -22.735562 -0.940992 24.738068 -1.167360 1.608844 0.094496 -0.021353 85134.600000 0 1 0
11.069676 -22.117862 -1.273292 24.766082 -1.106760 1.622232 0.099229 -0.023784 -158666.000000 0 1 0
11.005176 -21.203162 -2.345892 24.003983 -1.092037 1.668682 0.082573 -0.020749 783926.000000 0 1 0
12.325576 -20.987962 -2.908992 24.512785 -1.039791 1.689749 0.082757 -0.025740 1100770.000000 0 1 0
12.484176 -19.899762 -3.976192 23.825727 -1.010507 1.738467 0.058916 -0.020371 -278479.000000 0 1 0
12.541376 -18.589462 -3.410292 22.682246 -0.977287 1.721719 0.062541 -0.027532 116786.000000 0 1 0
12.929176 -17.630862 -4.417092 22.305192 -0.938052 1.770144 0.067699 -0.022841 -857458.000000 0 1 0
13.222076 -16.243762 -3.833392 21.292675 -0.887590 1.751817 0.055819 -0.015219 323933.000000 0 1 0
14.532076 -16.014462 -3.348592 21.882808 -0.833889 1.724424 0.061472 -0.013484 465452.000000 0 1 0
15.516576 -15.936862 -4.375992 22.669296 -0.798760 1.765052 0.062858 -0.016549 -337794.000000 0 1 0
16.969876 -15.549662 -4.065292 23.372960 -0.741753 1.745617 0.071282 -0.009482 -151859.000000 0 1 0
17.708476 -16.472562 -3.358592 24.417526 -0.749256 1.708782 0.080968 -0.016665 -197571.000000 0 1 0
19.001476 -15.964562 -3.134192 25.014925 -0.698762 1.696419 0.066088 -0.002701 479899.000000 0 0 1
19.955176 -16.871062 -2.263192 26.229064 -0.701845 1.657189 0.061257 -0.019529 1327010.000000 0 0 1
21.384776 -16.733262 -2.365692 27.256324 -0.663969 1.657700 0.074355 -0.013504 1028870.000000 0 0 1
21.951276 -17.497262 -1.301992 28.101741 -0.672967 1.617144 0.084530 -0.014737 -239914.000000 0 0 1
23.479776 -17.525962 -1.323492 29.329351 -0.641211 1.615937 0.110048 -0.023428 -384932.000000 0 0 1
24.243076 -16.378062 -1.042592 29.275495 -0.594146 1.606417 0.107922 -0.018724 275078.000000 0 0 1
25.409176 -16.691962 -0.300492 30.402929 -0.581229 1.580680 0.150982 -0.027339 -78585.200000 0 0 1
26.250676 -15.428962 -0.036192 30.449173 -0.531367 1.571985 0.137754 -0.021000 -431000.000000 0 0 1
25.780076 -14.567062 0.947308 29.626154 -0.514325 1.538815 0.120419 -0.023209 300771.000000 0 0 1
26.655976 -13.531362 1.419308 29.927466 -0.469733 1.523354 0.099576 -0.021101 274462.000000 0 0 1
25.888876 -12.678262 2.441908 28.929831 -0.455389 1.486288 0.127019 -0.021258 -153428.000000 0 0 1
25.460576 -13.286062 3.655708 28.950381 -0.480958 1.444183 0.141810 -0.014881 674625.000000 0 0 1
26.533976 -13.603362 4.568908 30.165846 -0.473738 1.418752 0.160679 -0.004007 366225.000000 0 0 1
26.226676 -14.252662 5.923808 30.431372 -0.497794 1.374884 0.146354 -0.002833 -175963.000000 0 0 1
25.764676 -15.551262 5.694708 30.628254 -0.543054 1.383778 0.157813 -0.020496 -125279.000000 0 0 1
25.326776 -16.142962 6.869408 30.809569 -0.567457 1.345943 0.141192 -0.029113 -140194.000000 0 0 1
24.558276 -17.498762 6.634908 30.876165 -0.619093 1.354219 0.124295 -0.027960 127982.000000 0 0 1
25.303976 -18.553862 6.039308 31.953251 -0.632688 1.380648 0.117379 -0.026861 195886.000000 0 0 1
24.543776 -19.770262 6.125608 32.105814 -0.678092 1.378825 0.083392 -0.019057 427017.000000 0 0 1
2.330276 23.251943 -3.023192 23.563165 1.470911 1.699453 0.062755 -0.036894 -434099.000000 0 1 0
3.516476 23.850843 -2.655892 24.254527 1.424415 1.680517 0.076126 -0.042268 -881347.000000 0 1 0
4.097976 24.528943 -3.769592 25.152978 1.405258 1.721230 0.100972 -0.041219 190334.000000 0 0 1
5.064876 25.630243 -3.253692 26.327720 1.375697 1.694697 0.082846 -0.033077 386509.000000 0 0 1
6.201376 25.078043 -2.593992 25.963322 1.328376 1.670873 0.051513 -0.033221 112155.000000 0 0 1
6.885576 26.084543 -1.840692 27.040760 1.312712 1.638920 0.047079 -0.034395 644577.000000 0 0 1
8.128076 25.538243 -1.038592 26.820629 1.262663 1.609530 0.023606 -0.041386 174012.000000 0 0 1
9.099676 25.132443 -1.948792 26.800030 1.223410 1.643577 0.024806 -0.047402 -851133.000000 0 0 1
9.916876 24.128243 -1.364992 26.122399 1.180837 1.623074 0.022562 -0.044411 147997.000000 0 0 1
11.072076 23.719943 -2.335592 26.280821 1.134073 1.659784 0.051735 -0.039381 -1314920.000000 0 0 1
11.897376 24.871243 -2.458892 27.679820 1.124611 1.659747 0.054280 -0.032756 -222697.000000 0 0 1
12.978176 24.789543 -3.368892 28.183398 1.088499 1.690617 0.083382 -0.037503 753502.000000 0 0 1
13.991876 23.618243 -3.130992 27.629642 1.035970 1.684360 0.089589 -0.039966 -1257550.000000 0 0 1
13.533476 22.328443 -3.494192 26.342432 1.025897 1.703833 0.117030 -0.042035 -297740.000000 0 0 1
13.348876 21.962743 -4.847992 26.154495 1.024664 1.757234 0.156933 -0.048623 -95042.400000 0 0 1
12.415876 20.766543 -5.113292 24.729517 1.031938 1.779068 0.161883 -0.051111 522704.000000 0 1 0
11.051876 20.988943 -4.788592 24.199386 1.086130 1.769992 0.134841 -0.045271 -87782.700000 0 1 0
10.202976 19.870243 -4.783392 22.843120 1.096423 1.781760 0.115624 -0.037398 -49840.100000 0 1 0
8.759176 20.407943 -4.744892 22.709498 1.165370 1.781286 0.083057 -0.026599 -344734.000000 0 1 0
8.411876 20.831443 -3.434292 22.726703 1.187013 1.722490 0.094577 -0.032588 156268.000000 0 1 0
7.178076 21.533343 -3.530892 22.971217 1.249033 1.725118 0.083431 -0.017912 551998.000000 0 1 0
6.562376 21.943743 -2.143492 23.004069 1.280207 1.664111 0.062126 -0.031016 62874.600000 0 1 0
5.944476 21.063143 -1.262092 21.922264 1.295729 1.628399 0.051761 -0.038480 28387.600000 0 1 0
5.329076 21.821043 -0.226892 22.463491 1.331268 1.580897 0.062728 -0.029545 -25817.200000 0 1 0
4.634176 21.051043 0.866508 21.572502 1.354113 1.530618 0.033651 -0.028276 -178824.000000 0 1 0
3.993176 21.829743 1.869008 22.270526 1.389873 1.486775 0.038956 -0.020091 379448.000000 0 1 0
3.368976 20.915243 2.792508 21.368095 1.411091 1.439736 0.038805 -0.019425 60945.000000 0 1 0
2.373976 21.454343 3.811908 21.919289 1.460592 1.396001 0.021346 -0.019050 188555.000000 0 1 0
1.074076 21.788743 3.343708 22.069965 1.521541 1.418706 0.015541 -0.009618 226045.000000 0 1 0
0.151576 22.123743 4.342408 22.546385 1.563945 1.376986 0.017581 -0.022791 250931.000000 0 1 0
-1.272524 22.396143 3.837608 22.758159 -1.514038 1.401361 0.021777 -0.015721 592383.000000 0 1 0
-2.287024 22.720243 4.811908 23.336546 -1.470474 1.363110 0.038342 -0.025980 832307.000000 0 1 0
-3.564224 22.635043 4.162408 23.288935 -1.414614 1.391102 0.054505 -0.029074 790421.000000 0 1 0
-4.756324 22.917943 5.105808 23.956711 -1.366164 1.356023 0.069724 -0.037450 -46318.200000 0 1 0
-5.065724 24.296643 5.362808 25.391891 -1.365246 1.357992 0.097307 -0.032094 265786.000000 0 0 1
-6.372624 24.351343 5.923808 25.859036 -1.314841 1.339663 0.112012 -0.030163 594741.000000 0 0 1
-6.843924 25.740643 6.491908 27.414684 -1.310928 1.331721 0.122289 -0.041449 -736033.000000 0 0 1
-5.980624 26.243843 7.449208 27.928442 -1.346736 1.300803 0.085702 -0.049736 -512043.000000 0 0 1
-6.512324 27.233143 8.326308 29.212700 -1.336072 1.281765 0.128789 -0.035748 -175885.000000 0 0 1
-6.849224 28.610443 7.631308 30.392535 -1.335823 1.316989 0.145424 -0.042376 891883.000000 0 0 1
-7.961424 28.534043 6.715908 30.375637 -1.298701 1.347859 0.133697 -0.056408 116222.000000 0 0 1
-7.959124 29.715143 5.921708 31.327368 -1.309092 1.380625 0.162371 -0.059981 -263085.000000 0 0 1
-9.337924 30.071843 5.313108 31.933395 -1.269716 1.403638 0.162246 -0.062490 540479.000000 0 0 1
-10.283124 30.549543 6.257808 32.835612 -1.246104 1.379043 0.128786 -0.053216 252997.000000 0 0 1
-11.039724 29.524543 6.952808 32.278719 -1.212976 1.353696 0.110572 -0.050416 322673.000000 0 0 1
-12.012224 30.145843 8.047008 33.433811 -1.191609 1.327725 0.074851 -0.045001 644741.000000 0 0 1
-11.322824 30.418743 9.229808 33.744565 -1.214455 1.293746 0.090800 -0.034131 -315936.000000 0 0 1
-12.230624 30.976043 10.106808 34.803031 -1.194745 1.276151 0.093693 -0.027341 -420600.000000 0 0 1
-11.592924 31.343743 11.467408 35.331679 -1.216536 1.240245 0.089163 -0.035290 -67838.200000 0 0 1
-10.582424 32.329243 11.260508 35.832481 -1.254456 1.251125 0.085729 -0.032778 592891.000000 0 0 1
-9.754524 32.547643 12.419008 36.176395 -1.279615 1.220378 0.081493 -0.041888 533304.000000 0 0 1
-9.371424 -33.606262 12.655908 37.113023 1.298846 1.222805 0.098862 -0.048670 870101.000000 0 0 1
-10.492124 -32.797062 13.109308 36.845433 1.261175 1.207035 0.108017 -0.034279 533689.000000 0 0 1
-10.202024 -31.411062 12.991308 35.489579 1.256754 1.196025 0.109024 -0.034653 364029.000000 0 0 1
-11.296324 -30.369462 13.430008 35.075295 1.214691 1.177873 0.103308 -0.034433 408488.000000 0 0 1
-11.601424 -30.290562 14.864008 35.679825 1.205026 1.141101 0.093020 -0.034296 550550.000000 0 0 1
-10.556824 -29.685862 15.652508 35.180932 1.229125 1.109718 0.098411 -0.031565 600349.000000 0 0 1
-10.655224 -30.076062 17.133208 36.216711 1.230317 1.078019 0.090380 -0.037328 181304.000000 0 0 1
-11.802424 -29.521362 17.752108 36.413533 1.190469 1.061556 0.110728 -0.037361 181661.000000 0 0 1
-12.318224 -30.344362 18.743808 37.733928 1.185173 1.050962 0.104145 -0.040865 -246470.000000 0 0 1
-12.571724 -29.602662 20.046208 37.897445 1.169195 1.013422 0.126513 -0.043458 -876136.000000 0 0 1
-11.432324 -29.269162 20.729508 37.644314 1.198426 0.987632 0.118807 -0.046015 -642990.000000 0 0 1
-11.764824 -28.519062 21.881708 37.822707 1.179539 0.953867 0.120548 -0.050291 1591080.000000 0 0 1
-10.451424 -27.989962 22.670308 37.504841 1.213430 0.921704 0.129470 -0.043759 1659690.000000 0 0 1
-9.910624 -28.862762 23.641308 38.602992 1.240040 0.911676 0.104422 -0.031981 -176202.000000 0 0 1
-8.582824 -28.523262 23.949508 38.220679 1.278508 0.893599 0.118134 -0.019882 -11419.300000 0 0 1
-8.031224 -29.464062 25.068208 39.510082 1.304684 0.883466 0.116324 -0.025586 -33897.200000 0 0 1
-8.017524 -30.815862 24.596508 40.235386 1.316264 0.913075 0.111331 -0.007227 190581.000000 0 0 1
-7.912724 -31.585362 25.752508 41.514311 1.325330 0.901635 0.112813 -0.006081 -355975.000000 0 0 1
-8.103824 -33.107162 25.645308 42.654871 1.330741 0.925759 0.099146 -0.015110 397142.000000 0 0 1
-7.068524 33.816143 24.916508 42.594929 -1.364735 0.945960 0.117648 -0.020553 1087590.000000 0 0 1
-7.385124 32.439443 24.629608 41.394144 -1.346953 0.933528 0.099422 -0.018482 259828.000000 0 0 1
-8.410624 32.288243 23.449008 40.781432 -1.315973 0.958202 0.100415 -0.023257 268397.000000 0 0 1
-8.947724 30.999043 23.398308 39.855781 -1.289789 0.943356 0.090263 -0.015833 29031.600000 0 0 1
-9.819224 30.861243 22.294208 39.317492 -1.262751 0.967900 0.079919 -0.017658 -331885.000000 0 0 1
-10.562124 29.531243 22.297908 38.481807 -1.227314 0.952755 0.076075 -0.020551 -714941.000000 0 0 1
-9.911024 28.407343 21.766608 37.134765 -1.235111 0.944495 0.061839 -0.017285 -90656.400000 0 0 1
-10.466424 27.129443 22.139108 36.547132 -1.202595 0.920065 0.031285 -0.009405 -214304.000000 0 0 1
-9.521724 25.917043 21.820308 35.192076 -1.218712 0.902009 0.050035 -0.016788 -674867.000000 0 0 1
-8.349324 25.960743 22.546708 35.383971 -1.259630 0.879935 0.049196 -0.019191 -836937.000000 0 0 1
-7.634324 24.803443 22.242408 34.179210 -1.272205 0.862213 0.055047 -0.017347 -57200.400000 0 0 1
-6.250624 24.649943 22.918508 34.233726 -1.322455 0.837299 0.069413 -0.022192 -40644.900000 0 0 1
-5.230524 25.377543 22.314008 34.194927 -1.367534 0.859847 0.080934 -0.014669 -190208.000000 0 0 1
-3.995724 25.252243 22.998808 34.388759 -1.413865 0.838218 0.101604 -0.012734 411913.000000 0 0 1
-2.748424 25.676443 22.193308 34.049618 -1.464162 0.860850 0.110048 -0.011570 61019.700000 0 0 1
-2.374124 24.741943 21.181408 32.656581 -1.475134 0.865039 0.083413 -0.010321 153092.000000 0 0 1
-1.552024 25.174343 20.117608 32.262586 -1.509223 0.897510 0.090434 -0.000942 26792.000000 0 0 1
-1.242024 24.060043 19.081808 30.733430 -1.519220 0.900930 0.061408 0.004576 -397430.000000 0 0 1
-0.398424 23.108743 19.663908 30.345379 -1.553557 0.865836 0.061010 -0.009129 -385445.000000 0 0 1
0.000276 22.218643 18.704908 29.043789 1.570784 0.871049 0.045735 -0.012642 -1089270.000000 0 0 1
1.202976 21.397043 19.030708 28.660922 1.514634 0.844647 0.041702 -0.015537 441747.000000 0 0 1
2.483576 22.090243 19.029208 29.261882 1.458838 0.862808 0.042857 -0.016152 972195.000000 0 0 1
3.531576 21.206843 19.410308 28.964845 1.405781 0.836408 0.056097 -0.021266 -398337.000000 0 0 1
4.894576 21.723943 18.991408 29.267049 1.349189 0.864658 0.059453 -0.021862 -806045.000000 0 0 1
5.764476 20.644543 18.862708 28.552199 1.298506 0.849126 0.081463 -0.030636 875591.000000 0 0 1
7.092476 21.016043 18.405808 28.822752 1.245319 0.878137 0.120422 -0.035874 1272530.000000 0 0 1
8.210976 19.985443 18.226108 28.267102 1.180974 0.870059 0.123997 -0.032973 121973.000000 0 0 1
8.730076 19.523443 19.503008 28.943848 1.150308 0.831427 0.121034 -0.035755 977944.000000 0 0 1
9.952476 18.773843 19.315808 28.716013 1.083340 0.833013 0.144411 -0.041690 857670.000000 0 0 1
10.457376 18.079943 20.585508 29.325828 1.046413 0.792653 0.155751 -0.039365 -240102.000000 0 0 1
9.658976 16.991043 21.019608 28.702182 1.053880 0.749052 0.134928 -0.035830 289380.000000 0 0 1
10.095976 16.450943 22.273708 29.473383 1.020363 0.714039 0.131879 -0.032463 109010.000000 0 0 1
9.035976 15.386543 22.704708 28.877298 1.039794 0.666084 0.110471 -0.030623 74871.500000 0 0 1
7.950076 16.030843 23.326708 29.399438 1.110415 0.654355 0.091990 -0.022917 229282.000000 0 0 1
6.709076 15.336243 23.455608 28.816273 1.158415 0.619841 0.088427 -0.023492 775166.000000 0 0 1
6.691476 13.972743 24.222508 28.753144 1.124175 0.569019 0.095578 -0.019640 -513817.000000 0 0 1
7.081976 14.088843 25.637608 30.098784 1.105019 0.551419 0.103003 -0.024817 185618.000000 0 0 1
7.537076 12.919443 26.212308 30.179539 1.042680 0.518536 0.118276 -0.037075 -162283.000000 0 0 1
8.647676 13.094043 27.294508 31.483748 0.987125 0.521768 0.093890 -0.026633 -290069.000000 0 0 1
9.901876 13.511643 26.881608 31.673845 0.938368 0.557273 0.143528 -0.029955 -492033.000000 0 0 1
10.094776 14.904443 26.667508 32.174569 0.975468 0.593769 0.123953 -0.028600 191891.000000 0 0 1
11.502676 15.221143 26.048008 32.287667 0.923655 0.632169 0.153067 -0.041575 665115.000000 0 0 1
11.768376 14.472343 24.882108 31.097631 0.888080 0.643287 0.151023 -0.050810 -549189.000000 0 0 1
13.074776 13.995943 24.770908 31.311884 0.819413 0.658187 0.188346 -0.067240 -944457.000000 0 0 1
13.295276 12.707543 23.875008 30.137385 0.762799 0.656381 0.158885 -0.060558 29184.500000 0 0 1
12.801876 11.467743 24.365208 29.817118 0.730482 0.614338 0.158578 -0.050316 527370.000000 0 0 1
11.382976 11.353043 24.252108 29.096881 0.784082 0.585393 0.156140 -0.041490 256547.000000 0 0 1
10.842376 9.924043 24.453308 28.530826 0.741205 0.541214 0.157468 -0.040572 -140429.000000 0 0 1
11.095876 9.040143 23.404708 27.433975 0.683658 0.548843 0.161425 -0.037095 110394.000000 0 0 1
10.838976 7.707743 23.871808 27.326835 0.618146 0.508314 0.161137 -0.042789 -19204.000000 0 0 1
11.319376 6.546043 22.971008 26.431915 0.524314 0.517491 0.140872 -0.038445 -182981.000000 0 0 1
12.731776 6.459243 22.932708 27.013497 0.469496 0.556829 0.151452 -0.029857 312762.000000 0 0 1
13.188076 5.412043 22.073908 26.276852 0.389417 0.573418 0.153680 -0.038662 -163019.000000 0 0 1
12.988076 3.932943 22.478208 26.256961 0.294034 0.543148 0.138433 -0.040630 -356781.000000 0 0 1
13.821576 3.487343 23.533508 27.514060 0.247153 0.544615 0.133515 -0.030778 289241.000000 0 0 1
13.458676 2.152243 23.925808 27.535657 0.158572 0.517815 0.129201 -0.029117 -848205.000000 0 0 1
14.522676 1.514943 24.806708 28.784995 0.103940 0.532002 0.092601 -0.020197 -177081.000000 0 0 1
15.562776 0.858343 24.092108 28.694362 0.055098 0.574229 0.103121 -0.027289 48808.400000 0 0 1
16.769476 1.593043 24.121308 29.420921 0.094712 0.609614 0.089239 -0.030007 -441277.000000 0 0 1
17.836476 0.883143 23.262608 29.326928 0.049473 0.654723 0.080455 -0.030941 -484113.000000 0 0 1
18.257576 -0.314157 23.764308 29.969653 -0.017205 0.655168 0.080961 -0.035979 79881.600000 0 0 1
19.223776 -0.978757 22.949808 29.953384 -0.050870 0.697914 0.086279 -0.026477 245882.000000 0 0 1
19.400876 -2.424757 23.428708 30.515206 -0.124337 0.695440 0.082680 -0.021624 -594779.000000 0 0 1
18.422276 -3.303157 23.022908 29.670615 -0.177417 0.682577 0.074455 -0.017791 -377690.000000 0 0 1
18.749776 -4.633057 23.345308 30.298889 -0.242247 0.691170 0.086837 -0.013408 -465093.000000 0 0 1
17.780176 -5.613457 22.759508 29.421773 -0.305811 0.686357 0.083680 -0.018766 -444279.000000 0 0 1
17.992976 -5.908457 21.346408 28.536401 -0.317282 0.725690 0.085025 -0.022289 241392.000000 0 0 1
17.141976 -6.974157 20.908208 27.922023 -0.386395 0.724536 0.111919 -0.034833 145283.000000 0 0 1
17.662876 -8.447057 20.961308 28.682858 -0.446087 0.751309 0.121522 -0.034155 -170181.000000 0 0 1
17.376176 -9.035857 22.195508 29.600992 -0.479530 0.723002 0.106253 -0.021397 397511.000000 0 0 1
18.255676 -10.151857 22.473708 30.682201 -0.507509 0.748857 0.100804 -0.022974 -1982.710000 0 0 1
17.702376 -11.252157 23.364408 31.398737 -0.566207 0.731581 0.127463 -0.038263 285030.000000 0 0 1
16.597376 -11.948357 22.764708 30.601765 -0.623953 0.731906 0.146736 -0.035595 467695.000000 0 0 1
15.928476 -12.749457 23.689808 31.264548 -0.674996 0.710982 0.161256 -0.026244 -136352.000000 0 0 1
14.763376 -13.499057 22.999108 30.481810 -0.740693 0.715875 0.175178 -0.036783 -456328.000000 0 0 1
15.106176 -14.585357 22.149408 30.520902 -0.767859 0.758727 0.183690 -0.035387 493302.000000 0 0 1
13.951076 -15.251557 21.652308 29.934344 -0.829902 0.762188 0.174723 -0.026923 96299.500000 0 0 1
14.307076 -16.376057 20.618808 29.966696 -0.852727 0.811988 0.163388 -0.032842 287864.000000 0 0 1
15.102776 -17.369857 21.336708 31.385679 -0.855100 0.823275 0.177725 -0.044032 791598.000000 0 0 1
15.668176 -18.300757 20.415008 31.578188 -0.862743 0.867821 0.161527 -0.036250 -3678.880000 0 0 1
-24.926624 -31.938862 25.407376 47.822195 0.908091 1.010676 0.080207 -0.027620 -348546.000000 0 0 1
-25.523304 -33.229962 25.312896 48.953163 0.915823 1.027356 0.084555 -0.022416 1169150.000000 0 0 1
-26.785614 -33.406462 26.009316 50.099355 0.894953 1.024935 0.070979 -0.035229 961292.000000 0 0 1
-26.774004 -33.273462 27.554606 50.825456 0.893217 0.997812 0.060527 -0.038572 23644.000000 0 0 1
-28.083854 -33.102962 28.104156 51.714143 0.867244 0.996252 0.079806 -0.039901 785086.000000 0 0 1
-28.067414 -33.315762 29.480796 52.600733 0.870692 0.975851 0.063076 -0.033004 -678947.000000 0 0 1
-29.263324 -32.660262 30.094206 53.185488 0.840200 0.969351 0.060995 -0.034604 -1185060.000000 0 0 1
-29.043314 -31.265762 30.145216 52.247451 0.822232 0.955782 0.035148 -0.023773 12155.600000 0 0 1
-30.044764 -30.615862 30.870956 52.849171 0.794813 0.946985 0.036012 -0.011843 -407124.000000 0 0 1
-30.146724 -29.074862 30.635746 51.891440 0.767301 0.939265 0.025257 -0.016972 -226473.000000 0 0 1
-30.692414 -28.780362 29.373886 51.314313 0.753259 0.961329 0.018314 -0.006328 129318.000000 0 0 1
-31.247324 -27.497762 29.500786 51.017827 0.721657 0.954221 0.019629 -0.003628 19284.600000 0 0 1
-32.035124 -26.987162 28.233406 50.514170 0.700079 0.977713 0.017014 -0.010441 78236.200000 0 0 1
-31.275104 -26.648362 27.076066 49.207527 0.705691 0.988142 0.029988 0.000415 171364.000000 0 0 1
-30.547154 -25.432062 27.167806 48.145697 0.694276 0.971232 0.009530 -0.002575 145140.000000 0 0 1
-29.419334 -25.360762 26.076776 46.783157 0.711445 0.979549 0.024195 0.021168 163766.000000 0 0 1
-29.848624 -25.377662 24.735656 46.333776 0.704617 1.007640 0.010382 0.025056 -410545.000000 0 0 1
-28.705514 -25.366562 23.954716 45.180720 0.723726 1.011963 0.024807 0.024277 -456404.000000 0 0 1
-28.991994 -25.798362 22.479216 44.848706 0.727176 1.045784 0.015532 0.022571 89124.200000 0 0 1
-29.605704 -24.740562 21.726716 44.279153 0.696115 1.057931 0.004878 0.021000 262933.000000 0 0 1
-29.977734 -25.225662 20.479416 44.208654 0.699527 1.089144 0.001658 0.016947 -149713.000000 0 0 1
-30.651024 -24.186362 19.594016 43.685134 0.668052 1.105678 0.001837 0.011329 -357491.000000 0 0 1
-31.954284 -23.782562 19.881116 44.519045 0.639823 1.107862 0.025342 0.009439 -306516.000000 0 0 1
-32.469084 -22.689362 19.161116 44.002239 0.609919 1.120250 0.037647 0.006668 -610046.000000 0 0 1
-33.880734 -22.240562 19.513016 44.981158 0.580887 1.122086 0.086518 0.004815 291712.000000 0 0 1
-34.862968 -23.227262 19.100616 46.040915 0.587710 1.143005 0.060074 -0.000249 432298.000000 0 0 1
-36.209894 -22.871562 19.267116 46.962609 0.563359 1.148052 0.085212 -0.011519 271384.000000 0 0 1
-37.189384 -23.474662 18.209016 47.599143 0.563059 1.178242 0.113957 -0.020468 201482.000000 0 0 1
-37.455574 -24.863762 18.254816 48.521800 0.586029 1.185084 0.099440 -0.018035 -225381.000000 0 0 1
37.659840 -25.326062 17.075116 48.489510 -0.592027 1.210939 0.116156 -0.010611 -70685.900000 0 0 1
37.051910 -26.743762 17.335516 48.873234 -0.625202 1.208199 0.116846 0.004732 898688.000000 0 0 1
35.884180 -26.967262 18.158716 48.421551 -0.644466 1.186385 0.121931 -0.011893 653560.000000 0 0 1
35.946800 -26.370562 19.444016 48.637935 -0.632922 1.159530 0.126056 -0.008714 -438268.000000 0 0 1
34.820200 -26.643662 20.467316 48.386384 -0.653145 1.134046 0.106297 -0.013123 157946.000000 0 0 1
33.546840 -26.110162 20.188116 47.060505 -0.661381 1.127431 0.107532 -0.016945 -644559.000000 0 0 1
32.771060 -26.101462 21.318616 47.007575 -0.672590 1.100092 0.116027 -0.015940 226061.000000 0 0 1
31.499470 -25.167862 21.187616 45.547261 -0.674127 1.086960 0.127167 -0.005395 525826.000000 0 0 1
31.678110 -23.777962 21.100516 44.879015 -0.643893 1.081319 0.113230 -0.005281 84818.100000 0 0 1
32.396270 -23.230062 22.220916 45.639054 -0.622084 1.062278 0.123132 -0.019564 -238833.000000 0 0 1
33.168510 -21.942262 21.994516 45.446361 -0.584444 1.065615 0.113616 -0.015441 -99857.500000 0 0 1
32.347560 -20.850962 21.649816 44.157013 -0.572564 1.058372 0.119799 -0.031788 119163.000000 0 0 1
33.147770 -19.926062 20.951716 43.986328 -0.541249 1.074328 0.113983 -0.024795 -110635.000000 0 0 1
32.342870 -18.626562 20.692716 42.675503 -0.522517 1.064565 0.088951 -0.019208 217014.000000 0 0 1
31.999970 -17.916062 21.846516 42.687863 -0.510395 1.033548 0.083790 -0.022989 829659.000000 0 0 1
30.754440 -18.383262 22.399636 42.255457 -0.538759 1.012077 0.094635 -0.021980 34724.200000 0 0 1
30.543040 -18.014762 23.862426 42.741366 -0.532897 0.978463 0.085169 -0.023863 -286662.000000 0 0 1
30.316140 -16.627162 24.033746 42.108810 -0.501659 0.963373 0.092166 -0.032427 226586.000000 0 0 1
30.217040 -16.378062 25.421986 42.750296 -0.496691 0.933951 0.096831 -0.035379 -110328.000000 0 0 1
29.841740 -14.908862 25.823286 42.185848 -0.463326 0.912043 0.076139 -0.034319 -134661.000000 0 0 1
28.558740 -14.483462 25.432696 40.892473 -0.469348 0.899578 0.094211 -0.031047 -114058.000000 0 0 1
28.421940 -13.050962 25.688446 40.472590 -0.430467 0.883160 0.076848 -0.036944 350819.000000 0 0 1
29.360340 -12.001662 24.939496 40.349076 -0.388045 0.904481 0.100855 -0.046329 266300.000000 0 0 1
28.801340 -11.537862 23.705686 39.046114 -0.381025 0.918365 0.086094 -0.035785 167355.000000 0 0 1
29.641540 -10.725362 22.911916 38.969350 -0.347180 0.942278 0.093765 -0.027396 252407.000000 0 0 1
30.750840 -11.368762 22.003116 39.484175 -0.354121 0.979709 0.095030 -0.035002 199377.000000 0 0 1
30.242540 -12.245562 21.070716 38.839929 -0.384734 0.997384 0.080722 -0.033222 31103.800000 0 0 1
30.374640 -13.556862 21.558216 39.637911 -0.419791 0.995744 0.078021 -0.033459 -822522.000000 0 0 1
29.726740 -14.602862 20.745516 39.080674 -0.456612 1.011207 0.080586 -0.018435 -422369.000000 0 0 1
30.242040 -14.634362 19.396916 38.794148 -0.450691 1.047202 0.087570 -0.021144 -25072.300000 0 0 1
29.809940 -15.822962 18.765616 38.615373 -0.487979 1.063332 0.099530 -0.032232 -290673.000000 0 0 1
30.343840 -16.042762 17.357916 38.463179 -0.486342 1.102590 0.123162 -0.035349 419620.000000 0 0 1
29.561240 -17.067862 16.626916 37.968845 -0.523616 1.117524 0.115252 -0.039704 1430020.000000 0 0 1
28.201240 -16.771462 16.286116 36.630991 -0.536518 1.110069 0.120094 -0.048295 173728.000000 0 0 1
27.833340 -15.569062 15.431116 35.428941 -0.510007 1.120146 0.138044 -0.037643 -894736.000000 0 0 1
27.920240 -15.699862 14.009016 34.961093 -0.512246 1.158512 0.154620 -0.042305 3446.930000 0 0 1
26.885140 -16.492662 13.477116 34.299436 -0.550250 1.166986 0.158625 -0.058613 -485323.000000 0 0 1
27.164740 -17.138562 12.071316 34.312827 -0.562839 1.211301 0.170475 -0.041712 -192397.000000 0 0 1
27.120540 -16.207962 10.976316 33.446992 -0.538673 1.236430 0.163994 -0.041695 -88471.800000 0 0 1
27.113840 -16.968262 9.736416 33.434713 -0.559186 1.275308 0.148704 -0.042870 271780.000000 0 0 1
28.491540 -17.336562 9.090416 34.568192 -0.546632 1.304696 0.144002 -0.026232 421113.000000 0 0 1
29.123640 -18.320862 9.885516 35.798936 -0.561522 1.291021 0.142527 -0.029032 -390702.000000 0 0 1
30.488740 -18.433062 9.546316 36.884593 -0.543785 1.309000 0.113949 -0.006699 -181.279000 0 0 1
31.257890 -19.285462 10.572816 38.220010 -0.552811 1.290510 0.109782 -0.023128 -85423.500000 0 0 1
31.363430 -18.746662 11.892016 38.425540 -0.538744 1.256148 0.122828 -0.040652 -74207.200000 0 0 1
31.904680 -19.672362 12.796316 39.606264 -0.552535 1.241805 0.093434 -0.034225 -21764.900000 0 0 1
31.649770 -19.303962 14.261016 39.720618 -0.547685 1.203565 0.114366 -0.021844 120103.000000 0 0 1
31.658450 -20.446462 15.084416 40.593779 -0.573449 1.190071 0.121320 -0.026763 24183.700000 0 0 1
31.425040 -20.078562 16.407816 40.741849 -0.568557 1.156303 0.126751 -0.038542 96626.300000 0 0 1
31.028580 -21.247962 17.415216 41.443195 -0.600443 1.137110 0.126449 -0.034219 312101.000000 0 0 1
29.685840 -21.621762 17.157716 40.535626 -0.629502 1.133739 0.073581 -0.025657 -15589.700000 0 0 1
29.330140 -22.717662 17.944916 41.211277 -0.659029 1.120273 0.108856 -0.029953 425317.000000 0 0 1
27.864040 -23.104762 17.602316 40.250172 -0.692292 1.118177 0.087286 -0.019408 961292.000000 0 0 1
26.790440 -22.262962 18.075916 39.244183 -0.693362 1.092124 0.091789 -0.015007 305924.000000 0 0 1
25.573040 -22.840662 17.715816 38.594383 -0.729020 1.093898 0.089672 -0.019300 -657843.000000 0 0 1
24.327540 -22.339462 18.440716 37.827778 -0.742823 1.061582 0.076829 -0.014068 -546928.000000 0 0 1
23.875640 -21.103362 17.927716 36.562291 -0.723841 1.058324 0.079436 -0.014414 10017.000000 0 0 1
22.703940 -20.583962 18.533816 35.814393 -0.736463 1.026874 0.080513 -0.008013 297551.000000 0 0 1
22.932040 -20.051762 19.979816 36.429997 -0.718490 0.990294 0.064631 -0.010506 -53948.900000 0 0 1
23.241440 -21.082662 20.978916 37.745968 -0.736732 0.981481 0.077980 -0.010712 -39242.200000 0 0 1
23.667440 -20.484962 22.198716 38.374007 -0.713443 0.953928 0.058873 -0.003830 37507.000000 0 0 1
24.115540 -21.569062 23.196986 39.810600 -0.729715 0.948769 0.061524 -0.009982 353470.000000 0 0 1
23.058640 -22.276662 23.858526 39.964733 -0.768151 0.931053 0.075581 -0.005283 263234.000000 0 0 1
23.526440 -23.252062 24.772276 41.325748 -0.779533 0.927996 0.073312 -0.002718 -244334.000000 0 0 1
22.422540 -24.021262 25.514216 41.602483 -0.819807 0.910582 0.080371 -0.008031 -362324.000000 0 0 1
21.798240 -25.061762 24.793196 41.448254 -0.854930 0.929578 0.094340 -0.005520 -503230.000000 0 0 1
20.837340 -25.578162 25.632066 41.778463 -0.887184 0.910282 0.096101 -0.008043 -191601.000000 0 0 1
19.802140 -26.514662 24.886656 41.406494 -0.929322 0.926004 0.098092 -0.016599 434009.000000 0 0 1
19.074940 -25.859362 23.858806 40.022526 -0.935252 0.932118 0.111475 -0.018895 432812.000000 0 0 1
18.226140 -26.754462 23.152786 39.800062 -0.972774 0.949946 0.101300 -0.022273 -173375.000000 0 0 1
17.217440 -26.090262 22.217216 38.350316 -0.987480 0.952899 0.113203 -0.021570 344159.000000 0 0 1
15.993440 -25.646162 22.831596 37.878722 -1.013191 0.923847 0.099891 -0.022326 727380.000000 0 0 1
15.383640 -24.766662 21.831516 36.423331 -1.014975 0.928067 0.089115 -0.031001 684339.000000 0 0 1
13.923240 -24.361862 22.205216 35.783077 -1.051583 0.901351 0.071769 -0.023784 914524.000000 0 0 1
12.949040 -25.403162 22.033716 36.034469 -1.099386 0.912889 0.069436 -0.021921 1295770.000000 0 0 1
11.610540 -24.925262 22.281726 35.391364 -1.134869 0.889783 0.077286 -0.024378 1168900.000000 0 0 1
10.460140 -25.942062 22.290836 35.767115 -1.187524 0.897941 0.078146 -0.028170 -27329.300000 0 0 1
10.200740 -26.558162 20.997216 35.359216 -1.204080 0.934991 0.099610 -0.038083 134495.000000 0 0 1
9.066040 -27.394662 21.023616 35.702284 -1.251200 0.941150 0.113457 -0.042277 -64902.800000 0 0 1
8.841640 -28.181562 19.764616 35.538924 -1.266784 0.981062 0.129318 -0.044409 76362.400000 0 0 1
9.474440 -29.464462 19.873616 36.781520 -1.259684 0.999985 0.121548 -0.040287 138070.000000 0 0 1
9.096540 -30.316462 18.826416 36.827556 -1.279291 1.034211 0.123195 -0.037958 -79934.600000 0 0 1
9.703040 -31.746662 18.746516 38.123896 -1.274174 1.056725 0.102455 -0.026214 -391688.000000 0 0 1
9.208040 -32.553962 19.756016 39.177145 -1.295142 1.042255 0.096166 -0.032835 -108333.000000 0 0 1
9.806640 -33.790062 19.802816 40.374374 -1.288334 1.058156 0.066298 -0.022993 -407091.000000 0 0 1
9.171640 32.856743 20.779916 39.943579 1.298585 1.023674 0.081369 -0.030682 31437.700000 0 0 1
8.076140 32.112443 20.260616 38.819140 1.324410 1.021692 0.079156 -0.024091 139120.000000 0 0 1
8.187340 30.803043 20.769716 38.042622 1.311007 0.993263 0.088822 -0.034802 182719.000000 0 0 1
7.170640 29.791843 20.164416 36.682089 1.334598 0.988782 0.084086 -0.026218 1073130.000000 0 0 1
5.819640 30.033543 20.577016 36.868625 1.379397 0.978681 0.146780 -0.033483 842995.000000 0 0 1
4.869040 29.019043 20.211616 35.697645 1.404557 0.968921 0.164863 -0.029304 1323100.000000 0 0 1
3.395740 29.341843 20.638016 36.033353 1.455579 0.960943 0.168513 -0.026109 591349.000000 0 0 1
3.167840 28.993843 22.007116 36.537533 1.461969 0.924398 0.125537 -0.026839 -342757.000000 0 0 1
1.834140 29.117743 22.401326 36.783508 1.507889 0.915991 0.130126 -0.020389 -390682.000000 0 0 1
1.514140 28.374643 23.687516 36.993397 1.517484 0.875885 0.132744 -0.010882 -87692.800000 0 0 1
1.736240 29.148643 24.854066 38.345567 1.511302 0.865631 0.146087 -0.026449 431289.000000 0 0 1
1.127640 28.570443 25.999016 38.645707 1.531348 0.832873 0.146766 -0.028575 -495552.000000 0 0 1
2.168140 28.031243 26.945236 38.942229 1.493603 0.806640 0.114176 -0.021005 -439297.000000 0 0 1
2.927040 27.061443 26.259636 37.821393 1.463052 0.803341 0.114441 -0.023544 675977.000000 0 0 1
3.826740 26.282543 27.080776 37.931312 1.426212 0.775684 0.081304 -0.015197 376942.000000 0 0 1
4.357940 25.013643 26.381616 36.615074 1.398305 0.766255 0.071636 -0.004035 -21099.500000 0 0 1
3.374640 24.002343 26.224746 35.710475 1.431116 0.746056 0.080519 -0.006486 -321072.000000 0 0 1
3.847740 22.723643 25.997776 34.742675 1.403060 0.725308 0.070444 -0.003493 -387783.000000 0 0 1
2.791140 21.605043 25.958986 33.888602 1.442319 0.698186 0.071879 -0.001897 -334214.000000 0 0 1
3.236840 20.335443 26.331086 33.426539 1.412948 0.663681 0.076598 -0.000202 -189179.000000 0 0 1
3.854540 19.630343 25.313866 32.264527 1.376907 0.668790 0.070406 -0.001324 -872401.000000 0 0 1
4.293140 18.209643 25.724886 31.808677 1.339262 0.628793 0.063916 -0.002782 -551439.000000 0 0 1
5.439140 18.090943 26.509196 32.551559 1.278738 0.619144 0.064267 -0.003679 -15185.100000 0 0 1
6.629340 18.167943 25.735646 32.192325 1.220917 0.644443 0.086836 -0.013392 -669859.000000 0 0 1
7.953740 18.040743 26.522646 33.048164 1.155555 0.639247 0.080359 -0.023653 28239.700000 0 0 1
8.353440 19.125043 27.339706 34.394866 1.158990 0.651991 0.083531 -0.024976 245137.000000 0 0 1
8.969740 20.148943 26.538836 34.507187 1.151965 0.693394 0.076900 -0.025011 -206534.000000 0 0 1
9.510040 21.283643 27.480706 36.036420 1.150587 0.703502 0.067532 -0.020155 348300.000000 0 0 1
10.732740 20.996843 28.151896 36.723132 1.098261 0.697269 0.087305 -0.030059 278525.000000 0 0 1
11.062640 22.111443 28.964826 38.082267 1.106898 0.706582 0.098854 -0.050613 3730.100000 0 0 1
12.217940 21.729043 29.938056 38.957882 1.058569 0.694346 0.117954 -0.058817 369191.000000 0 0 1
13.488940 21.661743 29.326196 38.874264 1.013847 0.716078 0.102970 -0.058315 -600462.000000 0 0 1
14.480940 21.413743 30.272106 39.807618 0.976192 0.706775 0.104808 -0.047009 -586184.000000 0 0 1
15.837340 21.123843 29.660186 39.708497 0.927463 0.727336 0.081697 -0.046717 -265168.000000 0 0 1
16.544940 22.194643 29.024036 40.109000 0.930215 0.761750 0.074172 -0.050252 127334.000000 0 0 1
17.859540 21.782643 28.721736 40.229154 0.884040 0.775668 0.131167 -0.038525 -55593.700000 0 0 1
-8.879624 16.937343 4.156908 19.570417 -1.087927 1.356758 0.028894 -0.017163 -277909.000000 0 1 0
-8.657324 18.175943 4.751008 20.685412 -1.126282 1.339048 0.040065 -0.020247 1448420.000000 0 1 0
-7.232924 18.405543 4.938308 20.382986 -1.196360 1.326085 0.032131 -0.015010 1215450.000000 0 1 0
-6.779124 19.824143 5.419708 21.640851 -1.241299 1.317663 0.037175 -0.017551 -171799.000000 0 1 0
-7.084624 20.877043 4.523708 22.505705 -1.243641 1.368415 0.044891 -0.027180 -83598.200000 0 1 0
-8.444724 21.218143 4.351708 23.247803 -1.192019 1.382498 0.059302 -0.025810 26706.200000 0 1 0
-8.755724 22.291643 3.307408 24.176828 -1.196529 1.433565 0.122791 -0.039399 70907.600000 0 1 0
-8.224424 22.132743 2.005708 23.696463 -1.215014 1.486053 0.090424 -0.037743 22231.000000 0 1 0
-8.593824 20.930543 1.294508 22.663124 -1.181196 1.513646 0.094996 -0.037928 -39913.700000 0 1 0
-7.972124 20.924143 -0.171592 22.392052 -1.206775 1.578459 0.068161 -0.024673 1343090.000000 0 1 0
-6.571424 20.698143 -0.368092 21.719398 -1.263373 1.587745 0.043768 -0.011925 498531.000000 0 1 0
-5.704624 21.788443 -0.067592 22.522956 -1.314725 1.573797 0.054482 -0.014244 39486.900000 0 1 0
-4.284324 21.429643 -0.547492 21.860576 -1.373473 1.595844 0.047899 -0.015122 -186672.000000 0 1 0
-4.267824 21.528743 -1.973092 22.036202 -1.375095 1.660455 0.044867 -0.022447 519498.000000 0 1 0
-2.946024 21.319043 -2.478792 21.663912 -1.433479 1.685468 0.041908 -0.019754 411766.000000 0 1 0
-2.805924 21.894443 -3.939092 22.422228 -1.443334 1.747391 0.047256 -0.011625 601936.000000 0 1 0
-1.469824 22.076143 -4.413092 22.560848 -1.504315 1.767674 0.075315 -0.022605 473950.000000 0 1 0
-1.460924 22.569543 -5.747492 23.335643 -1.506157 1.819654 0.086158 -0.020891 486482.000000 0 1 0
-0.059624 23.167143 -6.108292 23.958950 -1.568223 1.828590 0.079322 -0.027946 374605.000000 0 1 0
0.911876 22.175843 -6.109092 23.020003 1.529699 1.839396 0.079417 -0.022445 286306.000000 0 1 0
2.248776 22.646443 -6.387892 23.637334 1.471822 1.844445 0.072006 -0.018540 1270670.000000 0 1 0
3.245276 21.472443 -6.612492 22.700720 1.420795 1.866371 0.065036 -0.020724 33387.700000 0 1 0
3.123276 20.818643 -7.801992 22.450876 1.421884 1.925715 0.057550 -0.013279 -219032.000000 0 1 0
4.001276 19.722443 -7.905692 21.621400 1.370634 1.945119 0.044762 -0.015883 123138.000000 0 1 0
3.757376 18.929243 -9.198092 21.378471 1.374848 2.015566 0.032497 -0.008076 -18060.100000 0 1 0
4.332576 19.517643 -10.349192 22.512561 1.352356 2.048462 0.034748 -0.004955 -28858.200000 0 1 0
3.601576 19.033243 -11.409392 22.481324 1.383782 2.103083 0.027053 -0.011976 -281055.000000 0 1 0
4.152076 19.563843 -12.714792 23.699148 1.361667 2.137090 0.032092 -0.005035 25869.300000 0 1 0
4.022476 20.955343 -12.896592 24.932485 1.381149 2.114443 0.081855 -0.015443 -79807.700000 0 1 0
4.235776 21.168343 -14.272092 25.879203 1.373305 2.154944 0.087359 -0.026627 140144.000000 0 0 1
4.509976 22.619543 -14.782892 27.395575 1.373993 2.140769 0.088574 -0.030026 4265.710000 0 0 1
3.366676 23.461443 -14.850292 27.969716 1.428271 2.130508 0.114291 -0.033023 67323.700000 0 0 1
3.627476 24.701343 -15.410592 29.339415 1.424985 2.123808 0.098982 -0.027437 7256.330000 0 0 1
2.260276 25.367043 -15.671092 29.902823 1.481928 2.122416 0.100255 -0.030919 265435.000000 0 0 1
1.463076 25.706843 -14.544492 29.572362 1.513944 2.084983 0.119829 -0.033652 -199681.000000 0 0 1
1.768576 26.900043 -13.925392 30.342326 1.505145 2.047601 0.086668 -0.032313 -868137.000000 0 0 1
0.951876 27.175643 -12.623192 29.979437 1.535784 2.005412 0.100348 -0.042834 493907.000000 0 0 1
-0.464824 27.345843 -12.736692 30.170093 -1.553800 2.006626 0.084383 -0.037382 615737.000000 0 0 1
-1.220724 26.208943 -13.072492 29.313630 -1.524253 2.033035 0.088722 -0.034695 -827836.000000 0 0 1
-1.248224 25.077943 -12.038392 27.845721 -1.521064 2.017866 0.125772 -0.040206 -544452.000000 0 0 1
-2.003524 25.284443 -10.846092 27.585411 -1.491722 1.974886 0.116798 -0.033235 131330.000000 0 0 1
-2.043224 24.109943 -10.154692 26.240844 -1.486252 1.968151 0.129110 -0.028776 240168.000000 0 0 1
-3.081624 24.111943 -9.001092 25.921070 -1.443681 1.925433 0.116067 -0.028290 396042.000000 0 0 1
-2.547624 24.692943 -7.793992 26.018804 -1.467988 1.875020 0.129627 -0.035981 140358.000000 0 0 1
-2.583424 26.135043 -7.829492 27.404662 -1.472267 1.860532 0.136465 -0.031993 -99451.000000 0 0 1
-2.604624 26.646043 -6.341692 27.513865 -1.473357 1.803378 0.127944 -0.034829 418713.000000 0 0 1
-1.393724 26.179543 -5.750892 26.839965 -1.517609 1.786737 0.120563 -0.038508 309467.000000 0 0 1
-1.138324 26.539743 -4.409792 26.927681 -1.527931 1.735302 0.129551 -0.045091 -205035.000000 0 0 1
-2.055124 25.903843 -3.320392 26.196519 -1.491625 1.697888 0.104999 -0.032382 28034.300000 0 0 1
-3.386524 26.389543 -3.357992 26.817022 -1.443166 1.696345 0.098901 -0.033882 -74115.000000 0 0 1
-4.161224 25.896743 -2.292992 26.328975 -1.411473 1.657997 0.099658 -0.024562 -420693.000000 0 0 1
-5.058824 24.699943 -2.655192 25.352099 -1.368779 1.675721 0.098653 -0.024242 -375282.000000 0 0 1
-6.302324 25.235443 -3.104692 26.195152 -1.326061 1.689597 0.103442 -0.032882 -461927.000000 0 0 1
-7.216924 24.212443 -3.310592 25.481099 -1.281114 1.701088 0.076579 -0.035052 -969642.000000 0 0 1
-8.526924 24.757043 -3.846092 26.465299 -1.239097 1.716639 0.067916 -0.022826 -647056.000000 0 0 1
-9.143024 25.463143 -2.741392 27.193414 -1.226065 1.671779 0.099123 -0.033804 -801849.000000 0 0 1
-10.332524 26.041043 -3.185492 28.196531 -1.193070 1.684013 0.108486 -0.029318 -81158.400000 0 0 1
-11.376224 26.364543 -2.068692 28.788663 -1.163435 1.642716 0.124476 -0.033953 -155312.000000 0 0 1
-11.989924 25.303143 -1.405892 28.035404 -1.128286 1.620964 0.129619 -0.035496 -362736.000000 0 0 1
-11.210724 24.403143 -0.636892 26.862602 -1.140156 1.594508 0.149726 -0.044320 -315672.000000 0 0 1
-11.865724 23.023543 -0.305692 25.903135 -1.094926 1.582598 0.152243 -0.043368 -504614.000000 0 0 1
-12.704524 23.026543 0.768708 26.310027 -1.066623 1.541575 0.171119 -0.051960 -670759.000000 0 0 1
-13.072924 21.690143 1.172008 25.352264 -1.028385 1.524551 0.162811 -0.052688 -134849.000000 0 0 1
-14.188024 21.705043 2.218108 26.025544 -0.991843 1.485465 0.172295 -0.057495 -169229.000000 0 0 1
-13.774824 21.835443 3.560908 26.061704 -1.008003 1.433734 0.162380 -0.053182 -99305.800000 0 0 1
-13.297324 23.137343 3.908708 26.970975 -1.049178 1.425361 0.161243 -0.055106 180424.000000 0 0 1
-12.826324 23.232943 5.399008 27.081978 -1.066362 1.370094 0.153485 -0.045403 952707.000000 0 0 1
-11.588424 22.557643 5.734408 26.000428 -1.096229 1.348417 0.131643 -0.042957 975018.000000 0 0 1
-11.681124 22.158243 7.079308 26.029848 -1.085651 1.295358 0.099529 -0.036448 -530583.000000 0 0 1
-10.383124 21.626843 7.697608 25.194896 -1.123192 1.260309 0.080567 -0.031893 523992.000000 0 0 1
-9.513824 22.815243 7.954408 25.967687 -1.175726 1.259472 0.085870 -0.033563 1224370.000000 0 0 1
-8.388624 22.663843 8.840308 25.732661 -1.216300 1.220108 0.064954 -0.031575 610559.000000 0 0 1
-8.635324 22.479343 10.399808 26.230625 -1.204032 1.163121 0.050433 -0.032427 -398789.000000 0 0 1
-9.358924 21.318743 10.609508 25.585932 -1.157128 1.143225 0.063514 -0.033390 -427631.000000 0 0 1
-9.183524 20.913843 11.993308 25.798554 -1.157033 1.087294 0.052295 -0.028471 -521520.000000 0 0 1
-10.099624 19.808543 12.517008 25.515805 -1.099290 1.058065 0.063327 -0.034470 -589742.000000 0 0 1
-10.083824 18.609243 11.796908 24.231271 -1.074215 1.062321 0.075659 -0.041532 -105101.000000 0 1 0
-10.778424 17.520843 12.383808 24.010687 -1.019292 1.028899 0.081001 -0.046858 40520.600000 0 1 0
-10.822724 16.280443 11.453008 22.657352 -0.984109 1.040849 0.077951 -0.050597 -90645.300000 0 1 0
-11.395124 15.171843 12.140108 22.525894 -0.926610 1.001618 0.075615 -0.048388 -33212.800000 0 1 0
-11.781424 14.196043 11.226208 21.595308 -0.878082 1.024127 0.061928 -0.034220 24565.000000 0 1 0
-12.299424 12.912443 11.926708 21.453517 -0.809708 0.981312 0.052349 -0.033926 157206.000000 0 1 0
-13.398524 13.015843 12.808108 22.649067 -0.770912 0.969754 0.073357 -0.026696 255931.000000 0 1 0
-13.832224 11.695043 13.187708 22.405805 -0.701871 0.941490 0.054308 -0.016409 126840.000000 0 1 0
-14.880024 11.706543 14.313508 23.734675 -0.666596 0.923461 0.071818 -0.023932 -199966.000000 0 1 0
-16.035324 12.439643 14.056408 24.687222 -0.659788 0.965045 0.092133 -0.030582 -432179.000000 0 1 0
-16.865324 12.616843 15.169108 25.956227 -0.642280 0.946642 0.078799 -0.023379 575631.000000 0 0 1
-17.967824 13.744243 15.030908 27.160175 -0.652992 0.984335 0.087635 -0.018291 1299550.000000 0 0 1
-19.176024 13.312643 14.400308 27.428366 -0.606845 1.018063 0.098167 -0.018213 955125.000000 0 0 1
-20.216424 14.312643 14.309608 28.606301 -0.616056 1.046937 0.117277 -0.025783 670284.000000 0 0 1
-21.281624 13.838743 13.266108 28.642765 -0.576563 1.089242 0.101930 -0.022617 -12428.300000 0 0 1
-22.204924 12.974443 13.882508 29.225312 -0.528799 1.075813 0.099332 -0.011703 54340.100000 0 0 1
-23.320824 12.699543 13.045808 29.586016 -0.498656 1.114145 0.087535 -0.006676 32833.200000 0 0 1
-24.332424 11.799943 13.745808 30.335668 -0.451533 1.100530 0.102976 -0.010129 -295090.000000 0 0 1
-24.910124 12.347443 14.920608 31.553101 -0.460185 1.078248 0.090903 -0.008716 -79289.200000 0 0 1
-25.735474 11.467443 15.591008 32.200876 -0.419180 1.065371 0.090018 -0.006181 -333970.000000 0 0 1
-26.692144 12.086443 16.637508 33.695094 -0.425187 1.054381 0.095273 -0.015372 -143904.000000 0 0 1
-27.678884 12.950643 16.187808 34.581569 -0.437630 1.083651 0.105234 -0.013968 -256216.000000 0 0 1
-28.632074 13.241143 17.177708 35.919315 -0.433166 1.072158 0.109867 -0.004351 -295366.000000 0 0 1
-29.700374 14.275643 16.817108 36.996234 -0.448052 1.098915 0.101203 -0.007378 -196336.000000 0 0 1
-29.203894 15.556543 16.547508 36.995858 -0.489454 1.107074 0.099660 -0.011471 -826430.000000 0 0 1
-30.233134 16.463543 16.363908 38.116508 -0.498652 1.127064 0.093295 -0.014954 -633032.000000 0 0 1
-29.808344 17.939043 16.296408 38.417699 -0.541751 1.132729 0.114608 -0.022110 -313382.000000 0 0 1
-29.217744 18.494443 17.494808 38.752927 -0.564322 1.102412 0.117336 -0.023746 46520.200000 0 0 1
-30.013334 18.493843 18.676408 39.895246 -0.552237 1.083616 0.101129 -0.036867 -980251.000000 0 0 1
-29.308704 18.984143 19.971008 40.227341 -0.574778 1.051288 0.096630 -0.034406 -175009.000000 0 0 1
-28.549344 18.123543 20.715008 39.656518 -0.565626 1.021179 0.100974 -0.028340 -287582.000000 0 0 1
-27.436464 17.562343 20.049908 38.251723 -0.569391 1.019071 0.113617 -0.024396 -730168.000000 0 0 1
-26.917264 16.214443 20.556308 37.550088 -0.542168 0.991498 0.112851 -0.023932 -829199.000000 0 0 1
-27.919394 15.290943 20.616308 37.925423 -0.501062 0.996075 0.113440 -0.016579 -637430.000000 0 0 1
-27.498664 13.989643 20.923308 37.278298 -0.470614 0.974873 0.102943 -0.013270 -524328.000000 0 0 1
-28.709574 13.143643 21.249908 38.059869 -0.429333 0.978427 0.106560 -0.026047 168336.000000 0 0 1
-29.614884 12.871143 20.165608 38.070454 -0.409988 1.012559 0.105237 -0.031899 957672.000000 0 0 1
-30.731704 12.027343 20.485508 38.842640 -0.373041 1.015262 0.139603 -0.030797 465705.000000 0 0 1
-31.545814 11.722343 19.220708 38.755482 -0.355784 1.051870 0.145809 -0.032444 -45124.100000 0 0 1
-30.770144 11.060543 18.195808 37.419578 -0.345075 1.062987 0.159728 -0.037502 601778.000000 0 0 1
-30.416654 9.677443 18.332108 36.808857 -0.308035 1.049465 0.164644 -0.036868 24733.800000 0 0 1
-29.680374 8.960343 17.127108 35.419630 -0.293194 1.066092 0.151285 -0.040736 163799.000000 0 0 1
-30.347434 8.598043 15.878208 35.313037 -0.276085 1.104432 0.161000 -0.030346 128050.000000 0 0 1
-30.929464 9.753643 15.243508 35.834758 -0.305480 1.131411 0.156430 -0.034083 -262604.000000 0 0 1
-30.017484 10.817743 14.599908 35.088891 -0.345893 1.141662 0.144754 -0.020294 -367704.000000 0 0 1
-29.426614 10.357943 13.419008 33.960012 -0.338449 1.164575 0.155515 -0.024615 471201.000000 0 0 1
-28.321594 11.200343 13.070908 33.142254 -0.376595 1.165395 0.105140 -0.005884 320007.000000 0 0 1
-27.831334 11.017243 11.575008 32.092735 -0.376930 1.201806 0.156532 -0.001653 321360.000000 0 0 1
-27.115814 9.849043 11.120808 30.918335 -0.348404 1.202868 0.164748 -0.007423 566810.000000 0 0 1
-27.919614 8.714943 11.188908 31.315280 -0.302561 1.205422 0.195789 -0.015483 -327320.000000 0 0 1
-27.332634 7.507643 10.430408 30.203162 -0.268066 1.218194 0.226093 -0.026537 -253742.000000 0 0 1
-27.165714 7.821243 9.087408 29.693920 -0.280327 1.259770 0.215713 -0.020206 439970.000000 0 0 1
-26.654604 6.716943 8.347908 28.727562 -0.246860 1.275954 0.268056 -0.050124 102369.000000 0 0 1
-25.900764 7.105743 7.033908 27.763592 -0.267757 1.314655 0.261462 -0.039934 342882.000000 0 0 1
-26.807404 7.665743 6.104508 28.542347 -0.278523 1.355256 0.272382 -0.042644 1049470.000000 0 0 1
-25.984344 8.209943 5.029808 27.710797 -0.306031 1.388274 0.263524 -0.038223 290780.000000 0 0 1
-26.797204 8.791843 3.907108 28.471954 -0.317022 1.433135 0.258251 -0.039679 -828009.000000 0 0 1
-27.575174 7.955843 3.100908 28.866959 -0.280887 1.463168 0.294211 -0.036881 85978.100000 0 0 1
-26.980534 6.866843 2.413708 27.945103 -0.249220 1.484315 0.294212 -0.037737 -376378.000000 0 0 1
-25.829344 7.026743 1.399108 26.804620 -0.265617 1.518576 0.275244 -0.031333 311265.000000 0 0 1
-24.625724 7.563043 1.924208 25.832702 -0.297976 1.496240 0.235011 -0.031333 1012010.000000 0 0 1
-23.720624 8.041143 0.897808 25.062603 -0.326836 1.534966 0.238239 -0.020072 753281.000000 0 0 1
-22.367924 8.618743 1.407508 24.012244 -0.367785 1.512146 0.168858 -0.028238 125699.000000 0 1 0
-22.519524 9.782543 2.154708 24.646904 -0.409808 1.483262 0.172846 -0.034774 332094.000000 0 1 0
-21.379924 10.141343 2.902108 23.840517 -0.442909 1.448764 0.137948 -0.036752 -484935.000000 0 1 0
-21.541024 11.542143 3.566708 24.697332 -0.491892 1.425873 0.124670 -0.055245 -772472.000000 0 1 0
-21.384124 12.650843 2.695508 24.991806 -0.534220 1.462730 0.186127 -0.051720 589461.000000 0 1 0
-21.646824 13.914643 3.368508 25.952825 -0.571299 1.440636 0.182647 -0.060656 -73587.200000 0 0 1
-20.339524 14.402243 4.025608 25.245324 -0.616136 1.410653 0.138522 -0.055209 -62148.400000 0 0 1
-19.865724 13.482443 4.980708 24.520007 -0.596273 1.366245 0.131528 -0.056245 -276402.000000 0 1 0
-19.084224 14.230043 5.878708 24.520623 -0.640708 1.328693 0.116697 -0.052065 -366483.000000 0 1 0
-18.530124 13.376443 7.045108 23.915022 -0.625257 1.271771 0.095669 -0.044913 -573052.000000 0 1 0
-17.501124 12.555743 6.588708 22.524367 -0.622325 1.273941 0.085716 -0.034935 -80995.700000 0 1 0
-16.875024 11.993543 7.715608 22.093939 -0.617889 1.214060 0.068369 -0.025639 -177740.000000 0 1 0
11.025776 -33.105362 -14.126492 37.644263 -1.249300 1.955477 0.053357 -0.013160 -479572.000000 0 0 1
12.055276 -32.596362 -13.309492 37.215522 -1.216562 1.936528 0.054274 -0.023919 79327.600000 0 0 1
12.715676 -31.516662 -13.969592 36.744223 -1.187312 1.960792 0.051473 -0.038234 -412517.000000 0 0 1
14.042076 -31.089062 -13.369392 36.639464 -1.146552 1.944312 0.069528 -0.041537 -333574.000000 0 0 1
15.171276 -31.843562 -13.745692 37.856626 -1.126181 1.942388 0.072845 -0.034975 172805.000000 0 0 1
16.389976 -31.248162 -13.358092 37.729532 -1.087733 1.932693 0.075722 -0.037406 529425.000000 0 0 1
17.727776 -31.860862 -13.833192 38.996741 -1.063043 1.933418 0.093075 -0.026229 272942.000000 0 0 1
17.938376 -33.139062 -13.287992 39.956896 -1.074652 1.909811 0.088179 -0.025194 236848.000000 0 0 1
19.087076 -33.825862 -13.808292 41.221042 -1.057060 1.912382 0.084860 -0.010975 521859.000000 0 0 1
19.206176 32.337243 -13.349592 39.909724 1.034849 1.911865 0.072064 -0.016134 -497006.000000 0 0 1
19.910876 32.090343 -12.162192 39.675584 1.015466 1.882353 0.054868 -0.017282 -241736.000000 0 0 1
19.537176 30.906943 -11.504292 38.331307 1.007087 1.875623 0.057280 -0.010970 -233429.000000 0 0 1
20.309876 30.535243 -10.246292 38.077272 0.983859 1.843247 0.042923 -0.010437 -1555670.000000 0 0 1
21.592876 30.146843 -10.399392 38.512748 0.949243 1.844215 0.045255 -0.015694 -1823290.000000 0 0 1
22.300276 30.240543 -9.209292 38.685964 0.935389 1.811157 0.038440 -0.018098 -841323.000000 0 0 1
23.567776 29.434143 -9.118592 38.793782 0.895632 1.808069 0.023731 -0.003169 -737630.000000 0 0 1
24.618776 29.960943 -9.914192 40.025410 0.882966 1.821099 0.032525 -0.013223 228842.000000 0 0 1
25.734376 29.062143 -9.740092 40.021690 0.846053 1.816635 0.037863 -0.003556 652331.000000 0 0 1
26.908676 29.447843 -10.695992 41.299595 0.830423 1.832768 0.031508 -0.008458 -23861.500000 0 0 1
27.650576 30.533243 -10.227892 42.443410 0.834902 1.814169 0.044311 -0.021922 171032.000000 0 0 1
28.647176 30.898443 -11.187092 43.595017 0.823188 1.830314 0.050498 -0.017358 466315.000000 0 0 1
29.152176 32.402943 -11.112592 44.980993 0.838160 1.820432 0.060679 -0.024220 307843.000000 0 0 1
28.341076 33.320543 -11.857392 45.321881 0.865978 1.835503 0.070326 -0.023794 170543.000000 0 0 1
28.714876 -32.981462 -11.602892 45.243210 -0.854443 1.830150 0.052242 -0.023780 186501.000000 0 0 1
27.573276 -31.948562 -11.808692 43.822841 -0.858773 1.843633 0.053580 -0.012931 440661.000000 0 0 1
26.498076 -32.100162 -10.853792 43.015965 -0.880710 1.825874 0.067474 -0.023264 373403.000000 0 0 1
25.463876 -31.155462 -11.066892 41.731857 -0.885585 1.839198 0.077173 -0.020675 20051.600000 0 0 1
25.850676 -29.694862 -10.659292 40.788023 -0.854496 1.835200 0.075249 -0.023467 -406628.000000 0 0 1
26.886876 -29.110062 -11.437892 41.244699 -0.825079 1.851798 0.058307 -0.013347 -90115.900000 0 0 1
27.289876 -27.958162 -10.785192 40.530439 -0.797494 1.840142 0.041415 -0.022038 -453366.000000 0 0 1
28.394176 -27.149262 -11.482192 40.928625 -0.762989 1.855155 0.074912 -0.008731 41930.400000 0 0 1
29.537176 -27.905162 -11.831892 42.321821 -0.756994 1.854142 0.059778 -0.013598 40796.400000 0 0 1
29.446376 -28.395962 -13.171892 42.975789 -0.767240 1.882306 0.079205 -0.023481 -151440.000000 0 0 1
30.810976 -28.960462 -13.628192 44.426931 -0.754448 1.882578 0.063713 -0.022451 140556.000000 0 0 1
31.053376 -30.198162 -13.001992 45.224915 -0.771437 1.862408 0.063534 -0.017776 -339628.000000 0 0 1
32.197876 -30.792462 -13.530592 46.561313 -0.763090 1.865647 0.071438 -0.022535 -430661.000000 0 0 1
33.083976 -31.535862 -12.494492 47.383250 -0.761446 1.837642 0.103580 -0.027897 -19209.500000 0 0 1
34.159776 -32.229062 -13.072192 48.749204 -0.756324 1.842270 0.093635 -0.024273 338525.000000 0 0 1
35.081876 -32.879162 -12.161692 49.595202 -0.752998 1.818542 0.091924 -0.026770 510455.000000 0 0 1
34.625476 33.528243 -11.312592 49.507993 0.769300 1.801333 0.083063 -0.026118 -324440.000000 0 0 1
33.736376 -33.796362 -10.286892 48.848309 -0.786286 1.782973 0.072039 -0.028316 -253282.000000 0 0 1
33.130976 32.732943 -9.689792 47.570991 0.779355 1.775923 0.064811 -0.025518 356477.000000 0 0 1
32.221976 33.090143 -8.434492 46.950548 0.798690 1.751423 0.038596 -0.022312 7955.540000 0 0 1
31.064776 33.808543 -8.685292 46.727638 0.827667 1.757754 0.043673 -0.027690 -130811.000000 0 0 1
30.334576 -33.552762 -7.426092 45.837988 -0.835728 1.733521 0.043896 -0.023937 735328.000000 0 0 1
29.358476 -32.392962 -7.636792 44.379553 -0.834499 1.743736 0.044569 -0.028072 -270229.000000 0 0 1
29.994476 -31.111862 -7.746992 43.904811 -0.803682 1.748175 0.040464 -0.027868 301036.000000 0 0 1
29.148876 -30.034862 -8.182892 42.646332 -0.800367 1.763872 0.031184 -0.018472 245110.000000 0 0 1
28.049276 -29.489862 -7.260792 41.341661 -0.810430 1.747341 0.040810 -0.028880 -299287.000000 0 0 1
27.268876 -28.551362 -7.890192 40.261980 -0.808369 1.768044 0.043459 -0.035040 -834608.000000 0 0 1
26.233576 -28.195062 -7.025292 39.147372 -0.821420 1.751231 0.060472 -0.044429 -434667.000000 0 0 1
25.122576 -27.332862 -7.635992 37.901683 -0.827510 1.773653 0.108210 -0.050619 -499373.000000 0 0 1
24.242876 -28.057762 -8.453592 38.031806 -0.858211 1.794946 0.133450 -0.052988 -970292.000000 0 0 1
23.322876 -27.203362 -8.945992 36.932509 -0.862049 1.815455 0.161384 -0.057685 -775699.000000 0 0 1
22.148376 -27.879162 -9.724792 36.910294 -0.899454 1.837415 0.144331 -0.048850 90372.800000 0 0 1
22.587576 -28.516162 -10.917592 37.981099 -0.900893 1.862358 0.154972 -0.042468 803043.000000 0 0 1
21.634276 -29.468862 -11.520192 38.329761 -0.937523 1.876071 0.128033 -0.042072 1064950.000000 0 0 1
21.167876 -30.747362 -10.735392 38.842347 -0.967867 1.850826 0.119755 -0.043476 255647.000000 0 0 1
22.212976 -31.692862 -10.658592 40.142987 -0.959478 1.839535 0.092212 -0.031576 -62908.700000 0 0 1
21.827876 -32.932762 -10.041392 40.765826 -0.985475 1.819677 0.068344 -0.026448 -248608.000000 0 0 1
22.964376 33.726143 -10.104192 42.034628 0.973000 1.813551 0.054100 -0.017758 -435635.000000 0 0 1
23.852576 -33.807262 -9.024292 42.347541 -0.956358 1.785544 0.056822 -0.011717 -785931.000000 0 0 1
24.961576 33.051243 -9.290592 42.447379 0.923951 1.791456 0.060909 -0.013759 -744957.000000 0 0 1
26.234076 33.518543 -8.544392 43.413432 0.906710 1.768904 0.057776 -0.016038 -318604.000000 0 0 1
26.232876 33.180443 -7.183992 42.903558 0.901806 1.739034 0.049776 -0.032641 173260.000000 0 0 1
26.504776 31.794943 -6.926392 41.968994 0.875891 1.736591 0.044109 -0.024529 -646720.000000 0 0 1
26.580976 31.467943 -5.420092 41.547047 0.869387 1.701626 0.039126 -0.015321 -1134780.000000 0 0 1
27.609976 31.998143 -4.619192 42.515043 0.858883 1.679660 0.050116 -0.015241 46434.000000 0 0 1
28.797576 31.218443 -4.585792 42.719095 0.825713 1.678351 0.054149 -0.017359 -103913.000000 0 0 1
28.751976 29.888643 -3.764292 41.643451 0.804779 1.661313 0.063160 -0.012471 -738638.000000 0 0 1
28.485876 30.108443 -2.359892 41.515449 0.813083 1.627671 0.064092 -0.009448 -62957.200000 0 0 1
28.278876 28.938543 -1.602392 40.493231 0.796927 1.610379 0.059364 -0.013386 -150051.000000 0 0 1
26.916476 28.245043 -1.773292 39.056673 0.809479 1.616215 0.070836 -0.009264 48888.500000 0 0 1
25.844876 28.841443 -1.068692 38.741819 0.840139 1.598385 0.077815 -0.015267 -258751.000000 0 0 1
24.563876 28.423543 -1.458792 37.595344 0.858111 1.609609 0.073510 -0.008298 381871.000000 0 0 1
23.408676 29.198443 -0.775192 37.431485 0.895014 1.591507 0.087108 -0.009317 351487.000000 0 0 1
22.976976 28.590743 0.436108 36.681905 0.893833 1.558907 0.088089 -0.016461 376255.000000 0 0 1
21.965176 29.410143 1.086208 36.723362 0.929310 1.541214 0.065167 -0.018125 616659.000000 0 0 1
21.232676 28.652043 2.202308 35.729767 0.933046 1.509119 0.072520 -0.033546 -40825.300000 0 0 1
20.368876 27.625343 1.688708 34.364261 0.935456 1.521635 0.092005 -0.033162 475903.000000 0 0 1
19.889776 26.868443 2.794108 33.545841 0.933555 1.487407 0.117633 -0.033248 -149808.000000 0 0 1
19.119776 25.559043 2.430908 32.011558 0.928536 1.494785 0.130132 -0.031398 67893.300000 0 0 1
19.787776 24.399943 1.894108 31.472225 0.889398 1.510576 0.133274 -0.035289 264889.000000 0 0 1
20.822076 23.900843 2.748708 31.817676 0.854131 1.484299 0.116446 -0.021702 74458.600000 0 0 1
21.825876 23.000343 1.996508 31.770594 0.811593 1.507914 0.112364 -0.020287 5158.430000 0 0 1
21.349076 21.695343 1.623808 30.481268 0.793442 1.517499 0.130798 -0.020256 232284.000000 0 0 1
22.424076 20.973043 1.082408 30.722619 0.751974 1.535557 0.096488 -0.023737 -2000.190000 0 0 1
22.013876 20.262843 -0.174892 29.920296 0.744003 1.576642 0.123573 -0.016515 -223642.000000 0 0 1
22.073476 21.091243 -1.319292 30.558459 0.762647 1.613982 0.095787 -0.011925 400003.000000 0 0 1
22.545776 20.321543 -2.446392 30.450976 0.733558 1.651222 0.115519 -0.010337 172065.000000 0 0 1
22.425676 21.039843 -3.819092 30.986632 0.753525 1.694360 0.108180 -0.016786 -188129.000000 0 0 1
23.414476 22.014543 -4.000992 32.386505 0.754592 1.694652 0.108422 -0.023719 80269.100000 0 0 1
23.166676 22.815243 -5.179892 32.925089 0.777755 1.728776 0.083313 -0.016791 -147481.000000 0 0 1
24.232776 23.929543 -5.288992 34.464821 0.779102 1.724866 0.068150 -0.010590 -119022.000000 0 0 1
24.072976 25.074143 -4.471792 35.045937 0.805766 1.698743 0.073324 -0.016740 -52577.000000 0 0 1
24.190776 25.006543 -3.039392 34.925044 0.801978 1.657933 0.073644 -0.009073 -486434.000000 0 0 1
22.982576 24.518543 -2.237892 33.680349 0.817722 1.637290 0.090022 -0.014730 -1260280.000000 0 0 1
21.916176 25.451343 -2.148892 33.655718 0.859893 1.634689 0.101358 -0.019106 890953.000000 0 0 1
20.863876 25.041943 -1.250392 32.618456 0.876162 1.609140 0.095636 -0.018580 801426.000000 0 0 1
20.032976 23.782043 -1.703092 31.141712 0.870756 1.625512 0.125752 -0.032030 -589949.000000 0 0 1
19.216576 24.053543 -2.872492 30.920882 0.896721 1.663829 0.113940 -0.024970 210491.000000 0 0 1
18.804976 22.875843 -3.493192 29.818345 0.882757 1.688215 0.124585 -0.028411 -60154.000000 0 0 1
18.368076 23.259343 -4.874892 30.035776 0.902363 1.733820 0.128902 -0.032001 -327711.000000 0 0 1
17.686676 22.225643 -5.538992 28.939215 0.898635 1.763386 0.131681 -0.039993 41870.000000 0 0 1
17.103376 22.760143 -6.716992 29.251796 0.926360 1.802490 0.129668 -0.039679 -259451.000000 0 0 1
16.213576 21.770043 -7.443692 28.146463 0.930654 1.838443 0.167639 -0.039574 -508191.000000 0 0 1
16.905676 20.615343 -7.896292 27.805497 0.883947 1.858742 0.163248 -0.039971 499050.000000 0 0 1
16.166376 19.835143 -8.857292 27.078335 0.886953 1.904028 0.209970 -0.053624 31446.700000 0 0 1
16.943076 18.585843 -9.296592 26.812833 0.831603 1.924870 0.192027 -0.051236 111123.000000 0 0 1
18.207976 18.835843 -9.882792 27.999802 0.802346 1.931528 0.176543 -0.043511 533118.000000 0 0 1
18.927476 17.597943 -10.102892 27.748970 0.749014 1.943443 0.173907 -0.042486 1031920.000000 0 0 1
20.438476 17.820643 -10.466492 29.066373 0.717081 1.939160 0.147919 -0.038785 650465.000000 0 0 1
20.607376 18.218643 -11.830292 29.942256 0.723952 1.976977 0.148169 -0.034790 -43099.300000 0 0 1
21.960676 18.542343 -12.033692 31.159260 0.701201 1.967304 0.133191 -0.022984 -79001.200000 0 0 1
22.330876 18.784543 -13.491392 32.148790 0.699358 2.003861 0.125966 -0.029014 -148702.000000 0 0 1
22.301376 17.546743 -14.247392 31.752602 0.666641 2.036106 0.110352 -0.025892 192944.000000 0 0 1
22.104876 17.895043 -15.601692 32.438725 0.680538 2.072544 0.108897 -0.027621 142009.000000 0 0 1
22.043776 16.649343 -16.537392 32.196491 0.646875 2.110218 0.104122 -0.023647 -7344.940000 0 0 1
23.341176 16.073043 -16.561392 32.824273 0.603043 2.099654 0.109207 -0.020011 255812.000000 0 0 1
23.536776 15.212143 -17.612492 33.099682 0.573780 2.131881 0.108480 -0.025558 -237126.000000 0 0 1
24.414476 15.901143 -18.680092 34.610097 0.577288 2.140912 0.118053 -0.026718 -685485.000000 0 0 1
25.729476 16.244843 -18.345892 35.531290 0.563168 2.113357 0.134851 -0.028346 -144530.000000 0 0 1
26.416976 16.735143 -19.458792 36.831592 0.564688 2.127415 0.153910 -0.028312 -219029.000000 0 0 1
27.923176 16.959643 -19.192992 37.890687 0.545820 2.101959 0.138470 -0.032257 25012.200000 0 0 1
28.210376 18.033243 -18.314292 38.163287 0.568775 2.071329 0.119940 -0.036754 29842.700000 0 0 1
29.556376 17.905843 -17.902792 38.919256 0.544688 2.048790 0.110229 -0.047558 -230743.000000 0 0 1
29.912676 18.876043 -16.740892 39.132220 0.562930 2.012857 0.119460 -0.043585 -154852.000000 0 0 1
29.183376 18.786743 -15.546392 38.030270 0.571968 1.991924 0.095662 -0.038319 -744068.000000 0 0 1
27.917776 19.359243 -15.628692 37.395702 0.606308 2.001959 0.109521 -0.032478 -1031260.000000 0 0 1
27.057976 18.912543 -14.470992 36.044805 0.610030 1.983920 0.092200 -0.030058 -527159.000000 0 0 1
27.585476 19.375143 -13.239892 36.216700 0.612313 1.945046 0.068148 -0.029324 -92378.700000 0 0 1
26.655576 19.335343 -12.222892 35.125123 0.627555 1.926213 0.077203 -0.028519 -630502.000000 0 0 1
27.191776 19.866943 -10.899892 35.396267 0.630984 1.883822 0.060659 -0.020162 -261201.000000 0 0 1
27.268676 21.276543 -10.772192 36.225848 0.662585 1.872725 0.060726 -0.024885 164484.000000 0 0 1
27.917676 21.734043 -9.593492 36.657882 0.661496 1.835583 0.040895 -0.014798 289776.000000 0 0 1
27.092476 21.465843 -8.284492 35.544584 0.670039 1.806033 0.060765 -0.013335 -270270.000000 0 0 1
27.262476 20.191443 -7.731992 34.795411 0.637478 1.794880 0.072347 -0.018663 211093.000000 0 0 1
26.288776 19.873443 -6.747692 33.639037 0.647309 1.772758 0.096930 -0.019088 -232627.000000 0 0 1
24.897876 19.461243 -7.229492 32.417738 0.663447 1.795698 0.151164 -0.027963 -877464.000000 0 0 1
24.096376 20.503843 -7.637392 32.548005 0.705022 1.807655 0.106188 -0.020394 -790251.000000 0 0 1
22.819676 20.068643 -8.007692 31.426281 0.721342 1.828446 0.073233 -0.023578 -426876.000000 0 0 1
21.890176 21.276443 -8.272092 31.627430 0.771181 1.835422 0.138648 -0.034152 -656867.000000 0 0 1
22.219076 22.206943 -9.294192 32.760001 0.785125 1.858453 0.131152 -0.024441 -152770.000000 0 0 1
21.659776 22.003343 -10.587392 32.640249 0.793267 1.901138 0.151282 -0.022582 589096.000000 0 0 1
20.112476 22.171143 -10.734592 31.800986 0.834047 1.915115 0.150052 -0.033384 305138.000000 0 0 1
19.774876 23.508343 -10.397592 32.431433 0.871442 1.897162 0.135667 -0.035128 -1915.830000 0 0 1
18.417176 23.742043 -10.703592 31.897396 0.911037 1.912999 0.138442 -0.034691 13830.300000 0 0 1
17.802776 25.074143 -10.213392 32.403161 0.953387 1.891461 0.117938 -0.030132 684.976000 0 0 1
18.127176 26.231243 -10.961692 33.716929 0.966100 1.901924 0.157459 -0.023457 11736.400000 0 0 1
17.408676 27.394543 -10.590292 34.142016 1.004697 1.886182 0.131107 -0.025930 -81886.700000 0 0 1
21.202476 28.543143 33.026356 48.528303 0.931905 0.822272 0.083142 0.002702 -62067.600000 0 0 1
19.854676 28.865443 32.873670 48.042691 0.968281 0.817208 0.097627 -0.018917 -447510.000000 0 0 1
18.953276 27.787943 33.130590 47.212630 0.972207 0.792971 0.090212 -0.023555 328495.000000 0 0 1
17.481776 28.220943 33.290536 47.013763 1.016190 0.783990 0.115391 -0.041081 80415.700000 0 0 1
16.856376 28.628143 32.085832 46.186671 1.038650 0.802795 0.117934 -0.038079 28711.600000 0 0 1
15.521376 29.037643 32.356808 46.163415 1.079911 0.794111 0.134898 -0.049291 703618.000000 0 0 1
14.646576 29.167643 31.062296 45.057073 1.105429 0.810137 0.141695 -0.051465 164856.000000 0 0 1
14.357176 27.970843 30.432326 43.756406 1.096573 0.801689 0.123082 -0.048786 284245.000000 0 0 1
12.950076 27.913543 30.211686 43.123269 1.136414 0.794574 0.129503 -0.035913 297956.000000 0 0 1
12.231276 26.550643 30.223776 42.047799 1.139099 0.768728 0.095975 -0.044862 -97523.900000 0 0 1
12.531376 25.627743 29.175776 40.804933 1.116006 0.774163 0.092704 -0.041819 1047210.000000 0 0 1
13.885576 25.134343 29.029396 40.831976 1.066071 0.779952 0.069557 -0.037442 837406.000000 0 0 1
14.030676 24.356843 27.697446 39.462187 1.048176 0.792773 0.078816 -0.036605 -287258.000000 0 0 1
13.891776 25.177943 26.529026 39.124155 1.066615 0.825659 0.063942 -0.037551 177745.000000 0 0 1
13.879476 24.434243 25.284506 37.801830 1.054213 0.838109 0.082132 -0.041258 114968.000000 0 0 1
12.589676 23.604843 24.964896 36.591455 1.080825 0.819947 0.092063 -0.040702 108969.000000 0 0 1
12.485276 23.212343 23.621626 35.393166 1.077312 0.840076 0.121393 -0.046383 1852.280000 0 0 1
11.300876 22.472743 23.437326 34.380841 1.104855 0.820716 0.131845 -0.044439 -187737.000000 0 0 1
11.233876 21.949243 22.005716 33.048764 1.097744 0.842156 0.149901 -0.049560 -100749.000000 0 0 1
10.930576 22.980243 21.091216 33.051603 1.126817 0.878729 0.154025 -0.051179 45181.500000 0 0 1
10.977576 22.469443 19.832516 31.917264 1.116346 0.900303 0.163960 -0.045968 -439459.000000 0 0 1
10.486976 23.558343 18.824516 31.927020 1.151984 0.940219 0.138411 -0.049365 340426.000000 0 0 1
9.104376 23.753543 18.620716 31.525411 1.204782 0.938923 0.139295 -0.051222 -255363.000000 0 0 1
8.405976 24.389743 19.631616 32.417902 1.238894 0.920302 0.133342 -0.043375 -196814.000000 0 0 1
7.108676 25.079743 19.123116 32.329868 1.294598 0.937878 0.122811 -0.037280 324783.000000 0 0 1
7.284276 26.185043 18.231016 32.727467 1.299472 0.979960 0.101170 -0.036379 218954.000000 0 0 1
5.981776 26.600743 17.833916 32.579591 1.349603 0.991548 0.096064 -0.037779 183264.000000 0 0 1
5.978676 27.605043 16.647816 32.786167 1.357511 1.038203 0.113994 -0.040139 22581.700000 0 0 1
6.609676 27.121843 15.491616 31.926045 1.331753 1.064165 0.100516 -0.036204 271187.000000 0 0 1
7.971476 27.559343 15.449116 32.584306 1.289233 1.076823 0.101916 -0.032843 685314.000000 0 0 1
8.786076 27.152443 14.167816 31.861847 1.257846 1.109997 0.082217 -0.026710 402243.000000 0 0 1
8.232476 27.671443 12.938316 31.636726 1.281627 1.149477 0.121399 -0.036538 -621466.000000 0 0 1
7.209876 26.887143 12.427416 30.485102 1.308807 1.150911 0.106781 -0.039681 -416093.000000 0 0 1
6.617176 27.606543 11.224316 30.526931 1.335539 1.194277 0.103818 -0.050068 -464843.000000 0 0 1
7.526476 27.805643 10.177816 30.551425 1.306449 1.231167 0.081178 -0.041047 -257927.000000 0 0 1
7.551076 29.165043 10.024316 31.750676 1.317451 1.249581 0.098208 -0.045407 -3240.240000 0 0 1
7.490276 29.620943 8.533316 31.722579 1.323117 1.298444 0.080568 -0.026720 592552.000000 0 0 1
6.229676 29.414343 7.885416 31.083633 1.362090 1.314309 0.067616 -0.032841 107928.000000 0 0 1
6.147676 28.173743 7.138916 29.707202 1.355958 1.328112 0.066199 -0.031171 -516560.000000 0 0 1
4.731276 27.825243 6.698316 29.008560 1.402372 1.337785 0.066783 -0.038480 -288002.000000 0 0 1
4.039176 28.870843 6.045816 29.772343 1.431794 1.366306 0.070583 -0.032889 370782.000000 0 0 1
2.630976 28.635243 5.982616 29.371600 1.479175 1.365674 0.072372 -0.035390 950805.000000 0 0 1
1.829376 29.686143 5.155216 30.185923 1.509250 1.399173 0.087979 -0.038007 -30856.400000 0 0 1
2.352376 29.829343 3.829316 30.165992 1.492098 1.443511 0.073248 -0.042077 -196417.000000 0 0 1
1.462376 30.342043 2.896216 30.515016 1.522637 1.475742 0.081984 -0.041457 289086.000000 0 0 1
0.369176 29.383743 2.314716 29.477085 1.558233 1.492189 0.115263 -0.048803 395298.000000 0 0 1
1.007576 28.317143 1.611516 28.380852 1.535230 1.513984 0.117460 -0.053896 375226.000000 0 0 1
0.137976 27.404143 0.909816 27.419589 1.565762 1.537609 0.121655 -0.056187 157868.000000 0 0 1
-0.275624 27.904543 -0.485384 27.910125 -1.560919 1.588188 0.111517 -0.052757 91891.600000 0 0 1
-1.152624 29.016443 -0.527784 29.044123 -1.531094 1.588969 0.121153 -0.052177 -83591.100000 0 0 1
-1.030724 29.636343 -1.782284 29.707773 -1.536031 1.630826 0.128942 -0.049023 414989.000000 0 0 1
-2.196524 30.663043 -2.063384 30.810785 -1.499284 1.637816 0.156641 -0.044767 1592340.000000 0 0 1
-3.463124 30.278143 -2.658784 30.591311 -1.456914 1.657819 0.136539 -0.046528 1106730.000000 0 0 1
-3.372424 29.603043 -3.907084 30.049604 -1.457364 1.701187 0.097856 -0.037732 -1419400.000000 0 0 1
-4.705224 29.192943 -4.463384 29.904663 -1.410994 1.720610 0.096078 -0.025012 -493370.000000 0 0 1
-5.450024 30.204943 -5.207584 31.131339 -1.392282 1.738864 0.077606 -0.026245 694110.000000 0 0 1
-6.404524 29.538043 -6.052184 30.824387 -1.357278 1.768424 0.072905 -0.022765 -69465.200000 0 0 1
-7.110424 30.508043 -6.958984 32.089348 -1.341817 1.789396 0.073106 -0.023135 177943.000000 0 0 1
-8.128724 31.241943 -6.240584 32.879782 -1.316254 1.761755 0.070715 -0.009258 323352.000000 0 0 1
-8.365024 32.453443 -6.939384 34.225059 -1.318533 1.774969 0.074469 -0.027554 -168322.000000 0 0 1
-9.449524 33.302743 -6.258384 35.178595 -1.294317 1.749652 0.077689 -0.031907 1247610.000000 0 0 1
-10.785724 32.735543 -6.343684 35.045541 -1.252517 1.752812 0.075839 -0.026102 751557.000000 0 0 1
-11.710424 33.633943 -5.771184 36.078840 -1.235750 1.731447 0.075006 -0.027688 -255352.000000 0 0 1
-13.179424 33.229443 -5.838984 36.221359 -1.193208 1.732706 0.107735 -0.026685 -107417.000000 0 0 1
-13.762524 33.507243 -7.125184 36.917620 -1.181072 1.765017 0.112254 -0.032090 352083.000000 0 0 1
-15.119024 33.093343 -7.216484 37.092208 -1.142252 1.766600 0.148436 -0.046433 332284.000000 0 0 1
-15.802124 33.461143 -8.553484 37.980486 -1.129592 1.797952 0.196059 -0.048545 59289.900000 0 0 1
-17.121924 32.986743 -8.700884 38.170550 -1.092021 1.800766 0.248392 -0.054190 42650.000000 0 0 1
-18.029424 -33.610862 -8.944584 39.175959 1.078442 1.801146 0.237787 -0.059214 -1308980.000000 0 0 1
-19.430524 33.607143 -9.293284 39.916794 -1.046586 1.805769 0.222658 -0.064181 -827973.000000 0 0 1
-20.072124 32.885243 -8.289484 39.408691 -1.022788 1.782726 0.204250 -0.055569 -102479.000000 0 0 1
-20.609624 33.631243 -7.208484 40.097124 -1.021010 1.751555 0.166904 -0.039017 -434598.000000 0 0 1
-21.358524 32.808143 -6.154484 39.628758 -0.993709 1.726731 0.178997 -0.039990 -438345.000000 0 0 1
-21.342224 33.415643 -4.838184 39.943758 -1.002413 1.692219 0.156065 -0.038831 355037.000000 0 0 1
-22.494724 33.098543 -4.063484 40.224844 -0.973874 1.671988 0.184774 -0.037145 616354.000000 0 0 1
-23.761924 -33.706762 -4.333784 41.467536 0.956749 1.675498 0.204006 -0.053154 -158554.000000 0 0 1
-24.359024 33.753243 -5.589584 41.998654 -0.945668 1.704282 0.215915 -0.054113 601242.000000 0 0 1
-25.421424 -32.911762 -5.741184 41.980878 0.913105 1.707983 0.219572 -0.062499 1035160.000000 0 0 1
-25.938514 -32.941762 -7.249984 42.550305 0.903782 1.742018 0.246344 -0.064911 -149721.000000 0 0 1
-25.016974 -32.289162 -8.115484 41.644929 0.911624 1.766925 0.251618 -0.060596 76101.300000 0 0 1
-25.397964 -32.212262 -9.493284 42.104737 0.903134 1.798220 0.199027 -0.056857 -118510.000000 0 0 1
-26.565134 -31.254262 -9.804884 42.174293 0.866321 1.805428 0.163577 -0.043693 -585166.000000 0 0 1
-27.721074 -31.626462 -9.085984 43.026110 0.851109 1.783572 0.175222 -0.043443 172596.000000 0 0 1
-28.948284 -31.077062 -9.613184 43.545382 0.820848 1.793392 0.101073 -0.030056 804660.000000 0 0 1
-29.243004 -29.576162 -9.470984 42.656796 0.791062 1.794690 0.064874 -0.009718 -810352.000000 0 0 1
-28.300354 -28.678362 -10.083684 41.533591 0.792032 1.816031 0.076336 -0.010349 7746.420000 0 0 1
-28.326404 -28.589162 -11.499384 41.856436 0.790015 1.849109 0.078092 -0.010407 560040.000000 0 0 1
-27.009674 -27.958862 -12.116684 40.718970 0.802664 1.872941 0.099510 -0.018340 1090040.000000 0 0 1
-25.947464 -28.912462 -12.210484 40.722197 0.839392 1.875330 0.103176 -0.020749 594371.000000 0 0 1
-24.822124 -28.325862 -12.883784 39.805580 0.851227 1.900400 0.113429 -0.033571 1128210.000000 0 0 1
-23.517024 -29.186962 -12.985684 39.668088 0.892567 1.904303 0.127076 -0.048611 518326.000000 0 0 1
-23.563824 -30.252762 -13.894584 40.786553 0.909055 1.918421 0.131532 -0.048547 -622960.000000 0 0 1
-24.427824 -31.278562 -13.582984 41.947163 0.907763 1.900552 0.122643 -0.052180 -528282.000000 0 0 1
-24.339324 -32.490462 -14.508784 43.110760 0.927857 1.914044 0.129909 -0.047357 -92016.500000 0 0 1
-25.153004 -33.453262 -13.875884 44.094609 0.926090 1.890920 0.128194 -0.057301 -254519.000000 0 0 1
-24.994994 32.959243 -14.531784 43.843291 -0.921966 1.908635 0.151557 -0.046256 -77025.600000 0 0 1
-25.434584 31.717843 -13.673284 42.894036 -0.894897 1.895227 0.134810 -0.049006 654152.000000 0 0 1
-24.595724 31.311343 -12.530584 41.741651 -0.904946 1.875692 0.151903 -0.051602 722353.000000 0 0 1
-24.372124 32.353343 -11.560084 42.123328 -0.925180 1.848798 0.190334 -0.050977 169035.000000 0 0 1
-23.636624 31.955243 -10.254084 41.048432 -0.933933 1.823275 0.195562 -0.045982 396500.000000 0 0 1
-24.497124 31.246143 -9.357184 40.792002 -0.905885 1.802245 0.187264 -0.037242 425425.000000 0 0 1
-23.846024 30.764243 -8.170084 39.772123 -0.911410 1.777692 0.167484 -0.029680 196655.000000 0 0 1
-24.575224 29.542543 -7.558584 39.164214 -0.876929 1.765012 0.168381 -0.026521 107497.000000 0 0 1
-24.216224 28.374643 -8.278584 38.211004 -0.864305 1.789183 0.170558 -0.010130 148328.000000 0 0 1
-24.666324 27.151443 -7.646084 37.471203 -0.833320 1.776292 0.158637 -0.018222 251358.000000 0 0 1
-23.616424 26.495443 -6.696984 36.119158 -0.842787 1.757289 0.150008 -0.017979 71418.400000 0 0 1
-23.514224 27.207243 -5.439484 36.369504 -0.858080 1.720921 0.151560 -0.020068 441159.000000 0 0 1
-22.551324 26.701243 -4.509084 35.239899 -0.869458 1.699102 0.114074 -0.017067 986259.000000 0 0 1
-21.092024 27.263743 -4.639384 34.780872 -0.912343 1.704584 0.093917 -0.025940 515243.000000 0 0 1
-20.398324 26.950343 -5.823784 34.297654 -0.922903 1.741424 0.107473 -0.032861 -369358.000000 0 0 1
-19.246524 27.749943 -5.849884 34.274031 -0.964399 1.742316 0.106762 -0.033131 -278457.000000 0 0 1
-18.276724 27.470443 -7.025784 33.734634 -0.983724 1.780598 0.125862 -0.036477 -268042.000000 0 0 1
-18.393324 28.063543 -8.321884 34.570661 -0.990622 1.813905 0.150643 -0.045337 -28496.500000 0 0 1
-18.282924 29.511643 -8.337284 35.703119 -1.016151 1.806489 0.171632 -0.049717 -131290.000000 0 0 1
-18.378524 30.038243 -9.726784 36.533225 -1.021718 1.840291 0.200665 -0.049943 721126.000000 0 0 1
-17.201224 29.782543 -10.529784 35.968852 -1.047040 1.867895 0.187533 -0.050562 729619.000000 0 0 1
-17.192824 30.712243 -11.561884 37.047432 -1.060458 1.888181 0.211547 -0.058525 -27956.300000 0 0 1
-15.767124 30.960843 -12.097084 36.790154 -1.099768 1.905843 0.187711 -0.057415 85862.900000 0 0 1
-15.672624 31.847843 -13.229684 37.880612 -1.113481 1.927564 0.186744 -0.056495 -231436.000000 0 0 1
-15.622724 30.964143 -14.417684 37.559516 -1.103521 1.964772 0.173395 -0.056722 -128895.000000 0 0 1
-15.039124 31.517343 -15.749884 38.308968 -1.125579 1.994487 0.183039 -0.054631 -252945.000000 0 0 1
-13.645024 31.622243 -15.684184 37.843712 -1.163432 1.998131 0.174168 -0.063402 -456921.000000 0 0 1
-13.077524 32.256743 -16.823384 38.659350 -1.185626 2.021023 0.171791 -0.066569 -722127.000000 0 0 1
-11.570124 32.174143 -16.888584 38.134860 -1.225587 2.029588 0.171283 -0.058848 -876134.000000 0 0 1
-11.119524 30.844943 -17.121984 36.989413 -1.224800 2.052048 0.164171 -0.066292 -121375.000000 0 0 1
-9.850124 30.767043 -17.735284 36.853442 -1.260956 2.072863 0.154102 -0.057099 139361.000000 0 0 1
-9.894224 30.707643 -19.233584 37.560428 -1.259092 2.108390 0.141060 -0.055846 -487102.000000 0 0 1
-10.173924 29.475643 -19.804684 36.939786 -1.238436 2.136647 0.128509 -0.062844 -151763.000000 0 0 1
-10.534924 29.532043 -21.135384 37.813101 -1.228140 2.163907 0.114530 -0.060282 17128.100000 0 0 1
-12.071524 29.463443 -21.306284 38.311537 -1.181946 2.160521 0.115821 -0.049858 -143001.000000 0 0 1
-12.686524 30.722443 -21.265484 39.459311 -1.179185 2.139953 0.117265 -0.045369 -1135680.000000 0 0 1
-13.929324 30.681143 -20.675784 39.532855 -1.144619 2.121166 0.107305 -0.040141 -595033.000000 0 0 1
-14.843324 31.861043 -21.110684 41.001357 -1.134818 2.111661 0.144671 -0.051036 17348.800000 0 0 1
-15.469624 31.821543 -22.377784 41.865082 -1.118301 2.134738 0.112212 -0.040712 -60086.500000 0 0 1
-16.194324 33.026343 -22.515884 43.127259 -1.114902 2.120084 0.112087 -0.043745 125873.000000 0 0 1
-16.870224 33.184043 -23.900484 44.238200 -1.100464 2.141552 0.085084 -0.030011 -58974.800000 0 0 1
-15.949424 33.298843 -24.948084 44.560116 -1.124107 2.165031 0.108475 -0.029126 -433953.000000 0 0 1
-16.503324 33.141543 -26.212584 45.363213 -1.108778 2.186873 0.113858 -0.025908 -75054.400000 0 0 1
-16.850524 -33.179362 -26.954684 45.949594 1.100879 2.197668 0.091531 -0.016455 371794.000000 0 0 1
-18.126824 -32.692162 -26.583984 45.870115 1.064528 2.188972 0.096182 -0.016163 67786.500000 0 0 1
-18.678524 -31.739662 -27.482484 45.951935 1.038882 2.211887 0.072620 -0.007066 -552096.000000 0 0 1
-20.124424 -31.330562 -27.276584 46.158516 0.999835 2.203011 0.062728 -0.015394 -346347.000000 0 0 1
-20.973824 -32.475562 -27.350484 47.356229 0.997355 2.186518 0.064344 -0.015620 -396222.000000 0 0 1
-22.304724 -32.091162 -27.622484 47.857549 0.963405 2.186069 0.053540 -0.008492 174624.000000 0 0 1
-23.319824 -33.243662 -27.512884 49.050118 0.959077 2.166285 0.037399 0.005305 -115522.000000 0 0 1
-23.506324 -33.792962 -26.194184 48.791873 0.963031 2.137502 0.063606 -0.001792 70153.400000 0 0 1
-24.496624 32.826943 -26.038584 48.535561 -0.929709 2.137062 0.052862 -0.003202 629008.000000 0 0 1
-24.110624 31.477743 -26.678384 47.790236 -0.917160 2.163058 0.060100 -0.009865 100356.000000 0 0 1
-23.118924 30.714343 -26.036184 46.429930 -0.925565 2.166103 0.054091 -0.026805 -371418.000000 0 0 1
-23.609324 29.521443 -25.455084 45.572767 -0.896217 2.163444 0.061750 -0.028335 -58437.800000 0 0 1
33.095790 10.205543 -26.180972 43.415754 0.299112 2.218089 0.064206 -0.012998 -313545.000000 0 0 1
32.729600 8.877443 -25.949772 42.701597 0.264863 2.223958 0.053923 -0.008352 -3580.010000 0 0 1
31.343550 8.641443 -26.069952 41.674154 0.269018 2.246654 0.069492 -0.014766 25413.600000 0 0 1
30.965670 7.307043 -25.508672 40.779381 0.231733 2.246605 0.065598 -0.010985 -111397.000000 0 0 1
31.052530 7.280843 -24.098792 39.975268 0.230308 2.217855 0.048708 -0.000907 80606.100000 0 0 1
30.389440 6.143043 -23.568592 38.945264 0.199456 2.220779 0.058983 -0.003071 64822.300000 0 0 1
30.415040 5.712143 -22.030492 37.987443 0.185644 2.189453 0.072800 -0.000581 -104452.000000 0 0 1
31.685640 5.267843 -21.606592 38.711430 0.164746 2.162945 0.074809 0.000658 203352.000000 0 0 1
31.751020 5.096843 -20.221792 37.987182 0.159167 2.132149 0.070718 -0.005270 -39212.200000 0 0 1
33.160000 4.694143 -19.725292 38.867824 0.140626 2.103073 0.064475 0.001869 -18682.800000 0 0 1
33.464670 3.354043 -20.046692 39.153590 0.099893 2.108309 0.084091 -0.004248 64815.500000 0 0 1
34.418420 2.849943 -19.156792 39.493449 0.082614 2.077231 0.103452 -0.008926 -385943.000000 0 0 1
34.719140 1.319043 -19.197692 39.695213 0.037974 2.075591 0.121691 -0.015746 -44166.900000 0 0 1
33.694500 0.498143 -18.667392 38.523227 0.014783 2.076674 0.104855 -0.018565 -158277.000000 0 0 1
33.929350 -0.871657 -18.793492 38.796339 -0.025685 2.076490 0.101696 -0.019250 -563315.000000 0 0 1
32.903540 -1.850757 -18.233492 37.663357 -0.056189 2.076151 0.110339 -0.019133 -217835.000000 0 0 1
32.953660 -1.900457 -16.810392 37.042472 -0.057607 2.041837 0.129359 -0.024253 -422636.000000 0 0 1
31.670950 -1.559857 -16.405792 35.701992 -0.049212 2.048251 0.113107 -0.026625 -683913.000000 0 0 1
31.263180 -1.946357 -14.948692 34.707897 -0.062177 2.016065 0.125201 -0.029726 -214730.000000 0 0 1
31.131430 -3.357757 -14.704092 34.592641 -0.107442 2.009829 0.120243 -0.030628 386959.000000 0 0 1
30.411840 -3.623257 -13.503092 33.471503 -0.118581 1.986048 0.110864 -0.027269 23853.300000 0 0 1
30.153240 -5.135357 -13.300392 33.354013 -0.168690 1.980965 0.121964 -0.028255 -135138.000000 0 0 1
29.386340 -5.806657 -14.263292 33.177036 -0.195084 2.015195 0.100374 -0.029421 329395.000000 0 0 1
29.282640 -7.157657 -13.898392 33.194433 -0.239733 2.002806 0.106654 -0.029675 -137759.000000 0 0 1
28.657540 -8.078657 -14.982992 33.331807 -0.274773 2.037013 0.078568 -0.022505 516401.000000 0 0 1
27.323940 -7.763157 -15.381892 32.302738 -0.276821 2.067101 0.068205 -0.014352 725723.000000 0 0 1
26.814940 -8.581857 -16.463692 32.615065 -0.309739 2.099933 0.079128 -0.015813 401137.000000 0 0 1
25.410640 -8.122057 -16.934792 31.598348 -0.309369 2.136416 0.057759 -0.015863 85632.300000 0 0 1
25.449140 -6.832657 -17.548692 31.659130 -0.262297 2.158319 0.037366 -0.009450 677153.000000 0 0 1
24.145440 -6.426157 -18.019492 30.805841 -0.260114 2.195599 0.085127 -0.014603 942500.000000 0 0 1
23.865840 -6.898057 -19.506092 31.585584 -0.281367 2.236437 0.043685 -0.008005 51840.800000 0 0 1
24.553940 -6.069257 -20.461192 32.532941 -0.242323 2.250982 0.044128 -0.011335 374759.000000 0 0 1
24.289440 -6.391057 -21.807392 33.262364 -0.257289 2.285797 0.069285 -0.018505 -69531.300000 0 0 1
24.840140 -5.348557 -22.822592 34.154214 -0.212081 2.302612 0.075453 -0.021365 -98195.100000 0 0 1
24.988540 -5.868857 -24.067392 35.186787 -0.230681 2.324014 0.099028 -0.031485 105521.000000 0 0 1
25.283740 -4.825357 -24.894692 35.809179 -0.188580 2.339500 0.095587 -0.043162 -203407.000000 0 0 1
25.370940 -5.259557 -26.349422 36.954561 -0.204411 2.364596 0.137716 -0.051513 -808134.000000 0 0 1
24.125340 -5.646257 -26.829322 36.520197 -0.229901 2.395937 0.161661 -0.053853 -648738.000000 0 0 1
24.028440 -5.895557 -28.230842 37.538034 -0.240604 2.421978 0.158396 -0.057229 334062.000000 0 0 1
22.677140 -6.509257 -28.717832 37.166342 -0.279525 2.453855 0.144546 -0.065120 531731.000000 0 0 1
22.548140 -7.823357 -28.283342 37.007715 -0.333966 2.440682 0.121914 -0.053788 482167.000000 0 0 1
21.293040 -8.348257 -28.710982 36.707049 -0.373647 2.468930 0.135771 -0.059698 320563.000000 0 0 1
21.111840 -9.838157 -28.290322 36.644801 -0.436081 2.452801 0.151259 -0.045351 -1109520.000000 0 0 1
19.778740 -10.165857 -28.162942 35.884461 -0.474768 2.473206 0.162607 -0.041848 -660495.000000 0 0 1
19.605440 -11.305357 -27.357272 35.504996 -0.523069 2.450451 0.156633 -0.047519 -188068.000000 0 0 1
19.575440 -12.663457 -28.057252 36.479726 -0.574197 2.448258 0.132448 -0.034286 184426.000000 0 0 1
18.422340 -12.892257 -28.873492 36.596058 -0.610603 2.479941 0.132057 -0.033169 610619.000000 0 0 1
18.615640 -14.089257 -29.645722 37.734839 -0.647871 2.474514 0.100241 -0.030468 -265137.000000 0 0 1
17.538440 -14.476457 -30.682242 38.191160 -0.690046 2.503756 0.093991 -0.030182 -820285.000000 0 0 1
16.410140 -15.054557 -30.132962 37.469024 -0.742342 2.505141 0.078308 -0.030112 -728334.000000 0 0 1
15.784240 -15.756557 -31.158432 38.317871 -0.784520 2.520351 0.071038 -0.035103 -598064.000000 0 0 1
14.472440 -16.450357 -30.768162 37.772286 -0.849274 2.522783 0.076360 -0.038092 -285312.000000 0 0 1
14.645040 -17.553057 -29.927522 37.659575 -0.875470 2.489286 0.059627 -0.036790 617718.000000 0 0 1
13.477940 -17.984257 -29.192222 36.841202 -0.927660 2.485497 0.065987 -0.031132 658378.000000 0 0 1
13.744140 -19.179857 -28.307312 36.852031 -0.949021 2.446719 0.065215 -0.027950 -506751.000000 0 0 1
14.600240 -18.987157 -27.261592 36.288752 -0.915275 2.420736 0.067558 -0.021102 -645056.000000 0 0 1
14.678140 -20.131057 -26.410992 36.307682 -0.940787 2.385353 0.060311 -0.016038 237716.000000 0 0 1
15.611740 -19.950957 -25.171592 35.712409 -0.906814 2.352996 0.045430 -0.009374 -556934.000000 0 0 1
16.964840 -20.007157 -25.448202 36.547272 -0.867500 2.341039 0.070421 -0.020879 -806082.000000 0 0 1
17.761440 -19.892457 -24.281792 36.066384 -0.841933 2.309395 0.080569 -0.017830 1002270.000000 0 0 1
19.286840 -20.281357 -24.461292 37.170828 -0.810527 2.289059 0.050546 -0.006116 1127420.000000 0 0 1
19.718940 -21.635957 -24.601092 38.238266 -0.831720 2.269680 0.075941 -0.015437 358910.000000 0 0 1
19.365940 -22.377757 -23.448992 37.757898 -0.857424 2.240859 0.067722 -0.013391 -698122.000000 0 0 1
19.835140 -23.839657 -23.407792 38.854688 -0.876832 2.217357 0.058116 -0.014988 -639457.000000 0 0 1
21.222140 -23.883657 -23.203992 39.487131 -0.844336 2.198928 0.064392 -0.018927 -259747.000000 0 0 1
21.616140 -25.210877 -22.981292 40.385463 -0.862014 2.176145 0.072809 -0.029301 -222477.000000 0 0 1
21.668140 -25.666927 -21.505192 39.884492 -0.869676 2.140268 0.090207 -0.026307 -429797.000000 0 0 1
20.438140 -25.713557 -20.832292 38.895873 -0.899210 2.136004 0.068867 -0.022040 -140980.000000 0 0 1
20.671740 -26.143687 -19.499492 38.614031 -0.901754 2.100160 0.089181 -0.031480 -279362.000000 0 0 1
19.421040 -26.676447 -18.815692 37.984732 -0.941510 2.089033 0.067822 -0.029594 -860803.000000 0 0 1
19.218440 -28.013807 -19.174492 39.010037 -0.969505 2.084639 0.066321 -0.028977 -54774.400000 0 0 1
18.088440 -28.719717 -18.726692 38.764711 -1.008734 2.074972 0.053262 -0.026876 553763.000000 0 0 1
16.666740 -28.259057 -19.177392 38.001670 -1.037922 2.099768 0.051179 -0.028605 532523.000000 0 0 1
15.923740 -27.300657 -18.348292 36.545194 -1.042767 2.096788 0.061450 -0.033006 422191.000000 0 0 1
14.752340 -26.949257 -19.075792 36.163239 -1.069942 2.126441 0.049268 -0.021612 528349.000000 0 0 1
13.851940 -25.876017 -18.340192 34.609350 -1.079294 2.129303 0.035926 -0.023625 -113000.000000 0 0 1
13.117540 -26.530697 -17.279692 34.271497 -1.111616 2.099252 0.037785 -0.022314 135227.000000 0 0 1
12.072240 -25.664557 -16.833292 32.981331 -1.131120 2.106433 0.045842 -0.029518 408517.000000 0 0 1
10.728640 -25.817167 -17.608292 33.040608 -1.176947 2.132854 0.060347 -0.031359 -673637.000000 0 0 1
10.082440 -27.006137 -17.152992 33.544182 -1.213483 2.107557 0.065067 -0.009682 330189.000000 0 0 1
8.668340 -26.881117 -17.011892 32.971792 -1.258855 2.112916 0.062192 0.000356 815851.000000 0 0 1
7.900740 -27.317607 -18.290092 33.811253 -1.289261 2.142359 0.085867 -0.008625 -255944.000000 0 0 1
8.213240 -26.546747 -19.415692 33.899206 -1.270749 2.180650 0.098079 -0.019454 -155808.000000 0 0 1
7.859540 -27.222287 -20.610692 35.037493 -1.289723 2.199685 0.094462 -0.015375 -10691.700000 0 0 1
7.545640 -26.339657 -21.810292 35.020038 -1.291794 2.243106 0.107594 -0.012352 -599539.000000 0 0 1
6.451740 -25.508857 -21.652692 34.075883 -1.323070 2.259356 0.107524 -0.017901 -593609.000000 0 0 1
6.146340 -24.860057 -22.889492 34.347180 -1.328419 2.300187 0.094715 -0.025091 104903.000000 0 0 1
4.696740 -24.306457 -23.051892 33.826808 -1.379919 2.320563 0.074674 -0.017225 652865.000000 0 0 1
3.796540 -25.421867 -23.129392 34.578227 -1.422550 2.303525 0.067790 -0.015518 5365.210000 0 0 1
2.513840 -25.087017 -23.601492 34.535608 -1.470925 2.323200 0.056398 -0.019780 210326.000000 0 0 1
1.685140 -26.270347 -24.128592 35.709379 -1.506738 2.312701 0.028325 -0.007225 116670.000000 0 0 1
2.166540 -26.726327 -25.383912 36.923345 -1.489909 2.328804 0.035758 -0.012948 248003.000000 0 0 1
1.207240 -27.550827 -26.005972 37.905357 -1.527006 2.326879 0.044205 -0.018724 -18210.600000 0 0 1
1.793840 -28.271197 -27.188162 39.264164 -1.507430 2.335665 0.053628 -0.015994 -857055.000000 0 0 1
2.184640 -27.648497 -28.399732 39.695804 -1.491945 2.368042 0.062786 -0.014345 -30814.000000 0 0 1
2.676540 -28.673357 -29.245162 41.043937 -1.477720 2.363898 0.089534 -0.032531 -548026.000000 0 0 1
4.154740 -29.002507 -29.082492 41.281941 -1.428510 2.352493 0.098626 -0.030301 -1000260.000000 0 0 1
4.368240 -29.762497 -27.850822 40.994585 -1.425067 2.317711 0.086173 -0.040997 -141707.000000 0 0 1
5.461840 -30.632727 -28.114032 41.935599 -1.394350 2.305557 0.115002 -0.047805 159902.000000 0 0 1
5.664240 -31.805357 -27.091752 42.161919 -1.394553 2.268637 0.143641 -0.062161 -621610.000000 0 0 1
4.807640 -32.873947 -27.273692 42.984463 -1.425581 2.258159 0.126358 -0.064581 -385027.000000 0 0 1
5.060440 33.724509 -26.379582 43.114184 1.421855 2.229199 0.135423 -0.069750 171985.000000 0 0 1
3.837540 32.804648 -26.048002 42.063880 1.454344 2.238582 0.171494 -0.071610 222490.000000 0 0 1
3.203640 32.212579 -27.151582 42.250703 1.471669 2.268723 0.136267 -0.066601 56499.800000 0 0 1
1.852240 31.907143 -26.907752 41.779465 1.512810 2.270567 0.086045 -0.059275 387699.000000 0 0 1
0.888640 32.024903 -28.147822 42.646031 1.543055 2.291660 0.090740 -0.030221 327916.000000 0 0 1
0.817940 30.889019 -29.029482 42.397067 1.544323 2.324995 0.121200 -0.026477 -269484.000000 0 0 1
-0.058460 31.182619 -30.065612 43.316280 -1.568922 2.337958 0.110282 -0.029598 -264021.000000 0 0 1
0.115740 30.290439 -31.310092 43.564274 1.566975 2.372742 0.095474 -0.028657 -426496.000000 0 0 1
1.264240 30.574379 -32.050752 44.312996 1.529470 2.379338 0.126585 -0.034685 -371348.000000 0 0 1
1.421940 29.454319 -32.887452 44.171974 1.522558 2.410630 0.121532 -0.038598 -336552.000000 0 0 1
2.700840 29.433749 33.651666 44.789226 1.479293 0.720715 0.139483 -0.036718 -339845.000000 0 0 1
2.841340 30.342759 32.586966 44.616887 1.477427 0.751929 0.141656 -0.033581 -286961.000000 0 0 1
3.687140 29.939399 31.541157 43.644097 1.448260 0.763110 0.119612 -0.027675 -372229.000000 0 0 1
3.157640 28.880749 30.560186 42.166258 1.461895 0.760118 0.117220 -0.027608 -79778.700000 0 0 1
2.838640 27.565429 30.917086 41.518393 1.468180 0.730771 0.122471 -0.029629 716242.000000 0 0 1
4.039940 26.791729 30.986866 41.161921 1.421133 0.718484 0.118668 -0.022137 321702.000000 0 0 1
3.683740 25.389239 31.434542 40.574793 1.426711 0.684507 0.096178 -0.020979 101051.000000 0 0 1
2.908840 24.667139 30.501206 39.335133 1.453415 0.683418 0.113557 -0.019626 187368.000000 0 0 1
2.913040 23.274069 30.907756 38.800225 1.446281 0.649168 0.086299 -0.014201 -26978.600000 0 0 1
2.198940 22.384449 29.871336 37.392454 1.472875 0.645399 0.091155 -0.006398 633806.000000 0 0 1
0.787240 22.344249 30.080656 37.479742 1.535579 0.639181 0.094130 -0.019723 263660.000000 0 0 1
0.166040 21.514149 29.113506 36.200586 1.563079 0.636422 0.095811 -0.015149 618197.000000 0 0 1
-1.306260 21.190149 29.514496 36.357038 -1.509230 0.623575 0.088280 -0.012741 648766.000000 0 0 1
-2.243760 22.289249 29.497096 37.039489 -1.470469 0.649529 0.100187 -0.019074 -458665.000000 0 0 1
-3.476560 21.763749 29.814676 37.076437 -1.412394 0.636568 0.080126 -0.021888 -1082460.000000 0 0 1
-4.547060 22.858189 29.956836 37.955034 -1.374435 0.661174 0.057311 -0.030921 -183624.000000 0 0 1
-4.641160 23.353659 31.299772 39.326956 -1.374619 0.650327 0.072036 -0.031350 -26951.800000 0 0 1
-5.367460 24.536599 31.325443 40.151435 -1.355436 0.675839 0.057809 -0.031127 -378506.000000 0 0 1
-5.434760 25.105269 32.759705 41.629430 -1.357607 0.664969 0.083978 -0.027418 378429.000000 0 0 1
-6.599160 25.866079 33.086109 42.512276 -1.320997 0.678887 0.062555 -0.024827 456723.000000 0 0 1
-6.588160 26.148249 -32.889632 42.530726 -1.323979 2.454849 0.077343 -0.020144 774799.000000 0 0 1
-8.019560 26.541519 -32.364012 42.616837 -1.277367 2.433215 0.083940 -0.012088 650856.000000 0 0 1
-8.374860 27.919579 -32.596762 43.728595 -1.279373 2.411981 0.087188 -0.020760 1179050.000000 0 0 1
-9.710260 28.207589 -32.093512 43.817242 -1.239260 2.392696 0.082628 -0.016577 1252530.000000 0 0 1
-9.819460 28.601539 -30.600082 43.021330 -1.240085 2.362110 0.088996 -0.015112 -31665.600000 0 0 1
-9.184560 29.854029 -30.315952 43.527877 -1.272337 2.341266 0.091407 -0.018286 112061.000000 0 0 1
-9.076860 30.010919 -28.925232 42.658102 -1.277092 2.315932 0.105107 -0.019388 -51894.400000 0 0 1
-8.369460 31.290219 -28.422422 43.092455 -1.309436 2.291041 0.095321 -0.021083 -808633.000000 0 0 1
-7.010260 31.361539 -28.630962 43.039770 -1.350881 2.298586 0.065328 -0.021755 -1365410.000000 0 0 1
-6.519060 32.641798 -28.325642 43.707289 -1.373675 2.275852 0.072674 -0.014816 -91738.000000 0 0 1
-4.979160 32.655938 -28.422382 43.577909 -1.419488 2.281306 0.079888 -0.020598 100385.000000 0 0 1
-4.333560 -33.763847 -28.072892 44.123286 1.443145 2.260408 0.091591 -0.019281 42334.300000 0 0 1
-4.312160 -32.786067 -29.120502 44.062734 1.440023 2.292797 0.096859 -0.028078 -383968.000000 0 0 1
-3.357760 -32.906367 -30.335302 44.881333 1.469108 2.312982 0.092002 -0.029369 -317750.000000 0 0 1
-3.622960 33.818099 -31.405272 46.293420 -1.464073 2.316374 0.086405 -0.016769 343838.000000 0 0 1
-4.637860 -33.436417 -32.345282 46.751695 1.432969 2.334848 0.110624 -0.023661 401117.000000 0 0 1
-4.180060 -32.342337 -33.325762 46.627310 1.442265 2.367029 0.093333 -0.030885 -284458.000000 0 0 1
-4.114860 -31.143887 -32.673932 45.326147 1.439433 2.375843 0.085958 -0.031425 103570.000000 0 0 1
-3.700460 -30.183817 -33.644492 45.350943 1.448808 2.406651 0.083111 -0.047189 -30898.200000 0 0 1
35.306670 18.195043 12.789616 41.727627 0.475846 1.259280 0.079048 -0.044879 -356793.000000 0 0 1
36.525750 17.681543 13.204916 42.674784 0.450834 1.256201 0.090291 -0.050295 -589635.000000 0 0 1
36.391030 16.278643 13.492116 42.087272 0.420628 1.244460 0.109829 -0.025834 774938.000000 0 0 1
37.749150 15.638943 13.990416 43.189196 0.392761 1.240912 0.088100 -0.042194 1500790.000000 0 0 1
-36.978654 15.411243 13.022116 42.124848 -0.394871 1.256517 0.087858 -0.024538 615856.000000 0 0 1
-37.216344 14.271943 12.225216 41.691733 -0.366190 1.273194 0.132473 -0.045321 -919704.000000 0 0 1
-35.974494 13.440643 11.991716 40.232032 -0.357557 1.268133 0.160622 -0.033557 -700510.000000 0 0 1
-35.569281 12.810043 13.194016 40.041891 -0.345683 1.235017 0.132144 -0.031402 66739.200000 0 0 1
-36.193424 11.559043 13.580116 40.348420 -0.309130 1.227523 0.137993 -0.032319 -25088.900000 0 0 1
-35.523891 11.044243 14.860216 40.059309 -0.301423 1.190759 0.164479 -0.052724 195889.000000 0 0 1
-35.894755 11.832243 15.985516 41.036230 -0.318420 1.170657 0.157588 -0.043352 291005.000000 0 0 1
-35.033907 11.573343 17.085916 40.660121 -0.319060 1.137116 0.142432 -0.044808 193353.000000 0 0 1
-35.199316 12.653543 18.187216 41.591813 -0.345097 1.118226 0.130795 -0.048944 -66877.200000 0 0 1
-36.469534 12.628943 18.803516 42.931217 -0.333364 1.117433 0.133646 -0.056583 41060.700000 0 0 1
-36.453304 13.392643 20.028816 43.696222 -0.352084 1.094642 0.147032 -0.050827 -1234890.000000 0 0 1
-37.747174 13.286543 20.757616 45.080595 -0.338445 1.092288 0.151696 -0.069309 -1010030.000000 0 0 1
37.782510 11.916543 21.118116 44.894286 0.305523 1.081056 0.128705 -0.053971 1004200.000000 0 0 1
36.547590 11.925343 21.889416 44.238973 0.315404 1.053192 0.155478 -0.059304 1180060.000000 0 0 1
36.481650 10.567543 22.695006 44.245306 0.281951 1.032195 0.142173 -0.055441 -81285.100000 0 0 1
37.412740 10.464643 23.762536 45.539873 0.272738 1.021841 0.121483 -0.039943 -407947.000000 0 0 1
37.174850 11.205243 24.957396 46.156241 0.292759 0.999509 0.120284 -0.034646 -1744450.000000 0 0 1
-37.416084 11.523643 25.900476 46.942437 -0.298768 0.986336 0.121782 -0.035456 313970.000000 0 0 1
-36.502544 12.502243 25.404456 46.196626 -0.329981 0.988528 0.139116 -0.041644 26896.600000 0 0 1
-35.705405 11.953843 24.368346 44.850715 -0.323062 0.996408 0.127441 -0.044127 -1454220.000000 0 0 1
-34.644410 12.972443 23.850886 44.015727 -0.358284 0.998134 0.127223 -0.047490 817895.000000 0 0 1
-33.541174 13.286843 24.723446 43.735562 -0.377170 0.970007 0.128890 -0.046027 505130.000000 0 0 1
-33.901634 14.029043 25.930206 44.927836 -0.392360 0.955559 0.114097 -0.041451 -835826.000000 0 0 1
-32.744414 14.421843 26.858586 44.738908 -0.414873 0.926869 0.114918 -0.036441 -383482.000000 0 0 1
-31.919704 15.385243 26.288576 44.120998 -0.449143 0.932499 0.108969 -0.038823 -478729.000000 0 0 1
-31.299444 16.160943 27.269266 44.547101 -0.476629 0.912026 0.102163 -0.035159 -267386.000000 0 0 1
-30.871804 17.479443 26.690236 44.395585 -0.515191 0.925805 0.108754 -0.021575 -396178.000000 0 0 1
-31.934714 18.288643 26.229936 45.191924 -0.520095 0.951562 0.092840 -0.030144 67892.100000 0 0 1
-31.501744 19.522643 25.664416 45.079438 -0.554802 0.965123 0.083838 -0.029170 -478941.000000 0 0 1
-32.589334 20.361543 24.996646 45.842006 -0.558449 0.994075 0.082269 -0.017501 -368637.000000 0 0 1
-33.459164 21.021543 25.907576 47.250645 -0.560951 0.990465 0.078068 -0.024998 425709.000000 0 0 1
-34.321185 21.902843 25.197296 47.880915 -0.568016 1.016613 0.092756 -0.021791 -401014.000000 0 0 1
-34.192087 23.428043 25.392006 48.607880 -0.600716 1.021151 0.094797 -0.019285 21422.700000 0 0 1
-35.034071 24.143643 24.472116 49.083461 -0.603405 1.048834 0.109705 -0.024212 272835.000000 0 0 1
-35.028653 25.536043 24.615346 49.849888 -0.629928 1.054354 0.118001 -0.031958 385587.000000 0 0 1
-36.053174 26.167943 23.631916 50.428763 -0.627842 1.083069 0.131322 -0.029936 333749.000000 0 0 1
-35.611124 25.970943 22.272026 49.383046 -0.630116 1.102905 0.152308 -0.036041 113248.000000 0 0 1
-36.486984 26.630443 21.393116 49.981456 -0.630487 1.128494 0.154391 -0.043350 51374.200000 0 0 1
-36.307404 26.274043 19.877016 49.027021 -0.626426 1.153347 0.181579 -0.058079 57707.200000 0 0 1
-36.664744 24.953943 19.513716 48.453977 -0.597585 1.156302 0.178126 -0.053888 101029.000000 0 0 1
-36.225554 24.627143 18.190816 47.430926 -0.597059 1.177189 0.183583 -0.051249 17810.600000 0 0 1
-36.728774 23.256343 17.597716 46.899254 -0.564468 1.186158 0.174694 -0.040745 -675614.000000 0 0 1
37.742310 23.178643 17.172516 47.503966 0.550744 1.200924 0.153912 -0.052000 -1041530.000000 0 0 1
37.650730 22.157443 16.206316 46.595863 0.531920 1.215566 0.135125 -0.048925 -259925.000000 0 0 1
36.414250 22.248343 15.305816 45.334914 0.548453 1.226413 0.134231 -0.038902 -129573.000000 0 0 1
35.329140 21.440243 15.664816 44.195233 0.545457 1.208475 0.124524 -0.047787 476240.000000 0 0 1
34.231280 21.580643 14.731616 43.064199 0.562499 1.221661 0.123323 -0.040851 631185.000000 0 0 1
32.920240 20.798643 15.040616 41.743813 0.563466 1.202199 0.104129 -0.047846 515760.000000 0 0 1
32.175240 21.259043 16.175316 41.819061 0.583879 1.173645 0.109716 -0.048023 -377251.000000 0 0 1
31.297060 22.260243 15.829516 41.540318 0.618241 1.179850 0.113112 -0.034303 -1314130.000000 0 0 1
30.484940 22.779243 17.011116 41.684572 0.641726 1.150434 0.095875 -0.033471 -341059.000000 0 0 1
31.256930 23.352543 18.030516 42.981816 0.641653 1.137911 0.042676 -0.026275 -410116.000000 0 0 1
30.487040 23.882643 19.073616 43.169933 0.664518 1.113163 0.032683 -0.013499 27265.900000 0 0 1
31.369750 24.567043 20.115916 44.634638 0.664378 1.103270 0.038529 -0.012686 285966.000000 0 0 1
32.216850 25.625243 19.727816 45.648278 0.671929 1.123899 0.062836 -0.016732 -46890.500000 0 0 1
33.074790 26.041243 20.763016 46.938161 0.666976 1.112581 0.075533 -0.019470 -608645.000000 0 0 1
34.173700 26.960543 20.155516 47.968297 0.667952 1.137148 0.101381 -0.028601 550051.000000 0 0 1
35.239740 27.326343 21.051616 49.312664 0.659586 1.129734 0.096051 -0.022023 510189.000000 0 0 1
34.899640 28.288943 22.035416 50.038073 0.681159 1.114782 0.059079 -0.007438 -376249.000000 0 0 1
35.828210 28.400743 23.263296 51.297600 0.670269 1.100111 0.062474 -0.014836 329069.000000 0 0 1
37.032060 29.117043 23.063846 52.451089 0.666310 1.115508 0.102510 -0.018942 -111307.000000 0 0 1
37.574400 29.510743 24.298936 53.601845 0.665772 1.100307 0.118413 -0.019020 1162390.000000 0 0 1
-36.869504 30.382543 24.189476 53.549884 -0.689238 1.102106 0.122246 -0.032622 1384600.000000 0 0 1
-35.687582 29.683843 23.843586 52.184775 -0.693815 1.096281 0.123313 -0.033829 -406632.000000 0 0 1
-34.590438 30.479443 24.191206 52.064473 -0.722304 1.087569 0.114515 -0.028338 285621.000000 0 0 1
-33.166324 29.847343 24.055076 50.690390 -0.732776 1.076345 0.136659 -0.040695 308343.000000 0 0 1
-32.733134 29.977043 22.742946 49.873067 -0.741477 1.097282 0.128797 -0.038532 -154691.000000 0 0 1
-33.035194 28.984243 21.772316 49.045328 -0.720173 1.110825 0.145162 -0.038277 -322481.000000 0 0 1
-32.396874 27.646343 22.100316 47.982307 -0.706444 1.092133 0.134942 -0.031276 -784206.000000 0 0 1
-31.002804 27.657943 22.180516 47.096826 -0.728439 1.080423 0.096469 -0.029567 -478164.000000 0 0 1
-30.527964 26.466143 22.741846 46.363832 -0.714251 1.058123 0.089819 -0.034514 -38529.500000 0 0 1
-30.265834 26.518843 24.324416 47.020708 -0.719508 1.027088 0.090836 -0.029424 418750.000000 0 0 1
-31.487474 26.612943 25.074506 48.253919 -0.701696 1.024371 0.078468 -0.027161 685251.000000 0 0 1
-31.181244 27.109343 26.363376 49.012387 -0.715656 1.002862 0.084228 -0.029491 400779.000000 0 0 1
-32.434334 27.459343 27.247486 50.481948 -0.702525 1.000660 0.087904 -0.031655 553996.000000 0 0 1
-33.013254 26.282943 27.775466 50.518755 -0.672379 0.988666 0.070311 -0.028316 -225422.000000 0 0 1
-34.143449 26.567043 28.564276 51.841111 -0.661244 0.987238 0.078733 -0.019376 -89020.700000 0 0 1
-34.831308 25.277343 29.066146 51.932697 -0.627772 0.976786 0.070348 -0.011057 -229106.000000 0 0 1
-34.002960 24.572043 29.948206 51.544948 -0.625762 0.950825 0.068771 -0.017241 8649.310000 0 0 1
-34.653700 23.392643 30.478026 51.739780 -0.593777 0.940897 0.050340 -0.023745 243189.000000 0 0 1
-33.839944 22.644943 31.575982 51.526478 -0.589739 0.911184 0.067305 -0.036693 -10281.900000 0 0 1
-32.654454 22.123343 30.990536 50.161430 -0.595464 0.904834 0.067134 -0.029752 736887.000000 0 0 1
-31.789564 21.277443 31.808176 49.750036 -0.589838 0.877131 0.077525 -0.036128 1126720.000000 0 0 1
-30.896024 21.973843 32.902535 50.199511 -0.618216 0.856037 0.083292 -0.041371 -182003.000000 0 0 1
-31.695264 22.544743 -33.475872 51.317534 -0.618268 2.281448 0.103258 -0.045231 113530.000000 0 0 1
-31.555304 21.875843 -32.235522 50.134007 -0.606184 2.269189 0.091378 -0.028309 -207952.000000 0 0 1
-30.329444 22.217943 -31.366492 48.962935 -0.632242 2.266098 0.103372 -0.032239 -281609.000000 0 0 1
-30.220834 23.604143 -31.114842 49.382060 -0.663082 2.252458 0.101195 -0.031402 254990.000000 0 0 1
-29.056594 23.969743 -30.386062 48.395734 -0.689760 2.249605 0.128840 -0.028865 29687.100000 0 0 1
-29.266834 25.317543 -29.674772 48.765948 -0.713172 2.224983 0.117281 -0.023082 -78104.200000 0 0 1
-29.345944 26.441143 -30.545942 49.933687 -0.733376 2.229042 0.117387 -0.025885 -408854.000000 0 0 1
-30.630524 26.733543 -31.008522 51.131593 -0.717568 2.222379 0.094411 -0.027226 -869837.000000 0 0 1
-30.757494 28.103643 -31.781362 52.401271 -0.740342 2.222447 0.109965 -0.022983 -24900.600000 0 0 1
-30.633004 29.207243 -30.928642 52.421607 -0.761577 2.201853 0.094097 -0.028781 -62578.300000 0 0 1
-29.411904 29.857743 -31.199342 52.248865 -0.792920 2.210714 0.092249 -0.030144 -244739.000000 0 0 1
-29.337844 31.305143 -30.711772 52.762999 -0.817827 2.192069 0.077338 -0.019477 -11055.300000 0 0 1
-29.158524 31.475843 -29.319102 51.966893 -0.823597 2.170246 0.091216 -0.018074 14508.200000 0 0 1
-29.391984 32.834843 -29.043352 52.778139 -0.840669 2.153509 0.062751 -0.016103 -280982.000000 0 0 1
-29.133914 33.257243 -27.618682 52.130805 -0.851391 2.129156 0.047021 -0.015114 -307299.000000 0 0 1
-27.767194 33.446343 -27.363022 51.365455 -0.877909 2.132599 0.054906 0.001432 -333319.000000 0 0 1
-27.362904 -32.838762 -27.492922 50.822963 0.876107 2.142368 0.053040 0.012732 -436736.000000 0 0 1
-27.792334 -31.766762 -26.478542 49.826240 0.852030 2.131069 0.044069 0.016909 523995.000000 0 0 1
-29.211154 -31.550262 -26.511782 50.513218 0.823876 2.123333 0.047350 -0.002428 477789.000000 0 0 1
-29.571054 -30.694662 -25.475442 49.654886 0.804040 2.109531 0.047921 0.004878 -204436.000000 0 0 1
-31.089884 -30.500862 -25.404362 50.420880 0.775835 2.098842 0.037984 -0.000780 -305128.000000 0 0 1
-31.646674 -29.660062 -26.364262 50.757321 0.753005 2.116966 0.034348 -0.004718 429734.000000 0 0 1
-33.064334 -29.604162 -26.249192 51.562358 0.730240 2.104908 0.043273 -0.008645 285724.000000 0 0 1
-33.757054 -28.745262 -27.282462 52.059212 0.705384 2.122414 0.063113 -0.022272 224380.000000 0 0 1
-35.177461 -28.710462 -27.272502 52.967290 0.684518 2.111679 0.063973 -0.025556 513879.000000 0 0 1
-35.773111 -27.804162 -28.214812 53.374737 0.660706 2.127767 0.068413 -0.034533 -625432.000000 0 0 1
-37.253404 -27.978062 -28.421982 54.574694 0.644154 2.118573 0.059245 -0.035845 -614771.000000 0 0 1
37.674770 -27.477562 -27.400032 54.084808 -0.630144 2.102047 0.048006 -0.027597 6018.790000 0 0 1
36.323630 -27.649062 -27.786512 53.441248 -0.650622 2.117583 0.050485 -0.030442 386593.000000 0 0 1
35.328760 -26.912362 -26.823882 51.883689 -0.650991 2.114139 0.063473 -0.025969 198674.000000 0 0 1
35.147980 -27.460962 -25.542492 51.399454 -0.663231 2.090866 0.061399 -0.020463 -87374.800000 0 0 1
34.049910 -26.880162 -24.903792 50.021379 -0.668265 2.091929 0.072537 -0.007115 -536956.000000 0 0 1
33.865400 -27.488862 -23.532692 49.560977 -0.681840 2.065559 0.066763 0.003380 96037.600000 0 0 1
33.323160 -28.825962 -23.680092 50.021154 -0.713163 2.063945 0.085741 -0.005815 91325.000000 0 0 1
32.905090 -29.466262 -22.451592 49.548759 -0.730319 2.041060 0.093430 -0.002837 246980.000000 0 0 1
33.921460 -29.608662 -21.246692 49.787150 -0.717616 2.011693 0.072751 0.005483 -403686.000000 0 0 1
35.058090 -30.421462 -21.515692 51.161119 -0.714706 2.004845 0.056381 -0.001639 180978.000000 0 0 1
36.121110 -30.266562 -20.617792 51.438242 -0.697438 1.983215 0.045344 0.006446 424017.000000 0 0 1
36.914630 -28.925962 -20.611892 51.227447 -0.664655 1.984890 0.035683 0.010360 -717386.000000 0 0 1
36.068380 -27.895362 -20.203192 49.872319 -0.658311 1.987883 0.036094 0.023633 -133651.000000 0 0 1
36.666750 -26.580762 -20.420192 49.678685 -0.627261 1.994397 0.020393 0.021602 103522.000000 0 0 1
35.697730 -25.395662 -20.267292 48.270392 -0.618342 2.004098 0.037422 0.026697 -20214.400000 0 0 1
34.560200 -25.556562 -21.084892 47.876069 -0.636734 2.026847 0.048541 0.016593 610730.000000 0 0 1
33.455090 -24.742662 -20.658892 46.456778 -0.636798 2.031625 0.058209 0.000678 103748.000000 0 0 1
32.163520 -24.783362 -21.436192 45.915329 -0.656519 2.056537 0.086619 -0.006039 -451940.000000 0 0 1
31.414160 -25.981062 -21.349292 46.018011 -0.691018 2.053227 0.105823 -0.007791 -141613.000000 0 0 1
30.341540 -25.927962 -22.263692 45.700550 -0.707122 2.079636 0.117018 -0.012351 157485.000000 0 0 1
29.674040 -27.298462 -22.499692 46.173486 -0.743725 2.079775 0.120920 -0.014427 -153569.000000 0 0 1
29.039940 -27.937362 -21.459492 45.654399 -0.766049 2.060135 0.128148 -0.015445 -199940.000000 0 0 1
28.617040 -29.229162 -21.775592 46.340644 -0.795980 2.059977 0.115188 -0.016969 -55853.000000 0 0 1
28.082740 -30.076962 -20.594792 46.015317 -0.819673 2.034836 0.124607 -0.006342 -122569.000000 0 0 1
29.023840 -30.402962 -19.611292 46.382391 -0.808601 2.007349 0.124188 -0.002922 -3578.240000 0 0 1
29.917440 -31.488062 -19.811892 47.739526 -0.810970 1.998739 0.123731 0.000199 439616.000000 0 0 1
30.767740 -31.802662 -18.538692 47.976518 -0.801937 1.967534 0.098592 0.000945 135306.000000 0 0 1
30.157140 -32.476662 -17.442992 47.628192 -0.822414 1.945753 0.119814 -0.008348 -182458.000000 0 0 1
29.552040 -31.610062 -16.501792 46.312291 -0.819034 1.935118 0.107733 -0.012510 284684.000000 0 0 1
28.650640 -32.394162 -15.480392 45.933468 -0.846646 1.914544 0.103885 -0.010389 -112781.000000 0 0 1
27.369840 -32.730962 -15.925992 45.541863 -0.874365 1.928047 0.119140 -0.012194 -239927.000000 0 0 1
26.691140 -33.553362 -14.967992 45.412398 -0.898816 1.906678 0.097535 -0.009012 -370710.000000 0 0 1
25.172140 -33.541962 -15.041692 44.552804 -0.926996 1.915178 0.095559 -0.011721 -369317.000000 0 0 1
24.545540 -32.377562 -14.516892 43.145454 -0.922129 1.913956 0.100095 -0.007191 -83114.600000 0 0 1
23.181240 -32.607762 -14.293092 42.484451 -0.952785 1.913921 0.094446 -0.014963 -316491.000000 0 0 1
-0.290324 -7.295657 -28.861262 29.770511 1.531023 2.893808 0.170300 -0.040373 12661.800000 0 0 1
0.050876 -8.620557 -28.593752 29.865017 -1.564895 2.848770 0.167311 -0.037828 -77450.400000 0 0 1
-0.076224 -9.337857 -29.775092 31.205088 1.562634 2.837685 0.177449 -0.054430 -117840.000000 0 0 1
0.344076 -10.811657 -29.656712 31.567877 -1.538983 2.791843 0.201772 -0.045832 340015.000000 0 0 1
1.734376 -10.962257 -29.409792 31.434297 -1.413884 2.780739 0.119638 -0.049572 181907.000000 0 0 1
2.042976 -12.191957 -28.722102 31.269421 -1.404771 2.735159 0.141398 -0.052111 109998.000000 0 0 1
3.533276 -12.515557 -28.486392 31.314497 -1.295646 2.713326 0.098587 -0.040271 131195.000000 0 0 1
4.259776 -12.839757 -29.695982 32.632138 -1.250458 2.714135 0.116832 -0.048177 -441298.000000 0 0 1
5.628376 -13.019657 -29.523702 32.754222 -1.162760 2.693721 0.109494 -0.045937 -362462.000000 0 0 1
6.100076 -14.420757 -29.106882 33.051168 -1.170615 2.648052 0.107983 -0.040741 -1284480.000000 0 0 1
5.717176 -14.743157 -27.770202 31.956703 -1.200864 2.623963 0.096599 -0.037769 144349.000000 0 0 1
6.417376 -15.772857 -27.041422 31.956286 -1.184388 2.579610 0.098003 -0.027346 -78561.300000 0 0 1
6.174176 -17.232057 -27.575902 33.098257 -1.226750 2.555580 0.077030 -0.036655 -56064.100000 0 0 1
6.676976 -17.388457 -28.900072 34.382475 -1.204168 2.569088 0.101128 -0.051680 328371.000000 0 0 1
6.172176 -18.627357 -29.357242 35.311780 -1.250832 2.552369 0.084515 -0.047230 -95818.300000 0 0 1
6.687676 -18.968957 -30.776042 36.765624 -1.231844 2.562734 0.104773 -0.065296 131766.000000 0 0 1
8.087176 -19.163357 -30.867512 37.221499 -1.171459 2.548637 0.104282 -0.058046 80979.400000 0 0 1
8.382976 -19.881257 -32.081112 38.661821 -1.171765 2.549524 0.106563 -0.050329 302838.000000 0 0 1
9.880976 -19.911557 -32.498692 39.373453 -1.110159 2.541700 0.096403 -0.041122 219993.000000 0 0 1
10.279076 -18.612857 -32.836912 39.119824 -1.066222 2.566962 0.110029 -0.045744 147618.000000 0 0 1
11.269676 -18.537557 33.526946 39.933729 -1.024561 0.574315 0.092710 -0.045054 -44426.000000 0 0 1
11.663676 -17.104957 32.982044 38.941445 -0.972329 0.560546 0.095598 -0.039687 -1034290.000000 0 0 1
10.593576 -16.466757 32.408142 37.863777 -0.999124 0.543480 0.121863 -0.039543 -579108.000000 0 0 1
10.868976 -15.162157 31.977384 37.021328 -0.948852 0.528120 0.119712 -0.032561 -17238.300000 0 0 1
9.752676 -14.711157 31.015486 35.686037 -0.985375 0.517374 0.173319 -0.041230 203073.000000 0 0 1
9.913876 -15.316457 29.745426 34.895117 -0.996343 0.550193 0.163148 -0.036900 47681.800000 0 0 1
8.909676 -14.903557 28.827756 33.653200 -1.031980 0.542128 0.161254 -0.032355 191012.000000 0 0 1
8.680376 -15.782057 27.553886 32.918671 -1.067941 0.578966 0.110609 -0.014828 -403037.000000 0 0 1
8.139676 -17.082357 27.670066 33.521543 -1.126128 0.599813 0.098846 -0.016512 374070.000000 0 0 1
8.380676 -17.868857 26.472656 33.020196 -1.132246 0.640644 0.073197 -0.008362 16344.200000 0 0 1
7.964476 -19.340157 26.659016 33.884771 -1.180150 0.665262 0.090432 -0.016865 86575.700000 0 0 1
8.679476 -19.855257 27.766156 35.221073 -1.158690 0.662691 0.094788 -0.010947 315026.000000 0 0 1
7.942376 -20.892357 28.276376 36.043382 -1.207512 0.668892 0.096538 -0.019759 -365371.000000 0 0 1
8.422776 -21.283957 29.691766 37.490678 -1.193973 0.656756 0.111028 -0.025936 -72607.600000 0 0 1
8.051576 -20.433557 30.785296 37.816565 -1.195441 0.619672 0.118789 -0.029826 198423.000000 0 0 1
8.349376 -19.075657 30.728056 37.118812 -1.158220 0.595568 0.124828 -0.036534 -227380.000000 0 0 1
7.598076 -18.280857 31.817976 37.474046 -1.176889 0.556580 0.128705 -0.040471 -376925.000000 0 0 1
6.203876 -18.352057 31.863427 37.290268 -1.244809 0.546266 0.166775 -0.053379 -452803.000000 0 0 1
5.709076 -17.363957 32.765236 37.518812 -1.253141 0.508858 0.166957 -0.051860 412174.000000 0 0 1
4.243676 -17.580357 33.233560 37.835794 -1.333940 0.498370 0.171053 -0.056077 287092.000000 0 0 1
4.122876 -18.577757 -33.127942 38.204603 -1.352410 2.620185 0.148465 -0.055098 20137.300000 0 0 1
3.117676 -18.198757 -32.211842 37.128391 -1.401131 2.621111 0.143432 -0.074239 -169766.000000 0 0 1
2.584176 -19.355157 -31.315302 36.904582 -1.438068 2.584031 0.104269 -0.048433 -625985.000000 0 0 1
1.731876 -20.222157 -32.022802 37.912991 -1.485362 2.576687 0.088183 -0.037538 181067.000000 0 0 1
0.947576 -21.110557 -31.242982 37.718397 -1.525940 2.546902 0.096658 -0.043451 604254.000000 0 0 1
-0.103024 -20.561257 -30.220282 36.551899 1.565786 2.544151 0.109667 -0.050684 -447081.000000 0 0 1
-1.135224 -19.863457 -30.874742 36.730033 1.513707 2.569160 0.124930 -0.056346 -500378.000000 0 0 1
-1.842324 -19.038957 -29.973952 35.557191 1.474331 2.573593 0.161240 -0.041732 -165748.000000 0 0 1
-1.186824 -17.744957 -29.455832 34.408401 1.504013 2.598404 0.158034 -0.045058 -902055.000000 0 0 1
-2.040024 -16.865857 -28.808392 33.444615 1.450425 2.608769 0.186127 -0.045246 -496056.000000 0 0 1
-2.093724 -15.641357 -29.540912 33.491808 1.437729 2.650958 0.198173 -0.051823 -210168.000000 0 0 1
-3.259324 -14.748557 -29.110182 32.795515 1.353299 2.662963 0.182447 -0.029444 -109354.000000 0 0 1
-3.253524 -14.275057 -27.754012 31.379099 1.346707 2.656163 0.171776 -0.036591 443657.000000 0 0 1
-4.427024 -13.461057 -27.603772 31.028484 1.253062 2.667324 0.158936 -0.035966 656502.000000 0 0 1
-4.577324 -12.981557 -26.120602 29.525558 1.231805 2.656599 0.158799 -0.032393 -137190.000000 0 0 1
-4.877724 -14.059057 -25.245472 29.305002 1.236845 2.608960 0.166427 -0.028425 44198.900000 0 0 1
-4.890924 -13.773057 -23.850592 27.972647 1.229578 2.591813 0.132705 -0.028528 8113.860000 0 0 1
-5.831324 -12.643857 -23.289392 27.134245 1.138669 2.602749 0.107582 -0.026328 1647750.000000 0 0 1
-7.227824 -13.052357 -23.184992 27.570806 1.065074 2.569787 0.104616 -0.027458 1522110.000000 0 0 1
-8.130824 -12.004557 -22.776492 26.999783 0.975460 2.574713 0.077486 -0.021350 948829.000000 0 0 1
-9.580424 -12.276657 -23.273492 28.002790 0.908135 2.551903 0.104257 -0.025930 320785.000000 0 0 1
-10.206524 -13.373757 -22.691392 28.247651 0.918916 2.503615 0.089341 -0.029538 -288493.000000 0 0 1
-11.471024 -13.733557 -23.202492 29.301035 0.874925 2.484655 0.080075 -0.020485 63464.300000 0 0 1
-12.174424 -14.782457 -22.379192 29.454471 0.881846 2.433785 0.083852 -0.020089 70667.300000 0 0 1
-11.463324 -16.026457 -22.489292 29.900224 0.949892 2.422107 0.101748 -0.027446 104464.000000 0 0 1
-12.055324 -17.078757 -21.694692 30.127636 0.956144 2.374732 0.109738 -0.026256 -7651.930000 0 0 1
-12.857724 -18.064457 -22.511992 31.598030 0.952215 2.363779 0.113109 -0.020280 41552.900000 0 0 1
-13.955024 -17.505157 -23.191392 32.233738 0.897768 2.373843 0.077626 -0.014777 -330773.000000 0 0 1
-14.721524 -18.457957 -23.876492 33.578361 0.897538 2.361812 0.044542 -0.016629 253966.000000 0 0 1
-15.881524 -17.823457 -24.707592 34.356419 0.842950 2.373382 0.053516 -0.023099 -164619.000000 0 0 1
-17.033024 -17.586857 -23.967592 34.261741 0.801394 2.345555 0.064612 -0.015618 -920785.000000 0 0 1
-17.999524 -16.918657 -24.707892 34.938571 0.754454 2.356299 0.048969 -0.016890 -276435.000000 0 0 1
-18.463424 -15.602357 -24.102392 34.135859 0.701608 2.354733 0.043042 -0.013510 -288924.000000 0 0 1
-19.206724 -15.801557 -22.915192 33.818538 0.688436 2.315281 0.058408 -0.014642 325036.000000 0 0 1
-20.027524 -14.684157 -22.603292 33.580277 0.632661 2.309205 0.064408 -0.014076 338529.000000 0 0 1
-20.853324 -14.676357 -21.328392 33.243900 0.613265 2.267344 0.064962 -0.019696 -12317.000000 0 0 1
-19.976524 -14.346157 -20.281792 31.878282 0.622804 2.260393 0.076578 -0.012531 62302.200000 0 0 1
-20.522224 -14.405357 -18.976792 31.445105 0.612026 2.218667 0.078815 -0.018145 23518.000000 0 0 1
-21.255424 -13.083357 -18.576892 31.113795 0.551761 2.210631 0.077739 -0.022780 1368120.000000 0 0 1
-22.548824 -12.742757 -19.158792 32.216248 0.514376 2.207681 0.076117 -0.026197 1607940.000000 0 0 1
-23.245024 -11.763757 -18.340492 31.860489 0.468497 2.184195 0.081426 -0.023660 67530.800000 0 0 1
-24.643224 -11.379557 -18.832392 33.036977 0.432600 2.177351 0.095960 -0.031183 -372165.000000 0 0 1
-24.888824 -10.700857 -20.007992 33.679098 0.406053 2.206915 0.092039 -0.032737 -443607.000000 0 0 1
-26.274694 -10.519257 -20.086292 34.705525 0.380814 2.188008 0.107213 -0.038101 -553094.000000 0 0 1
-26.720674 -9.626257 -21.201092 35.442144 0.345781 2.212035 0.108215 -0.025664 -217737.000000 0 0 1
-26.593074 -10.109257 -22.515492 36.281346 0.363275 2.240279 0.099508 -0.026770 292544.000000 0 0 1
-27.481924 -9.381757 -23.326592 37.247865 0.328974 2.247534 0.102949 -0.022880 -141634.000000 0 0 1
-27.539504 -9.895057 -24.787092 38.350181 0.344939 2.273569 0.076841 -0.019646 557463.000000 0 0 1
-26.326334 -9.658557 -25.497222 37.900817 0.351631 2.308696 0.073949 -0.024161 724530.000000 0 0 1
-25.435134 -10.749957 -25.748032 37.755381 0.399872 2.321249 0.059035 -0.012997 906201.000000 0 0 1
-24.275124 -10.231257 -26.680082 37.493827 0.398878 2.362549 0.066693 -0.015689 514543.000000 0 0 1
-24.740024 -10.278657 -28.018542 38.765427 0.393768 2.378601 0.072482 -0.011390 652980.000000 0 0 1
-23.710224 -10.041157 -28.996802 38.779042 0.400595 2.415454 0.082223 -0.008466 555222.000000 0 0 1
-24.207024 -10.457157 -30.411242 40.251408 0.407775 2.427263 0.081794 -0.012837 305097.000000 0 0 1
-25.146264 -9.558557 -30.976352 41.027247 0.363250 2.426479 0.070806 -0.024776 149132.000000 0 0 1
-24.619024 -8.929357 -32.102592 41.429533 0.347945 2.457309 0.076957 -0.026405 10885.500000 0 0 1
-25.754404 -8.032357 -32.740802 42.423675 0.302323 2.452397 0.067147 -0.027502 877685.000000 0 0 1
-26.852384 -8.754757 -33.289482 43.656454 0.315166 2.438016 0.090655 -0.022458 1351850.000000 0 0 1
-27.833244 -9.367457 -32.416652 43.741034 0.324649 2.405509 0.082487 -0.019828 293020.000000 0 0 1
-28.945374 -8.518357 -31.732892 43.787824 0.286211 2.381390 0.074182 -0.017401 106988.000000 0 0 1
-30.269174 -8.685857 -32.202172 45.040503 0.279445 2.367364 0.078069 -0.017530 187964.000000 0 0 1
-31.146744 -8.119457 -31.246522 44.859675 0.255009 2.341359 0.082649 -0.013568 -623507.000000 0 0 1
-32.590194 -8.559057 -31.339192 46.016553 0.256827 2.319981 0.075039 -0.017467 -794362.000000 0 0 1
-32.845904 -9.929257 -31.150742 46.344496 0.293564 2.307914 0.066643 -0.017956 772742.000000 0 0 1
-34.224167 -10.313857 -31.168292 47.425012 0.292706 2.287910 0.047883 -0.021079 474273.000000 0 0 1
-34.358682 -11.847757 -31.207962 47.904335 0.332058 2.280309 0.050644 -0.026244 -807478.000000 0 0 1
-35.685444 -12.244957 -31.063552 48.870586 0.330547 2.259619 0.069221 -0.024915 -481164.000000 0 0 1
-35.787753 -13.598457 -31.391072 49.508391 0.363125 2.257583 0.065856 -0.028291 -684079.000000 0 0 1
-37.087484 -14.180057 -30.915682 50.322310 0.365191 2.232363 0.073908 -0.042245 -853490.000000 0 0 1
-37.093614 -14.524957 -29.535262 49.590748 0.373223 2.208784 0.101743 -0.047389 72501.800000 0 0 1
-37.796304 -15.740757 -29.260682 50.324145 0.394617 2.191299 0.098768 -0.053335 12217.600000 0 0 1
-37.802334 -15.958257 -27.717552 49.517120 0.399454 2.164889 0.112321 -0.042903 -718227.000000 0 0 1
-36.494434 -16.067557 -27.278552 48.312830 0.414737 2.170773 0.119226 -0.056953 -784348.000000 0 0 1
-36.403344 -15.877757 -25.877542 47.402045 0.411287 2.148279 0.135051 -0.051423 181918.000000 0 0 1
-35.025327 -15.295157 -25.443402 45.913855 0.411729 2.158144 0.150331 -0.050231 -245006.000000 0 0 1
-34.016138 -16.235857 -25.536922 45.528399 0.445322 2.166270 0.147092 -0.051497 154561.000000 0 0 1
-32.867244 -15.819057 -24.760892 44.086280 0.448577 2.167170 0.136706 -0.030289 543651.000000 0 0 1
-31.611044 -16.688457 -24.761192 43.484243 0.485742 2.176607 0.122018 -0.039258 -204425.000000 0 0 1
-31.620704 -17.924957 -24.098392 43.610842 0.515706 2.156251 0.140817 -0.046728 338326.000000 0 0 1
-32.486964 -18.907957 -24.705192 44.980665 0.527092 2.152251 0.131351 -0.050860 306273.000000 0 0 1
-32.297774 -20.253957 -24.013292 45.055601 0.560109 2.132903 0.119912 -0.054393 -492407.000000 0 0 1
-31.079934 -20.842757 -24.325692 44.633195 0.590733 2.147201 0.106340 -0.042662 -645103.000000 0 0 1
-30.877384 -22.047457 -23.640892 44.703412 0.620082 2.128028 0.109029 -0.043175 -953589.000000 0 0 1
-29.490004 -22.632557 -23.904492 44.196354 0.654586 2.142268 0.103547 -0.044170 594756.000000 0 0 1
-28.348214 -21.935057 -23.332192 42.768670 0.658542 2.147834 0.104517 -0.042546 675840.000000 0 0 1
-28.319434 -21.754357 -21.858292 41.869169 0.655034 2.120063 0.123247 -0.039965 -738531.000000 0 0 1
-28.131784 -23.053257 -21.049692 42.023083 0.686503 2.095444 0.107694 -0.045698 -245321.000000 0 0 1
-27.879624 -22.783457 -19.692492 41.038441 0.685146 2.071286 0.105207 -0.037474 75230.000000 0 0 1
-28.024854 -23.906757 -18.814292 41.363064 0.706265 2.043008 0.099103 -0.011585 5856.170000 0 0 1
-28.218474 -23.414757 -17.358892 40.569253 0.692630 2.012946 0.095677 -0.002456 -85772.600000 0 0 1
-29.475874 -22.858557 -17.082292 41.026156 0.659623 2.000252 0.107086 -0.004154 -304274.000000 0 0 1
-29.427664 -22.075857 -15.912492 40.081645 0.643612 1.979044 0.099007 -0.017590 607410.000000 0 0 1
-30.789904 -21.396657 -15.516592 40.578317 0.607311 1.963174 0.110001 -0.001145 624139.000000 0 0 1
-31.363864 -20.557857 -16.476192 40.960742 0.580206 1.984762 0.126619 -0.007914 -40038.700000 0 0 1
-32.519694 -19.884157 -16.034992 41.352523 0.548796 1.969000 0.131569 -0.013125 -217509.000000 0 0 1
-33.278604 -19.076457 -17.097392 41.996399 0.520507 1.990090 0.151079 -0.038357 -66974.400000 0 0 1
-34.254095 -19.932957 -17.715992 43.411084 0.527015 1.991166 0.090885 -0.028209 146588.000000 0 0 1
-34.877607 -19.211957 -18.772292 44.022105 0.503487 2.011337 0.095574 -0.026777 -268894.000000 0 0 1
-36.282014 -19.750257 -19.166492 45.539122 0.498498 2.005211 0.061401 -0.017750 632430.000000 0 0 1
-37.255554 -19.443057 -18.134192 45.769616 0.481001 1.978177 0.056449 -0.004046 407723.000000 0 0 1
-37.294834 -20.148657 -16.900792 45.634525 0.495329 1.950183 0.084823 -0.013477 -906346.000000 0 0 1
-37.573974 -21.696457 -16.973192 46.590010 0.523661 1.943688 0.064660 0.021905 -619878.000000 0 0 1
36.848640 -21.987757 -17.057392 46.176167 -0.537993 1.949158 0.059230 -0.003622 -598680.000000 0 0 1
36.559340 -23.348857 -16.888792 46.550894 -0.568359 1.942070 0.067853 0.001310 249637.000000 0 0 1
35.148910 -23.601757 -16.281092 45.360366 -0.591327 1.937915 0.049833 -0.004813 106091.000000 0 0 1
34.111040 -23.442957 -17.227492 44.832151 -0.602120 1.965209 0.053987 -0.002535 -608683.000000 0 0 1
32.929570 -23.610257 -16.527992 43.760431 -0.622040 1.958099 0.070606 -0.006963 -876135.000000 0 0 1
31.612910 -23.947257 -17.240992 43.244641 -0.648293 1.980879 0.083470 -0.023203 -8149.250000 0 0 1
31.118980 -22.783557 -17.916092 42.526083 -0.631975 2.005671 0.059224 -0.026805 73940.800000 0 0 1
29.828340 -22.977157 -18.441992 41.925967 -0.656375 2.026251 0.100493 -0.028003 -366868.000000 0 0 1
36.000890 28.752243 -17.971892 49.454469 0.673919 1.942714 0.086741 -0.010878 -212780.000000 0 0 1
35.337190 29.254543 -19.087792 49.687917 0.691504 1.965087 0.077192 -0.019333 -50363.400000 0 0 1
35.558880 28.419743 -20.187692 49.796171 0.674272 1.988220 0.077862 -0.018327 326275.000000 0 0 1
34.665870 28.737043 -21.473592 49.886425 0.692159 2.015787 0.095279 -0.025746 -555416.000000 0 0 1
33.329150 28.383943 -21.274692 48.673329 0.705437 2.023159 0.084565 -0.021475 -445568.000000 0 0 1
32.582580 28.696243 -22.425592 48.867229 0.722062 2.047563 0.113564 -0.015954 156515.000000 0 0 1
31.812570 30.049143 -22.419192 49.169206 0.756900 2.044247 0.107627 -0.007755 -82816.600000 0 0 1
32.698310 31.147143 -22.529392 50.466796 0.761107 2.033557 0.110145 -0.012591 442114.000000 0 0 1
31.923610 32.303043 -22.821492 50.827394 0.791306 2.036442 0.105735 -0.005928 -148719.000000 0 0 1
32.566810 33.542743 -22.229592 51.767437 0.800159 2.014639 0.092991 0.006320 -321548.000000 0 0 1
32.661640 33.554743 -20.821092 51.246672 0.798885 1.989188 0.100498 0.000040 140132.000000 0 0 1
33.720350 32.822143 -20.227292 51.220098 0.771901 1.976765 0.098220 0.004126 -320913.000000 0 0 1
33.742220 32.944343 -18.730892 50.741635 0.773434 1.948882 0.075520 0.000816 -144850.000000 0 0 1
34.140900 -33.457962 -18.315092 51.190613 -0.775296 1.936688 0.082457 0.004564 109378.000000 0 0 1
34.266170 -33.387362 -16.918192 50.745557 -0.772409 1.910696 0.062353 -0.017220 -499539.000000 0 0 1
34.217230 -31.975262 -16.343592 49.601908 -0.751541 1.906565 0.069164 0.006219 -582215.000000 0 0 1
35.280050 -31.123562 -16.562892 49.876723 -0.722885 1.909301 0.073148 0.013079 26222.400000 0 0 1
36.485960 -31.367662 -15.825592 50.651800 -0.710109 1.888556 0.076919 0.001211 763887.000000 0 0 1
37.717730 -30.530662 -16.247592 51.173555 -0.680477 1.893888 0.072015 0.005393 640965.000000 0 0 1
-37.337404 -30.978262 -17.426192 51.550041 0.692581 1.915634 0.073871 0.002486 -631862.000000 0 0 1
-36.069054 -30.419462 -17.503592 50.325899 0.700631 1.926025 0.070082 0.006988 -152325.000000 0 0 1
-35.138897 -31.140262 -18.529092 50.475591 0.725141 1.946675 0.089657 0.000554 -398678.000000 0 0 1
-34.658503 -32.397062 -18.019492 50.749223 0.751686 1.933785 0.090434 -0.008493 668492.000000 0 0 1
-33.656044 -33.051762 -18.814992 50.785355 0.776340 1.950323 0.107507 -0.009502 -209941.000000 0 0 1
-32.264574 -32.479162 -18.891092 49.525469 0.788713 1.962152 0.092084 -0.014898 -2139420.000000 0 0 1
-32.186034 -31.294462 -19.718192 49.031534 0.771354 1.984664 0.095036 -0.009365 819024.000000 0 0 1
-30.891244 -30.969962 -20.269492 48.210578 0.786671 2.004723 0.094862 -0.008576 670241.000000 0 0 1
-30.051284 -32.045162 -20.934692 48.664499 0.817497 2.015493 0.085923 0.004125 -1020240.000000 0 0 1
-30.474294 -32.593762 -22.177092 49.828299 0.818992 2.032049 0.082361 0.013321 -77252.700000 0 0 1
-29.611964 -33.632762 -22.637392 50.204409 0.848888 2.038575 0.077244 0.002507 -272979.000000 0 0 1
-30.142524 33.226743 -23.829692 50.798056 -0.834030 2.059075 0.089019 -0.005172 20616.700000 0 0 1
-31.378574 32.628243 -23.468392 50.990025 -0.804920 2.049078 0.093612 -0.027661 200743.000000 0 0 1
-31.975924 31.839443 -24.493192 51.343221 -0.783259 2.068089 0.079777 -0.018989 678165.000000 0 0 1
-33.034274 32.486943 -25.430952 52.852607 -0.777045 2.072782 0.085457 -0.033320 99342.800000 0 0 1
-32.421544 33.204443 -26.459002 53.420692 -0.797327 2.088971 0.080399 -0.027303 -390560.000000 0 0 1
-33.275434 -33.510262 -27.046642 54.421623 0.788914 2.090915 0.078934 -0.031011 -181807.000000 0 0 1
-32.696524 -32.765562 -28.229092 54.217400 0.786453 2.118426 0.072817 -0.033787 -174201.000000 0 0 1
-32.590944 -33.443462 -29.448682 55.207424 0.798308 2.133434 0.079878 -0.033472 -498208.000000 0 0 1
-33.790634 -33.553462 -30.136362 56.354611 0.781876 2.135024 0.092629 -0.034890 -513570.000000 0 0 1
-33.687034 33.239843 -31.404322 56.797314 -0.778716 2.156660 0.120140 -0.030917 -128121.000000 0 0 1
-32.958714 33.761843 -32.465752 57.272716 -0.797435 2.173489 0.102285 -0.032855 -410573.000000 0 0 1
-32.938284 32.845343 -33.615962 57.391463 -0.783985 2.196578 0.091451 -0.038444 -611891.000000 0 0 1
-32.044564 33.262843 32.584519 56.524523 -0.804051 0.956398 0.094424 -0.041019 390640.000000 0 0 1
-30.646924 33.037543 32.612135 55.626115 -0.822919 0.944345 0.099498 -0.038651 221292.000000 0 0 1
-30.357344 31.613243 32.565144 54.602694 -0.805661 0.931785 0.104003 -0.047822 -1657640.000000 0 0 1
-28.880434 31.348543 32.396536 53.538269 -0.826354 0.920892 0.102143 -0.040307 -1416110.000000 0 0 1
-28.225294 31.385743 33.646636 53.979888 -0.838366 0.897818 0.110729 -0.053380 481325.000000 0 0 1
-26.846144 31.014643 33.533446 52.982220 -0.857317 0.885479 0.106229 -0.047574 260534.000000 0 0 1
-26.590644 29.480643 33.379576 51.868746 -0.836894 0.871683 0.110064 -0.050866 -740097.000000 0 0 1
-26.837064 28.753243 -32.820332 51.226470 -0.819854 2.266194 0.119384 -0.044475 218048.000000 0 0 1
-26.634614 27.337643 -33.083822 50.510283 -0.798423 2.284968 0.106942 -0.042031 -214090.000000 0 0 1
-26.359184 26.534743 -31.813122 49.101669 -0.788717 2.275625 0.118943 -0.043034 -40023.600000 0 0 1
-25.133294 26.715943 -31.126232 48.106823 -0.815913 2.274470 0.123082 -0.040627 116282.000000 0 0 1
-25.066434 27.922643 -30.350532 48.261319 -0.839248 2.250907 0.106398 -0.038303 332429.000000 0 0 1
-23.743424 28.030643 -29.532462 47.134207 -0.868016 2.247929 0.119619 -0.035291 36768.100000 0 0 1
-22.556924 28.158043 -30.282672 47.103402 -0.895395 2.269072 0.117204 -0.028973 163350.000000 0 0 1
-21.366224 27.952643 -29.538252 45.938809 -0.918160 2.269194 0.074652 -0.027864 372322.000000 0 0 1
-20.924424 29.060843 -28.571722 45.811652 -0.946759 2.244236 0.062885 -0.016080 -753397.000000 0 0 1
-20.389724 30.196843 -29.299782 46.755400 -0.976891 2.248057 0.063415 -0.006640 303213.000000 0 0 1
-20.134924 31.334343 -28.467922 46.879407 -0.999653 2.223402 0.074352 -0.012736 -163735.000000 0 0 1
-19.845224 32.625343 -29.231922 48.091072 -1.024313 2.224140 0.070181 -0.004226 537071.000000 0 0 1
-18.603324 32.446743 -29.921852 47.897725 -1.050203 2.245547 0.058606 -0.004075 142282.000000 0 0 1
-18.416424 33.487943 -30.819612 49.096390 -1.067998 2.249439 0.063915 0.002152 -104556.000000 0 0 1
-16.932924 33.686543 -31.207762 48.943146 -1.105022 2.262218 0.058217 0.000243 -1035950.000000 0 0 1
-16.226824 -33.469362 -30.128982 47.867145 1.119361 2.251615 0.072852 -0.006331 341342.000000 0 0 1
-14.844024 -33.216962 -30.438262 47.436267 1.150539 2.267465 0.095998 -0.011062 984371.000000 0 0 1
-13.960424 33.191243 -30.475572 47.173219 -1.172654 2.273175 0.104547 -0.017810 -1152400.000000 0 0 1
-13.538624 32.589643 -29.286532 45.859352 -1.177062 2.263495 0.113971 -0.014253 -218124.000000 0 0 1
-13.220124 31.272143 -29.404742 44.915003 -1.170838 2.284549 0.098886 -0.016908 -27215.800000 0 0 1
-12.946224 30.648943 -27.996022 43.482637 -1.171127 2.270307 0.080767 -0.020674 650327.000000 0 0 1
-11.772624 31.031843 -27.268032 42.954808 -1.208198 2.258556 0.096079 -0.014441 345094.000000 0 0 1
-11.945524 30.558643 -25.948002 41.830910 -1.198155 2.239930 0.079340 -0.021070 172383.000000 0 0 1
-10.735124 30.833443 -25.043092 41.147303 -1.235757 2.225117 0.090953 -0.018301 -383210.000000 0 0 1
-9.542024 30.217043 -25.416812 40.621845 -1.264923 2.246816 0.095871 -0.015172 -557448.000000 0 0 1
-8.526724 30.725443 -24.559192 40.248128 -1.300095 2.227103 0.103059 -0.017226 -262884.000000 0 0 1
-7.118424 30.263943 -24.925192 39.847753 -1.339784 2.246582 0.093932 -0.026502 -439583.000000 0 0 1
-6.746524 28.959143 -24.538292 38.552242 -1.341912 2.260741 0.098898 -0.040308 91984.600000 0 0 1
-5.538324 28.485243 -25.085492 38.358363 -1.378764 2.283626 0.104460 -0.048546 -292573.000000 0 0 1
-5.252324 27.069843 -24.503492 36.888812 -1.379149 2.297290 0.113036 -0.041389 -334377.000000 0 0 1
-6.145824 26.040043 -24.845892 36.512647 -1.339023 2.319205 0.118533 -0.037408 34976.900000 0 0 1
-5.844024 24.916043 -24.137092 35.178986 -1.340412 2.326942 0.115797 -0.044819 -276641.000000 0 0 1
-6.861924 23.766543 -24.322992 34.692110 -1.289718 2.347750 0.113804 -0.048375 -188237.000000 0 0 1
-6.679424 23.098943 -25.523402 35.065937 -1.289309 2.386005 0.126103 -0.047019 346231.000000 0 0 1
-7.539424 21.982843 -25.633682 34.600202 -1.240399 2.405137 0.116636 -0.047712 -807123.000000 0 0 1
-7.106224 21.105943 -26.789472 34.837266 -1.246025 2.448054 0.097205 -0.038542 1694620.000000 0 0 1
-5.822024 20.372343 -26.740192 34.116949 -1.292435 2.471526 0.120947 -0.051654 1433470.000000 0 0 1
-5.810424 19.240643 -25.891782 32.777245 -1.277518 2.481494 0.115232 -0.048540 -369594.000000 0 0 1
-4.702224 18.215543 -26.161812 32.223553 -1.318168 2.518170 0.129786 -0.057364 106349.000000 0 0 1
-4.886224 17.650343 -27.455812 33.003506 -1.300725 2.553330 0.135920 -0.058921 173649.000000 0 0 1
-3.896324 16.660243 -27.704522 32.562027 -1.341056 2.588346 0.126115 -0.056874 113645.000000 0 0 1
-3.494524 16.534643 -29.169602 33.711598 -1.362516 2.616483 0.119453 -0.051181 179462.000000 0 0 1
-2.525124 17.529943 -29.501732 34.409699 -1.427734 2.600928 0.135262 -0.056432 293481.000000 0 0 1
-2.276624 17.563043 -30.880892 35.598778 -1.441889 2.620891 0.118426 -0.052341 -507752.000000 0 0 1
-1.241924 18.567143 -31.345512 36.453015 -1.504008 2.605847 0.128043 -0.042902 -240207.000000 0 0 1
0.064276 18.255743 -30.832012 35.831400 1.567276 2.606997 0.146772 -0.049071 379725.000000 0 0 1
1.019976 19.209843 -31.281992 36.723582 1.517750 2.590252 0.136280 -0.026848 195328.000000 0 0 1
0.949376 20.692943 -30.777352 37.099119 1.524949 2.549184 0.145811 -0.034827 -366822.000000 0 0 1
1.607976 20.783243 -29.522282 36.139921 1.493581 2.526792 0.170194 -0.058008 -213848.000000 0 0 1
1.583676 22.092443 -28.933132 36.437758 1.499235 2.488227 0.180845 -0.064809 748570.000000 0 0 1
2.668876 22.251043 -27.762672 35.679094 1.451423 2.462466 0.184835 -0.065589 1058950.000000 0 0 1
3.962876 22.430643 -28.317392 36.341613 1.395928 2.464185 0.159574 -0.059543 -115985.000000 0 0 1
5.011176 22.653143 -27.413482 35.913448 1.353089 2.439234 0.136337 -0.058773 -80090.800000 0 0 1
5.232676 24.202943 -27.107362 36.714744 1.357873 2.401378 0.140614 -0.052893 -305890.000000 0 0 1
5.982176 24.851143 -28.147132 38.021399 1.334570 2.404309 0.135644 -0.053940 180399.000000 0 0 1
6.484976 26.056643 -27.755902 38.618566 1.326872 2.372755 0.139803 -0.061689 -255417.000000 0 0 1
7.277876 26.770143 -28.880852 40.046369 1.305347 2.376308 0.149969 -0.055526 -990620.000000 0 0 1
8.546976 26.259143 -29.029832 40.066501 1.256125 2.381165 0.141344 -0.051044 -1368140.000000 0 0 1
9.291576 27.178843 -29.755012 41.356785 1.241384 2.373837 0.152550 -0.046175 -110346.000000 0 0 1
10.796776 26.900643 -29.482302 41.345146 1.189120 2.364675 0.145506 -0.045945 -73460.700000 0 0 1
11.670876 27.735943 -30.162352 42.605861 1.172501 2.357372 0.149817 -0.045372 -642040.000000 0 0 1
12.983676 27.669343 -29.669252 42.596161 1.132055 2.341338 0.128285 -0.052864 -154424.000000 0 0 1
13.922976 28.500843 -30.566612 44.050710 1.116382 2.337682 0.137339 -0.053347 -314077.000000 0 0 1
13.676976 29.869543 -30.452742 44.795299 1.141400 2.318314 0.146415 -0.049548 293403.000000 0 0 1
14.570676 30.621843 -31.257032 46.119453 1.126674 2.315482 0.181321 -0.054513 298181.000000 0 0 1
14.036276 32.084643 -31.386482 47.027148 1.158406 2.301524 0.180566 -0.054337 499581.000000 0 0 1
12.852976 32.188943 -32.174512 47.291926 1.190895 2.319021 0.160783 -0.056181 361728.000000 0 0 1
12.221776 33.418043 -31.858072 47.760592 1.220183 2.301021 0.160888 -0.046744 -302217.000000 0 0 1
10.921576 33.745343 -32.589162 48.167235 1.257789 2.313910 0.124038 -0.042369 -125277.000000 0 0 1
11.056276 -33.354062 33.498106 48.547480 -1.250713 0.809297 0.102985 -0.033348 -286192.000000 0 0 1
9.756076 -33.054262 33.083265 47.773086 -1.283792 0.805836 0.114752 -0.038289 -134333.000000 0 0 1
9.779776 -32.181162 31.793225 46.282614 -1.275768 0.813531 0.114871 -0.026749 4029.460000 0 0 1
10.070076 -30.851462 32.055278 45.615349 -1.255294 0.791569 0.094561 -0.031880 -11495.900000 0 0 1
10.305776 -30.190062 30.821416 44.357734 -1.241836 0.802602 0.110945 -0.029919 -140180.000000 0 0 1
9.957476 -28.650562 30.809596 43.234677 -1.236307 0.777580 0.107537 -0.037356 484168.000000 0 0 1
8.549276 -28.440262 30.883386 42.845329 -1.278785 0.765825 0.080642 -0.030587 308975.000000 0 0 1
8.012576 -28.234562 32.190339 43.561563 -1.294280 0.739268 0.084417 -0.040489 -402244.000000 0 0 1
6.484976 -28.086362 32.139608 43.172365 -1.343879 0.731088 0.089370 -0.043380 207568.000000 0 0 1
5.614676 -29.217462 31.945819 43.654554 -1.380942 0.749857 0.128286 -0.050880 514668.000000 0 0 1
5.767376 -29.981562 30.717266 43.309435 -1.380754 0.782361 0.124126 -0.046571 -719653.000000 0 0 1
5.388376 -29.335562 29.360946 41.853016 -1.389141 0.793261 0.107095 -0.050785 -640359.000000 0 0 1
4.006876 -29.242262 29.212186 41.527302 -1.434621 0.790563 0.161100 -0.049714 -385665.000000 0 0 1
3.653076 -28.350762 28.163716 40.128613 -1.442650 0.792824 0.182423 -0.034640 167809.000000 0 0 1
2.271976 -28.602062 27.481556 39.730036 -1.491529 0.806946 0.170491 -0.035405 292943.000000 0 0 1
2.094576 -29.805862 26.754696 40.107237 -1.500638 0.840515 0.182426 -0.041454 126090.000000 0 0 1
1.824276 -30.955062 27.532146 41.467613 -1.511931 0.844716 0.229677 -0.052276 -841885.000000 0 0 1
2.130476 -32.286462 26.831056 42.034036 -1.504905 0.878486 0.243434 -0.056752 115680.000000 0 0 1
3.484976 -32.701762 26.839066 42.448625 -1.464629 0.886314 0.195186 -0.049079 334462.000000 0 0 1
4.276476 -32.070862 25.841936 41.408141 -1.438234 0.896845 0.190116 -0.058436 -5306.180000 0 0 1
5.788176 -32.443962 25.865086 41.894109 -1.394248 0.905373 0.187645 -0.047472 330014.000000 0 0 1
6.466076 -31.934762 24.743796 40.913258 -1.371020 0.921298 0.137946 -0.041481 -40721.600000 0 0 1
7.813876 -31.632062 24.997116 41.067017 -1.328621 0.916387 0.108297 -0.037539 -470760.000000 0 0 1
8.630376 -31.302362 23.733476 40.219388 -1.301770 0.939613 0.093467 -0.024593 -114702.000000 0 0 1
9.954476 -30.863662 24.008386 40.349224 -1.258800 0.933512 0.078187 0.001564 234092.000000 0 0 1
10.555076 -30.659762 22.732956 39.600732 -1.239240 0.959348 0.076809 -0.008355 106707.000000 0 0 1
11.815876 -29.767062 22.830606 39.331025 -1.192927 0.951487 0.035007 -0.014454 509709.000000 0 0 1
13.013476 -30.322562 23.391366 40.447056 -1.165401 0.954128 0.024711 -0.007781 618880.000000 0 0 1
13.973176 -29.284762 23.321436 39.959183 -1.125597 0.947603 0.033088 -0.006522 54880.900000 0 0 1
15.369576 -29.518262 23.943616 40.998152 -1.090742 0.947128 0.064647 -0.010018 256144.000000 0 0 1
15.185176 -29.499962 25.325916 41.740141 -1.095417 0.918828 0.063041 -0.009368 268525.000000 0 0 1
16.265576 -28.884262 25.982856 42.118623 -1.057929 0.906002 0.074489 -0.009682 -95669.400000 0 0 1
-11.184824 -13.495257 24.951886 30.492932 0.878741 0.612377 0.093978 -0.041054 -1031190.000000 0 0 1
-9.855524 -13.772457 24.752746 29.991839 0.949679 0.600035 0.103474 -0.037737 -1524630.000000 0 0 1
-9.191324 -13.878457 25.991766 30.865255 0.985842 0.569623 0.105058 -0.035286 -200855.000000 0 0 1
-7.663524 -13.976757 25.818996 30.343037 1.069255 0.553094 0.108604 -0.037141 -342934.000000 0 0 1
-7.294324 -15.206257 25.236516 30.353240 1.123526 0.589125 0.120538 -0.040929 -26970.400000 0 0 1
-7.227724 -15.163857 23.839156 29.163126 1.126009 0.613841 0.147169 -0.046098 -763894.000000 0 0 1
-6.564124 -16.395957 23.198046 29.155866 1.189988 0.650706 0.159323 -0.044536 -253246.000000 0 0 1
-7.187124 -17.672257 23.030646 29.906088 1.184536 0.691800 0.177755 -0.056030 -160352.000000 0 0 1
-7.672724 -18.258957 24.257106 31.315610 1.172984 0.684712 0.176962 -0.054639 -403247.000000 0 0 1
-8.459624 -19.574557 24.253856 32.295171 1.162865 0.721213 0.180050 -0.047470 -284745.000000 0 0 1
-9.697724 -19.370657 23.636706 32.061848 1.106637 0.741847 0.151940 -0.051104 -683237.000000 0 0 1
-10.275524 -20.588457 23.194296 32.671797 1.107876 0.781415 0.134752 -0.046959 -21551.700000 0 0 1
-11.818424 -20.491657 23.301716 33.204716 1.047653 0.792932 0.121289 -0.041424 62864.900000 0 0 1
-12.272224 -20.382057 24.646786 34.256384 1.028827 0.767743 0.117656 -0.043735 -1039090.000000 0 0 1
-13.638624 -20.172557 24.630966 34.635656 0.976293 0.779671 0.090795 -0.027040 -901989.000000 0 0 1
-14.108124 -20.094957 26.110356 35.841278 0.958681 0.754667 0.082701 -0.027928 -326486.000000 0 0 1
-14.084024 -21.261857 26.878656 37.052510 0.985748 0.759151 0.075779 -0.023931 17114.500000 0 0 1
-12.910824 -21.296157 27.669846 37.226820 1.025793 0.732840 0.107029 -0.031430 134240.000000 0 0 1
-12.662224 -22.667657 28.293476 38.401503 1.061372 0.742500 0.112013 -0.029105 -211436.000000 0 0 1
-13.721124 -23.105557 29.117106 39.622492 1.034915 0.745332 0.067993 -0.019730 -175926.000000 0 0 1
-13.469324 -24.428157 29.533726 40.625098 1.066890 0.756879 0.078236 -0.021161 -373326.000000 0 0 1
-14.534824 -25.164577 30.353466 42.022018 1.047017 0.763641 0.063354 -0.023061 -124361.000000 0 0 1
-14.512124 -24.843957 31.723946 42.827943 1.042127 0.736640 0.110352 -0.022326 168494.000000 0 0 1
-15.727724 -25.109237 32.418772 43.918241 1.011211 0.740455 0.093783 -0.018084 307419.000000 0 0 1
-15.694124 -24.591357 -33.481962 44.408132 1.002763 2.424866 0.088151 -0.017528 45106.500000 0 0 1
-15.641824 -23.174257 -33.362602 43.529026 0.977070 2.444084 0.095996 -0.022934 110605.000000 0 0 1
-16.812424 -22.479857 33.605856 43.787614 0.928648 0.695905 0.081904 -0.023664 -247219.000000 0 0 1
-16.718024 -20.984857 -33.381432 42.827288 0.898089 2.464573 0.063497 -0.019568 -25295.200000 0 0 1
-16.957224 -20.726657 -32.020352 41.742601 0.885094 2.445090 0.059228 -0.017967 202350.000000 0 0 1
-17.024524 -19.345957 -31.840492 40.962390 0.849139 2.461176 0.047563 -0.026446 -370633.000000 0 0 1
-17.171924 -18.856757 -30.357002 39.648453 0.832128 2.442854 0.049649 -0.021181 -275779.000000 0 0 1
-18.371624 -19.215957 -29.719152 39.874774 0.807857 2.411799 0.051109 -0.017848 -171048.000000 0 0 1
-18.394024 -18.897557 -28.325022 38.700965 0.798900 2.391894 0.040380 -0.016252 -28474.100000 0 0 1
-17.656924 -19.946357 -27.458712 38.257091 0.846207 2.371350 0.037725 -0.006882 -531782.000000 0 0 1
-16.282124 -19.888657 -27.678112 37.772267 0.884778 2.393170 0.038935 -0.016239 -802926.000000 0 0 1
-15.611424 -20.998457 -27.161212 37.714496 0.931497 2.374858 0.039660 -0.010042 74052.700000 0 0 1
-14.076724 -20.999857 -27.314252 37.218497 0.980265 2.394826 0.153331 -0.022771 120661.000000 0 0 1
-13.392924 -20.033757 -26.501912 35.820011 0.981513 2.403663 0.148021 -0.031764 1096510.000000 0 0 1
-11.956824 -20.108457 -26.512312 35.358427 1.034345 2.418580 0.131190 -0.041675 1288840.000000 0 0 1
-11.252724 -21.244057 -25.666012 35.166432 1.083681 2.388890 0.188656 -0.052764 -313485.000000 0 0 1
-11.207924 -22.533157 -26.279802 36.386656 1.109233 2.377828 0.202703 -0.053036 253546.000000 0 0 1
-10.660624 -23.492657 -25.394342 36.199813 1.144799 2.348303 0.263249 -0.060151 -150612.000000 0 0 1
-10.703324 -24.999627 -25.857382 37.525281 1.166270 2.330995 0.255581 -0.058792 -859131.000000 0 0 1
-9.720324 -25.392147 -26.765522 38.152837 1.205198 2.348344 0.254090 -0.064071 -180644.000000 0 0 1
-9.881524 -26.679867 -27.362622 39.473699 1.216088 2.336697 0.239076 -0.052558 -259639.000000 0 0 1
-9.668224 -27.917427 -26.377712 39.606073 1.237408 2.299632 0.241309 -0.048454 -73971.300000 0 0 1
-10.660224 -28.030927 -25.351532 39.269243 1.207385 2.272582 0.202274 -0.057855 279580.000000 0 0 1
-10.632224 -29.227607 -24.624892 39.669667 1.221904 2.240494 0.194847 -0.064068 -433885.000000 0 0 1
-11.662524 -29.193637 -23.474792 39.234536 1.190731 2.212199 0.203688 -0.068836 -180481.000000 0 0 1
-11.406924 -28.150357 -22.527792 37.816160 1.185803 2.208956 0.200435 -0.073994 -253119.000000 0 0 1
-12.190224 -27.036387 -22.857892 37.443972 1.147209 2.227432 0.188803 -0.066665 -293879.000000 0 0 1
-12.093224 -25.866767 -21.831092 35.943460 1.133469 2.223546 0.201889 -0.068997 -166713.000000 0 0 1
-12.594824 -26.212197 -20.564392 35.617455 1.122874 2.186298 0.137358 -0.053814 6941.820000 0 0 1
-12.614324 -25.119737 -19.679592 34.313390 1.105416 2.181599 0.123860 -0.046579 -168220.000000 0 0 1
-13.297124 -25.321907 -18.349392 33.981064 1.087253 2.141220 0.150302 -0.046399 -1022540.000000 0 0 1
-14.648124 -25.607487 -18.326492 34.729976 1.051201 2.126669 0.178311 -0.047055 -984074.000000 0 0 1
-15.057624 -26.055827 -17.073192 34.599596 1.046786 2.086849 0.157442 -0.041859 -943483.000000 0 0 1
-16.533324 -26.137637 -16.777792 35.185525 1.006787 2.067850 0.151152 -0.045370 -1441500.000000 0 0 1
-17.238524 -24.890257 -16.822392 34.636462 0.965067 2.077942 0.126409 -0.032662 1513670.000000 0 0 1
-18.619124 -24.982687 -16.343292 35.183940 0.930322 2.053878 0.125259 -0.029890 1910430.000000 0 0 1
-19.614324 -25.673527 -17.350492 36.672759 0.918401 2.063621 0.112363 -0.021631 -617244.000000 0 0 1
-19.582824 -27.111657 -17.399592 37.699798 0.945258 2.050516 0.104938 -0.033129 26192.100000 0 0 1
-20.001724 -27.804017 -16.172992 37.877408 0.947180 2.011950 0.112759 -0.042652 1719040.000000 0 0 1
-21.559724 -28.190447 -16.253392 39.034546 0.917898 2.000262 0.102327 -0.034075 1760670.000000 0 0 1
-21.853624 -29.187027 -17.215592 40.321707 0.928099 2.011920 0.083515 -0.026696 -803626.000000 0 0 1
-23.147824 -29.621637 -16.938892 41.233351 0.907469 1.994134 0.090049 -0.023238 -537255.000000 0 0 1
-23.620324 -30.778337 -17.927892 42.739151 0.916231 2.003660 0.064592 -0.018980 86864.300000 0 0 1
-22.943424 -32.030327 -17.871392 43.263486 0.949212 1.996633 0.063361 -0.032093 -325416.000000 0 0 1
-23.305224 -32.829907 -18.992892 44.515910 0.953472 2.011586 0.050123 -0.002445 -41276.000000 0 0 1
-22.737024 33.413110 -18.965792 44.644254 -0.973290 2.009560 0.036932 -0.015252 200493.000000 0 0 1
-23.476824 32.451051 -18.202092 43.994865 -0.944503 1.997346 0.047806 -0.020745 183382.000000 0 0 1
-22.590024 31.375839 -17.940592 42.621794 -0.946785 2.005261 0.054634 -0.021547 236197.000000 0 0 1
-23.188824 29.966649 -17.563792 41.763721 -0.912223 2.004849 0.081720 -0.038638 90520.600000 0 0 1
-23.925124 29.940969 -16.340292 41.663873 -0.896619 1.973811 0.077320 -0.043692 352530.000000 0 0 1
-24.816324 28.848569 -16.225992 41.368740 -0.860395 1.973849 0.084087 -0.026095 54463.800000 0 0 1
-24.116924 27.490029 -15.955392 39.898650 -0.850667 1.982202 0.097926 -0.024644 54179.900000 0 0 1
-23.401124 27.034919 -17.112492 39.640091 -0.857321 2.017169 0.071171 -0.013873 92625.300000 0 0 1
-22.609524 25.910759 -16.814192 38.278911 -0.853332 2.025565 0.086195 -0.016407 107494.000000 0 0 1
-21.990324 25.275919 -18.084492 38.072238 -0.854799 2.065766 0.079762 -0.013333 -981827.000000 0 0 1
-21.373724 24.041499 -17.920992 36.823793 -0.844073 2.079069 0.095697 -0.027402 185311.000000 0 0 1
-20.531724 23.721309 -19.027792 36.692084 -0.857350 2.115986 0.085274 -0.020212 682120.000000 0 0 1
-19.137024 24.426859 -19.071492 36.422780 -0.906234 2.121884 0.071756 -0.028179 -864832.000000 0 0 1
-18.374824 24.032849 -17.963292 35.183687 -0.918035 2.106629 0.094292 -0.029263 -24414.400000 0 0 1
-17.124124 24.668449 -17.843792 34.930916 -0.963993 2.106947 0.109943 -0.042303 -19241.200000 0 0 1
-17.242324 26.056659 -17.127192 35.631277 -0.986223 2.072225 0.126288 -0.048508 -340126.000000 0 0 1
-17.908924 27.061059 -17.872892 37.046872 -0.986173 2.074234 0.097792 -0.035442 68483.900000 0 0 1
-17.730024 28.358129 -17.305792 37.656708 -1.012040 2.048304 0.118139 -0.047377 -178150.000000 0 0 1
-18.874324 29.360789 -17.627792 39.102878 -0.999470 2.038464 0.105174 -0.039273 27626.500000 0 0 1
-19.007424 29.818229 -18.970592 40.128448 -1.003299 2.063202 0.074732 -0.039733 235421.000000 0 0 1
-19.511424 28.860949 -19.893592 40.117391 -0.976326 2.089649 0.056682 -0.026097 -314462.000000 0 0 1
-19.901824 29.396409 -21.279392 41.388935 -0.975663 2.110792 0.052386 -0.026254 244028.000000 0 0 1
-20.754324 30.554069 -21.237492 42.606621 -0.974122 2.092612 0.062789 -0.022941 436766.000000 0 0 1
-21.407124 30.676569 -22.485692 43.645426 -0.961526 2.112026 0.049435 -0.018791 -430438.000000 0 0 1
-21.893924 32.058107 -22.798192 45.020259 -0.971609 2.101799 0.049841 -0.017700 -704580.000000 0 0 1
-21.028824 33.112501 -23.067492 45.505586 -1.004987 2.102399 0.036195 -0.014959 -530262.000000 0 0 1
-21.695024 -33.470367 -23.658192 46.375097 0.995697 2.106154 0.041067 -0.005042 -162677.000000 0 0 1
-20.761524 -32.201327 -23.721392 45.062965 0.998127 2.125164 0.053591 -0.012964 446349.000000 0 0 1
-20.560024 -31.455187 -22.541792 43.820951 0.991874 2.111112 0.059698 -0.021195 103116.000000 0 0 1
-19.780024 -32.118047 -21.576392 43.455253 1.018801 2.090381 0.070579 -0.033829 -527120.000000 0 0 1
-19.471224 -31.373127 -20.247092 42.111120 1.015343 2.072365 0.103681 -0.038718 569204.000000 0 0 1
-18.331824 -30.503317 -20.398592 41.019638 1.029658 2.091267 0.115161 -0.045354 677609.000000 0 0 1
-18.085524 -29.799777 -19.161792 39.777973 1.025318 2.073411 0.115655 -0.045378 240287.000000 0 0 1
-16.903624 -28.789657 -19.277292 38.551146 1.039885 2.094447 0.138528 -0.048110 642117.000000 0 0 1
-15.674724 -29.437947 -19.527092 38.647083 1.081514 2.100488 0.151973 -0.059894 -5660.710000 0 0 1
-14.616524 -28.584067 -19.919592 37.782030 1.098108 2.126127 0.142876 -0.062950 -864347.000000 0 0 1
-13.301224 -29.259397 -20.254292 37.990410 1.144126 2.133107 0.197660 -0.072204 -674155.000000 0 0 1
-12.507224 -29.804027 -19.229892 37.609832 1.173467 2.107493 0.182474 -0.054084 257295.000000 0 0 1
-11.713824 -28.753867 -18.623192 36.205274 1.183942 2.111078 0.152258 -0.045701 242893.000000 0 0 1
-10.793824 -29.317727 -17.426292 35.773054 1.218030 2.079602 0.139880 -0.026762 474851.000000 0 0 1
-11.475824 -29.786867 -16.291592 35.838080 1.203057 2.042707 0.162687 -0.043000 -171274.000000 0 0 1
-11.851824 -31.122887 -16.467592 37.152139 1.206944 2.030015 0.172393 -0.042635 -481877.000000 0 0 1
-12.747624 -31.771157 -15.420392 37.545930 1.189228 1.994026 0.185159 -0.056033 -620503.000000 0 0 1
-12.221424 -32.104837 -14.182192 37.164746 1.207062 1.962327 0.170924 -0.044902 -52585.700000 0 0 1
-13.098024 -32.998757 -13.476692 37.974958 1.192944 1.933586 0.178664 -0.043986 195416.000000 0 0 1
-12.510724 -33.530137 -12.138692 37.790689 1.213676 1.897802 0.150460 -0.039166 -101976.000000 0 0 1
-12.310324 -32.494027 -11.219492 36.514146 1.208656 1.883113 0.116324 -0.032844 31338.100000 0 0 1
-11.845324 -32.996597 -9.988592 36.453520 1.226138 1.848355 0.114621 -0.033605 538775.000000 0 0 1
-10.563324 -32.285067 -9.422492 35.251847 1.254586 1.841377 0.110418 -0.037406 1501180.000000 0 0 1
-9.328224 -32.755317 -9.994892 35.494005 1.293356 1.856251 0.070947 -0.025939 473450.000000 0 0 1
-8.202324 -32.155037 -9.386292 34.486621 1.321036 1.846446 0.065476 -0.033949 -783023.000000 0 0 1
-6.872224 -32.632257 -9.856492 34.774158 1.363233 1.858179 0.056129 -0.035365 -1071210.000000 0 0 1
-6.534524 33.730769 -9.492792 35.645166 -1.379441 1.840363 0.048444 -0.018801 221257.000000 0 0 1
-5.255224 33.327556 -9.975692 35.183203 -1.414400 1.858275 0.046557 -0.017178 583482.000000 0 0 1
-4.438524 32.372411 -9.060292 33.908146 -1.434538 1.841284 0.052779 -0.027680 302127.000000 0 0 1
-3.838624 33.040965 -7.920792 34.193264 -1.455137 1.804567 0.071603 -0.026072 180878.000000 0 0 1
-3.325524 32.115432 -6.993492 33.035874 -1.467615 1.784104 0.077484 -0.037798 24271.600000 0 0 1
-2.884124 32.772825 -5.640892 33.379573 -1.483019 1.740604 0.098221 -0.034936 -763015.000000 0 0 1
-1.779124 33.616487 -5.805592 34.160479 -1.517921 1.741576 0.087314 -0.032273 -221839.000000 0 0 1
-1.184424 -33.535807 -4.631692 33.874855 1.535493 1.707955 0.096507 -0.037489 -189904.000000 0 0 1
-0.350624 33.160761 -3.828392 33.382863 -1.560223 1.685731 0.117082 -0.040051 -224823.000000 0 0 1
0.922176 32.882133 -4.437192 33.192977 1.542759 1.704876 0.117165 -0.043903 413875.000000 0 0 1
1.731776 32.014688 -3.690492 32.273193 1.516756 1.685399 0.111220 -0.044344 293434.000000 0 0 1
3.209076 32.014591 -4.166592 32.443684 1.470892 1.699577 0.109594 -0.030733 664393.000000 0 0 1
3.991576 33.127618 -3.707092 33.572522 1.450884 1.681442 0.100474 -0.025073 1134840.000000 0 0 1
5.349576 33.137516 -4.209592 33.829478 1.410742 1.695555 0.090100 -0.018303 1585730.000000 0 0 1
6.243076 -33.343637 -3.716692 34.126059 -1.385705 1.679923 0.085435 -0.014946 313323.000000 0 0 1
5.880176 -32.141477 -4.262692 32.951806 -1.389851 1.700521 0.085116 -0.017913 -312753.000000 0 0 1
6.600876 -31.135487 -3.644592 32.035498 -1.361885 1.684810 0.073549 -0.026069 -168921.000000 0 0 1
6.416376 -29.819047 -4.447692 30.824137 -1.358851 1.715594 0.067952 -0.021501 5467.220000 0 0 1
7.255976 -29.789177 -5.582292 31.164182 -1.331871 1.750894 0.061366 -0.022767 -48799.600000 0 0 1
7.118776 -28.606647 -6.364192 30.158252 -1.326900 1.783421 0.053996 -0.016054 23912.100000 0 0 1
7.543276 -27.242227 -5.774492 28.851078 -1.300668 1.772306 0.045536 -0.010928 -60252.100000 0 0 1
6.680076 -26.775497 -4.785192 28.008011 -1.326303 1.742489 0.043776 -0.019283 -551695.000000 0 0 1
7.200976 -25.539677 -4.291392 26.880201 -1.295978 1.731131 0.037626 -0.012499 204349.000000 0 0 1
6.290676 -24.735957 -3.318892 25.738205 -1.321763 1.700104 0.044482 -0.018282 395079.000000 0 0 1
5.240776 -23.998457 -3.948192 24.879306 -1.355792 1.730164 0.033756 -0.024042 -58782.100000 0 1 0
4.417676 -23.350657 -3.009392 23.954655 -1.383818 1.696758 0.041050 -0.028986 260883.000000 0 1 0
3.116676 -22.851157 -3.690692 23.356161 -1.435242 1.729479 0.048249 -0.023449 233106.000000 0 1 0
2.192176 -23.821257 -4.086192 24.268393 -1.479029 1.739977 0.062459 -0.024520 118744.000000 0 1 0
0.849576 -23.347757 -4.112392 23.722380 -1.534424 1.745032 0.076790 -0.027624 709692.000000 0 1 0
-15.558824 22.932843 17.839316 32.958057 -0.974679 0.998846 0.040640 -0.025295 -148975.000000 0 0 1
-15.407424 22.214143 19.067516 33.082126 -0.964388 0.956518 0.047959 -0.028654 342604.000000 0 0 1
-15.428024 23.056243 20.201616 34.317919 -0.981078 0.941395 0.057419 -0.022768 -1209290.000000 0 0 1
-15.286324 22.264143 21.473016 34.502960 -0.969128 0.899051 0.079143 -0.021689 -701253.000000 0 0 1
-14.125124 21.559043 21.804516 33.760160 -0.990786 0.868640 0.076721 -0.024779 -434727.000000 0 0 1
-12.912124 22.246143 21.895916 33.779358 -1.044898 0.865573 0.050097 -0.022035 -795308.000000 0 0 1
-12.731924 23.359543 22.944336 35.131364 -1.071768 0.859124 0.069887 -0.013829 -909361.000000 0 0 1
-12.501724 22.818443 24.209436 35.539714 -1.069584 0.821404 0.061807 -0.010630 152485.000000 0 0 1
-12.388024 23.929643 25.128356 36.844610 -1.093101 0.820290 0.088316 -0.012963 -169198.000000 0 0 1
-11.962024 23.517443 26.539816 37.423549 -1.100257 0.782470 0.085106 -0.014085 747675.000000 0 0 1
-10.546024 23.393343 26.714616 37.042379 -1.147266 0.765277 0.047934 -0.012023 325413.000000 0 0 1
-10.156324 22.635043 27.780836 37.246087 -1.149025 0.728952 0.038988 -0.020085 -538988.000000 0 0 1
-8.651124 22.352343 27.873406 36.761338 -1.201517 0.710208 0.048741 -0.026821 115844.000000 0 0 1
-7.714924 23.399143 27.982466 37.283487 -1.252311 0.721929 0.056186 -0.023387 41039.900000 0 0 1
-7.513524 24.226743 26.875326 36.954990 -1.270069 0.756497 0.053550 -0.014755 -16018.100000 0 0 1
-6.457624 25.367243 27.263296 37.795308 -1.321525 0.765060 0.062571 -0.024674 826574.000000 0 0 1
-5.160424 24.825243 27.401726 37.333327 -1.365845 0.746640 0.073751 -0.025442 -236609.000000 0 0 1
-4.225824 25.799243 27.839716 38.190422 -1.408442 0.753979 0.089165 -0.023012 719916.000000 0 0 1
-2.751324 25.326543 27.973716 37.835597 -1.462587 0.738693 0.084854 -0.027260 446491.000000 0 0 1
-1.986224 25.201343 26.781126 36.827728 -1.492145 0.756562 0.083607 -0.026939 330587.000000 0 0 1
-0.677324 24.687343 26.930116 36.539771 -1.543367 0.742163 0.102556 -0.018750 341839.000000 0 0 1
0.176876 24.751643 25.666586 35.657380 1.563650 0.767266 0.099670 -0.022541 -139954.000000 0 0 1
-0.344224 23.891043 24.651186 34.330474 -1.556389 0.769792 0.081497 -0.008440 319886.000000 0 0 1
0.471376 23.888043 23.477546 33.497104 1.551066 0.794162 0.085075 -0.003974 367482.000000 0 0 1
0.106276 22.587143 22.570746 31.931629 1.566091 0.785767 0.039801 -0.010071 230138.000000 0 0 1
0.599176 21.356943 23.071166 31.444503 1.542748 0.747029 0.060757 -0.010236 -38800.600000 0 0 1
0.144976 20.177043 22.386866 30.138113 1.563611 0.733540 0.051605 -0.015272 -224147.000000 0 0 1
0.920776 18.970443 22.895596 29.747838 1.522297 0.692494 0.057883 -0.011903 232511.000000 0 0 1
2.281176 19.032643 22.480266 29.543318 1.451509 0.706058 0.058590 -0.018312 -91012.500000 0 0 1
2.758576 17.767943 22.196616 28.565702 1.416770 0.680851 0.045777 -0.011341 13519.400000 0 0 1
4.171876 17.848143 21.548216 28.289334 1.341176 0.704851 0.061521 -0.021386 205151.000000 0 0 1
5.183076 18.268343 22.430186 29.388942 1.294342 0.702517 0.062022 -0.013787 -622142.000000 0 0 1
6.308076 18.636643 21.669316 29.269020 1.244424 0.737206 0.090360 -0.029321 -77398.300000 0 0 1
7.523976 19.192743 22.446796 30.476717 1.197186 0.742881 0.104181 -0.036860 -402332.000000 0 0 1
7.481476 20.433443 23.066396 31.710514 1.219817 0.756263 0.078538 -0.024386 3572.290000 0 0 1
7.165176 21.541743 22.189216 31.745043 1.249690 0.796823 0.096615 -0.034068 -324699.000000 0 0 1
5.928076 22.318143 22.639146 32.338407 1.311174 0.795301 0.074886 -0.019845 -291105.000000 0 0 1
5.768176 23.527443 21.963216 32.698552 1.330371 0.834312 0.073142 -0.024492 172712.000000 0 0 1
4.606576 24.158743 22.478666 33.319001 1.382379 0.830306 0.050591 -0.017274 -283117.000000 0 0 1
4.385576 25.543743 21.862916 33.907274 1.400765 0.870054 0.056549 -0.011651 2544.330000 0 0 1
4.013976 25.487243 20.516616 32.964270 1.414590 0.899004 0.051400 -0.012234 609955.000000 0 0 1
2.651176 25.102743 20.270116 32.373663 1.465573 0.894217 0.061715 -0.017336 265659.000000 0 0 1
2.236676 25.355543 18.829616 31.661660 1.482812 0.933887 0.061653 -0.017377 -508262.000000 0 0 1
1.731276 26.643343 18.657216 32.572331 1.505908 0.960887 0.111815 -0.023523 140731.000000 0 0 1
1.733276 27.080043 17.272516 32.166330 1.506878 1.003949 0.117489 -0.018169 134043.000000 0 0 1
0.996876 28.443643 17.127116 33.217055 1.535763 1.029074 0.138270 -0.010049 10728.900000 0 0 1
1.721976 29.512743 17.649416 34.430642 1.512516 1.032577 0.165484 -0.024476 241405.000000 0 0 1
0.871676 30.628843 17.914716 35.493984 1.542345 1.041732 0.150560 -0.034768 509465.000000 0 0 1
1.656176 31.939343 18.377216 36.886131 1.518989 1.049258 0.166614 -0.033194 -40319.400000 0 0 1
1.848076 31.948343 19.794116 37.628700 1.513015 1.016861 0.199001 -0.033050 -126021.000000 0 0 1
2.380876 33.143443 20.271016 38.923907 1.499084 1.023025 0.213567 -0.034677 -606604.000000 0 0 1
2.715876 33.052343 21.791516 39.682535 1.488812 0.989454 0.202970 -0.054478 214169.000000 0 0 1
1.558976 32.842843 22.614666 39.906214 1.523364 0.968307 0.204019 -0.039856 394109.000000 0 0 1
1.797976 32.813543 23.987806 40.686315 1.516057 0.940259 0.216452 -0.058343 -587384.000000 0 0 1
0.606576 32.293943 24.775396 40.707333 1.552016 0.916473 0.220423 -0.034856 -431993.000000 0 0 1
-0.612524 33.004543 24.548556 41.137655 -1.552240 0.931362 0.210465 -0.036120 901211.000000 0 0 1
-1.587124 32.760143 25.599016 41.605956 -1.522387 0.908064 0.199875 -0.032153 344242.000000 0 0 1
-1.281024 33.238943 27.025956 42.858729 -1.532276 0.888493 0.199221 -0.039245 -837308.000000 0 0 1
-0.125224 32.666043 27.595446 42.762071 -1.566963 0.869347 0.213415 -0.053415 -214670.000000 0 0 1
0.014576 32.970443 28.953856 43.879108 1.570354 0.850170 0.203264 -0.058782 -673242.000000 0 0 1
1.127976 32.137643 29.642036 43.735006 1.535712 0.826078 0.164752 -0.050303 -257984.000000 0 0 1
2.431276 32.251843 29.176576 43.558755 1.495555 0.836828 0.155499 -0.052376 -435555.000000 0 0 1
2.730876 31.721043 27.920816 42.346833 1.484918 0.850860 0.156354 -0.052294 -1159700.000000 0 0 1
4.264876 31.672243 27.730026 42.311636 1.436945 0.856116 0.126745 -0.043032 -52460.000000 0 0 1
4.821976 30.618943 28.452866 42.075370 1.414596 0.828156 0.108284 -0.033544 257718.000000 0 0 1
6.207576 30.499343 28.144856 41.962803 1.370007 0.835631 0.094615 -0.041877 423167.000000 0 0 1
6.952976 29.309443 28.782896 41.663443 1.337875 0.808142 0.106140 -0.022334 30992.400000 0 0 1
6.931776 29.385543 30.159626 42.675083 1.339140 0.785935 0.121253 -0.039089 45378.300000 0 0 1
7.535276 28.281243 30.780416 42.474029 1.310405 0.760215 0.095185 -0.034193 -257074.000000 0 0 1
7.465176 28.324343 32.347434 43.638902 1.313096 0.735862 0.137098 -0.044701 -205385.000000 0 0 1
6.181476 28.219443 32.907091 43.788403 1.355152 0.720460 0.132539 -0.048008 -140161.000000 0 0 1
6.361276 27.933343 -33.088342 43.767292 1.346884 2.427986 0.142998 -0.043560 98597.400000 0 0 1
6.561876 26.444443 -32.696332 42.560744 1.327571 2.446864 0.118397 -0.034689 699071.000000 0 0 1
7.911876 26.110743 -33.062952 42.866391 1.276578 2.451681 0.110865 -0.034441 697063.000000 0 0 1
8.161476 24.816843 -32.588972 41.767529 1.253070 2.465856 0.111660 -0.044552 215878.000000 0 0 1
9.535276 24.096343 -32.736042 41.751691 1.193990 2.471985 0.128309 -0.055595 -41394.500000 0 0 1
9.666876 23.734043 33.264206 41.991198 1.184013 0.656438 0.111840 -0.046761 -266374.000000 0 0 1
10.815176 22.950943 33.081635 41.690627 1.130428 0.654253 0.123328 -0.056064 -544311.000000 0 0 1
10.765176 21.463743 33.519376 41.232631 1.105908 0.621625 0.118455 -0.058025 -824347.000000 0 0 1
10.066276 20.682443 32.574931 39.877557 1.117840 0.614826 0.101711 -0.057363 24853.500000 0 0 1
9.530576 19.447843 32.948496 39.429100 1.115134 0.581501 0.097224 -0.041346 615640.000000 0 0 1
8.254476 19.524043 -33.503882 39.646371 1.170803 2.577489 0.116832 -0.047813 31582.700000 0 0 1
8.479576 20.081443 -32.237652 38.915727 1.171249 2.547035 0.122350 -0.049136 -607209.000000 0 0 1
7.375176 20.801443 -31.820062 38.724793 1.230073 2.535179 0.140361 -0.047541 -587891.000000 0 0 1
7.392976 21.276243 -30.386692 37.824406 1.236372 2.503716 0.146949 -0.058641 -167518.000000 0 0 1
8.411476 22.218143 -30.196112 38.421400 1.208886 2.474977 0.149725 -0.051741 -103028.000000 0 0 1
8.441076 22.830443 -28.868692 37.760856 1.216655 2.441083 0.121707 -0.043003 958659.000000 0 0 1
9.922076 23.256143 -28.448582 38.060709 1.167535 2.415016 0.124252 -0.050837 1431200.000000 0 0 1
10.728576 22.143243 -28.224662 37.444053 1.119619 2.424595 0.128676 -0.040624 -807362.000000 0 0 1
12.110476 22.319943 -28.320872 38.038340 1.073664 2.410634 0.118961 -0.044588 -168305.000000 0 0 1
12.887276 20.996043 -28.332192 37.545024 1.020295 2.425870 0.124714 -0.056402 -60283.300000 0 0 1
12.838376 20.227643 -29.515322 38.014940 1.005256 2.459752 0.133044 -0.058385 402341.000000 0 0 1
11.529176 19.743243 -29.826812 37.581329 1.042258 2.487599 0.149210 -0.051962 448690.000000 0 0 1
11.522676 18.707043 -30.990242 37.988427 1.018729 2.524875 0.145827 -0.046187 -74488.300000 0 0 1
12.074676 17.426943 -30.564172 37.197644 0.964869 2.535130 0.155311 -0.042814 344390.000000 0 0 1
12.100876 16.452743 -31.575562 37.605054 0.936645 2.567458 0.135539 -0.038404 -393941.000000 0 0 1
13.304576 16.511743 -32.513492 38.817220 0.892550 2.563680 0.118025 -0.021082 -581179.000000 0 0 1
13.372076 17.631943 -33.363922 40.035598 0.921941 2.555949 0.121407 -0.026425 -16580.200000 0 0 1
14.199876 17.469543 32.878817 39.847686 0.888277 0.600395 0.131221 -0.034589 -74152.400000 0 0 1
13.377576 17.117043 31.633399 38.374792 0.907416 0.601783 0.138127 -0.044786 -566810.000000 0 0 1
13.917076 17.624443 30.384876 37.782889 0.902401 0.636474 0.118137 -0.041307 81152.300000 0 0 1
13.114576 17.431243 29.216506 36.461549 0.925786 0.641337 0.111490 -0.040664 424168.000000 0 0 1
11.597176 17.758443 29.213986 36.101437 0.992279 0.627974 0.097064 -0.034129 453679.000000 0 0 1
10.756576 16.858543 29.950436 36.013095 1.002868 0.588717 0.090490 -0.031090 1429660.000000 0 0 1
9.392376 17.340043 29.980046 35.884495 1.074380 0.581828 0.092341 -0.024584 1343550.000000 0 0 1
8.256476 16.613243 30.729746 35.895495 1.109566 0.543142 0.109550 -0.023339 229201.000000 0 0 1
8.162276 16.800843 32.103630 37.142081 1.118553 0.526947 0.111609 -0.028847 51287.000000 0 0 1
7.469576 15.708743 32.706309 37.044053 1.126937 0.488787 0.144440 -0.031697 -195485.000000 0 0 1
7.505476 15.577443 -33.095482 37.340324 1.121801 2.660133 0.148141 -0.038910 -273312.000000 0 0 1
6.852276 16.631243 -32.440562 37.093692 1.179978 2.635319 0.145976 -0.043010 100243.000000 0 0 1
6.990176 16.530243 -31.004852 35.824745 1.170730 2.616862 0.143334 -0.055224 -628464.000000 0 0 1
6.011376 17.424543 -30.313142 35.477287 1.238587 2.595264 0.136008 -0.056330 -1053570.000000 0 0 1
6.015976 17.256743 -28.915642 34.206746 1.235355 2.577960 0.136510 -0.062011 313401.000000 0 0 1
5.312776 18.254343 -28.154192 33.972123 1.287578 2.547656 0.146247 -0.062266 1345130.000000 0 0 1
3.740176 18.363343 -28.265222 33.913479 1.369868 2.556120 0.169936 -0.064974 339309.000000 0 0 1
3.016676 17.277743 -27.638142 32.733586 1.397940 2.576121 0.181609 -0.066837 167469.000000 0 0 1
1.649976 17.179043 -27.954122 32.852319 1.475044 2.588497 0.184721 -0.064213 127924.000000 0 0 1
0.723976 18.323043 -27.492592 33.046946 1.531305 2.553365 0.184712 -0.073027 -918344.000000 0 0 1
0.617776 18.729243 -26.134832 32.158912 1.537824 2.519529 0.202089 -0.074408 -245254.000000 0 0 1
-0.176624 19.861743 -26.156582 32.843368 -1.561904 2.492122 0.227191 -0.067076 -372650.000000 0 0 1
-0.634324 20.321943 -24.759692 32.037885 -1.539593 2.454078 0.182167 -0.065835 -316745.000000 0 0 1
-1.703624 19.615743 -24.207592 31.203962 -1.484164 2.458756 0.156982 -0.059764 -186171.000000 0 0 1
-2.285424 20.181243 -23.070192 30.736615 -1.458032 2.419731 0.138271 -0.048668 436618.000000 0 0 1
-3.360924 19.303143 -22.346592 29.719982 -1.398412 2.421743 0.111352 -0.045420 -632159.000000 0 0 1
-4.670124 19.585543 -22.629392 30.290146 -1.336720 2.414466 0.113659 -0.036886 -700292.000000 0 0 1
-5.568824 18.604143 -22.092392 29.414278 -1.279952 2.420488 0.099118 -0.036802 104050.000000 0 0 1
-7.069624 18.887043 -21.981192 29.830736 -1.212630 2.399216 0.150883 -0.031565 -197281.000000 0 0 1
-7.436324 19.803443 -20.965392 29.782930 -1.211582 2.351726 0.091009 -0.022146 24010.400000 0 0 1
-7.322024 21.139743 -21.342192 30.919087 -1.237365 2.332644 0.089417 -0.031353 -325365.000000 0 0 1
-7.825424 22.176643 -20.273592 31.049304 -1.231569 2.282267 0.087937 -0.034482 -532427.000000 0 0 1
-7.106024 22.258343 -19.109192 30.184278 -1.261772 2.256328 0.101804 -0.032932 -240601.000000 0 0 1
-7.548924 23.304843 -18.238592 30.540927 -1.257541 2.210784 0.104551 -0.035602 -178255.000000 0 0 1
-6.751224 23.243843 -16.933992 29.540064 -1.288122 2.181269 0.132957 -0.035616 609718.000000 0 0 1
-5.373624 23.562043 -17.126192 29.620131 -1.346569 2.187310 0.136602 -0.042398 64514.800000 0 0 1
-4.709524 23.616143 -15.892592 28.852666 -1.373959 2.154141 0.123656 -0.034443 -676104.000000 0 0 1
-3.221324 23.891843 -15.999992 28.934354 -1.436775 2.156728 0.120696 -0.033297 -498417.000000 0 0 1
-2.810824 25.230643 -16.123492 30.074126 -1.459849 2.136636 0.095234 -0.040783 -814518.000000 0 0 1
-1.758124 25.368443 -17.005892 30.591654 -1.501603 2.160241 0.095408 -0.040913 -505042.000000 0 0 1
-1.189024 26.792243 -17.057992 31.783851 -1.526446 2.137303 0.084785 -0.053250 -421115.000000 0 0 1
-2.049124 27.740443 -17.571292 32.901085 -1.497062 2.134197 0.084135 -0.055743 -726872.000000 0 0 1
-1.335624 28.731543 -18.196092 34.035029 -1.524343 2.134864 0.095581 -0.055137 -739888.000000 0 0 1
-2.123924 29.457243 -19.357692 35.312327 -1.498819 2.150989 0.142121 -0.048744 647451.000000 0 0 1
-3.134224 30.390743 -18.986092 35.970715 -1.468029 2.126829 0.126060 -0.045142 368524.000000 0 0 1
-4.311924 29.812843 -18.442092 35.320094 -1.427159 2.120156 0.071044 -0.041938 15471.200000 0 0 1
-5.162124 30.763843 -17.508492 35.771621 -1.404547 2.082258 0.100882 -0.032093 651650.000000 0 0 1
-5.910024 31.800743 -18.147492 37.088369 -1.387047 2.082088 0.147837 -0.043014 298898.000000 0 0 1
-6.066224 32.840343 -17.235892 37.581421 -1.388137 2.047247 0.147057 -0.056579 -129499.000000 0 0 1
-6.774024 -33.581362 -17.817992 38.614455 1.371748 2.050406 0.151670 -0.042687 257851.000000 0 0 1
-8.157524 33.814943 -17.999492 39.166022 -1.334079 2.048306 0.148460 -0.060886 566076.000000 0 0 1
-8.907624 -32.672262 -18.358792 38.521004 1.304630 2.067570 0.185047 -0.063288 298823.000000 0 0 1
29.385876 -19.982057 -26.695952 44.446441 -0.597169 2.215088 0.077140 -0.009675 204582.000000 0 0 1
29.370376 -21.323657 -26.318302 44.832693 -0.627980 2.198186 0.069247 -0.011059 -630764.000000 0 0 1
28.121976 -21.708857 -25.835552 43.927164 -0.657404 2.199560 0.053474 -0.009031 -567130.000000 0 0 1
28.252676 -22.910757 -24.826792 44.039597 -0.681366 2.169701 0.076400 -0.004030 301445.000000 0 0 1
28.763476 -24.155357 -25.282232 45.277037 -0.698538 2.163240 0.076946 0.006483 1300010.000000 0 0 1
30.187076 -24.210757 -25.595472 46.395565 -0.675974 2.155173 0.085581 -0.001469 1560350.000000 0 0 1
30.718376 -25.528017 -26.276402 47.809492 -0.693380 2.152689 0.080833 -0.005867 189277.000000 0 0 1
30.488276 -26.699907 -25.458692 47.859847 -0.719251 2.131689 0.102054 -0.007997 -198667.000000 0 0 1
30.866776 -27.868357 -26.156012 49.127794 -0.734393 2.132239 0.097371 -0.008032 -144073.000000 0 0 1
29.775476 -28.509537 -27.039252 49.300038 -0.763682 2.151321 0.067443 -0.008649 -285437.000000 0 0 1
29.381076 -27.921027 -28.258452 49.410236 -0.759924 2.179635 0.055425 -0.010146 110625.000000 0 0 1
30.219876 -28.047527 -29.412462 50.645805 -0.748133 2.190444 0.044404 -0.010460 -367664.000000 0 0 1
30.436376 -29.463027 -30.074822 51.951303 -0.769150 2.188180 0.052380 -0.007252 -467804.000000 0 0 1
31.103676 -30.429687 -29.256662 52.434309 -0.774445 2.162731 0.066845 -0.009671 1502280.000000 0 0 1
32.448476 -30.182707 -28.728872 52.813326 -0.749238 2.145958 0.074096 -0.011199 1714040.000000 0 0 1
33.561176 -29.963307 -29.814742 53.972874 -0.728821 2.156040 0.074592 -0.021310 -237753.000000 0 0 1
33.416776 -28.702027 -30.355122 53.496922 -0.709645 2.174163 0.075908 -0.022269 59804.800000 0 0 1
34.594376 -28.376647 -31.087872 54.483582 -0.686978 2.178022 0.063363 -0.021803 277882.000000 0 0 1
34.607476 -26.888457 -31.666162 54.068589 -0.660530 2.196498 0.059221 -0.016433 38292.400000 0 0 1
34.569676 -25.784757 -30.742832 52.962608 -0.640858 2.190093 0.054474 -0.014857 -26426.400000 0 0 1
33.279276 -25.518347 -30.222192 51.692138 -0.654163 2.195254 0.062716 -0.011671 16612.200000 0 0 1
33.245876 -24.233557 -29.428872 50.582725 -0.629872 2.191733 0.052639 -0.010540 -97337.000000 0 0 1
34.011176 -24.169857 -28.232222 50.378571 -0.617834 2.165667 0.059536 -0.012364 198650.000000 0 0 1
34.196576 -22.856857 -27.773202 49.630560 -0.589199 2.164698 0.055598 -0.006735 350158.000000 0 0 1
35.241076 -22.753157 -26.587742 49.664349 -0.573306 2.135717 0.076654 -0.009878 285993.000000 0 0 1
34.827876 -23.328857 -25.346342 48.986259 -0.590191 2.114627 0.068899 -0.013021 845488.000000 0 0 1
33.780976 -22.727957 -24.528692 47.532842 -0.592239 2.113014 0.083481 -0.005560 688360.000000 0 0 1
34.113276 -21.398557 -23.771592 46.762190 -0.560237 2.104065 0.102267 -0.010556 -251059.000000 0 0 1
34.054876 -20.279957 -24.612392 46.655986 -0.537110 2.126486 0.101258 -0.024503 99496.500000 0 0 1
34.074876 -19.030757 -23.976692 45.805552 -0.509344 2.121686 0.083197 -0.031590 -105385.000000 0 0 1
34.024776 -17.893457 -25.090192 45.906197 -0.484148 2.149039 0.072606 -0.045104 -241883.000000 0 0 1
32.771376 -17.801657 -25.701602 45.292763 -0.497613 2.174208 0.094370 -0.029435 -234906.000000 0 0 1
32.747676 -16.625957 -26.561372 45.324819 -0.469788 2.196938 0.106224 -0.025731 -200070.000000 0 0 1
31.482776 -16.501957 -27.427702 44.897200 -0.482787 2.227993 0.067053 -0.012491 3586.160000 0 0 1
30.305276 -16.385757 -26.631742 43.544833 -0.495667 2.228870 0.058213 -0.007126 593609.000000 0 0 1
29.232876 -16.026357 -27.532292 43.236931 -0.501484 2.261108 0.021187 -0.000671 1393270.000000 0 0 1
27.852976 -15.706857 -26.814702 41.731545 -0.513468 2.268621 -0.011685 0.001841 901767.000000 0 0 1
27.300376 -16.830657 -26.175012 41.397014 -0.552463 2.255305 0.033553 0.010878 -51345.900000 0 0 1
27.601176 -16.774757 -24.799792 40.721580 -0.546102 2.225606 0.049698 0.006301 -353901.000000 0 0 1
27.076176 -17.956557 -23.984092 40.383089 -0.585589 2.206712 0.063119 0.005387 -149814.000000 0 0 1
27.014176 -17.678357 -22.590192 39.403131 -0.579469 2.181336 0.066270 0.002175 62617.700000 0 0 1
26.033776 -18.477257 -21.956592 38.746076 -0.617234 2.173266 0.089103 -0.015285 164716.000000 0 0 1
25.736476 -17.914257 -20.504492 37.466264 -0.608080 2.149906 0.093223 -0.025006 -230279.000000 0 0 1
25.042776 -16.687157 -20.325992 36.314567 -0.587781 2.164844 0.098556 -0.031563 -2332.420000 0 0 1
25.532176 -15.499157 -20.964292 36.491333 -0.545583 2.182790 0.092420 -0.021213 744150.000000 0 0 1
26.910776 -14.876857 -20.502792 36.957749 -0.505007 2.158874 0.087422 -0.022256 859237.000000 0 0 1
26.901676 -14.172557 -19.306392 36.018027 -0.484879 2.136512 0.102775 -0.039376 674322.000000 0 0 1
28.181276 -13.537457 -19.206392 36.692404 -0.447821 2.121683 0.087314 -0.027894 265190.000000 0 0 1
28.254376 -12.515257 -18.061692 35.793381 -0.416975 2.099726 0.098977 -0.026996 -162763.000000 0 0 1
28.368576 -13.202257 -16.811392 35.520397 -0.435573 2.063816 0.099735 -0.032005 349220.000000 0 0 1
28.130776 -12.283657 -15.732792 34.492746 -0.411707 2.044425 0.089374 -0.023334 115421.000000 0 0 1
28.697576 -12.997157 -14.475392 34.670072 -0.425264 2.001509 0.107737 -0.037591 -259525.000000 0 0 1
27.881476 -13.985657 -13.928892 34.161225 -0.464936 1.990774 0.145551 -0.047733 74772.400000 0 0 1
28.321776 -14.314857 -12.632392 34.155752 -0.467987 1.949640 0.161743 -0.042405 -5135.740000 0 0 1
27.663776 -15.634157 -12.056192 33.986219 -0.514400 1.933430 0.163178 -0.060201 186469.000000 0 0 1
26.387376 -15.262257 -11.520992 32.587779 -0.524380 1.932146 0.144498 -0.052409 746768.000000 0 0 1
25.582876 -16.381857 -11.217092 32.383204 -0.569558 1.924512 0.115947 -0.045085 890246.000000 0 0 1
24.078176 -16.116857 -10.833092 30.933275 -0.589862 1.928590 0.126544 -0.045860 695646.000000 0 0 1
23.850076 -15.501657 -9.571492 30.012346 -0.576349 1.895384 0.106164 -0.041019 1729190.000000 0 0 1
22.411676 -15.575157 -9.333092 28.843982 -0.607334 1.900298 0.106198 -0.036037 1341830.000000 0 0 1
22.014676 -15.378757 -7.864192 27.982095 -0.609765 1.855678 0.090123 -0.025834 -123508.000000 0 0 1
22.474476 -14.122257 -7.278992 27.523152 -0.561018 1.838449 0.099552 -0.015567 467788.000000 0 0 1
22.147776 -13.909457 -5.885692 26.807430 -0.560775 1.792154 0.090303 -0.012709 -521116.000000 0 0 1
22.886376 -14.632257 -4.776092 27.580794 -0.568847 1.744841 0.087883 -0.010771 1216760.000000 0 0 1
24.282876 -14.216157 -4.675192 28.523930 -0.529645 1.735443 0.125927 -0.018977 1594230.000000 0 0 1
25.097976 -15.005857 -3.843692 29.493357 -0.538867 1.701492 0.132178 -0.025876 700802.000000 0 0 1
26.616776 -14.671757 -4.069292 30.663860 -0.503781 1.703895 0.138041 -0.023009 656230.000000 0 0 1
27.005376 -13.432657 -3.485192 30.362364 -0.461571 1.685836 0.142640 -0.029702 899372.000000 0 0 1
28.379576 -13.148057 -3.812792 31.508873 -0.433853 1.692101 0.149152 -0.038252 864881.000000 0 0 1
29.016976 -12.038657 -2.971092 31.555372 -0.393271 1.665091 0.198507 -0.049556 -940892.000000 0 0 1
29.410076 -12.386257 -1.648192 31.954474 -0.398611 1.622399 0.214263 -0.062433 460437.000000 0 0 1
29.971676 -11.296157 -0.877792 32.041770 -0.360430 1.598195 0.215898 -0.053925 772675.000000 0 0 1
31.399476 -10.837857 -1.329892 33.243869 -0.332357 1.610811 0.263590 -0.064146 -215325.000000 0 0 1
31.426376 -10.188257 -2.559292 33.135595 -0.313503 1.648110 0.257478 -0.063560 988519.000000 0 0 1
32.698476 -10.082757 -3.263192 34.372965 -0.299105 1.665874 0.294884 -0.067264 828496.000000 0 0 1
32.570576 -9.711357 -4.769592 34.320575 -0.289771 1.710219 0.264527 -0.067328 -526560.000000 0 0 1
31.929976 -10.760857 -5.443792 34.131426 -0.325060 1.730975 0.258546 -0.057440 128224.000000 0 0 1
31.952476 -10.581057 -6.833092 34.345460 -0.319784 1.771085 0.243895 -0.052579 99037.600000 0 0 1
30.744476 -11.280757 -7.533892 33.604133 -0.351668 1.796914 0.220547 -0.038214 167934.000000 0 0 1
30.776776 -12.698357 -7.532892 34.135065 -0.391317 1.793307 0.221917 -0.032232 -316022.000000 0 0 1
29.690676 -13.214257 -8.228492 33.524034 -0.418742 1.818781 0.217307 -0.029574 -445159.000000 0 0 1
29.694476 -14.752657 -8.483792 34.225392 -0.461096 1.821288 0.203666 -0.030188 59137.800000 0 0 1
30.409876 -15.253957 -9.602892 35.350520 -0.464936 1.845901 0.220417 -0.043952 209273.000000 0 0 1
30.433376 -16.664957 -9.698292 36.027323 -0.500990 1.843351 0.184932 -0.041519 -215457.000000 0 0 1
30.812776 -17.186757 -11.066692 36.976796 -0.508797 1.874742 0.154427 -0.046204 -933212.000000 0 0 1
32.103176 -16.874757 -11.481092 38.041908 -0.483950 1.877378 0.170530 -0.034264 -133790.000000 0 0 1
32.513576 -17.419857 -12.740392 39.024372 -0.491854 1.903366 0.149544 -0.029445 -160387.000000 0 0 1
31.966476 -16.786757 -14.026892 38.735055 -0.483554 1.941342 0.131191 -0.038812 -749954.000000 0 0 1
32.649676 -15.676457 -14.411692 38.980117 -0.447635 1.949503 0.136167 -0.037717 -258054.000000 0 0 1
32.078476 -15.017157 -15.522092 38.671423 -0.437835 1.983824 0.109319 -0.044790 -692316.000000 0 0 1
32.920576 -13.889457 -16.178792 39.222884 -0.399249 1.995975 0.101245 -0.026629 594142.000000 0 0 1
34.001476 -14.366557 -17.017292 40.645867 -0.399775 2.002779 0.054214 -0.028671 1746500.000000 0 0 1
35.224576 -14.497157 -16.235892 41.407034 -0.390435 1.973715 0.084022 -0.027149 244412.000000 0 0 1
36.384276 -15.051757 -17.050992 42.908125 -0.392251 1.979460 0.084368 -0.031635 729751.000000 0 0 1
37.705076 -15.135257 -16.465392 43.838999 -0.381723 1.955827 0.107488 -0.036576 1452090.000000 0 0 1
-37.169189 -15.760257 -17.364692 43.948457 0.401035 1.976989 0.121029 -0.038857 676365.000000 0 0 1
-35.650489 -15.605857 -17.026392 42.478208 0.412617 1.983215 0.143975 -0.043111 531102.000000 0 0 1
-35.056089 -16.480957 -16.106992 41.952193 0.439468 1.964852 0.141118 -0.045105 80024.100000 0 0 1
-35.308089 -16.280457 -14.707792 41.569623 0.432044 1.932439 0.119039 -0.037417 -351326.000000 0 0 1
-34.695189 -17.297657 -13.705092 41.119273 0.462495 1.910599 0.120400 -0.035257 197506.000000 0 0 1
-33.293089 -17.092057 -13.599492 39.818518 0.474295 1.919348 0.135221 -0.042630 91705.000000 0 0 1
-32.728689 -18.020057 -12.723992 39.468842 0.503295 1.899040 0.128175 -0.027685 221862.000000 0 0 1
-31.197389 -17.796157 -12.582792 38.056628 0.518399 1.907771 0.164397 -0.036033 274853.000000 0 0 1
-30.761389 -16.575957 -12.004292 36.947644 0.494247 1.901702 0.160675 -0.053633 383543.000000 0 0 1
-29.453289 -16.608857 -11.454792 35.701017 0.513456 1.897427 0.160114 -0.046336 428246.000000 0 0 1
-29.628289 -16.218057 -9.947492 35.210985 0.500833 1.857207 0.175928 -0.046746 250239.000000 0 0 1
-30.310489 -17.258657 -9.225892 36.079136 0.517612 1.829381 0.170562 -0.043906 -115620.000000 0 0 1
-30.832989 -16.670057 -8.044992 35.962284 0.495641 1.796412 0.186534 -0.047643 110685.000000 0 0 1
-31.752489 -17.688457 -7.299992 37.072793 0.508257 1.769001 0.178721 -0.034271 731498.000000 0 0 1
-32.953789 -18.244457 -7.852392 38.476908 0.505632 1.776321 0.131483 -0.028553 565926.000000 0 0 1
-32.830689 -18.987757 -8.996392 38.978508 0.524351 1.803700 0.127478 -0.029088 35793.500000 0 0 1
-34.160389 -19.619657 -9.536792 40.531636 0.521338 1.808316 0.091306 -0.017745 443816.000000 0 0 1
-35.137889 -18.748357 -10.068992 41.079882 0.490138 1.818427 0.094648 -0.014203 -26811.500000 0 0 1
-36.298489 -19.510157 -10.288992 42.474579 0.493190 1.815469 0.089956 -0.024860 -561644.000000 0 0 1
-37.552289 -18.771857 -10.710092 43.327394 0.463556 1.820575 0.098336 -0.044523 -595503.000000 0 0 1
-37.657089 -18.531857 -12.090692 43.676892 0.457325 1.851281 0.088200 -0.047339 133763.000000 0 0 1
36.951176 -17.817057 -12.412192 42.859064 -0.449289 1.864610 0.104222 -0.045568 -205228.000000 0 0 1
36.486076 -17.749757 -13.850892 42.873474 -0.452773 1.899762 0.095315 -0.043244 -27915.900000 0 0 1
35.822876 -18.935157 -14.296992 42.967692 -0.486247 1.910002 0.073547 -0.038665 171828.000000 0 0 1
35.423976 -18.751157 -15.629992 43.020467 -0.486839 1.942620 0.068324 -0.030564 -665977.000000 0 0 1
34.318276 -19.744057 -15.943592 42.682197 -0.522076 1.953621 0.088927 -0.039524 18147.500000 0 0 1
33.170176 -19.635457 -15.068292 41.386775 -0.534488 1.943446 0.101239 -0.035972 1152240.000000 0 0 1
32.009576 -20.409257 -15.334492 40.942610 -0.567608 1.954693 0.115985 -0.042738 800943.000000 0 0 1
31.186176 -20.006257 -16.599092 40.599972 -0.570384 1.991984 0.116088 -0.047013 -633437.000000 0 0 1
30.628276 -18.721757 -16.574092 39.538538 -0.548656 2.003347 0.116944 -0.053570 621122.000000 0 0 1
29.630876 -18.522557 -17.590492 39.121596 -0.558678 2.037155 0.096056 -0.051939 673103.000000 0 0 1
28.743976 -17.274357 -17.293892 37.731926 -0.541135 2.046918 0.102144 -0.045941 519335.000000 0 0 1
27.693776 -17.363657 -16.320592 36.534963 -0.560027 2.033883 0.130145 -0.056306 580172.000000 0 0 1
27.107876 -16.089857 -16.119792 35.405764 -0.535663 2.043491 0.104351 -0.051451 -499259.000000 0 0 1
25.720676 -16.210057 -15.461092 34.108129 -0.562355 2.041256 0.104302 -0.057231 72514.800000 0 0 1
24.595176 -16.810157 -16.048992 33.838945 -0.599548 2.064938 0.112047 -0.054212 605971.000000 0 0 1
24.045076 -15.968157 -17.104792 33.551775 -0.586218 2.105752 0.110514 -0.041583 -646725.000000 0 0 1
22.974676 -16.597457 -18.001092 33.576042 -0.625618 2.136641 0.104381 -0.039279 -194835.000000 0 0 1
21.678676 -16.485157 -17.448492 32.344632 -0.650144 2.140587 0.093475 -0.029579 -694914.000000 0 0 1
20.805376 -17.235957 -18.199592 32.575559 -0.691842 2.163600 0.090076 -0.029761 -791024.000000 0 0 1
19.380776 -17.487057 -17.741192 31.562026 -0.734078 2.167726 0.081530 -0.017613 -295552.000000 0 0 1
18.559476 -16.350157 -17.665392 30.394865 -0.722196 2.190995 0.085218 -0.013911 -566284.000000 0 0 1
17.216576 -16.686857 -17.746892 29.829748 -0.769775 2.207987 0.092650 -0.013069 82727.800000 0 0 1
16.163076 -15.521557 -17.547492 28.461873 -0.765154 2.235119 0.100139 -0.013706 493870.000000 0 0 1
15.679876 -14.932957 -18.712692 28.618465 -0.761004 2.283482 0.094225 -0.011806 29609.500000 0 0 1
14.415776 -14.338357 -18.498992 27.488466 -0.782706 2.309017 0.107866 -0.011044 257835.000000 0 0 1
13.730376 -13.944857 -19.824492 27.856646 -0.793148 2.362656 0.100313 -0.012212 216431.000000 0 0 1
14.163876 -12.671557 -20.333992 27.832624 -0.729845 2.389969 0.115157 -0.019809 203753.000000 0 0 1
13.412776 -12.364757 -21.499492 28.196062 -0.744764 2.437964 0.118808 -0.018389 259637.000000 0 0 1
13.658176 -10.901757 -21.895792 28.014635 -0.673634 2.467997 0.129124 -0.027080 -1367940.000000 0 0 1
14.861176 -10.675657 -22.488692 28.992507 -0.622941 2.458576 0.123852 -0.027289 -1400000.000000 0 0 1
14.943776 -9.336557 -22.888492 28.885477 -0.558440 2.485509 0.121829 -0.038522 -408379.000000 0 0 1
16.414276 -9.001757 -23.126092 29.753591 -0.501622 2.461086 0.116994 -0.035082 -582233.000000 0 0 1
16.812576 -9.495157 -24.370192 31.092233 -0.514109 2.471563 0.160860 -0.038716 -257708.000000 0 0 1
18.156776 -9.109657 -24.494592 31.821995 -0.465024 2.449227 0.145335 -0.047107 -489430.000000 0 0 1
21.961976 5.671543 -7.037692 23.749187 0.252722 1.871648 0.198731 0.013986 -254895.000000 0 1 0
21.706876 7.019343 -7.352492 23.969121 0.312757 1.882571 0.209257 0.006779 548834.000000 0 1 0
21.560776 7.753343 -6.183692 23.732244 0.345205 1.834399 0.214400 0.011374 -326818.000000 0 1 0
21.152276 9.196243 -6.430492 23.944538 0.410111 1.842692 0.171799 0.020539 -927394.000000 0 1 0
19.872976 9.376543 -6.992792 23.059789 0.440854 1.878894 0.056082 -0.008658 285261.000000 0 1 0
19.356476 10.673643 -6.819192 23.132254 0.503937 1.870034 0.062647 -0.008564 -103787.000000 0 1 0
19.004676 11.048043 -5.286192 22.609307 0.526581 1.806787 0.097740 -0.015905 -508243.000000 0 1 0
20.185676 11.221343 -4.490792 23.527585 0.507366 1.762848 0.128331 -0.007778 810595.000000 0 1 0
20.789676 12.511443 -4.701792 24.715454 0.541750 1.762200 0.180584 -0.019719 134209.000000 0 1 0
21.600376 13.021643 -3.466592 25.458921 0.542508 1.707385 0.163420 -0.027859 702297.000000 0 0 1
22.820676 12.272643 -3.360392 26.128399 0.493418 1.699764 0.154646 -0.047615 484927.000000 0 0 1
23.528476 12.753243 -2.242392 26.856334 0.496707 1.654389 0.133241 -0.051830 534739.000000 0 0 1
24.687376 11.795043 -1.781192 27.418282 0.445711 1.635806 0.153751 -0.043746 929328.000000 0 0 1
25.925076 11.708443 -2.502192 28.556228 0.424205 1.658532 0.154524 -0.025699 878376.000000 0 0 1
26.656476 10.592743 -2.009692 28.754352 0.378245 1.640745 0.192102 -0.027763 523261.000000 0 0 1
28.086276 10.401343 -2.616792 30.064504 0.354675 1.657946 0.199980 -0.033428 670212.000000 0 0 1
28.990276 11.425943 -2.193292 31.237778 0.375436 1.641067 0.162043 -0.035042 770861.000000 0 0 1
30.340376 10.959543 -2.110392 32.328064 0.346635 1.636123 0.144489 -0.035608 206017.000000 0 0 1
31.225276 12.046243 -1.543592 33.503917 0.368192 1.616885 0.108441 -0.029147 -1057740.000000 0 0 1
31.136876 12.219543 -0.141892 33.449101 0.373977 1.575038 0.154773 -0.046446 122838.000000 0 0 1
32.073776 13.078843 0.464808 34.641005 0.387190 1.557378 0.125800 -0.036954 490091.000000 0 0 1
33.560876 12.551843 0.493608 35.834687 0.357896 1.557021 0.125264 -0.036374 846289.000000 0 0 1
34.468976 13.685543 0.528308 37.090207 0.377952 1.556552 0.121454 -0.045323 264950.000000 0 0 1
35.405376 13.648943 -0.497092 37.948404 0.367948 1.583896 0.142845 -0.036495 -512725.000000 0 0 1
35.326776 14.933443 -1.379292 38.378265 0.399940 1.606743 0.099133 -0.016204 956840.000000 0 0 1
34.088776 14.813443 -2.121292 37.228787 0.409936 1.627807 0.094829 -0.007070 951603.000000 0 0 1
34.004976 15.827843 -3.064192 37.633074 0.435633 1.652309 0.060487 0.005420 792267.000000 0 0 1
32.745676 15.592943 -3.991192 36.487652 0.444413 1.680400 0.065189 -0.008509 172994.000000 0 0 1
32.813776 14.382843 -4.714892 36.136412 0.413096 1.701644 0.049314 -0.009837 640821.000000 0 0 1
31.736776 14.319543 -5.649992 35.273143 0.423849 1.731668 0.050449 -0.017555 241586.000000 0 0 1
30.359176 13.884443 -5.113192 33.772800 0.428940 1.722780 0.065832 -0.019777 -660919.000000 0 0 1
29.388276 13.814043 -6.118192 33.044376 0.439404 1.757022 0.109442 -0.035558 -162538.000000 0 0 1
28.158176 13.361543 -5.629992 31.671920 0.443054 1.749506 0.117893 -0.020247 -84420.300000 0 0 1
27.013976 13.160743 -6.651992 30.776761 0.453341 1.788652 0.113202 -0.022285 -530228.000000 0 0 1
27.367476 12.265143 -7.694292 30.961502 0.421327 1.821940 0.108068 -0.010087 877330.000000 0 0 1
26.342176 11.966343 -8.689692 30.209507 0.426396 1.862566 0.139806 -0.007752 546741.000000 0 0 1
25.756276 13.163043 -9.471692 30.436235 0.472458 1.887250 0.144402 -0.005362 -196785.000000 0 0 1
24.978576 13.979443 -8.611792 29.891755 0.510227 1.863038 0.153030 -0.022054 -270825.000000 0 0 1
24.702676 15.244443 -9.216792 30.455943 0.552911 1.878244 0.142473 -0.025765 -554804.000000 0 0 1
23.561476 16.010143 -8.518392 29.732656 0.596838 1.861368 0.142254 -0.014153 441024.000000 0 0 1
22.266576 15.474443 -8.770992 28.498931 0.607337 1.883640 0.176363 -0.038581 519517.000000 0 0 1
21.876076 14.232843 -8.097292 27.325860 0.576806 1.871637 0.193492 -0.039518 632136.000000 0 0 1
20.343476 13.861443 -8.209492 25.949805 0.598113 1.892687 0.202016 -0.042408 1186800.000000 0 0 1
19.425076 14.467643 -7.356192 25.313234 0.640160 1.865657 0.257380 -0.072060 795622.000000 0 0 1
18.043576 14.450243 -7.733792 24.376047 0.675261 1.893646 0.261973 -0.068254 718065.000000 0 1 0
17.125376 14.866943 -6.560592 23.608173 0.714922 1.852398 0.239721 -0.045646 -214885.000000 0 1 0
17.073676 13.930443 -5.538592 22.720996 0.684362 1.817043 0.200597 -0.047459 482519.000000 0 1 0
16.482076 14.511143 -4.402892 22.396820 0.721891 1.768671 0.176460 -0.034225 -186580.000000 0 1 0
16.434276 13.551343 -3.171192 21.535570 0.689549 1.718587 0.130680 -0.024233 1631410.000000 0 1 0
17.755576 13.163443 -2.638592 22.259804 0.637955 1.689612 0.137195 -0.022755 2169230.000000 0 1 0
17.561276 12.368143 -1.441392 21.527819 0.613596 1.637801 0.126613 -0.024781 92451.100000 0 1 0
17.453976 13.162243 -0.130692 21.860992 0.646127 1.576775 0.141223 -0.027632 -617274.000000 0 1 0
16.232376 13.837343 -0.083892 21.330005 0.705917 1.574729 0.120595 -0.032655 36748.900000 0 1 0
16.202376 14.758243 1.026808 21.940306 0.738788 1.523979 0.111403 -0.025472 -498518.000000 0 1 0
14.832076 15.429343 1.158608 21.433559 0.805133 1.516714 0.109214 -0.024822 -522647.000000 0 1 0
14.646276 16.406843 0.175308 21.993831 0.842033 1.562825 0.123350 -0.024590 479714.000000 0 1 0
13.561876 17.221743 0.616308 21.929267 0.903733 1.542688 0.090114 -0.031040 -98973.900000 0 1 0
13.695376 18.759143 0.305808 23.228480 0.940177 1.557631 0.095176 -0.034796 -129929.000000 0 1 0
13.386976 18.977943 -1.101092 23.250502 0.956458 1.618172 0.105096 -0.032883 180136.000000 0 1 0
12.803776 20.223643 -1.442492 23.979433 1.006387 1.630988 0.098751 -0.040999 1523490.000000 0 1 0
11.218776 20.256543 -1.336792 23.194298 1.065014 1.628463 0.087568 -0.041985 1307070.000000 0 1 0
10.751876 20.406643 0.010408 23.065863 1.085876 1.570345 0.062844 -0.034182 -79266.100000 0 1 0
9.342776 20.242643 -0.033392 22.294689 1.138388 1.572294 0.060709 -0.037233 309572.000000 0 1 0
8.708576 20.395643 1.355008 22.218407 1.167248 1.509773 0.028323 -0.031652 -69156.100000 0 1 0
8.755376 21.679743 1.904108 23.458335 1.186975 1.489537 0.030024 -0.028177 246282.000000 0 1 0
7.822576 21.786243 2.971108 23.337964 1.226073 1.443142 0.033805 -0.023472 177593.000000 0 1 0
7.514276 23.230243 3.351708 24.644319 1.257949 1.434370 0.033782 -0.020906 6524.920000 0 1 0
7.600076 23.481243 4.736108 25.130870 1.257772 1.381205 0.046379 -0.028668 -10157.400000 0 0 1
7.255176 24.786543 5.048608 26.315371 1.286044 1.377749 0.051373 -0.029698 8968.040000 0 0 1
7.821976 25.145343 6.414108 27.103733 1.269214 1.331880 0.064427 -0.036599 135934.000000 0 0 1
7.136276 24.393543 7.396408 26.470327 1.286190 1.287604 0.054573 -0.037382 156470.000000 0 0 1
7.529876 24.872443 8.657608 27.391452 1.276828 1.249212 0.067361 -0.029995 59392.200000 0 0 1
7.108076 23.852543 9.750208 26.730789 1.281175 1.197426 0.068577 -0.031260 526234.000000 0 0 1
5.797376 24.041243 10.276208 26.780429 1.334171 1.176974 0.079264 -0.030885 98029.500000 0 0 1
5.279076 22.905443 10.851008 25.889618 1.344279 1.138314 0.077759 -0.034528 -437736.000000 0 0 1
3.926076 23.201943 11.520308 26.200415 1.403171 1.115532 0.042281 -0.028336 -572972.000000 0 0 1
2.941076 23.380343 10.552308 25.819403 1.445661 1.149771 0.036189 -0.023025 -1116660.000000 0 0 1
1.759876 23.776643 11.177108 26.331610 1.496914 1.132414 0.042669 -0.018404 -446067.000000 0 0 1
0.688176 24.184743 10.155208 26.239353 1.542349 1.173397 0.052197 -0.017889 -695627.000000 0 0 1
1.004276 25.445443 9.531308 27.190531 1.531349 1.212651 0.061922 -0.030227 728444.000000 0 0 1
-0.032124 25.847743 8.611708 27.244603 -1.569553 1.249192 0.054683 -0.017881 804436.000000 0 0 1
-1.383724 26.351743 9.149508 27.929242 -1.518335 1.237038 0.067611 -0.032544 -90662.600000 0 0 1
-2.166524 25.355443 9.788208 27.265387 -1.485557 1.203603 0.059522 -0.024696 -136520.000000 0 0 1
-3.506024 25.818843 9.839508 27.851764 -1.435829 1.209720 0.073897 -0.033726 -43077.600000 0 0 1
-4.523524 24.740143 10.364708 27.202282 -1.389952 1.179893 0.070241 -0.033277 180642.000000 0 0 1
-4.853524 24.650943 11.695908 27.713173 -1.376393 1.135108 0.052180 -0.026481 -191271.000000 0 0 1
-5.554324 25.738143 12.207708 29.022933 -1.358254 1.136665 0.073286 -0.020966 -454867.000000 0 0 1
-6.064924 25.534743 13.669408 29.591538 -1.337601 1.090619 0.053340 -0.022459 -661106.000000 0 0 1
-7.157324 24.716543 13.801108 29.199407 -1.288930 1.078501 0.047150 -0.020361 -699694.000000 0 0 1
-7.609224 24.680843 15.145608 29.940504 -1.271738 1.040421 0.042262 -0.012513 247616.000000 0 0 1
-8.842824 23.772243 15.415708 29.680956 -1.214675 1.024671 0.041025 -0.017236 288603.000000 0 0 1
-10.056924 24.299743 14.951308 30.251626 -1.178391 1.053846 0.041525 -0.018390 308483.000000 0 0 1
-11.199024 23.438143 15.021208 30.006689 -1.125056 1.046510 0.040227 -0.019782 1036080.000000 0 0 1
-12.526624 24.169343 14.676308 30.926808 -1.092627 1.076344 0.045665 -0.023296 166646.000000 0 0 1
-12.876124 25.153443 15.638108 32.296141 -1.097672 1.065337 0.049957 -0.021055 707932.000000 0 0 1
-14.200724 25.618143 15.330108 33.059976 -1.064640 1.088623 0.040550 -0.016564 519557.000000 0 0 1
-14.707324 26.686843 16.320408 34.566584 -1.067103 1.079075 0.038241 -0.013656 239244.000000 0 0 1
-16.032224 26.389043 16.753708 35.129767 -1.024856 1.073661 0.048026 -0.019841 411844.000000 0 0 1
-16.420224 27.203843 17.861108 36.451228 -1.027734 1.058706 0.062041 -0.020606 493824.000000 0 0 1
-17.655324 26.531043 18.572808 36.885714 -0.983630 1.043125 0.065897 -0.030264 869320.000000 0 0 1
-18.834524 26.675743 17.801508 37.191777 -0.956019 1.071690 0.059629 -0.022037 1000690.000000 0 0 1
-20.025124 26.097643 18.415508 37.699118 -0.916305 1.060442 0.073754 -0.018822 1348950.000000 0 0 1
-21.269624 26.156343 17.495608 37.982200 -0.888075 1.092095 0.080141 -0.024963 122877.000000 0 0 1
-21.871524 27.467543 17.447508 39.207717 -0.898335 1.109620 0.055736 -0.024007 28107.700000 0 0 1
-22.794224 27.512243 16.411608 39.317185 -0.878910 1.140197 0.068701 -0.027475 -937335.000000 0 0 1
-23.691924 28.725443 16.302008 40.647433 -0.881132 1.158124 0.058205 -0.024783 -511522.000000 0 0 1
-24.861524 28.676943 17.082808 41.620725 -0.856543 1.147860 0.066776 -0.028766 -213518.000000 0 0 1
-25.578244 29.865443 16.851008 42.780226 -0.862570 1.165929 0.077022 -0.030132 -430683.000000 0 0 1
-26.991354 29.857843 17.436408 43.864021 -0.835778 1.161994 0.082696 -0.025504 -520676.000000 0 0 1
-27.937534 29.087743 16.768608 43.678242 -0.805566 1.176767 0.116673 -0.025301 -635971.000000 0 0 1
-29.258754 29.109443 17.206108 44.715596 -0.782840 1.175816 0.158015 -0.032762 -157079.000000 0 0 1
-29.724524 28.085443 18.293908 44.799627 -0.757053 1.150151 0.135453 -0.035895 -467432.000000 0 0 1
-29.868264 26.783443 17.812808 43.894899 -0.730999 1.152936 0.149196 -0.032070 107528.000000 0 0 1
-30.229924 25.844843 18.792208 43.988082 -0.707356 1.129390 0.136432 -0.033935 -128783.000000 0 0 1
-30.302774 24.477043 18.145008 42.972376 -0.679448 1.134872 0.126652 -0.034288 -43357.800000 0 0 1
-31.511434 24.235843 17.462608 43.419918 -0.655621 1.156900 0.159046 -0.039861 -56502.300000 0 0 1
-31.338234 23.133143 16.601408 42.341870 -0.635891 1.167905 0.150295 -0.033025 -337493.000000 0 0 1
-31.977414 21.774443 17.019108 42.265014 -0.597814 1.156358 0.132098 -0.023484 198794.000000 0 0 1
-33.385874 21.705543 16.879308 43.251107 -0.576475 1.169879 0.147742 -0.021327 71816.800000 0 0 1
-33.718334 20.407343 16.625508 42.776083 -0.544256 1.171616 0.106590 -0.027200 -174947.000000 0 0 1
-35.137534 20.104443 16.120708 43.574215 -0.519701 1.191831 0.100604 -0.031555 -302656.000000 0 0 1
-35.213337 20.275343 14.708208 43.213424 -0.522425 1.223494 0.090172 -0.031488 -137642.000000 0 0 1
-36.407264 19.694043 14.255108 43.778446 -0.495859 1.239130 0.110760 -0.038678 -171006.000000 0 0 1
-36.632064 19.845643 12.721708 43.561446 -0.496492 1.274437 0.123953 -0.039086 14315.600000 0 0 1
-36.995074 21.162043 12.292908 44.357448 -0.519594 1.289987 0.132213 -0.045558 -77857.000000 0 0 1
-37.164054 21.361643 10.899108 44.229824 -0.521679 1.321812 0.101832 -0.037344 -105232.000000 0 0 1
-35.988004 21.085643 9.936708 42.877488 -0.529993 1.336924 0.123610 -0.038991 -158981.000000 0 0 1
-35.883179 19.744943 9.527008 42.050318 -0.503040 1.342250 0.152500 -0.038653 51444.500000 0 0 1
-34.615120 19.576143 8.935208 40.758679 -0.514694 1.349779 0.171916 -0.040390 496001.000000 0 0 1
-33.688144 18.507943 9.677408 39.636943 -0.502375 1.324152 0.113586 -0.040025 321158.000000 0 0 1
-33.189734 19.021043 10.897308 39.775745 -0.520405 1.293279 0.117960 -0.043953 36910.700000 0 0 1
-32.735684 18.012243 11.730408 39.162079 -0.503022 1.266591 0.108049 -0.045273 -227012.000000 0 0 1
-32.547604 18.493643 13.183508 39.688364 -0.516711 1.232187 0.080888 -0.022356 338019.000000 0 0 1
-31.351534 19.258343 13.346708 39.139968 -0.550847 1.222816 0.119199 -0.029317 221751.000000 0 0 1
-31.494514 20.609443 13.050908 39.836915 -0.579450 1.237025 0.146970 -0.032101 644710.000000 0 0 1
-30.135684 21.393443 13.151908 39.227689 -0.617342 1.228903 0.145281 -0.039443 829483.000000 0 0 1
-29.660044 21.589343 14.481308 39.440160 -0.629202 1.194830 0.127273 -0.026235 -812235.000000 0 0 1
-28.441754 22.237343 14.527508 38.916337 -0.663579 1.188232 0.162764 -0.032418 -978751.000000 0 0 1
-27.624154 22.069343 15.806708 38.729857 -0.674079 1.150395 0.138324 -0.034801 -188120.000000 0 0 1
-26.837614 20.880743 15.842108 37.513136 -0.661207 1.134806 0.155477 -0.033045 119621.000000 0 0 1
-26.297524 20.673643 17.146508 37.589387 -0.666235 1.097129 0.129445 -0.026477 762788.000000 0 0 1
-25.170344 19.533143 17.217108 36.214896 -0.659958 1.075361 0.142829 -0.033686 841258.000000 0 0 1
-24.669824 19.600643 18.566208 36.571704 -0.671390 1.038323 0.135983 -0.035252 277200.000000 0 0 1
-23.697324 18.588743 18.786708 35.497112 -0.665171 1.013085 0.120423 -0.036981 50690.900000 0 0 1
-23.059524 18.574343 20.176308 35.830592 -0.678083 0.972661 0.118263 -0.043665 -474361.000000 0 0 1
-23.938024 18.148843 21.170208 36.750336 -0.648703 0.956902 0.118807 -0.028639 -308238.000000 0 0 1
-23.482024 18.133043 22.502908 37.236992 -0.657564 0.921889 0.119792 -0.033747 -582474.000000 0 0 1
-24.354424 17.329143 23.452908 37.993106 -0.618429 0.905498 0.119635 -0.029228 -375541.000000 0 0 1
-24.175524 15.918043 23.338208 37.182147 -0.582283 0.892237 0.109056 -0.031478 252041.000000 0 0 1
-24.861724 15.145743 24.323508 37.935892 -0.547156 0.874769 0.111322 -0.024375 -23059.400000 0 0 1
22.088176 24.340443 33.126682 46.666066 0.833870 0.781488 0.102005 -0.024158 16903.700000 0 0 1
22.921876 23.349843 32.546430 46.150815 0.794647 0.788064 0.127788 -0.038198 68056.900000 0 0 1
22.663976 21.997743 32.923929 45.623915 0.770482 0.764631 0.125289 -0.037727 432931.000000 0 0 1
21.501676 21.234343 32.175307 44.141474 0.779143 0.754063 0.110690 -0.045029 429388.000000 0 0 1
21.834376 20.708343 30.890356 43.125277 0.758936 0.772320 0.134779 -0.045749 152529.000000 0 0 1
20.981676 19.626843 30.593896 41.969396 0.752047 0.753999 0.132886 -0.054897 -34917.100000 0 0 1
21.316076 19.094343 29.199076 40.884656 0.730474 0.775342 0.151140 -0.047019 -799540.000000 0 0 1
22.589576 18.576443 29.191936 41.322419 0.688219 0.786336 0.154699 -0.042449 -1126480.000000 0 0 1
22.862276 17.973443 27.934226 40.324302 0.666246 0.805516 0.142631 -0.045160 322028.000000 0 0 1
24.125376 17.067843 27.992466 40.705321 0.615718 0.812500 0.157298 -0.040042 38526.200000 0 0 1
25.391376 17.646843 27.914176 41.657344 0.607358 0.836466 0.157099 -0.038778 -335393.000000 0 0 1
26.351276 16.724843 28.392126 42.192688 0.565536 0.832653 0.136784 -0.022522 -738412.000000 0 0 1
27.763076 17.204443 28.544106 43.376805 0.554770 0.852570 0.106676 -0.028984 -765562.000000 0 0 1
28.588776 17.446543 27.417036 43.282720 0.547928 0.884805 0.118137 -0.019440 -700470.000000 0 0 1
29.845276 17.855843 27.786066 44.515583 0.539154 0.896705 0.107701 -0.008864 -680885.000000 0 0 1
30.960576 17.778743 26.720186 44.593826 0.521262 0.928307 0.107200 -0.002012 155423.000000 0 0 1
30.913776 18.834343 25.804276 44.455086 0.547196 0.951506 0.118285 -0.008847 248668.000000 0 0 1
31.887176 18.508343 24.824536 44.447816 0.525907 0.978208 0.121719 -0.010525 114634.000000 0 0 1
32.094676 19.800543 23.937326 44.666826 0.552784 1.005213 0.136331 -0.021063 -161075.000000 0 0 1
31.006776 20.029043 23.079126 43.534225 0.573528 1.012034 0.120689 -0.028071 -61570.400000 0 0 1
31.267176 20.930143 21.991116 43.581147 0.589890 1.041876 0.097304 -0.036530 -137997.000000 0 0 1
32.038376 20.359843 20.784316 43.277806 0.566102 1.069853 0.122854 -0.028076 -259355.000000 0 0 1
31.186376 19.506843 20.040216 41.889345 0.558953 1.071955 0.135288 -0.046351 68574.400000 0 0 1
31.684976 19.080643 18.808516 41.494203 0.542034 1.100354 0.147646 -0.046296 -18709.200000 0 0 1
32.941576 18.158143 18.805816 42.053826 0.503781 1.107181 0.156615 -0.066116 194473.000000 0 0 1
32.711076 16.771143 19.102716 41.427038 0.473760 1.091543 0.177070 -0.060605 336304.000000 0 0 1
33.900676 16.132943 19.537316 42.322977 0.444173 1.090971 0.157501 -0.052640 -662967.000000 0 0 1
33.652676 14.571043 19.586916 41.574814 0.408613 1.080231 0.174734 -0.050308 290414.000000 0 0 1
32.810676 14.060543 20.631216 41.229679 0.404862 1.046739 0.147521 -0.059951 366783.000000 0 0 1
31.456076 14.349343 20.372916 40.130338 0.427974 1.038320 0.146217 -0.042553 -802189.000000 0 0 1
30.466876 14.197243 21.526716 39.914806 0.436071 1.001171 0.123646 -0.041176 -116567.000000 0 0 1
30.187676 12.856943 21.831216 39.410643 0.402633 0.983704 0.133308 -0.035992 -285140.000000 0 0 1
29.515976 12.762043 23.043046 39.560644 0.408103 0.949027 0.124746 -0.020744 -286403.000000 0 0 1
29.001876 11.380343 23.366226 38.943569 0.373938 0.927292 0.128538 -0.024107 -405558.000000 0 0 1
28.036876 11.068943 22.406706 37.558599 0.376015 0.931563 0.143215 -0.016535 -504637.000000 0 0 1
27.544576 9.771143 22.638406 36.968586 0.340891 0.911743 0.127735 -0.020910 -400364.000000 0 0 1
26.567576 9.348143 21.560916 35.469663 0.338333 0.917422 0.112728 -0.037549 -664317.000000 0 0 1
25.237876 9.764343 21.810716 34.756296 0.369156 0.892416 0.113339 -0.026508 -293141.000000 0 0 1
24.466776 9.080543 20.879616 33.422115 0.355380 0.896018 0.124871 -0.021059 365572.000000 0 0 1
22.912476 9.212243 21.054016 32.451788 0.382283 0.864818 0.086307 -0.019588 705912.000000 0 0 1
22.389376 8.679143 22.255906 32.740450 0.369811 0.823350 0.064310 -0.016514 -298460.000000 0 0 1
20.999776 8.584343 22.126616 31.690198 0.388055 0.797893 0.101421 -0.016325 -295290.000000 0 0 1
20.190776 8.072443 23.338046 31.898216 0.380341 0.750070 0.089531 -0.017302 -14208.500000 0 0 1
20.381676 6.719343 23.570646 31.876914 0.318455 0.738578 0.074164 -0.015230 532177.000000 0 0 1
19.635276 6.301443 24.727856 32.198123 0.310541 0.695098 0.081717 -0.016802 61965.300000 0 0 1
19.686876 4.785443 24.957076 32.145438 0.238453 0.681895 0.076491 -0.020677 1290560.000000 0 0 1
21.044876 4.324143 25.237786 33.144092 0.202652 0.705239 0.068425 -0.018663 1617400.000000 0 0 1
21.046076 2.898443 25.356476 33.080042 0.136858 0.697393 0.065814 -0.019648 147506.000000 0 0 1
22.454476 2.422743 24.924506 33.634866 0.107480 0.736191 0.066620 -0.025208 799531.000000 0 0 1
23.515376 2.892043 25.778596 35.012467 0.122371 0.743256 0.062722 -0.027905 1571620.000000 0 0 1
24.818276 2.396243 25.376746 35.576229 0.096253 0.776592 0.074408 -0.030578 1479990.000000 0 0 1
25.998276 2.879643 26.273146 37.073992 0.110313 0.783188 0.068003 -0.031529 -390875.000000 0 0 1
26.064876 2.192443 27.473506 37.933865 0.083917 0.760854 0.079236 -0.033391 924684.000000 0 0 1
27.092276 2.626743 28.396896 39.335415 0.096653 0.764228 0.089115 -0.022127 1282140.000000 0 0 1
28.592976 2.812543 28.040626 40.146549 0.098049 0.797558 0.090412 -0.028490 -289576.000000 0 0 1
28.892376 4.044243 27.299296 39.954685 0.139073 0.818583 0.115458 -0.025115 350319.000000 0 0 1
30.274176 4.188043 27.016046 40.791325 0.137465 0.846913 0.122970 -0.023875 404222.000000 0 0 1
30.972876 3.267343 25.969666 40.551426 0.105102 0.875760 0.134513 -0.019229 -278372.000000 0 0 1
30.550476 3.383643 24.626846 39.386066 0.110306 0.895321 0.144281 -0.025931 23985.200000 0 0 1
30.909476 2.213043 23.935516 39.156126 0.071476 0.913114 0.148327 -0.016055 -402753.000000 0 0 1
30.741976 2.432943 22.460416 38.150473 0.078976 0.941307 0.151283 -0.019761 -179285.000000 0 0 1
31.478476 3.474543 21.934116 38.523659 0.109933 0.965060 0.162416 -0.030026 255172.000000 0 0 1
32.849176 3.105243 21.679516 39.480531 0.094250 0.989486 0.148742 -0.030956 540737.000000 0 0 1
33.676076 4.319443 21.242516 40.049721 0.127568 1.011720 0.166116 -0.036479 -432069.000000 0 0 1
33.297476 4.836143 19.962816 39.123193 0.144232 1.035315 0.156094 -0.041828 84067.200000 0 0 1
33.877876 6.094943 19.547716 39.584997 0.178005 1.054323 0.166275 -0.034390 -255073.000000 0 0 1
35.393976 6.169243 19.312016 40.789055 0.172568 1.077581 0.129052 -0.033035 -568684.000000 0 0 1
36.270176 6.039743 20.365416 42.032777 0.165007 1.064990 0.114370 -0.034156 -333169.000000 0 0 1
36.382176 7.198443 21.151216 42.694897 0.195333 1.052497 0.114216 -0.036271 -403724.000000 0 0 1
37.159876 6.971743 22.455666 43.974066 0.185459 1.034848 0.129878 -0.033139 206780.000000 0 0 1
36.419276 6.087943 23.275946 43.648555 0.165631 1.008349 0.137661 -0.024195 332826.000000 0 0 1
37.098076 5.806843 24.501926 44.836715 0.155267 0.992653 0.144996 -0.023096 285229.000000 0 0 1
36.444076 4.642943 25.283556 44.598047 0.126717 0.968033 0.141415 -0.016783 182681.000000 0 0 1
36.485076 3.475143 24.469126 44.067851 0.094962 0.982120 0.141601 -0.023158 -15639.900000 0 0 1
35.598776 2.580343 25.096586 43.632209 0.072357 0.957966 0.143561 -0.025876 -38064.900000 0 0 1
35.484976 1.160043 24.649316 43.221731 0.032679 0.963926 0.114460 -0.021760 -302387.000000 0 0 1
34.426876 0.892143 23.751976 41.834938 0.025908 0.967021 0.134208 -0.018034 -21308.100000 0 0 1
34.439776 -0.486057 23.298766 41.583253 -0.014112 0.976058 0.120565 -0.014859 732644.000000 0 0 1
33.182276 -0.691457 22.358546 40.018072 -0.020835 0.977965 0.138516 -0.010141 1235060.000000 0 0 1
31.942376 -0.757557 23.070596 39.409918 -0.023712 0.945422 0.132714 -0.006111 139476.000000 0 0 1
31.077076 -1.671057 22.416326 38.354514 -0.053720 0.946593 0.143674 -0.013272 -602263.000000 0 0 1
29.646276 -1.708457 22.909336 37.505442 -0.057564 0.913692 0.121813 -0.006349 -855767.000000 0 0 1
29.004376 -0.523557 22.543786 36.738947 -0.018049 0.910158 0.138132 -0.008529 -709634.000000 0 0 1
27.625676 -0.735957 22.744166 35.791294 -0.026634 0.882184 0.120797 -0.008004 -75320.000000 0 0 1
26.868876 0.627943 22.616876 35.126256 0.023366 0.871246 0.106811 -0.007686 -67846.800000 0 0 1
26.809076 1.133943 21.284016 34.249405 0.042272 0.900214 0.124038 -0.018278 75139.500000 0 0 1
26.167576 2.388543 21.315516 33.834869 0.091026 0.889260 0.103346 -0.021559 -36129.300000 0 0 1
26.449776 3.270743 20.035916 33.342560 0.123034 0.926156 0.115023 -0.025764 -114201.000000 0 0 1
25.858576 2.900243 18.806316 32.105371 0.111691 0.944968 0.106803 -0.024673 96360.100000 0 0 1
25.124276 4.013943 18.351416 31.370614 0.158425 0.945932 0.121352 -0.023456 18034.400000 0 0 1
24.593976 3.881643 16.918016 30.102327 0.156538 0.973974 0.134717 -0.027551 869951.000000 0 0 1
25.731876 3.941743 16.024016 30.568544 0.152004 1.019021 0.141245 -0.015896 1180750.000000 0 0 1
25.324276 3.967443 14.634616 29.516632 0.155402 1.052030 0.113933 -0.016908 -359303.000000 0 0 1
25.162876 2.646843 13.959516 28.897131 0.104803 1.066632 0.110578 -0.008042 98491.000000 0 0 1
23.911776 2.039443 14.248016 27.909466 0.085084 1.035020 0.137122 -0.000666 487794.000000 0 0 1
23.775576 0.820443 13.566016 27.385907 0.034494 1.052542 0.129640 0.003852 -1083200.000000 0 0 1
22.384776 0.224043 13.650616 26.219605 0.010008 1.023212 0.203197 -0.024304 23424.500000 0 0 1
21.255376 0.767443 12.917116 24.884370 0.036090 1.025016 0.232456 -0.021053 1394280.000000 0 1 0
21.359476 0.719543 11.504116 24.271169 0.033675 1.076988 0.237114 -0.020196 -1011820.000000 0 1 0
21.269176 -0.697057 10.755116 23.843998 -0.032761 1.102842 0.255482 -0.021731 -234277.000000 0 1 0
22.316476 -1.605957 10.968116 24.917940 -0.071839 1.115009 0.246851 -0.043933 -351351.000000 0 1 0
23.403276 -1.487357 10.106416 25.535567 -0.063468 1.163881 0.263826 -0.039929 -4810.920000 0 0 1
24.634576 -2.342357 10.616616 26.926966 -0.094799 1.165518 0.256048 -0.053734 229501.000000 0 0 1
25.020976 -1.748257 11.803216 27.720417 -0.069758 1.130956 0.217542 -0.050316 -55584.900000 0 0 1
25.819776 -2.661157 12.545116 28.829195 -0.102704 1.120588 0.130816 -0.031447 72534.900000 0 0 1
26.114776 -2.084457 13.901116 29.657503 -0.079650 1.082953 0.129325 -0.030141 35537.400000 0 0 1
26.909776 -0.903557 13.797216 30.254183 -0.033565 1.097252 0.088596 -0.017670 141480.000000 0 0 1
27.153076 -0.420457 15.097216 31.070762 -0.015483 1.063406 0.092281 -0.017276 758472.000000 0 0 1
28.405676 0.551443 15.245716 32.243113 0.019411 1.078289 0.148553 -0.021389 622625.000000 0 0 1
29.654476 -0.079357 15.101916 33.278553 -0.002676 1.099768 0.180671 -0.026893 -1363190.000000 0 0 1
30.551576 0.879043 14.899216 34.002325 0.028764 1.117221 0.176054 -0.032548 -885909.000000 0 0 1
32.033176 0.525743 15.233616 35.474833 0.016411 1.126945 0.191088 -0.036666 297580.000000 0 0 1
32.574876 -0.391757 14.319616 35.585494 -0.012026 1.156659 0.207221 -0.037772 -377525.000000 0 0 1
33.911476 -0.648657 14.645216 36.944435 -0.019126 1.163191 0.164445 -0.037353 -356891.000000 0 0 1
34.507276 -1.778657 13.772016 37.196561 -0.051499 1.191518 0.140468 -0.043736 -86998.000000 0 0 1
34.771576 -1.281357 12.480016 36.965594 -0.036834 1.226418 0.149042 -0.045850 130222.000000 0 0 1
35.393876 -2.204657 11.634716 37.322293 -0.062209 1.253776 0.140407 -0.048762 -202920.000000 0 0 1
35.233876 -1.920157 10.103516 36.704142 -0.054444 1.291927 0.169901 -0.047901 -238204.000000 0 0 1
35.748976 -0.690657 9.647416 37.034294 -0.019317 1.307257 0.134882 -0.041302 407795.000000 0 0 1
34.911676 0.437043 9.883716 36.286415 0.012518 1.294930 0.149246 -0.037894 -415303.000000 0 0 1
35.480376 1.826343 9.511716 36.778599 0.051429 1.309202 0.163043 -0.044035 -365051.000000 0 0 1
35.513676 1.883743 8.129216 36.480869 0.052993 1.346075 0.148318 -0.038276 378586.000000 0 0 1
36.087776 3.106743 7.809616 37.053603 0.085877 1.358438 0.152350 -0.033612 -299390.000000 0 0 1
36.418276 3.177943 6.298516 37.095302 0.087042 1.400177 0.136067 -0.033365 -53200.700000 0 0 1
36.753776 4.469643 5.772116 37.471790 0.121016 1.416142 0.130205 -0.017985 203649.000000 0 0 1
36.746276 4.527343 4.345116 37.278219 0.122588 1.453972 0.134312 -0.003045 -224937.000000 0 0 1
37.157076 5.906243 3.730916 37.808091 0.157635 1.471955 0.160518 -0.023602 473344.000000 0 0 1
36.123676 6.868643 3.912016 36.978400 0.187899 1.464806 0.160044 -0.032227 738980.000000 0 0 1
36.648176 8.085843 3.379616 37.681447 0.217155 1.480987 0.142850 -0.036912 -198101.000000 0 0 1
35.492476 9.116243 3.455116 36.807058 0.251415 1.476787 0.174948 -0.046106 847405.000000 0 0 1
34.492176 9.055243 2.435716 35.744095 0.256737 1.502600 0.197151 -0.047636 1050760.000000 0 0 1
33.647676 7.845943 2.460716 34.637841 0.229086 1.499695 0.210255 -0.036470 -27934.900000 0 0 1
32.492376 7.943443 1.408416 33.478895 0.239768 1.528715 0.249813 -0.038336 425374.000000 0 0 1
32.948376 7.876143 0.044016 33.876703 0.234642 1.569497 0.271293 -0.033502 190367.000000 0 0 1
31.847876 7.709043 -0.823084 32.777950 0.237490 1.595910 0.279716 -0.032169 -124247.000000 0 0 1
32.192676 7.423143 -2.346184 33.120628 0.226624 1.641693 0.246649 -0.020208 -1073250.000000 0 0 1
31.195776 6.742643 -3.003684 32.057164 0.212865 1.664632 0.287674 -0.024656 -190875.000000 0 0 1
31.430276 6.547943 -4.402584 32.405563 0.205394 1.707077 0.236191 -0.018549 -373401.000000 0 0 1
30.344776 5.758743 -5.165784 31.315393 0.187547 1.736514 0.278910 -0.013106 -272259.000000 0 0 1
30.449976 4.356043 -4.923984 31.151593 0.142092 1.729527 0.293989 -0.012574 396424.000000 0 0 1
29.330576 3.691843 -5.423184 30.055337 0.125212 1.752230 0.294744 -0.016790 -492445.000000 0 0 1
29.516676 2.183843 -5.285284 30.065554 0.073852 1.747507 0.326732 -0.009480 -253462.000000 0 0 1
29.268776 1.828643 -3.939884 29.589320 0.062397 1.704345 0.366310 -0.022330 383573.000000 0 0 1
29.306876 0.472743 -3.746784 29.549193 0.016129 1.697937 0.318652 -0.027331 -82733.900000 0 0 1
29.264076 0.135243 -2.237884 29.349830 0.004621 1.647119 0.311963 -0.032975 1441940.000000 0 0 1
30.607776 0.437243 -1.751284 30.660954 0.014284 1.627945 0.290794 -0.028803 1479260.000000 0 0 1
30.632476 0.377943 -0.328084 30.636564 0.012337 1.581505 0.299752 -0.023905 22639.300000 0 0 1
32.043476 0.692043 0.204916 32.051603 0.021594 1.564403 0.326566 -0.025935 656241.000000 0 0 1
33.074276 -0.265457 -0.084084 33.075448 -0.008026 1.573339 0.254076 -0.020811 294795.000000 0 0 1
34.364976 0.203143 0.157916 34.365939 0.005911 1.566201 0.160828 -0.022551 -500423.000000 0 0 1
-3.413424 -21.656957 -8.521792 23.522249 1.414469 1.941516 0.084379 0.004305 -315976.000000 0 1 0
-3.551924 -21.928857 -7.120492 23.327930 1.410216 1.880981 0.084027 -0.006378 -299667.000000 0 1 0
-2.873824 -23.079757 -6.781192 24.226403 1.446917 1.854496 0.085907 -0.010828 -213443.000000 0 1 0
-3.307324 -23.524757 -5.309292 24.342168 1.431123 1.790675 0.095609 -0.018879 -393503.000000 0 1 0
-2.722424 -22.909857 -4.177692 23.446242 1.452519 1.749935 0.090313 -0.019623 -234799.000000 0 1 0
-3.183224 -23.423057 -2.950492 23.821795 1.435723 1.694972 0.092673 -0.028149 -282807.000000 0 1 0
-2.546824 -22.785757 -1.665392 22.988053 1.459486 1.643306 0.074395 -0.036376 281639.000000 0 1 0
-1.149524 -23.014457 -1.571892 23.096698 1.520890 1.638906 0.068748 -0.021807 -109112.000000 0 1 0
-0.738224 -22.620457 -0.240492 22.633777 1.538173 1.581422 0.045662 -0.029566 739033.000000 0 1 0
0.807976 -22.412657 -0.124692 22.427563 -1.534762 1.576356 0.044227 -0.032382 465360.000000 0 1 0
1.325076 -21.261857 -0.688192 21.314220 -1.508555 1.603090 0.033147 -0.030414 1040960.000000 0 1 0
2.580776 -20.859557 -0.042592 21.018642 -1.447700 1.572823 0.030781 -0.030844 1221370.000000 0 1 0
3.276176 -19.774857 -0.856692 20.062707 -1.406614 1.613510 0.034155 -0.030719 112094.000000 0 1 0
3.941976 -20.221157 -2.037592 20.702322 -1.378268 1.669379 0.020826 -0.019119 -223287.000000 0 1 0
4.872676 -19.236657 -2.419192 19.991109 -1.322713 1.692107 0.030450 -0.016383 -395557.000000 0 1 0
5.776176 -19.737957 -3.594292 20.877502 -1.286103 1.743819 0.026051 -0.011109 -551107.000000 0 1 0
6.856476 -20.505557 -3.112592 21.844389 -1.248112 1.713772 0.045127 -0.024707 171477.000000 0 1 0
7.673876 -21.244257 -4.058192 22.949417 -1.224160 1.748563 0.032583 -0.014519 1635530.000000 0 1 0
8.881576 -20.444157 -4.724892 22.785314 -1.160965 1.779678 0.059926 -0.016870 489916.000000 0 1 0
8.469276 -19.410257 -5.595192 21.904175 -1.159368 1.829099 0.031202 -0.013118 -484399.000000 0 1 0
9.596076 -18.704157 -5.995392 21.860349 -1.096767 1.848615 0.052997 -0.023530 -582820.000000 0 1 0
9.305276 -17.643657 -7.108092 21.175735 -1.085469 1.913114 0.027623 -0.011358 1524960.000000 0 1 0
10.512676 -16.795457 -7.332892 21.127589 -1.011533 1.925248 0.038590 -0.028244 1840220.000000 0 1 0
10.681976 -16.255957 -8.665692 21.294482 -0.989438 1.989904 0.045039 -0.002659 -74691.100000 0 1 0
10.932376 -17.236657 -9.881792 22.677500 -1.005572 2.021671 0.039482 0.019844 396644.000000 0 1 0
9.765676 -17.646957 -10.626392 22.797011 -1.065353 2.055709 0.029237 0.004668 679253.000000 0 1 0
9.267776 -16.687457 -11.519292 22.294775 -1.063837 2.113766 0.021628 -0.009014 -107210.000000 0 1 0
8.683376 -17.335157 -12.815392 23.240976 -1.106420 2.154854 0.025095 -0.015997 -167321.000000 0 1 0
7.467176 -18.016157 -12.629892 23.234776 -1.177877 2.145489 0.018438 -0.007219 114366.000000 0 1 0
7.162476 -18.614257 -13.868592 24.292580 -1.203475 2.178396 0.028544 -0.003843 25480.100000 0 1 0
6.058576 -19.692057 -13.764892 24.778129 -1.272321 2.159792 0.032637 0.009752 -122348.000000 0 1 0
6.482876 -20.880457 -13.151392 25.514315 -1.269757 2.112331 0.034781 -0.002048 340946.000000 0 0 1
5.383276 -21.623857 -12.618292 25.608439 -1.326805 2.086032 0.076043 -0.012211 402962.000000 0 0 1
5.623776 -23.157357 -12.392992 26.860311 -1.332558 2.050354 0.036757 -0.009100 -351054.000000 0 0 1
5.929076 -23.943257 -13.610492 28.172309 -1.328049 2.075006 0.054017 -0.016283 208790.000000 0 0 1
5.184176 -25.136077 -13.876392 29.176228 -1.367404 2.066449 0.037168 -0.009062 159685.000000 0 0 1
3.666276 -25.072267 -14.126992 29.010895 -1.425597 2.079396 0.071260 -0.022719 -737395.000000 0 0 1
2.971176 -24.683557 -12.977192 28.044846 -1.451002 2.051869 0.092691 -0.029648 -376659.000000 0 0 1
1.563576 -24.751057 -13.110092 28.052346 -1.507708 2.057080 0.098794 -0.042391 -19549.700000 0 0 1
0.938476 -26.101417 -12.797392 29.085012 -1.534857 2.026394 0.098825 -0.032607 -956794.000000 0 0 1
1.340176 -27.112897 -13.704392 30.409137 -1.521407 2.038309 0.090988 -0.026290 37575.300000 0 0 1
0.864176 -28.421457 -13.381692 31.426035 -1.540400 2.010659 0.073802 -0.027763 597318.000000 0 0 1
-0.620324 -28.717847 -13.730192 31.837363 1.549199 2.016686 0.065123 -0.024442 1210000.000000 0 0 1
-1.711024 -28.017867 -13.090992 30.972610 1.509803 2.007179 0.078651 -0.030700 716109.000000 0 0 1
-2.950824 -28.358437 -13.647692 31.609616 1.467115 2.017237 0.091124 -0.017115 222221.000000 0 0 1
-4.247724 -27.602387 -13.196292 30.888138 1.418104 2.012222 0.075624 -0.030226 702791.000000 0 0 1
-4.641524 -27.740457 -11.804092 30.502677 1.405012 1.968156 0.076166 -0.032796 161989.000000 0 0 1
-5.081924 -29.018057 -11.399392 31.588285 1.397425 1.940001 0.075336 -0.038890 -798966.000000 0 0 1
-5.584224 -29.113237 -9.986592 31.280923 1.381288 1.895740 0.073493 -0.039240 354476.000000 0 0 1
-6.937724 -28.715597 -9.755992 31.111042 1.333738 1.889764 0.083754 -0.038658 99218.900000 0 0 1
-7.130924 -27.337837 -9.520492 29.813540 1.315637 1.895823 0.093131 -0.035377 -897184.000000 0 0 1
-8.515524 -27.136967 -8.875992 29.794502 1.266729 1.873296 0.095256 -0.034882 579516.000000 0 0 1
-9.623424 -27.285387 -9.782392 30.541739 1.231722 1.896838 0.114431 -0.039809 112784.000000 0 0 1
-9.891724 -28.579387 -10.316692 31.954056 1.237588 1.899546 0.118883 -0.045846 -1893340.000000 0 0 1
-11.375224 -28.625317 -10.607792 32.578056 1.192548 1.902455 0.125302 -0.045063 -921686.000000 0 0 1
-11.664924 -27.720147 -11.701192 32.270651 1.172480 1.941848 0.138990 -0.053280 4050.970000 0 0 1
-11.958524 -28.449487 -12.896292 33.446883 1.172877 1.966628 0.159616 -0.056407 -341414.000000 0 0 1
-12.422124 -27.549537 -14.095292 33.346116 1.147193 2.007215 0.162497 -0.050943 1145560.000000 0 0 1
-13.697724 -26.851837 -14.093592 33.275789 1.099084 2.008145 0.161756 -0.058756 974515.000000 0 0 1
-13.913224 -25.914357 -13.036792 32.172809 1.078072 1.988006 0.163236 -0.056157 -483573.000000 0 0 1
-14.648624 -24.617157 -13.448592 31.645714 1.034019 2.009729 0.169959 -0.051470 -190599.000000 0 0 1
-14.051224 -23.931457 -14.501492 31.312055 1.039883 2.052318 0.180129 -0.049221 -57541.000000 0 0 1
-14.841524 -22.805257 -14.757592 30.953790 0.993863 2.067764 0.185191 -0.049471 -213549.000000 0 0 1
-14.565724 -22.205957 -16.191792 31.103681 0.990258 2.118320 0.179175 -0.038109 -199652.000000 0 0 1
-13.284424 -21.659257 -16.363892 30.222116 1.020628 2.142962 0.167333 -0.035516 -23206.600000 0 0 1
-13.200024 -20.986857 -17.559792 30.381493 1.009350 2.187043 0.127215 -0.030057 -65693.900000 0 0 1
-13.357524 -19.428457 -17.563792 29.400258 0.968493 2.211055 0.121000 -0.015727 306978.000000 0 0 1
-12.171024 -18.758057 -17.148892 28.179479 0.995235 2.225040 0.113567 -0.009866 458669.000000 0 0 1
-12.383324 -17.352457 -17.166392 27.370413 0.950978 2.248734 0.115496 -0.006534 65662.600000 0 0 1
-11.150424 -16.439857 -17.368392 26.386775 0.974813 2.289253 0.112886 -0.017833 -66760.500000 0 0 1
-10.416724 -16.162357 -16.226292 25.159938 0.998294 2.271722 0.129436 -0.019623 -356040.000000 0 0 1
-9.273124 -15.405557 -16.470592 24.384471 1.028956 2.312377 0.098600 -0.018662 -1237550.000000 0 1 0
-8.646724 -14.754857 -15.222492 22.895325 1.040715 2.298121 0.086824 -0.023783 2996.480000 0 1 0
-7.982524 -15.649457 -14.314592 22.661283 1.099115 2.254510 0.076660 -0.015461 859451.000000 0 1 0
-6.854324 -16.370057 -14.848092 23.139282 1.174264 2.267487 0.068215 -0.009924 -291704.000000 0 1 0
-6.387424 -17.210357 -13.621792 22.859326 1.215415 2.209178 0.057336 -0.014601 -663285.000000 0 1 0
-5.736824 -16.516857 -12.582292 21.541397 1.236501 2.194565 0.051062 -0.018184 429355.000000 0 1 0
-5.296124 -17.314257 -11.484992 21.441489 1.273952 2.136066 0.043417 -0.021672 -151444.000000 0 1 0
-4.267224 -18.458757 -11.722092 22.278742 1.343611 2.124870 0.058691 -0.020339 -439109.000000 0 1 0
-2.971824 -17.897657 -11.665692 21.569567 1.406252 2.142232 0.057176 -0.017526 -140819.000000 0 1 0
-2.000224 -18.939357 -11.499992 22.247471 1.465574 2.114036 0.057914 -0.011868 228354.000000 0 1 0
-0.565324 -18.587057 -11.891492 22.072740 1.540391 2.139738 0.046323 -0.003083 -560352.000000 0 1 0
-0.334524 -18.516257 -13.307892 22.804904 1.552732 2.193895 0.054747 0.003904 -31547.900000 0 1 0
0.874776 -17.883957 -13.664392 22.523693 -1.521921 2.222658 0.062110 -0.004850 760099.000000 0 1 0
2.175776 -18.753157 -13.762792 23.362991 -1.455291 2.200723 0.067500 -0.015794 182409.000000 0 1 0
2.179176 -19.578457 -14.881792 24.688712 -1.459948 2.217773 0.086790 -0.009909 106839.000000 0 1 0
1.700476 -20.886357 -14.552692 25.512984 -1.489560 2.177793 0.091075 -0.012919 -1128250.000000 0 0 1
1.763976 -21.899657 -15.714892 27.012301 -1.490422 2.191697 0.107437 -0.015714 882228.000000 0 0 1
3.043876 -22.389057 -16.138592 27.766692 -1.435671 2.191025 0.088063 -0.017851 416219.000000 0 0 1
4.073776 -21.442957 -16.320592 27.253583 -1.383052 2.212851 0.084595 -0.023698 -1365770.000000 0 0 1
5.429176 -22.118557 -16.496092 28.121656 -1.330097 2.197647 0.098070 -0.018630 -462492.000000 0 0 1
5.557876 -22.810757 -17.735292 29.423820 -1.331802 2.217743 0.095748 -0.023516 -448564.000000 0 0 1
6.859776 -23.276957 -17.938592 30.177249 -1.284207 2.207367 0.093056 -0.032289 -204699.000000 0 0 1
7.145276 -23.265457 -19.468192 31.166440 -1.272821 2.245483 0.097926 -0.022482 -34649.400000 0 0 1
7.181276 -21.964357 -19.937492 30.520604 -1.254801 2.282661 0.107939 -0.035211 -7298.250000 0 0 1
7.736276 -21.924157 -21.228292 31.482678 -1.231571 2.310792 0.090096 -0.029100 -198313.000000 0 0 1
7.925376 -20.488757 -21.852892 30.986281 -1.201707 2.353564 0.074939 -0.032862 134296.000000 0 0 1
6.749676 -19.773257 -22.175492 30.467889 -1.241845 2.385951 0.100398 -0.036572 20363.400000 0 0 1
7.041476 -18.442757 -22.589092 29.999746 -1.206076 2.423369 0.109329 -0.030917 -468594.000000 0 0 1
5.775176 -17.688357 -22.885292 29.495207 -1.255212 2.458935 0.112247 -0.028120 -1521050.000000 0 0 1
4.960476 -18.079657 -23.989392 30.446202 -1.303018 2.478232 0.105982 -0.030455 78752.900000 0 0 1
3.966276 -17.133357 -24.283292 29.982687 -1.343309 2.514796 0.118558 -0.033483 -30562.600000 0 0 1
2.753276 -17.059357 -23.349092 29.047931 -1.410782 2.504473 0.130914 -0.027752 -528292.000000 0 0 1
3.081976 -16.375157 -22.133892 27.704756 -1.384762 2.496294 0.129803 -0.029201 -371981.000000 0 0 1
1.840676 -15.966357 -21.630592 26.948008 -1.456018 2.502569 0.111442 -0.030346 333961.000000 0 0 1
2.076176 -15.288157 -20.264692 25.469511 -1.435819 2.490868 0.106757 -0.031149 237114.000000 0 0 1
2.741176 -14.049857 -20.457692 24.968574 -1.378113 2.531051 0.105064 -0.028946 -164677.000000 0 1 0
2.888376 -13.372057 -19.236192 23.604781 -1.358064 2.523401 0.095921 -0.027781 -129996.000000 0 1 0
3.865176 -12.182457 -19.253892 23.109829 -1.263568 2.555571 0.094778 -0.034845 -63315.300000 0 1 0
5.201776 -12.609557 -19.479492 23.780454 -1.179538 2.530704 0.090836 -0.033898 440126.000000 0 1 0
6.292476 -11.692857 -19.435092 23.538075 -1.077099 2.542216 0.086171 -0.033528 444343.000000 0 1 0
6.394876 -10.562957 -18.363092 22.128571 -1.026411 2.549611 0.084505 -0.031449 -1135270.000000 0 1 0
5.346576 -9.632257 -18.236492 21.305771 -1.064069 2.598165 0.055950 -0.020135 -88418.700000 0 1 0
5.453576 -8.587757 -19.188292 21.718232 -1.005009 2.654101 0.072560 -0.022822 -244405.000000 0 1 0
4.780476 -8.880457 -20.561692 22.901935 -1.076969 2.685578 0.094970 -0.034153 639045.000000 0 1 0
3.351276 -8.981257 -20.475792 22.608673 -1.213656 2.703732 0.089533 -0.034786 727080.000000 0 1 0
2.754376 -9.506457 -21.701992 23.852374 -1.288781 2.713710 0.096164 -0.028292 372167.000000 0 1 0
1.213276 -9.453957 -21.636192 23.642634 -1.443159 2.726638 0.081336 -0.029033 -41046.700000 0 1 0
0.820876 -8.093257 -21.762392 23.233087 -1.469715 2.783875 0.081760 -0.020816 -301629.000000 0 1 0
-0.574624 -7.894157 -21.734992 23.131316 1.498133 2.792358 0.080096 -0.024453 -55964.700000 0 1 0
-0.986524 -6.779757 -22.760292 23.769081 1.426300 2.849206 0.086269 -0.019620 3599.000000 0 1 0
-0.943724 -7.169457 -24.083192 25.145415 1.439918 2.849894 0.096074 -0.020999 -310142.000000 0 0 1
-1.512924 -6.298157 -25.059492 25.883081 1.335046 2.888651 0.124483 -0.032466 -51231.100000 0 0 1
-0.883724 -4.898157 -25.442452 25.924723 1.392297 2.948405 0.118604 -0.027675 -283019.000000 0 0 1
-1.517724 -4.251557 -26.487902 26.869838 1.227916 2.972785 0.119205 -0.027813 -609331.000000 0 0 1
-1.134724 -2.957557 -26.845542 27.031794 1.204447 3.024136 0.102032 -0.024687 -511300.000000 0 0 1
-1.730724 -1.736357 -26.069892 26.184912 0.787023 3.047829 0.094827 -0.026673 197183.000000 0 0 1
-3.138624 -1.645757 -26.007342 26.247692 0.482942 3.006160 0.076879 -0.029247 -255492.000000 0 0 1
-3.763424 -1.026157 -27.083362 27.362837 0.266195 2.998546 0.099235 -0.022592 -932868.000000 0 0 1
-5.271424 -1.158157 -26.894042 27.430252 0.216269 2.943541 0.067685 -0.032412 -702132.000000 0 0 1
-5.753424 -0.067157 -26.165232 26.790405 0.011672 2.925135 0.073672 -0.028248 56075.700000 0 0 1
-7.123324 -0.274857 -25.862912 26.827365 0.038566 2.872640 0.101136 -0.046313 -80809.300000 0 0 1
-7.795224 0.951743 -25.214482 26.409117 -0.121492 2.839662 0.096288 -0.044817 -1381590.000000 0 0 1
-7.980024 2.198643 -25.915052 27.204866 -0.268848 2.832431 0.109176 -0.047292 324565.000000 0 0 1
-8.934024 2.227943 -26.970522 28.498940 -0.244393 2.812603 0.133742 -0.054991 843855.000000 0 0 1
-10.373224 1.679543 -26.607512 28.607418 -0.160518 2.765458 0.136928 -0.054142 -361078.000000 0 0 1
-11.381324 2.172643 -27.487902 29.830181 -0.188626 2.742669 0.144550 -0.064962 688286.000000 0 0 1
-12.583724 1.425643 -27.197022 30.001010 -0.112812 2.705803 0.111274 -0.041367 526506.000000 0 0 1
-13.807124 2.147743 -27.808782 31.121983 -0.154317 2.675968 0.088363 -0.033836 -769094.000000 0 0 1
-15.032424 1.515143 -27.596132 31.461341 -0.100452 2.640679 0.065396 -0.027331 -101745.000000 0 0 1
-16.145924 2.034743 -28.287212 32.634298 -0.125361 2.619533 0.062972 -0.027536 186396.000000 0 0 1
-16.852124 3.283143 -27.695362 32.585368 -0.192411 2.586653 0.065231 -0.012590 -579678.000000 0 0 1
-16.197224 4.539743 -27.819912 32.510104 -0.273267 2.597759 0.092812 -0.017719 -51627.800000 0 0 1
-16.095724 5.099743 -29.149042 33.685997 -0.306832 2.616577 0.072290 -0.021442 -393523.000000 0 0 1
-17.418924 5.482543 -29.818282 34.965800 -0.304930 2.592090 0.057488 -0.013825 -149566.000000 0 0 1
-18.036024 6.630243 -29.212182 34.965839 -0.352277 2.559746 0.066008 -0.002888 145716.000000 0 0 1
-18.959624 7.295143 -30.045802 36.268950 -0.367311 2.547071 0.048319 0.000296 -205892.000000 0 0 1
-19.886924 8.274643 -29.262932 36.335639 -0.394295 2.507063 0.047262 -0.009027 16655.500000 0 0 1
-19.202624 9.300543 -28.574072 35.661162 -0.451039 2.500204 0.047104 -0.009095 625033.000000 0 0 1
-20.164424 10.046943 -27.827702 35.803995 -0.462247 2.461037 0.065068 -0.006311 305897.000000 0 0 1
-8.919124 24.832743 30.538486 40.358581 -1.225978 0.712578 0.054260 -0.011039 -623426.000000 0 0 1
-9.793824 25.932743 30.430096 41.163296 -1.209693 0.738836 0.057420 -0.009177 95602.300000 0 0 1
-9.563524 26.927243 31.420019 42.470637 -1.229531 0.738015 0.068067 -0.017055 132638.000000 0 0 1
-8.253524 27.755043 31.289445 42.632059 -1.281754 0.746689 0.070113 -0.023240 62742.500000 0 0 1
-8.211224 28.645943 30.162556 42.400402 -1.291636 0.779345 0.076532 -0.008314 269276.000000 0 0 1
-6.866024 28.741443 29.735346 41.921399 -1.336302 0.782275 0.083554 -0.005105 -852.199000 0 0 1
-6.628024 29.782343 28.666476 41.865087 -1.351816 0.816557 0.099808 -0.012136 -282411.000000 0 0 1
-6.797824 31.066843 29.246636 43.205612 -1.355379 0.827230 0.098172 -0.017727 389412.000000 0 0 1
-6.755324 32.192943 28.401606 43.458845 -1.363959 0.858559 0.092573 -0.014494 -44535.500000 0 0 1
-7.134324 33.510343 29.216006 45.026844 -1.361029 0.864714 0.109062 -0.016654 -458966.000000 0 0 1
-6.146524 33.781143 30.178336 45.712989 -1.390814 0.849751 0.128368 -0.030168 41613.000000 0 0 1
-6.604624 -33.041162 31.273923 45.971706 1.373506 0.822643 0.122928 -0.036501 983022.000000 0 0 1
-7.799024 -33.471462 32.256406 47.134269 1.341876 0.817082 0.074855 -0.025885 994178.000000 0 0 1
-7.540824 33.133243 33.214742 47.517312 -1.347017 0.796794 0.076986 -0.023312 -100280.000000 0 0 1
-7.450624 31.848543 32.637789 46.206783 -1.340990 0.786479 0.091186 -0.017217 -242583.000000 0 0 1
-7.282924 30.783143 -33.628632 46.168472 -1.338480 2.386765 0.083871 -0.026426 -348821.000000 0 0 1
-5.978724 30.861743 -33.121312 45.664140 -1.379441 2.382302 0.103556 -0.029968 -358118.000000 0 0 1
-5.855424 30.023543 -31.976892 44.251788 -1.378186 2.378370 0.090594 -0.029592 -160520.000000 0 0 1
-4.424324 30.077743 -31.364652 43.680507 -1.424747 2.371788 0.086203 -0.030424 757027.000000 0 0 1
-3.589724 28.951843 -31.569662 42.985334 -1.447436 2.395621 0.095851 -0.019237 293999.000000 0 0 1
-3.157024 28.707743 -32.910842 43.786126 -1.461265 2.421322 0.097555 -0.024322 -639645.000000 0 0 1
-2.349024 27.418243 -33.060442 43.014774 -1.485331 2.447420 0.108482 -0.033428 40932.900000 0 0 1
-1.106324 27.319643 -32.328852 42.340779 -1.530323 2.439573 0.130847 -0.026297 1125410.000000 0 0 1
-0.450124 26.053243 -32.452472 41.618950 -1.553521 2.465066 0.145475 -0.028543 341124.000000 0 0 1
0.095476 25.630943 33.529506 42.204054 1.567071 0.652676 0.137364 -0.025233 -1089820.000000 0 0 1
-0.950924 25.475343 32.636768 41.413235 -1.533486 0.663119 0.126761 -0.024856 -496077.000000 0 0 1
-0.581524 25.315743 31.269260 40.236696 -1.547830 0.680699 0.131593 -0.021162 -11980.500000 0 0 1
-0.373124 26.636643 30.440846 40.451145 -1.556789 0.718895 0.113804 -0.023844 -458785.000000 0 0 1
-1.555624 27.341543 30.292916 40.836757 -1.513962 0.735038 0.109304 -0.030117 -481041.000000 0 0 1
-1.230724 28.704443 30.047216 41.572767 -1.527947 0.763006 0.114053 -0.023765 953151.000000 0 0 1
-2.480224 29.683943 29.960066 42.248001 -1.487436 0.782508 0.123818 -0.030051 722401.000000 0 0 1
-2.768524 30.212643 31.211066 43.526994 -1.479417 0.771234 0.124701 -0.030287 339254.000000 0 0 1
-3.805824 31.201543 31.168036 44.265868 -1.449420 0.789627 0.128415 -0.028399 352870.000000 0 0 1
-3.510324 32.269943 32.236053 45.747511 -1.462442 0.788864 0.111701 -0.019514 1057490.000000 0 0 1
-2.174924 32.794743 32.083400 45.930056 -1.504574 0.797459 0.213518 -0.042344 1253250.000000 0 0 1
-1.412924 32.951443 33.325126 46.886651 -1.527944 0.780219 0.142648 -0.036960 1935600.000000 0 0 1
0.129276 33.247543 33.026915 46.863557 1.566908 0.788731 0.152612 -0.057044 1541720.000000 0 0 1
0.274876 -33.123762 32.501616 46.407050 -1.562498 0.794895 0.172975 -0.066409 321867.000000 0 0 1
1.598676 -32.963562 32.013282 45.978282 -1.522336 0.800609 0.164192 -0.068939 205220.000000 0 0 1
1.847376 -31.553362 31.522805 44.639834 -1.512315 0.786738 0.167658 -0.067839 -75577.900000 0 0 1
1.815276 -30.595062 32.557651 44.714133 -1.511533 0.755208 0.148160 -0.049384 99131.800000 0 0 1
2.230176 -29.316562 32.199886 43.603523 -1.494870 0.739998 0.157233 -0.059415 -175385.000000 0 0 1
2.022876 -28.333962 33.393236 43.840777 -1.499523 0.704873 0.158981 -0.052252 -227365.000000 0 0 1
0.665776 -28.051562 33.601776 43.776852 -1.547067 0.695756 0.142558 -0.053804 -236762.000000 0 0 1
0.379876 -27.304462 -32.635122 42.552663 -1.556885 2.444847 0.119289 -0.041594 -175024.000000 0 0 1
-1.128624 -27.041462 -32.505182 42.297770 1.529084 2.447266 0.150080 -0.042323 -194351.000000 0 0 1
-1.611024 -26.624562 -31.254922 41.089328 1.510361 2.435122 0.149109 -0.043270 -349784.000000 0 0 1
-2.945924 -26.225162 -31.394622 41.012924 1.458933 2.442585 0.177380 -0.053212 -421509.000000 0 0 1
-3.480424 -25.610062 -30.106502 39.678585 1.435723 2.432203 0.180896 -0.056912 -196597.000000 0 0 1
-3.756424 -26.544762 -29.061232 39.538467 1.430217 2.396480 0.172368 -0.054048 -101417.000000 0 0 1
-4.140424 -25.920862 -27.869442 38.284984 1.412401 2.386119 0.193431 -0.050900 -106701.000000 0 0 1
-3.032224 -25.471162 -26.866672 37.145559 1.452309 2.379338 0.173008 -0.051925 -62650.200000 0 0 1
-2.172024 -24.541762 -27.460442 36.892976 1.482523 2.410323 0.177801 -0.048403 284796.000000 0 0 1
-1.072824 -24.241762 -26.582812 35.992498 1.526570 2.401736 0.145377 -0.040148 -108377.000000 0 0 1
-0.186124 -23.136062 -27.195872 35.706127 1.562752 2.436665 0.093857 -0.030981 182201.000000 0 0 1
0.559976 -23.347462 -28.370322 36.746330 -1.546816 2.452870 0.062447 -0.034978 101547.000000 0 0 1
1.607976 -24.291262 -28.293142 37.324964 -1.504697 2.431071 0.044193 -0.020148 -385130.000000 0 0 1
2.351976 -24.505962 -29.630032 38.522886 -1.475114 2.448313 0.054067 -0.027397 139394.000000 0 0 1
3.448776 -23.643062 -29.776512 38.177600 -1.425949 2.465378 0.070727 -0.033091 -382197.000000 0 0 1
4.252376 -23.851962 -30.877212 39.247943 -1.394368 2.476277 0.085260 -0.034265 -391785.000000 0 0 1
5.420976 -22.795862 -30.978002 38.841665 -1.337328 2.494012 0.097549 -0.044041 220405.000000 0 0 1
6.476976 -22.926662 -30.021402 38.325809 -1.295463 2.470786 0.077095 -0.039860 479376.000000 0 0 1
7.372176 -23.979062 -30.226512 39.280866 -1.272526 2.448850 0.083789 -0.034906 -238473.000000 0 0 1
8.267576 -24.103962 -31.509292 40.523935 -1.240374 2.461553 0.093380 -0.030010 -607121.000000 0 0 1
7.595676 -24.724462 -32.536802 41.564851 -1.272735 2.469943 0.075484 -0.034463 -280402.000000 0 0 1
7.831476 -24.255862 33.523416 42.112923 -1.258493 0.650078 0.096478 -0.030947 -35198.400000 0 0 1
7.201076 -22.879262 33.114381 40.888610 -1.265870 0.626869 0.094248 -0.025110 213846.000000 0 0 1
5.782576 -22.836362 33.185563 40.696674 -1.322791 0.617313 0.101844 -0.031316 489732.000000 0 0 1
5.293276 -21.603162 32.603065 39.467395 -1.330507 0.598688 0.124923 -0.037591 -73072.300000 0 0 1
3.830076 -21.309762 33.005063 39.472898 -1.392962 0.580579 0.110595 -0.041938 51026.100000 0 0 1
2.953176 -22.175862 32.307732 39.297324 -1.438405 0.605644 0.109583 -0.041764 256225.000000 0 0 1
2.262976 -23.159362 33.121807 40.478775 -1.473392 0.612434 0.098149 -0.034588 326611.000000 0 0 1
0.854876 -23.477162 32.564397 40.154053 -1.534399 0.624960 0.117386 -0.045730 -7486.750000 0 0 1
0.813476 -24.571162 31.673478 40.095050 -1.537701 0.660053 0.135566 -0.040729 -286213.000000 0 0 1
-0.502324 -24.844162 31.291548 39.958050 1.550580 0.671145 0.166616 -0.052802 -478792.000000 0 0 1
-0.660324 -26.167462 30.433306 40.141727 1.545567 0.710330 0.172383 -0.050881 1101650.000000 0 0 1
-2.010824 -26.273262 29.916426 39.866280 1.494410 0.722100 0.186274 -0.049618 1161600.000000 0 0 1
-2.278724 -27.623062 29.538926 40.506473 1.488489 0.753586 0.199581 -0.052671 -316568.000000 0 0 1
-3.461124 -27.787262 28.578876 40.010792 1.446877 0.775203 0.209922 -0.048134 -1004930.000000 0 0 1
-4.614824 -28.063162 29.277586 40.816844 1.407811 0.770889 0.199599 -0.044907 172562.000000 0 0 1
-5.720624 -28.348562 28.347196 40.496050 1.371675 0.795400 0.173177 -0.036283 1422760.000000 0 0 1
-7.104224 -28.386062 29.077216 41.251946 1.325562 0.788558 0.122359 -0.023553 -52013.700000 0 0 1
-8.116124 -28.964262 28.248966 41.265047 1.297591 0.816778 0.123494 -0.021442 938981.000000 0 0 1
-9.349624 -29.171762 28.966766 42.160180 1.260638 0.813355 0.106171 -0.022000 604596.000000 0 0 1
-9.276824 -30.345762 29.992226 43.663010 1.274115 0.813578 0.062414 -0.011426 -788694.000000 0 0 1
-9.361024 -31.681662 29.570116 44.336760 1.283499 0.840697 0.074409 -0.010978 669055.000000 0 0 1
-10.643624 -32.050662 29.040566 44.540837 1.250167 0.860579 0.069918 -0.014198 434997.000000 0 0 1
-10.778424 -33.585062 28.698056 45.472072 1.260251 0.887808 0.081331 -0.007903 -312324.000000 0 0 1
-10.928324 33.170843 29.841886 45.937689 -1.252540 0.863716 0.079133 -0.008529 397259.000000 0 0 1
-10.614324 31.889943 29.345326 44.618164 -1.249488 0.853036 0.080684 -0.010924 -199422.000000 0 0 1
-10.955524 30.812343 30.379586 44.635673 -1.229180 0.822198 0.076470 0.000165 1076060.000000 0 0 1
-12.388724 30.650043 30.490266 44.972903 -1.186675 0.825799 0.072866 0.004678 1072090.000000 0 0 1
-12.732424 29.368243 30.957546 44.530641 -1.161711 0.802103 0.075293 0.000479 -23056.900000 0 0 1
-13.027424 29.176843 32.433146 45.529232 -1.150858 0.777943 0.080017 -0.007263 -324383.000000 0 0 1
-14.091924 29.945543 32.941632 46.695493 -1.130956 0.787729 0.088530 -0.001601 142381.000000 0 0 1
-14.349524 29.559343 -33.090332 46.632968 -1.118858 2.359714 0.090619 -0.010111 -98612.300000 0 0 1
-15.678024 30.001843 -32.447002 46.890500 -1.089257 2.335016 0.081098 -0.009709 -165922.000000 0 0 1
-15.723724 29.631943 -31.099782 45.743677 -1.082943 2.318383 0.066362 -0.009495 -290729.000000 0 0 1
-16.958724 29.885543 -30.479912 45.932223 -1.054650 2.296396 0.070087 -0.005062 -217671.000000 0 0 1
-17.158924 29.285443 -29.085022 44.699042 -1.040794 2.279283 0.083769 -0.011968 -351729.000000 0 0 1
-17.118724 27.891443 -29.132122 43.813969 -1.020319 2.298163 0.070537 -0.016488 205044.000000 0 0 1
-16.985024 27.412243 -27.813922 42.585636 -1.016079 2.282506 0.062030 -0.012135 -209312.000000 0 0 1
-17.666924 26.038743 -27.623082 41.870885 -0.974656 2.291243 0.048828 -0.022742 302677.000000 0 0 1
-19.082924 26.067143 -27.638872 42.515423 -0.938871 2.278500 0.042796 -0.021387 -49708.500000 0 0 1
-19.653424 24.814043 -27.424572 41.881989 -0.900935 2.284722 0.030596 -0.017611 -792603.000000 0 0 1
-21.081124 24.652843 -27.912042 42.793207 -0.863338 2.281351 0.050121 -0.021427 -1073030.000000 0 0 1
-21.970224 25.187943 -26.985942 42.957704 -0.853525 2.250031 0.066517 -0.026898 -128096.000000 0 0 1
-23.271224 24.692243 -27.264532 43.527135 -0.815017 2.247697 0.107036 -0.029591 552069.000000 0 0 1
-24.362824 24.757243 -26.153882 43.479810 -0.793428 2.216196 0.117502 -0.028263 396380.000000 0 0 1
-24.878324 26.076943 -25.961022 44.417481 -0.808917 2.195032 0.098896 -0.026601 16090.500000 0 0 1
-26.028684 26.239643 -25.158262 44.709612 -0.789434 2.168449 0.103510 -0.026583 144753.000000 0 0 1
-25.984674 25.949743 -23.607292 43.656577 -0.784726 2.142125 0.098450 -0.021752 -780532.000000 0 0 1
-25.870344 24.584343 -23.296792 42.619305 -0.759915 2.149125 0.103723 -0.013199 -240886.000000 0 0 1
-26.976384 23.697643 -23.328792 42.819810 -0.720786 2.146963 0.112570 -0.007461 85269.500000 0 0 1
-27.936614 23.804743 -22.113692 42.850153 -0.705711 2.113053 0.090587 -0.012603 138128.000000 0 0 1
-27.364314 23.324043 -20.866592 41.572002 -0.705858 2.096635 0.097375 -0.009433 718307.000000 0 0 1
-26.413504 24.226943 -20.275692 41.179141 -0.742247 2.085616 0.092111 -0.004595 268093.000000 0 0 1
-25.564264 23.635343 -19.120892 39.721148 -0.746212 2.073023 0.085129 -0.005334 17189.100000 0 0 1
-26.220924 23.459643 -17.878792 39.465719 -0.729875 2.040947 0.081956 0.001975 589785.000000 0 0 1
-25.269974 23.050643 -16.889092 38.146365 -0.739501 2.029454 0.110166 -0.010476 483098.000000 0 0 1
-25.822584 23.235643 -15.433992 38.011960 -0.732715 1.988902 0.106987 -0.015666 71343.700000 0 0 1
-26.080034 24.625143 -15.147192 38.935887 -0.756713 1.970374 0.109656 -0.016593 42273.200000 0 0 1
-26.680864 24.777343 -13.887092 38.969688 -0.748423 1.935162 0.087804 -0.025056 -58152.500000 0 0 1
-26.666134 26.224643 -13.293292 39.692899 -0.777051 1.912299 0.087019 -0.017176 1164600.000000 0 0 1
-25.348274 26.712543 -12.932292 39.029978 -0.811597 1.908522 0.101777 -0.019518 821401.000000 0 0 1
-25.365914 27.652143 -11.856692 39.352913 -0.828493 1.876843 0.112919 -0.016054 229813.000000 0 0 1
-23.929624 28.129043 -11.562992 38.698486 -0.865891 1.874228 0.121888 -0.019541 -107948.000000 0 0 1
-23.011124 27.194943 -11.134992 37.323784 -0.868539 1.873744 0.122536 -0.024885 -142260.000000 0 0 1
-21.880224 27.760143 -10.487992 36.869605 -0.903299 1.859241 0.114342 -0.028722 97780.500000 0 0 1
-20.926024 26.824943 -9.764492 35.395217 -0.908310 1.850291 0.156597 -0.030285 52178.100000 0 0 1
-20.216124 25.998443 -10.744592 34.641839 -0.909870 1.886160 0.151641 -0.032604 253746.000000 0 0 1
-19.661424 24.829743 -10.144692 33.256616 -0.901045 1.880780 0.157286 -0.026646 -203763.000000 0 0 1
-18.804724 24.028743 -11.136092 32.480928 -0.906760 1.920746 0.137976 -0.036222 -117503.000000 0 0 1
-18.404224 22.759143 -10.667692 31.152748 -0.890802 1.920300 0.104073 -0.026799 222287.000000 0 0 1
-17.664324 21.962443 -11.580892 30.471205 -0.893441 1.960658 0.112617 -0.019360 252411.000000 0 0 1
-17.280124 20.605043 -11.043292 29.071030 -0.872937 1.960455 0.091289 -0.010666 46779.000000 0 0 1
-18.411224 19.783443 -10.938192 29.154791 -0.821310 1.955383 0.098697 -0.007011 -4533.150000 0 0 1
-17.907624 18.512143 -10.644692 27.869193 -0.801995 1.962704 0.122383 -0.024960 -555243.000000 0 0 1
-18.903524 17.337143 -10.469492 27.704332 -0.742203 1.958324 0.114863 -0.018318 38129.800000 0 0 1
-19.596524 16.782843 -11.567992 28.275538 -0.708209 1.992282 0.117976 -0.017708 138823.000000 0 0 1
-20.461824 17.652443 -12.238392 29.666029 -0.711822 1.996036 0.123273 -0.020646 -748075.000000 0 0 1
-21.288324 17.022843 -13.377692 30.363343 -0.674517 2.027049 0.120504 -0.024921 421169.000000 0 0 1
-20.453824 16.690743 -14.482192 30.111023 -0.684434 2.072545 0.122474 -0.033301 958773.000000 0 0 1
-21.311824 16.452143 -15.604992 31.118847 -0.657416 2.096087 0.129774 -0.030850 632311.000000 0 0 1
-20.458724 16.342443 -16.923492 31.177547 -0.674009 2.144576 0.134666 -0.039993 60417.400000 0 0 1
-19.971024 17.618843 -17.373692 31.797966 -0.722905 2.148829 0.121770 -0.040641 790297.000000 0 0 1
-19.063524 17.427543 -18.493392 31.767008 -0.740596 2.192176 0.113880 -0.026371 -75267.800000 0 0 1
-18.419124 18.707643 -18.948892 32.377470 -0.793169 2.195984 0.087906 -0.022798 -602319.000000 0 0 1
-17.420824 19.158743 -18.057592 31.569276 -0.832873 2.179737 0.098300 -0.025243 195584.000000 0 0 1
-16.862924 20.351843 -18.595992 32.316662 -0.878876 2.183927 0.112111 -0.030483 -115037.000000 0 0 1
34.576720 29.698143 2.461308 45.646329 0.709642 1.516849 0.089372 -0.008141 762870.000000 0 0 1
35.826130 30.020943 1.814908 46.776730 0.697464 1.531987 0.098526 -0.010373 928654.000000 0 0 1
35.615370 30.706143 0.635708 47.028990 0.711511 1.557279 0.067291 0.001508 87022.900000 0 0 1
36.920430 30.757143 -0.199492 48.053718 0.694580 1.574948 0.035101 0.004628 347009.000000 0 0 1
-37.881144 31.651443 0.343508 49.365099 -0.696043 1.563838 0.030872 0.005595 65733.700000 0 0 1
-36.892914 31.750443 -0.665492 48.678750 -0.710622 1.584468 0.028366 0.000567 -619810.000000 0 0 1
-35.806985 32.743343 -0.292792 48.521670 -0.740736 1.576831 0.041272 -0.002932 -895616.000000 0 0 1
-34.927757 32.362743 0.694208 47.621185 -0.747298 1.556218 0.038040 0.008784 -396826.000000 0 0 1
-34.679515 33.505643 1.446908 48.243035 -0.768184 1.540800 0.033125 -0.002136 -332157.000000 0 0 1
-33.767494 33.340643 2.661208 47.528141 -0.779038 1.514775 0.062833 -0.009347 -183119.000000 0 0 1
-33.525604 -33.033962 3.271708 47.179581 0.778012 1.501395 0.075016 -0.005215 71507.900000 0 0 1
-32.833454 -33.149062 4.487108 46.872489 0.790181 1.474919 0.100628 -0.011502 -403745.000000 0 0 1
-32.583484 -31.850262 5.305608 45.872346 0.774019 1.454877 0.121471 -0.013306 89217.900000 0 0 1
-33.638624 -31.266962 6.063808 46.324397 0.748874 1.439521 0.100850 -0.013230 262900.000000 0 0 1
-34.039491 -32.181962 7.122508 47.382442 0.757355 1.419905 0.096632 -0.023837 -839407.000000 0 0 1
-35.003540 -31.603062 8.200108 47.866932 0.734389 1.398637 0.096967 -0.023545 2147010.000000 0 0 1
-36.402074 -31.302262 7.851008 48.647518 0.710215 1.408702 0.074203 -0.018172 1781940.000000 0 0 1
-37.149564 -32.424762 7.490808 49.875521 0.717592 1.420036 0.059662 -0.010825 -978261.000000 0 0 1
37.109120 -32.261062 7.271108 49.706458 -0.715625 1.423989 0.063317 -0.007483 74995.800000 0 0 1
36.419370 -32.152062 8.485408 49.316607 -0.723247 1.397876 0.058431 -0.001616 -294003.000000 0 0 1
35.079240 -31.823762 8.255108 48.077560 -0.736777 1.398237 0.043085 0.011473 -280903.000000 0 0 1
34.114500 -31.983062 9.458808 47.709375 -0.753162 1.371215 0.046371 0.003213 370301.000000 0 0 1
32.755600 -31.718762 9.140308 46.503273 -0.769318 1.372956 0.052242 -0.003157 296938.000000 0 0 1
31.839010 -31.605862 10.192808 46.005939 -0.781723 1.347388 0.068733 -0.003294 -153275.000000 0 0 1
31.811500 -30.260262 10.982508 45.257822 -0.760412 1.325684 0.074518 -0.013230 -823325.000000 0 0 1
31.241100 -29.142862 10.387308 43.968272 -0.750664 1.332296 0.065120 -0.027289 -285235.000000 0 0 1
31.488390 -28.779562 9.076208 43.613753 -0.740482 1.361160 0.058226 -0.025764 -189027.000000 0 0 1
30.962060 -27.342462 8.661408 42.205206 -0.723397 1.364106 0.054331 -0.026450 23961.500000 0 0 1
31.107830 -26.972562 7.316208 41.817976 -0.714319 1.394938 0.062713 -0.035120 -82351.600000 0 0 1
30.412640 -25.754562 7.109308 40.481705 -0.702655 1.394263 0.037292 -0.035216 -25155.800000 0 0 1
30.627440 -25.290962 5.696708 40.126367 -0.690253 1.428346 0.032451 -0.020176 -396347.000000 0 0 1
31.890010 -24.777862 5.438308 40.749115 -0.660545 1.436939 0.068727 -0.027140 -986734.000000 0 0 1
32.151820 -24.643662 4.066208 40.713434 -0.653964 1.470756 0.055469 -0.022962 4745.660000 0 0 1
33.612800 -24.250662 3.788308 41.620502 -0.624991 1.479650 0.075501 -0.024274 -34169.400000 0 0 1
34.560830 -25.265562 3.737608 42.974054 -0.631260 1.483713 0.078347 -0.019965 -994288.000000 0 0 1
35.864740 -24.785962 3.555508 43.740886 -0.604725 1.489421 0.086082 -0.024948 10066.300000 0 0 1
36.763760 -26.080762 3.553108 45.215095 -0.617017 1.492133 0.085423 -0.022363 34688.400000 0 0 1
36.716700 -26.679662 4.852608 45.645024 -0.628379 1.464283 0.063523 -0.017698 -441979.000000 0 0 1
37.329850 -27.929462 4.891408 46.877483 -0.642336 1.466262 0.053983 -0.013078 -498365.000000 0 0 1
36.649790 -28.928162 5.979308 47.072262 -0.668191 1.443428 0.070269 -0.010614 1066890.000000 0 0 1
35.326800 -29.385962 5.704308 46.303960 -0.693852 1.447290 0.064293 -0.003064 668112.000000 0 0 1
34.351160 -28.331362 5.825408 44.906610 -0.689655 1.440707 0.059770 -0.010434 -109759.000000 0 0 1
32.927680 -28.791762 5.395808 44.071674 -0.718487 1.448056 0.044662 -0.004433 -610533.000000 0 0 1
32.745540 -29.021362 4.016708 43.939092 -0.725177 1.479253 0.040759 -0.005352 190034.000000 0 0 1
31.473050 -28.717962 3.445608 42.745134 -0.739658 1.490101 0.038277 -0.005282 407970.000000 0 0 1
30.276840 -29.531362 3.995708 42.482397 -0.772934 1.476601 0.035318 -0.004746 -566497.000000 0 0 1
30.214440 -30.826062 3.454708 43.302350 -0.795418 1.490930 0.045921 0.000717 1440590.000000 0 0 1
28.928940 -31.553662 3.603408 42.959303 -0.828767 1.486818 0.057416 0.003312 1447260.000000 0 0 1
28.913940 -32.977662 3.004008 43.960962 -0.850963 1.502410 0.061832 0.000975 -278567.000000 0 0 1
28.783340 -32.949562 1.588308 43.779870 -0.852784 1.534509 0.063604 -0.001103 167850.000000 0 0 1
28.916740 33.457143 1.020608 44.233471 0.858063 1.547721 0.068870 -0.000929 -62554.700000 0 0 1
28.687140 33.496543 -0.491492 44.104557 0.862586 1.581940 0.060322 -0.002125 -71895.900000 0 0 1
29.791940 -33.631862 -1.196892 44.945460 -0.845868 1.597429 0.056474 0.003503 150883.000000 0 0 1
29.471040 -33.477662 -2.557692 44.674801 -0.848961 1.628079 0.064241 0.000551 -188316.000000 0 0 1
30.580840 -32.901062 -3.453192 45.050996 -0.821931 1.647522 0.052535 0.001390 -37213.500000 0 0 1
30.804340 -31.518062 -3.365192 44.199775 -0.796850 1.647006 0.039179 -0.004574 176982.000000 0 0 1
31.480770 -31.009362 -4.538292 44.420891 -0.777855 1.673141 0.040922 -0.003853 167155.000000 0 0 1
31.725370 -29.504462 -4.432392 43.550643 -0.749142 1.672748 0.045340 0.005369 -1038410.000000 0 0 1
30.640540 -28.752162 -4.806292 42.292198 -0.753614 1.684687 0.045488 -0.015063 -717172.000000 0 0 1
30.884480 -27.345762 -4.790792 41.528226 -0.724702 1.686416 0.053277 -0.016480 137062.000000 0 0 1
31.887300 -26.696362 -5.788592 41.988135 -0.697022 1.709099 0.084804 -0.023901 -846750.000000 0 0 1
33.207040 -26.973762 -5.497292 43.133648 -0.682190 1.698592 0.079046 -0.012234 -815314.000000 0 0 1
34.180300 -26.493962 -6.425992 43.720891 -0.659387 1.718308 0.086087 -0.018665 293651.000000 0 0 1
34.323360 -27.337462 -7.761392 44.560847 -0.672584 1.745864 0.094822 -0.017611 -677082.000000 0 0 1
33.093540 -27.556262 -8.424292 43.880505 -0.694351 1.763978 0.101805 -0.022815 -150528.000000 0 0 1
33.205400 -28.509862 -9.507392 44.786174 -0.709461 1.784708 0.096426 -0.013484 182181.000000 0 0 1
33.198880 -30.030962 -9.132192 45.688306 -0.735338 1.772032 0.090716 -0.007325 539418.000000 0 0 1
34.413540 -30.405862 -8.479092 46.698000 -0.723648 1.753382 0.091668 -0.006317 -130782.000000 0 0 1
34.261310 -31.580762 -7.754992 47.236869 -0.744709 1.735715 0.086209 -0.016870 1016410.000000 0 0 1
35.585220 -32.149562 -7.076892 48.476640 -0.734719 1.717306 0.070156 -0.013066 820214.000000 0 0 1
35.541160 -33.370662 -6.375492 49.167286 -0.753912 1.700832 0.048908 -0.017275 -228131.000000 0 0 1
34.842100 -33.291362 -5.150992 48.464621 -0.762642 1.677281 0.042472 -0.011015 -216036.000000 0 0 1
34.655950 32.936343 -4.607292 48.031913 0.759963 1.666866 0.015159 -0.006645 -78020.100000 0 0 1
33.627370 32.299143 -5.326592 46.929812 0.765254 1.684543 0.030829 -0.017907 15883.600000 0 0 1
33.696150 30.895843 -5.020592 45.991195 0.742072 1.680179 0.028949 -0.012266 523120.000000 0 0 1
32.352300 30.160043 -5.326092 44.549599 0.750343 1.690637 0.052200 -0.025675 249181.000000 0 0 1
32.053090 30.197043 -6.688392 44.542077 0.755591 1.721525 0.025738 -0.022566 -523376.000000 0 0 1
30.784340 29.664743 -6.910092 43.306142 0.766879 1.731045 0.016302 -0.013288 -652128.000000 0 0 1
30.580140 29.382143 -8.457492 43.243317 0.765422 1.767644 0.027333 -0.012737 53627.000000 0 0 1
31.288340 28.174743 -8.868592 43.028227 0.733084 1.778395 0.045915 -0.019430 515132.000000 0 0 1
31.642860 28.100543 -10.248892 43.542518 0.726175 1.808402 0.028724 -0.017356 152808.000000 0 0 1
32.963320 28.836643 -10.572692 45.054570 0.718722 1.807669 0.061862 -0.014717 -1138260.000000 0 0 1
34.115560 28.225043 -10.065092 45.407385 0.691189 1.794315 0.050064 -0.023270 107250.000000 0 0 1
35.330750 28.661243 -10.661992 46.726939 0.681549 1.801001 0.081209 -0.017859 301482.000000 0 0 1
35.808630 30.061643 -10.318492 47.879345 0.698371 1.788011 0.077728 -0.029579 -1498550.000000 0 0 1
36.322280 30.109243 -9.035592 48.036616 0.692144 1.760022 0.050883 -0.025162 -43233.700000 0 0 1
36.307410 31.418043 -8.479892 48.756846 0.713329 1.745607 0.045452 -0.021974 -1528870.000000 0 0 1
37.246460 31.576843 -7.324192 49.376509 0.703204 1.719679 0.049970 -0.017649 455723.000000 0 0 1
-37.162394 31.681143 -7.746292 49.444347 -0.705947 1.728111 0.065573 -0.019363 607346.000000 0 0 1
-36.432624 30.499543 -8.010892 48.184361 -0.696986 1.737827 0.075642 -0.021507 240317.000000 0 0 1
-34.932739 30.787943 -8.366792 47.309586 -0.722415 1.748583 0.131093 -0.021129 303631.000000 0 0 1
-34.064575 31.269043 -7.348292 46.820356 -0.742636 1.728394 0.120215 -0.021675 750815.000000 0 0 1
-32.743044 31.521043 -7.826792 46.118779 -0.766385 1.741331 0.168348 -0.026245 409568.000000 0 0 1
-32.558154 32.760443 -8.726392 47.004574 -0.788495 1.757529 0.119084 -0.025730 -704729.000000 0 0 1
-32.654484 -33.663762 -8.045992 47.584685 0.800616 1.740700 0.091388 -0.020434 -211944.000000 0 0 1
-31.654434 -33.415962 -7.092892 46.571868 0.812463 1.723691 0.143125 -0.035483 -299357.000000 0 0 1
-31.731154 -32.009662 -6.380392 45.521358 0.789768 1.711422 0.111034 -0.037910 142534.000000 0 0 1
-32.730824 -31.870062 -5.378092 45.999257 0.772075 1.687981 0.097703 -0.039520 100907.000000 0 0 1
-32.495624 -32.623862 -4.162692 46.234295 0.787367 1.660953 0.122198 -0.036851 300474.000000 0 0 1
-33.692314 -32.585962 -3.162492 46.978914 0.768707 1.638165 0.096786 -0.031954 152849.000000 0 0 1
-34.021813 -31.279962 -2.708592 46.295316 0.743435 1.629337 0.078277 -0.033527 -584439.000000 0 0 1
-35.029875 -31.294462 -1.772692 47.006148 0.729137 1.608517 0.067947 -0.028133 -846889.000000 0 0 1
-35.704877 -29.950362 -1.522492 46.628108 0.697974 1.603454 0.083261 -0.023826 -145734.000000 0 0 1
-36.779004 -30.109562 -0.624292 47.535993 0.686017 1.583930 0.058399 -0.010458 -391599.000000 0 0 1
-37.438184 -28.901462 -0.306892 47.297002 0.657419 1.577285 0.074046 -0.017394 -241800.000000 0 0 1
37.333190 -28.870762 0.851008 47.201824 -0.658264 1.552766 0.075529 -0.009708 120225.000000 0 0 1
36.153390 -29.527462 0.359608 46.680488 -0.684858 1.563093 0.042093 0.002038 1200360.000000 0 0 1
34.975360 -29.431262 1.204308 45.726637 -0.699530 1.544456 0.054415 0.000819 1324580.000000 0 0 1
34.183070 -28.084962 1.208508 44.257292 -0.687776 1.543487 0.044799 -0.002034 -681058.000000 0 0 1
33.282330 -27.881762 0.131708 43.418009 -0.697330 1.567763 0.041427 -0.000260 -18597.600000 0 0 1
32.674450 -26.655962 0.268208 42.169088 -0.684304 1.564436 0.050986 -0.002366 -57893.700000 0 0 1
31.328360 -26.547662 -0.513092 41.067113 -0.702983 1.583291 0.041304 -0.002624 785370.000000 0 0 1
30.106240 -27.021562 0.058308 40.454344 -0.731454 1.569355 0.042077 0.006030 560715.000000 0 0 1
29.974040 -28.456362 0.251708 41.331235 -0.759430 1.564706 0.044718 -0.000470 -681134.000000 0 0 1
29.551440 -29.287862 -0.999392 41.618088 -0.780919 1.594812 0.042417 0.002610 605910.000000 0 0 1
28.163340 -29.141762 -1.321592 40.548275 -0.802470 1.603395 0.052341 0.002076 379457.000000 0 0 1
27.902640 -29.282862 -2.696592 40.537821 -0.809529 1.637366 0.052944 -0.002478 684306.000000 0 0 1
26.399340 -29.631362 -2.954392 39.795367 -0.843017 1.645104 0.051063 -0.010104 528609.000000 0 0 1
25.562540 -28.511962 -2.966392 38.408006 -0.839888 1.648107 0.064869 -0.007239 590823.000000 0 0 1
24.230940 -28.960762 -3.324392 37.906672 -0.874085 1.658609 0.054182 -0.006501 1231720.000000 0 0 1
23.119240 -27.883862 -3.376392 36.378690 -0.878546 1.663742 0.051289 -0.011014 187197.000000 0 0 1
23.200840 -27.063262 -4.576292 35.939416 -0.862090 1.698476 0.065326 -0.017259 219907.000000 0 0 1
22.207740 -26.049962 -4.575192 34.535730 -0.864849 1.703664 0.073975 -0.024447 57620.000000 0 0 1
21.926840 -25.470162 -5.984092 34.136855 -0.860018 1.747004 0.094391 -0.045180 517439.000000 0 0 1
21.027240 -26.226362 -6.829592 34.301753 -0.894983 1.771239 0.105197 -0.045556 584579.000000 0 0 1
20.262940 -25.450062 -7.803592 33.454274 -0.898386 1.806227 0.136800 -0.048663 -102596.000000 0 0 1
18.787240 -25.819862 -7.715492 32.850487 -0.941768 1.807878 0.114747 -0.037267 -857618.000000 0 0 1
18.170240 -25.233162 -6.612592 31.789880 -0.946712 1.780336 0.097794 -0.034234 177730.000000 0 0 1
16.808440 -25.669162 -6.590692 31.382587 -0.991047 1.782383 0.083184 -0.030895 663594.000000 0 0 1
15.862740 -24.705262 -5.808292 29.928461 -1.000009 1.766108 0.074347 -0.023965 4108.330000 0 0 1
15.986740 -24.819862 -4.408992 29.850304 -0.998572 1.719042 0.058233 -0.018531 101556.000000 0 0 1
15.415440 -23.789162 -3.587992 28.573304 -0.995827 1.696700 0.080310 -0.016396 148745.000000 0 0 1
15.184540 -24.132362 -2.090892 28.588687 -1.009169 1.643999 0.086386 -0.024346 -275901.000000 0 0 1
14.435440 -25.306262 -1.902292 29.196020 -1.052404 1.635998 0.080154 -0.016370 -20924.900000 0 0 1
15.216740 -26.489662 -1.793892 30.601788 -1.049382 1.629450 0.084519 -0.019711 -48242.400000 0 0 1
14.449840 -27.842662 -2.015892 31.433669 -1.092079 1.634972 0.081277 -0.013916 195894.000000 0 0 1
13.523340 -28.197862 -1.002092 31.289045 -1.123612 1.602829 0.100639 -0.029822 -351096.000000 0 0 1
13.029340 -29.481962 -1.149892 32.253249 -1.154663 1.606456 0.087942 -0.023337 -511654.000000 0 0 1
13.871140 -30.682062 -0.658492 33.678347 -1.146203 1.590350 0.073182 -0.015132 -3529.370000 0 0 1
14.893540 -31.040462 -1.587092 34.465152 -1.123430 1.616862 0.059891 -0.013206 -385471.000000 0 0 1
15.551840 -32.178062 -1.076092 35.755355 -1.120593 1.600897 0.057514 -0.012222 -1427400.000000 0 0 1
16.841540 -32.320362 -1.826592 36.490817 -1.090426 1.620873 0.045434 -0.009281 -1456170.000000 0 0 1
17.732240 -31.400662 -1.287292 36.084499 -1.056730 1.606478 0.046624 -0.004473 -829445.000000 0 0 1
19.014840 -31.491562 -1.864592 36.834214 -1.027582 1.621439 0.048386 -0.007793 -369153.000000 0 0 1
19.928940 -30.453662 -1.229292 36.415647 -0.991333 1.604560 0.048312 -0.007240 -579382.000000 0 0 1
19.621840 -29.143462 -1.627992 35.171130 -0.978226 1.617101 0.045548 -0.010640 -144827.000000 0 0 1
20.126940 -28.168962 -0.752192 34.628745 -0.950400 1.592520 0.040077 -0.003953 -206676.000000 0 0 1
19.542140 -26.714662 -0.823992 33.109627 -0.939232 1.595686 0.031579 0.000898 41876.100000 0 0 1
19.935340 -26.015362 -1.995892 32.835963 -0.916950 1.631618 0.033159 0.000155 162290.000000 0 0 1
18.860840 -25.932562 -2.913692 32.198116 -0.941980 1.661413 0.056847 -0.008472 -162448.000000 0 0 1
33.710160 -28.719162 13.828808 46.393977 -0.705621 1.268123 0.079104 -0.047686 397309.000000 0 0 1
34.608570 -28.929662 14.914108 47.509042 -0.696257 1.251476 0.100605 -0.044648 149909.000000 0 0 1
34.007450 -29.751062 15.882108 47.894402 -0.718739 1.232790 0.096833 -0.038771 -120752.000000 0 0 1
34.766600 -29.913962 17.209008 48.986851 -0.710514 1.211839 0.093707 -0.028673 -204003.000000 0 0 1
34.221180 -30.871462 18.143908 49.531180 -0.733983 1.195753 0.085207 -0.028543 -105630.000000 0 0 1
35.111760 -31.244262 19.140108 50.748235 -0.727180 1.184070 0.070129 -0.021403 -480087.000000 0 0 1
35.870090 -32.529562 18.829808 51.955726 -0.736599 1.199933 0.055423 -0.007948 -500701.000000 0 0 1
36.794500 -32.489862 17.766508 52.202253 -0.723348 1.223518 0.057443 -0.002764 20739.000000 0 0 1
37.580570 -33.648062 17.873608 53.515953 -0.730245 1.230267 0.063297 -0.004039 79792.200000 0 0 1
-37.016034 -33.751262 16.851008 52.851594 0.739297 1.246295 0.063741 -0.003308 -491039.000000 0 0 1
-35.918659 -33.042362 17.294508 51.778836 0.743713 1.230245 0.070418 -0.003298 -967258.000000 0 0 1
-34.959251 -33.047862 16.276608 50.786203 0.757300 1.244547 0.091125 -0.005045 456195.000000 0 0 1
-33.527444 -32.508662 16.735408 49.608231 0.769972 1.226694 0.075045 -0.014338 1502680.000000 0 0 1
-32.541414 -32.560962 15.701008 48.638273 0.785698 1.242097 0.080564 -0.022838 120607.000000 0 0 1
-32.666014 -31.458262 14.806208 47.706546 0.766566 1.255225 0.077633 -0.017586 -310042.000000 0 0 1
-31.422594 -31.235562 13.901908 46.436008 0.782413 1.266756 0.065864 -0.024807 256601.000000 0 0 1
-30.324044 -30.716162 14.618008 45.571005 0.791822 1.244249 0.055898 -0.026982 -701310.000000 0 0 1
-29.235104 -30.624262 13.742208 44.512752 0.808601 1.256944 0.053346 -0.023606 355032.000000 0 0 1
-28.000164 -29.886362 14.410408 43.415017 0.817971 1.232456 0.057343 -0.028208 1149190.000000 0 0 1
-26.914994 -29.955462 13.478508 42.466655 0.838810 1.247820 0.061039 -0.024841 -737465.000000 0 0 1
-25.728664 -29.640362 14.128208 41.714764 0.855929 1.225276 0.057131 -0.030593 -830035.000000 0 0 1
-24.478024 -29.562362 13.265908 40.609005 0.879206 1.238014 0.078084 -0.032844 -99462.100000 0 0 1
-23.993624 -30.879362 12.915908 41.183124 0.910231 1.251792 0.091936 -0.034118 -547024.000000 0 0 1
-22.698924 -30.877462 12.418608 40.284993 0.936881 1.257424 0.076335 -0.040690 -373440.000000 0 0 1
-22.189724 -32.274762 11.976108 40.956945 0.968492 1.274053 0.073277 -0.036978 -87472.100000 0 0 1
-22.908724 -32.750662 10.872308 41.420075 0.960413 1.305196 0.080941 -0.032318 43004.200000 0 0 1
-22.867824 33.463643 10.815608 41.949138 -0.971323 1.310024 0.101071 -0.022125 -322662.000000 0 0 1
-23.848924 33.013043 9.769708 41.881731 -0.945188 1.335358 0.091271 -0.016191 -578521.000000 0 0 1
-23.423224 33.298443 8.482208 41.585834 -0.957770 1.365386 0.096198 -0.016363 -238640.000000 0 0 1
-24.444724 33.147743 7.533008 41.869603 -0.935377 1.389895 0.101466 -0.014995 -804725.000000 0 0 1
-24.110624 33.711343 6.119508 41.895408 -0.949936 1.424206 0.102430 -0.020164 -298585.000000 0 0 1
-23.366024 32.920043 5.202308 40.703370 -0.953536 1.442636 0.096869 -0.024714 785039.000000 0 0 1
-22.038324 32.552943 5.625908 39.711871 -0.975674 1.428650 0.099186 -0.027110 787355.000000 0 0 1
-20.920124 33.630543 5.346908 39.965666 -1.014316 1.436606 0.111558 -0.027690 -133821.000000 0 0 1
-20.981024 -32.916962 6.218408 39.527185 1.003335 1.412820 0.121202 -0.034814 165928.000000 0 0 1
-20.427524 -33.090162 7.541208 39.612024 1.017732 1.379250 0.104654 -0.034110 -214301.000000 0 0 1
-20.685024 -31.845362 8.406308 38.892973 0.994740 1.352938 0.100037 -0.039429 -283776.000000 0 0 1
-19.840524 -30.734762 8.178008 37.485355 0.997563 1.350862 0.108866 -0.055701 -341399.000000 0 0 1
-19.820124 -29.692462 9.121408 36.846706 0.982208 1.320645 0.106883 -0.048845 -51542.500000 0 0 1
-19.004024 -29.938962 10.385408 36.950658 1.005210 1.285896 0.091149 -0.041985 -145656.000000 0 0 1
-17.662324 -30.273062 10.112908 36.478582 1.042647 1.289888 0.086198 -0.044136 -786403.000000 0 0 1
-16.929624 -30.215362 11.280708 36.425742 1.060081 1.255929 0.106167 -0.047668 -727449.000000 0 0 1
-15.553824 -30.857362 11.205408 36.327117 1.103910 1.257224 0.103957 -0.045589 -460686.000000 0 0 1
-14.610424 -30.157762 10.411608 35.090693 1.119653 1.269555 0.102448 -0.043426 -486794.000000 0 0 1
-13.596324 -31.090862 10.132308 35.414198 1.158546 1.280633 0.088309 -0.035978 -458486.000000 0 0 1
-12.392124 -30.447362 9.441708 34.201644 1.184269 1.291104 0.091636 -0.026260 45354.000000 0 0 1
-11.584824 -29.660562 10.328008 33.475735 1.198437 1.257157 0.107554 -0.031180 -525141.000000 0 0 1
-10.644524 -28.899462 9.655008 32.275440 1.217887 1.267001 0.120080 -0.032376 -223634.000000 0 0 1
-9.633724 -28.242562 10.643008 31.681613 1.242066 1.228197 0.137047 -0.026188 40438.100000 0 0 1
-10.160224 -27.226462 11.430408 31.227626 1.213627 1.196051 0.113610 -0.034562 -454630.000000 0 0 1
-9.307024 -26.902462 12.518908 31.098010 1.237730 1.156481 0.109472 -0.022065 314668.000000 0 0 1
-9.520824 -25.431562 13.039108 30.123559 1.212578 1.123140 0.100515 -0.033320 133848.000000 0 0 1
-9.079324 -24.356862 12.251208 28.736440 1.213989 1.130365 0.090189 -0.034133 -316643.000000 0 0 1
-9.732624 -24.216562 11.035408 28.336304 1.188654 1.170768 0.081207 -0.033496 83499.500000 0 0 1
-9.191724 -22.900562 10.393408 26.775856 1.189105 1.172158 0.081411 -0.029084 263947.000000 0 0 1
-7.880524 -23.051962 9.898308 26.295858 1.241392 1.184866 0.060321 -0.031596 -304714.000000 0 0 1
-7.395424 -21.814162 9.336608 24.854018 1.243937 1.185690 0.057367 -0.026139 -788745.000000 0 1 0
-6.147524 -22.035162 8.529408 24.414980 1.298727 1.213918 0.052395 -0.028345 -343501.000000 0 1 0
-5.037724 -22.537562 9.257408 24.880112 1.350886 1.189547 0.064857 -0.032463 -169695.000000 0 1 0
-3.967124 -22.838462 8.392908 24.653080 1.398809 1.223411 0.063422 -0.029880 582715.000000 0 1 0
-2.710424 -23.441762 9.085408 25.286503 1.455684 1.203280 0.071874 -0.039201 614989.000000 0 0 1
-2.000424 -22.701362 10.066808 24.913735 1.482904 1.154838 0.067740 -0.028474 -519433.000000 0 1 0
-0.866724 -23.415562 10.465508 25.662553 1.533798 1.150739 0.079258 -0.042640 -134206.000000 0 0 1
-0.078824 -22.677762 11.530808 25.441043 1.567320 1.100404 0.083211 -0.040642 -539782.000000 0 0 1
-0.699524 -22.784862 12.754608 26.121242 1.540105 1.060673 0.081623 -0.033692 -75387.900000 0 0 1
0.204576 -22.699262 13.864308 26.599199 -1.561784 1.022504 0.105399 -0.038751 439324.000000 0 0 1
1.072676 -21.407362 14.145608 25.681200 -1.520730 0.987455 0.089409 -0.030363 268023.000000 0 0 1
2.123176 -21.249162 13.212908 25.112063 -1.471209 1.016720 0.087952 -0.035766 -316086.000000 0 0 1
2.426676 -19.864762 13.013108 23.871291 -1.449239 0.994245 0.070737 -0.031258 -155708.000000 0 1 0
3.925276 -19.678762 12.731808 23.764688 -1.373913 1.005407 0.076578 -0.024753 23988.400000 0 1 0
4.231576 -20.214062 11.437808 23.608007 -1.364438 1.065018 0.083566 -0.017429 -472258.000000 0 1 0
5.612176 -20.447762 11.285908 24.020392 -1.302928 1.081679 0.108715 -0.021080 95004.700000 0 1 0
5.961976 -21.002262 9.880308 23.963736 -1.294200 1.145816 0.109992 -0.038047 -386535.000000 0 1 0
6.037276 -19.981762 8.896308 22.690611 -1.277378 1.167916 0.103904 -0.040246 -425593.000000 0 1 0
6.224076 -20.577562 7.589208 22.798493 -1.277076 1.231438 0.107891 -0.052646 11978.900000 0 1 0
7.566176 -21.310262 7.219108 23.737940 -1.229631 1.261785 0.112535 -0.034683 149403.000000 0 1 0
8.652176 -20.565462 6.720808 23.301666 -1.172562 1.278214 0.122775 -0.046647 109691.000000 0 1 0
9.237176 -19.559462 7.590508 22.924087 -1.129585 1.233311 0.122983 -0.031391 -303296.000000 0 1 0
9.942676 -19.989462 8.900208 24.034332 -1.109234 1.191451 0.101065 -0.024431 114950.000000 0 1 0
9.125976 -20.187862 10.046808 24.326355 -1.146237 1.145050 0.104585 -0.027698 3344.300000 0 1 0
9.952076 -19.851962 11.205608 24.873879 -1.106098 1.103474 0.090674 -0.013827 891593.000000 0 1 0
9.292276 -19.965662 12.601908 25.372862 -1.135199 1.051040 0.121684 -0.028308 14233.700000 0 0 1
9.189076 -21.320862 13.004608 26.610864 -1.163863 1.060202 0.115372 -0.030410 -16132.100000 0 0 1
8.476676 -21.575862 14.212908 27.191517 -1.196445 1.020786 0.153882 -0.034462 217009.000000 0 0 1
8.674676 -23.053362 14.695608 28.682197 -1.210898 1.032866 0.160051 -0.043326 145790.000000 0 0 1
8.255976 -24.055862 13.795508 28.933746 -1.240192 1.073790 0.165386 -0.044243 -143746.000000 0 0 1
8.292276 -25.262262 14.520508 30.295031 -1.253630 1.070936 0.173948 -0.049568 218193.000000 0 0 1
8.362976 -26.498862 13.626708 30.948606 -1.265092 1.114862 0.180189 -0.057893 915332.000000 0 0 1
9.654676 -26.586562 12.985508 31.123648 -1.222463 1.140409 0.166473 -0.045499 671191.000000 0 0 1
9.676176 -27.713662 12.169008 31.776724 -1.234881 1.177805 0.154504 -0.047245 134952.000000 0 0 1
11.093376 -28.108762 11.683108 32.398465 -1.194903 1.201878 0.130186 -0.042062 251795.000000 0 0 1
11.983676 -28.644162 12.640508 33.524304 -1.174560 1.184182 0.099454 -0.041442 470648.000000 0 0 1
13.035276 -29.362362 11.963708 34.281147 -1.152989 1.214305 0.114250 -0.033524 570.765000 0 0 1
14.036676 -30.138262 12.829508 35.636209 -1.134928 1.202514 0.084215 -0.039630 -274880.000000 0 0 1
15.076776 -29.189962 13.129808 35.380149 -1.094032 1.190596 0.083431 -0.029721 197656.000000 0 0 1
15.997476 -29.759562 14.057508 36.594594 -1.077556 1.176518 0.077016 -0.028297 1530970.000000 0 0 1
17.432576 -30.006862 13.396408 37.199062 -1.044500 1.202392 0.094252 -0.024034 1129720.000000 0 0 1
18.086376 -28.790462 13.069208 36.425429 -1.009894 1.203821 0.083639 -0.024522 1301580.000000 0 0 1
19.460876 -29.004062 12.623108 37.138984 -0.979820 1.223998 0.079864 -0.022383 1440020.000000 0 0 1
20.149476 -27.609062 12.314108 36.330413 -0.940340 1.224998 0.061929 -0.023282 -219653.000000 0 0 1
21.508276 -27.801762 12.049108 37.158107 -0.912343 1.240561 0.049020 -0.026587 -523514.000000 0 0 1
22.179576 -26.618462 11.721208 36.576807 -0.876113 1.244587 0.043937 -0.019954 250851.000000 0 0 1
23.605476 -26.794862 11.151708 37.410476 -0.848595 1.268105 0.048181 -0.025860 199759.000000 0 0 1
24.518276 -27.388762 12.050008 38.684530 -0.840642 1.254031 0.060444 -0.029454 50727.700000 0 0 1
25.656476 -27.887362 11.350308 39.557417 -0.827039 1.279773 0.041285 -0.040651 -169505.000000 0 0 1
26.633476 -28.597662 12.332608 40.978794 -0.820946 1.265107 0.054674 -0.038926 1044430.000000 0 0 1
27.734876 -27.925262 13.029808 41.458648 -0.788819 1.251094 0.055209 -0.043791 1485450.000000 0 0 1
28.795776 -27.667862 12.091208 41.724149 -0.765425 1.276790 0.041526 -0.042582 1211870.000000 0 0 1
30.175176 -27.089262 12.665908 42.482874 -0.731561 1.268051 0.084618 -0.057694 1278970.000000 0 0 1
30.145676 -25.697462 13.023608 41.698150 -0.705910 1.253151 0.098362 -0.053280 -199754.000000 0 0 1
29.526976 -25.268262 14.168908 41.365267 -0.707834 1.221186 0.106854 -0.054348 -830280.000000 0 0 1
30.535076 -25.008562 15.288208 42.326686 -0.686226 1.201247 0.115091 -0.045673 -76146.900000 0 0 1
30.910876 -26.274562 15.859408 43.558646 -0.704500 1.198137 0.126030 -0.047253 -202039.000000 0 0 1
31.653376 -26.090162 17.037108 44.417292 -0.689351 1.177138 0.141014 -0.026875 -70582.100000 0 0 1
31.840476 -27.399762 17.815208 45.628330 -0.710577 1.169685 0.120025 -0.015035 -317851.000000 0 0 1
30.658676 -27.988862 18.281708 45.360243 -0.739907 1.155967 0.089984 -0.024893 -470153.000000 0 0 1
30.933576 -29.108762 18.998208 46.531044 -0.755015 1.150215 0.111945 -0.029827 -540362.000000 0 0 1
29.695176 -29.885962 19.387908 46.377421 -0.788600 1.139503 0.090497 -0.016984 -1583350.000000 0 0 1
28.826876 -29.093762 20.175308 45.656093 -0.790006 1.113084 0.095104 -0.016790 764571.000000 0 0 1
27.631276 -29.712662 20.686308 45.543968 -0.821679 1.099316 0.117756 -0.021493 1087260.000000 0 0 1
26.639076 -30.409762 19.730208 44.985276 -0.851398 1.116764 0.122387 -0.027923 -938851.000000 0 0 1
27.161976 -31.629462 19.259008 45.924995 -0.861241 1.138058 0.102606 -0.024994 -239589.000000 0 0 1
26.617776 -32.053062 18.042408 45.403009 -0.877775 1.162133 0.110506 -0.023725 -362726.000000 0 0 1
26.896576 -31.220762 16.736408 44.477737 -0.859666 1.185011 0.105740 -0.022679 -406807.000000 0 0 1
28.260276 -31.159162 16.440908 45.164588 -0.834146 1.198214 0.102049 -0.039525 -520455.000000 0 0 1
28.419276 -30.288562 15.332608 44.273481 -0.817228 1.217155 0.098914 -0.058591 -199069.000000 0 0 1
29.909776 -29.958762 15.035508 44.924254 -0.786216 1.229525 0.118465 -0.047395 645158.000000 0 0 1
30.716976 -30.932762 14.348408 45.893847 -0.788898 1.252822 0.143232 -0.042010 578237.000000 0 0 1
30.841776 -32.264162 14.930308 47.064906 -0.807934 1.247991 0.157469 -0.048949 -596591.000000 0 0 1
29.721176 -33.172662 14.359508 46.797107 -0.840221 1.258919 0.142986 -0.050191 -25645.100000 0 0 1
29.885076 -33.492962 12.980208 46.726674 -0.842263 1.289303 0.143894 -0.039431 420718.000000 0 0 1
29.067276 33.040143 12.654708 45.789728 0.849279 1.290786 0.121814 -0.047357 62753.100000 0 0 1
29.258976 32.695743 11.157108 45.272291 0.840814 1.321786 0.127390 -0.044782 461731.000000 0 0 1
30.572976 32.160243 10.938508 45.701630 0.810695 1.329104 0.115633 -0.028859 736467.000000 0 0 1
30.739376 31.508943 9.709108 45.077594 0.797760 1.353709 0.119024 -0.031468 208251.000000 0 0 1
32.225776 31.095443 9.496008 45.777739 0.767549 1.361842 0.099688 -0.021533 488941.000000 0 0 1
32.632976 30.135043 10.479208 45.638205 0.745623 1.339114 0.098655 -0.017582 288788.000000 0 0 1
33.980576 29.691743 10.450908 46.319549 0.718142 1.343210 0.100782 -0.018450 373475.000000 0 0 1
34.318076 28.712743 11.601008 46.224834 0.696701 1.317115 0.087329 -0.018803 67134.400000 0 0 1
34.209576 27.320843 11.324608 45.221347 0.673906 1.317676 0.093238 -0.033304 66854.500000 0 0 1
34.401576 26.661943 12.545608 45.295915 0.659323 1.290157 0.104698 -0.044690 62210.500000 0 0 1
34.221776 25.093543 12.439708 44.221739 0.632703 1.285645 0.106518 -0.048408 455304.000000 0 0 1
35.300376 24.554043 11.667708 44.555055 0.607750 1.305835 0.110699 -0.040604 120092.000000 0 0 1
35.230776 23.134343 11.490708 43.685716 0.581037 1.304634 0.112892 -0.045789 1105000.000000 0 0 1
33.934676 22.435543 10.834708 42.098773 0.584166 1.310503 0.104407 -0.041903 1224100.000000 0 0 1
32.824076 22.349243 11.700508 41.398194 0.597778 1.284258 0.110367 -0.049097 -625532.000000 0 0 1
31.699476 22.024943 10.939208 40.120084 0.607231 1.294638 0.104095 -0.042406 -439928.000000 0 0 1
30.397876 22.036043 11.769808 39.346492 0.627256 1.267013 0.104694 -0.042494 -67922.600000 0 0 1
30.076876 23.312243 12.302608 39.992915 0.659365 1.258106 0.113884 -0.040887 395886.000000 0 0 1
29.097776 23.206043 13.353608 39.541368 0.673227 1.226311 0.170756 -0.039147 171553.000000 0 0 1
24.461376 9.413543 25.142486 36.319668 0.367363 0.806187 0.069094 -0.021024 -182625.000000 0 0 1
24.635576 8.176043 25.798276 36.596589 0.320442 0.788463 0.082900 -0.025180 58164.300000 0 0 1
23.482676 7.357443 25.886666 35.716768 0.303626 0.760087 0.049745 -0.019403 -314045.000000 0 0 1
23.612276 6.081543 26.775026 36.213627 0.252080 0.738672 0.072938 -0.016414 -78286.100000 0 0 1
23.918276 6.381943 28.140156 37.479081 0.260748 0.721489 0.055059 -0.013636 -537407.000000 0 0 1
25.259476 6.418243 28.507826 38.625524 0.248827 0.740611 0.047917 -0.015304 -746654.000000 0 0 1
25.416876 6.441443 30.040626 39.874164 0.248206 0.717601 0.060688 -0.029844 -158320.000000 0 0 1
25.281676 7.700143 30.653036 40.473003 0.295648 0.711520 0.084267 -0.027896 95691.500000 0 0 1
25.152376 7.584543 32.022091 41.419580 0.292873 0.687059 0.070126 -0.022895 5725.710000 0 0 1
25.239076 8.814543 32.895122 42.388633 0.335999 0.682440 0.130319 -0.028456 1040240.000000 0 0 1
26.551676 9.435243 32.809959 43.249378 0.341437 0.709600 0.100761 -0.029910 904460.000000 0 0 1
26.922176 9.937143 -33.294322 43.955230 0.353594 2.430210 0.117246 -0.033622 -256466.000000 0 0 1
28.215576 10.748443 -33.433822 45.049619 0.363968 2.407077 0.106045 -0.038944 -431990.000000 0 0 1
28.169976 11.938143 33.206745 45.152572 0.400845 0.744489 0.114023 -0.045543 221781.000000 0 0 1
27.661376 13.059143 -33.441062 45.321050 0.441086 2.400706 0.098976 -0.037309 -62005.100000 0 0 1
27.333276 14.385943 33.175910 45.328847 0.484478 0.749699 0.092440 -0.034125 -82847.200000 0 0 1
28.502976 15.083943 32.765902 45.973354 0.486738 0.777435 0.076868 -0.033064 203331.000000 0 0 1
28.360076 16.475443 32.794510 46.381182 0.526285 0.785457 0.098052 -0.035001 -150221.000000 0 0 1
28.498876 17.159943 -33.199002 46.998120 0.541982 2.355181 0.086000 -0.047334 -68344.800000 0 0 1
27.586676 16.726043 -32.205352 45.584755 0.545045 2.355328 0.092223 -0.048000 324211.000000 0 0 1
28.316376 16.183043 -31.115242 45.076228 0.519206 2.332673 0.093286 -0.053886 -346683.000000 0 0 1
27.453876 15.588743 -30.045912 43.583036 0.516418 2.331449 0.088641 -0.038189 -495914.000000 0 0 1
26.761776 14.443143 -30.492662 43.065061 0.494896 2.357544 0.096481 -0.027652 -387670.000000 0 0 1
25.793976 14.074743 -29.559792 41.679838 0.499505 2.359175 0.124095 -0.031681 -710134.000000 0 0 1
25.042176 12.890443 -30.118562 41.235929 0.475377 2.389698 0.115841 -0.023813 -859173.000000 0 0 1
24.164876 13.340143 -31.152292 41.621700 0.504413 2.416537 0.128411 -0.032653 551055.000000 0 0 1
23.400876 12.266443 -31.703232 41.269378 0.482810 2.446825 0.109271 -0.023030 110995.000000 0 0 1
22.283476 11.518943 -30.947412 39.836938 0.477098 2.460448 0.100054 -0.024016 -529008.000000 0 0 1
21.286176 12.390143 -30.458602 39.170695 0.527135 2.461615 0.136572 -0.019946 -408784.000000 0 0 1
20.413576 11.726243 -29.636892 37.849230 0.521408 2.470311 0.133534 -0.017548 -1293650.000000 0 0 1
19.167976 12.483143 -29.265012 37.144059 0.577253 2.478153 0.091113 0.006051 -217093.000000 0 0 1
18.228176 12.808843 -30.314682 37.620643 0.612532 2.507820 0.068899 0.004084 519787.000000 0 0 1
17.123876 13.430143 -29.707692 36.825845 0.665090 2.509356 0.060068 -0.000434 -434621.000000 0 0 1
16.024176 14.036743 -30.628662 37.308435 0.719381 2.533883 0.070821 -0.001848 745406.000000 0 0 1
15.133676 13.075543 -31.186212 37.048317 0.712568 2.571353 0.075133 -0.008343 788886.000000 0 0 1
14.086876 12.439643 -30.422082 35.758745 0.723380 2.588225 0.070474 -0.015363 92206.600000 0 0 1
13.203576 11.621943 -31.354642 35.951600 0.721774 2.630345 0.085218 -0.016827 -275417.000000 0 0 1
12.623676 12.442443 -32.325702 36.866280 0.778168 2.640039 0.102959 -0.017506 -779372.000000 0 0 1
11.583276 11.774743 -32.933902 36.843707 0.793595 2.676726 0.102083 -0.011223 -600146.000000 0 0 1
11.080076 12.601343 33.264086 37.256696 0.849549 0.467195 0.126004 -0.015561 216420.000000 0 0 1
11.956976 12.489143 32.122842 36.480474 0.807164 0.493777 0.102096 -0.006639 562207.000000 0 0 1
11.326176 12.891343 30.932086 35.373195 0.849938 0.506496 0.119995 -0.030181 -154078.000000 0 0 1
12.331876 13.078043 29.758976 34.766464 0.814755 0.543376 0.121959 -0.030968 273283.000000 0 0 1
12.860476 11.789643 29.288386 34.091012 0.741984 0.537242 0.106273 -0.031038 110346.000000 0 0 1
12.937076 11.706743 27.897746 32.904407 0.735515 0.558894 0.129459 -0.030233 -243572.000000 0 0 1
13.421476 10.366043 27.418476 32.239164 0.657651 0.553916 0.136941 -0.032595 -230819.000000 0 0 1
12.565876 9.267343 27.658826 31.761542 0.635454 0.513913 0.141013 -0.043026 68622.800000 0 0 1
13.091176 8.058443 27.121686 31.175363 0.551784 0.515651 0.106087 -0.040022 -540107.000000 0 0 1
12.358776 6.780143 27.514926 30.915706 0.501775 0.473455 0.113467 -0.035301 319265.000000 0 0 1
10.976576 6.808443 27.125206 30.043584 0.555191 0.444416 0.129320 -0.046434 581592.000000 0 0 1
10.177176 5.744343 27.614676 29.985709 0.513857 0.400342 0.121253 -0.045220 77568.500000 0 0 1
10.485876 4.265643 27.174136 29.437782 0.386354 0.394720 0.116170 -0.040488 -445021.000000 0 0 1
11.732576 3.848943 27.675056 30.304726 0.316994 0.419664 0.096656 -0.033600 -82775.800000 0 0 1
12.013676 2.574643 27.189646 29.836790 0.211116 0.424416 0.074049 -0.029997 -239730.000000 0 0 1
12.344676 1.404843 28.194416 30.810546 0.113314 0.415066 0.063909 -0.026434 208341.000000 0 0 1
11.253176 1.273043 29.100896 31.226860 0.112649 0.371128 0.045034 -0.026363 389882.000000 0 0 1
11.403176 0.124243 29.910666 32.010870 0.010895 0.364251 0.049482 -0.029301 -452841.000000 0 0 1
10.298076 -0.091057 30.912156 32.582512 -0.008842 0.321588 0.065113 -0.024342 -478830.000000 0 0 1
10.568176 0.761443 32.008318 33.716444 0.071926 0.319672 0.051918 -0.028715 470870.000000 0 0 1
9.384676 1.064943 32.731566 34.067018 0.112993 0.280925 0.062854 -0.028505 134076.000000 0 0 1
9.724876 2.402243 33.590146 35.051989 0.242172 0.289821 0.064697 -0.034048 123021.000000 0 0 1
9.730976 3.676343 32.821453 34.430440 0.361221 0.306920 0.048683 -0.027596 114443.000000 0 0 1
10.758176 3.727143 31.850301 33.824128 0.333507 0.343314 0.053004 -0.030866 -358083.000000 0 0 1
10.782076 5.017843 31.066376 33.264871 0.435576 0.365600 0.061136 -0.032870 199083.000000 0 0 1
11.230176 6.103843 31.915174 34.379530 0.497856 0.380930 0.069118 -0.037895 49631.900000 0 0 1
11.539076 7.240143 31.172566 34.019095 0.560356 0.411991 0.081268 -0.034852 -245533.000000 0 0 1
11.628076 8.514143 32.111165 35.197013 0.632015 0.421866 0.117879 -0.036944 -434150.000000 0 0 1
10.440476 9.049243 32.629972 35.434551 0.714136 0.400537 0.127992 -0.034938 -414290.000000 0 0 1
9.889576 8.352043 -33.686752 36.088192 0.701310 2.774727 0.111059 -0.040933 -634413.000000 0 0 1
8.385576 8.546043 -33.506392 35.581330 0.794875 2.798398 0.124726 -0.045842 -459981.000000 0 0 1
7.830076 7.857843 -32.431222 34.275938 0.787168 2.812019 0.134482 -0.041650 408609.000000 0 0 1
6.419276 8.005843 -32.289922 33.881259 0.894944 2.833890 0.123504 -0.044839 673688.000000 0 0 1
5.794376 7.408143 -31.019732 32.414181 0.907027 2.847206 0.119988 -0.028453 -95395.300000 0 0 1
6.306676 8.090343 -29.893942 31.604993 0.908662 2.811035 0.130466 -0.034540 83160.800000 0 0 1
5.980876 7.565943 -28.623432 30.204557 0.901875 2.816599 0.127383 -0.034093 44151.600000 0 0 1
4.586476 7.812343 -28.004682 29.433496 1.039931 2.828729 0.119221 -0.029863 443603.000000 0 0 1
3.506976 7.029343 -28.498332 29.561216 1.108025 2.872621 0.112088 -0.023203 91519.400000 0 0 1
2.309376 7.258443 -27.791332 28.816252 1.262760 2.874085 0.146882 -0.019079 716524.000000 0 0 1
1.056676 6.606543 -28.499852 29.274640 1.412196 2.911012 0.152772 -0.034542 449767.000000 0 0 1
0.768676 7.340343 -29.679202 30.583109 1.466457 2.897861 0.129375 -0.032322 -153993.000000 0 0 1
0.229476 6.498143 -30.665752 31.347518 1.535497 2.932653 0.156897 -0.026687 -317020.000000 0 0 1
-0.077524 7.250643 -32.013792 32.824697 -1.560105 2.918853 0.165509 -0.038756 629726.000000 0 0 1
0.994476 7.923443 -32.724102 33.684370 1.445939 2.902242 0.131552 -0.028362 1144340.000000 0 0 1
2.003976 7.189043 -33.455002 34.277331 1.298943 2.922107 0.136108 -0.039896 773051.000000 0 0 1
1.574976 6.770443 32.467732 33.203510 1.342236 0.210912 0.164716 -0.050557 79356.000000 0 0 1
0.630076 5.712143 32.515840 33.019774 1.460936 0.174932 0.157612 -0.046980 -8919.460000 0 0 1
0.151576 5.294043 31.236246 31.682061 1.542173 0.167956 0.164112 -0.042805 494324.000000 0 0 1
1.195176 4.425143 30.457846 30.800824 1.307003 0.149372 0.163524 -0.045027 533925.000000 0 0 1
0.761776 4.175143 29.130556 29.438095 1.390327 0.144673 0.141117 -0.047686 463772.000000 0 0 1
1.744676 3.413843 28.395566 28.653209 1.098341 0.134203 0.125376 -0.037635 426912.000000 0 0 1
1.666376 3.588743 26.870586 27.160344 1.136086 0.146201 0.118131 -0.031990 145089.000000 0 0 1
2.120676 4.892343 26.518556 27.049328 1.161775 0.198428 0.113490 -0.034844 81154.200000 0 0 1
2.232676 5.029443 25.121406 25.717022 1.153009 0.215640 0.083372 -0.027222 -273010.000000 0 0 1
2.581876 6.472043 24.634046 25.600579 1.191215 0.275660 0.085278 -0.015719 356756.000000 0 0 1
3.926776 6.893143 24.812596 26.049951 1.052981 0.309452 0.095396 -0.011164 208777.000000 0 0 1
4.631176 6.880643 23.585466 25.001305 0.978372 0.338152 0.106050 -0.022649 179894.000000 0 0 1
6.171076 7.144343 23.607016 25.424693 0.858362 0.380424 0.116419 -0.025700 1092810.000000 0 0 1
7.026176 6.260743 24.371216 26.125088 0.727854 0.368507 0.130802 -0.030704 464667.000000 0 0 1
6.965676 4.813143 24.212676 25.650354 0.604647 0.336394 0.135381 -0.031300 -1087260.000000 0 0 1
7.202476 4.223543 22.767426 24.250148 0.530361 0.351500 0.128941 -0.037089 -79024.500000 0 1 0
6.190876 4.319943 21.778816 23.050069 0.609243 0.333666 0.110187 -0.041024 -307812.000000 0 1 0
5.078876 3.486543 22.059116 22.903178 0.601594 0.272331 0.102088 -0.031492 -421255.000000 0 1 0
3.976076 3.770643 21.034716 21.736748 0.758886 0.254843 0.062591 -0.024698 -214264.000000 0 1 0
3.464776 5.100143 21.247416 22.123943 0.974065 0.282430 0.049185 -0.024179 685232.000000 0 1 0
2.229776 5.344343 20.548116 21.348513 1.175532 0.274695 0.028320 -0.016945 950799.000000 0 1 0
1.607476 6.738943 20.703816 21.832209 1.336637 0.322912 0.024762 -0.009137 168259.000000 0 1 0
2.394776 7.663043 20.007316 21.558059 1.267903 0.381609 0.025048 -0.010167 236875.000000 0 1 0
1.669676 8.893143 20.002216 21.953689 1.385208 0.424828 0.036043 -0.021087 514991.000000 0 1 0
2.570676 10.058543 19.559916 22.144367 1.320581 0.487961 0.035343 -0.028406 -543526.000000 0 1 0
2.862576 10.097243 18.197316 21.006927 1.294544 0.523143 0.045600 -0.032926 -69909.900000 0 1 0
3.629176 11.243143 17.742016 21.315683 1.258564 0.587470 0.048816 -0.032538 -108264.000000 0 1 0
5.114976 10.897543 17.848216 21.528545 1.131952 0.593392 0.059606 -0.035926 -969548.000000 0 1 0
5.489076 9.878443 16.971516 20.389849 1.063616 0.587460 0.062541 -0.035680 -33294.000000 0 1 0
6.841276 9.502043 17.159416 20.773479 0.946787 0.598778 0.053824 -0.033746 18067.700000 0 1 0
7.137776 8.084543 17.668716 20.700029 0.847514 0.548016 0.069315 -0.033461 -338683.000000 0 1 0
6.694276 7.726343 18.946816 21.528854 0.856845 0.494795 0.084084 -0.037882 -38899.900000 0 1 0
7.093976 6.418543 19.413416 21.642618 0.735454 0.457862 0.085763 -0.044187 -583431.000000 0 1 0
8.475876 6.197943 19.998916 22.587865 0.631390 0.483479 0.114257 -0.030818 -572610.000000 0 1 0
9.482576 6.281643 18.967116 22.116279 0.585071 0.540194 0.117923 -0.029591 428066.000000 0 1 0
10.734276 5.760243 19.410616 22.916743 0.492514 0.560469 0.120184 -0.021582 214407.000000 0 1 0
10.839876 4.197643 19.242216 22.480792 0.369459 0.543430 0.123969 -0.023662 -450244.000000 0 1 0
9.977976 3.431843 20.050516 22.657466 0.331268 0.484429 0.131160 -0.033587 224751.000000 0 1 0
10.400976 2.058743 19.966416 22.607001 0.195412 0.488162 0.136073 -0.046985 293496.000000 0 1 0
9.728076 1.163643 21.053316 23.221362 0.119051 0.435556 0.147649 -0.041793 144498.000000 0 1 0
10.157876 1.388843 22.344186 24.584019 0.135883 0.430180 0.123552 -0.034798 62249.000000 0 1 0
9.421476 0.566643 23.208536 25.054370 0.060071 0.386254 0.137385 -0.044351 -471893.000000 0 0 1
9.931876 0.670643 24.632446 26.567825 0.067422 0.384054 0.122468 -0.038349 524365.000000 0 0 1
11.258276 0.231743 24.968186 27.390013 0.020581 0.423685 0.109209 -0.037820 660110.000000 0 0 1
11.413476 -1.196257 24.831346 27.354967 -0.104430 0.432918 0.105067 -0.041254 131005.000000 0 0 1
12.899176 -1.670957 24.838456 28.038005 -0.128822 0.482397 0.095344 -0.040349 449183.000000 0 0 1
12.943676 -3.050657 24.422506 27.808345 -0.231463 0.498619 0.105804 -0.033519 -365260.000000 0 0 1
14.246876 -3.551257 24.578216 28.629943 -0.244287 0.538499 0.109799 -0.028533 -246562.000000 0 0 1
14.302976 -5.048857 24.787356 29.059923 -0.339339 0.549140 0.111317 -0.027727 -121665.000000 0 0 1
14.003476 -5.736357 23.578726 28.017128 -0.388787 0.570590 0.121879 -0.036418 226135.000000 0 0 1
13.903976 -7.153057 23.788186 28.466903 -0.475150 0.581493 0.139210 -0.038523 94210.000000 0 0 1
13.461176 -8.001057 22.549426 27.453539 -0.536277 0.606993 0.152319 -0.043092 205793.000000 0 0 1
13.114576 -9.333757 22.923296 28.010509 -0.618541 0.612206 0.160778 -0.033929 -286010.000000 0 0 1
13.068076 -10.101557 21.750516 27.311189 -0.658056 0.649484 0.145607 -0.035874 80147.900000 0 0 1
12.299676 -11.444257 21.777916 27.505103 -0.749387 0.657083 0.161576 -0.032066 388055.000000 0 0 1
10.895776 -11.319857 22.017316 27.048462 -0.804485 0.619799 0.143547 -0.028657 46734.200000 0 0 1
10.316776 -12.552157 21.857016 27.234568 -0.882836 0.639244 0.133762 -0.027629 204277.000000 0 0 1
8.789776 -12.618457 22.185416 26.994042 -0.962369 0.606122 0.110480 -0.018370 609832.000000 0 0 1
8.045176 -11.806857 21.296216 25.644796 -0.972664 0.590917 0.105963 -0.024986 23067.900000 0 0 1
6.687576 -11.757957 21.706416 25.576195 -1.053657 0.557281 0.089628 -0.017984 306350.000000 0 0 1
5.816176 -10.724757 21.015816 24.300470 -1.073874 0.525981 0.082807 -0.022154 -56498.300000 0 1 0
6.124876 -9.370757 21.437316 24.184369 -0.991883 0.481261 0.096865 -0.019876 -104300.000000 0 1 0
5.267476 -8.349957 20.962716 23.171180 -1.008009 0.440147 0.073741 -0.018452 195305.000000 0 1 0
5.693276 -7.049657 21.579616 23.404933 -0.891441 0.397552 0.097859 -0.025435 -59621.000000 0 1 0
4.720576 -6.068057 21.317616 22.661552 -0.909653 0.346122 0.070835 -0.022311 -17370.800000 0 1 0
5.261876 -4.758857 21.381916 22.528214 -0.735242 0.320375 0.107197 -0.045020 238897.000000 0 1 0
-8.621224 -15.606357 -20.383292 27.080666 1.066099 2.422932 0.092086 -0.018366 188324.000000 0 0 1
-7.994424 -14.910557 -19.294592 25.661582 1.078642 2.421715 0.072832 -0.017543 -269298.000000 0 0 1
-7.006724 -14.067957 -19.760192 25.248105 1.108700 2.469693 0.074521 -0.019339 -254424.000000 0 0 1
-6.158424 -13.383857 -18.611092 23.736608 1.139543 2.471988 0.052880 -0.020802 966453.000000 0 1 0
-5.226024 -14.319557 -17.994392 23.583028 1.220859 2.438773 0.057664 -0.018195 400771.000000 0 1 0
-4.487224 -13.676457 -16.993292 22.269994 1.253765 2.438827 0.053403 -0.017169 -221546.000000 0 1 0
-3.557324 -14.690857 -16.266192 22.205063 1.333224 2.392848 0.052377 -0.011532 29389.700000 0 1 0
-2.400924 -14.798657 -17.096692 22.738988 1.409958 2.421685 0.051485 -0.013586 -375684.000000 0 1 0
-1.436024 -15.549057 -16.421792 22.660772 1.478703 2.381365 0.058370 -0.011270 -371241.000000 0 1 0
-0.137024 -15.704057 -17.251692 23.329318 1.562071 2.403102 0.063369 -0.003290 35830.400000 0 1 0
-0.255024 -16.499057 -18.444992 24.748771 1.555341 2.411765 0.095581 -0.021874 -293255.000000 0 1 0
-0.395824 -17.873457 -18.248792 25.546733 1.548654 2.366462 0.089461 -0.011965 -363716.000000 0 0 1
-0.707524 -18.537857 -19.602292 26.988935 1.532648 2.383732 0.104318 -0.028711 -456354.000000 0 0 1
-1.997524 -18.227657 -20.036792 27.160829 1.461644 2.400467 0.122060 -0.032562 -376266.000000 0 0 1
-2.334724 -18.762857 -21.336592 28.508699 1.446999 2.416479 0.123945 -0.036267 -565091.000000 0 0 1
-3.621324 -18.190357 -21.898992 28.697891 1.374286 2.438873 0.127861 -0.041793 -382224.000000 0 0 1
-3.566124 -16.804657 -22.226092 28.091154 1.361688 2.483587 0.107815 -0.045291 -10497.100000 0 0 1
-4.102524 -16.092357 -21.118792 26.866299 1.321177 2.475222 0.087891 -0.031309 396513.000000 0 0 1
-3.038124 -15.055857 -20.577292 25.677499 1.371680 2.500386 0.090530 -0.023029 595162.000000 0 0 1
-2.818624 -14.007257 -21.472992 25.792194 1.372222 2.554471 0.079984 -0.024917 -25239.700000 0 0 1
-1.971524 -13.027057 -20.900992 24.707136 1.420595 2.579140 0.072431 -0.019406 18004.200000 0 1 0
-1.761724 -11.864457 -21.945692 25.009646 1.423386 2.641398 0.085885 -0.025369 -44052.900000 0 0 1
-2.896624 -11.078457 -22.257192 25.030087 1.315057 2.666428 0.082380 -0.023557 143352.000000 0 0 1
-2.767424 -10.352757 -23.500992 25.828954 1.309591 2.713767 0.102265 -0.020956 97500.600000 0 0 1
-3.827524 -9.209957 -23.647592 25.664798 1.176927 2.742469 0.071509 -0.016167 -284206.000000 0 0 1
-5.168024 -9.609457 -23.571192 25.974049 1.077363 2.708066 0.080665 -0.023819 -211463.000000 0 0 1
-5.856124 -8.396857 -23.810292 25.917782 0.961805 2.735536 0.066627 -0.018267 81311.900000 0 0 1
-7.368724 -8.236057 -23.392692 25.871776 0.840922 2.700248 0.062485 -0.026628 1567310.000000 0 0 1
-8.427724 -8.658957 -24.269292 27.110932 0.798930 2.679642 0.079366 -0.022843 715852.000000 0 0 1
-8.471324 -7.957957 -25.459922 27.987498 0.754161 2.713331 0.078106 -0.031019 -889094.000000 0 0 1
-9.593224 -8.351957 -26.434812 29.335719 0.716338 2.693127 0.064012 -0.027588 -10590.000000 0 0 1
-10.154224 -7.205557 -27.054182 29.781825 0.617148 2.710267 0.077249 -0.039389 -392236.000000 0 0 1
-11.222524 -7.542857 -27.874602 30.981175 0.591767 2.689940 0.069478 -0.034278 -580533.000000 0 0 1
-12.036224 -6.428057 -28.497142 31.595533 0.490522 2.695027 0.060136 -0.040205 90648.500000 0 0 1
-11.262624 -5.571857 -29.315432 31.894935 0.459416 2.736650 0.039410 -0.032434 244260.000000 0 0 1
-12.131924 -5.060757 -30.326562 33.052915 0.395198 2.732584 0.066553 -0.030502 186054.000000 0 0 1
-11.583924 -3.915557 -31.137482 33.452379 0.325959 2.767392 0.060333 -0.029352 652314.000000 0 0 1
-10.493524 -4.266957 -32.035412 33.979238 0.386207 2.801710 0.050751 -0.025545 905917.000000 0 0 1
-9.967524 -3.068857 -32.565552 34.194804 0.298675 2.831659 0.050788 -0.021211 -289244.000000 0 0 1
-8.856124 -3.263457 -33.609162 34.909266 0.353057 2.867820 0.048494 -0.022705 548007.000000 0 0 1
-7.596424 -3.613757 -32.992042 34.047610 0.444034 2.891936 0.052351 -0.027497 392356.000000 0 0 1
-6.757924 -4.104857 33.358236 34.282522 0.545853 0.232735 0.043522 -0.023185 -100161.000000 0 0 1
-5.278724 -3.786157 33.665136 34.286168 0.622209 0.190621 0.100488 -0.039059 -106873.000000 0 0 1
-4.939624 -2.414657 33.478086 33.926579 0.454675 0.162780 0.137624 -0.055308 102543.000000 0 0 1
-3.571624 -2.166057 -33.635332 33.893714 0.545158 3.018037 0.146172 -0.053727 155730.000000 0 0 1
-3.334224 -0.696457 -33.126612 33.301269 0.205920 3.039129 0.154624 -0.055405 -109308.000000 0 0 1
-3.527324 -0.571157 -31.739392 31.939901 0.160530 3.029483 0.164546 -0.054107 25848.800000 0 0 1
-3.745324 0.811343 -31.433942 31.666677 -0.213332 3.020279 0.186519 -0.058848 -688019.000000 0 0 1
-4.312124 0.997243 -30.023722 30.348193 -0.227269 2.995232 0.186532 -0.066937 460250.000000 0 0 1
-5.508424 0.247343 -29.819672 30.325184 -0.044873 2.958747 0.155134 -0.066583 -127676.000000 0 0 1
-6.667724 0.965343 -30.113412 30.857868 -0.143779 2.921488 0.140054 -0.066445 -1686420.000000 0 0 1
-7.859824 0.093143 -30.304232 31.307060 -0.011850 2.887803 0.115037 -0.066568 -1081860.000000 0 0 1
-8.370124 -0.416857 -29.098092 30.280880 0.049762 2.861173 0.103596 -0.050773 -749014.000000 0 0 1
-9.537924 -1.126757 -29.303732 30.837482 0.117589 2.824877 0.067676 -0.041733 -584402.000000 0 0 1
-9.822624 -2.075057 -28.078862 29.819663 0.208192 2.798213 0.074340 -0.044150 -32163.200000 0 0 1
-10.481224 -1.347657 -27.045722 29.036930 0.127877 2.769105 0.076473 -0.037196 264459.000000 0 0 1
-10.609624 -2.200757 -25.927782 28.100842 0.204530 2.745743 0.069459 -0.039391 -211388.000000 0 0 1
-11.376224 -1.539857 -24.794092 27.322823 0.134540 2.707971 0.083575 -0.037012 -372850.000000 0 0 1
-10.739424 -0.431757 -24.275792 26.548743 0.040181 2.724784 0.082039 -0.036448 -222523.000000 0 0 1
-11.431024 0.105043 -23.204592 25.867595 -0.009189 2.683850 0.099057 -0.047899 203453.000000 0 0 1
-10.573224 1.292043 -22.603792 24.987874 -0.121597 2.701214 0.099505 -0.050423 411663.000000 0 1 0
-10.353624 2.332643 -23.496792 25.782514 -0.221597 2.717339 0.100517 -0.048153 -303519.000000 0 0 1
-9.743424 3.433043 -22.927692 25.147548 -0.338762 2.718264 0.080947 -0.043313 -474320.000000 0 0 1
-9.719524 4.638643 -23.858092 26.176224 -0.445283 2.717570 0.111535 -0.046573 248992.000000 0 0 1
-11.004524 5.250743 -23.925592 26.853376 -0.445196 2.670277 0.133297 -0.040106 183135.000000 0 0 1
-11.611824 4.828843 -25.123992 28.095679 -0.394100 2.677504 0.121617 -0.039653 381473.000000 0 0 1
-13.118824 5.187543 -25.363752 29.022992 -0.376558 2.634004 0.122595 -0.024304 806748.000000 0 0 1
-13.290624 6.581743 -25.505092 29.503725 -0.459814 2.614892 0.110173 -0.021583 -444069.000000 0 0 1
-14.658024 6.871843 -25.518692 30.220582 -0.438387 2.576267 0.124440 -0.027225 -327692.000000 0 0 1
-15.030024 8.308143 -25.983912 31.146277 -0.504967 2.557575 0.128856 -0.015551 6063.700000 0 0 1
-14.791224 9.256043 -24.985492 30.475063 -0.559160 2.531975 0.166101 -0.031129 242579.000000 0 0 1
-15.543724 10.418243 -25.249752 31.427649 -0.590482 2.503821 0.137082 -0.027250 -140208.000000 0 0 1
-15.458524 11.426843 -24.093592 30.822717 -0.636549 2.468156 0.139967 -0.035406 -107776.000000 0 0 1
-16.097224 11.011043 -22.912992 30.089349 -0.599930 2.436418 0.174219 -0.037140 -37327.600000 0 0 1
-15.866524 12.054143 -21.949192 29.644831 -0.649694 2.404470 0.164720 -0.034729 726.773000 0 0 1
-16.627724 11.918343 -20.617092 29.044666 -0.621896 2.360069 0.167865 -0.037880 837858.000000 0 0 1
-17.996524 12.360543 -20.660292 30.058370 -0.601832 2.328616 0.141170 -0.032057 712657.000000 0 0 1
-18.437124 12.759543 -19.395592 29.646627 -0.605375 2.283955 0.125157 -0.019639 -338268.000000 0 0 1
-19.900924 13.216043 -19.472992 30.820578 -0.586218 2.254693 0.113029 -0.026625 -371730.000000 0 0 1
-20.143924 14.362643 -20.258192 31.975890 -0.619398 2.256924 0.093808 -0.030109 -230864.000000 0 0 1
-21.511424 14.565043 -20.468892 33.073515 -0.595180 2.238126 0.071136 -0.029001 -369820.000000 0 0 1
-21.845824 15.898943 -21.189492 34.336730 -0.629128 2.235859 0.079365 -0.028930 -29022.400000 0 0 1
-21.561524 15.859843 -22.587392 35.023196 -0.634197 2.271724 0.079985 -0.026289 249220.000000 0 0 1
-21.956524 17.062343 -23.207992 36.219103 -0.660619 2.266293 0.075158 -0.014547 -18518.500000 0 0 1
-21.623624 16.976443 -24.778992 37.010528 -0.665582 2.304348 0.065908 -0.007434 136686.000000 0 0 1
-20.254524 16.715243 -25.046592 36.290176 -0.689955 2.332528 0.049781 -0.016451 141316.000000 0 0 1
-20.016124 16.470443 -26.398562 36.997362 -0.688525 2.365314 0.031089 -0.014840 -32523.100000 0 0 1
-19.280124 17.580243 -27.199622 37.690948 -0.739314 2.376977 0.018600 0.000302 -77694.100000 0 0 1
-20.146024 18.721643 -27.337572 38.777636 -0.748768 2.353195 0.022608 -0.007728 751270.000000 0 0 1
-19.490024 19.936943 -27.078742 38.866451 -0.796733 2.341601 0.007667 -0.008848 -811538.000000 0 0 1
-20.428324 21.169143 -27.207792 40.071349 -0.803206 2.317174 0.062488 -0.008138 386042.000000 0 0 1
-21.285924 21.373343 -26.081562 39.876788 -0.787447 2.283727 0.090673 -0.006096 406164.000000 0 0 1
-22.534724 20.739043 -26.122502 40.253035 -0.743926 2.277010 0.125928 -0.011593 -237735.000000 0 0 1
-23.603824 21.076043 -25.058592 40.364256 -0.728883 2.240574 0.151195 0.001833 234843.000000 0 0 1
-23.305824 20.382643 -23.871092 39.095302 -0.718588 2.227598 0.117015 -0.000163 1013940.000000 0 0 1
-24.234624 20.789943 -22.813892 39.242992 -0.709040 2.191183 0.113685 -0.009512 744981.000000 0 0 1
-23.791324 20.129043 -21.487292 37.853787 -0.702206 2.174432 0.105675 -0.008815 630975.000000 0 0 1
-22.603624 20.813043 -21.044792 37.242313 -0.744180 2.171323 0.095590 -0.008208 409686.000000 0 0 1
-21.806824 20.106043 -20.098992 35.829597 -0.744841 2.166342 0.077846 -0.008306 -139607.000000 0 0 1
-22.418024 19.591343 -18.760192 35.189961 -0.718213 2.133071 0.093809 -0.024054 -464296.000000 0 0 1
-23.249824 18.415943 -18.842992 35.139147 -0.669899 2.136772 0.114040 -0.030529 531532.000000 0 0 1
-23.978624 18.067043 -17.679592 34.841935 -0.645715 2.102988 0.110950 -0.034103 83101.800000 0 0 1
-25.173864 18.919543 -17.207892 35.885709 -0.644496 2.070903 0.105532 -0.027483 -1316110.000000 0 0 1
-26.290364 18.779543 -17.999492 36.984270 -0.620267 2.079081 0.105808 -0.024262 -1041810.000000 0 0 1
-27.123624 19.861143 -17.706592 37.995782 -0.632041 2.055577 0.091794 -0.017081 -964892.000000 0 0 1
-28.485894 19.757643 -18.450192 39.271112 -0.606414 2.059879 0.066557 0.003266 435645.000000 0 0 1
-29.319224 18.629243 -18.135192 39.186105 -0.566038 2.051944 0.042598 -0.004679 462079.000000 0 0 1
-29.728934 18.473743 -16.778392 38.814986 -0.556011 2.017800 0.054213 -0.001133 -729382.000000 0 0 1
-30.844744 17.460043 -16.459392 39.078932 -0.515091 2.005546 0.048462 -0.001328 -144870.000000 0 0 1
-30.386344 16.131843 -16.654592 38.222267 -0.488054 2.021646 0.079788 -0.013098 368942.000000 0 0 1
-31.222724 15.104743 -16.044192 38.215545 -0.450583 2.004059 0.076133 -0.011209 676469.000000 0 0 1
-30.474784 13.893543 -15.311892 36.826581 -0.427752 1.999601 0.134944 -0.010315 241404.000000 0 0 1
-29.739964 14.261543 -14.145892 35.888206 -0.447147 1.975956 0.160336 -0.011660 127483.000000 0 0 1
-30.509534 14.752143 -13.023992 36.305396 -0.450381 1.937708 0.120848 -0.005921 269604.000000 0 0 1
-29.674304 15.327343 -11.837892 35.434834 -0.476775 1.911420 0.153016 -0.017114 249064.000000 0 0 1
-29.426194 16.751243 -11.837092 35.869511 -0.517512 1.907104 0.146781 -0.013156 357579.000000 0 0 1
-30.528094 17.424243 -11.242792 36.904867 -0.518643 1.880359 0.106809 -0.011025 398037.000000 0 0 1
-30.377964 18.924043 -11.489892 37.589330 -0.557126 1.881437 0.172488 -0.010836 -80223.200000 0 0 1
-29.477424 19.539543 -10.598192 36.919290 -0.585366 1.861957 0.123457 -0.022043 -115099.000000 0 0 1
-29.325654 20.884343 -10.759492 37.575477 -0.618836 1.861205 0.076514 -0.022626 -624760.000000 0 0 1
-27.942924 21.286443 -10.276492 36.599535 -0.651000 1.855405 0.137479 -0.023743 -445288.000000 0 0 1
-27.767674 22.659243 -10.245492 37.275396 -0.684439 1.849240 0.160004 -0.028778 42432.800000 0 0 1
-26.398594 22.793143 -9.886792 36.251370 -0.712235 1.847025 0.148361 -0.009084 36878.200000 0 0 1
-26.090374 24.210343 -9.302692 36.788428 -0.748040 1.826442 0.192584 -0.005024 -140927.000000 0 0 1
-26.617514 24.320043 -7.993592 36.930395 -0.740325 1.788973 0.160678 -0.013980 291115.000000 0 0 1
-27.998584 24.650743 -7.958292 38.143339 -0.721896 1.780982 0.202115 -0.025214 35072.300000 0 0 1
-28.609924 24.407643 -6.573092 38.176778 -0.706301 1.743834 0.194924 -0.026138 -66775.100000 0 0 1
-28.672794 23.028343 -6.365992 37.322374 -0.676654 1.742202 0.206311 -0.037157 -44253.900000 0 0 1
-29.146504 22.613243 -5.106292 37.241801 -0.659839 1.708341 0.156913 -0.032372 -359069.000000 0 0 1
-29.298424 21.045543 -5.051892 36.425735 -0.622913 1.709935 0.169169 -0.036640 315785.000000 0 0 1
-28.102554 20.265643 -4.969092 35.002025 -0.624768 1.713243 0.171850 -0.035615 521816.000000 0 0 1
-27.325574 20.209143 -6.171392 34.542475 -0.636792 1.750422 0.168427 -0.032718 -286063.000000 0 0 1
-27.802934 19.192943 -7.261992 34.555879 -0.604200 1.782527 0.183223 -0.031416 -338358.000000 0 0 1
-27.636894 17.803743 -6.981592 33.608241 -0.572289 1.780055 0.174112 -0.029834 182957.000000 0 0 1
-27.866264 17.106043 -8.176292 33.704557 -0.550550 1.815828 0.146576 -0.030979 17327.400000 0 0 1
-27.534674 15.612243 -8.161892 32.688177 -0.515804 1.823156 0.191903 -0.033844 663781.000000 0 0 1
-28.502524 14.877743 -7.380092 32.987981 -0.481076 1.796427 0.172373 -0.022422 490486.000000 0 0 1
-28.589064 13.555743 -7.950992 32.623781 -0.442761 1.816994 0.186721 -0.042681 695775.000000 0 0 1
-29.593314 12.631643 -7.135592 32.958145 -0.403429 1.789029 0.158323 -0.038878 2157100.000000 0 0 1
-31.012794 12.777443 -7.453492 34.360021 -0.390813 1.789458 0.176704 -0.030435 1480430.000000 0 0 1
-31.815574 11.793243 -6.830692 34.611699 -0.354974 1.769453 0.191605 -0.040053 229112.000000 0 0 1
-32.380104 10.653343 -7.725492 34.952083 -0.317854 1.793668 0.156531 -0.030286 -260599.000000 0 0 1
-31.367614 9.800043 -8.179092 33.865405 -0.302817 1.814726 0.192997 -0.031147 202468.000000 0 0 1
-31.913754 8.523743 -8.526292 34.115093 -0.260995 1.823401 0.139350 -0.017006 -174500.000000 0 0 1
-30.776644 7.523143 -8.668192 32.847178 -0.239742 1.837854 0.210803 -0.022492 -265443.000000 0 0 1
-29.882984 7.812143 -9.707392 32.376779 -0.255702 1.875306 0.218906 -0.048992 290539.000000 0 0 1
-28.844854 6.827943 -9.744292 31.202527 -0.232434 1.888401 0.248922 -0.059739 57295.900000 0 0 1
-27.896994 6.931543 -10.948292 30.759611 -0.243537 1.934706 0.230365 -0.051418 -175554.000000 0 0 1
-26.968774 7.990043 -10.793592 30.127350 -0.288031 1.937206 0.257056 -0.055824 454384.000000 0 0 1
-26.007924 8.007643 -11.844392 29.678681 -0.298682 1.981318 0.221167 -0.036746 170131.000000 0 0 1
-33.128224 25.413143 -33.325702 53.421995 -0.654365 2.244417 0.083057 -0.016980 -149923.000000 0 0 1
-33.506174 26.752543 -33.552942 54.444120 -0.673787 2.234809 0.090030 -0.031467 386909.000000 0 0 1
-33.238124 27.103043 32.479649 53.798471 -0.684073 0.922627 0.085570 -0.033443 -83166.500000 0 0 1
-33.480834 28.590043 32.257287 54.579203 -0.706767 0.938476 0.096639 -0.037691 5377.720000 0 0 1
-33.308964 28.977343 30.905006 53.891492 -0.715966 0.960064 0.103957 -0.035637 204086.000000 0 0 1
-33.595774 30.348943 30.618056 54.655281 -0.734666 0.976165 0.111812 -0.042468 -82238.000000 0 0 1
-33.344294 30.808643 29.186046 53.970731 -0.745894 0.999438 0.106753 -0.048573 -488652.000000 0 0 1
-31.966764 30.824743 28.987586 53.031302 -0.767213 0.992482 0.106670 -0.043903 -601182.000000 0 0 1
-31.681084 31.373943 27.735686 52.509844 -0.780527 1.014317 0.081380 -0.046730 -78814.900000 0 0 1
-30.209484 31.417143 27.272706 51.414496 -0.804992 1.011668 0.096915 -0.042729 -236995.000000 0 0 1
-29.826754 30.107343 26.827186 50.157605 -0.790080 1.006457 0.127107 -0.041845 328508.000000 0 0 1
-28.817134 30.092543 25.821766 49.017874 -0.807045 1.015985 0.091865 -0.031311 -89420.100000 0 0 1
-29.287594 30.679743 24.472196 48.968339 -0.808609 1.047480 0.097340 -0.027896 -211026.000000 0 0 1
-29.250404 32.091443 24.389586 49.802598 -0.831680 1.059022 0.083156 -0.035643 -65899.100000 0 0 1
-30.407134 32.701543 23.866216 50.631818 -0.821739 1.079955 0.096984 -0.036465 -142024.000000 0 0 1
-30.527544 -33.493662 24.354236 51.447888 0.831695 1.077676 0.088268 -0.021314 -107935.000000 0 0 1
-30.971974 -33.431662 25.698586 52.319753 0.823571 1.057349 0.090732 -0.034494 -11316.800000 0 0 1
-30.931024 -32.087062 26.148956 51.672776 0.803741 1.040199 0.067621 -0.030289 -236924.000000 0 0 1
-31.406894 -31.900262 27.571366 52.575660 0.793191 1.018771 0.073674 -0.033936 -822290.000000 0 0 1
-32.755244 -32.227162 27.741786 53.675905 0.777272 1.027642 0.068308 -0.035478 -413196.000000 0 0 1
-33.027094 -32.409062 29.169066 54.698910 0.775954 1.008340 0.064537 -0.035844 -44762.300000 0 0 1
-34.499691 -32.701462 29.520786 55.956154 0.758646 1.015059 0.086348 -0.035773 122249.000000 0 0 1
-34.810963 -32.869062 30.888946 56.976359 0.756714 0.997819 0.101141 -0.041402 -767276.000000 0 0 1
-36.175934 -32.986862 31.119026 58.010561 0.739321 1.004586 0.101414 -0.039882 -811675.000000 0 0 1
-36.579754 -33.382062 32.533545 59.252613 0.739724 0.989551 0.120965 -0.021433 -24113.000000 0 0 1
-36.387174 32.881443 32.783347 58.991217 -0.734831 0.981552 0.119969 -0.020460 -186930.000000 0 0 1
-37.298104 32.385243 -33.642112 59.764072 -0.715012 2.168705 0.120893 -0.019822 53801.900000 0 0 1
-37.126904 30.967843 -33.156412 58.623903 -0.695195 2.171931 0.110836 -0.023756 439360.000000 0 0 1
-36.000434 30.795543 -32.302872 57.339971 -0.707633 2.169240 0.114184 -0.027002 -36559.500000 0 0 1
-35.924060 29.405643 -31.878682 56.315898 -0.685950 2.172526 0.110149 -0.027807 326700.000000 0 0 1
-34.909105 29.059643 -30.757042 54.855302 -0.694209 2.166020 0.092176 -0.021830 205554.000000 0 0 1
-35.306321 29.501643 -29.446002 54.625546 -0.696069 2.140107 0.105003 -0.031361 -222525.000000 0 0 1
-35.380326 30.866143 -29.268162 55.327313 -0.717361 2.128218 0.098275 -0.024218 -5719.770000 0 0 1
-36.380034 31.204743 -28.136022 55.577681 -0.708973 2.101623 0.087436 -0.016934 325155.000000 0 0 1
-36.028394 30.708243 -26.811352 54.404871 -0.705848 2.086114 0.072889 -0.030527 373186.000000 0 0 1
-37.155394 30.863243 -25.947962 54.830282 -0.693154 2.063763 0.090779 -0.027079 408108.000000 0 0 1
-36.835474 30.475543 -24.485692 53.713686 -0.691192 2.044130 0.091945 -0.035753 -205005.000000 0 0 1
-36.257694 31.581643 -23.782892 53.643700 -0.716579 2.030128 0.095534 -0.031802 982.323000 0 0 1
-36.329244 31.430443 -22.411792 53.009199 -0.713227 2.007319 0.089086 -0.033651 -22263.000000 0 0 1
-37.646084 31.157043 -21.633992 53.441731 -0.691363 1.987572 0.074740 -0.020767 300779.000000 0 0 1
37.200120 32.226843 -21.457392 53.692067 0.713887 1.981918 0.088624 -0.020224 359025.000000 0 0 1
37.608650 33.396443 -20.633492 54.364271 0.726145 1.960097 0.093936 -0.022657 -163086.000000 0 0 1
37.832930 33.172943 -19.140692 53.834383 0.719864 1.934296 0.100952 -0.018755 565958.000000 0 0 1
-36.794484 32.378043 -18.840692 52.508508 -0.721638 1.937791 0.097562 -0.027259 338807.000000 0 0 1
-36.374594 32.438243 -17.465692 51.772591 -0.728257 1.914901 0.093401 -0.015390 -205163.000000 0 0 1
-35.163458 31.529543 -17.258192 50.283457 -0.730965 1.921137 0.103935 -0.029814 -227912.000000 0 0 1
-34.953077 31.252343 -15.891092 49.507104 -0.729559 1.897567 0.085031 -0.013192 -257036.000000 0 0 1
-33.750224 30.559143 -15.687492 48.156373 -0.735818 1.902613 0.095330 -0.012373 -299011.000000 0 0 1
-33.488804 30.176543 -14.189992 47.259704 -0.733419 1.875757 0.109410 -0.015094 -62806.200000 0 0 1
-34.549027 29.482343 -13.591092 47.408455 -0.706435 1.861557 0.086010 0.000311 132517.000000 0 0 1
-34.092958 29.036143 -12.351792 46.454216 -0.705466 1.839925 0.128328 -0.000042 -539461.000000 0 0 1
-35.162439 28.217843 -11.702792 46.578956 -0.676263 1.824764 0.115855 -0.008757 -655909.000000 0 0 1
-34.912440 27.822943 -10.358992 45.829066 -0.672869 1.798802 0.144187 -0.006046 494507.000000 0 0 1
-36.020424 27.088643 -9.856192 46.134695 -0.644803 1.786095 0.167673 -0.023839 555176.000000 0 0 1
-35.457735 26.303743 -8.623192 44.983301 -0.638254 1.763688 0.172126 -0.022724 262768.000000 0 0 1
-35.025811 27.261643 -7.664992 45.041722 -0.661387 1.741804 0.179441 -0.025424 430828.000000 0 0 1
-33.869284 26.686343 -7.043392 43.690945 -0.667333 1.732712 0.179038 -0.029178 214422.000000 0 0 1
-33.363354 27.493743 -5.793492 43.618619 -0.689246 1.704012 0.192211 -0.037396 -656123.000000 0 0 1
-32.398564 26.722343 -5.199592 42.317684 -0.689681 1.693978 0.210295 -0.036773 -537381.000000 0 0 1
-31.917214 27.225743 -3.967092 42.138907 -0.706240 1.665079 0.200813 -0.032401 415869.000000 0 0 1
-30.838884 26.305543 -3.335792 40.671193 -0.706233 1.652907 0.207558 -0.042596 122242.000000 0 0 1
-31.498924 25.161843 -2.970392 40.424297 -0.674019 1.644343 0.191476 -0.037612 811474.000000 0 0 1
-30.595114 24.270943 -2.221392 39.116164 -0.670639 1.627617 0.177267 -0.039862 1183820.000000 0 0 1
-31.375084 23.041043 -1.639292 38.961171 -0.633425 1.612884 0.164451 -0.041220 115437.000000 0 0 1
-31.880384 22.220743 -2.649592 38.950490 -0.608712 1.638874 0.171464 -0.040471 132550.000000 0 0 1
-32.844384 21.336743 -2.055392 39.220337 -0.576116 1.623227 0.157376 -0.041842 329752.000000 0 0 1
-33.332824 20.385343 -3.193592 39.202531 -0.548883 1.652351 0.192875 -0.032061 -305231.000000 0 0 1
-32.385474 19.425343 -3.568192 37.932768 -0.540285 1.665002 0.176875 -0.036902 -414293.000000 0 0 1
-32.635624 18.774143 -4.788392 37.953671 -0.522034 1.697298 0.172854 -0.031712 25731.800000 0 0 1
-31.613544 17.678843 -5.222892 36.595577 -0.509892 1.714005 0.156324 -0.035854 156314.000000 0 0 1
-31.567574 16.620843 -4.345392 35.939485 -0.484635 1.692001 0.185798 -0.040628 93371.200000 0 0 1
-30.825634 15.558443 -4.912592 34.877191 -0.467420 1.712120 0.178498 -0.045703 -215201.000000 0 0 1
-30.567114 14.414943 -3.960992 34.026880 -0.440657 1.687469 0.182345 -0.044883 -597421.000000 0 0 1
-31.694894 13.787143 -3.458292 34.736313 -0.410307 1.670520 0.180025 -0.044258 -158505.000000 0 0 1
-31.307894 12.573943 -2.827192 33.856777 -0.381904 1.654398 0.178543 -0.052194 879652.000000 0 0 1
-32.583544 11.821243 -2.280592 34.736584 -0.348030 1.636497 0.164379 -0.041105 510623.000000 0 0 1
-33.393944 11.235043 -3.246492 35.382502 -0.324544 1.662680 0.154440 -0.020833 -300887.000000 0 0 1
-34.501536 10.598543 -2.676092 36.191803 -0.298040 1.644806 0.162306 -0.020165 -424732.000000 0 0 1
-35.396650 10.010043 -3.776492 36.978179 -0.275600 1.673102 0.120323 -0.014786 -275778.000000 0 0 1
-34.829158 8.933543 -4.458292 36.231959 -0.251083 1.694158 0.105985 -0.011177 559536.000000 0 0 1
-35.788498 8.407643 -5.385092 37.155138 -0.230742 1.716244 0.124499 -0.009896 168368.000000 0 0 1
-35.198545 7.537843 -6.451992 36.570273 -0.210966 1.748152 0.138362 -0.022664 -239954.000000 0 0 1
-34.489089 6.387243 -6.024192 35.589114 -0.183121 1.740886 0.119137 -0.015935 423317.000000 0 0 1
-34.048303 5.563943 -7.073692 35.217631 -0.161982 1.773029 0.115811 -0.019778 -288369.000000 0 0 1
-33.071864 4.417243 -6.709492 34.033477 -0.132779 1.769240 0.136434 -0.028306 1185150.000000 0 0 1
-31.694374 4.899743 -6.702192 32.763703 -0.153379 1.776812 0.163037 -0.032820 1264000.000000 0 0 1
-30.888284 3.886343 -6.140792 31.731674 -0.125162 1.765548 0.165366 -0.035457 922605.000000 0 0 1
-29.432454 4.385543 -5.764192 30.310531 -0.147915 1.762133 0.229997 -0.038593 901426.000000 0 0 1
-28.589924 4.838543 -6.787392 29.780261 -0.167651 1.800733 0.228493 -0.032805 -89500.700000 0 0 1
-27.252434 4.692043 -6.358392 28.374982 -0.170498 1.796800 0.259245 -0.039606 270354.000000 0 0 1
-26.250714 5.142243 -7.466392 27.772103 -0.193440 1.842990 0.263970 -0.048536 -68968.900000 0 0 1
-26.328574 4.286043 -8.612992 28.031190 -0.161375 1.883114 0.245264 -0.053279 -166639.000000 0 0 1
-25.237594 4.322843 -9.476192 27.302406 -0.169640 1.925255 0.246715 -0.054117 -526124.000000 0 0 1
-25.352404 3.409243 -10.729792 27.739787 -0.133672 1.967957 0.213294 -0.065844 -382249.000000 0 0 1
-26.250264 3.968943 -11.643692 28.989730 -0.150060 1.984113 0.236754 -0.048043 197566.000000 0 0 1
-26.404774 3.200243 -12.813092 29.523364 -0.120611 2.019723 0.224191 -0.048948 57890.600000 0 0 1
-27.236184 3.861243 -13.927392 30.833281 -0.140830 2.039466 0.195851 -0.039771 -577688.000000 0 0 1
-26.564984 4.937143 -14.477092 30.653874 -0.183755 2.062668 0.169036 -0.036245 525760.000000 0 0 1
-27.347534 5.990543 -15.154692 31.834556 -0.215646 2.066949 0.174096 -0.043347 513489.000000 0 0 1
-28.194224 5.524643 -16.408092 33.085669 -0.193498 2.089699 0.141056 -0.016341 181053.000000 0 0 1
-29.401884 4.895943 -16.052692 33.854542 -0.165004 2.064814 0.170861 -0.038706 -223399.000000 0 0 1
-30.144194 4.471843 -17.171392 34.978944 -0.147274 2.083926 0.166198 -0.022513 -67331.200000 0 0 1
-31.631864 4.217343 -16.825892 36.075913 -0.132544 2.056016 0.168495 -0.027823 51261.000000 0 0 1
-31.945774 3.083943 -16.042892 35.880602 -0.096239 2.034338 0.173361 -0.034786 74170.400000 0 0 1
-31.687014 1.845443 -16.737792 35.883509 -0.058174 2.056067 0.197829 -0.033969 -286038.000000 0 0 1
-32.129334 0.606243 -15.982292 35.890045 -0.018867 2.032320 0.188117 -0.033456 -163156.000000 0 0 1
-31.761684 -0.560457 -16.670992 35.875349 0.017644 2.054083 0.178879 -0.020985 125942.000000 0 0 1
-32.007384 -1.701257 -15.925292 35.790807 0.053102 2.031920 0.175375 -0.032602 89178.600000 0 0 1
-31.637094 -3.008757 -16.682692 35.892486 0.094817 2.054201 0.164436 -0.019224 377878.000000 0 0 1
-32.611014 -3.167457 -17.711392 37.245194 0.096825 2.066368 0.168063 -0.024340 472107.000000 0 0 1
-32.481304 -4.410057 -18.335492 37.558941 0.134947 2.080799 0.167423 -0.025882 254921.000000 0 0 1
-33.483564 -4.649857 -19.511192 39.031486 0.137987 2.094260 0.189229 -0.029890 238232.000000 0 0 1
-33.253314 -5.886157 -20.092592 39.295573 0.175195 2.107516 0.182891 -0.028465 27919.100000 0 0 1
-34.106205 -6.097957 -21.181192 40.608635 0.176924 2.119514 0.184839 -0.031299 -492684.000000 0 0 1
-33.707794 -7.216357 -22.107092 40.951370 0.210902 2.141041 0.174445 -0.029089 274393.000000 0 0 1
-32.596994 -6.905857 -22.963592 40.467042 0.208769 2.174219 0.171016 -0.026412 426952.000000 0 0 1
-32.475194 -7.801457 -24.072892 41.170440 0.235761 2.195323 0.147239 -0.022052 1680670.000000 0 0 1
-31.066964 -7.643557 -24.865892 40.520277 0.241243 2.231491 0.137228 -0.016147 1300920.000000 0 0 1
-30.864044 -6.474057 -25.699102 40.681034 0.206763 2.254569 0.141754 -0.024964 -69163.400000 0 0 1
-31.046314 -6.669157 -27.081952 41.734679 0.211598 2.276944 0.111822 -0.026287 -202035.000000 0 0 1
-32.506354 -6.740057 -27.572982 43.155078 0.204449 2.263900 0.134489 -0.019960 -244972.000000 0 0 1
-33.198444 -7.852657 -27.058582 43.542712 0.232268 2.241358 0.115109 -0.020682 -1057070.000000 0 0 1
-34.465945 -8.012057 -27.580182 44.863804 0.228406 2.232870 0.097306 -0.022054 -310911.000000 0 0 1
-35.312954 -9.190957 -27.018882 45.403727 0.254622 2.208162 0.087381 -0.026631 -307565.000000 0 0 1
-34.775373 -10.425557 -27.405142 45.486928 0.291271 2.217406 0.096792 -0.021592 -439018.000000 0 0 1
-35.592173 -11.557157 -27.216012 46.271827 0.313970 2.199599 0.097343 -0.016766 -396285.000000 0 0 1
-36.751514 -11.695457 -28.222802 47.791046 0.308097 2.202531 0.071071 -0.015249 -311847.000000 0 0 1
-37.776654 -10.793357 -27.854772 48.160778 0.278300 2.187526 0.070738 -0.017881 -265055.000000 0 0 1
36.972240 -10.742457 -28.819582 48.092777 -0.282769 2.213360 0.073337 -0.026353 134804.000000 0 0 1
36.074650 -9.487457 -28.633562 47.024176 -0.257171 2.225484 0.072187 -0.013549 -259818.000000 0 0 1
35.211460 -9.562657 -27.528942 45.707045 -0.265182 2.217164 0.057117 -0.007414 -355000.000000 0 0 1
34.480680 -8.364657 -27.477922 44.876731 -0.237992 2.229760 0.015361 -0.001094 213525.000000 0 0 1
33.096340 -8.629657 -26.801222 43.452781 -0.255064 2.235454 0.013532 -0.003667 313762.000000 0 0 1
33.083670 -8.863657 -25.404082 42.643417 -0.261769 2.208974 0.004686 0.010108 -185948.000000 0 0 1
31.781850 -9.243757 -25.038092 41.502278 -0.283041 2.218422 -0.011389 0.015802 -192451.000000 0 0 1
31.665720 -9.515657 -23.509292 40.570339 -0.291919 2.188874 -0.021664 0.015345 -32212.000000 0 0 1
32.416800 -10.635957 -23.117392 41.211483 -0.317033 2.166324 -0.028996 0.009665 49756.500000 0 0 1
32.431640 -10.709657 -21.720392 40.475714 -0.318948 2.137232 -0.011006 0.000408 -167129.000000 0 0 1
33.307970 -11.784457 -21.045692 41.124390 -0.340059 2.108025 0.025934 0.000683 -511937.000000 0 0 1
34.666980 -11.512057 -21.232792 42.251135 -0.320618 2.097328 0.044907 -0.004075 -625692.000000 0 0 1
35.453800 -12.335457 -20.416092 42.731163 -0.334830 2.068922 0.094791 -0.007858 1097840.000000 0 0 1
36.972260 -12.460557 -20.888392 44.255377 -0.325069 2.062351 0.128972 -0.024122 1153770.000000 0 0 1
37.717940 -11.246257 -20.989292 44.605736 -0.289775 2.060712 0.152738 -0.017006 389581.000000 0 0 1
37.401600 -10.336557 -22.043092 44.627592 -0.269636 2.087405 0.144420 -0.015651 -620561.000000 0 0 1
-37.689524 -10.603857 -23.439192 45.632639 0.274258 2.110229 0.104331 -0.016849 217274.000000 0 0 1
37.636470 -11.783857 -24.189392 46.265428 -0.303428 2.120975 0.119811 -0.013820 100104.000000 0 0 1
36.300940 -11.690857 -24.610692 45.388551 -0.311565 2.143876 0.145969 -0.017260 -544749.000000 0 0 1
35.966360 -12.799857 -25.634152 45.983966 -0.341907 2.162118 0.108387 -0.031182 -127459.000000 0 0 1
35.919800 -14.176357 -25.174102 46.097034 -0.375900 2.148511 0.108964 -0.051704 369868.000000 0 0 1
34.841920 -14.376357 -24.289392 44.839866 -0.391335 2.143245 0.072293 -0.037394 -384067.000000 0 0 1
-30.722484 8.067643 -18.744692 36.882535 -0.256799 2.103921 0.109145 -0.014926 551644.000000 0 0 1
-29.469994 7.435743 -19.005192 35.846453 -0.247157 2.129613 0.108876 -0.017434 528036.000000 0 0 1
-28.821084 8.037943 -20.138192 36.066747 -0.271980 2.163203 0.121244 -0.031437 -36136.700000 0 0 1
-27.485124 7.392843 -20.515392 35.085147 -0.262757 2.195345 0.104658 -0.029746 -118857.000000 0 0 1
-26.533044 7.386343 -19.461792 33.724203 -0.271508 2.185953 0.105140 -0.020297 397940.000000 0 0 1
-25.410384 6.569243 -19.801492 32.877678 -0.252987 2.217148 0.116898 -0.035466 508361.000000 0 0 1
-24.065724 6.984843 -19.158592 31.543601 -0.282479 2.223540 0.079729 -0.030145 163150.000000 0 0 1
-23.504124 8.036843 -19.882992 31.817732 -0.329470 2.245803 0.070889 -0.025165 -550832.000000 0 0 1
-22.397524 8.631343 -19.279292 30.787015 -0.367831 2.247485 0.056822 -0.019974 -242902.000000 0 0 1
-21.662324 9.689143 -20.102092 31.100320 -0.420590 2.273604 0.080221 -0.020690 -234722.000000 0 0 1
-20.908824 9.121743 -21.131692 31.095555 -0.411372 2.317976 0.131341 -0.029216 -50512.800000 0 0 1
-20.090924 10.094543 -21.763892 31.292364 -0.465600 2.339914 0.131136 -0.028211 -294442.000000 0 0 1
-19.216524 9.470843 -22.844992 31.318770 -0.457910 2.388291 0.146515 -0.026471 -190489.000000 0 0 1
-19.894724 8.746043 -23.890792 32.296490 -0.414185 2.403470 0.142461 -0.025025 256478.000000 0 0 1
-18.965024 8.237443 -24.845792 32.324001 -0.409763 2.447522 0.123161 -0.017385 293245.000000 0 0 1
-19.558824 7.160643 -25.875452 33.216885 -0.350952 2.463842 0.090616 -0.013043 58410.500000 0 0 1
-19.912124 5.944143 -25.238382 32.692529 -0.290097 2.452766 0.115946 -0.010536 331108.000000 0 0 1
-20.532024 4.986343 -26.106382 33.585277 -0.238244 2.461185 0.101468 -0.014972 -433885.000000 0 0 1
-20.765924 3.653643 -25.299562 32.933882 -0.174162 2.446809 0.089478 -0.001797 477419.000000 0 0 1
-19.686024 2.723843 -25.056192 31.980801 -0.137491 2.471036 0.082199 -0.000800 670913.000000 0 0 1
-18.556624 3.240443 -24.398292 30.824105 -0.172881 2.484110 0.099275 -0.008123 -824915.000000 0 0 1
-17.760124 2.203443 -23.635492 29.646478 -0.123436 2.493513 0.086665 -0.010398 -354823.000000 0 0 1
-18.264524 1.628143 -22.414592 28.959586 -0.088907 2.455924 0.086232 -0.008571 694099.000000 0 0 1
-19.395224 0.746343 -22.586192 29.780326 -0.038462 2.431692 0.054890 -0.001050 446058.000000 0 0 1
-19.826824 -0.046257 -21.368492 29.149915 0.002333 2.393599 0.084239 -0.015449 -234594.000000 0 0 1
-18.988024 -1.153257 -21.033292 28.359733 0.060661 2.406339 0.084550 -0.022181 233176.000000 0 0 1
-19.523724 -1.907457 -19.980692 28.000755 0.097390 2.365387 0.089532 -0.023505 -274177.000000 0 0 1
-18.968424 -3.319257 -19.823492 27.636741 0.173235 2.370698 0.066982 -0.035040 -260923.000000 0 0 1
-19.287724 -4.160257 -20.852492 28.708021 0.212440 2.383814 0.064992 -0.036380 207386.000000 0 0 1
-19.317524 -5.482357 -20.389092 28.617094 0.276531 2.363822 0.080933 -0.031717 -299366.000000 0 0 1
-19.475724 -6.485857 -21.546492 29.759394 0.321471 2.380414 0.056302 -0.033237 -18539.400000 0 0 1
-18.235424 -6.574157 -22.215392 29.483451 0.346012 2.424146 0.053026 -0.028745 214223.000000 0 0 1
-18.337424 -7.223857 -23.432892 30.619368 0.375272 2.442298 0.074889 -0.033847 -548492.000000 0 0 1
-16.990724 -7.387257 -24.099592 30.398135 0.410127 2.486183 0.063882 -0.034978 -1047200.000000 0 0 1
-17.111624 -8.199557 -25.292212 31.618609 0.446854 2.497951 0.085698 -0.055362 -96476.400000 0 0 1
-16.008824 -8.433857 -26.140672 31.792250 0.484877 2.536122 0.090140 -0.054506 320380.000000 0 0 1
-14.844924 -9.364057 -25.628872 31.062782 0.562753 2.541117 0.079940 -0.046580 518436.000000 0 0 1
-14.013824 -8.715157 -24.669992 29.680798 0.556365 2.552017 0.092840 -0.034941 365513.000000 0 0 1
-12.990424 -9.581857 -24.195492 29.085820 0.635524 2.553257 0.075373 -0.021622 340194.000000 0 0 1
-12.076524 -8.877857 -23.151692 27.580059 0.633918 2.567041 0.093567 -0.031375 196926.000000 0 0 1
-12.655124 -8.686657 -21.846092 26.699474 0.601550 2.529107 0.097487 -0.029167 120552.000000 0 0 1
-11.758224 -8.035057 -20.996392 25.370583 0.599468 2.545594 0.098855 -0.027192 -457359.000000 0 0 1
-12.400824 -7.734857 -19.598192 24.447855 0.557691 2.500817 0.090922 -0.021111 912631.000000 0 1 0
-13.449424 -6.752257 -19.488892 24.623097 0.465285 2.484037 0.084726 -0.014228 790159.000000 0 1 0
-14.751924 -7.158157 -19.861692 25.755491 0.451766 2.451463 0.091499 -0.021574 310698.000000 0 0 1
-15.850724 -6.060157 -19.601192 25.926390 0.365179 2.428026 0.076952 -0.016097 -61312.300000 0 0 1
-16.068924 -5.782657 -18.261692 25.002777 0.345437 2.389684 0.070247 -0.012649 554855.000000 0 0 1
-15.367424 -4.651457 -17.689092 23.889281 0.293916 2.404553 0.076421 -0.022844 -324803.000000 0 1 0
-15.310924 -4.744057 -16.152792 22.756168 0.300467 2.360040 0.097526 -0.018720 519000.000000 0 1 0
-16.520924 -4.485057 -15.406992 23.031111 0.265088 2.303611 0.129015 -0.029524 904863.000000 0 1 0
-16.943124 -3.080357 -15.441392 23.129951 0.179841 2.301767 0.078330 -0.035885 265454.000000 0 1 0
-18.221224 -2.699457 -14.653592 23.537796 0.147079 2.242801 0.082157 -0.036352 25969.700000 0 1 0
-17.873924 -2.566257 -13.258792 22.402197 0.142601 2.204151 0.095255 -0.041783 761798.000000 0 1 0
-18.788124 -1.743057 -12.575792 22.675591 0.092510 2.158674 0.098344 -0.040463 -281368.000000 0 1 0
-18.065924 -0.513357 -12.009392 21.699462 0.028408 2.157287 0.075008 -0.030999 -43598.000000 0 1 0
-17.707624 0.411543 -13.020792 21.983411 -0.023237 2.204708 0.090154 -0.029470 787162.000000 0 1 0
-16.701024 1.277543 -12.498092 20.898771 -0.076346 2.211837 0.069521 -0.021272 -751631.000000 0 1 0
-16.138424 2.287543 -13.490392 21.158267 -0.140807 2.262168 0.062701 -0.018604 -113190.000000 0 1 0
-15.418124 1.815143 -14.574992 21.294218 -0.117188 2.324656 0.059817 -0.024069 546051.000000 0 1 0
-14.222124 1.098343 -14.248692 20.161855 -0.077075 2.355641 0.067281 -0.020733 -556355.000000 0 1 0
-13.657124 0.150443 -15.341192 20.540006 -0.011015 2.414174 0.067240 -0.019162 237488.000000 0 1 0
-13.135724 0.788143 -16.526792 21.125891 -0.059928 2.469147 0.078683 -0.023294 188393.000000 0 1 0
-12.838324 -0.164757 -17.475092 21.684754 0.012833 2.507940 0.056644 -0.017285 -127647.000000 0 1 0
-12.085024 0.448243 -18.679292 22.252296 -0.037074 2.567034 0.073618 -0.024415 -178224.000000 0 1 0
-10.817924 0.925143 -18.303192 21.281218 -0.085312 2.606190 0.037220 -0.014609 -695943.000000 0 1 0
-10.516524 1.984143 -19.230792 22.008123 -0.186477 2.633768 0.046795 -0.022493 -485302.000000 0 1 0
-9.102124 2.539743 -19.158192 21.362006 -0.272107 2.683358 0.028604 -0.021467 -1807970.000000 0 1 0
-8.162224 1.565043 -19.537792 21.231971 -0.189443 2.739403 0.031932 -0.015221 -829483.000000 0 1 0
-6.848024 1.996343 -19.372892 20.644364 -0.283660 2.788798 0.031327 -0.008988 -330154.000000 0 1 0
-6.369824 3.232743 -20.192392 21.418637 -0.469637 2.801575 0.030564 -0.012722 -1619300.000000 0 1 0
-6.353324 3.003343 -21.598892 22.713365 -0.441586 2.827034 0.032191 -0.007323 243514.000000 0 1 0
-5.817624 4.064343 -22.344392 23.444306 -0.609803 2.834062 0.036981 -0.015791 -734690.000000 0 1 0
-5.272424 3.617243 -23.717792 24.564539 -0.601314 2.878267 0.062949 -0.026953 365843.000000 0 1 0
-4.016324 2.936543 -23.680392 24.197420 -0.631329 2.934500 0.070368 -0.032367 69959.500000 0 1 0
-3.694124 2.385943 -24.903092 25.288402 -0.573470 2.966804 0.106221 -0.039483 -201357.000000 0 0 1
-2.283224 1.782743 -24.837992 25.006342 -0.662924 3.025491 0.099490 -0.035694 107164.000000 0 0 1
-1.266024 2.773943 -24.479392 24.668567 -1.142634 3.017669 0.117873 -0.038910 892856.000000 0 1 0
0.041676 2.245343 -24.629892 24.732062 1.552238 3.050665 0.111550 -0.032303 222945.000000 0 1 0
0.635076 1.309743 -23.567992 23.612899 1.119313 3.079910 0.099565 -0.028169 -885372.000000 0 1 0
0.206676 -0.016457 -23.691992 23.692899 -0.079459 3.132842 0.089784 -0.021664 156569.000000 0 1 0
0.990976 -0.955757 -22.973292 23.014510 -0.767309 3.081735 0.080651 -0.009959 39486.600000 0 1 0
0.242276 -2.327357 -22.848492 22.967997 -1.467071 3.039538 0.089708 -0.017805 403415.000000 0 1 0
-0.851424 -2.409057 -21.939292 22.087576 1.231072 3.025653 0.076079 -0.019193 -535913.000000 0 1 0
-2.055124 -2.743757 -22.529892 22.789203 0.927924 2.990594 0.080272 -0.024244 -602511.000000 0 1 0
-3.026324 -1.571357 -22.715092 22.969615 0.478913 2.992587 0.087075 -0.023713 -1208720.000000 0 1 0
-3.616224 -1.176757 -21.499192 21.832936 0.314603 2.966519 0.059302 -0.020879 191241.000000 0 1 0
-4.474024 -0.047357 -21.596492 22.055104 0.010584 2.937307 0.033904 -0.022143 1293390.000000 0 1 0
-5.898124 -0.226457 -22.265692 23.034761 0.038376 2.882460 0.042474 -0.019567 421821.000000 0 1 0
-6.552224 -1.333657 -21.693192 22.700328 0.200800 2.842599 0.048886 -0.013069 -129741.000000 0 1 0
-7.946024 -1.173557 -21.853292 23.282674 0.146631 2.789368 0.045690 -0.007848 365291.000000 0 1 0
-8.811024 -2.469257 -21.529792 23.393660 0.273237 2.739709 0.043143 -0.012098 256326.000000 0 1 0
-8.817524 -3.450157 -22.579592 24.484491 0.372970 2.744527 0.069398 -0.011861 -10371.900000 0 1 0
-9.478424 -4.671157 -22.218892 24.603646 0.457887 2.697668 0.066342 -0.009718 40220.200000 0 1 0
-10.486624 -5.059957 -23.350192 26.092220 0.449562 2.679026 0.081113 -0.024968 -130367.000000 0 0 1
-11.763224 -4.494757 -23.213292 26.408961 0.364983 2.644543 0.087190 -0.035853 -735774.000000 0 0 1
-12.656924 -5.189357 -24.014492 27.637348 0.389098 2.623801 0.077284 -0.046240 1104600.000000 0 0 1
-14.163524 -4.984357 -23.523392 27.906974 0.338380 2.573487 0.079501 -0.046831 1604960.000000 0 0 1
-14.841324 -3.773557 -23.980992 28.453341 0.248984 2.573295 0.080724 -0.051293 1111310.000000 0 0 1
-16.210324 -3.802857 -23.533892 28.828465 0.230428 2.525846 0.090553 -0.045163 843495.000000 0 0 1
-17.021324 -2.540257 -23.795892 29.367037 0.148146 2.515448 0.079359 -0.039125 -362269.000000 0 0 1
-17.312324 -2.391757 -25.151912 30.627696 0.137284 2.534333 0.054205 -0.033974 92480.500000 0 0 1
-17.255824 -1.048557 -25.529912 30.832440 0.060691 2.546365 0.067602 -0.027260 979435.000000 0 0 1
-18.660324 -0.809757 -26.227382 32.198431 0.043367 2.522757 0.052387 -0.021732 789133.000000 0 0 1
-18.828124 -1.544457 -27.443772 33.317327 0.081846 2.538717 0.058942 -0.030611 57779.000000 0 0 1
-18.308324 -0.985957 -28.677042 34.037327 0.053801 2.572736 0.051455 -0.028724 -95011.300000 0 0 1
-18.561324 -1.928357 -29.893502 35.240074 0.103520 2.583528 0.044612 -0.025366 -664732.000000 0 0 1
-19.902324 -2.023557 -30.226992 36.247322 0.101326 2.556951 0.041945 -0.025626 -652688.000000 0 0 1
-19.985924 -2.858657 -31.315542 37.259526 0.142070 2.568948 0.047660 -0.031070 1221610.000000 0 0 1
-21.488624 -3.317257 -31.638902 38.389911 0.153164 2.539490 0.032610 -0.029801 1360200.000000 0 0 1
-22.346024 -2.292257 -32.043052 39.132550 0.102223 2.530173 0.035541 -0.021287 107716.000000 0 0 1
-23.132924 -1.793457 -30.965642 38.693923 0.077374 2.498544 0.030211 -0.007754 121319.000000 0 0 1
-24.182424 -0.712157 -31.422292 39.656743 0.029441 2.485459 0.037891 -0.010699 130726.000000 0 0 1
-23.692924 0.564243 -31.766782 39.633338 -0.023810 2.500624 0.035549 -0.019000 394817.000000 0 0 1
-24.723524 1.359943 -32.350162 40.738619 -0.054951 2.488307 0.035699 -0.021814 86782.700000 0 0 1
-24.197324 2.557643 -33.130592 41.105817 -0.105308 2.508131 0.047211 -0.024315 -401489.000000 0 0 1
-23.615524 3.693343 -32.446852 40.300521 -0.155138 2.506678 0.041587 -0.019029 302866.000000 0 0 1
-24.399424 4.358843 -31.473162 40.061095 -0.176780 2.474509 0.043832 -0.018956 -30976.000000 0 0 1
-25.667074 5.126143 -31.989382 41.332755 -0.197123 2.455848 0.039394 -0.016254 247580.000000 0 0 1
-26.710804 4.291743 -32.402372 42.211371 -0.159313 2.445919 0.051931 -0.025056 540943.000000 0 0 1
-27.898914 5.035443 -32.780772 43.339176 -0.178566 2.428554 0.071500 -0.038195 1299590.000000 0 0 1
-28.933324 4.092543 -33.497782 44.452082 -0.140515 2.424273 0.096885 -0.039951 184932.000000 0 0 1
-28.553044 3.742943 32.565208 43.471586 -0.130344 0.724072 0.098981 -0.029303 47687.800000 0 0 1
-29.494244 2.957143 31.865171 43.520619 -0.099928 0.749271 0.116381 -0.031239 -89563.200000 0 0 1
-29.588394 1.470243 32.155849 43.722229 -0.049649 0.744454 0.125431 -0.016249 -123264.000000 0 0 1
-29.990094 0.966143 33.409886 44.906121 -0.032204 0.731768 0.133645 -0.014315 -15166.100000 0 0 1
-30.350484 -0.395257 33.171863 44.963103 0.013022 0.741054 0.113689 0.000319 -471942.000000 0 0 1
-30.042944 -1.292857 -32.984992 44.634736 0.043007 2.402379 0.072668 -0.002747 -21290.600000 0 0 1
-28.709674 -1.419557 -32.542192 43.419521 0.049405 2.418077 0.090321 -0.016993 65317.900000 0 0 1
-28.119224 -0.318157 -31.948522 42.561721 0.011314 2.419826 0.094745 -0.018688 -876435.000000 0 0 1
-28.298424 -0.280957 -30.418042 41.546806 0.009928 2.392253 0.116091 -0.019736 -38339.700000 0 0 1
-27.398464 -1.122757 -29.681612 40.409585 0.040956 2.395754 0.095768 -0.021473 586579.000000 0 0 1
-27.431104 -0.722357 -28.323422 39.436069 0.026327 2.372024 0.107804 -0.025709 112398.000000 0 0 1
-26.218074 -1.241557 -27.490812 38.008863 0.047320 2.379328 0.105256 -0.025073 253274.000000 0 0 1
-26.200284 -2.634257 -27.264622 37.904536 0.100206 2.373586 0.099458 -0.018918 223432.000000 0 0 1
-25.233244 -2.880657 -26.258822 36.531364 0.113669 2.372874 0.106762 -0.020285 130151.000000 0 0 1
-25.570954 -4.217957 -25.556782 36.397994 0.163479 2.349206 0.102865 -0.026244 220451.000000 0 0 1
-26.773624 -4.170257 -24.820392 36.746018 0.154518 2.312382 0.124748 -0.022579 -102548.000000 0 0 1
-26.986774 -5.368357 -24.083092 36.566386 0.196362 2.289770 0.119939 -0.025290 754062.000000 0 0 1
-28.290544 -5.341157 -23.195592 36.971859 0.186600 2.248987 0.131227 -0.027537 680545.000000 0 0 1
-28.470474 -6.303857 -22.203892 36.651321 0.217902 2.221585 0.130189 -0.029074 794249.000000 0 0 1
-29.663124 -6.117157 -21.390792 37.079463 0.203370 2.185713 0.150239 -0.024140 888118.000000 0 0 1
-30.058424 -7.195957 -20.359392 37.010749 0.234977 2.153273 0.152987 -0.031093 447460.000000 0 0 1
-29.004374 -7.569957 -19.444192 35.730024 0.255299 2.146229 0.147550 -0.035369 1108310.000000 0 0 1
-29.511734 -8.564257 -18.474992 35.855464 0.282440 2.112111 0.153535 -0.035044 16850.500000 0 0 1
-30.290154 -8.052357 -17.323792 35.811279 0.259831 2.075733 0.156611 -0.035608 287929.000000 0 0 1
-29.413964 -7.453857 -16.316092 34.452230 0.248188 2.064154 0.132039 -0.043554 1111280.000000 0 0 1
-30.102524 -6.496557 -15.547292 34.497616 0.212554 2.038320 0.148237 -0.038607 -82560.900000 0 0 1
-29.088544 -5.772457 -14.659592 33.081238 0.195899 2.029894 0.141032 -0.033611 95157.200000 0 0 1
-28.284974 -4.802357 -15.316592 32.522306 0.168181 2.061171 0.152151 -0.027712 45402.100000 0 0 1
-27.347814 -4.278257 -14.420392 31.211443 0.155181 2.051071 0.143645 -0.037162 -210588.000000 0 0 1
-14.408724 21.724643 -4.722792 26.492947 -0.985167 1.750020 0.092189 -0.030104 -255620.000000 0 0 1
-14.523124 21.107743 -5.996392 26.313774 -0.968137 1.800697 0.111315 -0.032613 -80416.900000 0 0 1
-15.320924 19.956643 -5.885692 25.838725 -0.916057 1.800599 0.094142 -0.029917 174246.000000 0 0 1
-15.593924 19.126843 -7.206492 25.708756 -0.886801 1.854916 0.114610 -0.032291 643008.000000 0 0 1
-14.364924 18.546643 -7.684892 24.685757 -0.911780 1.887366 0.090843 -0.029878 714589.000000 0 1 0
-14.522424 17.579943 -8.778692 24.434006 -0.880355 1.938294 0.078234 -0.033625 -205893.000000 0 1 0
-15.109624 16.189243 -8.328292 23.659095 -0.819878 1.930516 0.081915 -0.026936 502324.000000 0 1 0
-16.504224 16.256743 -8.058992 24.527912 -0.777844 1.905579 0.089485 -0.019974 409902.000000 0 1 0
-16.922024 15.165143 -7.274992 23.859212 -0.730699 1.880644 0.097406 -0.016115 1119410.000000 0 1 0
-18.399824 15.110043 -6.684792 24.729606 -0.687538 1.844517 0.125410 -0.022204 1376530.000000 0 1 0
-19.364124 14.816743 -7.703692 25.570531 -0.653136 1.876823 0.116511 -0.025857 241358.000000 0 0 1
-20.625724 15.204743 -7.175392 26.609979 -0.635242 1.843826 0.113509 -0.028015 142260.000000 0 0 1
-21.841524 14.577443 -7.890592 27.419254 -0.588523 1.862700 0.122360 -0.021282 -49332.300000 0 0 1
-22.040724 13.226443 -7.526392 26.783930 -0.540487 1.855636 0.161511 -0.034219 -322601.000000 0 0 1
-23.157824 12.684143 -8.145692 27.631949 -0.501096 1.870035 0.195763 -0.042416 -317800.000000 0 0 1
-23.376224 11.194643 -7.806292 27.068545 -0.446618 1.863341 0.208152 -0.046139 -65039.400000 0 0 1
-22.285524 10.404843 -8.200792 25.926017 -0.436809 1.892639 0.195120 -0.037638 43193.800000 0 0 1
-22.611824 9.078443 -7.805692 25.585964 -0.381791 1.880816 0.217324 -0.053826 -301988.000000 0 0 1
-21.431124 8.252243 -7.334892 24.107950 -0.367560 1.879949 0.176102 -0.022921 -1211510.000000 0 1 0
-20.757724 7.498343 -8.207192 23.547108 -0.346645 1.926813 0.150328 -0.019537 -90903.200000 0 1 0
-19.884524 6.622543 -7.535192 22.271765 -0.321496 1.915937 0.106348 -0.013716 -193825.000000 0 1 0
-19.313624 5.471343 -8.405392 21.762406 -0.276056 1.967342 0.071548 -0.023551 770929.000000 0 1 0
-20.325824 4.417843 -8.570992 22.497075 -0.214022 1.961655 0.105991 -0.022831 1303530.000000 0 1 0
-19.965324 3.461143 -9.533592 22.393818 -0.171652 2.010559 0.093844 -0.024584 -910203.000000 0 1 0
-20.939024 2.353543 -9.853892 23.261150 -0.111930 2.008234 0.098681 -0.017027 -445612.000000 0 1 0
-20.826524 1.393243 -8.791792 22.649081 -0.066798 1.969446 0.106705 -0.028924 660300.000000 0 1 0
-21.872624 0.416943 -8.752392 23.562468 -0.019060 1.951372 0.129802 -0.023791 304761.000000 0 1 0
-21.575524 -0.920557 -9.520792 23.600766 0.042641 1.986037 0.085590 -0.039388 -125383.000000 0 1 0
-20.539424 -1.716957 -9.003592 22.491789 0.083399 1.982647 0.066092 -0.023006 314944.000000 0 1 0
-20.682124 -3.124857 -9.314892 22.897210 0.149956 1.989759 0.064164 -0.018368 664778.000000 0 1 0
-21.763624 -4.015457 -8.537492 23.720624 0.182451 1.938977 0.091162 -0.023244 932094.000000 0 1 0
-21.300224 -4.337857 -7.221192 22.905505 0.200906 1.891527 0.084728 -0.020166 706680.000000 0 1 0
-22.309924 -4.944357 -6.402592 23.731257 0.218096 1.843977 0.110192 -0.025818 -67859.400000 0 1 0
-22.322124 -6.497857 -6.442792 24.124862 0.283267 1.841138 0.118630 -0.034993 207357.000000 0 1 0
-21.120824 -7.178557 -6.072892 23.119276 0.327631 1.836591 0.098774 -0.033010 738091.000000 0 1 0
-21.373524 -8.576057 -5.871592 23.766613 0.381581 1.820433 0.122566 -0.042713 -435734.000000 0 1 0
-20.196424 -9.408057 -5.362692 22.916491 0.435938 1.806997 0.107088 -0.045163 -700105.000000 0 1 0
-19.204424 -9.690657 -6.294192 22.412845 0.467325 1.855455 0.095003 -0.029501 316093.000000 0 1 0
-18.246824 -10.575857 -5.661092 21.836742 0.525284 1.833038 0.089123 -0.014379 312419.000000 0 1 0
-17.318324 -11.275157 -6.656092 21.710760 0.577116 1.882395 0.069767 -0.017533 152906.000000 0 1 0
-16.323524 -10.478257 -7.308692 20.728442 0.570668 1.931136 0.089981 -0.040628 1065400.000000 0 1 0
-16.722624 -10.222857 -8.628092 21.414877 0.548701 1.985481 0.085277 -0.036929 217017.000000 0 1 0
-15.781924 -10.910757 -9.698192 21.498109 0.604894 2.038814 0.087629 -0.023867 522796.000000 0 1 0
-16.097424 -12.267457 -9.821792 22.496337 0.651185 2.022607 0.116892 -0.030939 912201.000000 0 1 0
-15.076724 -12.920757 -10.629492 22.521982 0.708544 2.062310 0.118031 -0.016120 749443.000000 0 1 0
-15.480324 -14.207957 -11.399392 23.905075 0.742567 2.067876 0.143163 -0.015364 -179512.000000 0 1 0
-16.232024 -13.997057 -12.564592 24.844822 0.711598 2.101016 0.139681 -0.017657 47270.600000 0 1 0
-16.536424 -15.229657 -13.189292 26.064405 0.744284 2.101369 0.127458 -0.011381 -511330.000000 0 0 1
-17.290824 -15.171857 -14.467192 27.174575 0.720217 2.132206 0.149519 -0.016298 -495967.000000 0 0 1
-17.282424 -16.406257 -15.139192 28.231943 0.759396 2.136776 0.127469 -0.011650 67618.300000 0 0 1
-17.750024 -16.284357 -16.422292 29.153650 0.742360 2.169172 0.123802 -0.011483 -251430.000000 0 0 1
-18.226124 -17.583957 -17.138092 30.579427 0.767467 2.165720 0.132529 -0.023945 219879.000000 0 0 1
-19.602424 -17.863857 -16.944992 31.472292 0.739028 2.139345 0.073058 -0.022098 -370618.000000 0 0 1
-20.348924 -18.154857 -18.093792 32.727097 0.728477 2.156600 0.072610 -0.014561 80905.600000 0 0 1
-21.858724 -18.077757 -17.768092 33.471095 0.691005 2.130398 0.061558 -0.015317 -185848.000000 0 0 1
-22.238224 -16.830657 -17.243592 32.789497 0.647861 2.124555 0.041416 -0.003276 66563.200000 0 0 1
-22.144724 -16.634657 -15.837492 31.904965 0.644255 2.090238 0.047177 -0.011584 -532614.000000 0 0 1
-22.089924 -15.180457 -15.400692 30.912657 0.602092 2.092318 0.054044 -0.016344 -306987.000000 0 0 1
-23.340724 -14.557357 -15.301192 31.477493 0.557656 2.078417 0.064780 -0.017547 96568.700000 0 0 1
-23.192624 -13.289057 -14.734792 30.522303 0.520320 2.074594 0.074967 -0.025712 -686828.000000 0 0 1
-24.493924 -12.584157 -14.406792 31.078433 0.474600 2.052808 0.095043 -0.034981 -671591.000000 0 0 1
-25.151524 -13.134757 -13.278392 31.327890 0.481269 2.008490 0.112942 -0.035668 -10455.500000 0 0 1
-26.336134 -12.453357 -13.005792 31.903428 0.441702 1.990688 0.125899 -0.039127 -688370.000000 0 0 1
-27.080054 -13.043857 -11.784592 32.285417 0.448883 1.944443 0.142517 -0.045293 -245177.000000 0 0 1
-28.159724 -12.240457 -11.374392 32.744094 0.410041 1.925564 0.140978 -0.048316 -172464.000000 0 0 1
-28.823304 -12.775157 -10.280092 33.161240 0.417204 1.885993 0.159269 -0.049800 -195704.000000 0 0 1
-29.766664 -11.697057 -9.710392 33.424051 0.374421 1.865568 0.147677 -0.046149 -185618.000000 0 0 1
-29.069364 -10.622657 -9.105892 32.261216 0.350349 1.856940 0.164289 -0.048309 1024600.000000 0 0 1
-29.964224 -9.783157 -8.276392 32.589317 0.315583 1.827569 0.175708 -0.050671 166623.000000 0 0 1
-29.264444 -8.633757 -7.668792 31.460449 0.286887 1.817037 0.186411 -0.040969 -659327.000000 0 0 1
-28.494664 -9.095657 -6.560692 30.622207 0.308982 1.786716 0.191001 -0.039534 163823.000000 0 0 1
-27.540724 -8.150257 -6.091592 29.360274 0.287723 1.779792 0.173433 -0.039446 -173198.000000 0 0 1
-27.962744 -6.763457 -5.516492 29.293192 0.237316 1.760248 0.186291 -0.047236 -1122300.000000 0 0 1
-28.679674 -6.772757 -4.299592 29.780538 0.231903 1.715679 0.204538 -0.048436 -20878.800000 0 0 1
-28.077124 -7.166257 -3.109192 29.143562 0.249899 1.677685 0.194533 -0.037015 -281328.000000 0 0 1
-27.027814 -6.202357 -2.502592 27.843041 0.225575 1.660800 0.204961 -0.041799 237311.000000 0 0 1
-27.745634 -5.114257 -2.014392 28.284866 0.182281 1.642075 0.238629 -0.056556 -290745.000000 0 0 1
-26.947724 -4.303057 -1.250192 27.317744 0.158345 1.616577 0.196988 -0.052988 -968497.000000 0 0 1
-27.453314 -2.941457 -0.770892 27.621204 0.106737 1.598709 0.230025 -0.056285 -570333.000000 0 0 1
-28.430424 -2.933157 0.229808 28.582254 0.102806 1.562756 0.226376 -0.044561 -296243.000000 0 0 1
-27.913984 -3.223557 1.472408 28.138050 0.114973 1.518444 0.207179 -0.051137 -411712.000000 0 0 1
-28.875464 -3.199757 2.681908 29.175735 0.110362 1.478744 0.238337 -0.039261 -153648.000000 0 0 1
-29.779964 -4.273257 2.725408 30.208192 0.142521 1.480453 0.233619 -0.047113 -104962.000000 0 0 1
-30.629074 -4.215957 3.855108 31.157284 0.136786 1.446748 0.268999 -0.061189 -70829.500000 0 0 1
-31.699414 -5.325157 3.774008 32.364383 0.166435 1.453921 0.246893 -0.064879 -110675.000000 0 0 1
-31.203754 -6.652457 3.959708 32.149786 0.210049 1.447318 0.242599 -0.059347 53424.700000 0 0 1
-32.227794 -7.609057 3.819908 33.333469 0.231856 1.455947 0.297552 -0.075206 -234739.000000 0 0 1
-31.807744 -9.102157 3.762008 33.297666 0.278713 1.457573 0.256417 -0.053244 40649.200000 0 0 1
-31.304414 -9.564757 5.041408 33.118978 0.296532 1.417981 0.216763 -0.047894 232849.000000 0 0 1
-30.795164 -10.875757 4.990508 33.038302 0.339491 1.419164 0.186050 -0.039440 -61840.400000 0 0 1
-30.379544 -11.428257 6.337608 33.070940 0.359807 1.377967 0.159923 -0.045643 -208697.000000 0 0 1
-29.226044 -10.923057 6.947608 31.964732 0.357669 1.351695 0.117160 -0.036783 -78303.100000 0 0 1
-29.285984 -11.184557 8.320808 32.434535 0.364813 1.311354 0.153079 -0.048488 505682.000000 0 0 1
-30.191124 -10.097657 9.096108 33.109000 0.322762 1.292485 0.158046 -0.056364 770642.000000 0 0 1
-29.424194 -8.910657 9.210408 32.093841 0.294055 1.279720 0.127555 -0.030804 1289740.000000 0 0 1
-30.186374 -7.991757 10.064808 32.808318 0.258809 1.258992 0.123946 -0.029515 649621.000000 0 0 1
-29.218734 -6.951257 10.688008 31.879271 0.233562 1.228910 0.152184 -0.017036 132244.000000 0 0 1
-28.904474 -6.101557 9.612608 31.066057 0.208040 1.256208 0.150710 -0.024331 545267.000000 0 0 1
-28.215384 -4.923357 10.119608 30.376863 0.172753 1.231169 0.151727 -0.032199 108800.000000 0 0 1
-28.146674 -3.825357 9.020008 29.803174 0.135080 1.263322 0.174554 -0.042637 373317.000000 0 0 1
-27.277144 -4.229157 7.941408 28.722715 0.153819 1.290661 0.164708 -0.035584 588631.000000 0 0 1
-27.404464 -3.328157 6.908508 28.457139 0.120854 1.325577 0.178796 -0.051357 -462014.000000 0 0 1
-26.648164 -3.785657 5.701708 27.513003 0.141116 1.362047 0.153181 -0.038374 -191848.000000 0 0 1
-25.241634 -3.648957 5.865408 26.169792 0.143566 1.344747 0.177796 -0.053884 721637.000000 0 0 1
-24.659624 -3.938657 4.571608 25.387196 0.158383 1.389733 0.177666 -0.029418 -829422.000000 0 0 1
-23.146124 -3.869157 4.497808 23.894429 0.165631 1.381430 0.164984 -0.026013 -618116.000000 0 1 0
-22.705624 -2.518157 4.545008 23.292565 0.110453 1.374409 0.130009 -0.027527 436915.000000 0 1 0
-21.290224 -2.442457 4.466708 21.890426 0.114223 1.365305 0.122858 -0.025314 266626.000000 0 1 0
-20.695324 -1.045657 4.797208 21.269769 0.050483 1.343298 0.104520 -0.033378 -340236.000000 0 1 0
-20.821324 -0.014357 3.832608 21.171128 0.000690 1.388763 0.108349 -0.029120 2073050.000000 0 1 0
-22.123324 0.675343 3.822008 22.461196 -0.030517 1.399804 0.099212 -0.046241 1404190.000000 0 1 0
-22.192724 1.863043 2.821408 22.448793 -0.083752 1.444781 0.138793 -0.033487 -187577.000000 0 1 0
-21.408824 2.986043 3.192608 21.850560 -0.138583 1.424160 0.110857 -0.043581 334172.000000 0 1 0
-21.561624 4.076843 2.294508 22.063297 -0.186873 1.466611 0.137710 -0.028492 269243.000000 0 1 0
-20.450124 4.154343 1.199608 20.902278 -0.200418 1.513374 0.087758 -0.013681 -213970.000000 0 1 0
-20.791924 5.005643 0.122208 21.386340 -0.236253 1.565082 0.117451 -0.009227 603999.000000 0 1 0
-21.755224 4.520243 -0.822292 22.235075 -0.204862 1.607787 0.158693 -0.018612 112130.000000 0 1 0
-21.462924 3.263043 -1.693392 21.775494 -0.150876 1.648641 0.151914 -0.015512 -365959.000000 0 1 0
-21.608624 2.034243 -1.090292 21.731533 -0.093864 1.620988 0.129711 -0.015490 522688.000000 0 1 0
-20.961924 1.085243 -1.926592 21.078230 -0.051726 1.662326 0.101008 -0.009260 -77830.600000 0 1 0
-20.064124 0.166643 -1.015992 20.090523 -0.008305 1.621389 0.086494 -0.010329 36655.600000 0 1 0
-20.698824 -0.857257 -0.238492 20.717942 0.041392 1.582308 0.094288 -0.016787 701188.000000 0 1 0
-19.815024 -1.448257 0.750008 19.882031 0.072959 1.533064 0.069554 -0.017431 487119.000000 0 1 0
-18.962024 -2.684157 0.276008 19.153048 0.140620 1.556385 0.027152 -0.015794 42493.900000 0 1 0
-18.147324 -3.283757 1.261108 18.485098 0.179013 1.502520 0.025632 -0.011820 404728.000000 0 1 0
-17.422024 -4.399157 0.762508 17.985020 0.247335 1.528387 0.011015 -0.006617 211944.000000 0 1 0
-18.284624 -5.723257 0.553108 19.167397 0.303349 1.541936 0.007347 -0.008467 176824.000000 0 1 0
-18.900224 -6.223257 1.719508 19.972584 0.318088 1.484596 0.028009 -0.009897 490162.000000 0 1 0
-20.118924 -6.893957 1.455808 21.317062 0.330121 1.502450 0.062461 -0.018133 -25013.500000 0 1 0
-20.856624 -7.185557 2.769408 22.232873 0.331786 1.445908 0.094097 -0.021865 62826.500000 0 1 0
-20.004824 -8.010857 3.580708 21.844640 0.380891 1.406136 0.080321 -0.020301 1046490.000000 0 1 0
-20.569024 -8.327457 4.837808 22.712016 0.384684 1.356145 0.072087 -0.028666 -52803.700000 0 1 0
-19.605924 -9.257057 5.602908 22.393703 0.441125 1.317909 0.060446 -0.019980 -266007.000000 0 1 0
-19.233824 -10.472457 4.975608 22.458162 0.498596 1.347393 0.084017 -0.021582 -45911.700000 0 1 0
-18.370424 -11.056757 5.904008 22.239192 0.541799 1.302097 0.102769 -0.030344 -348531.000000 0 1 0
-17.841224 -12.489357 5.554208 22.475377 0.610745 1.321085 0.076417 -0.020695 -333796.000000 0 1 0
-18.819224 -13.504257 5.490108 23.804820 0.622426 1.338071 0.123391 -0.028363 -120707.000000 0 1 0
-18.330624 -14.759257 4.997608 24.058752 0.677885 1.361548 0.113499 -0.024501 177624.000000 0 1 0
-19.434424 -15.865957 4.956408 25.573256 0.684652 1.375750 0.140920 -0.035105 509914.000000 0 0 1
-18.881024 -17.177257 4.885208 25.988776 0.738183 1.381698 0.142687 -0.038636 -45760.500000 0 0 1
-19.849124 -18.152157 5.161908 27.388571 0.740772 1.381193 0.146177 -0.037457 132732.000000 0 0 1
-19.284924 -19.635457 5.043508 27.980287 0.794404 1.389553 0.162103 -0.049910 -330407.000000 0 0 1
-18.843424 -19.943957 3.736708 27.691137 0.813764 1.435441 0.149054 -0.048430 183905.000000 0 0 1
-18.004924 -21.081857 3.833108 27.987760 0.863957 1.433408 0.138008 -0.051865 -11791.900000 0 0 1
-16.497524 -20.759457 3.893908 26.800856 0.899296 1.424990 0.136858 -0.053305 -368304.000000 0 0 1
-15.697724 -21.935257 4.014508 27.270686 0.949651 1.423050 0.114051 -0.049858 772038.000000 0 0 1
-14.323324 -21.527457 3.808108 26.136004 0.983705 1.424572 0.105024 -0.043682 1186760.000000 0 0 1
-13.272824 -22.657557 4.073708 26.573066 1.040883 1.416887 0.111455 -0.040416 276065.000000 0 0 1
-13.347524 -23.617157 3.024608 27.296058 1.056387 1.459761 0.102826 -0.039051 -112873.000000 0 0 1
-12.445424 -24.676957 3.240408 27.826984 1.103688 1.454083 0.090462 -0.040862 -358091.000000 0 0 1
19.404976 18.957143 -23.935492 36.177813 0.773725 2.293756 0.075683 -0.015493 135938.000000 0 0 1
18.534876 19.236343 -24.995092 36.583236 0.803968 2.322986 0.061067 -0.017220 -2265.060000 0 0 1
19.344276 19.305243 -26.116922 37.801945 0.784388 2.333513 0.071361 -0.020791 166704.000000 0 0 1
18.454076 19.637243 -27.320932 38.374569 0.816450 2.363073 0.068974 -0.026041 66167.600000 0 0 1
18.109576 21.011043 -27.451252 39.025529 0.859430 2.350991 0.073384 -0.023439 211835.000000 0 0 1
17.392676 21.191643 -28.660592 39.661322 0.883541 2.378401 0.064106 -0.022365 -189663.000000 0 0 1
17.009176 22.657843 -29.011802 40.550889 0.926849 2.368053 0.094106 -0.037208 -481592.000000 0 0 1
16.278376 23.304443 -28.000572 39.901311 0.961071 2.348641 0.092075 -0.034061 264176.000000 0 0 1
15.914176 24.640643 -28.341942 40.788331 0.997344 2.339013 0.093987 -0.031520 203004.000000 0 0 1
14.969476 25.397843 -27.366132 40.224878 1.038208 2.319007 0.091593 -0.031047 518728.000000 0 0 1
13.633476 24.937643 -27.232412 39.361936 1.070488 2.334839 0.100741 -0.039594 288334.000000 0 0 1
12.926976 25.764943 -26.315642 39.031423 1.105768 2.310700 0.090226 -0.035632 -368727.000000 0 0 1
11.478276 25.377743 -25.930012 38.054516 1.146034 2.320458 0.112987 -0.038926 545966.000000 0 0 1
10.899876 26.275443 -24.922192 37.819596 1.177570 2.290252 0.106133 -0.052394 94246.600000 0 0 1
10.526276 27.517443 -25.438142 38.924430 1.205440 2.283030 0.125698 -0.052177 -540037.000000 0 0 1
9.896376 28.390943 -24.336892 38.681626 1.235391 2.251267 0.149682 -0.062252 -54762.700000 0 0 1
10.929676 28.981643 -23.593192 38.936258 1.210165 2.221748 0.139971 -0.048876 161453.000000 0 0 1
10.437976 29.653243 -22.461692 38.636689 1.232340 2.191191 0.161784 -0.057170 -648265.000000 0 0 1
11.526676 29.907143 -21.436992 38.559643 1.202926 2.160294 0.122762 -0.056330 10279.800000 0 0 1
12.572176 30.666443 -22.066692 39.817449 1.181729 2.158194 0.112996 -0.057582 458581.000000 0 0 1
13.488576 31.243243 -21.129092 40.056466 1.163241 2.126431 0.078623 -0.036436 528381.000000 0 0 1
14.633576 31.973443 -21.897592 41.423992 1.141575 2.127772 0.084198 -0.021168 860431.000000 0 0 1
15.777476 31.164543 -22.194792 41.385581 1.102150 2.136835 0.081321 -0.025802 209388.000000 0 0 1
16.890576 31.851143 -22.702692 42.605153 1.083206 2.132776 0.059642 -0.020403 -40609.100000 0 0 1
18.018576 30.865843 -23.050892 42.528966 1.042396 2.143617 0.022584 -0.009627 -257360.000000 0 0 1
18.743276 30.383143 -21.973092 41.919715 1.018045 2.122538 0.035550 -0.002908 -772817.000000 0 0 1
19.930276 29.820443 -22.416892 42.296475 0.981634 2.129390 0.039358 -0.008865 -656376.000000 0 0 1
20.830276 29.145343 -21.371992 41.714667 0.950270 2.108701 0.052595 -0.006748 -45369.200000 0 0 1
21.651176 30.056943 -20.681692 42.425530 0.946550 2.080000 0.045611 0.003257 -58484.600000 0 0 1
22.610376 29.398943 -19.897592 42.088491 0.915190 2.063212 0.072987 0.000386 40551.200000 0 0 1
23.376576 30.293743 -18.905592 42.680166 0.913574 2.029694 0.076052 -0.010791 -15528.900000 0 0 1
24.414576 31.100243 -19.449192 44.063224 0.905251 2.027947 0.097595 -0.007466 323818.000000 0 0 1
25.092776 31.663143 -18.325992 44.362642 0.900650 1.996646 0.109164 -0.010297 943051.000000 0 0 1
26.484076 32.353743 -18.617692 45.768869 0.884829 1.989719 0.117167 -0.017123 1057630.000000 0 0 1
27.574876 31.497943 -18.864092 45.916752 0.851711 1.994163 0.124855 -0.016136 396513.000000 0 0 1
28.818576 32.180643 -18.658192 47.055629 0.840459 1.978512 0.126473 -0.012446 1291980.000000 0 0 1
30.066976 31.298043 -19.053992 47.398788 0.805457 1.984489 0.122816 -0.013121 623489.000000 0 0 1
30.383276 30.207343 -18.211292 46.554035 0.782495 1.972716 0.120222 -0.010373 -716867.000000 0 0 1
31.491276 29.495943 -18.623192 46.995046 0.752693 1.978258 0.090289 -0.013968 -605746.000000 0 0 1
31.911276 28.340443 -17.656792 46.187363 0.726202 1.963065 0.088380 -0.020245 -80533.900000 0 0 1
32.522576 28.834043 -16.480492 46.483616 0.725354 1.933223 0.075876 0.001997 141507.000000 0 0 1
32.861076 27.787643 -15.591992 45.772411 0.701940 1.918396 0.091158 -0.011984 -111117.000000 0 0 1
33.302576 28.343443 -14.218992 45.984694 0.705126 1.885160 0.089321 -0.004678 354618.000000 0 0 1
34.539476 29.034843 -14.105492 47.275389 0.699028 1.873779 0.079496 -0.011452 167071.000000 0 0 1
34.481276 30.379943 -14.458792 48.176301 0.722250 1.875617 0.090064 -0.017877 -453208.000000 0 0 1
35.830276 31.095443 -14.546192 49.621839 0.714768 1.868307 0.089587 -0.016315 264262.000000 0 0 1
36.518876 31.277843 -13.299192 49.887877 0.708247 1.840641 0.090083 -0.014779 802833.000000 0 0 1
-37.855489 31.536843 -13.407892 51.062531 -0.694592 1.836489 0.090608 -0.021105 1221460.000000 0 0 1
-37.184889 31.867643 -12.016992 50.424902 -0.708547 1.811426 0.077925 -0.014053 243056.000000 0 0 1
-37.686989 33.118543 -11.574092 51.488898 -0.720966 1.797522 0.088951 -0.032085 672180.000000 0 0 1
-36.866789 33.554643 -10.492892 50.942860 -0.738400 1.778255 0.075285 -0.018909 290711.000000 0 0 1
-37.382389 -32.720562 -9.965892 50.669490 0.718996 1.768771 0.081448 -0.008854 34535.400000 0 0 1
-36.489089 -32.035162 -9.128692 49.406865 0.720492 1.756630 0.076260 -0.010717 -299871.000000 0 0 1
-36.208389 -32.637162 -7.847992 49.374313 0.733572 1.730422 0.056460 -0.011689 78511.900000 0 0 1
-36.039389 -31.685562 -6.679792 48.450305 0.721200 1.709106 0.059747 -0.026797 242176.000000 0 0 1
-37.238689 -31.004862 -6.353692 48.871166 0.694304 1.701174 0.050050 -0.010787 -148147.000000 0 0 1
-36.956489 -29.974962 -5.433392 47.893655 0.681465 1.684488 0.085118 -0.010767 671174.000000 0 0 1
37.550976 -29.196962 -4.929592 47.820908 -0.660888 1.674064 0.079429 -0.013189 549987.000000 0 0 1
36.676176 -30.014562 -4.132392 47.571971 -0.685840 1.657772 0.046536 -0.007118 -97432.300000 0 0 1
35.411276 -29.496862 -3.878292 46.250021 -0.694529 1.654750 0.053756 0.003179 -526995.000000 0 0 1
35.393676 -28.341562 -2.848892 45.432066 -0.675199 1.633544 0.045034 0.002072 -883549.000000 0 0 1
36.095576 -27.229162 -3.271192 45.332312 -0.646288 1.643019 0.078131 -0.010612 -132875.000000 0 0 1
35.926176 -26.148662 -2.358492 44.497248 -0.629170 1.623824 0.055403 -0.003270 45593.500000 0 0 1
36.502776 -24.834362 -2.958192 44.248718 -0.597410 1.637700 0.067680 -0.015717 -34035.500000 0 0 1
35.833876 -24.503462 -4.154292 43.608995 -0.599775 1.666203 0.089141 -0.022875 246782.000000 0 0 1
35.498776 -23.118762 -4.281992 42.579052 -0.577257 1.671532 0.100334 -0.028849 -85405.400000 0 0 1
35.245876 -22.750962 -5.760892 42.344609 -0.573200 1.707267 0.101637 -0.027986 277258.000000 0 0 1
36.410276 -22.926462 -6.578892 43.527149 -0.561951 1.722522 0.099403 -0.028860 380411.000000 0 0 1
36.209976 -22.535662 -7.887292 43.373123 -0.556699 1.753661 0.081088 -0.026688 96235.200000 0 0 1
37.510176 -22.306862 -8.715392 44.503567 -0.536505 1.767906 0.078672 -0.026069 399830.000000 0 0 1
-37.588989 -23.514662 -9.060292 45.254396 0.559011 1.772367 0.064237 -0.009242 223096.000000 0 0 1
-36.278889 -23.226562 -9.544292 44.121701 0.569471 1.788837 0.092395 -0.007033 529037.000000 0 0 1
-35.658989 -24.521062 -10.205392 44.463423 0.602392 1.802384 0.104520 -0.009694 -185386.000000 0 0 1
-35.201889 -25.488862 -9.308592 44.446653 0.626703 1.781791 0.111603 -0.017118 -104889.000000 0 0 1
-36.113289 -26.562262 -9.048792 45.734058 0.634173 1.769967 0.096474 -0.013106 15494.400000 0 0 1
-35.458289 -27.795762 -8.439192 45.837917 0.664847 1.755962 0.086743 -0.005227 -224768.000000 0 0 1
-34.709789 -28.458662 -9.449292 45.868879 0.686760 1.778289 0.095239 -0.007090 -2739.780000 0 0 1
-34.331789 -29.737862 -8.995392 46.302584 0.713819 1.766314 0.106753 -0.018039 -337634.000000 0 0 1
-33.724689 -30.651062 -10.079892 46.673831 0.737689 1.788476 0.103461 -0.013288 309369.000000 0 0 1
-32.502889 -30.180062 -10.661692 45.617383 0.748358 1.806698 0.071452 0.011781 609366.000000 0 0 1
-32.158489 -30.965962 -11.783192 46.172534 0.766509 1.828850 0.065739 0.004780 -208777.000000 0 0 1
-32.130989 -30.200462 -13.139192 46.012028 0.754436 1.860387 0.043433 0.010978 81236.200000 0 0 1
-31.052389 -29.317162 -13.439992 44.770306 0.756663 1.875697 0.034000 0.009500 5296.410000 0 0 1
-31.139489 -28.926762 -14.783092 44.999613 0.748577 1.905528 0.029742 0.023445 -372222.000000 0 0 1
-30.066789 -27.952162 -15.191292 43.773400 0.748967 1.925214 0.050149 0.000395 -688937.000000 0 0 1
-28.821289 -28.510162 -15.474192 43.392933 0.779971 1.935429 0.074615 -0.009914 -865879.000000 0 0 1
-27.970689 -27.574162 -16.047392 42.428913 0.778259 1.958667 0.090066 0.000330 1156450.000000 0 0 1
-26.538989 -28.146462 -16.484692 42.050997 0.814785 1.973619 0.098583 -0.011071 1010790.000000 0 0 1
-26.497389 -28.939862 -17.694092 43.043096 0.829428 1.994433 0.087285 -0.005654 -205665.000000 0 0 1
-26.767989 -28.275162 -18.928392 43.293118 0.812773 2.023296 0.069797 0.006989 -172271.000000 0 0 1
-25.667089 -27.324162 -19.420192 42.220293 0.816659 2.048761 0.080928 -0.005355 -172672.000000 0 0 1
-25.371189 -26.320862 -18.462592 40.955492 0.803768 2.038454 0.090588 -0.006734 -572357.000000 0 0 1
-24.075489 -25.822862 -18.664492 39.935106 0.820403 2.057110 0.081871 -0.015970 -169712.000000 0 0 1
-23.698689 -24.842062 -17.533392 38.550950 0.808949 2.042956 0.092103 -0.018528 -29159.400000 0 0 1
-23.570289 -25.464662 -16.252892 38.316629 0.824012 2.008845 0.102893 -0.020523 14225.300000 0 0 1
-23.294489 -24.489962 -15.257092 37.083289 0.810411 1.994816 0.109049 -0.021909 78963.700000 0 0 1
-23.996689 -24.678062 -13.861092 37.107650 0.799396 1.953616 0.107507 -0.019488 93843.400000 0 0 1
-25.376489 -24.404062 -13.896092 37.850044 0.765866 1.946724 0.092125 -0.005540 -257039.000000 0 0 1
-25.822789 -24.055262 -12.600992 37.473418 0.749976 1.913744 0.092652 -0.007760 -834945.000000 0 0 1
-27.299589 -23.729762 -12.509992 38.273608 0.715556 1.903772 0.091587 0.015992 -1353150.000000 0 0 1
-28.018789 -24.890962 -12.847892 39.619198 0.726351 1.901052 0.095523 0.005177 381815.000000 0 0 1
-29.359989 -24.935062 -12.356592 40.453080 0.704080 1.881212 0.073979 0.016288 784582.000000 0 0 1
-30.456489 -24.075062 -13.073992 40.965054 0.668905 1.895629 0.088102 0.013674 -557699.000000 0 0 1
-30.461089 -22.674162 -12.744992 40.055342 0.639885 1.894610 0.085711 0.010156 300818.000000 0 0 1
-30.998489 -22.358162 -11.460292 39.901529 0.624856 1.862114 0.102544 0.005453 -643428.000000 0 0 1
-32.489789 -22.487662 -11.129792 41.050623 0.605435 1.845356 0.063175 0.007569 -237994.000000 0 0 1
-33.477689 -21.598862 -11.637092 41.505282 0.572974 1.854982 0.095925 -0.010287 513861.000000 0 0 1
-33.796589 -21.840962 -12.990992 42.284784 0.573733 1.883073 0.088722 -0.002144 -551021.000000 0 0 1
-35.297489 -21.653762 -13.308392 43.496108 0.550261 1.881751 0.056653 -0.015134 287236.000000 0 0 1
-36.132089 -22.752862 -12.930492 44.614103 0.561982 1.864845 0.080174 -0.008907 894910.000000 0 0 1
-37.514689 -22.400662 -13.078592 45.609112 0.538297 1.861633 0.100848 -0.030839 1301220.000000 0 0 1
37.238576 -23.511562 -12.562692 45.796575 -0.563172 1.848674 0.098726 -0.005730 448104.000000 0 0 1
37.106676 -24.697662 -13.345992 46.529511 -0.587254 1.861711 0.089394 0.007081 -289891.000000 0 0 1
36.153176 -25.530662 -12.799792 46.072785 -0.614862 1.852317 0.091500 -0.000468 -352965.000000 0 0 1
35.885776 -26.841662 -13.583592 46.827104 -0.642204 1.865106 0.077223 -0.002464 129264.000000 0 0 1
35.244176 -26.600462 -14.812092 46.573969 -0.646533 1.894451 0.072141 -0.005868 -16301.700000 0 0 1
35.044576 -27.807862 -15.578592 47.371848 -0.670765 1.905890 0.066869 0.015966 -141324.000000 0 0 1
34.292376 -27.529662 -16.920692 47.118565 -0.676441 1.938109 0.056133 0.004448 -810287.000000 0 0 1
32.927676 -27.679062 -16.729892 46.154649 -0.699013 1.941718 0.109433 0.001578 -1222370.000000 0 0 1
32.333076 -27.415462 -17.958892 46.038648 -0.703278 1.971518 0.096323 -0.004058 1025390.000000 0 0 1
30.751976 -27.508962 -17.839792 44.952032 -0.729792 1.978893 0.100858 -0.014798 1301760.000000 0 0 1
30.168276 -26.540162 -17.024892 43.638882 -0.721507 1.971570 0.085530 -0.017612 49618.700000 0 0 1
28.780376 -26.734962 -16.786792 42.718434 -0.748571 1.974649 0.124701 -0.022884 501888.000000 0 0 1
28.156476 -25.679662 -15.824792 41.263255 -0.739424 1.964388 0.111631 -0.025210 -95753.100000 0 0 1
27.808476 -24.436962 -16.413092 40.495259 -0.720955 1.988113 0.111814 -0.032070 29260.500000 0 0 1
27.631576 -23.417262 -15.452192 39.378197 -0.703030 1.974041 0.119269 -0.038017 -361895.000000 0 0 1
27.101776 -22.079762 -15.969692 38.432450 -0.683639 1.999318 0.135232 -0.041875 -562935.000000 0 0 1
25.797776 -22.068462 -16.461992 37.729822 -0.707644 2.022293 0.136823 -0.051278 -329031.000000 0 0 1
25.528376 -20.705062 -16.854192 36.938616 -0.681449 2.044602 0.144127 -0.048511 -172183.000000 0 0 1
24.043476 -20.328562 -16.721792 35.650491 -0.701871 2.059009 0.139072 -0.050783 -220843.000000 0 0 1
23.679476 -19.997662 -15.388992 34.604120 -0.701301 2.031653 0.153179 -0.050602 -1083270.000000 0 0 1
22.330176 -19.767662 -15.348592 33.540669 -0.724603 2.046103 0.134519 -0.048765 -1216920.000000 0 0 1
21.908876 -18.584962 -14.447892 32.158066 -0.703497 2.036753 0.122901 -0.038932 -163968.000000 0 0 1
21.646076 -18.897662 -13.095792 31.578062 -0.717713 1.998422 0.126954 -0.043587 130185.000000 0 0 1
20.981676 -17.839062 -12.464992 30.229768 -0.704622 1.995819 0.107556 -0.049883 -340016.000000 0 0 1
20.093976 -18.215462 -11.276392 29.372231 -0.736402 1.964827 0.115381 -0.034447 -280792.000000 0 0 1
20.721676 -18.353062 -10.000992 29.431999 -0.724855 1.917501 0.126541 -0.049548 303505.000000 0 0 1
19.788876 -18.641062 -8.941692 28.618921 -0.755539 1.888557 0.107837 -0.043527 437650.000000 0 0 1
20.443776 -19.340962 -7.702392 29.177862 -0.757686 1.837943 0.109870 -0.042997 590610.000000 0 0 1
21.391776 -18.449862 -7.048292 29.115012 -0.711692 1.815310 0.106658 -0.047335 151819.000000 0 0 1
22.085876 -19.187662 -6.083292 29.882415 -0.715294 1.775804 0.107020 -0.034920 -807994.000000 0 0 1
23.370776 -18.412562 -5.830892 30.318557 -0.667286 1.764323 0.111426 -0.029491 -719111.000000 0 0 1
24.292276 -18.441362 -6.914792 31.273197 -0.649328 1.793748 0.109287 -0.041904 -46194.200000 0 0 1
25.269476 -17.472062 -6.651892 31.433533 -0.604951 1.784026 0.128817 -0.031535 -538159.000000 0 0 1
26.371276 -17.500462 -7.734292 32.581124 -0.585889 1.810470 0.140675 -0.039473 287974.000000 0 0 1
27.425876 -18.442762 -7.531892 33.897545 -0.592002 1.794862 0.162177 -0.054231 451182.000000 0 0 1
27.418276 -19.485662 -8.507392 34.696233 -0.617859 1.818519 0.166857 -0.065595 67501.200000 0 0 1
28.656576 -20.405062 -8.387092 36.165027 -0.618771 1.804839 0.161988 -0.067193 417257.000000 0 0 1
29.923176 -19.798762 -8.529392 36.880048 -0.584524 1.804183 0.140040 -0.041931 54604.900000 0 0 1
30.947976 -20.745462 -8.704492 38.261202 -0.590537 1.800308 0.122328 -0.040875 -89247.200000 0 0 1
-31.160944 29.595543 3.991008 43.160500 -0.759639 1.478195 0.110696 -0.028833 455240.000000 0 0 1
-30.377934 30.317643 3.033908 43.025376 -0.784405 1.500223 0.125129 -0.023513 -168231.000000 0 0 1
-29.343054 31.024343 3.654408 42.858831 -0.813242 1.485427 0.109487 -0.010382 -388906.000000 0 0 1
-28.921764 32.304743 2.934208 43.458882 -0.840596 1.503228 0.131687 -0.017570 -131383.000000 0 0 1
-28.069464 31.994843 1.830508 42.601826 -0.850658 1.527815 0.131844 -0.018686 168511.000000 0 0 1
-27.671204 33.106643 1.031108 43.160266 -0.874592 1.546904 0.155864 -0.034653 267097.000000 0 0 1
-26.486954 -33.728862 1.617208 42.916317 0.905089 1.533105 0.161703 -0.022262 625401.000000 0 0 1
-25.193194 33.315443 1.519408 41.796225 -0.923338 1.534436 0.143458 -0.026484 258132.000000 0 0 1
-24.251524 -33.575562 2.209808 41.476958 0.945262 1.517493 0.130682 -0.021536 487846.000000 0 0 1
-22.758424 33.705943 1.962108 40.717151 -0.976906 1.522589 0.124184 -0.028535 719796.000000 0 0 1
-22.205524 -33.511062 0.697608 40.206508 0.985592 1.553445 0.139998 -0.027440 561671.000000 0 0 1
-20.825524 33.782643 0.678808 39.691690 -1.018364 1.553693 0.128435 -0.028949 692580.000000 0 0 1
-19.902724 -33.538362 -0.595192 39.003775 1.035221 1.586057 0.134049 -0.031133 920196.000000 0 0 1
-19.405224 -32.210462 -0.642892 37.609705 1.028577 1.587891 0.150729 -0.033296 442379.000000 0 0 1
-18.575424 -31.729462 0.413308 36.769226 1.041158 1.559555 0.151682 -0.026953 -261538.000000 0 0 1
-18.453924 -30.201462 0.371208 35.395105 1.022308 1.560309 0.158050 -0.038182 -512163.000000 0 0 1
-17.667924 -29.633462 -0.595592 34.505831 1.033164 1.588058 0.145321 -0.026898 -369421.000000 0 0 1
-17.505624 -28.210662 -0.458692 33.203897 1.015416 1.584611 0.126382 -0.024740 -598268.000000 0 0 1
-16.475224 -27.673062 -1.409392 32.236901 1.033801 1.614530 0.107216 -0.029559 -926031.000000 0 0 1
-16.811024 -27.802862 -2.767592 32.607810 1.026964 1.655774 0.098804 -0.026644 -524493.000000 0 0 1
-16.034224 -27.107662 -3.660592 31.706808 1.036649 1.686506 0.085511 -0.018227 -594658.000000 0 0 1
-16.615624 -27.291162 -5.110492 32.357436 1.023911 1.729399 0.128557 -0.034353 684857.000000 0 0 1
-17.806224 -26.507262 -5.270792 32.364762 0.979283 1.734381 0.116129 -0.031958 100765.000000 0 0 1
-18.162324 -26.215862 -6.623292 32.573140 0.964920 1.775560 0.133259 -0.040531 357480.000000 0 0 1
-18.890124 -24.850662 -6.733992 31.933350 0.920834 1.783268 0.103273 -0.033199 348389.000000 0 0 1
-17.911224 -23.834162 -6.655592 30.547932 0.926340 1.790432 0.088865 -0.016981 393458.000000 0 0 1
-18.463124 -22.575662 -6.868292 29.961991 0.885276 1.802086 0.070997 -0.019652 581132.000000 0 0 1
-17.269724 -21.565862 -6.784792 28.449309 0.895574 1.811604 0.081329 -0.013540 475368.000000 0 0 1
-16.305324 -21.704162 -7.770992 28.236901 0.926494 1.849601 0.107677 -0.026455 -260098.000000 0 0 1
-15.101524 -21.008162 -7.435792 26.920066 0.947537 1.850653 0.142978 -0.050591 1134210.000000 0 0 1
-14.066824 -21.006962 -8.622892 26.711838 0.980747 1.899495 0.133424 -0.041694 640662.000000 0 0 1
-14.522224 -20.186462 -9.714392 26.697522 0.947166 1.943214 0.149648 -0.037749 -529354.000000 0 0 1
-13.676024 -20.291662 -10.790292 26.743515 0.977753 1.986106 0.139298 -0.025899 -409155.000000 0 0 1
-14.067024 -19.392762 -11.979092 26.785426 0.943242 2.034456 0.157259 -0.025687 625708.000000 0 0 1
-15.283624 -19.806162 -12.623692 28.021971 0.913576 2.038113 0.140444 -0.013559 372364.000000 0 0 1
-15.696824 -18.987262 -13.672592 28.175276 0.879984 2.077467 0.157616 -0.031804 486320.000000 0 0 1
-17.030424 -19.510162 -14.283392 29.575278 0.853157 2.074817 0.166122 -0.032766 463882.000000 0 0 1
-18.192824 -19.424162 -13.475992 29.830845 0.818120 2.039519 0.145373 -0.028265 -58692.900000 0 0 1
-19.315024 -19.671262 -14.291692 31.052877 0.794535 2.049059 0.107554 -0.021228 -689900.000000 0 0 1
-20.627224 -19.607462 -13.493592 31.496222 0.760058 2.013539 0.073273 -0.012572 393152.000000 0 0 1
-21.696424 -20.108662 -14.324192 32.867547 0.747436 2.021741 0.087803 -0.016239 423697.000000 0 0 1
-22.997724 -19.832662 -13.847492 33.376382 0.711635 1.998617 0.076055 -0.011892 -592651.000000 0 0 1
-24.037724 -20.515262 -14.717592 34.861092 0.706500 2.006643 0.078455 -0.012972 -772637.000000 0 0 1
-24.258924 -19.890362 -15.961792 35.198022 0.686769 2.041469 0.082075 -0.016226 481589.000000 0 0 1
-24.962484 -20.758862 -16.860892 36.583407 0.693716 2.049793 0.095980 -0.021390 -90080.800000 0 0 1
-25.331624 -20.266262 -18.228792 37.211577 0.674764 2.082736 0.101603 -0.021140 -483180.000000 0 0 1
-24.270124 -19.903362 -19.064592 36.723854 0.686863 2.116633 0.081257 -0.025337 -475331.000000 0 0 1
-24.626224 -19.732762 -20.415092 37.584689 0.675527 2.145011 0.103796 -0.030863 -756282.000000 0 0 1
-23.741224 -18.815662 -21.244692 37.000160 0.670170 2.182397 0.071640 -0.030466 -119942.000000 0 0 1
-22.437924 -19.368062 -21.377292 36.545464 0.712099 2.195616 0.047390 -0.019196 712836.000000 0 0 1
-21.588424 -18.527862 -22.214892 36.094919 0.709253 2.233763 0.048427 -0.024059 575118.000000 0 0 1
-20.159524 -19.010262 -22.500592 35.694161 0.756066 2.252828 0.052371 -0.019671 -81115.600000 0 0 1
-20.113524 -20.205562 -23.259492 36.794328 0.787681 2.255120 0.036272 -0.009811 -547048.000000 0 0 1
-18.768324 -20.558962 -23.327092 36.319061 0.830898 2.268269 0.043819 -0.007307 -555138.000000 0 0 1
-18.611424 -22.010962 -23.858092 37.417591 0.868890 2.262197 0.046272 -0.005771 -120904.000000 0 0 1
-18.730024 -22.159962 -25.252202 38.464938 0.869084 2.286965 0.039775 -0.006515 62379.000000 0 0 1
-18.776724 -23.543062 -25.578232 39.510595 0.897552 2.274934 0.051100 -0.016459 -146794.000000 0 0 1
-18.806424 -23.626262 -27.142502 40.602922 0.898501 2.302968 0.051565 -0.010025 324427.000000 0 0 1
-17.496024 -23.589762 -27.720352 40.385711 0.932642 2.327310 0.055764 -0.006374 625362.000000 0 0 1
-17.558724 -23.777862 -29.111172 41.486816 0.934729 2.348573 0.071026 -0.008378 40998.900000 0 0 1
-16.158124 -23.494062 -29.704512 41.175405 0.968337 2.376638 0.057112 -0.016438 395908.000000 0 0 1
-15.260424 -24.538962 -29.324612 41.170063 1.014440 2.363538 0.070366 -0.018424 -22761.700000 0 0 1
-13.971524 -24.330262 -29.854902 40.969261 1.049530 2.387240 0.097038 -0.020575 433712.000000 0 0 1
-12.958124 -25.492262 -29.606092 41.161743 1.100518 2.373536 0.132336 -0.030874 -410032.000000 0 0 1
-13.259824 -26.688762 -30.282522 42.486988 1.109687 2.364205 0.111701 -0.025070 354542.000000 0 0 1
-12.286224 -27.733162 -30.274112 42.855589 1.153766 2.355226 0.124293 -0.026214 1371040.000000 0 0 1
-10.871624 -27.500562 -30.958522 42.812419 1.194328 2.379105 0.149494 -0.030152 1237360.000000 0 0 1
-10.026724 -26.541662 -30.302482 41.511871 1.209597 2.389077 0.191936 -0.051118 149082.000000 0 0 1
-8.920824 -26.226162 -31.095762 41.645397 1.242924 2.413852 0.173208 -0.050811 -724378.000000 0 0 1
-7.888624 -25.253062 -30.606702 40.456369 1.268018 2.428796 0.245314 -0.058275 -425924.000000 0 0 1
-8.324724 -23.918762 -30.694362 39.793870 1.235867 2.451731 0.263300 -0.058057 96663.700000 0 0 1
-8.966824 -23.381062 -29.532132 38.719825 1.204588 2.438295 0.235769 -0.039804 61308.000000 0 0 1
-9.249524 -21.875362 -29.570772 37.927770 1.170766 2.464919 0.239313 -0.057278 305194.000000 0 0 1
-10.430824 -21.511262 -30.274822 38.575917 1.119301 2.473188 0.202108 -0.049931 219761.000000 0 0 1
-10.663024 -20.097262 -30.261682 37.859866 1.082992 2.496939 0.199797 -0.049159 -268129.000000 0 0 1
-11.830824 -19.760262 -31.199032 38.779066 1.031320 2.505685 0.158145 -0.045358 -256543.000000 0 0 1
-12.204324 -18.423762 -31.214542 38.245630 0.985737 2.525530 0.140864 -0.038599 -155616.000000 0 0 1
-13.026624 -18.219862 -32.316992 39.319770 0.950095 2.535538 0.116422 -0.036270 -220597.000000 0 0 1
-13.946624 -16.931262 -32.283582 39.030830 0.881758 2.544779 0.124937 -0.037080 111692.000000 0 0 1
-13.318924 -15.680962 -32.274602 38.274486 0.866669 2.574080 0.126274 -0.039179 341393.000000 0 0 1
-12.402124 -15.281662 -31.235512 36.918818 0.889041 2.579346 0.109394 -0.036926 419754.000000 0 0 1
-11.937124 -13.811262 -31.305312 36.239046 0.858057 2.613671 0.082812 -0.034699 543414.000000 0 0 1
-11.004124 -13.474962 -32.375382 36.753649 0.885994 2.648505 0.079059 -0.040299 596023.000000 0 0 1
-11.508524 -13.570762 33.672236 38.084528 0.867442 0.486136 0.087885 -0.039010 -686043.000000 0 0 1
-12.037324 -12.277462 33.035978 37.242572 0.795274 0.479883 0.080827 -0.026532 257240.000000 0 0 1
-13.302624 -11.933162 33.605106 38.061311 0.731185 0.488750 0.051039 -0.023958 57471.200000 0 0 1
-13.855824 -10.975762 32.788344 37.249520 0.669930 0.494438 0.062659 -0.025145 699912.000000 0 0 1
-15.173124 -10.254262 33.223465 37.936424 0.594311 0.503774 0.083373 -0.030363 831075.000000 0 0 1
-14.697224 -9.309162 -33.250202 37.526589 0.564614 2.659537 0.060939 -0.027020 146891.000000 0 0 1
-15.721224 -8.671062 -32.527372 37.153387 0.504033 2.637243 0.078059 -0.031993 -19260.400000 0 0 1
-15.118724 -7.767562 -31.441732 35.742039 0.474604 2.645996 0.070129 -0.040534 -431601.000000 0 0 1
-14.856624 -6.435562 -31.933752 35.803635 0.408777 2.672356 0.073673 -0.040263 629240.000000 0 0 1
-15.984924 -5.547662 -32.048562 36.240926 0.334050 2.655831 0.067506 -0.035049 469361.000000 0 0 1
-16.487624 -4.872662 -30.730012 35.212473 0.287355 2.631507 0.065763 -0.043074 96808.200000 0 0 1
-17.038624 -5.870962 -29.806622 34.831274 0.331827 2.597782 0.065258 -0.048929 -66830.700000 0 0 1
-17.488724 -5.344662 -28.589512 33.937901 0.296592 2.572530 0.073217 -0.052214 -77424.500000 0 0 1
-16.485524 -4.657062 -27.610442 32.493034 0.275320 2.586277 0.079539 -0.052755 228192.000000 0 0 1
-16.007124 -3.405862 -28.112422 32.529006 0.209645 2.614407 0.073742 -0.049861 23413.200000 0 0 1
-14.754924 -3.055862 -27.538452 31.391280 0.204221 2.640929 0.075634 -0.045436 316673.000000 0 0 1
-14.370024 -1.709462 -28.255082 31.745386 0.118404 2.668258 0.074664 -0.030836 -146622.000000 0 0 1
-14.104824 -1.923462 -29.607912 32.852310 0.135533 2.693426 0.069952 -0.039889 163031.000000 0 0 1
-13.999424 -0.733462 -30.339142 33.421331 0.052344 2.708752 0.082941 -0.047273 -69439.100000 0 0 1
-14.277924 -0.942462 -31.851282 34.917783 0.065913 2.719368 0.067984 -0.049154 -422492.000000 0 0 1
-15.570324 -1.282462 -32.270192 35.853103 0.082180 2.690719 0.042918 -0.045689 -276440.000000 0 0 1
-15.623424 -1.535462 -33.663642 37.144176 0.097965 2.705234 0.044414 -0.038648 350926.000000 0 0 1
-17.027924 -1.852462 33.122883 37.289506 0.108364 0.477247 0.033031 -0.033653 422743.000000 0 0 1
-16.909724 -1.689462 31.741163 36.004090 0.099580 0.491557 0.049568 -0.033866 1013010.000000 0 0 1
-18.156324 -1.967462 31.058286 36.029713 0.107941 0.531557 0.050407 -0.031570 859712.000000 0 0 1
-18.079524 -1.937462 29.490216 34.645286 0.106756 0.552521 0.065902 -0.025754 -252746.000000 0 0 1
-17.734424 -0.636462 29.140386 34.118573 0.035873 0.546995 0.066541 -0.015772 -52469.300000 0 0 1
-17.551224 -0.442462 27.759366 32.845451 0.025204 0.563949 0.073088 -0.023451 -456346.000000 0 0 1
-17.044524 0.977538 27.479916 32.351464 -0.057289 0.555915 0.074117 -0.026114 108155.000000 0 0 1
-17.911124 2.059538 27.822236 33.153083 -0.114484 0.574976 0.069040 -0.018388 537614.000000 0 0 1
-19.167624 2.110538 27.143846 33.296255 -0.109668 0.617684 0.077509 -0.025182 264386.000000 0 0 1
-19.144624 2.977538 25.820726 32.281454 -0.154293 0.643730 0.091319 -0.031098 -388749.000000 0 0 1
-18.947724 4.311538 26.163706 32.590569 -0.223739 0.638820 0.087854 -0.022779 58289.400000 0 0 1
-19.017424 5.138538 25.040696 31.860689 -0.263900 0.666576 0.093707 -0.020924 -479507.000000 0 0 1
-18.986024 6.653538 25.345696 32.359589 -0.337070 0.670918 0.091459 -0.020861 200943.000000 0 0 1
-17.685924 7.197538 25.359036 31.743932 -0.386496 0.645395 0.078466 -0.021834 294250.000000 0 0 1
-16.984224 7.307538 24.108616 30.382386 -0.406313 0.654247 0.074918 -0.009801 -68492.900000 0 0 1
-15.806124 8.294538 24.046556 29.947785 -0.483265 0.638569 0.058111 -0.019816 -430385.000000 0 0 1
-14.641724 7.778538 24.596816 29.662925 -0.488340 0.593102 0.045044 -0.020860 -656015.000000 0 0 1
-13.524724 8.415538 24.014776 28.817511 -0.556608 0.585674 0.045782 -0.010819 -133525.000000 0 0 1
-12.162424 8.104538 24.649316 28.656533 -0.587789 0.535205 0.039622 -0.006005 -663885.000000 0 0 1
-11.084524 8.623538 23.944006 27.758738 -0.661169 0.530458 0.036528 -0.012797 290042.000000 0 0 1
-9.861224 8.683538 24.701216 27.978522 -0.721978 0.488871 0.050497 -0.018124 742875.000000 0 0 1
-9.652924 10.036538 25.502366 29.056527 -0.804879 0.499794 0.062721 -0.025728 -601772.000000 0 0 1
-10.685624 10.214538 26.458426 30.307882 -0.762862 0.509500 0.051657 -0.026760 342504.000000 0 0 1
-10.710224 11.503538 27.117206 31.342992 -0.821096 0.525295 0.075242 -0.028173 -733336.000000 0 0 1
-11.246024 12.728538 26.348166 31.348279 -0.847156 0.572595 0.060135 -0.030005 -339352.000000 0 0 1
-12.630724 12.682538 26.108606 31.655036 -0.787445 0.600974 0.058421 -0.030276 -29523.300000 0 0 1
-12.935724 12.013538 24.918546 30.538370 -0.748452 0.616383 0.048484 -0.018114 -459409.000000 0 0 1
-14.440924 12.034538 24.575326 30.940541 -0.694756 0.652981 0.033933 -0.017959 -199816.000000 0 0 1
-14.916124 13.141538 23.824456 31.028946 -0.722234 0.695374 0.029097 -0.026846 1450890.000000 0 0 1
-16.281524 12.946538 23.340946 31.265007 -0.671787 0.727932 0.043651 -0.014030 1256260.000000 0 0 1
-16.390424 12.139538 22.042616 30.031506 -0.637489 0.746628 0.036494 -0.004188 -357825.000000 0 0 1
-16.122924 10.751538 22.061316 29.364025 -0.588128 0.720760 0.033104 -0.006459 36749.400000 0 0 1
-16.011424 10.346538 20.731916 28.164320 -0.573697 0.743498 0.045138 -0.009345 -218594.000000 0 0 1
-16.336824 8.827538 20.518616 27.673650 -0.495401 0.735568 0.050383 -0.010167 1398590.000000 0 0 1
-17.759524 8.560538 20.526516 28.460875 -0.449165 0.765236 0.070802 -0.007411 882489.000000 0 0 1
-18.117624 7.223538 20.306716 28.156537 -0.379387 0.765252 0.070848 -0.004661 -486339.000000 0 0 1
-19.629724 7.020538 20.303016 29.100284 -0.343472 0.798626 0.107470 -0.008940 -364009.000000 0 0 1
-20.109124 7.360538 21.591616 30.409740 -0.350883 0.781265 0.092087 -0.012353 31538.100000 0 0 1
-21.523824 7.411538 21.655916 31.419494 -0.331625 0.810342 0.083248 -0.016949 256051.000000 0 0 1
-22.161624 8.189538 22.871106 32.883030 -0.353973 0.801640 0.083340 -0.015892 -387965.000000 0 0 1
-21.976024 9.620538 22.881736 33.152289 -0.412641 0.809030 0.082960 -0.018623 -370581.000000 0 0 1
-20.678924 10.103538 23.026466 32.556375 -0.454479 0.785153 0.087147 -0.026964 -541467.000000 0 0 1
-20.068024 9.919538 24.454076 33.153050 -0.459074 0.741270 0.074719 -0.028056 -541157.000000 0 0 1
-20.475924 10.746538 25.522676 34.440653 -0.483320 0.736145 0.066239 -0.020154 242711.000000 0 0 1
-19.953824 10.240538 26.757836 34.914260 -0.474161 0.697599 0.062345 -0.018051 -47641.000000 0 0 1
-32.625534 -14.231557 20.013416 40.835028 0.411326 1.058587 0.114862 -0.029849 852750.000000 0 0 1
-31.328384 -14.763957 19.663216 39.825672 0.440396 1.054420 0.107755 -0.019842 980162.000000 0 0 1
-31.406904 -15.717757 18.649416 39.764837 0.464012 1.082646 0.097641 -0.004237 -131089.000000 0 0 1
-31.447844 -15.108057 17.216916 38.905559 0.447858 1.112377 0.106965 0.004107 -41433.100000 0 0 1
-32.674414 -14.479857 16.914016 39.539443 0.417148 1.128766 0.106586 -0.010909 -33395.500000 0 0 1
-32.534454 -13.963657 15.580216 38.680972 0.405419 1.156236 0.102105 -0.009109 -503903.000000 0 0 1
-33.627354 -13.023057 15.024116 39.065625 0.369489 1.176036 0.101917 -0.014063 -580554.000000 0 0 1
-34.834724 -13.690657 14.692016 40.208798 0.374473 1.196741 0.116592 -0.023490 661624.000000 0 0 1
-35.791857 -13.764157 15.760016 41.459464 0.367127 1.180859 0.121633 -0.028431 -517283.000000 0 0 1
-36.480134 -12.467457 16.199016 41.816813 0.329315 1.173008 0.120371 -0.025298 -1130680.000000 0 0 1
-37.247734 -12.728457 17.341416 43.013162 0.329283 1.155823 0.075725 -0.022749 -373575.000000 0 0 1
37.630630 -11.694357 17.597816 43.156754 -0.301305 1.150791 0.063863 -0.015272 92984.100000 0 0 1
36.740200 -11.912557 18.873016 42.987697 -0.313542 1.116274 0.067997 -0.009803 108911.000000 0 0 1
37.504840 -12.003857 20.073516 44.200132 -0.309759 1.099378 0.066595 -0.011379 -201340.000000 0 0 1
36.779790 -11.817457 21.252316 44.091566 -0.310884 1.067856 0.056920 -0.016213 -1089010.000000 0 0 1
37.643460 -12.229257 22.487416 45.522178 -0.314115 1.054126 0.048694 -0.020715 1136300.000000 0 0 1
-36.898724 -11.493657 22.679146 44.810308 0.301966 1.040123 0.054028 -0.019446 1331810.000000 0 0 1
-35.848063 -12.088357 21.901516 43.713710 0.325236 1.046017 0.053419 -0.021281 270190.000000 0 0 1
-34.525182 -11.254457 21.773716 42.340828 0.315116 1.030665 0.073264 -0.022490 667253.000000 0 0 1
-34.661442 -10.203557 20.886816 41.734725 0.286291 1.046659 0.095516 -0.025665 44181.800000 0 0 1
-33.458084 -9.459657 20.806816 40.519775 0.275540 1.031540 0.123693 -0.033588 -73970.800000 0 0 1
-33.622524 -8.122057 20.059816 39.985475 0.237025 1.045259 0.115570 -0.021482 18119.200000 0 0 1
-33.910164 -8.141057 18.666316 39.555119 0.235618 1.079344 0.122444 -0.023133 272491.000000 0 0 1
-35.264111 -8.428957 18.380616 40.650362 0.234622 1.101607 0.105694 -0.023846 -295036.000000 0 0 1
-35.768905 -8.303557 16.929116 40.434622 0.228104 1.138806 0.107114 -0.015852 69445.500000 0 0 1
-37.175724 -8.400257 16.853216 41.672889 0.222229 1.154455 0.012818 -0.019609 47538.700000 0 0 1
-37.615764 -8.430157 15.504216 41.549898 0.220469 1.188398 0.045902 -0.015615 107301.000000 0 0 1
36.619470 -8.433757 15.435616 40.624772 -0.226361 1.181048 0.087502 -0.033098 -5545.790000 0 0 1
35.996340 -9.642357 15.821916 40.485116 -0.261726 1.169287 0.095325 -0.018311 -770837.000000 0 0 1
34.644290 -9.494457 15.516716 39.129785 -0.267488 1.163046 0.075841 -0.012600 -630753.000000 0 0 1
33.868710 -10.835657 15.627516 38.842248 -0.309641 1.156733 0.065325 -0.008863 35747.600000 0 0 1
33.802200 -11.351657 16.948116 39.480217 -0.323992 1.127100 0.032803 -0.014304 144758.000000 0 0 1
32.800140 -12.354257 17.031416 38.968526 -0.360219 1.118474 0.071891 -0.007665 183939.000000 0 0 1
32.623450 -12.899857 18.459216 39.641373 -0.376549 1.086421 0.064315 -0.008913 -153906.000000 0 0 1
33.606070 -13.813457 18.905516 40.958492 -0.389988 1.091024 0.061153 -0.008583 -149729.000000 0 0 1
33.667160 -13.619357 20.288816 41.600488 -0.384405 1.061336 0.072754 -0.012271 -402884.000000 0 0 1
34.449420 -14.794257 20.911916 42.929487 -0.405633 1.062005 0.069099 -0.015405 204087.000000 0 0 1
34.868710 -14.755657 22.289316 43.935976 -0.400326 1.038732 0.061157 -0.025594 -43089.300000 0 0 1
35.382800 -16.010457 22.685756 44.976892 -0.424925 1.042125 0.068638 -0.022125 95509.700000 0 0 1
35.936070 -15.997957 24.154866 46.160517 -0.418837 1.020101 0.091717 -0.021313 619835.000000 0 0 1
37.116670 -15.189457 24.242306 46.862098 -0.388443 1.027090 0.084208 -0.013214 417739.000000 0 0 1
37.453360 -15.016757 25.614136 47.794782 -0.381321 1.005200 0.078948 -0.016572 -365704.000000 0 0 1
-37.223264 -13.976357 25.850906 47.425514 0.359186 0.994307 0.057606 -0.016008 -915474.000000 0 0 1
-35.999644 -14.379857 25.325526 46.304827 0.380027 0.992103 0.023250 -0.017717 -1246750.000000 0 0 1
-35.106629 -13.344157 25.522106 45.408368 0.363238 0.973925 0.035721 -0.023530 -352923.000000 0 0 1
-33.642844 -13.801257 25.306796 44.302930 0.389293 0.962803 0.035885 -0.020951 -550512.000000 0 0 1
-33.319254 -13.988957 23.963256 43.360135 0.397497 0.985248 0.043901 -0.017322 1319840.000000 0 0 1
-31.902804 -14.284657 23.800606 42.288405 0.420986 0.973007 0.055096 -0.026765 1292840.000000 0 0 1
-31.437674 -15.699257 24.136456 42.630536 0.463149 0.968935 0.058342 -0.024307 -803644.000000 0 0 1
-31.423704 -15.975757 25.513046 43.515394 0.470344 0.944313 0.052231 -0.026655 183188.000000 0 0 1
-31.126734 -17.355557 25.743206 43.963640 0.508642 0.945230 0.052700 -0.026709 -373763.000000 0 0 1
-30.882344 -17.642257 27.228456 44.792380 0.519029 0.917407 0.045872 -0.021787 -318212.000000 0 0 1
-29.817794 -16.891757 27.743016 44.092032 0.515422 0.890264 0.046381 -0.023870 -225456.000000 0 0 1
-29.323394 -17.387557 28.974996 44.740798 0.535226 0.866341 0.050914 -0.021209 111428.000000 0 0 1
-28.019424 -16.656857 29.354406 43.865935 0.536347 0.837685 0.066956 -0.027169 -260668.000000 0 0 1
-28.229034 -15.391957 29.877696 43.891542 0.499191 0.822056 0.081413 -0.034445 -247921.000000 0 0 1
-27.183234 -14.469057 29.695256 42.779552 0.489136 0.803563 0.075580 -0.032275 -464230.000000 0 0 1
-27.319114 -13.162357 30.527366 43.029080 0.448982 0.782066 0.090553 -0.027044 36373.000000 0 0 1
-26.665054 -13.295957 31.807337 43.583418 0.462550 0.752762 0.093140 -0.023892 474752.000000 0 0 1
-26.358124 -12.029557 32.435988 43.492003 0.428154 0.729073 0.096631 -0.023499 17450.300000 0 0 1
-25.473094 -12.078157 -33.650582 43.898999 0.442757 2.444241 0.097036 -0.021694 434965.000000 0 0 1
-24.080924 -12.313857 33.517016 43.068694 0.472689 0.678966 0.074530 -0.022689 548028.000000 0 0 1
-23.617824 -13.629557 33.597646 43.270871 0.523402 0.681784 0.070697 -0.015509 -340664.000000 0 0 1
-23.545524 -14.351957 -32.413972 42.556268 0.547405 2.436688 0.066543 -0.013641 -78271.400000 0 0 1
-22.516824 -13.981957 -31.476512 41.149402 0.555686 2.441733 0.057644 -0.012095 288961.000000 0 0 1
-22.283824 -14.918957 -30.455762 40.579521 0.589960 2.419646 0.060737 -0.011377 532882.000000 0 0 1
-20.932124 -14.849057 -29.656262 39.219156 0.617001 2.428233 0.061939 -0.006531 626556.000000 0 0 1
-20.713124 -13.779657 -28.696742 37.979145 0.587030 2.427354 0.047401 -0.014256 36437.000000 0 0 1
-21.432224 -13.867857 -27.471922 37.501523 0.574303 2.392864 0.055583 -0.007533 11987.000000 0 0 1
-21.050724 -12.735657 -26.519352 36.174660 0.544087 2.393653 0.058243 -0.003391 308156.000000 0 0 1
-19.752424 -12.923257 -25.966552 35.091746 0.579365 2.403810 0.055124 -0.013438 190957.000000 0 0 1
-19.458824 -11.772657 -25.206822 33.950334 0.544090 2.407534 0.059709 -0.023184 -445603.000000 0 0 1
-18.037524 -11.740657 -24.669192 32.737812 0.577009 2.424224 0.076073 -0.026907 -779028.000000 0 0 1
-17.756524 -12.555857 -23.529892 32.040592 0.615483 2.395546 0.089305 -0.026184 656141.000000 0 0 1
-16.402024 -12.576857 -23.052992 30.961980 0.654158 2.410669 0.099797 -0.024808 507875.000000 0 0 1
-15.460624 -13.506857 -23.794492 31.426803 0.718053 2.429720 0.071962 -0.019852 -1236520.000000 0 0 1
-14.763324 -12.883557 -24.828392 31.628956 0.717511 2.473475 0.070085 -0.029749 -124875.000000 0 0 1
-14.243024 -13.809357 -25.753342 32.508410 0.769940 2.485211 0.089197 -0.039243 -422140.000000 0 0 1
-13.349424 -13.064957 -26.771012 32.643335 0.774629 2.532393 0.096280 -0.038971 377664.000000 0 0 1
-14.105924 -12.134957 -27.548012 33.243454 0.710428 2.547532 0.084149 -0.041505 -52871.000000 0 0 1
-13.202324 -11.560457 -28.415312 33.397238 0.719191 2.588356 0.091021 -0.045477 -277571.000000 0 0 1
-13.888724 -10.599757 -29.420292 34.217029 0.651890 2.605702 0.067640 -0.040630 -192405.000000 0 0 1
-13.066724 -9.586157 -29.962582 34.064498 0.632943 2.645783 0.059803 -0.037935 -312450.000000 0 0 1
-12.305324 -10.075157 -31.014902 34.854755 0.686078 2.667775 0.074849 -0.033518 -927606.000000 0 0 1
-11.509024 -9.037657 -31.786912 34.993495 0.665693 2.710157 0.054046 -0.018370 -583555.000000 0 0 1
-10.231424 -8.872157 -31.228782 34.038714 0.714365 2.732417 0.043782 -0.018608 -387971.000000 0 0 1
-9.695424 -7.675057 -31.789202 34.109546 0.669608 2.770616 0.034849 -0.011451 374926.000000 0 0 1
-8.189824 -7.305757 -31.609052 33.460118 0.728407 2.807409 0.054173 -0.016801 262399.000000 0 0 1
-7.665724 -7.134757 -30.303832 32.062288 0.749539 2.808865 0.058237 -0.015881 -5853.200000 0 0 1
-7.953024 -5.931457 -29.601582 31.219969 0.640815 2.818197 0.070232 -0.020684 -692267.000000 0 0 1
-7.248924 -4.697357 -30.104242 31.318963 0.574973 2.862169 0.061381 -0.027073 221538.000000 0 0 1
-5.855224 -4.644157 -29.807802 30.730391 0.670559 2.895937 0.087095 -0.034130 409891.000000 0 0 1
-5.259524 -3.491057 -30.337302 30.987126 0.585987 2.936437 0.113523 -0.042167 375108.000000 0 0 1
-3.786724 -3.222357 -29.902582 30.313154 0.705052 2.976820 0.129714 -0.026396 -263199.000000 0 0 1
-2.885424 -4.113657 -30.482702 30.894061 0.959114 2.978223 0.151899 -0.031578 -1384820.000000 0 0 1
-1.551324 -3.923257 -30.261812 30.554473 1.194247 3.003074 0.170231 -0.031936 -746745.000000 0 0 1
-0.863824 -2.654457 -30.910072 31.035865 1.256181 3.051527 0.167102 -0.031332 -120655.000000 0 0 1
0.565076 -2.552857 -30.873912 30.984429 -1.352958 3.057106 0.155342 -0.026883 760885.000000 0 0 1
0.955476 -1.439357 -31.672622 31.719705 -0.984766 3.087100 0.123475 -0.021242 333.573000 0 0 1
1.385076 -0.253357 -30.731102 30.763343 -0.180919 3.095806 0.118756 -0.033694 -354178.000000 0 0 1
0.427076 0.308043 -29.860912 29.865555 0.624869 3.123960 0.134465 -0.031649 -419923.000000 0 0 1
0.925976 1.465943 -29.222122 29.273518 1.007423 3.082327 0.158758 -0.050193 -303413.000000 0 0 1
-0.029224 2.136243 -28.238032 28.318737 -1.557117 3.066078 0.135718 -0.047409 -728860.000000 0 0 1
-1.123124 2.736443 -28.793752 28.945288 -1.181329 3.039223 0.108927 -0.059912 -993585.000000 0 0 1
-1.827024 3.677543 -28.080132 28.378798 -1.109707 2.996384 0.141789 -0.059109 -282274.000000 0 0 1
-3.127924 4.207943 -28.721532 29.196183 -0.931572 2.961029 0.170234 -0.059502 22913.400000 0 0 1
-2.950024 4.764543 -29.988912 30.508005 -1.016406 2.956858 0.170786 -0.061778 851287.000000 0 0 1
-4.211224 5.183843 -30.575092 31.296052 -0.888555 2.926531 0.190789 -0.054811 766645.000000 0 0 1
-4.115424 5.622943 -32.058452 32.806990 -0.938981 2.927566 0.182646 -0.051230 -84352.700000 0 0 1
-3.908624 4.668743 -33.110942 33.666140 -0.873786 2.959731 0.209915 -0.054548 -94264.500000 0 0 1
-2.765724 3.853543 -33.083352 33.421658 -0.948283 2.999188 0.199110 -0.056663 -401985.000000 0 0 1
-2.391524 3.116443 33.009468 33.242392 -0.916259 0.118448 0.183356 -0.050773 429522.000000 0 0 1
-3.504324 2.418343 32.400796 32.679356 -0.604052 0.130661 0.177919 -0.058534 748351.000000 0 0 1
-3.209824 1.817643 31.152876 31.370504 -0.515252 0.117859 0.160581 -0.048070 58851.000000 0 0 1
-2.933924 2.817343 30.003876 30.278341 -0.765130 0.134748 0.144826 -0.043598 834944.000000 0 0 1
-4.142124 3.489343 29.592606 30.084133 -0.700068 0.181014 0.119100 -0.043592 377610.000000 0 0 1
-3.844624 4.682343 28.881626 29.510233 -0.883327 0.206772 0.103381 -0.039372 -494156.000000 0 0 1
-5.064224 5.531343 28.657776 29.622800 -0.829456 0.255951 0.101977 -0.029216 -440915.000000 0 0 1
-4.934824 6.339443 27.513606 28.662512 -0.909346 0.284094 0.093940 -0.017529 1164340.000000 0 0 1
-6.250324 6.894043 27.191196 28.739442 -0.834332 0.329735 0.083844 -0.009986 876808.000000 0 0 1
-6.303624 7.562343 25.840196 27.652133 -0.875928 0.364018 0.084334 -0.011663 -224908.000000 0 0 1
-5.483724 8.693143 25.854036 27.822171 -1.008030 0.378391 0.096181 -0.013750 -43559.300000 0 0 1
-5.277524 9.317643 24.546026 26.780182 -1.055448 0.411369 0.090908 -0.016193 241778.000000 0 0 1
-4.807224 10.807043 24.717186 27.401476 -1.152256 0.446327 0.092843 -0.012518 -25854.900000 0 0 1
-4.727724 11.590143 23.528226 26.650708 -1.183490 0.488928 0.096356 -0.019908 432582.000000 0 0 1
-4.128524 12.893443 23.792386 27.374500 -1.260909 0.517327 0.093432 -0.015221 1024000.000000 0 0 1
-2.557024 13.068743 23.711426 27.194892 -1.377578 0.511712 0.067546 -0.009268 1360000.000000 0 0 1
-1.673724 12.575643 24.750266 27.812297 -1.438481 0.473662 0.066201 -0.001949 637308.000000 0 0 1
-1.907024 13.194343 26.042206 29.256178 -1.427257 0.473136 0.088824 -0.001073 -717305.000000 0 0 1
-1.071524 12.527543 27.142276 29.913052 -1.485471 0.433806 0.081540 0.002647 654958.000000 0 0 1
0.318976 12.810443 26.954576 29.845576 1.545902 0.443781 0.070168 0.009919 167581.000000 0 0 1
1.054376 12.275243 28.034226 30.622070 1.485112 0.414070 0.082473 -0.007732 429741.000000 0 0 1
2.597476 12.407843 27.889176 30.635072 1.364435 0.426625 0.081153 -0.002192 516489.000000 0 0 1
3.016776 13.745743 28.108966 31.435018 1.354752 0.464171 0.078826 -0.001449 264582.000000 0 0 1
4.413076 13.984743 27.991306 31.600024 1.265123 0.482581 0.093817 -0.007099 411018.000000 0 0 1
4.931576 15.442643 28.254556 32.574770 1.261685 0.520892 0.087860 -0.012612 -38025.900000 0 0 1
4.813476 15.863243 29.641816 33.962469 1.276190 0.509924 0.096434 -0.009513 22557.800000 0 0 1
3.836276 16.849943 29.872646 34.511050 1.346939 0.524456 0.073668 -0.009016 -132087.000000 0 0 1
4.086676 18.337143 29.378286 34.871700 1.351517 0.568949 0.075422 -0.009952 -72237.800000 0 0 1
4.978376 19.024643 30.251536 36.081529 1.314855 0.576415 0.107166 -0.009325 265262.000000 0 0 1
5.610276 20.052943 29.480486 36.092864 1.297998 0.614962 0.086411 -0.005794 -477589.000000 0 0 1
6.750876 20.752143 30.163826 37.230125 1.256284 0.626304 0.100314 -0.006833 -727238.000000 0 0 1
6.322276 21.710743 31.089416 38.443196 1.287428 0.628840 0.103013 -0.032137 377284.000000 0 0 1
7.422576 22.471243 31.558435 39.445991 1.251765 0.643432 0.095102 -0.031591 -189746.000000 0 0 1
7.755476 23.753043 30.757446 39.627957 1.255204 0.682251 0.097031 -0.022784 -85078.700000 0 0 1
8.213876 23.564843 29.412526 38.572870 1.235401 0.703599 0.078332 -0.020136 232743.000000 0 0 1
8.379076 24.788443 28.685016 38.826614 1.244831 0.739512 0.079217 -0.022550 -113561.000000 0 0 1
8.825276 24.655043 27.212526 37.766099 1.227057 0.766195 0.089423 -0.024420 -510950.000000 0 0 1
7.846176 24.290443 26.290446 36.643904 1.258361 0.770651 0.081250 -0.016186 57010.600000 0 0 1
8.377176 24.132343 24.975536 35.725684 1.236676 0.796670 0.091950 -0.024667 -179573.000000 0 0 1
31.489260 2.730943 7.526308 32.491181 0.086510 1.337032 0.194462 0.003550 222326.000000 0 0 1
30.685140 3.825743 7.936708 31.924997 0.124037 1.319557 0.191039 -0.019952 46075.100000 0 0 1
29.460240 3.359843 8.462608 30.835208 0.113556 1.292783 0.177553 -0.008235 237988.000000 0 0 1
28.912240 4.335143 9.616808 30.776518 0.148833 1.253002 0.155396 -0.018759 308521.000000 0 0 1
28.386840 5.654943 9.281508 30.396340 0.196636 1.260491 0.177826 -0.014589 235811.000000 0 0 1
29.389940 6.566043 8.889408 31.399093 0.219802 1.283761 0.208533 -0.032922 -102450.000000 0 0 1
29.040840 8.037443 8.731808 31.372207 0.270005 1.288742 0.260850 -0.040861 -79522.900000 0 0 1
28.119940 8.350943 7.723508 30.333510 0.288680 1.313342 0.187810 -0.036051 -46973.000000 0 0 1
28.482040 9.578243 7.148008 30.887916 0.324410 1.337262 0.214258 -0.064491 380088.000000 0 0 1
27.580040 9.954243 5.879108 29.905008 0.346372 1.372915 0.179296 -0.052762 -593675.000000 0 0 1
26.285240 10.250143 6.225008 28.891694 0.371820 1.353633 0.167337 -0.040107 -771605.000000 0 0 1
25.450940 10.064643 5.049508 27.830647 0.376580 1.388349 0.188050 -0.042187 341773.000000 0 0 1
24.020840 10.615243 5.211608 26.773961 0.416113 1.374894 0.136736 -0.042004 -55511.800000 0 0 1
24.037640 11.987343 5.564108 27.431074 0.462599 1.366539 0.119675 -0.036758 -148159.000000 0 0 1
22.735940 12.252743 5.995508 26.514125 0.494293 1.342698 0.123362 -0.034624 -223231.000000 0 0 1
22.423940 13.721443 6.407708 27.058636 0.549131 1.331717 0.116114 -0.022041 -61699.000000 0 0 1
22.633940 14.590843 5.325208 27.450788 0.572601 1.375567 0.119695 -0.028383 309064.000000 0 0 1
22.280440 15.884943 5.703208 27.951315 0.619368 1.365313 0.138976 -0.035909 -175671.000000 0 0 1
21.842540 16.780143 4.507308 27.910313 0.655068 1.408593 0.124564 -0.037440 -1028840.000000 0 0 1
20.593840 16.430043 4.063408 26.656404 0.673406 1.417763 0.141898 -0.034649 -826615.000000 0 0 1
20.118140 17.347143 3.072808 26.741449 0.711571 1.455634 0.152081 -0.032008 171546.000000 0 0 1
18.595840 17.368343 2.786508 25.597446 0.751280 1.461721 0.123256 -0.032538 -46909.900000 0 0 1
17.849340 18.004443 3.790808 25.634530 0.789724 1.422373 0.134879 -0.039204 646673.000000 0 0 1
16.470440 17.867943 3.421408 24.540677 0.826074 1.430923 0.095391 -0.043830 732437.000000 0 1 0
15.504840 18.939543 4.069408 24.812627 0.884787 1.406047 0.126747 -0.050589 169026.000000 0 1 0
14.159140 18.545243 3.941708 23.663143 0.918716 1.403440 0.127878 -0.055060 -315162.000000 0 1 0
13.342140 19.665843 4.134608 24.121631 0.974686 1.398539 0.103787 -0.053421 625512.000000 0 1 0
11.804940 19.401343 3.913508 23.045266 1.024179 1.400151 0.088674 -0.044359 664200.000000 0 1 0
11.230040 18.860743 5.076608 22.530277 1.033752 1.343521 0.074670 -0.047990 -496599.000000 0 1 0
9.840440 19.041743 4.874008 21.981315 1.093813 1.347204 0.056706 -0.030785 79918.900000 0 1 0
9.049340 18.783543 6.176708 21.745431 1.121839 1.282785 0.032115 -0.018404 -394589.000000 0 1 0
9.430340 19.639643 7.247608 22.960286 1.123139 1.249646 0.063630 -0.019967 146143.000000 0 1 0
8.680840 19.317143 8.411908 22.787479 1.148454 1.192706 0.061097 -0.007107 693404.000000 0 1 0
7.433340 20.200343 8.774208 23.244249 1.218194 1.183724 0.061909 -0.006131 560461.000000 0 1 0
6.441740 20.177643 7.790208 22.568133 1.261773 1.218359 0.047824 -0.015870 -375790.000000 0 1 0
6.361940 21.402443 7.041508 23.411999 1.281862 1.265302 0.053544 -0.014199 6293.500000 0 1 0
5.059740 21.453743 6.134408 22.880014 1.339185 1.299364 0.028893 -0.018062 1181470.000000 0 1 0
3.823640 21.656743 6.831208 23.028247 1.396041 1.269619 0.025427 -0.017759 393953.000000 0 1 0
3.674540 22.926743 7.445208 24.383784 1.411875 1.260507 0.046104 -0.027375 -791680.000000 0 1 0
3.633540 24.187143 6.573308 25.326446 1.421685 1.308247 0.075267 -0.035104 -688666.000000 0 0 1
2.519040 24.293643 5.755908 25.092970 1.467474 1.339352 0.024137 -0.020642 -381962.000000 0 0 1
2.668240 25.317243 4.792508 25.904641 1.465792 1.384719 0.051020 -0.031490 -123986.000000 0 0 1
1.297540 25.524643 4.113008 25.886441 1.520005 1.411234 0.056538 -0.031254 -228512.000000 0 0 1
0.375740 26.098143 4.991708 26.573886 1.556400 1.381831 0.048181 -0.034185 5121.860000 0 0 1
-0.912160 26.146443 4.372208 26.525172 -1.535924 1.405208 0.071421 -0.035568 534425.000000 0 0 1
-2.029160 26.843843 5.195408 27.417178 -1.495349 1.380149 0.096560 -0.040019 -565221.000000 0 0 1
-3.092360 27.055143 4.346108 27.575934 -1.456992 1.412531 0.118995 -0.041661 -1022340.000000 0 0 1
-4.103060 27.803043 4.978908 28.541791 -1.424278 1.395457 0.133964 -0.044446 -448723.000000 0 0 1
-4.914460 28.544943 3.912108 29.227902 -1.400302 1.436545 0.145173 -0.053770 -348434.000000 0 0 1
-4.271560 29.609643 3.257208 30.092966 -1.427522 1.462346 0.156114 -0.055713 -30257.100000 0 0 1
-4.850160 29.708643 1.952608 30.165215 -1.408966 1.506021 0.178529 -0.060764 -221377.000000 0 0 1
-4.043560 30.441843 0.874008 30.721655 -1.438740 1.542343 0.158801 -0.056304 -313620.000000 0 0 1
-3.747360 31.806843 1.123008 32.046515 -1.453521 1.535746 0.174267 -0.053111 806412.000000 0 0 1
-2.543460 31.981843 1.912008 32.139746 -1.491435 1.511271 0.183792 -0.053202 681273.000000 0 0 1
-1.799160 33.321743 1.637308 33.410422 -1.516855 1.521771 0.178513 -0.052786 -477841.000000 0 0 1
-1.076260 33.298743 0.422108 33.318806 -1.538486 1.558127 0.135015 -0.052633 701994.000000 0 0 1
0.065040 -33.495762 0.312708 33.497285 -1.568855 1.561461 0.115122 -0.050074 940666.000000 0 0 1
1.347240 33.783243 1.068808 33.826985 1.530939 1.539195 0.075421 -0.039363 -589484.000000 0 0 1
1.142740 -33.656862 2.490008 33.768186 -1.536857 1.496991 0.087067 -0.040408 532855.000000 0 0 1
2.283940 33.658743 3.281108 33.895325 1.503044 1.473843 0.056707 -0.031507 463210.000000 0 0 1
1.893140 -33.713862 4.762008 34.101103 -1.514702 1.430695 0.057630 -0.030333 553128.000000 0 0 1
0.983840 32.993743 5.351208 33.439355 1.540986 1.410078 0.115237 -0.047419 384356.000000 0 0 1
0.458340 33.444243 6.606608 34.093617 1.557093 1.375784 0.131732 -0.034087 -429751.000000 0 0 1
1.382240 33.353343 7.791008 34.279088 1.529378 1.341511 0.094481 -0.023278 -573398.000000 0 0 1
1.577440 32.088343 8.355808 33.195928 1.521677 1.316348 0.100751 -0.033167 97493.200000 0 0 1
2.717140 32.088143 9.197308 33.490629 1.486320 1.292598 0.103268 -0.026336 -156298.000000 0 0 1
3.339340 30.713343 9.305708 32.265412 1.462496 1.278229 0.102168 -0.029297 -239517.000000 0 0 1
2.582440 29.780943 10.027908 31.529867 1.484298 1.247130 0.131170 -0.038062 86533.200000 0 0 1
3.196440 28.506043 9.948808 30.361003 1.459131 1.236945 0.089177 -0.035405 -201784.000000 0 0 1
2.676440 27.574243 10.994008 29.805544 1.474036 1.193016 0.083766 -0.039806 -812957.000000 0 0 1
3.053140 27.960643 12.296508 30.697285 1.462033 1.158654 0.108650 -0.038416 -78506.800000 0 0 1
2.716740 27.081343 13.353408 30.316552 1.470813 1.114679 0.120471 -0.033419 -899958.000000 0 0 1
1.227940 26.844643 13.587008 30.112281 1.525086 1.102674 0.089598 -0.028514 -772418.000000 0 0 1
0.568240 27.961643 14.156208 31.346046 1.550477 1.102227 0.103961 -0.024353 -15534.600000 0 0 1
-0.072760 28.723743 13.147608 31.589845 -1.568263 1.141537 0.130855 -0.034512 -351411.000000 0 0 1
-0.829760 29.987743 13.741008 32.996493 -1.543133 1.141272 0.149418 -0.033280 368775.000000 0 0 1
-1.790960 29.528443 14.684408 33.026782 -1.510219 1.110045 0.133961 -0.029602 82896.600000 0 0 1
-2.595560 30.622543 15.105308 34.243940 -1.486239 1.113962 0.154112 -0.033068 166232.000000 0 0 1
-3.887260 30.291443 15.889308 34.426043 -1.443165 1.091056 0.152361 -0.020516 344927.000000 0 0 1
-4.887760 29.714443 15.067708 33.673048 -1.407765 1.106861 0.124223 -0.028150 403462.000000 0 0 1
-6.091360 29.500243 15.802908 34.016186 -1.367173 1.087647 0.107794 -0.021294 33963.400000 0 0 1
-7.130660 28.659543 15.027108 33.136531 -1.326942 1.100118 0.081566 -0.026794 490569.000000 0 0 1
-8.337760 28.578243 15.792608 33.699268 -1.286924 1.083053 0.072140 -0.029528 -22795.200000 0 0 1
-9.350760 27.824443 15.209508 33.060028 -1.246591 1.092737 0.068810 -0.028858 -64288.000000 0 0 1
-10.541660 27.593643 16.177608 33.678639 -1.205875 1.069740 0.059082 -0.025118 -13897.200000 0 0 1
-11.366560 28.705243 16.406408 34.962264 -1.193765 1.082343 0.053253 -0.030761 102445.000000 0 0 1
-11.769760 28.661643 17.793908 35.730102 -1.181147 1.049495 0.063903 -0.025795 16487.800000 0 0 1
-12.719960 29.830443 18.235608 37.204706 -1.167733 1.058543 0.065042 -0.024257 434045.000000 0 0 1
-14.029260 29.701843 17.640108 37.285292 -1.129524 1.077977 0.065422 -0.016466 1069230.000000 0 0 1
-14.808960 30.887443 17.909908 38.653645 -1.123724 1.089032 0.073318 -0.011334 154109.000000 0 0 1
-15.634560 30.890043 19.195408 39.586588 -1.102252 1.064551 0.073731 -0.013318 -344778.000000 0 0 1
-14.879760 30.942743 20.402708 39.939092 -1.122561 1.034628 0.064818 -0.018978 415087.000000 0 0 1
-15.813760 30.560143 21.395508 40.518701 -1.093276 1.014505 0.070946 -0.018306 181900.000000 0 0 1
-15.244760 30.448843 22.791608 40.975507 -1.106614 0.980960 0.058352 -0.009849 -178312.000000 0 0 1
-14.158760 29.502143 22.862508 39.919183 -1.123339 0.960976 0.054844 -0.014314 1009740.000000 0 0 1
-13.625860 29.311943 24.199708 40.379202 -1.135656 0.928156 0.060597 -0.002749 90707.000000 0 0 1
-13.100760 30.512943 25.037408 41.587755 -1.165246 0.924745 0.058072 0.001695 -767738.000000 0 0 1
-14.143260 31.330543 25.467908 42.781410 -1.146761 0.933153 0.063140 -0.003688 240873.000000 0 0 1
-13.618560 32.466243 26.235608 43.907052 -1.173620 0.930384 0.068153 -0.007032 99009.200000 0 0 1
-14.714160 33.472243 26.691708 45.269690 -1.156631 0.940214 0.084049 -0.015445 565311.000000 0 0 1
-15.561260 33.082543 27.832908 45.948648 -1.131127 0.920101 0.077214 -0.017468 517913.000000 0 0 1
-14.934060 32.734643 29.041108 46.238176 -1.142785 0.891718 0.078696 -0.002590 -51683.800000 0 0 1
-15.839660 31.883443 30.033508 46.577466 -1.109713 0.870025 0.074346 -0.009928 79653.900000 0 0 1
-16.968060 32.486143 30.585908 47.736384 -1.089455 0.875354 0.073454 -0.008592 -451398.000000 0 0 1
-17.287160 32.013143 31.912208 48.395002 -1.075662 0.850761 0.061299 -0.007109 -1174280.000000 0 0 1
-18.683560 32.306443 32.331708 49.377333 -1.046468 0.856894 0.050846 -0.007456 -1173570.000000 0 0 1
-19.004160 33.672243 32.432708 50.466411 -1.056975 0.872832 0.057286 -0.005314 38306.000000 0 0 1
-20.403360 33.791443 32.670008 51.239517 -1.027586 0.879425 0.073091 -0.008985 433785.000000 0 0 1
-20.769360 -32.370962 32.874708 50.596363 1.000346 0.863548 0.081058 -0.010449 -130890.000000 0 0 1
-20.359060 -31.623662 -33.356001 50.270967 0.998798 2.296316 0.078079 -0.008724 -124531.000000 0 0 1
-21.139760 -31.812462 -32.164801 49.934924 0.984287 2.270687 0.080527 -0.008601 199991.000000 0 0 1
-20.812360 -30.857962 -30.981201 48.427296 0.977420 2.264965 0.099079 -0.012823 -17928.400000 0 0 1
-21.185060 -29.535562 -31.188201 47.894259 0.948572 2.279946 0.107649 -0.011412 -32830.800000 0 0 1
-20.799260 -28.736262 -30.093601 46.518886 0.944276 2.274324 0.079724 -0.005236 -69523.200000 0 0 1
-21.283160 -27.305862 -30.227501 45.959600 0.908721 2.288554 0.084102 -0.020436 -956594.000000 0 0 1
-22.631260 -27.194162 -29.968701 46.366145 0.876721 2.273586 0.081981 -0.017931 -1184750.000000 0 0 1
-22.942460 -25.840762 -29.974701 45.744772 0.844740 2.285323 0.084425 -0.020787 -330253.000000 0 0 1
-24.133960 -25.586162 -29.068001 45.629468 0.814597 2.261454 0.090776 -0.027014 -500010.000000 0 0 1
-23.886960 -25.975062 -27.693301 44.857660 0.827251 2.236178 0.080875 -0.030275 375025.000000 0 0 1
-23.062660 -25.028862 -26.997901 43.442109 0.826260 2.241412 0.076725 -0.034709 150350.000000 0 0 1
-22.922160 -25.359862 -25.464701 42.626271 0.835844 2.211045 0.074984 -0.031842 -74081.300000 0 0 1
-24.058060 -24.892262 -24.787701 42.577518 0.802438 2.192201 0.071148 -0.035991 -113394.000000 0 0 1
-24.012760 -25.108762 -23.382801 41.878610 0.807707 2.163188 0.070652 -0.022511 -430134.000000 0 0 1
-25.378560 -24.832562 -22.660801 42.121721 0.774525 2.138840 0.066675 -0.025129 952792.000000 0 0 1
-26.512760 -25.535962 -23.164701 43.492703 0.766633 2.132479 0.070023 -0.023860 119698.000000 0 0 1
-26.565360 -26.922062 -22.876301 44.202273 0.792067 2.114766 0.066564 -0.000808 -979432.000000 0 0 1
-27.970860 -27.538362 -22.963501 45.475848 0.777607 2.100132 0.051998 -0.000382 257090.000000 0 0 1
-28.683560 -27.264462 -21.734501 45.149596 0.760039 2.073035 0.065307 0.001837 1123130.000000 0 0 1
-29.953360 -26.587362 -21.983001 45.687459 0.725936 2.072774 0.064818 -0.002487 1169220.000000 0 0 1
-30.693460 -26.160362 -20.710701 45.336367 0.705834 2.045217 0.073570 0.004852 -392929.000000 0 0 1
-31.172160 -27.133662 -19.880701 45.860456 0.716245 2.019174 0.085169 0.013435 -317468.000000 0 0 1
-31.833460 -26.641762 -18.760201 45.553241 0.696846 1.995258 0.096364 0.015497 -1253810.000000 0 0 1
-32.819960 -27.706462 -18.294401 46.684933 0.701115 1.973459 0.074511 0.010044 -311666.000000 0 0 1
-33.999660 -27.851262 -19.086801 47.916340 0.686317 1.980498 0.075319 0.019208 1320670.000000 0 0 1
-34.993160 -26.795562 -19.132501 48.047643 0.653497 1.980348 0.055949 0.022152 69160.600000 0 0 1
-35.673360 -26.334062 -17.811001 47.783922 0.635906 1.952757 0.064752 0.016241 -919459.000000 0 0 1
-35.014760 -25.384162 -17.032201 46.481017 0.627279 1.945969 0.056503 0.026016 -250.992000 0 0 1
-35.668660 -25.092662 -15.789301 46.380998 0.613067 1.918166 0.051400 0.020024 -89971.800000 0 0 1
-35.107760 -25.698962 -14.488101 45.857350 0.631883 1.892242 0.063473 0.019087 -157341.000000 0 0 1
-35.416460 -27.054562 -14.295401 46.804203 0.652337 1.881186 0.080531 0.014565 58427.600000 0 0 1
-35.354060 -27.465362 -12.953301 46.605189 0.660475 1.852442 0.086661 0.007992 128332.000000 0 0 1
-36.025660 -28.879262 -12.746501 47.899199 0.675734 1.840153 0.107731 0.001394 22743.700000 0 0 1
-35.450960 -29.879462 -13.530901 48.297392 0.700322 1.854755 0.100158 -0.001525 121608.000000 0 0 1
-35.966160 -31.168462 -13.203401 49.389953 0.714056 1.841417 0.078107 -0.015124 -324395.000000 0 0 1
-35.486860 -32.333362 -14.148601 50.049440 0.738934 1.857396 0.078022 -0.001660 -826065.000000 0 0 1
-34.110860 -32.506762 -14.074901 49.176653 0.761324 1.861066 0.062487 -0.000400 -891836.000000 0 0 1
-33.778460 -33.521562 -14.952401 49.882400 0.781581 1.875230 0.100995 -0.027292 -250682.000000 0 0 1
-32.266660 -33.660762 -15.185801 49.038687 0.806541 1.885642 0.088887 -0.019267 -28311.000000 0 0 1
-31.938760 33.091043 -16.247701 48.775909 -0.803116 1.910395 0.105630 -0.024531 -567111.000000 0 0 1
-30.567860 32.848643 -16.387001 47.769878 -0.821348 1.920948 0.100020 -0.024602 -857558.000000 0 0 1
9.708576 19.130243 -8.954692 23.246702 1.101168 1.966224 0.111467 -0.040235 -181659.000000 0 1 0
8.404076 19.562843 -9.283492 23.227495 1.165041 1.981961 0.087069 -0.033715 73850.100000 0 1 0
8.123176 19.821743 -10.664092 23.929278 1.181861 2.032697 0.088737 -0.026504 169565.000000 0 1 0
8.104876 18.648943 -11.694992 23.457300 1.160821 2.092739 0.078776 -0.015884 76749.500000 0 1 0
9.366776 18.160643 -12.107692 23.751666 1.094610 2.105704 0.112854 -0.033057 127935.000000 0 1 0
9.121176 16.929343 -12.827992 23.116139 1.076609 2.159083 0.092918 -0.039008 -132439.000000 0 1 0
10.310476 16.518343 -13.683192 23.798977 1.012784 2.183338 0.123258 -0.036978 -174568.000000 0 1 0
10.080676 15.275343 -14.271292 23.208315 0.987471 2.233083 0.125025 -0.046956 229673.000000 0 1 0
11.192776 14.959743 -15.070292 24.003871 0.928453 2.249555 0.165058 -0.053123 -713009.000000 0 1 0
11.159076 13.569443 -15.683292 23.550380 0.882564 2.299558 0.159812 -0.052070 -469736.000000 0 1 0
11.272076 12.497943 -14.792692 22.407187 0.836925 2.291850 0.147916 -0.046309 989177.000000 0 1 0
12.556276 12.312343 -14.154192 22.574211 0.775590 2.248502 0.179268 -0.046290 736343.000000 0 1 0
13.648576 11.619243 -15.000892 23.373429 0.705257 2.267630 0.192673 -0.047584 -38361.600000 0 1 0
14.304076 12.475143 -15.942592 24.787134 0.717207 2.269441 0.164939 -0.040721 148665.000000 0 1 0
15.203676 11.759443 -16.755492 25.498682 0.658348 2.287777 0.166430 -0.044164 -185905.000000 0 0 1
15.849676 12.720643 -17.774392 26.999185 0.676313 2.289395 0.120692 -0.033242 505555.000000 0 0 1
16.963976 13.516343 -17.320092 27.757046 0.672767 2.244633 0.104507 -0.032151 356450.000000 0 0 1
17.733376 13.901443 -18.402792 29.092705 0.664855 2.255646 0.064948 -0.013203 613023.000000 0 0 1
19.026876 14.769443 -18.095192 30.126308 0.660085 2.215103 0.071714 -0.011694 496643.000000 0 0 1
18.850876 16.083543 -17.565292 30.373926 0.706348 2.187442 0.085208 -0.018808 224649.000000 0 0 1
18.159376 17.003043 -18.423692 30.956402 0.752525 2.208248 0.076661 -0.009744 79145.000000 0 0 1
17.915676 18.365543 -17.722492 31.182548 0.797797 2.175291 0.086516 -0.006893 -35579.100000 0 0 1
19.068076 19.174943 -17.691692 32.315104 0.788193 2.150139 0.099068 -0.013919 -237942.000000 0 0 1
18.823976 20.490943 -17.274992 32.751277 0.827773 2.126405 0.093102 -0.011067 395648.000000 0 0 1
20.009176 21.559043 -17.364592 34.156822 0.822666 2.104097 0.105467 -0.012524 430152.000000 0 0 1
21.123376 21.440443 -16.569192 34.357353 0.792847 2.074030 0.100564 -0.012008 -585821.000000 0 0 1
20.741076 21.820143 -15.250592 33.747465 0.810746 2.039694 0.107203 -0.012689 -221342.000000 0 0 1
21.838976 22.717143 -14.610192 34.734236 0.805105 2.004934 0.089934 -0.017430 423170.000000 0 0 1
23.021776 22.000843 -14.300192 34.907517 0.762726 1.992877 0.096685 -0.024481 -89100.900000 0 0 1
24.007376 22.913743 -13.848692 35.960812 0.762094 1.966118 0.078652 -0.027931 -1073760.000000 0 0 1
25.407276 22.381243 -13.770092 36.552225 0.722161 1.957053 0.066736 -0.017379 -627549.000000 0 0 1
26.170676 22.400843 -14.985192 37.566714 0.707939 1.981108 0.096465 -0.009259 117350.000000 0 0 1
27.128276 23.426543 -14.975492 38.845999 0.712306 1.966556 0.081632 -0.011661 -424349.000000 0 0 1
27.588676 23.758843 -16.417592 39.939391 0.710950 1.994416 0.101338 -0.020122 364688.000000 0 0 1
28.421276 22.748143 -17.065692 40.205532 0.674980 2.009163 0.112263 -0.030805 610832.000000 0 0 1
28.293976 22.874043 -18.443192 40.791203 0.679867 2.039956 0.105289 -0.022281 -1318070.000000 0 0 1
29.101576 21.889143 -19.268992 41.198669 0.644884 2.057493 0.103835 -0.027091 855503.000000 0 0 1
30.481276 22.308143 -19.321892 42.427549 0.631793 2.043628 0.102519 -0.021508 904653.000000 0 0 1
31.350076 21.319743 -19.925792 42.829848 0.597214 2.054692 0.126200 -0.018875 115349.000000 0 0 1
32.792376 21.803143 -20.008092 44.170586 0.586768 2.040894 0.134973 -0.015265 -597941.000000 0 0 1
33.039176 22.840343 -20.896092 45.275988 0.604871 2.050512 0.120312 -0.015025 -625055.000000 0 0 1
34.367676 23.258943 -20.848492 46.441094 0.594963 2.036356 0.116507 -0.010986 -494517.000000 0 0 1
34.701776 24.609443 -21.510392 47.671112 0.616854 2.038934 0.107603 -0.013252 -109503.000000 0 0 1
34.708176 24.779243 -22.907592 48.408947 0.620015 2.063727 0.106416 -0.010299 -59197.800000 0 0 1
33.476476 24.618143 -23.571292 47.773771 0.634083 2.086784 0.113488 -0.020034 -438241.000000 0 0 1
33.474276 24.812243 -25.090992 48.638795 0.637867 2.112812 0.112861 -0.028757 -307660.000000 0 0 1
33.405476 26.193143 -25.406692 49.472281 0.664969 2.110118 0.112637 -0.027718 438685.000000 0 0 1
32.080476 26.674743 -25.665932 48.984068 0.693652 2.122296 0.112088 -0.023362 832431.000000 0 0 1
31.507676 26.417343 -27.121522 49.256336 0.697745 2.153903 0.120704 -0.021463 56578.500000 0 0 1
31.096976 25.107443 -27.356122 48.433078 0.679232 2.171015 0.116187 -0.034409 -91417.000000 0 0 1
30.663376 25.003943 -28.718192 48.889409 0.684081 2.198653 0.117788 -0.042275 -5583.310000 0 0 1
29.936376 23.713243 -29.178732 48.061449 0.669918 2.223219 0.121285 -0.058682 338952.000000 0 0 1
28.615576 23.583443 -28.690302 46.884575 0.689292 2.229301 0.105704 -0.047880 403779.000000 0 0 1
27.920176 22.418843 -29.246282 46.232951 0.676545 2.255683 0.114076 -0.064470 89050.500000 0 0 1
26.460276 22.361343 -28.776462 45.036215 0.701637 2.263945 0.109611 -0.050313 -331022.000000 0 0 1
26.388376 22.220843 -27.384362 44.045607 0.699872 2.241743 0.106266 -0.031244 294305.000000 0 0 1
25.034776 22.295543 -26.978042 43.030756 0.727588 2.248426 0.101338 -0.036340 5728.020000 0 0 1
24.927976 22.604543 -25.474492 42.205676 0.736556 2.218780 0.113645 -0.033974 -388322.000000 0 0 1
25.255376 21.521243 -24.648092 41.334324 0.705738 2.209694 0.108813 -0.036448 340879.000000 0 0 1
25.476576 21.846843 -23.258592 40.832616 0.708847 2.176825 0.115343 -0.027485 -191436.000000 0 0 1
26.239776 20.780843 -22.439592 40.297699 0.669819 2.161379 0.116754 -0.020658 -257396.000000 0 0 1
27.500176 20.469543 -22.981392 41.272342 0.639870 2.161352 0.109516 -0.021153 -211332.000000 0 0 1
28.074976 19.546943 -22.122792 40.739479 0.608199 2.144839 0.133612 -0.026245 -556417.000000 0 0 1
29.183676 18.774843 -22.782692 41.511838 0.571675 2.151753 0.149095 -0.025011 -746893.000000 0 0 1
30.202176 18.244143 -22.000392 41.581696 0.543405 2.128322 0.153640 -0.026212 -255623.000000 0 0 1
31.269776 17.824343 -22.832292 42.624167 0.518082 2.136092 0.145256 -0.013274 -176953.000000 0 0 1
32.497376 17.413643 -22.025492 42.946905 0.491913 2.109302 0.126008 -0.011685 -276536.000000 0 0 1
33.130876 18.505343 -21.319092 43.527076 0.509386 2.082644 0.110284 -0.009972 481535.000000 0 0 1
34.455076 18.110143 -20.987492 44.222215 0.483930 2.065296 0.098562 -0.006884 730355.000000 0 0 1
35.289876 19.058943 -20.054892 44.842138 0.495186 2.034466 0.080746 -0.020162 261022.000000 0 0 1
34.755876 19.093643 -18.763492 43.870340 0.502355 2.012747 0.109819 -0.026765 -377737.000000 0 0 1
35.531176 19.837243 -17.901192 44.457095 0.509197 1.985220 0.096342 -0.032435 -663673.000000 0 0 1
34.961676 20.097643 -16.522692 43.580195 0.521720 1.959656 0.097697 -0.032291 -244416.000000 0 0 1
35.016376 19.013443 -15.670392 42.816104 0.497443 1.945496 0.093267 -0.032739 289294.000000 0 0 1
34.516976 19.363743 -14.390092 42.112360 0.511243 1.919529 0.084030 -0.034266 -201139.000000 0 0 1
34.885376 18.281943 -13.400792 41.602886 0.482708 1.898756 0.089668 -0.032712 1048510.000000 0 0 1
36.329076 18.210143 -13.271292 42.749716 0.464651 1.886454 0.059660 -0.024209 1292710.000000 0 0 1
36.873576 17.178743 -12.430692 42.535772 0.435983 1.867366 0.047086 -0.013062 209194.000000 0 0 1
36.737776 17.418443 -10.886192 42.090088 0.442737 1.832411 0.060665 -0.019317 -269779.000000 0 0 1
37.544976 18.493843 -10.477692 43.144286 0.457693 1.816101 0.049377 -0.008697 25476.100000 0 0 1
37.167976 18.900843 -9.199992 42.700587 0.470444 1.787953 0.043000 -0.009631 136905.000000 0 0 1
35.994776 19.936443 -9.152592 42.152765 0.505810 1.789669 0.038906 -0.008328 508846.000000 0 0 1
34.709676 19.445943 -9.449592 40.892555 0.510675 1.803987 0.040927 -0.023201 -1014630.000000 0 0 1
33.744076 20.415443 -9.437492 40.552672 0.544094 1.805672 0.025753 -0.007102 103242.000000 0 0 1
32.347176 19.880943 -9.893392 39.236091 0.551094 1.825698 0.023251 -0.012506 439957.000000 0 0 1
32.262576 19.553243 -11.253892 39.368175 0.544868 1.860703 0.051720 -0.022316 188096.000000 0 0 1
30.951276 19.205843 -11.692392 38.256475 0.555370 1.881398 0.053944 -0.026103 312507.000000 0 0 1
30.850176 18.350943 -12.961492 38.163998 0.536617 1.917316 0.095731 -0.031485 -270300.000000 0 0 1
31.319576 17.015143 -12.826292 37.880664 0.497665 1.916222 0.096848 -0.035766 129028.000000 0 0 1
31.164176 16.347743 -14.126092 37.920984 0.483109 1.952513 0.098369 -0.038012 -302641.000000 0 0 1
32.440476 15.844843 -14.832492 39.031351 0.454347 1.960609 0.108507 -0.039973 -276083.000000 0 0 1
33.033376 14.862343 -14.005792 38.836263 0.422787 1.939747 0.091918 -0.039238 -253493.000000 0 0 1
34.234576 14.419343 -14.573692 39.903836 0.398641 1.944666 0.100531 -0.040433 -364151.000000 0 0 1
35.016976 13.335943 -13.854392 39.949720 0.363883 1.924949 0.080530 -0.049615 -385680.000000 0 0 1
35.723876 13.842943 -12.749992 40.378022 0.369683 1.892060 0.069586 -0.032769 -360964.000000 0 0 1
36.427776 12.783143 -12.200092 40.487453 0.337492 1.876884 0.068860 -0.020598 -347380.000000 0 0 1
37.440576 13.208343 -11.123992 41.231059 0.339151 1.843978 0.083705 -0.016614 -368098.000000 0 0 1
-37.179089 13.808143 -11.607792 41.324210 -0.355607 1.855524 0.069449 -0.020327 134014.000000 0 0 1
-36.224589 14.101743 -10.545292 40.277577 -0.371237 1.835699 0.074180 -0.014882 -379705.000000 0 0 1
-34.842489 14.541343 -11.078892 39.347065 -0.395369 1.856225 0.106153 -0.020882 20807.300000 0 0 1
-34.091289 13.503143 -11.681592 38.483899 -0.377129 1.879207 0.133474 -0.019571 123348.000000 0 0 1
-33.649689 12.528843 -10.747692 37.480480 -0.356429 1.861634 0.148304 -0.014426 -1519950.000000 0 0 1
-32.467189 11.686543 -11.225492 36.286434 -0.345511 1.885314 0.192384 -0.016205 -293169.000000 0 0 1
-32.762289 10.900843 -12.354492 36.671916 -0.321203 1.914411 0.168366 -0.012662 41458.900000 0 0 1
-31.914289 9.778143 -12.390292 35.604119 -0.297307 1.926235 0.230403 -0.025617 -213257.000000 0 0 1
-31.936589 8.943843 -13.681992 35.876663 -0.273055 1.962065 0.218883 -0.040972 275484.000000 0 0 1
-33.180089 8.336143 -14.017992 36.971796 -0.246145 1.959678 0.175139 -0.043662 488853.000000 0 0 1
-32.995389 7.441143 -15.135192 37.055908 -0.221810 1.991543 0.182545 -0.050890 688028.000000 0 0 1
-34.338189 6.909243 -15.765692 38.411013 -0.198560 1.993741 0.186912 -0.051733 310376.000000 0 0 1
-35.112189 6.097343 -14.961392 38.650830 -0.171939 1.968271 0.198568 -0.054015 150292.000000 0 0 1
-36.086289 5.355843 -15.683992 39.710111 -0.147342 1.976823 0.150254 -0.059133 508131.000000 0 0 1
-37.306289 4.831643 -14.869292 40.449967 -0.128796 1.947220 0.142975 -0.058905 589459.000000 0 0 1
37.533276 3.961243 -15.486692 40.795537 0.105150 1.960179 0.143787 -0.047432 816303.000000 0 0 1
36.504976 3.481243 -14.592992 39.467553 0.095076 1.949533 0.158825 -0.044537 478416.000000 0 0 1
35.664876 2.323143 -15.114692 38.805080 0.065046 1.970888 0.154080 -0.031017 -403384.000000 0 0 1
36.374376 1.144843 -15.496592 39.554396 0.031464 1.973361 0.165393 -0.031840 -98132.400000 0 0 1
35.676976 -0.107057 -15.393492 38.856372 -0.003001 1.978131 0.151670 -0.036307 71082.100000 0 0 1
35.234876 -0.476957 -13.963792 37.903976 -0.013536 1.948083 0.154385 -0.036477 -720831.000000 0 0 1
36.290576 -0.509557 -13.082692 38.580077 -0.014040 1.916762 0.179930 -0.034956 -416970.000000 0 0 1
35.923276 -0.272357 -11.723192 37.788744 -0.007581 1.886231 0.176036 -0.032434 -244316.000000 0 0 1
35.876776 1.138543 -11.195992 37.600393 0.031724 1.873144 0.164925 -0.034365 721970.000000 0 0 1
34.696476 1.925043 -11.503492 36.604392 0.055426 1.890479 0.151504 -0.032003 1111000.000000 0 0 1
34.721176 3.224943 -10.979892 36.558423 0.092615 1.875844 0.141579 -0.035971 -406921.000000 0 0 1
33.501876 4.110443 -11.277692 35.587326 0.122083 1.893258 0.132059 -0.033003 -478748.000000 0 0 1
33.435876 4.677243 -12.593692 36.033810 0.138985 1.927830 0.133623 -0.039063 996651.000000 0 0 1
32.326476 5.557543 -12.840492 35.224502 0.170255 1.943928 0.138875 -0.041314 417386.000000 0 0 1
32.564376 6.397343 -14.089292 36.053747 0.193982 1.972281 0.083069 -0.042223 -242786.000000 0 0 1
32.784076 5.574243 -15.240592 36.580643 0.168418 2.000531 0.071712 -0.025950 317046.000000 0 0 1
33.227876 6.391143 -16.330792 37.571707 0.190022 2.020453 0.072805 -0.021284 -673540.000000 0 0 1
32.174576 7.317943 -16.955292 37.097676 0.223640 2.045466 0.095307 -0.028858 661166.000000 0 0 1
30.941676 6.887843 -17.551892 36.233942 0.219036 2.076479 0.074872 -0.013670 769287.000000 0 0 1
30.023776 6.296643 -16.698092 34.927082 0.206726 2.069269 0.070704 -0.018326 -1229600.000000 0 0 1
28.635976 6.159243 -17.367592 34.052733 0.211860 2.106005 0.061495 -0.017433 -136928.000000 0 0 1
28.589276 5.111743 -18.347692 34.352793 0.176930 2.134235 0.067751 -0.011402 963226.000000 0 0 1
27.503176 5.320743 -19.286692 34.010461 0.191099 2.173754 0.068205 -0.011978 691449.000000 0 0 1
27.015776 4.042543 -20.023092 33.869138 0.148534 2.203330 0.063880 0.005241 -72734.800000 0 0 1
26.194276 3.178843 -19.250992 32.662606 0.120766 2.201099 0.068641 -0.006162 273376.000000 0 0 1
25.715076 2.149943 -20.084992 32.700065 0.083412 2.232192 0.083495 -0.007667 -204715.000000 0 0 1
24.519176 1.375443 -19.507492 31.362781 0.056038 2.242084 0.098910 -0.012968 -427669.000000 0 0 1
23.330576 2.104643 -19.352792 30.385454 0.089966 2.261279 0.099689 -0.020276 -12365.200000 0 0 1
22.401076 1.213943 -18.734092 29.227522 0.054138 2.266563 0.117823 -0.032678 355108.000000 0 0 1
20.974376 1.765243 -18.436992 27.981479 0.083964 2.290152 0.134876 -0.042552 -150939.000000 0 0 1
20.199076 1.827843 -19.646192 28.236794 0.090246 2.340282 0.131062 -0.029566 445076.000000 0 0 1
19.069376 2.660143 -19.482292 27.391187 0.138604 2.362087 0.130823 -0.023931 896897.000000 0 0 1
17.778476 2.171543 -18.730592 25.915726 0.121542 2.378570 0.167693 -0.034456 -1692.110000 0 0 1
17.931076 2.394043 -17.349392 25.065042 0.132729 2.335294 0.178138 -0.039599 -179680.000000 0 0 1
16.818576 1.978043 -16.636592 23.739278 0.117073 2.347321 0.153506 -0.030133 -341082.000000 0 1 0
15.722276 3.005943 -16.302192 22.847037 0.188910 2.365329 0.143108 -0.029257 5014.360000 0 1 0
15.013176 3.415243 -17.467992 23.284975 0.223677 2.419135 0.132909 -0.019685 638382.000000 0 1 0
13.889676 4.215743 -17.089592 22.422081 0.294680 2.437465 0.116617 -0.025536 218780.000000 0 1 0
-20.815524 -21.707857 -16.818992 34.458607 0.806380 2.080699 0.113028 -0.036567 -132851.000000 0 0 1
-20.554124 -21.901957 -18.202792 35.121352 0.817134 2.115638 0.114756 -0.029263 189635.000000 0 0 1
-21.639624 -21.555857 -19.038592 35.991614 0.783459 2.128186 0.113514 -0.028853 -343064.000000 0 0 1
-21.446524 -22.250857 -20.410492 37.035689 0.803803 2.154482 0.084005 -0.018832 50791.700000 0 0 1
-21.601224 -23.649757 -20.253492 37.896277 0.830638 2.134648 0.065473 -0.012023 203998.000000 0 0 1
-21.217224 -24.316757 -21.449192 38.749750 0.853364 2.157395 0.066998 -0.012858 -249483.000000 0 0 1
-21.042924 -25.805987 -21.230892 39.490561 0.886719 2.138408 0.067116 -0.012025 -439110.000000 0 0 1
-22.218524 -26.552777 -21.222592 40.609250 0.874034 2.120700 0.064766 -0.008486 -527977.000000 0 0 1
-21.885124 -27.942327 -21.118292 41.300297 0.906368 2.107534 0.084669 -0.016390 -212343.000000 0 0 1
-23.071324 -28.907307 -21.265092 42.662894 0.897206 2.092600 0.076722 -0.008383 -94084.400000 0 0 1
-23.752724 -28.644257 -22.500092 43.484934 0.878484 2.114633 0.051317 -0.001738 93446.100000 0 0 1
-23.556524 -29.681977 -23.452092 44.563777 0.899951 2.124991 0.036995 -0.004649 -302723.000000 0 0 1
-23.859324 -29.219727 -24.857192 45.176762 0.886046 2.153425 0.036134 -0.002250 536527.000000 0 0 1
-25.199894 -29.339517 -25.346792 46.241776 0.861154 2.150931 0.047948 0.001440 555555.000000 0 0 1
-25.545284 -28.672977 -26.513782 46.665638 0.843021 2.175071 0.048210 -0.000234 -118116.000000 0 0 1
-24.902224 -29.054937 -27.871222 47.340418 0.862210 2.200296 0.068241 -0.017138 8210.160000 0 0 1
-25.589264 -30.147237 -28.441202 48.709017 0.866994 2.194321 0.049219 -0.004595 289334.000000 0 0 1
-25.119174 -30.233587 -29.774172 49.310689 0.877533 2.219066 0.099788 -0.013337 86054.900000 0 0 1
-25.487954 -31.466037 -30.561772 50.732329 0.889979 2.217316 0.077343 -0.009356 192458.000000 0 0 1
-24.661924 -32.585997 -30.319712 50.885584 0.922941 2.209109 0.065322 -0.011121 190194.000000 0 0 1
-25.362884 -33.736867 -30.773882 52.234892 0.926154 2.200796 0.080837 -0.011593 52987.000000 0 0 1
-24.626124 32.604421 -30.532642 51.007220 -0.923912 2.212542 0.094815 -0.016399 -27562.500000 0 0 1
-23.757124 32.400293 -31.631142 51.134226 -0.938110 2.237744 0.103670 -0.027683 -83238.000000 0 0 1
-23.080124 31.145329 -31.483552 49.939340 -0.933050 2.252911 0.106917 -0.022139 619031.000000 0 0 1
-21.880624 30.919689 -32.481012 49.897946 -0.954948 2.279630 0.087480 -0.013592 505702.000000 0 0 1
-22.292524 30.892019 33.555766 50.766750 -0.945702 0.848673 0.082207 -0.014282 170448.000000 0 0 1
-22.142124 29.567729 33.047238 49.564546 -0.928024 0.840955 0.065592 -0.006770 -58187.800000 0 0 1
-22.150324 29.547519 31.471384 48.519489 -0.927519 0.865008 0.069760 -0.009457 940135.000000 0 0 1
-21.044424 30.296299 30.865396 48.097882 -0.963690 0.874057 0.062176 -0.008127 1296290.000000 0 0 1
-21.055024 30.226009 29.472416 47.175724 -0.962365 0.896002 0.087292 -0.008361 -107460.000000 0 0 1
-20.543724 31.556629 28.862706 47.443875 -0.993710 0.916810 0.079142 -0.023838 166557.000000 0 0 1
-21.545624 32.574070 28.826526 48.541246 -0.986425 0.934953 0.079722 -0.021016 232203.000000 0 0 1
-21.107624 33.775899 28.379756 48.905559 -1.012246 0.951703 0.080318 -0.036350 -253219.000000 0 0 1
-22.259324 -32.864537 28.479566 48.853260 0.975465 0.948428 0.094872 -0.040658 161319.000000 0 0 1
-22.587324 -32.511667 29.823266 49.564331 0.963606 0.925158 0.081905 -0.027422 -252236.000000 0 0 1
-23.585024 -31.539207 29.998436 49.506375 0.928705 0.919836 0.098188 -0.031222 -160509.000000 0 0 1
-23.198824 -30.085807 29.557266 48.134948 0.913935 0.909615 0.109146 -0.028618 -208125.000000 0 0 1
-22.943824 -30.000367 28.133946 47.095223 0.917900 0.930561 0.103611 -0.025198 162761.000000 0 0 1
-23.374424 -28.719667 27.553776 46.156187 0.887648 0.931080 0.093093 -0.030129 -601205.000000 0 0 1
-24.820124 -28.652657 27.125216 46.613203 0.856948 0.949707 0.092679 -0.017464 -1291830.000000 0 0 1
-25.753644 -28.574187 28.216586 47.706500 0.837269 0.937925 0.100862 -0.016165 1020480.000000 0 0 1
-26.837134 -29.524427 28.224406 48.872699 0.833042 0.955123 0.087306 -0.027244 111699.000000 0 0 1
-27.921534 -29.418617 27.206156 48.838940 0.811501 0.979956 0.066297 0.001831 -1277300.000000 0 0 1
-27.389314 -29.609997 25.865396 47.916022 0.824338 1.000589 0.076401 -0.004895 328226.000000 0 0 1
-28.308694 -29.306287 24.825476 47.713152 0.802711 1.023586 0.069041 -0.002249 -71688.900000 0 0 1
-27.674404 -29.418997 23.426546 46.692110 0.815945 1.045206 0.059265 -0.000593 153039.000000 0 0 1
-26.790464 -28.358477 22.996176 45.285277 0.813823 1.038159 0.042922 -0.000157 1166060.000000 0 0 1
-26.038964 -28.623857 21.797016 44.412417 0.832651 1.057804 0.066641 -0.008142 1164610.000000 0 0 1
-24.810924 -29.614587 21.827816 44.374084 0.873431 1.056520 0.078367 -0.017604 56705.100000 0 0 1
-25.209344 -30.928567 21.492016 45.321011 0.886926 1.076721 0.067970 -0.021290 1091680.000000 0 0 1
-24.085124 -31.779557 21.193616 45.157534 0.922270 1.082269 0.070347 -0.006775 685756.000000 0 0 1
-23.212024 -32.334537 22.338426 45.643462 0.948177 1.059382 0.067250 -0.007183 265000.000000 0 0 1
-22.441324 -31.326607 23.051556 44.903715 0.949171 1.031706 0.095709 -0.023145 801775.000000 0 0 1
-21.495924 -32.008547 23.892986 45.359637 0.979408 1.016029 0.096466 -0.033857 299475.000000 0 0 1
-20.783724 -31.069417 24.927356 44.929333 0.981218 0.982659 0.098811 -0.028017 -72529.000000 0 0 1
-19.652824 -30.357257 24.382256 43.615261 0.996262 0.977580 0.109465 -0.026002 1083230.000000 0 0 1
-18.865724 -29.694297 25.410906 43.397938 1.004802 0.945259 0.120993 -0.025464 268569.000000 0 0 1
-17.935324 -30.639257 26.224276 44.137882 1.041203 0.934595 0.101098 -0.034108 -991200.000000 0 0 1
-18.580624 -31.609057 27.012036 45.541434 1.039376 0.935854 0.103163 -0.035365 532725.000000 0 0 1
-17.719524 -32.102307 28.097226 46.195171 1.066442 0.916969 0.100702 -0.029773 498454.000000 0 0 1
-18.109024 -31.519417 29.497116 46.813356 1.049311 0.889114 0.109704 -0.029402 89732.500000 0 0 1
-17.946924 -30.116307 29.492716 45.813801 1.033382 0.871405 0.107474 -0.022886 195054.000000 0 0 1
-18.454624 -29.554087 30.681536 46.426005 1.012603 0.848819 0.100854 -0.019455 64786.200000 0 0 1
-18.141224 -28.019097 30.711406 45.358178 0.996209 0.827000 0.101876 -0.018975 393472.000000 0 0 1
-18.971224 -27.121287 29.921836 44.618246 0.960409 0.835754 0.108140 -0.023877 493257.000000 0 0 1
-18.955924 -27.263237 28.539946 43.785154 0.963237 0.860817 0.114452 -0.017445 -221980.000000 0 0 1
-17.671824 -26.846457 27.799146 42.494919 0.988640 0.857704 0.103736 -0.020613 -147358.000000 0 0 1
-17.517224 -25.470067 27.799906 41.574178 0.968334 0.838361 0.090157 -0.015499 -710553.000000 0 0 1
-16.317224 -25.159767 27.194616 40.482254 0.995445 0.834206 0.068572 -0.011012 -951145.000000 0 0 1
-16.266624 -23.711657 26.676766 39.223661 0.969516 0.822871 0.070868 -0.011641 -464022.000000 0 0 1
-17.071424 -23.649257 25.534786 38.765271 0.945550 0.851703 0.109528 -0.018383 -222140.000000 0 0 1
-16.997324 -22.424457 24.764536 37.483964 0.922207 0.849085 0.090004 -0.022582 72389.900000 0 0 1
-17.676924 -21.142657 25.387686 37.470258 0.874440 0.826380 0.088636 -0.017565 -149951.000000 0 0 1
-17.610324 -20.097457 24.431066 36.206468 0.851261 0.830142 0.086471 -0.013055 333798.000000 0 0 1
-18.212924 -18.840857 24.804556 36.082607 0.802343 0.812841 0.086160 -0.010039 111230.000000 0 0 1
-17.748124 -17.762357 23.807446 34.601904 0.785799 0.812014 0.088287 -0.017753 -235012.000000 0 0 1
-16.386224 -17.450057 23.915356 33.837215 0.816828 0.785865 0.094180 -0.023855 -515518.000000 0 0 1
-16.062724 -16.378657 23.064776 32.530838 0.795136 0.782699 0.096216 -0.021163 371934.000000 0 0 1
-14.571024 -15.984457 23.264286 31.765463 0.831623 0.748990 0.113279 -0.029989 49784.300000 0 0 1
-13.652824 -16.995857 22.975086 31.671965 0.894045 0.759170 0.085255 -0.030910 1393080.000000 0 0 1
-12.230724 -16.693757 23.086546 31.004206 0.938490 0.730822 0.090781 -0.031963 1497700.000000 0 0 1
-11.580024 -15.863157 21.966316 29.466180 0.940222 0.729548 0.112294 -0.037340 -453491.000000 0 0 1
-11.137624 -16.647657 20.879216 28.933248 0.981166 0.764637 0.151474 -0.042406 668908.000000 0 0 1
-9.760324 -17.028657 21.020016 28.759002 1.050338 0.751153 0.144810 -0.044128 396543.000000 0 0 1
-9.426724 -18.330957 20.209416 28.867068 1.095813 0.795279 0.148061 -0.040639 83374.000000 0 0 1
-9.360124 -18.075657 18.815816 27.719601 1.092986 0.824681 0.137615 -0.038039 -38678.400000 0 0 1
-8.838124 -19.169857 18.056716 27.778425 1.138797 0.863177 0.132038 -0.039130 222036.000000 0 0 1
-8.475824 -18.876657 16.623416 26.542527 1.148765 0.894006 0.118200 -0.042835 578529.000000 0 0 1
-7.387224 -17.942357 16.511116 25.477759 1.180228 0.865762 0.114357 -0.041055 248172.000000 0 0 1
-7.119324 -17.448657 15.189716 24.204708 1.183399 0.892391 0.118745 -0.040860 -263230.000000 0 1 0
-5.934724 -16.504757 15.021916 23.092984 1.225616 0.862558 0.096996 -0.041278 -286156.000000 0 1 0
-6.236124 -15.412357 15.753616 22.904288 1.186315 0.812340 0.103049 -0.044850 -99577.800000 0 1 0
-5.206624 -14.463057 15.713516 21.981891 1.225245 0.774402 0.070558 -0.028078 -201976.000000 0 1 0
-5.329624 -13.463857 16.883216 22.242377 1.193875 0.708934 0.045480 -0.014304 -453793.000000 0 1 0
-5.161724 -13.834357 18.256316 23.480331 1.213684 0.680091 0.061186 -0.013941 377562.000000 0 1 0
-6.222024 -14.663557 18.779016 24.624885 1.169503 0.703468 0.110022 -0.035698 819782.000000 0 1 0
-7.525224 -13.885957 19.103916 24.787263 1.074170 0.690834 0.144004 -0.051842 -210636.000000 0 1 0
-7.467024 -13.050757 20.263516 25.232693 1.051105 0.638374 0.123253 -0.045029 954052.000000 0 0 1
-8.782624 -12.595157 20.689016 25.764469 0.961884 0.638475 0.123361 -0.041522 1398860.000000 0 0 1
-8.721424 -11.665657 21.934016 26.329677 0.928823 0.586192 0.121922 -0.030054 -525281.000000 0 0 1
-8.184024 -10.378857 21.597116 25.320631 0.903089 0.549194 0.096064 -0.027765 346001.000000 0 0 1
-7.557824 -9.606957 22.617336 25.709108 0.904216 0.495481 0.075457 -0.026250 507809.000000 0 0 1
-6.118424 -10.112657 22.943636 25.809134 1.026689 0.475698 0.072069 -0.027624 36661.900000 0 0 1
-5.919624 -11.241357 23.810466 26.987930 1.086101 0.490147 0.083845 -0.019893 -1252640.000000 0 0 1
-4.575424 -11.422157 24.021116 26.989150 1.189795 0.473388 0.071293 -0.012684 -1347900.000000 0 0 1
-4.402024 -12.654657 24.880966 28.259169 1.236031 0.493972 0.089593 -0.019084 -1169270.000000 0 0 1
-3.105324 -13.097557 25.081646 28.465383 1.338003 0.492554 0.087414 -0.011535 -751086.000000 0 0 1
-3.053724 -14.190357 25.979956 29.759866 1.358832 0.509504 0.094807 -0.006541 -23352.300000 0 0 1
-2.696124 -15.518057 25.326706 29.824843 1.398772 0.556363 0.115939 -0.041606 -379539.000000 0 0 1
-1.341424 -15.763657 25.081166 29.653958 1.485905 0.562743 0.122835 -0.039370 -472323.000000 0 0 1
-1.250124 -16.998857 24.397486 29.761742 1.497387 0.609804 0.133043 -0.043096 -170542.000000 0 0 1
0.189476 -17.556357 24.338236 30.010187 -1.560004 0.624938 0.141794 -0.043830 578677.000000 0 0 1
0.807076 -17.985557 25.589866 31.288543 -1.525953 0.613102 0.149621 -0.046269 257659.000000 0 0 1
1.102676 -17.028357 26.582876 31.588450 -1.506131 0.570673 0.151969 -0.045054 -538300.000000 0 0 1
1.871776 -17.619857 27.757006 32.930447 -1.464962 0.568150 0.126191 -0.027754 131551.000000 0 0 1
3.181776 -18.080257 27.466316 33.036615 -1.396599 0.589192 0.127935 -0.033016 724868.000000 0 0 1
4.063876 -18.239257 28.609346 34.171337 -1.351568 0.578594 0.140623 -0.040708 1392030.000000 0 0 1
4.886276 -16.996857 29.170956 34.113246 -1.290864 0.545012 0.155114 -0.043994 55719.700000 0 0 1
4.003876 -16.016757 29.601596 33.894277 -1.325836 0.508757 0.170821 -0.049055 -175282.000000 0 0 1
4.722976 -14.974457 30.155176 33.998169 -1.265270 0.480065 0.197076 -0.063160 191207.000000 0 0 1
3.715876 -13.949957 30.726246 33.948656 -1.310469 0.439229 0.207961 -0.068293 471082.000000 0 0 1
3.162476 -14.320957 31.984492 35.186628 -1.353456 0.429928 0.195599 -0.071886 -109494.000000 0 0 1
1.947876 -13.679857 32.250407 35.085915 -1.429357 0.404793 0.193221 -0.069933 10512.700000 0 0 1
1.038176 -14.284857 33.356486 36.301379 -1.498247 0.405573 0.183125 -0.066355 510113.000000 0 0 1
1.633376 -14.123157 -32.719092 35.674507 -1.455656 2.731681 0.209871 -0.059419 54223.800000 0 0 1
1.032376 -14.991757 -31.782592 35.156105 -1.502042 2.699929 0.188342 -0.076871 525014.000000 0 0 1
1.989676 -15.139057 -30.550042 34.153403 -1.440119 2.678096 0.155270 -0.056647 453363.000000 0 0 1
1.585876 -16.196057 -29.757392 33.916510 -1.473190 2.641153 0.150596 -0.047985 256203.000000 0 0 1
2.426576 -16.217857 -28.572142 32.943504 -1.422274 2.620563 0.116132 -0.043251 553448.000000 0 0 1
2.145276 -17.392157 -27.647112 32.733044 -1.448069 2.576659 0.135433 -0.043762 -237577.000000 0 0 1
2.711576 -18.575857 -28.093862 33.788758 -1.425847 2.552519 0.110486 -0.035339 -71197.600000 0 0 1
2.474576 -19.680557 -27.261092 33.713721 -1.445716 2.512574 0.099074 -0.047794 -934323.000000 0 0 1
3.383576 -20.911157 -27.567702 34.766410 -1.410379 2.486417 0.071909 -0.038903 808897.000000 0 0 1
4.797276 -20.824457 -27.399142 34.747444 -1.344379 2.479199 0.078634 -0.028579 401984.000000 0 0 1
5.143076 -20.604357 -26.061392 33.618253 -1.326184 2.457853 0.095898 -0.034172 -1361480.000000 0 0 1
6.656576 -20.787557 -25.774932 33.775430 -1.260895 2.438934 0.075284 -0.029360 16491.600000 0 0 1
7.083376 -22.109457 -25.612492 34.568802 -1.260751 2.405226 0.078950 -0.025335 -69270.500000 0 0 1
7.072576 -22.887557 -26.849972 35.983088 -1.271090 2.413107 0.079496 -0.027454 -872663.000000 0 0 1
6.050076 -24.035257 -26.922862 36.594228 -1.324203 2.397516 0.064621 -0.027534 -199903.000000 0 0 1
6.378176 -25.171717 -26.208002 36.893845 -1.322633 2.360809 0.094605 -0.024322 -108169.000000 0 0 1
5.633376 -26.296777 -26.648052 37.859927 -1.359763 2.351612 0.104713 -0.025645 90992.200000 0 0 1
5.944176 -27.592327 -25.826972 38.258361 -1.358611 2.311852 0.130908 -0.029433 874685.000000 0 0 1
7.324476 -27.991027 -25.833402 38.788016 -1.314863 2.299650 0.149328 -0.039150 556889.000000 0 0 1
7.559276 -29.235857 -25.216032 39.341152 -1.317776 2.266542 0.157190 -0.047168 718308.000000 0 0 1
9.102976 -29.519317 -25.257922 39.902592 -1.271675 2.256205 0.157303 -0.055475 1060310.000000 0 0 1
9.635276 -29.718167 -26.622322 41.045779 -1.257269 2.276541 0.168701 -0.054332 182747.000000 0 0 1
11.030176 -29.923387 -26.649332 41.560327 -1.217636 2.266884 0.191300 -0.055006 148784.000000 0 0 1
11.561876 -29.915017 -28.104612 42.643340 -1.201990 2.290367 0.184450 -0.056395 730.216000 0 0 1
11.038176 -30.993047 -28.879492 43.777110 -1.228653 2.291208 0.193511 -0.068533 69429.600000 0 0 1
11.337276 -30.868367 -30.224782 44.664610 -1.218813 2.314075 0.176509 -0.057317 -139481.000000 0 0 1
-35.731097 -5.950557 -5.554492 36.646594 0.165023 1.722952 0.266625 -0.048009 -40608.300000 0 0 1
-35.287894 -5.255757 -4.414392 35.949205 0.147852 1.693902 0.281865 -0.067040 -37991.400000 0 0 1
-34.472585 -4.114457 -4.638892 35.025808 0.118793 1.703629 0.263378 -0.071199 -233369.000000 0 0 1
-35.109749 -2.804957 -5.142892 35.595107 0.079722 1.715787 0.249878 -0.045000 -482477.000000 0 0 1
-35.770365 -2.095257 -4.129992 36.068906 0.058508 1.685551 0.197351 -0.039043 45384.700000 0 0 1
-36.383874 -0.978057 -4.731492 36.703269 0.026875 1.700068 0.174982 -0.033097 23007.000000 0 0 1
-37.563264 -0.313957 -3.993892 37.776297 0.008358 1.676719 0.174381 -0.025816 133386.000000 0 0 1
-37.105884 0.654143 -3.021892 37.234479 -0.017627 1.652044 0.155881 -0.012211 967859.000000 0 0 1
37.592650 1.483943 -2.538592 37.707478 0.039454 1.638171 0.156837 -0.014068 118497.000000 0 0 1
-37.599474 2.629943 -1.697792 37.729558 -0.069833 1.615811 0.137731 -0.010335 380760.000000 0 0 1
-36.896894 3.648943 -2.403992 37.154741 -0.098575 1.635544 0.165134 -0.027782 921192.000000 0 0 1
-35.602157 3.303343 -2.921192 35.874212 -0.092520 1.652315 0.114804 -0.002935 -219243.000000 0 0 1
-34.793141 4.555743 -3.235392 35.238973 -0.130197 1.662739 0.091375 -0.005070 -550774.000000 0 0 1
-34.164075 5.152443 -2.141892 34.616751 -0.149687 1.632710 0.099383 -0.007848 144478.000000 0 0 1
-33.935574 6.539243 -2.410092 34.643808 -0.190363 1.640420 0.134708 -0.022759 -253364.000000 0 0 1
-33.417714 7.392343 -1.227292 34.247578 -0.217704 1.606640 0.159102 -0.029409 -376942.000000 0 0 1
-32.153824 7.037543 -0.710792 32.922647 -0.215473 1.592388 0.196853 -0.020209 296583.000000 0 0 1
-31.701824 7.506843 0.557208 32.583260 -0.232513 1.553694 0.229686 -0.036034 38128.100000 0 0 1
-31.867304 9.034443 0.848108 33.134054 -0.276253 1.545197 0.255830 -0.047961 686774.000000 0 0 1
-33.252094 9.437143 0.994008 34.579611 -0.276534 1.542047 0.203227 -0.041656 1191230.000000 0 0 1
-33.340174 10.696443 1.579108 35.049604 -0.310453 1.525728 0.228916 -0.040569 -795400.000000 0 0 1
-34.734208 11.278443 1.588508 36.553958 -0.313967 1.527326 0.211008 -0.046813 -1390090.000000 0 0 1
-35.222143 11.660343 0.326708 37.103500 -0.319695 1.561991 0.168101 -0.042531 -125254.000000 0 0 1
-36.488844 12.249843 0.323108 38.491542 -0.323892 1.562402 0.164673 -0.030247 -89604.400000 0 0 1
-37.704494 11.293543 0.389408 39.361462 -0.291023 1.560903 0.169815 -0.043381 -530107.000000 0 0 1
37.881640 10.602243 -0.809192 39.345661 0.272896 1.591364 0.163838 -0.039981 244489.000000 0 0 1
36.801240 9.697543 -0.553792 38.061533 0.257654 1.585347 0.163652 -0.034164 447126.000000 0 0 1
36.522620 8.797843 -1.746992 37.607922 0.236384 1.617266 0.162265 -0.038934 -103529.000000 0 0 1
35.906600 9.415743 -2.814392 37.227153 0.256455 1.646469 0.147289 -0.041309 -200775.000000 0 0 1
35.545740 8.555843 -3.834292 36.761446 0.236206 1.675288 0.142425 -0.042473 -276386.000000 0 0 1
34.659370 9.068243 -4.967992 36.168853 0.255903 1.708587 0.123418 -0.039727 298596.000000 0 0 1
33.283630 9.271743 -4.626892 34.859337 0.271680 1.703920 0.161617 -0.032088 508059.000000 0 0 1
32.749820 9.821243 -5.801592 34.679475 0.291353 1.738878 0.129139 -0.015247 -190839.000000 0 0 1
31.271010 10.278043 -5.801492 33.424116 0.317553 1.745252 0.189215 -0.023733 134259.000000 0 0 1
30.292940 9.258443 -5.842492 32.210491 0.296614 1.753191 0.217963 -0.016020 -176127.000000 0 0 1
29.092340 9.764143 -6.319492 31.331114 0.323812 1.773890 0.241447 -0.019402 -870428.000000 0 0 1
28.094140 8.620743 -6.604092 30.119959 0.297731 1.791852 0.272574 -0.014468 -475512.000000 0 0 1
28.393440 7.841043 -7.725392 30.452440 0.269441 1.827287 0.248587 -0.021789 147700.000000 0 0 1
27.512740 6.742643 -7.972892 29.427557 0.240337 1.845158 0.291587 -0.011065 -200350.000000 0 0 1
27.888140 5.774643 -9.097092 29.897357 0.204179 1.879976 0.265189 -0.027675 -532440.000000 0 0 1
28.897940 4.894343 -8.685492 30.569320 0.167774 1.858889 0.240225 -0.023301 195324.000000 0 0 1
29.024040 3.869243 -9.612892 30.818398 0.132530 1.888010 0.224398 -0.025194 -574351.000000 0 0 1
30.003940 2.808643 -9.135492 31.489397 0.093337 1.865142 0.194916 -0.017951 -339292.000000 0 0 1
31.345790 3.276843 -8.997792 32.775853 0.104160 1.848892 0.169050 -0.011358 586452.000000 0 0 1
32.130040 2.608943 -8.067792 33.230037 0.081022 1.816033 0.158486 -0.011207 -169802.000000 0 0 1
32.447710 1.051543 -8.239192 33.493939 0.032396 1.819338 0.148706 -0.016133 -925360.000000 0 0 1
31.331890 0.324243 -7.812892 32.292937 0.010348 1.815159 0.197872 -0.016562 107186.000000 0 0 1
31.619190 -1.027057 -7.410492 32.492206 -0.032471 1.800891 0.201951 -0.019998 2484.960000 0 0 1
31.462800 -2.106757 -8.531692 32.667047 -0.066860 1.835032 0.179405 -0.012578 253140.000000 0 0 1
32.544600 -2.083757 -9.462392 33.956294 -0.063940 1.853199 0.157875 -0.010216 511239.000000 0 0 1
32.510640 -3.246257 -10.281792 34.251936 -0.099522 1.875679 0.135052 -0.026413 -679779.000000 0 0 1
33.729400 -3.431857 -11.163792 35.694262 -0.101398 1.888895 0.157484 -0.023870 -1041370.000000 0 0 1
34.921460 -3.609457 -10.475192 36.636951 -0.102994 1.860761 0.179240 -0.019753 -440705.000000 0 0 1
35.893000 -4.184757 -11.294192 37.859984 -0.116066 1.873723 0.193380 -0.032363 -859410.000000 0 0 1
37.198270 -4.576057 -10.636992 38.958917 -0.122403 1.847339 0.211589 -0.039705 -827070.000000 0 0 1
37.045750 -5.704657 -9.806692 38.744057 -0.152789 1.826695 0.219362 -0.045726 705828.000000 0 0 1
-37.610014 -6.069457 -9.008592 39.147238 0.159999 1.802998 0.225727 -0.051490 150300.000000 0 0 1
37.787470 -7.302657 -8.165592 39.343342 -0.190903 1.779863 0.232485 -0.050589 62014.800000 0 0 1
36.862560 -7.062257 -7.105192 38.199575 -0.189290 1.757888 0.254120 -0.049459 773642.000000 0 0 1
36.663650 -8.330557 -6.472192 38.151156 -0.223422 1.741267 0.270037 -0.057484 -604100.000000 0 0 1
36.293760 -8.309757 -4.998092 37.566874 -0.225079 1.704237 0.268943 -0.062775 -839328.000000 0 0 1
37.294260 -7.785357 -4.127992 38.321194 -0.205799 1.678727 0.308283 -0.059060 615204.000000 0 0 1
-37.755204 -8.789657 -3.456292 38.918626 0.228732 1.659722 0.338819 -0.066721 -477466.000000 0 0 1
-36.761084 -9.685057 -4.164492 38.242916 0.257606 1.679908 0.305691 -0.066995 -1574170.000000 0 0 1
-37.320004 -10.531357 -5.146292 39.117471 0.275039 1.702739 0.278053 -0.059613 216983.000000 0 0 1
-36.389424 -11.153257 -6.042392 38.536941 0.297407 1.728241 0.231648 -0.044554 -142424.000000 0 0 1
-37.082594 -11.670857 -7.313392 39.557723 0.304912 1.756745 0.219270 -0.048572 -181047.000000 0 0 1
-37.233934 -10.635257 -8.244392 39.590966 0.278225 1.780571 0.194481 -0.056980 192609.000000 0 0 1
-37.278554 -11.050057 -9.578992 40.044369 0.288168 1.812348 0.209162 -0.040454 -393345.000000 0 0 1
-37.388274 -10.016957 -10.768692 40.176949 0.261769 1.842146 0.208752 -0.034511 -851598.000000 0 0 1
37.203010 -9.277057 -10.677892 39.801321 -0.244379 1.842403 0.200485 -0.043299 143386.000000 0 0 1
37.095510 -8.515857 -11.804292 39.848940 -0.225656 1.871535 0.187416 -0.042445 -1133830.000000 0 0 1
35.713060 -8.005357 -12.109992 38.550750 -0.220513 1.890338 0.189615 -0.041905 -1187440.000000 0 0 1
35.635140 -7.543357 -13.436892 38.824161 -0.208604 1.924203 0.186958 -0.040934 946951.000000 0 0 1
34.411750 -6.868457 -13.747092 37.687223 -0.197007 1.944180 0.160634 -0.041560 442413.000000 0 0 1
34.680820 -5.985757 -14.983092 38.250250 -0.170912 1.973288 0.154195 -0.041393 -147367.000000 0 0 1
35.711410 -5.057457 -14.729892 38.959625 -0.140685 1.958519 0.159732 -0.027277 461102.000000 0 0 1
36.266100 -4.514557 -15.963592 39.880415 -0.123847 1.982626 0.172457 -0.032366 68264.100000 0 0 1
37.705260 -3.997757 -15.787592 41.072092 -0.105632 1.965340 0.179931 -0.024034 -303397.000000 0 0 1
-37.402284 -3.600657 -16.987892 41.236926 0.095973 1.995398 0.191005 -0.030622 333833.000000 0 0 1
-36.144664 -2.994057 -16.770892 39.958278 0.082647 2.003922 0.203736 -0.030068 -76866.500000 0 0 1
-36.109634 -1.502557 -16.280192 39.638467 0.041587 1.994037 0.199457 -0.030915 -396186.000000 0 0 1
-36.548194 -0.529557 -17.189592 40.392240 0.014488 2.010384 0.175794 -0.030397 -53196.200000 0 0 1
-36.294874 0.759443 -16.689092 39.955231 -0.020921 2.001703 0.182287 -0.032435 45688.600000 0 0 1
-36.663324 1.923143 -17.609692 40.718535 -0.052406 2.018031 0.152058 -0.034583 467921.000000 0 0 1
-35.875616 1.947943 -18.836492 40.566831 -0.054244 2.053677 0.142698 -0.027038 478792.000000 0 0 1
-35.749734 3.246743 -19.313992 40.762914 -0.090570 2.064412 0.120658 -0.018329 180034.000000 0 0 1
-34.808502 3.611643 -20.508392 40.561927 -0.103388 2.100882 0.116658 -0.011055 494158.000000 0 0 1
-33.407994 3.677843 -20.275392 39.251906 -0.109647 2.113608 0.123740 -0.017700 435185.000000 0 0 1
-32.780014 4.312243 -21.373892 39.369634 -0.130800 2.144686 0.111553 -0.018277 -337115.000000 0 0 1
-31.346534 4.748643 -21.035992 38.048230 -0.150345 2.156609 0.136499 -0.024352 -479535.000000 0 0 1
-30.467374 3.702443 -20.915792 37.140804 -0.120929 2.168987 0.141834 -0.016103 -1374600.000000 0 0 1
-29.156784 4.108943 -20.906892 36.112320 -0.140004 2.188225 0.111702 -0.015540 -446232.000000 0 0 1
-28.025104 3.081843 -20.545592 34.885894 -0.109527 2.200539 0.137966 -0.015122 694314.000000 0 0 1
-27.512304 3.309043 -19.220592 33.723995 -0.119700 2.177227 0.139556 -0.009034 68168.100000 0 0 1
-26.712194 2.269443 -18.723192 32.699383 -0.084756 2.180452 0.127359 -0.012990 -488009.000000 0 0 1
-25.928374 2.587243 -17.474692 31.374182 -0.099455 2.161538 0.126748 -0.018181 225750.000000 0 0 1
-24.785324 3.420043 -17.737592 30.669711 -0.137121 2.187492 0.109815 -0.019427 269366.000000 0 0 1
-24.117424 3.674343 -16.561892 29.486391 -0.151190 2.167210 0.125472 -0.029864 -356763.000000 0 0 1
-23.017424 4.757143 -16.567592 28.756171 -0.203806 2.184795 0.110720 -0.032322 429809.000000 0 0 1
-21.819724 4.228343 -17.115092 28.051838 -0.191413 2.227013 0.123104 -0.037461 156308.000000 0 0 1
-20.683024 5.064843 -17.053792 27.281348 -0.240153 2.246066 0.113560 -0.037129 -191093.000000 0 0 1
-19.410924 4.375943 -17.536392 26.522781 -0.221730 2.293190 0.151354 -0.043256 -552961.000000 0 0 1
-19.190424 3.204943 -16.798992 25.705062 -0.165480 2.283033 0.188221 -0.044488 4914.000000 0 0 1
-18.128424 2.492043 -17.392992 25.246113 -0.136610 2.330818 0.137403 -0.042868 -397022.000000 0 0 1
-17.798524 1.070043 -16.812092 24.506711 -0.060047 2.326801 0.149893 -0.042270 295607.000000 0 1 0
-18.706224 -0.011857 -17.077792 25.329310 0.000634 2.310719 0.101904 -0.039629 1129580.000000 0 0 1
-19.954224 0.124543 -16.350792 25.797965 -0.006241 2.257255 0.118355 -0.037785 419977.000000 0 0 1
-21.048524 -0.836757 -16.825292 26.959803 0.039733 2.244760 0.113172 -0.039208 -620904.000000 0 0 1
-20.816624 -2.145457 -16.346892 26.554768 0.102702 2.233933 0.094840 -0.035884 -111630.000000 0 0 1
-21.674624 -3.051557 -16.955692 27.687485 0.139870 2.229884 0.102409 -0.028859 -516537.000000 0 0 1
-22.007324 -4.311257 -16.179092 27.652709 0.193451 2.195777 0.119004 -0.028740 -198965.000000 0 0 1
-22.925824 -3.927057 -15.168192 27.768494 0.169648 2.148662 0.113182 -0.032652 148359.000000 0 0 1
-23.151124 -5.002357 -14.280092 27.657172 0.212803 2.113351 0.119077 -0.039908 -53564.500000 0 0 1
-23.452724 -4.437257 -12.907392 27.135223 0.186990 2.066521 0.123617 -0.041196 273021.000000 0 0 1
-24.524424 -3.489057 -12.858892 27.910070 0.141320 2.049609 0.115052 -0.039070 659511.000000 0 0 1
-24.678224 -3.001757 -11.533692 27.405316 0.121041 2.005185 0.135477 -0.045936 -265076.000000 0 0 1
-25.737204 -1.904657 -11.301592 28.173700 0.073869 1.983557 0.173246 -0.041185 -321610.000000 0 0 1
-25.721104 -1.344157 -9.967392 27.617583 0.052211 1.940037 0.169220 -0.045490 577754.000000 0 0 1
-26.400804 -0.099057 -9.927292 28.205734 0.003752 1.930461 0.184788 -0.044969 -249009.000000 0 0 1
-26.482544 0.398543 -8.509292 27.818915 -0.015048 1.881661 0.209958 -0.046253 447525.000000 0 0 1
-25.221714 0.707943 -7.907692 26.441779 -0.028061 1.874504 0.186045 -0.040647 858465.000000 0 0 1
-25.449094 0.725743 -6.495492 26.274979 -0.028510 1.820598 0.181164 -0.048119 181303.000000 0 0 1
-24.269324 1.216543 -5.616992 24.940543 -0.050085 1.797960 0.133230 -0.039861 -58919.200000 0 1 0
-24.059024 2.655743 -5.654092 24.856757 -0.109939 1.800272 0.180857 -0.040249 874278.000000 0 1 0
-22.754024 3.100743 -5.264592 23.560054 -0.135438 1.796153 0.170360 -0.025735 474010.000000 0 1 0
-22.489524 4.617143 -5.442092 23.594768 -0.202488 1.803540 0.180237 -0.028579 -28027.100000 0 1 0
-22.974324 5.424443 -4.332892 24.000378 -0.231863 1.752326 0.189354 -0.023867 737529.000000 0 1 0
-22.675024 6.763843 -4.501792 24.086769 -0.289892 1.758801 0.191411 -0.025794 -599313.000000 0 1 0
-22.971824 7.665943 -3.266992 24.436543 -0.322090 1.704891 0.189612 -0.025104 -302003.000000 0 1 0
-22.182024 7.513843 -2.076792 23.511978 -0.326605 1.659241 0.148212 -0.027731 1538700.000000 0 1 0
-20.805124 7.937643 -2.162592 22.372666 -0.364478 1.667610 0.158121 -0.025454 399473.000000 0 1 0
-20.531524 9.484643 -2.286592 22.731706 -0.432751 1.671557 0.147171 -0.026323 -726114.000000 0 1 0
-20.398924 9.779643 -3.664192 22.916890 -0.447048 1.731376 0.119235 -0.026159 333418.000000 0 1 0
-19.877924 11.052943 -3.796492 23.058898 -0.507469 1.736193 0.109491 -0.018300 -233943.000000 0 1 0
-19.701724 11.580543 -5.228992 23.443747 -0.531396 1.795733 0.088491 -0.021758 -346430.000000 0 1 0
-18.897824 10.748943 -5.976392 22.547390 -0.517157 1.839062 0.085805 -0.023860 -230773.000000 0 1 0
-19.084324 11.228043 -7.273092 23.306185 -0.531801 1.888164 0.093751 -0.020708 749097.000000 0 1 0
-17.725024 11.391243 -8.068492 22.561859 -0.571201 1.936511 0.065474 -0.001352 991063.000000 0 1 0
-16.952424 10.196643 -8.326092 21.463458 -0.541511 1.969169 0.023065 -0.002103 744531.000000 0 1 0
-17.540624 9.161643 -9.121592 21.790196 -0.481336 2.002710 0.040995 -0.015907 -677613.000000 0 1 0
-17.824924 9.565843 -10.587492 22.832614 -0.492540 2.052964 0.056455 -0.021032 230588.000000 0 1 0
-16.635324 9.812943 -11.328992 22.391381 -0.532949 2.101283 0.045548 -0.020672 355619.000000 0 1 0
-16.942524 10.418843 -12.564992 23.526165 -0.551341 2.134222 0.071523 -0.029900 -533280.000000 0 1 0
-15.880624 10.180543 -13.610492 23.261195 -0.570070 2.195819 0.048276 -0.015093 -491553.000000 0 1 0
-16.033024 9.011643 -14.431592 23.378162 -0.512061 2.236116 0.071514 -0.024372 95604.400000 0 1 0
-15.889424 7.829943 -13.655492 22.366365 -0.457853 2.227535 0.058260 -0.019428 -312846.000000 0 1 0
-15.927224 6.564743 -14.499692 22.516958 -0.390955 2.270440 0.072170 -0.022324 18294.400000 0 1 0
-14.825924 6.545543 -15.380892 22.343321 -0.415757 2.330062 0.084688 -0.019266 430245.000000 0 1 0
-14.867624 5.291943 -16.063992 22.518942 -0.341954 2.365070 0.083427 -0.028668 132118.000000 0 1 0
33.737660 -15.566657 27.230216 46.065553 -0.432296 0.938351 0.096759 -0.020613 293155.000000 0 0 1
32.850000 -14.524357 27.699136 45.357707 -0.416300 0.913875 0.107023 -0.027793 855370.000000 0 0 1
31.950810 -14.904357 28.768356 45.503983 -0.436472 0.886386 0.112643 -0.027109 586788.000000 0 0 1
32.556000 -14.803857 30.189476 46.802263 -0.426772 0.869717 0.103042 -0.041275 88409.000000 0 0 1
32.916650 -13.505157 30.606466 46.932408 -0.389340 0.860393 0.083517 -0.037588 -58677.700000 0 0 1
33.243620 -13.456057 31.942707 48.026454 -0.384613 0.843160 0.067251 -0.034799 -311843.000000 0 0 1
33.546880 -12.008657 32.355854 48.130056 -0.343754 0.833541 0.070263 -0.030960 -117360.000000 0 0 1
33.566180 -11.781557 -33.629852 48.953656 -0.337561 2.328112 0.054247 -0.040077 132190.000000 0 0 1
33.862080 -10.403757 -33.393682 48.682817 -0.298085 2.326696 0.069825 -0.029606 -119653.000000 0 0 1
33.395930 -9.728757 -32.068652 47.311048 -0.283471 2.315598 0.083315 -0.028191 181539.000000 0 0 1
31.986270 -9.652357 -31.964812 46.238930 -0.293076 2.334078 0.112778 -0.036491 154219.000000 0 0 1
31.563850 -9.268757 -30.689622 44.989325 -0.285622 2.321500 0.088267 -0.022883 -321377.000000 0 0 1
30.366840 -10.038357 -30.142662 43.948762 -0.319261 2.326580 0.090725 -0.012556 -501199.000000 0 0 1
29.940140 -9.727257 -28.854872 42.704041 -0.314133 2.312702 0.079492 -0.016813 9608.160000 0 0 1
28.847440 -10.505357 -28.452812 41.858092 -0.349242 2.318211 0.114083 -0.015818 -758001.000000 0 0 1
28.385940 -10.146157 -27.026792 40.486462 -0.343284 2.301712 0.108658 -0.013875 -892556.000000 0 0 1
27.619740 -8.969757 -26.846012 39.547629 -0.314014 2.316961 0.095667 -0.023961 1002560.000000 0 0 1
26.346540 -8.783257 -27.489652 39.076422 -0.321787 2.351085 0.098382 -0.029236 639967.000000 0 0 1
25.253040 -9.780857 -27.053472 38.278866 -0.369523 2.355686 0.099342 -0.005072 -1079190.000000 0 0 1
25.505440 -11.023657 -27.671992 39.214635 -0.407960 2.354143 0.084657 -0.014755 -355301.000000 0 0 1
24.587940 -12.026357 -27.363862 38.703760 -0.454903 2.356055 0.089900 -0.028657 -312510.000000 0 0 1
25.052540 -13.390557 -27.812582 39.755207 -0.490864 2.345628 0.066325 0.000620 -100732.000000 0 0 1
25.215740 -13.471157 -29.242162 40.895106 -0.490660 2.367496 0.076733 -0.011977 -141413.000000 0 0 1
26.347840 -14.127457 -29.730632 42.162830 -0.492179 2.353415 0.067917 -0.003077 -529287.000000 0 0 1
26.416040 -14.106957 -31.264112 43.292703 -0.490500 2.377711 0.089311 -0.015882 210828.000000 0 0 1
25.504440 -14.957157 -31.989022 43.560194 -0.530399 2.395525 0.101712 -0.013143 337704.000000 0 0 1
25.804840 -15.168057 -33.409702 44.857195 -0.531400 2.411034 0.109542 -0.015008 -122164.000000 0 0 1
25.812840 -13.981757 32.976452 44.150183 -0.496417 0.727385 0.086007 -0.029746 318180.000000 0 0 1
24.568040 -13.300357 33.029952 43.260442 -0.496192 0.702059 0.101157 -0.024990 270849.000000 0 0 1
24.734340 -12.235657 32.071021 42.308974 -0.459385 0.710525 0.086084 -0.023339 -470267.000000 0 0 1
23.688340 -11.128357 32.204616 41.498374 -0.439182 0.682426 0.103347 -0.033050 723262.000000 0 0 1
22.309440 -11.490757 32.035788 40.694476 -0.475625 0.664497 0.088879 -0.032347 835726.000000 0 0 1
21.922940 -11.763957 30.704996 39.519651 -0.492501 0.680982 0.080373 -0.023331 -240747.000000 0 0 1
20.378640 -11.989157 30.571586 38.647778 -0.531787 0.658304 0.082072 -0.015692 906017.000000 0 0 1
19.637840 -10.795457 30.816376 38.102962 -0.502634 0.628746 0.077861 -0.025435 -417787.000000 0 0 1
18.632940 -11.023857 31.761822 38.438591 -0.534244 0.598289 0.055440 -0.017362 -161918.000000 0 0 1
17.780740 -9.784157 32.110060 37.986056 -0.503048 0.563648 0.066775 -0.023261 -803016.000000 0 0 1
16.964940 -9.343157 31.018656 36.568577 -0.503406 0.558157 0.117747 -0.031856 401515.000000 0 0 1
16.097640 -8.255257 31.364072 36.207573 -0.473854 0.523190 0.118272 -0.027390 174500.000000 0 0 1
14.949840 -8.595357 32.301169 36.616163 -0.521794 0.490376 0.117112 -0.028713 -1657750.000000 0 0 1
14.053940 -9.530457 31.774582 36.027308 -0.595900 0.490795 0.113839 -0.028861 55486.500000 0 0 1
12.772640 -9.689357 32.362697 36.116037 -0.648984 0.459948 0.106353 -0.035820 304673.000000 0 0 1
11.702940 -8.790457 31.764286 34.974288 -0.644225 0.431790 0.159174 -0.041299 -679937.000000 0 0 1
11.974840 -7.410957 32.040646 34.998887 -0.554184 0.414107 0.144288 -0.039095 253927.000000 0 0 1
10.997540 -6.582657 31.411974 33.926235 -0.539358 0.387411 0.175504 -0.041126 132911.000000 0 0 1
11.256140 -5.088257 31.526436 33.860113 -0.424551 0.373437 0.157890 -0.042349 -130377.000000 0 0 1
11.227840 -4.558957 32.848742 35.012689 -0.385703 0.353418 0.131483 -0.043107 193918.000000 0 0 1
11.479040 -3.166157 32.747390 34.845150 -0.269129 0.348759 0.081677 -0.036654 -123032.000000 0 0 1
11.464540 -2.391457 -33.283962 35.284230 -0.205647 2.803261 0.079121 -0.036778 -335876.000000 0 0 1
10.130340 -2.032057 -33.036452 34.614451 -0.197964 2.838480 0.085833 -0.025740 -240123.000000 0 0 1
9.988140 -1.324557 -31.791682 33.350089 -0.131844 2.834681 0.092539 -0.022540 382375.000000 0 0 1
8.500740 -1.070157 -31.415782 32.563157 -0.125231 2.875344 0.093621 -0.015759 -43686.800000 0 0 1
7.855740 -0.223257 -32.260162 33.203623 -0.028412 2.902637 0.090456 -0.018313 275050.000000 0 0 1
6.484440 -0.026757 -31.882542 32.535291 -0.004126 2.940942 0.108994 -0.015487 955474.000000 0 0 1
5.589840 0.894843 -32.750462 33.236122 0.158737 2.970431 0.142038 -0.023300 176270.000000 0 0 1
6.147840 2.196843 -32.783592 33.427324 0.343195 2.945023 0.112997 -0.027559 -11553.600000 0 0 1
5.738440 2.857743 33.402146 34.011759 0.462046 0.189617 0.138831 -0.027766 -180889.000000 0 0 1
6.439740 4.195543 33.152810 34.032068 0.577435 0.227808 0.105554 -0.030275 -158448.000000 0 0 1
5.964940 4.882643 32.052491 32.966391 0.685954 0.236014 0.144314 -0.043038 -250336.000000 0 0 1
6.785340 6.001243 31.827483 33.091456 0.724153 0.277280 0.127615 -0.043904 -47253.500000 0 0 1
6.118440 7.237643 31.150846 32.560621 0.869000 0.295340 0.156254 -0.047888 -670234.000000 0 0 1
5.034940 7.807943 31.827051 33.155328 0.998051 0.284016 0.165782 -0.052135 90663.200000 0 0 1
4.537340 9.023743 31.220206 32.813361 1.104893 0.312890 0.170071 -0.055506 106487.000000 0 0 1
4.062340 9.070543 29.758446 31.374233 1.149723 0.322331 0.160435 -0.048395 -366591.000000 0 0 1
2.903040 8.301543 29.525626 30.807562 1.234390 0.289492 0.157485 -0.046300 -182005.000000 0 0 1
2.453640 8.505143 28.217726 29.573601 1.289933 0.303981 0.111160 -0.022848 578111.000000 0 0 1
1.130240 7.778643 27.778066 28.868767 1.426506 0.275760 0.115212 -0.025787 9823.670000 0 0 1
-0.020960 8.395243 28.236216 29.457842 -1.568300 0.288999 0.107352 -0.013166 -1793480.000000 0 0 1
-1.082560 8.047943 27.452556 28.628381 -1.437085 0.287598 0.091828 -0.014539 -236185.000000 0 0 1
-2.467460 8.463543 28.031246 29.384872 -1.287119 0.304708 0.090807 -0.013648 318722.000000 0 0 1
-2.716560 9.799043 28.224896 30.000762 -1.300361 0.345796 0.094020 -0.005897 494534.000000 0 0 1
-4.083660 10.031343 28.610276 30.591699 -1.184193 0.361888 0.091658 -0.000402 599302.000000 0 0 1
-4.314860 11.377943 29.473966 31.887150 -1.208322 0.391543 0.087845 -0.003560 -708771.000000 0 0 1
-4.391860 12.540643 28.743056 31.665746 -1.233934 0.433022 0.073927 -0.005938 683505.000000 0 0 1
-5.680360 12.801743 28.165326 31.455313 -1.153179 0.461451 0.069668 -0.015772 554198.000000 0 0 1
-5.814260 14.222543 27.612696 31.599800 -1.182722 0.507782 0.060308 -0.014981 220129.000000 0 0 1
-4.854660 14.579643 26.629736 30.745351 -1.249368 0.523372 0.053243 -0.006277 90819.400000 0 0 1
-5.110160 15.904243 26.222896 31.091783 -1.259907 0.567211 0.062114 -0.004071 176891.000000 0 0 1
-3.934460 16.562143 25.460106 30.626811 -1.337562 0.589352 0.070846 -0.008960 139652.000000 0 0 1
-3.961860 16.209343 24.084246 29.300001 -1.331078 0.605903 0.059525 0.005586 137295.000000 0 0 1
-2.849560 16.877443 23.519866 29.088695 -1.403535 0.629101 0.059668 0.000457 202744.000000 0 0 1
-2.823460 16.656743 21.975416 27.718910 -1.402884 0.655415 0.056274 -0.007034 -537095.000000 0 0 1
-2.078960 15.595943 21.608916 26.730148 -1.438276 0.629351 0.051991 -0.014077 -777706.000000 0 0 1
-2.256160 15.263943 20.235416 25.447010 -1.424049 0.651462 0.054893 -0.018681 219882.000000 0 0 1
-1.371860 14.128943 19.658716 24.248179 -1.474004 0.625399 0.052717 -0.024515 -4114.080000 0 1 0
-1.974660 12.880243 19.900516 23.787192 -1.418672 0.579738 0.054957 -0.021338 485067.000000 0 1 0
-1.161960 11.911343 19.215416 22.637634 -1.473553 0.557035 0.053847 -0.023785 -217040.000000 0 1 0
-1.853560 10.600243 18.874716 21.726844 -1.397686 0.518168 0.039893 -0.024823 -504305.000000 0 1 0
-2.178260 9.680843 19.904816 22.241071 -1.349475 0.462460 0.052251 -0.030298 847189.000000 0 1 0
-3.055260 10.179643 20.989916 23.527353 -1.279216 0.468715 0.070032 -0.020617 712782.000000 0 1 0
-4.575360 10.319843 20.731116 23.605344 -1.153482 0.498631 0.068598 -0.016949 -97006.100000 0 1 0
-5.274760 9.104643 20.637916 23.165518 -1.045700 0.471497 0.060679 -0.022312 243941.000000 0 1 0
-6.670460 9.369443 20.797116 23.765554 -0.952103 0.505164 0.061748 -0.012747 741892.000000 0 1 0
-7.559660 8.092643 20.745216 23.516023 -0.819436 0.490338 0.060706 -0.018399 200018.000000 0 1 0
-7.401260 7.279343 21.894616 24.231007 -0.777094 0.442746 0.059563 -0.028442 -85116.600000 0 1 0
-8.165460 6.125043 21.785816 24.058526 -0.643575 0.438159 0.054140 -0.026458 -114691.000000 0 1 0
-8.012360 5.294443 23.043486 24.964601 -0.583919 0.394870 0.052692 -0.031061 189254.000000 0 1 0
-8.733160 5.703643 24.212936 26.364103 -0.578553 0.406765 0.042847 -0.023558 100423.000000 0 0 1
-8.745060 4.677443 25.141656 27.026976 -0.491151 0.375722 0.056244 -0.016785 -196570.000000 0 0 1
-9.643060 4.943943 26.348236 28.489660 -0.473752 0.390195 0.069701 -0.016120 -63548.300000 0 0 1
-9.194760 6.096243 27.077086 29.238270 -0.585469 0.386899 0.061759 -0.010996 172037.000000 0 0 1
-10.164260 6.462343 28.060136 30.535968 -0.566321 0.405461 0.070823 -0.019239 417332.000000 0 0 1
-9.710260 7.737843 28.811406 31.372926 -0.672831 0.406899 0.078414 -0.018299 687326.000000 0 0 1
-8.627260 7.431443 29.713266 31.820342 -0.711070 0.365956 0.080466 -0.018469 414421.000000 0 0 1
-8.136560 8.630243 30.257556 32.499299 -0.814834 0.373594 0.085783 -0.022590 -31265.300000 0 0 1
-7.253260 8.360043 31.489069 33.377561 -0.856167 0.337998 0.111618 -0.023105 706234.000000 0 0 1
-5.935260 7.891443 31.160326 32.687431 -0.925944 0.306877 0.100491 -0.021638 32137.300000 0 0 1
-5.325160 7.552243 32.366236 33.659575 -0.956649 0.278110 0.127887 -0.022304 379805.000000 0 0 1
-3.775460 7.441843 32.195304 33.259175 -1.101303 0.253611 0.104627 -0.021810 795668.000000 0 0 1
-3.191960 8.726743 31.928953 33.253612 -1.220144 0.283204 0.091000 -0.028036 -554221.000000 0 0 1
-1.809060 8.692743 31.701803 32.921738 -1.365614 0.273081 0.103230 -0.027251 -37097.000000 0 0 1
-1.309760 10.053643 31.071166 32.683461 -1.441249 0.315410 0.099881 -0.022322 -315287.000000 0 0 1
-1.355360 11.146043 31.927420 33.844223 -1.449790 0.338168 0.104596 -0.035255 118446.000000 0 0 1
-1.533760 12.377443 31.177296 33.579418 -1.447509 0.380539 0.087667 -0.030978 -582790.000000 0 0 1
-1.632260 13.564743 32.152725 34.935143 -1.451041 0.401810 0.086707 -0.040403 -72480.700000 0 0 1
-0.381560 13.984643 32.664638 35.534412 -1.543519 0.404652 0.124909 -0.044824 -251879.000000 0 0 1
-0.579760 14.696243 -33.465632 36.554948 -1.531367 2.727517 0.122912 -0.046039 144363.000000 0 0 1
0.728040 15.147143 -32.772562 36.111035 1.522769 2.708209 0.122956 -0.047116 112309.000000 0 0 1
1.437640 16.200643 -33.407722 37.156474 1.482288 2.688526 0.128531 -0.046707 -359928.000000 0 0 1
2.760040 16.182343 -32.980482 36.840172 1.401863 2.679747 0.144929 -0.045030 -513693.000000 0 0 1
3.761440 17.183643 -33.576932 37.905625 1.355299 2.659019 0.137657 -0.035782 -99464.700000 0 0 1
3.699440 18.520843 -33.108712 38.116851 1.373646 2.623188 0.114628 -0.028356 -217449.000000 0 0 1
4.340340 19.364743 33.346176 38.804630 1.350304 0.536828 0.101491 -0.012158 -75895.800000 0 0 1
3.723440 20.793943 33.222290 39.369692 1.393610 0.566370 0.101566 -0.020606 38674.500000 0 0 1
4.022340 21.661343 -33.026322 39.700516 1.387195 2.553295 0.117329 -0.038717 381633.000000 0 0 1
3.383540 22.919143 -33.092182 40.395891 1.424226 2.530805 0.110839 -0.032380 32487.000000 0 0 1
3.901340 23.722243 -31.890052 39.936709 1.407796 2.495620 0.123040 -0.034422 135690.000000 0 0 1
3.232240 24.961543 -31.625382 40.418941 1.442024 2.469370 0.123074 -0.039490 351472.000000 0 0 1
3.233240 25.267143 -30.266982 39.559734 1.443526 2.441986 0.140531 -0.046628 -4877.150000 0 0 1
2.756440 26.729943 -30.108302 40.355888 1.468038 2.412936 0.141570 -0.048878 443917.000000 0 0 1
3.812340 27.702043 -30.139832 41.113825 1.434036 2.393640 0.140058 -0.041291 601850.000000 0 0 1
3.388240 28.979443 -29.666802 41.610184 1.454406 2.364521 0.139313 -0.037582 -70257.300000 0 0 1
4.579140 29.968143 -29.490892 42.293863 1.419169 2.342400 0.162241 -0.047095 592195.000000 0 0 1
5.395640 29.583343 -28.361772 41.336149 1.390392 2.326946 0.161512 -0.063523 518194.000000 0 0 1
6.377640 30.593243 -28.147132 42.058077 1.365274 2.303988 0.186814 -0.068056 361223.000000 0 0 1
7.608040 30.336243 -27.216062 41.459425 1.325074 2.286900 0.195023 -0.081501 87112.600000 0 0 1
8.682040 29.821143 -27.959492 41.790090 1.287490 2.303721 0.197512 -0.070834 1158500.000000 0 0 1
9.946840 30.554743 -27.858082 42.527693 1.256075 2.285055 0.214457 -0.073527 1215870.000000 0 0 1
10.024340 31.809043 -28.744312 44.028833 1.265507 2.282140 0.226221 -0.069793 -905925.000000 0 0 1
9.341940 32.854943 -28.147192 44.260406 1.293769 2.260029 0.229260 -0.070758 -87278.400000 0 0 1
9.217140 -33.663462 -29.008972 45.383971 -1.303544 2.264241 0.206991 -0.067618 -112209.000000 0 0 1
7.911040 -33.477162 -29.817922 45.523768 -1.338742 2.284975 0.164910 -0.045232 -8786.070000 0 0 1
7.693640 33.383043 -30.938192 46.160496 1.344286 2.305316 0.142920 -0.040907 -149545.000000 0 0 1
6.363940 33.362043 -31.388412 46.246709 1.382307 2.316810 0.136777 -0.030736 -216686.000000 0 0 1
6.197240 32.617643 -32.719012 46.613841 1.383038 2.348881 0.145110 -0.052347 8055.310000 0 0 1
6.216040 33.466643 33.534766 47.783218 1.387151 0.792860 0.149909 -0.047416 245925.000000 0 0 1
5.883040 32.723643 32.351233 46.390185 1.392917 0.799072 0.164235 -0.050881 -32803.100000 0 0 1
6.144040 33.464543 31.012496 46.036940 1.389220 0.831668 0.134849 -0.061818 -867624.000000 0 0 1
7.465740 33.352743 30.642026 45.902903 1.350584 0.839896 0.136508 -0.057047 -876678.000000 0 0 1
7.556640 33.771543 29.303626 45.346692 1.350665 0.868185 0.103577 -0.066522 -251738.000000 0 0 1
19.133976 -21.704057 28.763946 40.798771 -0.848249 0.788345 0.085887 0.000015 181316.000000 0 0 1
18.052576 -20.788857 28.993346 39.983574 -0.855729 0.759571 0.102430 0.003900 -146727.000000 0 0 1
16.822976 -21.419257 29.109686 39.864407 -0.905013 0.752156 0.103424 0.001539 -471497.000000 0 0 1
16.366476 -21.586757 30.578266 40.851927 -0.922086 0.724977 0.095829 -0.001500 -120840.000000 0 0 1
17.114876 -22.664557 31.188726 42.182197 -0.924015 0.738645 0.105796 -0.008547 438285.000000 0 0 1
17.176176 -22.717657 32.587768 43.279043 -0.923421 0.718234 0.091378 -0.008437 -83306.100000 0 0 1
18.010276 -23.904757 33.086049 44.614954 -0.925111 0.735357 0.082026 -0.019103 -230943.000000 0 0 1
17.487476 -25.175997 32.823420 44.911241 -0.963698 0.751229 0.112624 -0.025370 -40222.200000 0 0 1
18.250076 -26.112477 33.573656 46.283011 -0.960807 0.759182 0.107079 -0.031181 234389.000000 0 0 1
17.789976 -27.559627 33.411116 46.822206 -0.997585 0.776210 0.107902 -0.022090 51103.600000 0 0 1
18.344276 -28.155397 32.247231 46.573841 -0.993342 0.806001 0.105552 -0.025340 92058.900000 0 0 1
17.764176 -29.368827 31.906524 46.862781 -1.026807 0.821874 0.113879 -0.028457 -619294.000000 0 0 1
18.481676 -30.033907 30.759966 46.795122 -1.019159 0.853522 0.120543 -0.026131 513831.000000 0 0 1
19.805576 -30.505297 31.076176 47.838925 -0.994948 0.863738 0.107611 -0.038362 604164.000000 0 0 1
20.306176 -31.237307 30.019296 47.846298 -0.994378 0.892572 0.089380 -0.023455 -632461.000000 0 0 1
21.765876 -31.646327 30.247456 48.889180 -0.968315 0.903717 0.083164 -0.024086 -364573.000000 0 0 1
22.681276 -30.598737 30.079106 48.533242 -0.932920 0.902356 0.075801 -0.024827 -481733.000000 0 0 1
23.993976 -30.972187 30.417196 49.600333 -0.911677 0.910633 0.077498 -0.028929 -208287.000000 0 0 1
24.902776 -29.764647 29.995036 49.048799 -0.874100 0.912798 0.066836 -0.026051 410648.000000 0 0 1
26.183876 -30.233837 29.560286 49.734201 -0.857061 0.934320 0.057664 -0.030232 -133080.000000 0 0 1
26.954676 -29.179877 29.167436 49.282442 -0.825018 0.937454 0.056125 -0.032635 917695.000000 0 0 1
28.318276 -29.572787 28.436326 49.850768 -0.807065 0.963768 0.072721 -0.028004 1285760.000000 0 0 1
29.357176 -30.095817 29.218996 51.199138 -0.797821 0.963447 0.075636 -0.021099 338168.000000 0 0 1
30.594876 -30.124097 28.509726 51.539423 -0.777645 0.984639 0.081465 -0.035985 769337.000000 0 0 1
31.701276 -31.047887 29.061406 53.042507 -0.774986 0.990958 0.080034 -0.034732 163985.000000 0 0 1
31.277876 -32.393127 28.871706 53.490145 -0.802912 1.000647 0.053670 -0.025095 491760.000000 0 0 1
32.189376 -33.409227 29.359076 54.902529 -0.803992 1.006586 0.077871 -0.021775 -161638.000000 0 0 1
31.395276 32.908455 29.530556 54.228069 0.808926 0.994929 0.064421 -0.009854 -115737.000000 0 0 1
30.497576 32.890954 30.589436 54.292086 0.823138 0.972273 0.073698 -0.008172 1079790.000000 0 0 1
29.324676 33.775889 30.556236 54.170387 0.855823 0.971482 0.058226 -0.009641 327044.000000 0 0 1
28.222976 33.603342 29.510486 52.882792 0.872203 0.978780 0.065610 -0.002926 -247199.000000 0 0 1
27.476476 32.392395 29.732816 51.848474 0.867326 0.960078 0.058437 0.004937 -478239.000000 0 0 1
26.334476 32.361689 28.942376 50.778388 0.887724 0.964322 0.057071 0.005276 -449106.000000 0 0 1
25.513876 31.047239 29.126086 49.630815 0.882918 0.943627 0.079733 -0.014290 -248151.000000 0 0 1
26.178576 29.845599 28.783666 49.036487 0.850759 0.943467 0.086807 -0.004659 27581.700000 0 0 1
25.345376 28.691769 28.722016 47.859794 0.847247 0.927135 0.126436 -0.029298 -468115.000000 0 0 1
24.733776 28.491729 27.337996 46.592964 0.855886 0.943768 0.127692 -0.033505 77806.900000 0 0 1
23.664776 29.380089 27.032936 46.411107 0.892729 0.949036 0.160021 -0.036515 278290.000000 0 0 1
22.926776 28.907879 25.921496 45.091312 0.900278 0.958355 0.157550 -0.035688 1370320.000000 0 0 1
21.539376 29.635899 25.600926 44.694951 0.942309 0.960888 0.160824 -0.038690 1273690.000000 0 0 1
21.571776 30.957889 24.996466 45.260973 0.962214 0.985707 0.163383 -0.046373 -759.870000 0 0 1
20.237776 31.369729 24.763506 44.797976 0.997847 0.985098 0.128098 -0.041210 -68058.200000 0 0 1
20.125676 32.802784 24.165916 45.442898 1.020484 1.010088 0.141896 -0.038909 -208725.000000 0 0 1
20.640876 32.978366 22.860566 45.124537 1.011556 1.039547 0.144274 -0.040082 949848.000000 0 0 1
22.062876 33.217169 22.884456 45.976615 0.984503 1.049804 0.145071 -0.028425 631288.000000 0 0 1
22.678876 33.526557 21.531216 45.847079 0.976055 1.081923 0.147473 -0.035913 -201720.000000 0 0 1
22.497976 -32.808187 21.058016 45.010844 -0.969703 1.083947 0.136529 -0.033777 196287.000000 0 0 1
22.834976 -32.743777 19.693416 44.513163 -0.961828 1.112503 0.137554 -0.035673 -147673.000000 0 0 1
22.420376 -31.478737 19.036216 43.080873 -0.951904 1.113112 0.122832 -0.030603 -213665.000000 0 0 1
23.037076 -30.347207 19.658616 42.873314 -0.921486 1.094458 0.112599 -0.023699 147431.000000 0 0 1
22.788676 -29.044507 19.164416 41.595456 -0.905509 1.091975 0.109827 -0.025984 -17668.600000 0 0 1
23.669076 -28.644087 17.949116 41.265962 -0.880214 1.120800 0.091734 -0.022965 -81690.800000 0 0 1
23.387576 -29.491897 16.819416 41.226732 -0.900328 1.150563 0.080960 -0.034076 141263.000000 0 0 1
23.853876 -28.930707 15.602916 40.613350 -0.881283 1.176475 0.074065 -0.027589 -148417.000000 0 0 1
23.223776 -29.439347 14.270516 40.120650 -0.902880 1.207144 0.073445 -0.038496 -148146.000000 0 0 1
23.710776 -30.744137 13.902816 41.239437 -0.913846 1.226936 0.096167 -0.035800 234474.000000 0 0 1
23.813976 -31.111877 12.557716 41.143050 -0.917493 1.260626 0.087179 -0.038203 -417112.000000 0 0 1
22.497676 -31.073507 11.750816 40.122187 -0.944134 1.273563 0.090046 -0.031595 243684.000000 0 0 1
21.639176 -32.159377 12.172216 40.628097 -0.978509 1.266522 0.098789 -0.038750 -58818.200000 0 0 1
20.440576 -32.290307 11.469016 39.900118 -1.006447 1.279240 0.090115 -0.031209 367107.000000 0 0 1
19.417376 -33.288357 12.175716 40.415310 -1.042741 1.264777 0.087778 -0.026685 708342.000000 0 0 1
18.830276 -32.855057 13.423416 40.177384 -1.050367 1.230142 0.083947 -0.024960 240671.000000 0 0 1
19.562376 -33.434947 14.457716 41.347404 -1.041414 1.213583 0.070649 -0.026758 -942078.000000 0 0 1
19.809476 -32.525767 15.710416 41.196578 -1.023757 1.179537 0.083697 -0.034916 -74531.700000 0 0 1
18.676876 -31.892027 16.292016 40.390059 -1.041011 1.155603 0.104763 -0.037556 -235252.000000 0 0 1
17.622976 -32.709067 16.695716 40.733270 -1.076608 1.148475 0.086387 -0.022536 -784702.000000 0 0 1
17.757576 -33.439217 18.032516 41.936671 -1.082626 1.126310 0.068921 -0.017783 215882.000000 0 0 1
18.796776 33.236023 17.872016 42.158759 1.056090 1.133025 0.069509 -0.014674 622121.000000 0 0 1
19.189676 32.615511 19.123916 42.399757 1.038979 1.102868 0.076035 -0.024543 317965.000000 0 0 1
19.982676 31.321239 18.900216 41.683876 1.002909 1.100200 0.104240 -0.025951 506244.000000 0 0 1
19.078476 30.252669 18.581316 40.304807 1.008153 1.091652 0.074044 -0.020250 430224.000000 0 0 1
19.803776 29.077259 18.331316 39.670060 0.972885 1.090441 0.079180 -0.030072 162911.000000 0 0 1
18.932876 27.796549 18.158816 38.220996 0.972852 1.075718 0.089271 -0.028079 119084.000000 0 0 1
18.511076 27.188909 19.333416 38.153344 0.973051 1.039410 0.103256 -0.040607 -46599.700000 0 0 1
18.138476 25.854369 19.025816 36.870508 0.959022 1.028602 0.097722 -0.043573 -434682.000000 0 0 1
17.958776 25.104759 20.386916 36.991795 0.949840 0.987090 0.109967 -0.045668 242648.000000 0 0 1
16.727976 25.344859 21.057616 36.954164 0.987413 0.964497 0.108415 -0.042159 419625.000000 0 0 1
15.766476 24.335519 20.717116 35.637033 0.995913 0.950426 0.099164 -0.042690 608075.000000 0 0 1
14.406876 24.492189 21.478416 35.619485 1.039081 0.923545 0.111832 -0.052670 54856.000000 0 0 1
13.574776 25.459759 20.934516 35.647269 1.080954 0.943116 0.105822 -0.045572 -886202.000000 0 0 1
12.421676 25.655989 21.688516 35.817866 1.119899 0.920374 0.098437 -0.040818 -610182.000000 0 0 1
11.558576 26.721299 20.960716 35.874505 1.162539 0.946805 0.071087 -0.035182 -354965.000000 0 0 1
12.114776 28.002019 21.065616 37.076152 1.162473 0.966514 0.062968 -0.031861 -96070.800000 0 0 1
11.748676 28.904489 20.024716 37.074116 1.184729 1.000209 0.057801 -0.030125 -286051.000000 0 0 1
12.334276 30.333079 20.132816 38.439047 1.184589 1.019538 0.040637 -0.022730 -223892.000000 0 0 1
11.768076 31.173029 21.105916 39.442427 1.209828 1.006162 0.041745 -0.016847 168559.000000 0 0 1
12.457076 30.976789 22.372126 40.190200 1.188445 0.980441 0.038901 -0.017110 309880.000000 0 0 1
11.793176 31.808154 23.489416 41.262456 1.215749 0.965180 0.034337 -0.020165 497691.000000 0 0 1
10.468076 31.551999 23.932646 40.961943 1.250451 0.946822 0.046021 -0.018188 73987.700000 0 0 1
10.258176 32.159746 25.170906 42.107647 1.262023 0.930073 0.054809 -0.023673 -1268020.000000 0 0 1
8.933576 32.081962 25.882146 42.177560 1.299215 0.910125 0.147335 -0.042644 293308.000000 0 0 1
7.748276 32.763738 25.360716 42.150495 1.338573 0.925205 0.122035 -0.034976 1500010.000000 0 0 1
7.222776 32.337143 24.088786 40.964972 1.351045 0.942171 0.120912 -0.049709 499722.000000 0 0 1
6.276676 31.023469 24.149116 39.812461 1.371171 0.919055 0.117477 -0.038480 848605.000000 0 0 1
7.037176 29.941329 24.623766 39.399681 1.339954 0.895698 0.094268 -0.043271 -67551.200000 0 0 1
6.228076 28.794129 24.479446 38.303186 1.357781 0.877473 0.098108 -0.031987 -561995.000000 0 0 1
7.038376 27.527299 24.697876 37.646726 1.320472 0.855232 0.089437 -0.035454 -254360.000000 0 0 1
7.968276 27.126999 23.711796 36.900092 1.285093 0.872917 0.082248 -0.037860 1120190.000000 0 0 1
9.088876 28.024729 23.473346 37.669498 1.257183 0.898046 0.105102 -0.046966 267068.000000 0 0 1
10.332076 27.882279 24.400866 38.465251 1.215923 0.883614 0.098304 -0.050234 -735100.000000 0 0 1
10.084376 27.933919 25.791236 39.334289 1.224348 0.855696 0.104294 -0.045263 364925.000000 0 0 1
11.159176 27.550279 26.671716 39.936518 1.185946 0.839476 0.076145 -0.036159 116467.000000 0 0 1
12.335076 28.491049 26.771326 40.995096 1.162215 0.859208 0.071650 -0.026121 -659197.000000 0 0 1
11.924376 29.640139 27.530286 42.173987 1.188304 0.859549 0.086452 -0.031267 111711.000000 0 0 1
13.019776 30.504279 27.660696 43.187263 1.167387 0.875670 0.080599 -0.021948 -534065.000000 0 0 1
12.727676 31.838197 28.373576 44.505329 1.190496 0.879506 0.063385 -0.031044 -249775.000000 0 0 1
12.396476 31.629519 29.726566 45.141642 1.197268 0.851949 0.087142 -0.046756 499555.000000 0 0 1
11.011576 31.394579 29.962256 44.772884 1.233456 0.837657 0.127343 -0.050277 68610.300000 0 0 1
10.826976 31.181979 31.510224 45.633687 1.236601 0.808611 0.156396 -0.046120 -4367.480000 0 0 1
11.351376 29.959939 31.939356 45.239078 1.208624 0.786944 0.136103 -0.045646 78561.600000 0 0 1
11.346676 29.894749 33.356346 46.207022 1.208039 0.764268 0.167816 -0.043418 -55223.400000 0 0 1
11.294976 28.525239 -33.366692 45.327716 1.193774 2.398118 0.155933 -0.041295 40541.200000 0 0 1
12.431776 27.757949 33.649726 45.358096 1.149720 0.734944 0.164967 -0.043911 96931.300000 0 0 1
12.397776 26.417709 -33.310882 44.285607 1.132011 2.422165 0.164282 -0.049624 79588.700000 0 0 1
13.694076 25.658939 33.621366 44.455653 1.080557 0.713173 0.145573 -0.055341 491843.000000 0 0 1
13.848076 24.345939 -33.403832 43.592544 1.053631 2.443818 0.130711 -0.050218 -130326.000000 0 0 1
14.175776 24.152339 -32.045342 42.558102 1.040041 2.423373 0.132324 -0.049208 -335520.000000 0 0 1
14.391176 22.632649 -31.772532 41.579280 1.004426 2.440509 0.113775 -0.067688 -27348.500000 0 0 1
15.528676 22.211849 -32.495432 42.313817 0.960663 2.446451 0.109506 -0.048918 -46121.200000 0 0 1
15.516976 20.757849 -32.527772 41.589912 0.928882 2.468837 0.110254 -0.049185 107453.000000 0 0 1
16.793376 20.193749 -33.201612 42.333816 0.877074 2.472333 0.133097 -0.056956 -167938.000000 0 0 1
17.893976 20.340749 -32.375002 42.214703 0.849305 2.444813 0.122204 -0.055030 13302.600000 0 0 1
19.124776 19.819149 -32.896962 42.904147 0.803226 2.444567 0.130808 -0.055236 287535.000000 0 0 1
20.295176 19.891349 -31.920942 42.737647 0.775350 2.414191 0.101880 -0.042966 -421720.000000 0 0 1
20.794176 21.218249 -31.742352 43.476301 0.795492 2.389275 0.089114 -0.037501 726009.000000 0 0 1
21.882776 21.375649 -30.818812 43.423190 0.773676 2.359914 0.061563 -0.021137 943821.000000 0 0 1
21.289676 21.754249 -29.428692 42.338464 0.796191 2.339330 0.060908 -0.029061 307952.000000 0 0 1
20.598076 22.990959 -29.348902 42.593696 0.840240 2.330964 0.056590 -0.021246 60189.400000 0 0 1
20.291076 23.463379 -28.063642 41.830920 0.857774 2.306195 0.071073 -0.017934 -43168.100000 0 0 1
21.501876 24.053099 -27.249412 42.230471 0.841343 2.272153 0.057731 -0.008300 477776.000000 0 0 1
22.212776 25.190479 -27.717062 43.545415 0.848132 2.260760 0.069117 -0.011957 -276047.000000 0 0 1
21.520976 26.394959 -27.859572 44.000023 0.886769 2.256441 0.058116 -0.011154 -611726.000000 0 0 1
22.467976 27.437859 -28.475812 45.480962 0.884656 2.247343 0.055787 -0.009613 -46161.700000 0 0 1
22.641076 27.374229 -29.938772 46.457473 0.879751 2.271079 0.058216 -0.007154 131480.000000 0 0 1
23.216276 26.225329 -30.577072 46.494308 0.846184 2.288494 0.051314 -0.007802 -313332.000000 0 0 1
24.626476 25.729699 -30.233812 46.717920 0.807303 2.274645 0.071412 -0.011535 150115.000000 0 0 1
25.629476 26.735609 -30.520682 47.991404 0.806519 2.260050 0.065365 -0.006809 449567.000000 0 0 1
26.894676 26.114089 -30.388912 48.257177 0.770674 2.252000 0.088986 -0.019257 -18823.200000 0 0 1
28.136976 27.001269 -30.629622 49.587616 0.764804 2.236594 0.069775 -0.004020 24150.600000 0 0 1
28.346776 27.978899 -29.594732 49.620627 0.778867 2.209830 0.054372 0.002511 -70949.200000 0 0 1
29.415276 28.797389 -30.009012 50.942014 0.774784 2.200718 0.057199 -0.005895 97593.300000 0 0 1
29.498276 30.087179 -29.245232 51.290059 0.795281 2.177537 0.048460 0.001403 34759.100000 0 0 1
29.955176 29.961939 -27.921702 50.741026 0.785511 2.153494 0.081648 -0.004592 -426570.000000 0 0 1
28.942276 30.240579 -27.018342 49.821067 0.807332 2.143978 0.067223 0.003553 -448983.000000 0 0 1
29.402776 30.245769 -25.512942 49.297464 0.799530 2.114759 0.113322 -0.008490 -343602.000000 0 0 1
29.746076 28.955079 -25.006292 48.461740 0.771924 2.112972 0.101485 -0.001164 67326.400000 0 0 1
28.714876 28.120699 -24.492592 47.065963 0.774944 2.118102 0.095986 -0.008641 -188831.000000 0 0 1
27.998876 28.622029 -23.229092 46.289829 0.796403 2.096496 0.100453 -0.007400 159883.000000 0 0 1
27.128276 29.747149 -23.444992 46.588666 0.831411 2.098133 0.125063 -0.000447 1210760.000000 0 0 1
26.135976 29.860249 -22.378292 45.557783 0.851810 2.084271 0.093236 -0.000436 888216.000000 0 0 1
3.854876 -25.629177 -19.509792 32.439895 -1.421506 2.216066 0.097388 -0.017000 49731.800000 0 0 1
3.349276 -26.764707 -18.837092 32.899897 -1.446306 2.180419 0.099315 -0.011647 147902.000000 0 0 1
3.341676 -26.584127 -17.446392 31.972788 -1.445750 2.147977 0.101537 -0.022373 -201508.000000 0 0 1
3.298076 -27.839287 -16.501492 32.530024 -1.452878 2.102810 0.089492 -0.021485 -24418.600000 0 0 1
4.551776 -28.415627 -16.216592 33.032475 -1.411960 2.083952 0.080655 -0.018814 -153776.000000 0 0 1
4.481176 -29.387237 -15.211792 33.392952 -1.419475 2.043774 0.074492 -0.024047 594789.000000 0 0 1
5.884476 -29.941837 -14.761692 33.897614 -1.376739 2.021366 0.103899 -0.023239 532734.000000 0 0 1
6.616876 -29.016447 -13.950592 32.868773 -1.346591 2.009132 0.075512 -0.013697 -535112.000000 0 0 1
8.001476 -29.151887 -14.077692 33.347227 -1.302918 2.006617 0.078719 -0.016611 -58438.700000 0 0 1
8.650976 -30.305457 -13.218992 34.176042 -1.292732 1.967946 0.074088 -0.028053 -651226.000000 0 0 1
8.818276 -29.942887 -11.881092 33.399084 -1.284390 1.934493 0.063776 -0.021437 -93765.000000 0 0 1
9.037776 -31.027187 -10.940592 34.118386 -1.287353 1.897228 0.061321 -0.019127 474236.000000 0 0 1
10.513776 -31.503727 -10.757792 34.910663 -1.248688 1.884046 0.068118 -0.026074 479706.000000 0 0 1
11.324076 -30.723927 -9.886192 34.204257 -1.217670 1.864014 0.053131 -0.021792 339704.000000 0 0 1
12.537476 -31.451457 -9.700892 35.220587 -1.191472 1.849836 0.066251 -0.022217 605324.000000 0 0 1
13.670776 -30.800487 -8.855392 34.842188 -1.153069 1.827772 0.070061 -0.014291 514023.000000 0 0 1
14.634376 -30.005027 -9.543292 34.720902 -1.117012 1.849238 0.074835 -0.027565 250594.000000 0 0 1
15.641676 -29.649447 -8.631792 34.615886 -1.085350 1.822815 0.061245 -0.022102 9827.570000 0 0 1
16.979276 -29.084087 -9.179892 34.906308 -1.042374 1.836913 0.074662 -0.033776 193018.000000 0 0 1
17.020576 -27.793107 -9.740792 34.015288 -1.021307 1.861227 0.094891 -0.033776 386049.000000 0 0 1
16.092676 -27.512047 -10.825092 33.661098 -1.041530 1.898205 0.085538 -0.032595 305744.000000 0 0 1
15.678976 -25.991657 -10.904592 32.253785 -1.028004 1.915680 0.079393 -0.027484 -172712.000000 0 0 1
14.567076 -25.561257 -10.115192 31.111005 -1.052812 1.901948 0.055287 -0.021365 372659.000000 0 0 1
14.306176 -24.150257 -10.257792 29.885178 -1.035997 1.921161 0.041942 -0.009618 84457.300000 0 0 1
13.525076 -23.772957 -11.508192 29.673551 -1.053538 1.969069 0.022734 0.003646 292954.000000 0 0 1
14.425076 -23.461657 -12.615292 30.293196 -1.019539 2.000322 0.023881 -0.009394 651262.000000 0 0 1
13.732176 -23.424757 -13.876492 30.493424 -1.040567 2.043242 0.029145 -0.015602 96624.100000 0 0 1
14.556876 -22.876657 -15.027092 31.000928 -1.004098 2.076851 0.053206 -0.017570 686590.000000 0 0 1
15.764276 -23.591557 -15.343092 32.256541 -0.981721 2.066509 0.056096 -0.024229 618407.000000 0 0 1
16.287576 -23.213157 -16.593892 32.855639 -0.958962 2.100242 0.059911 -0.030332 -984384.000000 0 0 1
17.312176 -24.234257 -17.145192 34.365218 -0.950492 2.093138 0.063920 -0.034376 433331.000000 0 0 1
18.559676 -24.256657 -16.471892 34.701155 -0.917677 2.065395 0.113849 -0.039017 394506.000000 0 0 1
19.406276 -23.096857 -16.669992 34.466752 -0.872012 2.075621 0.137060 -0.041858 449827.000000 0 0 1
20.910676 -23.245757 -16.247292 35.236289 -0.838231 2.050026 0.136931 -0.039000 1140410.000000 0 0 1
21.632676 -24.246757 -17.001992 36.673500 -0.842314 2.052855 0.152801 -0.037481 929487.000000 0 0 1
23.022576 -24.231657 -16.599792 37.319771 -0.810979 2.031746 0.162087 -0.021297 1246390.000000 0 0 1
23.831576 -25.325097 -17.348392 38.862208 -0.815772 2.033543 0.157006 -0.019031 -15506.900000 0 0 1
24.405476 -24.901057 -18.586992 39.511595 -0.795449 2.060561 0.167512 -0.017423 -66688.600000 0 0 1
25.045876 -26.032207 -19.172892 40.897084 -0.804706 2.058737 0.151852 -0.028504 175742.000000 0 0 1
26.357776 -25.605427 -19.888792 41.784378 -0.770921 2.066882 0.139896 -0.035444 89942.500000 0 0 1
26.271376 -24.688257 -20.936892 41.689911 -0.754342 2.096943 0.141967 -0.036590 -373079.000000 0 0 1
26.540076 -23.337157 -20.556292 40.884712 -0.721270 2.097616 0.142714 -0.034650 126754.000000 0 0 1
25.364676 -22.262157 -20.654092 39.567182 -0.720348 2.119991 0.163328 -0.040615 649290.000000 0 0 1
25.076476 -21.761257 -21.962192 39.808539 -0.714735 2.155192 0.146101 -0.029452 62726.300000 0 0 1
24.654976 -22.782057 -22.898192 40.635171 -0.745936 2.169421 0.104279 -0.032345 -678426.000000 0 0 1
24.009476 -22.110557 -24.118092 40.583420 -0.744248 2.207172 0.080516 -0.021148 244640.000000 0 0 1
24.875976 -21.345157 -24.967392 41.204375 -0.709157 2.221744 0.059633 -0.006178 202471.000000 0 0 1
24.114476 -20.369857 -25.654572 40.676726 -0.701418 2.253244 0.050735 -0.000169 -58064.100000 0 0 1
24.911476 -19.531857 -26.706432 41.416284 -0.664940 2.271596 0.053607 0.003385 -229423.000000 0 0 1
24.208076 -18.567457 -27.417352 41.018198 -0.654289 2.302878 0.043140 0.008166 -118318.000000 0 0 1
24.960976 -18.218857 -28.541692 42.066676 -0.630508 2.316497 0.055153 0.006981 279901.000000 0 0 1
24.221176 -17.069557 -29.331702 41.693931 -0.613898 2.351107 0.101827 -0.003837 814925.000000 0 0 1
22.984676 -17.456257 -29.943692 41.588952 -0.649537 2.374586 0.099189 -0.007473 784579.000000 0 0 1
22.258476 -16.362057 -30.504942 41.154685 -0.633892 2.405692 0.113289 -0.021101 938131.000000 0 0 1
20.862576 -16.830957 -31.067672 41.033260 -0.678845 2.429711 0.090556 -0.021403 572440.000000 0 0 1
20.952776 -17.588557 -32.210782 42.260036 -0.698330 2.437508 0.079504 -0.018555 362118.000000 0 0 1
19.688076 -18.136457 -32.542622 42.137556 -0.744400 2.453242 0.083837 -0.030939 142081.000000 0 0 1
19.718776 -19.033357 33.620656 43.375654 -0.767713 0.683916 0.091975 -0.009867 650548.000000 0 0 1
20.646676 -20.140657 -33.564302 44.254871 -0.772993 2.431700 0.081638 -0.000833 810188.000000 0 0 1
20.948176 -20.857357 32.617581 44.020018 -0.783226 0.736280 0.074413 -0.008063 63868.600000 0 0 1
21.711476 -22.160057 32.895587 45.216988 -0.795623 0.756118 0.063870 -0.014266 -237610.000000 0 0 1
20.994576 -23.010357 -33.632712 45.841117 -0.831174 2.394518 0.069652 -0.013417 -50478.300000 0 0 1
21.398176 -22.957857 -32.239512 44.992569 -0.820546 2.369643 0.074641 -0.005312 155413.000000 0 0 1
20.594876 -23.913257 -31.275072 44.431103 -0.859817 2.351670 0.087840 -0.016298 71376.100000 0 0 1
20.831476 -25.275717 -31.435712 45.398417 -0.881491 2.335663 0.105761 -0.032274 -188142.000000 0 0 1
21.933676 -25.798207 -30.748952 45.739826 -0.866185 2.308051 0.082893 -0.028726 -164510.000000 0 0 1
21.848876 -27.312737 -30.891202 46.665033 -0.896085 2.294250 0.076046 -0.036822 880886.000000 0 0 1
20.698576 -27.855817 -30.195042 46.001284 -0.931751 2.286827 0.092292 -0.039453 719113.000000 0 0 1
20.722576 -29.231437 -30.201962 46.862144 -0.954113 2.271146 0.090188 -0.034598 -487680.000000 0 0 1
19.476276 -29.884017 -29.610452 46.359019 -0.993207 2.263630 0.123891 -0.036072 690625.000000 0 0 1
18.200976 -29.815897 -30.273862 46.225209 -1.022732 2.284874 0.144416 -0.041372 638606.000000 0 0 1
18.116876 -30.526227 -31.478812 47.444571 -1.035181 2.296265 0.151655 -0.043913 416201.000000 0 0 1
16.669576 -31.136627 -31.718812 47.470489 -1.079256 2.302556 0.168851 -0.049952 987472.000000 0 0 1
15.796376 -30.233457 -32.334022 47.000813 -1.089327 2.329451 0.174171 -0.046790 -24251.600000 0 0 1
14.650076 -30.912907 -32.847752 47.425809 -1.128234 2.335902 0.118413 -0.036291 371786.000000 0 0 1
13.576676 -30.092967 -33.581142 47.091463 -1.146980 2.364713 0.123377 -0.029836 284971.000000 0 0 1
12.867276 -29.252237 -32.667672 45.699420 -1.156396 2.367188 0.140799 -0.038314 376869.000000 0 0 1
11.981176 -28.329867 -33.339812 45.361581 -1.170692 2.396432 0.120007 -0.037868 -233110.000000 0 0 1
11.121776 -27.517207 -32.424322 43.957107 -1.186696 2.400358 0.138780 -0.037612 -550019.000000 0 0 1
10.135776 -28.361117 -31.899742 43.871180 -1.227560 2.384918 0.146815 -0.044765 -214448.000000 0 0 1
9.220776 -27.648557 -31.060862 42.593926 -1.248896 2.387996 0.110065 -0.046469 328506.000000 0 0 1
8.238976 -28.570817 -30.303952 42.455881 -1.290043 2.365670 0.092797 -0.042958 573578.000000 0 0 1
7.054576 -29.036627 -30.972472 43.037039 -1.332460 2.374123 0.085575 -0.035509 557532.000000 0 0 1
7.222276 -30.067347 -31.948242 44.462307 -1.335059 2.372507 0.092109 -0.041419 251957.000000 0 0 1
5.858776 -30.492707 -32.578922 45.005740 -1.380973 2.380211 0.138691 -0.043476 374064.000000 0 0 1
4.953676 -31.031097 -31.676332 44.619031 -1.412496 2.360193 0.148769 -0.057260 -589867.000000 0 0 1
3.802876 -31.529657 -32.300042 45.297614 -1.450763 2.364653 0.168372 -0.061595 -527339.000000 0 0 1
2.818776 -32.200977 -31.331552 45.016825 -1.483482 2.340603 0.148148 -0.057463 717897.000000 0 0 1
1.794976 -31.357667 -30.744832 43.951905 -1.513617 2.345509 0.111861 -0.044947 1110380.000000 0 0 1
0.532076 -31.424577 -31.419652 44.440766 -1.553866 2.356044 0.082065 -0.009996 397643.000000 0 0 1
-0.401124 -30.303127 -30.866262 43.256983 1.557560 2.365357 0.056051 0.003893 7764.710000 0 0 1
-1.047924 -30.609107 -29.621372 42.607995 1.536574 2.339504 0.024167 -0.003052 28636.600000 0 0 1
-1.602824 -29.437047 -29.103812 41.426328 1.516401 2.349762 0.091536 -0.014788 70288.800000 0 0 1
-2.446424 -29.617877 -27.813072 40.703447 1.488384 2.323083 0.100042 -0.026400 -205700.000000 0 0 1
-1.650924 -29.726007 -26.645122 39.954018 1.515315 2.300830 0.079688 -0.023019 -440188.000000 0 0 1
-2.261324 -29.737827 -25.385292 39.164589 1.494900 2.275974 0.107931 -0.032453 -470449.000000 0 0 1
-1.251824 -29.872467 -24.208192 38.470351 1.528915 2.251408 0.067249 -0.027283 58386.800000 0 0 1
-1.767324 -29.825937 -22.878992 37.631878 1.511611 2.224296 0.122265 -0.037656 -508366.000000 0 0 1
-0.795724 -30.242467 -21.976892 37.392830 1.544491 2.199047 0.108187 -0.030723 -272504.000000 0 0 1
-1.152624 -30.108257 -20.487792 36.436044 1.532532 2.167954 0.071388 -0.018325 -7383.580000 0 0 1
-1.190524 -28.760107 -19.999292 35.050432 1.529425 2.178016 0.048526 -0.021833 -363347.000000 0 0 1
0.054376 -28.186897 -19.724192 34.402731 -1.568867 2.181363 0.084583 -0.024583 -414939.000000 0 0 1
-0.050924 -26.727757 -19.083992 32.841656 1.568891 2.190865 0.091896 -0.033352 -564483.000000 0 0 1
-0.672324 -26.738157 -17.853592 32.157920 1.545657 2.159382 0.079012 -0.031057 -111082.000000 0 0 1
-0.409424 -25.601687 -17.039592 30.756490 1.554806 2.157977 0.092534 -0.034870 -265687.000000 0 0 1
-1.426924 -25.543547 -15.898092 30.120728 1.514992 2.126819 0.079180 -0.030323 -249325.000000 0 0 1
-1.322224 -24.386257 -15.112292 28.719665 1.516629 2.124922 0.067742 -0.029691 97973.900000 0 0 1
-2.305524 -24.365457 -14.091292 28.241024 1.476455 2.093201 0.077080 -0.028765 -93366.100000 0 0 1
-2.149224 -23.231957 -13.100692 26.757637 1.478547 2.082434 0.082232 -0.022156 -365102.000000 0 0 1
-1.042224 -23.341557 -12.255792 26.384066 1.526175 2.053883 0.106574 -0.033554 -681617.000000 0 0 1
-0.970624 -22.325657 -11.262392 25.024359 1.527348 2.037626 0.104140 -0.023624 642724.000000 0 0 1
0.418276 -22.151357 -10.535992 24.532931 -1.551916 2.014695 0.100121 -0.031126 764197.000000 0 1 0
0.562376 -21.079757 -9.626592 23.180675 -1.544124 1.999053 0.076468 -0.027503 -664968.000000 0 1 0
1.836376 -21.074757 -9.053692 23.010584 -1.483880 1.975186 0.060983 -0.028458 -112954.000000 0 1 0
2.455176 -19.655457 -9.139192 21.814896 -1.446529 2.003077 0.058998 -0.022301 -1099740.000000 0 1 0
2.784676 -19.347057 -10.540592 22.207366 -1.427845 2.065356 0.054786 -0.004268 336328.000000 0 1 0
3.658576 -18.219257 -10.685592 21.436146 -1.372624 2.092646 0.038756 0.000079 514395.000000 0 1 0
5.151176 -18.431757 -10.330292 21.748085 -1.298277 2.065758 0.056155 -0.016383 -240245.000000 0 1 0
5.221976 -18.687857 -8.917092 21.354614 -1.298315 2.001568 0.053271 -0.020284 -548049.000000 0 1 0
6.358176 -19.453257 -8.612292 22.204215 -1.254898 1.969113 0.035468 -0.004177 -518674.000000 0 1 0
6.063476 -20.417057 -7.454692 22.565336 -1.282112 1.907482 0.031422 -0.018188 -69791.400000 0 1 0
5.378976 -21.577757 -7.914292 23.604427 -1.326492 1.912708 0.070355 -0.027929 83570.800000 0 1 0
5.123876 -22.541357 -6.901492 24.124624 -1.347284 1.860926 0.069328 -0.018829 -7221.610000 0 1 0
4.343076 -23.725357 -7.579592 25.282505 -1.389745 1.875275 0.088516 -0.020844 71272.600000 0 0 1
5.047776 -24.547157 -8.458892 26.449873 -1.367988 1.896324 0.081230 -0.020255 -107882.000000 0 0 1
4.123076 -25.322787 -9.208292 27.258685 -1.409392 1.915387 0.081975 -0.026484 216947.000000 0 0 1
4.773976 -26.185907 -10.318292 28.547499 -1.390466 1.940611 0.049008 -0.024574 783638.000000 0 0 1
5.704676 -27.166157 -9.747692 29.420416 -1.363812 1.908503 0.078763 -0.026552 602570.000000 0 0 1
6.165176 -28.079307 -10.746992 30.691281 -1.354663 1.928543 0.102265 -0.015525 21021.900000 0 0 1
5.616276 -29.537487 -10.679892 31.907143 -1.382899 1.912102 0.092602 -0.029818 -257232.000000 0 0 1
4.270876 -29.709767 -11.051192 31.984988 -1.428021 1.923580 0.089114 -0.030501 -171819.000000 0 0 1
3.918676 -31.134317 -10.966992 33.241189 -1.445591 1.907017 0.098641 -0.031406 894720.000000 0 0 1
2.396276 -31.428487 -11.242592 33.464725 -1.494698 1.913414 0.086847 -0.036764 790178.000000 0 0 1
2.102276 -31.310597 -12.618692 33.823135 -1.503754 1.953121 0.092396 -0.041941 172256.000000 0 0 1
1.543676 -32.518487 -13.095192 35.090155 -1.523361 1.953238 0.085019 -0.036453 -295172.000000 0 0 1
1.144076 -32.409577 -14.551692 35.544920 -1.535510 1.992580 0.081842 -0.018213 -349580.000000 0 0 1
0.015876 -31.624157 -14.805892 34.918505 -1.570294 2.008668 0.075392 -0.017494 -72556.100000 0 0 1
-0.318224 -31.621307 -16.176392 35.520191 1.560733 2.043634 0.064902 -0.015487 -129581.000000 0 0 1
-1.361724 -30.586307 -16.620592 34.837057 1.526305 2.068143 0.072301 -0.008383 486624.000000 0 0 1
-2.650624 -30.750827 -16.034692 34.781468 1.484812 2.049932 0.082966 -0.016593 195432.000000 0 0 1
-3.677524 -30.586267 -16.975192 35.173869 1.451136 2.074426 0.090590 -0.013154 230693.000000 0 0 1
-5.099024 -30.512417 -16.357592 34.993977 1.405213 2.057189 0.103247 -0.011125 -158801.000000 0 0 1
-5.400024 -29.315197 -15.659592 33.671410 1.388633 2.054511 0.099389 -0.010028 -364916.000000 0 0 1
-6.777224 -29.265327 -15.401292 33.757813 1.343229 2.044549 0.111033 -0.021619 -203098.000000 0 0 1
-7.276124 -29.992907 -14.133092 33.944966 1.332799 2.000227 0.090025 -0.024516 -521702.000000 0 0 1
-7.452324 -31.380837 -14.241592 35.257865 1.337635 1.986602 0.090030 -0.019113 415874.000000 0 0 1
-8.306824 -31.886187 -13.193092 35.493520 1.315946 1.951640 0.099796 -0.023203 605893.000000 0 0 1
-9.194724 -33.068867 -13.509592 36.886339 1.299599 1.945771 0.124542 -0.034050 -665442.000000 0 0 1
-8.389124 33.443443 -13.517792 37.034740 -1.325022 1.944432 0.107100 -0.027354 133220.000000 0 0 1
-8.976524 32.291508 -14.109292 36.364702 -1.299658 1.969251 0.140075 -0.037654 -33286.900000 0 0 1
-8.177224 -21.430057 -3.647792 23.225433 1.206272 1.728510 0.130152 -0.042609 6510.810000 0 1 0
-7.791724 -20.383657 -4.442892 22.269794 1.205682 1.771647 0.100140 -0.039336 -364051.000000 0 1 0
-6.435324 -20.527057 -4.778792 22.036568 1.266997 1.789390 0.089300 -0.033097 -28913.800000 0 1 0
-6.154124 -19.729157 -6.069792 21.539621 1.268430 1.856462 0.078629 -0.024731 -9268.490000 0 1 0
-6.842524 -20.135557 -7.253192 22.469303 1.243217 1.899487 0.075135 -0.023390 -57600.000000 0 1 0
-7.255924 -19.066257 -8.073392 21.939696 1.207157 1.947633 0.057182 -0.027381 546782.000000 0 1 0
-8.227124 -19.486257 -9.260592 23.090222 1.171299 1.983471 0.072579 -0.024874 509416.000000 0 1 0
-7.558324 -20.094857 -10.342492 23.830625 1.211033 2.019724 0.096119 -0.021915 -146201.000000 0 1 0
-8.345124 -20.217057 -11.524292 24.722051 1.179325 2.055735 0.104459 -0.033345 -596304.000000 0 1 0
-7.729324 -21.133957 -12.529692 25.756160 1.220177 2.078845 0.095866 -0.024349 245767.000000 0 0 1
-6.630924 -20.579257 -13.276092 25.371827 1.259086 2.121470 0.089343 -0.018111 477439.000000 0 0 1
-6.398424 -21.405757 -14.398492 26.579369 1.280339 2.143275 0.072195 -0.016514 -83296.100000 0 0 1
-5.291524 -20.819857 -15.296892 26.371606 1.321908 2.189588 0.054526 -0.005503 909653.000000 0 0 1
-3.966724 -20.890957 -14.699192 25.850208 1.383153 2.175635 0.058740 -0.008022 1740550.000000 0 0 1
-2.882524 -20.184857 -15.349092 25.521207 1.428949 2.216080 0.074154 -0.003562 866435.000000 0 0 1
-2.966524 -18.617457 -15.325392 24.295629 1.412784 2.253365 0.071848 -0.002345 -897610.000000 0 1 0
-4.069424 -17.989757 -15.915892 24.362003 1.348333 2.282742 0.066692 -0.007692 -153588.000000 0 1 0
-4.021624 -18.039657 -17.397792 25.382787 1.351451 2.325972 0.104336 -0.016570 -585977.000000 0 0 1
-5.393724 -17.823357 -18.079892 25.954707 1.276937 2.341435 0.087662 -0.013147 -684531.000000 0 0 1
-6.168724 -18.911157 -17.907692 26.765098 1.255484 2.303751 0.061715 -0.006595 -836200.000000 0 0 1
-7.485724 -18.595157 -18.317892 27.154394 1.188082 2.311196 0.051723 -0.012071 390264.000000 0 0 1
-8.515624 -19.659557 -17.790092 27.847826 1.162039 2.263776 0.108400 -0.027388 251629.000000 0 0 1
-8.277324 -20.894057 -18.386592 29.036916 1.193607 2.256496 0.120083 -0.025254 -157410.000000 0 0 1
-9.253524 -21.801557 -18.020292 29.760150 1.169397 2.221212 0.153887 -0.026393 -370671.000000 0 0 1
-8.895324 -23.243657 -18.482992 31.000248 1.205293 2.209582 0.170088 -0.034620 -523447.000000 0 0 1
-8.999024 -23.344057 -19.911792 31.975098 1.202856 2.243021 0.168244 -0.038171 366495.000000 0 0 1
-8.275924 -24.364457 -20.610492 32.968319 1.243352 2.246134 0.182566 -0.059916 296615.000000 0 0 1
-6.729724 -24.384657 -20.669692 32.667061 1.301517 2.255880 0.162045 -0.051887 -231220.000000 0 0 1
-6.023624 -23.289057 -21.272092 32.111776 1.317697 2.294866 0.176401 -0.058962 371683.000000 0 0 1
-5.971824 -22.022657 -20.615292 30.751429 1.305997 2.305524 0.143093 -0.054932 -927651.000000 0 0 1
-5.141524 -21.936157 -19.356292 29.703473 1.340566 2.280555 0.149911 -0.038625 118101.000000 0 0 1
-3.768924 -22.248057 -19.645292 29.918528 1.402985 2.287133 0.125550 -0.046228 249320.000000 0 0 1
-3.079624 -22.167957 -18.429492 28.992216 1.432757 2.259673 0.062880 -0.038307 780667.000000 0 0 1
-1.592124 -22.701457 -18.535592 29.350625 1.500778 2.254312 0.085674 -0.036700 929159.000000 0 0 1
-0.751824 -21.810957 -19.241592 29.095050 1.536340 2.293394 0.121340 -0.038403 757627.000000 0 0 1
0.534176 -22.460357 -19.469692 29.729142 -1.547018 2.284850 0.089006 -0.036729 894199.000000 0 0 1
1.463976 -21.560757 -20.259692 29.622029 -1.503000 2.323946 0.085201 -0.037482 -241657.000000 0 0 1
1.145376 -21.433057 -21.641392 30.480119 -1.517407 2.360318 0.086414 -0.042528 103069.000000 0 0 1
2.277076 -20.873157 -22.331492 30.652395 -1.462135 2.386984 0.095139 -0.034817 219591.000000 0 0 1
2.189276 -20.855457 -23.864892 31.769106 -1.466206 2.420672 0.124731 -0.047544 725740.000000 0 0 1
1.324876 -19.875057 -24.517292 31.589093 -1.504235 2.459304 0.135190 -0.047604 552920.000000 0 0 1
-0.057624 -19.893257 -24.185192 31.315627 1.567900 2.453257 0.147341 -0.047512 -282933.000000 0 0 1
-0.834724 -18.859057 -24.965392 31.299067 1.526564 2.494169 0.173871 -0.046027 -420256.000000 0 0 1
-0.516424 -17.564857 -24.629892 30.255949 1.541404 2.521890 0.121759 -0.040765 -108049.000000 0 0 1
-1.380424 -16.594357 -25.200682 30.205176 1.487801 2.557688 0.165768 -0.044457 108339.000000 0 0 1
-0.954024 -15.188857 -24.878892 29.164547 1.508068 2.592604 0.145221 -0.030830 363400.000000 0 0 1
0.315976 -14.799057 -25.375612 29.377434 -1.549449 2.613519 0.134936 -0.038368 -89674.700000 0 0 1
0.843876 -13.606157 -24.788692 28.289908 -1.508854 2.638795 0.118617 -0.038963 297644.000000 0 0 1
0.364976 -12.226157 -25.316142 28.116173 -1.540953 2.691512 0.129605 -0.032306 232453.000000 0 0 1
1.210076 -11.143057 -24.880592 27.288750 -1.462626 2.718328 0.102510 -0.023507 440844.000000 0 0 1
0.874776 -9.965957 -25.601312 27.486591 -1.483244 2.769067 0.104312 -0.022198 -405717.000000 0 0 1
1.888076 -8.817657 -25.390802 26.944549 -1.359857 2.800338 0.114740 -0.022025 146751.000000 0 0 1
3.190976 -8.972757 -25.901102 27.596373 -1.229115 2.789256 0.096868 -0.025386 -269875.000000 0 0 1
3.319476 -9.007457 -27.305142 28.943462 -1.217714 2.803521 0.111308 -0.033055 -868694.000000 0 0 1
4.725076 -8.650957 -27.787782 29.484339 -1.070882 2.800707 0.119874 -0.036408 -559944.000000 0 0 1
4.907076 -7.237457 -27.924932 29.261955 -0.974981 2.838133 0.108322 -0.027128 353292.000000 0 0 1
6.109876 -6.792657 -28.540842 29.967490 -0.838267 2.831789 0.104823 -0.032079 1084720.000000 0 0 1
7.478176 -6.762857 -27.719722 29.496480 -0.735211 2.792735 0.102748 -0.029565 1125290.000000 0 0 1
7.972576 -8.037457 -27.335592 29.587113 -0.789451 2.748952 0.080541 -0.029993 511504.000000 0 0 1
8.666676 -8.747557 -28.379182 30.935562 -0.790043 2.732204 0.072269 -0.038829 -149578.000000 0 0 1
9.113476 -10.188657 -27.855162 31.028603 -0.841043 2.685375 0.090244 -0.029711 -173264.000000 0 0 1
8.022876 -11.064757 -27.764372 30.946013 -0.943433 2.684156 0.093112 -0.039803 -40495.200000 0 0 1
8.204376 -12.179457 -26.837392 30.592427 -0.977993 2.640912 0.101800 -0.037255 -381074.000000 0 0 1
9.199476 -13.285757 -27.256032 31.686479 -0.965168 2.606416 0.091151 -0.039995 -146039.000000 0 0 1
8.963276 -13.973957 -28.433522 32.925324 -1.000471 2.613116 0.108168 -0.052913 -856227.000000 0 0 1
10.016476 -14.879257 -28.631262 33.785666 -0.978295 2.581937 0.095285 -0.055343 -41247.400000 0 0 1
9.829976 -15.717257 -29.912062 35.190795 -1.011891 2.586775 0.112047 -0.057515 -102903.000000 0 0 1
9.937876 -14.976057 -31.094312 35.915176 -0.984931 2.617485 0.133001 -0.061933 405325.000000 0 0 1
9.259076 -15.586157 -32.212082 36.963184 -1.034758 2.628976 0.155320 -0.058573 149140.000000 0 0 1
7.847476 -15.003757 -32.506222 36.651740 -1.088892 2.661375 0.162768 -0.054943 280199.000000 0 0 1
7.928676 -13.832557 -33.219472 36.847481 -1.050324 2.694111 0.164308 -0.056387 620495.000000 0 0 1
6.597176 -13.501057 -33.614872 36.820658 -1.116277 2.721216 0.212633 -0.073353 680964.000000 0 0 1
6.560376 -12.261457 32.829115 35.652948 -1.079511 0.400678 0.233220 -0.066198 -21809.400000 0 0 1
7.041576 -12.458757 31.497915 34.596576 -1.056365 0.426463 0.222636 -0.052726 296214.000000 0 0 1
6.835276 -11.263257 30.780246 33.481421 -1.025344 0.404439 0.234695 -0.058971 -91131.500000 0 0 1
7.439776 -11.370457 29.360356 32.352250 -0.991399 0.433452 0.235051 -0.050510 144796.000000 0 0 1
6.620476 -12.038357 28.402706 31.551014 -1.067993 0.450533 0.218237 -0.049921 544663.000000 0 0 1
7.181176 -11.896257 27.098846 30.453862 -1.027697 0.473818 0.178512 -0.041840 4595.860000 0 0 1
6.337876 -12.706657 26.125766 29.735223 -1.108122 0.497846 0.158768 -0.043086 -516694.000000 0 0 1
6.423776 -14.073257 26.196926 30.423682 -1.142589 0.533426 0.138369 -0.027628 -149660.000000 0 0 1
6.004076 -14.802757 25.051636 29.711194 -1.185467 0.567641 0.095150 -0.017456 462980.000000 0 0 1
4.453276 -14.906557 24.907276 29.366810 -1.280490 0.558325 0.117506 -0.026965 408808.000000 0 0 1
3.748976 -13.683057 24.625756 28.420217 -1.303372 0.522674 0.106518 -0.033395 336492.000000 0 0 1
2.362676 -13.985757 24.516226 28.323647 -1.403442 0.524500 0.110740 -0.033128 850987.000000 0 0 1
1.426976 -12.719057 24.642956 27.768435 -1.459072 0.479025 0.113537 -0.031123 -210075.000000 0 0 1
1.452376 -11.826757 23.556606 26.398774 -1.448604 0.468300 0.072189 -0.018475 -61499.500000 0 0 1
0.337476 -10.965957 23.396476 25.841076 -1.540031 0.438478 0.071445 -0.017030 1152620.000000 0 0 1
-1.022624 -11.649557 22.980306 25.784732 1.483239 0.470731 0.075011 -0.011599 -13310.300000 0 0 1
-1.035324 -12.039057 21.638616 24.783876 1.485010 0.509287 0.069757 -0.014117 64924.000000 0 1 0
-2.037124 -13.032757 21.418416 25.154546 1.415743 0.552009 0.079396 -0.025510 427024.000000 0 0 1
-2.207324 -13.486657 19.914916 24.152973 1.408567 0.601420 0.093484 -0.033650 -376961.000000 0 1 0
-1.143224 -14.314557 19.573216 24.276003 1.491101 0.632963 0.115799 -0.045646 -718014.000000 0 1 0
-1.191824 -15.046857 18.346616 23.757666 1.491754 0.688437 0.121010 -0.048831 120436.000000 0 1 0
-2.261924 -16.178957 18.259916 24.501010 1.431890 0.729854 0.106114 -0.052185 461013.000000 0 1 0
-2.179424 -16.917257 17.065116 24.128027 1.442674 0.785162 0.084801 -0.054682 -234366.000000 0 1 0
-3.181224 -17.918257 17.151516 25.007172 1.395086 0.815006 0.103954 -0.039203 -1051.970000 0 0 1
-2.782624 -19.312857 16.644616 25.647080 1.427700 0.864544 0.103650 -0.048003 157979.000000 0 0 1
-1.790724 -19.977757 17.446616 26.583865 1.481399 0.854911 0.096644 -0.042490 5632.890000 0 0 1
-1.878924 -21.383157 17.416916 27.642698 1.483152 0.889149 0.092674 -0.042736 -194965.000000 0 0 1
-0.799124 -22.259657 18.113216 28.709224 1.534912 0.888058 0.105112 -0.030501 1774340.000000 0 0 1
0.492376 -22.200057 17.416116 28.220667 -1.548621 0.905693 0.121333 -0.041051 1351260.000000 0 0 1
1.381776 -23.222857 17.843716 29.319083 -1.511366 0.916496 0.139864 -0.030592 757402.000000 0 0 1
2.749076 -23.352457 17.106916 29.078192 -1.453615 0.941832 0.140555 -0.040300 895058.000000 0 0 1
3.669376 -22.267657 17.337716 28.458905 -1.407479 0.915720 0.138659 -0.041464 -346568.000000 0 0 1
4.769876 -22.364457 16.495416 28.196089 -1.360665 0.945885 0.128676 -0.036044 -512313.000000 0 0 1
5.658776 -21.148657 16.760216 27.571585 -1.309349 0.917408 0.113034 -0.029774 -1156210.000000 0 0 1
6.274776 -21.050957 17.982816 28.388330 -1.281106 0.884782 0.122177 -0.027664 -347287.000000 0 0 1
6.659276 -19.767257 18.411316 27.822059 -1.245853 0.847642 0.103352 -0.019234 706490.000000 0 0 1
7.723476 -19.016557 17.521116 26.986497 -1.185004 0.864192 0.102022 -0.025440 443086.000000 0 0 1
7.052076 -18.366357 16.411416 25.620098 -1.204187 0.875559 0.102081 -0.024468 729529.000000 0 0 1
8.006076 -17.667957 15.603116 24.893999 -1.145333 0.893380 0.115827 -0.026961 477122.000000 0 1 0
7.361776 -16.644257 14.568016 23.312103 -1.154363 0.895777 0.077766 -0.018537 82691.300000 0 1 0
6.649376 -17.382457 13.588516 23.043693 -1.205437 0.940128 0.083456 -0.022584 37685.700000 0 1 0
6.075676 -16.527257 12.629116 21.669302 -1.218515 0.948612 0.060031 -0.016579 -172186.000000 0 1 0
6.682176 -16.659057 11.219616 21.167320 -1.189330 1.012144 0.066830 -0.016934 -418053.000000 0 1 0
8.011776 -16.238757 11.242316 21.313739 -1.112464 1.015179 0.066600 -0.010435 -543093.000000 0 1 0
8.594576 -16.301757 9.922216 20.929988 -1.085612 1.076892 0.068407 -0.016092 -675788.000000 0 1 0
10.069876 -15.987257 9.935116 21.347162 -1.008703 1.086702 0.067958 -0.010811 -801539.000000 0 1 0
10.607776 -16.512857 8.707316 21.471300 -0.999786 1.153235 0.070608 -0.011513 838591.000000 0 1 0
11.998976 -16.111757 8.563216 21.837875 -0.930674 1.167854 0.080054 -0.016277 1222480.000000 0 1 0
12.765676 -17.096157 7.685516 22.678364 -0.929411 1.225057 0.084559 -0.023722 -199612.000000 0 1 0
13.125276 -18.339057 8.317816 24.037053 -0.949611 1.217448 0.099241 -0.030574 14876.900000 0 1 0
13.918676 -19.138957 7.458116 24.812350 -0.942019 1.265495 0.104605 -0.035481 297232.000000 0 1 0
14.632276 -20.331257 8.124716 26.333904 -0.946975 1.257152 0.107913 -0.038401 447898.000000 0 0 1
13.655876 -21.194857 8.740516 26.685230 -0.998438 1.237096 0.099917 -0.035776 244373.000000 0 0 1
14.267276 -22.191957 9.495216 28.039209 -0.999426 1.225324 0.079634 -0.022337 37198.100000 0 0 1
13.283676 -23.069657 10.289016 28.539954 -1.048356 1.201979 0.103317 -0.025453 18154.000000 0 0 1
13.025976 -22.503857 11.561516 28.456428 -1.046086 1.152408 0.109774 -0.025998 -72359.800000 0 0 1
11.965676 -23.134757 12.296216 28.802627 -1.093471 1.129720 0.140368 -0.030346 352355.000000 0 0 1
12.167476 -24.553557 12.834616 30.259742 -1.110716 1.132775 0.133520 -0.025336 743354.000000 0 0 1
13.410276 -24.699657 13.566116 31.208141 -1.073394 1.121093 0.100315 -0.022287 768918.000000 0 0 1
13.606476 -26.044487 13.970716 32.536632 -1.089365 1.126985 0.094249 -0.040657 263176.000000 0 0 1
14.875276 -26.265157 14.835116 33.633510 -1.055487 1.113993 0.080524 -0.030066 248623.000000 0 0 1
14.722676 -25.698607 16.102716 33.711616 -1.050543 1.072806 0.079197 -0.022013 668751.000000 0 0 1
15.867276 -25.958857 16.925016 34.815067 -1.022148 1.063128 0.094409 -0.027770 178265.000000 0 0 1
15.807576 -25.279947 18.312216 34.989890 -1.011981 1.020010 0.113762 -0.028098 16284.400000 0 0 1
16.194276 -23.918257 18.330016 34.210044 -0.975628 1.005332 0.097154 -0.022771 -1154970.000000 0 0 1
17.520376 -23.765257 18.662716 34.929185 -0.935521 1.007115 0.103288 -0.024281 -937739.000000 0 0 1
17.918376 -22.288357 19.082916 34.380179 -0.893661 0.982366 0.110831 -0.039074 56990.100000 0 0 1
17.858876 -21.331757 18.058116 33.167437 -0.873782 0.995059 0.085294 -0.031053 253076.000000 0 0 1
16.601276 -20.698457 17.889016 32.000709 -0.894804 0.977594 0.103143 -0.028152 -125759.000000 0 0 1
16.717676 -19.661057 16.773416 30.779625 -0.866132 0.994465 0.097035 -0.022111 -282490.000000 0 0 1
17.524576 -18.561957 17.009916 30.675630 -0.814137 0.983023 0.097065 -0.025165 -260414.000000 0 0 1
18.834676 -18.731557 16.481216 31.260946 -0.782653 1.015477 0.082470 -0.021534 123011.000000 0 0 1
19.615376 -17.388957 16.627316 31.042011 -0.725304 1.005532 0.083681 -0.024376 -404243.000000 0 0 1
20.248976 -17.241157 17.827716 32.017276 -0.705340 0.980249 0.096860 -0.023619 -101937.000000 0 0 1
20.742276 -15.978457 18.184816 31.878529 -0.656388 0.963754 0.100589 -0.026543 -131349.000000 0 0 1
21.334576 -15.964057 19.604816 33.081174 -0.642394 0.936479 0.096276 -0.017226 196785.000000 0 0 1
22.523476 -16.736057 19.764116 34.322337 -0.639038 0.957167 0.083297 -0.019641 252462.000000 0 0 1
23.120776 -16.532057 21.024516 35.354059 -0.620742 0.933923 0.079003 -0.013589 179133.000000 0 0 1
36.104630 -1.591957 -7.674592 36.945609 -0.044064 1.780047 0.186959 -0.023939 -51627.000000 0 0 1
37.420820 -1.226457 -8.032392 38.292836 -0.032763 1.782128 0.197664 -0.022793 -270966.000000 0 0 1
-37.545174 -2.361557 -8.020092 38.464776 0.062816 1.780842 0.220301 -0.029315 -228823.000000 0 0 1
-36.152544 -1.923657 -8.536692 37.196533 0.053159 1.802363 0.196695 -0.031978 216587.000000 0 0 1
-35.127144 -2.895557 -8.474192 36.250689 0.082245 1.806746 0.222758 -0.028242 397062.000000 0 0 1
-33.862594 -2.416357 -8.898392 35.095519 0.071237 1.827142 0.233946 -0.033772 26226.700000 0 0 1
-32.732254 -3.444757 -8.817692 34.073722 0.104854 1.832558 0.211276 -0.035038 -542474.000000 0 0 1
-32.547234 -3.766757 -7.440692 33.598733 0.115219 1.794105 0.246096 -0.045299 183872.000000 0 0 1
-31.303634 -4.418757 -7.334392 32.453602 0.140231 1.798762 0.234747 -0.055294 -225675.000000 0 0 1
-30.799174 -4.453357 -5.887292 31.671466 0.143598 1.757770 0.255051 -0.074312 -358687.000000 0 0 1
-30.256694 -3.213257 -5.469392 30.914508 0.105803 1.748652 0.235330 -0.066721 445439.000000 0 0 1
-29.848724 -3.203557 -4.116992 30.301135 0.106917 1.707087 0.244661 -0.068131 -217262.000000 0 0 1
-29.592744 -1.811757 -3.497492 29.853734 0.061147 1.688220 0.246719 -0.062995 206361.000000 0 0 1
-28.313684 -1.219557 -3.735792 28.585104 0.043046 1.701861 0.191395 -0.047277 535166.000000 0 0 1
-28.277784 0.078443 -3.233492 28.462163 -0.002774 1.684649 0.228799 -0.061578 492513.000000 0 0 1
-26.855764 0.676143 -2.943492 27.025051 -0.025172 1.679930 0.223890 -0.033795 608678.000000 0 0 1
-26.192704 -0.001857 -1.883492 26.260337 0.000071 1.642582 0.203763 -0.042863 -394120.000000 0 0 1
-24.877824 0.427743 -1.705092 24.939857 -0.017192 1.639218 0.176418 -0.038562 -427835.000000 0 1 0
-24.268824 -0.099757 -0.373692 24.271906 0.004110 1.586193 0.155751 -0.039924 -120336.000000 0 1 0
-24.000224 -1.461457 -0.417492 24.048304 0.060818 1.588158 0.139199 -0.044586 194392.000000 0 1 0
-23.555324 -2.029457 0.851708 23.657925 0.085945 1.534788 0.119616 -0.032254 -216834.000000 0 1 0
-23.427624 -3.554157 0.929808 23.713923 0.150560 1.531577 0.105781 -0.016201 -998277.000000 0 1 0
-24.569924 -4.315457 1.028608 24.967226 0.173866 1.529586 0.121926 -0.030266 -725313.000000 0 1 0
-24.324724 -5.709957 1.056008 25.008218 0.230564 1.528557 0.091850 -0.015448 -986402.000000 0 0 1
-25.590814 -6.502057 1.277508 26.434798 0.248813 1.522451 0.149156 -0.021877 -649096.000000 0 0 1
-25.965154 -6.307057 2.621508 26.848473 0.238290 1.473000 0.150419 -0.028809 245608.000000 0 0 1
-27.149434 -7.029357 2.930008 28.197315 0.253350 1.466698 0.196986 -0.033052 68680.800000 0 0 1
-27.362954 -7.238657 4.425208 28.648070 0.258618 1.415707 0.173766 -0.041345 -107844.000000 0 0 1
-26.581444 -8.236357 5.046508 28.282115 0.300472 1.391401 0.195953 -0.029436 -165779.000000 0 0 1
-26.899424 -8.583557 6.383208 28.948261 0.308885 1.348465 0.153654 -0.031386 -178985.000000 0 0 1
-26.588534 -7.498857 7.444508 28.611252 0.274893 1.307572 0.135070 -0.008882 -125031.000000 0 0 1
-25.196114 -7.408757 7.600008 27.340336 0.285983 1.289108 0.174278 -0.024084 -327620.000000 0 0 1
-24.825824 -6.230157 8.284008 26.902810 0.245877 1.257787 0.155506 -0.029891 1483140.000000 0 0 1
-23.314024 -5.789257 8.009708 25.322217 0.243394 1.248958 0.182164 -0.041128 1252590.000000 0 0 1
-22.274524 -6.524257 8.593908 24.750265 0.284932 1.216186 0.186601 -0.043187 319237.000000 0 1 0
-21.094024 -6.135057 7.865808 23.333832 0.283035 1.226963 0.160769 -0.034029 689023.000000 0 1 0
-19.743024 -6.480857 8.539608 22.465828 0.317178 1.180875 0.174670 -0.042233 167735.000000 0 1 0
-19.485124 -5.689657 9.672808 22.485673 0.284101 1.126108 0.146067 -0.031836 -67149.400000 0 1 0
-18.428124 -6.206357 10.444208 22.072519 0.324856 1.077903 0.140975 -0.039889 -344894.000000 0 1 0
-17.942624 -5.281757 11.582608 21.999808 0.286283 1.016333 0.114133 -0.024108 -174852.000000 0 1 0
-18.817824 -5.069957 12.678608 23.249991 0.263174 0.994029 0.127279 -0.032694 -57657.100000 0 1 0
-19.499524 -3.845157 12.537008 23.498793 0.194694 1.008043 0.160216 -0.031340 -158642.000000 0 1 0
-20.787724 -3.892057 13.392908 25.032930 0.185086 1.006275 0.159356 -0.041150 -259836.000000 0 0 1
-20.577824 -3.962257 14.818608 25.665882 0.190222 0.955297 0.163065 -0.038393 56946.200000 0 0 1
-21.796724 -3.869157 15.529308 27.041209 0.175681 0.959068 0.138003 -0.025547 19055.400000 0 0 1
-21.792924 -4.630757 16.860808 27.940335 0.209375 0.922966 0.133989 -0.024520 403753.000000 0 0 1
-22.935024 -4.421257 17.689708 29.299977 0.190437 0.922606 0.116462 -0.024374 833834.000000 0 0 1
-22.631424 -5.208257 18.858108 29.915473 0.226196 0.888754 0.125458 -0.024126 24864.100000 0 0 1
-23.466324 -4.794457 20.077008 31.252863 0.201538 0.873163 0.122615 -0.025449 -458054.000000 0 0 1
-23.250724 -3.477757 20.528508 31.210745 0.148476 0.852984 0.127037 -0.034359 364011.000000 0 0 1
-23.902624 -3.178957 21.779508 32.492894 0.132220 0.836203 0.118804 -0.031141 184990.000000 0 0 1
-23.875624 -1.663257 22.080008 32.562841 0.069551 0.825658 0.114986 -0.022455 55918.200000 0 0 1
-24.880324 -1.061057 21.283708 32.759008 0.042621 0.863599 0.118775 -0.026757 206432.000000 0 0 1
-24.821624 0.360243 21.440608 32.801562 -0.014512 0.858404 0.114875 -0.028739 -807669.000000 0 0 1
-26.095744 0.967143 20.924308 33.462664 -0.037044 0.895276 0.129960 -0.031507 365673.000000 0 0 1
-27.213254 0.806243 21.853108 34.910880 -0.029618 0.894424 0.131586 -0.029988 802245.000000 0 0 1
-28.430054 1.326443 21.353708 35.581010 -0.046623 0.927116 0.102351 -0.024306 490785.000000 0 0 1
-29.508054 1.343243 22.488108 37.124717 -0.045490 0.920095 0.096601 -0.018436 100129.000000 0 0 1
-29.109234 2.166843 23.587008 37.528518 -0.074301 0.891162 0.092601 -0.016280 382806.000000 0 0 1
-29.919634 1.928643 24.757108 38.882111 -0.064372 0.880556 0.093515 -0.013595 194762.000000 0 0 1
-29.764724 2.940043 25.918108 39.576900 -0.098457 0.856773 0.114570 -0.016764 -45862.300000 0 0 1
-28.596614 2.718843 26.672308 39.199113 -0.094791 0.822445 0.100740 -0.025472 250.380000 0 0 1
-28.336504 3.633543 27.687108 39.783616 -0.127532 0.801065 0.089082 -0.028792 -1865.990000 0 0 1
-26.966744 3.243443 28.292608 39.219853 -0.119701 0.764996 0.096437 -0.035537 -57419.400000 0 0 1
-27.075434 2.150143 29.176308 39.861751 -0.079247 0.749635 0.091762 -0.034143 910277.000000 0 0 1
-25.804904 1.898243 29.789308 39.457563 -0.073429 0.715187 0.072979 -0.037699 724046.000000 0 0 1
-26.019134 0.809343 30.848208 40.364122 -0.031096 0.700922 0.085395 -0.039766 -18162.000000 0 0 1
-26.456934 -0.381957 30.290908 40.220074 0.014436 0.717991 0.080216 -0.034360 -450612.000000 0 0 1
-26.800264 -1.407657 31.175708 41.135878 0.052476 0.710752 0.105693 -0.025250 -715867.000000 0 0 1
-27.801384 -2.482157 30.639308 41.446897 0.089046 0.738851 0.090641 -0.014925 841474.000000 0 0 1
-29.095084 -1.914057 30.350408 42.087229 0.065692 0.765363 0.119134 -0.015657 614472.000000 0 0 1
-29.138024 -1.004257 29.264608 41.309203 0.034452 0.783528 0.111417 -0.015690 -501567.000000 0 0 1
-30.637434 -0.685257 28.923908 42.139227 0.022363 0.814284 0.110023 -0.012157 951357.000000 0 0 1
-31.441994 -0.092357 29.890408 43.382531 0.002937 0.810693 0.129765 -0.013961 -672217.000000 0 0 1
-32.749804 0.120943 29.415608 44.020930 -0.003693 0.838984 0.127919 -0.022872 365626.000000 0 0 1
-33.753454 0.292543 30.609808 45.566892 -0.008667 0.834220 0.130869 -0.016214 231487.000000 0 0 1
-33.983646 -0.836657 31.422608 46.292208 0.024614 0.824685 0.130481 -0.019346 223861.000000 0 0 1
-34.928768 -0.521057 32.450408 47.679339 0.014917 0.822219 0.147838 -0.018986 350548.000000 0 0 1
-35.266096 -1.802157 33.247008 48.500607 0.051057 0.815511 0.150694 -0.026595 269302.000000 0 0 1
-36.177684 -2.648857 32.538708 48.729958 0.073088 0.839634 0.096864 -0.022117 193521.000000 0 0 1
-36.259604 -3.935357 33.155408 49.290233 0.108110 0.833003 0.085687 -0.015692 -468234.000000 0 0 1
-37.419924 -4.766857 32.624708 49.873292 0.126706 0.857736 0.077976 -0.015407 -269688.000000 0 0 1
37.148660 -4.302257 33.200508 50.008060 -0.115298 0.844770 0.076647 -0.024430 83907.600000 0 0 1
36.024830 -4.938757 32.582208 48.823969 -0.136244 0.840164 0.068462 -0.022261 34060.700000 0 0 1
34.681530 -4.462457 33.184908 48.207470 -0.127966 0.811547 0.083467 -0.027128 -131730.000000 0 0 1
34.197430 -4.991257 -32.953901 47.752868 -0.144931 2.332413 0.083141 -0.028385 122279.000000 0 0 1
33.844600 -6.349657 -32.983401 47.683119 -0.185456 2.334665 0.075920 -0.025923 -1112690.000000 0 0 1
32.409940 -6.670457 -33.373501 46.996699 -0.202981 2.360471 0.071935 -0.020838 -362358.000000 0 0 1
31.457640 -6.356757 -32.341901 45.563033 -0.199389 2.360050 0.091891 -0.026178 104047.000000 0 0 1
30.161940 -6.579057 -32.853401 45.081843 -0.214761 2.387291 0.100115 -0.031153 118783.000000 0 0 1
29.048140 -6.243157 -31.806801 43.525211 -0.211704 2.390242 0.106473 -0.052174 921218.000000 0 0 1
27.769240 -6.791157 -32.128001 43.005336 -0.239849 2.414440 0.095378 -0.050876 574492.000000 0 0 1
26.732740 -6.555857 -31.195601 41.602694 -0.240491 2.418625 0.100010 -0.057871 1065750.000000 0 0 1
25.299740 -6.944057 -31.752701 41.188964 -0.267875 2.451054 0.110358 -0.066596 866375.000000 0 0 1
24.929840 -8.269357 -32.015801 41.411239 -0.320284 2.454540 0.114946 -0.060772 137966.000000 0 0 1
24.753140 -9.113857 -30.907001 40.632783 -0.352787 2.435098 0.124852 -0.059333 -350103.000000 0 0 1
24.467040 -10.599557 -31.164901 41.015091 -0.408811 2.433863 0.125862 -0.056036 35943.600000 0 0 1
23.235140 -10.871357 -31.805701 40.861482 -0.437627 2.462875 0.145119 -0.071533 200834.000000 0 0 1
22.977940 -12.269657 -31.622201 40.969425 -0.490457 2.452540 0.120152 -0.045430 -701907.000000 0 0 1
21.794640 -12.914657 -32.395401 41.124891 -0.534932 2.477915 0.113386 -0.036836 324508.000000 0 0 1
20.467840 -12.670057 -32.008801 40.050295 -0.554289 2.496785 0.110092 -0.037662 -64008.400000 0 0 1
20.050640 -11.295957 -32.044201 39.451966 -0.513051 2.518767 0.113840 -0.052107 122857.000000 0 0 1
18.595640 -10.921557 -31.553001 38.218714 -0.531042 2.542044 0.107131 -0.051970 1281700.000000 0 0 1
17.539940 -11.382257 -32.370701 38.536574 -0.575625 2.568079 0.072034 -0.033299 592853.000000 0 0 1
16.250140 -11.122657 -31.795601 37.399743 -0.600224 2.587077 0.097858 -0.041422 1525090.000000 0 0 1
14.994040 -11.508057 -32.654601 37.730353 -0.654613 2.616890 0.083506 -0.034557 -230840.000000 0 0 1
14.925940 -12.951957 -32.794201 38.288333 -0.714708 2.599259 0.096646 -0.033496 168815.000000 0 0 1
13.728340 -13.453457 -33.372501 38.512162 -0.775286 2.619033 0.081042 -0.034664 206102.000000 0 0 1
12.504540 -13.387357 -32.420701 37.238242 -0.819481 2.627276 0.070476 -0.036447 -445113.000000 0 0 1
11.961940 -12.104057 -32.165701 36.389951 -0.791303 2.654970 0.152953 -0.040476 -158459.000000 0 0 1
10.966240 -12.095057 -31.153601 35.172371 -0.834308 2.658884 0.143061 -0.042363 -8536.090000 0 0 1
9.769340 -11.195157 -31.459801 34.792106 -0.853305 2.700352 0.145210 -0.040943 -198677.000000 0 0 1
10.077440 -9.855257 -31.321901 34.347378 -0.774252 2.718724 0.136482 -0.041837 2246.730000 0 0 1
9.143440 -9.141957 -32.075701 34.583644 -0.785317 2.758416 0.116166 -0.036860 -99478.000000 0 0 1
9.596340 -7.670457 -32.309001 34.565838 -0.674320 2.778236 0.133173 -0.033979 -98754.300000 0 0 1
9.387040 -6.914157 -31.089401 33.203508 -0.634847 2.782821 0.135182 -0.038812 401702.000000 0 0 1
9.890640 -5.593757 -31.275501 33.275694 -0.514711 2.793105 0.111988 -0.034297 -159404.000000 0 0 1
9.842540 -4.684757 -30.069501 31.984331 -0.444240 2.793814 0.102424 -0.028044 -218729.000000 0 0 1
8.516340 -4.312257 -29.766701 31.259880 -0.468715 2.831264 0.119306 -0.030994 -119013.000000 0 0 1
8.440140 -3.374357 -28.713901 30.118273 -0.380333 2.835013 0.121511 -0.031902 -343152.000000 0 0 1
7.051440 -2.864157 -28.356201 29.359842 -0.385823 2.879369 0.133856 -0.031869 -1424610.000000 0 0 1
6.547940 -1.833357 -29.181201 29.962964 -0.272999 2.912659 0.119477 -0.020658 249288.000000 0 0 1
5.230240 -1.443557 -28.835601 29.341628 -0.269298 2.955604 0.143741 -0.027992 1318120.000000 0 0 1
3.995040 -2.444157 -28.882401 29.259653 -0.549049 2.980838 0.132868 -0.029061 165182.000000 0 0 1
4.004340 -3.339857 -27.829401 28.313688 -0.695167 2.956372 0.136249 -0.036440 -304596.000000 0 0 1
2.970040 -4.282957 -27.922201 28.404474 -0.964476 2.957055 0.143113 -0.030760 -40458.800000 0 0 1
2.915640 -5.282057 -26.766201 27.437758 -1.066427 2.919889 0.113151 -0.030554 -140543.000000 0 0 1
2.698240 -4.731157 -25.506001 26.081036 -1.052492 2.931214 0.107560 -0.032378 139015.000000 0 0 1
3.116640 -5.745457 -24.581401 25.435585 -1.073766 2.881701 0.098744 -0.038299 76554.000000 0 0 1
3.090840 -5.509157 -23.052101 23.901955 -1.059519 2.874128 0.115743 -0.044117 309707.000000 0 1 0
4.079340 -4.529557 -22.739701 23.542555 -0.837647 2.879685 0.109391 -0.044894 230973.000000 0 1 0
3.925340 -3.949157 -21.483001 22.192869 -0.788423 2.887985 0.092420 -0.038091 -180168.000000 0 1 0
4.809040 -2.742457 -21.187501 21.898816 -0.518273 2.886018 0.092230 -0.036177 567430.000000 0 1 0
6.208940 -3.035057 -21.053201 22.158515 -0.454664 2.824410 0.091659 -0.030556 813227.000000 0 1 0
6.899240 -1.795957 -20.774101 21.963338 -0.254661 2.811010 0.087363 -0.016507 -733207.000000 0 1 0
8.322540 -2.001857 -20.319801 22.049182 -0.236050 2.742894 0.112504 -0.026272 -1506660.000000 0 1 0
9.100840 -2.531957 -21.384801 23.378319 -0.271349 2.725630 0.118212 -0.040547 425441.000000 0 1 0
10.317940 -3.149757 -20.982801 23.593617 -0.296285 2.666701 0.099693 -0.039438 892864.000000 0 1 0
11.497140 -2.361757 -20.345601 23.488414 -0.202603 2.618338 0.103940 -0.032145 -336505.000000 0 1 0
11.261840 -1.969457 -18.958001 22.138509 -0.173128 2.598929 0.086699 -0.027213 732716.000000 0 1 0
12.432740 -1.500757 -18.269601 22.149574 -0.120129 2.540695 0.103775 -0.030244 647132.000000 0 1 0
13.052340 -0.112557 -18.551301 22.683188 -0.008623 2.528450 0.096930 -0.024095 356929.000000 0 1 0
13.665940 0.160143 -19.841101 24.092589 0.011718 2.538412 0.115201 -0.030683 571015.000000 0 1 0
13.776240 1.577343 -19.818401 24.187638 0.114001 2.531091 0.128823 -0.034531 -91547.700000 0 1 0
14.293440 2.323743 -21.093801 25.586142 0.161164 2.539978 0.111088 -0.030295 -379664.000000 0 0 1
15.685140 2.233443 -21.305001 26.550234 0.141441 2.502171 0.130330 -0.032567 266037.000000 0 0 1
16.116540 3.311143 -22.166001 27.605038 0.202630 2.503057 0.119132 -0.029983 30194.100000 0 0 1
17.479540 3.034643 -22.824601 28.908576 0.171898 2.480862 0.094551 -0.021074 -115767.000000 0 0 1
17.343640 2.130043 -23.881501 29.591638 0.122202 2.509911 0.075232 -0.015785 427851.000000 0 0 1
18.503540 1.303243 -23.948601 30.292159 0.070316 2.482564 0.098461 -0.020475 217203.000000 0 0 1
10.188076 26.615443 3.301508 28.689347 1.205215 1.455463 0.041283 -0.030635 111150.000000 0 0 1
10.207376 26.965243 4.673908 29.208907 1.208927 1.410089 0.059674 -0.029860 889754.000000 0 0 1
11.555776 27.385743 4.926508 30.129476 1.171501 1.406548 0.057376 -0.022076 723479.000000 0 0 1
11.568376 27.921243 6.387308 30.890465 1.178005 1.362521 0.056627 -0.028841 4334.370000 0 0 1
11.383476 26.856743 7.347208 30.080719 1.169892 1.324050 0.061950 -0.034159 114788.000000 0 0 1
10.981176 27.407743 8.565208 30.743022 1.189721 1.288453 0.057864 -0.026053 -274231.000000 0 0 1
10.913976 26.353343 9.635808 30.107513 1.178160 1.245018 0.075792 -0.025866 506726.000000 0 0 1
12.169876 25.834343 10.083208 30.285149 1.130556 1.231374 0.066023 -0.030095 334983.000000 0 0 1
12.698076 24.829543 9.264508 29.386705 1.098062 1.250064 0.079645 -0.036214 -189763.000000 0 0 1
13.995776 24.287443 9.919208 29.734699 1.048019 1.230687 0.089875 -0.034557 86730.300000 0 0 1
15.042576 25.224143 10.006708 31.026935 1.033060 1.242409 0.091512 -0.033435 -505453.000000 0 0 1
16.265476 24.632143 10.315408 31.268447 0.987190 1.234600 0.086818 -0.031300 -763696.000000 0 0 1
17.365076 25.621543 10.626808 32.725195 0.975158 1.240072 0.075177 -0.033263 -1300850.000000 0 0 1
17.867776 26.300143 9.519708 33.190055 0.974044 1.279886 0.063463 -0.037852 -267962.000000 0 0 1
19.237676 26.090943 9.307308 33.726124 0.935452 1.291200 0.076267 -0.040105 269700.000000 0 0 1
20.292776 26.709743 10.286708 35.085944 0.921083 1.273239 0.067277 -0.039068 -520638.000000 0 0 1
20.458576 28.187743 10.294808 36.319213 0.942966 1.283403 0.077616 -0.053728 619596.000000 0 0 1
19.266176 28.945643 10.597108 36.350165 0.983534 1.274972 0.065597 -0.032691 620618.000000 0 0 1
19.495976 30.421943 10.794408 37.710833 1.000879 1.280494 0.069154 -0.024506 -750083.000000 0 0 1
19.806876 31.251743 9.656208 38.239065 1.005905 1.315510 0.084558 -0.051454 1281400.000000 0 0 1
18.722976 31.364443 8.645708 37.537000 1.032623 1.338385 0.089029 -0.046090 2365150.000000 0 0 1
17.313576 31.876843 9.128808 37.406258 1.073235 1.324262 0.080907 -0.046437 236329.000000 0 0 1
17.423876 33.220843 9.592908 38.720017 1.087752 1.320439 0.084628 -0.047670 853261.000000 0 0 1
16.144776 -33.782762 9.734508 38.687071 -1.124985 1.316441 0.099163 -0.040855 1016790.000000 0 0 1
16.337476 -32.345262 10.202608 37.646013 -1.103080 1.296350 0.100660 -0.036209 -163896.000000 0 0 1
17.072976 -31.646562 9.241308 37.126718 -1.076059 1.319239 0.107834 -0.035548 -95783.300000 0 0 1
17.019376 -30.276162 9.345208 35.967180 -1.058682 1.307954 0.093216 -0.024955 -245892.000000 0 0 1
17.744476 -29.563462 8.212708 35.444510 -1.030218 1.336965 0.080221 -0.021868 -197431.000000 0 0 1
17.114276 -29.670662 6.926708 34.946043 -1.047604 1.371263 0.074766 -0.027536 -177436.000000 0 0 1
17.934076 -29.193162 5.909108 34.767648 -1.019911 1.400007 0.059985 -0.006072 -208989.000000 0 0 1
17.349576 -29.348462 4.512208 34.390406 -1.036904 1.439212 0.068080 -0.010339 -53938.600000 0 0 1
17.589076 -30.668562 3.974808 35.577175 -1.050074 1.458839 0.066367 -0.019672 -53485.000000 0 0 1
17.382376 -30.652562 2.553208 35.330517 -1.054936 1.498467 0.068635 -0.020219 -5822.710000 0 0 1
17.641176 -32.044062 1.925608 36.629783 -1.067547 1.518203 0.066872 -0.021910 313268.000000 0 0 1
18.993276 -32.490162 2.004208 37.687823 -1.041788 1.517592 0.072099 -0.016265 366971.000000 0 0 1
19.130576 -33.759762 1.421908 38.829400 -1.055246 1.534169 0.088566 -0.024598 -526516.000000 0 0 1
20.535376 33.302943 1.449308 39.152116 1.018243 1.533771 0.086410 -0.024297 -441185.000000 0 0 1
20.906776 32.877543 2.741008 39.058152 1.004398 1.500561 0.083595 -0.039607 336407.000000 0 0 1
22.312976 32.657543 2.797008 39.651069 0.971407 1.500197 0.063709 -0.027652 269730.000000 0 0 1
22.713476 32.574943 4.268808 39.940601 0.961906 1.463713 0.060695 -0.033379 -409846.000000 0 0 1
22.165976 31.638643 5.132808 38.970244 0.959669 1.438702 0.077454 -0.041478 -175196.000000 0 0 1
22.944976 30.464543 5.145508 38.484238 0.925270 1.436690 0.060846 -0.050383 -149831.000000 0 0 1
22.338376 29.431343 6.117108 37.451649 0.921560 1.406728 0.073195 -0.049880 -227076.000000 0 0 1
21.174576 28.881043 5.595108 36.246138 0.938157 1.415812 0.079212 -0.044116 -901667.000000 0 0 1
20.341176 28.430143 6.629208 35.580653 0.949757 1.383386 0.075358 -0.051918 217145.000000 0 0 1
18.831076 28.419543 6.241508 34.658855 0.985607 1.389724 0.096216 -0.041572 549385.000000 0 0 1
18.240876 29.773943 5.996208 35.428403 1.021130 1.400729 0.086803 -0.049082 270324.000000 0 0 1
18.593476 30.479743 4.831308 36.028789 1.023036 1.436295 0.095650 -0.050002 -360733.000000 0 0 1
18.556476 32.033343 5.051908 37.363078 1.045747 1.435170 0.106669 -0.049436 645081.000000 0 0 1
17.219776 32.526143 5.137608 37.160001 1.083896 1.432096 0.106032 -0.047083 113100.000000 0 0 1
17.164176 -33.754162 5.402308 38.250978 -1.100368 1.429089 0.105268 -0.049283 -904229.000000 0 0 1
15.802176 -33.167562 5.724408 37.182856 -1.126178 1.416229 0.091281 -0.042463 -585134.000000 0 0 1
14.997376 -33.219062 4.554708 36.731087 -1.146721 1.446475 0.082762 -0.029606 -547001.000000 0 0 1
13.845376 -32.441262 4.750208 35.590650 -1.167417 1.436929 0.072177 -0.024043 -38102.700000 0 0 1
12.933176 -32.324662 3.479308 34.989376 -1.190202 1.471193 0.067998 -0.019703 181216.000000 0 0 1
12.023976 -31.258862 3.489108 33.672932 -1.203585 1.466992 0.078203 -0.028356 -54187.800000 0 0 1
11.498876 -30.873262 2.229208 33.020476 -1.214259 1.503235 0.069377 -0.015836 -671827.000000 0 0 1
10.453176 -29.717762 2.291908 31.585869 -1.232565 1.498171 0.086862 -0.021383 385376.000000 0 0 1
9.767876 -29.393962 1.056508 30.992461 -1.249968 1.536701 0.091781 -0.011509 313332.000000 0 0 1
8.913576 -30.451362 0.629408 31.735366 -1.286036 1.550962 0.071977 -0.014431 -818477.000000 0 0 1
9.149876 -30.813862 -0.855792 32.155042 -1.282149 1.597414 0.082288 -0.017668 668188.000000 0 0 1
10.417276 -31.484262 -0.966792 33.176996 -1.251262 1.599941 0.080011 -0.019065 318266.000000 0 0 1
10.403276 -32.427962 -1.951792 34.111734 -1.260357 1.628045 0.072650 -0.004445 -3709.470000 0 0 1
11.651376 -33.340762 -2.051092 35.377506 -1.234600 1.628806 0.061619 -0.003703 127351.000000 0 0 1
11.763776 33.480643 -0.914392 35.498958 1.232910 1.596557 0.061507 -0.004074 382179.000000 0 0 1
12.877576 32.583043 -1.066592 35.051737 1.194415 1.601230 0.066467 -0.007688 246564.000000 0 0 1
13.111676 31.731243 0.161808 34.333861 1.178954 1.566084 0.059252 -0.017703 -371263.000000 0 0 1
13.504376 32.391143 1.339708 35.119071 1.175793 1.532639 0.063853 -0.021757 -31033.500000 0 0 1
14.807676 32.933943 1.402908 36.136962 1.148261 1.531965 0.078393 -0.017992 264302.000000 0 0 1
15.959976 31.916843 1.725608 35.726509 1.107110 1.522477 0.089636 -0.031187 -59152.600000 0 0 1
16.375576 31.176143 0.579808 35.219988 1.087146 1.554333 0.087798 -0.027175 -698803.000000 0 0 1
17.306676 30.227943 0.877008 34.842771 1.050814 1.545623 0.103751 -0.031071 -604843.000000 0 0 1
18.011376 29.597443 -0.366192 34.648988 1.024117 1.581365 0.097790 -0.020155 662486.000000 0 0 1
19.073976 30.357043 -0.983392 35.865494 1.009812 1.598219 0.074785 -0.013478 496337.000000 0 0 1
18.760076 31.519743 -1.781992 36.723428 1.033925 1.619340 0.071882 -0.015655 -418454.000000 0 0 1
20.031176 32.095043 -2.418092 37.910249 1.012830 1.634624 0.072692 -0.015957 -23265.200000 0 0 1
20.815476 32.814343 -1.495792 38.888334 1.005508 1.609270 0.065763 -0.015166 -397245.000000 0 0 1
21.743276 33.623543 -2.116492 40.097284 0.996767 1.623605 0.066075 -0.015676 -1330430.000000 0 0 1
22.766576 -33.176762 -1.346892 40.259516 -0.969378 1.604258 0.066700 -0.012549 -808817.000000 0 0 1
23.834776 33.784243 -0.743092 41.352434 0.956389 1.588767 0.056534 -0.011615 567666.000000 0 0 1
24.843876 33.140843 -1.516692 41.446761 0.927522 1.607398 0.068955 -0.008415 -119254.000000 0 0 1
25.494476 -33.731162 -2.660692 42.365539 -0.923585 1.633641 0.059147 -0.008178 -1273730.000000 0 0 1
24.563876 -33.279762 -3.629292 41.522263 -0.934953 1.658314 0.051083 -0.015395 -65703.600000 0 0 1
25.221776 -32.755462 -4.797592 41.618207 -0.914616 1.686329 0.049213 -0.014476 84402.100000 0 0 1
24.296976 -32.241262 -5.923692 40.803580 -0.924996 1.716487 0.051965 -0.019844 -501318.000000 0 0 1
23.401876 -31.225362 -5.594792 39.420461 -0.927647 1.713203 0.066818 -0.021553 103263.000000 0 0 1
22.543876 -30.998662 -6.727292 38.915291 -0.942013 1.744539 0.069213 -0.030325 228552.000000 0 0 1
21.560276 -29.843462 -6.462592 37.379711 -0.945165 1.744560 0.087829 -0.034638 389182.000000 0 0 1
20.473976 -30.136062 -5.591992 36.859684 -0.974041 1.723095 0.074426 -0.027209 129304.000000 0 0 1
19.589976 -29.035062 -5.465492 35.449592 -0.977252 1.725590 0.089667 -0.032596 -43041.100000 0 0 1
18.266676 -29.276462 -4.769492 34.835768 -1.012962 1.708141 0.072342 -0.018278 -87423.700000 0 0 1
17.281176 -30.057562 -5.428492 35.093655 -1.049010 1.726106 0.068708 -0.020886 516206.000000 0 0 1
16.068776 -30.039162 -4.652092 34.383118 -1.079599 1.706514 0.047716 -0.012134 934751.000000 0 0 1
14.983376 -31.028762 -5.131292 34.836989 -1.120933 1.718629 0.046615 -0.007965 24578.500000 0 0 1
15.378076 -32.366662 -4.995992 36.180740 -1.127249 1.709323 0.038274 -0.004206 -169263.000000 0 0 1
14.316976 -33.262162 -5.275792 36.594825 -1.164337 1.715468 0.056904 -0.001527 121900.000000 0 0 1
14.774876 32.939643 -5.308092 36.489627 1.149154 1.716783 0.047570 0.006679 -107563.000000 0 0 1
14.982676 32.421143 -4.012992 35.940440 1.137904 1.682686 0.048136 -0.003958 -179016.000000 0 0 1
15.324476 31.050043 -4.019192 34.858265 1.112329 1.686354 0.063113 -0.006469 831777.000000 0 0 1
14.156576 29.996143 -4.378992 33.456730 1.129842 1.702058 0.061149 -0.009868 1389150.000000 0 0 1
13.233676 29.751743 -3.306792 32.729669 1.152272 1.672002 0.054866 -0.015328 295920.000000 0 0 1
13.745076 28.804943 -2.360692 32.003511 1.125573 1.644627 0.061962 -0.020574 126082.000000 0 0 1
12.586676 28.090643 -1.647392 30.825680 1.149546 1.624264 0.048778 -0.018916 334519.000000 0 0 1
11.727776 28.826343 -0.787292 31.130670 1.184405 1.596089 0.042807 -0.017255 -110069.000000 0 0 1
10.681276 28.029643 -0.274092 29.997094 1.206714 1.579934 0.031151 -0.014385 -141959.000000 0 0 1
9.553576 28.915243 0.303208 30.454130 1.251689 1.560840 0.034541 -0.007799 85543.700000 0 0 1
8.532476 28.112843 0.864608 29.391880 1.276124 1.541376 0.037184 -0.018209 51477.100000 0 0 1
7.362376 28.890143 1.096208 29.833649 1.321267 1.534044 0.049385 -0.016506 67139.500000 0 0 1
6.283876 28.204543 1.938208 28.961008 1.351580 1.503822 0.043395 -0.029360 87165.300000 0 0 1
5.688376 27.113343 1.267008 27.732586 1.363996 1.525094 0.060147 -0.039176 -145978.000000 0 0 1
4.449876 26.651143 1.734708 27.075709 1.405355 1.506684 0.063698 -0.045624 -28243.700000 0 0 1
4.047276 25.350143 1.009308 25.691028 1.412478 1.531500 0.071709 -0.047613 20877.700000 0 0 1
2.641176 25.238143 0.964908 25.394305 1.466526 1.532790 0.073392 -0.045067 124991.000000 0 0 1
2.216776 23.964843 0.478008 24.071898 1.478558 1.550938 0.071175 -0.044314 -343543.000000 0 1 0
0.708176 23.715043 0.512808 23.731156 1.540943 1.549186 0.056850 -0.030521 -1362940.000000 0 1 0
-0.088924 24.377543 -0.396992 24.380938 -1.567149 1.587080 0.069293 -0.047730 601062.000000 0 1 0
-1.468224 23.958743 -0.254892 24.005042 -1.509592 1.581415 0.049689 -0.028978 1065080.000000 0 1 0
-2.241524 24.682643 0.892108 24.800265 -1.480231 1.534817 0.084466 -0.042701 -1498530.000000 0 1 0
-3.621124 24.478743 0.815908 24.758577 -1.423932 1.537836 0.079671 -0.028764 -507303.000000 0 1 0
-4.204224 25.272343 1.822208 25.684378 -1.405949 1.499791 0.081546 -0.036487 519951.000000 0 0 1
-5.747224 25.458643 1.632908 26.150325 -1.348771 1.508313 0.098453 -0.039607 683516.000000 0 0 1
-5.966324 26.459143 0.669608 27.131746 -1.349014 1.546114 0.123028 -0.041693 1275320.000000 0 0 1
-7.371024 26.424143 0.280608 27.434396 -1.298761 1.560568 0.130446 -0.033184 1425590.000000 0 0 1
-7.729824 27.416243 -0.867292 28.498294 -1.295987 1.601234 0.135728 -0.035158 -266158.000000 0 0 1
-7.717224 28.759143 -0.435292 29.779747 -1.308632 1.585414 0.159116 -0.049351 78843.900000 0 0 1
-7.832824 29.632743 -1.546092 30.689461 -1.312377 1.621196 0.159152 -0.050192 147792.000000 0 0 1
-7.485424 31.087343 -0.961592 31.990298 -1.334507 1.600860 0.144548 -0.052144 -247954.000000 0 0 1
-7.892424 32.161243 -1.825792 33.165787 -1.330150 1.625875 0.128990 -0.035116 -51449.500000 0 0 1
-7.230424 32.331643 -3.112792 33.276173 -1.350783 1.664477 0.106645 -0.030848 669724.000000 0 0 1
-5.689424 32.588243 -3.151892 33.230973 -1.397953 1.665787 0.146570 -0.037595 286275.000000 0 0 1
-5.295024 -33.809062 -2.606692 34.320327 1.415443 1.646821 0.154218 -0.048454 -17664.700000 0 0 1
-4.847424 33.736143 -1.265292 34.106097 -1.428087 1.607904 0.170686 -0.054126 656.823000 0 0 1
-4.339924 -32.549962 -0.769292 32.847021 1.438247 1.594219 0.165753 -0.054397 101791.000000 0 0 1
-5.456124 -31.709162 -0.682792 32.182394 1.400397 1.592014 0.156673 -0.043287 -210741.000000 0 0 1
-5.128624 -30.410762 -1.129292 30.860858 1.403723 1.607398 0.164964 -0.050434 58500.200000 0 0 1
-6.326524 -29.580762 -1.681692 30.296444 1.360098 1.626333 0.161114 -0.045347 369867.000000 0 0 1
-7.200824 -29.352562 -0.571092 30.228313 1.330225 1.589690 0.163865 -0.036766 -14240.600000 0 0 1
-8.232624 -28.419162 -0.860692 29.600096 1.288829 1.599878 0.115464 -0.027575 517036.000000 0 0 1
-8.771724 -27.755962 0.455308 29.112607 1.264699 1.555156 0.109819 -0.024197 -91297.600000 0 0 1
-7.884724 -26.774762 0.892708 27.925861 1.284408 1.538824 0.129878 -0.039094 -382164.000000 0 0 1
-8.085124 -26.502162 2.249708 27.799191 1.274691 1.489781 0.114016 -0.023043 -7237.040000 0 0 1
-8.859824 -25.201162 2.569408 26.836485 1.232729 1.474906 0.101351 -0.025228 109935.000000 0 0 1
-8.096224 -24.026062 2.532008 25.479631 1.245770 1.471258 0.105620 -0.038121 -334490.000000 0 0 1
-8.975824 -23.030762 2.946608 24.893050 1.199173 1.452147 0.103222 -0.042670 372372.000000 0 1 0
-8.140524 -21.787262 3.462908 23.514776 1.213221 1.422994 0.060563 -0.019582 728578.000000 0 1 0
-7.669024 -22.018162 4.776208 23.799697 1.235633 1.368741 0.061501 -0.017819 -487884.000000 0 1 0
-7.026624 -20.807662 5.206408 22.570754 1.245126 1.338030 0.026596 -0.008551 -215979.000000 0 1 0
-7.856224 -19.589262 5.728608 21.869532 1.189387 1.305760 0.037613 -0.016323 96238.000000 0 1 0
-8.386624 -19.958862 7.021508 22.759465 1.173002 1.257171 0.046180 -0.016866 -47649.700000 0 1 0
-9.105424 -18.935662 7.645308 22.358864 1.122577 1.221820 0.031297 -0.015574 -429834.000000 0 1 0
-28.256794 28.776843 -4.935692 40.631443 -0.794516 1.692572 0.240076 -0.018457 -155798.000000 0 0 1
-27.429134 29.715843 -4.284792 40.666303 -0.825393 1.676357 0.221250 -0.037152 -365585.000000 0 0 1
-26.233844 29.058643 -3.947592 39.347209 -0.836442 1.671293 0.197700 -0.025559 -315436.000000 0 0 1
-25.200994 29.934643 -3.244992 39.264525 -0.871043 1.653535 0.167999 -0.027622 -688061.000000 0 0 1
-25.638304 30.415543 -2.005992 39.830289 -0.870419 1.621181 0.134597 -0.035473 -348799.000000 0 0 1
-24.858924 31.393843 -1.419692 40.069378 -0.901050 1.606235 0.125583 -0.037278 93919.000000 0 0 1
-23.523924 30.982643 -0.751792 38.908410 -0.921394 1.590120 0.103027 -0.027960 963514.000000 0 0 1
-22.458824 30.450143 -1.553292 37.868493 -0.935304 1.611826 0.108755 -0.030182 889228.000000 0 0 1
-21.245224 30.218043 -0.836092 36.948461 -0.958017 1.593427 0.082002 -0.027045 167438.000000 0 0 1
-20.202324 29.583643 -1.746392 35.866081 -0.971647 1.619508 0.104290 -0.021918 -286191.000000 0 0 1
-18.942824 29.574543 -1.119692 35.138838 -1.001121 1.602667 0.099331 -0.019267 386037.000000 0 0 1
-17.891224 28.907043 -1.844292 34.045770 -1.016579 1.624994 0.102066 -0.015542 368190.000000 0 0 1
-16.478724 29.235343 -1.379192 33.588031 -1.057528 1.611870 0.119221 -0.031223 -667499.000000 0 0 1
-16.250724 28.779643 -0.012792 33.050780 -1.056767 1.571183 0.110932 -0.037414 -319776.000000 0 0 1
-14.946624 28.974243 0.431708 32.605133 -1.094542 1.557555 0.124143 -0.052971 -380744.000000 0 0 1
-14.517824 28.002543 1.612508 31.583379 -1.092501 1.519719 0.128391 -0.054579 -62957.200000 0 0 1
-15.351624 28.174943 2.750808 32.203521 -1.071902 1.485273 0.119137 -0.055490 112178.000000 0 0 1
-14.896924 27.537343 3.947308 31.556376 -1.074911 1.445380 0.123724 -0.059025 728931.000000 0 0 1
-13.735024 28.309843 4.704408 31.815555 -1.119085 1.422387 0.115888 -0.059848 566608.000000 0 0 1
-14.074824 29.511543 5.298908 33.122655 -1.125778 1.410128 0.092789 -0.048594 -455851.000000 0 0 1
-14.142624 30.605043 4.427408 34.004183 -1.137925 1.440224 0.093288 -0.037317 -171902.000000 0 0 1
-14.048124 31.997143 5.115008 35.317563 -1.157091 1.425456 0.098526 -0.042208 -383842.000000 0 0 1
-15.150124 32.469543 5.825008 36.300526 -1.134228 1.409633 0.105813 -0.048191 -414827.000000 0 0 1
-14.726824 33.605143 6.532608 37.267412 -1.157772 1.394596 0.089748 -0.043239 44655.500000 0 0 1
-15.761724 -33.473262 7.520608 37.755143 1.130719 1.370261 0.086150 -0.040180 152379.000000 0 0 1
-16.090124 33.407243 8.659108 38.077764 -1.121948 1.341383 0.078654 -0.045265 511966.000000 0 0 1
-17.233424 -33.695862 9.330708 38.980305 1.098038 1.329080 0.079596 -0.038755 81680.000000 0 0 1
-17.587224 33.035043 10.583808 38.892692 -1.081581 1.295192 0.079065 -0.030276 52773.100000 0 0 1
-16.804024 33.242143 11.727508 39.050605 -1.102756 1.265773 0.084092 -0.029156 351561.000000 0 0 1
-15.481424 32.704443 11.611308 38.001021 -1.128676 1.260278 0.091167 -0.034625 728591.000000 0 0 1
-14.600024 32.736043 12.950508 38.112005 -1.151280 1.224091 0.082550 -0.027600 137900.000000 0 0 1
-14.928824 31.875343 14.040708 37.895234 -1.132788 1.191234 0.069900 -0.021047 413199.000000 0 0 1
-14.081224 30.706643 14.109108 36.609367 -1.140836 1.175159 0.058152 -0.024024 175685.000000 0 0 1
-14.639724 29.498343 13.352508 35.535380 -1.110121 1.185588 0.055213 -0.025657 56176.300000 0 0 1
-14.569024 29.748543 11.976408 35.223098 -1.115391 1.223863 0.060948 -0.025412 -252514.000000 0 0 1
-15.751924 29.237343 11.433108 35.123515 -1.076623 1.239244 0.043014 -0.024884 -257112.000000 0 0 1
-15.863424 29.147843 9.897508 34.629549 -1.072386 1.280944 0.062091 -0.026312 -97987.100000 0 0 1
-15.111124 28.014643 9.551008 33.232335 -1.076127 1.279284 0.054681 -0.026563 -67548.900000 0 0 1
-15.111924 27.661843 8.181308 32.565037 -1.070791 1.316846 0.062865 -0.034757 -221595.000000 0 0 1
-14.099624 26.529043 7.870608 31.056980 -1.082284 1.314577 0.069467 -0.034210 98622.700000 0 0 1
-12.766424 26.999543 7.714108 30.845816 -1.129113 1.318027 0.067456 -0.031618 292355.000000 0 0 1
-11.942824 25.803743 7.712508 29.460940 -1.137322 1.305922 0.081683 -0.037919 384071.000000 0 0 1
-10.703624 25.944443 6.796408 28.876857 -1.179510 1.333209 0.122499 -0.046576 -159971.000000 0 0 1
-11.130324 26.176843 5.485108 28.968908 -1.168759 1.380302 0.131305 -0.050968 711417.000000 0 0 1
-10.027424 26.157443 4.556508 28.381734 -1.204726 1.409555 0.153386 -0.046729 352201.000000 0 0 1
-10.316424 26.528843 3.072708 28.629524 -1.199916 1.463263 0.157627 -0.049127 -139640.000000 0 0 1
-10.171824 27.941943 2.913908 29.878237 -1.221674 1.473115 0.149580 -0.041975 -81095.400000 0 0 1
-10.718724 28.431243 1.731508 30.433941 -1.210269 1.513872 0.158462 -0.049748 -136491.000000 0 0 1
-10.393824 29.912243 1.378208 31.696582 -1.236371 1.527301 0.184921 -0.057394 133725.000000 0 0 1
-11.104324 30.823543 2.190408 32.835875 -1.225015 1.504039 0.152366 -0.061996 -2037.920000 0 0 1
-10.536124 32.095143 2.018508 33.840545 -1.253603 1.511113 0.139601 -0.055367 -490752.000000 0 0 1
-11.281024 33.090443 2.883908 35.079280 -1.242238 1.488492 0.118248 -0.049541 1355570.000000 0 0 1
-12.585124 33.573443 2.428408 35.936870 -1.212154 1.503171 0.120330 -0.049198 959124.000000 0 0 1
-12.658724 -33.517962 1.127308 35.846449 1.209687 1.539343 0.111276 -0.036110 -413384.000000 0 0 1
-14.089724 -33.418762 0.512408 36.271153 1.171800 1.556669 0.111301 -0.029549 694124.000000 0 0 1
-14.698724 32.978143 0.223808 36.106239 -1.151515 1.564598 0.094792 -0.026675 220930.000000 0 0 1
-15.658624 32.992343 -0.840392 36.529351 -1.127663 1.593804 0.113569 -0.028992 36610.300000 0 0 1
-15.076424 32.888243 -2.318892 36.253446 -1.140968 1.634803 0.109137 -0.029066 222094.000000 0 0 1
-14.423424 31.688743 -2.671192 34.919148 -1.143660 1.647368 0.107976 -0.028318 312523.000000 0 0 1
-13.111724 31.533743 -2.143892 34.218278 -1.176744 1.633491 0.134131 -0.024035 29058.200000 0 0 1
-12.434624 30.167343 -2.493592 32.724707 -1.179827 1.647069 0.110045 -0.027935 207833.000000 0 0 1
-12.300924 30.121943 -3.896892 32.769345 -1.183095 1.689997 0.093345 -0.024389 1368580.000000 0 0 1
-10.928024 29.759443 -4.274392 31.989320 -1.218871 1.704817 0.077613 -0.026708 1858240.000000 0 0 1
-10.664524 29.162643 -5.724492 31.574699 -1.220212 1.753104 0.072469 -0.023210 205903.000000 0 0 1
-11.215524 27.841243 -5.880392 30.585974 -1.187845 1.764259 0.067716 -0.020768 279357.000000 0 0 1
-10.705124 27.270643 -7.085392 30.141175 -1.196728 1.808091 0.061633 -0.020706 334792.000000 0 0 1
-11.256924 25.784843 -7.260792 29.056765 -1.159166 1.823356 0.086559 -0.027527 280659.000000 0 0 1
-10.752224 24.795143 -6.402592 27.774136 -1.161628 1.803412 0.056373 -0.017052 16239.700000 0 0 1
-11.355624 23.527343 -6.692592 26.968071 -1.121120 1.821584 0.072819 -0.020002 -146181.000000 0 0 1
-10.805824 22.330543 -5.924592 25.505289 -1.120109 1.805226 0.063343 -0.021230 582557.000000 0 0 1
-9.453224 21.918043 -6.226192 24.668391 -1.163603 1.825951 0.071211 -0.022754 1013550.000000 0 1 0
-9.032224 20.671043 -5.587692 23.239953 -1.158847 1.813610 0.073468 -0.021764 -303436.000000 0 1 0
-8.856324 20.700743 -4.018992 22.871544 -1.166534 1.747434 0.084345 -0.033905 -417391.000000 0 1 0
-9.994824 20.656243 -3.203192 23.169750 -1.120140 1.709489 0.095103 -0.033059 21905.400000 0 1 0
-10.789224 19.419243 -3.307792 22.460095 -1.063668 1.718608 0.094829 -0.029869 616993.000000 0 1 0
-11.987224 19.541443 -2.306792 23.040895 -1.020563 1.671082 0.078832 -0.025924 145448.000000 0 1 0
-11.648024 19.555143 -0.888292 22.778700 -1.033581 1.609803 0.083000 -0.031127 316570.000000 0 1 0
-11.184524 18.251043 -0.365292 21.408587 -1.021007 1.587860 0.066480 -0.022519 43048.300000 0 1 0
-11.116624 18.056143 1.174608 21.236369 -1.018934 1.515457 0.070674 -0.033552 -697726.000000 0 1 0
-12.343224 18.177843 1.797808 22.045890 -0.974286 1.489157 0.098631 -0.037107 -588830.000000 0 1 0
-12.111324 18.327443 3.180508 22.196734 -0.986845 1.427014 0.095727 -0.034323 -228958.000000 0 1 0
-13.379224 18.283843 4.045708 23.014568 -0.939077 1.394089 0.107879 -0.039917 -44648.500000 0 1 0
-14.043524 17.010543 3.956108 22.410487 -0.880653 1.393337 0.081589 -0.035536 833073.000000 0 1 0
-15.308724 17.104743 4.618408 23.414931 -0.840751 1.372252 0.107002 -0.046362 423398.000000 0 1 0
-15.695124 15.807543 5.319608 22.902261 -0.788967 1.336381 0.080247 -0.039375 -416261.000000 0 1 0
-14.770524 15.404843 6.282508 22.247415 -0.806416 1.284509 0.070957 -0.032028 -1669.140000 0 1 0
-15.290724 15.744043 7.536608 23.205206 -0.800004 1.240016 0.075425 -0.033006 -774642.000000 0 1 0
-14.271524 15.521543 8.645108 22.788870 -0.827330 1.181696 0.070839 -0.028500 807410.000000 0 1 0
-13.058724 16.291543 8.551208 22.562531 -0.895102 1.182080 0.067437 -0.035396 785992.000000 0 1 0
-12.065424 15.817843 7.678308 21.324517 -0.919170 1.202454 0.061724 -0.033885 -204962.000000 0 1 0
-10.852524 16.760543 7.414908 21.299623 -0.996178 1.215227 0.069695 -0.044729 225455.000000 0 1 0
-9.960624 17.003343 8.442608 21.438408 -1.040881 1.166026 0.063525 -0.039416 -424316.000000 0 1 0
-9.257924 18.189643 8.268008 22.021177 -1.100001 1.185906 0.055622 -0.039324 -328935.000000 0 1 0
-8.049924 18.492843 9.154108 22.149136 -1.160234 1.144728 0.050933 -0.027177 220522.000000 0 1 0
-6.894824 17.700443 8.839408 20.951836 -1.199350 1.135265 0.033094 -0.022274 1020920.000000 0 1 0
-5.735424 17.953343 9.663908 21.180386 -1.261581 1.097001 0.035462 -0.020035 997493.000000 0 1 0
-4.756724 18.989643 9.096508 21.586557 -1.325356 1.135811 0.024646 -0.013949 -998680.000000 0 1 0
-4.994824 20.314343 9.351308 22.914357 -1.329702 1.150426 0.029643 -0.019334 -246627.000000 0 1 0
-4.645224 21.196443 8.331508 23.243953 -1.355056 1.204203 0.037034 -0.025819 262033.000000 0 1 0
-3.212124 21.798143 8.368108 23.569090 -1.424492 1.207833 0.031758 -0.020910 734114.000000 0 1 0
-2.129624 20.880043 8.167108 22.521393 -1.469155 1.199700 0.020143 -0.006444 576886.000000 0 1 0
-0.913824 21.641243 8.090608 23.122206 -1.528595 1.213325 0.018259 -0.003254 896988.000000 0 1 0
0.360476 20.797343 7.830008 22.225401 1.553465 1.210769 0.014539 0.003372 471524.000000 0 1 0
0.833676 20.151743 8.961508 22.070260 1.529450 1.152675 0.011790 -0.000129 181993.000000 0 1 0
2.172576 19.652243 8.846808 21.660950 1.460692 1.150072 0.010068 -0.000246 701407.000000 0 1 0
2.655676 19.062543 10.196808 21.780910 1.432373 1.083596 0.004575 -0.018769 -1177020.000000 0 1 0
4.019876 18.891843 10.206708 21.845778 1.361140 1.084656 0.029664 -0.002399 -1208730.000000 0 1 0
4.411076 18.252043 11.368608 21.950852 1.333668 1.026388 0.028690 -0.014549 -645368.000000 0 1 0
5.878276 18.249743 11.736408 22.480003 1.259188 1.021506 0.059425 -0.019435 -1252340.000000 0 1 0
6.751676 17.446843 11.090108 21.747826 1.201559 1.035680 0.054956 -0.021974 -888770.000000 0 1 0
7.671576 16.884043 11.982808 22.079666 1.144316 0.997139 0.064374 -0.017304 -232763.000000 0 1 0
8.924576 16.246543 11.361908 21.741462 1.068474 1.020908 0.071530 -0.020786 30368.700000 0 1 0
9.866676 17.097243 10.786308 22.494698 1.047392 1.070706 0.083187 -0.039333 -531149.000000 0 1 0
10.980476 16.450043 10.279308 22.289884 0.982214 1.091489 0.081988 -0.037157 684257.000000 0 1 0
12.025776 17.364543 9.480908 23.152413 0.965089 1.148891 0.085762 -0.034303 2003890.000000 0 1 0
13.300676 16.804143 9.087008 23.277906 0.901253 1.169762 0.100488 -0.034213 796757.000000 0 1 0
13.890376 17.695543 8.183508 23.938350 0.905291 1.221903 0.118171 -0.035973 -413873.000000 0 1 0
14.964376 17.182043 7.270008 23.916692 0.854275 1.261937 0.113966 -0.042069 136103.000000 0 1 0
16.277076 16.992343 7.796708 24.788537 0.806894 1.250836 0.134270 -0.039246 692232.000000 0 1 0
17.183176 16.495343 6.824008 24.777509 0.764978 1.291779 0.147090 -0.035240 -556111.000000 0 1 0
18.603376 16.468143 7.346108 25.908505 0.724591 1.283312 0.149054 -0.033563 -900943.000000 0 0 1
18.898676 15.368543 8.149908 25.686048 0.682743 1.247927 0.158533 -0.033680 718920.000000 0 0 1
20.107376 15.509743 8.919008 26.914817 0.657023 1.233031 0.154283 -0.036796 517029.000000 0 0 1
20.413376 14.407143 9.957108 26.896388 0.614588 1.191569 0.146777 -0.035019 -204089.000000 0 0 1
21.009576 13.302343 9.388308 26.579972 0.564443 1.209796 0.164299 -0.042493 -12010.800000 0 0 1
21.021876 12.275343 10.379008 26.463694 0.528521 1.167777 0.144298 -0.037859 -482733.000000 0 0 1
21.960076 11.169643 9.912008 26.556614 0.470531 1.188297 0.131830 -0.028448 129930.000000 0 0 1
23.338276 11.585243 10.072108 27.934572 0.460768 1.201927 0.139503 -0.034997 1819600.000000 0 0 1
24.266376 10.887743 9.219008 28.149423 0.421752 1.237137 0.149074 -0.028149 340186.000000 0 0 1
24.478276 9.330243 9.360108 27.818178 0.364164 1.227626 0.159006 -0.032709 -310108.000000 0 0 1
23.324576 8.602143 8.918808 26.411699 0.353326 1.226341 0.157958 -0.035336 838443.000000 0 0 1
23.273476 7.185543 9.226108 26.046262 0.299459 1.208716 0.151331 -0.028773 -219168.000000 0 0 1
24.275276 6.294543 8.446408 26.462277 0.253711 1.245925 0.159014 -0.028368 255876.000000 0 0 1
23.956476 6.115543 7.069208 25.715487 0.249939 1.292310 0.146717 -0.016383 181216.000000 0 0 1
24.915376 5.223343 6.585108 26.294922 0.206651 1.317669 0.156083 -0.021921 -285390.000000 0 0 1
24.766076 4.754343 5.161608 25.741105 0.189663 1.368908 0.179748 -0.032831 -807426.000000 0 0 1
23.794876 3.786943 5.079308 24.623899 0.157826 1.363029 0.163389 -0.025084 -233767.000000 0 1 0
23.339676 3.628143 3.764508 23.918098 0.154215 1.412748 0.180901 -0.030120 -247043.000000 0 1 0
22.353276 2.436443 3.735308 22.793809 0.108569 1.406180 0.172322 -0.026661 -711504.000000 0 1 0
22.898776 1.204343 3.931408 23.265002 0.052546 1.400998 0.200485 -0.031436 -60543.900000 0 1 0
22.168876 0.104043 3.461308 22.437703 0.004693 1.415915 0.199928 -0.028506 -445956.000000 0 1 0
22.865576 -1.239757 3.717008 23.198873 -0.054166 1.409879 0.229706 -0.037061 -570700.000000 0 1 0
22.753676 -1.582057 5.058108 23.362729 -0.069418 1.352565 0.210601 -0.041720 639630.000000 0 1 0
23.232376 -2.901057 5.201508 23.983642 -0.124228 1.352182 0.217862 -0.043861 -331204.000000 0 1 0
23.183276 -3.360757 6.669808 24.356627 -0.143962 1.293413 0.237926 -0.048907 -80903.400000 0 1 0
23.328276 -4.794557 6.884608 24.791007 -0.202703 1.289391 0.217611 -0.044828 432807.000000 0 1 0
23.444376 -5.064957 8.271708 25.371513 -0.212771 1.238702 0.259086 -0.053616 -178038.000000 0 0 1
22.785276 -6.404357 8.682108 25.210386 -0.274005 1.219211 0.223644 -0.054336 6790.190000 0 0 1
21.388176 -6.296357 8.827608 23.979675 -0.286297 1.193801 0.226090 -0.052931 59645.700000 0 1 0
20.839976 -7.576857 8.978208 23.923243 -0.348715 1.186084 0.210183 -0.063437 -355272.000000 0 1 0
-28.484614 -32.221362 5.021108 43.298972 0.846875 1.454571 0.112548 -0.024498 176670.000000 0 0 1
-28.939894 -33.491662 5.507908 44.604327 0.858178 1.446997 0.127484 -0.030045 88711.300000 0 0 1
-28.968824 -33.565562 6.935408 44.876939 0.858774 1.415632 0.104253 -0.011748 196199.000000 0 0 1
-29.707734 32.777543 7.400208 44.851755 -0.834487 1.405046 0.115168 -0.016639 1207150.000000 0 0 1
-31.122584 32.844343 7.144408 45.808391 -0.812308 1.414194 0.119671 -0.020016 683512.000000 0 0 1
-31.833994 31.687343 7.547508 45.546194 -0.783089 1.404317 0.139007 -0.027963 367664.000000 0 0 1
-33.366314 31.793743 7.669308 46.722279 -0.761269 1.405903 0.124955 -0.023574 67344.500000 0 0 1
-34.053510 31.974243 6.457208 47.156011 -0.753918 1.433432 0.116176 -0.021463 50062.300000 0 0 1
-35.454400 32.097843 6.616008 48.281027 -0.735751 1.433333 0.091415 -0.018913 8079.440000 0 0 1
-36.184514 32.062043 5.274308 48.632417 -0.725066 1.462130 0.073130 -0.008804 -367423.000000 0 0 1
-36.018904 30.773443 4.661208 47.603499 -0.707025 1.472722 0.079689 -0.016967 367523.000000 0 0 1
-36.803434 30.590143 3.485908 47.983343 -0.693464 1.498084 0.070256 0.001384 22174.000000 0 0 1
-36.394764 29.292743 2.837108 46.804838 -0.677698 1.510143 0.075091 -0.013896 -12928.500000 0 0 1
-36.714344 28.032943 3.474508 46.323441 -0.652112 1.495720 0.113309 -0.027732 21828.900000 0 0 1
-35.986304 26.954943 2.953508 45.058920 -0.642882 1.505202 0.101217 -0.022640 -261619.000000 0 0 1
-36.347234 25.619843 3.631008 44.617060 -0.613983 1.489325 0.133847 -0.030940 809121.000000 0 0 1
-37.707444 25.225843 3.374108 45.492627 -0.589608 1.496560 0.143726 -0.033828 643681.000000 0 0 1
37.530080 24.326443 4.331908 44.933820 0.575098 1.474240 0.160997 -0.038447 -440301.000000 0 0 1
36.050670 24.031143 4.152408 43.524581 0.587952 1.475247 0.168402 -0.047140 -703927.000000 0 0 1
35.649230 23.091443 3.177108 42.593149 0.574785 1.496135 0.146024 -0.048616 12875.000000 0 0 1
35.890860 21.733543 3.434708 42.098669 0.544487 1.489118 0.142010 -0.049469 -982032.000000 0 0 1
35.226510 20.696243 2.538208 40.935119 0.531192 1.508751 0.145927 -0.039599 778003.000000 0 0 1
33.799560 20.523343 2.670008 39.632648 0.545702 1.503376 0.132155 -0.048535 1182540.000000 0 0 1
33.400990 19.775343 3.798108 39.001487 0.534560 1.473258 0.108472 -0.039136 -502342.000000 0 0 1
33.533320 18.216843 3.706208 38.341530 0.497643 1.473982 0.128447 -0.045251 -711173.000000 0 0 1
32.541170 17.601943 2.930808 37.112610 0.495840 1.491743 0.093487 -0.050904 -111159.000000 0 0 1
32.719410 16.228343 2.747008 36.626015 0.460431 1.495724 0.107566 -0.043802 -181609.000000 0 0 1
31.893510 15.243843 3.628008 35.534957 0.445861 1.468521 0.122597 -0.043761 -1056230.000000 0 0 1
30.539540 15.337743 3.388508 34.342275 0.465427 1.471967 0.082989 -0.041617 -1089090.000000 0 0 1
29.836340 14.636643 4.412208 33.524709 0.456071 1.438803 0.090957 -0.053032 -589471.000000 0 0 1
28.332940 14.850243 4.328308 32.280326 0.482767 1.436306 0.094405 -0.046118 -855752.000000 0 0 1
27.849540 14.251243 3.139208 31.441206 0.472982 1.470786 0.114914 -0.051365 -578955.000000 0 0 1
26.519040 14.609943 2.920308 30.417727 0.503551 1.474641 0.090981 -0.037270 -164998.000000 0 0 1
25.820740 13.809243 1.726808 29.332366 0.491108 1.511892 0.111076 -0.036275 -141281.000000 0 0 1
25.989940 14.199243 0.392608 29.618400 0.500026 1.557540 0.114501 -0.032398 152885.000000 0 0 1
27.219440 13.797243 -0.162092 30.517013 0.469144 1.576108 0.116041 -0.030345 -1017590.000000 0 0 1
27.711940 14.574343 -1.440992 31.343892 0.484170 1.616786 0.126986 -0.027627 -122884.000000 0 0 1
28.285740 15.819843 -1.241692 32.432890 0.509945 1.609091 0.063341 -0.012750 452400.000000 0 0 1
29.523940 15.768643 -0.545292 33.475521 0.490552 1.587086 0.077282 -0.026898 -323113.000000 0 0 1
30.154740 17.178043 -0.193092 34.704910 0.517814 1.576360 0.077309 -0.020631 -166321.000000 0 0 1
30.826460 17.785043 -1.233292 35.610383 0.523292 1.605436 0.071575 -0.016154 -299935.000000 0 0 1
31.432890 18.947643 -0.841792 36.711693 0.542473 1.593728 0.054300 -0.007609 -181713.000000 0 0 1
32.667480 19.362843 -1.679292 38.011892 0.535053 1.614989 0.046165 -0.001776 15193.600000 0 0 1
33.108250 20.700743 -1.676592 39.083090 0.558775 1.613708 0.013587 0.002189 718477.000000 0 0 1
32.096090 21.639443 -2.112892 38.767110 0.593205 1.625326 0.036377 -0.006384 -7771.210000 0 0 1
32.650710 23.088743 -2.338192 40.057784 0.615504 1.629200 0.053210 -0.010253 169367.000000 0 0 1
33.144780 23.837943 -1.219992 40.844980 0.623500 1.600670 0.050316 -0.008844 1182350.000000 0 0 1
34.344290 23.291143 -0.615192 41.501639 0.595922 1.585620 0.075038 -0.000709 271302.000000 0 0 1
34.990710 24.204843 0.435308 42.548957 0.605168 1.560565 0.099384 -0.027345 -120730.000000 0 0 1
35.410420 25.425643 -0.101392 43.593250 0.622723 1.573122 0.111618 -0.019717 249340.000000 0 0 1
36.661090 25.819543 0.449108 44.842904 0.613590 1.560781 0.122383 -0.023743 412950.000000 0 0 1
37.137330 27.232443 -0.026392 46.052013 0.632721 1.571369 0.080367 -0.017766 -83662.500000 0 0 1
37.664690 27.287843 -1.341392 46.530147 0.626976 1.599629 0.077249 -0.019993 132053.000000 0 0 1
36.714090 27.457943 -2.373692 45.907488 0.642147 1.622525 0.059878 -0.020683 20956.100000 0 0 1
37.244890 27.025843 -3.781792 46.172286 0.627718 1.652794 0.066745 -0.016379 -119800.000000 0 0 1
-37.652154 27.852143 -4.496592 47.049399 -0.636891 1.666514 0.072410 -0.018880 -28585.100000 0 0 1
-37.585534 27.586643 -5.881592 46.992429 -0.633163 1.696286 0.086696 -0.016727 162599.000000 0 0 1
36.936270 27.996443 -6.751492 46.836647 0.648580 1.715450 0.054626 -0.001320 -251488.000000 0 0 1
35.812380 27.329543 -6.352992 45.494956 0.651852 1.710896 0.052747 0.003234 -2299480.000000 0 0 1
34.811060 27.416443 -7.278592 44.904890 0.667121 1.733604 0.032393 -0.007598 -48216.100000 0 0 1
33.580140 26.545643 -6.778692 43.338754 0.668931 1.727853 0.025710 0.005930 171247.000000 0 0 1
33.677180 25.138143 -6.780192 42.568177 0.641222 1.730756 0.018888 0.005479 -172514.000000 0 0 1
34.496360 24.680043 -5.722692 42.800147 0.621013 1.704905 0.029441 -0.008829 -108564.000000 0 0 1
34.873540 23.126843 -5.786892 42.243376 0.585573 1.708218 0.032157 -0.012944 -105093.000000 0 0 1
33.921260 22.193443 -5.345292 40.887320 0.579367 1.701904 0.005131 -0.004696 -95381.300000 0 0 1
34.263670 20.850443 -5.722692 40.515297 0.546667 1.712518 0.012886 0.000040 -150644.000000 0 0 1
33.243600 19.812443 -5.270792 39.057024 0.537457 1.706161 0.027142 -0.007651 -465399.000000 0 0 1
32.253440 19.501243 -6.212292 38.199155 0.543813 1.734151 0.004273 -0.013376 -742288.000000 0 0 1
31.178820 18.955743 -5.481592 36.898332 0.546258 1.719908 0.050238 -0.018386 -450184.000000 0 0 1
29.981340 18.753343 -6.421992 35.941767 0.558959 1.750439 0.022695 -0.019232 -538392.000000 0 0 1
30.123340 17.732943 -7.426092 35.735413 0.532053 1.780129 0.017562 -0.020575 32000.100000 0 0 1
29.011740 17.733143 -8.295392 34.999414 0.548643 1.810089 0.045227 -0.029947 -143910.000000 0 0 1
29.159140 16.640143 -9.390792 34.861681 0.518571 1.843538 0.048064 -0.031653 -224297.000000 0 0 1
28.078240 16.563143 -10.272392 34.179633 0.532954 1.876056 0.071851 -0.026671 -64300.200000 0 0 1
28.398040 15.631743 -11.303892 34.330425 0.503190 1.906324 0.078435 -0.024573 214317.000000 0 0 1
27.497040 15.681843 -12.578992 34.062273 0.518303 1.949045 0.092144 -0.017778 494029.000000 0 0 1
26.112340 15.470843 -12.318092 32.755712 0.534866 1.956336 0.081098 -0.019378 871328.000000 0 0 1
25.235940 15.533143 -13.462492 32.547963 0.551751 1.997223 0.081718 -0.024853 351199.000000 0 0 1
25.056540 14.138943 -14.207992 32.087489 0.513742 2.029503 0.082521 -0.032818 -324520.000000 0 0 1
26.223940 13.629943 -14.836792 33.069635 0.479324 2.036054 0.103221 -0.041034 310347.000000 0 0 1
26.650440 14.260543 -16.027592 34.212465 0.491329 2.058357 0.117938 -0.039298 -798581.000000 0 0 1
28.083040 13.940143 -16.447592 35.404915 0.460756 2.053930 0.134887 -0.041722 -366065.000000 0 0 1
28.253740 12.584543 -16.715492 35.157534 0.419032 2.066267 0.135195 -0.051164 -249072.000000 0 0 1
29.611740 12.295843 -16.929492 36.258111 0.393571 2.056596 0.122633 -0.033937 -4992.080000 0 0 1
29.786140 10.969643 -17.649792 36.318898 0.352866 2.078266 0.096098 -0.031274 -222551.000000 0 0 1
29.437640 11.089943 -18.979992 36.739646 0.360284 2.113681 0.103083 -0.031342 -62142.600000 0 0 1
29.595640 9.915643 -19.728192 36.924564 0.323283 2.134456 0.088775 -0.009644 -1204270.000000 0 0 1
30.940380 9.402543 -20.169392 38.111931 0.295024 2.128471 0.098518 -0.013173 -1360040.000000 0 0 1
31.528370 10.283943 -21.135592 39.325702 0.315299 2.138206 0.091453 -0.010745 352649.000000 0 0 1
32.023670 9.645143 -22.305792 40.200654 0.292546 2.158993 0.068841 -0.003769 588663.000000 0 0 1
33.399310 8.867543 -22.255092 41.102754 0.259514 2.142957 0.062323 0.002019 120409.000000 0 0 1
34.482200 9.701243 -22.038092 42.057267 0.274251 2.122339 0.066211 -0.002787 -935469.000000 0 0 1
35.717470 9.053743 -22.039692 42.935486 0.248253 2.109847 0.030042 -0.001277 -125151.000000 0 0 1
36.829140 10.077543 -21.676692 43.906963 0.267092 2.087131 0.054324 -0.011752 -91242.500000 0 0 1
36.689800 10.626343 -20.338892 43.275064 0.281913 2.060077 0.040069 -0.015593 -839.660000 0 0 1
37.657420 11.610543 -20.111992 44.242267 0.299072 2.042706 0.014702 -0.001452 -447148.000000 0 0 1
37.476650 12.268043 -18.759792 43.668455 0.316357 2.014842 0.017208 -0.010548 -190219.000000 0 0 1
-37.817654 11.459043 -17.723692 43.308359 -0.294214 1.992422 0.027869 -0.015720 292836.000000 0 0 1
37.547190 12.044343 -16.514492 42.750276 0.310409 1.967415 0.037394 -0.021526 168704.000000 0 0 1
-37.737764 11.125243 -15.353392 42.233121 -0.286683 1.942860 0.051166 -0.022944 -306215.000000 0 0 1
37.068380 10.135643 -15.222292 41.334178 0.266907 1.947948 0.035336 -0.019553 -150079.000000 0 0 1
37.466740 9.036343 -14.462892 41.165366 0.236663 1.929794 0.033504 -0.028556 -308512.000000 0 0 1
36.423420 7.894943 -14.382592 39.948149 0.213453 1.939098 0.095485 -0.029466 -1081750.000000 0 0 1
35.421030 8.113043 -13.487292 38.760520 0.225162 1.926196 0.111601 -0.035012 -445197.000000 0 0 1
35.701520 7.809243 -12.121992 38.503578 0.215345 1.891071 0.110730 -0.032710 -709534.000000 0 0 1
34.738970 8.497943 -11.172592 37.467825 0.239911 1.873594 0.127379 -0.035015 -490895.000000 0 0 1
34.826670 9.891343 -11.275692 37.919347 0.276729 1.872723 0.131295 -0.044372 484871.000000 0 0 1
33.933030 10.633943 -10.424792 37.056815 0.303687 1.855965 0.102737 -0.036010 -267427.000000 0 0 1
34.197140 10.443943 -8.905792 36.848792 0.296407 1.814898 0.112797 -0.027504 547165.000000 0 0 1
35.462080 10.982143 -8.478192 38.079474 0.300320 1.795323 0.114211 -0.024752 789217.000000 0 0 1
35.425680 12.359843 -8.220292 38.409865 0.335690 1.786480 0.104814 -0.028021 -399852.000000 0 0 1
35.303690 12.703243 -6.695392 38.112350 0.345403 1.747388 0.086870 -0.023882 -665253.000000 0 0 1
36.394720 12.413443 -5.893692 38.902504 0.328705 1.722881 0.110633 -0.026940 -502026.000000 0 0 1
36.154030 12.722143 -4.537192 38.594727 0.338355 1.688629 0.104907 -0.026170 -80021.500000 0 0 1
37.441400 12.618543 -3.705992 39.684007 0.325066 1.664320 0.129735 -0.030602 216842.000000 0 0 1
-37.457924 13.743143 -3.881292 40.087835 -0.351646 1.667768 0.136786 -0.024630 310824.000000 0 0 1
-36.481944 13.779243 -2.861892 39.102305 -0.361136 1.644052 0.151436 -0.033514 197996.000000 0 0 1
-35.468929 14.947843 -2.856892 38.595917 -0.398847 1.644885 0.141427 -0.033036 203238.000000 0 0 1
-36.050294 16.153043 -2.466292 39.580641 -0.421247 1.633147 0.175684 -0.025398 145745.000000 0 0 1
-35.073222 17.104543 -2.113292 39.078924 -0.453744 1.624900 0.171241 -0.035875 286757.000000 0 0 1
-35.707521 18.175043 -1.175892 40.084186 -0.470820 1.600136 0.180157 -0.030070 466712.000000 0 0 1
-36.678894 19.040643 -1.748192 41.363554 -0.478824 1.613073 0.162866 -0.028515 756689.000000 0 0 1
-37.704964 19.444143 -0.833992 42.431528 -0.476122 1.590453 0.155450 -0.031601 577679.000000 0 0 1
37.106070 20.500943 -1.402292 42.415982 0.504757 1.603863 0.131963 -0.027207 180909.000000 0 0 1
37.706090 21.808843 -1.504492 43.584841 0.524379 1.605322 0.144791 -0.022694 275281.000000 0 0 1
37.320170 22.520943 -2.692592 43.671936 0.542954 1.632490 0.088060 -0.013892 -334181.000000 0 0 1
-37.485464 23.648243 -3.069692 44.427722 -0.562805 1.639945 0.105790 -0.026056 -649750.000000 0 0 1
-36.267004 23.133743 -3.520692 43.160873 -0.567803 1.652458 0.150376 -0.027851 -446521.000000 0 0 1
-35.401650 24.224443 -3.855392 43.069299 -0.600094 1.660432 0.166623 -0.030710 516268.000000 0 0 1
-34.041073 23.754843 -4.442592 41.747142 -0.609267 1.677415 0.189257 -0.042364 99944.600000 0 0 1
-34.174400 23.004343 -5.633992 41.579217 -0.592475 1.706715 0.158133 -0.026118 550573.000000 0 0 1
-32.884534 22.940843 -6.282992 40.585107 -0.609126 1.726232 0.191684 -0.022221 815341.000000 0 0 1
-32.712264 22.129043 -7.561392 40.211459 -0.594763 1.759963 0.174784 -0.028092 230432.000000 0 0 1
-33.551334 22.620043 -8.618392 41.371912 -0.593194 1.780648 0.164221 -0.029493 544271.000000 0 0 1
-33.240604 21.951943 -9.859992 41.037118 -0.583648 1.813440 0.118345 -0.022958 15548.400000 0 0 1
-34.201079 22.416643 -10.962692 42.336749 -0.580188 1.832721 0.100526 -0.010409 -108628.000000 0 0 1
-33.922604 23.700243 -11.425592 42.930045 -0.609824 1.840187 0.109872 -0.008718 -50015.900000 0 0 1
-34.294822 23.794943 -12.797792 43.659107 -0.606576 1.868295 0.066095 -0.000685 -833211.000000 0 0 1
-34.366650 25.221043 -13.340492 44.666950 -0.633105 1.874091 0.081984 -0.000731 247505.000000 0 0 1
-33.195024 26.025143 -13.376192 44.250878 -0.664913 1.877881 0.085782 0.005398 -223423.000000 0 0 1
-32.164924 25.546443 -14.190792 43.457815 -0.671215 1.903439 0.086148 0.000140 -250027.000000 0 0 1
-30.720614 25.829843 -13.683492 42.404892 -0.699128 1.899363 0.094243 -0.008875 17287.400000 0 0 1
-30.279764 25.068443 -12.561492 41.268415 -0.691520 1.880089 0.105093 -0.020054 19207.800000 0 0 1
-30.911044 25.196443 -11.283892 41.444899 -0.683897 1.846540 0.140626 -0.017086 -169754.000000 0 0 1
-31.229404 26.608443 -10.725292 42.406566 -0.705672 1.826489 0.171132 -0.003158 -77395.300000 0 0 1
-30.066474 27.295343 -10.365592 41.910311 -0.737126 1.820718 0.195763 -0.001848 -113504.000000 0 0 1
-30.433194 28.502143 -9.674292 42.803544 -0.752644 1.798782 0.169515 -0.009327 1048540.000000 0 0 1
-29.106944 29.276943 -9.330892 42.325160 -0.788310 1.793080 0.177365 -0.009232 823446.000000 0 0 1
-29.324184 30.667143 -9.140092 43.404179 -0.807780 1.782965 0.150395 -0.026296 197951.000000 0 0 1
-28.241414 31.391943 -8.540092 43.080909 -0.838181 1.770352 0.191496 -0.015601 492394.000000 0 0 1
36.072920 -24.365857 33.319256 54.819006 -0.594066 0.917503 0.083499 -0.025895 -15124.800000 0 0 1
35.721020 -23.062457 33.621876 54.206077 -0.573295 0.901722 0.083210 -0.028950 -783641.000000 0 0 1
34.521590 -23.006857 -33.079752 53.059642 -0.587851 2.243937 0.060152 -0.017837 -631429.000000 0 0 1
33.972440 -21.603557 -32.777322 51.915250 -0.566409 2.254105 0.054294 -0.013662 42645.600000 0 0 1
33.689720 -20.949057 33.415906 51.869866 -0.556312 0.870786 0.045833 -0.010556 -78458.000000 0 0 1
33.210320 -19.644857 33.683236 51.219197 -0.534167 0.853129 0.040867 -0.006682 -55778.200000 0 0 1
32.983020 -18.956757 32.319920 49.918087 -0.521641 0.866551 0.054542 -0.017950 499284.000000 0 0 1
34.217770 -18.716557 31.645171 50.225314 -0.500524 0.889160 0.084872 -0.026635 308446.000000 0 0 1
34.031360 -18.354557 30.303396 49.125544 -0.494624 0.906054 0.097773 -0.028094 -412582.000000 0 0 1
35.288950 -18.134657 29.456816 49.415380 -0.474698 0.932154 0.086182 -0.024659 -319744.000000 0 0 1
36.126380 -17.140557 30.018636 50.000326 -0.443008 0.926834 0.082963 -0.027730 99941.500000 0 0 1
37.383140 -17.162157 29.375956 50.546865 -0.430386 0.950640 0.071565 -0.019292 -313632.000000 0 0 1
-37.474124 -16.049057 29.842936 50.522105 0.404637 0.938882 0.044708 -0.017326 433769.000000 0 0 1
-36.101664 -16.244157 29.459466 49.346357 0.422817 0.931048 0.046193 -0.014008 316180.000000 0 0 1
-35.306762 -15.298557 30.062186 48.829790 0.408883 0.907582 0.044191 -0.019879 -492074.000000 0 0 1
-33.895194 -15.432557 29.410066 47.455242 0.427254 0.902381 0.055737 -0.021391 381378.000000 0 0 1
-32.928244 -14.590257 30.033866 46.895394 0.417095 0.875720 0.055862 -0.022479 -773099.000000 0 0 1
-32.016184 -15.290057 30.747676 46.949351 0.445545 0.856731 0.062996 -0.029888 -1291220.000000 0 0 1
-31.026514 -14.240457 31.277695 46.300426 0.430294 0.829102 0.067611 -0.031489 -331710.000000 0 0 1
-31.578214 -13.465457 32.310384 47.143007 0.403069 0.815685 0.082188 -0.031679 257925.000000 0 0 1
-30.635904 -12.486357 32.607492 46.451225 0.387017 0.792633 0.080208 -0.029504 -166671.000000 0 0 1
-30.852014 -12.039957 -33.286892 46.955559 0.372072 2.358737 0.064483 -0.018319 -97728.200000 0 0 1
-30.622074 -13.052657 -32.337322 46.408897 0.402929 2.341711 0.086035 -0.024153 295240.000000 0 0 1
-30.636164 -12.500857 -31.037462 45.367059 0.387420 2.324222 0.086648 -0.017949 -589142.000000 0 0 1
-30.776904 -13.555157 -29.899842 44.999563 0.414869 2.297550 0.090100 -0.019672 -612721.000000 0 0 1
-32.056354 -14.104057 -29.855472 46.020468 0.414488 2.276728 0.085698 -0.023301 -420014.000000 0 0 1
-32.174614 -14.882157 -28.720762 45.624189 0.433236 2.251715 0.108306 -0.025123 751179.000000 0 0 1
-33.487064 -15.742057 -28.729002 46.846039 0.439438 2.230983 0.096470 -0.038137 502942.000000 0 0 1
-33.446054 -16.891257 -29.546192 47.717194 0.467663 2.238512 0.099066 -0.038354 -315658.000000 0 0 1
-34.610707 -17.645857 -29.360872 48.696387 0.471487 2.217974 0.102767 -0.040479 -505953.000000 0 0 1
-34.482453 -19.072857 -30.040202 49.550249 0.505234 2.222142 0.095811 -0.038326 1372130.000000 0 0 1
-35.745714 -19.803457 -30.068752 50.735223 0.505916 2.205154 0.075173 -0.043400 1453220.000000 0 0 1
-35.455041 -21.107957 -30.590482 51.365196 0.536989 2.208745 0.071749 -0.040401 601102.000000 0 0 1
-36.805294 -21.838857 -30.866332 52.766427 0.535524 2.195629 0.092274 -0.040065 328197.000000 0 0 1
-37.523294 -22.217157 -29.705142 52.763578 0.534583 2.168790 0.066743 -0.035083 -379182.000000 0 0 1
37.250490 -23.139357 -30.032012 53.150264 -0.555850 2.171278 0.068046 -0.026112 -412260.000000 0 0 1
37.666810 -24.593257 -30.366592 54.274734 -0.578422 2.164576 0.060625 -0.020462 -247540.000000 0 0 1
-37.376044 -24.769857 -31.556982 54.830262 0.585265 2.184060 0.082096 -0.023101 -541174.000000 0 0 1
-36.530724 -25.872387 -31.483252 54.727227 0.616232 2.183738 0.075789 -0.020588 -209647.000000 0 0 1
-36.692244 -26.908757 -32.576412 55.960921 0.632769 2.192140 0.083333 -0.024023 540810.000000 0 0 1
37.757130 -27.426917 -32.680212 56.972212 -0.628228 2.181711 0.089118 -0.026242 180357.000000 0 0 1
37.608730 -28.660107 -33.327592 57.849345 -0.651175 2.184758 0.086237 -0.028139 87965.000000 0 0 1
-37.614794 -29.945377 -32.605872 58.092523 0.672362 2.166722 0.083588 -0.030154 464837.000000 0 0 1
37.427850 -30.289707 -31.412382 57.489547 -0.680375 2.148858 0.086806 -0.035085 482076.000000 0 0 1
-37.509124 -31.103487 -30.621742 57.550434 0.692309 2.131858 0.084685 -0.038971 75871.300000 0 0 1
37.504120 -31.736647 -29.458282 57.284938 -0.702294 2.110919 0.065398 -0.033862 -408295.000000 0 0 1
36.617760 -32.744097 -29.771302 57.440114 -0.729609 2.115660 0.092679 -0.030655 -175655.000000 0 0 1
36.037570 -33.286517 -28.568482 56.770211 -0.745735 2.098129 0.111590 -0.028109 126487.000000 0 0 1
34.935160 33.348255 -28.886922 56.276334 0.762162 2.109828 0.106112 -0.033581 709489.000000 0 0 1
33.687190 33.773079 -29.458912 56.064919 0.786671 2.124032 0.112238 -0.032241 107128.000000 0 0 1
32.607530 33.217582 -28.736132 54.703053 0.794666 2.123877 0.092184 -0.021531 -172769.000000 0 0 1
31.337030 33.766519 -29.408052 54.653644 0.822698 2.138954 0.052567 -0.000330 -272049.000000 0 0 1
31.197180 33.125470 -30.702292 54.892545 0.815368 2.164357 0.062117 0.008320 -6581.900000 0 0 1
30.043440 33.634703 -31.368052 54.935018 0.841736 2.178523 0.046371 0.017377 289434.000000 0 0 1
29.921540 32.992134 -32.777692 55.300602 0.834166 2.205226 0.044953 0.003577 -46217.500000 0 0 1
29.364240 31.698352 -32.764422 54.226852 0.823604 2.219571 0.030288 0.012941 -167386.000000 0 0 1
29.126540 31.282979 33.298376 54.182672 0.821080 0.908971 0.040653 0.005855 118337.000000 0 0 1
29.101140 29.758059 33.056419 53.152096 0.796559 0.899603 0.056069 -0.002760 363467.000000 0 0 1
30.374640 29.216759 33.373006 53.758677 0.765970 0.901043 0.062971 -0.001669 -202173.000000 0 0 1
30.409440 27.790499 33.380476 53.021713 0.740429 0.889806 0.059388 -0.002062 86015.200000 0 0 1
31.720950 27.095399 -33.571812 53.548537 0.706916 2.248418 0.091955 -0.010574 180386.000000 0 0 1
32.087580 27.235499 -32.165952 52.972008 0.703789 2.223360 0.093948 -0.015056 -215859.000000 0 0 1
33.183830 26.421669 -31.813892 53.022588 0.672433 2.214305 0.095338 -0.010565 141790.000000 0 0 1
33.745160 26.595259 -30.367842 52.614156 0.667455 2.186068 0.103948 -0.027656 479639.000000 0 0 1
34.719820 27.663359 -30.211782 53.698036 0.672762 2.168352 0.078845 -0.017593 479766.000000 0 0 1
34.279490 28.985319 -30.256402 54.135774 0.701910 2.163853 0.105457 -0.021606 -223528.000000 0 0 1
33.531360 29.457199 -29.001412 53.227442 0.720807 2.147016 0.115397 -0.011923 -194059.000000 0 0 1
34.345180 29.611519 -27.880562 53.233065 0.711519 2.122038 0.101254 -0.017694 -209491.000000 0 0 1
33.631640 29.984579 -26.692702 52.370435 0.728132 2.105621 0.102402 -0.010169 -4337.550000 0 0 1
34.536410 30.375619 -25.521022 52.600042 0.721387 2.077377 0.113432 -0.018014 -138825.000000 0 0 1
35.140380 31.664409 -25.645622 53.806868 0.733413 2.067606 0.099993 -0.017665 234107.000000 0 0 1
35.285330 32.308166 -24.363792 53.688606 0.741381 2.041819 0.099296 -0.024046 -524544.000000 0 0 1
35.510290 -33.819227 -24.454192 54.797156 -0.761011 2.033386 0.107668 -0.018643 -718222.000000 0 0 1
34.439580 -33.049387 -24.875292 53.824965 -0.764802 2.051216 0.104314 -0.009176 -397952.000000 0 0 1
34.684430 -31.702637 -24.647892 53.062091 -0.740513 2.053878 0.090719 -0.017098 -847713.000000 0 0 1
35.198970 -30.911087 -25.866762 53.512168 -0.720629 2.075309 0.086118 -0.026163 746541.000000 0 0 1
36.499120 -31.163047 -26.426872 54.787780 -0.706698 2.074131 0.104016 -0.030789 226983.000000 0 0 1
37.518590 -30.630977 -25.638872 54.801944 -0.684674 2.057648 0.107878 -0.026763 -963701.000000 0 0 1
-36.849524 -31.057407 -26.097892 54.804653 0.700309 2.067123 0.078302 -0.022765 -240050.000000 0 0 1
-36.413134 -32.413757 -25.790672 55.151852 0.727356 2.057404 0.073096 -0.020313 119548.000000 0 0 1
-36.273064 -32.837507 -24.451292 54.698288 0.735728 2.034229 0.087417 -0.011473 500514.000000 0 0 1
-35.088493 -32.232297 -23.576892 53.160071 0.742997 2.030305 0.073814 -0.014457 751164.000000 0 0 1
-35.313049 -30.851417 -23.449292 52.427957 0.718068 2.034504 0.032455 -0.010258 -205018.000000 0 0 1
-34.522333 -30.309997 -22.435892 51.125890 0.720517 2.025099 0.074969 -0.015246 -332688.000000 0 0 1
-34.204426 -28.799577 -22.645492 50.121619 0.699822 2.039590 0.081486 -0.002228 -800992.000000 0 0 1
-35.307167 -27.966867 -22.626892 50.405535 0.669906 2.036327 0.052441 0.014470 -815138.000000 0 0 1
-35.960704 -27.834347 -23.873692 51.360260 0.658698 2.054237 0.054201 0.002967 259876.000000 0 0 1
-37.238584 -26.953617 -23.727492 51.732036 0.626527 2.047285 0.050858 -0.000654 473806.000000 0 0 1
-36.906744 -25.609667 -23.459192 50.678363 0.606622 2.052064 0.043685 0.004375 -79781.700000 0 0 1
-37.722574 -24.766157 -24.260892 51.234227 0.580955 2.064089 0.048341 -0.005291 37004.100000 0 0 1
-37.130334 -24.279057 -25.577862 51.208997 0.579103 2.093795 0.059079 -0.014441 -236055.000000 0 0 1
-36.321924 -23.137857 -25.466272 50.031726 0.567198 2.104822 0.054766 -0.012508 -344784.000000 0 0 1
-36.139524 -22.590857 -26.716592 50.300978 0.558672 2.130735 0.058350 -0.028893 34949.900000 0 0 1
-35.018713 -21.515257 -26.736022 49.030923 0.550936 2.147530 0.072330 -0.039872 3507.120000 0 0 1
-35.204964 -20.332457 -25.960932 48.236587 0.523745 2.139096 0.080630 -0.033330 -5489.880000 0 0 1
-36.230874 -19.452457 -26.409632 48.872723 0.492732 2.141680 0.103056 -0.037099 931719.000000 0 0 1
-37.526394 -19.413157 -25.517132 49.358130 0.477407 2.114115 0.100977 -0.036052 643258.000000 0 0 1
-37.330084 -18.665157 -24.319292 48.304775 0.463650 2.098389 0.092588 -0.044047 -10747.000000 0 0 1
-36.604154 -19.425157 -23.318492 47.549479 0.487891 2.083350 0.072519 -0.037946 69051.000000 0 0 1
-37.170324 -20.764857 -22.719192 48.259445 0.509453 2.060962 0.068782 -0.027198 107966.000000 0 0 1
37.537470 -20.563557 -21.829692 48.046405 -0.501163 2.042434 0.070330 -0.022905 -176630.000000 0 0 1
37.036200 -21.718957 -21.207292 47.886767 -0.530378 2.029586 0.058368 -0.004554 67205.700000 0 0 1
35.938450 -21.329957 -20.181692 46.409481 -0.535636 2.020681 0.061853 -0.007208 652071.000000 0 0 1
34.655190 -21.014657 -20.735392 45.525317 -0.545107 2.043696 0.079826 -0.000653 496213.000000 0 0 1
33.645310 -21.023157 -19.737692 44.312036 -0.558489 2.032445 0.062662 -0.003898 35949.300000 0 0 1
32.339640 -20.463057 -20.309592 43.325149 -0.564156 2.058696 0.068157 -0.016998 -601303.000000 0 0 1
31.696310 -21.155057 -21.362392 43.686889 -0.588531 2.081726 0.068835 -0.011907 -344124.000000 0 0 1
30.475840 -20.634757 -21.764492 42.758194 -0.595181 2.104834 0.096750 -0.017978 -517812.000000 0 0 1
30.501940 -19.400757 -22.662092 42.665304 -0.566506 2.130765 0.087327 -0.022922 -556803.000000 0 0 1
30.938400 -18.210857 -22.070292 42.141639 -0.532007 2.122005 0.093243 -0.022138 82604.600000 0 0 1
30.751840 -17.123857 -22.960692 42.024939 -0.508080 2.148807 0.079633 -0.020392 -354706.000000 0 0 1
31.292550 -15.832257 -22.293692 41.555899 -0.468391 2.137051 0.069815 -0.024637 -428660.000000 0 0 1
30.574740 -15.456257 -21.138092 40.255801 -0.468057 2.123622 0.054482 -0.029744 185496.000000 0 0 1
31.383220 -14.855157 -20.149292 40.144441 -0.442099 2.096613 0.033941 -0.030113 -347116.000000 0 0 1
32.430630 -15.743657 -19.420092 40.948119 -0.451945 2.064921 0.056700 -0.030934 134279.000000 0 0 1
33.497540 -16.013857 -20.326892 42.328611 -0.445943 2.071698 0.054050 -0.035170 -304787.000000 0 0 1
34.294440 -17.038557 -19.740292 43.082481 -0.461110 2.046763 0.047858 -0.027129 235517.000000 0 0 1
35.437260 -17.502557 -20.707092 44.619755 -0.458758 2.053391 0.065824 -0.040993 295099.000000 0 0 1
36.345050 -16.437957 -20.891292 45.029048 -0.424744 2.053247 0.071427 -0.042171 790225.000000 0 0 1
37.468640 -16.889757 -21.694892 46.473984 -0.423494 2.056486 0.094562 -0.037113 678588.000000 0 0 1
-37.324624 -15.817957 -22.168092 46.203459 0.400849 2.071215 0.123113 -0.041091 209002.000000 0 0 1
-36.476884 -15.186857 -21.176092 44.828904 0.394514 2.062781 0.152376 -0.039726 845264.000000 0 0 1
-35.700367 -14.170657 -21.846992 44.188401 0.377860 2.087947 0.166141 -0.040273 446276.000000 0 0 1
-34.394922 -13.692457 -21.109192 42.615632 0.378863 2.089022 0.170957 -0.034546 1335200.000000 0 0 1
-33.231614 -14.548857 -21.154792 41.994460 0.412664 2.098733 0.176749 -0.043446 681519.000000 0 0 1
-33.282644 -15.831057 -20.552992 42.199316 0.443983 2.079500 0.158587 -0.046631 -590940.000000 0 0 1
-32.013954 -16.697757 -20.694592 41.616998 0.480760 2.091238 0.123886 -0.048426 8495.330000 0 0 1
-32.134004 -17.945257 -20.009592 41.892843 0.509308 2.068760 0.133677 -0.061339 -250575.000000 0 0 1
-31.055204 -18.765657 -20.364092 41.608555 0.543552 2.082222 0.129437 -0.060348 -394893.000000 0 0 1
-31.081024 -20.212457 -19.804492 42.033218 0.576597 2.061405 0.119222 -0.021453 -165109.000000 0 0 1
-32.131574 -21.013457 -20.316492 43.436889 0.579169 2.057511 0.109618 -0.028926 307149.000000 0 0 1
-32.125624 -22.279357 -19.663992 43.761834 0.606355 2.036824 0.088853 -0.006103 102064.000000 0 0 1
-33.223604 -23.181357 -20.269992 45.299622 0.609206 2.034725 0.063647 -0.017551 -80647.100000 0 0 1
-32.940414 -23.601757 -21.584792 45.913147 0.621713 2.060226 0.070044 -0.024433 96088.600000 0 0 1
-33.817544 -24.579457 -22.085492 47.281550 0.628504 2.056811 0.059883 -0.011998 -116326.000000 0 0 1
-33.443594 -24.845757 -23.612992 47.889028 0.638951 2.086420 0.062558 -0.013289 -286131.000000 0 0 1
-32.259014 -25.516207 -23.906092 47.573334 0.669216 2.097296 0.066713 -0.021433 -574506.000000 0 0 1
-32.208514 -25.823937 -25.285722 48.411072 0.675821 2.120357 0.064064 -0.016578 -549276.000000 0 0 1
-30.823414 -26.288517 -25.691982 47.971314 0.706161 2.135979 0.068715 -0.023941 -329133.000000 0 0 1
-29.884054 -25.248687 -25.906112 46.922058 0.701519 2.155688 0.077071 -0.035757 620668.000000 0 0 1
-28.539894 -25.721017 -26.043552 46.415115 0.733494 2.166511 0.068317 -0.030662 816515.000000 0 0 1
-27.423254 -24.675357 -26.065222 45.169724 0.732703 2.185909 0.077741 -0.042976 -189.504000 0 0 1
-27.581824 -23.693157 -27.090012 45.343042 0.709704 2.211109 0.093019 -0.045447 -450682.000000 0 0 1
-26.404984 -22.954457 -27.249502 44.347104 0.715606 2.232497 0.112052 -0.040708 -151118.000000 0 0 1
-26.237004 -22.125957 -28.527862 44.629332 0.700598 2.264277 0.090574 -0.034210 -10116.400000 0 0 1
-25.849694 -22.875657 -29.670852 45.517709 0.724437 2.280822 0.074380 -0.023900 10527.400000 0 0 1
-25.552124 -22.057857 -30.731732 45.649748 0.712136 2.309334 0.066244 -0.008997 -150408.000000 0 0 1
-25.142194 -22.877457 -31.977302 46.669646 0.738270 2.325653 0.060062 -0.029444 355680.000000 0 0 1
-26.218514 -23.655457 -32.506752 47.996667 0.734053 2.314843 0.031653 -0.029993 -12147.100000 0 0 1
-25.734874 -24.680057 -33.378092 48.841437 0.764478 2.323202 0.072501 -0.011861 144626.000000 0 0 1
-20.324224 -15.314957 -11.656892 27.991162 0.645758 2.000332 0.057143 -0.007263 -301512.000000 0 0 1
-20.796224 -14.912857 -10.408692 27.626385 0.622107 1.957099 0.076858 -0.016440 -406050.000000 0 0 1
-19.781324 -14.802257 -9.472492 26.460078 0.642409 1.936913 0.077949 -0.020629 -589625.000000 0 0 1
-20.200424 -14.085957 -8.158292 25.942804 0.608918 1.890697 0.118148 -0.038785 -634222.000000 0 0 1
-21.144224 -14.814757 -7.455992 26.872794 0.611164 1.851940 0.141700 -0.038271 26740.200000 0 0 1
-21.599824 -14.161657 -6.241692 26.571858 0.580328 1.807911 0.136216 -0.040968 -523848.000000 0 0 1
-22.705224 -14.981757 -5.580892 27.769167 0.583260 1.773149 0.143618 -0.037194 -720280.000000 0 0 1
-22.476024 -16.276257 -5.035592 28.203642 0.626758 1.750303 0.107352 -0.038188 251664.000000 0 0 1
-22.376524 -16.215057 -3.594192 27.866739 0.627076 1.700134 0.120682 -0.038823 -125235.000000 0 0 1
-22.190824 -17.608657 -2.951592 28.481738 0.670772 1.674614 0.088944 -0.025732 352333.000000 0 0 1
-23.389224 -18.390457 -2.974992 29.901761 0.666318 1.670453 0.093788 -0.021039 713898.000000 0 0 1
-23.331424 -19.309557 -1.908292 30.345608 0.691357 1.633723 0.085005 -0.022345 559613.000000 0 0 1
-24.593024 -20.250557 -1.858292 31.911677 0.688863 1.629062 0.106751 -0.040918 563757.000000 0 0 1
-24.559724 -21.073657 -2.993492 32.499847 0.709153 1.663035 0.099564 -0.039398 662422.000000 0 0 1
-25.650994 -22.027257 -2.968692 33.940930 0.709540 1.658375 0.115113 -0.035771 778541.000000 0 0 1
-25.447374 -23.153557 -4.073192 34.644581 0.738236 1.688640 0.123991 -0.040885 -625963.000000 0 0 1
-24.422024 -23.954557 -3.579292 34.395747 0.775735 1.675047 0.136233 -0.041047 -595390.000000 0 0 1
-23.898224 -24.795657 -4.614692 34.745433 0.803826 1.704004 0.131816 -0.040642 505519.000000 0 0 1
-22.463724 -24.428357 -5.098092 33.576094 0.827271 1.723223 0.105229 -0.030617 -29284.900000 0 0 1
-22.363824 -23.139957 -5.667392 32.675948 0.802453 1.745120 0.073617 -0.024258 47815.300000 0 0 1
-22.069024 -22.056757 -4.817792 31.571403 0.785120 1.723995 0.073475 -0.025184 -658777.000000 0 0 1
-22.019424 -20.662857 -5.512692 30.695252 0.753626 1.751370 0.070108 -0.011168 -257105.000000 0 0 1
-20.817424 -20.355257 -6.163492 29.760549 0.774174 1.779409 0.046449 -0.006930 -375542.000000 0 0 1
-20.828124 -19.158457 -6.968492 29.144761 0.743667 1.812234 0.037763 -0.013922 134251.000000 0 0 1
-19.640524 -18.925757 -7.940792 28.407581 0.766867 1.854102 0.053832 -0.017719 -232922.000000 0 0 1
-19.630424 -19.836557 -9.012592 29.326939 0.790621 1.883166 0.048050 -0.014872 -360465.000000 0 0 1
-18.501224 -19.768457 -9.828792 28.804381 0.818499 1.919017 0.099640 -0.016850 -430601.000000 0 0 1
-18.090524 -18.434157 -10.592092 27.915545 0.794806 1.959980 0.094415 -0.014237 -71553.500000 0 0 1
-17.641624 -17.361657 -9.766892 26.609138 0.777400 1.946632 0.108763 -0.014600 -687893.000000 0 0 1
-16.345524 -17.478457 -9.289992 25.670539 0.818881 1.941094 0.138047 -0.018073 -1125360.000000 0 0 1
-16.056024 -16.256957 -8.414392 24.349262 0.791616 1.923643 0.117620 -0.019400 -3121.890000 0 1 0
-16.827224 -16.247657 -7.221392 24.480407 0.767877 1.870238 0.109360 -0.020730 256150.000000 0 1 0
-16.708124 -14.978157 -6.524792 23.368344 0.730856 1.853773 0.109900 -0.023744 201675.000000 0 1 0
-17.669024 -15.084257 -5.279992 23.824516 0.706645 1.794272 0.134066 -0.033579 319828.000000 0 1 0
-17.810924 -13.930057 -4.482192 23.051368 0.663735 1.766487 0.104876 -0.025220 133704.000000 0 1 0
-18.382724 -14.373657 -3.283792 23.565014 0.663613 1.710602 0.089259 -0.012517 -153945.000000 0 1 0
-19.259124 -13.259257 -2.665792 23.533555 0.602943 1.684316 0.109864 -0.014530 858171.000000 0 1 0
-20.595424 -13.122157 -3.214892 24.631241 0.567281 1.701691 0.142869 -0.034711 1381540.000000 0 1 0
-21.201224 -11.981757 -2.621792 24.493432 0.514396 1.678042 0.145367 -0.021417 1563200.000000 0 1 0
-22.766224 -11.852257 -2.950492 25.835680 0.479997 1.685248 0.134518 -0.019940 1475000.000000 0 0 1
-23.055124 -11.426957 -4.222592 26.075743 0.460151 1.733448 0.169331 -0.041416 -109830.000000 0 0 1
-24.403924 -11.045657 -4.202492 27.114922 0.425029 1.726412 0.165133 -0.035041 -606400.000000 0 0 1
-24.960484 -10.799557 -5.611692 27.769539 0.408346 1.774278 0.180076 -0.049651 -259793.000000 0 0 1
-25.232894 -12.035157 -6.215492 28.638720 0.445049 1.789568 0.175912 -0.052695 294264.000000 0 0 1
-25.587354 -11.949157 -7.603192 29.245574 0.436896 1.833795 0.191017 -0.050835 756269.000000 0 0 1
-24.359024 -12.324057 -8.536492 28.602730 0.468383 1.873865 0.174996 -0.053119 828438.000000 0 0 1
-23.341824 -11.341957 -8.561792 27.327368 0.452310 1.889467 0.179324 -0.052876 -88409.700000 0 0 1
-22.396024 -11.530257 -9.563592 26.944221 0.475445 1.933647 0.143165 -0.049340 359210.000000 0 0 1
-21.140024 -10.589157 -9.261192 25.392923 0.464372 1.944124 0.150010 -0.051741 646299.000000 0 0 1
-21.232424 -9.355857 -9.857692 25.209562 0.415043 1.972547 0.145467 -0.049071 383344.000000 0 0 1
-20.167624 -8.548857 -9.417392 23.843307 0.400930 1.976832 0.145204 -0.040188 -213686.000000 0 1 0
-20.186524 -7.111057 -10.036792 23.638953 0.338693 2.009302 0.132808 -0.049511 -52356.300000 0 1 0
-19.871624 -7.225657 -11.428992 24.035670 0.348754 2.066330 0.136472 -0.040862 293066.000000 0 1 0
-19.441224 -6.023257 -11.992592 23.623359 0.300440 2.103261 0.120072 -0.054999 -349941.000000 0 1 0
-18.870924 -6.205157 -13.382692 23.952290 0.317684 2.163641 0.144426 -0.045648 544788.000000 0 1 0
-19.796124 -6.782457 -14.336392 25.365733 0.330081 2.171457 0.139369 -0.052798 854069.000000 0 0 1
-19.118624 -6.659857 -15.551292 25.528772 0.335199 2.225806 0.140894 -0.052900 51003.700000 0 0 1
-19.779724 -7.352157 -16.775792 26.957725 0.355876 2.242474 0.119060 -0.047316 254990.000000 0 0 1
-21.039324 -6.871157 -17.246692 28.059123 0.315666 2.232745 0.114757 -0.053452 634980.000000 0 0 1
-21.488824 -7.739357 -18.248592 29.234882 0.345695 2.244911 0.124205 -0.055370 570978.000000 0 0 1
-22.927424 -7.430757 -18.835392 30.588477 0.313417 2.234156 0.118613 -0.049135 365864.000000 0 0 1
-23.084124 -6.403157 -19.801392 31.080096 0.270581 2.261537 0.120255 -0.045889 741708.000000 0 0 1
-24.321624 -6.378657 -20.506292 32.445904 0.256486 2.254947 0.111415 -0.040727 844715.000000 0 0 1
-25.686244 -6.072557 -19.836892 33.017592 0.232150 2.215295 0.137713 -0.039750 114726.000000 0 0 1
-25.702324 -4.864857 -19.192192 32.444053 0.187064 2.203773 0.140403 -0.030580 -370177.000000 0 0 1
-27.021184 -4.689557 -18.779792 33.238787 0.171839 2.171225 0.155475 -0.026685 -651801.000000 0 0 1
-27.365654 -3.352557 -17.993592 32.922455 0.121902 2.149029 0.161920 -0.025779 29682.000000 0 0 1
-27.649254 -2.177757 -18.701892 33.451228 0.078601 2.164071 0.161666 -0.018788 731212.000000 0 0 1
-28.936864 -2.112357 -19.334892 34.866061 0.072870 2.158616 0.170743 -0.013637 531613.000000 0 0 1
-29.116374 -0.713857 -20.141492 35.411193 0.024512 2.175829 0.177174 -0.016104 165901.000000 0 0 1
-28.494634 -0.495657 -21.428792 35.656458 0.017393 2.215522 0.168982 -0.017973 214368.000000 0 0 1
-28.943124 -1.402357 -22.449892 36.656087 0.048414 2.229948 0.177954 -0.011927 -21658.900000 0 0 1
-28.177224 -1.327357 -23.794292 36.903742 0.047073 2.271514 0.182466 -0.022735 -461221.000000 0 0 1
-28.408544 -0.220357 -24.685592 37.636052 0.007757 2.286174 0.175028 -0.016599 40433.000000 0 0 1
-28.022724 1.047043 -24.248092 37.072083 -0.037347 2.283761 0.158159 -0.012589 855923.000000 0 0 1
-26.526144 1.262943 -23.785392 35.650754 -0.047575 2.301210 0.147478 -0.014528 234711.000000 0 0 1
-25.513184 0.960743 -24.666992 35.500790 -0.037639 2.338979 0.126037 -0.016130 -408168.000000 0 0 1
-24.235524 1.183343 -24.072992 34.179963 -0.048788 2.352235 0.096053 -0.013612 124720.000000 0 0 1
-23.159624 0.606943 -24.991692 34.078164 -0.026201 2.394053 0.079641 -0.009948 -509125.000000 0 0 1
-23.088724 1.199543 -26.319742 35.032227 -0.051907 2.420827 0.051374 -0.004155 444843.000000 0 0 1
-22.060524 0.505843 -27.026352 34.890490 -0.022926 2.456887 0.026103 -0.012177 150741.000000 0 0 1
-21.877824 0.966243 -28.495962 35.938735 -0.044137 2.486356 0.031659 0.002468 -317172.000000 0 0 1
-21.382624 2.267043 -28.649632 35.821188 -0.105628 2.497751 0.037839 -0.001242 177616.000000 0 0 1
-21.521824 2.915643 -29.933672 36.982626 -0.134654 2.513923 0.038013 -0.005972 -720586.000000 0 0 1
-20.819524 2.257843 -31.110292 37.502010 -0.108026 2.549122 0.027891 -0.005501 -519377.000000 0 0 1
-19.450224 2.609243 -31.047462 36.729610 -0.133354 2.577919 0.014819 -0.012032 -373472.000000 0 0 1
-18.779724 1.724843 -31.892972 37.051516 -0.091589 2.607584 0.017518 -0.008121 242385.000000 0 0 1
-17.257724 1.696643 -31.587482 36.034382 -0.097997 2.639532 0.022180 -0.025166 550650.000000 0 0 1
-16.423124 2.769043 -31.978482 36.055651 -0.167035 2.661431 0.037238 -0.018649 -230427.000000 0 0 1
-15.062424 2.490543 -32.118942 35.562703 -0.163865 2.697879 0.054301 -0.026652 -380908.000000 0 0 1
-14.207924 3.603743 -32.683382 35.819765 -0.248405 2.720004 0.080348 -0.024424 -519637.000000 0 0 1
-13.917324 4.604243 -31.689172 34.915535 -0.319494 2.708317 0.090867 -0.036779 22899.100000 0 0 1
-13.488624 5.785443 -32.293712 35.472499 -0.405180 2.715015 0.108333 -0.022299 -313000.000000 0 0 1
-13.082724 6.915043 -31.320722 34.640484 -0.486236 2.700218 0.113383 -0.025717 -389273.000000 0 0 1
-11.890824 6.852743 -30.584682 33.522747 -0.522815 2.719799 0.136512 -0.041722 -102135.000000 0 0 1
-11.941324 5.966943 -29.479952 32.361508 -0.463398 2.716395 0.140322 -0.048697 445674.000000 0 0 1
-10.569024 5.206343 -29.425462 31.696500 -0.457713 2.760747 0.156728 -0.066710 440138.000000 0 0 1
-10.274224 4.301443 -30.449282 32.422537 -0.396491 2.790913 0.140002 -0.064472 215651.000000 0 0 1
-11.017524 3.096443 -30.397932 32.480888 -0.273979 2.781520 0.141853 -0.059794 -162954.000000 0 0 1
-10.627424 2.283043 -31.662362 33.476254 -0.211609 2.810893 0.128442 -0.068947 -168335.000000 0 0 1
-11.380824 1.128643 -31.946052 33.931508 -0.098847 2.797810 0.132269 -0.065111 256034.000000 0 0 1
-10.993124 0.535543 -33.245402 35.019885 -0.048678 2.821891 0.116285 -0.052230 -174780.000000 0 0 1
-11.596624 1.253643 32.930982 34.935697 -0.107686 0.340413 0.118283 -0.044965 721151.000000 0 0 1
-12.965324 0.927843 32.640690 35.133676 -0.071442 0.378979 0.068397 -0.040172 331820.000000 0 0 1
-13.348724 1.221243 31.342355 34.088460 -0.091234 0.404138 0.073011 -0.031259 -1283370.000000 0 0 1
-14.801824 0.964543 31.113706 34.468639 -0.065072 0.444869 0.069811 -0.016656 -1297560.000000 0 0 1
-15.651824 1.972043 31.538680 35.264103 -0.125334 0.463806 0.070567 -0.011504 -373921.000000 0 0 1
-16.985624 1.741343 31.134046 35.508767 -0.102162 0.501632 0.064275 -0.005557 -177745.000000 0 0 1
-17.807124 2.959643 30.846156 35.739873 -0.164700 0.529472 0.057881 -0.010659 -685626.000000 0 0 1
-18.207624 3.690743 32.028023 37.026119 -0.199993 0.525623 0.047883 -0.019625 410990.000000 0 0 1
-17.227924 4.580543 32.580857 37.138861 -0.259867 0.500649 0.047325 -0.011004 -5358.730000 0 0 1
-17.682924 5.297743 -33.498822 38.248176 -0.291087 2.637945 0.033199 -0.005955 -165650.000000 0 0 1
-18.910224 5.970543 -33.571942 38.991272 -0.305826 2.608052 0.030220 -0.007408 -683053.000000 0 0 1
-19.868324 5.404443 -32.718502 38.658229 -0.265587 2.579896 0.026089 -0.000704 175527.000000 0 0 1
-21.309624 5.928643 -33.017992 39.742128 -0.271352 2.551350 0.023407 -0.005273 133949.000000 0 0 1
-21.662324 7.309043 -32.880552 40.047586 -0.325413 2.534022 0.033450 -0.012572 276727.000000 0 0 1
-21.086124 8.224043 33.527356 40.451739 -0.371875 0.593794 0.022038 -0.016688 -150879.000000 0 0 1
-21.007224 9.668343 -33.358762 40.590483 -0.431336 2.535424 0.031052 -0.005333 604521.000000 0 0 1
-19.966124 9.861043 -32.325402 39.253254 -0.458747 2.538365 0.031849 -0.007329 1317060.000000 0 0 1
-19.683224 11.244943 -32.003772 39.218867 -0.519046 2.525305 0.047167 -0.014051 94224.200000 0 0 1
-18.796124 11.948243 -33.052492 39.856267 -0.566240 2.548636 0.032887 -0.019039 -300393.000000 0 0 1
-19.514624 12.163943 33.114456 40.315621 -0.557394 0.606970 0.039293 -0.014952 197870.000000 0 0 1
-18.668924 12.388243 32.022441 39.082401 -0.585860 0.610508 0.050459 -0.014088 29172.600000 0 0 1
-19.372224 11.942643 30.702976 38.217569 -0.552451 0.637858 0.062053 -0.017118 150221.000000 0 0 1
-19.573024 10.546943 30.568886 37.799446 -0.494243 0.628836 0.052848 -0.016477 518162.000000 0 0 1
-18.429724 9.807243 30.122336 36.649583 -0.489030 0.606056 0.056304 -0.026506 501471.000000 0 0 1
-18.705724 8.277643 30.205586 36.480145 -0.416616 0.595264 0.051913 -0.009667 157598.000000 0 0 1
-19.648324 7.769343 29.289286 36.114840 -0.376552 0.624930 0.047400 -0.008387 78870.100000 0 0 1
-19.843824 6.417843 29.627726 36.232144 -0.312800 0.613359 0.049032 -0.012750 3769.620000 0 0 1
-20.544124 5.593843 28.522496 35.593327 -0.265840 0.641258 0.062922 -0.017965 783352.000000 0 0 1
-21.956524 5.821943 28.385246 36.355278 -0.259193 0.674893 0.076459 -0.022663 626102.000000 0 0 1
-22.524324 4.853243 27.510196 35.884677 -0.212222 0.697223 0.080008 -0.023636 -759293.000000 0 0 1
-23.972424 5.104243 27.190686 36.606883 -0.209789 0.733590 0.076924 -0.017266 -1158590.000000 0 0 1
-24.248124 6.084643 26.212196 36.222557 -0.245856 0.761730 0.079292 -0.026102 443992.000000 0 0 1
-25.585204 6.523043 25.971616 37.036167 -0.249636 0.793647 0.081606 -0.022192 -38698.300000 0 0 1
-25.816764 7.186143 24.619106 36.390196 -0.271480 0.827754 0.080710 -0.017178 -107360.000000 0 0 1
-25.899374 6.313943 23.521716 35.551577 -0.239123 0.847816 0.082124 -0.016035 766641.000000 0 0 1
-27.151314 5.619543 23.503866 36.348382 -0.204090 0.867641 0.090085 -0.016272 167160.000000 0 0 1
-27.284924 4.679043 22.324566 35.563279 -0.169836 0.892147 0.102510 -0.025269 -26579.500000 0 0 1
-27.794094 5.380743 21.195416 35.365375 -0.191227 0.928136 0.086684 -0.017414 42383.400000 0 0 1
-27.811414 4.588043 20.052516 34.592316 -0.163497 0.952459 0.109275 -0.021706 25424.900000 0 0 1
-28.542454 5.328243 18.892516 34.640858 -0.184554 0.993951 0.123898 -0.026818 990201.000000 0 0 1
-29.962214 5.465143 19.036516 35.916445 -0.180418 1.012169 0.127902 -0.027212 530927.000000 0 0 1
-30.629554 5.760543 17.845316 35.913908 -0.185900 1.050783 0.128397 -0.026827 87847.200000 0 0 1
-32.164004 5.850643 18.062116 37.349609 -0.179933 1.066038 0.129375 -0.029493 264604.000000 0 0 1
-32.610144 6.994943 18.815316 38.293170 -0.211300 1.057158 0.142639 -0.032300 458247.000000 0 0 1
-33.970403 6.799643 19.206116 39.611846 -0.197553 1.064596 0.140365 -0.027930 358931.000000 0 0 1
-34.474986 8.020143 19.981216 40.645989 -0.228571 1.056880 0.152239 -0.027548 -488567.000000 0 0 1
-33.874344 8.216643 21.228016 40.811924 -0.237966 1.023779 0.129243 -0.017773 -258828.000000 0 0 1
-34.309941 9.315343 22.000916 41.808947 -0.265115 1.016641 0.143214 -0.019915 83190.400000 0 0 1
0.426276 33.201043 12.169408 35.363618 1.557958 1.219493 0.162971 -0.050496 -146218.000000 0 0 1
-0.432424 33.328243 13.277108 35.878132 -1.557822 1.191721 0.181008 -0.050006 56350.800000 0 0 1
0.121576 -33.436362 14.227808 36.337799 -1.567160 1.168489 0.161421 -0.056076 -101228.000000 0 0 1
-0.364024 -33.807762 15.611208 37.239859 1.560029 1.138225 0.183375 -0.060645 198155.000000 0 0 1
-1.753224 -33.713362 15.858308 37.298130 1.518839 1.131639 0.167587 -0.053388 30153.800000 0 0 1
-1.931524 33.829243 17.274108 38.033449 -1.513762 1.099342 0.170126 -0.062209 -65641.600000 0 0 1
-3.343024 -33.441062 17.739108 38.002058 1.471160 1.085135 0.160594 -0.046176 -159988.000000 0 0 1
-4.341924 33.241543 17.580008 37.853787 -1.440914 1.087818 0.171674 -0.041133 -11869.800000 0 0 1
-5.228024 33.335343 18.680208 38.568478 -1.415232 1.065189 0.130611 -0.031211 202934.000000 0 0 1
-6.343924 32.256343 18.783208 37.861933 -1.376603 1.051698 0.123437 -0.031143 654753.000000 0 0 1
-7.407124 32.373243 17.837608 37.697117 -1.345864 1.077897 0.109807 -0.031168 1636.090000 0 0 1
-8.415524 31.441743 18.097508 37.241429 -1.309272 1.063345 0.086522 -0.030214 343408.000000 0 0 1
-9.607424 31.578343 17.077008 37.163403 -1.275453 1.093351 0.079006 -0.039901 227575.000000 0 0 1
-10.360024 32.752443 17.123208 38.383029 -1.264441 1.108378 0.080183 -0.032186 -309529.000000 0 0 1
-10.991724 32.956343 15.876008 38.196678 -1.248874 1.142152 0.077114 -0.035215 -472090.000000 0 0 1
-11.968724 -33.543262 15.825608 38.972435 1.228064 1.152645 0.086636 -0.034454 -283972.000000 0 0 1
-13.144724 -33.786362 16.561508 39.857065 1.199761 1.142279 0.079976 -0.029294 -90398.600000 0 0 1
-14.133424 -32.802562 16.357908 39.285404 1.163970 1.141329 0.071533 -0.028240 -373753.000000 0 0 1
-15.396224 -32.966162 17.161908 40.228630 1.133870 1.130056 0.089647 -0.026738 -519258.000000 0 0 1
-15.300924 -32.596962 18.508708 40.487683 1.131929 1.096015 0.080678 -0.018374 -387824.000000 0 0 1
-16.489124 -32.900662 19.177308 41.498361 1.106206 1.090410 0.085932 -0.027971 -176085.000000 0 0 1
-16.370424 -32.682262 20.705808 42.010136 1.106432 1.055404 0.084427 -0.036082 42564.500000 0 0 1
-16.250624 -31.315062 20.948808 41.031311 1.092112 1.034964 0.087480 -0.026354 111041.000000 0 0 1
-15.947624 -31.071462 22.314408 41.445088 1.096600 1.002248 0.088101 -0.028150 200012.000000 0 0 1
-15.972224 -29.570662 22.644708 40.525533 1.075557 0.977887 0.096069 -0.033683 21426.000000 0 0 1
-15.908724 -29.280962 24.030008 41.084103 1.073102 0.946042 0.104092 -0.052750 -141608.000000 0 0 1
-15.585224 -27.895462 24.330508 40.162540 1.061297 0.920024 0.094531 -0.019882 -313843.000000 0 0 1
-16.559624 -26.810462 23.873008 39.534068 1.017496 0.922463 0.104083 -0.020185 -45321.700000 0 0 1
-17.758024 -26.740362 24.625708 40.457631 0.984579 0.916402 0.110386 -0.021218 -97792.300000 0 0 1
-18.673024 -25.890562 24.008808 39.942783 0.945964 0.925945 0.099308 -0.015453 -1048550.000000 0 0 1
-19.733024 -25.346862 25.015508 40.714019 0.909291 0.909146 0.102886 -0.011042 589830.000000 0 0 1
-20.746624 -26.263662 25.445808 42.043924 0.902222 0.920755 0.123105 -0.016073 773727.000000 0 0 1
-21.532024 -26.963162 24.490008 42.313127 0.896927 0.953564 0.104358 -0.016930 -1014740.000000 0 0 1
-22.990124 -26.540262 24.331408 42.719419 0.856952 0.964822 0.071565 -0.008430 -455861.000000 0 0 1
-23.192924 -25.307862 23.673308 41.699222 0.828977 0.967068 0.083947 -0.005598 1422290.000000 0 0 1
-24.544124 -25.296462 23.121808 42.153802 0.800492 0.990214 0.077887 0.001574 1211900.000000 0 0 1
-25.082164 -23.914262 22.743508 41.452070 0.761566 0.990024 0.076260 0.012356 -97720.900000 0 0 1
-25.437734 -23.063962 23.835208 41.798826 0.736495 0.964003 0.065430 0.014346 289677.000000 0 0 1
-26.133874 -21.924862 23.331208 41.328250 0.698040 0.970928 0.050711 0.012947 227297.000000 0 0 1
-26.773644 -21.003562 24.404208 41.875327 0.665210 0.948648 0.052921 0.013951 446917.000000 0 0 1
-27.877924 -21.640362 25.060308 43.283981 0.660093 0.953326 0.037591 0.016823 338752.000000 0 0 1
-28.316114 -20.727662 26.043108 43.699906 0.631887 0.932344 0.031373 0.008006 -330478.000000 0 0 1
-29.682534 -21.126762 26.666908 45.149938 0.618573 0.938957 0.023446 0.005290 -241590.000000 0 0 1
-30.829444 -20.851662 25.921708 45.356162 0.594680 0.962446 0.023772 0.002190 -82272.600000 0 0 1
-31.207194 -21.837462 24.961008 45.539166 0.610563 0.990679 0.017508 0.009465 -335400.000000 0 0 1
-32.591624 -22.346562 25.464108 47.010676 0.601032 0.998378 0.029560 0.000665 79400.200000 0 0 1
-33.290774 -23.098462 24.487908 47.344189 0.606580 1.027183 0.015311 0.000326 181448.000000 0 0 1
-32.834044 -24.440062 24.370208 47.637151 0.639876 1.033774 0.011079 0.004593 -796682.000000 0 0 1
-33.203074 -25.103362 23.042608 47.577145 0.647365 1.065209 0.004098 0.014063 309147.000000 0 0 1
-34.577240 -25.433562 22.917308 48.658552 0.634194 1.080393 0.030589 0.004438 56943.100000 0 0 1
-34.865850 -25.777462 21.599608 48.442215 0.636639 1.108635 0.040472 0.010207 465204.000000 0 0 1
-36.241404 -26.476662 21.339308 49.697275 0.630946 1.126984 0.078087 -0.001109 523667.000000 0 0 1
-36.613914 -27.723662 22.033908 50.937936 0.648086 1.123462 0.068966 0.002323 170691.000000 0 0 1
-35.637050 -28.729062 21.948008 50.764884 0.678484 1.123703 0.034423 0.012802 -422483.000000 0 0 1
-35.935759 -29.815762 20.886508 51.152759 0.692588 1.150187 0.056472 0.004313 -81003.200000 0 0 1
-35.775594 -29.244462 19.619108 50.200011 0.685286 1.169275 0.051230 0.007411 239915.000000 0 0 1
-36.130934 -30.191362 18.660408 50.647543 0.696080 1.193470 0.058628 0.003313 -145109.000000 0 0 1
-36.492324 -29.620262 17.252508 50.066942 0.681825 1.218996 0.060072 0.000904 -71707.400000 0 0 1
-35.420961 -29.158662 16.455808 48.740801 0.688730 1.226410 0.057111 0.001300 31747.100000 0 0 1
-35.869579 -28.674062 15.189908 48.369018 0.674374 1.251349 0.065410 -0.009439 105934.000000 0 0 1
-36.573704 -29.592262 14.169308 49.133564 0.680273 1.278258 0.065223 -0.017962 -43847.000000 0 0 1
-35.805696 -30.678562 13.676008 49.094351 0.708432 1.288496 0.072130 -0.020569 -117018.000000 0 0 1
-36.480794 -31.632562 12.839108 49.963087 0.714339 1.310909 0.089165 -0.020660 30355.200000 0 0 1
-36.812284 -31.111162 11.426608 49.533989 0.701660 1.338018 0.094807 -0.025472 604296.000000 0 0 1
-37.865844 -30.127662 11.448708 49.724955 0.672078 1.338471 0.099366 -0.030762 427166.000000 0 0 1
37.805890 -29.476462 10.236208 49.019660 -0.662227 1.360430 0.092283 -0.017933 167953.000000 0 0 1
36.515370 -28.618462 10.298708 47.523173 -0.664746 1.352354 0.121671 -0.011048 152122.000000 0 0 1
36.376040 -27.727162 9.210608 46.656694 -0.651287 1.372079 0.143680 -0.050646 358638.000000 0 0 1
35.239750 -26.864462 9.277508 45.272635 -0.651348 1.364409 0.114541 -0.045392 248144.000000 0 0 1
35.219760 -25.690862 8.281108 44.373738 -0.630215 1.383074 0.102880 -0.049812 5581.690000 0 0 1
36.183410 -24.669662 8.395908 44.590612 -0.598403 1.381377 0.122140 -0.054216 -86538.200000 0 0 1
36.240720 -23.937662 7.209308 44.026987 -0.583734 1.406308 0.108803 -0.046412 40722.500000 0 0 1
36.907660 -22.540262 7.398308 43.874523 -0.548265 1.401363 0.115291 -0.047997 211637.000000 0 0 1
36.095780 -21.504662 8.066208 42.783403 -0.537301 1.381125 0.101914 -0.046460 145986.000000 0 0 1
36.668400 -20.244162 7.941208 42.631684 -0.504444 1.383427 0.107488 -0.031310 -56626.100000 0 0 1
35.925350 -19.152862 8.755308 41.642746 -0.489799 1.358968 0.085066 -0.017973 188247.000000 0 0 1
36.229480 -19.146762 10.148408 42.215683 -0.486176 1.328024 0.069071 -0.028311 -215021.000000 0 0 1
35.516290 -18.195862 10.908308 41.370127 -0.473458 1.303965 0.070349 -0.023499 -154665.000000 0 0 1
35.877530 -18.220362 12.364408 42.095812 -0.469907 1.272679 0.070881 -0.033113 -124176.000000 0 0 1
37.147100 -17.664862 12.595808 43.018703 -0.443887 1.273644 0.043151 -0.029966 38106.100000 0 0 1
37.607220 -17.907862 13.934208 43.922166 -0.444412 1.247970 0.057015 -0.021189 -121995.000000 0 0 1
-36.928274 -17.112162 14.333708 43.150652 0.433932 1.232184 0.079687 -0.026149 -136313.000000 0 0 1
-35.708210 -17.551162 13.800608 42.113850 0.456838 1.236931 0.070234 -0.022593 -83918.800000 0 0 1
-34.556800 -16.993262 14.368108 41.102140 0.457025 1.213683 0.081714 -0.025922 -698394.000000 0 0 1
-33.315204 -17.027262 13.521308 39.782613 0.472485 1.224007 0.089788 -0.023015 -866171.000000 0 0 1
-32.824024 -18.328462 13.332008 39.888489 0.509258 1.230006 0.086575 -0.028960 752216.000000 0 0 1
-31.672204 -18.304562 12.438008 38.637929 0.524039 1.243048 0.092609 -0.025054 721151.000000 0 0 1
-31.067324 -19.709862 12.306308 38.795651 0.565348 1.248012 0.069859 -0.020901 143911.000000 0 0 1
-31.772454 -20.657462 11.517408 39.608967 0.576494 1.275757 0.072715 -0.023033 -75255.800000 0 0 1
-30.781854 -21.413462 10.838308 39.032395 0.607802 1.289424 0.065199 -0.024240 -44815.200000 0 0 1
-31.397844 -22.337962 9.744608 39.746278 0.618369 1.323101 0.064382 -0.023496 98513.600000 0 0 1
-32.056954 -23.441162 10.303908 41.028124 0.631383 1.316936 0.063869 -0.014899 796685.000000 0 0 1
-33.451894 -23.070062 10.521008 41.975572 0.603745 1.317449 0.078121 -0.025091 777225.000000 0 0 1
-34.354269 -24.337362 10.530508 43.398325 0.616357 1.325702 0.109620 -0.031333 67083.000000 0 0 1
-34.617453 -24.874162 9.250508 43.619536 0.623063 1.357101 0.105593 -0.028944 172692.000000 0 0 1
-35.316508 -26.157662 9.358208 44.933897 0.637499 1.360994 0.118807 -0.028995 659191.000000 0 0 1
-35.554108 -26.755162 7.949908 45.201044 0.645112 1.393998 0.119578 -0.031592 -266905.000000 0 0 1
-34.381006 -27.264062 7.408708 44.500243 0.670457 1.403531 0.099206 -0.029440 -536143.000000 0 0 1
-34.592273 -27.889762 6.174608 44.861899 0.678536 1.432722 0.104696 -0.029868 -1099940.000000 0 0 1
-33.269184 -28.248462 5.600208 44.002007 0.703964 1.443179 0.105772 -0.019610 -804646.000000 0 0 1
-32.647854 -27.148962 4.933308 42.746767 0.693696 1.455131 0.111014 -0.010616 190501.000000 0 0 1
-31.370164 -27.479162 4.391008 41.934145 0.719376 1.465892 0.132022 -0.019793 557906.000000 0 0 1
-30.677034 -26.294562 3.677308 40.571012 0.708626 1.480033 0.108689 -0.016734 313662.000000 0 0 1
-31.226874 -25.903162 2.426008 40.644520 0.692481 1.511072 0.120839 -0.018749 237882.000000 0 0 1
-30.266704 -25.021062 1.853108 39.313623 0.690802 1.523642 0.124850 -0.031709 418535.000000 0 0 1
-30.656044 -24.478462 0.470908 39.232766 0.673818 1.558793 0.135988 -0.034610 -138625.000000 0 0 1
-30.530684 -25.483662 -0.521892 39.772002 0.695539 1.583919 0.137566 -0.041268 -181340.000000 0 0 1
-30.937774 -25.149662 -1.865992 39.914074 0.682564 1.617564 0.144469 -0.038049 566592.000000 0 0 1
-32.401764 -24.730162 -2.194692 40.819994 0.651918 1.624587 0.135977 -0.027332 267229.000000 0 0 1
-32.854434 -23.462562 -1.749092 40.409962 0.620151 1.614094 0.129185 -0.018779 -796932.000000 0 0 1
-34.154784 -23.221162 -2.165792 41.357736 0.597095 1.623188 0.131605 -0.011336 -519511.000000 0 0 1
-34.724173 -21.792962 -1.865092 41.038762 0.560468 1.616259 0.137244 -0.015526 61582.600000 0 0 1
-34.873082 -21.599262 -0.447292 41.022677 0.554539 1.581700 0.139490 -0.025251 661761.000000 0 0 1
-35.713875 -20.434262 -0.270392 41.147455 0.519702 1.577368 0.146599 -0.023878 239743.000000 0 0 1
-35.993804 -20.145062 1.177108 41.264550 0.510246 1.542267 0.147548 -0.026316 15056.200000 0 0 1
-36.879954 -21.025262 1.863808 42.493134 0.518144 1.526921 0.120255 -0.031662 238924.000000 0 0 1
-37.226014 -20.574662 3.121708 42.647836 0.504911 1.497533 0.113139 -0.029087 -1136650.000000 0 0 1
37.469930 -21.533862 3.680208 43.373342 -0.521607 1.485845 0.138499 -0.026671 -38066.300000 0 0 1
36.212810 -21.505362 3.065008 42.228456 -0.535893 1.498151 0.094736 -0.026289 -576514.000000 0 0 1
35.501030 -20.393462 3.534908 41.093941 -0.521419 1.484670 0.077863 -0.032571 -1457930.000000 0 0 1
34.210990 -20.039662 2.776008 39.745265 -0.529888 1.500894 0.061312 -0.020300 -416981.000000 0 0 1
33.181030 -20.878562 3.198408 39.333509 -0.561637 1.489391 0.060875 -0.022063 239237.000000 0 0 1
31.920550 -20.370662 2.676008 37.961117 -0.568012 1.500244 0.081214 -0.024127 1460900.000000 0 0 1
30.707140 -21.321362 2.936308 37.498678 -0.606921 1.492412 0.073086 -0.008606 249003.000000 0 0 1
30.476440 -22.336662 2.001008 37.838392 -0.632477 1.517889 0.054331 -0.022637 -879391.000000 0 0 1
29.321740 -23.038462 2.234208 37.356751 -0.665968 1.510953 0.049451 -0.014165 -778831.000000 0 0 1
29.001940 -24.078762 1.096908 37.710775 -0.692914 1.541705 0.045698 -0.010004 -216185.000000 0 0 1
28.538440 -23.668162 -0.126392 37.076144 -0.692379 1.574205 0.062306 -0.015175 -225698.000000 0 0 1
28.056340 -24.690562 -0.913792 37.384717 -0.721675 1.595242 0.055138 -0.007221 -777292.000000 0 0 1
27.070340 -24.163362 -1.922092 36.336838 -0.728719 1.623718 0.049869 -0.012910 -499122.000000 0 0 1
27.600540 -23.508762 -3.101792 36.387812 -0.705509 1.656143 0.068710 -0.034411 -126837.000000 0 0 1
28.162540 -24.289862 -4.126192 37.418599 -0.711700 1.681292 0.068447 -0.032897 -1238810.000000 0 0 1
27.229540 -25.064962 -5.081092 37.356628 -0.744030 1.707235 0.065802 -0.033984 -65844.000000 0 0 1
26.581440 -24.285062 -6.085992 36.515428 -0.740284 1.738247 0.068095 -0.049090 647174.000000 0 0 1
25.583940 -23.421362 -5.528092 35.123468 -0.741297 1.728844 0.096150 -0.047003 -831277.000000 0 0 1
25.076340 -22.440362 -6.613392 34.294747 -0.729980 1.764852 0.116824 -0.058062 -313133.000000 0 0 1
24.343040 -23.099362 -7.604492 34.409191 -0.759190 1.793638 0.117899 -0.071509 204954.000000 0 0 1
23.310940 -22.403562 -8.264892 33.371065 -0.765552 1.821067 0.113764 -0.067262 -205537.000000 0 0 1
23.605640 -21.089562 -9.113892 32.940232 -0.729163 1.851133 0.122532 -0.053898 -407947.000000 0 0 1
24.353540 -21.310362 -10.294892 33.958964 -0.718854 1.878800 0.126792 -0.053946 363340.000000 0 0 1
24.100240 -20.173662 -11.090292 33.328558 -0.696941 1.910021 0.122517 -0.052342 450397.000000 0 0 1
25.056340 -19.969262 -12.350092 34.338264 -0.672893 1.938700 0.104982 -0.048062 486345.000000 0 0 1
26.421840 -19.824262 -12.026292 35.153189 -0.643692 1.919959 0.132234 -0.049193 -119335.000000 0 0 1
27.210640 -19.485562 -13.130792 35.951687 -0.621450 1.944681 0.131172 -0.053661 -622988.000000 0 0 1
28.648640 -19.921462 -12.883292 37.196619 -0.607613 1.924481 0.093637 -0.050290 -665179.000000 0 0 1
28.811740 -21.288562 -13.320092 38.219682 -0.636349 1.926782 0.071769 -0.036340 -36696.200000 0 0 1
29.366140 -21.992662 -12.256392 38.681604 -0.642805 1.893206 0.104944 -0.045789 -324469.000000 0 0 1
29.713440 -23.424562 -12.701292 39.911420 -0.667596 1.894666 0.089470 -0.038545 -635779.000000 0 0 1
30.906880 -23.538462 -13.421892 41.102818 -0.650879 1.903441 0.067003 -0.032918 -102945.000000 0 0 1
31.162920 -24.823862 -13.796092 42.162589 -0.672654 1.904148 0.057024 -0.023243 -286605.000000 0 0 1
-3.354824 -8.820657 -27.289392 28.875072 1.207355 2.808650 0.087471 -0.024629 -9665.330000 0 0 1
-3.894224 -7.683157 -26.696992 28.052188 1.101682 2.829490 0.096921 -0.020168 88155.900000 0 0 1
-4.795824 -6.916657 -27.486542 28.746305 0.964532 2.844448 0.087394 -0.016802 96697.700000 0 0 1
-5.055324 -5.572657 -26.818342 27.853802 0.834036 2.868070 0.073128 -0.020657 52040.100000 0 0 1
-5.860924 -5.618457 -25.649942 26.904219 0.764279 2.835041 0.063948 -0.017562 299506.000000 0 0 1
-5.668124 -4.439557 -24.949492 25.967565 0.664444 2.860650 0.065164 -0.011537 187342.000000 0 0 1
-6.025524 -4.527557 -23.421892 24.604690 0.644394 2.830266 0.047167 -0.015755 -614779.000000 0 1 0
-5.186624 -5.398757 -22.733592 23.934575 0.805436 2.823464 0.048261 -0.018774 212691.000000 0 1 0
-5.413024 -5.257157 -21.365892 22.659212 0.770791 2.802098 0.037247 -0.017917 65456.100000 0 1 0
-4.732424 -6.403657 -20.565792 22.053446 0.934360 2.772190 0.037413 -0.020033 29728.800000 0 1 0
-5.503524 -7.597357 -20.653392 22.684162 0.943882 2.715231 0.041992 -0.017258 255117.000000 0 1 0
-4.762924 -8.639357 -20.142392 22.428551 1.066951 2.686156 0.044055 -0.016893 -691629.000000 0 1 0
-5.520224 -10.041157 -19.990092 23.041300 1.068138 2.621105 0.058713 -0.015559 779469.000000 0 1 0
-6.553024 -10.097457 -18.996992 22.489697 0.995140 2.576796 0.061403 -0.021507 1093790.000000 0 1 0
-7.799524 -9.516457 -19.421692 22.991252 0.884228 2.576881 0.057775 -0.019932 -461692.000000 0 1 0
-8.874024 -9.612157 -18.371892 22.553676 0.825306 2.522810 0.057892 -0.011494 -729305.000000 0 1 0
-9.393724 -10.954657 -18.309992 23.313137 0.861959 2.474128 0.077051 -0.016659 373184.000000 0 1 0
-10.225424 -11.007157 -17.124292 22.780654 0.822199 2.421437 0.093424 -0.016993 -192516.000000 0 1 0
-11.317724 -12.081957 -17.116592 23.812650 0.818047 2.372875 0.104008 -0.010328 10391.200000 0 1 0
-12.388724 -11.812257 -18.032292 24.863094 0.761583 2.382213 0.121933 -0.015867 371548.000000 0 1 0
-12.083524 -11.929657 -19.413992 25.792080 0.778991 2.422967 0.123447 -0.022013 -1515790.000000 0 0 1
-13.332024 -11.674857 -20.286392 26.936645 0.719226 2.423581 0.109354 -0.015848 414974.000000 0 0 1
-14.278624 -12.732857 -20.404192 27.970267 0.728234 2.388381 0.109693 -0.013887 120061.000000 0 0 1
-14.988924 -13.041657 -19.207592 27.634838 0.716040 2.339286 0.104365 -0.011384 -756505.000000 0 0 1
-16.205324 -13.959557 -19.495792 28.940762 0.711086 2.309926 0.108055 -0.009470 228286.000000 0 0 1
-15.859724 -15.254757 -19.871192 29.649667 0.765957 2.305274 0.122540 -0.008995 -438026.000000 0 0 1
-16.971824 -15.807257 -20.502792 30.956044 0.749885 2.294707 0.108173 -0.015173 -291071.000000 0 0 1
-16.807824 -17.348157 -20.837292 31.900694 0.801216 2.282589 0.086648 -0.009716 -20715.500000 0 0 1
-16.823124 -18.246057 -19.743592 31.713491 0.825951 2.242808 0.105914 -0.010479 22392.300000 0 0 1
-16.745424 -19.551857 -20.315592 32.793408 0.862563 2.238905 0.095765 -0.012592 -70929.100000 0 0 1
-17.311524 -20.760057 -19.560692 33.365993 0.875732 2.197214 0.098061 -0.016149 -5787.210000 0 0 1
-16.889724 -21.880557 -20.231992 34.254271 0.913422 2.202650 0.096671 -0.017722 238809.000000 0 0 1
-17.443024 -23.004757 -19.555092 34.869465 0.922045 2.166158 0.101537 -0.016167 225274.000000 0 0 1
-16.905724 -24.345557 -20.081492 35.801899 0.963834 2.166276 0.104559 -0.019323 261132.000000 0 0 1
-17.472324 -24.713957 -21.368292 37.049503 0.955400 2.185541 0.065345 -0.018653 324689.000000 0 0 1
-16.893124 -25.940017 -21.710292 37.810037 0.993551 2.182416 0.070411 -0.018043 -135178.000000 0 0 1
-17.071324 -26.306457 -23.217692 39.019495 0.995166 2.208097 0.072579 -0.024739 546721.000000 0 0 1
-18.395624 -26.649457 -23.635792 40.090438 0.966623 2.201313 0.086878 -0.021753 356959.000000 0 0 1
-18.674924 -28.016597 -23.431792 41.021109 0.982863 2.178779 0.093607 -0.024729 -316075.000000 0 0 1
-19.783624 -28.620777 -24.318692 42.449257 0.965979 2.180822 0.092388 -0.021799 -201535.000000 0 0 1
-19.539124 -28.727377 -25.735372 43.235968 0.973512 2.208349 0.090637 -0.021863 -36539.300000 0 0 1
-19.509324 -27.533837 -26.479032 42.893648 0.954350 2.236126 0.089809 -0.029283 932799.000000 0 0 1
-18.043324 -27.404187 -27.040962 42.517816 0.988528 2.260089 0.104817 -0.030790 857025.000000 0 0 1
-17.919824 -28.098567 -28.282842 43.710053 1.003082 2.274513 0.112499 -0.016462 445328.000000 0 0 1
-16.621324 -28.001757 -28.867422 43.516605 1.035110 2.296104 0.078573 -0.005983 354052.000000 0 0 1
-16.693424 -27.910937 -30.426662 44.536194 1.031778 2.322918 0.096230 -0.010779 25861.700000 0 0 1
-16.821424 -29.178037 -31.069862 45.821987 1.047828 2.315911 0.080087 -0.007827 237254.000000 0 0 1
-17.445624 -29.175637 -32.342682 46.921388 1.031884 2.331312 0.078868 -0.007677 69783.400000 0 0 1
-17.423724 -30.582047 -32.887672 48.171016 1.052926 2.322285 0.074177 -0.010130 371344.000000 0 0 1
-16.163324 -30.916057 -33.467882 48.344129 1.089065 2.335446 0.084405 -0.011074 373528.000000 0 0 1
-16.375624 -32.069507 33.133709 48.933190 1.098682 0.826953 0.078026 -0.014208 211753.000000 0 0 1
-15.089524 -32.570747 32.435830 48.380062 1.136950 0.835997 0.057065 -0.014685 598172.000000 0 0 1
-14.196224 -33.256567 33.332736 49.179298 1.167343 0.826057 0.076036 -0.014164 912303.000000 0 0 1
-13.074324 33.815869 32.637804 48.781935 -1.201866 0.837860 0.080488 -0.015205 690105.000000 0 0 1
-12.221424 32.859641 33.496766 48.488685 -1.214722 0.808179 0.088454 -0.015542 154500.000000 0 0 1
-11.267524 33.565118 -33.108322 48.474067 -1.246925 2.322673 0.095940 -0.021598 465233.000000 0 0 1
-10.401124 32.738495 -32.288212 47.143622 -1.263178 2.325250 0.097460 -0.025706 167240.000000 0 0 1
-9.581424 33.608632 -31.377902 46.967186 -1.293076 2.302424 0.087934 -0.030000 -489451.000000 0 0 1
-10.321224 -33.452987 -30.391442 46.360217 1.271533 2.285707 0.123729 -0.028755 -533130.000000 0 0 1
-9.474424 -32.560497 -29.718312 45.090229 1.287636 2.290398 0.128404 -0.032545 -443251.000000 0 0 1
-10.147824 -31.446157 -28.889502 43.891257 1.258642 2.289230 0.149720 -0.035853 78738.500000 0 0 1
-10.610224 -31.657197 -27.568102 43.298444 1.247403 2.261007 0.169801 -0.037897 218290.000000 0 0 1
-11.467224 -32.781137 -27.359862 44.211562 1.234289 2.238061 0.146600 -0.031572 -263199.000000 0 0 1
-11.942524 -32.878457 -25.922792 43.538580 1.222382 2.208558 0.151810 -0.029290 -207889.000000 0 0 1
-10.880124 -32.929167 -25.012592 42.759056 1.251679 2.195634 0.159007 -0.052851 -398014.000000 0 0 1
-11.241224 -33.500207 -23.763292 42.583131 1.247046 2.162824 0.159115 -0.058767 -484012.000000 0 0 1
-10.169024 -33.239087 -22.745792 41.540547 1.273903 2.150237 0.169810 -0.072587 -761739.000000 0 0 1
-9.023224 33.660413 -22.986792 41.747270 -1.308888 2.153901 0.136873 -0.058801 -901060.000000 0 0 1
-8.353324 33.632202 -21.782792 40.931565 -1.327350 2.131965 0.147763 -0.060505 -692759.000000 0 0 1
-7.506724 32.421153 -21.484492 39.611431 -1.343268 2.144065 0.142352 -0.048749 20686.300000 0 0 1
-6.244624 32.366649 -22.137092 39.707003 -1.380204 2.162181 0.118611 -0.057577 415583.000000 0 0 1
-5.458324 31.248049 -21.740392 38.456189 -1.397864 2.171628 0.101417 -0.042738 492354.000000 0 0 1
-3.964824 31.405269 -22.151692 38.635582 -1.445214 2.181385 0.104595 -0.052465 136821.000000 0 0 1
-3.866224 31.550099 -23.544592 39.556342 -1.448862 2.208332 0.107134 -0.050883 -247095.000000 0 0 1
-2.790424 30.836559 -24.092692 39.231845 -1.480551 2.232055 0.098063 -0.053334 -296296.000000 0 0 1
-2.595924 31.190399 -25.595862 40.431769 -1.487759 2.256300 0.094504 -0.017438 -251100.000000 0 0 1
-1.760024 32.310525 -25.839872 41.409741 -1.516378 2.244653 0.100111 -0.040513 282965.000000 0 0 1
-2.274324 33.601915 -25.515762 42.252992 -1.503215 2.219157 0.113871 -0.032617 -284328.000000 0 0 1
-1.416524 -33.044047 -26.255392 42.228677 1.527955 2.241763 0.029947 -0.006806 -231142.000000 0 0 1
-0.169224 -32.805417 -25.676722 41.659550 1.565638 2.234891 0.085573 -0.024821 -449684.000000 0 0 1
0.632476 -31.939047 -26.452212 41.475562 -1.550996 2.262407 0.053956 -0.007956 236619.000000 0 0 1
2.062776 -31.663737 -25.909882 40.965464 -1.505742 2.255549 0.084027 -0.001548 -45927.300000 0 0 1
2.082576 -30.974717 -24.630792 39.628855 -1.503663 2.241499 0.075821 0.000811 170203.000000 0 0 1
3.406576 -30.573797 -24.348192 39.232592 -1.459833 2.240318 0.065872 -0.002977 -130292.000000 0 0 1
3.534976 -29.673887 -23.130892 37.789864 -1.452228 2.229500 0.069003 -0.008673 -134122.000000 0 0 1
3.500476 -30.372757 -21.889792 37.602137 -1.456052 2.192157 0.082170 -0.008763 382174.000000 0 0 1
3.625876 -29.551537 -20.718492 36.272527 -1.448710 2.178751 0.081631 -0.005312 -94936.000000 0 0 1
3.757576 -30.362657 -19.336292 36.192575 -1.447666 2.134430 0.081818 -0.000035 -38711.600000 0 0 1
2.552876 -30.962547 -18.909792 36.369998 -1.488532 2.117563 0.093572 -0.008009 193543.000000 0 0 1
2.520276 -32.408387 -19.080392 37.692396 -1.493186 2.101585 0.095463 -0.003426 -354074.000000 0 0 1
3.248076 -33.312727 -18.064592 38.034422 -1.473601 2.065708 0.058038 -0.015044 -324539.000000 0 0 1
4.550076 -33.539337 -18.535292 38.589472 -1.435956 2.071816 0.060498 -0.002679 -215739.000000 0 0 1
5.206476 33.123479 -17.690992 37.910993 1.414888 2.056290 0.054832 -0.019741 466131.000000 0 0 1
6.299276 32.344366 -18.472292 37.776506 1.378448 2.081727 0.079764 -0.025998 849031.000000 0 0 1
7.518276 33.075614 -18.692092 38.728736 1.347288 2.074464 0.136902 -0.024807 -127189.000000 0 0 1
8.332876 32.298700 -19.492092 38.633981 1.318308 2.099637 0.110499 -0.030293 1195240.000000 0 0 1
9.824876 32.867403 -19.688592 39.552939 1.280326 2.091832 0.102638 -0.037155 1333180.000000 0 0 1
10.418076 32.959361 -18.438792 39.177095 1.264646 2.060826 0.087488 -0.028851 -42893.900000 0 0 1
11.687976 33.581026 -18.625192 40.139654 1.235857 2.053313 0.088095 -0.018025 392605.000000 0 0 1
12.568276 33.793539 -17.376192 40.023704 1.214734 2.019888 0.060903 -0.015306 -171109.000000 0 0 1
13.008076 32.534558 -16.882692 38.893865 1.190442 2.019803 0.064079 -0.017058 -150314.000000 0 0 1
13.704176 32.866702 -15.692492 38.913735 1.175753 1.985877 0.055173 -0.024727 -729126.000000 0 0 1
14.956376 32.039510 -15.465992 38.593008 1.134051 1.983127 0.054831 -0.019351 -437900.000000 0 0 1
14.744576 30.706399 -15.007092 37.222281 1.123131 1.985780 0.076452 -0.016501 820162.000000 0 0 1
15.999176 29.982609 -14.833192 37.080372 1.080620 1.982344 0.080901 -0.016374 1235150.000000 0 0 1
15.771876 28.692209 -14.040592 35.624895 1.068190 1.975910 0.094686 -0.018954 -52011.300000 0 0 1
15.596876 28.826889 -12.664292 35.137392 1.074848 1.939517 0.091556 -0.021767 -43880.600000 0 0 1
14.274076 28.914079 -12.153192 34.459734 1.112224 1.931228 0.111322 -0.025929 373921.000000 0 0 1
13.588376 27.569329 -11.700892 32.888033 1.112861 1.934544 0.125691 -0.023403 -176876.000000 0 0 1
13.174776 26.736569 -12.780492 32.430846 1.112956 1.975868 0.115088 -0.028174 134256.000000 0 0 1
12.700676 25.449139 -12.489192 31.063576 1.107900 1.984554 0.143215 -0.029571 821439.000000 0 0 1
11.644876 25.188889 -11.334892 29.976041 1.137759 1.958574 0.121585 -0.029852 34617.300000 0 0 1
10.424676 25.859139 -11.394892 30.119968 1.187592 1.958774 0.093736 -0.023579 -265295.000000 0 0 1
9.798576 25.990859 -10.129792 29.566019 1.210273 1.920496 0.068377 -0.010413 1040320.000000 0 0 1
8.608076 27.035069 -10.125992 30.125232 1.262542 1.913601 0.065665 -0.015773 1046120.000000 0 0 1
9.149476 28.360929 -10.287692 31.526049 1.258729 1.903208 0.065167 -0.020611 -302299.000000 0 0 1
8.150276 29.271519 -10.494492 32.146277 1.299238 1.903353 0.063534 -0.024619 -530821.000000 0 0 1
8.781376 30.666309 -10.766692 33.666849 1.291907 1.896316 0.083546 -0.030298 414710.000000 0 0 1
9.569776 31.201399 -9.652892 34.033604 1.273195 1.858372 0.074392 -0.027840 120059.000000 0 0 1
10.296776 32.338670 -9.967092 35.371684 1.262541 1.856447 0.081826 -0.033097 237110.000000 0 0 1
11.354676 32.431608 -11.120192 36.116430 1.234022 1.883780 0.066536 -0.032778 -822241.000000 0 0 1
12.669176 32.238910 -10.721592 36.260279 1.196358 1.870968 0.062591 -0.026123 -967444.000000 0 0 1
13.518676 32.734916 -11.734392 37.309854 1.179156 1.890739 0.076784 -0.026275 -480386.000000 0 0 1
15.000976 32.486536 -11.462592 37.573864 1.138206 1.880806 0.084267 -0.027236 -340813.000000 0 0 1
15.459276 33.181242 -10.338192 38.037642 1.134796 1.846047 0.081824 -0.024043 -160530.000000 0 0 1
16.788876 33.623746 -10.495492 39.020225 1.107696 1.843126 0.065916 -0.024784 122578.000000 0 0 1
17.354576 -33.156077 -9.355292 38.574969 -1.088588 1.815761 0.074573 -0.024967 150750.000000 0 0 1
17.389676 -33.788647 -8.101092 38.854873 -1.095489 1.780833 0.068035 -0.015659 127519.000000 0 0 1
17.931576 -32.813597 -7.201392 38.080620 -1.070669 1.761051 0.058947 -0.018221 -441814.000000 0 0 1
18.289476 -33.477957 -5.857792 38.595236 -1.070787 1.723160 0.062166 -0.008726 -112943.000000 0 0 1
19.320776 33.222199 -5.888792 38.880390 1.044044 1.722841 0.054557 -0.015651 -287986.000000 0 0 1
20.613476 33.784019 -5.772392 39.994947 1.022944 1.715630 0.062218 -0.022176 -224214.000000 0 0 1
21.668676 32.975075 -6.589092 40.003789 0.989430 1.736262 0.062101 -0.014904 183246.000000 0 0 1
21.978076 31.602799 -6.279592 39.002640 0.963133 1.732504 0.070582 -0.010738 -10290.700000 0 0 1
22.874076 31.531799 -5.186392 39.298554 0.943207 1.703157 0.064142 -0.014400 -447973.000000 0 0 1
23.284776 30.107269 -4.746192 38.355635 0.912491 1.694856 0.061255 -0.021678 248792.000000 0 0 1
24.219276 29.535389 -5.692392 38.617558 0.883973 1.718740 0.051743 -0.017361 238949.000000 0 0 1
24.501476 28.205529 -5.315892 37.737685 0.855559 1.712131 0.064894 -0.017097 -695914.000000 0 0 1
25.499876 27.527959 -6.197092 38.032040 0.823625 1.734470 0.039103 -0.007993 -830023.000000 0 0 1
26.819176 27.932539 -5.895492 39.169525 0.805730 1.721883 0.032515 -0.002482 -676459.000000 0 0 1
27.723876 27.250859 -6.698192 39.447286 0.776794 1.741424 0.012046 -0.001450 -656169.000000 0 0 1
28.595376 26.296399 -5.880192 39.290873 0.743541 1.721019 0.007950 -0.001145 -1004120.000000 0 0 1
29.648776 27.010599 -5.286292 40.454508 0.738870 1.701844 0.024893 -0.004920 -199019.000000 0 0 1
30.287276 26.077879 -4.389592 40.207503 0.710856 1.680188 0.027652 -0.008526 -211303.000000 0 0 1
31.631776 26.496669 -3.803192 41.437989 0.697286 1.662706 0.030249 -0.009118 -373272.000000 0 0 1
31.400676 27.554099 -2.884192 41.875402 0.720244 1.639726 0.053457 -0.018510 219970.000000 0 0 1
32.432176 27.604509 -1.922392 42.632740 0.705159 1.615904 0.057919 -0.025723 197458.000000 0 0 1
32.178176 28.777609 -0.932592 43.179341 0.729668 1.592396 0.072532 -0.012236 208624.000000 0 0 1
32.427576 30.027839 -1.584792 44.223640 0.746994 1.606640 0.049063 -0.000393 99772.300000 0 0 1
31.834276 31.096669 -0.843592 44.509949 0.773678 1.589750 0.081502 -0.005074 157990.000000 0 0 1
34.465280 22.282843 18.748616 45.120852 0.573932 1.142282 0.137162 -0.035711 135371.000000 0 0 1
34.726880 21.937643 20.137416 45.746387 0.563417 1.114978 0.143209 -0.036939 80925.800000 0 0 1
35.548350 22.938243 20.706616 47.102146 0.573042 1.115631 0.164203 -0.036237 87979.600000 0 0 1
35.525530 23.031743 22.256896 47.831934 0.575190 1.086806 0.125088 -0.016367 291449.000000 0 0 1
34.249240 23.462843 22.718226 47.324764 0.600630 1.070085 0.102298 -0.016873 463921.000000 0 0 1
34.201210 23.639143 24.149576 48.080494 0.604781 1.044570 0.105475 -0.013975 -214675.000000 0 0 1
32.910490 24.269943 24.682906 47.763756 0.635423 1.027722 0.079905 -0.016103 -23095.000000 0 0 1
32.918600 25.678643 24.432196 48.373124 0.662467 1.041324 0.060952 -0.012215 380652.000000 0 0 1
31.704520 26.227643 24.928596 48.109259 0.691139 1.026091 0.069581 -0.014407 247497.000000 0 0 1
31.698760 27.757943 25.131736 49.060361 0.719215 1.032980 0.046962 -0.003497 -144785.000000 0 0 1
31.754520 28.563443 23.935366 48.960408 0.732543 1.060000 0.040457 -0.007784 177177.000000 0 0 1
31.457980 29.917043 24.219316 49.711259 0.760297 1.061916 0.036993 -0.005494 -77427.100000 0 0 1
31.633630 30.814443 23.008846 49.795818 0.772281 1.090475 0.035564 -0.010235 942279.000000 0 0 1
33.011490 31.042143 22.659476 50.663843 0.754663 1.107106 0.031222 -0.015073 567995.000000 0 0 1
33.190890 31.911643 21.559916 50.841107 0.765751 1.132867 0.036550 -0.014625 -1493000.000000 0 0 1
34.600700 32.213743 21.244216 51.829050 0.749688 1.148463 0.035925 -0.028402 -1517450.000000 0 0 1
35.213130 33.057043 22.193516 53.153408 0.753827 1.140063 0.048800 -0.001294 -503639.000000 0 0 1
36.579750 33.164243 21.900916 54.014769 0.736465 1.153313 0.046438 0.005065 -354474.000000 0 0 1
37.147650 -33.242062 22.604086 54.735065 -0.729970 1.145081 0.052360 0.007221 -326761.000000 0 0 1
36.476030 -32.069562 22.280096 53.435571 -0.721201 1.140706 0.048381 0.008464 -170472.000000 0 0 1
36.881280 -31.001562 23.101996 53.432461 -0.698998 1.123689 0.063436 0.008363 -1046470.000000 0 0 1
35.953120 -29.774462 23.192596 52.125253 -0.691670 1.109689 0.069408 0.002912 3354.050000 0 0 1
34.621330 -30.086162 23.542416 51.556368 -0.715425 1.096588 0.071950 0.001316 499478.000000 0 0 1
33.800780 -30.423762 22.399816 50.693686 -0.732865 1.113119 0.076624 0.002882 -382199.000000 0 0 1
32.990910 -31.729862 22.582006 51.040487 -0.765916 1.112486 0.070729 0.003629 -24514.500000 0 0 1
31.876010 -31.692762 23.445486 50.697160 -0.782516 1.090027 0.082835 -0.012314 -3737.420000 0 0 1
31.406310 -33.008562 23.584566 51.304515 -0.810267 1.093142 0.080847 -0.008777 -931.538000 0 0 1
30.293840 -33.262462 24.631836 51.291671 -0.832073 1.069879 0.072070 -0.020347 100137.000000 0 0 1
30.149540 33.036543 24.949456 51.214093 0.831057 1.061962 0.075417 -0.023595 -50695.000000 0 0 1
29.299940 32.893643 26.069046 51.186653 0.843117 1.036432 0.081118 -0.014501 -605169.000000 0 0 1
28.719540 31.472543 26.134516 49.983456 0.831103 1.020590 0.073044 -0.012878 130641.000000 0 0 1
27.958340 31.119543 24.995896 48.732839 0.838856 1.032217 0.071420 -0.010559 205511.000000 0 0 1
26.628640 31.601843 24.883206 48.238314 0.870597 1.028810 0.082844 -0.017442 -116569.000000 0 0 1
26.058440 31.187143 23.480496 46.936275 0.874751 1.046893 0.116540 -0.032560 -84061.800000 0 0 1
26.320840 31.986843 22.372096 47.079247 0.882268 1.075604 0.114457 -0.039310 446532.000000 0 0 1
27.706840 32.062343 22.037716 47.763205 0.858142 1.091229 0.088438 -0.025434 329057.000000 0 0 1
28.068840 32.799043 20.734516 47.891097 0.862955 1.123032 0.108888 -0.039160 1869240.000000 0 0 1
29.508240 33.084543 20.628616 48.896452 0.842472 1.135274 0.100366 -0.037259 1819070.000000 0 0 1
29.654840 -33.727162 19.493716 48.958513 -0.849560 1.161277 0.087166 -0.042608 -349129.000000 0 0 1
31.096990 -33.495562 19.027216 49.507681 -0.822515 1.176316 0.098300 -0.046127 -188019.000000 0 0 1
31.663820 33.037843 18.398916 49.321564 0.806631 1.188513 0.091600 -0.044478 204716.000000 0 0 1
32.879570 33.428243 17.758916 50.138734 0.793673 1.208743 0.100083 -0.038419 -5242.810000 0 0 1
33.734900 32.331343 17.120116 49.764019 0.764157 1.219595 0.074541 -0.036934 -211813.000000 0 0 1
34.537980 31.670643 18.097016 50.233492 0.742118 1.202252 0.048131 -0.032416 172400.000000 0 0 1
35.368800 30.670543 17.513516 49.983572 0.714375 1.212814 0.066884 -0.035737 66037.600000 0 0 1
36.214900 29.954743 18.558616 50.529475 0.691071 1.194710 0.077030 -0.042492 -65263.000000 0 0 1
37.273090 30.754243 19.050916 51.942700 0.689863 1.195264 0.087227 -0.041502 263620.000000 0 0 1
-37.600234 30.017543 19.877116 52.056991 -0.673724 1.179017 0.116547 -0.040182 952521.000000 0 0 1
-36.453194 30.949343 20.445016 52.006691 -0.703922 1.166771 0.136565 -0.039285 409589.000000 0 0 1
-35.592647 31.441043 19.432416 51.312713 -0.723544 1.182399 0.139705 -0.041016 149848.000000 0 0 1
-34.352273 31.950943 19.878516 50.951907 -0.749197 1.170010 0.122921 -0.030877 275167.000000 0 0 1
-34.365786 33.314543 20.662016 52.132379 -0.769867 1.163272 0.100870 -0.018046 -428274.000000 0 0 1
-34.645526 33.214843 22.040816 52.814164 -0.764319 1.140294 0.102922 -0.020316 158352.000000 0 0 1
-34.388513 -33.190162 22.717676 52.917384 0.767667 1.127074 0.085234 -0.010077 -13162.000000 0 0 1
-34.408191 -33.482462 24.242276 53.783705 0.771763 1.103206 0.089151 -0.015407 -631107.000000 0 0 1
-35.639465 33.799143 24.763626 55.007188 -0.758901 1.103819 0.085052 -0.017441 -990588.000000 0 0 1
-35.690945 33.538043 26.143036 55.516685 -0.754310 1.080481 0.087086 -0.013547 898151.000000 0 0 1
-37.139514 33.418443 26.734576 56.664570 -0.732709 1.079461 0.073619 -0.021038 1127010.000000 0 0 1
-36.973704 32.678143 27.978366 56.724817 -0.723804 1.054998 0.092549 -0.028372 177400.000000 0 0 1
37.518440 32.561343 28.565366 57.304926 0.714781 1.048952 0.108735 -0.031844 95729.000000 0 0 1
37.422240 31.592843 29.773686 57.314956 0.701133 1.024560 0.106680 -0.023274 -140360.000000 0 0 1
37.440750 30.217243 29.454356 56.413214 0.679036 1.021464 0.095794 -0.018072 714060.000000 0 0 1
-37.280224 29.654843 28.636826 55.581406 -0.671965 1.029528 0.096395 -0.020490 209549.000000 0 0 1
-37.496924 28.165843 28.312766 54.780898 -0.644237 1.027645 0.100537 -0.014239 -1096990.000000 0 0 1
37.185400 28.150043 27.469746 54.127312 0.647978 1.038513 0.089344 -0.006570 -221639.000000 0 0 1
36.711760 26.896843 26.922796 52.877504 0.632304 1.036595 0.093238 -0.014739 225819.000000 0 0 1
36.556130 25.648243 27.835976 52.621522 0.611807 1.013393 0.078489 -0.014429 362575.000000 0 0 1
37.840010 25.113443 28.192086 53.454140 0.585928 1.015251 0.065967 -0.005700 770777.000000 0 0 1
37.526390 23.780843 28.569376 52.820145 0.564838 0.999313 0.065599 -0.002342 359045.000000 0 0 1
-37.805354 22.776643 27.511636 52.008753 -0.542235 1.013397 0.076307 -0.005651 131552.000000 0 0 1
37.200580 23.019143 26.328796 51.058492 0.554117 1.029019 0.078384 -0.003805 368145.000000 0 0 1
37.633510 22.201543 25.217186 50.448945 0.532990 1.047364 0.086764 -0.023862 -230660.000000 0 0 1
37.436040 20.646843 25.302526 49.678638 0.504012 1.036397 0.093761 -0.022059 -245570.000000 0 0 1
36.062890 20.336543 25.401466 48.573053 0.513467 1.020484 0.120488 -0.009998 61614.900000 0 0 1
35.891010 19.008143 25.698436 48.061250 0.487052 1.006642 0.119668 -0.001807 -406321.000000 0 0 1
35.741640 18.757143 27.209656 48.679160 0.483289 0.977666 0.099946 0.008569 12712.900000 0 0 1
34.527050 19.125743 27.843026 48.302643 0.505859 0.956445 0.094790 -0.006935 322307.000000 0 0 1
34.295300 20.520643 27.931406 48.758875 0.539206 0.960821 0.104826 -0.024086 -1173460.000000 0 0 1
33.273270 20.843343 29.057396 48.845550 0.559626 0.933676 0.108745 -0.018043 498965.000000 0 0 1
31.878630 20.705143 28.764296 47.669013 0.576023 0.923017 0.118521 -0.024616 877694.000000 0 0 1
31.407180 21.579343 27.700946 47.110736 0.602004 0.942217 0.112770 -0.011087 -824794.000000 0 0 1
31.178700 23.028443 28.178546 47.921300 0.636162 0.942191 0.115852 -0.015704 -412606.000000 0 0 1
32.403720 23.736343 28.231156 49.095960 0.632219 0.958168 0.101780 -0.026823 3975.180000 0 0 1
32.383300 25.010243 28.886566 50.086167 0.657633 0.956067 0.083324 -0.016975 -89051.300000 0 0 1
32.631400 25.040843 30.350006 51.117267 0.654535 0.935106 0.093460 -0.021332 -144900.000000 0 0 1
33.994370 24.705743 30.487946 51.918261 0.628461 0.943164 0.068958 -0.002083 37720.100000 0 0 1
34.532940 24.603643 31.835285 53.022152 0.619045 0.926777 0.086814 -0.002289 124283.000000 0 0 1
33.977070 23.526943 32.759006 52.736238 0.605631 0.900541 0.091692 -0.004313 -652673.000000 0 0 1
34.551540 23.573443 -33.357612 53.499967 0.598727 2.244017 0.104285 -0.017556 -27577.100000 0 0 1
34.227090 22.430543 -32.571822 52.302453 0.580123 2.243060 0.089374 -0.024510 9523.500000 0 0 1
34.784470 22.269843 -31.125322 51.717414 0.569472 2.216592 0.096006 -0.034764 500180.000000 0 0 1
33.956920 23.055543 -30.206612 50.961455 0.596468 2.205246 0.080684 -0.041451 670070.000000 0 0 1
34.324820 23.003843 -28.825192 50.381165 0.590432 2.179912 0.103495 -0.056886 -445633.000000 0 0 1
35.543760 23.768143 -28.348262 51.302120 0.589410 2.156247 0.096448 -0.025002 -312207.000000 0 0 1
35.928530 23.323843 -27.059352 50.666256 0.575794 2.134204 0.096307 -0.027620 -813672.000000 0 0 1
36.990150 24.064443 -26.555482 51.503032 0.576771 2.112516 0.095135 -0.011142 -294423.000000 0 0 1
37.781660 23.264943 -25.445712 51.148760 0.551937 2.091493 0.076867 -0.009434 -77403.300000 0 0 1
-37.281304 22.225743 -26.099412 50.646408 -0.537594 2.112184 0.050816 0.001220 39283.900000 0 0 1
-37.285524 21.099943 -25.226222 49.717001 -0.514970 2.102957 0.025865 -0.003117 -334065.000000 0 0 1
-36.411044 20.012243 -25.886242 48.952544 -0.502552 2.127986 0.032780 0.008288 -932796.000000 0 0 1
-35.079936 20.353943 -25.787262 48.061084 -0.525745 2.137142 0.027247 0.005517 -988407.000000 0 0 1
-34.245119 19.197243 -25.707722 46.927064 -0.510932 2.150556 0.007229 0.007147 1233200.000000 0 0 1
-32.859554 19.524843 -25.023392 45.685227 -0.536137 2.150451 0.026655 0.003721 757652.000000 0 0 1
-33.040374 19.680143 -23.623392 45.133569 -0.537207 2.121645 0.035076 0.005332 332184.000000 0 0 1
-31.805674 19.962943 -22.979292 44.024628 -0.560505 2.119949 0.062968 0.000101 -46190.600000 0 0 1
-31.919854 20.318643 -21.440492 43.490448 -0.566863 2.086323 0.051062 -0.010160 214506.000000 0 0 1
-32.454734 19.240343 -20.628892 43.000602 -0.535135 2.071149 0.024096 -0.003128 141234.000000 0 0 1
-32.903424 19.635043 -19.376592 42.937426 -0.538025 2.038990 0.022445 -0.000707 -550576.000000 0 0 1
-33.711024 18.499143 -18.638792 42.732377 -0.501888 2.022140 0.017567 0.002643 535170.000000 0 0 1
-34.520889 18.782543 -17.488492 43.015382 -0.498296 1.989486 0.018564 0.000823 546650.000000 0 0 1
-35.496413 19.797143 -17.727992 44.341898 -0.508753 1.982097 0.011997 0.001286 -845948.000000 0 0 1
-36.595474 19.659343 -16.645992 44.752738 -0.492968 1.951910 0.028284 -0.009001 -310631.000000 0 0 1
-36.259504 20.394343 -15.484292 44.389686 -0.512355 1.927115 0.036421 -0.007130 477747.000000 0 0 1
-37.224404 20.204343 -14.439492 44.747857 -0.497277 1.899362 0.044495 -0.007739 -159424.000000 0 0 1
-36.985754 21.062743 -13.140892 44.545126 -0.517678 1.870254 0.035776 -0.004329 -275032.000000 0 0 1
-37.220374 22.460743 -13.268092 45.451991 -0.542955 1.867024 0.055258 -0.007723 248170.000000 0 0 1
37.220650 22.832943 -13.562692 45.723809 0.550249 1.871950 0.056147 -0.005238 91018.900000 0 0 1
37.005150 24.238543 -14.115992 46.434355 0.579885 1.879684 0.069710 -0.011703 -79672.500000 0 0 1
37.278320 25.178343 -13.119092 46.858646 0.594035 1.854561 0.077553 -0.008196 -69525.700000 0 0 1
36.942070 26.525243 -13.453992 47.426943 0.622720 1.858424 0.093825 -0.002914 -57738.000000 0 0 1
-37.775444 27.293943 -14.269592 48.739766 -0.625688 1.867920 0.092013 0.001048 -24254.500000 0 0 1
-37.506924 26.828143 -15.575192 48.673455 -0.620911 1.896519 0.088447 0.002461 -373778.000000 0 0 1
-36.515584 27.637243 -16.106392 48.545041 -0.647878 1.908989 0.107917 -0.005116 -856306.000000 0 0 1
-36.232994 27.228143 -17.554792 48.604243 -0.644444 1.940327 0.107792 -0.013949 114829.000000 0 0 1
-35.572143 25.992543 -17.911592 47.558541 -0.631034 1.956943 0.094664 -0.014380 598113.000000 0 0 1
-34.179037 25.955043 -17.662392 46.409384 -0.649480 1.961218 0.090065 -0.010449 102654.000000 0 0 1
-33.436244 24.798543 -18.376692 45.504428 -0.638146 1.986511 0.069203 -0.006382 -254511.000000 0 0 1
-33.298014 25.026243 -19.784292 46.113868 -0.644514 2.014216 0.072976 -0.005860 765351.000000 0 0 1
-32.473734 23.973143 -20.360492 45.208458 -0.635927 2.037975 0.058734 -0.002309 264954.000000 0 0 1
-32.597394 23.960243 -21.884292 45.995713 -0.633855 2.066658 0.054865 -0.004425 -273206.000000 0 0 1
-33.805534 23.364243 -22.283992 46.746961 -0.604753 2.067686 0.061161 -0.003216 138063.000000 0 0 1
-33.780254 23.012243 -23.664792 47.230195 -0.598020 2.095610 0.046400 -0.001351 -65775.800000 0 0 1
-34.629860 24.032943 -24.510592 48.760422 -0.606684 2.097485 0.040868 0.002767 -201254.000000 0 0 1
-34.048896 25.332643 -24.730092 49.118709 -0.639655 2.098414 0.046643 -0.001244 406628.000000 0 0 1
-34.891634 26.067343 -25.642432 50.541734 -0.641639 2.102905 0.069239 -0.010367 165173.000000 0 0 1
-34.478307 27.524343 -26.073112 51.245979 -0.673709 2.104568 0.077531 -0.016008 635373.000000 0 0 1
-33.249644 27.583943 -26.815142 50.847464 -0.692532 2.126292 0.078734 -0.015486 253339.000000 0 0 1
-32.698894 28.857343 -26.914182 51.247801 -0.723072 2.123720 0.078087 -0.019363 1468320.000000 0 0 1
-31.228084 28.942043 -27.520322 50.697172 -0.747423 2.144608 0.086083 -0.021787 1263360.000000 0 0 1
-30.215544 28.345643 -26.724512 49.301665 -0.753478 2.143684 0.071917 -0.022044 596146.000000 0 0 1
-28.945704 28.189543 -27.375712 48.805059 -0.772164 2.166292 0.108269 -0.022919 735046.000000 0 0 1
-27.997514 29.364843 -27.196502 48.844698 -0.809230 2.161319 0.091562 -0.030229 -413151.000000 0 0 1
-27.256604 29.533343 -25.958512 47.843340 -0.825467 2.144294 0.068799 -0.028436 128142.000000 0 0 1
-28.004944 29.988443 -24.881892 47.986375 -0.819587 2.115915 0.076301 -0.018812 -412827.000000 0 0 1
-27.153214 30.451843 -23.685292 47.176317 -0.842599 2.096774 0.038315 -0.018647 148497.000000 0 0 1
-26.681994 31.810143 -23.626892 47.770745 -0.872847 2.088158 0.026861 -0.010665 239570.000000 0 0 1
-25.995714 32.129943 -22.426692 47.021984 -0.890543 2.067967 0.036398 0.007788 -88602.700000 0 0 1
-25.672224 33.632343 -22.392492 47.870882 -0.918825 2.057561 0.027225 0.029506 -205031.000000 0 0 1
-26.611794 -33.152962 -21.805992 47.778738 0.894413 2.044736 0.003844 0.018296 -157983.000000 0 0 1
-26.156044 -31.822362 -21.798092 46.604273 0.882820 2.057514 0.017296 0.025673 -113462.000000 0 0 1
17.586376 7.985843 -24.879992 31.497116 0.426252 2.481464 0.054154 -0.003178 -751128.000000 0 0 1
16.251976 7.719243 -25.132832 30.909103 0.443426 2.520290 0.042523 -0.003924 -785320.000000 0 0 1
16.011676 6.360143 -25.408982 30.699211 0.378107 2.545749 0.041491 -0.004748 574784.000000 0 0 1
14.547776 5.793943 -25.377002 29.819453 0.379014 2.588724 0.044649 -0.019343 736369.000000 0 0 1
13.921576 5.919543 -24.108492 28.461740 0.402045 2.581205 0.069174 -0.027989 969471.000000 0 0 1
12.810176 5.006443 -23.930892 27.601679 0.372566 2.619964 0.086574 -0.032217 984422.000000 0 0 1
11.957976 5.343543 -22.640192 26.155782 0.420240 2.617124 0.106007 -0.037230 -91566.500000 0 0 1
12.503576 4.725343 -21.511292 25.325954 0.361328 2.585601 0.091553 -0.025231 143646.000000 0 0 1
11.798176 4.911443 -20.278392 23.969406 0.394469 2.579256 0.121555 -0.030044 -105953.000000 0 1 0
11.702176 6.316343 -19.587192 23.674780 0.494946 2.545159 0.107273 -0.036027 -51946.100000 0 1 0
11.291876 6.187943 -18.221392 22.311796 0.501306 2.526415 0.104312 -0.037019 -186023.000000 0 1 0
11.385576 7.466743 -17.622092 22.269300 0.580447 2.483758 0.104626 -0.040312 321919.000000 0 1 0
12.841976 7.920143 -17.284892 22.943681 0.552637 2.423956 0.102098 -0.030227 393785.000000 0 1 0
13.426376 7.355243 -16.111792 22.225144 0.501168 2.381737 0.130672 -0.042180 926588.000000 0 1 0
14.687176 7.995743 -15.846192 23.037943 0.498536 2.329292 0.124550 -0.038222 388736.000000 0 1 0
15.285076 7.657943 -14.493392 22.412854 0.464454 2.273988 0.121742 -0.044628 -418678.000000 0 1 0
16.515676 8.306943 -14.327792 23.389281 0.466023 2.230116 0.104206 -0.044644 160297.000000 0 1 0
17.095976 8.109843 -13.025792 22.972009 0.442935 2.173691 0.096109 -0.045722 370841.000000 0 1 0
18.025276 9.318243 -12.712592 23.944732 0.477119 2.130475 0.144055 -0.048768 -244995.000000 0 1 0
17.214276 10.413943 -12.468392 23.669438 0.544058 2.125595 0.182133 -0.050665 58028.300000 0 1 0
17.920976 11.449143 -11.863992 24.351562 0.568510 2.079673 0.228877 -0.074660 -702781.000000 0 1 0
17.116076 12.725643 -11.517192 24.239384 0.639322 2.065924 0.237995 -0.070698 -1865220.000000 0 1 0
16.291076 12.512843 -10.444092 23.044510 0.654972 2.041164 0.256951 -0.057949 -249499.000000 0 1 0
15.444976 13.611343 -10.154392 22.954904 0.722376 2.029028 0.148513 -0.049371 73783.900000 0 1 0
14.266976 13.703143 -11.168092 22.716712 0.765243 2.084751 0.132891 -0.061175 -880698.000000 0 1 0
13.255776 14.684243 -10.944892 22.608256 0.836480 2.076143 0.161996 -0.061495 390154.000000 0 1 0
13.667576 15.979743 -11.334992 23.888007 0.863230 2.065199 0.203815 -0.055839 -59183.500000 0 1 0
13.238576 17.015443 -10.257692 23.874787 0.909594 2.014896 0.196748 -0.046929 444381.000000 0 1 0
13.871976 16.805543 -8.981492 23.569582 0.880734 1.961742 0.218252 -0.036955 253978.000000 0 1 0
13.036176 17.320143 -7.974792 23.098193 0.925595 1.923308 0.195946 -0.015858 -198875.000000 0 1 0
13.445776 17.195443 -6.520192 22.781243 0.907166 1.861064 0.177788 -0.014759 -115715.000000 0 1 0
14.386276 18.116243 -6.008192 23.901079 0.899658 1.824899 0.220414 -0.016880 88624.400000 0 1 0
14.848776 17.753743 -4.733292 23.623835 0.874266 1.772523 0.217863 -0.021766 64650.600000 0 1 0
16.208376 18.420743 -4.368392 24.922240 0.849199 1.746987 0.203155 -0.029840 126284.000000 0 1 0
17.314676 17.990443 -5.141492 25.492920 0.804537 1.773872 0.216087 -0.047520 36674.000000 0 0 1
18.060676 19.163143 -5.317692 26.864324 0.815007 1.770059 0.131507 -0.036201 -897754.000000 0 0 1
19.457676 19.155943 -5.958992 27.947466 0.777584 1.785667 0.136375 -0.015566 310689.000000 0 0 1
20.471276 18.603843 -5.110892 28.130007 0.737644 1.753499 0.125433 -0.027408 344229.000000 0 0 1
20.605176 17.190743 -5.266392 27.346477 0.695304 1.764587 0.172322 -0.046354 -86305.400000 0 0 1
21.852976 16.696943 -4.460192 27.860972 0.652438 1.731576 0.159814 -0.045153 -322248.000000 0 0 1
23.086776 17.073043 -4.949292 29.137321 0.636758 1.741485 0.110726 -0.040674 -136578.000000 0 0 1
24.112476 16.395243 -4.172692 29.455506 0.597141 1.712935 0.112149 -0.044516 520744.000000 0 0 1
25.571676 16.716243 -4.539992 30.886160 0.578973 1.718322 0.120140 -0.038263 -72469.900000 0 0 1
25.987576 17.978743 -4.129392 31.869126 0.605215 1.700735 0.109622 -0.036861 382532.000000 0 0 1
27.265876 17.891743 -3.503892 32.799691 0.580718 1.677828 0.082110 -0.024544 223280.000000 0 0 1
27.731776 19.216943 -2.804092 33.855653 0.605984 1.653716 0.093165 -0.018620 -187042.000000 0 0 1
28.095076 20.171543 -3.782292 34.792674 0.622688 1.679721 0.082729 -0.024240 368142.000000 0 0 1
28.187876 21.470543 -3.222792 35.579867 0.650944 1.661500 0.108816 -0.023725 -501058.000000 0 0 1
28.124876 22.625443 -4.290292 36.350047 0.677457 1.689099 0.072097 -0.022420 -234303.000000 0 0 1
29.342076 23.130943 -4.771192 37.666460 0.667578 1.697807 0.034228 -0.006824 -121779.000000 0 0 1
29.944976 22.301843 -5.732092 37.774736 0.640140 1.723129 0.029033 -0.003446 -189422.000000 0 0 1
30.759276 23.025043 -6.828292 39.024495 0.642576 1.746676 0.009961 0.001439 168160.000000 0 0 1
29.952476 23.826143 -7.735392 39.047051 0.671970 1.770220 -0.007148 0.008190 323148.000000 0 0 1
30.648076 24.821443 -8.419592 40.327387 0.680740 1.781125 0.002521 0.005116 -673332.000000 0 0 1
31.717876 24.363443 -9.427292 41.091055 0.655004 1.802283 0.010538 -0.003951 109.443000 0 0 1
31.162076 23.815243 -10.602092 40.628132 0.652551 1.834807 0.017157 0.003674 -2047.410000 0 0 1
32.187676 23.357843 -11.425192 41.378380 0.627752 1.850546 0.022905 -0.000818 -107618.000000 0 0 1
31.625176 22.609643 -12.666692 40.887563 0.620673 1.885772 0.040269 0.002237 69041.200000 0 0 1
31.503976 23.489643 -13.773892 41.641132 0.640685 1.907922 0.065850 -0.010149 107883.000000 0 0 1
31.350276 22.661043 -14.955792 41.473345 0.625887 1.939720 0.080430 -0.019737 -1328.250000 0 0 1
31.633976 23.444843 -16.270192 42.603852 0.637799 1.962642 0.087463 -0.018026 -436360.000000 0 0 1
32.961276 23.864943 -16.351392 43.856005 0.626672 1.952867 0.094713 -0.012013 -656123.000000 0 0 1
33.196376 24.678343 -17.451992 44.895345 0.639267 1.970045 0.116726 -0.013841 687955.000000 0 0 1
34.709976 25.063443 -17.529792 46.262860 0.625393 1.959422 0.109979 -0.013001 698176.000000 0 0 1
35.591076 24.036143 -17.903692 46.529593 0.593984 1.965767 0.108461 -0.011034 -107382.000000 0 0 1
36.943976 24.429043 -17.820692 47.741099 0.584240 1.953336 0.096944 -0.007755 243965.000000 0 0 1
-37.738589 23.351743 -17.702592 47.779564 -0.554111 1.950350 0.070795 -0.019808 114045.000000 0 0 1
-37.657789 22.507043 -18.842992 47.746564 -0.538707 1.976479 0.055888 -0.010085 511599.000000 0 0 1
-36.504889 22.752443 -19.654892 47.292657 -0.557355 1.999400 0.070783 0.005335 285519.000000 0 0 1
-36.580689 21.951743 -20.976392 47.539824 -0.540486 2.027774 0.060354 0.004217 841.538000 0 0 1
-36.301589 20.622143 -20.731992 46.614307 -0.516617 2.031698 0.045433 0.006786 146395.000000 0 0 1
-36.011189 19.878243 -21.885792 46.593328 -0.504379 2.059769 0.028256 0.012045 -49081.400000 0 0 1
-35.910189 18.354543 -21.683292 45.788602 -0.472507 2.064116 0.019470 0.006169 -44309.900000 0 0 1
-37.159189 17.702043 -21.615692 46.490922 -0.444577 2.054368 0.017784 0.000902 84952.000000 0 0 1
-37.008489 16.313543 -21.512892 45.810091 -0.415181 2.059646 0.014467 -0.004586 -155717.000000 0 0 1
37.443876 15.524743 -21.373192 45.824391 0.393041 2.056030 0.019125 -0.000876 309711.000000 0 0 1
36.765176 15.469043 -22.655292 45.871905 0.398268 2.087345 0.060843 0.008928 61204.800000 0 0 1
35.573076 14.725143 -22.589092 44.637883 0.392466 2.101398 0.088396 0.006010 -235232.000000 0 0 1
35.598376 13.316543 -23.210792 44.534431 0.357961 2.119038 0.053872 -0.005109 -252037.000000 0 0 1
35.577776 13.325343 -24.608592 45.265060 0.358368 2.145583 0.070211 -0.004266 87948.400000 0 0 1
36.290776 12.297643 -25.259112 45.894173 0.326720 2.153612 0.049766 -0.003578 -240227.000000 0 0 1
36.176576 12.567343 -26.788942 46.736818 0.334347 2.181186 0.057482 -0.010178 123566.000000 0 0 1
34.865176 12.350843 -27.282562 45.961527 0.340452 2.206316 0.066286 -0.011163 30068.400000 0 0 1
34.419576 13.358143 -28.163592 46.436355 0.370203 2.222446 0.081203 -0.013460 -206299.000000 0 0 1
34.981176 13.473343 -29.606102 47.767509 0.367648 2.239279 0.094114 -0.039278 -888295.000000 0 0 1
36.328776 13.770343 -29.733882 48.923471 0.362315 2.224037 0.089224 -0.025218 -759964.000000 0 0 1
36.781676 13.717243 -31.090032 50.076387 0.356961 2.240626 0.101106 -0.034374 358522.000000 0 0 1
-37.475189 14.032643 -31.264742 50.781778 -0.358290 2.234030 0.089262 -0.034233 1139400.000000 0 0 1
-36.578389 13.036343 -30.714822 49.510858 -0.342360 2.240005 0.089917 -0.027230 445807.000000 0 0 1
-36.423689 12.959643 -29.304562 48.511801 -0.341835 2.219396 0.065117 -0.022835 -397824.000000 0 0 1
-35.307089 12.017943 -28.785112 47.112675 -0.328082 2.228100 0.067665 -0.022643 10985.000000 0 0 1
-35.607089 10.671343 -29.095122 47.204539 -0.291179 2.234912 0.070827 -0.027824 -88761.400000 0 0 1
-34.527089 9.796143 -28.939782 46.104179 -0.276458 2.249397 0.076556 -0.029133 -289449.000000 0 0 1
-34.799189 8.401543 -29.583892 46.441104 -0.236896 2.261422 0.084149 -0.024355 -519306.000000 0 0 1
-34.765289 8.303843 -31.000452 47.313921 -0.234462 2.285254 0.094459 -0.027893 -2172.630000 0 0 1
-35.148689 7.088943 -31.591492 47.788135 -0.199015 2.293046 0.102708 -0.027416 349666.000000 0 0 1
-36.584589 6.476943 -31.362462 48.620849 -0.175225 2.271874 0.119498 -0.024998 582154.000000 0 0 1
-36.732189 5.903143 -30.088532 47.847890 -0.159345 2.250853 0.117196 -0.029823 572058.000000 0 0 1
37.673876 5.653243 -29.793562 48.362552 0.148946 2.234510 0.102160 -0.019184 442128.000000 0 0 1
37.490776 4.920843 -28.517432 47.360499 0.130509 2.216969 0.100286 -0.025293 -137807.000000 0 0 1
-37.627089 3.677043 -28.526632 47.361242 -0.097414 2.217201 0.111485 -0.021469 166161.000000 0 0 1
-37.740889 3.148443 -27.220962 46.639770 -0.083230 2.194004 0.109480 -0.019491 265395.000000 0 0 1
-36.933589 1.810243 -26.975492 45.771652 -0.048974 2.201050 0.143958 -0.025747 122299.000000 0 0 1
-35.544389 1.920843 -26.763552 44.535165 -0.053988 2.215490 0.140511 -0.023558 -14626.800000 0 0 1
-34.922889 0.640743 -26.793602 44.021766 -0.018345 2.225147 0.162454 -0.023442 -331808.000000 0 0 1
-33.692089 0.593543 -25.897332 42.499188 -0.017615 2.226050 0.158084 -0.026497 -705272.000000 0 0 1
-33.904189 0.799543 -24.549092 41.866350 -0.023578 2.197364 0.150693 -0.017406 529934.000000 0 0 1
-32.707189 0.787543 -23.758992 40.433527 -0.024074 2.198894 0.178139 -0.013558 437308.000000 0 0 1
-32.949489 0.439343 -22.267092 39.770407 -0.013333 2.165051 0.157962 -0.005256 -538856.000000 0 0 1
-33.214989 -0.993857 -22.175592 39.949720 0.029913 2.159265 0.173734 -0.016442 170656.000000 0 0 1
-33.512689 -1.328857 -20.832092 39.482176 0.039632 2.126608 0.170146 -0.016617 241804.000000 0 0 1
-34.958089 -0.960457 -20.380992 40.476849 0.027468 2.098467 0.164268 -0.015737 -240811.000000 0 0 1
-35.865089 -2.003757 -20.671892 41.444502 0.055811 2.092993 0.166639 -0.021583 429476.000000 0 0 1
-37.179089 -1.603657 -20.262892 42.372647 0.043107 2.069408 0.158606 -0.026662 1145180.000000 0 0 1
37.547176 -2.770157 -20.100492 42.678964 -0.073645 2.061186 0.160783 -0.038206 290954.000000 0 0 1
37.173476 -3.468357 -21.255192 42.961378 -0.093033 2.088345 0.138787 -0.032831 622221.000000 0 0 1
-37.757189 -4.592357 -21.588292 43.734991 0.121034 2.087039 0.127566 -0.025374 292161.000000 0 0 1
37.386476 -5.434857 -22.688992 44.068998 -0.144358 2.111631 0.112735 -0.027531 -434827.000000 0 0 1
36.373776 -6.333057 -22.333792 43.150405 -0.172382 2.114817 0.128686 -0.023171 153284.000000 0 0 1
35.843476 -7.028357 -23.454092 43.407914 -0.193628 2.141612 0.123999 -0.017715 459982.000000 0 0 1
34.442276 -6.534257 -23.921692 42.440714 -0.187488 2.169594 0.091747 -0.012895 -17977.400000 0 0 1
34.569476 -5.450357 -24.790092 42.887104 -0.156377 2.187110 0.087326 -0.012033 -629776.000000 0 0 1
33.340776 -4.950057 -25.166562 42.065024 -0.147392 2.212146 0.045625 -0.007476 -704966.000000 0 0 1
33.455876 -3.868257 -26.271002 42.713283 -0.115112 2.233252 0.075522 -0.038681 -32100.400000 0 0 1
33.581676 -4.312957 -27.569342 43.662331 -0.127733 2.254182 0.077448 -0.041067 -4620.660000 0 0 1
33.102576 -3.315057 -28.372862 43.724014 -0.099812 2.276945 0.075115 -0.040571 -195048.000000 0 0 1
32.823976 -3.799657 -29.831532 44.517087 -0.115246 2.305159 0.088469 -0.037596 -100296.000000 0 0 1
32.383876 -2.664057 -30.510362 44.572355 -0.082080 2.324732 0.088839 -0.053802 -252199.000000 0 0 1
31.795576 -2.942357 -31.742282 45.024311 -0.092277 2.353224 0.098541 -0.055821 -556374.000000 0 0 1
31.192576 -1.648657 -32.304392 44.936273 -0.052805 2.373005 0.100774 -0.056109 999.889000 0 0 1
30.100376 -1.036157 -31.558592 43.623972 -0.034410 2.379544 0.093221 -0.052565 1828590.000000 0 0 1
28.793576 -1.648457 -31.533422 42.733407 -0.057188 2.400765 0.093420 -0.058913 826324.000000 0 0 1
28.107576 -1.730257 -32.892282 43.300483 -0.061481 2.433538 0.096277 -0.055479 -1425180.000000 0 0 1
28.554376 -2.849457 -33.600712 44.186872 -0.099461 2.434760 0.104869 -0.055463 -263787.000000 0 0 1
27.850476 -3.150657 32.610460 43.000207 -0.112649 0.709973 0.090556 -0.050483 -648154.000000 0 0 1
28.297676 -4.514457 31.931143 42.903807 -0.158201 0.731386 0.079989 -0.048489 185403.000000 0 0 1
29.637876 -4.729057 31.511770 43.517345 -0.158227 0.761039 0.085079 -0.035674 67686.000000 0 0 1
30.074976 -4.091357 30.351526 42.923869 -0.135209 0.785406 0.098813 -0.034872 -260161.000000 0 0 1
30.621476 -2.689057 30.592936 43.368578 -0.087591 0.787785 0.079159 -0.028986 -1330880.000000 0 0 1
31.959076 -2.687757 30.974406 44.587222 -0.083903 0.802804 0.084199 -0.025481 -734875.000000 0 0 1
32.326776 -1.379157 31.294670 45.014208 -0.042637 0.802074 0.087376 -0.021545 647663.000000 0 0 1
33.843976 -1.306457 31.675527 46.373058 -0.038583 0.818854 0.090871 -0.025294 90178.600000 0 0 1
34.754676 -1.583257 30.685186 46.389383 -0.045524 0.848019 0.099190 -0.016671 -1198710.000000 0 0 1
36.028976 -1.245557 31.137046 47.635640 -0.034557 0.858399 0.096976 -0.013801 -894902.000000 0 0 1
37.092876 -1.821357 30.212546 47.874803 -0.049063 0.887859 0.101595 -0.011451 -501559.000000 0 0 1
37.170076 -1.263057 28.927216 47.116809 -0.033967 0.909745 0.106652 -0.005959 -191056.000000 0 0 1
-37.619989 -1.940257 28.203096 47.057867 0.051530 0.928135 0.096397 -0.004716 -91380.900000 0 0 1
-37.110889 -1.169757 26.968686 45.890048 0.031510 0.942607 0.108511 -0.007600 623629.000000 0 0 1
37.653876 -0.973057 25.950636 45.740537 -0.025836 0.967519 0.093496 -0.018023 443169.000000 0 0 1
-37.521089 -0.928557 24.673256 44.916188 0.024743 0.989249 0.114494 -0.022656 -148328.000000 0 0 1
-27.928064 14.854643 11.530008 33.668654 -0.488833 1.221267 0.128568 -0.025338 612690.000000 0 0 1
-29.169544 14.238543 11.906708 34.574096 -0.454107 1.219216 0.075207 -0.001165 801319.000000 0 0 1
-29.898734 15.150543 12.737308 35.856830 -0.469016 1.207640 0.098002 -0.014733 475281.000000 0 0 1
-31.284684 14.577143 13.138808 36.930378 -0.436040 1.207056 0.098580 -0.008639 322714.000000 0 0 1
-32.168034 15.419243 13.836108 38.261905 -0.446979 1.200796 0.098512 -0.019755 -154844.000000 0 0 1
-33.307154 14.689643 14.275108 39.101545 -0.415374 1.197080 0.116013 -0.026652 835069.000000 0 0 1
-34.381245 15.600143 14.988908 40.621446 -0.425960 1.192874 0.113113 -0.027561 538019.000000 0 0 1
-33.809374 16.069743 16.200708 40.789378 -0.443697 1.162355 0.101114 -0.018173 382495.000000 0 0 1
-34.846333 16.327743 17.122608 42.119424 -0.438184 1.152149 0.102638 -0.038299 -83226.800000 0 0 1
-34.367975 16.446543 18.586508 42.392273 -0.446335 1.116933 0.126154 -0.024199 -309522.000000 0 0 1
-33.779354 15.191843 18.938308 41.599235 -0.422636 1.098136 0.110419 -0.030951 -473393.000000 0 0 1
-32.504594 15.375743 19.486908 40.898676 -0.441842 1.074163 0.114386 -0.026334 -263975.000000 0 0 1
-32.525354 15.833543 20.987708 41.822047 -0.453037 1.045079 0.117446 -0.045063 -772715.000000 0 0 1
-32.941694 17.161843 21.169808 42.753302 -0.480288 1.052775 0.111569 -0.035265 21691.200000 0 0 1
-33.194734 17.526143 22.580908 43.805861 -0.485780 1.029232 0.100468 -0.043647 122420.000000 0 0 1
-34.143171 16.548743 23.409008 44.582493 -0.451322 1.017997 0.096585 -0.049006 1674090.000000 0 0 1
-35.515765 16.422643 22.940808 45.358058 -0.433121 1.040520 0.135060 -0.037247 1482300.000000 0 0 1
-36.434804 17.449643 23.265708 46.618432 -0.446648 1.048275 0.128896 -0.039295 392151.000000 0 0 1
37.866810 16.961343 23.063708 47.471224 0.421124 1.063465 0.087033 -0.049422 550027.000000 0 0 1
37.517270 16.219943 24.221308 47.511092 0.408065 1.035840 0.094811 -0.035471 308322.000000 0 0 1
36.360980 15.407743 23.946008 46.183663 0.400806 1.025706 0.120677 -0.036973 684028.000000 0 0 1
35.841530 14.629043 25.176708 46.178900 0.387520 0.994169 0.125480 -0.026857 -196212.000000 0 0 1
34.943540 15.432743 25.979708 46.197032 0.415887 0.973550 0.102519 -0.023112 458210.000000 0 0 1
34.485810 14.863943 27.152308 46.340649 0.406955 0.944771 0.106814 -0.015413 416154.000000 0 0 1
33.382710 13.774743 26.942608 45.056109 0.391348 0.929819 0.110698 -0.020313 -134130.000000 0 0 1
33.980710 12.588943 26.447408 44.862407 0.354796 0.940328 0.105133 -0.020338 -156577.000000 0 0 1
33.181630 11.505743 26.687708 44.109369 0.333777 0.920987 0.104196 -0.018360 -629812.000000 0 0 1
33.955760 10.256043 26.309208 44.162818 0.293329 0.932619 0.115052 -0.031743 -777739.000000 0 0 1
34.912800 9.970743 27.256708 45.400963 0.278185 0.926851 0.108348 -0.022583 -762882.000000 0 0 1
35.487330 8.736843 26.934608 45.399957 0.241395 0.935677 0.118317 -0.021488 827192.000000 0 0 1
36.667620 8.236543 27.899908 46.805554 0.220960 0.932185 0.121872 -0.027383 1206520.000000 0 0 1
37.888870 8.929043 27.774908 47.819868 0.231441 0.951056 0.123140 -0.031164 -319203.000000 0 0 1
-36.871464 8.272343 28.468508 47.311653 -0.220702 0.925140 0.129964 -0.034086 497494.000000 0 0 1
-35.500442 8.993943 28.622708 46.480446 -0.248127 0.907394 0.139159 -0.036916 815954.000000 0 0 1
-34.687278 9.162743 27.457108 45.178047 -0.258254 0.917568 0.135099 -0.032762 1364470.000000 0 0 1
-33.451294 9.859343 27.817808 44.609710 -0.286622 0.897480 0.124346 -0.029703 1540440.000000 0 0 1
-32.774054 10.571443 26.574508 43.498259 -0.312019 0.913558 0.120470 -0.029936 113421.000000 0 0 1
-32.224774 9.728943 25.611208 42.296837 -0.293207 0.920388 0.109287 -0.020004 -386371.000000 0 0 1
-31.447074 10.446643 24.719908 41.341561 -0.320728 0.929864 0.111210 -0.016402 -156146.000000 0 0 1
-30.718624 9.379543 23.829308 39.993070 -0.296346 0.932490 0.111826 -0.017145 -329186.000000 0 0 1
-29.889804 9.891943 22.838908 38.895587 -0.319601 0.943219 0.111169 -0.024479 -134504.000000 0 0 1
-29.025174 8.866443 22.376808 37.706712 -0.296471 0.935466 0.095553 -0.010264 -15752.200000 0 0 1
-27.799684 9.314843 21.548108 36.385570 -0.323313 0.936990 0.083757 -0.010749 -334434.000000 0 0 1
-26.739134 9.689843 22.487408 36.256832 -0.347665 0.901766 0.080179 -0.011639 720769.000000 0 0 1
-25.721224 10.413743 21.832208 35.308253 -0.384697 0.904178 0.076622 -0.000179 553879.000000 0 0 1
-24.796024 9.683443 20.783708 33.772391 -0.372311 0.907896 0.076898 -0.000634 -693654.000000 0 0 1
-25.438534 9.586943 19.523308 33.469211 -0.360406 0.947984 0.072010 -0.008442 148487.000000 0 0 1
-24.766224 8.801543 18.558008 32.175032 -0.341464 0.956011 0.089068 -0.023073 -179200.000000 0 0 1
-24.919124 7.277443 18.749508 32.022929 -0.284140 0.945296 0.087196 -0.014811 505999.000000 0 0 1
-23.838524 6.637043 19.493708 31.501274 -0.271540 0.903553 0.104586 -0.007554 959873.000000 0 0 1
-23.984124 5.241143 19.876308 31.587583 -0.215143 0.890216 0.127154 -0.018437 -364781.000000 0 0 1
-23.727224 4.234943 18.767608 30.547324 -0.176625 0.909199 0.113459 -0.033426 72380.900000 0 0 1
-24.892124 4.153143 17.943208 30.964902 -0.165323 0.952719 0.145814 -0.036807 705670.000000 0 0 1
-24.808024 3.412643 16.703908 30.101574 -0.136704 0.982532 0.139523 -0.033248 -239625.000000 0 0 1
-24.760224 1.851443 16.879208 30.023394 -0.074636 0.973750 0.136932 -0.027585 -298757.000000 0 0 1
-23.583224 1.317743 17.440708 29.361254 -0.055818 0.934769 0.112348 -0.025132 229219.000000 0 0 1
-23.744124 -0.007657 17.937508 29.757985 0.000322 0.923816 0.127956 -0.031548 -91214.700000 0 0 1
-22.411924 -0.799857 18.026108 28.772812 0.035674 0.893744 0.127674 -0.025592 408282.000000 0 0 1
-21.489124 -0.332157 19.014208 28.695521 0.015456 0.846486 0.116779 -0.024856 631447.000000 0 0 1
-20.465024 -1.303357 19.285908 28.150705 0.063601 0.816062 0.120108 -0.024977 126681.000000 0 0 1
-19.464324 -0.803057 20.306508 28.139991 0.041235 0.764650 0.122150 -0.019788 -205367.000000 0 0 1
-19.923824 -0.819057 21.635008 29.422835 0.041086 0.744667 0.118770 -0.027368 -421127.000000 0 0 1
-18.883524 -0.485057 22.512008 29.387298 0.025681 0.698130 0.114821 -0.032679 -762643.000000 0 0 1
-19.203324 -0.651257 24.050708 30.783573 0.033901 0.674076 0.107835 -0.026645 -66252.200000 0 0 1
-20.124124 0.253443 24.535808 31.734059 -0.012593 0.686973 0.108025 -0.037607 -1162600.000000 0 0 1
-21.453924 0.087343 24.187108 32.331017 -0.004071 0.725589 0.145586 -0.039142 -1281100.000000 0 0 1
-22.386524 0.978143 25.083008 33.634365 -0.043666 0.729128 0.119375 -0.038621 -185565.000000 0 0 1
-22.222924 2.344543 24.963908 33.504506 -0.105112 0.730125 0.112770 -0.039899 116699.000000 0 0 1
-23.214124 2.859443 24.086708 33.574417 -0.122560 0.770715 0.103791 -0.033531 -573068.000000 0 0 1
-22.790724 4.111043 23.272508 32.831805 -0.178463 0.782944 0.112517 -0.028035 198376.000000 0 0 1
-22.183624 3.794843 22.020108 31.486492 -0.169425 0.796307 0.126425 -0.029073 -210731.000000 0 0 1
-20.914324 3.235843 21.984608 30.515613 -0.153502 0.766363 0.111723 -0.025770 -1138720.000000 0 0 1
-20.403424 2.674343 20.667408 29.164938 -0.130330 0.783229 0.104385 -0.024823 -44295.600000 0 0 1
-19.698424 3.550143 19.793508 28.149856 -0.178311 0.790982 0.094483 -0.022293 268708.000000 0 0 1
-19.329924 2.787443 18.655508 27.008217 -0.143216 0.808292 0.101046 -0.027650 -30535.900000 0 0 1
-18.802224 3.561543 17.486408 25.922629 -0.187203 0.830426 0.076829 -0.019000 39537.500000 0 0 1
-17.431924 3.932443 17.452708 24.978653 -0.221875 0.797211 0.081129 -0.032917 283704.000000 0 1 0
-17.191124 4.572043 16.245008 24.090218 -0.259937 0.830725 0.086605 -0.035061 138116.000000 0 1 0
-15.690824 4.875443 15.998908 22.933316 -0.301262 0.798716 0.078526 -0.028608 463810.000000 0 1 0
-14.874524 5.686543 16.890308 23.213590 -0.365156 0.755973 0.063535 -0.035773 497402.000000 0 1 0
-15.319724 7.000043 17.244208 24.105129 -0.428602 0.773636 0.059242 -0.040770 -822803.000000 0 1 0
-14.996324 8.131143 16.143608 23.486620 -0.496842 0.812957 0.024022 -0.025241 -333827.000000 0 1 0
-15.599324 7.969543 14.908608 23.002590 -0.472322 0.865674 0.055709 -0.025789 228385.000000 0 1 0
-16.970724 8.324543 14.820608 24.019865 -0.456038 0.905853 0.063789 -0.011176 400119.000000 0 1 0
-17.646424 7.710343 13.546408 23.544657 -0.411936 0.957765 0.074829 -0.014734 70064.500000 0 1 0
-17.462824 6.299043 13.522108 22.966837 -0.346185 0.941264 0.067372 -0.016534 448517.000000 0 1 0
-18.181424 5.763543 12.414808 22.757638 -0.306981 0.993784 0.070024 -0.016314 304423.000000 0 1 0
-17.733024 4.318643 12.271808 21.993365 -0.238886 0.978849 0.068031 -0.024001 201529.000000 0 1 0
-18.200324 3.519743 13.338008 22.837313 -0.191031 0.947094 0.082018 -0.024078 252289.000000 0 1 0
-17.704124 2.179143 13.273208 22.234269 -0.122471 0.931076 0.064211 -0.030237 -8639.340000 0 1 0
-18.344624 1.224243 14.370008 23.334977 -0.066637 0.907378 0.070501 -0.033017 42482.300000 0 1 0
-19.688024 0.977143 14.048708 24.206183 -0.049591 0.951605 0.090662 -0.026206 38695.900000 0 1 0
-20.433824 0.264243 15.060808 25.385802 -0.012931 0.935673 0.108621 -0.033359 808642.000000 0 0 1
-21.949024 0.177043 14.676908 26.404595 -0.008066 0.981415 0.120436 -0.034312 349750.000000 0 0 1
-22.233324 -0.664257 13.612908 26.078213 0.029868 1.021599 0.137460 -0.035739 -102193.000000 0 0 1
-23.599824 -0.666857 13.287708 27.091689 0.028249 1.058165 0.169373 -0.040706 -101102.000000 0 0 1
-24.053324 -1.745557 12.248108 27.048577 0.072443 1.100872 0.184095 -0.046774 -74289.100000 0 0 1
-23.981424 -3.110357 12.613408 27.274184 0.128979 1.090021 0.162448 -0.035316 122050.000000 0 0 1
-24.333324 -3.879557 11.502008 27.192974 0.158103 1.134068 0.195686 -0.038031 -244560.000000 0 0 1
-24.410924 -5.343157 11.856208 27.658854 0.215485 1.127789 0.170118 -0.039294 -551184.000000 0 0 1
-25.416874 -5.875857 12.646108 28.990813 0.227188 1.119413 0.142683 -0.030172 -374479.000000 0 0 1
-25.177214 -7.213657 13.027608 29.251454 0.279040 1.109213 0.139416 -0.035840 438254.000000 0 0 1
-26.131334 -7.663957 14.240708 30.730777 0.285286 1.088966 0.129033 -0.023784 950400.000000 0 0 1
-27.477084 -7.326857 13.931808 31.666517 0.260590 1.115249 0.137784 -0.025687 392575.000000 0 0 1
-28.362194 -7.651357 14.994708 32.981792 0.263500 1.098833 0.134566 -0.012622 955547.000000 0 0 1
-29.864844 -7.168057 14.775308 34.082249 0.235561 1.122402 0.149777 -0.027486 1287190.000000 0 0 1
-30.730254 -7.786857 13.832808 34.588007 0.248170 1.159355 0.139214 -0.022354 614926.000000 0 0 1
-31.012114 -9.169057 13.956808 35.222370 0.287471 1.163369 0.145802 -0.028608 -439015.000000 0 0 1
-31.473364 -9.787257 15.341608 36.355577 0.301490 1.135160 0.138373 -0.026415 -113584.000000 0 0 1
-30.446344 -9.681757 16.319908 35.875559 0.307882 1.098533 0.142749 -0.010511 444507.000000 0 0 1
-30.826124 -10.375457 17.475708 36.922898 0.324670 1.077760 0.137756 -0.007870 -239068.000000 0 0 1
-29.639104 -10.450057 18.442508 36.439077 0.338968 1.040117 0.165724 -0.014141 -314838.000000 0 0 1
-28.709864 -11.386457 18.021208 35.758519 0.377576 1.042608 0.147871 -0.011905 -879712.000000 0 0 1
-27.494064 -11.265357 18.681208 35.097284 0.388873 1.009517 0.139794 -0.021187 -1206420.000000 0 0 1
-26.444464 -12.264457 18.299708 34.418104 0.434255 1.010203 0.108827 -0.009546 -670282.000000 0 0 1
-25.863274 -11.888857 17.060308 33.185961 0.430875 1.030859 0.098735 0.000199 -468671.000000 0 0 1
-24.892424 -12.795557 16.692808 32.588478 0.474812 1.033017 0.094092 -0.004989 -743182.000000 0 0 1
-24.462824 -12.634857 15.229708 31.464478 0.476754 1.065544 0.093751 0.002535 -986065.000000 0 0 1
-23.463824 -11.705457 15.124008 30.270520 0.462745 1.047627 0.101350 -0.005037 -851762.000000 0 0 1
-23.105124 -11.674657 13.752508 29.313408 0.467866 1.082464 0.095679 0.001243 5714.980000 0 0 1
-21.713624 -11.077157 13.473108 27.851562 0.471733 1.065865 0.132938 -0.019949 -656800.000000 0 0 1
-21.584324 -9.691857 13.736908 27.359053 0.422041 1.044774 0.151029 -0.031059 1061390.000000 0 0 1
-20.317724 -9.100257 13.325608 25.946029 0.421104 1.031433 0.163405 -0.042022 995087.000000 0 0 1
-19.818824 -9.258157 11.829108 24.868194 0.437015 1.075068 0.164193 -0.031475 -702009.000000 0 1 0
-19.089424 -10.388357 11.523208 24.598951 0.498375 1.083269 0.146059 -0.032785 91015.400000 0 1 0
-18.688024 -10.343057 10.132808 23.640958 0.505495 1.127840 0.147009 -0.029028 -786926.000000 0 1 0
-17.927024 -11.481357 9.520308 23.320292 0.569632 1.150270 0.093157 -0.022849 635385.000000 0 1 0
-16.514424 -11.461957 9.760208 22.346461 0.606726 1.118794 0.108777 -0.031545 990028.000000 0 1 0
-16.028624 -11.754757 11.070908 22.752057 0.632766 1.062615 0.113241 -0.025187 -905748.000000 0 1 0
-14.540424 -12.078457 11.130808 21.936453 0.693171 1.038618 0.099685 -0.021668 -346410.000000 0 1 0
-14.225424 -13.437457 10.828208 22.364660 0.756921 1.065387 0.101226 -0.024782 555005.000000 0 1 0
-12.819924 -13.660557 10.857208 21.652719 0.817133 1.045552 0.091640 -0.024695 451982.000000 0 1 0
-12.572424 -15.169057 10.649008 22.395703 0.878727 1.075272 0.099012 -0.027129 90673.000000 0 1 0
-12.944124 -15.669957 9.370108 22.380724 0.880373 1.138818 0.091264 -0.032173 12648.300000 0 1 0
-12.591124 -16.997357 9.401308 23.148027 0.933229 1.152572 0.095014 -0.036810 101082.000000 0 1 0
-13.016424 -17.998957 8.294808 23.710622 0.944684 1.213401 0.102771 -0.032354 -179040.000000 0 1 0
-12.259824 -17.815957 7.110108 22.765440 0.968076 1.253162 0.083782 -0.032499 -167375.000000 0 1 0
-12.513424 -18.771157 6.104208 23.370996 0.982819 1.306544 0.065399 -0.027283 -474578.000000 0 1 0
-11.649324 -18.606557 4.880908 22.488530 1.011416 1.352015 0.063768 -0.019855 -530300.000000 0 1 0
-11.971624 -19.463457 3.761708 23.158074 1.019361 1.407637 0.081989 -0.028545 -243820.000000 0 1 0
-11.289624 -19.204357 2.574408 22.425221 1.039345 1.455743 0.094183 -0.033324 -229053.000000 0 1 0
-11.752924 -20.072457 1.401108 23.302315 1.041088 1.510633 0.111836 -0.035914 53315.700000 0 1 0
-11.259424 -21.435957 1.591408 24.265355 1.087146 1.505166 0.081843 -0.041848 -44903.400000 0 1 0
-11.654524 -22.362957 0.556208 25.223781 1.090370 1.548744 0.096703 -0.041577 -19859.600000 0 0 1
-10.828524 -22.273857 -0.753592 24.778005 1.118287 1.601215 0.114542 -0.039568 20562.700000 0 1 0
-11.051224 -21.082657 -1.539692 23.853273 1.087988 1.635390 0.126319 -0.054002 1858240.000000 0 1 0
-12.289324 -21.272657 -2.355192 24.679959 1.046931 1.666371 0.142860 -0.045527 1299030.000000 0 1 0
-13.346124 -20.219457 -2.270792 24.333146 0.987379 1.664253 0.152446 -0.044219 -570218.000000 0 1 0
-14.161424 -20.287557 -1.117192 24.766490 0.961390 1.615921 0.143694 -0.042830 646664.000000 0 1 0
-15.360824 -19.525457 -1.352892 24.880288 0.904213 1.625199 0.157183 -0.024117 524753.000000 0 1 0
27.111776 -19.280357 -4.093992 33.519268 -0.618166 1.693241 0.126373 -0.036199 444314.000000 0 0 1
25.851176 -19.552657 -3.480892 32.599176 -0.647556 1.677779 0.113245 -0.030288 502972.000000 0 0 1
25.883376 -20.736957 -2.725892 33.277635 -0.675453 1.652802 0.097766 -0.029630 281497.000000 0 0 1
24.579276 -20.994257 -1.883192 32.379716 -0.706895 1.628989 0.076872 -0.023730 98888.500000 0 0 1
23.575376 -21.407957 -2.762392 31.964508 -0.737253 1.657325 0.081499 -0.028302 -829666.000000 0 0 1
22.410576 -21.664157 -2.004792 31.234417 -0.768464 1.635026 0.049734 -0.018812 -114864.000000 0 0 1
21.488276 -22.579757 -2.843692 31.299808 -0.810161 1.661775 0.067943 -0.029149 -319641.000000 0 0 1
20.889876 -21.876257 -3.873492 30.495269 -0.808459 1.698160 0.090515 -0.036685 -127753.000000 0 0 1
19.938376 -22.747757 -4.522392 30.585148 -0.851118 1.719203 0.102437 -0.036614 461102.000000 0 0 1
18.933876 -22.052457 -5.511792 29.583481 -0.861340 1.758205 0.091219 -0.015520 1201210.000000 0 0 1
17.835576 -21.407657 -4.792992 28.273102 -0.876172 1.741144 0.081448 -0.015627 1192530.000000 0 0 1
18.268376 -20.183357 -4.175692 27.541566 -0.835159 1.722997 0.078049 -0.027185 -121159.000000 0 0 1
17.190176 -19.685957 -3.183992 26.328252 -0.852975 1.692027 0.103717 -0.012860 171751.000000 0 0 1
16.968176 -20.390557 -2.003192 26.602755 -0.876752 1.646168 0.111961 -0.025456 67331.100000 0 0 1
15.862776 -19.780657 -1.373292 25.392675 -0.894877 1.624905 0.119685 -0.020243 -85167.700000 0 0 1
15.579176 -20.452057 -0.023292 25.709879 -0.919823 1.571702 0.116581 -0.025887 -224549.000000 0 0 1
14.902376 -21.680257 -0.006192 26.308067 -0.968597 1.571032 0.137683 -0.037603 -45507.900000 0 0 1
14.261376 -21.856857 1.243208 26.127660 -0.992673 1.523196 0.124538 -0.031265 -8343.800000 0 0 1
13.402576 -23.130857 1.459908 26.773063 -1.045644 1.516240 0.137061 -0.039874 105964.000000 0 0 1
14.048476 -24.408757 1.557608 28.205908 -1.048548 1.515545 0.112633 -0.029687 -257921.000000 0 0 1
13.134576 -25.424917 1.328008 28.647986 -1.093955 1.524424 0.088549 -0.026840 -117278.000000 0 0 1
13.605476 -26.772767 1.972808 30.096212 -1.100623 1.505199 0.088568 -0.024365 110543.000000 0 0 1
13.288076 -26.826007 3.356908 30.124349 -1.110881 1.459129 0.106240 -0.029648 9786.710000 0 0 1
13.665476 -28.006947 3.983508 31.416598 -1.116850 1.443658 0.100420 -0.021726 -273409.000000 0 0 1
12.910176 -28.229257 5.301208 31.490735 -1.141861 1.401649 0.105424 -0.022240 -201950.000000 0 0 1
13.234176 -29.422467 5.969408 32.809431 -1.148110 1.387835 0.090338 -0.024063 -181647.000000 0 0 1
12.829976 -29.466587 7.321408 32.961963 -1.160143 1.346811 0.093198 -0.028647 -319671.000000 0 0 1
13.511176 -30.643107 8.042308 34.441698 -1.155518 1.335116 0.086380 -0.022690 -127063.000000 0 0 1
13.092176 -31.055387 9.326408 34.968900 -1.171830 1.300823 0.080093 -0.023987 -537919.000000 0 0 1
11.994276 -31.932497 9.256008 35.344316 -1.211488 1.305826 0.077464 -0.019907 68095.300000 0 0 1
11.581776 -32.297887 10.717508 35.946571 -1.226487 1.268041 0.066495 -0.014622 -916023.000000 0 0 1
12.657276 -32.932447 11.289608 37.043325 -1.203862 1.261102 0.049530 -0.021703 -596657.000000 0 0 1
12.668576 -33.276707 12.704608 37.805279 -1.207034 1.228072 0.058305 -0.009786 -29670.000000 0 0 1
11.764476 33.144960 13.040508 37.510613 1.229727 1.215734 0.054676 -0.007715 268614.000000 0 0 1
12.138176 31.962818 12.355908 36.354167 1.207860 1.224011 0.057195 -0.020612 215394.000000 0 0 1
11.215076 30.933139 12.683908 35.263558 1.222978 1.202862 0.039254 -0.007862 108649.000000 0 0 1
11.108876 29.933189 11.499908 33.935980 1.215430 1.225080 0.058048 -0.015252 -44787.300000 0 0 1
10.606476 30.460589 10.252808 33.844717 1.235723 1.263024 0.064128 -0.020364 139148.000000 0 0 1
11.487976 31.332599 9.561708 34.715005 1.219370 1.291755 0.037321 -0.016398 182130.000000 0 0 1
10.946976 31.626009 8.113008 34.436341 1.237566 1.332966 0.047461 -0.012314 1011580.000000 0 0 1
9.662776 32.270900 8.247608 34.681454 1.279865 1.330685 0.047310 -0.008202 619027.000000 0 0 1
8.989076 32.575105 7.039308 34.518006 1.301548 1.365424 0.049652 -0.019302 24431.600000 0 0 1
9.562776 33.790029 6.261308 35.670950 1.295002 1.394353 0.062524 -0.010955 -72869.300000 0 0 1
9.147376 -32.723627 6.926308 34.676851 -1.298220 1.369705 0.068714 -0.009491 -94842.800000 0 0 1
9.670576 -31.610617 6.319708 33.655458 -1.273910 1.381898 0.083621 -0.020787 -146146.000000 0 0 1
8.927576 -30.354837 6.777508 32.358188 -1.284755 1.359781 0.079854 -0.018602 121887.000000 0 0 1
9.420376 -29.866467 8.025808 32.328979 -1.265257 1.319919 0.084754 -0.021121 139370.000000 0 0 1
8.764576 -28.671687 8.432508 31.144672 -1.274130 1.296621 0.105889 -0.019357 -255347.000000 0 0 1
9.421776 -27.441307 7.876608 30.063868 -1.240064 1.305707 0.115776 -0.030464 907.426000 0 0 1
10.346376 -26.901227 8.827508 30.143795 -1.203631 1.273594 0.119775 -0.028146 253034.000000 0 0 1
11.137476 -25.777617 8.330208 29.290293 -1.162961 1.282414 0.115661 -0.037759 276901.000000 0 0 1
10.562776 -24.525957 7.660008 27.780758 -1.164127 1.291447 0.137024 -0.045136 -552829.000000 0 0 1
10.013276 -24.858657 6.423808 27.558734 -1.187871 1.335537 0.134751 -0.044946 -258768.000000 0 0 1
9.181876 -23.910557 5.754208 26.251333 -1.204151 1.349805 0.129567 -0.045134 211638.000000 0 0 1
8.836776 -24.393857 4.310908 26.300813 -1.223247 1.406146 0.115629 -0.035759 505242.000000 0 0 1
8.016876 -25.560227 4.058408 27.093655 -1.266867 1.420439 0.108008 -0.032083 94086.300000 0 0 1
8.597576 -26.814387 4.342208 28.491831 -1.260519 1.417798 0.116778 -0.028940 201876.000000 0 0 1
7.760276 -28.042017 3.799508 29.343020 -1.300816 1.440946 0.109007 -0.031172 289540.000000 0 0 1
6.554676 -28.283277 4.507108 29.380632 -1.343066 1.416784 0.096525 -0.023910 231041.000000 0 0 1
5.573576 -29.031207 3.796908 29.804232 -1.381119 1.443054 0.072151 -0.016483 461408.000000 0 0 1
5.657576 -30.548937 4.031008 31.328816 -1.387674 1.441771 0.060922 -0.011466 368206.000000 0 0 1
6.784376 -31.203987 3.429008 32.116579 -1.356708 1.463825 0.065937 -0.015907 337211.000000 0 0 1
6.736176 -32.563597 3.706708 33.458984 -1.366811 1.459785 0.060108 -0.016144 14626.600000 0 0 1
7.720376 -33.389327 2.848808 34.388473 -1.343567 1.487859 0.061001 -0.016101 174164.000000 0 0 1
7.484276 -33.508517 1.439308 34.364323 -1.351049 1.528900 0.067514 -0.015169 417554.000000 0 0 1
8.573176 33.320076 0.982208 34.419348 1.318961 1.542256 0.058943 -0.015128 277226.000000 0 0 1
8.351176 32.733355 -0.454792 33.784930 1.320998 1.584258 0.069161 -0.010698 384866.000000 0 0 1
7.263976 31.840821 -0.570892 32.663881 1.346501 1.588275 0.065549 -0.007511 143978.000000 0 0 1
5.945176 32.371465 -0.501092 32.916681 1.389166 1.586020 0.071551 -0.018002 17452.200000 0 0 1
4.899676 31.319759 -0.111192 31.700890 1.415614 1.574304 0.062377 -0.023072 -367446.000000 0 0 1
4.645176 30.306679 -1.115392 30.680882 1.418708 1.607159 0.078268 -0.016000 612885.000000 0 0 1
3.489576 29.530519 -0.741792 29.745234 1.453173 1.595737 0.094960 -0.037817 712749.000000 0 0 1
3.216876 28.492199 -1.883292 28.735004 1.458369 1.636383 0.105994 -0.027376 -40495.400000 0 0 1
2.539376 29.107159 -2.961292 29.367403 1.483774 1.671804 0.115954 -0.040089 -68082.400000 0 0 1
2.197576 28.169339 -3.948592 28.529500 1.492941 1.709646 0.126608 -0.044429 -80456.600000 0 0 1
1.956676 28.706479 -5.331392 29.262847 1.502740 1.754009 0.144269 -0.049520 794373.000000 0 0 1
0.746476 29.498549 -5.412892 30.000350 1.545496 1.752218 0.145150 -0.048983 753812.000000 0 0 1
0.555776 30.333649 -6.543392 31.036351 1.552476 1.783220 0.133201 -0.043620 -177399.000000 0 0 1
0.492376 29.747839 -7.947992 30.795242 1.554246 1.831843 0.114172 -0.036450 -828382.000000 0 0 1
-0.698024 29.121799 -8.304792 30.290856 -1.546832 1.848521 0.106059 -0.034720 -275375.000000 0 0 1
-0.718824 28.727949 -9.723592 30.337435 -1.545780 1.897069 0.107741 -0.031847 -4149.920000 0 0 1
-1.114124 29.838579 -10.753792 31.736825 -1.533475 1.916483 0.082920 -0.031263 -320455.000000 0 0 1
-0.031124 30.644059 -11.135392 32.604543 -1.569781 1.919339 0.083758 -0.024458 -65336.300000 0 0 1
-0.397124 32.032768 -11.352792 33.987377 -1.558400 1.911372 0.074498 -0.029298 107842.000000 0 0 1
-0.593524 32.844359 -10.024892 34.345344 -1.552727 1.866993 0.072536 -0.037397 -403826.000000 0 0 1
0.604576 33.179981 -9.404392 34.492307 1.552577 1.846945 0.070089 -0.043012 -446155.000000 0 0 1
0.364676 -33.744417 -8.247392 34.739576 -1.559990 1.810491 0.093340 -0.042766 632986.000000 0 0 1
1.644876 -33.505497 -7.349592 34.341526 -1.521743 1.786479 0.105613 -0.044864 517793.000000 0 0 1
2.618276 -32.670847 -7.913392 33.717375 -1.490826 1.807704 0.095376 -0.042243 -297615.000000 0 0 1
3.636576 -32.433327 -6.961292 33.370720 -1.459138 1.780944 0.099378 -0.045023 -1393140.000000 0 0 1
4.759076 -31.585557 -7.486992 32.807793 -1.421249 1.801033 0.070872 -0.037107 -364750.000000 0 0 1
5.616776 -32.275197 -8.408192 33.822096 -1.398494 1.822032 0.077560 -0.030054 411791.000000 0 0 1
6.600376 -33.099337 -7.797892 34.640124 -1.373967 1.797854 0.101312 -0.017570 -1075100.000000 0 0 1
6.974176 33.300179 -8.585992 35.089319 1.364347 1.817996 0.105612 -0.019462 -112851.000000 0 0 1
6.085076 32.202635 -8.675092 33.901254 1.384036 1.829568 0.094054 -0.024373 -83899.100000 0 0 1
4.819976 32.459950 -9.265692 34.098879 1.423384 1.845987 0.105351 -0.035101 217768.000000 0 0 1
3.943576 31.192219 -9.419292 32.821172 1.445035 1.861878 0.098135 -0.041429 -32908.900000 0 0 1
4.469276 30.298039 -10.355992 32.329431 1.424342 1.896871 0.091771 -0.029880 -87130.700000 0 0 1
3.896676 29.015949 -10.305592 31.037309 1.437301 1.909261 0.069839 -0.029460 -34936.200000 0 0 1
4.688576 28.059859 -11.196192 30.572751 1.405234 1.945734 0.064617 -0.030458 -124664.000000 0 0 1
4.485076 28.460499 -12.569092 31.434025 1.414492 1.982156 0.065497 -0.028228 163165.000000 0 0 1
5.655176 28.326389 -13.339692 31.816862 1.373744 2.003432 0.061999 -0.027477 -81466.500000 0 0 1
5.457576 28.955239 -14.760892 32.955651 1.384499 2.035213 0.069385 -0.022118 78124.900000 0 0 1
4.466876 28.318259 -15.547292 32.612805 1.414347 2.067720 0.063272 -0.023597 88442.800000 0 0 1
4.461276 28.925399 -16.803192 33.748021 1.417768 2.091974 0.100182 -0.026867 459941.000000 0 0 1
3.228476 28.511599 -17.663492 33.694707 1.458043 2.122597 0.092327 -0.032314 405344.000000 0 0 1
3.432276 27.156039 -18.037992 32.781094 1.445072 2.153467 0.107446 -0.026933 -6779.110000 0 0 1
2.512376 26.671889 -18.990692 32.838210 1.476878 2.187453 0.106649 -0.038179 110379.000000 0 0 1
3.147176 25.553779 -19.874392 32.525248 1.448255 2.228176 0.118079 -0.040846 216306.000000 0 0 1
3.383376 24.418559 -19.094892 31.182177 1.433115 2.229846 0.110735 -0.047905 48696.000000 0 0 1
4.202776 23.523919 -19.820192 31.046386 1.394002 2.263222 0.118758 -0.042161 219839.000000 0 0 1
4.818476 22.350649 -19.019592 29.740781 1.358461 2.264660 0.115200 -0.037520 220277.000000 0 0 1
3.879176 21.317049 -18.700292 28.621067 1.390791 2.282831 0.121335 -0.031430 201331.000000 0 0 1
4.533376 20.184549 -18.101692 27.488884 1.349866 2.289633 0.101680 -0.024255 349736.000000 0 0 1
3.567076 18.989749 -17.846592 26.302765 1.385118 2.316524 0.088995 -0.031698 136445.000000 0 0 1
2.645476 19.304449 -16.821992 25.741789 1.434605 2.282982 0.093268 -0.024659 254608.000000 0 0 1
1.637376 18.286549 -16.637192 24.776501 1.481495 2.307015 0.069986 -0.013313 399674.000000 0 1 0
2.025776 17.153149 -15.642292 23.302695 1.453241 2.306711 0.053045 -0.005994 492452.000000 0 1 0
3.183776 16.348049 -15.959792 23.067511 1.378454 2.334877 0.053708 -0.019675 410762.000000 0 1 0
3.122776 15.247649 -16.864992 22.949302 1.368786 2.396287 0.062617 -0.024813 -203353.000000 0 1 0
3.099476 15.599349 -18.367492 24.296321 1.374658 2.427944 0.074603 -0.024740 -410160.000000 0 1 0
4.378976 15.947549 -18.820992 25.054530 1.302815 2.420676 0.095107 -0.029219 -353741.000000 0 0 1
4.454376 16.104549 -20.223692 26.233484 1.300951 2.451067 0.115393 -0.028634 -590234.000000 0 0 1
4.583476 14.880749 -21.187392 26.293545 1.272004 2.507825 0.132783 -0.041265 442853.000000 0 0 1
3.440476 14.074549 -21.485492 25.914401 1.331051 2.548283 0.119785 -0.037256 -151962.000000 0 0 1
2.398176 14.715649 -22.155992 26.705609 1.409249 2.549256 0.115457 -0.035001 22167.300000 0 0 1
1.404876 13.624849 -22.754692 26.559107 1.468048 2.599744 0.116463 -0.028262 371047.000000 0 0 1
0.732176 12.799849 -21.816792 25.305032 1.513657 2.610299 0.108791 -0.017875 -83032.300000 0 0 1
0.074276 11.727749 -22.427792 25.309118 1.564463 2.659776 0.071996 -0.015679 -121763.000000 0 0 1
-0.372824 10.663349 -21.356692 23.873716 -1.535847 2.678263 0.044535 -0.016065 -551647.000000 0 1 0
-1.497024 11.091049 -20.616492 23.458307 -1.436631 2.644257 0.037824 -0.016370 -9827.810000 0 1 0
-1.963824 10.194749 -19.610392 22.189119 -1.380496 2.654685 0.021890 -0.013159 -197321.000000 0 1 0
-3.014224 9.227249 -20.097892 22.319340 -1.255059 2.691645 0.029973 -0.013799 -797635.000000 0 1 0
-2.506724 8.166249 -20.931192 22.607213 -1.272965 2.754111 0.030666 -0.010560 -146697.000000 0 1 0
-3.490724 7.221249 -21.326092 22.784508 -1.120520 2.781860 0.033436 -0.006770 -525602.000000 0 1 0
-3.024024 5.971949 -21.969892 22.967043 -1.102065 2.845841 0.042246 -0.018443 -690744.000000 0 1 0
-2.081024 5.231549 -21.182092 21.917591 -1.192202 2.881797 0.041268 -0.011792 494517.000000 0 1 0
-1.855624 3.968949 -21.736192 22.173361 -1.133456 2.942690 0.063021 -0.022939 -558062.000000 0 1 0
-0.918924 3.037249 -20.938792 21.177873 -1.277000 2.991190 0.062124 -0.022004 -1328400.000000 0 1 0
0.409376 3.283649 -21.199392 21.456098 1.446765 2.986750 0.065623 -0.010928 -1230490.000000 0 1 0
1.082376 2.350149 -20.369692 20.533365 1.139199 3.015246 0.056371 -0.003131 676373.000000 0 1 0
2.649376 2.274149 -20.357592 20.654842 0.709334 2.971734 0.046466 -0.008051 1095050.000000 0 1 0
3.314876 1.795949 -21.523992 21.851683 0.496514 2.968193 0.070944 -0.005772 -669923.000000 0 1 0
4.693876 1.871949 -21.392692 21.981445 0.379477 2.909625 0.090577 -0.007488 -701518.000000 0 1 0
5.403976 1.503549 -22.702692 23.385377 0.271367 2.899370 0.088218 0.002175 679311.000000 0 1 0
6.834676 1.578049 -22.573092 23.637841 0.226912 2.840307 0.090834 -0.010032 1403040.000000 0 1 0
7.534676 1.036549 -23.741092 24.929605 0.136712 2.831565 0.094722 -0.013319 740013.000000 0 1 0
9.050976 0.739049 -23.597492 25.284540 0.081473 2.774229 0.095210 -0.026025 381766.000000 0 0 1
9.826376 1.884949 -23.361592 25.414064 0.189523 2.736939 0.084666 -0.035678 278972.000000 0 0 1
11.143176 1.550949 -22.934592 25.545475 0.138295 2.685533 0.087156 -0.031331 206697.000000 0 0 1
13.012576 -20.363557 22.358266 32.922540 -1.002184 0.824237 0.098409 -0.011192 -12843.100000 0 0 1
12.437276 -21.579957 21.900916 33.166708 -1.047960 0.849540 0.096130 -0.008523 -420297.000000 0 0 1
11.263176 -21.458857 21.158316 32.171665 -1.087449 0.853076 0.085694 -0.000758 -524992.000000 0 0 1
11.378276 -20.959857 19.682316 30.922069 -1.073451 0.880827 0.122765 -0.031355 -417719.000000 0 0 1
11.829576 -19.691857 19.433916 30.089619 -1.029837 0.868637 0.141146 -0.032179 -44746.100000 0 0 1
11.950676 -19.348457 18.029816 29.021642 -1.017496 0.900454 0.129993 -0.042740 32770.300000 0 0 1
12.153976 -17.810857 17.935616 28.046962 -0.971986 0.876968 0.144153 -0.045761 588063.000000 0 0 1
10.983276 -17.056657 18.280116 27.307958 -0.998701 0.837387 0.160619 -0.048573 439482.000000 0 0 1
11.088476 -15.780057 17.684816 26.167102 -0.958268 0.828690 0.170680 -0.046028 224309.000000 0 0 1
9.971276 -14.810257 18.128316 25.444172 -0.978237 0.777778 0.144646 -0.039713 953482.000000 0 0 1
8.660576 -15.232257 17.738516 24.933555 -1.053809 0.779263 0.123104 -0.029737 246717.000000 0 1 0
7.594976 -14.582257 18.366016 24.650283 -1.090619 0.730167 0.104219 -0.020926 58695.400000 0 1 0
6.199576 -15.177157 18.145716 24.455017 -1.183000 0.734742 0.062046 -0.002929 -232928.000000 0 1 0
5.761676 -14.988957 16.819416 23.254215 -1.203815 0.762249 0.044411 -0.011285 1320450.000000 0 1 0
4.364376 -15.235257 16.484716 22.867153 -1.291802 0.765710 0.016897 -0.006816 1238800.000000 0 1 0
3.733676 -16.661157 16.681716 23.870780 -1.350344 0.797030 0.001284 0.001583 -953087.000000 0 1 0
2.436576 -16.585357 16.202216 23.313575 -1.424929 0.802419 0.009271 -0.005528 -1036910.000000 0 1 0
1.843576 -17.838357 16.095416 24.097057 -1.467813 0.839357 0.022672 -0.020863 232319.000000 0 1 0
0.392576 -17.840257 15.568016 23.681048 -1.548795 0.853428 0.041086 -0.017100 -520731.000000 0 1 0
0.225476 -17.498857 14.187316 22.528666 -1.557912 0.889571 0.040298 -0.018663 403164.000000 0 1 0
-1.139924 -17.469157 13.772616 22.274556 1.505635 0.904204 0.056936 -0.025052 328649.000000 0 1 0
-1.662824 -18.791257 13.232616 23.042970 1.482537 0.959098 0.052771 -0.001473 -1038870.000000 0 1 0
-3.035324 -18.771257 13.031616 23.052035 1.410483 0.969984 0.057470 -0.017298 -753122.000000 0 1 0
-3.417524 -19.900257 12.236316 23.609895 1.400723 1.025969 0.074008 -0.027343 -1212640.000000 0 1 0
-4.885524 -20.128357 12.125516 24.000984 1.332682 1.041172 0.068107 -0.028183 -1216530.000000 0 1 0
-5.406124 -20.848857 13.247816 25.286472 1.317083 1.019362 0.069372 -0.029042 312772.000000 0 0 1
-6.787424 -21.112057 12.987016 25.699235 1.259738 1.041013 0.081731 -0.032594 360312.000000 0 0 1
-7.442924 -21.849257 14.179516 27.089589 1.242476 1.019924 0.092114 -0.035092 303131.000000 0 0 1
-8.852924 -21.708557 14.203716 27.411335 1.183577 1.026087 0.098418 -0.036062 -53741.300000 0 0 1
-9.502324 -22.469057 15.180016 28.733005 1.170700 1.014184 0.100278 -0.032496 728841.000000 0 0 1
-10.958224 -21.948957 15.432116 28.982574 1.107741 1.009290 0.120102 -0.039306 586920.000000 0 0 1
-11.062324 -20.675157 15.944716 28.356148 1.079500 0.973629 0.113748 -0.035352 717425.000000 0 0 1
-12.332024 -20.044757 15.614416 28.243249 1.019258 0.985010 0.122886 -0.034702 1247640.000000 0 0 1
-12.706124 -18.761757 16.471316 28.013450 0.975513 0.942238 0.119871 -0.031487 -152329.000000 0 0 1
-13.029924 -19.141957 17.788216 29.199556 0.973141 0.915752 0.124443 -0.035073 -119272.000000 0 0 1
-13.411524 -18.113157 18.692616 29.280870 0.933448 0.878391 0.124617 -0.035301 -73342.500000 0 0 1
-14.064024 -18.663957 19.965816 30.737175 0.925034 0.863783 0.110860 -0.031772 75225.300000 0 0 1
-15.326624 -19.257157 19.726516 31.541702 0.898565 0.895139 0.095619 -0.022373 162216.000000 0 0 1
-15.844824 -19.721357 20.994016 32.874597 0.893964 0.878107 0.100025 -0.018176 -780448.000000 0 0 1
-17.173424 -20.417057 20.900716 33.891336 0.871474 0.906255 0.106799 -0.018236 -1225430.000000 0 0 1
-17.218524 -21.703657 20.285916 34.337221 0.900125 0.938765 0.119000 -0.023311 738540.000000 0 0 1
-18.450224 -21.962857 19.581016 34.730305 0.872098 0.971814 0.094422 -0.013516 1283130.000000 0 0 1
-19.614424 -22.576257 20.444516 36.226941 0.855484 0.971156 0.093249 -0.016174 265891.000000 0 0 1
-20.211724 -21.603857 21.317916 36.464970 0.818678 0.946393 0.106821 -0.012144 365151.000000 0 0 1
-21.176224 -22.078657 22.248316 37.827069 0.806258 0.942016 0.083199 -0.010142 199908.000000 0 0 1
-21.526224 -21.036057 23.311676 38.070045 0.773882 0.911784 0.080421 -0.006590 -328038.000000 0 0 1
-22.498924 -20.134257 22.911056 37.901272 0.729990 0.921667 0.073842 0.006240 -260466.000000 0 0 1
-22.512024 -19.005457 23.796206 37.871600 0.701138 0.891380 0.079725 -0.001191 137407.000000 0 0 1
-23.529524 -17.927957 23.344836 37.683306 0.651096 0.902690 0.077987 -0.004531 83766.600000 0 0 1
-23.309524 -17.554857 22.020516 36.556943 0.645495 0.924339 0.082635 0.005953 -113298.000000 0 0 1
-24.168124 -16.509257 21.685116 36.426612 0.599294 0.933145 0.070887 -0.001493 -302230.000000 0 0 1
-23.823924 -15.997457 20.293716 35.147303 0.591332 0.955267 0.069459 0.001662 502638.000000 0 0 1
-22.557424 -15.332957 20.214216 33.949249 0.596992 0.933002 0.087298 0.001107 433996.000000 0 0 1
-22.303824 -15.012257 18.848216 32.834185 0.592429 0.959362 0.081344 0.002629 483205.000000 0 0 1
-21.192024 -13.928757 18.630016 31.467280 0.581465 0.937203 0.079950 -0.011913 458526.000000 0 0 1
-20.817624 -13.885157 17.230216 30.381761 0.588227 0.967787 0.076795 -0.010971 150155.000000 0 0 1
-20.020324 -12.744457 16.946716 29.162061 0.566880 0.950690 0.095729 -0.024443 -92784.200000 0 0 1
-19.324924 -12.713857 15.537516 27.865916 0.581908 0.979327 0.102618 -0.026494 337690.000000 0 0 1
-18.721624 -11.478257 15.095016 26.647873 0.549997 0.968590 0.108859 -0.032392 46464.700000 0 0 1
-17.479424 -11.151757 15.669216 25.988773 0.567888 0.923637 0.141088 -0.054622 -444083.000000 0 0 1
-16.941824 -9.855057 14.958016 24.655422 0.526855 0.918915 0.135619 -0.053954 -138843.000000 0 1 0
-17.457924 -8.594757 15.386616 24.807195 0.457479 0.901737 0.152334 -0.052047 158642.000000 0 1 0
-17.012524 -7.602257 14.507116 23.615180 0.420242 0.909281 0.145369 -0.049696 -1083010.000000 0 1 0
-16.944824 -6.166857 15.157416 23.556410 0.349037 0.871797 0.143651 -0.047969 532908.000000 0 1 0
-16.069124 -6.062257 16.305916 23.682285 0.360752 0.811339 0.127001 -0.045376 -112659.000000 0 1 0
-14.731524 -6.296757 15.993616 22.637640 0.403931 0.786248 0.127571 -0.043922 -1797690.000000 0 1 0
-13.800124 -6.261557 17.197416 22.921642 0.425953 0.722326 0.113002 -0.040227 -308164.000000 0 1 0
-13.802924 -7.328957 18.187216 23.979349 0.488117 0.709860 0.103123 -0.046902 -985.952000 0 1 0
-13.458824 -8.580257 17.588716 23.751289 0.567551 0.736927 0.113346 -0.047020 -610274.000000 0 1 0
-13.932224 -9.782457 18.407516 25.072694 0.612165 0.746359 0.124622 -0.047237 -175544.000000 0 0 1
-15.276124 -10.187857 18.441616 26.023943 0.588174 0.783227 0.139626 -0.048795 -286620.000000 0 0 1
-16.012524 -9.388257 19.362316 26.822371 0.530290 0.764293 0.117072 -0.046557 -792262.000000 0 0 1
-17.423024 -9.947557 19.664216 28.092652 0.518780 0.795431 0.118782 -0.033395 204937.000000 0 0 1
-18.476824 -9.754857 18.758416 28.078968 0.485758 0.839199 0.111021 -0.033087 244366.000000 0 0 1
-18.869324 -8.403757 18.403416 27.665145 0.418994 0.843007 0.106353 -0.037265 -711713.000000 0 0 1
-20.023124 -8.343357 17.394516 27.804790 0.394808 0.894903 0.130350 -0.050813 -556973.000000 0 0 1
-21.263824 -8.614157 17.979816 29.148374 0.384903 0.906078 0.126513 -0.039727 -194469.000000 0 0 1
-22.227924 -8.673057 16.923016 29.252197 0.372019 0.953882 0.135745 -0.031599 1230670.000000 0 0 1
-23.720424 -8.993657 17.320716 30.717285 0.362406 0.971726 0.118967 -0.017783 999764.000000 0 0 1
-24.318224 -8.062957 18.190416 31.420989 0.320154 0.953386 0.128399 -0.019607 -932433.000000 0 0 1
-25.650334 -8.308157 18.408316 32.647071 0.313237 0.971746 0.134639 -0.015642 -1265180.000000 0 0 1
-26.412574 -7.138857 19.107516 33.371913 0.263975 0.961168 0.132900 -0.020619 -51042.700000 0 0 1
-26.406344 -7.212057 20.532216 34.218134 0.266616 0.927246 0.140213 -0.026838 112894.000000 0 0 1
-27.079544 -6.108557 21.057416 34.842947 0.221865 0.921844 0.130600 -0.026938 -660837.000000 0 0 1
-27.180364 -6.117157 22.594716 35.870782 0.221370 0.889382 0.133544 -0.028875 887720.000000 0 0 1
-25.986224 -5.666557 23.262266 35.334498 0.214699 0.852179 0.136220 -0.032645 1589020.000000 0 0 1
-24.882824 -6.619257 23.233166 34.680680 0.259996 0.836700 0.143632 -0.035011 -113932.000000 0 0 1
-23.865624 -6.488557 24.345046 34.703756 0.265462 0.793282 0.142985 -0.030140 -330974.000000 0 0 1
-23.189924 -5.239557 24.255066 33.963713 0.222210 0.775392 0.128719 -0.030453 -453010.000000 0 0 1
-22.290324 -5.116757 25.290136 34.097372 0.225642 0.735190 0.134558 -0.039153 -380684.000000 0 0 1
-21.731124 -3.642757 25.097466 33.397519 0.166084 0.720498 0.131201 -0.038114 667490.000000 0 0 1
-20.682024 -3.076057 25.925196 33.306517 0.147649 0.678712 0.116652 -0.035221 622795.000000 0 0 1
-20.927424 -2.992657 27.332876 34.554294 0.142039 0.658334 0.116351 -0.042130 -127178.000000 0 0 1
-21.810424 -1.776757 27.743886 35.335177 0.081284 0.667836 0.116310 -0.042204 1142680.000000 0 0 1
-23.186424 -1.932757 27.362786 35.917515 0.083165 0.704674 0.116014 -0.041808 360834.000000 0 0 1
-24.044924 -0.995057 27.966766 36.895644 0.041360 0.710560 0.101176 -0.039780 132734.000000 0 0 1
-25.362524 -0.876857 27.170806 37.179016 0.034559 0.751288 0.118646 -0.044414 -340609.000000 0 0 1
-25.164644 -0.277657 25.876016 36.095771 0.011033 0.771492 0.103933 -0.041579 400571.000000 0 0 1
-26.386024 0.123643 25.237256 36.512418 -0.004686 0.807653 0.121541 -0.034482 1088780.000000 0 0 1
-27.354954 -1.049757 24.739646 36.897773 0.038357 0.835925 0.123382 -0.033424 175999.000000 0 0 1
-28.398604 -1.350657 25.642836 38.286552 0.047525 0.836910 0.106068 -0.026463 -30079.500000 0 0 1
-29.106784 -2.533357 25.419616 38.726989 0.086818 0.854786 0.096369 -0.028024 -86059.600000 0 0 1
-28.331654 -3.866257 25.478166 38.298401 0.135626 0.842962 0.118550 -0.029700 -165349.000000 0 0 1
-27.886974 -4.251157 26.753886 38.878350 0.151278 0.811869 0.107599 -0.025200 -419020.000000 0 0 1
-26.847324 -5.171457 26.642636 38.175291 0.190294 0.798332 0.116169 -0.028662 -300009.000000 0 0 1
-26.484494 -5.658257 28.065636 39.001593 0.210480 0.767567 0.089826 -0.020969 401945.000000 0 0 1
-27.545244 -6.382757 28.672286 40.268848 0.227700 0.778423 0.109485 -0.015027 806890.000000 0 0 1
-26.931424 -7.112957 29.726116 40.737425 0.258217 0.752913 0.111878 -0.018650 348062.000000 0 0 1
-27.986254 -7.753557 30.668916 42.236602 0.270270 0.758132 0.094225 -0.017909 316677.000000 0 0 1
-28.877774 -8.687357 30.081626 42.594604 0.292220 0.786636 0.072668 -0.016562 125004.000000 0 0 1
-30.011244 -8.917057 30.874346 43.970603 0.288816 0.792371 0.074555 -0.010019 -233584.000000 0 0 1
-31.154894 -9.513157 30.032616 44.306722 0.296358 0.825983 0.043882 -0.016255 -279174.000000 0 0 1
-30.868784 -10.834057 29.647256 44.149954 0.337540 0.834548 0.046559 -0.024014 117739.000000 0 0 1
-31.886974 -11.318157 28.834016 44.455375 0.341074 0.865045 0.027103 -0.017649 -298074.000000 0 0 1
-31.325224 -12.509457 28.051146 43.870526 0.379938 0.877069 0.041056 -0.025068 224784.000000 0 0 1
-30.427004 -12.088857 27.013906 42.446369 0.378183 0.880942 0.063266 -0.025961 329128.000000 0 0 1
-29.522344 -13.161757 26.765246 41.966404 0.419375 0.879186 0.069112 -0.036617 -946546.000000 0 0 1
-28.271684 -12.752157 26.021156 40.484642 0.423733 0.872725 0.097469 -0.034027 -648816.000000 0 0 1
-27.253484 -12.107257 26.782026 40.082603 0.418059 0.839049 0.092924 -0.040825 255323.000000 0 0 1
-27.554794 -10.857057 27.408356 40.352948 0.375338 0.824103 0.096335 -0.048956 -979022.000000 0 0 1
-27.798524 -9.624357 26.525866 39.610703 0.333302 0.837040 0.100348 -0.040215 881919.000000 0 0 1
-26.638084 -9.089257 25.823236 38.197404 0.328825 0.828412 0.112044 -0.035317 838441.000000 0 0 1
-26.112194 -9.791357 24.749026 37.285811 0.358747 0.844955 0.102528 -0.038776 -453904.000000 0 0 1
-26.919114 -9.765357 23.433236 37.001588 0.348003 0.884982 0.115543 -0.031885 -553859.000000 0 0 1
-28.083004 -10.544457 23.467266 38.086130 0.359187 0.906935 0.103507 -0.034082 -602158.000000 0 0 1
-28.671064 -10.642157 22.199016 37.789969 0.355418 0.942915 0.126001 -0.029918 -577945.000000 0 0 1
-29.924694 -11.546357 22.179316 38.996510 0.368246 0.965809 0.125779 -0.040861 1312860.000000 0 0 1
-31.131244 -10.940257 22.767886 40.090152 0.337943 0.966823 0.103475 -0.036828 1101200.000000 0 0 1
-31.084624 -10.669557 24.151256 40.784513 0.330642 0.937051 0.100969 -0.033070 -1949620.000000 0 0 1
-32.408884 -10.449357 24.815576 42.134756 0.311899 0.941028 0.050634 -0.025818 -890374.000000 0 0 1
-33.038154 -9.224357 24.397016 42.093026 0.272270 0.952562 0.056520 -0.023513 805582.000000 0 0 1
-34.378266 -8.939957 24.847266 43.349449 0.254412 0.960409 0.045145 -0.018638 728760.000000 0 0 1
-34.649786 -8.737857 26.392106 44.424105 0.247026 0.934657 0.023327 -0.009839 -361497.000000 0 0 1
-35.018528 -10.046957 26.872116 45.269739 0.279399 0.935271 0.015511 -0.023456 175524.000000 0 0 1
-35.602790 -9.939857 28.141046 46.457270 0.272255 0.920100 0.026092 -0.023145 -1170140.000000 0 0 1
-35.943710 -11.350057 28.758506 47.411241 0.305864 0.919050 0.038496 -0.018818 -209044.000000 0 0 1
-37.029514 -12.079557 28.234636 48.107124 0.315330 0.943557 0.029144 -0.025541 408729.000000 0 0 1
37.523640 -11.441057 28.563956 48.526497 -0.295949 0.941438 0.050718 -0.029871 -773665.000000 0 0 1
36.219770 -11.946057 27.948976 47.283457 -0.318587 0.938382 0.069042 -0.031892 -64746.000000 0 0 1
36.079840 -11.690157 26.590656 46.319301 -0.313334 0.959325 0.066728 -0.026335 -344923.000000 0 0 1
34.923750 -12.352357 26.132606 45.333896 -0.339963 0.956422 0.090826 -0.022748 -271236.000000 0 0 1
34.551070 -12.077357 24.696416 44.153731 -0.336275 0.977221 0.078635 -0.024414 -39864.300000 0 0 1
34.148860 -10.722357 24.558636 43.407836 -0.304241 0.969436 0.085864 -0.037903 -140781.000000 0 0 1
34.410550 -10.221157 23.263546 42.775584 -0.288735 0.995777 0.069087 -0.031921 -181991.000000 0 0 1
33.824570 -8.746057 23.033856 41.846787 -0.253029 0.987913 0.095366 -0.012939 495473.000000 0 0 1
32.418980 -8.708057 23.215326 40.813869 -0.262416 0.965738 0.119440 -0.025809 22391.100000 0 0 1
31.901870 -7.457357 22.719496 39.868747 -0.229636 0.964464 0.135136 -0.012376 -784846.000000 0 0 1
30.410140 -7.219357 22.720106 38.640639 -0.233085 0.942231 0.135067 -0.000501 -928896.000000 0 0 1
29.826840 -7.859257 21.603116 37.657708 -0.257640 0.959816 0.134451 0.001067 -426429.000000 0 0 1
28.611040 -7.225557 21.314616 36.402104 -0.247372 0.945259 0.124773 -0.023655 -603913.000000 0 0 1
15.556376 -17.078957 24.583566 33.734898 -0.832019 0.754334 0.120420 -0.004060 88443.400000 0 0 1
15.043376 -18.370057 24.940196 34.435092 -0.884632 0.760826 0.125188 -0.000345 498482.000000 0 0 1
16.091876 -19.216157 25.377606 35.668362 -0.873655 0.779183 0.112688 -0.000354 -652215.000000 0 0 1
15.679476 -20.777157 25.464136 36.413712 -0.924326 0.796378 0.113979 -0.014459 112631.000000 0 0 1
14.817976 -21.121457 26.500166 36.985770 -0.959024 0.772030 0.104235 -0.012962 1776370.000000 0 0 1
13.492576 -20.474457 26.573516 36.158052 -0.988123 0.745238 0.100404 -0.009888 1130290.000000 0 0 1
12.809976 -20.711557 27.923446 37.051085 -1.016889 0.717203 0.089437 -0.007482 -211144.000000 0 0 1
13.321476 -19.883257 28.919266 37.538375 -0.980500 0.691340 0.088857 -0.006496 520937.000000 0 0 1
12.340476 -18.986357 29.504986 37.192920 -0.994445 0.654593 0.079751 -0.008212 614176.000000 0 0 1
12.266976 -17.593357 28.870096 35.965085 -0.961918 0.638945 0.099207 -0.011589 129843.000000 0 0 1
13.237876 -16.721457 29.394986 36.316851 -0.901155 0.627661 0.085805 -0.004566 -362193.000000 0 0 1
13.208076 -15.441257 28.845676 35.283973 -0.863190 0.613689 0.106847 -0.012313 213986.000000 0 0 1
14.113376 -14.326757 29.460276 35.670033 -0.792901 0.598980 0.090804 -0.007810 178724.000000 0 0 1
13.801076 -13.020257 29.011736 34.665222 -0.756295 0.579180 0.138040 -0.017198 204347.000000 0 0 1
14.668276 -11.992257 29.491176 35.052846 -0.685359 0.571048 0.126152 -0.010588 170241.000000 0 0 1
14.361576 -10.712857 28.722746 33.852863 -0.640897 0.557731 0.124250 -0.011217 41988.200000 0 0 1
14.656376 -10.665257 27.364656 32.823490 -0.629067 0.585038 0.170817 -0.024609 923331.000000 0 0 1
16.023276 -10.468957 26.933366 33.041650 -0.578733 0.617836 0.153121 -0.019409 899001.000000 0 0 1
16.259976 -9.151557 26.152016 32.125780 -0.512638 0.619703 0.139735 -0.017796 -18205.200000 0 0 1
16.250176 -7.901157 26.897386 32.403177 -0.452563 0.591536 0.132992 -0.026452 -247908.000000 0 0 1
17.493276 -7.563657 27.458846 33.424719 -0.408101 0.606737 0.124268 -0.029911 -334991.000000 0 0 1
18.008076 -6.167857 27.078806 33.099773 -0.329982 0.612703 0.111266 -0.030726 488943.000000 0 0 1
19.352176 -5.873257 27.467656 34.109735 -0.294659 0.634660 0.098287 -0.036999 761819.000000 0 0 1
19.889176 -4.663057 26.904126 33.780992 -0.230293 0.649431 0.095233 -0.039222 -258527.000000 0 0 1
21.406276 -4.638757 26.683846 34.522085 -0.213401 0.687319 0.088195 -0.035470 -1175370.000000 0 0 1
21.793876 -5.613457 25.679326 34.145449 -0.252091 0.719619 0.090215 -0.030052 296785.000000 0 0 1
23.136976 -5.578257 25.242016 34.692881 -0.236582 0.756001 0.081940 -0.023822 227376.000000 0 0 1
24.258676 -5.768957 26.293956 36.237223 -0.233473 0.758881 0.075792 -0.030197 -1043310.000000 0 0 1
24.593776 -4.670557 27.047956 36.854577 -0.187673 0.746735 0.077129 -0.032978 -131222.000000 0 0 1
25.529676 -5.049457 28.047026 38.260908 -0.195267 0.748006 0.089121 -0.041649 120649.000000 0 0 1
26.215776 -3.812657 28.732546 39.081485 -0.144421 0.744841 0.092793 -0.040088 -117031.000000 0 0 1
27.123276 -3.152257 27.877156 39.022361 -0.115701 0.775045 0.080195 -0.026453 78678.900000 0 0 1
27.181776 -1.811957 28.210176 39.216657 -0.066562 0.767942 0.066578 -0.031383 -424035.000000 0 0 1
28.025976 -1.045957 27.170296 39.048359 -0.037304 0.801247 0.082597 -0.027954 1016370.000000 0 0 1
29.439676 -1.212557 27.373276 40.217671 -0.041165 0.822177 0.101617 -0.023802 467176.000000 0 0 1
30.248076 -0.710657 26.343846 40.117943 -0.023490 0.854415 0.110979 -0.012611 -268890.000000 0 0 1
31.733576 -0.832657 26.683406 41.469475 -0.026233 0.871804 0.106769 -0.012837 -409331.000000 0 0 1
32.086176 0.232243 27.503976 42.261629 0.007238 0.862155 0.097991 -0.013045 278730.000000 0 0 1
33.472776 0.160843 27.838876 43.536831 0.004805 0.877036 0.107938 -0.013631 621925.000000 0 0 1
33.884076 1.302543 28.786536 44.480241 0.038422 0.866922 0.124856 -0.014129 -14230.500000 0 0 1
33.831276 2.621043 28.202946 44.122911 0.077320 0.877351 0.122689 -0.014878 192260.000000 0 0 1
34.157076 3.597743 29.166666 45.059339 0.104942 0.866767 0.116845 -0.013000 18293.200000 0 0 1
34.070176 5.074443 28.599476 44.771161 0.147854 0.877869 0.119917 -0.015632 -139244.000000 0 0 1
34.177976 6.145943 29.476366 45.549564 0.177920 0.866986 0.135825 -0.019114 -193363.000000 0 0 1
33.057476 6.446043 30.247986 45.269072 0.192578 0.839034 0.125350 -0.018166 -510638.000000 0 0 1
33.471176 7.370443 31.396939 46.480220 0.216744 0.829167 0.110904 -0.023226 272126.000000 0 0 1
34.113676 6.698643 32.501257 47.591453 0.193895 0.819041 0.118751 -0.023306 337363.000000 0 0 1
34.458076 7.572643 33.543766 48.681497 0.216325 0.810625 0.112426 -0.033117 -125199.000000 0 0 1
34.517276 6.775843 -32.496842 47.889447 0.193838 2.316625 0.132681 -0.034832 419219.000000 0 0 1
33.258876 6.236943 -32.081912 46.629404 0.185374 2.329552 0.110997 -0.030295 430217.000000 0 0 1
33.089376 4.866043 -32.441812 46.594595 0.146011 2.340966 0.124502 -0.029572 -9950.810000 0 0 1
33.506076 3.740743 -31.437072 46.097069 0.111183 2.321257 0.128640 -0.037261 -15036.500000 0 0 1
33.699876 2.505343 -32.106442 46.613110 0.074206 2.330609 0.118814 -0.037655 80378.700000 0 0 1
33.928276 1.509443 -31.177162 46.102296 0.044460 2.313471 0.096244 -0.040645 -97159.800000 0 0 1
34.306576 0.198043 -31.786642 46.769338 0.005773 2.318078 0.087101 -0.044780 330268.000000 0 0 1
35.558176 0.298343 -32.521782 48.188579 0.008390 2.311606 0.100790 -0.033465 1328090.000000 0 0 1
36.386076 -0.894357 -32.477592 48.780533 -0.024575 2.299348 0.097570 -0.027166 841073.000000 0 0 1
37.242176 -1.034257 -31.169292 48.575447 -0.027764 2.267467 0.104848 -0.035982 -481081.000000 0 0 1
36.488376 -1.239957 -30.002962 47.255865 -0.033969 2.258681 0.081882 -0.040221 -167063.000000 0 0 1
37.225276 -0.902757 -28.858072 47.109706 -0.024246 2.230106 0.088695 -0.038427 6251.210000 0 0 1
36.293176 -0.734057 -27.644832 45.628611 -0.020223 2.221650 0.092870 -0.042993 -83737.900000 0 0 1
35.465376 0.386943 -27.568862 44.921985 0.010910 2.231541 0.084701 -0.034772 186634.000000 0 0 1
34.581076 0.349043 -26.475232 43.553536 0.010093 2.224182 0.086072 -0.026275 -340753.000000 0 0 1
33.901476 1.696743 -26.311922 42.947715 0.050008 2.230206 0.056302 -0.020152 -339353.000000 0 0 1
33.098476 2.034643 -27.412342 43.024241 0.061395 2.261574 0.080974 -0.033835 495831.000000 0 0 1
32.255276 3.163543 -27.066542 42.225685 0.097766 2.266593 0.073931 -0.022698 267307.000000 0 0 1
31.524376 3.709443 -28.279812 42.512281 0.117130 2.298578 0.103654 -0.034664 58530.900000 0 0 1
30.315976 4.370943 -27.925612 41.448804 0.143193 2.310051 0.093142 -0.029650 354192.000000 0 0 1
29.677676 5.034843 -28.989502 41.791211 0.168051 2.337375 0.080225 -0.032533 -348009.000000 0 0 1
28.585276 5.970943 -28.465132 40.780312 0.205921 2.343413 0.071149 -0.027458 -314857.000000 0 0 1
27.408376 5.254943 -28.136072 39.629182 0.189429 2.360271 0.086004 -0.031255 420022.000000 0 0 1
26.497076 6.127143 -27.456602 38.645852 0.227244 2.360958 0.099392 -0.035790 -107985.000000 0 0 1
25.161276 5.488943 -27.076982 37.368185 0.214785 2.381250 0.113058 -0.032944 -68805.200000 0 0 1
24.230576 5.389443 -28.144032 37.526703 0.218860 2.418818 0.121335 -0.031019 -233627.000000 0 0 1
22.927776 5.073843 -27.736912 36.342304 0.217787 2.439067 0.116338 -0.024188 -871678.000000 0 0 1
22.095776 4.708043 -28.941362 36.715002 0.209935 2.478790 0.099953 -0.023837 -646725.000000 0 0 1
22.337276 3.384443 -29.375602 37.058526 0.150372 2.485991 0.098736 -0.029189 11970.800000 0 0 1
21.597176 3.013943 -30.526372 37.515080 0.138657 2.521302 0.062848 -0.034061 -152687.000000 0 0 1
21.880176 3.585343 -31.951122 38.890500 0.162419 2.534949 0.071607 -0.024350 -414645.000000 0 0 1
23.124476 3.263443 -32.485072 40.008391 0.140199 2.518292 0.071835 -0.033961 -534749.000000 0 0 1
23.105176 3.650243 33.517466 40.872900 0.156689 0.609313 0.066468 -0.018209 640594.000000 0 0 1
24.454376 3.265943 32.820662 41.059454 0.132767 0.644592 0.056173 -0.019168 667277.000000 0 0 1
24.603976 1.878043 32.665025 40.937593 0.076183 0.646956 0.082160 -0.035300 -259664.000000 0 0 1
25.863576 1.655443 32.077620 41.238802 0.063920 0.679558 0.075486 -0.031752 -349721.000000 0 0 1
26.292276 0.200643 31.765509 41.235562 0.007631 0.691418 0.068047 -0.030115 -614016.000000 0 0 1
25.719976 -0.401157 30.614476 39.986551 -0.015596 0.698793 0.064766 -0.033499 627933.000000 0 0 1
24.323276 -0.686757 30.584006 39.082922 -0.028227 0.672059 0.083664 -0.037563 224089.000000 0 0 1
23.835076 -1.753557 31.589081 39.611310 -0.073438 0.647696 0.080288 -0.045636 -1140480.000000 0 0 1
24.380176 -3.032657 31.343144 39.824398 -0.123755 0.664810 0.066033 -0.047919 225124.000000 0 0 1
23.690276 -4.061257 32.031728 40.046905 -0.169781 0.643742 0.092973 -0.055615 -447663.000000 0 0 1
23.836576 -5.541557 31.574367 39.947864 -0.228424 0.659352 0.092452 -0.053909 913741.000000 0 0 1
25.202376 -5.939957 31.859803 41.054718 -0.231466 0.682445 0.085722 -0.046025 1018070.000000 0 0 1
25.319976 -7.365157 31.756410 41.277310 -0.283072 0.692984 0.104800 -0.051864 743413.000000 0 0 1
26.812576 -7.714257 31.432341 42.028753 -0.280144 0.725938 0.087352 -0.041184 737104.000000 0 0 1
27.044776 -7.455257 30.027426 41.093151 -0.268983 0.751426 0.110900 -0.043829 617862.000000 0 0 1
28.256176 -8.121657 29.598516 41.718640 -0.279885 0.782037 0.104839 -0.035364 777644.000000 0 0 1
28.467576 -7.863257 28.052626 40.733076 -0.269498 0.811110 0.094526 -0.035343 224346.000000 0 0 1
27.584576 -8.467857 27.102196 39.587150 -0.297846 0.816713 0.080066 -0.033720 107790.000000 0 0 1
27.966476 -8.199557 25.757386 38.894723 -0.285200 0.847001 0.098988 -0.029771 588763.000000 0 0 1
27.044676 -9.111257 24.873566 37.856621 -0.324954 0.853902 0.072668 -0.027248 543345.000000 0 0 1
25.685076 -8.744157 24.733176 36.713940 -0.328130 0.831629 0.072725 -0.025571 186161.000000 0 0 1
25.029676 -9.661557 23.848466 35.896792 -0.368383 0.844156 0.083779 -0.031577 -260008.000000 0 0 1
23.637776 -9.262557 23.368496 34.505449 -0.373464 0.826790 0.059014 -0.020335 93171.400000 0 0 1
22.662076 -9.411157 24.431636 34.627221 -0.393611 0.787581 0.047634 -0.016982 76399.100000 0 0 1
21.489176 -8.702157 24.109756 33.448357 -0.384771 0.765833 0.071234 -0.015780 -36555.100000 0 0 1
20.626676 -8.621457 25.404466 33.840452 -0.395906 0.721656 0.081291 -0.019150 -55159.800000 0 0 1
19.930076 -9.784157 25.921326 34.129940 -0.456361 0.708269 0.103958 -0.013886 545832.000000 0 0 1
20.671276 -10.716357 26.707076 35.431764 -0.478273 0.717030 0.076311 -0.012991 341990.000000 0 0 1
19.709876 -11.843157 27.248096 35.653868 -0.541062 0.700935 0.086554 -0.014089 806726.000000 0 0 1
19.026976 -12.631957 26.262106 34.803597 -0.586083 0.715782 0.114215 -0.018076 819529.000000 0 0 1
18.169976 -13.731257 26.677176 35.076590 -0.647146 0.706651 0.109113 -0.014456 921390.000000 0 0 1
18.880476 -15.003557 27.320786 36.441795 -0.671476 0.723172 0.116638 -0.004810 -353014.000000 0 0 1
17.864676 -15.841257 27.800736 36.646596 -0.725439 0.709608 0.092628 -0.005105 145040.000000 0 0 1
18.362176 -16.987057 28.422596 37.862562 -0.746517 0.721708 0.087577 0.001459 -173863.000000 0 0 1
19.091876 -18.086757 27.570996 38.102367 -0.758370 0.761788 0.098424 -0.000900 284220.000000 0 0 1
20.310576 -17.614357 27.031166 38.124389 -0.714424 0.782681 0.105306 -0.003554 -80480.000000 0 0 1
20.928976 -18.612557 26.289676 38.413492 -0.726883 0.817034 0.094808 0.005373 -492230.000000 0 0 1
22.037876 -18.167757 25.328516 38.174194 -0.689436 0.845311 0.097481 -0.005495 -387224.000000 0 0 1
23.196776 -17.932257 26.084756 39.243735 -0.658090 0.843723 0.068944 -0.008562 -215417.000000 0 0 1
24.260676 -17.494757 25.251316 39.144296 -0.624758 0.869665 0.049917 -0.011734 127156.000000 0 0 1
25.537276 -17.051557 26.085286 40.290820 -0.588726 0.866595 0.066884 -0.015367 844397.000000 0 0 1
26.378076 -18.052957 26.575466 41.568829 -0.600174 0.877193 0.078949 -0.011430 -211897.000000 0 0 1
27.083776 -18.758257 25.643386 41.749088 -0.605743 0.909391 0.062259 -0.022665 -1299320.000000 0 0 1
27.677076 -20.128357 26.123266 43.053412 -0.628786 0.918813 0.063897 -0.030568 -176501.000000 0 0 1
28.633976 -20.000657 27.129106 44.225776 -0.609714 0.910409 0.065218 -0.021804 -408505.000000 0 0 1
29.159776 -21.224457 27.557276 45.389135 -0.629185 0.918348 0.070825 -0.029609 138972.000000 0 0 1
28.204576 -22.314657 28.184376 45.692462 -0.669334 0.906090 0.071347 -0.020648 262297.000000 0 0 1
27.523476 -21.902857 29.360496 45.818289 -0.672167 0.875253 0.078897 -0.013205 -130797.000000 0 0 1
27.062776 -23.054057 30.020796 46.530974 -0.705581 0.869539 0.077521 -0.013559 -629668.000000 0 0 1
26.565676 -22.689757 31.428060 46.992374 -0.706870 0.838215 0.067892 -0.012016 -133899.000000 0 0 1
26.135876 -23.835057 32.148032 47.798430 -0.739388 0.833113 0.064005 -0.012286 117948.000000 0 0 1
25.743076 -23.519757 33.456146 48.323893 -0.740297 0.806081 0.051022 0.000453 -106168.000000 0 0 1
25.628476 -24.849557 -33.052412 48.649575 -0.769969 2.317738 0.053061 -0.010019 542332.000000 0 0 1
24.481476 -25.688947 -33.217032 48.606953 -0.809461 2.323179 0.070090 -0.021595 103478.000000 0 0 1
24.348176 -26.380327 32.929697 48.714682 -0.825436 0.828515 0.069621 -0.021434 218348.000000 0 0 1
22.983776 -27.097287 32.731197 48.309918 -0.867351 0.826403 0.083932 -0.018131 377850.000000 0 0 1
22.993576 -28.386967 33.313296 49.439864 -0.889985 0.831437 0.082468 -0.026401 -507270.000000 0 0 1
21.701976 -28.883267 33.424586 49.218105 -0.926420 0.824245 0.108421 -0.029142 -822654.000000 0 0 1
21.617476 -30.466007 33.622126 50.258733 -0.953683 0.837960 0.087795 -0.027143 -206126.000000 0 0 1
22.313976 -30.966717 -32.649242 50.227722 -0.946392 2.278413 0.059307 -0.022194 692458.000000 0 0 1
23.616076 -31.470957 -32.987052 51.344773 -0.927034 2.268503 0.041112 -0.007364 371883.000000 0 0 1
24.345576 -32.058917 -31.741422 51.264013 -0.921306 2.238489 0.031680 0.003334 142974.000000 0 0 1
25.641776 -32.590327 -32.120012 52.453077 -0.904162 2.229835 0.030640 0.014271 994453.000000 0 0 1
26.296176 -33.262567 -31.064152 52.562998 -0.901836 2.203081 0.026386 0.030777 113861.000000 0 0 1
26.837376 -32.313177 -29.933522 51.579084 -0.877709 2.189945 0.022401 0.021665 -865635.000000 0 0 1
27.109976 -33.036367 -28.752142 51.507650 -0.883614 2.163024 0.045992 0.018672 -16779.500000 0 0 1
27.775176 -32.248147 -27.790282 50.830140 -0.859781 2.149248 0.056178 0.009038 -275450.000000 0 0 1
27.433076 -32.652857 -26.337312 50.124213 -0.872053 2.124030 0.075792 0.004981 203876.000000 0 0 1
28.050876 33.772819 -25.917682 50.982165 0.877688 2.104084 0.076730 0.025615 182744.000000 0 0 1
29.420476 33.825559 -25.614992 51.631973 0.854936 2.089906 0.075132 0.009445 -204641.000000 0 0 1
-27.912544 -30.207562 9.172708 42.139596 0.824865 1.351365 0.092852 -0.011245 39247.600000 0 0 1
-28.007494 -31.221862 10.112208 43.144886 0.839615 1.334218 0.099901 -0.016805 -48528.700000 0 0 1
-26.703694 -31.624562 10.493708 42.700330 0.869564 1.322501 0.087801 -0.018188 -15832.400000 0 0 1
-26.497784 -32.698762 11.597808 43.656051 0.889770 1.301905 0.082621 -0.018790 -180177.000000 0 0 1
-26.652554 33.557543 11.297708 44.318231 -0.899581 1.313029 0.095934 -0.002637 -578440.000000 0 0 1
-27.962234 33.143643 11.022108 44.742312 -0.869990 1.321888 0.079555 -0.024177 -380809.000000 0 0 1
-28.228384 31.700443 10.704508 43.776092 -0.843270 1.323763 0.089623 -0.020181 120522.000000 0 0 1
-27.628424 31.447743 9.447208 42.913170 -0.849959 1.348831 0.127029 -0.036903 38445.300000 0 0 1
-27.706124 30.091043 9.121908 41.908345 -0.826638 1.351377 0.140008 -0.032493 -8089.010000 0 0 1
-27.007324 29.802343 7.775808 40.963867 -0.834558 1.379816 0.119859 -0.025327 -844109.000000 0 0 1
-25.634674 29.683443 7.881908 40.004597 -0.858459 1.372474 0.109082 -0.017334 -1008900.000000 0 0 1
-25.059914 29.613343 6.634808 39.356957 -0.868491 1.401407 0.098731 -0.010927 385202.000000 0 0 1
-23.660124 28.898443 6.587308 37.925112 -0.884736 1.396218 0.120483 -0.011948 602478.000000 0 0 1
-23.615024 27.498843 6.749908 36.870273 -0.861236 1.386686 0.105601 -0.010842 -126211.000000 0 0 1
-24.324824 26.830943 5.753208 36.670097 -0.834349 1.413254 0.083907 -0.015623 -440159.000000 0 0 1
-24.552924 25.332343 6.025808 35.789441 -0.801021 1.401622 0.104191 -0.012626 -1173430.000000 0 0 1
-25.578294 25.202943 6.925708 36.570520 -0.778007 1.380266 0.114158 -0.014582 -466391.000000 0 0 1
-25.856984 23.844843 7.199208 35.902490 -0.744936 1.368907 0.122590 -0.029560 -114183.000000 0 0 1
-26.474974 22.917743 6.155308 35.553270 -0.713503 1.396790 0.111836 -0.042133 391916.000000 0 0 1
-27.858444 23.153943 5.815108 36.688056 -0.693436 1.411624 0.108306 -0.040476 1002010.000000 0 0 1
-28.318024 22.585043 4.596508 36.511951 -0.673245 1.444571 0.102119 -0.037024 -36488.200000 0 0 1
-27.915194 23.342843 3.342508 36.542014 -0.696431 1.479198 0.086259 -0.032504 110231.000000 0 0 1
-26.517564 23.571043 3.198508 35.623107 -0.726640 1.480888 0.088567 -0.031919 358220.000000 0 0 1
-26.201124 24.048943 1.897708 35.615332 -0.742595 1.517488 0.084138 -0.037094 707049.000000 0 0 1
-24.714124 24.542543 1.821308 34.877522 -0.781915 1.518552 0.073652 -0.026973 728051.000000 0 0 1
-24.322724 25.141843 0.616108 34.986952 -0.801956 1.553186 0.066882 -0.026686 -75976.500000 0 0 1
-23.122824 25.891243 0.738208 34.721268 -0.841820 1.549534 0.091895 -0.028968 -195101.000000 0 0 1
-22.603024 26.436843 -0.623692 34.787819 -0.863417 1.588726 0.110880 -0.026549 108666.000000 0 0 1
-22.382224 25.409143 -1.597092 33.898956 -0.848650 1.617927 0.097102 -0.025875 642832.000000 0 0 1
-21.069324 24.834043 -1.459692 32.600258 -0.867229 1.615587 0.090320 -0.036890 435321.000000 0 0 1
-20.831424 23.673243 -2.476792 31.630763 -0.849166 1.649180 0.098806 -0.050519 108737.000000 0 0 1
-21.468324 22.419843 -2.063292 31.109412 -0.807075 1.637169 0.094738 -0.036690 180876.000000 0 0 1
-21.387724 21.331043 -3.014192 30.356770 -0.784071 1.670252 0.094779 -0.034353 -336423.000000 0 0 1
-22.541424 21.313043 -4.019292 31.281246 -0.757395 1.699641 0.085716 -0.030274 -350392.000000 0 0 1
-22.496824 22.377843 -4.946792 32.114572 -0.782747 1.725448 0.084134 -0.028331 -459601.000000 0 0 1
-23.645724 22.388743 -5.731292 33.063935 -0.758100 1.745016 0.112425 -0.028014 -224592.000000 0 0 1
-23.374024 22.990443 -7.119992 33.549959 -0.777125 1.784643 0.140353 -0.023807 -271963.000000 0 0 1
-23.044124 21.996843 -8.012892 32.849646 -0.762151 1.817209 0.107091 -0.020759 199933.000000 0 0 1
-22.495724 22.605443 -9.181392 33.186769 -0.787831 1.851111 0.116229 -0.023309 -273058.000000 0 0 1
-22.052824 21.606943 -10.291792 32.543940 -0.775186 1.892563 0.105347 -0.021228 681947.000000 0 0 1
-23.176224 21.046843 -10.997492 33.182101 -0.737284 1.908614 0.087498 -0.018933 530443.000000 0 0 1
-22.838824 20.657543 -12.301592 33.161350 -0.735292 1.950841 0.067061 -0.010436 291364.000000 0 0 1
-24.065724 20.570543 -13.272492 34.328784 -0.707254 1.967770 0.062537 -0.023827 653823.000000 0 0 1
-24.866624 19.437843 -13.027292 34.145118 -0.663472 1.962244 0.080872 -0.017289 -59301.600000 0 0 1
-26.218174 19.507743 -13.407092 35.322724 -0.639685 1.960117 0.095207 -0.029433 142019.000000 0 0 1
-26.926294 18.161843 -13.614392 35.216893 -0.593408 1.967724 0.153421 -0.035904 -217102.000000 0 0 1
-26.481654 17.457543 -14.719992 34.967442 -0.582838 2.005303 0.145005 -0.031151 -71640.400000 0 0 1
-27.139754 16.217243 -14.824592 34.918960 -0.538613 2.009253 0.153808 -0.031384 -259970.000000 0 0 1
-26.828854 15.372143 -16.058692 34.842098 -0.520308 2.049804 0.162142 -0.025827 -22946.800000 0 0 1
-25.581424 14.734343 -15.916592 33.538754 -0.522569 2.065275 0.171793 -0.023168 19360.200000 0 0 1
-24.959014 14.497643 -17.170392 33.585063 -0.526226 2.107436 0.162696 -0.033962 233262.000000 0 0 1
-23.973524 13.308643 -17.193792 32.364739 -0.506780 2.130873 0.158769 -0.032084 -337720.000000 0 0 1
-22.751224 13.490543 -16.559392 31.206192 -0.535226 2.130157 0.158806 -0.042052 -472776.000000 0 0 1
-21.986924 12.290343 -16.599092 30.166326 -0.509715 2.153463 0.146427 -0.026768 60689.400000 0 0 1
-20.758024 12.387043 -15.659492 28.801981 -0.538015 2.145630 0.141364 -0.037096 451931.000000 0 0 1
-19.751324 13.283543 -16.153192 28.766177 -0.592057 2.167035 0.115813 -0.025042 835701.000000 0 0 1
-18.716124 13.530243 -15.196992 27.646146 -0.625943 2.152797 0.099164 -0.015664 702451.000000 0 0 1
-17.695224 14.665943 -15.573892 27.762510 -0.692062 2.166352 0.087977 -0.007763 272790.000000 0 0 1
-16.824924 14.346243 -16.658692 27.684017 -0.706047 2.216479 0.112508 -0.025503 194068.000000 0 0 1
-16.162224 15.517443 -17.005392 28.128134 -0.765048 2.220021 0.101631 -0.020712 -266712.000000 0 0 1
-15.397724 15.574343 -18.357092 28.576790 -0.791101 2.268393 0.131261 -0.022412 -52854.200000 0 0 1
-14.402724 14.599043 -18.424792 27.568886 -0.792167 2.302742 0.131103 -0.015764 -446097.000000 0 0 1
-13.567324 14.730043 -19.533192 27.974847 -0.826464 2.343734 0.171896 -0.025409 -116838.000000 0 0 1
-12.343424 13.791243 -19.551792 26.922687 -0.840740 2.383604 0.154193 -0.019387 -112652.000000 0 0 1
-12.608024 12.453143 -19.944192 26.679840 -0.779218 2.415144 0.164621 -0.024122 -660048.000000 0 0 1
-11.564024 11.561543 -19.742492 25.635170 -0.785291 2.449846 0.136404 -0.014764 -551921.000000 0 0 1
-11.750124 10.204343 -20.375292 25.638771 -0.715106 2.489320 0.147529 -0.031340 -44373.100000 0 0 1
-11.669024 10.171643 -21.775392 26.716964 -0.716946 2.523594 0.160550 -0.041733 -174959.000000 0 0 1
-11.738724 8.861643 -22.333792 26.741814 -0.646634 2.559227 0.155302 -0.029202 -7401.170000 0 0 1
-11.430124 8.848843 -23.815392 27.858978 -0.658790 2.596068 0.141147 -0.029758 851555.000000 0 0 1
-10.072124 9.017443 -24.259792 27.772279 -0.730205 2.633195 0.136153 -0.025412 458665.000000 0 0 1
-10.014424 8.427343 -25.577102 28.731463 -0.699551 2.668607 0.093669 -0.032207 -8599.140000 0 0 1
-9.932824 9.414743 -26.802012 30.093957 -0.758627 2.669484 0.140380 -0.040300 -159381.000000 0 0 1
-8.672424 9.991043 -27.026472 30.090897 -0.855933 2.686365 0.104307 -0.042431 -183260.000000 0 0 1
-8.370124 11.082243 -26.211532 29.663437 -0.923929 2.654358 0.083464 -0.029780 -592584.000000 0 0 1
-6.921824 11.556743 -26.352892 29.596366 -1.031155 2.669041 0.079951 -0.032005 -371101.000000 0 0 1
-6.642124 12.320843 -27.528482 30.882654 -1.076363 2.671199 0.082681 -0.052785 -575444.000000 0 0 1
-5.326724 12.748643 -27.557492 30.827216 -1.175017 2.676843 0.106220 -0.046036 -997981.000000 0 0 1
-4.715724 12.762443 -28.936502 31.975603 -1.216856 2.702072 0.113013 -0.043520 -690790.000000 0 0 1
-3.319324 12.821743 -28.940352 31.827017 -1.317475 2.712399 0.131716 -0.054775 -213876.000000 0 0 1
-2.747224 12.879543 -30.266252 33.007210 -1.360644 2.731186 0.129284 -0.053581 1272480.000000 0 0 1
-1.201424 12.565343 -30.222952 32.752986 -1.475472 2.745963 0.158337 -0.065888 651374.000000 0 0 1
-0.854524 11.268743 -29.788572 31.860223 -1.495110 2.778990 0.133632 -0.041600 995418.000000 0 0 1
0.523476 10.858843 -29.951192 31.863183 1.522626 2.793408 0.152664 -0.052180 1269620.000000 0 0 1
1.078976 10.594943 -31.367522 33.126099 1.469307 2.814289 0.171487 -0.044438 -312489.000000 0 0 1
1.342976 11.702843 -32.247062 34.331227 1.456540 2.791359 0.169208 -0.058191 189068.000000 0 0 1
1.510476 11.213843 -33.587582 35.442312 1.436905 2.816650 0.186612 -0.047851 -223557.000000 0 0 1
2.015076 12.254043 32.835278 35.105236 1.407813 0.361582 0.165052 -0.050092 263875.000000 0 0 1
3.449576 12.371743 32.819043 35.242719 1.298876 0.373025 0.173678 -0.055088 541871.000000 0 0 1
3.917576 13.099243 31.742793 34.562154 1.280194 0.406712 0.154293 -0.046072 -251306.000000 0 0 1
5.441876 13.144943 31.585348 34.641561 1.178288 0.423208 0.150075 -0.039670 -317602.000000 0 0 1
6.058076 11.889443 31.266711 33.995094 1.099551 0.403374 0.164502 -0.048338 -432460.000000 0 0 1
7.430976 12.079743 31.106986 34.187486 1.019304 0.427768 0.144980 -0.031439 -400388.000000 0 0 1
8.193076 10.799743 30.668666 33.531001 0.921791 0.416189 0.106783 -0.027443 -50342.300000 0 0 1
8.086776 10.606043 29.306856 32.199005 0.919363 0.427080 0.115084 -0.037220 -73120.900000 0 0 1
8.806476 9.495343 28.824536 31.600150 0.823020 0.422261 0.113453 -0.033148 140674.000000 0 0 1
8.060076 8.749143 27.673406 30.121915 0.826369 0.405986 0.113731 -0.034393 32910.100000 0 0 1
7.217676 7.760743 28.188596 30.115128 0.821639 0.359628 0.120982 -0.037211 -430652.000000 0 0 1
6.539876 7.081243 27.172226 28.831300 0.825122 0.340895 0.143634 -0.041951 19017.300000 0 0 1
5.564376 5.979143 27.623806 28.806026 0.821313 0.287487 0.155750 -0.047054 309537.000000 0 0 1
6.262676 4.821543 28.142006 29.230821 0.656107 0.273797 0.116667 -0.041439 53329.100000 0 0 1
5.427476 4.001943 28.882886 29.659639 0.635355 0.229364 0.129545 -0.045070 -520141.000000 0 0 1
6.167076 2.804443 29.525926 30.293202 0.426792 0.225548 0.128033 -0.034743 138902.000000 0 0 1
6.293276 1.708443 28.618276 29.351829 0.265083 0.224038 0.118694 -0.033424 -415436.000000 0 0 1
7.618676 1.291043 28.524116 29.552263 0.167863 0.264554 0.114691 -0.026077 -472003.000000 0 0 1
7.721276 -0.144457 27.883266 28.932949 -0.018707 0.270190 0.115618 -0.027461 23680.500000 0 0 1
7.436176 -1.140657 28.830156 29.795566 -0.152207 0.255255 0.101515 -0.037086 23317.500000 0 0 1
7.704676 -2.374657 28.283426 29.410087 -0.298972 0.277690 0.115341 -0.036081 131158.000000 0 0 1
8.949176 -3.154257 28.813276 30.335490 -0.338868 0.318134 0.100583 -0.026544 314468.000000 0 0 1
10.192776 -2.615857 28.420646 30.306246 -0.251217 0.354610 0.069815 -0.018930 72897.500000 0 0 1
11.154576 -3.670457 28.302976 30.642377 -0.317894 0.393286 0.108995 -0.027426 -145527.000000 0 0 1
12.625376 -3.249357 28.395276 31.245002 -0.251900 0.430411 0.084027 -0.028254 644764.000000 0 0 1
13.675476 -4.199557 28.116356 31.546544 -0.297946 0.470667 0.114023 -0.039162 740819.000000 0 0 1
13.874776 -5.309457 28.973016 32.559721 -0.365478 0.473797 0.131893 -0.039713 -474644.000000 0 0 1
13.272076 -6.660557 28.375326 32.026086 -0.465124 0.482136 0.147174 -0.033927 -290937.000000 0 0 1
11.883776 -6.690057 28.267416 31.385153 -0.512737 0.449506 0.144898 -0.033235 -789313.000000 0 0 1
11.377776 -7.972857 27.959496 31.221045 -0.611222 0.461167 0.175766 -0.038358 1558870.000000 0 0 1
9.804476 -8.037357 27.762166 30.519907 -0.686677 0.428377 0.194877 -0.038452 1133220.000000 0 0 1
9.026576 -7.902657 28.916006 31.306014 -0.719106 0.393281 0.223131 -0.042638 -195947.000000 0 0 1
7.707876 -7.610857 28.466746 30.458039 -0.779065 0.363602 0.224425 -0.037253 -104435.000000 0 0 1
6.871676 -7.256757 29.708166 31.344148 -0.812647 0.324514 0.197758 -0.049606 -256489.000000 0 0 1
6.528176 -8.323057 30.629896 32.404952 -0.905672 0.332520 0.222973 -0.065002 203031.000000 0 0 1
5.790176 -7.852857 31.735015 33.200974 -0.935451 0.298271 0.216761 -0.050103 -289418.000000 0 0 1
6.639976 -7.015457 32.778812 34.172452 -0.812888 0.286576 0.185839 -0.027679 291767.000000 0 0 1
7.002576 -5.719557 32.390159 33.628438 -0.684889 0.272215 0.184143 -0.031672 38676.000000 0 0 1
7.217876 -4.799057 33.415946 34.521792 -0.586768 0.253794 0.141547 -0.016042 21593.200000 0 0 1
7.438376 -3.312557 32.932206 33.923925 -0.418966 0.242393 0.128518 -0.039286 -118711.000000 0 0 1
6.238576 -2.714157 32.530029 33.233858 -0.410361 0.206171 0.155948 -0.049106 -72785.500000 0 0 1
6.543576 -1.441157 31.955325 32.650240 -0.216779 0.206686 0.121277 -0.026771 235904.000000 0 0 1
5.336876 -0.883157 31.158306 31.624394 -0.163996 0.171899 0.173279 -0.052688 456353.000000 0 0 1
4.311676 -0.274957 31.913809 32.204928 -0.063684 0.134560 0.155485 -0.037549 -701725.000000 0 0 1
3.196376 0.150043 31.249906 31.413309 0.046907 0.102041 0.163418 -0.044058 227604.000000 0 0 1
2.034776 0.677843 32.193330 32.264691 0.321567 0.066521 0.154586 -0.039962 1193270.000000 0 0 1
2.561376 1.874043 32.807659 32.960813 0.631657 0.096438 0.149198 -0.033771 1040930.000000 0 0 1
1.520676 2.456343 33.612826 33.736748 1.016465 0.085737 0.126171 -0.042336 667354.000000 0 0 1
2.081076 3.438443 -32.684752 32.930940 1.026534 3.019239 0.120780 -0.038307 -41105.600000 0 0 1
2.883876 2.886743 -31.672632 31.934396 0.785895 3.013467 0.102164 -0.016159 -227614.000000 0 0 1
3.310376 3.919443 -30.864582 31.288066 0.869444 2.976877 0.096388 -0.022913 223941.000000 0 0 1
4.360176 3.584943 -29.738812 30.269785 0.688133 2.954014 0.096733 -0.017922 279282.000000 0 0 1
3.820876 2.755343 -28.739782 29.123291 0.624766 2.979127 0.102884 -0.026645 -74335.000000 0 0 1
4.701176 2.621943 -27.656552 28.175530 0.508752 2.949362 0.102079 -0.029849 -413839.000000 0 0 1
4.209876 1.813843 -26.467692 26.861716 0.406819 2.970101 0.094125 -0.029887 -290446.000000 0 0 1
4.265976 0.386143 -26.568612 26.911685 0.090271 2.981747 0.117425 -0.027170 96383.300000 0 0 1
3.817176 -0.269357 -25.393022 25.679738 -0.070448 2.992021 0.118888 -0.022281 -330014.000000 0 0 1
4.460476 -1.633157 -25.177932 25.622086 -0.350980 2.955125 0.128387 -0.033526 -938374.000000 0 0 1
5.808776 -1.597757 -24.876192 25.595305 -0.268421 2.903988 0.118326 -0.037175 -935535.000000 0 0 1
6.217376 -2.966157 -24.745092 25.686055 -0.445140 2.870082 0.122684 -0.036246 97653.400000 0 0 1
7.692576 -3.118757 -24.315292 25.693108 -0.385174 2.812618 0.128795 -0.047277 152229.000000 0 0 1
8.626276 -2.926357 -25.339742 26.927286 -0.327055 2.796498 0.113592 -0.044914 -1336270.000000 0 0 1
9.910176 -3.226857 -24.940992 27.031043 -0.314784 2.745770 0.113371 -0.036995 -756934.000000 0 0 1
-30.499514 -3.645357 17.173916 35.191653 0.118957 1.060987 0.142038 -0.021952 -203044.000000 0 0 1
-31.888744 -3.676957 17.325516 36.477192 0.114799 1.075868 0.137002 -0.006356 -568468.000000 0 0 1
-32.409314 -4.718457 18.102316 37.420868 0.144574 1.065863 0.129281 -0.020280 905489.000000 0 0 1
-33.902964 -4.450257 18.486416 38.871112 0.130518 1.075170 0.100757 -0.016957 442516.000000 0 0 1
-34.885714 -4.454757 17.510916 39.287277 0.127008 1.108824 0.096256 -0.021371 613199.000000 0 0 1
-36.192544 -4.683357 18.077316 40.726201 0.128686 1.110879 0.106113 -0.013395 836394.000000 0 0 1
-37.324904 -4.365957 17.087616 41.281917 0.116443 1.144035 0.088270 -0.017081 -1679070.000000 0 0 1
37.199510 -4.575557 17.523316 41.373976 -0.122386 1.133453 0.100812 -0.010141 -1617370.000000 0 0 1
36.238790 -4.123557 16.597916 40.071741 -0.113301 1.143727 0.093002 -0.023079 -310499.000000 0 0 1
34.786990 -4.509857 16.808216 38.897167 -0.128923 1.123955 0.086889 -0.011582 -220207.000000 0 0 1
34.092690 -3.840357 17.857316 38.677430 -0.112172 1.090887 0.102286 -0.014936 721384.000000 0 0 1
32.862010 -4.443757 18.250316 37.851456 -0.134409 1.067682 0.147407 -0.014894 262176.000000 0 0 1
32.116610 -3.755257 19.384316 37.700535 -0.116397 1.030762 0.163745 -0.020755 -13704.600000 0 0 1
31.110770 -2.799357 19.074516 36.599912 -0.089739 1.022583 0.165633 -0.015581 74889.000000 0 0 1
31.506880 -1.575257 18.481316 36.561236 -0.049956 1.040847 0.170356 -0.019007 227849.000000 0 0 1
30.546240 -0.346257 18.807016 35.873340 -0.011335 1.018949 0.160077 -0.007920 447744.000000 0 0 1
30.934350 0.924843 18.314816 35.961394 0.029888 1.036436 0.168174 -0.019381 -195501.000000 0 0 1
30.070040 1.961743 18.677216 35.452703 0.065147 1.015941 0.154389 -0.029462 -129511.000000 0 0 1
30.608440 3.341343 18.231716 35.783190 0.108734 1.036187 0.161608 -0.029958 83280.600000 0 0 1
30.539740 3.701943 16.900716 35.100062 0.120629 1.068430 0.171199 -0.012643 -32402.100000 0 0 1
29.282340 4.136043 16.417616 33.824554 0.140319 1.064003 0.182070 -0.023422 80246.000000 0 0 1
29.309040 4.596743 14.940116 33.216817 0.155570 1.104282 0.171359 -0.012751 -360214.000000 0 0 1
28.646440 5.778243 14.621616 32.677183 0.199038 1.106877 0.200261 -0.033048 -120292.000000 0 0 1
28.406040 5.763343 13.229216 31.861127 0.200174 1.142617 0.162471 -0.022490 -132435.000000 0 0 1
27.637240 7.059743 12.839916 31.281312 0.250095 1.147831 0.177154 -0.007928 -328431.000000 0 0 1
26.350240 7.162743 13.394916 30.414862 0.265415 1.114744 0.131523 -0.012039 238759.000000 0 0 1
25.634640 8.275343 12.856316 29.847964 0.312258 1.125498 0.166490 -0.029186 451648.000000 0 0 1
24.255240 8.522143 13.575416 29.072935 0.337879 1.084965 0.153696 -0.035709 748345.000000 0 0 1
23.106840 7.792243 13.188716 27.723408 0.325250 1.075008 0.149045 -0.016787 788440.000000 0 0 1
23.124740 6.400343 13.487216 27.524952 0.270015 1.058707 0.158385 -0.017094 -1575020.000000 0 0 1
21.796840 5.726543 13.210916 26.123243 0.256917 1.040586 0.170988 -0.016211 -901105.000000 0 0 1
21.445740 5.365243 11.904816 25.108370 0.245146 1.076812 0.174489 -0.030618 244446.000000 0 0 1
20.556040 4.298043 11.903916 24.139743 0.206120 1.055118 0.167818 -0.020361 -328206.000000 0 1 0
20.040540 4.002143 10.463616 22.959261 0.197109 1.097585 0.176072 -0.024318 -296186.000000 0 1 0
21.092340 3.406843 9.762716 23.490509 0.160137 1.142191 0.183014 -0.030333 213712.000000 0 1 0
20.842140 3.134543 8.433416 22.701160 0.149276 1.190175 0.203581 -0.034745 -421225.000000 0 1 0
22.053740 2.588543 7.659216 23.488968 0.116840 1.238645 0.212218 -0.031103 -1053180.000000 0 1 0
22.583540 1.397443 8.202816 24.067724 0.061800 1.223005 0.236430 -0.032824 588006.000000 0 1 0
23.313640 0.644643 7.247016 24.422543 0.027644 1.269525 0.218492 -0.025693 653723.000000 0 1 0
24.809540 1.145643 7.112316 25.834295 0.046145 1.291889 0.183614 -0.020253 584227.000000 0 0 1
25.780340 0.706343 8.056216 27.019021 0.027392 1.268023 0.172441 -0.006515 660790.000000 0 0 1
25.765040 1.398743 9.274316 27.419094 0.054235 1.225747 0.175330 -0.015933 -509192.000000 0 0 1
26.669240 0.784643 10.352816 28.618959 0.029413 1.200655 0.136641 -0.011308 -542439.000000 0 0 1
28.047740 0.989443 10.197616 29.860444 0.035262 1.222274 0.157505 -0.030843 -411020.000000 0 0 1
28.638940 0.342043 11.286316 30.784522 0.011943 1.195420 0.126154 -0.017108 -456460.000000 0 0 1
30.162240 0.540743 11.269916 32.203480 0.017926 1.213268 0.184746 -0.025849 -181543.000000 0 0 1
30.482740 1.891743 11.558416 32.655369 0.061980 1.209004 0.186840 -0.023584 965090.000000 0 0 1
31.858780 2.229243 11.283116 33.871228 0.069859 1.231188 0.182507 -0.028639 645515.000000 0 0 1
32.389950 3.461243 12.082216 34.742899 0.106458 1.215615 0.181421 -0.036452 1645030.000000 0 0 1
33.797580 3.655543 11.733616 35.962719 0.107741 1.238440 0.171807 -0.040938 2034990.000000 0 0 1
34.515390 4.722843 12.384716 36.972944 0.135988 1.229226 0.155761 -0.041737 31665.200000 0 0 1
35.859210 4.994443 11.674616 38.041084 0.138389 1.258868 0.189334 -0.033523 -508034.000000 0 0 1
36.800660 4.078943 12.139816 38.965389 0.110388 1.253969 0.186320 -0.039766 -650405.000000 0 0 1
-37.681364 4.404843 11.719116 39.706745 -0.116369 1.271192 0.177907 -0.027614 -53773.700000 0 0 1
-36.640144 3.423043 12.373216 38.824141 -0.093153 1.246440 0.163459 -0.022261 -368919.000000 0 0 1
-36.587534 2.077043 11.909416 38.533051 -0.056708 1.256581 0.143185 -0.021622 545093.000000 0 0 1
-37.652554 1.137743 12.167716 39.586142 -0.030208 1.258365 0.148834 -0.024567 333555.000000 0 0 1
37.704930 0.878843 13.701316 40.126801 0.023304 1.222337 0.154102 -0.021560 132396.000000 0 0 1
-37.098974 0.132643 14.398116 39.795191 -0.003575 1.200593 0.130438 -0.024910 377765.000000 0 0 1
-37.500534 0.095443 15.755716 40.676059 -0.002545 1.173045 0.131664 -0.029222 29997.500000 0 0 1
-36.542644 -0.755857 16.646316 40.162620 0.020681 1.143433 0.111984 -0.017444 117062.000000 0 0 1
-35.262118 -0.163557 16.783916 39.053087 0.004638 1.126556 0.111595 -0.022424 -13758.900000 0 0 1
-34.283289 -0.938657 17.405416 38.460025 0.027373 1.101164 0.104161 -0.013283 10462.400000 0 0 1
-34.223181 -0.752957 18.942916 39.123231 0.021998 1.065364 0.080403 -0.019917 608659.000000 0 0 1
-35.311353 -1.463057 19.614416 40.419767 0.041409 1.064127 0.079474 -0.025595 1095570.000000 0 0 1
-35.178278 -1.435757 21.017516 41.003764 0.040791 1.032615 0.068238 -0.030383 -104687.000000 0 0 1
-36.035364 -2.541757 21.658716 42.120162 0.070418 1.030707 0.066644 -0.023143 -391414.000000 0 0 1
-35.398599 -3.807857 21.731516 41.711143 0.107159 1.022774 0.076941 -0.025799 174477.000000 0 0 1
-36.054874 -4.842757 22.449196 42.747780 0.133517 1.017899 0.072175 -0.026176 -134063.000000 0 0 1
-36.328844 -4.621657 23.932036 43.747995 0.126538 0.991969 0.074473 -0.024700 -95820.300000 0 0 1
-35.112720 -4.544357 24.626566 43.127973 0.128707 0.963059 0.087002 -0.024395 -478088.000000 0 0 1
-35.260600 -4.432957 25.996476 44.031555 0.125064 0.939235 0.089200 -0.027786 -541328.000000 0 0 1
-34.077999 -3.715357 26.639496 43.414015 0.108596 0.910165 0.106005 -0.026967 -394477.000000 0 0 1
-33.923814 -2.341557 26.288046 42.981036 0.068915 0.912690 0.105485 -0.021461 14947.200000 0 0 1
-33.281404 -2.221957 25.035946 41.705966 0.066664 0.926925 0.095425 -0.015538 -638366.000000 0 0 1
-33.107014 -0.791557 24.572226 41.237062 0.023904 0.932439 0.101155 -0.015932 109032.000000 0 0 1
-34.336249 -0.103657 24.488556 42.174378 0.003019 0.951269 0.101186 -0.031087 -41987.200000 0 0 1
-34.088937 1.261943 24.165166 41.804347 -0.037002 0.954455 0.113838 -0.020090 118104.000000 0 0 1
-35.355831 2.072643 23.799156 42.670019 -0.058555 0.979125 0.113471 -0.021151 181753.000000 0 0 1
-35.948183 1.562943 22.587766 42.484372 -0.043450 1.010222 0.120974 -0.025017 -821517.000000 0 0 1
-37.062924 2.226443 22.123816 43.221299 -0.060000 1.033433 0.132374 -0.022029 -584190.000000 0 0 1
-36.915904 3.656643 21.576916 42.915246 -0.098731 1.043985 0.122111 -0.020330 -195229.000000 0 0 1
-36.147874 3.818943 20.372716 41.668942 -0.105257 1.059947 0.108216 -0.020638 -363074.000000 0 0 1
-36.831444 3.581343 19.170816 41.676151 -0.096931 1.092807 0.145433 -0.031210 -454617.000000 0 0 1
-36.019504 2.905743 18.065316 40.400541 -0.080497 1.107214 0.144138 -0.026798 -436349.000000 0 0 1
-35.105826 3.789143 17.479616 39.399412 -0.107519 1.111127 0.134914 -0.033333 -102747.000000 0 0 1
-34.644560 3.204043 16.261816 38.405184 -0.092221 1.133571 0.149576 -0.027860 -287970.000000 0 0 1
-33.816974 4.105343 15.337416 37.358773 -0.120808 1.147746 0.152682 -0.028866 -84140.400000 0 0 1
-34.527521 5.208143 14.794216 37.922860 -0.149712 1.170042 0.170512 -0.034065 115018.000000 0 0 1
-33.625874 6.166643 14.247716 37.036797 -0.181374 1.175923 0.188344 -0.031759 69106.800000 0 0 1
-34.214267 7.380843 13.482916 37.508425 -0.212468 1.203103 0.203555 -0.042037 -681262.000000 0 0 1
-33.191674 8.212143 13.106816 36.618509 -0.242545 1.204748 0.216202 -0.035800 -911874.000000 0 0 1
-33.583534 9.135643 12.174616 36.871873 -0.265601 1.234295 0.209582 -0.038531 -890039.000000 0 0 1
-32.572874 10.047543 11.518816 35.980945 -0.299203 1.244923 0.227976 -0.042088 -641616.000000 0 0 1
-33.138524 11.011543 10.701516 36.523121 -0.320810 1.273426 0.197207 -0.020945 -253781.000000 0 0 1
-32.137034 11.796043 10.109416 35.695041 -0.351787 1.283650 0.198250 -0.040550 2157.370000 0 0 1
-32.647254 13.108743 9.551016 36.454139 -0.381822 1.305701 0.172236 -0.028377 500862.000000 0 0 1
-31.616654 13.677343 8.719616 35.534691 -0.408290 1.322881 0.175278 -0.027580 557596.000000 0 0 1
-31.661374 15.092443 8.658816 36.127546 -0.444821 1.328767 0.144519 -0.024816 91123.600000 0 0 1
-30.571494 15.814643 7.818916 35.296666 -0.477392 1.347423 0.153018 -0.020760 60276.200000 0 0 1
-29.230094 15.673943 8.223416 34.171560 -0.492207 1.327760 0.187038 -0.019550 -272926.000000 0 0 1
-28.453194 16.642043 7.603216 33.828254 -0.529237 1.344100 0.155868 -0.045609 -335305.000000 0 0 1
-27.085574 16.825143 8.305216 32.949816 -0.555851 1.315992 0.153501 -0.032552 -269355.000000 0 0 1
-26.933954 17.426443 9.564516 33.475346 -0.574268 1.281041 0.137663 -0.029489 31010.500000 0 0 1
-27.475184 18.724743 9.688216 34.631825 -0.598212 1.287264 0.130765 -0.039202 -119221.000000 0 0 1
-27.676674 18.977443 11.164216 35.366388 -0.601053 1.249630 0.140201 -0.028667 -227503.000000 0 0 1
-26.422514 19.082243 11.785616 34.658073 -0.625468 1.223822 0.136344 -0.027432 16704.500000 0 0 1
-26.440954 19.369343 13.184516 35.328841 -0.632240 1.188347 0.131307 -0.031273 217294.000000 0 0 1
-27.062434 18.311843 14.136116 35.602370 -0.594884 1.162490 0.115639 -0.027509 192465.000000 0 0 1
-26.048004 17.339943 14.347116 34.424002 -0.587327 1.140900 0.127032 -0.031738 567607.000000 0 0 1
-26.401204 16.537543 15.477216 34.785890 -0.559601 1.109702 0.129334 -0.026038 -334152.000000 0 0 1
-25.296004 15.542043 15.878016 33.668299 -0.550946 1.079690 0.126192 -0.020451 -1092580.000000 0 0 1
-24.168124 16.167643 16.384116 33.375593 -0.589592 1.057673 0.113027 -0.022023 -6254.540000 0 0 1
-22.990124 15.346943 16.276416 32.077971 -0.588610 1.038630 0.090101 -0.037908 557497.000000 0 0 1
-22.965024 14.241743 17.367216 32.122263 -0.555104 0.999575 0.117126 -0.021188 -848188.000000 0 0 1
-22.962724 14.700043 18.699516 33.061305 -0.569434 0.969634 0.106136 -0.016931 100215.000000 0 0 1
-23.345724 13.666943 19.585416 33.397556 -0.529626 0.944149 0.104486 -0.018135 -569447.000000 0 0 1
-22.810924 13.758743 21.023616 33.935730 -0.542743 0.902675 0.103318 -0.022165 812295.000000 0 0 1
-21.376324 13.816543 21.090816 33.055509 -0.573804 0.878843 0.104326 -0.023098 829799.000000 0 0 1
-20.860724 15.128543 21.119316 33.317686 -0.627450 0.884241 0.090894 -0.011013 -727694.000000 0 0 1
-19.426824 15.251243 21.685016 32.867033 -0.665565 0.850270 0.090353 -0.021723 170867.000000 0 0 1
-18.387024 14.596043 21.023116 31.513466 -0.670963 0.840467 0.073268 -0.018919 -293933.000000 0 0 1
-17.944024 15.297043 19.901316 30.855307 -0.705936 0.869788 0.080015 -0.023735 -728924.000000 0 0 1
-16.641224 14.692643 19.222116 29.364841 -0.723290 0.857148 0.085229 -0.016460 1065530.000000 0 0 1
-15.503624 14.655743 20.055816 29.281205 -0.757292 0.816277 0.068730 -0.011628 -101774.000000 0 0 1
-14.909224 15.836443 20.513616 29.897932 -0.815547 0.814652 0.065816 -0.019223 -1265670.000000 0 0 1
-13.907124 15.468843 21.596516 29.985042 -0.838511 0.766644 0.033293 -0.020015 -230473.000000 0 0 1
-12.779524 14.796243 21.035416 28.718179 -0.858402 0.748842 0.028295 -0.007036 445652.000000 0 0 1
-11.907524 14.296943 22.076916 28.871820 -0.876330 0.700294 0.036647 -0.007172 -212422.000000 0 0 1
-10.611424 13.695543 21.606416 27.694900 -0.911606 0.675877 0.041003 -0.009308 -1674960.000000 0 0 1
-10.313324 12.621843 22.497056 27.781165 -0.885714 0.626993 0.056114 -0.011786 651830.000000 0 0 1
-9.007224 12.070443 22.309476 26.917252 -0.929718 0.593806 0.063856 -0.002669 906506.000000 0 0 1
-7.782924 12.948943 22.709336 27.275685 -1.029607 0.587037 0.066660 0.003741 -579652.000000 0 0 1
-7.403724 13.716643 21.614616 26.648698 -1.075847 0.624775 0.057016 -0.003104 -217468.000000 0 0 1
-6.564124 14.817343 21.864216 27.215535 -1.153776 0.637859 0.050864 -0.000595 245646.000000 0 0 1
-7.401024 16.080343 22.347916 28.509331 -1.139449 0.669905 0.066652 -0.012486 668357.000000 0 0 1
-8.297424 16.570143 21.349616 28.270533 -1.106553 0.714853 0.037761 -0.010025 -391263.000000 0 0 1
-7.790924 17.409843 20.346916 27.889033 -1.150022 0.753108 0.043569 -0.010239 -1234190.000000 0 0 1
-8.740924 17.529743 19.141016 27.387482 -1.108242 0.796943 0.040314 -0.015703 1325300.000000 0 0 1
-9.930624 18.361043 19.244916 28.392112 -1.075003 0.825994 0.032947 -0.013569 556426.000000 0 0 1
-10.931124 17.729143 20.004216 28.878724 -1.018287 0.805574 0.026656 -0.011585 -144589.000000 0 0 1
-12.214324 18.648143 20.138316 30.041550 -0.990922 0.836118 0.028853 -0.014589 829049.000000 0 0 1
-13.121024 18.584043 19.052616 29.673728 -0.956030 0.873601 0.036589 -0.017545 243469.000000 0 0 1
-14.338524 19.235043 19.376316 30.838641 -0.930222 0.891414 0.039189 -0.019369 415507.000000 0 0 1
-15.342924 19.315743 18.197016 30.653461 -0.899527 0.935226 0.060969 -0.016938 289088.000000 0 0 1
-16.105524 18.155943 17.822216 30.110755 -0.845173 0.937396 0.079838 -0.019262 505815.000000 0 0 1
-17.017424 18.544343 16.797616 30.259632 -0.828309 0.982293 0.096135 -0.030562 -547781.000000 0 0 1
-17.904924 17.359843 16.266516 29.774990 -0.769943 0.992838 0.096062 -0.037291 1244280.000000 0 0 1
-18.861824 16.803043 17.212516 30.567653 -0.727736 0.972669 0.097687 -0.034081 273270.000000 0 0 1
-19.846524 17.657443 17.683816 31.912179 -0.727095 0.983467 0.105877 -0.028817 -1085260.000000 0 0 1
35.738140 -9.369657 11.757408 38.771662 -0.256405 1.262698 0.081854 -0.043420 -1953330.000000 0 0 1
34.427870 -9.673557 11.654308 37.612217 -0.273918 1.255757 0.080154 -0.030428 -1554630.000000 0 0 1
34.153320 -11.027057 12.113408 37.878489 -0.312304 1.245282 0.083563 -0.031373 478976.000000 0 0 1
32.652290 -11.479557 12.081708 36.659514 -0.338073 1.234953 0.110928 -0.021397 154503.000000 0 0 1
31.938080 -10.517757 12.812108 35.983528 -0.318132 1.206754 0.125602 -0.015129 1420150.000000 0 0 1
30.485540 -10.578857 12.710708 34.682019 -0.334011 1.195560 0.127593 -0.025007 1890730.000000 0 0 1
29.727940 -11.509757 13.699408 34.697243 -0.369397 1.164917 0.118384 -0.020623 -1000370.000000 0 0 1
29.880540 -11.017557 15.040108 35.219853 -0.353254 1.129585 0.127028 -0.019860 374156.000000 0 0 1
28.919040 -11.487157 15.996108 34.987728 -0.378106 1.095961 0.132273 -0.028621 609223.000000 0 0 1
27.469840 -11.030857 15.681508 33.498979 -0.381853 1.083635 0.130261 -0.043819 -601517.000000 0 0 1
27.225740 -9.698657 15.981208 33.025806 -0.342215 1.065690 0.128488 -0.030862 -136186.000000 0 0 1
26.186340 -9.176957 15.163808 31.620911 -0.337074 1.070654 0.139411 -0.033895 141457.000000 0 0 1
25.942840 -7.755057 15.620808 31.259902 -0.290474 1.047535 0.158153 -0.041324 -263721.000000 0 0 1
27.052940 -6.921457 15.428808 31.903232 -0.250476 1.066019 0.142317 -0.031906 -444255.000000 0 0 1
26.881940 -5.568757 15.859408 31.704425 -0.204267 1.046935 0.152741 -0.029188 -519065.000000 0 0 1
28.214340 -4.846357 15.879108 32.736558 -0.170109 1.064368 0.157461 -0.025273 -456454.000000 0 0 1
28.681140 -4.440357 14.594808 32.485889 -0.153599 1.104853 0.172525 -0.031182 -328255.000000 0 0 1
29.892240 -3.756357 14.643908 33.497765 -0.125008 1.118357 0.169431 -0.024075 -431237.000000 0 0 1
30.298840 -3.258157 13.249808 33.229395 -0.107122 1.160657 0.171778 -0.030697 -65551.200000 0 0 1
30.758240 -4.205757 12.330308 33.403506 -0.135893 1.192721 0.145981 -0.036709 141819.000000 0 0 1
30.911830 -3.610457 11.059708 33.028681 -0.116272 1.229349 0.152040 -0.045095 67952.500000 0 0 1
31.579960 -4.523157 10.008908 33.435476 -0.142261 1.266785 0.150110 -0.037524 1357610.000000 0 0 1
32.973100 -4.883057 10.232108 34.867830 -0.147024 1.272958 0.145642 -0.042743 1459950.000000 0 0 1
33.440170 -5.441657 9.030208 35.062819 -0.161314 1.310317 0.144226 -0.043612 8580.050000 0 0 1
34.835430 -6.108857 8.988008 36.491226 -0.173598 1.321929 0.126741 -0.043322 -455216.000000 0 0 1
35.913610 -5.265657 9.095208 37.419745 -0.145583 1.325278 0.124730 -0.043586 -492260.000000 0 0 1
37.148500 -5.963657 8.978408 38.680590 -0.159177 1.336543 0.142185 -0.052644 204331.000000 0 0 1
-37.528294 -5.019457 8.484908 38.801566 0.132962 1.350341 0.145380 -0.054305 -265799.000000 0 0 1
-37.780904 -4.377257 7.263908 38.721073 0.115345 1.382082 0.152221 -0.050908 -332887.000000 0 0 1
-36.639514 -3.666357 6.874508 37.458711 0.099734 1.386228 0.174003 -0.046745 -120831.000000 0 0 1
-36.649214 -3.197157 5.436308 37.187904 0.087016 1.424086 0.170131 -0.048681 187197.000000 0 0 1
-35.996684 -4.122257 4.532808 36.514390 0.114021 1.446338 0.223960 -0.070877 313238.000000 0 0 1
-35.951313 -3.570957 3.227008 36.272059 0.099003 1.481712 0.238633 -0.061800 -27846.200000 0 0 1
-35.604914 -4.579357 2.106108 35.959924 0.127914 1.512195 0.346177 -0.075496 267796.000000 0 0 1
-36.552134 -5.610957 1.817408 37.024915 0.152317 1.521691 0.311354 -0.063715 117687.000000 0 0 1
-37.088234 -5.633757 0.503708 37.517064 0.150749 1.557370 0.268970 -0.060282 20644.300000 0 0 1
-36.047624 -5.659257 -0.686292 36.495608 0.155723 1.589602 0.326222 -0.068498 -66083.300000 0 0 1
-35.345359 -6.906557 -0.716292 36.020939 0.192971 1.590683 0.337938 -0.085305 675465.000000 0 0 1
-34.332796 -6.987657 -1.729192 35.079315 0.200785 1.620110 0.297750 -0.078833 851910.000000 0 0 1
-33.014294 -6.187157 -1.573892 33.625908 0.185259 1.617619 0.288524 -0.078518 183566.000000 0 0 1
-32.212094 -6.569057 -0.433392 32.877947 0.201173 1.583979 0.313600 -0.075303 554934.000000 0 0 1
-30.920904 -5.951457 -0.458192 31.491778 0.190148 1.585346 0.292758 -0.067870 453280.000000 0 0 1
-29.956694 -6.843357 0.356108 30.730472 0.224588 1.559208 0.246220 -0.062997 -474336.000000 0 0 1
-29.669114 -8.004657 -0.425892 30.732918 0.263523 1.584655 0.217984 -0.041454 245940.000000 0 0 1
-29.094644 -9.049857 0.331508 30.471432 0.301562 1.559917 0.263107 -0.056435 -130707.000000 0 0 1
-28.826934 -10.286757 -0.538192 30.612076 0.342760 1.588378 0.200677 -0.031070 -11791.600000 0 0 1
-27.918694 -10.162857 -1.626992 29.755407 0.349106 1.625502 0.167514 -0.035300 303454.000000 0 0 1
-27.407334 -11.424757 -2.066592 29.765044 0.394948 1.640282 0.164709 -0.012241 -146743.000000 0 0 1
-28.342974 -12.611557 -2.519192 31.124298 0.418657 1.651825 0.165262 -0.018592 -136750.000000 0 0 1
-28.953544 -13.378257 -1.483892 31.929413 0.432837 1.617287 0.210976 -0.034315 320309.000000 0 0 1
-29.186944 -14.612457 -2.142292 32.710718 0.464168 1.636335 0.177535 -0.027824 -565535.000000 0 0 1
-30.256204 -15.512057 -1.519392 34.034841 0.473748 1.615453 0.212751 -0.030417 -373627.000000 0 0 1
-29.901764 -16.051357 -0.211992 33.938275 0.492655 1.577043 0.192315 -0.021405 -223074.000000 0 0 1
-30.956074 -16.642057 0.463608 35.148991 0.493275 1.557606 0.190668 -0.018892 -420083.000000 0 0 1
-31.566004 -17.984657 0.057808 36.329931 0.517878 1.569205 0.188735 -0.018125 53131.100000 0 0 1
-30.601164 -19.035457 0.040608 36.038612 0.556475 1.569670 0.198334 -0.026234 340175.000000 0 0 1
-31.163624 -20.354557 -0.032192 37.222043 0.578587 1.571661 0.171235 -0.022557 314062.000000 0 0 1
-32.094214 -20.770957 1.180908 38.247429 0.574395 1.539916 0.155349 -0.019250 296438.000000 0 0 1
-31.467584 -21.227457 2.390808 38.033272 0.593462 1.507894 0.147819 -0.020906 111311.000000 0 0 1
-32.416134 -21.807657 3.273408 39.205802 0.592196 1.487206 0.117083 -0.020936 284665.000000 0 0 1
-31.777164 -22.036657 4.654608 38.949555 0.606333 1.451007 0.111131 -0.024998 270637.000000 0 0 1
-31.349914 -20.826257 5.232808 37.999110 0.586374 1.432649 0.101986 -0.022417 -89303.700000 0 0 1
-30.508984 -21.030757 6.354508 37.596152 0.603529 1.400961 0.102689 -0.023394 224630.000000 0 0 1
-30.011674 -19.710657 6.920308 36.566395 0.581117 1.380395 0.113389 -0.024050 403289.000000 0 0 1
-29.049644 -19.822457 7.980408 36.062426 0.598792 1.347655 0.101106 -0.027747 132389.000000 0 0 1
-28.490174 -18.566157 8.253808 34.993107 0.577547 1.332683 0.116185 -0.027187 106087.000000 0 0 1
-27.384924 -18.614557 9.317608 34.398454 0.596997 1.296497 0.124027 -0.026774 136540.000000 0 0 1
-27.952424 -18.933057 10.564408 35.375209 0.595350 1.267530 0.097701 -0.026325 491090.000000 0 0 1
-26.935414 -19.456857 11.414308 35.133634 0.625570 1.239909 0.093742 -0.018677 290840.000000 0 0 1
-26.261894 -18.463957 12.382708 34.408375 0.612784 1.202663 0.077709 -0.014312 -335961.000000 0 0 1
-25.199604 -17.756657 11.702708 32.973812 0.613833 1.207979 0.095988 -0.012263 513771.000000 0 0 1
-24.642824 -16.675857 12.468908 32.261845 0.594918 1.173973 0.096068 -0.009461 546082.000000 0 0 1
-23.796424 -17.110057 13.701308 32.353511 0.623376 1.133505 0.075224 -0.009091 -430066.000000 0 0 1
-24.625124 -17.352157 14.825208 33.575004 0.613842 1.113465 0.080148 -0.005371 -146508.000000 0 0 1
-23.933824 -17.494957 16.035608 33.705225 0.631212 1.074968 0.083267 -0.007536 192039.000000 0 0 1
-24.923624 -17.932357 17.159108 35.173733 0.623689 1.061184 0.065219 0.003096 450181.000000 0 0 1
-25.722824 -16.907557 17.686908 35.501491 0.581488 1.049273 0.086490 0.005259 546833.000000 0 0 1
-26.880074 -17.389057 18.388108 36.919375 0.574202 1.049435 0.069891 0.013887 234700.000000 0 0 1
-27.682324 -16.295357 19.107808 37.375902 0.532036 1.034177 0.086936 0.002972 -408826.000000 0 0 1
-27.160364 -15.873157 20.331208 37.456649 0.528887 0.997037 0.093243 -0.008493 387849.000000 0 0 1
-28.047084 -14.945557 20.990308 38.086765 0.489600 0.987093 0.099473 -0.019774 135893.000000 0 0 1
-27.386914 -14.281357 22.197508 38.035899 0.480673 0.947649 0.095495 -0.022603 -352140.000000 0 0 1
-26.416794 -13.408857 21.654908 36.695770 0.469700 0.939589 0.088161 -0.016937 34487.400000 0 0 1
-25.479964 -13.032657 22.635708 36.489094 0.472794 0.901618 0.088895 -0.025307 183660.000000 0 0 1
-24.275124 -12.199657 22.062508 34.998108 0.465692 0.888739 0.089729 -0.019773 224506.000000 0 0 1
-24.571924 -10.909157 21.655008 34.521422 0.417827 0.892725 0.112695 -0.020323 892985.000000 0 0 1
-23.553224 -10.405557 20.727208 33.055214 0.416005 0.893038 0.121424 -0.028910 274567.000000 0 0 1
-23.058024 -8.902657 20.955208 32.404483 0.368465 0.867578 0.135525 -0.023842 9726.740000 0 0 1
-22.440524 -8.562657 22.174108 32.689253 0.364519 0.825309 0.133970 -0.022040 1381650.000000 0 0 1
-21.127724 -9.180957 22.326208 32.080060 0.409928 0.801050 0.103527 -0.020604 730072.000000 0 0 1
-20.678824 -9.232757 23.771708 32.832174 0.419926 0.761159 0.104409 -0.023980 61702.000000 0 0 1
-21.013024 -10.371757 24.543308 33.933678 0.458504 0.762266 0.117304 -0.017470 106517.000000 0 0 1
-20.237824 -10.258057 25.723908 34.300389 0.469133 0.722795 0.123562 -0.026989 -621562.000000 0 0 1
-20.323024 -11.489957 26.659108 35.436598 0.514564 0.719243 0.116594 -0.032392 -539570.000000 0 0 1
-21.509024 -11.833257 27.285408 36.703645 0.502961 0.732660 0.121664 -0.029399 -825718.000000 0 0 1
-22.547024 -12.273757 26.428808 36.844203 0.498505 0.770859 0.111778 -0.026843 73266.500000 0 0 1
-23.902424 -12.556957 27.130308 38.276059 0.483715 0.782992 0.099167 -0.026749 296523.000000 0 0 1
-24.062624 -13.770057 27.866608 39.308678 0.519772 0.782834 0.090290 -0.024777 -355765.000000 0 0 1
-23.246724 -13.739957 29.007808 39.631421 0.533812 0.749632 0.100194 -0.019751 -183450.000000 0 0 1
-23.544424 -14.749457 30.159008 41.005514 0.559643 0.744412 0.078630 -0.022914 -351089.000000 0 0 1
-23.200824 -16.076757 29.861108 41.090463 0.605971 0.757267 0.072035 -0.024341 -177861.000000 0 0 1
-23.364624 -16.959857 30.986208 42.351948 0.627883 0.750078 0.073162 -0.027026 1117500.000000 0 0 1
-24.850524 -17.347557 31.422608 43.656232 0.609434 0.767320 0.078605 -0.018228 1105700.000000 0 0 1
-25.405184 -16.403457 32.283508 44.234847 0.573328 0.752737 0.085344 -0.018356 -27352.400000 0 0 1
-26.646634 -16.842857 32.825408 45.510794 0.563676 0.765167 0.082184 -0.014707 428286.000000 0 0 1
-27.444944 -15.711057 33.542808 46.099699 0.519921 0.755958 0.086531 -0.015277 137079.000000 0 0 1
-26.926504 -15.443657 -32.541701 44.972274 0.520743 2.379793 0.094014 -0.012344 456004.000000 0 0 1
-27.670084 -14.389957 -31.904601 44.616230 0.479562 2.367549 0.090566 -0.022759 -82193.900000 0 0 1
-27.034954 -14.054457 -30.545001 43.144103 0.479411 2.357425 0.086176 -0.014924 -85470.800000 0 0 1
-27.264524 -15.067157 -29.584401 42.960567 0.504859 2.330409 0.099734 -0.007180 428190.000000 0 0 1
-26.523874 -14.836957 -28.368201 41.574103 0.510017 2.321772 0.113441 0.003227 53752.200000 0 0 1
-27.104664 -15.693057 -27.202501 41.483863 0.524820 2.285955 0.100238 0.001532 468791.000000 0 0 1
-28.421194 -15.405057 -26.742901 41.955486 0.496701 2.261930 0.112940 -0.008689 412818.000000 0 0 1
-28.568374 -14.126057 -26.079501 41.180552 0.459210 2.256602 0.108225 -0.011008 -193239.000000 0 0 1
-27.684484 -13.851857 -24.788301 39.658095 0.463925 2.245992 0.116255 -0.015297 379355.000000 0 0 1
-26.331004 -13.585057 -25.139101 38.856788 0.476313 2.274398 0.093767 -0.007708 622205.000000 0 0 1
-25.363584 -13.832057 -24.132601 37.643321 0.499267 2.266709 0.085310 -0.014332 82952.100000 0 0 1
-24.816324 -15.251757 -24.088701 37.798565 0.551075 2.261775 0.075521 -0.003535 -771498.000000 0 0 1
-24.040824 -15.548957 -25.228501 38.160301 0.574103 2.293106 0.081053 -0.000912 173898.000000 0 0 1
-23.540124 -16.869757 -25.198801 38.388875 0.621806 2.286845 0.073034 -0.008004 -427353.000000 0 0 1
-22.607924 -17.310457 -26.307701 38.766806 0.653462 2.316670 0.056268 -0.003151 -218129.000000 0 0 1
-23.125424 -17.463557 -27.656801 40.058204 0.646800 2.332859 0.066097 -0.004110 46020.200000 0 0 1
-24.089324 -18.500057 -27.753001 41.143368 0.654908 2.311143 0.084615 -0.009048 -190359.000000 0 0 1
-24.640424 -18.467357 -29.171601 42.416696 0.643164 2.329166 0.082352 -0.002858 -217492.000000 0 0 1
-23.709424 -18.893257 -30.131601 42.743483 0.672828 2.353135 0.075910 -0.013606 147154.000000 0 0 1
-24.189824 -18.480657 -31.426501 43.752797 0.652391 2.372115 0.073745 -0.010153 -182737.000000 0 0 1
-23.232924 -18.614457 -32.620201 44.162702 0.675478 2.401842 0.073686 -0.016439 -394007.000000 0 0 1
-22.070424 -17.758557 -32.644401 43.221833 0.677559 2.426871 0.073830 -0.011088 485192.000000 0 0 1
-20.867924 -18.402157 -32.336001 42.658254 0.722691 2.431075 0.063201 -0.017204 -286735.000000 0 0 1
-20.375524 -19.508757 -33.315401 43.653975 0.763670 2.439001 0.059976 -0.017479 -1432890.000000 0 0 1
-20.342824 -19.049557 32.723908 42.983372 0.752580 0.705457 0.066691 -0.022245 90960.900000 0 0 1
-20.406524 -20.115657 31.810308 42.813101 0.778220 0.733249 0.063655 -0.025348 1540260.000000 0 0 1
-21.877024 -20.578357 31.351908 43.416761 0.754819 0.763941 0.072272 -0.020105 1729050.000000 0 0 1
-22.604724 -21.331257 32.343408 44.856350 0.756422 0.765488 0.059910 -0.020492 204016.000000 0 0 1
-23.766524 -22.011457 31.891908 45.458175 0.747078 0.793204 0.059792 -0.007485 97547.300000 0 0 1
-23.593024 -23.227057 30.906208 45.291508 0.777582 0.819777 0.074938 -0.007169 -591503.000000 0 0 1
-23.110924 -24.430957 31.497208 46.076682 0.813157 0.818137 0.069643 -0.001545 -178448.000000 0 0 1
-23.222524 -25.447057 30.553208 46.047116 0.831073 0.845282 0.086979 -0.000787 -203714.000000 0 0 1
-22.739824 -26.763007 31.074008 46.892986 0.866492 0.846434 0.108747 -0.011361 -194104.000000 0 0 1
-23.501324 -27.132557 32.170908 48.202232 0.856991 0.840064 0.086822 -0.011271 -349851.000000 0 0 1
-22.912124 -28.128577 32.910308 48.982350 0.887246 0.834051 0.089171 -0.014701 -206724.000000 0 0 1
-23.980724 -28.805017 -33.535401 50.293412 0.876539 2.300696 0.091456 -0.022148 5855.940000 0 0 1
-24.814724 -29.712467 33.055008 50.904173 0.874980 0.864057 0.078261 -0.023378 1351070.000000 0 0 1
-26.071134 -29.153967 32.591208 50.910163 0.841163 0.876076 0.077951 -0.018810 1034020.000000 0 0 1
-27.072464 -28.669167 -33.686101 51.861285 0.814035 2.277779 0.069049 -0.018296 -826771.000000 0 0 1
-28.187064 -27.984937 33.162008 51.743464 0.781800 0.875136 0.050094 -0.016681 145001.000000 0 0 1
-29.051164 -27.591147 -33.153701 52.003937 0.759628 2.262075 0.042606 -0.009984 -518899.000000 0 0 1
-30.255324 -26.777207 -33.545701 52.513974 0.724489 2.263728 0.036075 -0.013834 -795667.000000 0 0 1
-31.193544 -27.493437 33.061308 53.122278 0.722433 0.899039 0.033323 -0.021235 155096.000000 0 0 1
-32.323074 -26.631367 32.838508 53.220094 0.689152 0.905831 0.046015 -0.024829 419045.000000 0 0 1
